CONTCAR\(11)                            
   1.00000000000000     
    12.7552003860000003    0.0000000000000000    0.0000000000000000
     0.0000000000000000   11.8367004394999995    0.0000000000000000
     0.0000000000000000    0.0000000000000000   18.9375991821000014
   Cu   Te   O    H 
    24    24     2     1
Direct
  0.0068712820926677  0.1592499617627894  0.4852486275130019
  0.1306754456673360  0.9920780820949773  0.5150627211264123
  0.2493621629975706  0.1587661132577054  0.4831870839213153
  0.3784899140189637  0.9962615224944997  0.5142188858699654
  0.5079770047782972  0.1592128166809204  0.4838937471831173
  0.6275902426222544  0.9914870717806465  0.5148308892392137
  0.7531781580397663  0.1589720889240454  0.4851933899444418
  0.8800290688303960  0.9925195704510514  0.5143465284408251
  0.0044146700137233  0.4930441073280178  0.4864996263879746
  0.1319027186005286  0.3272563326001006  0.5147920159811861
  0.2581470094248246  0.4922323784642586  0.4876661570731429
  0.3774626422625502  0.3229523994545218  0.5100327817431918
  0.4973739145994003  0.4925207835301819  0.4901949371773782
  0.6300527201300739  0.3271879474069408  0.5138223708713312
  0.7563789111521899  0.4929178119351718  0.4861603155930112
  0.8802191877885761  0.3252499909098745  0.5146260058604000
  0.0063715372598665  0.8255849679642253  0.4868951364880871
  0.1324377308169034  0.6590527629102283  0.5162766842206850
  0.2569426395536141  0.8271936412334995  0.4872765930967020
  0.3747335817131159  0.6585263948197664  0.5218358667275993
  0.4998683966931736  0.8258053007795283  0.4876586411700146
  0.6263002620280886  0.6581116045768880  0.5160004882834528
  0.7528114589288535  0.8256254798640157  0.4873141282813833
  0.8801650067031090  0.6598842154961844  0.5152228881772558
  0.0035948140706523  0.9913453278757061  0.3971416390020224
  0.1283231289561471  0.1595936479386708  0.6033831285740874
  0.2541558624996796  0.9910026570574004  0.3962012788142673
  0.3785957811258243  0.1654862624365308  0.6016625783919380
  0.5033829014916194  0.9912665235584655  0.3968764558357591
  0.6298023048458106  0.1595841392529351  0.6025921185961920
  0.7549981443040608  0.9911740971092016  0.3974359417284035
  0.8795739866537176  0.1589617467432234  0.6029128985206142
  0.0036448353007188  0.3266471151963302  0.3970505097355854
  0.1290710883303561  0.4917757783832784  0.6043394808381066
  0.2526290111277518  0.3283478191020066  0.3958972443494417
  0.3819839321657099  0.4890456036883037  0.6105325906750423
  0.5053178459558794  0.3292981178523320  0.3974104051637610
  0.6329393543661084  0.4905435809379526  0.6036154431539202
  0.7563133996973761  0.3265935985854114  0.3967482599236121
  0.8806313499091303  0.4921696972174061  0.6038719927098555
  0.0047820098128568  0.6595790625219351  0.3979102068644522
  0.1286880167829167  0.8268554681318960  0.6044796359255997
  0.2549149267749797  0.6590986172264337  0.3993513009797809
  0.3788998532383303  0.8303701254229452  0.6060425032102970
  0.5034209012584157  0.6576416664436024  0.4000658321238078
  0.6284737580398030  0.8258379317403950  0.6039249502666593
  0.7541642684812899  0.6599813335016620  0.3981420029470613
  0.8789552464106194  0.8263585313044217  0.6038151323930379
  0.4912155959751061  0.6088793976548885  0.7441294833924985
  0.4332372319815079  0.6397149979141616  0.6809398274288228
  0.4351446757277913  0.6047837364824886  0.7794812570842566
 
  0.00000000E+00  0.00000000E+00  0.00000000E+00
  0.00000000E+00  0.00000000E+00  0.00000000E+00
  0.00000000E+00  0.00000000E+00  0.00000000E+00
  0.00000000E+00  0.00000000E+00  0.00000000E+00
  0.00000000E+00  0.00000000E+00  0.00000000E+00
  0.00000000E+00  0.00000000E+00  0.00000000E+00
  0.00000000E+00  0.00000000E+00  0.00000000E+00
  0.00000000E+00  0.00000000E+00  0.00000000E+00
  0.00000000E+00  0.00000000E+00  0.00000000E+00
  0.00000000E+00  0.00000000E+00  0.00000000E+00
  0.00000000E+00  0.00000000E+00  0.00000000E+00
  0.00000000E+00  0.00000000E+00  0.00000000E+00
  0.00000000E+00  0.00000000E+00  0.00000000E+00
  0.00000000E+00  0.00000000E+00  0.00000000E+00
  0.00000000E+00  0.00000000E+00  0.00000000E+00
  0.00000000E+00  0.00000000E+00  0.00000000E+00
  0.00000000E+00  0.00000000E+00  0.00000000E+00
  0.00000000E+00  0.00000000E+00  0.00000000E+00
  0.00000000E+00  0.00000000E+00  0.00000000E+00
  0.00000000E+00  0.00000000E+00  0.00000000E+00
  0.00000000E+00  0.00000000E+00  0.00000000E+00
  0.00000000E+00  0.00000000E+00  0.00000000E+00
  0.00000000E+00  0.00000000E+00  0.00000000E+00
  0.00000000E+00  0.00000000E+00  0.00000000E+00
  0.00000000E+00  0.00000000E+00  0.00000000E+00
  0.00000000E+00  0.00000000E+00  0.00000000E+00
  0.00000000E+00  0.00000000E+00  0.00000000E+00
  0.00000000E+00  0.00000000E+00  0.00000000E+00
  0.00000000E+00  0.00000000E+00  0.00000000E+00
  0.00000000E+00  0.00000000E+00  0.00000000E+00
  0.00000000E+00  0.00000000E+00  0.00000000E+00
  0.00000000E+00  0.00000000E+00  0.00000000E+00
  0.00000000E+00  0.00000000E+00  0.00000000E+00
  0.00000000E+00  0.00000000E+00  0.00000000E+00
  0.00000000E+00  0.00000000E+00  0.00000000E+00
  0.00000000E+00  0.00000000E+00  0.00000000E+00
  0.00000000E+00  0.00000000E+00  0.00000000E+00
  0.00000000E+00  0.00000000E+00  0.00000000E+00
  0.00000000E+00  0.00000000E+00  0.00000000E+00
  0.00000000E+00  0.00000000E+00  0.00000000E+00
  0.00000000E+00  0.00000000E+00  0.00000000E+00
  0.00000000E+00  0.00000000E+00  0.00000000E+00
  0.00000000E+00  0.00000000E+00  0.00000000E+00
  0.00000000E+00  0.00000000E+00  0.00000000E+00
  0.00000000E+00  0.00000000E+00  0.00000000E+00
  0.00000000E+00  0.00000000E+00  0.00000000E+00
  0.00000000E+00  0.00000000E+00  0.00000000E+00
  0.00000000E+00  0.00000000E+00  0.00000000E+00
  0.00000000E+00  0.00000000E+00  0.00000000E+00
  0.00000000E+00  0.00000000E+00  0.00000000E+00
  0.00000000E+00  0.00000000E+00  0.00000000E+00
