CONTCAR\(4)                             
   1.00000000000000     
    13.2530002594000003    0.0000000000000000    0.0000000000000000
    -6.6264500618000000   11.4773481809000000    0.0000000000000000
     0.0000000000000000    0.0000000000000000   18.1800994873000015
   V    Se   H 
    16    32     1
Selective dynamics
Direct
  0.0000598930493325  0.9999573606848671  0.5013901505023384   F   F   F
  0.2490077361725369  0.9997301812909569  0.5011833079704147   F   F   F
  0.5053995673717111  0.0108300467063387  0.5009428886946239   F   F   F
  0.7558570146309478  0.0108012885949194  0.5009954208164231   F   F   F
  0.9893864169688555  0.2443598310336412  0.5010406720166003   F   F   F
  0.2490821812216168  0.2477977734476013  0.5005513341740127   F   F   F
  0.5048875891396207  0.2442533339311055  0.5009702956969022   F   F   F
  0.7500044734310620  0.2502001887533609  0.5003003277768840   F   F   F
  0.9892919046468194  0.4947570467793057  0.5009522191851872   F   F   F
  0.2165792614931377  0.4830826762257843  0.5028794643699541   F   F   F
  0.5169909834426889  0.4831663593256366  0.5029077435312246   F   F   F
  0.7558743183369714  0.4952495356232518  0.5009779461280743   F   F   F
  0.0003275965793819  0.7510104219085605  0.5011696475992267   F   F   F
  0.2489987779157232  0.7509685352994069  0.5002146367589546   F   F   F
  0.5170838240087789  0.7835935550382729  0.5028083572436088   F   F   F
  0.7523469366308930  0.7509686710754409  0.5004896149701352   F   F   F
  0.1661973900343909  0.0824498446122277  0.5892924068408689   F   F   F
  0.0825040642837038  0.1660600887328627  0.4145817930234017   F   F   F
  0.4172873647627426  0.0834917262049046  0.5901398784046705   F   F   F
  0.3334053448699308  0.1658088715917785  0.4144391018471438   F   F   F
  0.6685989745841567  0.0872728727251157  0.5898477536334923   F   F   F
  0.5838132441470236  0.1669354819014401  0.4094101416159432   F   F   F
  0.9163407810138793  0.0837505537604031  0.5904702505246888   F   F   F
  0.8331980554026472  0.1670251665741631  0.4095041088734348   F   F   F
  0.1602849141829736  0.3281900000746631  0.5899369881607655   F   F   F
  0.0740346085929176  0.4119516124592906  0.4094388966971110   F   F   F
  0.4179993405048208  0.3281424192307227  0.5899429504534481   F   F   F
  0.3347047475689280  0.4191569951582395  0.4214008659603934   F   F   F
  0.6686025387699459  0.3315153757504419  0.5897745713704268   F   F   F
  0.5880769223046443  0.4119935575256974  0.4094408956847957   F   F   F
  0.9128608853429085  0.3315513749722214  0.5898791552855158   F   F   F
  0.8331932271209368  0.4163044261433839  0.4094043632778792   F   F   F
  0.1604151212888567  0.5821691047972593  0.5897737329068988   F   F   F
  0.0824094617893749  0.6665860937515120  0.4144637574419150   F   F   F
  0.4168760714943573  0.5833314799460609  0.5647361877847175   F   F   F
  0.3346607834642441  0.6653878256990424  0.4212696489688952   F   F   F
  0.6720555177190874  0.5821878860651637  0.5899310475626578   F   F   F
  0.5809596331555724  0.6654063700726240  0.4213646345957258   F   F   F
  0.9166160740759040  0.5828170229928489  0.5901645963944588   F   F   F
  0.8342803290557725  0.6667037946726850  0.4143705404758080   F   F   F
  0.1663604017945630  0.8337369772534657  0.5890084345909941   F   F   F
  0.0831694564850665  0.9169123405156725  0.4135889437243563   F   F   F
  0.4179166875696865  0.8396985288834173  0.5896798985691021   F   F   F
  0.3334760613443066  0.9176348388882687  0.4145074225884144   F   F   F
  0.6719424412502022  0.8398544629482387  0.5898442951968406   F   F   F
  0.5881857434303939  0.9261473538633354  0.4093928790349537   F   F   F
  0.9176163947554841  0.8338767099528184  0.5892877611346634   F   F   F
  0.8340933095533671  0.9176158111446071  0.4145266537539953   F   F   F
  0.4167959492471240  0.5835264524169688  0.6462263151939335   T   T   T
 
  0.00000000E+00  0.00000000E+00  0.00000000E+00
  0.00000000E+00  0.00000000E+00  0.00000000E+00
  0.00000000E+00  0.00000000E+00  0.00000000E+00
  0.00000000E+00  0.00000000E+00  0.00000000E+00
  0.00000000E+00  0.00000000E+00  0.00000000E+00
  0.00000000E+00  0.00000000E+00  0.00000000E+00
  0.00000000E+00  0.00000000E+00  0.00000000E+00
  0.00000000E+00  0.00000000E+00  0.00000000E+00
  0.00000000E+00  0.00000000E+00  0.00000000E+00
  0.00000000E+00  0.00000000E+00  0.00000000E+00
  0.00000000E+00  0.00000000E+00  0.00000000E+00
  0.00000000E+00  0.00000000E+00  0.00000000E+00
  0.00000000E+00  0.00000000E+00  0.00000000E+00
  0.00000000E+00  0.00000000E+00  0.00000000E+00
  0.00000000E+00  0.00000000E+00  0.00000000E+00
  0.00000000E+00  0.00000000E+00  0.00000000E+00
  0.00000000E+00  0.00000000E+00  0.00000000E+00
  0.00000000E+00  0.00000000E+00  0.00000000E+00
  0.00000000E+00  0.00000000E+00  0.00000000E+00
  0.00000000E+00  0.00000000E+00  0.00000000E+00
  0.00000000E+00  0.00000000E+00  0.00000000E+00
  0.00000000E+00  0.00000000E+00  0.00000000E+00
  0.00000000E+00  0.00000000E+00  0.00000000E+00
  0.00000000E+00  0.00000000E+00  0.00000000E+00
  0.00000000E+00  0.00000000E+00  0.00000000E+00
  0.00000000E+00  0.00000000E+00  0.00000000E+00
  0.00000000E+00  0.00000000E+00  0.00000000E+00
  0.00000000E+00  0.00000000E+00  0.00000000E+00
  0.00000000E+00  0.00000000E+00  0.00000000E+00
  0.00000000E+00  0.00000000E+00  0.00000000E+00
  0.00000000E+00  0.00000000E+00  0.00000000E+00
  0.00000000E+00  0.00000000E+00  0.00000000E+00
  0.00000000E+00  0.00000000E+00  0.00000000E+00
  0.00000000E+00  0.00000000E+00  0.00000000E+00
  0.00000000E+00  0.00000000E+00  0.00000000E+00
  0.00000000E+00  0.00000000E+00  0.00000000E+00
  0.00000000E+00  0.00000000E+00  0.00000000E+00
  0.00000000E+00  0.00000000E+00  0.00000000E+00
  0.00000000E+00  0.00000000E+00  0.00000000E+00
  0.00000000E+00  0.00000000E+00  0.00000000E+00
  0.00000000E+00  0.00000000E+00  0.00000000E+00
  0.00000000E+00  0.00000000E+00  0.00000000E+00
  0.00000000E+00  0.00000000E+00  0.00000000E+00
  0.00000000E+00  0.00000000E+00  0.00000000E+00
  0.00000000E+00  0.00000000E+00  0.00000000E+00
  0.00000000E+00  0.00000000E+00  0.00000000E+00
  0.00000000E+00  0.00000000E+00  0.00000000E+00
  0.00000000E+00  0.00000000E+00  0.00000000E+00
  0.00000000E+00  0.00000000E+00  0.00000000E+00
