CONTCAR\(10)                            
   1.00000000000000     
    12.1099004744999998    0.0000000000000000    0.0000000000000000
     6.0457150728000002   10.8693710211999992    0.0000000000000000
     0.0000000000000000    0.0000000000000000   18.1751995087000005
   Zr   Cl   O 
     8    24     1
Direct
  0.1382878293966444  0.1781566700604516  0.5029429046848531
  0.3449828822003806  0.3314998031193910  0.5023912001405052
  0.6422461936491927  0.1808521554234837  0.5052944420139298
  0.8531704475258293  0.3270047787163270  0.5001031133228853
  0.1363125968061922  0.6824524706020501  0.4999257268270071
  0.3523138814460339  0.8245263737157290  0.5002150865353893
  0.6388847742394274  0.6782574161520331  0.5023659990896883
  0.8507345934952486  0.8272403139914377  0.5012563844421344
  0.1617591711839244  0.5062576962997762  0.5785405504219744
  0.4926132487980246  0.1718598844123455  0.4136630439064627
  0.3204547623035308  0.1804323519334152  0.5814993760454594
  0.1674459382457768  0.3243756092488224  0.4208946234953240
  0.9986113904732232  0.3350028100069662  0.5945562167851588
  0.3218726692268375  0.0020182855694767  0.4223929311414830
  0.6701282956299527  0.5019414164034683  0.5802667008218956
  0.9925992448213699  0.1679546982929064  0.4093364293878506
  0.8254175223216054  0.1785795994644941  0.5815768927624250
  0.6697419031611404  0.3263738939012719  0.4220233719097433
  0.4946666906412362  0.3339055982403064  0.5866093592801538
  0.8205186937675847  0.0040563601661018  0.4224358726596942
  0.1695609592071203  0.0009497348323497  0.5808135230934215
  0.4935391652545214  0.6686751853896319  0.4083901757264494
  0.3226769708109460  0.6764872247638820  0.5783670180228858
  0.1674624624166778  0.8278430667516837  0.4199319305418687
  0.9985238161012564  0.8368832492919306  0.5932947202198585
  0.3164535529795939  0.5038626460259158  0.4198258104948024
  0.6704033028814657  0.0039056364664687  0.5825826210370955
  0.9886839325311709  0.6736254333401969  0.4074472206320857
  0.8223486891248735  0.6795351867197368  0.5810851061300757
  0.6659085325684272  0.8280828377553566  0.4232039491572668
  0.4976819092344227  0.8346443197461298  0.5937250774472468
  0.8233591216002040  0.5031487389784659  0.4217343733316831
  0.4950441799561733  0.3998190512179804  0.6599683064912373
 
  0.00000000E+00  0.00000000E+00  0.00000000E+00
  0.00000000E+00  0.00000000E+00  0.00000000E+00
  0.00000000E+00  0.00000000E+00  0.00000000E+00
  0.00000000E+00  0.00000000E+00  0.00000000E+00
  0.00000000E+00  0.00000000E+00  0.00000000E+00
  0.00000000E+00  0.00000000E+00  0.00000000E+00
  0.00000000E+00  0.00000000E+00  0.00000000E+00
  0.00000000E+00  0.00000000E+00  0.00000000E+00
  0.00000000E+00  0.00000000E+00  0.00000000E+00
  0.00000000E+00  0.00000000E+00  0.00000000E+00
  0.00000000E+00  0.00000000E+00  0.00000000E+00
  0.00000000E+00  0.00000000E+00  0.00000000E+00
  0.00000000E+00  0.00000000E+00  0.00000000E+00
  0.00000000E+00  0.00000000E+00  0.00000000E+00
  0.00000000E+00  0.00000000E+00  0.00000000E+00
  0.00000000E+00  0.00000000E+00  0.00000000E+00
  0.00000000E+00  0.00000000E+00  0.00000000E+00
  0.00000000E+00  0.00000000E+00  0.00000000E+00
  0.00000000E+00  0.00000000E+00  0.00000000E+00
  0.00000000E+00  0.00000000E+00  0.00000000E+00
  0.00000000E+00  0.00000000E+00  0.00000000E+00
  0.00000000E+00  0.00000000E+00  0.00000000E+00
  0.00000000E+00  0.00000000E+00  0.00000000E+00
  0.00000000E+00  0.00000000E+00  0.00000000E+00
  0.00000000E+00  0.00000000E+00  0.00000000E+00
  0.00000000E+00  0.00000000E+00  0.00000000E+00
  0.00000000E+00  0.00000000E+00  0.00000000E+00
  0.00000000E+00  0.00000000E+00  0.00000000E+00
  0.00000000E+00  0.00000000E+00  0.00000000E+00
  0.00000000E+00  0.00000000E+00  0.00000000E+00
  0.00000000E+00  0.00000000E+00  0.00000000E+00
  0.00000000E+00  0.00000000E+00  0.00000000E+00
  0.00000000E+00  0.00000000E+00  0.00000000E+00
