CONTCAR\(2)                             
   1.00000000000000     
    21.4713001251000009    0.0000000000000000    0.0000000000000000
    10.7356067371999995   19.1142855119999986    0.0000000000000000
     0.0000000000000000    0.0000000000000000   19.1464004516999999
   Ta   Te   O 
    36    72     1
Direct
  0.3999400107966053  0.3555116868936850  0.4993312287870140
  0.2632032116154761  0.1399998045607376  0.4977652449390177
  0.0990334269566517  0.1414382562877492  0.4980009162056689
  0.2413788863317521  0.3545453277784958  0.5001068431283429
  0.4318478752713091  0.1416862992519583  0.4956553633940928
  0.0768208032346465  0.3535379214190328  0.5024407808966629
  0.0997113881061580  0.9968539663918463  0.4996102723008775
  0.4027480995726833  0.9960004203188575  0.5012542715726909
  0.2537551653049377  0.9955213472040825  0.5006469375216369
  0.9083569039289330  0.3542433735372512  0.5019794466575647
  0.7563596806125119  0.1453341662883503  0.4991975735723386
  0.5962931531958944  0.1492827386659172  0.4988323047994854
  0.7391221180115721  0.3542517426492182  0.5023567468928007
  0.9248928126272347  0.1459674719775990  0.4971688399659300
  0.5645302499259586  0.3387292616004700  0.4993019967733119
  0.5984739429291821  0.0009982055932198  0.5010203691951531
  0.8996930315403517  0.0018516739572547  0.5000293842371022
  0.7499939622197473  0.0028913757814237  0.5000578699442144
  0.4022390089769701  0.8525553079210084  0.5028958968052635
  0.2548839052036129  0.6426679384374125  0.4984568130382172
  0.0963114506462261  0.6425094231102548  0.4979615431171212
  0.2468299693204585  0.8469239072515649  0.5022092742787478
  0.3954878419207901  0.6622477838229273  0.4993517263684666
  0.0743126171529624  0.8552034917992231  0.5030106708789432
  0.0986968150869458  0.4983014705172053  0.4999344182357319
  0.4009109865646039  0.5009970722029564  0.4989508222243089
  0.2497999790555738  0.4992492678206162  0.4986296881209356
  0.9050282367815257  0.8569399322536810  0.5016138643234456
  0.7671576822343269  0.6444983617628637  0.5067427356344467
  0.6010362476529849  0.6465669999420101  0.5180990043992892
  0.7422092035021421  0.8566830440597286  0.5034877506188806
  0.9307692650249777  0.6435959554278128  0.4997670004186787
  0.5718522849912731  0.8515482952255198  0.5060582969893872
  0.5591301711096435  0.5047096400706863  0.5027858286584248
  0.9023244197954412  0.4993707550455113  0.5040977747190425
  0.7713347773485566  0.4991324423902412  0.5088020263778290
  0.4685648586548155  0.2240200540147299  0.5793467989639041
  0.1980874633349430  0.2724515804712624  0.4190946784634448
  0.0319707073257689  0.2737909213213641  0.4204025212657925
  0.3057799779618833  0.2217982740577042  0.5776626146407438
  0.3614259124356565  0.2725508631355709  0.4152237128008451
  0.1405903647863482  0.2218568036938393  0.5800903065723659
  0.3548817450858692  0.4464420802217788  0.3906222184498631
  0.3049989708104235  0.0513783671976071  0.6086898213389276
  0.1442831550662476  0.0510790296638675  0.6070337951432734
  0.1985572407776743  0.1038164291385471  0.3935606471843371
  0.3031307338702405  0.3909815853950462  0.6058896458375429
  0.3647124625367653  0.1023917613084322  0.3948459111963203
  0.4643778854790810  0.3922950071561004  0.6033885785021980
  0.1413534716064788  0.3909694813186491  0.6052205361391572
  0.0311034038244173  0.1062070860957789  0.3965264060567506
  0.0230494604653799  0.4524123266222517  0.4051361775839339
  0.4766571993395416  0.0459135474901515  0.5959616428745207
  0.1950837955410236  0.4451776541830128  0.3909458835333055
  0.9736425463472145  0.2221715207117043  0.5802509270433234
  0.6938936641490514  0.2764002549046367  0.4193387298912086
  0.5208360030582497  0.2747013261381213  0.4075009579930011
  0.8041082526531582  0.2227982118938101  0.5825594918930932
  0.8625030427243630  0.2770365592837720  0.4187614001233086
  0.6384582070371607  0.2229783278790336  0.5907405604302838
  0.8606941144208733  0.4452162287545391  0.3918143358404933
  0.8033666220427591  0.0553066474901840  0.6090618911790884
  0.6407771625842216  0.0569605542194083  0.6070257185473551
  0.6952682407434025  0.1092098657819776  0.3926017779632573
  0.8096818008124060  0.3841240433755360  0.6065265571874221
  0.8593930626895201  0.1087025068022811  0.3952776301833225
  0.9754969422572302  0.3883052991124814  0.6060385226586646
  0.6302730155091183  0.3941473635970496  0.5975977051933015
  0.5346658559955557  0.1049411910838600  0.3950211079367349
  0.5195908162434577  0.4459249935823024  0.3991795016620046
  0.9758964222113704  0.0478935946199428  0.5949865095016236
  0.6866374234359682  0.4578919184680075  0.4114217882849047
  0.4675625945024393  0.7220009344662728  0.5831014862284931
  0.1925990584268646  0.7742784265151244  0.4189153825933047
  0.0278272115932126  0.7756598697174653  0.4201118245339899
  0.2917048293863473  0.7246922471809683  0.5953114298906002
  0.3607523846410174  0.7773934646719951  0.4089225758010500
  0.1338649337615578  0.7247643371399874  0.5837893399793046
  0.3606017932639389  0.9416154934627272  0.3924033144103021
  0.3004799215146789  0.5518903463933142  0.6075178928724512
  0.1420019642242991  0.5525925462779000  0.6077258696343719
  0.1938776261857242  0.6069467883123991  0.3914847389045306
  0.3040644411611879  0.8890949105614396  0.6082543678578816
  0.3558950247935613  0.6063453337020874  0.3925319804272789
  0.4682508603476307  0.8900529552331733  0.6071423663271673
  0.1385894729275279  0.8933685368275022  0.6044196064573839
  0.0308149139261147  0.6060229016658880  0.3949474063855689
  0.0226660860955334  0.9529675698090543  0.4044477729991840
  0.4576537927763695  0.5587687468184654  0.6023225681166053
  0.1982240888442206  0.9413275344305418  0.3945617622136766
  0.9725558807670112  0.7249143037467363  0.5815788149570267
  0.6975323114407814  0.7737548608580127  0.4249969439199290
  0.5313282311056327  0.7707194160758846  0.4248918842669340
  0.8089053625697886  0.7270415418900171  0.5851230992938525
  0.8630504092960010  0.7748723789861458  0.4205306747309123
  0.6440654371295409  0.7271481081945126  0.5943008835206953
  0.8571945168960937  0.9469962647535795  0.3919402253835429
  0.8161541762927556  0.5596171170035689  0.6256581018725669
  0.6853634014974261  0.5532614571619376  0.6281135577355386
  0.6955079584389381  0.6086795671095189  0.4071296411849872
  0.8044679169515092  0.8943658568365791  0.6068416802481238
  0.8623945624162772  0.6072953177292462  0.3984521653365221
  0.9685086994819372  0.8945930171749978  0.6047557374610548
  0.6384947581785312  0.8936794240960353  0.6052661341357037
  0.5179797057230004  0.6182345257234658  0.4090407466171868
  0.5259483892278851  0.9492126253735762  0.4075324568533745
  0.9792774291700965  0.5459960080028736  0.5994452526413738
  0.6969121564114857  0.9462233077250986  0.3936230113647667
  0.5948260862648382  0.5632155079691117  0.5429989667920410
 
  0.00000000E+00  0.00000000E+00  0.00000000E+00
  0.00000000E+00  0.00000000E+00  0.00000000E+00
  0.00000000E+00  0.00000000E+00  0.00000000E+00
  0.00000000E+00  0.00000000E+00  0.00000000E+00
  0.00000000E+00  0.00000000E+00  0.00000000E+00
  0.00000000E+00  0.00000000E+00  0.00000000E+00
  0.00000000E+00  0.00000000E+00  0.00000000E+00
  0.00000000E+00  0.00000000E+00  0.00000000E+00
  0.00000000E+00  0.00000000E+00  0.00000000E+00
  0.00000000E+00  0.00000000E+00  0.00000000E+00
  0.00000000E+00  0.00000000E+00  0.00000000E+00
  0.00000000E+00  0.00000000E+00  0.00000000E+00
  0.00000000E+00  0.00000000E+00  0.00000000E+00
  0.00000000E+00  0.00000000E+00  0.00000000E+00
  0.00000000E+00  0.00000000E+00  0.00000000E+00
  0.00000000E+00  0.00000000E+00  0.00000000E+00
  0.00000000E+00  0.00000000E+00  0.00000000E+00
  0.00000000E+00  0.00000000E+00  0.00000000E+00
  0.00000000E+00  0.00000000E+00  0.00000000E+00
  0.00000000E+00  0.00000000E+00  0.00000000E+00
  0.00000000E+00  0.00000000E+00  0.00000000E+00
  0.00000000E+00  0.00000000E+00  0.00000000E+00
  0.00000000E+00  0.00000000E+00  0.00000000E+00
  0.00000000E+00  0.00000000E+00  0.00000000E+00
  0.00000000E+00  0.00000000E+00  0.00000000E+00
  0.00000000E+00  0.00000000E+00  0.00000000E+00
  0.00000000E+00  0.00000000E+00  0.00000000E+00
  0.00000000E+00  0.00000000E+00  0.00000000E+00
  0.00000000E+00  0.00000000E+00  0.00000000E+00
  0.00000000E+00  0.00000000E+00  0.00000000E+00
  0.00000000E+00  0.00000000E+00  0.00000000E+00
  0.00000000E+00  0.00000000E+00  0.00000000E+00
  0.00000000E+00  0.00000000E+00  0.00000000E+00
  0.00000000E+00  0.00000000E+00  0.00000000E+00
  0.00000000E+00  0.00000000E+00  0.00000000E+00
  0.00000000E+00  0.00000000E+00  0.00000000E+00
  0.00000000E+00  0.00000000E+00  0.00000000E+00
  0.00000000E+00  0.00000000E+00  0.00000000E+00
  0.00000000E+00  0.00000000E+00  0.00000000E+00
  0.00000000E+00  0.00000000E+00  0.00000000E+00
  0.00000000E+00  0.00000000E+00  0.00000000E+00
  0.00000000E+00  0.00000000E+00  0.00000000E+00
  0.00000000E+00  0.00000000E+00  0.00000000E+00
  0.00000000E+00  0.00000000E+00  0.00000000E+00
  0.00000000E+00  0.00000000E+00  0.00000000E+00
  0.00000000E+00  0.00000000E+00  0.00000000E+00
  0.00000000E+00  0.00000000E+00  0.00000000E+00
  0.00000000E+00  0.00000000E+00  0.00000000E+00
  0.00000000E+00  0.00000000E+00  0.00000000E+00
  0.00000000E+00  0.00000000E+00  0.00000000E+00
  0.00000000E+00  0.00000000E+00  0.00000000E+00
  0.00000000E+00  0.00000000E+00  0.00000000E+00
  0.00000000E+00  0.00000000E+00  0.00000000E+00
  0.00000000E+00  0.00000000E+00  0.00000000E+00
  0.00000000E+00  0.00000000E+00  0.00000000E+00
  0.00000000E+00  0.00000000E+00  0.00000000E+00
  0.00000000E+00  0.00000000E+00  0.00000000E+00
  0.00000000E+00  0.00000000E+00  0.00000000E+00
  0.00000000E+00  0.00000000E+00  0.00000000E+00
  0.00000000E+00  0.00000000E+00  0.00000000E+00
  0.00000000E+00  0.00000000E+00  0.00000000E+00
  0.00000000E+00  0.00000000E+00  0.00000000E+00
  0.00000000E+00  0.00000000E+00  0.00000000E+00
  0.00000000E+00  0.00000000E+00  0.00000000E+00
  0.00000000E+00  0.00000000E+00  0.00000000E+00
  0.00000000E+00  0.00000000E+00  0.00000000E+00
  0.00000000E+00  0.00000000E+00  0.00000000E+00
  0.00000000E+00  0.00000000E+00  0.00000000E+00
  0.00000000E+00  0.00000000E+00  0.00000000E+00
  0.00000000E+00  0.00000000E+00  0.00000000E+00
  0.00000000E+00  0.00000000E+00  0.00000000E+00
  0.00000000E+00  0.00000000E+00  0.00000000E+00
  0.00000000E+00  0.00000000E+00  0.00000000E+00
  0.00000000E+00  0.00000000E+00  0.00000000E+00
  0.00000000E+00  0.00000000E+00  0.00000000E+00
  0.00000000E+00  0.00000000E+00  0.00000000E+00
  0.00000000E+00  0.00000000E+00  0.00000000E+00
  0.00000000E+00  0.00000000E+00  0.00000000E+00
  0.00000000E+00  0.00000000E+00  0.00000000E+00
  0.00000000E+00  0.00000000E+00  0.00000000E+00
  0.00000000E+00  0.00000000E+00  0.00000000E+00
  0.00000000E+00  0.00000000E+00  0.00000000E+00
  0.00000000E+00  0.00000000E+00  0.00000000E+00
  0.00000000E+00  0.00000000E+00  0.00000000E+00
  0.00000000E+00  0.00000000E+00  0.00000000E+00
  0.00000000E+00  0.00000000E+00  0.00000000E+00
  0.00000000E+00  0.00000000E+00  0.00000000E+00
  0.00000000E+00  0.00000000E+00  0.00000000E+00
  0.00000000E+00  0.00000000E+00  0.00000000E+00
  0.00000000E+00  0.00000000E+00  0.00000000E+00
  0.00000000E+00  0.00000000E+00  0.00000000E+00
  0.00000000E+00  0.00000000E+00  0.00000000E+00
  0.00000000E+00  0.00000000E+00  0.00000000E+00
  0.00000000E+00  0.00000000E+00  0.00000000E+00
  0.00000000E+00  0.00000000E+00  0.00000000E+00
  0.00000000E+00  0.00000000E+00  0.00000000E+00
  0.00000000E+00  0.00000000E+00  0.00000000E+00
  0.00000000E+00  0.00000000E+00  0.00000000E+00
  0.00000000E+00  0.00000000E+00  0.00000000E+00
  0.00000000E+00  0.00000000E+00  0.00000000E+00
  0.00000000E+00  0.00000000E+00  0.00000000E+00
  0.00000000E+00  0.00000000E+00  0.00000000E+00
  0.00000000E+00  0.00000000E+00  0.00000000E+00
  0.00000000E+00  0.00000000E+00  0.00000000E+00
  0.00000000E+00  0.00000000E+00  0.00000000E+00
  0.00000000E+00  0.00000000E+00  0.00000000E+00
  0.00000000E+00  0.00000000E+00  0.00000000E+00
  0.00000000E+00  0.00000000E+00  0.00000000E+00
  0.00000000E+00  0.00000000E+00  0.00000000E+00
