CONTCAR                                 
   1.00000000000000     
    11.9372997283999993    0.0000000000000000    0.0000000000000000
    -5.9686498641999997   10.3380048173999999    0.0000000000000000
     0.0000000000000000    0.0000000000000000   21.4568004608000003
   In   Se   O    H 
    18    27     2     1
Direct
  0.2267256367147894  0.1132603355974027  0.4125720841347018
  0.1122747012850382  0.2281827399831826  0.5914629148900090
  0.5604498129864837  0.1242094465099086  0.4048340018878918
  0.4488458697703592  0.2262190298604665  0.5889393670643699
  0.9014706358451079  0.1246717783293505  0.4053986442020303
  0.7797360104436777  0.2215456350296350  0.5898549166714986
  0.2267092482004713  0.4544209233992973  0.4042803995936382
  0.1150627227544732  0.5626244116556691  0.5911021244229815
  0.5558507570893880  0.4475730908162987  0.4105252368315107
  0.4398096359212431  0.5434469326271767  0.5808697770245175
  0.8912680776553898  0.4505378802226758  0.4084646288052554
  0.7833881214618046  0.5626675762089874  0.5918432833562832
  0.2159720051531906  0.7748159313317942  0.4154506583507214
  0.1194314794875524  0.9010521304536283  0.5930839049901451
  0.5505759560762868  0.7788256879630282  0.4180834725943114
  0.4376183288188145  0.9077062857339371  0.5940684871665667
  0.8853771143640685  0.7764133139727392  0.4146781112921119
  0.8087555015484469  0.9070945859609694  0.5931599214028793
  0.9958897798942914  0.9712729396458570  0.5040066686988354
  0.2272937836748881  0.1204486455048155  0.6554230549475974
  0.1231309312610023  0.2297325991265140  0.3456872236267330
  0.3162885081359406  0.9723838426343647  0.5042458605570701
  0.5600625049738355  0.1198780284252194  0.6587438122395923
  0.4448714181960369  0.2293009260137779  0.3445877174661121
  0.6387872568288913  0.9391825065158628  0.5186291313689466
  0.8918424033929711  0.1167430111284986  0.6597121587166441
  0.7843889465294183  0.2300537451199247  0.3443427514541284
  0.9807460474872940  0.2877329485764051  0.5011291353580063
  0.2252958084194034  0.4495216825956803  0.6526739157569423
  0.1122192380152214  0.5617458943838827  0.3434249157520171
  0.3312925046650648  0.3105938007713149  0.5008726610385494
  0.5575645759772954  0.4472661207633308  0.6530181094091674
  0.4548794843621238  0.5681753999177772  0.3471007121366654
  0.6533878898037386  0.2895830750258455  0.5000903196413091
  0.8888312435215013  0.4429531608523973  0.6522970912025272
  0.7789193162180865  0.5590511320401248  0.3463227428035509
  0.9908290475771793  0.6302356235165050  0.5007253648346364
  0.2201384466561223  0.7784717585859369  0.6573676168224054
  0.1093704837098741  0.8899300466657607  0.3511726260127546
  0.3140144470052704  0.6298523728810608  0.4975086846090662
  0.5547266304655381  0.7743171576810326  0.6442050981973395
  0.4454505156533557  0.8940313046828550  0.3546250984926331
  0.6657875444232459  0.6329512501269718  0.5003000001551854
  0.8957606430632552  0.7784763273278656  0.6577415562200244
  0.7759216388922638  0.8946994620468516  0.3556512069425892
  0.6157056338316522  0.6957684652294418  0.7545038885929856
  0.5073518816328928  0.6967396710708229  0.7252665582820299
  0.6020500911557178  0.6103096894871243  0.7411524499824935
 
  0.00000000E+00  0.00000000E+00  0.00000000E+00
  0.00000000E+00  0.00000000E+00  0.00000000E+00
  0.00000000E+00  0.00000000E+00  0.00000000E+00
  0.00000000E+00  0.00000000E+00  0.00000000E+00
  0.00000000E+00  0.00000000E+00  0.00000000E+00
  0.00000000E+00  0.00000000E+00  0.00000000E+00
  0.00000000E+00  0.00000000E+00  0.00000000E+00
  0.00000000E+00  0.00000000E+00  0.00000000E+00
  0.00000000E+00  0.00000000E+00  0.00000000E+00
  0.00000000E+00  0.00000000E+00  0.00000000E+00
  0.00000000E+00  0.00000000E+00  0.00000000E+00
  0.00000000E+00  0.00000000E+00  0.00000000E+00
  0.00000000E+00  0.00000000E+00  0.00000000E+00
  0.00000000E+00  0.00000000E+00  0.00000000E+00
  0.00000000E+00  0.00000000E+00  0.00000000E+00
  0.00000000E+00  0.00000000E+00  0.00000000E+00
  0.00000000E+00  0.00000000E+00  0.00000000E+00
  0.00000000E+00  0.00000000E+00  0.00000000E+00
  0.00000000E+00  0.00000000E+00  0.00000000E+00
  0.00000000E+00  0.00000000E+00  0.00000000E+00
  0.00000000E+00  0.00000000E+00  0.00000000E+00
  0.00000000E+00  0.00000000E+00  0.00000000E+00
  0.00000000E+00  0.00000000E+00  0.00000000E+00
  0.00000000E+00  0.00000000E+00  0.00000000E+00
  0.00000000E+00  0.00000000E+00  0.00000000E+00
  0.00000000E+00  0.00000000E+00  0.00000000E+00
  0.00000000E+00  0.00000000E+00  0.00000000E+00
  0.00000000E+00  0.00000000E+00  0.00000000E+00
  0.00000000E+00  0.00000000E+00  0.00000000E+00
  0.00000000E+00  0.00000000E+00  0.00000000E+00
  0.00000000E+00  0.00000000E+00  0.00000000E+00
  0.00000000E+00  0.00000000E+00  0.00000000E+00
  0.00000000E+00  0.00000000E+00  0.00000000E+00
  0.00000000E+00  0.00000000E+00  0.00000000E+00
  0.00000000E+00  0.00000000E+00  0.00000000E+00
  0.00000000E+00  0.00000000E+00  0.00000000E+00
  0.00000000E+00  0.00000000E+00  0.00000000E+00
  0.00000000E+00  0.00000000E+00  0.00000000E+00
  0.00000000E+00  0.00000000E+00  0.00000000E+00
  0.00000000E+00  0.00000000E+00  0.00000000E+00
  0.00000000E+00  0.00000000E+00  0.00000000E+00
  0.00000000E+00  0.00000000E+00  0.00000000E+00
  0.00000000E+00  0.00000000E+00  0.00000000E+00
  0.00000000E+00  0.00000000E+00  0.00000000E+00
  0.00000000E+00  0.00000000E+00  0.00000000E+00
  0.00000000E+00  0.00000000E+00  0.00000000E+00
  0.00000000E+00  0.00000000E+00  0.00000000E+00
  0.00000000E+00  0.00000000E+00  0.00000000E+00
