G   34   20    1    0.005     # Parameters to Generate KPOINTS (Don't Edit This Line)
     342
Reciprocal lattice
    0.000000000000    0.000000000000    0.000000000000       1
    0.029411764706    0.000000000000    0.000000000000       2
    0.058823529412    0.000000000000    0.000000000000       2
    0.088235294118    0.000000000000    0.000000000000       2
    0.117647058824    0.000000000000    0.000000000000       2
    0.147058823529    0.000000000000    0.000000000000       2
    0.176470588235    0.000000000000    0.000000000000       2
    0.205882352941    0.000000000000    0.000000000000       2
    0.235294117647    0.000000000000    0.000000000000       2
    0.264705882353    0.000000000000    0.000000000000       2
    0.294117647059    0.000000000000    0.000000000000       2
    0.323529411765    0.000000000000    0.000000000000       2
    0.352941176471    0.000000000000    0.000000000000       2
    0.382352941176    0.000000000000    0.000000000000       2
    0.411764705882    0.000000000000    0.000000000000       2
    0.441176470588    0.000000000000    0.000000000000       2
    0.470588235294    0.000000000000    0.000000000000       2
    0.500000000000    0.000000000000    0.000000000000       1
    0.000000000000    0.050000000000    0.000000000000       2
    0.029411764706    0.050000000000    0.000000000000       2
    0.058823529412    0.050000000000    0.000000000000       2
    0.088235294118    0.050000000000    0.000000000000       2
    0.117647058824    0.050000000000    0.000000000000       2
    0.147058823529    0.050000000000    0.000000000000       2
    0.176470588235    0.050000000000    0.000000000000       2
    0.205882352941    0.050000000000    0.000000000000       2
    0.235294117647    0.050000000000    0.000000000000       2
    0.264705882353    0.050000000000    0.000000000000       2
    0.294117647059    0.050000000000    0.000000000000       2
    0.323529411765    0.050000000000    0.000000000000       2
    0.352941176471    0.050000000000    0.000000000000       2
    0.382352941176    0.050000000000    0.000000000000       2
    0.411764705882    0.050000000000    0.000000000000       2
    0.441176470588    0.050000000000    0.000000000000       2
    0.470588235294    0.050000000000    0.000000000000       2
    0.500000000000    0.050000000000    0.000000000000       2
   -0.470588235294    0.050000000000    0.000000000000       2
   -0.441176470588    0.050000000000    0.000000000000       2
   -0.411764705882    0.050000000000    0.000000000000       2
   -0.382352941176    0.050000000000    0.000000000000       2
   -0.352941176471    0.050000000000    0.000000000000       2
   -0.323529411765    0.050000000000    0.000000000000       2
   -0.294117647059    0.050000000000    0.000000000000       2
   -0.264705882353    0.050000000000    0.000000000000       2
   -0.235294117647    0.050000000000    0.000000000000       2
   -0.205882352941    0.050000000000    0.000000000000       2
   -0.176470588235    0.050000000000    0.000000000000       2
   -0.147058823529    0.050000000000    0.000000000000       2
   -0.117647058824    0.050000000000    0.000000000000       2
   -0.088235294118    0.050000000000    0.000000000000       2
   -0.058823529412    0.050000000000    0.000000000000       2
   -0.029411764706    0.050000000000    0.000000000000       2
    0.000000000000    0.100000000000    0.000000000000       2
    0.029411764706    0.100000000000    0.000000000000       2
    0.058823529412    0.100000000000    0.000000000000       2
    0.088235294118    0.100000000000    0.000000000000       2
    0.117647058824    0.100000000000    0.000000000000       2
    0.147058823529    0.100000000000    0.000000000000       2
    0.176470588235    0.100000000000    0.000000000000       2
    0.205882352941    0.100000000000    0.000000000000       2
    0.235294117647    0.100000000000    0.000000000000       2
    0.264705882353    0.100000000000    0.000000000000       2
    0.294117647059    0.100000000000    0.000000000000       2
    0.323529411765    0.100000000000    0.000000000000       2
    0.352941176471    0.100000000000    0.000000000000       2
    0.382352941176    0.100000000000    0.000000000000       2
    0.411764705882    0.100000000000    0.000000000000       2
    0.441176470588    0.100000000000    0.000000000000       2
    0.470588235294    0.100000000000    0.000000000000       2
    0.500000000000    0.100000000000    0.000000000000       2
   -0.470588235294    0.100000000000    0.000000000000       2
   -0.441176470588    0.100000000000    0.000000000000       2
   -0.411764705882    0.100000000000    0.000000000000       2
   -0.382352941176    0.100000000000    0.000000000000       2
   -0.352941176471    0.100000000000    0.000000000000       2
   -0.323529411765    0.100000000000    0.000000000000       2
   -0.294117647059    0.100000000000    0.000000000000       2
   -0.264705882353    0.100000000000    0.000000000000       2
   -0.235294117647    0.100000000000    0.000000000000       2
   -0.205882352941    0.100000000000    0.000000000000       2
   -0.176470588235    0.100000000000    0.000000000000       2
   -0.147058823529    0.100000000000    0.000000000000       2
   -0.117647058824    0.100000000000    0.000000000000       2
   -0.088235294118    0.100000000000    0.000000000000       2
   -0.058823529412    0.100000000000    0.000000000000       2
   -0.029411764706    0.100000000000    0.000000000000       2
    0.000000000000    0.150000000000    0.000000000000       2
    0.029411764706    0.150000000000    0.000000000000       2
    0.058823529412    0.150000000000    0.000000000000       2
    0.088235294118    0.150000000000    0.000000000000       2
    0.117647058824    0.150000000000    0.000000000000       2
    0.147058823529    0.150000000000    0.000000000000       2
    0.176470588235    0.150000000000    0.000000000000       2
    0.205882352941    0.150000000000    0.000000000000       2
    0.235294117647    0.150000000000    0.000000000000       2
    0.264705882353    0.150000000000    0.000000000000       2
    0.294117647059    0.150000000000    0.000000000000       2
    0.323529411765    0.150000000000    0.000000000000       2
    0.352941176471    0.150000000000    0.000000000000       2
    0.382352941176    0.150000000000    0.000000000000       2
    0.411764705882    0.150000000000    0.000000000000       2
    0.441176470588    0.150000000000    0.000000000000       2
    0.470588235294    0.150000000000    0.000000000000       2
    0.500000000000    0.150000000000    0.000000000000       2
   -0.470588235294    0.150000000000    0.000000000000       2
   -0.441176470588    0.150000000000    0.000000000000       2
   -0.411764705882    0.150000000000    0.000000000000       2
   -0.382352941176    0.150000000000    0.000000000000       2
   -0.352941176471    0.150000000000    0.000000000000       2
   -0.323529411765    0.150000000000    0.000000000000       2
   -0.294117647059    0.150000000000    0.000000000000       2
   -0.264705882353    0.150000000000    0.000000000000       2
   -0.235294117647    0.150000000000    0.000000000000       2
   -0.205882352941    0.150000000000    0.000000000000       2
   -0.176470588235    0.150000000000    0.000000000000       2
   -0.147058823529    0.150000000000    0.000000000000       2
   -0.117647058824    0.150000000000    0.000000000000       2
   -0.088235294118    0.150000000000    0.000000000000       2
   -0.058823529412    0.150000000000    0.000000000000       2
   -0.029411764706    0.150000000000    0.000000000000       2
    0.000000000000    0.200000000000    0.000000000000       2
    0.029411764706    0.200000000000    0.000000000000       2
    0.058823529412    0.200000000000    0.000000000000       2
    0.088235294118    0.200000000000    0.000000000000       2
    0.117647058824    0.200000000000    0.000000000000       2
    0.147058823529    0.200000000000    0.000000000000       2
    0.176470588235    0.200000000000    0.000000000000       2
    0.205882352941    0.200000000000    0.000000000000       2
    0.235294117647    0.200000000000    0.000000000000       2
    0.264705882353    0.200000000000    0.000000000000       2
    0.294117647059    0.200000000000    0.000000000000       2
    0.323529411765    0.200000000000    0.000000000000       2
    0.352941176471    0.200000000000    0.000000000000       2
    0.382352941176    0.200000000000    0.000000000000       2
    0.411764705882    0.200000000000    0.000000000000       2
    0.441176470588    0.200000000000    0.000000000000       2
    0.470588235294    0.200000000000    0.000000000000       2
    0.500000000000    0.200000000000    0.000000000000       2
   -0.470588235294    0.200000000000    0.000000000000       2
   -0.441176470588    0.200000000000    0.000000000000       2
   -0.411764705882    0.200000000000    0.000000000000       2
   -0.382352941176    0.200000000000    0.000000000000       2
   -0.352941176471    0.200000000000    0.000000000000       2
   -0.323529411765    0.200000000000    0.000000000000       2
   -0.294117647059    0.200000000000    0.000000000000       2
   -0.264705882353    0.200000000000    0.000000000000       2
   -0.235294117647    0.200000000000    0.000000000000       2
   -0.205882352941    0.200000000000    0.000000000000       2
   -0.176470588235    0.200000000000    0.000000000000       2
   -0.147058823529    0.200000000000    0.000000000000       2
   -0.117647058824    0.200000000000    0.000000000000       2
   -0.088235294118    0.200000000000    0.000000000000       2
   -0.058823529412    0.200000000000    0.000000000000       2
   -0.029411764706    0.200000000000    0.000000000000       2
    0.000000000000    0.250000000000    0.000000000000       2
    0.029411764706    0.250000000000    0.000000000000       2
    0.058823529412    0.250000000000    0.000000000000       2
    0.088235294118    0.250000000000    0.000000000000       2
    0.117647058824    0.250000000000    0.000000000000       2
    0.147058823529    0.250000000000    0.000000000000       2
    0.176470588235    0.250000000000    0.000000000000       2
    0.205882352941    0.250000000000    0.000000000000       2
    0.235294117647    0.250000000000    0.000000000000       2
    0.264705882353    0.250000000000    0.000000000000       2
    0.294117647059    0.250000000000    0.000000000000       2
    0.323529411765    0.250000000000    0.000000000000       2
    0.352941176471    0.250000000000    0.000000000000       2
    0.382352941176    0.250000000000    0.000000000000       2
    0.411764705882    0.250000000000    0.000000000000       2
    0.441176470588    0.250000000000    0.000000000000       2
    0.470588235294    0.250000000000    0.000000000000       2
    0.500000000000    0.250000000000    0.000000000000       2
   -0.470588235294    0.250000000000    0.000000000000       2
   -0.441176470588    0.250000000000    0.000000000000       2
   -0.411764705882    0.250000000000    0.000000000000       2
   -0.382352941176    0.250000000000    0.000000000000       2
   -0.352941176471    0.250000000000    0.000000000000       2
   -0.323529411765    0.250000000000    0.000000000000       2
   -0.294117647059    0.250000000000    0.000000000000       2
   -0.264705882353    0.250000000000    0.000000000000       2
   -0.235294117647    0.250000000000    0.000000000000       2
   -0.205882352941    0.250000000000    0.000000000000       2
   -0.176470588235    0.250000000000    0.000000000000       2
   -0.147058823529    0.250000000000    0.000000000000       2
   -0.117647058824    0.250000000000    0.000000000000       2
   -0.088235294118    0.250000000000    0.000000000000       2
   -0.058823529412    0.250000000000    0.000000000000       2
   -0.029411764706    0.250000000000    0.000000000000       2
    0.000000000000    0.300000000000    0.000000000000       2
    0.029411764706    0.300000000000    0.000000000000       2
    0.058823529412    0.300000000000    0.000000000000       2
    0.088235294118    0.300000000000    0.000000000000       2
    0.117647058824    0.300000000000    0.000000000000       2
    0.147058823529    0.300000000000    0.000000000000       2
    0.176470588235    0.300000000000    0.000000000000       2
    0.205882352941    0.300000000000    0.000000000000       2
    0.235294117647    0.300000000000    0.000000000000       2
    0.264705882353    0.300000000000    0.000000000000       2
    0.294117647059    0.300000000000    0.000000000000       2
    0.323529411765    0.300000000000    0.000000000000       2
    0.352941176471    0.300000000000    0.000000000000       2
    0.382352941176    0.300000000000    0.000000000000       2
    0.411764705882    0.300000000000    0.000000000000       2
    0.441176470588    0.300000000000    0.000000000000       2
    0.470588235294    0.300000000000    0.000000000000       2
    0.500000000000    0.300000000000    0.000000000000       2
   -0.470588235294    0.300000000000    0.000000000000       2
   -0.441176470588    0.300000000000    0.000000000000       2
   -0.411764705882    0.300000000000    0.000000000000       2
   -0.382352941176    0.300000000000    0.000000000000       2
   -0.352941176471    0.300000000000    0.000000000000       2
   -0.323529411765    0.300000000000    0.000000000000       2
   -0.294117647059    0.300000000000    0.000000000000       2
   -0.264705882353    0.300000000000    0.000000000000       2
   -0.235294117647    0.300000000000    0.000000000000       2
   -0.205882352941    0.300000000000    0.000000000000       2
   -0.176470588235    0.300000000000    0.000000000000       2
   -0.147058823529    0.300000000000    0.000000000000       2
   -0.117647058824    0.300000000000    0.000000000000       2
   -0.088235294118    0.300000000000    0.000000000000       2
   -0.058823529412    0.300000000000    0.000000000000       2
   -0.029411764706    0.300000000000    0.000000000000       2
    0.000000000000    0.350000000000    0.000000000000       2
    0.029411764706    0.350000000000    0.000000000000       2
    0.058823529412    0.350000000000    0.000000000000       2
    0.088235294118    0.350000000000    0.000000000000       2
    0.117647058824    0.350000000000    0.000000000000       2
    0.147058823529    0.350000000000    0.000000000000       2
    0.176470588235    0.350000000000    0.000000000000       2
    0.205882352941    0.350000000000    0.000000000000       2
    0.235294117647    0.350000000000    0.000000000000       2
    0.264705882353    0.350000000000    0.000000000000       2
    0.294117647059    0.350000000000    0.000000000000       2
    0.323529411765    0.350000000000    0.000000000000       2
    0.352941176471    0.350000000000    0.000000000000       2
    0.382352941176    0.350000000000    0.000000000000       2
    0.411764705882    0.350000000000    0.000000000000       2
    0.441176470588    0.350000000000    0.000000000000       2
    0.470588235294    0.350000000000    0.000000000000       2
    0.500000000000    0.350000000000    0.000000000000       2
   -0.470588235294    0.350000000000    0.000000000000       2
   -0.441176470588    0.350000000000    0.000000000000       2
   -0.411764705882    0.350000000000    0.000000000000       2
   -0.382352941176    0.350000000000    0.000000000000       2
   -0.352941176471    0.350000000000    0.000000000000       2
   -0.323529411765    0.350000000000    0.000000000000       2
   -0.294117647059    0.350000000000    0.000000000000       2
   -0.264705882353    0.350000000000    0.000000000000       2
   -0.235294117647    0.350000000000    0.000000000000       2
   -0.205882352941    0.350000000000    0.000000000000       2
   -0.176470588235    0.350000000000    0.000000000000       2
   -0.147058823529    0.350000000000    0.000000000000       2
   -0.117647058824    0.350000000000    0.000000000000       2
   -0.088235294118    0.350000000000    0.000000000000       2
   -0.058823529412    0.350000000000    0.000000000000       2
   -0.029411764706    0.350000000000    0.000000000000       2
    0.000000000000    0.400000000000    0.000000000000       2
    0.029411764706    0.400000000000    0.000000000000       2
    0.058823529412    0.400000000000    0.000000000000       2
    0.088235294118    0.400000000000    0.000000000000       2
    0.117647058824    0.400000000000    0.000000000000       2
    0.147058823529    0.400000000000    0.000000000000       2
    0.176470588235    0.400000000000    0.000000000000       2
    0.205882352941    0.400000000000    0.000000000000       2
    0.235294117647    0.400000000000    0.000000000000       2
    0.264705882353    0.400000000000    0.000000000000       2
    0.294117647059    0.400000000000    0.000000000000       2
    0.323529411765    0.400000000000    0.000000000000       2
    0.352941176471    0.400000000000    0.000000000000       2
    0.382352941176    0.400000000000    0.000000000000       2
    0.411764705882    0.400000000000    0.000000000000       2
    0.441176470588    0.400000000000    0.000000000000       2
    0.470588235294    0.400000000000    0.000000000000       2
    0.500000000000    0.400000000000    0.000000000000       2
   -0.470588235294    0.400000000000    0.000000000000       2
   -0.441176470588    0.400000000000    0.000000000000       2
   -0.411764705882    0.400000000000    0.000000000000       2
   -0.382352941176    0.400000000000    0.000000000000       2
   -0.352941176471    0.400000000000    0.000000000000       2
   -0.323529411765    0.400000000000    0.000000000000       2
   -0.294117647059    0.400000000000    0.000000000000       2
   -0.264705882353    0.400000000000    0.000000000000       2
   -0.235294117647    0.400000000000    0.000000000000       2
   -0.205882352941    0.400000000000    0.000000000000       2
   -0.176470588235    0.400000000000    0.000000000000       2
   -0.147058823529    0.400000000000    0.000000000000       2
   -0.117647058824    0.400000000000    0.000000000000       2
   -0.088235294118    0.400000000000    0.000000000000       2
   -0.058823529412    0.400000000000    0.000000000000       2
   -0.029411764706    0.400000000000    0.000000000000       2
    0.000000000000    0.450000000000    0.000000000000       2
    0.029411764706    0.450000000000    0.000000000000       2
    0.058823529412    0.450000000000    0.000000000000       2
    0.088235294118    0.450000000000    0.000000000000       2
    0.117647058824    0.450000000000    0.000000000000       2
    0.147058823529    0.450000000000    0.000000000000       2
    0.176470588235    0.450000000000    0.000000000000       2
    0.205882352941    0.450000000000    0.000000000000       2
    0.235294117647    0.450000000000    0.000000000000       2
    0.264705882353    0.450000000000    0.000000000000       2
    0.294117647059    0.450000000000    0.000000000000       2
    0.323529411765    0.450000000000    0.000000000000       2
    0.352941176471    0.450000000000    0.000000000000       2
    0.382352941176    0.450000000000    0.000000000000       2
    0.411764705882    0.450000000000    0.000000000000       2
    0.441176470588    0.450000000000    0.000000000000       2
    0.470588235294    0.450000000000    0.000000000000       2
    0.500000000000    0.450000000000    0.000000000000       2
   -0.470588235294    0.450000000000    0.000000000000       2
   -0.441176470588    0.450000000000    0.000000000000       2
   -0.411764705882    0.450000000000    0.000000000000       2
   -0.382352941176    0.450000000000    0.000000000000       2
   -0.352941176471    0.450000000000    0.000000000000       2
   -0.323529411765    0.450000000000    0.000000000000       2
   -0.294117647059    0.450000000000    0.000000000000       2
   -0.264705882353    0.450000000000    0.000000000000       2
   -0.235294117647    0.450000000000    0.000000000000       2
   -0.205882352941    0.450000000000    0.000000000000       2
   -0.176470588235    0.450000000000    0.000000000000       2
   -0.147058823529    0.450000000000    0.000000000000       2
   -0.117647058824    0.450000000000    0.000000000000       2
   -0.088235294118    0.450000000000    0.000000000000       2
   -0.058823529412    0.450000000000    0.000000000000       2
   -0.029411764706    0.450000000000    0.000000000000       2
    0.000000000000    0.500000000000    0.000000000000       1
    0.029411764706    0.500000000000    0.000000000000       2
    0.058823529412    0.500000000000    0.000000000000       2
    0.088235294118    0.500000000000    0.000000000000       2
    0.117647058824    0.500000000000    0.000000000000       2
    0.147058823529    0.500000000000    0.000000000000       2
    0.176470588235    0.500000000000    0.000000000000       2
    0.205882352941    0.500000000000    0.000000000000       2
    0.235294117647    0.500000000000    0.000000000000       2
    0.264705882353    0.500000000000    0.000000000000       2
    0.294117647059    0.500000000000    0.000000000000       2
    0.323529411765    0.500000000000    0.000000000000       2
    0.352941176471    0.500000000000    0.000000000000       2
    0.382352941176    0.500000000000    0.000000000000       2
    0.411764705882    0.500000000000    0.000000000000       2
    0.441176470588    0.500000000000    0.000000000000       2
    0.470588235294    0.500000000000    0.000000000000       2
    0.500000000000    0.500000000000    0.000000000000       1
