CONTCAR\(2)                             
   1.00000000000000     
    12.3037004471000007    0.0000000000000000    0.0000000000000000
     6.1518502235000003   10.6553171476999999    0.0000000000000000
     0.0000000000000000    0.0000000000000000   24.8090991973999984
   Mn   In   Se   O    H 
     9    18    36     1     1
Direct
  0.2114579254176689  0.2115926899681853  0.3299340204452861
  0.5456111296567485  0.2427166292258960  0.3219922477240615
  0.9109319768326429  0.2115834409693420  0.3299386709252445
  0.2426389404902167  0.5457672716430935  0.3219906271719282
  0.5455139235364399  0.5456035324626995  0.3220964220301141
  0.8872886320136928  0.5590461425078175  0.3247476024432387
  0.2113670615610346  0.9110683829383603  0.3299380799339744
  0.5589352264899219  0.8873540800682704  0.3247389025789431
  0.8873263246595258  0.8874080694492363  0.3247475072874693
  0.9999357391892261  0.9999653689891446  0.4881325092237532
  0.1097925755128273  0.1114864969206266  0.6564526518594533
  0.3335188331978856  0.9999437027031419  0.4881270972364149
  0.4441153691065907  0.1101994212483248  0.6525082019682742
  0.6669572015855536  0.9993833820116933  0.4815392050569258
  0.7776233554571306  0.1106873725904549  0.6524794499031401
  0.9999341041880001  0.3334758284262094  0.4881288611902974
  0.1103684348447800  0.4446385945895841  0.6524647376951336
  0.3342476672657142  0.3341068399078750  0.4826268452391318
  0.4440288801712455  0.4439419730007188  0.6522586705244038
  0.6651645955670915  0.3341950824316910  0.4827900059103456
  0.7773520528245612  0.4446317054451612  0.6525069971329600
  0.9993455933046107  0.6669628141246662  0.4815199313096272
  0.1107714233165709  0.7776777981067085  0.6525002673814200
  0.3338376713971272  0.6653024281352842  0.4827756510974623
  0.4444787283460130  0.7774106349240313  0.6524782574781725
  0.6669264869656146  0.6669307596259699  0.4815705393014156
  0.7779510334919379  0.7776374669615791  0.6508225781303310
  0.9990260254352208  0.9992352902848864  0.2944015216246143
  0.9983429867663105  0.9984830240194142  0.7027075008952153
  0.2199412245550221  0.2200000540188753  0.4309603363061782
  0.1110880395291218  0.1111982317369424  0.5527359222483170
  0.3354369202425573  0.9993358614623844  0.2943540246599810
  0.3349228090784848  0.9983550296775974  0.7024717838136354
  0.5551395110966624  0.2234529875690185  0.4261958381731574
  0.4464024840820926  0.1115742897581384  0.5486513888684286
  0.6607295056817719  0.0121909753242804  0.2994956413553282
  0.6668262431868328  0.9987837388147511  0.7006716656974632
  0.8934490353936511  0.2199519631588629  0.4309910082535211
  0.7752235196459267  0.1115957694808003  0.5486593829084185
  0.9992144519791921  0.3355883859526543  0.2943101545147613
  0.9982601795355706  0.3358477246210185  0.7026683003261951
  0.2234238345925306  0.5550566242214217  0.4262002314892825
  0.1116106959752017  0.4464384706692570  0.5486189787851288
  0.3164499653289354  0.3167581869491016  0.2967255576703494
  0.3329486492646936  0.3328948340131461  0.7008868316929906
  0.5548640524095063  0.5550445810054896  0.4262838565252451
  0.4443922248539778  0.4444348537293124  0.5484758161171470
  0.7007166318834805  0.3171134262048199  0.2968401558997655
  0.6660644902926478  0.3333414923309164  0.7009454492843403
  0.8906792291856434  0.5519090241576663  0.4278118945759815
  0.7752682044604953  0.4463950652943467  0.5487066565836258
  0.0121611968984396  0.6608182490719727  0.2994926410600485
  0.9988408065417644  0.6670690232766674  0.7008130655377371
  0.2199508001660462  0.8935038957995118  0.4309827170573826
  0.1115769330299230  0.7752779734434085  0.5486753762615351
  0.3169961684575995  0.7008383603573023  0.2968509528080432
  0.3334372899366329  0.6658819442048198  0.7009717576353083
  0.5519667186348158  0.8906641830988562  0.4278132452993546
  0.4463645428590013  0.7752280552967434  0.5486657795785064
  0.6606974364368199  0.6607568676062385  0.2995221024385728
  0.6671041701672067  0.6673169076260308  0.7006675605019126
  0.8907147383479384  0.8907317671069279  0.4278250938684138
  0.7777871298501466  0.7777707929758648  0.5470651991074220
  0.4445881647164640  0.4447001801856700  0.3121220079974449
  0.4445726691113094  0.4445745851190495  0.2723960964002430
 
  0.00000000E+00  0.00000000E+00  0.00000000E+00
  0.00000000E+00  0.00000000E+00  0.00000000E+00
  0.00000000E+00  0.00000000E+00  0.00000000E+00
  0.00000000E+00  0.00000000E+00  0.00000000E+00
  0.00000000E+00  0.00000000E+00  0.00000000E+00
  0.00000000E+00  0.00000000E+00  0.00000000E+00
  0.00000000E+00  0.00000000E+00  0.00000000E+00
  0.00000000E+00  0.00000000E+00  0.00000000E+00
  0.00000000E+00  0.00000000E+00  0.00000000E+00
  0.00000000E+00  0.00000000E+00  0.00000000E+00
  0.00000000E+00  0.00000000E+00  0.00000000E+00
  0.00000000E+00  0.00000000E+00  0.00000000E+00
  0.00000000E+00  0.00000000E+00  0.00000000E+00
  0.00000000E+00  0.00000000E+00  0.00000000E+00
  0.00000000E+00  0.00000000E+00  0.00000000E+00
  0.00000000E+00  0.00000000E+00  0.00000000E+00
  0.00000000E+00  0.00000000E+00  0.00000000E+00
  0.00000000E+00  0.00000000E+00  0.00000000E+00
  0.00000000E+00  0.00000000E+00  0.00000000E+00
  0.00000000E+00  0.00000000E+00  0.00000000E+00
  0.00000000E+00  0.00000000E+00  0.00000000E+00
  0.00000000E+00  0.00000000E+00  0.00000000E+00
  0.00000000E+00  0.00000000E+00  0.00000000E+00
  0.00000000E+00  0.00000000E+00  0.00000000E+00
  0.00000000E+00  0.00000000E+00  0.00000000E+00
  0.00000000E+00  0.00000000E+00  0.00000000E+00
  0.00000000E+00  0.00000000E+00  0.00000000E+00
  0.00000000E+00  0.00000000E+00  0.00000000E+00
  0.00000000E+00  0.00000000E+00  0.00000000E+00
  0.00000000E+00  0.00000000E+00  0.00000000E+00
  0.00000000E+00  0.00000000E+00  0.00000000E+00
  0.00000000E+00  0.00000000E+00  0.00000000E+00
  0.00000000E+00  0.00000000E+00  0.00000000E+00
  0.00000000E+00  0.00000000E+00  0.00000000E+00
  0.00000000E+00  0.00000000E+00  0.00000000E+00
  0.00000000E+00  0.00000000E+00  0.00000000E+00
  0.00000000E+00  0.00000000E+00  0.00000000E+00
  0.00000000E+00  0.00000000E+00  0.00000000E+00
  0.00000000E+00  0.00000000E+00  0.00000000E+00
  0.00000000E+00  0.00000000E+00  0.00000000E+00
  0.00000000E+00  0.00000000E+00  0.00000000E+00
  0.00000000E+00  0.00000000E+00  0.00000000E+00
  0.00000000E+00  0.00000000E+00  0.00000000E+00
  0.00000000E+00  0.00000000E+00  0.00000000E+00
  0.00000000E+00  0.00000000E+00  0.00000000E+00
  0.00000000E+00  0.00000000E+00  0.00000000E+00
  0.00000000E+00  0.00000000E+00  0.00000000E+00
  0.00000000E+00  0.00000000E+00  0.00000000E+00
  0.00000000E+00  0.00000000E+00  0.00000000E+00
  0.00000000E+00  0.00000000E+00  0.00000000E+00
  0.00000000E+00  0.00000000E+00  0.00000000E+00
  0.00000000E+00  0.00000000E+00  0.00000000E+00
  0.00000000E+00  0.00000000E+00  0.00000000E+00
  0.00000000E+00  0.00000000E+00  0.00000000E+00
  0.00000000E+00  0.00000000E+00  0.00000000E+00
  0.00000000E+00  0.00000000E+00  0.00000000E+00
  0.00000000E+00  0.00000000E+00  0.00000000E+00
  0.00000000E+00  0.00000000E+00  0.00000000E+00
  0.00000000E+00  0.00000000E+00  0.00000000E+00
  0.00000000E+00  0.00000000E+00  0.00000000E+00
  0.00000000E+00  0.00000000E+00  0.00000000E+00
  0.00000000E+00  0.00000000E+00  0.00000000E+00
  0.00000000E+00  0.00000000E+00  0.00000000E+00
  0.00000000E+00  0.00000000E+00  0.00000000E+00
  0.00000000E+00  0.00000000E+00  0.00000000E+00
