 Ce2 P6 H16 O14                         
   1.00000000000000     
     6.8980599434119263    0.0000000000000000    0.0000000000000000
    -3.2517446939569190    8.5967443372393078    0.0000000000000000
     0.0000000000000000    0.0000000000000000   23.1921031468920020
   Ce   P    H    O 
     2     6    16    14
Direct
  0.6610681421226019  0.8500629704432470  0.4808705467201833
  0.3389457633533866  0.1499492519273460  0.5191284084113192
  0.1302640999200975  0.7382645436389268  0.5248003242964359
  0.8697344459875325  0.2617336125647398  0.4751982548482943
  0.9263828683875204  0.9545632595689142  0.6266870739851598
  0.0736163206547502  0.0454321142737868  0.3733129387514396
  0.4965492585858868  0.5230316949248390  0.5848304156005639
  0.5034517490481534  0.4769654878868366  0.4151723128943487
  0.1263639810715418  0.6195125063298121  0.4856746573308968
  0.8736304449946530  0.3804863073996287  0.5143240876047983
  0.1219521193540700  0.6715219508064294  0.5802093304722362
  0.8780386288879711  0.3284770666079027  0.4197893892948983
  0.9036886037463532  0.0264773973261185  0.6793555873136796
  0.0963015312985362  0.9735155836190685  0.3206439841740121
  0.8825927561034490  0.7968457028882554  0.6430246221155613
  0.1174023785209641  0.2031489860409579  0.3569741699428377
  0.4876754559286454  0.5925923072002206  0.6391366431550765
  0.5123349685932865  0.4074154322129857  0.3608644362285105
  0.7034130014446163  0.5248345500528231  0.5825324381670427
  0.2965927868560527  0.4751638871786241  0.4174696551527859
  0.3373825955256748  0.9035548295079536  0.4018806895755631
  0.6626161017490446  0.0964438389909645  0.5981198930626164
  0.4804046768934143  0.8320717118825698  0.3655734951135230
  0.5195934795743398  0.1679220518571469  0.6344287549409557
  0.9399753646205795  0.7822112226532454  0.5162105715560799
  0.0600093906882080  0.2177860272723393  0.4837866766597898
  0.3346877464797871  0.8755669721490733  0.5176940097385625
  0.6653100870736282  0.1244225644052008  0.4823040321151026
  0.7556570606289554  0.9612472670879910  0.5859335679149495
  0.2443331436352665  0.0387473334442703  0.4140632722641016
  0.1500296949159505  0.0230284001973828  0.6071257044581841
  0.8499577980496298  0.9769647841850642  0.3928761826323068
  0.3456417087536821  0.3567968782196687  0.5858405208105495
  0.6543682316208219  0.6432249783216051  0.4141629208101207
  0.4679496456032695  0.6288454990808461  0.5376597223175139
  0.5320750869547695  0.3711723649203336  0.4623379248659916
  0.3938383989530507  0.8161469517430646  0.3998680839742050
  0.6061704834198522  0.1838517111898099  0.6001347007298108
 
  0.00000000E+00  0.00000000E+00  0.00000000E+00
  0.00000000E+00  0.00000000E+00  0.00000000E+00
  0.00000000E+00  0.00000000E+00  0.00000000E+00
  0.00000000E+00  0.00000000E+00  0.00000000E+00
  0.00000000E+00  0.00000000E+00  0.00000000E+00
  0.00000000E+00  0.00000000E+00  0.00000000E+00
  0.00000000E+00  0.00000000E+00  0.00000000E+00
  0.00000000E+00  0.00000000E+00  0.00000000E+00
  0.00000000E+00  0.00000000E+00  0.00000000E+00
  0.00000000E+00  0.00000000E+00  0.00000000E+00
  0.00000000E+00  0.00000000E+00  0.00000000E+00
  0.00000000E+00  0.00000000E+00  0.00000000E+00
  0.00000000E+00  0.00000000E+00  0.00000000E+00
  0.00000000E+00  0.00000000E+00  0.00000000E+00
  0.00000000E+00  0.00000000E+00  0.00000000E+00
  0.00000000E+00  0.00000000E+00  0.00000000E+00
  0.00000000E+00  0.00000000E+00  0.00000000E+00
  0.00000000E+00  0.00000000E+00  0.00000000E+00
  0.00000000E+00  0.00000000E+00  0.00000000E+00
  0.00000000E+00  0.00000000E+00  0.00000000E+00
  0.00000000E+00  0.00000000E+00  0.00000000E+00
  0.00000000E+00  0.00000000E+00  0.00000000E+00
  0.00000000E+00  0.00000000E+00  0.00000000E+00
  0.00000000E+00  0.00000000E+00  0.00000000E+00
  0.00000000E+00  0.00000000E+00  0.00000000E+00
  0.00000000E+00  0.00000000E+00  0.00000000E+00
  0.00000000E+00  0.00000000E+00  0.00000000E+00
  0.00000000E+00  0.00000000E+00  0.00000000E+00
  0.00000000E+00  0.00000000E+00  0.00000000E+00
  0.00000000E+00  0.00000000E+00  0.00000000E+00
  0.00000000E+00  0.00000000E+00  0.00000000E+00
  0.00000000E+00  0.00000000E+00  0.00000000E+00
  0.00000000E+00  0.00000000E+00  0.00000000E+00
  0.00000000E+00  0.00000000E+00  0.00000000E+00
  0.00000000E+00  0.00000000E+00  0.00000000E+00
  0.00000000E+00  0.00000000E+00  0.00000000E+00
  0.00000000E+00  0.00000000E+00  0.00000000E+00
  0.00000000E+00  0.00000000E+00  0.00000000E+00
