G   31   23    1    0.005     # Parameters to Generate KPOINTS (Don't Edit This Line)
     357
Reciprocal lattice
    0.000000000000    0.000000000000    0.000000000000       1
    0.032258064516    0.000000000000    0.000000000000       2
    0.064516129032    0.000000000000    0.000000000000       2
    0.096774193548    0.000000000000    0.000000000000       2
    0.129032258065    0.000000000000    0.000000000000       2
    0.161290322581    0.000000000000    0.000000000000       2
    0.193548387097    0.000000000000    0.000000000000       2
    0.225806451613    0.000000000000    0.000000000000       2
    0.258064516129    0.000000000000    0.000000000000       2
    0.290322580645    0.000000000000    0.000000000000       2
    0.322580645161    0.000000000000    0.000000000000       2
    0.354838709677    0.000000000000    0.000000000000       2
    0.387096774194    0.000000000000    0.000000000000       2
    0.419354838710    0.000000000000    0.000000000000       2
    0.451612903226    0.000000000000    0.000000000000       2
    0.483870967742    0.000000000000    0.000000000000       2
    0.000000000000    0.043478260870    0.000000000000       2
    0.032258064516    0.043478260870    0.000000000000       2
    0.064516129032    0.043478260870    0.000000000000       2
    0.096774193548    0.043478260870    0.000000000000       2
    0.129032258065    0.043478260870    0.000000000000       2
    0.161290322581    0.043478260870    0.000000000000       2
    0.193548387097    0.043478260870    0.000000000000       2
    0.225806451613    0.043478260870    0.000000000000       2
    0.258064516129    0.043478260870    0.000000000000       2
    0.290322580645    0.043478260870    0.000000000000       2
    0.322580645161    0.043478260870    0.000000000000       2
    0.354838709677    0.043478260870    0.000000000000       2
    0.387096774194    0.043478260870    0.000000000000       2
    0.419354838710    0.043478260870    0.000000000000       2
    0.451612903226    0.043478260870    0.000000000000       2
    0.483870967742    0.043478260870    0.000000000000       2
   -0.483870967742    0.043478260870    0.000000000000       2
   -0.451612903226    0.043478260870    0.000000000000       2
   -0.419354838710    0.043478260870    0.000000000000       2
   -0.387096774194    0.043478260870    0.000000000000       2
   -0.354838709677    0.043478260870    0.000000000000       2
   -0.322580645161    0.043478260870    0.000000000000       2
   -0.290322580645    0.043478260870    0.000000000000       2
   -0.258064516129    0.043478260870    0.000000000000       2
   -0.225806451613    0.043478260870    0.000000000000       2
   -0.193548387097    0.043478260870    0.000000000000       2
   -0.161290322581    0.043478260870    0.000000000000       2
   -0.129032258065    0.043478260870    0.000000000000       2
   -0.096774193548    0.043478260870    0.000000000000       2
   -0.064516129032    0.043478260870    0.000000000000       2
   -0.032258064516    0.043478260870    0.000000000000       2
    0.000000000000    0.086956521739    0.000000000000       2
    0.032258064516    0.086956521739    0.000000000000       2
    0.064516129032    0.086956521739    0.000000000000       2
    0.096774193548    0.086956521739    0.000000000000       2
    0.129032258065    0.086956521739    0.000000000000       2
    0.161290322581    0.086956521739    0.000000000000       2
    0.193548387097    0.086956521739    0.000000000000       2
    0.225806451613    0.086956521739    0.000000000000       2
    0.258064516129    0.086956521739    0.000000000000       2
    0.290322580645    0.086956521739    0.000000000000       2
    0.322580645161    0.086956521739    0.000000000000       2
    0.354838709677    0.086956521739    0.000000000000       2
    0.387096774194    0.086956521739    0.000000000000       2
    0.419354838710    0.086956521739    0.000000000000       2
    0.451612903226    0.086956521739    0.000000000000       2
    0.483870967742    0.086956521739    0.000000000000       2
   -0.483870967742    0.086956521739    0.000000000000       2
   -0.451612903226    0.086956521739    0.000000000000       2
   -0.419354838710    0.086956521739    0.000000000000       2
   -0.387096774194    0.086956521739    0.000000000000       2
   -0.354838709677    0.086956521739    0.000000000000       2
   -0.322580645161    0.086956521739    0.000000000000       2
   -0.290322580645    0.086956521739    0.000000000000       2
   -0.258064516129    0.086956521739    0.000000000000       2
   -0.225806451613    0.086956521739    0.000000000000       2
   -0.193548387097    0.086956521739    0.000000000000       2
   -0.161290322581    0.086956521739    0.000000000000       2
   -0.129032258065    0.086956521739    0.000000000000       2
   -0.096774193548    0.086956521739    0.000000000000       2
   -0.064516129032    0.086956521739    0.000000000000       2
   -0.032258064516    0.086956521739    0.000000000000       2
    0.000000000000    0.130434782609    0.000000000000       2
    0.032258064516    0.130434782609    0.000000000000       2
    0.064516129032    0.130434782609    0.000000000000       2
    0.096774193548    0.130434782609    0.000000000000       2
    0.129032258065    0.130434782609    0.000000000000       2
    0.161290322581    0.130434782609    0.000000000000       2
    0.193548387097    0.130434782609    0.000000000000       2
    0.225806451613    0.130434782609    0.000000000000       2
    0.258064516129    0.130434782609    0.000000000000       2
    0.290322580645    0.130434782609    0.000000000000       2
    0.322580645161    0.130434782609    0.000000000000       2
    0.354838709677    0.130434782609    0.000000000000       2
    0.387096774194    0.130434782609    0.000000000000       2
    0.419354838710    0.130434782609    0.000000000000       2
    0.451612903226    0.130434782609    0.000000000000       2
    0.483870967742    0.130434782609    0.000000000000       2
   -0.483870967742    0.130434782609    0.000000000000       2
   -0.451612903226    0.130434782609    0.000000000000       2
   -0.419354838710    0.130434782609    0.000000000000       2
   -0.387096774194    0.130434782609    0.000000000000       2
   -0.354838709677    0.130434782609    0.000000000000       2
   -0.322580645161    0.130434782609    0.000000000000       2
   -0.290322580645    0.130434782609    0.000000000000       2
   -0.258064516129    0.130434782609    0.000000000000       2
   -0.225806451613    0.130434782609    0.000000000000       2
   -0.193548387097    0.130434782609    0.000000000000       2
   -0.161290322581    0.130434782609    0.000000000000       2
   -0.129032258065    0.130434782609    0.000000000000       2
   -0.096774193548    0.130434782609    0.000000000000       2
   -0.064516129032    0.130434782609    0.000000000000       2
   -0.032258064516    0.130434782609    0.000000000000       2
    0.000000000000    0.173913043478    0.000000000000       2
    0.032258064516    0.173913043478    0.000000000000       2
    0.064516129032    0.173913043478    0.000000000000       2
    0.096774193548    0.173913043478    0.000000000000       2
    0.129032258065    0.173913043478    0.000000000000       2
    0.161290322581    0.173913043478    0.000000000000       2
    0.193548387097    0.173913043478    0.000000000000       2
    0.225806451613    0.173913043478    0.000000000000       2
    0.258064516129    0.173913043478    0.000000000000       2
    0.290322580645    0.173913043478    0.000000000000       2
    0.322580645161    0.173913043478    0.000000000000       2
    0.354838709677    0.173913043478    0.000000000000       2
    0.387096774194    0.173913043478    0.000000000000       2
    0.419354838710    0.173913043478    0.000000000000       2
    0.451612903226    0.173913043478    0.000000000000       2
    0.483870967742    0.173913043478    0.000000000000       2
   -0.483870967742    0.173913043478    0.000000000000       2
   -0.451612903226    0.173913043478    0.000000000000       2
   -0.419354838710    0.173913043478    0.000000000000       2
   -0.387096774194    0.173913043478    0.000000000000       2
   -0.354838709677    0.173913043478    0.000000000000       2
   -0.322580645161    0.173913043478    0.000000000000       2
   -0.290322580645    0.173913043478    0.000000000000       2
   -0.258064516129    0.173913043478    0.000000000000       2
   -0.225806451613    0.173913043478    0.000000000000       2
   -0.193548387097    0.173913043478    0.000000000000       2
   -0.161290322581    0.173913043478    0.000000000000       2
   -0.129032258065    0.173913043478    0.000000000000       2
   -0.096774193548    0.173913043478    0.000000000000       2
   -0.064516129032    0.173913043478    0.000000000000       2
   -0.032258064516    0.173913043478    0.000000000000       2
    0.000000000000    0.217391304348    0.000000000000       2
    0.032258064516    0.217391304348    0.000000000000       2
    0.064516129032    0.217391304348    0.000000000000       2
    0.096774193548    0.217391304348    0.000000000000       2
    0.129032258065    0.217391304348    0.000000000000       2
    0.161290322581    0.217391304348    0.000000000000       2
    0.193548387097    0.217391304348    0.000000000000       2
    0.225806451613    0.217391304348    0.000000000000       2
    0.258064516129    0.217391304348    0.000000000000       2
    0.290322580645    0.217391304348    0.000000000000       2
    0.322580645161    0.217391304348    0.000000000000       2
    0.354838709677    0.217391304348    0.000000000000       2
    0.387096774194    0.217391304348    0.000000000000       2
    0.419354838710    0.217391304348    0.000000000000       2
    0.451612903226    0.217391304348    0.000000000000       2
    0.483870967742    0.217391304348    0.000000000000       2
   -0.483870967742    0.217391304348    0.000000000000       2
   -0.451612903226    0.217391304348    0.000000000000       2
   -0.419354838710    0.217391304348    0.000000000000       2
   -0.387096774194    0.217391304348    0.000000000000       2
   -0.354838709677    0.217391304348    0.000000000000       2
   -0.322580645161    0.217391304348    0.000000000000       2
   -0.290322580645    0.217391304348    0.000000000000       2
   -0.258064516129    0.217391304348    0.000000000000       2
   -0.225806451613    0.217391304348    0.000000000000       2
   -0.193548387097    0.217391304348    0.000000000000       2
   -0.161290322581    0.217391304348    0.000000000000       2
   -0.129032258065    0.217391304348    0.000000000000       2
   -0.096774193548    0.217391304348    0.000000000000       2
   -0.064516129032    0.217391304348    0.000000000000       2
   -0.032258064516    0.217391304348    0.000000000000       2
    0.000000000000    0.260869565217    0.000000000000       2
    0.032258064516    0.260869565217    0.000000000000       2
    0.064516129032    0.260869565217    0.000000000000       2
    0.096774193548    0.260869565217    0.000000000000       2
    0.129032258065    0.260869565217    0.000000000000       2
    0.161290322581    0.260869565217    0.000000000000       2
    0.193548387097    0.260869565217    0.000000000000       2
    0.225806451613    0.260869565217    0.000000000000       2
    0.258064516129    0.260869565217    0.000000000000       2
    0.290322580645    0.260869565217    0.000000000000       2
    0.322580645161    0.260869565217    0.000000000000       2
    0.354838709677    0.260869565217    0.000000000000       2
    0.387096774194    0.260869565217    0.000000000000       2
    0.419354838710    0.260869565217    0.000000000000       2
    0.451612903226    0.260869565217    0.000000000000       2
    0.483870967742    0.260869565217    0.000000000000       2
   -0.483870967742    0.260869565217    0.000000000000       2
   -0.451612903226    0.260869565217    0.000000000000       2
   -0.419354838710    0.260869565217    0.000000000000       2
   -0.387096774194    0.260869565217    0.000000000000       2
   -0.354838709677    0.260869565217    0.000000000000       2
   -0.322580645161    0.260869565217    0.000000000000       2
   -0.290322580645    0.260869565217    0.000000000000       2
   -0.258064516129    0.260869565217    0.000000000000       2
   -0.225806451613    0.260869565217    0.000000000000       2
   -0.193548387097    0.260869565217    0.000000000000       2
   -0.161290322581    0.260869565217    0.000000000000       2
   -0.129032258065    0.260869565217    0.000000000000       2
   -0.096774193548    0.260869565217    0.000000000000       2
   -0.064516129032    0.260869565217    0.000000000000       2
   -0.032258064516    0.260869565217    0.000000000000       2
    0.000000000000    0.304347826087    0.000000000000       2
    0.032258064516    0.304347826087    0.000000000000       2
    0.064516129032    0.304347826087    0.000000000000       2
    0.096774193548    0.304347826087    0.000000000000       2
    0.129032258065    0.304347826087    0.000000000000       2
    0.161290322581    0.304347826087    0.000000000000       2
    0.193548387097    0.304347826087    0.000000000000       2
    0.225806451613    0.304347826087    0.000000000000       2
    0.258064516129    0.304347826087    0.000000000000       2
    0.290322580645    0.304347826087    0.000000000000       2
    0.322580645161    0.304347826087    0.000000000000       2
    0.354838709677    0.304347826087    0.000000000000       2
    0.387096774194    0.304347826087    0.000000000000       2
    0.419354838710    0.304347826087    0.000000000000       2
    0.451612903226    0.304347826087    0.000000000000       2
    0.483870967742    0.304347826087    0.000000000000       2
   -0.483870967742    0.304347826087    0.000000000000       2
   -0.451612903226    0.304347826087    0.000000000000       2
   -0.419354838710    0.304347826087    0.000000000000       2
   -0.387096774194    0.304347826087    0.000000000000       2
   -0.354838709677    0.304347826087    0.000000000000       2
   -0.322580645161    0.304347826087    0.000000000000       2
   -0.290322580645    0.304347826087    0.000000000000       2
   -0.258064516129    0.304347826087    0.000000000000       2
   -0.225806451613    0.304347826087    0.000000000000       2
   -0.193548387097    0.304347826087    0.000000000000       2
   -0.161290322581    0.304347826087    0.000000000000       2
   -0.129032258065    0.304347826087    0.000000000000       2
   -0.096774193548    0.304347826087    0.000000000000       2
   -0.064516129032    0.304347826087    0.000000000000       2
   -0.032258064516    0.304347826087    0.000000000000       2
    0.000000000000    0.347826086957    0.000000000000       2
    0.032258064516    0.347826086957    0.000000000000       2
    0.064516129032    0.347826086957    0.000000000000       2
    0.096774193548    0.347826086957    0.000000000000       2
    0.129032258065    0.347826086957    0.000000000000       2
    0.161290322581    0.347826086957    0.000000000000       2
    0.193548387097    0.347826086957    0.000000000000       2
    0.225806451613    0.347826086957    0.000000000000       2
    0.258064516129    0.347826086957    0.000000000000       2
    0.290322580645    0.347826086957    0.000000000000       2
    0.322580645161    0.347826086957    0.000000000000       2
    0.354838709677    0.347826086957    0.000000000000       2
    0.387096774194    0.347826086957    0.000000000000       2
    0.419354838710    0.347826086957    0.000000000000       2
    0.451612903226    0.347826086957    0.000000000000       2
    0.483870967742    0.347826086957    0.000000000000       2
   -0.483870967742    0.347826086957    0.000000000000       2
   -0.451612903226    0.347826086957    0.000000000000       2
   -0.419354838710    0.347826086957    0.000000000000       2
   -0.387096774194    0.347826086957    0.000000000000       2
   -0.354838709677    0.347826086957    0.000000000000       2
   -0.322580645161    0.347826086957    0.000000000000       2
   -0.290322580645    0.347826086957    0.000000000000       2
   -0.258064516129    0.347826086957    0.000000000000       2
   -0.225806451613    0.347826086957    0.000000000000       2
   -0.193548387097    0.347826086957    0.000000000000       2
   -0.161290322581    0.347826086957    0.000000000000       2
   -0.129032258065    0.347826086957    0.000000000000       2
   -0.096774193548    0.347826086957    0.000000000000       2
   -0.064516129032    0.347826086957    0.000000000000       2
   -0.032258064516    0.347826086957    0.000000000000       2
    0.000000000000    0.391304347826    0.000000000000       2
    0.032258064516    0.391304347826    0.000000000000       2
    0.064516129032    0.391304347826    0.000000000000       2
    0.096774193548    0.391304347826    0.000000000000       2
    0.129032258065    0.391304347826    0.000000000000       2
    0.161290322581    0.391304347826    0.000000000000       2
    0.193548387097    0.391304347826    0.000000000000       2
    0.225806451613    0.391304347826    0.000000000000       2
    0.258064516129    0.391304347826    0.000000000000       2
    0.290322580645    0.391304347826    0.000000000000       2
    0.322580645161    0.391304347826    0.000000000000       2
    0.354838709677    0.391304347826    0.000000000000       2
    0.387096774194    0.391304347826    0.000000000000       2
    0.419354838710    0.391304347826    0.000000000000       2
    0.451612903226    0.391304347826    0.000000000000       2
    0.483870967742    0.391304347826    0.000000000000       2
   -0.483870967742    0.391304347826    0.000000000000       2
   -0.451612903226    0.391304347826    0.000000000000       2
   -0.419354838710    0.391304347826    0.000000000000       2
   -0.387096774194    0.391304347826    0.000000000000       2
   -0.354838709677    0.391304347826    0.000000000000       2
   -0.322580645161    0.391304347826    0.000000000000       2
   -0.290322580645    0.391304347826    0.000000000000       2
   -0.258064516129    0.391304347826    0.000000000000       2
   -0.225806451613    0.391304347826    0.000000000000       2
   -0.193548387097    0.391304347826    0.000000000000       2
   -0.161290322581    0.391304347826    0.000000000000       2
   -0.129032258065    0.391304347826    0.000000000000       2
   -0.096774193548    0.391304347826    0.000000000000       2
   -0.064516129032    0.391304347826    0.000000000000       2
   -0.032258064516    0.391304347826    0.000000000000       2
    0.000000000000    0.434782608696    0.000000000000       2
    0.032258064516    0.434782608696    0.000000000000       2
    0.064516129032    0.434782608696    0.000000000000       2
    0.096774193548    0.434782608696    0.000000000000       2
    0.129032258065    0.434782608696    0.000000000000       2
    0.161290322581    0.434782608696    0.000000000000       2
    0.193548387097    0.434782608696    0.000000000000       2
    0.225806451613    0.434782608696    0.000000000000       2
    0.258064516129    0.434782608696    0.000000000000       2
    0.290322580645    0.434782608696    0.000000000000       2
    0.322580645161    0.434782608696    0.000000000000       2
    0.354838709677    0.434782608696    0.000000000000       2
    0.387096774194    0.434782608696    0.000000000000       2
    0.419354838710    0.434782608696    0.000000000000       2
    0.451612903226    0.434782608696    0.000000000000       2
    0.483870967742    0.434782608696    0.000000000000       2
   -0.483870967742    0.434782608696    0.000000000000       2
   -0.451612903226    0.434782608696    0.000000000000       2
   -0.419354838710    0.434782608696    0.000000000000       2
   -0.387096774194    0.434782608696    0.000000000000       2
   -0.354838709677    0.434782608696    0.000000000000       2
   -0.322580645161    0.434782608696    0.000000000000       2
   -0.290322580645    0.434782608696    0.000000000000       2
   -0.258064516129    0.434782608696    0.000000000000       2
   -0.225806451613    0.434782608696    0.000000000000       2
   -0.193548387097    0.434782608696    0.000000000000       2
   -0.161290322581    0.434782608696    0.000000000000       2
   -0.129032258065    0.434782608696    0.000000000000       2
   -0.096774193548    0.434782608696    0.000000000000       2
   -0.064516129032    0.434782608696    0.000000000000       2
   -0.032258064516    0.434782608696    0.000000000000       2
    0.000000000000    0.478260869565    0.000000000000       2
    0.032258064516    0.478260869565    0.000000000000       2
    0.064516129032    0.478260869565    0.000000000000       2
    0.096774193548    0.478260869565    0.000000000000       2
    0.129032258065    0.478260869565    0.000000000000       2
    0.161290322581    0.478260869565    0.000000000000       2
    0.193548387097    0.478260869565    0.000000000000       2
    0.225806451613    0.478260869565    0.000000000000       2
    0.258064516129    0.478260869565    0.000000000000       2
    0.290322580645    0.478260869565    0.000000000000       2
    0.322580645161    0.478260869565    0.000000000000       2
    0.354838709677    0.478260869565    0.000000000000       2
    0.387096774194    0.478260869565    0.000000000000       2
    0.419354838710    0.478260869565    0.000000000000       2
    0.451612903226    0.478260869565    0.000000000000       2
    0.483870967742    0.478260869565    0.000000000000       2
   -0.483870967742    0.478260869565    0.000000000000       2
   -0.451612903226    0.478260869565    0.000000000000       2
   -0.419354838710    0.478260869565    0.000000000000       2
   -0.387096774194    0.478260869565    0.000000000000       2
   -0.354838709677    0.478260869565    0.000000000000       2
   -0.322580645161    0.478260869565    0.000000000000       2
   -0.290322580645    0.478260869565    0.000000000000       2
   -0.258064516129    0.478260869565    0.000000000000       2
   -0.225806451613    0.478260869565    0.000000000000       2
   -0.193548387097    0.478260869565    0.000000000000       2
   -0.161290322581    0.478260869565    0.000000000000       2
   -0.129032258065    0.478260869565    0.000000000000       2
   -0.096774193548    0.478260869565    0.000000000000       2
   -0.064516129032    0.478260869565    0.000000000000       2
   -0.032258064516    0.478260869565    0.000000000000       2
