CONTCAR\(10)                            
   1.00000000000000     
    14.1827001571999993    0.0000000000000000    0.0000000000000000
     0.0000000000000000   18.7943000793000010    0.0000000000000000
     0.0000000000000000    0.0000000000000000   21.0296001433999997
   Ta   Pt   Se   O 
    16     8    56     1
Direct
  0.1859758503788257  0.4214260608122365  0.5615012098219284
  0.0624179060857467  0.5796990326383572  0.4370640639658112
  0.0639704848245725  0.9061540803400646  0.4909919134420867
  0.1883966822438638  0.0972178943340365  0.5148055797917973
  0.4355064594575406  0.4211942195021871  0.5626860497766604
  0.3125681781932586  0.5789613572618334  0.4375180177588575
  0.3133744833143384  0.9054682849940859  0.4917915574165296
  0.4375331072193088  0.0981516688558407  0.5129441940043867
  0.6857936578670002  0.4221974285720362  0.5635148758598626
  0.5626975052039862  0.5788713162709718  0.4371522840151425
  0.5627616824114476  0.9057384955013390  0.4905441249351201
  0.6886769970064218  0.0983953735907950  0.5112348284150432
  0.9389840206993977  0.4233724991511496  0.5632228437593356
  0.8133286136699981  0.5801024461047002  0.4361213391728671
  0.8132250517816043  0.9060885615985828  0.4901450322083957
  0.9403820666930459  0.0990827443923692  0.5107794056692153
  0.0598799947322439  0.2269423197017976  0.5281444164214361
  0.1884042688106005  0.7757243135096074  0.4658765168476852
  0.3074129277762244  0.2238354733781041  0.5370201992821069
  0.4384647575986776  0.7754605870819381  0.4655870106252204
  0.5611976766853083  0.2251760812979566  0.5352020927038106
  0.6882906924699939  0.7756939254873789  0.4649203835300150
  0.8136128159950573  0.2285137202220478  0.5353158663182714
  0.9383774932646002  0.7760899861120767  0.4652146700666057
  0.0631700508900509  0.6980750576312191  0.5146677253737943
  0.1874380515460316  0.3025314520316269  0.4830447697727684
  0.0614407113837468  0.4366871842255198  0.4668804276440758
  0.1877441674098621  0.5659871304355180  0.5313462488788818
  0.1877598647841430  0.5275038123938004  0.3574320958190940
  0.0640329044629391  0.4757265982446845  0.6405992103400743
  0.1890017338684982  0.9862092483634757  0.4325556908959237
  0.0621912303144704  0.0188191260876704  0.5730299567404309
  0.0615752367945100  0.3305639001349557  0.6089436468522522
  0.1880311524291328  0.6656151136010648  0.3854025485547742
  0.2024469689498358  0.1640158860690858  0.6253962633855925
  0.0642745887100574  0.8298099791298975  0.3931506358475549
  0.0650960240892097  0.1443796433548956  0.4325715308397476
  0.1881133191692242  0.8555358990441357  0.5684282366189273
  0.3135551502753349  0.6976640778770078  0.5148784589735423
  0.4354100819182095  0.3019885406001633  0.4861822271465764
  0.3124683403843584  0.4356013822043658  0.4675599230199360
  0.4389566732484387  0.5649915236696971  0.5315622423866782
  0.4378283436114304  0.5266511841984668  0.3579109187573001
  0.3111258665773139  0.4751793837724768  0.6405151714076708
  0.4375631673369896  0.9852263688560914  0.4316683940312651
  0.3134093535543365  0.0179452139490260  0.5724259325402791
  0.3090116806124037  0.3347535954786364  0.6146027156743437
  0.4377222821604074  0.6652901982438647  0.3857062333739053
  0.4341752341398173  0.1750495887571592  0.6103793842628875
  0.3133598353759690  0.8296235109029847  0.3934433746993468
  0.3119797352702817  0.1455722481456913  0.4353047142347931
  0.4389385846778058  0.8550614584161914  0.5680733225374414
  0.5635941957657142  0.6976843461707359  0.5145705413007767
  0.6851963423292147  0.3040335995468463  0.4857725564004270
  0.5621364437533320  0.4344711367223316  0.4683903785393619
  0.6894055598461134  0.5649376425546412  0.5304534825449686
  0.6881893193073005  0.5263396279021982  0.3579710930889572
  0.5611361350273810  0.4750447776296421  0.6416499887511539
  0.6879906232011334  0.9852340692781101  0.4307794480605360
  0.5633022237253883  0.0186935260273355  0.5715853031154087
  0.5605798416866103  0.3352408207491651  0.6148109786782557
  0.6874337168989806  0.6660910956215301  0.3853228408956455
  0.6882720600329929  0.1749419541875976  0.6085924636856661
  0.5627322470191645  0.8299276205591269  0.3925620218104394
  0.5624441622442218  0.1455027476901999  0.4339375165603033
  0.6886919886105063  0.8555560712069276  0.5670538800315765
  0.8133746836867053  0.6981815011125817  0.5140704853159049
  0.9280419258738689  0.3113210807367329  0.4821384722917679
  0.8108755932107372  0.4352126679141928  0.4685864679100008
  0.9375797836664620  0.5669005916003413  0.5308950891783286
  0.9377963736198450  0.5281381570756879  0.3565770772821509
  0.8122901476531800  0.4763297242734518  0.6417212306725039
  0.9395164066201157  0.9851982131577075  0.4307277431344245
  0.8139402707713733  0.0192449371325606  0.5704314736785654
  0.8128262608043981  0.3378943248453576  0.6155403518160242
  0.9383836400507649  0.6666989113633953  0.3849732937830943
  0.9434730348956051  0.1771581804486388  0.6071022431895742
  0.8135637316502998  0.8298968364642296  0.3923023782025776
  0.8134204718796357  0.1473052933488887  0.4338128596579328
  0.9381468793307333  0.8560759057140384  0.5672766544744906
  0.2883826955103235  0.1313586384349364  0.6746509405311218
 
  0.00000000E+00  0.00000000E+00  0.00000000E+00
  0.00000000E+00  0.00000000E+00  0.00000000E+00
  0.00000000E+00  0.00000000E+00  0.00000000E+00
  0.00000000E+00  0.00000000E+00  0.00000000E+00
  0.00000000E+00  0.00000000E+00  0.00000000E+00
  0.00000000E+00  0.00000000E+00  0.00000000E+00
  0.00000000E+00  0.00000000E+00  0.00000000E+00
  0.00000000E+00  0.00000000E+00  0.00000000E+00
  0.00000000E+00  0.00000000E+00  0.00000000E+00
  0.00000000E+00  0.00000000E+00  0.00000000E+00
  0.00000000E+00  0.00000000E+00  0.00000000E+00
  0.00000000E+00  0.00000000E+00  0.00000000E+00
  0.00000000E+00  0.00000000E+00  0.00000000E+00
  0.00000000E+00  0.00000000E+00  0.00000000E+00
  0.00000000E+00  0.00000000E+00  0.00000000E+00
  0.00000000E+00  0.00000000E+00  0.00000000E+00
  0.00000000E+00  0.00000000E+00  0.00000000E+00
  0.00000000E+00  0.00000000E+00  0.00000000E+00
  0.00000000E+00  0.00000000E+00  0.00000000E+00
  0.00000000E+00  0.00000000E+00  0.00000000E+00
  0.00000000E+00  0.00000000E+00  0.00000000E+00
  0.00000000E+00  0.00000000E+00  0.00000000E+00
  0.00000000E+00  0.00000000E+00  0.00000000E+00
  0.00000000E+00  0.00000000E+00  0.00000000E+00
  0.00000000E+00  0.00000000E+00  0.00000000E+00
  0.00000000E+00  0.00000000E+00  0.00000000E+00
  0.00000000E+00  0.00000000E+00  0.00000000E+00
  0.00000000E+00  0.00000000E+00  0.00000000E+00
  0.00000000E+00  0.00000000E+00  0.00000000E+00
  0.00000000E+00  0.00000000E+00  0.00000000E+00
  0.00000000E+00  0.00000000E+00  0.00000000E+00
  0.00000000E+00  0.00000000E+00  0.00000000E+00
  0.00000000E+00  0.00000000E+00  0.00000000E+00
  0.00000000E+00  0.00000000E+00  0.00000000E+00
  0.00000000E+00  0.00000000E+00  0.00000000E+00
  0.00000000E+00  0.00000000E+00  0.00000000E+00
  0.00000000E+00  0.00000000E+00  0.00000000E+00
  0.00000000E+00  0.00000000E+00  0.00000000E+00
  0.00000000E+00  0.00000000E+00  0.00000000E+00
  0.00000000E+00  0.00000000E+00  0.00000000E+00
  0.00000000E+00  0.00000000E+00  0.00000000E+00
  0.00000000E+00  0.00000000E+00  0.00000000E+00
  0.00000000E+00  0.00000000E+00  0.00000000E+00
  0.00000000E+00  0.00000000E+00  0.00000000E+00
  0.00000000E+00  0.00000000E+00  0.00000000E+00
  0.00000000E+00  0.00000000E+00  0.00000000E+00
  0.00000000E+00  0.00000000E+00  0.00000000E+00
  0.00000000E+00  0.00000000E+00  0.00000000E+00
  0.00000000E+00  0.00000000E+00  0.00000000E+00
  0.00000000E+00  0.00000000E+00  0.00000000E+00
  0.00000000E+00  0.00000000E+00  0.00000000E+00
  0.00000000E+00  0.00000000E+00  0.00000000E+00
  0.00000000E+00  0.00000000E+00  0.00000000E+00
  0.00000000E+00  0.00000000E+00  0.00000000E+00
  0.00000000E+00  0.00000000E+00  0.00000000E+00
  0.00000000E+00  0.00000000E+00  0.00000000E+00
  0.00000000E+00  0.00000000E+00  0.00000000E+00
  0.00000000E+00  0.00000000E+00  0.00000000E+00
  0.00000000E+00  0.00000000E+00  0.00000000E+00
  0.00000000E+00  0.00000000E+00  0.00000000E+00
  0.00000000E+00  0.00000000E+00  0.00000000E+00
  0.00000000E+00  0.00000000E+00  0.00000000E+00
  0.00000000E+00  0.00000000E+00  0.00000000E+00
  0.00000000E+00  0.00000000E+00  0.00000000E+00
  0.00000000E+00  0.00000000E+00  0.00000000E+00
  0.00000000E+00  0.00000000E+00  0.00000000E+00
  0.00000000E+00  0.00000000E+00  0.00000000E+00
  0.00000000E+00  0.00000000E+00  0.00000000E+00
  0.00000000E+00  0.00000000E+00  0.00000000E+00
  0.00000000E+00  0.00000000E+00  0.00000000E+00
  0.00000000E+00  0.00000000E+00  0.00000000E+00
  0.00000000E+00  0.00000000E+00  0.00000000E+00
  0.00000000E+00  0.00000000E+00  0.00000000E+00
  0.00000000E+00  0.00000000E+00  0.00000000E+00
  0.00000000E+00  0.00000000E+00  0.00000000E+00
  0.00000000E+00  0.00000000E+00  0.00000000E+00
  0.00000000E+00  0.00000000E+00  0.00000000E+00
  0.00000000E+00  0.00000000E+00  0.00000000E+00
  0.00000000E+00  0.00000000E+00  0.00000000E+00
  0.00000000E+00  0.00000000E+00  0.00000000E+00
  0.00000000E+00  0.00000000E+00  0.00000000E+00
