CONTCAR\(19)                            
   1.00000000000000     
    11.2035999297999993    0.0000000000000000    0.0000000000000000
     0.0000000000000000   12.2031002045000001    0.0000000000000000
     0.0000000000000000    0.0000000000000000   20.4333000182999989
   Cu   Sb   S    O 
    12    12    24     1
Direct
  0.0007058019917849  0.1233698632985067  0.5504640280944955
  0.9988418155881646  0.3772627660493910  0.4457581634660883
  0.3317567508629509  0.1235537574509422  0.5505883747113671
  0.3339143367828470  0.3775985665674071  0.4460425853505825
  0.6672411273330070  0.1227906249512429  0.5551214293921518
  0.6672591613109020  0.3754960040328115  0.4457917770333211
  0.9993214305981155  0.6322070947899050  0.5531270581487675
  0.0044249937916945  0.8810221930390796  0.4433328789963511
  0.3339435168052631  0.6323448616006431  0.5532350776401529
  0.3286224466687528  0.8814659206104807  0.4438353260225796
  0.6670353791911481  0.6258387118513511  0.5563975650841613
  0.6667334189554381  0.8805395948034658  0.4551353714145350
  0.1662194491618791  0.1298569368412217  0.3683996203472830
  0.1664516886297349  0.3772396555476973  0.6268695198723080
  0.5021886728875558  0.1245896833885638  0.3713819400068488
  0.4996459447342474  0.3748374778043910  0.6272275256678554
  0.8304727024254888  0.1244381190032939  0.3709899403914321
  0.8344378463573321  0.3748494140869170  0.6275747083177166
  0.1665454100514907  0.6266305981289264  0.3710112867402344
  0.1662188857083819  0.8860046890021920  0.6194291300713104
  0.5025402638806398  0.6298667308702264  0.3729300147824972
  0.5176282181399969  0.8646000320326124  0.6480292767549116
  0.8300829808087684  0.6298850691502551  0.3726108514406405
  0.8176852695554402  0.8642635857382501  0.6480525169573141
  0.1665669680339406  0.4342083580630742  0.3922061214983117
  0.1662828377014520  0.1854307055800817  0.6044433048071767
  0.9997909021238982  0.4417623620360871  0.5496024683281249
  0.9990179260580732  0.1906248542429836  0.4469754467480769
  0.5006659941046792  0.4366074695401281  0.3925683868393008
  0.4977460470491479  0.1825754999326534  0.6052550671501749
  0.3335743199788297  0.4418858907269652  0.5498365789653263
  0.3331524495559961  0.1908594152300438  0.4470632537883787
  0.8325412794500053  0.4363789674071725  0.3916943555314489
  0.8358599332527419  0.1824298472758770  0.6059500946262446
  0.6672914437599360  0.4367135254115766  0.5503524964009969
  0.6667212387569776  0.1884646659203213  0.4503463687804086
  0.1665675962392754  0.9360313857397884  0.3842971728578775
  0.1665204652770456  0.6874244722256577  0.6045959566487298
  0.9980602337915840  0.9378627049905148  0.5478416770621024
  0.0004563598167096  0.6929239522433548  0.4481476811811476
  0.5031909605192695  0.9332868022437069  0.3949375334966874
  0.4994597815987589  0.6755289506027395  0.6098095639956256
  0.3352062307166932  0.9379801689236942  0.5484243665217221
  0.3322262509001916  0.6931819288829288  0.4483848890024902
  0.8296333109442529  0.9331184440209697  0.3945010652853540
  0.8343006269057298  0.6750681737717343  0.6100131967333766
  0.6675136413047085  0.9355980631253757  0.5609370611838997
  0.6666711105479024  0.6920696805104711  0.4530387179326354
  0.6675850123911715  0.8360416167122793  0.6992914959294438
 
  0.00000000E+00  0.00000000E+00  0.00000000E+00
  0.00000000E+00  0.00000000E+00  0.00000000E+00
  0.00000000E+00  0.00000000E+00  0.00000000E+00
  0.00000000E+00  0.00000000E+00  0.00000000E+00
  0.00000000E+00  0.00000000E+00  0.00000000E+00
  0.00000000E+00  0.00000000E+00  0.00000000E+00
  0.00000000E+00  0.00000000E+00  0.00000000E+00
  0.00000000E+00  0.00000000E+00  0.00000000E+00
  0.00000000E+00  0.00000000E+00  0.00000000E+00
  0.00000000E+00  0.00000000E+00  0.00000000E+00
  0.00000000E+00  0.00000000E+00  0.00000000E+00
  0.00000000E+00  0.00000000E+00  0.00000000E+00
  0.00000000E+00  0.00000000E+00  0.00000000E+00
  0.00000000E+00  0.00000000E+00  0.00000000E+00
  0.00000000E+00  0.00000000E+00  0.00000000E+00
  0.00000000E+00  0.00000000E+00  0.00000000E+00
  0.00000000E+00  0.00000000E+00  0.00000000E+00
  0.00000000E+00  0.00000000E+00  0.00000000E+00
  0.00000000E+00  0.00000000E+00  0.00000000E+00
  0.00000000E+00  0.00000000E+00  0.00000000E+00
  0.00000000E+00  0.00000000E+00  0.00000000E+00
  0.00000000E+00  0.00000000E+00  0.00000000E+00
  0.00000000E+00  0.00000000E+00  0.00000000E+00
  0.00000000E+00  0.00000000E+00  0.00000000E+00
  0.00000000E+00  0.00000000E+00  0.00000000E+00
  0.00000000E+00  0.00000000E+00  0.00000000E+00
  0.00000000E+00  0.00000000E+00  0.00000000E+00
  0.00000000E+00  0.00000000E+00  0.00000000E+00
  0.00000000E+00  0.00000000E+00  0.00000000E+00
  0.00000000E+00  0.00000000E+00  0.00000000E+00
  0.00000000E+00  0.00000000E+00  0.00000000E+00
  0.00000000E+00  0.00000000E+00  0.00000000E+00
  0.00000000E+00  0.00000000E+00  0.00000000E+00
  0.00000000E+00  0.00000000E+00  0.00000000E+00
  0.00000000E+00  0.00000000E+00  0.00000000E+00
  0.00000000E+00  0.00000000E+00  0.00000000E+00
  0.00000000E+00  0.00000000E+00  0.00000000E+00
  0.00000000E+00  0.00000000E+00  0.00000000E+00
  0.00000000E+00  0.00000000E+00  0.00000000E+00
  0.00000000E+00  0.00000000E+00  0.00000000E+00
  0.00000000E+00  0.00000000E+00  0.00000000E+00
  0.00000000E+00  0.00000000E+00  0.00000000E+00
  0.00000000E+00  0.00000000E+00  0.00000000E+00
  0.00000000E+00  0.00000000E+00  0.00000000E+00
  0.00000000E+00  0.00000000E+00  0.00000000E+00
  0.00000000E+00  0.00000000E+00  0.00000000E+00
  0.00000000E+00  0.00000000E+00  0.00000000E+00
  0.00000000E+00  0.00000000E+00  0.00000000E+00
  0.00000000E+00  0.00000000E+00  0.00000000E+00
