CONTCAR\(6)                             
   1.00000000000000     
    12.6871004104999994    0.0000000000000000    0.0000000000000000
     6.3137961378999998   11.0849910486999992    0.0000000000000000
     0.0000000000000000    0.0000000000000000   18.1028995514000002
   Ti   Br   O 
     8    24     1
Direct
  0.0729380976266275  0.3390074291077542  0.4884198936378786
  0.2523483197781198  0.4937903536623675  0.6258539201297312
  0.5895271561348512  0.3137837010444169  0.4891373180729355
  0.7612226846593272  0.4940707493610711  0.4941461024110944
  0.0978925097612406  0.8310104338833570  0.4886402219352328
  0.2543412388443441  0.9869669734360810  0.4925104939807275
  0.5872927982647411  0.8320736100146350  0.4955054012815509
  0.7445085122792906 -0.0002229540804409  0.4943513713027550
  0.0932120184804925  0.4842773036925868  0.4179438118651907
  0.2474973012509449  0.3105739100779603  0.5891058239374759
  0.2471271750484952  0.1620409484078573  0.4143147679826449
  0.0864598026330785  0.1604787429930576  0.5698827965381922
  0.4434113276882721  0.4863234330491529  0.5915184094838037
  0.4237326226357802  0.3333499781724109  0.4189444897196393
  0.5919337669220117  0.4884582907669482  0.4158053574225581
  0.7531107319885127  0.3287803901913221  0.5724234459500857
  0.7514995556094756  0.1578292687127504  0.4068791829778796
  0.5953526755382232  0.1599794751373993  0.5826973325332816
  0.9213649321865588  0.4848663005384559  0.5830061995856759
  0.9154387042331877  0.3351085642306172  0.4048460784323251
  0.0926900392437506  0.9911137811754286  0.4042451888841520
  0.2460052159133664  0.8372551866947751  0.5820563250650531
  0.2434872531025441  0.6658958275659760  0.4187119462158895
  0.0714482302205169  0.6841383422601141  0.5906200320543895
  0.4195784206948391  0.9880300697090743  0.5780386477526356
  0.4212945194337280  0.8309697014292844  0.4104685326404734
  0.5891895899662734  0.9916208137789513  0.4087798991884133
  0.7462082183525458  0.8365207064746292  0.5805272063601130
  0.7507391233683329  0.6628115035806846  0.4123197881753898
  0.5952838761245537  0.6612907117029403  0.5771365680420032
  0.9206664212051699  0.9936539279440835  0.5713155588412584
  0.9196690575821450  0.8329605154222498  0.4157976434777737
  0.2512276952286874  0.4926627848620537  0.7152201621217521
 
  0.00000000E+00  0.00000000E+00  0.00000000E+00
  0.00000000E+00  0.00000000E+00  0.00000000E+00
  0.00000000E+00  0.00000000E+00  0.00000000E+00
  0.00000000E+00  0.00000000E+00  0.00000000E+00
  0.00000000E+00  0.00000000E+00  0.00000000E+00
  0.00000000E+00  0.00000000E+00  0.00000000E+00
  0.00000000E+00  0.00000000E+00  0.00000000E+00
  0.00000000E+00  0.00000000E+00  0.00000000E+00
  0.00000000E+00  0.00000000E+00  0.00000000E+00
  0.00000000E+00  0.00000000E+00  0.00000000E+00
  0.00000000E+00  0.00000000E+00  0.00000000E+00
  0.00000000E+00  0.00000000E+00  0.00000000E+00
  0.00000000E+00  0.00000000E+00  0.00000000E+00
  0.00000000E+00  0.00000000E+00  0.00000000E+00
  0.00000000E+00  0.00000000E+00  0.00000000E+00
  0.00000000E+00  0.00000000E+00  0.00000000E+00
  0.00000000E+00  0.00000000E+00  0.00000000E+00
  0.00000000E+00  0.00000000E+00  0.00000000E+00
  0.00000000E+00  0.00000000E+00  0.00000000E+00
  0.00000000E+00  0.00000000E+00  0.00000000E+00
  0.00000000E+00  0.00000000E+00  0.00000000E+00
  0.00000000E+00  0.00000000E+00  0.00000000E+00
  0.00000000E+00  0.00000000E+00  0.00000000E+00
  0.00000000E+00  0.00000000E+00  0.00000000E+00
  0.00000000E+00  0.00000000E+00  0.00000000E+00
  0.00000000E+00  0.00000000E+00  0.00000000E+00
  0.00000000E+00  0.00000000E+00  0.00000000E+00
  0.00000000E+00  0.00000000E+00  0.00000000E+00
  0.00000000E+00  0.00000000E+00  0.00000000E+00
  0.00000000E+00  0.00000000E+00  0.00000000E+00
  0.00000000E+00  0.00000000E+00  0.00000000E+00
  0.00000000E+00  0.00000000E+00  0.00000000E+00
  0.00000000E+00  0.00000000E+00  0.00000000E+00
