CONTCAR\(2)                             
   1.00000000000000     
    10.9748001099000003    0.0000000000000000    0.0000000000000000
     0.0000000000000000   11.5423002242999999    0.0000000000000000
     0.0000000000000000    0.0000000000000000   19.8365993500000002
   Cr   B    O    H 
    32    32    32     1
Direct
  0.0001782112719019  0.1258596714922754  0.5672921038294382
  0.1255716656696874  0.1250629682989707  0.4344206755976119
  0.2501790196644509  0.1258447046995587  0.5676742937815644
  0.3751350006622811  0.1251844447512422  0.4350163498634590
  0.4997845678108663  0.1258157814567569  0.5676294601406180
  0.6245712426153353  0.1251391118510501  0.4345905261730753
  0.7498643294997328  0.1258811766177773  0.5674554836367466
  0.8748460511429507  0.1253657984911728  0.4341804860131926
  0.0023463985578761  0.3758759748908397  0.5680017890070834
  0.1253233570106729  0.3752566407440024  0.4340720924053574
  0.2525175304592226  0.3768537023281543  0.5653898906945574
  0.3750910571490227  0.3751198933540457  0.4330974034998962
  0.4975279052402755  0.3769028327645947  0.5654650380563760
  0.6249289700081845  0.3753120363816440  0.4342268436613511
  0.7477355774042644  0.3758739697188317  0.5682267843916695
  0.8749887910470038  0.3753492042795754  0.4347990055117237
  0.0011817478665259  0.6245783294282045  0.5667254912594178
  0.1271557603821798  0.6259590745664093  0.4328554568840694
  0.2469770009394075  0.6243509750642682  0.5648017073725566
  0.3749347368567279  0.6259496779995053  0.4332836443417755
  0.5030424410545243  0.6244063393447511  0.5648347355647539
  0.6229397214419915  0.6259542514031201  0.4327966298208922
  0.7488236003710133  0.6245982377744026  0.5667746579252485
  0.8749800735409263  0.6257377147197002  0.4332623112607609
 -0.0002980510539287  0.8748816810276312  0.5674377626929732
  0.1257316417870584  0.8755295804351106  0.4348930624901574
  0.2499000691388258  0.8748985154476663  0.5678927443445756
  0.3750054201828048  0.8755202812855767  0.4354284510965418
  0.5000353231151126  0.8748934457520459  0.5677957487037467
  0.6242609944625394  0.8755143896286759  0.4349252541831971
  0.7503134973045332  0.8748987671784031  0.5675043292418526
  0.8748892757798833  0.8754861380968071  0.4344624038183466
  0.0000502135913096  0.0004347610610742  0.4795141067021666
  0.1248116383745056  0.0004145869327137  0.5229875461572753
  0.2501110643516747  0.0003996076994712  0.4801018359394553
  0.3750351381656014  0.0004639113111752  0.5234223239115363
  0.4999020864822744  0.0003688901521810  0.4799880952401836
  0.6250916206662790  0.0004300110062907  0.5230078341951291
  0.7499133689005684  0.0005331646130962  0.4795912078900916
  0.8750267952251651  0.0002315108110284  0.5227019495604905
  0.0001850835514748  0.2504166540315629  0.4793740745915465
  0.1254452458285378  0.2506859075240221  0.5223269858354412
  0.2502347973811408  0.2503206505082892  0.4789641948247721
  0.3750545865997854  0.2514259808904071  0.5225748760590490
  0.4999189800515406  0.2503231527413174  0.4790343085908138
  0.6245840650450222  0.2507217534190035  0.5225041379460434
  0.7498444002501108  0.2505138861574854  0.4795143403162282
  0.8750870305747096  0.2502313584684125  0.5223797081291790
  0.0002012700845096  0.5001816785537635  0.4790573411182590
  0.1261341623663596  0.5011788031686484  0.5211198209811974
  0.2509316058906833  0.5007389484257888  0.4773572384524282
  0.3750488823121724  0.5024454017780622  0.5221749402975744
  0.4992338353501409  0.5007726533405663  0.4774492306585267
  0.6239882363856827  0.5012277346861203  0.5212450950138611
  0.7498579432156992  0.5002313606289890  0.4791057258962487
  0.8750373435424884  0.5011112833425574  0.5219399972907796
  0.0000675093118759  0.7505320743972907  0.4792423418758124
  0.1251226156851633  0.7494774447211574  0.5222358251202480
  0.2508094379344672  0.7502565607582793  0.4793548311763802
  0.3750015873734149  0.7475507795082033  0.5239002190432285
  0.4991550324581182  0.7502096859922600  0.4793093629913427
  0.6248033926973531  0.7494590217820071  0.5222376121321065
  0.7498676578996343  0.7506207513433536  0.4792469023775612
  0.8749835733646310  0.7498445052933171  0.5222860251995893
  0.1248712961681662  0.1260620923592007  0.6275873572030083
  0.0000639340132952  0.1248514187857160  0.3744098602934562
  0.3750677193873783  0.1266500680839223  0.6278671152847572
  0.2502273185233894  0.1246474237089074  0.3744615601867678
  0.6249562141488134  0.1259801010591907  0.6276415057247199
  0.4998655378728935  0.1248429532363569  0.3744851530944051
  0.8751153415137701  0.1256939531437861  0.6274464602625610
  0.7498705294078455  0.1249818382776508  0.3743769797551487
  0.1259621053119150  0.3763543466003464  0.6269790438360550
 -0.0000709439489779  0.3750511603630032  0.3743992188075945
  0.3750887960946498  0.3814081208023790  0.6285762616818634
  0.2500538866006620  0.3749617715107996  0.3733681659227420
  0.6239654910048704  0.3763955996949060  0.6270976614812505
  0.5001945103758495  0.3750391567842818  0.3734491453186985
  0.8751656702469247  0.3750799544298312  0.6264482606666911
  0.7501557596861081  0.3751636434410056  0.3744070801554424
  0.1264467876082176  0.6228743105647011  0.6276547293074169
  0.0002922129676941  0.6259418112839041  0.3743621688481981
  0.3750016157894169  0.6244712291268674  0.6356678647123112
  0.2502405552184003  0.6263073910762952  0.3726130683126452
  0.6234026453464029  0.6229516090844862  0.6277131064005377
  0.4997426099117021  0.6262324049490688  0.3726467149283214
  0.8750302666995767  0.6247693323359274  0.6267553950405746
  0.7497618768345696  0.6259694887657463  0.3743245977302376
  0.1246284606663810  0.8749025754648851  0.6275807007681585
  0.0004566163868201  0.8758916181183597  0.3747130742120731
  0.3750792734448812  0.8742824414450583  0.6277115193862334
  0.2503908756575572  0.8753043799707285  0.3747240552083395
  0.6251262992062292  0.8749159502802775  0.6275456827939683
  0.4995039983016917  0.8752006249946238  0.3747124488059437
  0.8750341302690735  0.8750552887398715  0.6276086188657001
  0.7494760065939644  0.8759617880521919  0.3746824551422276
  0.3749594783939198  0.5540344511449445  0.6637309100828628
 
  0.00000000E+00  0.00000000E+00  0.00000000E+00
  0.00000000E+00  0.00000000E+00  0.00000000E+00
  0.00000000E+00  0.00000000E+00  0.00000000E+00
  0.00000000E+00  0.00000000E+00  0.00000000E+00
  0.00000000E+00  0.00000000E+00  0.00000000E+00
  0.00000000E+00  0.00000000E+00  0.00000000E+00
  0.00000000E+00  0.00000000E+00  0.00000000E+00
  0.00000000E+00  0.00000000E+00  0.00000000E+00
  0.00000000E+00  0.00000000E+00  0.00000000E+00
  0.00000000E+00  0.00000000E+00  0.00000000E+00
  0.00000000E+00  0.00000000E+00  0.00000000E+00
  0.00000000E+00  0.00000000E+00  0.00000000E+00
  0.00000000E+00  0.00000000E+00  0.00000000E+00
  0.00000000E+00  0.00000000E+00  0.00000000E+00
  0.00000000E+00  0.00000000E+00  0.00000000E+00
  0.00000000E+00  0.00000000E+00  0.00000000E+00
  0.00000000E+00  0.00000000E+00  0.00000000E+00
  0.00000000E+00  0.00000000E+00  0.00000000E+00
  0.00000000E+00  0.00000000E+00  0.00000000E+00
  0.00000000E+00  0.00000000E+00  0.00000000E+00
  0.00000000E+00  0.00000000E+00  0.00000000E+00
  0.00000000E+00  0.00000000E+00  0.00000000E+00
  0.00000000E+00  0.00000000E+00  0.00000000E+00
  0.00000000E+00  0.00000000E+00  0.00000000E+00
  0.00000000E+00  0.00000000E+00  0.00000000E+00
  0.00000000E+00  0.00000000E+00  0.00000000E+00
  0.00000000E+00  0.00000000E+00  0.00000000E+00
  0.00000000E+00  0.00000000E+00  0.00000000E+00
  0.00000000E+00  0.00000000E+00  0.00000000E+00
  0.00000000E+00  0.00000000E+00  0.00000000E+00
  0.00000000E+00  0.00000000E+00  0.00000000E+00
  0.00000000E+00  0.00000000E+00  0.00000000E+00
  0.00000000E+00  0.00000000E+00  0.00000000E+00
  0.00000000E+00  0.00000000E+00  0.00000000E+00
  0.00000000E+00  0.00000000E+00  0.00000000E+00
  0.00000000E+00  0.00000000E+00  0.00000000E+00
  0.00000000E+00  0.00000000E+00  0.00000000E+00
  0.00000000E+00  0.00000000E+00  0.00000000E+00
  0.00000000E+00  0.00000000E+00  0.00000000E+00
  0.00000000E+00  0.00000000E+00  0.00000000E+00
  0.00000000E+00  0.00000000E+00  0.00000000E+00
  0.00000000E+00  0.00000000E+00  0.00000000E+00
  0.00000000E+00  0.00000000E+00  0.00000000E+00
  0.00000000E+00  0.00000000E+00  0.00000000E+00
  0.00000000E+00  0.00000000E+00  0.00000000E+00
  0.00000000E+00  0.00000000E+00  0.00000000E+00
  0.00000000E+00  0.00000000E+00  0.00000000E+00
  0.00000000E+00  0.00000000E+00  0.00000000E+00
  0.00000000E+00  0.00000000E+00  0.00000000E+00
  0.00000000E+00  0.00000000E+00  0.00000000E+00
  0.00000000E+00  0.00000000E+00  0.00000000E+00
  0.00000000E+00  0.00000000E+00  0.00000000E+00
  0.00000000E+00  0.00000000E+00  0.00000000E+00
  0.00000000E+00  0.00000000E+00  0.00000000E+00
  0.00000000E+00  0.00000000E+00  0.00000000E+00
  0.00000000E+00  0.00000000E+00  0.00000000E+00
  0.00000000E+00  0.00000000E+00  0.00000000E+00
  0.00000000E+00  0.00000000E+00  0.00000000E+00
  0.00000000E+00  0.00000000E+00  0.00000000E+00
  0.00000000E+00  0.00000000E+00  0.00000000E+00
  0.00000000E+00  0.00000000E+00  0.00000000E+00
  0.00000000E+00  0.00000000E+00  0.00000000E+00
  0.00000000E+00  0.00000000E+00  0.00000000E+00
  0.00000000E+00  0.00000000E+00  0.00000000E+00
  0.00000000E+00  0.00000000E+00  0.00000000E+00
  0.00000000E+00  0.00000000E+00  0.00000000E+00
  0.00000000E+00  0.00000000E+00  0.00000000E+00
  0.00000000E+00  0.00000000E+00  0.00000000E+00
  0.00000000E+00  0.00000000E+00  0.00000000E+00
  0.00000000E+00  0.00000000E+00  0.00000000E+00
  0.00000000E+00  0.00000000E+00  0.00000000E+00
  0.00000000E+00  0.00000000E+00  0.00000000E+00
  0.00000000E+00  0.00000000E+00  0.00000000E+00
  0.00000000E+00  0.00000000E+00  0.00000000E+00
  0.00000000E+00  0.00000000E+00  0.00000000E+00
  0.00000000E+00  0.00000000E+00  0.00000000E+00
  0.00000000E+00  0.00000000E+00  0.00000000E+00
  0.00000000E+00  0.00000000E+00  0.00000000E+00
  0.00000000E+00  0.00000000E+00  0.00000000E+00
  0.00000000E+00  0.00000000E+00  0.00000000E+00
  0.00000000E+00  0.00000000E+00  0.00000000E+00
  0.00000000E+00  0.00000000E+00  0.00000000E+00
  0.00000000E+00  0.00000000E+00  0.00000000E+00
  0.00000000E+00  0.00000000E+00  0.00000000E+00
  0.00000000E+00  0.00000000E+00  0.00000000E+00
  0.00000000E+00  0.00000000E+00  0.00000000E+00
  0.00000000E+00  0.00000000E+00  0.00000000E+00
  0.00000000E+00  0.00000000E+00  0.00000000E+00
  0.00000000E+00  0.00000000E+00  0.00000000E+00
  0.00000000E+00  0.00000000E+00  0.00000000E+00
  0.00000000E+00  0.00000000E+00  0.00000000E+00
  0.00000000E+00  0.00000000E+00  0.00000000E+00
  0.00000000E+00  0.00000000E+00  0.00000000E+00
  0.00000000E+00  0.00000000E+00  0.00000000E+00
  0.00000000E+00  0.00000000E+00  0.00000000E+00
  0.00000000E+00  0.00000000E+00  0.00000000E+00
  0.00000000E+00  0.00000000E+00  0.00000000E+00
