CONTCAR\(9)                             
   1.00000000000000     
    11.9372997283999993    0.0000000000000000    0.0000000000000000
    -5.9686498641999997   10.3380048173999999    0.0000000000000000
     0.0000000000000000    0.0000000000000000   21.4568004608000003
   In   Se   O    H 
    18    27     1     1
Direct
  0.2208839524379869  0.1091386172442625  0.4105523875347927
  0.1104204747575750  0.2251942887455414  0.5891377067124992
  0.5579702223192911  0.1218901825869168  0.4035735239432512
  0.4463235079035641  0.2229564493218348  0.5893751678278960
  0.8975157879552071  0.1192166426539245  0.4048756602382326
  0.7737136954086878  0.2159089216727281  0.5883317897050944
  0.2250647184818604  0.4458155293274828  0.4086174336546904
  0.1110558228421397  0.5569334177959746  0.5907700742884288
  0.5598240395255161  0.4485575069704666  0.4062816743160198
  0.4333600410464626  0.5344674009963200  0.5792823264314748
  0.8934340579028515  0.4471112643343460  0.4074459351083775
  0.7791666109776969  0.5562792856084045  0.5900244607606453
  0.2246542333053867  0.7740928642621014  0.4131740751201463
  0.1130197970515852  0.8959148682842510  0.5925517572187289
  0.5609978568126195  0.7765497906273779  0.4159842798425117
  0.4288346300888151  0.8997325909048044  0.5916664232386495
  0.8920571148958558  0.7716822794233664  0.4136248464283554
  0.8003905319811366  0.9002941913562452  0.5889615281271148
  0.9892320100816718  0.9672323886178660  0.5017317926031595
  0.2241255437480589  0.1153584282714988  0.6541505764634294
  0.1180402427923042  0.2262197644110202  0.3440146855034385
  0.3061542631478105  0.9653376935428000  0.5031237632085919
  0.5552849371328179  0.1112401445524824  0.6573082694406480
  0.4406945912381843  0.2268478253392701  0.3440929266167458
  0.6334279807786203  0.9391618441156453  0.5149139779991714
  0.8893316373900646  0.1108894218795200  0.6559759399671989
  0.7810652859549521  0.2266058648028704  0.3435429068247799
  0.9703336391570545  0.2862307855155635  0.4993085126548564
  0.2224751363936335  0.4439183774904123  0.6527762666757582
  0.1139981672304842  0.5572961683391782  0.3447594469342903
  0.3130160252306524  0.3043258300070519  0.4999365745089648
  0.5551868993411802  0.4434163199286019  0.6515566909089188
  0.4483152496508964  0.5639074560832285  0.3466655723000827
  0.6390767832179876  0.2845226230379794  0.4996417635466486
  0.8851394036645317  0.4363403319285339  0.6513885935776074
  0.7808404082176423  0.5566967875011741  0.3438476702303888
  0.9727796801450026  0.6245835163079434  0.4999798073288133
  0.2131503962848953  0.7723361298360558  0.6570251926072928
  0.1133871137013642  0.8861158747940081  0.3491364133828938
  0.3018729686811952  0.6284057927623010  0.4993796026193564
  0.5517700086493207  0.7717416138635258  0.6405889198545935
  0.4515052891233395  0.8921203586372215  0.3533652008691277
  0.6489930423051149  0.6275956564673422  0.4979608226325567
  0.8884701608190184  0.7730187188329793  0.6553391274946776
  0.7818036522903000  0.8906600129569782  0.3526516838557114
  0.5153111276626632  0.6962990316511863  0.7191045667419687
  0.5559515262750097  0.7682594654093933  0.7486518391513783
 
  0.00000000E+00  0.00000000E+00  0.00000000E+00
  0.00000000E+00  0.00000000E+00  0.00000000E+00
  0.00000000E+00  0.00000000E+00  0.00000000E+00
  0.00000000E+00  0.00000000E+00  0.00000000E+00
  0.00000000E+00  0.00000000E+00  0.00000000E+00
  0.00000000E+00  0.00000000E+00  0.00000000E+00
  0.00000000E+00  0.00000000E+00  0.00000000E+00
  0.00000000E+00  0.00000000E+00  0.00000000E+00
  0.00000000E+00  0.00000000E+00  0.00000000E+00
  0.00000000E+00  0.00000000E+00  0.00000000E+00
  0.00000000E+00  0.00000000E+00  0.00000000E+00
  0.00000000E+00  0.00000000E+00  0.00000000E+00
  0.00000000E+00  0.00000000E+00  0.00000000E+00
  0.00000000E+00  0.00000000E+00  0.00000000E+00
  0.00000000E+00  0.00000000E+00  0.00000000E+00
  0.00000000E+00  0.00000000E+00  0.00000000E+00
  0.00000000E+00  0.00000000E+00  0.00000000E+00
  0.00000000E+00  0.00000000E+00  0.00000000E+00
  0.00000000E+00  0.00000000E+00  0.00000000E+00
  0.00000000E+00  0.00000000E+00  0.00000000E+00
  0.00000000E+00  0.00000000E+00  0.00000000E+00
  0.00000000E+00  0.00000000E+00  0.00000000E+00
  0.00000000E+00  0.00000000E+00  0.00000000E+00
  0.00000000E+00  0.00000000E+00  0.00000000E+00
  0.00000000E+00  0.00000000E+00  0.00000000E+00
  0.00000000E+00  0.00000000E+00  0.00000000E+00
  0.00000000E+00  0.00000000E+00  0.00000000E+00
  0.00000000E+00  0.00000000E+00  0.00000000E+00
  0.00000000E+00  0.00000000E+00  0.00000000E+00
  0.00000000E+00  0.00000000E+00  0.00000000E+00
  0.00000000E+00  0.00000000E+00  0.00000000E+00
  0.00000000E+00  0.00000000E+00  0.00000000E+00
  0.00000000E+00  0.00000000E+00  0.00000000E+00
  0.00000000E+00  0.00000000E+00  0.00000000E+00
  0.00000000E+00  0.00000000E+00  0.00000000E+00
  0.00000000E+00  0.00000000E+00  0.00000000E+00
  0.00000000E+00  0.00000000E+00  0.00000000E+00
  0.00000000E+00  0.00000000E+00  0.00000000E+00
  0.00000000E+00  0.00000000E+00  0.00000000E+00
  0.00000000E+00  0.00000000E+00  0.00000000E+00
  0.00000000E+00  0.00000000E+00  0.00000000E+00
  0.00000000E+00  0.00000000E+00  0.00000000E+00
  0.00000000E+00  0.00000000E+00  0.00000000E+00
  0.00000000E+00  0.00000000E+00  0.00000000E+00
  0.00000000E+00  0.00000000E+00  0.00000000E+00
  0.00000000E+00  0.00000000E+00  0.00000000E+00
  0.00000000E+00  0.00000000E+00  0.00000000E+00
