CONTCAR\(6)                             
   1.00000000000000     
    12.0100002288999992    0.0000000000000000    0.0000000000000000
     0.0000000000000000   13.6953001021999992    0.0000000000000000
     0.0000000000000000    0.0000000000000000   20.2971992493000002
   Hf   Te   O    H 
     6    30     2     1
Direct
  0.1666014188043810  0.0066380881721563  0.5444516862159855
  0.9793874046183292  0.5156077867651453  0.4625181410675391
  0.5008530062507138  0.0076369996838450  0.5469296409332611
  0.3455743860859796  0.5041034313504089  0.4400677240291664
  0.8322004783695702  0.0127932533438382  0.5461775342289059
  0.6609656714818672  0.5153420502203974  0.4505509270423989
 -0.0017665576748810  0.6954123942212168  0.5372287518376769
  0.1664002012272688  0.8190522808795586  0.4717432942750843
  0.1673317039209109  0.4948565306296231  0.5550128929539054
 -0.0030744129349007 -0.0061884162175554  0.4353829765684117
  0.1524709124523647  0.5933128839682744  0.3690180788289809
 -0.0008782660638780  0.9187777170128194  0.6321723953962317
  0.0018919735149443  0.1219559749339320  0.6199083434415023
  0.1848713880117382  0.3950337829846769  0.3496066182875213
  0.0053924865241758  0.3180794292436010  0.5117482825101218
  0.1757211820535238  0.1764835718038703  0.4557728639911884
  0.3224698877915190  0.6737144209787298  0.5342351897484052
  0.4979626820693495  0.8108498461478396  0.4834132103313897
  0.4950117515357194  0.4935134862874354  0.5599715914215787
  0.3350275931921464 -0.0020134402615248  0.4354470507457361
  0.4968355473849246  0.6440790133153990  0.3805036954842794
  0.3327252458152631  0.9099999617492193  0.6300053545641314
  0.3321544320894174  0.1134934804851020  0.6241505356538541
  0.5215860202601184  0.3939368071578210  0.3699207987418026
  0.3361742154153899  0.3189765183290065  0.5190937961920395
  0.5002839698233122  0.1826453904883704  0.4627249290653727
  0.6666891869815782  0.6828339890921286  0.5439826342626589
  0.8297234890904237  0.8237933876179545  0.4778719047237331
  0.8200432243687288  0.5032526354587917  0.5665135630177867
  0.6649325131783299 -0.0014678844717722  0.4370125241384542
  0.8278106581431272  0.6256055615352023  0.3758245815670609
  0.6673472730892047  0.9154050648263262  0.6329057992560242
  0.6652109532554660  0.1191131008400217  0.6245404746709570
  0.8391564746863560  0.4232177677514347  0.3658480302007843
  0.6671252014502898  0.3218457601824177  0.5204256562301159
  0.8313364529594672  0.1857882854543731  0.4581495591754373
  0.2708459959597289  0.3976445931254656  0.2660603918237008
  0.4140096110760543  0.5080598941858314  0.3409359203604489
  0.3353646347419703  0.4404344697286103  0.2763927120163621
 
  0.00000000E+00  0.00000000E+00  0.00000000E+00
  0.00000000E+00  0.00000000E+00  0.00000000E+00
  0.00000000E+00  0.00000000E+00  0.00000000E+00
  0.00000000E+00  0.00000000E+00  0.00000000E+00
  0.00000000E+00  0.00000000E+00  0.00000000E+00
  0.00000000E+00  0.00000000E+00  0.00000000E+00
  0.00000000E+00  0.00000000E+00  0.00000000E+00
  0.00000000E+00  0.00000000E+00  0.00000000E+00
  0.00000000E+00  0.00000000E+00  0.00000000E+00
  0.00000000E+00  0.00000000E+00  0.00000000E+00
  0.00000000E+00  0.00000000E+00  0.00000000E+00
  0.00000000E+00  0.00000000E+00  0.00000000E+00
  0.00000000E+00  0.00000000E+00  0.00000000E+00
  0.00000000E+00  0.00000000E+00  0.00000000E+00
  0.00000000E+00  0.00000000E+00  0.00000000E+00
  0.00000000E+00  0.00000000E+00  0.00000000E+00
  0.00000000E+00  0.00000000E+00  0.00000000E+00
  0.00000000E+00  0.00000000E+00  0.00000000E+00
  0.00000000E+00  0.00000000E+00  0.00000000E+00
  0.00000000E+00  0.00000000E+00  0.00000000E+00
  0.00000000E+00  0.00000000E+00  0.00000000E+00
  0.00000000E+00  0.00000000E+00  0.00000000E+00
  0.00000000E+00  0.00000000E+00  0.00000000E+00
  0.00000000E+00  0.00000000E+00  0.00000000E+00
  0.00000000E+00  0.00000000E+00  0.00000000E+00
  0.00000000E+00  0.00000000E+00  0.00000000E+00
  0.00000000E+00  0.00000000E+00  0.00000000E+00
  0.00000000E+00  0.00000000E+00  0.00000000E+00
  0.00000000E+00  0.00000000E+00  0.00000000E+00
  0.00000000E+00  0.00000000E+00  0.00000000E+00
  0.00000000E+00  0.00000000E+00  0.00000000E+00
  0.00000000E+00  0.00000000E+00  0.00000000E+00
  0.00000000E+00  0.00000000E+00  0.00000000E+00
  0.00000000E+00  0.00000000E+00  0.00000000E+00
  0.00000000E+00  0.00000000E+00  0.00000000E+00
  0.00000000E+00  0.00000000E+00  0.00000000E+00
  0.00000000E+00  0.00000000E+00  0.00000000E+00
  0.00000000E+00  0.00000000E+00  0.00000000E+00
  0.00000000E+00  0.00000000E+00  0.00000000E+00
