CONTCAR                                 
   1.00000000000000     
    14.5194997787000002    0.0000000000000000    0.0000000000000000
     0.0000000000000000   10.2968997954999999    0.0000000000000000
     0.0000000000000000    0.0000000000000000   22.7084999084000003
   K    Ru   Br   O 
     8     4    24     1
Direct
  0.4065117233932872  0.7304578601659892  0.5678966074403932
  0.1653473324481742  0.2223829725297410  0.4453064007235514
  0.1534177748705729  0.7511828881167346  0.4304488629208131
  0.4047743145762128  0.2527207689117381  0.5672097201095261
  0.9003124732722664  0.7284148455259192  0.5758632747598628
  0.6548449338135777  0.2242726266085789  0.4265416143930958
  0.6601995983615666  0.7594527356897773  0.4265669628521749
  0.8915357893732808  0.2663585434902850  0.5739063375483386
  0.1534151155698663  0.5097633424784230  0.5925678620394214
  0.4077183987348155  0.9818265363457418  0.4102993166653791
  0.6495185254244126  0.4932053266262633  0.5794133265703914
  0.9095625866750152 -0.0009960936091813  0.4251318261328884
  0.0265002520848027  0.5014871855341608  0.6670193655589123
  0.4027514951741784  0.2278888505598332  0.4138920802595286
  0.5244437117914367  0.9856341552047089  0.4941807570112110
  0.1483648063391709  0.2755208023999896  0.6112735582548725
  0.0365056662589337  0.4868150753817447  0.5092843844334919
  0.4126633658228191  0.7389020129121440  0.4064214486288012
  0.2858850297097312  0.9844271983953305  0.3353801039914675
  0.2716163221785916  0.5012562348229956  0.5092810205610946
  0.2895917051945375  0.9680344483093706  0.4915915953709613
  0.1445621937280273  0.7519084040369979  0.5854769600777061
  0.5345249048642291  0.9938312059920416  0.3372385318022559
  0.2778986030076361  0.5306940537393648  0.6657733191474644
  0.5236567475856317  0.4901172962029386  0.6529087686929835
  0.9033719397590575  0.2417387065975117  0.4207332754365431
  0.0214974253883934  0.0109159104041500  0.5111813350497835
  0.6502292180601590  0.2487111848293224  0.5803862222440914
  0.5347765544981201  0.4921402917203461  0.4953462698816079
  0.9156810297942352  0.7542925057742444  0.4253175847364227
  0.7916439959213217  0.9888245401541214  0.3462385002688199
  0.7708478882181604  0.4974769592083902  0.4986862759483779
  0.7850892908881973  0.9930108639775691  0.5036207962783795
  0.6496702314300886  0.7367528120310516  0.5826492113797339
  0.0393401049222272  0.0021800874823927  0.3542521749505239
  0.7715600121276093  0.4920049028906917  0.6563465799807986
  0.2253989277396635  0.1863917405585751  0.5670876878983223
 
  0.00000000E+00  0.00000000E+00  0.00000000E+00
  0.00000000E+00  0.00000000E+00  0.00000000E+00
  0.00000000E+00  0.00000000E+00  0.00000000E+00
  0.00000000E+00  0.00000000E+00  0.00000000E+00
  0.00000000E+00  0.00000000E+00  0.00000000E+00
  0.00000000E+00  0.00000000E+00  0.00000000E+00
  0.00000000E+00  0.00000000E+00  0.00000000E+00
  0.00000000E+00  0.00000000E+00  0.00000000E+00
  0.00000000E+00  0.00000000E+00  0.00000000E+00
  0.00000000E+00  0.00000000E+00  0.00000000E+00
  0.00000000E+00  0.00000000E+00  0.00000000E+00
  0.00000000E+00  0.00000000E+00  0.00000000E+00
  0.00000000E+00  0.00000000E+00  0.00000000E+00
  0.00000000E+00  0.00000000E+00  0.00000000E+00
  0.00000000E+00  0.00000000E+00  0.00000000E+00
  0.00000000E+00  0.00000000E+00  0.00000000E+00
  0.00000000E+00  0.00000000E+00  0.00000000E+00
  0.00000000E+00  0.00000000E+00  0.00000000E+00
  0.00000000E+00  0.00000000E+00  0.00000000E+00
  0.00000000E+00  0.00000000E+00  0.00000000E+00
  0.00000000E+00  0.00000000E+00  0.00000000E+00
  0.00000000E+00  0.00000000E+00  0.00000000E+00
  0.00000000E+00  0.00000000E+00  0.00000000E+00
  0.00000000E+00  0.00000000E+00  0.00000000E+00
  0.00000000E+00  0.00000000E+00  0.00000000E+00
  0.00000000E+00  0.00000000E+00  0.00000000E+00
  0.00000000E+00  0.00000000E+00  0.00000000E+00
  0.00000000E+00  0.00000000E+00  0.00000000E+00
  0.00000000E+00  0.00000000E+00  0.00000000E+00
  0.00000000E+00  0.00000000E+00  0.00000000E+00
  0.00000000E+00  0.00000000E+00  0.00000000E+00
  0.00000000E+00  0.00000000E+00  0.00000000E+00
  0.00000000E+00  0.00000000E+00  0.00000000E+00
  0.00000000E+00  0.00000000E+00  0.00000000E+00
  0.00000000E+00  0.00000000E+00  0.00000000E+00
  0.00000000E+00  0.00000000E+00  0.00000000E+00
  0.00000000E+00  0.00000000E+00  0.00000000E+00
