 Ta4 Te6                                
   1.00000000000000     
     3.4115644248993267    0.0000000000000000    0.0000000000000000
     1.7063466186331195   10.2395897112368974    0.0000000000000000
     0.0000000000000000    0.0000000000000000   19.9378194925499983
   Ta   Te
     4     6
Direct
  0.5736056744309863  0.8527572340353800  0.4915537221565103
  0.4263945856172739  0.1472425253667637  0.5084464370060999
  0.8043737322517970  0.3914198308438159  0.5220913953390891
  0.1956264377870767  0.6085800724303496  0.4779087270462270
  0.6757283362291702  0.6480149984808961  0.5875516802867082
  0.3242720229160838  0.3519847176590503  0.4124484304249876
  0.6508417359115626  0.6982671622302306  0.3749601708373760
  0.3491585977475182  0.3017325714220362  0.6250399370586379
  0.0096308840959978  0.9807350488231137  0.5877504916686505
  0.9903658039803886  0.0192702153245392  0.4122490081757206
 
  0.00000000E+00  0.00000000E+00  0.00000000E+00
  0.00000000E+00  0.00000000E+00  0.00000000E+00
  0.00000000E+00  0.00000000E+00  0.00000000E+00
  0.00000000E+00  0.00000000E+00  0.00000000E+00
  0.00000000E+00  0.00000000E+00  0.00000000E+00
  0.00000000E+00  0.00000000E+00  0.00000000E+00
  0.00000000E+00  0.00000000E+00  0.00000000E+00
  0.00000000E+00  0.00000000E+00  0.00000000E+00
  0.00000000E+00  0.00000000E+00  0.00000000E+00
  0.00000000E+00  0.00000000E+00  0.00000000E+00
