G   59   20    1    0.005     # Parameters to Generate KPOINTS (Don't Edit This Line)
     591
Reciprocal lattice
    0.000000000000    0.000000000000    0.000000000000       1
    0.016949152542    0.000000000000    0.000000000000       2
    0.033898305085    0.000000000000    0.000000000000       2
    0.050847457627    0.000000000000    0.000000000000       2
    0.067796610169    0.000000000000    0.000000000000       2
    0.084745762712    0.000000000000    0.000000000000       2
    0.101694915254    0.000000000000    0.000000000000       2
    0.118644067797    0.000000000000    0.000000000000       2
    0.135593220339    0.000000000000    0.000000000000       2
    0.152542372881    0.000000000000    0.000000000000       2
    0.169491525424    0.000000000000    0.000000000000       2
    0.186440677966    0.000000000000    0.000000000000       2
    0.203389830508    0.000000000000    0.000000000000       2
    0.220338983051    0.000000000000    0.000000000000       2
    0.237288135593    0.000000000000    0.000000000000       2
    0.254237288136    0.000000000000    0.000000000000       2
    0.271186440678    0.000000000000    0.000000000000       2
    0.288135593220    0.000000000000    0.000000000000       2
    0.305084745763    0.000000000000    0.000000000000       2
    0.322033898305    0.000000000000    0.000000000000       2
    0.338983050847    0.000000000000    0.000000000000       2
    0.355932203390    0.000000000000    0.000000000000       2
    0.372881355932    0.000000000000    0.000000000000       2
    0.389830508475    0.000000000000    0.000000000000       2
    0.406779661017    0.000000000000    0.000000000000       2
    0.423728813559    0.000000000000    0.000000000000       2
    0.440677966102    0.000000000000    0.000000000000       2
    0.457627118644    0.000000000000    0.000000000000       2
    0.474576271186    0.000000000000    0.000000000000       2
    0.491525423729    0.000000000000    0.000000000000       2
    0.000000000000    0.050000000000    0.000000000000       2
    0.016949152542    0.050000000000    0.000000000000       2
    0.033898305085    0.050000000000    0.000000000000       2
    0.050847457627    0.050000000000    0.000000000000       2
    0.067796610169    0.050000000000    0.000000000000       2
    0.084745762712    0.050000000000    0.000000000000       2
    0.101694915254    0.050000000000    0.000000000000       2
    0.118644067797    0.050000000000    0.000000000000       2
    0.135593220339    0.050000000000    0.000000000000       2
    0.152542372881    0.050000000000    0.000000000000       2
    0.169491525424    0.050000000000    0.000000000000       2
    0.186440677966    0.050000000000    0.000000000000       2
    0.203389830508    0.050000000000    0.000000000000       2
    0.220338983051    0.050000000000    0.000000000000       2
    0.237288135593    0.050000000000    0.000000000000       2
    0.254237288136    0.050000000000    0.000000000000       2
    0.271186440678    0.050000000000    0.000000000000       2
    0.288135593220    0.050000000000    0.000000000000       2
    0.305084745763    0.050000000000    0.000000000000       2
    0.322033898305    0.050000000000    0.000000000000       2
    0.338983050847    0.050000000000    0.000000000000       2
    0.355932203390    0.050000000000    0.000000000000       2
    0.372881355932    0.050000000000    0.000000000000       2
    0.389830508475    0.050000000000    0.000000000000       2
    0.406779661017    0.050000000000    0.000000000000       2
    0.423728813559    0.050000000000    0.000000000000       2
    0.440677966102    0.050000000000    0.000000000000       2
    0.457627118644    0.050000000000    0.000000000000       2
    0.474576271186    0.050000000000    0.000000000000       2
    0.491525423729    0.050000000000    0.000000000000       2
   -0.491525423729    0.050000000000    0.000000000000       2
   -0.474576271186    0.050000000000    0.000000000000       2
   -0.457627118644    0.050000000000    0.000000000000       2
   -0.440677966102    0.050000000000    0.000000000000       2
   -0.423728813559    0.050000000000    0.000000000000       2
   -0.406779661017    0.050000000000    0.000000000000       2
   -0.389830508475    0.050000000000    0.000000000000       2
   -0.372881355932    0.050000000000    0.000000000000       2
   -0.355932203390    0.050000000000    0.000000000000       2
   -0.338983050847    0.050000000000    0.000000000000       2
   -0.322033898305    0.050000000000    0.000000000000       2
   -0.305084745763    0.050000000000    0.000000000000       2
   -0.288135593220    0.050000000000    0.000000000000       2
   -0.271186440678    0.050000000000    0.000000000000       2
   -0.254237288136    0.050000000000    0.000000000000       2
   -0.237288135593    0.050000000000    0.000000000000       2
   -0.220338983051    0.050000000000    0.000000000000       2
   -0.203389830508    0.050000000000    0.000000000000       2
   -0.186440677966    0.050000000000    0.000000000000       2
   -0.169491525424    0.050000000000    0.000000000000       2
   -0.152542372881    0.050000000000    0.000000000000       2
   -0.135593220339    0.050000000000    0.000000000000       2
   -0.118644067797    0.050000000000    0.000000000000       2
   -0.101694915254    0.050000000000    0.000000000000       2
   -0.084745762712    0.050000000000    0.000000000000       2
   -0.067796610169    0.050000000000    0.000000000000       2
   -0.050847457627    0.050000000000    0.000000000000       2
   -0.033898305085    0.050000000000    0.000000000000       2
   -0.016949152542    0.050000000000    0.000000000000       2
    0.000000000000    0.100000000000    0.000000000000       2
    0.016949152542    0.100000000000    0.000000000000       2
    0.033898305085    0.100000000000    0.000000000000       2
    0.050847457627    0.100000000000    0.000000000000       2
    0.067796610169    0.100000000000    0.000000000000       2
    0.084745762712    0.100000000000    0.000000000000       2
    0.101694915254    0.100000000000    0.000000000000       2
    0.118644067797    0.100000000000    0.000000000000       2
    0.135593220339    0.100000000000    0.000000000000       2
    0.152542372881    0.100000000000    0.000000000000       2
    0.169491525424    0.100000000000    0.000000000000       2
    0.186440677966    0.100000000000    0.000000000000       2
    0.203389830508    0.100000000000    0.000000000000       2
    0.220338983051    0.100000000000    0.000000000000       2
    0.237288135593    0.100000000000    0.000000000000       2
    0.254237288136    0.100000000000    0.000000000000       2
    0.271186440678    0.100000000000    0.000000000000       2
    0.288135593220    0.100000000000    0.000000000000       2
    0.305084745763    0.100000000000    0.000000000000       2
    0.322033898305    0.100000000000    0.000000000000       2
    0.338983050847    0.100000000000    0.000000000000       2
    0.355932203390    0.100000000000    0.000000000000       2
    0.372881355932    0.100000000000    0.000000000000       2
    0.389830508475    0.100000000000    0.000000000000       2
    0.406779661017    0.100000000000    0.000000000000       2
    0.423728813559    0.100000000000    0.000000000000       2
    0.440677966102    0.100000000000    0.000000000000       2
    0.457627118644    0.100000000000    0.000000000000       2
    0.474576271186    0.100000000000    0.000000000000       2
    0.491525423729    0.100000000000    0.000000000000       2
   -0.491525423729    0.100000000000    0.000000000000       2
   -0.474576271186    0.100000000000    0.000000000000       2
   -0.457627118644    0.100000000000    0.000000000000       2
   -0.440677966102    0.100000000000    0.000000000000       2
   -0.423728813559    0.100000000000    0.000000000000       2
   -0.406779661017    0.100000000000    0.000000000000       2
   -0.389830508475    0.100000000000    0.000000000000       2
   -0.372881355932    0.100000000000    0.000000000000       2
   -0.355932203390    0.100000000000    0.000000000000       2
   -0.338983050847    0.100000000000    0.000000000000       2
   -0.322033898305    0.100000000000    0.000000000000       2
   -0.305084745763    0.100000000000    0.000000000000       2
   -0.288135593220    0.100000000000    0.000000000000       2
   -0.271186440678    0.100000000000    0.000000000000       2
   -0.254237288136    0.100000000000    0.000000000000       2
   -0.237288135593    0.100000000000    0.000000000000       2
   -0.220338983051    0.100000000000    0.000000000000       2
   -0.203389830508    0.100000000000    0.000000000000       2
   -0.186440677966    0.100000000000    0.000000000000       2
   -0.169491525424    0.100000000000    0.000000000000       2
   -0.152542372881    0.100000000000    0.000000000000       2
   -0.135593220339    0.100000000000    0.000000000000       2
   -0.118644067797    0.100000000000    0.000000000000       2
   -0.101694915254    0.100000000000    0.000000000000       2
   -0.084745762712    0.100000000000    0.000000000000       2
   -0.067796610169    0.100000000000    0.000000000000       2
   -0.050847457627    0.100000000000    0.000000000000       2
   -0.033898305085    0.100000000000    0.000000000000       2
   -0.016949152542    0.100000000000    0.000000000000       2
    0.000000000000    0.150000000000    0.000000000000       2
    0.016949152542    0.150000000000    0.000000000000       2
    0.033898305085    0.150000000000    0.000000000000       2
    0.050847457627    0.150000000000    0.000000000000       2
    0.067796610169    0.150000000000    0.000000000000       2
    0.084745762712    0.150000000000    0.000000000000       2
    0.101694915254    0.150000000000    0.000000000000       2
    0.118644067797    0.150000000000    0.000000000000       2
    0.135593220339    0.150000000000    0.000000000000       2
    0.152542372881    0.150000000000    0.000000000000       2
    0.169491525424    0.150000000000    0.000000000000       2
    0.186440677966    0.150000000000    0.000000000000       2
    0.203389830508    0.150000000000    0.000000000000       2
    0.220338983051    0.150000000000    0.000000000000       2
    0.237288135593    0.150000000000    0.000000000000       2
    0.254237288136    0.150000000000    0.000000000000       2
    0.271186440678    0.150000000000    0.000000000000       2
    0.288135593220    0.150000000000    0.000000000000       2
    0.305084745763    0.150000000000    0.000000000000       2
    0.322033898305    0.150000000000    0.000000000000       2
    0.338983050847    0.150000000000    0.000000000000       2
    0.355932203390    0.150000000000    0.000000000000       2
    0.372881355932    0.150000000000    0.000000000000       2
    0.389830508475    0.150000000000    0.000000000000       2
    0.406779661017    0.150000000000    0.000000000000       2
    0.423728813559    0.150000000000    0.000000000000       2
    0.440677966102    0.150000000000    0.000000000000       2
    0.457627118644    0.150000000000    0.000000000000       2
    0.474576271186    0.150000000000    0.000000000000       2
    0.491525423729    0.150000000000    0.000000000000       2
   -0.491525423729    0.150000000000    0.000000000000       2
   -0.474576271186    0.150000000000    0.000000000000       2
   -0.457627118644    0.150000000000    0.000000000000       2
   -0.440677966102    0.150000000000    0.000000000000       2
   -0.423728813559    0.150000000000    0.000000000000       2
   -0.406779661017    0.150000000000    0.000000000000       2
   -0.389830508475    0.150000000000    0.000000000000       2
   -0.372881355932    0.150000000000    0.000000000000       2
   -0.355932203390    0.150000000000    0.000000000000       2
   -0.338983050847    0.150000000000    0.000000000000       2
   -0.322033898305    0.150000000000    0.000000000000       2
   -0.305084745763    0.150000000000    0.000000000000       2
   -0.288135593220    0.150000000000    0.000000000000       2
   -0.271186440678    0.150000000000    0.000000000000       2
   -0.254237288136    0.150000000000    0.000000000000       2
   -0.237288135593    0.150000000000    0.000000000000       2
   -0.220338983051    0.150000000000    0.000000000000       2
   -0.203389830508    0.150000000000    0.000000000000       2
   -0.186440677966    0.150000000000    0.000000000000       2
   -0.169491525424    0.150000000000    0.000000000000       2
   -0.152542372881    0.150000000000    0.000000000000       2
   -0.135593220339    0.150000000000    0.000000000000       2
   -0.118644067797    0.150000000000    0.000000000000       2
   -0.101694915254    0.150000000000    0.000000000000       2
   -0.084745762712    0.150000000000    0.000000000000       2
   -0.067796610169    0.150000000000    0.000000000000       2
   -0.050847457627    0.150000000000    0.000000000000       2
   -0.033898305085    0.150000000000    0.000000000000       2
   -0.016949152542    0.150000000000    0.000000000000       2
    0.000000000000    0.200000000000    0.000000000000       2
    0.016949152542    0.200000000000    0.000000000000       2
    0.033898305085    0.200000000000    0.000000000000       2
    0.050847457627    0.200000000000    0.000000000000       2
    0.067796610169    0.200000000000    0.000000000000       2
    0.084745762712    0.200000000000    0.000000000000       2
    0.101694915254    0.200000000000    0.000000000000       2
    0.118644067797    0.200000000000    0.000000000000       2
    0.135593220339    0.200000000000    0.000000000000       2
    0.152542372881    0.200000000000    0.000000000000       2
    0.169491525424    0.200000000000    0.000000000000       2
    0.186440677966    0.200000000000    0.000000000000       2
    0.203389830508    0.200000000000    0.000000000000       2
    0.220338983051    0.200000000000    0.000000000000       2
    0.237288135593    0.200000000000    0.000000000000       2
    0.254237288136    0.200000000000    0.000000000000       2
    0.271186440678    0.200000000000    0.000000000000       2
    0.288135593220    0.200000000000    0.000000000000       2
    0.305084745763    0.200000000000    0.000000000000       2
    0.322033898305    0.200000000000    0.000000000000       2
    0.338983050847    0.200000000000    0.000000000000       2
    0.355932203390    0.200000000000    0.000000000000       2
    0.372881355932    0.200000000000    0.000000000000       2
    0.389830508475    0.200000000000    0.000000000000       2
    0.406779661017    0.200000000000    0.000000000000       2
    0.423728813559    0.200000000000    0.000000000000       2
    0.440677966102    0.200000000000    0.000000000000       2
    0.457627118644    0.200000000000    0.000000000000       2
    0.474576271186    0.200000000000    0.000000000000       2
    0.491525423729    0.200000000000    0.000000000000       2
   -0.491525423729    0.200000000000    0.000000000000       2
   -0.474576271186    0.200000000000    0.000000000000       2
   -0.457627118644    0.200000000000    0.000000000000       2
   -0.440677966102    0.200000000000    0.000000000000       2
   -0.423728813559    0.200000000000    0.000000000000       2
   -0.406779661017    0.200000000000    0.000000000000       2
   -0.389830508475    0.200000000000    0.000000000000       2
   -0.372881355932    0.200000000000    0.000000000000       2
   -0.355932203390    0.200000000000    0.000000000000       2
   -0.338983050847    0.200000000000    0.000000000000       2
   -0.322033898305    0.200000000000    0.000000000000       2
   -0.305084745763    0.200000000000    0.000000000000       2
   -0.288135593220    0.200000000000    0.000000000000       2
   -0.271186440678    0.200000000000    0.000000000000       2
   -0.254237288136    0.200000000000    0.000000000000       2
   -0.237288135593    0.200000000000    0.000000000000       2
   -0.220338983051    0.200000000000    0.000000000000       2
   -0.203389830508    0.200000000000    0.000000000000       2
   -0.186440677966    0.200000000000    0.000000000000       2
   -0.169491525424    0.200000000000    0.000000000000       2
   -0.152542372881    0.200000000000    0.000000000000       2
   -0.135593220339    0.200000000000    0.000000000000       2
   -0.118644067797    0.200000000000    0.000000000000       2
   -0.101694915254    0.200000000000    0.000000000000       2
   -0.084745762712    0.200000000000    0.000000000000       2
   -0.067796610169    0.200000000000    0.000000000000       2
   -0.050847457627    0.200000000000    0.000000000000       2
   -0.033898305085    0.200000000000    0.000000000000       2
   -0.016949152542    0.200000000000    0.000000000000       2
    0.000000000000    0.250000000000    0.000000000000       2
    0.016949152542    0.250000000000    0.000000000000       2
    0.033898305085    0.250000000000    0.000000000000       2
    0.050847457627    0.250000000000    0.000000000000       2
    0.067796610169    0.250000000000    0.000000000000       2
    0.084745762712    0.250000000000    0.000000000000       2
    0.101694915254    0.250000000000    0.000000000000       2
    0.118644067797    0.250000000000    0.000000000000       2
    0.135593220339    0.250000000000    0.000000000000       2
    0.152542372881    0.250000000000    0.000000000000       2
    0.169491525424    0.250000000000    0.000000000000       2
    0.186440677966    0.250000000000    0.000000000000       2
    0.203389830508    0.250000000000    0.000000000000       2
    0.220338983051    0.250000000000    0.000000000000       2
    0.237288135593    0.250000000000    0.000000000000       2
    0.254237288136    0.250000000000    0.000000000000       2
    0.271186440678    0.250000000000    0.000000000000       2
    0.288135593220    0.250000000000    0.000000000000       2
    0.305084745763    0.250000000000    0.000000000000       2
    0.322033898305    0.250000000000    0.000000000000       2
    0.338983050847    0.250000000000    0.000000000000       2
    0.355932203390    0.250000000000    0.000000000000       2
    0.372881355932    0.250000000000    0.000000000000       2
    0.389830508475    0.250000000000    0.000000000000       2
    0.406779661017    0.250000000000    0.000000000000       2
    0.423728813559    0.250000000000    0.000000000000       2
    0.440677966102    0.250000000000    0.000000000000       2
    0.457627118644    0.250000000000    0.000000000000       2
    0.474576271186    0.250000000000    0.000000000000       2
    0.491525423729    0.250000000000    0.000000000000       2
   -0.491525423729    0.250000000000    0.000000000000       2
   -0.474576271186    0.250000000000    0.000000000000       2
   -0.457627118644    0.250000000000    0.000000000000       2
   -0.440677966102    0.250000000000    0.000000000000       2
   -0.423728813559    0.250000000000    0.000000000000       2
   -0.406779661017    0.250000000000    0.000000000000       2
   -0.389830508475    0.250000000000    0.000000000000       2
   -0.372881355932    0.250000000000    0.000000000000       2
   -0.355932203390    0.250000000000    0.000000000000       2
   -0.338983050847    0.250000000000    0.000000000000       2
   -0.322033898305    0.250000000000    0.000000000000       2
   -0.305084745763    0.250000000000    0.000000000000       2
   -0.288135593220    0.250000000000    0.000000000000       2
   -0.271186440678    0.250000000000    0.000000000000       2
   -0.254237288136    0.250000000000    0.000000000000       2
   -0.237288135593    0.250000000000    0.000000000000       2
   -0.220338983051    0.250000000000    0.000000000000       2
   -0.203389830508    0.250000000000    0.000000000000       2
   -0.186440677966    0.250000000000    0.000000000000       2
   -0.169491525424    0.250000000000    0.000000000000       2
   -0.152542372881    0.250000000000    0.000000000000       2
   -0.135593220339    0.250000000000    0.000000000000       2
   -0.118644067797    0.250000000000    0.000000000000       2
   -0.101694915254    0.250000000000    0.000000000000       2
   -0.084745762712    0.250000000000    0.000000000000       2
   -0.067796610169    0.250000000000    0.000000000000       2
   -0.050847457627    0.250000000000    0.000000000000       2
   -0.033898305085    0.250000000000    0.000000000000       2
   -0.016949152542    0.250000000000    0.000000000000       2
    0.000000000000    0.300000000000    0.000000000000       2
    0.016949152542    0.300000000000    0.000000000000       2
    0.033898305085    0.300000000000    0.000000000000       2
    0.050847457627    0.300000000000    0.000000000000       2
    0.067796610169    0.300000000000    0.000000000000       2
    0.084745762712    0.300000000000    0.000000000000       2
    0.101694915254    0.300000000000    0.000000000000       2
    0.118644067797    0.300000000000    0.000000000000       2
    0.135593220339    0.300000000000    0.000000000000       2
    0.152542372881    0.300000000000    0.000000000000       2
    0.169491525424    0.300000000000    0.000000000000       2
    0.186440677966    0.300000000000    0.000000000000       2
    0.203389830508    0.300000000000    0.000000000000       2
    0.220338983051    0.300000000000    0.000000000000       2
    0.237288135593    0.300000000000    0.000000000000       2
    0.254237288136    0.300000000000    0.000000000000       2
    0.271186440678    0.300000000000    0.000000000000       2
    0.288135593220    0.300000000000    0.000000000000       2
    0.305084745763    0.300000000000    0.000000000000       2
    0.322033898305    0.300000000000    0.000000000000       2
    0.338983050847    0.300000000000    0.000000000000       2
    0.355932203390    0.300000000000    0.000000000000       2
    0.372881355932    0.300000000000    0.000000000000       2
    0.389830508475    0.300000000000    0.000000000000       2
    0.406779661017    0.300000000000    0.000000000000       2
    0.423728813559    0.300000000000    0.000000000000       2
    0.440677966102    0.300000000000    0.000000000000       2
    0.457627118644    0.300000000000    0.000000000000       2
    0.474576271186    0.300000000000    0.000000000000       2
    0.491525423729    0.300000000000    0.000000000000       2
   -0.491525423729    0.300000000000    0.000000000000       2
   -0.474576271186    0.300000000000    0.000000000000       2
   -0.457627118644    0.300000000000    0.000000000000       2
   -0.440677966102    0.300000000000    0.000000000000       2
   -0.423728813559    0.300000000000    0.000000000000       2
   -0.406779661017    0.300000000000    0.000000000000       2
   -0.389830508475    0.300000000000    0.000000000000       2
   -0.372881355932    0.300000000000    0.000000000000       2
   -0.355932203390    0.300000000000    0.000000000000       2
   -0.338983050847    0.300000000000    0.000000000000       2
   -0.322033898305    0.300000000000    0.000000000000       2
   -0.305084745763    0.300000000000    0.000000000000       2
   -0.288135593220    0.300000000000    0.000000000000       2
   -0.271186440678    0.300000000000    0.000000000000       2
   -0.254237288136    0.300000000000    0.000000000000       2
   -0.237288135593    0.300000000000    0.000000000000       2
   -0.220338983051    0.300000000000    0.000000000000       2
   -0.203389830508    0.300000000000    0.000000000000       2
   -0.186440677966    0.300000000000    0.000000000000       2
   -0.169491525424    0.300000000000    0.000000000000       2
   -0.152542372881    0.300000000000    0.000000000000       2
   -0.135593220339    0.300000000000    0.000000000000       2
   -0.118644067797    0.300000000000    0.000000000000       2
   -0.101694915254    0.300000000000    0.000000000000       2
   -0.084745762712    0.300000000000    0.000000000000       2
   -0.067796610169    0.300000000000    0.000000000000       2
   -0.050847457627    0.300000000000    0.000000000000       2
   -0.033898305085    0.300000000000    0.000000000000       2
   -0.016949152542    0.300000000000    0.000000000000       2
    0.000000000000    0.350000000000    0.000000000000       2
    0.016949152542    0.350000000000    0.000000000000       2
    0.033898305085    0.350000000000    0.000000000000       2
    0.050847457627    0.350000000000    0.000000000000       2
    0.067796610169    0.350000000000    0.000000000000       2
    0.084745762712    0.350000000000    0.000000000000       2
    0.101694915254    0.350000000000    0.000000000000       2
    0.118644067797    0.350000000000    0.000000000000       2
    0.135593220339    0.350000000000    0.000000000000       2
    0.152542372881    0.350000000000    0.000000000000       2
    0.169491525424    0.350000000000    0.000000000000       2
    0.186440677966    0.350000000000    0.000000000000       2
    0.203389830508    0.350000000000    0.000000000000       2
    0.220338983051    0.350000000000    0.000000000000       2
    0.237288135593    0.350000000000    0.000000000000       2
    0.254237288136    0.350000000000    0.000000000000       2
    0.271186440678    0.350000000000    0.000000000000       2
    0.288135593220    0.350000000000    0.000000000000       2
    0.305084745763    0.350000000000    0.000000000000       2
    0.322033898305    0.350000000000    0.000000000000       2
    0.338983050847    0.350000000000    0.000000000000       2
    0.355932203390    0.350000000000    0.000000000000       2
    0.372881355932    0.350000000000    0.000000000000       2
    0.389830508475    0.350000000000    0.000000000000       2
    0.406779661017    0.350000000000    0.000000000000       2
    0.423728813559    0.350000000000    0.000000000000       2
    0.440677966102    0.350000000000    0.000000000000       2
    0.457627118644    0.350000000000    0.000000000000       2
    0.474576271186    0.350000000000    0.000000000000       2
    0.491525423729    0.350000000000    0.000000000000       2
   -0.491525423729    0.350000000000    0.000000000000       2
   -0.474576271186    0.350000000000    0.000000000000       2
   -0.457627118644    0.350000000000    0.000000000000       2
   -0.440677966102    0.350000000000    0.000000000000       2
   -0.423728813559    0.350000000000    0.000000000000       2
   -0.406779661017    0.350000000000    0.000000000000       2
   -0.389830508475    0.350000000000    0.000000000000       2
   -0.372881355932    0.350000000000    0.000000000000       2
   -0.355932203390    0.350000000000    0.000000000000       2
   -0.338983050847    0.350000000000    0.000000000000       2
   -0.322033898305    0.350000000000    0.000000000000       2
   -0.305084745763    0.350000000000    0.000000000000       2
   -0.288135593220    0.350000000000    0.000000000000       2
   -0.271186440678    0.350000000000    0.000000000000       2
   -0.254237288136    0.350000000000    0.000000000000       2
   -0.237288135593    0.350000000000    0.000000000000       2
   -0.220338983051    0.350000000000    0.000000000000       2
   -0.203389830508    0.350000000000    0.000000000000       2
   -0.186440677966    0.350000000000    0.000000000000       2
   -0.169491525424    0.350000000000    0.000000000000       2
   -0.152542372881    0.350000000000    0.000000000000       2
   -0.135593220339    0.350000000000    0.000000000000       2
   -0.118644067797    0.350000000000    0.000000000000       2
   -0.101694915254    0.350000000000    0.000000000000       2
   -0.084745762712    0.350000000000    0.000000000000       2
   -0.067796610169    0.350000000000    0.000000000000       2
   -0.050847457627    0.350000000000    0.000000000000       2
   -0.033898305085    0.350000000000    0.000000000000       2
   -0.016949152542    0.350000000000    0.000000000000       2
    0.000000000000    0.400000000000    0.000000000000       2
    0.016949152542    0.400000000000    0.000000000000       2
    0.033898305085    0.400000000000    0.000000000000       2
    0.050847457627    0.400000000000    0.000000000000       2
    0.067796610169    0.400000000000    0.000000000000       2
    0.084745762712    0.400000000000    0.000000000000       2
    0.101694915254    0.400000000000    0.000000000000       2
    0.118644067797    0.400000000000    0.000000000000       2
    0.135593220339    0.400000000000    0.000000000000       2
    0.152542372881    0.400000000000    0.000000000000       2
    0.169491525424    0.400000000000    0.000000000000       2
    0.186440677966    0.400000000000    0.000000000000       2
    0.203389830508    0.400000000000    0.000000000000       2
    0.220338983051    0.400000000000    0.000000000000       2
    0.237288135593    0.400000000000    0.000000000000       2
    0.254237288136    0.400000000000    0.000000000000       2
    0.271186440678    0.400000000000    0.000000000000       2
    0.288135593220    0.400000000000    0.000000000000       2
    0.305084745763    0.400000000000    0.000000000000       2
    0.322033898305    0.400000000000    0.000000000000       2
    0.338983050847    0.400000000000    0.000000000000       2
    0.355932203390    0.400000000000    0.000000000000       2
    0.372881355932    0.400000000000    0.000000000000       2
    0.389830508475    0.400000000000    0.000000000000       2
    0.406779661017    0.400000000000    0.000000000000       2
    0.423728813559    0.400000000000    0.000000000000       2
    0.440677966102    0.400000000000    0.000000000000       2
    0.457627118644    0.400000000000    0.000000000000       2
    0.474576271186    0.400000000000    0.000000000000       2
    0.491525423729    0.400000000000    0.000000000000       2
   -0.491525423729    0.400000000000    0.000000000000       2