G   58   21    1    0.005     # Parameters to Generate KPOINTS (Don't Edit This Line)
     610
Reciprocal lattice
    0.000000000000    0.000000000000    0.000000000000       1
    0.017241379310    0.000000000000    0.000000000000       2
    0.034482758621    0.000000000000    0.000000000000       2
    0.051724137931    0.000000000000    0.000000000000       2
    0.068965517241    0.000000000000    0.000000000000       2
    0.086206896552    0.000000000000    0.000000000000       2
    0.103448275862    0.000000000000    0.000000000000       2
    0.120689655172    0.000000000000    0.000000000000       2
    0.137931034483    0.000000000000    0.000000000000       2
    0.155172413793    0.000000000000    0.000000000000       2
    0.172413793103    0.000000000000    0.000000000000       2
    0.189655172414    0.000000000000    0.000000000000       2
    0.206896551724    0.000000000000    0.000000000000       2
    0.224137931034    0.000000000000    0.000000000000       2
    0.241379310345    0.000000000000    0.000000000000       2
    0.258620689655    0.000000000000    0.000000000000       2
    0.275862068966    0.000000000000    0.000000000000       2
    0.293103448276    0.000000000000    0.000000000000       2
    0.310344827586    0.000000000000    0.000000000000       2
    0.327586206897    0.000000000000    0.000000000000       2
    0.344827586207    0.000000000000    0.000000000000       2
    0.362068965517    0.000000000000    0.000000000000       2
    0.379310344828    0.000000000000    0.000000000000       2
    0.396551724138    0.000000000000    0.000000000000       2
    0.413793103448    0.000000000000    0.000000000000       2
    0.431034482759    0.000000000000    0.000000000000       2
    0.448275862069    0.000000000000    0.000000000000       2
    0.465517241379    0.000000000000    0.000000000000       2
    0.482758620690    0.000000000000    0.000000000000       2
    0.500000000000    0.000000000000    0.000000000000       1
    0.000000000000    0.047619047619    0.000000000000       2
    0.017241379310    0.047619047619    0.000000000000       2
    0.034482758621    0.047619047619    0.000000000000       2
    0.051724137931    0.047619047619    0.000000000000       2
    0.068965517241    0.047619047619    0.000000000000       2
    0.086206896552    0.047619047619    0.000000000000       2
    0.103448275862    0.047619047619    0.000000000000       2
    0.120689655172    0.047619047619    0.000000000000       2
    0.137931034483    0.047619047619    0.000000000000       2
    0.155172413793    0.047619047619    0.000000000000       2
    0.172413793103    0.047619047619    0.000000000000       2
    0.189655172414    0.047619047619    0.000000000000       2
    0.206896551724    0.047619047619    0.000000000000       2
    0.224137931034    0.047619047619    0.000000000000       2
    0.241379310345    0.047619047619    0.000000000000       2
    0.258620689655    0.047619047619    0.000000000000       2
    0.275862068966    0.047619047619    0.000000000000       2
    0.293103448276    0.047619047619    0.000000000000       2
    0.310344827586    0.047619047619    0.000000000000       2
    0.327586206897    0.047619047619    0.000000000000       2
    0.344827586207    0.047619047619    0.000000000000       2
    0.362068965517    0.047619047619    0.000000000000       2
    0.379310344828    0.047619047619    0.000000000000       2
    0.396551724138    0.047619047619    0.000000000000       2
    0.413793103448    0.047619047619    0.000000000000       2
    0.431034482759    0.047619047619    0.000000000000       2
    0.448275862069    0.047619047619    0.000000000000       2
    0.465517241379    0.047619047619    0.000000000000       2
    0.482758620690    0.047619047619    0.000000000000       2
    0.500000000000    0.047619047619    0.000000000000       2
   -0.482758620690    0.047619047619    0.000000000000       2
   -0.465517241379    0.047619047619    0.000000000000       2
   -0.448275862069    0.047619047619    0.000000000000       2
   -0.431034482759    0.047619047619    0.000000000000       2
   -0.413793103448    0.047619047619    0.000000000000       2
   -0.396551724138    0.047619047619    0.000000000000       2
   -0.379310344828    0.047619047619    0.000000000000       2
   -0.362068965517    0.047619047619    0.000000000000       2
   -0.344827586207    0.047619047619    0.000000000000       2
   -0.327586206897    0.047619047619    0.000000000000       2
   -0.310344827586    0.047619047619    0.000000000000       2
   -0.293103448276    0.047619047619    0.000000000000       2
   -0.275862068966    0.047619047619    0.000000000000       2
   -0.258620689655    0.047619047619    0.000000000000       2
   -0.241379310345    0.047619047619    0.000000000000       2
   -0.224137931034    0.047619047619    0.000000000000       2
   -0.206896551724    0.047619047619    0.000000000000       2
   -0.189655172414    0.047619047619    0.000000000000       2
   -0.172413793103    0.047619047619    0.000000000000       2
   -0.155172413793    0.047619047619    0.000000000000       2
   -0.137931034483    0.047619047619    0.000000000000       2
   -0.120689655172    0.047619047619    0.000000000000       2
   -0.103448275862    0.047619047619    0.000000000000       2
   -0.086206896552    0.047619047619    0.000000000000       2
   -0.068965517241    0.047619047619    0.000000000000       2
   -0.051724137931    0.047619047619    0.000000000000       2
   -0.034482758621    0.047619047619    0.000000000000       2
   -0.017241379310    0.047619047619    0.000000000000       2
    0.000000000000    0.095238095238    0.000000000000       2
    0.017241379310    0.095238095238    0.000000000000       2
    0.034482758621    0.095238095238    0.000000000000       2
    0.051724137931    0.095238095238    0.000000000000       2
    0.068965517241    0.095238095238    0.000000000000       2
    0.086206896552    0.095238095238    0.000000000000       2
    0.103448275862    0.095238095238    0.000000000000       2
    0.120689655172    0.095238095238    0.000000000000       2
    0.137931034483    0.095238095238    0.000000000000       2
    0.155172413793    0.095238095238    0.000000000000       2
    0.172413793103    0.095238095238    0.000000000000       2
    0.189655172414    0.095238095238    0.000000000000       2
    0.206896551724    0.095238095238    0.000000000000       2
    0.224137931034    0.095238095238    0.000000000000       2
    0.241379310345    0.095238095238    0.000000000000       2
    0.258620689655    0.095238095238    0.000000000000       2
    0.275862068966    0.095238095238    0.000000000000       2
    0.293103448276    0.095238095238    0.000000000000       2
    0.310344827586    0.095238095238    0.000000000000       2
    0.327586206897    0.095238095238    0.000000000000       2
    0.344827586207    0.095238095238    0.000000000000       2
    0.362068965517    0.095238095238    0.000000000000       2
    0.379310344828    0.095238095238    0.000000000000       2
    0.396551724138    0.095238095238    0.000000000000       2
    0.413793103448    0.095238095238    0.000000000000       2
    0.431034482759    0.095238095238    0.000000000000       2
    0.448275862069    0.095238095238    0.000000000000       2
    0.465517241379    0.095238095238    0.000000000000       2
    0.482758620690    0.095238095238    0.000000000000       2
    0.500000000000    0.095238095238    0.000000000000       2
   -0.482758620690    0.095238095238    0.000000000000       2
   -0.465517241379    0.095238095238    0.000000000000       2
   -0.448275862069    0.095238095238    0.000000000000       2
   -0.431034482759    0.095238095238    0.000000000000       2
   -0.413793103448    0.095238095238    0.000000000000       2
   -0.396551724138    0.095238095238    0.000000000000       2
   -0.379310344828    0.095238095238    0.000000000000       2
   -0.362068965517    0.095238095238    0.000000000000       2
   -0.344827586207    0.095238095238    0.000000000000       2
   -0.327586206897    0.095238095238    0.000000000000       2
   -0.310344827586    0.095238095238    0.000000000000       2
   -0.293103448276    0.095238095238    0.000000000000       2
   -0.275862068966    0.095238095238    0.000000000000       2
   -0.258620689655    0.095238095238    0.000000000000       2
   -0.241379310345    0.095238095238    0.000000000000       2
   -0.224137931034    0.095238095238    0.000000000000       2
   -0.206896551724    0.095238095238    0.000000000000       2
   -0.189655172414    0.095238095238    0.000000000000       2
   -0.172413793103    0.095238095238    0.000000000000       2
   -0.155172413793    0.095238095238    0.000000000000       2
   -0.137931034483    0.095238095238    0.000000000000       2
   -0.120689655172    0.095238095238    0.000000000000       2
   -0.103448275862    0.095238095238    0.000000000000       2
   -0.086206896552    0.095238095238    0.000000000000       2
   -0.068965517241    0.095238095238    0.000000000000       2
   -0.051724137931    0.095238095238    0.000000000000       2
   -0.034482758621    0.095238095238    0.000000000000       2
   -0.017241379310    0.095238095238    0.000000000000       2
    0.000000000000    0.142857142857    0.000000000000       2
    0.017241379310    0.142857142857    0.000000000000       2
    0.034482758621    0.142857142857    0.000000000000       2
    0.051724137931    0.142857142857    0.000000000000       2
    0.068965517241    0.142857142857    0.000000000000       2
    0.086206896552    0.142857142857    0.000000000000       2
    0.103448275862    0.142857142857    0.000000000000       2
    0.120689655172    0.142857142857    0.000000000000       2
    0.137931034483    0.142857142857    0.000000000000       2
    0.155172413793    0.142857142857    0.000000000000       2
    0.172413793103    0.142857142857    0.000000000000       2
    0.189655172414    0.142857142857    0.000000000000       2
    0.206896551724    0.142857142857    0.000000000000       2
    0.224137931034    0.142857142857    0.000000000000       2
    0.241379310345    0.142857142857    0.000000000000       2
    0.258620689655    0.142857142857    0.000000000000       2
    0.275862068966    0.142857142857    0.000000000000       2
    0.293103448276    0.142857142857    0.000000000000       2
    0.310344827586    0.142857142857    0.000000000000       2
    0.327586206897    0.142857142857    0.000000000000       2
    0.344827586207    0.142857142857    0.000000000000       2
    0.362068965517    0.142857142857    0.000000000000       2
    0.379310344828    0.142857142857    0.000000000000       2
    0.396551724138    0.142857142857    0.000000000000       2
    0.413793103448    0.142857142857    0.000000000000       2
    0.431034482759    0.142857142857    0.000000000000       2
    0.448275862069    0.142857142857    0.000000000000       2
    0.465517241379    0.142857142857    0.000000000000       2
    0.482758620690    0.142857142857    0.000000000000       2
    0.500000000000    0.142857142857    0.000000000000       2
   -0.482758620690    0.142857142857    0.000000000000       2
   -0.465517241379    0.142857142857    0.000000000000       2
   -0.448275862069    0.142857142857    0.000000000000       2
   -0.431034482759    0.142857142857    0.000000000000       2
   -0.413793103448    0.142857142857    0.000000000000       2
   -0.396551724138    0.142857142857    0.000000000000       2
   -0.379310344828    0.142857142857    0.000000000000       2
   -0.362068965517    0.142857142857    0.000000000000       2
   -0.344827586207    0.142857142857    0.000000000000       2
   -0.327586206897    0.142857142857    0.000000000000       2
   -0.310344827586    0.142857142857    0.000000000000       2
   -0.293103448276    0.142857142857    0.000000000000       2
   -0.275862068966    0.142857142857    0.000000000000       2
   -0.258620689655    0.142857142857    0.000000000000       2
   -0.241379310345    0.142857142857    0.000000000000       2
   -0.224137931034    0.142857142857    0.000000000000       2
   -0.206896551724    0.142857142857    0.000000000000       2
   -0.189655172414    0.142857142857    0.000000000000       2
   -0.172413793103    0.142857142857    0.000000000000       2
   -0.155172413793    0.142857142857    0.000000000000       2
   -0.137931034483    0.142857142857    0.000000000000       2
   -0.120689655172    0.142857142857    0.000000000000       2
   -0.103448275862    0.142857142857    0.000000000000       2
   -0.086206896552    0.142857142857    0.000000000000       2
   -0.068965517241    0.142857142857    0.000000000000       2
   -0.051724137931    0.142857142857    0.000000000000       2
   -0.034482758621    0.142857142857    0.000000000000       2
   -0.017241379310    0.142857142857    0.000000000000       2
    0.000000000000    0.190476190476    0.000000000000       2
    0.017241379310    0.190476190476    0.000000000000       2
    0.034482758621    0.190476190476    0.000000000000       2
    0.051724137931    0.190476190476    0.000000000000       2
    0.068965517241    0.190476190476    0.000000000000       2
    0.086206896552    0.190476190476    0.000000000000       2
    0.103448275862    0.190476190476    0.000000000000       2
    0.120689655172    0.190476190476    0.000000000000       2
    0.137931034483    0.190476190476    0.000000000000       2
    0.155172413793    0.190476190476    0.000000000000       2
    0.172413793103    0.190476190476    0.000000000000       2
    0.189655172414    0.190476190476    0.000000000000       2
    0.206896551724    0.190476190476    0.000000000000       2
    0.224137931034    0.190476190476    0.000000000000       2
    0.241379310345    0.190476190476    0.000000000000       2
    0.258620689655    0.190476190476    0.000000000000       2
    0.275862068966    0.190476190476    0.000000000000       2
    0.293103448276    0.190476190476    0.000000000000       2
    0.310344827586    0.190476190476    0.000000000000       2
    0.327586206897    0.190476190476    0.000000000000       2
    0.344827586207    0.190476190476    0.000000000000       2
    0.362068965517    0.190476190476    0.000000000000       2
    0.379310344828    0.190476190476    0.000000000000       2
    0.396551724138    0.190476190476    0.000000000000       2
    0.413793103448    0.190476190476    0.000000000000       2
    0.431034482759    0.190476190476    0.000000000000       2
    0.448275862069    0.190476190476    0.000000000000       2
    0.465517241379    0.190476190476    0.000000000000       2
    0.482758620690    0.190476190476    0.000000000000       2
    0.500000000000    0.190476190476    0.000000000000       2
   -0.482758620690    0.190476190476    0.000000000000       2
   -0.465517241379    0.190476190476    0.000000000000       2
   -0.448275862069    0.190476190476    0.000000000000       2
   -0.431034482759    0.190476190476    0.000000000000       2
   -0.413793103448    0.190476190476    0.000000000000       2
   -0.396551724138    0.190476190476    0.000000000000       2
   -0.379310344828    0.190476190476    0.000000000000       2
   -0.362068965517    0.190476190476    0.000000000000       2
   -0.344827586207    0.190476190476    0.000000000000       2
   -0.327586206897    0.190476190476    0.000000000000       2
   -0.310344827586    0.190476190476    0.000000000000       2
   -0.293103448276    0.190476190476    0.000000000000       2
   -0.275862068966    0.190476190476    0.000000000000       2
   -0.258620689655    0.190476190476    0.000000000000       2
   -0.241379310345    0.190476190476    0.000000000000       2
   -0.224137931034    0.190476190476    0.000000000000       2
   -0.206896551724    0.190476190476    0.000000000000       2
   -0.189655172414    0.190476190476    0.000000000000       2
   -0.172413793103    0.190476190476    0.000000000000       2
   -0.155172413793    0.190476190476    0.000000000000       2
   -0.137931034483    0.190476190476    0.000000000000       2
   -0.120689655172    0.190476190476    0.000000000000       2
   -0.103448275862    0.190476190476    0.000000000000       2
   -0.086206896552    0.190476190476    0.000000000000       2
   -0.068965517241    0.190476190476    0.000000000000       2
   -0.051724137931    0.190476190476    0.000000000000       2
   -0.034482758621    0.190476190476    0.000000000000       2
   -0.017241379310    0.190476190476    0.000000000000       2
    0.000000000000    0.238095238095    0.000000000000       2
    0.017241379310    0.238095238095    0.000000000000       2
    0.034482758621    0.238095238095    0.000000000000       2
    0.051724137931    0.238095238095    0.000000000000       2
    0.068965517241    0.238095238095    0.000000000000       2
    0.086206896552    0.238095238095    0.000000000000       2
    0.103448275862    0.238095238095    0.000000000000       2
    0.120689655172    0.238095238095    0.000000000000       2
    0.137931034483    0.238095238095    0.000000000000       2
    0.155172413793    0.238095238095    0.000000000000       2
    0.172413793103    0.238095238095    0.000000000000       2
    0.189655172414    0.238095238095    0.000000000000       2
    0.206896551724    0.238095238095    0.000000000000       2
    0.224137931034    0.238095238095    0.000000000000       2
    0.241379310345    0.238095238095    0.000000000000       2
    0.258620689655    0.238095238095    0.000000000000       2
    0.275862068966    0.238095238095    0.000000000000       2
    0.293103448276    0.238095238095    0.000000000000       2
    0.310344827586    0.238095238095    0.000000000000       2
    0.327586206897    0.238095238095    0.000000000000       2
    0.344827586207    0.238095238095    0.000000000000       2
    0.362068965517    0.238095238095    0.000000000000       2
    0.379310344828    0.238095238095    0.000000000000       2
    0.396551724138    0.238095238095    0.000000000000       2
    0.413793103448    0.238095238095    0.000000000000       2
    0.431034482759    0.238095238095    0.000000000000       2
    0.448275862069    0.238095238095    0.000000000000       2
    0.465517241379    0.238095238095    0.000000000000       2
    0.482758620690    0.238095238095    0.000000000000       2
    0.500000000000    0.238095238095    0.000000000000       2
   -0.482758620690    0.238095238095    0.000000000000       2
   -0.465517241379    0.238095238095    0.000000000000       2
   -0.448275862069    0.238095238095    0.000000000000       2
   -0.431034482759    0.238095238095    0.000000000000       2
   -0.413793103448    0.238095238095    0.000000000000       2
   -0.396551724138    0.238095238095    0.000000000000       2
   -0.379310344828    0.238095238095    0.000000000000       2
   -0.362068965517    0.238095238095    0.000000000000       2
   -0.344827586207    0.238095238095    0.000000000000       2
   -0.327586206897    0.238095238095    0.000000000000       2
   -0.310344827586    0.238095238095    0.000000000000       2
   -0.293103448276    0.238095238095    0.000000000000       2
   -0.275862068966    0.238095238095    0.000000000000       2
   -0.258620689655    0.238095238095    0.000000000000       2
   -0.241379310345    0.238095238095    0.000000000000       2
   -0.224137931034    0.238095238095    0.000000000000       2
   -0.206896551724    0.238095238095    0.000000000000       2
   -0.189655172414    0.238095238095    0.000000000000       2
   -0.172413793103    0.238095238095    0.000000000000       2
   -0.155172413793    0.238095238095    0.000000000000       2
   -0.137931034483    0.238095238095    0.000000000000       2
   -0.120689655172    0.238095238095    0.000000000000       2
   -0.103448275862    0.238095238095    0.000000000000       2
   -0.086206896552    0.238095238095    0.000000000000       2
   -0.068965517241    0.238095238095    0.000000000000       2
   -0.051724137931    0.238095238095    0.000000000000       2
   -0.034482758621    0.238095238095    0.000000000000       2
   -0.017241379310    0.238095238095    0.000000000000       2
    0.000000000000    0.285714285714    0.000000000000       2
    0.017241379310    0.285714285714    0.000000000000       2
    0.034482758621    0.285714285714    0.000000000000       2
    0.051724137931    0.285714285714    0.000000000000       2
    0.068965517241    0.285714285714    0.000000000000       2
    0.086206896552    0.285714285714    0.000000000000       2
    0.103448275862    0.285714285714    0.000000000000       2
    0.120689655172    0.285714285714    0.000000000000       2
    0.137931034483    0.285714285714    0.000000000000       2
    0.155172413793    0.285714285714    0.000000000000       2
    0.172413793103    0.285714285714    0.000000000000       2
    0.189655172414    0.285714285714    0.000000000000       2
    0.206896551724    0.285714285714    0.000000000000       2
    0.224137931034    0.285714285714    0.000000000000       2
    0.241379310345    0.285714285714    0.000000000000       2
    0.258620689655    0.285714285714    0.000000000000       2
    0.275862068966    0.285714285714    0.000000000000       2
    0.293103448276    0.285714285714    0.000000000000       2
    0.310344827586    0.285714285714    0.000000000000       2
    0.327586206897    0.285714285714    0.000000000000       2
    0.344827586207    0.285714285714    0.000000000000       2
    0.362068965517    0.285714285714    0.000000000000       2
    0.379310344828    0.285714285714    0.000000000000       2
    0.396551724138    0.285714285714    0.000000000000       2
    0.413793103448    0.285714285714    0.000000000000       2
    0.431034482759    0.285714285714    0.000000000000       2
    0.448275862069    0.285714285714    0.000000000000       2
    0.465517241379    0.285714285714    0.000000000000       2
    0.482758620690    0.285714285714    0.000000000000       2
    0.500000000000    0.285714285714    0.000000000000       2
   -0.482758620690    0.285714285714    0.000000000000       2
   -0.465517241379    0.285714285714    0.000000000000       2
   -0.448275862069    0.285714285714    0.000000000000       2
   -0.431034482759    0.285714285714    0.000000000000       2
   -0.413793103448    0.285714285714    0.000000000000       2
   -0.396551724138    0.285714285714    0.000000000000       2
   -0.379310344828    0.285714285714    0.000000000000       2
   -0.362068965517    0.285714285714    0.000000000000       2
   -0.344827586207    0.285714285714    0.000000000000       2
   -0.327586206897    0.285714285714    0.000000000000       2
   -0.310344827586    0.285714285714    0.000000000000       2
   -0.293103448276    0.285714285714    0.000000000000       2
   -0.275862068966    0.285714285714    0.000000000000       2
   -0.258620689655    0.285714285714    0.000000000000       2
   -0.241379310345    0.285714285714    0.000000000000       2
   -0.224137931034    0.285714285714    0.000000000000       2
   -0.206896551724    0.285714285714    0.000000000000       2
   -0.189655172414    0.285714285714    0.000000000000       2
   -0.172413793103    0.285714285714    0.000000000000       2
   -0.155172413793    0.285714285714    0.000000000000       2
   -0.137931034483    0.285714285714    0.000000000000       2
   -0.120689655172    0.285714285714    0.000000000000       2
   -0.103448275862    0.285714285714    0.000000000000       2
   -0.086206896552    0.285714285714    0.000000000000       2
   -0.068965517241    0.285714285714    0.000000000000       2
   -0.051724137931    0.285714285714    0.000000000000       2
   -0.034482758621    0.285714285714    0.000000000000       2
   -0.017241379310    0.285714285714    0.000000000000       2
    0.000000000000    0.333333333333    0.000000000000       2
    0.017241379310    0.333333333333    0.000000000000       2
    0.034482758621    0.333333333333    0.000000000000       2
    0.051724137931    0.333333333333    0.000000000000       2
    0.068965517241    0.333333333333    0.000000000000       2
    0.086206896552    0.333333333333    0.000000000000       2
    0.103448275862    0.333333333333    0.000000000000       2
    0.120689655172    0.333333333333    0.000000000000       2
    0.137931034483    0.333333333333    0.000000000000       2
    0.155172413793    0.333333333333    0.000000000000       2
    0.172413793103    0.333333333333    0.000000000000       2
    0.189655172414    0.333333333333    0.000000000000       2
    0.206896551724    0.333333333333    0.000000000000       2
    0.224137931034    0.333333333333    0.000000000000       2
    0.241379310345    0.333333333333    0.000000000000       2
    0.258620689655    0.333333333333    0.000000000000       2
    0.275862068966    0.333333333333    0.000000000000       2
    0.293103448276    0.333333333333    0.000000000000       2
    0.310344827586    0.333333333333    0.000000000000       2
    0.327586206897    0.333333333333    0.000000000000       2
    0.344827586207    0.333333333333    0.000000000000       2
    0.362068965517    0.333333333333    0.000000000000       2
    0.379310344828    0.333333333333    0.000000000000       2
    0.396551724138    0.333333333333    0.000000000000       2
    0.413793103448    0.333333333333    0.000000000000       2
    0.431034482759    0.333333333333    0.000000000000       2
    0.448275862069    0.333333333333    0.000000000000       2
    0.465517241379    0.333333333333    0.000000000000       2
    0.482758620690    0.333333333333    0.000000000000       2
    0.500000000000    0.333333333333    0.000000000000       2
   -0.482758620690    0.333333333333    0.000000000000       2
   -0.465517241379    0.333333333333    0.000000000000       2
   -0.448275862069    0.333333333333    0.000000000000       2
   -0.431034482759    0.333333333333    0.000000000000       2
   -0.413793103448    0.333333333333    0.000000000000       2
   -0.396551724138    0.333333333333    0.000000000000       2
   -0.379310344828    0.333333333333    0.000000000000       2
   -0.362068965517    0.333333333333    0.000000000000       2
   -0.344827586207    0.333333333333    0.000000000000       2
   -0.327586206897    0.333333333333    0.000000000000       2
   -0.310344827586    0.333333333333    0.000000000000       2
   -0.293103448276    0.333333333333    0.000000000000       2
   -0.275862068966    0.333333333333    0.000000000000       2
   -0.258620689655    0.333333333333    0.000000000000       2
   -0.241379310345    0.333333333333    0.000000000000       2
   -0.224137931034    0.333333333333    0.000000000000       2
   -0.206896551724    0.333333333333    0.000000000000       2
   -0.189655172414    0.333333333333    0.000000000000       2
   -0.172413793103    0.333333333333    0.000000000000       2
   -0.155172413793    0.333333333333    0.000000000000       2
   -0.137931034483    0.333333333333    0.000000000000       2
   -0.120689655172    0.333333333333    0.000000000000       2
   -0.103448275862    0.333333333333    0.000000000000       2
   -0.086206896552    0.333333333333    0.000000000000       2
   -0.068965517241    0.333333333333    0.000000000000       2
   -0.051724137931    0.333333333333    0.000000000000       2
   -0.034482758621    0.333333333333    0.000000000000       2
   -0.017241379310    0.333333333333    0.000000000000       2
    0.000000000000    0.380952380952    0.000000000000       2
    0.017241379310    0.380952380952    0.000000000000       2
    0.034482758621    0.380952380952    0.000000000000       2
    0.051724137931    0.380952380952    0.000000000000       2
    0.068965517241    0.380952380952    0.000000000000       2
    0.086206896552    0.380952380952    0.000000000000       2
    0.103448275862    0.380952380952    0.000000000000       2
    0.120689655172    0.380952380952    0.000000000000       2
    0.137931034483    0.380952380952    0.000000000000       2
    0.155172413793    0.380952380952    0.000000000000       2
    0.172413793103    0.380952380952    0.000000000000       2
    0.189655172414    0.380952380952    0.000000000000       2
    0.206896551724    0.380952380952    0.000000000000       2
    0.224137931034    0.380952380952    0.000000000000       2
    0.241379310345    0.380952380952    0.000000000000       2
    0.258620689655    0.380952380952    0.000000000000       2
    0.275862068966    0.380952380952    0.000000000000       2
    0.293103448276    0.380952380952    0.000000000000       2
    0.310344827586    0.380952380952    0.000000000000       2
    0.327586206897    0.380952380952    0.000000000000       2
    0.344827586207    0.380952380952    0.000000000000       2
    0.362068965517    0.380952380952    0.000000000000       2
    0.379310344828    0.380952380952    0.000000000000       2
    0.396551724138    0.380952380952    0.000000000000       2
    0.413793103448    0.380952380952    0.000000000000       2
    0.431034482759    0.380952380952    0.000000000000       2
    0.448275862069    0.380952380952    0.000000000000       2
    0.465517241379    0.380952380952    0.000000000000       2
    0.482758620690    0.380952380952    0.000000000000       2
    0.500000000000    0.380952380952    0.000000000000       2
   -0.482758620690    0.380952380952    0.000000000000       2
   -0.465517241379    0.380952380952    0.000000000000       2
   -0.448275862069    0.380952380952    0.000000000000       2
   -0.431034482759    0.380952380952    0.000000000000       2
   -0.413793103448    0.380952380952    0.000000000000       2
   -0.396551724138    0.380952380952    0.000000000000       2
   -0.379310344828    0.380952380952    0.000000000000       2
   -0.362068965517    0.380952380952    0.000000000000       2