CONTCAR\(13)                            
   1.00000000000000     
    10.9294004440000005    0.0000000000000000    0.0000000000000000
    -5.4647012217000004    9.4654836332999999    0.0000000000000000
     0.0000000000000000    0.0000000000000000   27.0860996245999992
   Mn   Ga   S 
    18    18    45
Direct
  0.1111815401614891  0.2223730973229792  0.4454331816124650
  0.2221484518385068  0.1109569046770247  0.5545667833875356
  0.4445215311614916  0.2223730973229792  0.4454331816124650
  0.5554784618385042  0.1109569046770247  0.5545667833875356
  0.7778514761614943  0.2223730973229792  0.4454331816124650
  0.8888184418385094  0.1109569046770247  0.5545667833875356
  0.1111815341614957  0.5557030983229794  0.4454331816124650
  0.2221484718385085  0.4442969056770210  0.5545667833875356
  0.4445215241614946  0.5557030983229794  0.4454331816124650
  0.5554784818385059  0.4442969056770210  0.5545667833875356
  0.7778514691614902  0.5557030983229794  0.4454331816124650
  0.8888184608385075  0.4442969056770210  0.5545667833875356
  0.1111815641614911  0.8890430993229756  0.4454331816124650
  0.2221484518385068  0.7776268816770227  0.5545667833875356
  0.4445215431614926  0.8890430993229756  0.4454331816124650
  0.5554784628385079  0.7776268816770227  0.5545667833875356
  0.7778514881614953  0.8890430993229756  0.4454331816124650
  0.8888184418385094  0.7776268816770227  0.5545667833875356
  0.1109167389568384  0.2218234899136675  0.6848187905916561
  0.2224232620431650  0.1115065240863373  0.3151812094083439
  0.4442467709568376  0.2218234899136675  0.6848187905916561
  0.5557532720431624  0.1115065240863373  0.3151812094083439
  0.7775767589568332  0.2218234899136675  0.6848187905916561
  0.8890832170431651  0.1115065240863373  0.3151812094083439
  0.1109167399568349  0.5551534399136671  0.6848187905916561
  0.2224232530431607  0.4448465130863326  0.3151812094083439
  0.4442467609568368  0.5551534399136671  0.6848187905916561
  0.5557532850431670  0.4448465130863326  0.3151812094083439
  0.7775767269568377  0.5551534399136671  0.6848187905916561
  0.8890832300431626  0.4448465130863326  0.3151812094083439
  0.1109167329568379  0.8884935419136681  0.6848187905916561
  0.2224232590431612  0.7781765390863313  0.3151812094083439
  0.4442467649568371  0.8884935419136681  0.6848187905916561
  0.5557532910431604  0.7781765390863313  0.3151812094083439
  0.7775767539568363  0.8884935419136681  0.6848187905916561
  0.8890832360431631  0.7781765390863313  0.3151812094083439
  0.0000000000000000  0.0000000000000000  0.5000000000000000
  0.1110355923764743  0.2220711887529490  0.6030081605673985
  0.2223044056235253  0.1112688122470544  0.3969918394326015
  0.1113918908871057  0.2227837847742080  0.2765391884574839
  0.2219381191128988  0.1105462292257897  0.7234608295425176
  0.3333300099999974  0.0000000000000000  0.5000000000000000
  0.4443656033764753  0.2220711887529490  0.6030081605673985
  0.5556344166235263  0.1112688122470544  0.3969918394326015
  0.4447219008871031  0.2227837847742080  0.2765391884574839
  0.5552780981128933  0.1105462292257897  0.7234608295425176
  0.6666700119999973  0.0000000000000000  0.5000000000000000
  0.7776955483764709  0.2220711887529490  0.6030081605673985
  0.8889643616235290  0.1112688122470544  0.3969918394326015
  0.7780618808871012  0.2227837847742080  0.2765391884574839
  0.8886081301128925  0.1105462292257897  0.7234608295425176
  0.0000000040000003  0.3333300010000002  0.5000000000000000
  0.1110355953764710  0.5554011647529506  0.6030081605673985
  0.2223044336235276  0.4445988382470532  0.3969918394326015
  0.1113918868871053  0.5561237607742058  0.2765391884574839
  0.2219381181128952  0.4438762432257946  0.7234608295425176
  0.3333300139999977  0.3333300010000002  0.5000000000000000
  0.4443656053764755  0.5554011647529506  0.6030081605673985
  0.5556344226235268  0.4445988382470532  0.3969918394326015
  0.4447218858871054  0.5561237607742058  0.2765391884574839
  0.5552781201128951  0.4438762432257946  0.7234608295425176
  0.6666700050000003  0.3333300010000002  0.5000000000000000
  0.7776955283764764  0.5554011647529506  0.6030081605673985
  0.8889643666235258  0.4445988382470532  0.3969918394326015
  0.7780618878871053  0.5561237607742058  0.2765391884574839
  0.8886081731128925  0.4438762432257946  0.7234608295425176
  0.0000000029999967  0.6666700270000021  0.5000000000000000
  0.1110356043764753  0.8887312417529500  0.6030081605673985
  0.2223044146235225  0.7779288152470514  0.3969918394326015
  0.1113918998871029  0.8894537367742075  0.2765391884574839
  0.2219380911128965  0.7772161932257902  0.7234608295425176
  0.3333300139999977  0.6666700270000021  0.5000000000000000
  0.4443656143764727  0.8887312417529500  0.6030081605673985
  0.5556344026235251  0.7779288152470514  0.3969918394326015
  0.4447218888871021  0.8894537367742075  0.2765391884574839
  0.5552780921128928  0.7772161932257902  0.7234608295425176
  0.6666700150000011  0.6666700270000021  0.5000000000000000
  0.7776955593764754  0.8887312417529500  0.6030081605673985
  0.8889643476235278  0.7779288152470514  0.3969918394326015
  0.7780618678871036  0.8894537367742075  0.2765391884574839
  0.8886081241128991  0.7772161932257902  0.7234608295425176
 
  0.00000000E+00  0.00000000E+00  0.00000000E+00
  0.00000000E+00  0.00000000E+00  0.00000000E+00
  0.00000000E+00  0.00000000E+00  0.00000000E+00
  0.00000000E+00  0.00000000E+00  0.00000000E+00
  0.00000000E+00  0.00000000E+00  0.00000000E+00
  0.00000000E+00  0.00000000E+00  0.00000000E+00
  0.00000000E+00  0.00000000E+00  0.00000000E+00
  0.00000000E+00  0.00000000E+00  0.00000000E+00
  0.00000000E+00  0.00000000E+00  0.00000000E+00
  0.00000000E+00  0.00000000E+00  0.00000000E+00
  0.00000000E+00  0.00000000E+00  0.00000000E+00
  0.00000000E+00  0.00000000E+00  0.00000000E+00
  0.00000000E+00  0.00000000E+00  0.00000000E+00
  0.00000000E+00  0.00000000E+00  0.00000000E+00
  0.00000000E+00  0.00000000E+00  0.00000000E+00
  0.00000000E+00  0.00000000E+00  0.00000000E+00
  0.00000000E+00  0.00000000E+00  0.00000000E+00
  0.00000000E+00  0.00000000E+00  0.00000000E+00
  0.00000000E+00  0.00000000E+00  0.00000000E+00
  0.00000000E+00  0.00000000E+00  0.00000000E+00
  0.00000000E+00  0.00000000E+00  0.00000000E+00
  0.00000000E+00  0.00000000E+00  0.00000000E+00
  0.00000000E+00  0.00000000E+00  0.00000000E+00
  0.00000000E+00  0.00000000E+00  0.00000000E+00
  0.00000000E+00  0.00000000E+00  0.00000000E+00
  0.00000000E+00  0.00000000E+00  0.00000000E+00
  0.00000000E+00  0.00000000E+00  0.00000000E+00
  0.00000000E+00  0.00000000E+00  0.00000000E+00
  0.00000000E+00  0.00000000E+00  0.00000000E+00
  0.00000000E+00  0.00000000E+00  0.00000000E+00
  0.00000000E+00  0.00000000E+00  0.00000000E+00
  0.00000000E+00  0.00000000E+00  0.00000000E+00
  0.00000000E+00  0.00000000E+00  0.00000000E+00
  0.00000000E+00  0.00000000E+00  0.00000000E+00
  0.00000000E+00  0.00000000E+00  0.00000000E+00
  0.00000000E+00  0.00000000E+00  0.00000000E+00
  0.00000000E+00  0.00000000E+00  0.00000000E+00
  0.00000000E+00  0.00000000E+00  0.00000000E+00
  0.00000000E+00  0.00000000E+00  0.00000000E+00
  0.00000000E+00  0.00000000E+00  0.00000000E+00
  0.00000000E+00  0.00000000E+00  0.00000000E+00
  0.00000000E+00  0.00000000E+00  0.00000000E+00
  0.00000000E+00  0.00000000E+00  0.00000000E+00
  0.00000000E+00  0.00000000E+00  0.00000000E+00
  0.00000000E+00  0.00000000E+00  0.00000000E+00
  0.00000000E+00  0.00000000E+00  0.00000000E+00
  0.00000000E+00  0.00000000E+00  0.00000000E+00
  0.00000000E+00  0.00000000E+00  0.00000000E+00
  0.00000000E+00  0.00000000E+00  0.00000000E+00
  0.00000000E+00  0.00000000E+00  0.00000000E+00
  0.00000000E+00  0.00000000E+00  0.00000000E+00
  0.00000000E+00  0.00000000E+00  0.00000000E+00
  0.00000000E+00  0.00000000E+00  0.00000000E+00
  0.00000000E+00  0.00000000E+00  0.00000000E+00
  0.00000000E+00  0.00000000E+00  0.00000000E+00
  0.00000000E+00  0.00000000E+00  0.00000000E+00
  0.00000000E+00  0.00000000E+00  0.00000000E+00
  0.00000000E+00  0.00000000E+00  0.00000000E+00
  0.00000000E+00  0.00000000E+00  0.00000000E+00
  0.00000000E+00  0.00000000E+00  0.00000000E+00
  0.00000000E+00  0.00000000E+00  0.00000000E+00
  0.00000000E+00  0.00000000E+00  0.00000000E+00
  0.00000000E+00  0.00000000E+00  0.00000000E+00
  0.00000000E+00  0.00000000E+00  0.00000000E+00
  0.00000000E+00  0.00000000E+00  0.00000000E+00
  0.00000000E+00  0.00000000E+00  0.00000000E+00
  0.00000000E+00  0.00000000E+00  0.00000000E+00
  0.00000000E+00  0.00000000E+00  0.00000000E+00
  0.00000000E+00  0.00000000E+00  0.00000000E+00
  0.00000000E+00  0.00000000E+00  0.00000000E+00
  0.00000000E+00  0.00000000E+00  0.00000000E+00
  0.00000000E+00  0.00000000E+00  0.00000000E+00
  0.00000000E+00  0.00000000E+00  0.00000000E+00
  0.00000000E+00  0.00000000E+00  0.00000000E+00
  0.00000000E+00  0.00000000E+00  0.00000000E+00
  0.00000000E+00  0.00000000E+00  0.00000000E+00
  0.00000000E+00  0.00000000E+00  0.00000000E+00
  0.00000000E+00  0.00000000E+00  0.00000000E+00
  0.00000000E+00  0.00000000E+00  0.00000000E+00
  0.00000000E+00  0.00000000E+00  0.00000000E+00
  0.00000000E+00  0.00000000E+00  0.00000000E+00
