CONTCAR\(6)                             
   1.00000000000000     
    12.5545997620000005    0.0000000000000000    0.0000000000000000
     6.2753582318000003   10.8725691462000000    0.0000000000000000
     0.0000000000000000    0.0000000000000000   18.6128997803000011
   Ta   Se   O 
    13    26     1
Direct
  0.0036447562105602  0.9998133594134001  0.5004285777689518
  0.7921449716381490  0.9293721526806237  0.5007858340584000
  0.2183673175422716  0.0656064267656556  0.5010176445033723
  0.2880479606241433  0.7825348210096597  0.4999910565584844
  0.7219606598178875  0.2125657114158492  0.5007282684460299
  0.0749847701042828  0.7144264365178987  0.5002944202859725
  0.9360352114072817  0.2806579198509773  0.5004392757593972
  0.8533801383179541  0.6362855585973602  0.5018517068602282
  0.1562657055469244  0.3608398078737872  0.4995157679866675
  0.5184900024760607  0.8457580179644953  0.5020276148673429
  0.4903443920970752  0.1523824206835860  0.5000983840450132
  0.3675755834178852  0.4838073920629917  0.4984739527294343
  0.6435820949035664  0.5112673705623676  0.5011526662262954
  0.9553268663619628  0.8740380512702745  0.5981277947567926
  0.0556701326735931  0.1215001720888815  0.4028582448674168
  0.1793125521825102  0.9462252515139966  0.5981249607109252
  0.8307545900238614  0.0486354912659143  0.4030028370258112
  0.8811864740089502  0.1720567982444146  0.5982180058936817
  0.1276741789063792  0.8250900286739588  0.4024787942699334
  0.2549161777439086  0.6458436543799362  0.5922697472176589
  0.7555261727212436  0.3493401442548650  0.4061987552568773
  0.1070979073810202  0.2479512546761442  0.5944837350510153
  0.9021760694296920  0.7484934276151473  0.4066145109023037
  0.6531440989240830  0.1000091018238601  0.5948281710576655
  0.3571749995119631  0.8963568032670929  0.4065071543727703
  0.0345362463223851  0.5631212282919758  0.5845238975442418
  0.9753199136261653  0.4332554346223988  0.4169668328210186
  0.4102497455757721  0.0278847579416135  0.5840297597550860
  0.5985852095829162  0.9698405951318806  0.4180994381934039
  0.5692120232079633  0.4045441709961350  0.5838381638346977
  0.4411124767923518  0.5926230800954121  0.4159350392072643
  0.7164244907106543  0.8023502880414702  0.5856957531754612
  0.2931737291258924  0.1942798692963635  0.4162308394043583
  0.4895881346647972  0.7086848475518052  0.5855996959964994
  0.5197335531085920  0.2878608538188486  0.4148601299790605
  0.8090627874601032  0.4826217364027099  0.5854169629473653
  0.1999632839628042  0.5136297254566378  0.4147253920780809
  0.3377409320191272  0.3329289260015410  0.5846037574087127
  0.6720421384636893  0.6650389532732026  0.4169559545392854
  0.2522912534035826  0.6502079056048991  0.6824003326370292
 
  0.00000000E+00  0.00000000E+00  0.00000000E+00
  0.00000000E+00  0.00000000E+00  0.00000000E+00
  0.00000000E+00  0.00000000E+00  0.00000000E+00
  0.00000000E+00  0.00000000E+00  0.00000000E+00
  0.00000000E+00  0.00000000E+00  0.00000000E+00
  0.00000000E+00  0.00000000E+00  0.00000000E+00
  0.00000000E+00  0.00000000E+00  0.00000000E+00
  0.00000000E+00  0.00000000E+00  0.00000000E+00
  0.00000000E+00  0.00000000E+00  0.00000000E+00
  0.00000000E+00  0.00000000E+00  0.00000000E+00
  0.00000000E+00  0.00000000E+00  0.00000000E+00
  0.00000000E+00  0.00000000E+00  0.00000000E+00
  0.00000000E+00  0.00000000E+00  0.00000000E+00
  0.00000000E+00  0.00000000E+00  0.00000000E+00
  0.00000000E+00  0.00000000E+00  0.00000000E+00
  0.00000000E+00  0.00000000E+00  0.00000000E+00
  0.00000000E+00  0.00000000E+00  0.00000000E+00
  0.00000000E+00  0.00000000E+00  0.00000000E+00
  0.00000000E+00  0.00000000E+00  0.00000000E+00
  0.00000000E+00  0.00000000E+00  0.00000000E+00
  0.00000000E+00  0.00000000E+00  0.00000000E+00
  0.00000000E+00  0.00000000E+00  0.00000000E+00
  0.00000000E+00  0.00000000E+00  0.00000000E+00
  0.00000000E+00  0.00000000E+00  0.00000000E+00
  0.00000000E+00  0.00000000E+00  0.00000000E+00
  0.00000000E+00  0.00000000E+00  0.00000000E+00
  0.00000000E+00  0.00000000E+00  0.00000000E+00
  0.00000000E+00  0.00000000E+00  0.00000000E+00
  0.00000000E+00  0.00000000E+00  0.00000000E+00
  0.00000000E+00  0.00000000E+00  0.00000000E+00
  0.00000000E+00  0.00000000E+00  0.00000000E+00
  0.00000000E+00  0.00000000E+00  0.00000000E+00
  0.00000000E+00  0.00000000E+00  0.00000000E+00
  0.00000000E+00  0.00000000E+00  0.00000000E+00
  0.00000000E+00  0.00000000E+00  0.00000000E+00
  0.00000000E+00  0.00000000E+00  0.00000000E+00
  0.00000000E+00  0.00000000E+00  0.00000000E+00
  0.00000000E+00  0.00000000E+00  0.00000000E+00
  0.00000000E+00  0.00000000E+00  0.00000000E+00
  0.00000000E+00  0.00000000E+00  0.00000000E+00
