CONTCAR\(17)                            
   1.00000000000000     
    11.7923002242999999    0.0000000000000000    0.0000000000000000
     0.0000000000000000   21.3097991942999982    0.0000000000000000
     0.0000000000000000    0.0000000000000000   18.7763004303000010
   V    Ag   P    S 
     8     8    16    48
Direct
  0.1248867349249636  0.4638502967882445  0.5000069557834550
  0.3751232730750331  0.0361497122117527  0.4999930442165450
  0.6248867549249653  0.4638502967882445  0.5000069557834550
  0.8751232320750333  0.0361497122117527  0.4999930442165450
  0.1248867349249636  0.9638502517882443  0.5000069557834550
  0.3751232730750331  0.5361497032117555  0.4999930442165450
  0.6248867549249653  0.9638502517882443  0.5000069557834550
  0.8751232320750333  0.5361497032117555  0.4999930442165450
  0.3750213176472670  0.2151031393878569  0.5000407390463337
  0.1249786923527338  0.2848968606121431  0.4999592609536663
  0.8750213176472670  0.2151031393878569  0.5000407390463337
  0.6249786423527297  0.2848968606121431  0.4999592609536663
  0.3750213176472670  0.7151031613878587  0.5000407390463337
  0.1249786923527338  0.7848968826121379  0.4999592609536663
  0.8750213176472670  0.7151031613878587  0.5000407390463337
  0.6249786423527297  0.7848968826121379  0.4999592609536663
  0.1211900082683570  0.1252100742487343  0.5594844198859903
  0.3711220547076266  0.3747910112977593  0.5595085921951437
  0.3788100017316438  0.3747899257512657  0.4405155801140097
  0.1288679472923775  0.1252089887022407  0.4404914078048563
  0.6211900382683595  0.1252100742487343  0.5594844198859903
  0.8711220547076266  0.3747910112977593  0.5595085921951437
  0.8788099617316405  0.3747899257512657  0.4405155801140097
  0.6288679162923785  0.1252089887022407  0.4404914078048563
  0.1211900082683570  0.6252100292487341  0.5594844198859903
  0.3711220547076266  0.8747910562977594  0.5595085921951437
  0.3788100017316438  0.8747899707512659  0.4405155801140097
  0.1288679472923775  0.6252089437022406  0.4404914078048563
  0.6211900382683595  0.6252100292487341  0.5594844198859903
  0.8711220547076266  0.8747910562977594  0.5595085921951437
  0.8788099617316405  0.8747899707512659  0.4405155801140097
  0.6288679162923785  0.6252089437022406  0.4404914078048563
  0.4596323695243072  0.4598630385888711  0.5799674068856149
  0.3046646944107110  0.3000809486345446  0.3996998370428173
  0.4538639429146443  0.1150965312565262  0.5829902720812612
  0.2961865411927818  0.1150868140466912  0.4169913892777188
  0.0546739781460843  0.1998931470225997  0.3996547848977983
  0.2038034508072286  0.3849131969533062  0.5830085857222826
  0.0461460550853587  0.3849034457434755  0.4170097019187367
  0.2903311805978959  0.4598600665463053  0.4200885949984468
  0.0403676304756928  0.0401369894111312  0.4200326191143873
  0.2096688194021041  0.0401399614536970  0.5799114050015532
  0.1953353055892890  0.1999190513654554  0.6003001379571842
  0.4453360198539116  0.3001068529774003  0.6003451901022032
  0.9596323695243072  0.4598630385888711  0.5799674068856149
  0.8046646744107093  0.3000809486345446  0.3996998370428173
  0.9538639029146410  0.1150965312565262  0.5829902720812612
  0.7961865411927818  0.1150868140466912  0.4169913892777188
  0.5546740081460868  0.1998931470225997  0.3996547848977983
  0.7038034708072303  0.3849131969533062  0.5830085857222826
  0.5461460450853579  0.3849034457434755  0.4170097019187367
  0.7903311405978997  0.4598600665463053  0.4200885949984468
  0.5403676304756928  0.0401369894111312  0.4200326191143873
  0.7096688194021041  0.0401399614536970  0.5799114050015532
  0.6953352855892945  0.1999190513654554  0.6003001379571842
  0.9453360198539116  0.3001068529774003  0.6003451901022032
  0.4596323695243072  0.9598629485888708  0.5799674068856149
  0.3046646944107110  0.8000809486345446  0.3996998370428173
  0.4538639429146443  0.6150965542565245  0.5829902720812612
  0.2961865411927818  0.6150868030466938  0.4169913892777188
  0.0546739781460843  0.6998931250225979  0.3996547848977983
  0.2038034508072286  0.8849131969533062  0.5830085857222826
  0.0461460550853587  0.8849034457434755  0.4170097019187367
  0.2903311805978959  0.9598599765463049  0.4200885949984468
  0.0403676304756928  0.5401370064111291  0.4200326191143873
  0.2096688194021041  0.5401399784536949  0.5799114050015532
  0.1953353055892890  0.6999190063654552  0.6003001379571842
  0.4453360198539116  0.8001068299774019  0.6003451901022032
  0.9596323695243072  0.9598629485888708  0.5799674068856149
  0.8046646744107093  0.8000809486345446  0.3996998370428173
  0.9538639029146410  0.6150965542565245  0.5829902720812612
  0.7961865411927818  0.6150868030466938  0.4169913892777188
  0.5546740081460868  0.6998931250225979  0.3996547848977983
  0.7038034708072303  0.8849131969533062  0.5830085857222826
  0.5461460450853579  0.8849034457434755  0.4170097019187367
  0.7903311405978997  0.9598599765463049  0.4200885949984468
  0.5403676304756928  0.5401370064111291  0.4200326191143873
  0.7096688194021041  0.5401399784536949  0.5799114050015532
  0.6953352855892945  0.6999190063654552  0.6003001379571842
  0.9453360198539116  0.8001068299774019  0.6003451901022032
 
  0.00000000E+00  0.00000000E+00  0.00000000E+00
  0.00000000E+00  0.00000000E+00  0.00000000E+00
  0.00000000E+00  0.00000000E+00  0.00000000E+00
  0.00000000E+00  0.00000000E+00  0.00000000E+00
  0.00000000E+00  0.00000000E+00  0.00000000E+00
  0.00000000E+00  0.00000000E+00  0.00000000E+00
  0.00000000E+00  0.00000000E+00  0.00000000E+00
  0.00000000E+00  0.00000000E+00  0.00000000E+00
  0.00000000E+00  0.00000000E+00  0.00000000E+00
  0.00000000E+00  0.00000000E+00  0.00000000E+00
  0.00000000E+00  0.00000000E+00  0.00000000E+00
  0.00000000E+00  0.00000000E+00  0.00000000E+00
  0.00000000E+00  0.00000000E+00  0.00000000E+00
  0.00000000E+00  0.00000000E+00  0.00000000E+00
  0.00000000E+00  0.00000000E+00  0.00000000E+00
  0.00000000E+00  0.00000000E+00  0.00000000E+00
  0.00000000E+00  0.00000000E+00  0.00000000E+00
  0.00000000E+00  0.00000000E+00  0.00000000E+00
  0.00000000E+00  0.00000000E+00  0.00000000E+00
  0.00000000E+00  0.00000000E+00  0.00000000E+00
  0.00000000E+00  0.00000000E+00  0.00000000E+00
  0.00000000E+00  0.00000000E+00  0.00000000E+00
  0.00000000E+00  0.00000000E+00  0.00000000E+00
  0.00000000E+00  0.00000000E+00  0.00000000E+00
  0.00000000E+00  0.00000000E+00  0.00000000E+00
  0.00000000E+00  0.00000000E+00  0.00000000E+00
  0.00000000E+00  0.00000000E+00  0.00000000E+00
  0.00000000E+00  0.00000000E+00  0.00000000E+00
  0.00000000E+00  0.00000000E+00  0.00000000E+00
  0.00000000E+00  0.00000000E+00  0.00000000E+00
  0.00000000E+00  0.00000000E+00  0.00000000E+00
  0.00000000E+00  0.00000000E+00  0.00000000E+00
  0.00000000E+00  0.00000000E+00  0.00000000E+00
  0.00000000E+00  0.00000000E+00  0.00000000E+00
  0.00000000E+00  0.00000000E+00  0.00000000E+00
  0.00000000E+00  0.00000000E+00  0.00000000E+00
  0.00000000E+00  0.00000000E+00  0.00000000E+00
  0.00000000E+00  0.00000000E+00  0.00000000E+00
  0.00000000E+00  0.00000000E+00  0.00000000E+00
  0.00000000E+00  0.00000000E+00  0.00000000E+00
  0.00000000E+00  0.00000000E+00  0.00000000E+00
  0.00000000E+00  0.00000000E+00  0.00000000E+00
  0.00000000E+00  0.00000000E+00  0.00000000E+00
  0.00000000E+00  0.00000000E+00  0.00000000E+00
  0.00000000E+00  0.00000000E+00  0.00000000E+00
  0.00000000E+00  0.00000000E+00  0.00000000E+00
  0.00000000E+00  0.00000000E+00  0.00000000E+00
  0.00000000E+00  0.00000000E+00  0.00000000E+00
  0.00000000E+00  0.00000000E+00  0.00000000E+00
  0.00000000E+00  0.00000000E+00  0.00000000E+00
  0.00000000E+00  0.00000000E+00  0.00000000E+00
  0.00000000E+00  0.00000000E+00  0.00000000E+00
  0.00000000E+00  0.00000000E+00  0.00000000E+00
  0.00000000E+00  0.00000000E+00  0.00000000E+00
  0.00000000E+00  0.00000000E+00  0.00000000E+00
  0.00000000E+00  0.00000000E+00  0.00000000E+00
  0.00000000E+00  0.00000000E+00  0.00000000E+00
  0.00000000E+00  0.00000000E+00  0.00000000E+00
  0.00000000E+00  0.00000000E+00  0.00000000E+00
  0.00000000E+00  0.00000000E+00  0.00000000E+00
  0.00000000E+00  0.00000000E+00  0.00000000E+00
  0.00000000E+00  0.00000000E+00  0.00000000E+00
  0.00000000E+00  0.00000000E+00  0.00000000E+00
  0.00000000E+00  0.00000000E+00  0.00000000E+00
  0.00000000E+00  0.00000000E+00  0.00000000E+00
  0.00000000E+00  0.00000000E+00  0.00000000E+00
  0.00000000E+00  0.00000000E+00  0.00000000E+00
  0.00000000E+00  0.00000000E+00  0.00000000E+00
  0.00000000E+00  0.00000000E+00  0.00000000E+00
  0.00000000E+00  0.00000000E+00  0.00000000E+00
  0.00000000E+00  0.00000000E+00  0.00000000E+00
  0.00000000E+00  0.00000000E+00  0.00000000E+00
  0.00000000E+00  0.00000000E+00  0.00000000E+00
  0.00000000E+00  0.00000000E+00  0.00000000E+00
  0.00000000E+00  0.00000000E+00  0.00000000E+00
  0.00000000E+00  0.00000000E+00  0.00000000E+00
  0.00000000E+00  0.00000000E+00  0.00000000E+00
  0.00000000E+00  0.00000000E+00  0.00000000E+00
  0.00000000E+00  0.00000000E+00  0.00000000E+00
  0.00000000E+00  0.00000000E+00  0.00000000E+00
