CONTCAR\(2)                             
   1.00000000000000     
    11.6593999863000004    0.0000000000000000    0.0000000000000000
    -5.8296999931000002   10.0973365810000004    0.0000000000000000
     0.0000000000000000    0.0000000000000000   24.5373001098999985
   Zn   In   S    O    H 
     9    18    36     2     1
Selective dynamics
Direct
  0.1089533654434405  0.2231770705960585  0.3290453697635698   F   F   F
  0.4424274856304820  0.2237187484885723  0.3288704997166860   F   F   F
  0.7751055620721701  0.2233384718278870  0.3288865806877723   F   F   F
  0.1092138501117361  0.5573868998980984  0.3255997234966799   F   F   F
  0.4421544417149121  0.5560324688274463  0.3289255331530541   F   F   F
  0.7748131744139002  0.5562309880524765  0.3290085095236890   F   F   F
  0.1092092323984986  0.8892153684679514  0.3258887544673641   F   F   F
  0.4409409330962291  0.8889699522981473  0.3256649227062596   F   F   F
  0.7752738594284025  0.8894064090869662  0.3291401223562076   F   F   F
  0.9960336935713272  0.0023654607427517  0.4809597759247453   F   F   F
  0.2210988108696696  0.1103485382247769  0.6461106797960099   F   F   F
  0.3310751547129342  0.0023160899531049  0.4833288037909469   F   F   F
  0.5529557582972160  0.1099757353298045  0.6463248393784369   F   F   F
  0.6656972322118690  0.0026016383551379  0.4797630466980820   F   F   F
  0.8872704517992815  0.1113752713381828  0.6444855190198879   F   F   F
  0.9960112187374790  0.3331219067403950  0.4795578534741978   F   F   F
  0.2194890987394089  0.4459912662102141  0.6456849748772626   F   F   F
  0.3364753532610933  0.3377704065929379  0.4917694694222519   F   F   F
  0.5526094238924841  0.4458531549736406  0.6731530343806895   F   F   F
  0.6604510000815793  0.3381221520804445  0.4929217638772343   F   F   F
  0.8886281184015701  0.4459158219458601  0.6462863723091345   F   F   F
  0.9966446769415640  0.6677783539704620  0.4833661604410224   F   F   F
  0.2204590023873081  0.7779472072802349  0.6475486393448833   F   F   F
  0.3308928090777385  0.6677952937014879  0.4833450753860404   F   F   F
  0.5521934267469035  0.7788049999520368  0.6458485758857151   F   F   F
  0.6604214100142087  0.6614722487005196  0.4920343284897015   F   F   F
  0.8878499679849199  0.7773654976192006  0.6462006282118935   F   F   F
  0.2206552443845666  0.1124890208305516  0.3094282402392494   F   F   F
  0.2155513920130616  0.1084595944531301  0.5479058130675298   F   F   F
  0.1158411297843358  0.2268538134542766  0.4338533634283692   F   F   F
  0.1090638619038131  0.2224893266860661  0.6912397150224834   F   F   F
  0.5528461523357890  0.1123022867408778  0.3092195523434427   F   F   F
  0.5533670397576103  0.1082969225587007  0.5480489668324751   F   F   F
  0.4448161330014528  0.2289832144134607  0.4370114454162817   F   F   F
  0.4323715467040898  0.2009872121808485  0.6957829142048908   F   F   F
  0.8864060929315301  0.1119523137304128  0.3102717656878582   F   F   F
  0.8860116333762278  0.1127803154205154  0.5460857032728441   F   F   F
  0.7704816904425442  0.2277750456680110  0.4338472690825554   F   F   F
  0.7768076895946905  0.2221871003028895  0.6915916728201736   F   F   F
  0.2204715304518814  0.4452693849688316  0.3090667840159540   F   F   F
  0.2149038230002205  0.4451389285092873  0.5475477202213384   F   F   F
  0.1092818185409641  0.5588741527214935  0.4322489566974141   F   F   F
  0.1090124961576038  0.5553497542826307  0.6931406512978739   F   F   F
  0.5531993248919420  0.4452984693584980  0.3093181573734327   F   F   F
  0.5521845977971864  0.4459891024688005  0.5632719216509372   F   F   F
  0.4440681565699123  0.5543581592759637  0.4366499486091655   F   F   F
  0.4298463268097095  0.5683538594731203  0.6956506846258819   F   F   F
  0.8858791068660992  0.4454909057209804  0.3091487347595887   F   F   F
  0.8902173777164606  0.4451967809065991  0.5479743951508667   F   F   F
  0.7698233570953974  0.5539878830870535  0.4370739315145116   F   F   F
  0.7972301154772552  0.5660618344405037  0.6956915415030238   F   F   F
  0.2197500540794124  0.7786388201429162  0.3051661862758621   F   F   F
  0.2198383182389989  0.7789134357041263  0.5484936626724988   F   F   F
  0.1090889367008856  0.8896171190252957  0.4326664637074060   F   F   F
  0.1089118392218253  0.8895358394974267  0.6928657131025773   F   F   F
  0.5530556735617509  0.7777446571804489  0.3091976898896789   F   F   F
  0.5534202515255089  0.7836386665554471  0.5476576468092418   F   F   F
  0.4399124983935252  0.8894290464013963  0.4323109785346375   F   F   F
  0.4430751564009938  0.8895777275616084  0.6932246682886358   F   F   F
  0.8859994537906033  0.7778405522404128  0.3092346626149052   F   F   F
  0.8900209971887634  0.7827513924335108  0.5479966047272171   F   F   F
  0.7713516013420474  0.8821884317912847  0.4340268071730549   F   F   F
  0.7760314971651781  0.8896881180049476  0.6912516819979402   F   F   F
  0.5406093142840689  0.4587902950122213  0.7614637535644064   T   T   T
  0.6096350990403892  0.3980134447258408  0.7875852488872965   T   T   T
  0.5587038344233832  0.3666804838147826  0.8208374141366731   T   T   T
 
  0.00000000E+00  0.00000000E+00  0.00000000E+00
  0.00000000E+00  0.00000000E+00  0.00000000E+00
  0.00000000E+00  0.00000000E+00  0.00000000E+00
  0.00000000E+00  0.00000000E+00  0.00000000E+00
  0.00000000E+00  0.00000000E+00  0.00000000E+00
  0.00000000E+00  0.00000000E+00  0.00000000E+00
  0.00000000E+00  0.00000000E+00  0.00000000E+00
  0.00000000E+00  0.00000000E+00  0.00000000E+00
  0.00000000E+00  0.00000000E+00  0.00000000E+00
  0.00000000E+00  0.00000000E+00  0.00000000E+00
  0.00000000E+00  0.00000000E+00  0.00000000E+00
  0.00000000E+00  0.00000000E+00  0.00000000E+00
  0.00000000E+00  0.00000000E+00  0.00000000E+00
  0.00000000E+00  0.00000000E+00  0.00000000E+00
  0.00000000E+00  0.00000000E+00  0.00000000E+00
  0.00000000E+00  0.00000000E+00  0.00000000E+00
  0.00000000E+00  0.00000000E+00  0.00000000E+00
  0.00000000E+00  0.00000000E+00  0.00000000E+00
  0.00000000E+00  0.00000000E+00  0.00000000E+00
  0.00000000E+00  0.00000000E+00  0.00000000E+00
  0.00000000E+00  0.00000000E+00  0.00000000E+00
  0.00000000E+00  0.00000000E+00  0.00000000E+00
  0.00000000E+00  0.00000000E+00  0.00000000E+00
  0.00000000E+00  0.00000000E+00  0.00000000E+00
  0.00000000E+00  0.00000000E+00  0.00000000E+00
  0.00000000E+00  0.00000000E+00  0.00000000E+00
  0.00000000E+00  0.00000000E+00  0.00000000E+00
  0.00000000E+00  0.00000000E+00  0.00000000E+00
  0.00000000E+00  0.00000000E+00  0.00000000E+00
  0.00000000E+00  0.00000000E+00  0.00000000E+00
  0.00000000E+00  0.00000000E+00  0.00000000E+00
  0.00000000E+00  0.00000000E+00  0.00000000E+00
  0.00000000E+00  0.00000000E+00  0.00000000E+00
  0.00000000E+00  0.00000000E+00  0.00000000E+00
  0.00000000E+00  0.00000000E+00  0.00000000E+00
  0.00000000E+00  0.00000000E+00  0.00000000E+00
  0.00000000E+00  0.00000000E+00  0.00000000E+00
  0.00000000E+00  0.00000000E+00  0.00000000E+00
  0.00000000E+00  0.00000000E+00  0.00000000E+00
  0.00000000E+00  0.00000000E+00  0.00000000E+00
  0.00000000E+00  0.00000000E+00  0.00000000E+00
  0.00000000E+00  0.00000000E+00  0.00000000E+00
  0.00000000E+00  0.00000000E+00  0.00000000E+00
  0.00000000E+00  0.00000000E+00  0.00000000E+00
  0.00000000E+00  0.00000000E+00  0.00000000E+00
  0.00000000E+00  0.00000000E+00  0.00000000E+00
  0.00000000E+00  0.00000000E+00  0.00000000E+00
  0.00000000E+00  0.00000000E+00  0.00000000E+00
  0.00000000E+00  0.00000000E+00  0.00000000E+00
  0.00000000E+00  0.00000000E+00  0.00000000E+00
  0.00000000E+00  0.00000000E+00  0.00000000E+00
  0.00000000E+00  0.00000000E+00  0.00000000E+00
  0.00000000E+00  0.00000000E+00  0.00000000E+00
  0.00000000E+00  0.00000000E+00  0.00000000E+00
  0.00000000E+00  0.00000000E+00  0.00000000E+00
  0.00000000E+00  0.00000000E+00  0.00000000E+00
  0.00000000E+00  0.00000000E+00  0.00000000E+00
  0.00000000E+00  0.00000000E+00  0.00000000E+00
  0.00000000E+00  0.00000000E+00  0.00000000E+00
  0.00000000E+00  0.00000000E+00  0.00000000E+00
  0.00000000E+00  0.00000000E+00  0.00000000E+00
  0.00000000E+00  0.00000000E+00  0.00000000E+00
  0.00000000E+00  0.00000000E+00  0.00000000E+00
  0.00000000E+00  0.00000000E+00  0.00000000E+00
  0.00000000E+00  0.00000000E+00  0.00000000E+00
  0.00000000E+00  0.00000000E+00  0.00000000E+00
