CONTCAR                                 
   1.00000000000000     
    14.1683998108000004    0.0000000000000000    0.0000000000000000
     0.0000000000000000   20.5298995972000000    0.0000000000000000
     0.0000000000000000    0.0000000000000000   19.1021003723000007
   Nb   Te   O    H 
    32    48     2     1
Direct
  0.0623930899243314  0.1366321129452556  0.5476193930766078
  0.1872804426685847  0.0766045451630514  0.4497462381618101
  0.0621985961051987  0.2948046046621333  0.4994990172706044
  0.1881915392248294  0.4182201437493944  0.5030045914074757
  0.3119181364919483  0.1366012143477024  0.5477599428965487
  0.4372308490846834  0.0765525726588586  0.4501857862452641
  0.3122175824631764  0.2941775388517364  0.4994292376087293
  0.4380552441741115  0.4166642204520165  0.5031861369524546
  0.5625341864143714  0.1364644785753860  0.5479139264839459
  0.6878889996666373  0.0763810244185642  0.4502894809032708
  0.5626736520646723  0.2936290897450630  0.4995997913308045
  0.6872624415482480  0.4167612574538238  0.5032558882370071
  0.8129746784783312  0.1365069578899500  0.5478432050625944
  0.9378984012416416  0.0765279586693134  0.4497797738040901
  0.8130295150738670  0.2942376267903325  0.4994272380425469
  0.9369421989058744  0.4181971691602834  0.5028236613588717
  0.0625359231646129  0.6361843150590231  0.5512167523455438
  0.1865945235037422  0.5760053947788635  0.4543695478423090
  0.0624285493711410  0.7946848772183298  0.4977379431958038
  0.1871433965450238  0.9188939585997332  0.4991058164764740
  0.3181147826052065  0.6361089049341339  0.5540175910081805
  0.4356811947426483  0.5760021136934830  0.4579215737855733
  0.3133421479120338  0.7955322924187606  0.4982517815807241
  0.4371767582142881  0.9195346368612446  0.5002593537106927
  0.5627659036263278  0.6365954419565156  0.5690648865396435
  0.6891920492136016  0.5760572745003953  0.4583398321435549
  0.5625238619949252  0.7954743082369745  0.5016301931833870
  0.6875432393196248  0.9195461967901379  0.5001907519412691
  0.8069815842877380  0.6361532748889894  0.5544611357556151
  0.9388187051155368  0.5760309569252047  0.4545175411963312
  0.8117362849500248  0.7955317869565287  0.4982664907401906
  0.9381759345060068  0.9188269275466363  0.4991047323405805
  0.1873523416054899  0.3299386991683497  0.3937051652364875
  0.0625742449626196  0.1754600848960784  0.4088078172320135
  0.1871426426165929  0.2319917743680673  0.6000065533674130
  0.0625979408651460  0.4807233011982269  0.4020533146649540
  0.0625143867899288  0.3840774845099127  0.6086399900081884
  0.1871752588294640  0.0382368319831546  0.5888149588330546
  0.4378147718252866  0.3286076920351718  0.3935097527348808
  0.3122424368367728  0.1752213936361944  0.4087302878941379
  0.4373520577535501  0.2313080338086630  0.6003042912038665
  0.3136058028983640  0.4811219661146169  0.4027504396868311
  0.3117930030859515  0.3821260514622693  0.6092219006390464
  0.4371661359466013  0.0386262389931015  0.5894695487521934
  0.6874081643453739  0.3288088398473110  0.3936075548877950
  0.5627350915052498  0.1746933080088487  0.4087986076752954
  0.6877560859433501  0.2313773302534468  0.6002841125505042
  0.5625238136582659  0.4809716072014840  0.4058989786237202
  0.5626778696342767  0.3815148770163318  0.6094665298662144
  0.6877420633373609  0.0385650841023838  0.5896424666363801
  0.9374691527874622  0.3299756325981401  0.3933508456293089
  0.8126429527579198  0.1750484095119184  0.4088379751006649
  0.9376781677672628  0.2320682977392531  0.6002014644037444
  0.8115296998068782  0.4813111384587520  0.4029060086281293
  0.8137167219322250  0.3822816517246082  0.6091654124993727
  0.9377508055627588  0.0380984872812032  0.5888458142100956
  0.1876697654476349  0.8288101580978269  0.3914223389227857
  0.0626529531606485  0.6739588998647010  0.4116176053648210
  0.1877401360665939  0.7334538948297853  0.5992116160718298
  0.0626098172669202  0.9806861492621728  0.3979356363393727
  0.0626099187085431  0.8845578972996910  0.6056987529622661
  0.1882839158935985  0.5383492502285224  0.5936691481790108
  0.4392147544735364  0.8287186855837785  0.3928091555068123
  0.3129882967389201  0.6736878274531232  0.4142605731911529
  0.4332966736893466  0.7390718224830627  0.6021761807609469
  0.3126713310491657  0.9807068094879599  0.3982839359523676
  0.3113724250371146  0.8858604631051631  0.6061370363076981
  0.4348521170818875  0.5323156134695376  0.5933003261715724
  0.6859471963982965  0.8287236383698700  0.3928314972720969
  0.5626455237618888  0.6736761959172901  0.4215730487853540
  0.6917938141158505  0.7391950110835869  0.6023646950688432
  0.5624186275460819  0.9807236098698290  0.3990193397777624
  0.5624071407425664  0.8869862107025375  0.6076122480775438
  0.6903759695767320  0.5322931263323684  0.5938871204842310
  0.9373564279219491  0.8287910173035957  0.3913388085513859
  0.8121756196679067  0.6736067855162836  0.4147598133413577
  0.9373750986810429  0.7336601770179588  0.5993747171160271
  0.8125625868024168  0.9806541298050255  0.3983834236207068
  0.8135250874629214  0.8860478499221013  0.6059066634692640
  0.9372262283879657  0.5383456464239890  0.5937351337810105
  0.5607370990206461  0.6416123342943429  0.6733254986934900
  0.5614752440300856  0.5938435768914945  0.7289732727970257
  0.5665112466126749  0.5522437405690421  0.7030037748404032
 
  0.00000000E+00  0.00000000E+00  0.00000000E+00
  0.00000000E+00  0.00000000E+00  0.00000000E+00
  0.00000000E+00  0.00000000E+00  0.00000000E+00
  0.00000000E+00  0.00000000E+00  0.00000000E+00
  0.00000000E+00  0.00000000E+00  0.00000000E+00
  0.00000000E+00  0.00000000E+00  0.00000000E+00
  0.00000000E+00  0.00000000E+00  0.00000000E+00
  0.00000000E+00  0.00000000E+00  0.00000000E+00
  0.00000000E+00  0.00000000E+00  0.00000000E+00
  0.00000000E+00  0.00000000E+00  0.00000000E+00
  0.00000000E+00  0.00000000E+00  0.00000000E+00
  0.00000000E+00  0.00000000E+00  0.00000000E+00
  0.00000000E+00  0.00000000E+00  0.00000000E+00
  0.00000000E+00  0.00000000E+00  0.00000000E+00
  0.00000000E+00  0.00000000E+00  0.00000000E+00
  0.00000000E+00  0.00000000E+00  0.00000000E+00
  0.00000000E+00  0.00000000E+00  0.00000000E+00
  0.00000000E+00  0.00000000E+00  0.00000000E+00
  0.00000000E+00  0.00000000E+00  0.00000000E+00
  0.00000000E+00  0.00000000E+00  0.00000000E+00
  0.00000000E+00  0.00000000E+00  0.00000000E+00
  0.00000000E+00  0.00000000E+00  0.00000000E+00
  0.00000000E+00  0.00000000E+00  0.00000000E+00
  0.00000000E+00  0.00000000E+00  0.00000000E+00
  0.00000000E+00  0.00000000E+00  0.00000000E+00
  0.00000000E+00  0.00000000E+00  0.00000000E+00
  0.00000000E+00  0.00000000E+00  0.00000000E+00
  0.00000000E+00  0.00000000E+00  0.00000000E+00
  0.00000000E+00  0.00000000E+00  0.00000000E+00
  0.00000000E+00  0.00000000E+00  0.00000000E+00
  0.00000000E+00  0.00000000E+00  0.00000000E+00
  0.00000000E+00  0.00000000E+00  0.00000000E+00
  0.00000000E+00  0.00000000E+00  0.00000000E+00
  0.00000000E+00  0.00000000E+00  0.00000000E+00
  0.00000000E+00  0.00000000E+00  0.00000000E+00
  0.00000000E+00  0.00000000E+00  0.00000000E+00
  0.00000000E+00  0.00000000E+00  0.00000000E+00
  0.00000000E+00  0.00000000E+00  0.00000000E+00
  0.00000000E+00  0.00000000E+00  0.00000000E+00
  0.00000000E+00  0.00000000E+00  0.00000000E+00
  0.00000000E+00  0.00000000E+00  0.00000000E+00
  0.00000000E+00  0.00000000E+00  0.00000000E+00
  0.00000000E+00  0.00000000E+00  0.00000000E+00
  0.00000000E+00  0.00000000E+00  0.00000000E+00
  0.00000000E+00  0.00000000E+00  0.00000000E+00
  0.00000000E+00  0.00000000E+00  0.00000000E+00
  0.00000000E+00  0.00000000E+00  0.00000000E+00
  0.00000000E+00  0.00000000E+00  0.00000000E+00
  0.00000000E+00  0.00000000E+00  0.00000000E+00
  0.00000000E+00  0.00000000E+00  0.00000000E+00
  0.00000000E+00  0.00000000E+00  0.00000000E+00
  0.00000000E+00  0.00000000E+00  0.00000000E+00
  0.00000000E+00  0.00000000E+00  0.00000000E+00
  0.00000000E+00  0.00000000E+00  0.00000000E+00
  0.00000000E+00  0.00000000E+00  0.00000000E+00
  0.00000000E+00  0.00000000E+00  0.00000000E+00
  0.00000000E+00  0.00000000E+00  0.00000000E+00
  0.00000000E+00  0.00000000E+00  0.00000000E+00
  0.00000000E+00  0.00000000E+00  0.00000000E+00
  0.00000000E+00  0.00000000E+00  0.00000000E+00
  0.00000000E+00  0.00000000E+00  0.00000000E+00
  0.00000000E+00  0.00000000E+00  0.00000000E+00
  0.00000000E+00  0.00000000E+00  0.00000000E+00
  0.00000000E+00  0.00000000E+00  0.00000000E+00
  0.00000000E+00  0.00000000E+00  0.00000000E+00
  0.00000000E+00  0.00000000E+00  0.00000000E+00
  0.00000000E+00  0.00000000E+00  0.00000000E+00
  0.00000000E+00  0.00000000E+00  0.00000000E+00
  0.00000000E+00  0.00000000E+00  0.00000000E+00
  0.00000000E+00  0.00000000E+00  0.00000000E+00
  0.00000000E+00  0.00000000E+00  0.00000000E+00
  0.00000000E+00  0.00000000E+00  0.00000000E+00
  0.00000000E+00  0.00000000E+00  0.00000000E+00
  0.00000000E+00  0.00000000E+00  0.00000000E+00
  0.00000000E+00  0.00000000E+00  0.00000000E+00
  0.00000000E+00  0.00000000E+00  0.00000000E+00
  0.00000000E+00  0.00000000E+00  0.00000000E+00
  0.00000000E+00  0.00000000E+00  0.00000000E+00
  0.00000000E+00  0.00000000E+00  0.00000000E+00
  0.00000000E+00  0.00000000E+00  0.00000000E+00
  0.00000000E+00  0.00000000E+00  0.00000000E+00
  0.00000000E+00  0.00000000E+00  0.00000000E+00
  0.00000000E+00  0.00000000E+00  0.00000000E+00
