CONTCAR\(12)                            
   1.00000000000000     
    12.2558002471999998    0.0000000000000000    0.0000000000000000
     6.1279165570999998   10.6146331497999995    0.0000000000000000
     0.0000000000000000    0.0000000000000000   18.0618000031000001
   Ni   P    Se   O 
     8     8    24     1
Direct
  0.1571419596107614  0.1740060851400488  0.5021493607415916
  0.3300439749461768  0.3466252381369008  0.5017398855476712
  0.6723268621222761  0.1663748755564065  0.5026140162962296
  0.8339132344850263  0.3355387284374630  0.4972665410215656
  0.1688776198142540  0.6701237087064226  0.4968431102355567
  0.3374533748866522  0.8325206844184122  0.5027683275746525
  0.6710729130085850  0.6649552669181606  0.4999260788135588
  0.8391110905145839  0.8327716944535475  0.4996902763890865
  0.0017798604822746  0.0013841409812915  0.4380839571502302
  0.5127032013753791  0.9918800491417482  0.5783427799201999
  0.5038107305803315  0.0006285548245249  0.4546744941957001
  0.0032674319897794  0.0019559259205437  0.5619744735328571
  0.0007770181139443  0.5029016293067430  0.4381110324840088
  0.5015562942168599  0.5004632572891509  0.5619192540820119
  0.5023972881654546  0.5023119576144032  0.4380385217924446
  0.0019011429041789  0.5020252758121995  0.5620097301360472
  0.3241325551856266  0.0057557426184679  0.4238744135023522
  0.1820022655745261 -0.0009436813871307  0.5881430080054065
  0.1777889479713182  0.3260784809898838  0.4122400994437791
  0.0001061643766681  0.1795639555448408  0.4108602747239772
  0.3003924627833522  0.2037797423723146  0.5772747818923837
  0.5046948405116548  0.3214896079093860  0.5875834335921848
  0.8228830966823927  0.0016594523297000  0.4138159106347293
  0.6955496827075464  0.9917098046773731  0.5906791153879158
  0.6817280835851405  0.3247465824124791  0.4127763119343237
  0.4990978251913570  0.1795794801708138  0.4229722114381246
  0.8256973913945292  0.1834094457980608  0.5859565494840540
 -0.0083369695330469  0.3248981088825177  0.5834165665571213
  0.3241369802902738  0.5042619566108635  0.4105499171908084
  0.1791106384343514  0.5126480807727877  0.5830679512785902
  0.1795895024052117  0.8224308715403061  0.4128065044151698
  0.0024007284930927  0.6800662912341828  0.4116388145800832
  0.3207826849215776  0.6784569473716489  0.5860322985455485
  0.5123825396398001  0.8092565673307425  0.5907782015431943
  0.8233850405598305  0.5012560416670424  0.4120875717170598
  0.6822450606129189  0.4963577581462376  0.5861232003855890
  0.6776423867958659  0.8265777383263015  0.4163820774987811
  0.5021759551499188  0.6814843613569095  0.4140662882033022
  0.8249014620129154  0.6789155802399873  0.5871186230875809
  0.0073285564733167  0.8209396173878235  0.5854294145837055
  0.2534273375633179  0.2519151620384490  0.6640040734608150
 
  0.00000000E+00  0.00000000E+00  0.00000000E+00
  0.00000000E+00  0.00000000E+00  0.00000000E+00
  0.00000000E+00  0.00000000E+00  0.00000000E+00
  0.00000000E+00  0.00000000E+00  0.00000000E+00
  0.00000000E+00  0.00000000E+00  0.00000000E+00
  0.00000000E+00  0.00000000E+00  0.00000000E+00
  0.00000000E+00  0.00000000E+00  0.00000000E+00
  0.00000000E+00  0.00000000E+00  0.00000000E+00
  0.00000000E+00  0.00000000E+00  0.00000000E+00
  0.00000000E+00  0.00000000E+00  0.00000000E+00
  0.00000000E+00  0.00000000E+00  0.00000000E+00
  0.00000000E+00  0.00000000E+00  0.00000000E+00
  0.00000000E+00  0.00000000E+00  0.00000000E+00
  0.00000000E+00  0.00000000E+00  0.00000000E+00
  0.00000000E+00  0.00000000E+00  0.00000000E+00
  0.00000000E+00  0.00000000E+00  0.00000000E+00
  0.00000000E+00  0.00000000E+00  0.00000000E+00
  0.00000000E+00  0.00000000E+00  0.00000000E+00
  0.00000000E+00  0.00000000E+00  0.00000000E+00
  0.00000000E+00  0.00000000E+00  0.00000000E+00
  0.00000000E+00  0.00000000E+00  0.00000000E+00
  0.00000000E+00  0.00000000E+00  0.00000000E+00
  0.00000000E+00  0.00000000E+00  0.00000000E+00
  0.00000000E+00  0.00000000E+00  0.00000000E+00
  0.00000000E+00  0.00000000E+00  0.00000000E+00
  0.00000000E+00  0.00000000E+00  0.00000000E+00
  0.00000000E+00  0.00000000E+00  0.00000000E+00
  0.00000000E+00  0.00000000E+00  0.00000000E+00
  0.00000000E+00  0.00000000E+00  0.00000000E+00
  0.00000000E+00  0.00000000E+00  0.00000000E+00
  0.00000000E+00  0.00000000E+00  0.00000000E+00
  0.00000000E+00  0.00000000E+00  0.00000000E+00
  0.00000000E+00  0.00000000E+00  0.00000000E+00
  0.00000000E+00  0.00000000E+00  0.00000000E+00
  0.00000000E+00  0.00000000E+00  0.00000000E+00
  0.00000000E+00  0.00000000E+00  0.00000000E+00
  0.00000000E+00  0.00000000E+00  0.00000000E+00
  0.00000000E+00  0.00000000E+00  0.00000000E+00
  0.00000000E+00  0.00000000E+00  0.00000000E+00
  0.00000000E+00  0.00000000E+00  0.00000000E+00
  0.00000000E+00  0.00000000E+00  0.00000000E+00
