 Sc2 N1 Cl2                             
   1.00000000000000     
     3.3380401545736458    0.0000000000000000    0.0000000000000000
    -1.6690200772868229    2.8908272420068655    0.0000000000000000
     0.0000000000000000    0.0000000000000000   20.7464829159600015
   Sc   N    Cl
     2     1     2
Direct
  0.6666654336761582  0.3333323559501551  0.4427855660340896
  0.3333341389952551  0.6666678091712512  0.5572144401313111
  0.9999998585886516  0.9999999163012347  0.5000000144807046
  0.6666671945778759  0.3333332961156898  0.6386998146905398
  0.3333333741620521  0.6666666224616691  0.3613001646633549
 
  0.00000000E+00  0.00000000E+00  0.00000000E+00
  0.00000000E+00  0.00000000E+00  0.00000000E+00
  0.00000000E+00  0.00000000E+00  0.00000000E+00
  0.00000000E+00  0.00000000E+00  0.00000000E+00
  0.00000000E+00  0.00000000E+00  0.00000000E+00
