 CONTCAR\(6)                            
   1.00000000000000     
     2.8782959706029372    0.0000000000000000    0.0000000000000000
     0.0000000000000000    2.9898238024595560    0.0000000000000000
     0.0000000000000000    0.0000000000000000   22.5162556259999995
   V    B    O 
     3     4     2
Direct
  0.5000000006776825  0.4999999982442667  0.6182202626446186
 -0.0000000002967346  0.5000000003115861  0.5000043259337534
  0.5000000008318496  0.5000000009196320  0.3817946271959700
 -0.0000000008897556 -0.0000000011020414  0.5758736072070267
  0.5000000002837673  0.0000000006668466  0.5395893608187211
 -0.0000000000988364 -0.0000000002850606  0.4241355673608235
  0.4999999994915250  0.0000000004854405  0.4604198494592965
  0.0000000003841665  0.4999999997153812  0.6683376242291806
 -0.0000000003836643  0.5000000010439490  0.3316679065227259
 
  0.00000000E+00  0.00000000E+00  0.00000000E+00
  0.00000000E+00  0.00000000E+00  0.00000000E+00
  0.00000000E+00  0.00000000E+00  0.00000000E+00
  0.00000000E+00  0.00000000E+00  0.00000000E+00
  0.00000000E+00  0.00000000E+00  0.00000000E+00
  0.00000000E+00  0.00000000E+00  0.00000000E+00
  0.00000000E+00  0.00000000E+00  0.00000000E+00
  0.00000000E+00  0.00000000E+00  0.00000000E+00
  0.00000000E+00  0.00000000E+00  0.00000000E+00
