CONTCAR\(5)                             
   1.00000000000000     
    11.7456998825000003    0.0000000000000000    0.0000000000000000
     0.0000000000000000   17.6870002747000008    0.0000000000000000
     0.0000000000000000    0.0000000000000000   19.5771007537999999
   Ti   Ge   Te   O    H 
     6     6    36     2     1
Direct
  0.0868431782869788  0.4752116707599136  0.5142823059875224
  0.2534970541507873  0.9506714204445971  0.4829523393817081
  0.4222720251572600  0.4745805732007133  0.5130271054536940
  0.5869989271751439  0.9505701583589672  0.4823172000187562
  0.7520013292669567  0.4741413902832044  0.5133875854589742
  0.9199742822393160  0.9507713225032013  0.4824243237635386
  0.2535331866252187  0.7996990419962230  0.4760158326527689
  0.0864407530524643  0.6263660633767929  0.5213739095027028
  0.5869103085761401  0.7995414079965381  0.4760172850369974
  0.4202676709683150  0.6259524334024666  0.5214833224885819
  0.9196971966064611  0.7997500575067872  0.4757817460158618
  0.7530303178522699  0.6256749941752632  0.5210318411458577
  0.0873027843234328  0.9205147477710576  0.3763527978571591
  0.2526658179453208  0.2533986713103988  0.5791338587359852
  0.2525943860351337  0.0592741610858043  0.3758163357603063
  0.0868356450213021  0.8965080613078921  0.5798165338771308
  0.2544266048347979  0.5053351790297236  0.6200019476647605
  0.0879324313670874  0.3668240066055805  0.6215144606893638
  0.0860850681014034  0.1721619731835339  0.4181826788515095
  0.2522432201260013  0.7058773626726186  0.5887324464043513
  0.0869214221674027  0.7206473259879402  0.4086574939641279
  0.2535006961919348  0.3757990802572890  0.4595701761431899
  0.0864806871834225  0.0503526531638300  0.5365424810640163
  0.2535357899191417  0.5286544612631132  0.4163185861599232
  0.4197246367934660  0.9200554688932899  0.3763645831444746
  0.5881533851135498  0.2534698938446767  0.5776369194660930
  0.5858547030577579  0.0590464370121968  0.3747556035346117
  0.4205273096655772  0.8974124510726520  0.5803671992944197
  0.5866709839455975  0.5051338384413790  0.6198492170617329
  0.4194019075876195  0.3665074697324075  0.6206271434861228
  0.4209733645183319  0.1727518405984386  0.4175774895911593
  0.5868726433969770  0.7050878288899913  0.5885319310222247
  0.4203616483146600  0.7198038248637418  0.4090844247069622
  0.5880785441236744  0.3730009815508878  0.4567696585416799
  0.4204930674527220  0.0506314774818488  0.5358863275608778
  0.5864192053874233  0.5353489369122183  0.4199846536738223
  0.7535831958810056  0.9201546639755547  0.3759698964433943
  0.9206283254832096  0.2542165504192643  0.5794507863291036
  0.9195282725718394  0.0594652054609213  0.3751542173124366
  0.7538058589242234  0.8976320044913806  0.5801350136126310
  0.9202192028336326  0.5057131178885366  0.6205262168341654
  0.7564414867551038  0.3681648075079537  0.6219428822200501
  0.7519311519126143  0.1723762546662542  0.4166262954997785
  0.9206166340939540  0.7060182432755721  0.5885391061663156
  0.7533644648932069  0.7198915235771257  0.4088629835683565
  0.9207984192717665  0.3748206319993638  0.4609948303460502
  0.7530224371363491  0.0506096422615126  0.5356931673798018
  0.9194880682333406  0.5284287703004992  0.4167245191897613
  0.6227591226556751  0.2087106636075175  0.6781170784928109
  0.5871574411036234  0.1303488973322467  0.6825714485009780
  0.5107240697193868  0.1351202252991045  0.7024621319414220
 
  0.00000000E+00  0.00000000E+00  0.00000000E+00
  0.00000000E+00  0.00000000E+00  0.00000000E+00
  0.00000000E+00  0.00000000E+00  0.00000000E+00
  0.00000000E+00  0.00000000E+00  0.00000000E+00
  0.00000000E+00  0.00000000E+00  0.00000000E+00
  0.00000000E+00  0.00000000E+00  0.00000000E+00
  0.00000000E+00  0.00000000E+00  0.00000000E+00
  0.00000000E+00  0.00000000E+00  0.00000000E+00
  0.00000000E+00  0.00000000E+00  0.00000000E+00
  0.00000000E+00  0.00000000E+00  0.00000000E+00
  0.00000000E+00  0.00000000E+00  0.00000000E+00
  0.00000000E+00  0.00000000E+00  0.00000000E+00
  0.00000000E+00  0.00000000E+00  0.00000000E+00
  0.00000000E+00  0.00000000E+00  0.00000000E+00
  0.00000000E+00  0.00000000E+00  0.00000000E+00
  0.00000000E+00  0.00000000E+00  0.00000000E+00
  0.00000000E+00  0.00000000E+00  0.00000000E+00
  0.00000000E+00  0.00000000E+00  0.00000000E+00
  0.00000000E+00  0.00000000E+00  0.00000000E+00
  0.00000000E+00  0.00000000E+00  0.00000000E+00
  0.00000000E+00  0.00000000E+00  0.00000000E+00
  0.00000000E+00  0.00000000E+00  0.00000000E+00
  0.00000000E+00  0.00000000E+00  0.00000000E+00
  0.00000000E+00  0.00000000E+00  0.00000000E+00
  0.00000000E+00  0.00000000E+00  0.00000000E+00
  0.00000000E+00  0.00000000E+00  0.00000000E+00
  0.00000000E+00  0.00000000E+00  0.00000000E+00
  0.00000000E+00  0.00000000E+00  0.00000000E+00
  0.00000000E+00  0.00000000E+00  0.00000000E+00
  0.00000000E+00  0.00000000E+00  0.00000000E+00
  0.00000000E+00  0.00000000E+00  0.00000000E+00
  0.00000000E+00  0.00000000E+00  0.00000000E+00
  0.00000000E+00  0.00000000E+00  0.00000000E+00
  0.00000000E+00  0.00000000E+00  0.00000000E+00
  0.00000000E+00  0.00000000E+00  0.00000000E+00
  0.00000000E+00  0.00000000E+00  0.00000000E+00
  0.00000000E+00  0.00000000E+00  0.00000000E+00
  0.00000000E+00  0.00000000E+00  0.00000000E+00
  0.00000000E+00  0.00000000E+00  0.00000000E+00
  0.00000000E+00  0.00000000E+00  0.00000000E+00
  0.00000000E+00  0.00000000E+00  0.00000000E+00
  0.00000000E+00  0.00000000E+00  0.00000000E+00
  0.00000000E+00  0.00000000E+00  0.00000000E+00
  0.00000000E+00  0.00000000E+00  0.00000000E+00
  0.00000000E+00  0.00000000E+00  0.00000000E+00
  0.00000000E+00  0.00000000E+00  0.00000000E+00
  0.00000000E+00  0.00000000E+00  0.00000000E+00
  0.00000000E+00  0.00000000E+00  0.00000000E+00
  0.00000000E+00  0.00000000E+00  0.00000000E+00
  0.00000000E+00  0.00000000E+00  0.00000000E+00
  0.00000000E+00  0.00000000E+00  0.00000000E+00
