 W2 S4                                  
   1.00000000000000     
     3.1751844872156361    0.0000000000000000    0.0000000000000000
    -1.5875922436575745    2.7497949779655460    0.0000000000000000
     0.0000000000000000    0.0000000000000000   18.1460877684980275
   W    S 
     1     2
Direct
  0.3333334347253818  0.6666667459521936  0.5000000010682996
  0.6666666895785991  0.3333333351886693  0.4132713880526039
  0.6666666286960132  0.3333332738591376  0.5867286140097762
 
  0.00000000E+00  0.00000000E+00  0.00000000E+00
  0.00000000E+00  0.00000000E+00  0.00000000E+00
  0.00000000E+00  0.00000000E+00  0.00000000E+00
