 Mn1 In2 Se4                            
   1.00000000000000     
     4.1012161098301183    0.0000000000000000    0.0000000000000000
     2.0506080549150592    3.5517632902294580    0.0000000000000000
     0.0000000000000000    0.0000000000000000   24.8090587107800005
   Mn   In   Se
     1     2     4
Direct
  0.6666676247717120  0.6666673446536748  0.3276842952830066
  0.9999998371458574  0.9999997391974276  0.4858609989896578
  0.3333325083737364  0.3333327186322990  0.6538421354531536
  0.0000009054864094  0.0000010569420823  0.2996155000819982
  0.9999994124788003  0.9999994416524203  0.7023792714017674
  0.6666664937840565  0.6666665473764652  0.4303685079901314
  0.3333332179594279  0.3333331515456379  0.5502610489178466
 
  0.00000000E+00  0.00000000E+00  0.00000000E+00
  0.00000000E+00  0.00000000E+00  0.00000000E+00
  0.00000000E+00  0.00000000E+00  0.00000000E+00
  0.00000000E+00  0.00000000E+00  0.00000000E+00
  0.00000000E+00  0.00000000E+00  0.00000000E+00
  0.00000000E+00  0.00000000E+00  0.00000000E+00
  0.00000000E+00  0.00000000E+00  0.00000000E+00
