CONTCAR                                 
   1.00000000000000     
    11.9372997283999993    0.0000000000000000    0.0000000000000000
    -5.9686498641999997   10.3380048173999999    0.0000000000000000
     0.0000000000000000    0.0000000000000000   21.4568004608000003
   In   Se   O    H 
    18    27     2     1
Direct
  0.2267256367147910  0.1132603355974058  0.4125720841347010
  0.1122747012850350  0.2281827399831805  0.5914629148900070
  0.5604498129864866  0.1242094465099118  0.4048340018878941
  0.4488458697703582  0.2262190298604656  0.5889393670643678
  0.9014706358451052  0.1246717783293526  0.4053986442020292
  0.7797360104436761  0.2215456350296321  0.5898549166715021
  0.2267092482004710  0.4544209233992940  0.4042803995936355
  0.1150627227544736  0.5626244116556693  0.5911021244229806
  0.5558507570893895  0.4475730908162974  0.4105252368315095
  0.4398096359212437  0.5434469326271769  0.5808697770245196
  0.8912680776553890  0.4505378802226779  0.4084646288052549
  0.7833881214618037  0.5626675762089899  0.5918432833562798
  0.2159720051531883  0.7748159313317952  0.4154506583507219
  0.1194314794875549  0.9010521304536266  0.5930839049901484
  0.5505759560762886  0.7788256879630309  0.4180834725943127
  0.4376183288188146  0.9077062857339335  0.5940684871665678
  0.8853771143640700  0.7764133139727382  0.4146781112921130
  0.8087555015484454  0.9070945859609720  0.5931599214028794
  0.9958897798942905  0.9712729396458553  0.5040066686988371
  0.2272937836748909  0.1204486455048177  0.6554230549475958
  0.1231309312610013  0.2297325991265134  0.3456872236267298
  0.3162885081359382  0.9723838426343617  0.5042458605570691
  0.5600625049738334  0.1198780284252224  0.6587438122395950
  0.4448714181960396  0.2293009260137763  0.3445877174661096
  0.6387872568288879  0.9391825065158623  0.5186291313689491
  0.8918424033929692  0.1167430111284958  0.6597121587166417
  0.7843889465294211  0.2300537451199232  0.3443427514541300
  0.9807460474872948  0.2877329485764019  0.5011291353580078
  0.2252958084194063  0.4495216825956769  0.6526739157569441
  0.1122192380152187  0.5617458943838828  0.3434249157520202
  0.3312925046650624  0.3105938007713149  0.5008726610385513
  0.5575645759772982  0.4472661207633331  0.6530181094091699
  0.4548794843621223  0.5681753999177772  0.3471007121366643
  0.6533878898037406  0.2895830750258490  0.5000903196413093
  0.8888312435215033  0.4429531608523994  0.6522970912025244
  0.7789193162180892  0.5590511320401236  0.3463227428035496
  0.9908290475771803  0.6302356235165046  0.5007253648346353
  0.2201384466561258  0.7784717585859354  0.6573676168224047
  0.1093704837098751  0.8899300466657573  0.3511726260127511
  0.3140144470052684  0.6298523728810587  0.4975086846090687
  0.5547266304655388  0.7743171576810349  0.6442050981973421
  0.4454505156533556  0.8940313046828514  0.3546250984926316
  0.6657875444232454  0.6329512501269698  0.5003000001551878
  0.8957606430632584  0.7784763273278633  0.6577415562200213
  0.7759216388922604  0.8946994620468516  0.3556512069425863
  0.6157056338316542  0.6957684652294427  0.7545038885929854
  0.5073518816328956  0.6967396710708209  0.7252665582820297
  0.6020500911557214  0.6103096894871267  0.7411524499824967
 
  0.00000000E+00  0.00000000E+00  0.00000000E+00
  0.00000000E+00  0.00000000E+00  0.00000000E+00
  0.00000000E+00  0.00000000E+00  0.00000000E+00
  0.00000000E+00  0.00000000E+00  0.00000000E+00
  0.00000000E+00  0.00000000E+00  0.00000000E+00
  0.00000000E+00  0.00000000E+00  0.00000000E+00
  0.00000000E+00  0.00000000E+00  0.00000000E+00
  0.00000000E+00  0.00000000E+00  0.00000000E+00
  0.00000000E+00  0.00000000E+00  0.00000000E+00
  0.00000000E+00  0.00000000E+00  0.00000000E+00
  0.00000000E+00  0.00000000E+00  0.00000000E+00
  0.00000000E+00  0.00000000E+00  0.00000000E+00
  0.00000000E+00  0.00000000E+00  0.00000000E+00
  0.00000000E+00  0.00000000E+00  0.00000000E+00
  0.00000000E+00  0.00000000E+00  0.00000000E+00
  0.00000000E+00  0.00000000E+00  0.00000000E+00
  0.00000000E+00  0.00000000E+00  0.00000000E+00
  0.00000000E+00  0.00000000E+00  0.00000000E+00
  0.00000000E+00  0.00000000E+00  0.00000000E+00
  0.00000000E+00  0.00000000E+00  0.00000000E+00
  0.00000000E+00  0.00000000E+00  0.00000000E+00
  0.00000000E+00  0.00000000E+00  0.00000000E+00
  0.00000000E+00  0.00000000E+00  0.00000000E+00
  0.00000000E+00  0.00000000E+00  0.00000000E+00
  0.00000000E+00  0.00000000E+00  0.00000000E+00
  0.00000000E+00  0.00000000E+00  0.00000000E+00
  0.00000000E+00  0.00000000E+00  0.00000000E+00
  0.00000000E+00  0.00000000E+00  0.00000000E+00
  0.00000000E+00  0.00000000E+00  0.00000000E+00
  0.00000000E+00  0.00000000E+00  0.00000000E+00
  0.00000000E+00  0.00000000E+00  0.00000000E+00
  0.00000000E+00  0.00000000E+00  0.00000000E+00
  0.00000000E+00  0.00000000E+00  0.00000000E+00
  0.00000000E+00  0.00000000E+00  0.00000000E+00
  0.00000000E+00  0.00000000E+00  0.00000000E+00
  0.00000000E+00  0.00000000E+00  0.00000000E+00
  0.00000000E+00  0.00000000E+00  0.00000000E+00
  0.00000000E+00  0.00000000E+00  0.00000000E+00
  0.00000000E+00  0.00000000E+00  0.00000000E+00
  0.00000000E+00  0.00000000E+00  0.00000000E+00
  0.00000000E+00  0.00000000E+00  0.00000000E+00
  0.00000000E+00  0.00000000E+00  0.00000000E+00
  0.00000000E+00  0.00000000E+00  0.00000000E+00
  0.00000000E+00  0.00000000E+00  0.00000000E+00
  0.00000000E+00  0.00000000E+00  0.00000000E+00
  0.00000000E+00  0.00000000E+00  0.00000000E+00
  0.00000000E+00  0.00000000E+00  0.00000000E+00
  0.00000000E+00  0.00000000E+00  0.00000000E+00
