CONTCAR                                 
   1.00000000000000     
    12.4780998230000009    0.0000000000000000    0.0000000000000000
     0.0000000000000000   15.4434003830000002    0.0000000000000000
     0.0000000000000000    0.0000000000000000   19.6900997161999989
   Nb   Co   Te   O    H 
    16    16    32     2     1
Direct
  0.2355903031325341  0.1253722256495075  0.4973600733717290
  0.2544547671891423  0.3242488349290841  0.5076675122934592
  0.4853868933612226  0.0736356368016394  0.5098843875225927
  0.0042025040043371  0.3750373312578356  0.4955039242800429
  0.7358328825014167  0.1247432919086143  0.4978952233513300
  0.7522937520338993  0.3249840611722885  0.5082418907818808
  0.9856247449340105  0.0736849907286923  0.5099337644958072
  0.5044670463515120  0.3752849131658628  0.4952717050409924
  0.2358493585627712  0.6245176106282522  0.4947956038188748
  0.2524437092832315  0.8240237843101832  0.5094208113232911
  0.4875019695884162  0.5736140415183018  0.4991698329069604
  0.0026473906411267  0.8750167247990280  0.4969458470280991
  0.7360808326105518  0.6232719511449093  0.4980652950610522
  0.7514082609581731  0.8231994002434934  0.5093278218884542
  0.9871712795673376  0.5746091221194217  0.5073940823167787
  0.5025542980580135  0.8732963607645691  0.4982186206204020
  0.4223121982540610  0.2276408715255612  0.4617492283639961
  0.1728459206284951  0.4712698780687855  0.5419457604070417
  0.3166830896534094  0.4772033870607874  0.4582353108987281
  0.0678460015344101  0.2218086040574325  0.5438248148075001
  0.9227202293641842  0.2272475123256079  0.4614572789017418
  0.6726905850593822  0.4759283050917784  0.5461197049642122
  0.8183212749341938  0.4756949689274439  0.4618608733734171
  0.5674139542710677  0.2213038560530136  0.5440871158188907
  0.4207545758376782  0.7271239905759043  0.4608085359343419
  0.1715916648964429  0.9715336806305126  0.5447750289491220
  0.3173442733817292  0.9777530505725187  0.4626791326231309
  0.0699448299880957  0.7223765537252964  0.5437138988118789
  0.9230638576694583  0.7268728326113436  0.4614067178285279
  0.6705696607921909  0.9710281936368498  0.5451083671669333
  0.8163341334298005  0.9769892829538245  0.4625718628213536
  0.5665663978182645  0.7163517559791613  0.5460406994422211
  0.1215013867416710  0.4918080155514433  0.4129334330013992
  0.3685724130412014  0.3523283289009752  0.3824561057521915
  0.1196883652427758  0.3461023466391284  0.6204974915223126
  0.3722918952630187  0.2079849084975044  0.5905979242411776
  0.3713699986634311  0.1032654827354463  0.3848078667106074
  0.1212849632585405  0.0958709781423026  0.6222115131658071
  0.1175849539766440  0.2414439869282762  0.4148121316079928
  0.3695024387112347  0.4615763377979268  0.5864305055921387
  0.6269264273857817  0.4861727302950700  0.4123768126713834
  0.8681889486081055  0.3522321199657458  0.3833470731244405
  0.6168623462477314  0.3464455837367241  0.6207475702173383
  0.8723939715691745  0.2088020691083685  0.5900335569944105
  0.8712534119929527  0.1028103607461270  0.3849511129526160
  0.6212067074321921  0.0955035535663552  0.6225579968199373
  0.6176308274486008  0.2390520970656050  0.4152943417786038
  0.8683304886046617  0.4580850756253697  0.5895171429905335
  0.1219439989542612  0.9918677968167606  0.4160620396697845
  0.3668248331318467  0.8541997608877276  0.3849171164784107
  0.1163855998938972  0.8458801348322214  0.6222061639624812
  0.3712502892579351  0.7062117368967811  0.5892597262399171
  0.3725139176515153  0.6041306175302715  0.3801852943443638
  0.1227855928588803  0.5948812095078587  0.6200226543380459
  0.1167377520459885  0.7416610046524181  0.4143111571313423
  0.3666205069428040  0.9571925399422826  0.5912803007774204
  0.6211602326477226  0.9900401096787490  0.4165894707805605
  0.8662552776128947  0.8532259867137842  0.3845972940466663
  0.6161777092533136  0.8435935843939361  0.6222661293644853
  0.8730804854239034  0.7086375310460261  0.5890694600848503
  0.8686710053262199  0.6035405616008502  0.3840770244364095
  0.6156149354442157  0.5933589226778939  0.6250072347074791
  0.6161328371377673  0.7395626086944844  0.4162925120125446
  0.8659845359335184  0.9568696317196168  0.5908162388078911
  0.7278464493373487  0.6456729277584385  0.7577240353148655
  0.7578490547159639  0.6309473927932003  0.6873617964420905
  0.7488028899517257  0.5905052026167971  0.7785608227026184
 
  0.00000000E+00  0.00000000E+00  0.00000000E+00
  0.00000000E+00  0.00000000E+00  0.00000000E+00
  0.00000000E+00  0.00000000E+00  0.00000000E+00
  0.00000000E+00  0.00000000E+00  0.00000000E+00
  0.00000000E+00  0.00000000E+00  0.00000000E+00
  0.00000000E+00  0.00000000E+00  0.00000000E+00
  0.00000000E+00  0.00000000E+00  0.00000000E+00
  0.00000000E+00  0.00000000E+00  0.00000000E+00
  0.00000000E+00  0.00000000E+00  0.00000000E+00
  0.00000000E+00  0.00000000E+00  0.00000000E+00
  0.00000000E+00  0.00000000E+00  0.00000000E+00
  0.00000000E+00  0.00000000E+00  0.00000000E+00
  0.00000000E+00  0.00000000E+00  0.00000000E+00
  0.00000000E+00  0.00000000E+00  0.00000000E+00
  0.00000000E+00  0.00000000E+00  0.00000000E+00
  0.00000000E+00  0.00000000E+00  0.00000000E+00
  0.00000000E+00  0.00000000E+00  0.00000000E+00
  0.00000000E+00  0.00000000E+00  0.00000000E+00
  0.00000000E+00  0.00000000E+00  0.00000000E+00
  0.00000000E+00  0.00000000E+00  0.00000000E+00
  0.00000000E+00  0.00000000E+00  0.00000000E+00
  0.00000000E+00  0.00000000E+00  0.00000000E+00
  0.00000000E+00  0.00000000E+00  0.00000000E+00
  0.00000000E+00  0.00000000E+00  0.00000000E+00
  0.00000000E+00  0.00000000E+00  0.00000000E+00
  0.00000000E+00  0.00000000E+00  0.00000000E+00
  0.00000000E+00  0.00000000E+00  0.00000000E+00
  0.00000000E+00  0.00000000E+00  0.00000000E+00
  0.00000000E+00  0.00000000E+00  0.00000000E+00
  0.00000000E+00  0.00000000E+00  0.00000000E+00
  0.00000000E+00  0.00000000E+00  0.00000000E+00
  0.00000000E+00  0.00000000E+00  0.00000000E+00
  0.00000000E+00  0.00000000E+00  0.00000000E+00
  0.00000000E+00  0.00000000E+00  0.00000000E+00
  0.00000000E+00  0.00000000E+00  0.00000000E+00
  0.00000000E+00  0.00000000E+00  0.00000000E+00
  0.00000000E+00  0.00000000E+00  0.00000000E+00
  0.00000000E+00  0.00000000E+00  0.00000000E+00
  0.00000000E+00  0.00000000E+00  0.00000000E+00
  0.00000000E+00  0.00000000E+00  0.00000000E+00
  0.00000000E+00  0.00000000E+00  0.00000000E+00
  0.00000000E+00  0.00000000E+00  0.00000000E+00
  0.00000000E+00  0.00000000E+00  0.00000000E+00
  0.00000000E+00  0.00000000E+00  0.00000000E+00
  0.00000000E+00  0.00000000E+00  0.00000000E+00
  0.00000000E+00  0.00000000E+00  0.00000000E+00
  0.00000000E+00  0.00000000E+00  0.00000000E+00
  0.00000000E+00  0.00000000E+00  0.00000000E+00
  0.00000000E+00  0.00000000E+00  0.00000000E+00
  0.00000000E+00  0.00000000E+00  0.00000000E+00
  0.00000000E+00  0.00000000E+00  0.00000000E+00
  0.00000000E+00  0.00000000E+00  0.00000000E+00
  0.00000000E+00  0.00000000E+00  0.00000000E+00
  0.00000000E+00  0.00000000E+00  0.00000000E+00
  0.00000000E+00  0.00000000E+00  0.00000000E+00
  0.00000000E+00  0.00000000E+00  0.00000000E+00
  0.00000000E+00  0.00000000E+00  0.00000000E+00
  0.00000000E+00  0.00000000E+00  0.00000000E+00
  0.00000000E+00  0.00000000E+00  0.00000000E+00
  0.00000000E+00  0.00000000E+00  0.00000000E+00
  0.00000000E+00  0.00000000E+00  0.00000000E+00
  0.00000000E+00  0.00000000E+00  0.00000000E+00
  0.00000000E+00  0.00000000E+00  0.00000000E+00
  0.00000000E+00  0.00000000E+00  0.00000000E+00
  0.00000000E+00  0.00000000E+00  0.00000000E+00
  0.00000000E+00  0.00000000E+00  0.00000000E+00
  0.00000000E+00  0.00000000E+00  0.00000000E+00
