 Ta2 Te8 Ir2                            
   1.00000000000000     
     3.7719636316732870    0.0000000000000000    0.0000000000000000
     0.0000000000000000   12.4995190938305942    0.0000000000000000
     0.0000000000000000    0.0000000000000000   18.9973895697919986
   Ta   Te   Ir
     2     8     2
Direct
  0.0000000002030561  0.0508889403627845  0.5044939399798208
  0.5000000000152743  0.7305222377101663  0.4950912743094713
  0.5000000002002877  0.1058661381238774  0.6057514693053405
 -0.0000000004244122  0.8477059531699396  0.5787940971584028
 -0.0000000000646353  0.6761998449575085  0.3937095370706101
  0.4999999998711978  0.4344338232817274  0.4277719737208224
  0.5000000000101538  0.9336976791576311  0.4208591090080721
 -0.0000000000499284  0.1936943872751422  0.3999849749307526
  0.0000000001807046  0.3468262886219115  0.5709784496109364
  0.5000000000338234  0.5868132374202886  0.5990664449765356
 -0.0000000000885737  0.5352323990104618  0.5015604613313999
  0.5000000001130526  0.2459530709085575  0.4973288730234435
 
  0.00000000E+00  0.00000000E+00  0.00000000E+00
  0.00000000E+00  0.00000000E+00  0.00000000E+00
  0.00000000E+00  0.00000000E+00  0.00000000E+00
  0.00000000E+00  0.00000000E+00  0.00000000E+00
  0.00000000E+00  0.00000000E+00  0.00000000E+00
  0.00000000E+00  0.00000000E+00  0.00000000E+00
  0.00000000E+00  0.00000000E+00  0.00000000E+00
  0.00000000E+00  0.00000000E+00  0.00000000E+00
  0.00000000E+00  0.00000000E+00  0.00000000E+00
  0.00000000E+00  0.00000000E+00  0.00000000E+00
  0.00000000E+00  0.00000000E+00  0.00000000E+00
  0.00000000E+00  0.00000000E+00  0.00000000E+00
