CONTCAR\(8)                             
   1.00000000000000     
    12.3274002075000002    0.0000000000000000    0.0000000000000000
     0.0000000000000000   15.7540998459000008    0.0000000000000000
     0.0000000000000000    0.0000000000000000   20.2700004577999984
   Pr   Br   O    H 
    12    30     1     1
Direct
  0.2520371283655673  0.6390650111386036  0.4854915237551273
  0.0831964962374665  0.3606127617283976  0.4664142417577304
  0.2436871280487843  0.1412028660583434  0.5285814902488446
  0.0650391431056895  0.8715616453994154  0.4739331135990219
  0.5816505502759401  0.6389347977851492  0.4856518343927591
  0.4167095807098594  0.3573592405012417  0.4605137392851491
  0.5896860985539086  0.1413230669572069  0.5284803931994365
  0.4170078438184693  0.9026845706016157  0.5699753509693467
  0.9168038439146764  0.6427047808411507  0.5059710934235596
  0.7503260242251195  0.3605714775983404  0.4663962824455920
  0.9166957219524945  0.1461911239451611  0.5259073119850624
  0.7686143405808146  0.8716102693504372  0.4739721689762688
  0.2834298977084470  0.8259693572160739  0.4437362456390383
  0.0767995766895643  0.1537924037410922  0.6321412473326863
  0.2417033746244201  0.4720483093745823  0.3978290310013046
  0.0934555638170736  0.5214322338852323  0.5542867266320693
  0.0837268537702996  0.0596251607142272  0.4352405918723910
  0.1965712640921103  0.9621406989929046  0.5844833053620849
  0.0930937970810708  0.7384390242797532  0.5788954166858286
  0.2493735447107440  0.2437136350683907  0.3994078954316378
  0.0701163109765501  0.6900809329526872  0.3987725868574902
  0.2545433011492526  0.3242142073107569  0.5686617233948694
  0.5501717307393972  0.8260621242898912  0.4438593465079559
  0.4167083369036258  0.1188286376517444  0.6293010733502860
  0.5918068748166824  0.4720169897985328  0.3978839103147143
  0.4166899395507310  0.5123734140556581  0.5452037527538758
  0.4166778833134909  0.0415823707500002  0.4550626546505036
  0.6372650293461075  0.9624823015002931  0.5843668648192114
  0.4168077799187494  0.7128777139287884  0.5817307337898485
  0.5840149351307011  0.2437462010126894  0.3993586689020590
  0.4170114743127065  0.6455353925330025  0.3817641355913044
  0.5788189398473482  0.3242742428663136  0.5686182992240723
  0.9168469666244903  0.8919195671029138  0.3629244492532719
  0.7565235565786349  0.1542396081744079  0.6321199746778066
  0.9167425543970430  0.4807933572406009  0.4073538546048220
  0.7402106091697581  0.5213435541400812  0.5543601857509293
  0.7498450205185494  0.0596319979299010  0.4351647188533819
  0.9167928029212947  0.9520107870750868  0.5702337576331545
  0.7406483261794369  0.7384641246169646  0.5789427348383054
  0.9168218309286452  0.2514845186774097  0.3984193135681094
  0.7634226159368988  0.6901252905211108  0.3987946756156660
  0.9167554927131922  0.3313496426319705  0.5697863610756784
  0.4182504283936639  0.8870994036281983  0.6726754895413053
  0.4218597623505712  0.8919607964336537  0.7202015264364371
 
  0.00000000E+00  0.00000000E+00  0.00000000E+00
  0.00000000E+00  0.00000000E+00  0.00000000E+00
  0.00000000E+00  0.00000000E+00  0.00000000E+00
  0.00000000E+00  0.00000000E+00  0.00000000E+00
  0.00000000E+00  0.00000000E+00  0.00000000E+00
  0.00000000E+00  0.00000000E+00  0.00000000E+00
  0.00000000E+00  0.00000000E+00  0.00000000E+00
  0.00000000E+00  0.00000000E+00  0.00000000E+00
  0.00000000E+00  0.00000000E+00  0.00000000E+00
  0.00000000E+00  0.00000000E+00  0.00000000E+00
  0.00000000E+00  0.00000000E+00  0.00000000E+00
  0.00000000E+00  0.00000000E+00  0.00000000E+00
  0.00000000E+00  0.00000000E+00  0.00000000E+00
  0.00000000E+00  0.00000000E+00  0.00000000E+00
  0.00000000E+00  0.00000000E+00  0.00000000E+00
  0.00000000E+00  0.00000000E+00  0.00000000E+00
  0.00000000E+00  0.00000000E+00  0.00000000E+00
  0.00000000E+00  0.00000000E+00  0.00000000E+00
  0.00000000E+00  0.00000000E+00  0.00000000E+00
  0.00000000E+00  0.00000000E+00  0.00000000E+00
  0.00000000E+00  0.00000000E+00  0.00000000E+00
  0.00000000E+00  0.00000000E+00  0.00000000E+00
  0.00000000E+00  0.00000000E+00  0.00000000E+00
  0.00000000E+00  0.00000000E+00  0.00000000E+00
  0.00000000E+00  0.00000000E+00  0.00000000E+00
  0.00000000E+00  0.00000000E+00  0.00000000E+00
  0.00000000E+00  0.00000000E+00  0.00000000E+00
  0.00000000E+00  0.00000000E+00  0.00000000E+00
  0.00000000E+00  0.00000000E+00  0.00000000E+00
  0.00000000E+00  0.00000000E+00  0.00000000E+00
  0.00000000E+00  0.00000000E+00  0.00000000E+00
  0.00000000E+00  0.00000000E+00  0.00000000E+00
  0.00000000E+00  0.00000000E+00  0.00000000E+00
  0.00000000E+00  0.00000000E+00  0.00000000E+00
  0.00000000E+00  0.00000000E+00  0.00000000E+00
  0.00000000E+00  0.00000000E+00  0.00000000E+00
  0.00000000E+00  0.00000000E+00  0.00000000E+00
  0.00000000E+00  0.00000000E+00  0.00000000E+00
  0.00000000E+00  0.00000000E+00  0.00000000E+00
  0.00000000E+00  0.00000000E+00  0.00000000E+00
  0.00000000E+00  0.00000000E+00  0.00000000E+00
  0.00000000E+00  0.00000000E+00  0.00000000E+00
  0.00000000E+00  0.00000000E+00  0.00000000E+00
  0.00000000E+00  0.00000000E+00  0.00000000E+00
