CONTCAR\(13)                            
   1.00000000000000     
    11.2263002396000005    0.0000000000000000    0.0000000000000000
     0.0000000000000000   21.7961997986000000    0.0000000000000000
     0.0000000000000000    0.0000000000000000   19.3752994536999985
   Ta   Te   Pd   O    H 
     9    42     9     1     1
Direct
  0.1674572379989622  0.4747688038407743  0.5012664903788207
  0.1695393249721166  0.1223627763976881  0.4996814157747600
  0.1667361367600858  0.7739149828300653  0.5156658402755724
  0.5001898417714618  0.4750225533709070  0.5006769058697595
  0.5024001958372333  0.1230542506288444  0.5007631243332212
  0.4992565571725484  0.7721343913418534  0.5154176402413144
  0.8334673545293089  0.4750296275726796  0.5011035066666016
  0.8352172252210872  0.1239706335300136  0.4995927011130987
  0.8334769825835752  0.7731037563466867  0.5171816407109217
  0.0005831644005623  0.4072090147366019  0.4213482501822254
  0.1680039177769772  0.2388624664257300  0.4248474284912995
  0.1586392410755424  0.8895092172532532  0.5863555609532312
  0.9964356068859673  0.8393872083627058  0.4342011863373213
  0.0005708501547228  0.5486149446809960  0.4270583339488049
  0.0004530319355710  0.4801872875520048  0.6139254178075466
  0.1678481981470978  0.0024364335607283  0.4323870110838801
  0.0014034039254990  0.0542109624700740  0.5790952154290387
  0.1671298571901959  0.5911898038291775  0.5734561374682553
  0.0030545001394207  0.1959233261331899  0.5743386086156137
  0.1658558074136473  0.6970942648165207  0.4070761979921212
  0.0019943329997390  0.1185358288393429  0.3871470859167613
  0.0004947556048784  0.7375164652700907  0.6140503410512410
  0.1686870177468187  0.3583856381530378  0.5767047840495623
  0.3335603662037536  0.4076284382025446  0.4200022331299391
  0.5016370351927925  0.2403513161547632  0.4260252066895758
  0.4981559175259181  0.8865528906556943  0.5856495173255607
  0.3314017021414974  0.8409649768794273  0.4358286184022191
  0.3333312966171924  0.5487184646046710  0.4268034871566946
  0.3344763336278031  0.4787786506170472  0.6136245114116202
  0.5041636158727028  0.0013672664437857  0.4365819681821438
  0.3351767344440632  0.0549852788478615  0.5819020936936679
  0.4995232015946001  0.5914859978325078  0.5735253174302164
  0.3351338765355145  0.1961967322639738  0.5749063710108954
  0.5001020987627742  0.6954468776720476  0.4069391576143647
  0.3367278037467261  0.1192147020397086  0.3881285059764657
  0.3326827490627861  0.7380116666392404  0.6135439396175847
  0.5005593607486261  0.3573133958238158  0.5739880489800397
  0.6671275445368904  0.4083885132514223  0.4195668078522585
  0.8363414631285696  0.2405580268888134  0.4255729762034164
  0.8384685394698145  0.8883022044193319  0.5890077752725138
  0.6648102757492005  0.8426890722185835  0.4391178918814314
  0.6669687973041118  0.5485933381928797  0.4267216091094833
  0.6665439469867696  0.4789229025976124  0.6134934009492370
  0.8400489230216319  0.0071582791471889  0.4272858225103737
  0.6713706745713195  0.0558628962488458  0.5816106873876224
  0.8320095850726144  0.5914068112087587  0.5733843051165606
  0.6689890864116768  0.1967982391983788  0.5749773402624575
  0.8335024155038609  0.6969442817372757  0.4080929613055211
  0.6670326522184676  0.1223635605076752  0.3880244585447661
  0.6650346478817615  0.7387624624218777  0.6146985100952851
  0.8342357490420208  0.3583176761395223  0.5755466245764548
  0.9967024942310410  0.9456082874228421  0.5065478697690433
  0.0026488823455084  0.3008113021131128  0.4994528755149416
  0.0000872789285465  0.6587101661901241  0.5034611269113677
  0.3312642698587441  0.9445879333497044  0.5121187269644144
  0.3323779228767563  0.3005060741523501  0.4983557943349476
  0.3329835862276481  0.6593339608314146  0.5029897466323080
  0.6791011893560585  0.9477770628520203  0.5105102391698236
  0.6693811717848190  0.3008775551282145  0.4979017101510227
  0.6662624710493817  0.6599729892659629  0.5036884672357823
  0.4334938476854260  0.8589127975679097  0.6811862142539136
  0.4140756944375950  0.8953923713281075  0.7084067186830455
 
  0.00000000E+00  0.00000000E+00  0.00000000E+00
  0.00000000E+00  0.00000000E+00  0.00000000E+00
  0.00000000E+00  0.00000000E+00  0.00000000E+00
  0.00000000E+00  0.00000000E+00  0.00000000E+00
  0.00000000E+00  0.00000000E+00  0.00000000E+00
  0.00000000E+00  0.00000000E+00  0.00000000E+00
  0.00000000E+00  0.00000000E+00  0.00000000E+00
  0.00000000E+00  0.00000000E+00  0.00000000E+00
  0.00000000E+00  0.00000000E+00  0.00000000E+00
  0.00000000E+00  0.00000000E+00  0.00000000E+00
  0.00000000E+00  0.00000000E+00  0.00000000E+00
  0.00000000E+00  0.00000000E+00  0.00000000E+00
  0.00000000E+00  0.00000000E+00  0.00000000E+00
  0.00000000E+00  0.00000000E+00  0.00000000E+00
  0.00000000E+00  0.00000000E+00  0.00000000E+00
  0.00000000E+00  0.00000000E+00  0.00000000E+00
  0.00000000E+00  0.00000000E+00  0.00000000E+00
  0.00000000E+00  0.00000000E+00  0.00000000E+00
  0.00000000E+00  0.00000000E+00  0.00000000E+00
  0.00000000E+00  0.00000000E+00  0.00000000E+00
  0.00000000E+00  0.00000000E+00  0.00000000E+00
  0.00000000E+00  0.00000000E+00  0.00000000E+00
  0.00000000E+00  0.00000000E+00  0.00000000E+00
  0.00000000E+00  0.00000000E+00  0.00000000E+00
  0.00000000E+00  0.00000000E+00  0.00000000E+00
  0.00000000E+00  0.00000000E+00  0.00000000E+00
  0.00000000E+00  0.00000000E+00  0.00000000E+00
  0.00000000E+00  0.00000000E+00  0.00000000E+00
  0.00000000E+00  0.00000000E+00  0.00000000E+00
  0.00000000E+00  0.00000000E+00  0.00000000E+00
  0.00000000E+00  0.00000000E+00  0.00000000E+00
  0.00000000E+00  0.00000000E+00  0.00000000E+00
  0.00000000E+00  0.00000000E+00  0.00000000E+00
  0.00000000E+00  0.00000000E+00  0.00000000E+00
  0.00000000E+00  0.00000000E+00  0.00000000E+00
  0.00000000E+00  0.00000000E+00  0.00000000E+00
  0.00000000E+00  0.00000000E+00  0.00000000E+00
  0.00000000E+00  0.00000000E+00  0.00000000E+00
  0.00000000E+00  0.00000000E+00  0.00000000E+00
  0.00000000E+00  0.00000000E+00  0.00000000E+00
  0.00000000E+00  0.00000000E+00  0.00000000E+00
  0.00000000E+00  0.00000000E+00  0.00000000E+00
  0.00000000E+00  0.00000000E+00  0.00000000E+00
  0.00000000E+00  0.00000000E+00  0.00000000E+00
  0.00000000E+00  0.00000000E+00  0.00000000E+00
  0.00000000E+00  0.00000000E+00  0.00000000E+00
  0.00000000E+00  0.00000000E+00  0.00000000E+00
  0.00000000E+00  0.00000000E+00  0.00000000E+00
  0.00000000E+00  0.00000000E+00  0.00000000E+00
  0.00000000E+00  0.00000000E+00  0.00000000E+00
  0.00000000E+00  0.00000000E+00  0.00000000E+00
  0.00000000E+00  0.00000000E+00  0.00000000E+00
  0.00000000E+00  0.00000000E+00  0.00000000E+00
  0.00000000E+00  0.00000000E+00  0.00000000E+00
  0.00000000E+00  0.00000000E+00  0.00000000E+00
  0.00000000E+00  0.00000000E+00  0.00000000E+00
  0.00000000E+00  0.00000000E+00  0.00000000E+00
  0.00000000E+00  0.00000000E+00  0.00000000E+00
  0.00000000E+00  0.00000000E+00  0.00000000E+00
  0.00000000E+00  0.00000000E+00  0.00000000E+00
  0.00000000E+00  0.00000000E+00  0.00000000E+00
  0.00000000E+00  0.00000000E+00  0.00000000E+00
