CONTCAR\(9)                             
   1.00000000000000     
    12.4687995910999998    0.0000000000000000    0.0000000000000000
     0.0000000000000000   15.4259996414000007    0.0000000000000000
     0.0000000000000000    0.0000000000000000   19.6597995758000010
   Ta   Co   Te   O    H 
    16    16    32     2     1
Direct
  0.4844227540240738  0.0508968592070786  0.5096384530973097
  0.2345863654986360  0.1047592949274474  0.4965316614505468
  0.0050664571515995  0.3545720761240290  0.4956828545383800
  0.2558913975798021  0.3014733685968523  0.5077247105710043
  0.9843176496215733  0.0508141376108995  0.5097168544835071
  0.7343597977047267  0.1046736214666524  0.4969506876074377
  0.5054797723652555  0.3551099952118690  0.4952175084001311
  0.7542412309156532  0.3017573600558592  0.5093847573870107
  0.4841604834841888  0.5508135767157469  0.5001408398036062
  0.2336259129993081  0.6043198946988682  0.4947171088770048
  0.0047369387648857  0.8543411689491123  0.4962959100715665
  0.2549426396484265  0.8010680246067565  0.5089348421225850
  0.9847568506288482  0.5517712374385653  0.5082772219246721
  0.7345411775438464  0.6033192608815341  0.4980619661052827
  0.5049512051621932  0.8537070825420585  0.4972062463422091
  0.7541087307864558  0.8002325543489235  0.5097312920381825
  0.4199130118780943  0.2075577691348940  0.4629516366860713
  0.0700771354415295  0.1986877633823809  0.5419918251703848
  0.3183172410337534  0.4572271673584183  0.4596887035895207
  0.1700244083928268  0.4479521161128659  0.5404672002406414
  0.9194303725777644  0.2072342243705094  0.4632178853887794
  0.5698271321739341  0.1983352884455911  0.5422883232738656
  0.8196487848856009  0.4561218694027431  0.4635809471977055
  0.6698574962387838  0.4526681645612527  0.5445188966258883
  0.4186657930394162  0.7073625550543952  0.4622578440615683
  0.0720483660069604  0.6981230607184017  0.5414128690257414
  0.3199945314920214  0.9575073460667411  0.4635171724007563
  0.1696737347337347  0.9477056404720230  0.5426156745150053
  0.9201614941178491  0.7070520873602604  0.4630862281367953
  0.5683250242402806  0.6931634993877580  0.5442308389203347
  0.8191865166410821  0.9572224892360168  0.4640160262690998
  0.6688485702745552  0.9475662803267184  0.5430088896842022
  0.1216725581329783  0.4736837206146660  0.4121922880112834
  0.1164096864326538  0.2229841146196918  0.4137782820390399
  0.3732043240964700  0.1831618453699733  0.5912582900196028
  0.3677018278569406  0.4363908391352922  0.5880746714739402
  0.1203195960911216  0.3224995297568256  0.6205842405950079
  0.3693756117872695  0.3326005878228386  0.3822715252688340
  0.3717342376266686  0.0834093924313990  0.3842279574124632
  0.1215001808009717  0.0722829905154612  0.6215921493134857
  0.6265342633043289  0.4694021801489541  0.4118314736012820
  0.6170660322551242  0.2222246637285465  0.4141037741691136
  0.8733512518556665  0.1830559792855411  0.5914114810421935
  0.8668908078595834  0.4327369296435890  0.5912100192291518
  0.6169081858887751  0.3231739765837602  0.6210445564817562
  0.8682952754781894  0.3328930294634276  0.3837733953343729
  0.8712326149795899  0.0830712875413937  0.3845646912522795
  0.6210563663804578  0.0720136860729781  0.6220125792945410
  0.1231025720806613  0.9735327482403946  0.4144035992313206
  0.1161070251272562  0.7237779917032512  0.4127933620202597
  0.3721129924663273  0.6806017514286395  0.5903515142757314
  0.3661603070985677  0.9322768311344447  0.5917647245589777
  0.1182168571884077  0.8212541465171839  0.6214865599237882
  0.3686644267306676  0.8345884998664701  0.3841335812968723
  0.3713098084067639  0.5848714374701984  0.3802451976791303
  0.1218636899057728  0.5712566838500379  0.6203573058932434
  0.6229047516099371  0.9724657122748823  0.4147976561844402
  0.6160776785965538  0.7223412785023058  0.4153172241309946
  0.8733560436261243  0.6833166452772872  0.5912891198245305
  0.8659600164960537  0.9317367213769430  0.5916893446372455
  0.6168883999735044  0.8202660763805412  0.6219528786857751
  0.8675122351835398  0.8339079560413154  0.3843147098285442
  0.8683392062824851  0.5838234809887766  0.3842678150139562
  0.6158505568496651  0.5706818384851218  0.6245436585870294
  0.7580063033795525  0.6105432936490942  0.6890930742918613
  0.7252798470515884  0.6354081502106510  0.7572237585925663
  0.7431854940721365  0.5829270390948906  0.7829904387986986
 
  0.00000000E+00  0.00000000E+00  0.00000000E+00
  0.00000000E+00  0.00000000E+00  0.00000000E+00
  0.00000000E+00  0.00000000E+00  0.00000000E+00
  0.00000000E+00  0.00000000E+00  0.00000000E+00
  0.00000000E+00  0.00000000E+00  0.00000000E+00
  0.00000000E+00  0.00000000E+00  0.00000000E+00
  0.00000000E+00  0.00000000E+00  0.00000000E+00
  0.00000000E+00  0.00000000E+00  0.00000000E+00
  0.00000000E+00  0.00000000E+00  0.00000000E+00
  0.00000000E+00  0.00000000E+00  0.00000000E+00
  0.00000000E+00  0.00000000E+00  0.00000000E+00
  0.00000000E+00  0.00000000E+00  0.00000000E+00
  0.00000000E+00  0.00000000E+00  0.00000000E+00
  0.00000000E+00  0.00000000E+00  0.00000000E+00
  0.00000000E+00  0.00000000E+00  0.00000000E+00
  0.00000000E+00  0.00000000E+00  0.00000000E+00
  0.00000000E+00  0.00000000E+00  0.00000000E+00
  0.00000000E+00  0.00000000E+00  0.00000000E+00
  0.00000000E+00  0.00000000E+00  0.00000000E+00
  0.00000000E+00  0.00000000E+00  0.00000000E+00
  0.00000000E+00  0.00000000E+00  0.00000000E+00
  0.00000000E+00  0.00000000E+00  0.00000000E+00
  0.00000000E+00  0.00000000E+00  0.00000000E+00
  0.00000000E+00  0.00000000E+00  0.00000000E+00
  0.00000000E+00  0.00000000E+00  0.00000000E+00
  0.00000000E+00  0.00000000E+00  0.00000000E+00
  0.00000000E+00  0.00000000E+00  0.00000000E+00
  0.00000000E+00  0.00000000E+00  0.00000000E+00
  0.00000000E+00  0.00000000E+00  0.00000000E+00
  0.00000000E+00  0.00000000E+00  0.00000000E+00
  0.00000000E+00  0.00000000E+00  0.00000000E+00
  0.00000000E+00  0.00000000E+00  0.00000000E+00
  0.00000000E+00  0.00000000E+00  0.00000000E+00
  0.00000000E+00  0.00000000E+00  0.00000000E+00
  0.00000000E+00  0.00000000E+00  0.00000000E+00
  0.00000000E+00  0.00000000E+00  0.00000000E+00
  0.00000000E+00  0.00000000E+00  0.00000000E+00
  0.00000000E+00  0.00000000E+00  0.00000000E+00
  0.00000000E+00  0.00000000E+00  0.00000000E+00
  0.00000000E+00  0.00000000E+00  0.00000000E+00
  0.00000000E+00  0.00000000E+00  0.00000000E+00
  0.00000000E+00  0.00000000E+00  0.00000000E+00
  0.00000000E+00  0.00000000E+00  0.00000000E+00
  0.00000000E+00  0.00000000E+00  0.00000000E+00
  0.00000000E+00  0.00000000E+00  0.00000000E+00
  0.00000000E+00  0.00000000E+00  0.00000000E+00
  0.00000000E+00  0.00000000E+00  0.00000000E+00
  0.00000000E+00  0.00000000E+00  0.00000000E+00
  0.00000000E+00  0.00000000E+00  0.00000000E+00
  0.00000000E+00  0.00000000E+00  0.00000000E+00
  0.00000000E+00  0.00000000E+00  0.00000000E+00
  0.00000000E+00  0.00000000E+00  0.00000000E+00
  0.00000000E+00  0.00000000E+00  0.00000000E+00
  0.00000000E+00  0.00000000E+00  0.00000000E+00
  0.00000000E+00  0.00000000E+00  0.00000000E+00
  0.00000000E+00  0.00000000E+00  0.00000000E+00
  0.00000000E+00  0.00000000E+00  0.00000000E+00
  0.00000000E+00  0.00000000E+00  0.00000000E+00
  0.00000000E+00  0.00000000E+00  0.00000000E+00
  0.00000000E+00  0.00000000E+00  0.00000000E+00
  0.00000000E+00  0.00000000E+00  0.00000000E+00
  0.00000000E+00  0.00000000E+00  0.00000000E+00
  0.00000000E+00  0.00000000E+00  0.00000000E+00
  0.00000000E+00  0.00000000E+00  0.00000000E+00
  0.00000000E+00  0.00000000E+00  0.00000000E+00
  0.00000000E+00  0.00000000E+00  0.00000000E+00
  0.00000000E+00  0.00000000E+00  0.00000000E+00
