CONTCAR\(5)                             
   1.00000000000000     
    15.1182003021000000    0.0000000000000000    0.0000000000000000
     7.5590774867999997   13.0927586063000003    0.0000000000000000
     0.0000000000000000    0.0000000000000000   18.6788005828999992
   Ni   Te   O 
    32    32     1
Direct
  0.0824773415200655  0.0850353159598622  0.5378255005353062
  0.9981471300587494  0.0023731829540165  0.4650381561284302
  0.3326178401836336  0.0861113685027696  0.5368936818776873
  0.2494796869872269  0.0023731829540165  0.4650381561284302
  0.5817943791364225  0.0864011767271572  0.5352732434575478
  0.4984442636264809  0.0019304434603936  0.4640905525376792
  0.8312607903135900  0.0861113685027696  0.5368936818776873
  0.7496252609131302  0.0019304434603936  0.4640905525376792
  0.0821079786648599  0.3360075889613091  0.5367464189713893
  0.9992166172490521  0.2515667575019025  0.4645823093156843
  0.3312390380830442  0.3363053078054515  0.5344674323488818
  0.2489852900720013  0.2510362343915492  0.4634713968415506
  0.5824455511115104  0.3363053078054515  0.5344674323488818
  0.4985520612880848  0.2528959014238326  0.4557143656003465
  0.8318743613738394  0.3360075889613091  0.5367464189713893
  0.7499784375364537  0.2510362343915492  0.4634713968415506
  0.0819013081032428  0.5862104746522558  0.5367709674029497
  0.9988944578535880  0.5023454291438697  0.4641803512618806
  0.3330299630016131  0.5839299959967713  0.5364802654962113
  0.2482107209159331  0.5035231060833009  0.4632865251343411
  0.5818781072445034  0.5862104746522558  0.5367709674029497
  0.4982661270007691  0.5035231060833009  0.4632865251343411
  0.8318516831993480  0.5862864296012903  0.5370346063812701
  0.7487600990025346  0.5023454291438697  0.4641803512618806
  0.0827019319003792  0.8360748827749240  0.5377600898414474
  0.9988338529276986  0.7528274175384260  0.4647261898625664
  0.3312131313246960  0.8360748827749240  0.5377600898414474
  0.2495997524798252  0.7508005050403431  0.4648178919466195
  0.5818437301628619  0.8363080761880461  0.5371481854894864
  0.4983386755338713  0.7528274175384260  0.4647261898625664
  0.8318381076491029  0.8363080761880461  0.5371481854894864
  0.7484863297837394  0.7530272244325322  0.4645223835195346
  0.0826869780853499  0.0846160428292934  0.4004366528396713
  0.9978997875326273  0.0028705908246191  0.6025451731493309
  0.3322656666731493  0.0848469183007647  0.3985584272969238
  0.2492296216427537  0.0028705908246191  0.6025451731493309
  0.5834486447733300  0.0830926454533416  0.3981391769236023
  0.4992720896233429  0.0034098634481320  0.6017803117460861
  0.8328774140260723  0.0848469183007647  0.3985584272969238
  0.7473180149285157  0.0034098634481320  0.6017803117460861
  0.0816328752489935  0.3354817795746492  0.3993699118681524
  0.9987467905890062  0.2525064108219797  0.6016943097988069
  0.3291092123102430  0.3371468231513905  0.3974833585783795
  0.2492168820983949  0.2531083372940621  0.6011712432282880
  0.5837338615383656  0.3371468231513905  0.3974833585783795
  0.4980329823141277  0.2539340593717536  0.5958248970919509
  0.8328752741763661  0.3354817795746492  0.3993699118681524
  0.7476747426075470  0.2531083372940621  0.6011712432282880
  0.0810863756681538  0.5868454584110691  0.3992357712636793
  0.9986452171616838  0.5027851812483219  0.6016436561934536
  0.3320351752720522  0.5859195714558931  0.3981165924955687
  0.2489723481134178  0.5013672380178820  0.6011481678810690
  0.5820580559207790  0.5868454584110691  0.3992357712636793
  0.4996603678686963  0.5013672380178820  0.6011481678810690
  0.8318556992712317  0.5862783974575386  0.3996925213933422
  0.7485695875899863  0.5027851812483219  0.6016436561934536
  0.0827227908710546  0.8356984830354225  0.4003293174028826
  0.9986980359283987  0.7528363763205315  0.6019683738741359
  0.3315686720935222  0.8356984830354225  0.4003293174028826
  0.2496767653584120  0.7506464792831696  0.6022487139229525
  0.5818449896373660  0.8353964643512825  0.3994469126334314
  0.4984655337510728  0.7528363763205315  0.6019683738741359
  0.8327484600113483  0.8353964643512825  0.3994469126334314
  0.7485362099549336  0.7529274640901384  0.6020418367366350
  0.4964097471578329  0.2571405296843306  0.6950530729168848
 
  0.00000000E+00  0.00000000E+00  0.00000000E+00
  0.00000000E+00  0.00000000E+00  0.00000000E+00
  0.00000000E+00  0.00000000E+00  0.00000000E+00
  0.00000000E+00  0.00000000E+00  0.00000000E+00
  0.00000000E+00  0.00000000E+00  0.00000000E+00
  0.00000000E+00  0.00000000E+00  0.00000000E+00
  0.00000000E+00  0.00000000E+00  0.00000000E+00
  0.00000000E+00  0.00000000E+00  0.00000000E+00
  0.00000000E+00  0.00000000E+00  0.00000000E+00
  0.00000000E+00  0.00000000E+00  0.00000000E+00
  0.00000000E+00  0.00000000E+00  0.00000000E+00
  0.00000000E+00  0.00000000E+00  0.00000000E+00
  0.00000000E+00  0.00000000E+00  0.00000000E+00
  0.00000000E+00  0.00000000E+00  0.00000000E+00
  0.00000000E+00  0.00000000E+00  0.00000000E+00
  0.00000000E+00  0.00000000E+00  0.00000000E+00
  0.00000000E+00  0.00000000E+00  0.00000000E+00
  0.00000000E+00  0.00000000E+00  0.00000000E+00
  0.00000000E+00  0.00000000E+00  0.00000000E+00
  0.00000000E+00  0.00000000E+00  0.00000000E+00
  0.00000000E+00  0.00000000E+00  0.00000000E+00
  0.00000000E+00  0.00000000E+00  0.00000000E+00
  0.00000000E+00  0.00000000E+00  0.00000000E+00
  0.00000000E+00  0.00000000E+00  0.00000000E+00
  0.00000000E+00  0.00000000E+00  0.00000000E+00
  0.00000000E+00  0.00000000E+00  0.00000000E+00
  0.00000000E+00  0.00000000E+00  0.00000000E+00
  0.00000000E+00  0.00000000E+00  0.00000000E+00
  0.00000000E+00  0.00000000E+00  0.00000000E+00
  0.00000000E+00  0.00000000E+00  0.00000000E+00
  0.00000000E+00  0.00000000E+00  0.00000000E+00
  0.00000000E+00  0.00000000E+00  0.00000000E+00
  0.00000000E+00  0.00000000E+00  0.00000000E+00
  0.00000000E+00  0.00000000E+00  0.00000000E+00
  0.00000000E+00  0.00000000E+00  0.00000000E+00
  0.00000000E+00  0.00000000E+00  0.00000000E+00
  0.00000000E+00  0.00000000E+00  0.00000000E+00
  0.00000000E+00  0.00000000E+00  0.00000000E+00
  0.00000000E+00  0.00000000E+00  0.00000000E+00
  0.00000000E+00  0.00000000E+00  0.00000000E+00
  0.00000000E+00  0.00000000E+00  0.00000000E+00
  0.00000000E+00  0.00000000E+00  0.00000000E+00
  0.00000000E+00  0.00000000E+00  0.00000000E+00
  0.00000000E+00  0.00000000E+00  0.00000000E+00
  0.00000000E+00  0.00000000E+00  0.00000000E+00
  0.00000000E+00  0.00000000E+00  0.00000000E+00
  0.00000000E+00  0.00000000E+00  0.00000000E+00
  0.00000000E+00  0.00000000E+00  0.00000000E+00
  0.00000000E+00  0.00000000E+00  0.00000000E+00
  0.00000000E+00  0.00000000E+00  0.00000000E+00
  0.00000000E+00  0.00000000E+00  0.00000000E+00
  0.00000000E+00  0.00000000E+00  0.00000000E+00
  0.00000000E+00  0.00000000E+00  0.00000000E+00
  0.00000000E+00  0.00000000E+00  0.00000000E+00
  0.00000000E+00  0.00000000E+00  0.00000000E+00
  0.00000000E+00  0.00000000E+00  0.00000000E+00
  0.00000000E+00  0.00000000E+00  0.00000000E+00
  0.00000000E+00  0.00000000E+00  0.00000000E+00
  0.00000000E+00  0.00000000E+00  0.00000000E+00
  0.00000000E+00  0.00000000E+00  0.00000000E+00
  0.00000000E+00  0.00000000E+00  0.00000000E+00
  0.00000000E+00  0.00000000E+00  0.00000000E+00
  0.00000000E+00  0.00000000E+00  0.00000000E+00
  0.00000000E+00  0.00000000E+00  0.00000000E+00
  0.00000000E+00  0.00000000E+00  0.00000000E+00
