CONTCAR\(5)                             
   1.00000000000000     
    10.6176996231000000    0.0000000000000000    0.0000000000000000
     0.0000000000000000   17.6849002838000011    0.0000000000000000
     0.0000000000000000    0.0000000000000000   18.8054008484000015
   K    Fe   Se   O    H 
     8    16    24     2     1
Direct
  0.3749444656915102  0.2527952929085379  0.4045741762094382
  0.1175625619618395  0.2564711872810359  0.6012308783581177
  0.8716416785006332  0.2575549448570096  0.4188875224691748
  0.6348189942288329  0.2464549397738571  0.5980756640019002
  0.3804413125392457  0.7507805520056825  0.4055539519316029
  0.1310953051358722  0.7474588960943637  0.5897062990548523
  0.8928457959515989  0.7484406164675647  0.4049301933485644
  0.6341328420001247  0.7509482664001635  0.5933512080536976
  0.2556118133699277  0.0715043595830948  0.5005476224931460
  0.0060816182715936  0.0712510174935899  0.5016758565018452
  0.2569149048964672  0.9272326043782061  0.4994126333013411
  0.0071250801651542  0.9275071786403861  0.4994936351214463
  0.7551621433841357  0.0713909172454518  0.5017719692169378
  0.5049419757851317  0.0712174095773212  0.5019881140586510
  0.7568427935901314  0.9273849249381044  0.5003404814410625
  0.5067787114207013  0.9265076484923984  0.4997572905177170
  0.2643205594796518  0.5626542938543921  0.5138273845077056
  0.0034022654373989  0.5730744110857448  0.4915377159703890
  0.2480550310227094  0.4244788507987828  0.5174841039810560
 -0.0085809481772411  0.4284563055314156  0.5060191281155395
  0.7603024273724336  0.5773162549555312  0.4904768785105227
  0.5094381287696482  0.5831550490916830  0.4916802897624529
  0.7472743334448655  0.4319139350385018  0.5042895388686246
  0.4916206044883648  0.4369554155074220  0.5140157316554584
  0.3820373896819539 -0.0000145747875388  0.4262913348362521
  0.1323572556212889 -0.0017843809902904  0.5743247146513529
  0.3787668699028421  0.1394454346600841  0.5727954448061114
  0.1291793538047183  0.1429229883810594  0.4317505458018797
  0.1320654700379481  0.8580776083706139  0.4273322061011085
  0.3807657674275723  0.8570985365785435  0.5702594025631010
  0.8806176997794426  0.0004958324571236  0.4267505802841168
  0.6303558803923973 -0.0020154445627504  0.5748524187277874
  0.8810247313388690  0.1376014985979931  0.5752977455655294
  0.6292263793027664  0.1438154595877564  0.4331888632569203
  0.6338843915250689  0.8560328120154909  0.4296481754336567
  0.8829315423488153  0.8584707621605205  0.5713509673438972
  0.3811623400775833  0.5012870849171598  0.4253974627488920
  0.1108580061771197  0.5036174237004756  0.5869901967358765
  0.3843413589609574  0.6563919698966254  0.5679184673562074
  0.1539531753726572  0.6320783427615025  0.4259200454005245
  0.1259023962532443  0.3569160272550748  0.4340222996447956
  0.3845084916474892  0.3299971345962930  0.5613951629894921
  0.8759260731110617  0.4984929767530045  0.4181290461785272
  0.6327088248218370  0.5161245419852998  0.5743703851740448
  0.8804868043540608  0.6515983858621344  0.5623980058864381
  0.6385629946722947  0.6450626053640801  0.4134937669776811
  0.6124294889836699  0.3654255488391187  0.4321389774282942
  0.8648342348935949  0.3605422647198140  0.5865248482298145
  0.1883375357700939  0.4717905815208467  0.6792584121198885
  0.3592033873831358  0.4840095523774858  0.5692736482400969
  0.2776978826267982  0.4719135469822449  0.6643583630664673
 
  0.00000000E+00  0.00000000E+00  0.00000000E+00
  0.00000000E+00  0.00000000E+00  0.00000000E+00
  0.00000000E+00  0.00000000E+00  0.00000000E+00
  0.00000000E+00  0.00000000E+00  0.00000000E+00
  0.00000000E+00  0.00000000E+00  0.00000000E+00
  0.00000000E+00  0.00000000E+00  0.00000000E+00
  0.00000000E+00  0.00000000E+00  0.00000000E+00
  0.00000000E+00  0.00000000E+00  0.00000000E+00
  0.00000000E+00  0.00000000E+00  0.00000000E+00
  0.00000000E+00  0.00000000E+00  0.00000000E+00
  0.00000000E+00  0.00000000E+00  0.00000000E+00
  0.00000000E+00  0.00000000E+00  0.00000000E+00
  0.00000000E+00  0.00000000E+00  0.00000000E+00
  0.00000000E+00  0.00000000E+00  0.00000000E+00
  0.00000000E+00  0.00000000E+00  0.00000000E+00
  0.00000000E+00  0.00000000E+00  0.00000000E+00
  0.00000000E+00  0.00000000E+00  0.00000000E+00
  0.00000000E+00  0.00000000E+00  0.00000000E+00
  0.00000000E+00  0.00000000E+00  0.00000000E+00
  0.00000000E+00  0.00000000E+00  0.00000000E+00
  0.00000000E+00  0.00000000E+00  0.00000000E+00
  0.00000000E+00  0.00000000E+00  0.00000000E+00
  0.00000000E+00  0.00000000E+00  0.00000000E+00
  0.00000000E+00  0.00000000E+00  0.00000000E+00
  0.00000000E+00  0.00000000E+00  0.00000000E+00
  0.00000000E+00  0.00000000E+00  0.00000000E+00
  0.00000000E+00  0.00000000E+00  0.00000000E+00
  0.00000000E+00  0.00000000E+00  0.00000000E+00
  0.00000000E+00  0.00000000E+00  0.00000000E+00
  0.00000000E+00  0.00000000E+00  0.00000000E+00
  0.00000000E+00  0.00000000E+00  0.00000000E+00
  0.00000000E+00  0.00000000E+00  0.00000000E+00
  0.00000000E+00  0.00000000E+00  0.00000000E+00
  0.00000000E+00  0.00000000E+00  0.00000000E+00
  0.00000000E+00  0.00000000E+00  0.00000000E+00
  0.00000000E+00  0.00000000E+00  0.00000000E+00
  0.00000000E+00  0.00000000E+00  0.00000000E+00
  0.00000000E+00  0.00000000E+00  0.00000000E+00
  0.00000000E+00  0.00000000E+00  0.00000000E+00
  0.00000000E+00  0.00000000E+00  0.00000000E+00
  0.00000000E+00  0.00000000E+00  0.00000000E+00
  0.00000000E+00  0.00000000E+00  0.00000000E+00
  0.00000000E+00  0.00000000E+00  0.00000000E+00
  0.00000000E+00  0.00000000E+00  0.00000000E+00
  0.00000000E+00  0.00000000E+00  0.00000000E+00
  0.00000000E+00  0.00000000E+00  0.00000000E+00
  0.00000000E+00  0.00000000E+00  0.00000000E+00
  0.00000000E+00  0.00000000E+00  0.00000000E+00
  0.00000000E+00  0.00000000E+00  0.00000000E+00
  0.00000000E+00  0.00000000E+00  0.00000000E+00
  0.00000000E+00  0.00000000E+00  0.00000000E+00
