CONTCAR\(4)                             
   1.00000000000000     
    14.0314998627000005    0.0000000000000000    0.0000000000000000
     0.0000000000000000   12.8740997313999994    0.0000000000000000
     0.0000000000000000    0.0000000000000000   20.5195999146000005
   Ta   Ni   Te   O    H 
    16    32    32     2     1
Direct
  0.9971272274947509  0.2017080695017768  0.4785615069367566
  0.9969630274626837  0.4513478993711928  0.5214142252637259
  0.2469969947096686  0.2018110881919526  0.4782936542700753
  0.2478011769613957  0.4516172140521206  0.5221565260586445
  0.4971803431928095  0.2008347554094314  0.4779489708980620
  0.4982388386464436  0.4497314203488401  0.5221279386448430
  0.7475898586881087  0.2010315658285080  0.4783010244040113
  0.7464227862545698  0.4517298091982553  0.5215786340732151
  0.9970704230762593  0.7011089705321751  0.4785796537633473
  0.9973003341421602  0.9509829216128551  0.5208242718411142
  0.2469063559486884  0.6996288033566742  0.4784458658729136
  0.2464933052980811  0.9523743053609053  0.5196890294396042
  0.4965023606817311  0.7029928991264001  0.4789897201368944
  0.4962955763453181  0.9501908330879871  0.5200537818360473
  0.7463107665400699  0.7007691926506183  0.4793472862317643
  0.7473279656116318  0.9510390130863300  0.5208630253718241
  0.1217801564807672  0.1031756576590226  0.5551847049057557
  0.1220532886668622  0.3533074140318391  0.4444275735694774
  0.1222946626456505  0.2987376930260623  0.5560607923913850
  0.1218008072797687  0.0492218253503580  0.4433623410967726
  0.3723376758211927  0.1029959902619382  0.5548214920137866
  0.3723854046176314  0.3537050374281492  0.4445617931999237
  0.3718700669729387  0.2989845904794777  0.5560743456732453
  0.3718194610533843  0.0496485470078909  0.4427211168776566
  0.6218550471210804  0.1028909384930472  0.5550861286022268
  0.6222210332667188  0.3534305180656219  0.4437801312559841
  0.6232997702749330  0.2980018977691259  0.5550177755311694
  0.6227873855140729  0.0490130823733423  0.4434340111407238
  0.8721316300581421  0.1032084888710330  0.5554175615050809
  0.8710179051991958  0.3538533550282708  0.4443771158868230
  0.8723750032785063  0.2990397980727195  0.5560946029628511
  0.8729354542988546  0.0490995383548736  0.4435204459272697
  0.1231416030581514  0.6025912334277308  0.5557247939155090
  0.1225531185955688  0.8531664662724694  0.4437211865802482
  0.1228776021231539  0.7983272431312045  0.5554763047741176
  0.1214108513477683  0.5487752187623371  0.4440134209305242
  0.3810659185838290  0.6056601974706410  0.5587000923563394
  0.3725273902357316  0.8543242556754080  0.4418266721786992
  0.3661953888441047  0.8001259612632552  0.5528615124660590
  0.3717372657996663  0.5498099744566218  0.4463025406559566
  0.6146792278973336  0.6049898128775126  0.5585262233981965
  0.6224421589600837  0.8536066747685993  0.4436126564468097
  0.6206613761294619  0.7992239103263472  0.5555681289047314
  0.6221485619783422  0.5498623045814526  0.4459343667653854
  0.8706699603136627  0.6031475420513317  0.5557014196902159
  0.8718451330948014  0.8533908240243306  0.4441128378437469
  0.8730815821429090  0.7991023585033759  0.5558835156075190
  0.8730446540195018  0.5492945791706418  0.4439827191550876
  0.1212394267964285  0.4505820445653086  0.6338612784221880
  0.1220139001959026  0.2018216297744857  0.3660298670775646
  0.9968407156627208  0.4504059055007303  0.3769637321057502
  0.9971660618489651  0.2008635133924557  0.6228719715581974
  0.3722932459191952  0.4511598716957081  0.6341678017426915
  0.3719299141615409  0.2025436008374371  0.3658953840755998
  0.2473355992921142  0.4516541376513956  0.3779252920904241
  0.2472003546265356  0.2003114976502616  0.6225599570198597
  0.6224273238755345  0.4487645119063330  0.6342997210446910
  0.6224446470452847  0.2014000695319424  0.3658745119789515
  0.4968573676972383  0.4523235272365440  0.3780219892114047
  0.4973620802608991  0.2010420043045471  0.6218036214250020
  0.8718894680084261  0.4512020163851034  0.6337355230295714
  0.8723107648000266  0.2020125111881299  0.3661836729499299
  0.7466024333409962  0.4526643879290191  0.3772799369662323
  0.7471902340329351  0.2001994790602453  0.6226836308944641
  0.1228647621684260  0.9507590018736352  0.6328786904056471
  0.1216472780724089  0.7007431079225981  0.3660360642522278
  0.9971810839880675  0.9505628303493836  0.3764688467465831
  0.9974599124138734  0.6998889315083190  0.6225235217134468
  0.3729350562680409  0.9502852438325249  0.6323244970864792
  0.3719875556339289  0.6999812390096025  0.3661961942170251
  0.2468787139351676  0.9513821053096763  0.3755523328444994
  0.2483961925606479  0.6985996430387473  0.6225651673615005
  0.6229553816231999  0.9515173269493502  0.6329847992878683
  0.6216916422438601  0.7007211999338665  0.3666166857949662
  0.4979251473006698  0.9522920632610337  0.3758375779702803
  0.4969560727953706  0.7105271302612479  0.6299718532861007
  0.8726913057161738  0.9511550457431923  0.6333343425345248
  0.8711781271264272  0.7013706924304515  0.3665436813914980
  0.7476534067067035  0.9511345992077835  0.3763951768127356
  0.7460448294672233  0.7008624984280942  0.6222538693580759
  0.4734448011998040  0.6179027079720569  0.7656346671019776
  0.5438243453857012  0.6052749139762099  0.7140875737211942
  0.5068964411014392  0.6650078056305091  0.7953816952686878
 
  0.00000000E+00  0.00000000E+00  0.00000000E+00
  0.00000000E+00  0.00000000E+00  0.00000000E+00
  0.00000000E+00  0.00000000E+00  0.00000000E+00
  0.00000000E+00  0.00000000E+00  0.00000000E+00
  0.00000000E+00  0.00000000E+00  0.00000000E+00
  0.00000000E+00  0.00000000E+00  0.00000000E+00
  0.00000000E+00  0.00000000E+00  0.00000000E+00
  0.00000000E+00  0.00000000E+00  0.00000000E+00
  0.00000000E+00  0.00000000E+00  0.00000000E+00
  0.00000000E+00  0.00000000E+00  0.00000000E+00
  0.00000000E+00  0.00000000E+00  0.00000000E+00
  0.00000000E+00  0.00000000E+00  0.00000000E+00
  0.00000000E+00  0.00000000E+00  0.00000000E+00
  0.00000000E+00  0.00000000E+00  0.00000000E+00
  0.00000000E+00  0.00000000E+00  0.00000000E+00
  0.00000000E+00  0.00000000E+00  0.00000000E+00
  0.00000000E+00  0.00000000E+00  0.00000000E+00
  0.00000000E+00  0.00000000E+00  0.00000000E+00
  0.00000000E+00  0.00000000E+00  0.00000000E+00
  0.00000000E+00  0.00000000E+00  0.00000000E+00
  0.00000000E+00  0.00000000E+00  0.00000000E+00
  0.00000000E+00  0.00000000E+00  0.00000000E+00
  0.00000000E+00  0.00000000E+00  0.00000000E+00
  0.00000000E+00  0.00000000E+00  0.00000000E+00
  0.00000000E+00  0.00000000E+00  0.00000000E+00
  0.00000000E+00  0.00000000E+00  0.00000000E+00
  0.00000000E+00  0.00000000E+00  0.00000000E+00
  0.00000000E+00  0.00000000E+00  0.00000000E+00
  0.00000000E+00  0.00000000E+00  0.00000000E+00
  0.00000000E+00  0.00000000E+00  0.00000000E+00
  0.00000000E+00  0.00000000E+00  0.00000000E+00
  0.00000000E+00  0.00000000E+00  0.00000000E+00
  0.00000000E+00  0.00000000E+00  0.00000000E+00
  0.00000000E+00  0.00000000E+00  0.00000000E+00
  0.00000000E+00  0.00000000E+00  0.00000000E+00
  0.00000000E+00  0.00000000E+00  0.00000000E+00
  0.00000000E+00  0.00000000E+00  0.00000000E+00
  0.00000000E+00  0.00000000E+00  0.00000000E+00
  0.00000000E+00  0.00000000E+00  0.00000000E+00
  0.00000000E+00  0.00000000E+00  0.00000000E+00
  0.00000000E+00  0.00000000E+00  0.00000000E+00
  0.00000000E+00  0.00000000E+00  0.00000000E+00
  0.00000000E+00  0.00000000E+00  0.00000000E+00
  0.00000000E+00  0.00000000E+00  0.00000000E+00
  0.00000000E+00  0.00000000E+00  0.00000000E+00
  0.00000000E+00  0.00000000E+00  0.00000000E+00
  0.00000000E+00  0.00000000E+00  0.00000000E+00
  0.00000000E+00  0.00000000E+00  0.00000000E+00
  0.00000000E+00  0.00000000E+00  0.00000000E+00
  0.00000000E+00  0.00000000E+00  0.00000000E+00
  0.00000000E+00  0.00000000E+00  0.00000000E+00
  0.00000000E+00  0.00000000E+00  0.00000000E+00
  0.00000000E+00  0.00000000E+00  0.00000000E+00
  0.00000000E+00  0.00000000E+00  0.00000000E+00
  0.00000000E+00  0.00000000E+00  0.00000000E+00
  0.00000000E+00  0.00000000E+00  0.00000000E+00
  0.00000000E+00  0.00000000E+00  0.00000000E+00
  0.00000000E+00  0.00000000E+00  0.00000000E+00
  0.00000000E+00  0.00000000E+00  0.00000000E+00
  0.00000000E+00  0.00000000E+00  0.00000000E+00
  0.00000000E+00  0.00000000E+00  0.00000000E+00
  0.00000000E+00  0.00000000E+00  0.00000000E+00
  0.00000000E+00  0.00000000E+00  0.00000000E+00
  0.00000000E+00  0.00000000E+00  0.00000000E+00
  0.00000000E+00  0.00000000E+00  0.00000000E+00
  0.00000000E+00  0.00000000E+00  0.00000000E+00
  0.00000000E+00  0.00000000E+00  0.00000000E+00
  0.00000000E+00  0.00000000E+00  0.00000000E+00
  0.00000000E+00  0.00000000E+00  0.00000000E+00
  0.00000000E+00  0.00000000E+00  0.00000000E+00
  0.00000000E+00  0.00000000E+00  0.00000000E+00
  0.00000000E+00  0.00000000E+00  0.00000000E+00
  0.00000000E+00  0.00000000E+00  0.00000000E+00
  0.00000000E+00  0.00000000E+00  0.00000000E+00
  0.00000000E+00  0.00000000E+00  0.00000000E+00
  0.00000000E+00  0.00000000E+00  0.00000000E+00
  0.00000000E+00  0.00000000E+00  0.00000000E+00
  0.00000000E+00  0.00000000E+00  0.00000000E+00
  0.00000000E+00  0.00000000E+00  0.00000000E+00
  0.00000000E+00  0.00000000E+00  0.00000000E+00
  0.00000000E+00  0.00000000E+00  0.00000000E+00
  0.00000000E+00  0.00000000E+00  0.00000000E+00
  0.00000000E+00  0.00000000E+00  0.00000000E+00
