 Nb3 Te6                                
   1.00000000000000     
     3.4307036118412642    0.0000000000000000    0.0000000000000000
     1.7153518059206321    9.6352103732102208    0.0000000000000000
     0.0000000000000000    0.0000000000000000   19.1306883248000013
   Nb   Te
     3     6
Direct
  0.0000019381791068 -0.0000032390040572  0.5000008584190697
  0.3566820259859419  0.2865612066763492  0.4955284671071853
  0.6433178823502816  0.7134412769154693  0.5044720933695943
  0.4451980228764612  0.1097862715473108  0.6053969230755883
  0.5548029057996605  0.8902114627795735  0.3946033323477809
  0.7748415927097140  0.4500966528586073  0.5824184944287936
  0.2251531068791821  0.5499090236176465  0.4175777605917529
  0.1045871447152355  0.7907695812443650  0.6094029662031034
  0.8954153805044162  0.2092277633647349  0.3905991044571320
 
  0.00000000E+00  0.00000000E+00  0.00000000E+00
  0.00000000E+00  0.00000000E+00  0.00000000E+00
  0.00000000E+00  0.00000000E+00  0.00000000E+00
  0.00000000E+00  0.00000000E+00  0.00000000E+00
  0.00000000E+00  0.00000000E+00  0.00000000E+00
  0.00000000E+00  0.00000000E+00  0.00000000E+00
  0.00000000E+00  0.00000000E+00  0.00000000E+00
  0.00000000E+00  0.00000000E+00  0.00000000E+00
  0.00000000E+00  0.00000000E+00  0.00000000E+00
