CONTCAR\(9)                             
   1.00000000000000     
    13.5033998488999991    0.0000000000000000    0.0000000000000000
     0.0000000000000000   19.6100006104000002    0.0000000000000000
     0.0000000000000000    0.0000000000000000   18.7679004668999987
   Nb   Se   O 
    32    48     1
Direct
  0.0623019731762587  0.4352125002085408  0.5004502621314126
  0.1875807998877236  0.0620626854035226  0.5007691716379313
  0.0626567646893819  0.2792531628803609  0.4499809194097125
  0.1877623698872320  0.2182319128701359  0.5520499761564919
  0.3125691743960956  0.4353194913700900  0.5005142614796591
  0.4373321450490711  0.0637067213849125  0.5009411175398352
  0.3126667185442975  0.2794185522378329  0.4501038037424719
  0.4375439455563937  0.2187343340915150  0.5521389740434247
  0.5627090758638117  0.4352480424737076  0.5005078764182934
  0.6871008544834084  0.0619942801464534  0.5006004739861322
  0.5628357802624123  0.2793813248791539  0.4499881398339460
  0.6875273142105438  0.2180711663731437  0.5518628882410508
  0.8127683218840971  0.4352181741790210  0.5004495425162687
  0.9374453809778122  0.0623774576583187  0.5005908903434596
  0.8127242517190678  0.2792070574209728  0.4499068471699945
  0.9375609886630815  0.2179763482720164  0.5518900727907137
  0.0649476450206582  0.9352411788965876  0.5006482424000023
  0.1870003057546158  0.5620589987761289  0.4996042686492629
  0.0625334757999177  0.7794980642903987  0.4486822639385604
  0.1876365340314838  0.7178018255152332  0.5503368640002890
  0.3107396819327193  0.9339612461376697  0.4999435743456074
  0.4375426600563221  0.5620232964795443  0.4996887681785096
  0.3124672115685383  0.7788231632341495  0.4482044748805437
  0.4373884494901073  0.7177883862755958  0.5502462790325298
  0.5638317857210758  0.9338993700700453  0.4999719334843383
  0.6877775231786889  0.5620818284153830  0.4996651949563033
  0.5624500957096171  0.7789633606892490  0.4483692135535098
  0.6873282185427413  0.7178327888313393  0.5503474160156843
  0.8098692902448130  0.9352042268856970  0.5006460610330553
  0.9373824722698273  0.5620724893487374  0.4997832975010808
  0.8124395355760794  0.7794086982688373  0.4485390051685382
  0.9374335921929104  0.7182096164773386  0.5505641251473689
  0.0626245440176074  0.0271915865729275  0.4031581278082658
  0.1873839353281108  0.4707481750780777  0.5978959177570986
  0.0627016212332916  0.1234145085901020  0.5945465655420344
  0.1876117040700694  0.3737469099110729  0.4069580457443707
  0.1878563640092047  0.1827819998280849  0.4193727489829692
  0.0625169570315910  0.3147439579371449  0.5826187113975263
  0.3125667711628699  0.0271610421278249  0.4030301024658171
  0.4377218670952160  0.4705689587912193  0.5979473625086302
  0.3126626930035716  0.1235176085891143  0.5945583879481150
  0.4376439554445467  0.3739168873745968  0.4069774113631215
  0.4378068631537336  0.1831369990416165  0.4191087865518138
  0.3124064143056062  0.3151313176020737  0.5827295376177427
  0.5617765089017908  0.0269726866511652  0.4030312467355880
  0.6877185338745462  0.4707523271944345  0.5979213972325568
  0.5624125418160666  0.1235640854602730  0.5945318816959756
  0.6878088507459182  0.3737447314542946  0.4068759357419278
  0.6876097774511228  0.1827228038591908  0.4191035732227052
  0.5629868579681031  0.3149273895662229  0.5826879031418479
  0.8121188547284640  0.0271436568927744  0.4031225502408022
  0.9376290790565126  0.4707571569147115  0.5980531473280176
  0.8123788792939335  0.1231572833830255  0.5943639496462897
  0.9375854965945534  0.3736938788779920  0.4068422579008528
  0.9377863527598309  0.1827187729039545  0.4192036529112471
  0.8126719802276858  0.3146695697733153  0.5826012458857812
  0.0620926440908220  0.5264801973833410  0.4021276574943228
  0.1885169761467566  0.9701996001266856  0.5989577765246579
  0.0623845040081387  0.6235456130647372  0.5933349973891993
  0.1875085909748309  0.8738693622548345  0.4054743197638555
  0.1870708525144443  0.6825861907050144  0.4176303282547244
  0.0629139111816282  0.8143728215342656  0.5814970084771024
  0.3122583994634569  0.5267548707791612  0.4022779053808861
  0.4372249110482101  0.9701871515397544  0.5938050310714553
  0.3124415620614992  0.6232123350423177  0.5932693843132765
  0.4373071410629789  0.8736400791819253  0.4059122049096747
  0.4376592192165893  0.6822695801476513  0.4176237301849972
  0.3126232864988947  0.8142708528346860  0.5810325544903003
  0.5625128563079904  0.5266093501453699  0.4022787192280882
  0.6860580073310454  0.9701379725355557  0.5988435137968090
  0.5624444955981629  0.6233401846403668  0.5933052379805617
  0.6873036714197461  0.8738642946212434  0.4055205980784282
  0.6876381331454314  0.6826373942428805  0.4176387880968904
  0.5622744842353051  0.8141506897312361  0.5814087346517767
  0.8124946393839980  0.5265711060161853  0.4021353705648943
  0.9374157310163437  0.9696130726170121  0.5971076701822688
  0.8125617902830667  0.6234889180978482  0.5933524594070256
  0.9374228022989824  0.8743406447549760  0.4069067051545544
  0.9376424019833279  0.6828574312758193  0.4179772350829630
  0.8120191544545214  0.8145075735596023  0.5812097400230977
  0.4371883266590867  0.9690861473507222  0.6834666104010581
 
  0.00000000E+00  0.00000000E+00  0.00000000E+00
  0.00000000E+00  0.00000000E+00  0.00000000E+00
  0.00000000E+00  0.00000000E+00  0.00000000E+00
  0.00000000E+00  0.00000000E+00  0.00000000E+00
  0.00000000E+00  0.00000000E+00  0.00000000E+00
  0.00000000E+00  0.00000000E+00  0.00000000E+00
  0.00000000E+00  0.00000000E+00  0.00000000E+00
  0.00000000E+00  0.00000000E+00  0.00000000E+00
  0.00000000E+00  0.00000000E+00  0.00000000E+00
  0.00000000E+00  0.00000000E+00  0.00000000E+00
  0.00000000E+00  0.00000000E+00  0.00000000E+00
  0.00000000E+00  0.00000000E+00  0.00000000E+00
  0.00000000E+00  0.00000000E+00  0.00000000E+00
  0.00000000E+00  0.00000000E+00  0.00000000E+00
  0.00000000E+00  0.00000000E+00  0.00000000E+00
  0.00000000E+00  0.00000000E+00  0.00000000E+00
  0.00000000E+00  0.00000000E+00  0.00000000E+00
  0.00000000E+00  0.00000000E+00  0.00000000E+00
  0.00000000E+00  0.00000000E+00  0.00000000E+00
  0.00000000E+00  0.00000000E+00  0.00000000E+00
  0.00000000E+00  0.00000000E+00  0.00000000E+00
  0.00000000E+00  0.00000000E+00  0.00000000E+00
  0.00000000E+00  0.00000000E+00  0.00000000E+00
  0.00000000E+00  0.00000000E+00  0.00000000E+00
  0.00000000E+00  0.00000000E+00  0.00000000E+00
  0.00000000E+00  0.00000000E+00  0.00000000E+00
  0.00000000E+00  0.00000000E+00  0.00000000E+00
  0.00000000E+00  0.00000000E+00  0.00000000E+00
  0.00000000E+00  0.00000000E+00  0.00000000E+00
  0.00000000E+00  0.00000000E+00  0.00000000E+00
  0.00000000E+00  0.00000000E+00  0.00000000E+00
  0.00000000E+00  0.00000000E+00  0.00000000E+00
  0.00000000E+00  0.00000000E+00  0.00000000E+00
  0.00000000E+00  0.00000000E+00  0.00000000E+00
  0.00000000E+00  0.00000000E+00  0.00000000E+00
  0.00000000E+00  0.00000000E+00  0.00000000E+00
  0.00000000E+00  0.00000000E+00  0.00000000E+00
  0.00000000E+00  0.00000000E+00  0.00000000E+00
  0.00000000E+00  0.00000000E+00  0.00000000E+00
  0.00000000E+00  0.00000000E+00  0.00000000E+00
  0.00000000E+00  0.00000000E+00  0.00000000E+00
  0.00000000E+00  0.00000000E+00  0.00000000E+00
  0.00000000E+00  0.00000000E+00  0.00000000E+00
  0.00000000E+00  0.00000000E+00  0.00000000E+00
  0.00000000E+00  0.00000000E+00  0.00000000E+00
  0.00000000E+00  0.00000000E+00  0.00000000E+00
  0.00000000E+00  0.00000000E+00  0.00000000E+00
  0.00000000E+00  0.00000000E+00  0.00000000E+00
  0.00000000E+00  0.00000000E+00  0.00000000E+00
  0.00000000E+00  0.00000000E+00  0.00000000E+00
  0.00000000E+00  0.00000000E+00  0.00000000E+00
  0.00000000E+00  0.00000000E+00  0.00000000E+00
  0.00000000E+00  0.00000000E+00  0.00000000E+00
  0.00000000E+00  0.00000000E+00  0.00000000E+00
  0.00000000E+00  0.00000000E+00  0.00000000E+00
  0.00000000E+00  0.00000000E+00  0.00000000E+00
  0.00000000E+00  0.00000000E+00  0.00000000E+00
  0.00000000E+00  0.00000000E+00  0.00000000E+00
  0.00000000E+00  0.00000000E+00  0.00000000E+00
  0.00000000E+00  0.00000000E+00  0.00000000E+00
  0.00000000E+00  0.00000000E+00  0.00000000E+00
  0.00000000E+00  0.00000000E+00  0.00000000E+00
  0.00000000E+00  0.00000000E+00  0.00000000E+00
  0.00000000E+00  0.00000000E+00  0.00000000E+00
  0.00000000E+00  0.00000000E+00  0.00000000E+00
  0.00000000E+00  0.00000000E+00  0.00000000E+00
  0.00000000E+00  0.00000000E+00  0.00000000E+00
  0.00000000E+00  0.00000000E+00  0.00000000E+00
  0.00000000E+00  0.00000000E+00  0.00000000E+00
  0.00000000E+00  0.00000000E+00  0.00000000E+00
  0.00000000E+00  0.00000000E+00  0.00000000E+00
  0.00000000E+00  0.00000000E+00  0.00000000E+00
  0.00000000E+00  0.00000000E+00  0.00000000E+00
  0.00000000E+00  0.00000000E+00  0.00000000E+00
  0.00000000E+00  0.00000000E+00  0.00000000E+00
  0.00000000E+00  0.00000000E+00  0.00000000E+00
  0.00000000E+00  0.00000000E+00  0.00000000E+00
  0.00000000E+00  0.00000000E+00  0.00000000E+00
  0.00000000E+00  0.00000000E+00  0.00000000E+00
  0.00000000E+00  0.00000000E+00  0.00000000E+00
  0.00000000E+00  0.00000000E+00  0.00000000E+00
