CONTCAR\(12)                            
   1.00000000000000     
    10.9576997757000001    0.0000000000000000    0.0000000000000000
     0.0000000000000000   18.6480007171999986    0.0000000000000000
     0.0000000000000000    0.0000000000000000   19.2721004485999998
   Ta   Te   Pd   O 
    12    30    18     1
Direct
  0.9982122303289986  0.9139396226484358  0.4937872902581693
  0.1673386520644009  0.4140191457442184  0.5027486043176056
  0.0015217558378531  0.1659731014338558  0.4989251475411693
  0.1643553204116084  0.6665265716482093  0.5014499289083378
  0.3333300119999976  0.9144924253263896  0.4974952460981036
  0.4993313469355989  0.4140191457442184  0.5027486043176056
  0.3333300119999976  0.1659461903029165  0.4999491367796883
  0.5023146785883911  0.6665265716482093  0.5014499289083378
  0.6684578016710003  0.9139396226484358  0.4937872902581693
  0.8333300119999976  0.4135011682997156  0.5016726026541677
  0.6651482761621457  0.1659731014338558  0.4989251475411693
  0.8333300119999976  0.6657360955975307  0.5016440809341024
  0.9991528057962743  0.7163910493242016  0.6051884550776424
  0.1666023201772288  0.8604468440194248  0.3932783029377287
  0.1676369434343346  0.2162126994007621  0.3954143540984617
 -0.0000401769959944  0.3620541453958941  0.6057278557520011
  0.9996683818051293  0.6425390544665044  0.3890804988419204
  0.1663999646491729  0.1431081772271924  0.6114829071190195
  0.1666528475450481  0.5407366369531968  0.5842634776916541
  0.0046423445704576  0.0415199427612110  0.4155477524803318
  0.0004529882129703  0.4354119055810717  0.3900521635253831
  0.1837130278961728  0.9358023200579129  0.6165574338762172
  0.3333300119999976  0.7197402883711298  0.6027264555526303
  0.5000676788227707  0.8604468440194248  0.3932783029377287
  0.4990330555656652  0.2162126994007621  0.3954143540984617
  0.3333300119999976  0.3638205343039840  0.6069086691934052
  0.3333300119999976  0.6444865002689980  0.3899938116311184
  0.5002700343508270  0.1431081772271924  0.6114829071190195
  0.5000171514549515  0.5407366369531968  0.5842634776916541
  0.3333300119999976  0.0401408786005926  0.4180127729200303
  0.3333300119999976  0.4362146798789774  0.3906339055140374
  0.4829569711038270  0.9358023200579129  0.6165574338762172
  0.6675172262037247  0.7163910493242016  0.6051884550776424
  0.8333300119999976  0.8658186552011385  0.3913119356186869
  0.8333300119999976  0.2186364319150303  0.3958494194322444
  0.6667102089959934  0.3620541453958941  0.6057278557520011
  0.6670016501948697  0.6425390544665044  0.3890804988419204
  0.8333300119999976  0.1429777218295556  0.6096338138902875
  0.8333300119999976  0.5389501755747957  0.5838558043084763
  0.6620276874295414  0.0415199427612110  0.4155477524803318
  0.6662170437870287  0.4354119055810717  0.3900521635253831
  0.8333300119999976  0.9364098935242627  0.6078831240852733
  0.0024224732262258  0.3081491796585034  0.4528306065841465
  0.9973626505732559  0.7708439797653549  0.4503347121032307
  0.1680945332405333  0.2713154123522274  0.5496318568015466
  0.1612535015116348  0.8116102620484956  0.5488121328524392
  0.0004197482753793  0.5394388996246969  0.4829020364883481
  0.1641854315265815  0.0361878391155004  0.5204187614431289
  0.3333300119999976  0.3081455352408734  0.4527863651165873
  0.3333300119999976  0.7715328314312614  0.4545712036546524
  0.4985754657594665  0.2713154123522274  0.5496318568015466
  0.5054164974883650  0.8116102620484956  0.5488121328524392
  0.3333300119999976  0.5410685188315161  0.4832236839236609
  0.5024845674734183  0.0361878391155004  0.5204187614431289
  0.6642475587737732  0.3081491796585034  0.4528306065841465
  0.6693073814267431  0.7708439797653549  0.4503347121032307
  0.8333300119999976  0.2712178599219012  0.5480086372184541
  0.8333300119999976  0.8090150062003950  0.5464955281553043
  0.6662502837246199  0.5394388996246969  0.4829020364883481
  0.8333300119999976  0.0401844901126334  0.5146798611973326
  0.3333300119999976  0.9496008878126783  0.6799252947248068
 
  0.00000000E+00  0.00000000E+00  0.00000000E+00
  0.00000000E+00  0.00000000E+00  0.00000000E+00
  0.00000000E+00  0.00000000E+00  0.00000000E+00
  0.00000000E+00  0.00000000E+00  0.00000000E+00
  0.00000000E+00  0.00000000E+00  0.00000000E+00
  0.00000000E+00  0.00000000E+00  0.00000000E+00
  0.00000000E+00  0.00000000E+00  0.00000000E+00
  0.00000000E+00  0.00000000E+00  0.00000000E+00
  0.00000000E+00  0.00000000E+00  0.00000000E+00
  0.00000000E+00  0.00000000E+00  0.00000000E+00
  0.00000000E+00  0.00000000E+00  0.00000000E+00
  0.00000000E+00  0.00000000E+00  0.00000000E+00
  0.00000000E+00  0.00000000E+00  0.00000000E+00
  0.00000000E+00  0.00000000E+00  0.00000000E+00
  0.00000000E+00  0.00000000E+00  0.00000000E+00
  0.00000000E+00  0.00000000E+00  0.00000000E+00
  0.00000000E+00  0.00000000E+00  0.00000000E+00
  0.00000000E+00  0.00000000E+00  0.00000000E+00
  0.00000000E+00  0.00000000E+00  0.00000000E+00
  0.00000000E+00  0.00000000E+00  0.00000000E+00
  0.00000000E+00  0.00000000E+00  0.00000000E+00
  0.00000000E+00  0.00000000E+00  0.00000000E+00
  0.00000000E+00  0.00000000E+00  0.00000000E+00
  0.00000000E+00  0.00000000E+00  0.00000000E+00
  0.00000000E+00  0.00000000E+00  0.00000000E+00
  0.00000000E+00  0.00000000E+00  0.00000000E+00
  0.00000000E+00  0.00000000E+00  0.00000000E+00
  0.00000000E+00  0.00000000E+00  0.00000000E+00
  0.00000000E+00  0.00000000E+00  0.00000000E+00
  0.00000000E+00  0.00000000E+00  0.00000000E+00
  0.00000000E+00  0.00000000E+00  0.00000000E+00
  0.00000000E+00  0.00000000E+00  0.00000000E+00
  0.00000000E+00  0.00000000E+00  0.00000000E+00
  0.00000000E+00  0.00000000E+00  0.00000000E+00
  0.00000000E+00  0.00000000E+00  0.00000000E+00
  0.00000000E+00  0.00000000E+00  0.00000000E+00
  0.00000000E+00  0.00000000E+00  0.00000000E+00
  0.00000000E+00  0.00000000E+00  0.00000000E+00
  0.00000000E+00  0.00000000E+00  0.00000000E+00
  0.00000000E+00  0.00000000E+00  0.00000000E+00
  0.00000000E+00  0.00000000E+00  0.00000000E+00
  0.00000000E+00  0.00000000E+00  0.00000000E+00
  0.00000000E+00  0.00000000E+00  0.00000000E+00
  0.00000000E+00  0.00000000E+00  0.00000000E+00
  0.00000000E+00  0.00000000E+00  0.00000000E+00
  0.00000000E+00  0.00000000E+00  0.00000000E+00
  0.00000000E+00  0.00000000E+00  0.00000000E+00
  0.00000000E+00  0.00000000E+00  0.00000000E+00
  0.00000000E+00  0.00000000E+00  0.00000000E+00
  0.00000000E+00  0.00000000E+00  0.00000000E+00
  0.00000000E+00  0.00000000E+00  0.00000000E+00
  0.00000000E+00  0.00000000E+00  0.00000000E+00
  0.00000000E+00  0.00000000E+00  0.00000000E+00
  0.00000000E+00  0.00000000E+00  0.00000000E+00
  0.00000000E+00  0.00000000E+00  0.00000000E+00
  0.00000000E+00  0.00000000E+00  0.00000000E+00
  0.00000000E+00  0.00000000E+00  0.00000000E+00
  0.00000000E+00  0.00000000E+00  0.00000000E+00
  0.00000000E+00  0.00000000E+00  0.00000000E+00
  0.00000000E+00  0.00000000E+00  0.00000000E+00
  0.00000000E+00  0.00000000E+00  0.00000000E+00
