CONTCAR\(6)                             
   1.00000000000000     
    11.7135000228999999    0.0000000000000000    0.0000000000000000
     0.0000000000000000   10.5269002914000005    0.0000000000000000
     0.0000000000000000    0.0000000000000000   20.5844001769999991
   Mn   Sb   Se   I    O 
     6     6    12     6     1
Direct
  0.3446581728304317 -0.0046541065948337  0.4983797771830975
 -0.0061588307755051  0.5062266161626986  0.5011923508641526
  0.6452201150723410  0.9875415867654821  0.5021502601631840
  0.3281589395032470  0.4919019692827044  0.5015442238390255
 -0.0043705057984690  0.9827594220614311  0.5118898796092883
  0.6619507369681434  0.5071879669837953  0.4992586122097536
  0.1576824602417689  0.2841270530578567  0.6186554706882669
  0.2000670301602488  0.6784843951920496  0.3728147726246286
  0.4999102786642035  0.3045644983198392  0.6220412013166083
  0.4546024657853459  0.6758557288768750  0.3719303521012746
  0.8264032873582141  0.2836245224663253  0.6162509900459021
  0.8300116154788839  0.7237336621058897  0.3964268013460307
 -0.0052641916196849  0.2365807556548073  0.5308421947983155
  0.1610179509102845  0.4541038584680119  0.4177583714895570
 -0.0031691017467903  0.7484640663308570  0.4783482371375098
  0.1586866042612177  0.5229930921647876  0.5888397016953810
  0.3334009761448908  0.2395445665220562  0.5384693477992608
  0.4929505758574179  0.4507042684077796  0.4163100885083893
  0.3291507751294729  0.7483332466097409  0.4729615898326001
  0.4966794470666924  0.5383746688299759  0.5869220506146096
  0.6555634765692655  0.2424254426320771  0.5318695532797104
  0.8294888045139291  0.4742454360444602  0.4168057168023190
  0.6570224867649154  0.7489786683248405  0.4742733666103666
  0.8286044181245937  0.5245992966300832  0.5871722026873391
  0.1727072632049429  0.9378101839853743  0.6018466050788502
  0.1623574744822658  0.0608605599890658  0.4163887770805925
  0.4940177427596878  0.9496601699824837  0.6492520394025794
  0.4942738410722754  0.0596590398504540  0.3981564530627847
  0.8193209750791348  0.9526963779015848  0.6052069833189517
  0.8257090961774679  0.0527152335262619  0.4147526131101780
  0.4926155997591421  0.9684975744651728  0.5506293986994854
 
  0.00000000E+00  0.00000000E+00  0.00000000E+00
  0.00000000E+00  0.00000000E+00  0.00000000E+00
  0.00000000E+00  0.00000000E+00  0.00000000E+00
  0.00000000E+00  0.00000000E+00  0.00000000E+00
  0.00000000E+00  0.00000000E+00  0.00000000E+00
  0.00000000E+00  0.00000000E+00  0.00000000E+00
  0.00000000E+00  0.00000000E+00  0.00000000E+00
  0.00000000E+00  0.00000000E+00  0.00000000E+00
  0.00000000E+00  0.00000000E+00  0.00000000E+00
  0.00000000E+00  0.00000000E+00  0.00000000E+00
  0.00000000E+00  0.00000000E+00  0.00000000E+00
  0.00000000E+00  0.00000000E+00  0.00000000E+00
  0.00000000E+00  0.00000000E+00  0.00000000E+00
  0.00000000E+00  0.00000000E+00  0.00000000E+00
  0.00000000E+00  0.00000000E+00  0.00000000E+00
  0.00000000E+00  0.00000000E+00  0.00000000E+00
  0.00000000E+00  0.00000000E+00  0.00000000E+00
  0.00000000E+00  0.00000000E+00  0.00000000E+00
  0.00000000E+00  0.00000000E+00  0.00000000E+00
  0.00000000E+00  0.00000000E+00  0.00000000E+00
  0.00000000E+00  0.00000000E+00  0.00000000E+00
  0.00000000E+00  0.00000000E+00  0.00000000E+00
  0.00000000E+00  0.00000000E+00  0.00000000E+00
  0.00000000E+00  0.00000000E+00  0.00000000E+00
  0.00000000E+00  0.00000000E+00  0.00000000E+00
  0.00000000E+00  0.00000000E+00  0.00000000E+00
  0.00000000E+00  0.00000000E+00  0.00000000E+00
  0.00000000E+00  0.00000000E+00  0.00000000E+00
  0.00000000E+00  0.00000000E+00  0.00000000E+00
  0.00000000E+00  0.00000000E+00  0.00000000E+00
  0.00000000E+00  0.00000000E+00  0.00000000E+00
