CONTCAR\(5)                             
   1.00000000000000     
    12.9137001038000001    0.0000000000000000    0.0000000000000000
     0.0000000000000000   12.9135999679999998    0.0000000000000000
     0.0000000000000000    0.0000000000000000   24.0200996398999997
   Er   Te   O    H 
    18    54     2     1
Direct
  0.1630247511451088  0.0029499949598915  0.5859378192278726
  0.9986923060955633  0.1694854833107726  0.4162372223507873
  0.4976556939989578  0.0027625117822438  0.5851009459274650
  0.3313039044057362  0.1686845065667555  0.4154124764593803
  0.8324817937589373  0.0029808702760690  0.5857106028103232
  0.6656982354975653  0.1684202840214297  0.4151346184838758
  0.1641137353941673  0.3363512468387171  0.5864463916927107
  0.9986851945083259  0.5025203337105424  0.4164959476228702
  0.4993245913805922  0.3262119068681457  0.5815776026274477
  0.3327681948843306  0.5025444417906613  0.4159304491154217
  0.8318518217164765  0.3366208117889258  0.5857936625095164
  0.6652192420251239  0.5025744936124639  0.4155991619565285
  0.1634990451415277  0.6690596955825043  0.5862658154168656
  0.9986537952708687  0.8356702226080088  0.4163224964529917
  0.4995791607267748  0.6788794499696422  0.5819827103005366
  0.3314103467414782  0.8364341264506479  0.4155200807312482
  0.8318032488911911  0.6690359906240673  0.5859971379017495
  0.6658374975501786  0.8365187384212049  0.4151948192439860
  0.9989894320677664  0.0021442788684283  0.3131122948504128
  0.1646651990132000  0.1698075244646517  0.6891970422698179
  0.9954401520492766  0.0037360160941873  0.6892847743689643
  0.1648667636782548  0.1693049985855239  0.3133748579748925
  0.1643985339923617  0.0027206674809293  0.4546570487458297
  0.9982723160095048  0.1702030794783269  0.5473367350855582
  0.3319535278027104  0.0029415472358778  0.3126292917343036
  0.4982840821252879  0.1693202229364488  0.6873759285605630
  0.3294731670687057  0.0032623864139794  0.6886089318524853
  0.4987559328519566  0.1692814816709571  0.3125079322011572
  0.4983809052271511  0.0023220440353953  0.4541273222891675
  0.3298832260410123  0.1680309634478689  0.5465889587765176
  0.6656199164755492  0.0025220362164760  0.3123537518645705
  0.8308189192165969  0.1704358869409432  0.6888972923806591
  0.6641058561582156  0.0033363963617745  0.6884225848307750
  0.8323892841747238  0.1690029260428432  0.3132387583086569
  0.8328376834035041  0.0026529256580616  0.4544248464897578
  0.6665925218683881  0.1672595517432001  0.5462205695571072
  0.9985615268880963  0.3362630521833196  0.3137901897649371
  0.1631490509452718  0.5027562763670019  0.6894102920064640
  0.9975742892909238  0.3363825255149351  0.6893933259997880
  0.1657507169159587  0.5025173726737862  0.3135931085137571
  0.1663851957128273  0.3371998029390610  0.4552798097861341
  0.9981373215359284  0.5025901414809653  0.5476334044488738
  0.3319682488765210  0.3358024608636399  0.3128827125058180
  0.4933355939603814  0.5036590546779323  0.6779241180923279
  0.3313046029661848  0.3358241262672124  0.6892838712363698
  0.4989380149633007  0.5021526423511062  0.3129729835080965
  0.4986074676985979  0.3345622140312585  0.4528785911653657
  0.3346713717979029  0.5025714774160761  0.5489235612666548
  0.6658343142712226  0.3358372772620157  0.3126685807311418
  0.8288442597202206  0.5028655852025992  0.6888463806439660
  0.6635139586833319  0.3369227335360208  0.6874659156647667
  0.8321620832837553  0.5029049712144626  0.3133868235107755
  0.8310410528811829  0.3364486437352809  0.4547607533726321
  0.6628049034710060  0.5028586419562018  0.5475859111476780
  0.9989300697610020  0.6690497913490603  0.3139557987828141
  0.1633407635447952  0.8377353454676495  0.6893541228686004
  0.9975650908568596  0.6693812363349849  0.6892007881504014
  0.1654400799860554  0.8357031610275527  0.3135447613420226
  0.1664276640980660  0.6679275001745779  0.4553182884614770
  0.9981298292418685  0.8355458181247926  0.5473924916784441
  0.3321426863544161  0.6689264759464137  0.3131744801179295
  0.4984581483070869  0.8370192750420742  0.6873563912834726
  0.3300170150359349  0.6717904159935131  0.6879144189338362
  0.4982773989626708  0.8361778445433572  0.3125679928552216
  0.4988704049671995  0.6705742647631752  0.4530932756802315
  0.3298897016562350  0.8373219569206540  0.5466715980595822
  0.6650755300522917  0.6692953216875495  0.3127304675292990
  0.8316882927500586  0.8369262118299616  0.6890491666754670
  0.6645322563985872  0.6698164439662904  0.6879211533730540
  0.8322473798367298  0.8357576627017380  0.3131783538200992
  0.8312095689418868  0.6685324246035478  0.4549541047262196
  0.6667634912512455  0.8380284213455056  0.5463733879293926
  0.4201446093116132  0.5010277198965838  0.7990991491542303
  0.5128577076585259  0.5180898729426247  0.7678553417742719
  0.3890185908071970  0.5707535168070024  0.7997163364655577
 
  0.00000000E+00  0.00000000E+00  0.00000000E+00
  0.00000000E+00  0.00000000E+00  0.00000000E+00
  0.00000000E+00  0.00000000E+00  0.00000000E+00
  0.00000000E+00  0.00000000E+00  0.00000000E+00
  0.00000000E+00  0.00000000E+00  0.00000000E+00
  0.00000000E+00  0.00000000E+00  0.00000000E+00
  0.00000000E+00  0.00000000E+00  0.00000000E+00
  0.00000000E+00  0.00000000E+00  0.00000000E+00
  0.00000000E+00  0.00000000E+00  0.00000000E+00
  0.00000000E+00  0.00000000E+00  0.00000000E+00
  0.00000000E+00  0.00000000E+00  0.00000000E+00
  0.00000000E+00  0.00000000E+00  0.00000000E+00
  0.00000000E+00  0.00000000E+00  0.00000000E+00
  0.00000000E+00  0.00000000E+00  0.00000000E+00
  0.00000000E+00  0.00000000E+00  0.00000000E+00
  0.00000000E+00  0.00000000E+00  0.00000000E+00
  0.00000000E+00  0.00000000E+00  0.00000000E+00
  0.00000000E+00  0.00000000E+00  0.00000000E+00
  0.00000000E+00  0.00000000E+00  0.00000000E+00
  0.00000000E+00  0.00000000E+00  0.00000000E+00
  0.00000000E+00  0.00000000E+00  0.00000000E+00
  0.00000000E+00  0.00000000E+00  0.00000000E+00
  0.00000000E+00  0.00000000E+00  0.00000000E+00
  0.00000000E+00  0.00000000E+00  0.00000000E+00
  0.00000000E+00  0.00000000E+00  0.00000000E+00
  0.00000000E+00  0.00000000E+00  0.00000000E+00
  0.00000000E+00  0.00000000E+00  0.00000000E+00
  0.00000000E+00  0.00000000E+00  0.00000000E+00
  0.00000000E+00  0.00000000E+00  0.00000000E+00
  0.00000000E+00  0.00000000E+00  0.00000000E+00
  0.00000000E+00  0.00000000E+00  0.00000000E+00
  0.00000000E+00  0.00000000E+00  0.00000000E+00
  0.00000000E+00  0.00000000E+00  0.00000000E+00
  0.00000000E+00  0.00000000E+00  0.00000000E+00
  0.00000000E+00  0.00000000E+00  0.00000000E+00
  0.00000000E+00  0.00000000E+00  0.00000000E+00
  0.00000000E+00  0.00000000E+00  0.00000000E+00
  0.00000000E+00  0.00000000E+00  0.00000000E+00
  0.00000000E+00  0.00000000E+00  0.00000000E+00
  0.00000000E+00  0.00000000E+00  0.00000000E+00
  0.00000000E+00  0.00000000E+00  0.00000000E+00
  0.00000000E+00  0.00000000E+00  0.00000000E+00
  0.00000000E+00  0.00000000E+00  0.00000000E+00
  0.00000000E+00  0.00000000E+00  0.00000000E+00
  0.00000000E+00  0.00000000E+00  0.00000000E+00
  0.00000000E+00  0.00000000E+00  0.00000000E+00
  0.00000000E+00  0.00000000E+00  0.00000000E+00
  0.00000000E+00  0.00000000E+00  0.00000000E+00
  0.00000000E+00  0.00000000E+00  0.00000000E+00
  0.00000000E+00  0.00000000E+00  0.00000000E+00
  0.00000000E+00  0.00000000E+00  0.00000000E+00
  0.00000000E+00  0.00000000E+00  0.00000000E+00
  0.00000000E+00  0.00000000E+00  0.00000000E+00
  0.00000000E+00  0.00000000E+00  0.00000000E+00
  0.00000000E+00  0.00000000E+00  0.00000000E+00
  0.00000000E+00  0.00000000E+00  0.00000000E+00
  0.00000000E+00  0.00000000E+00  0.00000000E+00
  0.00000000E+00  0.00000000E+00  0.00000000E+00
  0.00000000E+00  0.00000000E+00  0.00000000E+00
  0.00000000E+00  0.00000000E+00  0.00000000E+00
  0.00000000E+00  0.00000000E+00  0.00000000E+00
  0.00000000E+00  0.00000000E+00  0.00000000E+00
  0.00000000E+00  0.00000000E+00  0.00000000E+00
  0.00000000E+00  0.00000000E+00  0.00000000E+00
  0.00000000E+00  0.00000000E+00  0.00000000E+00
  0.00000000E+00  0.00000000E+00  0.00000000E+00
  0.00000000E+00  0.00000000E+00  0.00000000E+00
  0.00000000E+00  0.00000000E+00  0.00000000E+00
  0.00000000E+00  0.00000000E+00  0.00000000E+00
  0.00000000E+00  0.00000000E+00  0.00000000E+00
  0.00000000E+00  0.00000000E+00  0.00000000E+00
  0.00000000E+00  0.00000000E+00  0.00000000E+00
  0.00000000E+00  0.00000000E+00  0.00000000E+00
  0.00000000E+00  0.00000000E+00  0.00000000E+00
  0.00000000E+00  0.00000000E+00  0.00000000E+00
