 Nb6 Se18                               
   1.00000000000000     
     3.4757159874547554    0.0000000000000000    0.0000000000000000
     0.0000000000000000   15.5414090757508632    0.0000000000000000
     0.0000000000000000    0.0000000000000000   22.9931465255982417
   Nb   Se
     6    18
Direct
  0.2499999065539617  0.4928234789872969  0.4143468990446892
  0.7500000598200631  0.5057256121951847  0.5856512310493808
  0.2500000172313103  0.2463396176552418  0.5717683129190655
  0.7499999871335795  0.7522415852409784  0.4282336390162254
  0.2500000366265532  0.9150159083502207  0.5655953327742164
  0.7499999945933937  0.0835646644474517  0.4343876261964177
  0.2500000548397986  0.6316716629640748  0.6071291454575005
  0.7499999147343211  0.3668329453241796  0.3929317931931274
  0.2500000370906099  0.4172513574426884  0.5226796201264564
  0.7499999327576220  0.5814065888195006  0.4772846952059707
  0.2500000721695192  0.5114264560433363  0.6733877151028156
  0.7499998959494927  0.4870526793990164  0.3266207748486717
  0.7500000237493353  0.9189184394534379  0.4780883928255712
  0.2500000015014281  0.0796786395875228  0.5218788095220526
  0.7500000320920222  0.9891255417670189  0.6378724681471337
  0.2499999973115557  0.0095027417624978  0.3620826139508668
  0.7500000381619248  0.8265574419226159  0.6287584346724953
  0.2499999870877076  0.1719939844403805  0.3712150343382584
  0.7500000112518963  0.1601382614363214  0.6357521875425874
  0.2500000044236961  0.8384483642426432  0.3643117334377545
  0.7500000259796354  0.3437271025377161  0.6307000040293413
  0.2499999628621036  0.6548688791085785  0.3693407965242603
  0.7500000104096121  0.2430910210580806  0.4847898944433084
  0.2499999956688586  0.7554518292381929  0.5151928456318353
 
  0.00000000E+00  0.00000000E+00  0.00000000E+00
  0.00000000E+00  0.00000000E+00  0.00000000E+00
  0.00000000E+00  0.00000000E+00  0.00000000E+00
  0.00000000E+00  0.00000000E+00  0.00000000E+00
  0.00000000E+00  0.00000000E+00  0.00000000E+00
  0.00000000E+00  0.00000000E+00  0.00000000E+00
  0.00000000E+00  0.00000000E+00  0.00000000E+00
  0.00000000E+00  0.00000000E+00  0.00000000E+00
  0.00000000E+00  0.00000000E+00  0.00000000E+00
  0.00000000E+00  0.00000000E+00  0.00000000E+00
  0.00000000E+00  0.00000000E+00  0.00000000E+00
  0.00000000E+00  0.00000000E+00  0.00000000E+00
  0.00000000E+00  0.00000000E+00  0.00000000E+00
  0.00000000E+00  0.00000000E+00  0.00000000E+00
  0.00000000E+00  0.00000000E+00  0.00000000E+00
  0.00000000E+00  0.00000000E+00  0.00000000E+00
  0.00000000E+00  0.00000000E+00  0.00000000E+00
  0.00000000E+00  0.00000000E+00  0.00000000E+00
  0.00000000E+00  0.00000000E+00  0.00000000E+00
  0.00000000E+00  0.00000000E+00  0.00000000E+00
  0.00000000E+00  0.00000000E+00  0.00000000E+00
  0.00000000E+00  0.00000000E+00  0.00000000E+00
  0.00000000E+00  0.00000000E+00  0.00000000E+00
  0.00000000E+00  0.00000000E+00  0.00000000E+00
