CONTCAR\(4)                             
   1.00000000000000     
    11.8118000031000001    0.0000000000000000    0.0000000000000000
     0.0000000000000000   12.8071002959999998    0.0000000000000000
     0.0000000000000000    0.0000000000000000   20.7511997223000009
   Cu   Sb   Se   O    H 
    12    12    24     1     1
Direct
  0.1602921392693169  0.3663188470032461  0.4397719979446140
  0.1657387912325912  0.1243861916210793  0.5567040737193872
  0.5000000000000000  0.3672276218861582  0.4476267047061569
  0.5000000000000000  0.1214217577144905  0.5590072161714188
  0.8397078507306894  0.3663188470032461  0.4397719979446140
  0.8342611987674150  0.1243861916210793  0.5567040737193872
  0.1679043195248076  0.8694294177372239  0.4425508868185185
  0.1656957758609217  0.6161267710040913  0.5583665884943180
  0.5000000000000000  0.8692616571438039  0.4427352650208115
  0.5000000000000000  0.6191973502916602  0.5628564840617604
  0.8320956704751982  0.8694294177372239  0.4425508868185185
  0.8343042141390845  0.6161267710040913  0.5583665884943180
  0.0000000000000000  0.3630783145359774  0.6267171187282284
  0.0000000000000000  0.1165170132652353  0.3664083880065370
  0.3402458117183951  0.3738176461482249  0.6421984214008124
  0.3342449430368653  0.1207036967875333  0.3689672974700864
  0.6597542282816083  0.3738176461482249  0.6421984214008124
  0.6657550969631382  0.1207036967875333  0.3689672974700864
  0.0000000000000000  0.8700962006273872  0.6305502263706382
  0.0000000000000000  0.6206198132376896  0.3686865663936657
  0.3326866266930041  0.8713124094014759  0.6316655187497147
  0.3351416360333236  0.6161325669153602  0.3709848674791249
  0.6673134133069992  0.8713124094014759  0.6316655187497147
  0.6648584039666863  0.6161325669153602  0.3709848674791249
  0.1688048593494979  0.3113231728862310  0.5497223098880573
  0.0000000000000000  0.3137229410852098  0.3767636316633492
  0.0000000000000000  0.0657181161740337  0.6123919394572949
  0.1665363255591600  0.0573598405110922  0.4486019977089981
  0.5000000000000000  0.3097407548671301  0.5576357541829119
  0.3344239785744506  0.3157868809233751  0.3884785812721114
  0.3316140716869536  0.0670111697363445  0.6132444311247520
  0.5000000000000000  0.0574147529270804  0.4502557703028322
  0.8311951306505080  0.3113231728862310  0.5497223098880573
  0.6655760614255527  0.3157868809233751  0.3884785812721114
  0.6683859683130502  0.0670111697363445  0.6132444311247520
  0.8334636644408462  0.0573598405110922  0.4486019977089981
  0.1672618240871927  0.8053746162391131  0.5508196021088254
  0.0000000000000000  0.8162961270637948  0.3868984062671815
  0.0000000000000000  0.5627474980711857  0.6150631578950428
  0.1647651082072664  0.5546405066046496  0.4494069859901121
  0.5000000000000000  0.8080413704646926  0.5518754121065147
  0.3338795617556008  0.8130505633013552  0.3864808341840909
  0.3311914745217566  0.5689281893564750  0.6169113372028917
  0.5000000000000000  0.5557109365804893  0.4538219770192763
  0.8327381659128135  0.8053746162391131  0.5508196021088254
  0.6661204782444026  0.8130505633013552  0.3864808341840909
  0.6688085654782467  0.5689281893564750  0.6169113372028917
  0.8352348817927397  0.5546405066046496  0.4494069859901121
  0.5000500180000031  0.4084459859510431  0.6988178050374195
  0.5000500180000031  0.3719566077591729  0.7401667044961194
 
  0.00000000E+00  0.00000000E+00  0.00000000E+00
  0.00000000E+00  0.00000000E+00  0.00000000E+00
  0.00000000E+00  0.00000000E+00  0.00000000E+00
  0.00000000E+00  0.00000000E+00  0.00000000E+00
  0.00000000E+00  0.00000000E+00  0.00000000E+00
  0.00000000E+00  0.00000000E+00  0.00000000E+00
  0.00000000E+00  0.00000000E+00  0.00000000E+00
  0.00000000E+00  0.00000000E+00  0.00000000E+00
  0.00000000E+00  0.00000000E+00  0.00000000E+00
  0.00000000E+00  0.00000000E+00  0.00000000E+00
  0.00000000E+00  0.00000000E+00  0.00000000E+00
  0.00000000E+00  0.00000000E+00  0.00000000E+00
  0.00000000E+00  0.00000000E+00  0.00000000E+00
  0.00000000E+00  0.00000000E+00  0.00000000E+00
  0.00000000E+00  0.00000000E+00  0.00000000E+00
  0.00000000E+00  0.00000000E+00  0.00000000E+00
  0.00000000E+00  0.00000000E+00  0.00000000E+00
  0.00000000E+00  0.00000000E+00  0.00000000E+00
  0.00000000E+00  0.00000000E+00  0.00000000E+00
  0.00000000E+00  0.00000000E+00  0.00000000E+00
  0.00000000E+00  0.00000000E+00  0.00000000E+00
  0.00000000E+00  0.00000000E+00  0.00000000E+00
  0.00000000E+00  0.00000000E+00  0.00000000E+00
  0.00000000E+00  0.00000000E+00  0.00000000E+00
  0.00000000E+00  0.00000000E+00  0.00000000E+00
  0.00000000E+00  0.00000000E+00  0.00000000E+00
  0.00000000E+00  0.00000000E+00  0.00000000E+00
  0.00000000E+00  0.00000000E+00  0.00000000E+00
  0.00000000E+00  0.00000000E+00  0.00000000E+00
  0.00000000E+00  0.00000000E+00  0.00000000E+00
  0.00000000E+00  0.00000000E+00  0.00000000E+00
  0.00000000E+00  0.00000000E+00  0.00000000E+00
  0.00000000E+00  0.00000000E+00  0.00000000E+00
  0.00000000E+00  0.00000000E+00  0.00000000E+00
  0.00000000E+00  0.00000000E+00  0.00000000E+00
  0.00000000E+00  0.00000000E+00  0.00000000E+00
  0.00000000E+00  0.00000000E+00  0.00000000E+00
  0.00000000E+00  0.00000000E+00  0.00000000E+00
  0.00000000E+00  0.00000000E+00  0.00000000E+00
  0.00000000E+00  0.00000000E+00  0.00000000E+00
  0.00000000E+00  0.00000000E+00  0.00000000E+00
  0.00000000E+00  0.00000000E+00  0.00000000E+00
  0.00000000E+00  0.00000000E+00  0.00000000E+00
  0.00000000E+00  0.00000000E+00  0.00000000E+00
  0.00000000E+00  0.00000000E+00  0.00000000E+00
  0.00000000E+00  0.00000000E+00  0.00000000E+00
  0.00000000E+00  0.00000000E+00  0.00000000E+00
  0.00000000E+00  0.00000000E+00  0.00000000E+00
  0.00000000E+00  0.00000000E+00  0.00000000E+00
  0.00000000E+00  0.00000000E+00  0.00000000E+00
