CONTCAR\(4)                             
   1.00000000000000     
    11.1955995559999995    0.0000000000000000    0.0000000000000000
    -5.5977997779999997    9.6956736260999996    0.0000000000000000
     0.0000000000000000    0.0000000000000000   18.4459991455000001
   Ti   Te   O    H 
     9    18     2     1
Direct
  0.9941045950006355  0.9947443337995239  0.5002897645903772
  0.3273241591457818  0.9946944948029568  0.4997101379611735
  0.6610075232285553  0.9950345494473325  0.5003979592662091
  0.9954694994475020  0.3291247117039617  0.5002798125117849
  0.3269898448467217  0.3287138783431800  0.4999291124474112
  0.6610800782588910  0.3281724790603420  0.4999590554487199
  0.9948800899888539  0.6615316003476792  0.4998444643319786
  0.3277867644865964  0.6621805704543604  0.5003915550735698
  0.6603454464813083  0.6611142176188309  0.5003274841023497
  0.2170849343701349  0.1062985669415113  0.5949620647369755
  0.1047571005923444  0.2168931806388983  0.4046814782734600
  0.5493425434325374  0.1061098412466066  0.5951180011896327
  0.4386126207844399  0.2174634947047878  0.4047313472179397
  0.8832548116586167  0.1064674156863390  0.5952963257100023
  0.7728001615084352  0.2172865640214781  0.4049861924387130
  0.2170241177880499  0.4402147635018707  0.5950747620856021
  0.1054046725942115  0.5502215010933966  0.4046273183892168
  0.5496285058218717  0.4386276848180515  0.5951467808195474
  0.4387406002525154  0.5508222512867746  0.4048313766963858
  0.8829301667207901  0.4394850632451579  0.5951945400000298
  0.7723415439459558  0.5509183109204159  0.4048474668219271
  0.2166378644357465  0.7732638202562043  0.5949059420340532
  0.1050468948302452  0.8840428899991082  0.4045693904394483
  0.5492223797556903  0.7725749648043774  0.5951582398028208
  0.4394610548921207  0.8843365767236477  0.4047554323946940
  0.8831640556487770  0.7723080787751115  0.5950590751777085
  0.7718118662971776  0.8837970850705759  0.4051800164861845
  0.3668928568494536  0.7072393783158546  0.7144913809863738
  0.3741600540652570  0.6702331766288268  0.7851772984861185
  0.4127035758707862  0.7580155277427778  0.8119666740796063
 
  0.00000000E+00  0.00000000E+00  0.00000000E+00
  0.00000000E+00  0.00000000E+00  0.00000000E+00
  0.00000000E+00  0.00000000E+00  0.00000000E+00
  0.00000000E+00  0.00000000E+00  0.00000000E+00
  0.00000000E+00  0.00000000E+00  0.00000000E+00
  0.00000000E+00  0.00000000E+00  0.00000000E+00
  0.00000000E+00  0.00000000E+00  0.00000000E+00
  0.00000000E+00  0.00000000E+00  0.00000000E+00
  0.00000000E+00  0.00000000E+00  0.00000000E+00
  0.00000000E+00  0.00000000E+00  0.00000000E+00
  0.00000000E+00  0.00000000E+00  0.00000000E+00
  0.00000000E+00  0.00000000E+00  0.00000000E+00
  0.00000000E+00  0.00000000E+00  0.00000000E+00
  0.00000000E+00  0.00000000E+00  0.00000000E+00
  0.00000000E+00  0.00000000E+00  0.00000000E+00
  0.00000000E+00  0.00000000E+00  0.00000000E+00
  0.00000000E+00  0.00000000E+00  0.00000000E+00
  0.00000000E+00  0.00000000E+00  0.00000000E+00
  0.00000000E+00  0.00000000E+00  0.00000000E+00
  0.00000000E+00  0.00000000E+00  0.00000000E+00
  0.00000000E+00  0.00000000E+00  0.00000000E+00
  0.00000000E+00  0.00000000E+00  0.00000000E+00
  0.00000000E+00  0.00000000E+00  0.00000000E+00
  0.00000000E+00  0.00000000E+00  0.00000000E+00
  0.00000000E+00  0.00000000E+00  0.00000000E+00
  0.00000000E+00  0.00000000E+00  0.00000000E+00
  0.00000000E+00  0.00000000E+00  0.00000000E+00
  0.00000000E+00  0.00000000E+00  0.00000000E+00
  0.00000000E+00  0.00000000E+00  0.00000000E+00
  0.00000000E+00  0.00000000E+00  0.00000000E+00
