CONTCAR\(3)                             
   1.00000000000000     
    11.3336000443000007    0.0000000000000000    0.0000000000000000
     0.0000000000000000   11.3336000443000007    0.0000000000000000
     0.0000000000000000    0.0000000000000000   27.5830993651999989
   Sr   Co   Cl   O 
    36    18    18    55
Direct
  0.1667904016129327  0.0000000000000000  0.4503799617196279
 -0.0030502309238976  0.1658403227288384  0.5498495982076785
  0.1667169859392308  0.0000000000000000  0.3174197769750942
 -0.0004041526306658  0.1656189239294209  0.6839571390755258
  0.4999615749478181  0.0000000000000000  0.4502639449246152
  0.3359330387656978  0.1680363706821067  0.5499298337112586
  0.4998259052744726  0.0000000000000000  0.3174123786219180
  0.3326856203787225  0.1659951706265534  0.6836088259431494
  0.8330773502258104  0.0000000000000000  0.4503629453739639
  0.6666122393547086  0.1664921785226403  0.5493022273046878
  0.8334986935999538  0.0000000000000000  0.3173388040063805
  0.6679035475932596  0.1659921579777359  0.6840455893893395
  0.1665605304059137  0.3331683851211065  0.4506382203213085
 -0.0012726219270900  0.5000000000000000  0.5498343601787256
  0.1667029567871993  0.3334022173649768  0.3173173362282852
 -0.0007021781224231  0.5000000000000000  0.6834747947752008
  0.5002971897780645  0.3336089876697869  0.4505340038586208
  0.3353479645377387  0.5000000000000000  0.5504353014247018
  0.4998921798656750  0.3334841602467076  0.3173995259121881
  0.3331152688637384  0.5000000000000000  0.6848131779983964
  0.8332880838293626  0.3333535146284538  0.4503173535350447
  0.6663803118240006  0.5000000000000000  0.5496229638695694
  0.8335376591012770  0.3334103352233307  0.3171575430817153
  0.6675421680256741  0.5000000000000000  0.6860063707210036
  0.1665605304059137  0.6668316358788985  0.4506382203213085
 -0.0030502309238976  0.8341596562711631  0.5498495982076785
  0.1667029567871993  0.6665978036350215  0.3173173362282852
 -0.0004041526306658  0.8343810550705811  0.6839571390755258
  0.5002971897780645  0.6663910333302115  0.4505340038586208
  0.3359330387656978  0.8319636083178953  0.5499298337112586
  0.4998921798656750  0.6665158607532906  0.3173995259121881
  0.3326856203787225  0.8340048083734484  0.6836088259431494
  0.8332880838293626  0.6666465063715442  0.4503173535350447
  0.6666122393547086  0.8335078004773613  0.5493022273046878
  0.8335376591012770  0.6665896857766676  0.3171575430817153
  0.6679035475932596  0.8340078210222661  0.6840455893893395
  0.0000610570940365  0.1668964039235463  0.3878598495284655
  0.1664242805775013  0.0000000000000000  0.6095284609047196
  0.3332713860832584  0.1669787685248758  0.3880283902752651
  0.5005145096363375  0.0000000000000000  0.6107724031715733
  0.6667461540183809  0.1668539363499771  0.3877057022203114
  0.8316071181235422  0.0000000000000000  0.6116807341566940
  0.0001534856651206  0.5000000000000000  0.3878814768538797
  0.1665506518576272  0.3325693820305810  0.6106609823429756
  0.3330866755032980  0.5000000000000000  0.3881368641268311
  0.5018210003740997  0.3337392045890029  0.6118606638048681
  0.6670727228691231  0.5000000000000000  0.3877327892428677
  0.8322843054532838  0.3330805511791001  0.6108469687943712
  0.0000610570940365  0.8331035750764556  0.3878598495284655
  0.1665506518576272  0.6674306389694172  0.6106609823429756
  0.3332713860832584  0.8330212104751260  0.3880283902752651
  0.5018210003740997  0.6662608164109948  0.6118606638048681
  0.6667461540183809  0.8331460426500248  0.3877057022203114
  0.8322843054532838  0.6669194698208983  0.6108469687943712
  0.0001537164980039  0.1666677869497809  0.2690369841399308
  0.1665577219923448  0.0000000000000000  0.7324025123881760
  0.3333056868332959  0.1667329586364767  0.2691275325560823
  0.4999734894384003  0.0000000000000000  0.7323721076692818
  0.6666162882993403  0.1666824009528816  0.2691688017006366
  0.8335230038870688  0.0000000000000000  0.7324832170325538
  0.0001966172867393  0.5000000000000000  0.2689202749358287
  0.1658814911591759  0.3327746962266137  0.7316520709194784
  0.3333045585904129  0.5000000000000000  0.2690483315600717
  0.4997703899660000  0.3162641255135233  0.7411621141119298
  0.6666193561115819  0.5000000000000000  0.2690457998249861
  0.8344762626782539  0.3322580115466457  0.7325408535559462
  0.0001537164980039  0.8333321920502212  0.2690369841399308
  0.1658814911591759  0.6672253247733846  0.7316520709194784
  0.3333056868332959  0.8332670203635250  0.2691275325560823
  0.4997703899660000  0.6837358954864750  0.7411621141119298
  0.6666162882993403  0.8333175780471201  0.2691688017006366
  0.8344762626782539  0.6677420094533530  0.7325408535559462
  0.1680520498123091  0.0000000000000000  0.5407918110954510
  0.0001742967934218  0.1666057475833035  0.4608188631240942
  0.1672131763654597  0.1656831135710637  0.6238575457056009
  0.1667036812180142  0.1668529033228324  0.3787035388774561
  0.0001464977670389  0.0000000000000000  0.3787179989806069
 -0.0016816316697897  0.0000000000000000  0.6221369574136923
  0.5007671152197065  0.0000000000000000  0.5403439231838247
  0.3330289697236675  0.1668283418327828  0.4608972359189417
  0.5012797184645602  0.1677186646989660  0.6203210657215132
  0.4999280471386274  0.1669520995231868  0.3786744000810235
  0.3331164224351189  0.0000000000000000  0.3788872491525234
  0.3358703655334342  0.0000000000000000  0.6241807385030925
  0.8309619803893615  0.0000000000000000  0.5398706323025947
  0.6667495286455587  0.1670478682129606  0.4603452431897501
  0.8312163227705807  0.1658736639504045  0.6199260058736535
  0.8334420934784325  0.1669020446223101  0.3785869334951220
  0.6668146577737131  0.0000000000000000  0.3785116958630649
  0.6654213302975336  0.0000000000000000  0.6255861853817675
  0.1664534367117845  0.3311281105064905  0.5409849501392102
  0.0000612471267054  0.5000000000000000  0.4608878174166173
  0.1633582097567714  0.5000000000000000  0.6208087165134808
  0.1666085731104535  0.5000000000000000  0.3786789376764574
  0.0000842795116390  0.3333383939420980  0.3786421426592505
 -0.0027649957964695  0.3308200042299957  0.6248554036807918
  0.5016947713471874  0.3333858650874105  0.5402654822870147
  0.3325144954222639  0.5000000000000000  0.4610762325598445
  0.5014443965844624  0.5000000000000000  0.6200454594829466
  0.5000407072659657  0.5000000000000000  0.3788569843779884
  0.3330795168846140  0.3334073560446094  0.3788129699776852
  0.3352268573032661  0.3340105604916128  0.6243816024878839
  0.8320849439953089  0.3319619825947006  0.5403249165375820
  0.6677264351610805  0.5000000000000000  0.4604924461079120
  0.8344723082379450  0.5000000000000000  0.6184149900146491
  0.8335676641204929  0.5000000000000000  0.3785273929594393
  0.6669961696611084  0.3334388556635453  0.3783912005982987
  0.6676296766541399  0.3339962436134972  0.6266951082032195
  0.1664534367117845  0.6688719104935075  0.5409849501392102
  0.0001742967934218  0.8333942314166985  0.4608188631240942
  0.1672131763654597  0.8343168654289382  0.6238575457056009
  0.1667036812180142  0.8331470756771695  0.3787035388774561
  0.0000842795116390  0.6666616270579001  0.3786421426592505
 -0.0027649957964695  0.6691800167700023  0.6248554036807918
  0.5016947713471874  0.6666141559125877  0.5402654822870147
  0.3330289697236675  0.8331716371672189  0.4608972359189417
  0.5012797184645602  0.8322813143010359  0.6203210657215132
  0.4999280471386274  0.8330478794768148  0.3786744000810235
  0.3330795168846140  0.6665926649553886  0.3788129699776852
  0.3352268573032661  0.6659894605083851  0.6243816024878839
  0.8320849439953089  0.6680380384052976  0.5403249165375820
  0.6667495286455587  0.8329521107870412  0.4603452431897501
  0.8312163227705807  0.8341263150495977  0.6199260058736535
  0.8334420934784325  0.8330979343776915  0.3785869334951220
  0.6669961696611084  0.6665611653364528  0.3783912005982987
  0.6676296766541399  0.6660037773865010  0.6266951082032195
  0.4995666841901448  0.5000000000000000  0.7408294824030912
 
  0.00000000E+00  0.00000000E+00  0.00000000E+00
  0.00000000E+00  0.00000000E+00  0.00000000E+00
  0.00000000E+00  0.00000000E+00  0.00000000E+00
  0.00000000E+00  0.00000000E+00  0.00000000E+00
  0.00000000E+00  0.00000000E+00  0.00000000E+00
  0.00000000E+00  0.00000000E+00  0.00000000E+00
  0.00000000E+00  0.00000000E+00  0.00000000E+00
  0.00000000E+00  0.00000000E+00  0.00000000E+00
  0.00000000E+00  0.00000000E+00  0.00000000E+00
  0.00000000E+00  0.00000000E+00  0.00000000E+00
  0.00000000E+00  0.00000000E+00  0.00000000E+00
  0.00000000E+00  0.00000000E+00  0.00000000E+00
  0.00000000E+00  0.00000000E+00  0.00000000E+00
  0.00000000E+00  0.00000000E+00  0.00000000E+00
  0.00000000E+00  0.00000000E+00  0.00000000E+00
  0.00000000E+00  0.00000000E+00  0.00000000E+00
  0.00000000E+00  0.00000000E+00  0.00000000E+00
  0.00000000E+00  0.00000000E+00  0.00000000E+00
  0.00000000E+00  0.00000000E+00  0.00000000E+00
  0.00000000E+00  0.00000000E+00  0.00000000E+00
  0.00000000E+00  0.00000000E+00  0.00000000E+00
  0.00000000E+00  0.00000000E+00  0.00000000E+00
  0.00000000E+00  0.00000000E+00  0.00000000E+00
  0.00000000E+00  0.00000000E+00  0.00000000E+00
  0.00000000E+00  0.00000000E+00  0.00000000E+00
  0.00000000E+00  0.00000000E+00  0.00000000E+00
  0.00000000E+00  0.00000000E+00  0.00000000E+00
  0.00000000E+00  0.00000000E+00  0.00000000E+00
  0.00000000E+00  0.00000000E+00  0.00000000E+00
  0.00000000E+00  0.00000000E+00  0.00000000E+00
  0.00000000E+00  0.00000000E+00  0.00000000E+00
  0.00000000E+00  0.00000000E+00  0.00000000E+00
  0.00000000E+00  0.00000000E+00  0.00000000E+00
  0.00000000E+00  0.00000000E+00  0.00000000E+00
  0.00000000E+00  0.00000000E+00  0.00000000E+00
  0.00000000E+00  0.00000000E+00  0.00000000E+00
  0.00000000E+00  0.00000000E+00  0.00000000E+00
  0.00000000E+00  0.00000000E+00  0.00000000E+00
  0.00000000E+00  0.00000000E+00  0.00000000E+00
  0.00000000E+00  0.00000000E+00  0.00000000E+00
  0.00000000E+00  0.00000000E+00  0.00000000E+00
  0.00000000E+00  0.00000000E+00  0.00000000E+00
  0.00000000E+00  0.00000000E+00  0.00000000E+00
  0.00000000E+00  0.00000000E+00  0.00000000E+00
  0.00000000E+00  0.00000000E+00  0.00000000E+00
  0.00000000E+00  0.00000000E+00  0.00000000E+00
  0.00000000E+00  0.00000000E+00  0.00000000E+00
  0.00000000E+00  0.00000000E+00  0.00000000E+00
  0.00000000E+00  0.00000000E+00  0.00000000E+00
  0.00000000E+00  0.00000000E+00  0.00000000E+00
  0.00000000E+00  0.00000000E+00  0.00000000E+00
  0.00000000E+00  0.00000000E+00  0.00000000E+00
  0.00000000E+00  0.00000000E+00  0.00000000E+00
  0.00000000E+00  0.00000000E+00  0.00000000E+00
  0.00000000E+00  0.00000000E+00  0.00000000E+00
  0.00000000E+00  0.00000000E+00  0.00000000E+00
  0.00000000E+00  0.00000000E+00  0.00000000E+00
  0.00000000E+00  0.00000000E+00  0.00000000E+00
  0.00000000E+00  0.00000000E+00  0.00000000E+00
  0.00000000E+00  0.00000000E+00  0.00000000E+00
  0.00000000E+00  0.00000000E+00  0.00000000E+00
  0.00000000E+00  0.00000000E+00  0.00000000E+00
  0.00000000E+00  0.00000000E+00  0.00000000E+00
  0.00000000E+00  0.00000000E+00  0.00000000E+00
  0.00000000E+00  0.00000000E+00  0.00000000E+00
  0.00000000E+00  0.00000000E+00  0.00000000E+00
  0.00000000E+00  0.00000000E+00  0.00000000E+00
  0.00000000E+00  0.00000000E+00  0.00000000E+00
  0.00000000E+00  0.00000000E+00  0.00000000E+00
  0.00000000E+00  0.00000000E+00  0.00000000E+00
  0.00000000E+00  0.00000000E+00  0.00000000E+00
  0.00000000E+00  0.00000000E+00  0.00000000E+00
  0.00000000E+00  0.00000000E+00  0.00000000E+00
  0.00000000E+00  0.00000000E+00  0.00000000E+00
  0.00000000E+00  0.00000000E+00  0.00000000E+00
  0.00000000E+00  0.00000000E+00  0.00000000E+00
  0.00000000E+00  0.00000000E+00  0.00000000E+00
  0.00000000E+00  0.00000000E+00  0.00000000E+00
  0.00000000E+00  0.00000000E+00  0.00000000E+00
  0.00000000E+00  0.00000000E+00  0.00000000E+00
  0.00000000E+00  0.00000000E+00  0.00000000E+00
  0.00000000E+00  0.00000000E+00  0.00000000E+00
  0.00000000E+00  0.00000000E+00  0.00000000E+00
  0.00000000E+00  0.00000000E+00  0.00000000E+00
  0.00000000E+00  0.00000000E+00  0.00000000E+00
  0.00000000E+00  0.00000000E+00  0.00000000E+00
  0.00000000E+00  0.00000000E+00  0.00000000E+00
  0.00000000E+00  0.00000000E+00  0.00000000E+00
  0.00000000E+00  0.00000000E+00  0.00000000E+00
  0.00000000E+00  0.00000000E+00  0.00000000E+00
  0.00000000E+00  0.00000000E+00  0.00000000E+00
  0.00000000E+00  0.00000000E+00  0.00000000E+00
  0.00000000E+00  0.00000000E+00  0.00000000E+00
  0.00000000E+00  0.00000000E+00  0.00000000E+00
  0.00000000E+00  0.00000000E+00  0.00000000E+00
  0.00000000E+00  0.00000000E+00  0.00000000E+00
  0.00000000E+00  0.00000000E+00  0.00000000E+00
  0.00000000E+00  0.00000000E+00  0.00000000E+00
  0.00000000E+00  0.00000000E+00  0.00000000E+00
  0.00000000E+00  0.00000000E+00  0.00000000E+00
  0.00000000E+00  0.00000000E+00  0.00000000E+00
  0.00000000E+00  0.00000000E+00  0.00000000E+00
  0.00000000E+00  0.00000000E+00  0.00000000E+00
  0.00000000E+00  0.00000000E+00  0.00000000E+00
  0.00000000E+00  0.00000000E+00  0.00000000E+00
  0.00000000E+00  0.00000000E+00  0.00000000E+00
  0.00000000E+00  0.00000000E+00  0.00000000E+00
  0.00000000E+00  0.00000000E+00  0.00000000E+00
  0.00000000E+00  0.00000000E+00  0.00000000E+00
  0.00000000E+00  0.00000000E+00  0.00000000E+00
  0.00000000E+00  0.00000000E+00  0.00000000E+00
  0.00000000E+00  0.00000000E+00  0.00000000E+00
  0.00000000E+00  0.00000000E+00  0.00000000E+00
  0.00000000E+00  0.00000000E+00  0.00000000E+00
  0.00000000E+00  0.00000000E+00  0.00000000E+00
  0.00000000E+00  0.00000000E+00  0.00000000E+00
  0.00000000E+00  0.00000000E+00  0.00000000E+00
  0.00000000E+00  0.00000000E+00  0.00000000E+00
  0.00000000E+00  0.00000000E+00  0.00000000E+00
  0.00000000E+00  0.00000000E+00  0.00000000E+00
  0.00000000E+00  0.00000000E+00  0.00000000E+00
  0.00000000E+00  0.00000000E+00  0.00000000E+00
  0.00000000E+00  0.00000000E+00  0.00000000E+00
  0.00000000E+00  0.00000000E+00  0.00000000E+00
  0.00000000E+00  0.00000000E+00  0.00000000E+00
  0.00000000E+00  0.00000000E+00  0.00000000E+00
  0.00000000E+00  0.00000000E+00  0.00000000E+00
