CONTCAR\(7)                             
   1.00000000000000     
    12.8648996353000005    0.0000000000000000    0.0000000000000000
    -6.4324498177000002   11.1413299013000007    0.0000000000000000
     0.0000000000000000    0.0000000000000000   18.7835006713999988
   Li   C    O    H 
     9   108     1     1
Direct
  0.0008053012580394 -0.0000600434433125  0.4996141374235348
  0.3343333558241489 -0.0079394966388558  0.5021205372951082
  0.6641846779615492  0.9995861094855389  0.5012101342852489
  0.0015345321298822  0.3341945625845923  0.5000786019683064
  0.3338123369645277  0.3330515612869673  0.5000620991709225
  0.6667944355062190  0.3327038820714320  0.4997013510926933
  0.0036406739120785  0.6694007407987658  0.5012116385159346
  0.3339124445287151  0.6669802101517002  0.5053063527544247
  0.6659669909666723  0.6663025351650865  0.5001377355255513
  0.2225177435568991 -0.0014831538185888  0.4000409144341536
  0.0001904443179448  0.2207073369075301  0.3997175845713286
  0.1113700605933814  0.1096565566600696  0.3994676238945992
  0.1113775560714316 -0.0015217094922532  0.3996431687892605
  0.0002245532194622  0.1096168919494163  0.3995049038636204
  0.2224563374913779  0.2207165410266727  0.3996236180433262
  0.1118910661366779  0.0014948821241965  0.5996124066909130
  0.0006858231956826  0.1126245785621689  0.5993937439218490
  0.2230817711464740  0.2235821227618511  0.5997671435869448
  0.2230433950897861  0.0016055395820420  0.6000568507268880
  0.0008392069993851  0.2238783692597080  0.5997018042030883
  0.1118387037184641  0.1125160427847388  0.5993900207533691
  0.5557478657363801 -0.0015337162878530  0.4000804465549340
  0.3335816626233715  0.2207006352657964  0.3997163096989982
  0.4446266764383688  0.1095895843495371  0.4000461393303475
  0.4446206195516441  0.9984783740830716  0.4001414712042463
  0.3335711459061795  0.1095828974266032  0.4000101862748193
  0.5557604470428787  0.2206851983407780  0.3997486384496845
  0.4449437113336346  0.0011729921949343  0.6034471242508463
  0.3341211103873326  0.1122285000131665  0.5998560817977173
  0.5563330295946239  0.2236722526721631  0.5995690624386404
  0.5563101345964545  0.0014018699727739  0.6035002075783807
  0.3341313006223422  0.2237002648559936  0.5997522547907904
  0.4452523287863269  0.1126403047277891  0.6000556191623098
  0.8891085629521195 -0.0015109130801145  0.3996369548574843
  0.6668297248330123  0.2207206120613353  0.3997763421615863
  0.7779618114565523  0.1095479622942859  0.3999441726745945
  0.7779380277682360 -0.0014884972486048  0.3999613230521890
  0.6668695618024298  0.1095874313652659  0.3999454618177080
  0.8891435654522348  0.2207307517594393  0.3998447820587296
  0.7783245886852461  0.0014811828125148  0.5999236857945063
  0.6675879612558880  0.1127184227515770  0.6013539722463584
  0.8898566509258696  0.2240546953116889  0.6000612010305926
  0.8894689641463510  0.0015213484256891  0.5996053368603107
  0.6676433441410093  0.2237383489200069  0.6002532250879957
  0.7784451081781831  0.1127788408805378  0.6003379001931037
  0.2224581432154851  0.3318696051264863  0.3998408308969048
  0.0002012584247821  0.5540965285200554  0.4003545166947596
  0.1113604271782549  0.4429662990952021  0.4002377417030648
  0.1113741234072528  0.3318626028825354  0.3998976227756810
  0.0001855034095479  0.4429380015098596  0.4001432797221242
  0.2225363135878130  0.5541352949269787  0.4007696462108822
  0.1120224745711907  0.3350638959827765  0.5999889330867699
  0.0012021649810695  0.4463368859982998  0.6002279195145552
  0.2232829781729292  0.5576344412301646  0.6035766273921336
  0.2232878388693736  0.3349322756919738  0.6003605882068428
  0.0009048965086001  0.5571946587870376  0.6004298751402899
  0.1119986504855376  0.4460179243990712  0.6005015566117033
  0.5557692419022183  0.3318503438833643  0.3996252559427872
  0.3335613765402171  0.5541290628594459  0.4007495807407166
  0.4446994282985496  0.4429889948963008  0.3998835101533971
  0.4446886508184506  0.3318265415078824  0.3996873395768233
  0.3335798863309470  0.4430011039070157  0.4001514537952844
  0.5557585248002576  0.5540529562620429  0.3999601192793405
  0.4451451337871679  0.3345758137676758  0.5997467959050987
  0.3341190754874780  0.4457175340257249  0.6015881286072454
  0.5561551737376412  0.5570996319209136  0.6001410125993326
  0.5563586388758266  0.3347355022135455  0.5993428265751944
  0.3341022510342375  0.5570352431992113  0.6037723085863455
  0.4449223044654674  0.4457259439306410  0.6004014459200522
  0.8890953524618856  0.3318182785083574  0.3999000844622515
  0.6669337409373587  0.5540794172248957  0.3998514699036032
  0.7779930427465114  0.4429411424692764  0.3998706964472298
  0.7779710748800609  0.3318547712195239  0.3998131061082627
  0.6668940274253361  0.4429614854475877  0.3997188223187172
  0.8891449741087977  0.5541166410143894  0.4001935914497649
  0.7787769113737265  0.3350114776267409  0.5999623291841335
  0.6674551230260026  0.4459518902976869  0.5993877054249963
  0.8897915251728241  0.5571581584735108  0.5999487048971427
  0.8897877794614494  0.3349724559814137  0.6000959009481381
  0.6673181742470583  0.5570842219354178  0.5997976701404599
  0.7786655718782395  0.4460858039905355  0.5995826528609969
  0.2225375589071570  0.6651896305283060  0.4007310486533019
  0.0002740995366421  0.8874205004243818  0.3996972114070201
  0.1113640997007631  0.7762564914541786  0.4001514212758506
  0.1113353295207524  0.6651649335623736  0.4004205388777223
  0.0002305161036039  0.7762471833781790  0.4000084773760945
  0.2225033673333586  0.8874036195049989  0.4001782971761843
  0.1125140200818508  0.6683125489744077  0.6031638781606716
  0.0005348254923131  0.7792379474935514  0.6013464152843684
  0.2234364265699137  0.8903712517999238  0.6032532972904021
  0.2224509317240652  0.6673644078535670  0.6066161989122879
  0.0005255708034540  0.8901959413415391  0.6002977913534423
  0.1119369151890740  0.7791891422210020  0.6032289532594495
  0.5557327106813381  0.6651366299571274  0.4002138148227392
  0.3335648269775153  0.8873377298270316  0.4002581659131333
  0.4445436375308611  0.7761840056976674  0.4007021760354088
  0.4445658494351166  0.6651439934235464  0.4007528294760844
  0.3335460711912091  0.7761665107920590  0.4005942947109619
  0.5557349359162446  0.8873727114672826  0.4003288152841017
  0.4449020785876144  0.6685270154835142  0.6038793057361718
  0.3343068850259544  0.7794506804767479  0.6294408531088455
  0.5556981459686513  0.8899860947671667  0.6036224489761119
  0.5561849119901074  0.6681097777357649  0.6007240066340808
  0.3342609565903632  0.8917002193568975  0.6073129064245196
  0.4459982213027028  0.7791343939626288  0.6069312406103459
  0.8891357854728478  0.6651226814967579  0.4000913174879680
  0.6668634174386835  0.8874188686074850  0.4001983284824582
  0.7779880384746820  0.7762464739261381  0.3998261222021411
  0.7779693190977285  0.6651351951221164  0.3999307620161595
  0.6668833141043234  0.7762679274502090  0.4000433225003446
  0.8891197121804070  0.8874063968302395  0.3996644318485371
  0.7782828006240289  0.6682277002245154  0.6001890020764067
  0.6669358927971097  0.7792201184955440  0.6004148031138749
  0.8893656687279644  0.8903565989405560  0.6000352443777620
  0.8897028565338885  0.6683984562808780  0.6004303480005191
  0.6672238340366093  0.8904480454420689  0.6005356542458496
  0.7783400513892825  0.7792748943292829  0.6002211259387785
  0.3405253496833829  0.7808096688781490  0.7089895299592714
  0.2705407978633906  0.7838684431407826  0.7266022543295664
 
  0.00000000E+00  0.00000000E+00  0.00000000E+00
  0.00000000E+00  0.00000000E+00  0.00000000E+00
  0.00000000E+00  0.00000000E+00  0.00000000E+00
  0.00000000E+00  0.00000000E+00  0.00000000E+00
  0.00000000E+00  0.00000000E+00  0.00000000E+00
  0.00000000E+00  0.00000000E+00  0.00000000E+00
  0.00000000E+00  0.00000000E+00  0.00000000E+00
  0.00000000E+00  0.00000000E+00  0.00000000E+00
  0.00000000E+00  0.00000000E+00  0.00000000E+00
  0.00000000E+00  0.00000000E+00  0.00000000E+00
  0.00000000E+00  0.00000000E+00  0.00000000E+00
  0.00000000E+00  0.00000000E+00  0.00000000E+00
  0.00000000E+00  0.00000000E+00  0.00000000E+00
  0.00000000E+00  0.00000000E+00  0.00000000E+00
  0.00000000E+00  0.00000000E+00  0.00000000E+00
  0.00000000E+00  0.00000000E+00  0.00000000E+00
  0.00000000E+00  0.00000000E+00  0.00000000E+00
  0.00000000E+00  0.00000000E+00  0.00000000E+00
  0.00000000E+00  0.00000000E+00  0.00000000E+00
  0.00000000E+00  0.00000000E+00  0.00000000E+00
  0.00000000E+00  0.00000000E+00  0.00000000E+00
  0.00000000E+00  0.00000000E+00  0.00000000E+00
  0.00000000E+00  0.00000000E+00  0.00000000E+00
  0.00000000E+00  0.00000000E+00  0.00000000E+00
  0.00000000E+00  0.00000000E+00  0.00000000E+00
  0.00000000E+00  0.00000000E+00  0.00000000E+00
  0.00000000E+00  0.00000000E+00  0.00000000E+00
  0.00000000E+00  0.00000000E+00  0.00000000E+00
  0.00000000E+00  0.00000000E+00  0.00000000E+00
  0.00000000E+00  0.00000000E+00  0.00000000E+00
  0.00000000E+00  0.00000000E+00  0.00000000E+00
  0.00000000E+00  0.00000000E+00  0.00000000E+00
  0.00000000E+00  0.00000000E+00  0.00000000E+00
  0.00000000E+00  0.00000000E+00  0.00000000E+00
  0.00000000E+00  0.00000000E+00  0.00000000E+00
  0.00000000E+00  0.00000000E+00  0.00000000E+00
  0.00000000E+00  0.00000000E+00  0.00000000E+00
  0.00000000E+00  0.00000000E+00  0.00000000E+00
  0.00000000E+00  0.00000000E+00  0.00000000E+00
  0.00000000E+00  0.00000000E+00  0.00000000E+00
  0.00000000E+00  0.00000000E+00  0.00000000E+00
  0.00000000E+00  0.00000000E+00  0.00000000E+00
  0.00000000E+00  0.00000000E+00  0.00000000E+00
  0.00000000E+00  0.00000000E+00  0.00000000E+00
  0.00000000E+00  0.00000000E+00  0.00000000E+00
  0.00000000E+00  0.00000000E+00  0.00000000E+00
  0.00000000E+00  0.00000000E+00  0.00000000E+00
  0.00000000E+00  0.00000000E+00  0.00000000E+00
  0.00000000E+00  0.00000000E+00  0.00000000E+00
  0.00000000E+00  0.00000000E+00  0.00000000E+00
  0.00000000E+00  0.00000000E+00  0.00000000E+00
  0.00000000E+00  0.00000000E+00  0.00000000E+00
  0.00000000E+00  0.00000000E+00  0.00000000E+00
  0.00000000E+00  0.00000000E+00  0.00000000E+00
  0.00000000E+00  0.00000000E+00  0.00000000E+00
  0.00000000E+00  0.00000000E+00  0.00000000E+00
  0.00000000E+00  0.00000000E+00  0.00000000E+00
  0.00000000E+00  0.00000000E+00  0.00000000E+00
  0.00000000E+00  0.00000000E+00  0.00000000E+00
  0.00000000E+00  0.00000000E+00  0.00000000E+00
  0.00000000E+00  0.00000000E+00  0.00000000E+00
  0.00000000E+00  0.00000000E+00  0.00000000E+00
  0.00000000E+00  0.00000000E+00  0.00000000E+00
  0.00000000E+00  0.00000000E+00  0.00000000E+00
  0.00000000E+00  0.00000000E+00  0.00000000E+00
  0.00000000E+00  0.00000000E+00  0.00000000E+00
  0.00000000E+00  0.00000000E+00  0.00000000E+00
  0.00000000E+00  0.00000000E+00  0.00000000E+00
  0.00000000E+00  0.00000000E+00  0.00000000E+00
  0.00000000E+00  0.00000000E+00  0.00000000E+00
  0.00000000E+00  0.00000000E+00  0.00000000E+00
  0.00000000E+00  0.00000000E+00  0.00000000E+00
  0.00000000E+00  0.00000000E+00  0.00000000E+00
  0.00000000E+00  0.00000000E+00  0.00000000E+00
  0.00000000E+00  0.00000000E+00  0.00000000E+00
  0.00000000E+00  0.00000000E+00  0.00000000E+00
  0.00000000E+00  0.00000000E+00  0.00000000E+00
  0.00000000E+00  0.00000000E+00  0.00000000E+00
  0.00000000E+00  0.00000000E+00  0.00000000E+00
  0.00000000E+00  0.00000000E+00  0.00000000E+00
  0.00000000E+00  0.00000000E+00  0.00000000E+00
  0.00000000E+00  0.00000000E+00  0.00000000E+00
  0.00000000E+00  0.00000000E+00  0.00000000E+00
  0.00000000E+00  0.00000000E+00  0.00000000E+00
  0.00000000E+00  0.00000000E+00  0.00000000E+00
  0.00000000E+00  0.00000000E+00  0.00000000E+00
  0.00000000E+00  0.00000000E+00  0.00000000E+00
  0.00000000E+00  0.00000000E+00  0.00000000E+00
  0.00000000E+00  0.00000000E+00  0.00000000E+00
  0.00000000E+00  0.00000000E+00  0.00000000E+00
  0.00000000E+00  0.00000000E+00  0.00000000E+00
  0.00000000E+00  0.00000000E+00  0.00000000E+00
  0.00000000E+00  0.00000000E+00  0.00000000E+00
  0.00000000E+00  0.00000000E+00  0.00000000E+00
  0.00000000E+00  0.00000000E+00  0.00000000E+00
  0.00000000E+00  0.00000000E+00  0.00000000E+00
  0.00000000E+00  0.00000000E+00  0.00000000E+00
  0.00000000E+00  0.00000000E+00  0.00000000E+00
  0.00000000E+00  0.00000000E+00  0.00000000E+00
  0.00000000E+00  0.00000000E+00  0.00000000E+00
  0.00000000E+00  0.00000000E+00  0.00000000E+00
  0.00000000E+00  0.00000000E+00  0.00000000E+00
  0.00000000E+00  0.00000000E+00  0.00000000E+00
  0.00000000E+00  0.00000000E+00  0.00000000E+00
  0.00000000E+00  0.00000000E+00  0.00000000E+00
  0.00000000E+00  0.00000000E+00  0.00000000E+00
  0.00000000E+00  0.00000000E+00  0.00000000E+00
  0.00000000E+00  0.00000000E+00  0.00000000E+00
  0.00000000E+00  0.00000000E+00  0.00000000E+00
  0.00000000E+00  0.00000000E+00  0.00000000E+00
  0.00000000E+00  0.00000000E+00  0.00000000E+00
  0.00000000E+00  0.00000000E+00  0.00000000E+00
  0.00000000E+00  0.00000000E+00  0.00000000E+00
  0.00000000E+00  0.00000000E+00  0.00000000E+00
  0.00000000E+00  0.00000000E+00  0.00000000E+00
  0.00000000E+00  0.00000000E+00  0.00000000E+00
  0.00000000E+00  0.00000000E+00  0.00000000E+00
  0.00000000E+00  0.00000000E+00  0.00000000E+00
  0.00000000E+00  0.00000000E+00  0.00000000E+00
