CONTCAR\(6)                             
   1.00000000000000     
    11.6387996674000007    0.0000000000000000    0.0000000000000000
     5.8194217944000002   10.1357943405000004    0.0000000000000000
     0.0000000000000000    0.0000000000000000   18.1699008942000013
   Li   Ni   P    S    O 
     4     4     8    24     1
Direct
  0.3511586383154801  0.3213597824920228  0.4942542169096399
  0.8317234835478574  0.3352517813649745  0.5040423364676166
  0.3338213648711452  0.8372611527497692  0.4937609324061766
  0.8289694174078925  0.8400904523981586  0.5047651217254320
  0.1646962159787380  0.1666345782695377  0.5014949771240828
  0.6660832867182274  0.1716936842533843  0.4992614465298915
  0.1676815431978843  0.6691381907714812  0.5052790296382944
  0.6605723979261241  0.6760612460242594  0.5002334789269188
  0.4998047818249811  0.5056300763181528  0.5573196819700051
  0.9971926249671170  0.5032484869193470  0.4494348115133846
  0.9876164557240771  0.5064646854756182  0.5694790708704697
  0.4983631513179734  0.5037975073534398  0.4374412325925958
  0.4972570070591759  0.0048514593084143  0.5571677301747482
 -0.0002287495375336  0.0028764703435880  0.4418107011606568
  0.0017760806810944  0.0025541409766854  0.5615884192228248
  0.4995605496791488  0.0014044796409807  0.4370006070105860
  0.0092895087186309  0.3310393958046454  0.5987181208288914
  0.3191277206622469  0.1665140316438709  0.5839476547251570
  0.0127630664295368  0.1680868568423366  0.4180150702262118
  0.1593402325635355  0.3272785286387897  0.4213935434218983
  0.3259020094127623  0.0136443577187159  0.4081028529529767
  0.1673892100032093  0.0144315459703831  0.5856843363312836
  0.5160003437697999  0.3292693551803574  0.5863180610486517
  0.8265780408315209  0.1611814238684707  0.5909168714397479
  0.5178756078561227  0.1594067201287883  0.4074636690580912
  0.6607740314563431  0.3265630679364619  0.4121474553103958
  0.8226208221041040  0.0194640371284619  0.4141900256030343
  0.6560630390302998  0.0226741266069612  0.5872653860347097
  0.0155413166992374  0.8258213502509451  0.5887481724490526
  0.3235964535155480  0.6703750627896184  0.5834943457826323
  0.0156315991586464  0.6641494588210602  0.4238466427548120
  0.1595595525304431  0.8275784193742839  0.4131149784376606
  0.3189026984311492  0.5156284692173284  0.4168442056886015
  0.1800217807043518  0.5073497524287642  0.5865802543433329
  0.5093851584147896  0.8287733020265998  0.5837286551577829
  0.8224906352448608  0.6725947746785160  0.5971169735083939
  0.5102709487827001  0.6635657275350004  0.4065035689591166
  0.6666342975288373  0.8228421070158439  0.4162831127880940
  0.8205537370994291  0.5204201913152758  0.4189460802867227
  0.6589445152018739  0.5248692844086256  0.5854837041612516
  0.1853051171706161  0.5347913750101222  0.6660324234581974
 
  0.00000000E+00  0.00000000E+00  0.00000000E+00
  0.00000000E+00  0.00000000E+00  0.00000000E+00
  0.00000000E+00  0.00000000E+00  0.00000000E+00
  0.00000000E+00  0.00000000E+00  0.00000000E+00
  0.00000000E+00  0.00000000E+00  0.00000000E+00
  0.00000000E+00  0.00000000E+00  0.00000000E+00
  0.00000000E+00  0.00000000E+00  0.00000000E+00
  0.00000000E+00  0.00000000E+00  0.00000000E+00
  0.00000000E+00  0.00000000E+00  0.00000000E+00
  0.00000000E+00  0.00000000E+00  0.00000000E+00
  0.00000000E+00  0.00000000E+00  0.00000000E+00
  0.00000000E+00  0.00000000E+00  0.00000000E+00
  0.00000000E+00  0.00000000E+00  0.00000000E+00
  0.00000000E+00  0.00000000E+00  0.00000000E+00
  0.00000000E+00  0.00000000E+00  0.00000000E+00
  0.00000000E+00  0.00000000E+00  0.00000000E+00
  0.00000000E+00  0.00000000E+00  0.00000000E+00
  0.00000000E+00  0.00000000E+00  0.00000000E+00
  0.00000000E+00  0.00000000E+00  0.00000000E+00
  0.00000000E+00  0.00000000E+00  0.00000000E+00
  0.00000000E+00  0.00000000E+00  0.00000000E+00
  0.00000000E+00  0.00000000E+00  0.00000000E+00
  0.00000000E+00  0.00000000E+00  0.00000000E+00
  0.00000000E+00  0.00000000E+00  0.00000000E+00
  0.00000000E+00  0.00000000E+00  0.00000000E+00
  0.00000000E+00  0.00000000E+00  0.00000000E+00
  0.00000000E+00  0.00000000E+00  0.00000000E+00
  0.00000000E+00  0.00000000E+00  0.00000000E+00
  0.00000000E+00  0.00000000E+00  0.00000000E+00
  0.00000000E+00  0.00000000E+00  0.00000000E+00
  0.00000000E+00  0.00000000E+00  0.00000000E+00
  0.00000000E+00  0.00000000E+00  0.00000000E+00
  0.00000000E+00  0.00000000E+00  0.00000000E+00
  0.00000000E+00  0.00000000E+00  0.00000000E+00
  0.00000000E+00  0.00000000E+00  0.00000000E+00
  0.00000000E+00  0.00000000E+00  0.00000000E+00
  0.00000000E+00  0.00000000E+00  0.00000000E+00
  0.00000000E+00  0.00000000E+00  0.00000000E+00
  0.00000000E+00  0.00000000E+00  0.00000000E+00
  0.00000000E+00  0.00000000E+00  0.00000000E+00
  0.00000000E+00  0.00000000E+00  0.00000000E+00
