CONTCAR\(3)                             
   1.00000000000000     
    11.5825996398999997    0.0000000000000000    0.0000000000000000
     0.0000000000000000   12.9533996582000004    0.0000000000000000
     0.0000000000000000    0.0000000000000000   20.9237995147999989
   K    As   Pd   O    H 
    16    16     8     2     1
Direct
  0.1131744802801196  0.0168514679740351  0.4400063388831983
  0.3590080996370390  0.0407818854035538  0.5546464616385766
  0.1106350094904703  0.2675936364608159  0.3456272457352322
  0.5516164520798169  0.2575069108752806  0.7109240015412618
  0.6070557629321793  0.0167171632797527  0.4387996350045287
  0.8600981736171108  0.0253373619667566  0.5456779075048040
  0.6099524294258591  0.2686282545394205  0.3456437221127029
  0.8737282076497960  0.2652461058053020  0.6578012273526085
  0.1135799361847018  0.5174240255260272  0.4414482575720455
  0.3598599955487349  0.4918674624228613  0.5557687040751829
  0.1109997375388681  0.7662071233931188  0.3509501355464079
  0.3602014775500209  0.7673330632999099  0.6349555615083314
  0.6066645005890166  0.5182400679770711  0.4403192023046857
  0.8604183416437441  0.5087957289698882  0.5466132238673055
  0.6105163567456546  0.7664661917584603  0.3508603656291744
  0.8602162304284529  0.7697013726534657  0.6382034922881414
  0.3591100950524563  0.3627616818776354  0.4076247936471233
  0.1084704873188313  0.1733201160653426  0.5694189676106807
  0.1083427535105070  0.3588017062357512  0.5701605205320018
  0.3595246974422486  0.1726357813963889  0.4073710718675737
  0.8609565274925417  0.3629185810963514  0.4059577412619169
  0.6124115396617713  0.1723198583285395  0.5665033791367893
  0.6130045296852142  0.3600365666508105  0.5680607612828996
  0.8603119777129783  0.1724219623403528  0.4052422086562269
  0.3603321801506938  0.8619336357809210  0.4138474545958944
  0.1097584549721934  0.6731877212444116  0.5757180354054586
  0.1099531376031819  0.8623949393451870  0.5752962218462629
  0.3605118494121561  0.6720139098314937  0.4145428374692348
  0.8608618729841530  0.8613767336651008  0.4126128149721490
  0.6107984090083328  0.6734890416253027  0.5755237777554039
  0.6106112887641082  0.8628725789984388  0.5752032903886530
  0.8604077919886538  0.6719808768263542  0.4134869124730414
 -0.0153632409866275  0.2668510890925156  0.4878632143624868
  0.2345192837260335  0.2670367512825911  0.4891040464905748
  0.4857632191226090  0.2676584987185971  0.4879505644731650
  0.7377101926573938  0.2674590281472901  0.4875367782698105
 -0.0146859568744519  0.7674782856692273  0.4942550028240355
  0.2352522005579289  0.7675851953262123  0.4946743570428639
  0.4857393625412720  0.7680266806639392  0.4944686935098473
  0.7355331897814282  0.7678959148125841  0.4941954804402381
  0.7480221953263478  0.2207694379661151  0.7559875459034279
  0.7458977224215755  0.3376347499067465  0.7588535246190585
  0.7699093306248885  0.3482009748000727  0.8030249205989760
 
  0.00000000E+00  0.00000000E+00  0.00000000E+00
  0.00000000E+00  0.00000000E+00  0.00000000E+00
  0.00000000E+00  0.00000000E+00  0.00000000E+00
  0.00000000E+00  0.00000000E+00  0.00000000E+00
  0.00000000E+00  0.00000000E+00  0.00000000E+00
  0.00000000E+00  0.00000000E+00  0.00000000E+00
  0.00000000E+00  0.00000000E+00  0.00000000E+00
  0.00000000E+00  0.00000000E+00  0.00000000E+00
  0.00000000E+00  0.00000000E+00  0.00000000E+00
  0.00000000E+00  0.00000000E+00  0.00000000E+00
  0.00000000E+00  0.00000000E+00  0.00000000E+00
  0.00000000E+00  0.00000000E+00  0.00000000E+00
  0.00000000E+00  0.00000000E+00  0.00000000E+00
  0.00000000E+00  0.00000000E+00  0.00000000E+00
  0.00000000E+00  0.00000000E+00  0.00000000E+00
  0.00000000E+00  0.00000000E+00  0.00000000E+00
  0.00000000E+00  0.00000000E+00  0.00000000E+00
  0.00000000E+00  0.00000000E+00  0.00000000E+00
  0.00000000E+00  0.00000000E+00  0.00000000E+00
  0.00000000E+00  0.00000000E+00  0.00000000E+00
  0.00000000E+00  0.00000000E+00  0.00000000E+00
  0.00000000E+00  0.00000000E+00  0.00000000E+00
  0.00000000E+00  0.00000000E+00  0.00000000E+00
  0.00000000E+00  0.00000000E+00  0.00000000E+00
  0.00000000E+00  0.00000000E+00  0.00000000E+00
  0.00000000E+00  0.00000000E+00  0.00000000E+00
  0.00000000E+00  0.00000000E+00  0.00000000E+00
  0.00000000E+00  0.00000000E+00  0.00000000E+00
  0.00000000E+00  0.00000000E+00  0.00000000E+00
  0.00000000E+00  0.00000000E+00  0.00000000E+00
  0.00000000E+00  0.00000000E+00  0.00000000E+00
  0.00000000E+00  0.00000000E+00  0.00000000E+00
  0.00000000E+00  0.00000000E+00  0.00000000E+00
  0.00000000E+00  0.00000000E+00  0.00000000E+00
  0.00000000E+00  0.00000000E+00  0.00000000E+00
  0.00000000E+00  0.00000000E+00  0.00000000E+00
  0.00000000E+00  0.00000000E+00  0.00000000E+00
  0.00000000E+00  0.00000000E+00  0.00000000E+00
  0.00000000E+00  0.00000000E+00  0.00000000E+00
  0.00000000E+00  0.00000000E+00  0.00000000E+00
  0.00000000E+00  0.00000000E+00  0.00000000E+00
  0.00000000E+00  0.00000000E+00  0.00000000E+00
  0.00000000E+00  0.00000000E+00  0.00000000E+00
