 Sc7 C2 Cl10                            
   1.00000000000000     
     3.4853376353972858    0.0000000000000000    0.0000000000000000
     1.7426683232317881   13.6526249600356078    0.0000000000000000
     0.0000000000000000    0.0000000000000000   22.6815769818839996
   Sc   C    Cl
     7     2    10
Direct
  0.7729113407977195  0.4541585593858102  0.4492423567591928
  0.2270872957756538  0.5458441041408051  0.5507539297929398
  0.6602444283539839  0.6795440135617383  0.4580407834910432
  0.3397551567287493  0.3204583714388534  0.5419590095332296
  0.2101826124888078  0.5796231278141022  0.3557729328514796
  0.7898177157422808  0.4203762926584247  0.6442249578710957
  0.0000004472563191  0.9999981012132224  0.5000013205099947
  0.2142101530394811  0.5715914318504289  0.4498474763127049
  0.7857899192832321  0.4284094597347448  0.5501520437306766
  0.5215824449945998  0.9568236726300512  0.5737169026303661
  0.4784192083983001  0.0431723227384353  0.4262868642407014
  0.6436125423333294  0.7127415848851868  0.3401961595415841
  0.3563868670746473  0.2872587907755886  0.6598020478600333
  0.0873399248321860  0.8253334149213245  0.4589653445535546
  0.2271030054550991  0.5457691142530692  0.6728209406704835
  0.7728935544436766  0.4542371776952976  0.3271792519286691
  0.3433294197680397  0.3133021032116261  0.4314508327090181
  0.6566715014960849  0.6866960052615951  0.5685504880239094
  0.9126624617378170  0.1746623518296744  0.5410363569893022
 
  0.00000000E+00  0.00000000E+00  0.00000000E+00
  0.00000000E+00  0.00000000E+00  0.00000000E+00
  0.00000000E+00  0.00000000E+00  0.00000000E+00
  0.00000000E+00  0.00000000E+00  0.00000000E+00
  0.00000000E+00  0.00000000E+00  0.00000000E+00
  0.00000000E+00  0.00000000E+00  0.00000000E+00
  0.00000000E+00  0.00000000E+00  0.00000000E+00
  0.00000000E+00  0.00000000E+00  0.00000000E+00
  0.00000000E+00  0.00000000E+00  0.00000000E+00
  0.00000000E+00  0.00000000E+00  0.00000000E+00
  0.00000000E+00  0.00000000E+00  0.00000000E+00
  0.00000000E+00  0.00000000E+00  0.00000000E+00
  0.00000000E+00  0.00000000E+00  0.00000000E+00
  0.00000000E+00  0.00000000E+00  0.00000000E+00
  0.00000000E+00  0.00000000E+00  0.00000000E+00
  0.00000000E+00  0.00000000E+00  0.00000000E+00
  0.00000000E+00  0.00000000E+00  0.00000000E+00
  0.00000000E+00  0.00000000E+00  0.00000000E+00
  0.00000000E+00  0.00000000E+00  0.00000000E+00
