G   58   15    1    0.005     # Parameters to Generate KPOINTS (Don't Edit This Line)
     436
Reciprocal lattice
    0.000000000000    0.000000000000    0.000000000000       1
    0.017241379310    0.000000000000    0.000000000000       2
    0.034482758621    0.000000000000    0.000000000000       2
    0.051724137931    0.000000000000    0.000000000000       2
    0.068965517241    0.000000000000    0.000000000000       2
    0.086206896552    0.000000000000    0.000000000000       2
    0.103448275862    0.000000000000    0.000000000000       2
    0.120689655172    0.000000000000    0.000000000000       2
    0.137931034483    0.000000000000    0.000000000000       2
    0.155172413793    0.000000000000    0.000000000000       2
    0.172413793103    0.000000000000    0.000000000000       2
    0.189655172414    0.000000000000    0.000000000000       2
    0.206896551724    0.000000000000    0.000000000000       2
    0.224137931034    0.000000000000    0.000000000000       2
    0.241379310345    0.000000000000    0.000000000000       2
    0.258620689655    0.000000000000    0.000000000000       2
    0.275862068966    0.000000000000    0.000000000000       2
    0.293103448276    0.000000000000    0.000000000000       2
    0.310344827586    0.000000000000    0.000000000000       2
    0.327586206897    0.000000000000    0.000000000000       2
    0.344827586207    0.000000000000    0.000000000000       2
    0.362068965517    0.000000000000    0.000000000000       2
    0.379310344828    0.000000000000    0.000000000000       2
    0.396551724138    0.000000000000    0.000000000000       2
    0.413793103448    0.000000000000    0.000000000000       2
    0.431034482759    0.000000000000    0.000000000000       2
    0.448275862069    0.000000000000    0.000000000000       2
    0.465517241379    0.000000000000    0.000000000000       2
    0.482758620690    0.000000000000    0.000000000000       2
    0.500000000000    0.000000000000    0.000000000000       1
    0.000000000000    0.066666666667    0.000000000000       2
    0.017241379310    0.066666666667    0.000000000000       2
    0.034482758621    0.066666666667    0.000000000000       2
    0.051724137931    0.066666666667    0.000000000000       2
    0.068965517241    0.066666666667    0.000000000000       2
    0.086206896552    0.066666666667    0.000000000000       2
    0.103448275862    0.066666666667    0.000000000000       2
    0.120689655172    0.066666666667    0.000000000000       2
    0.137931034483    0.066666666667    0.000000000000       2
    0.155172413793    0.066666666667    0.000000000000       2
    0.172413793103    0.066666666667    0.000000000000       2
    0.189655172414    0.066666666667    0.000000000000       2
    0.206896551724    0.066666666667    0.000000000000       2
    0.224137931034    0.066666666667    0.000000000000       2
    0.241379310345    0.066666666667    0.000000000000       2
    0.258620689655    0.066666666667    0.000000000000       2
    0.275862068966    0.066666666667    0.000000000000       2
    0.293103448276    0.066666666667    0.000000000000       2
    0.310344827586    0.066666666667    0.000000000000       2
    0.327586206897    0.066666666667    0.000000000000       2
    0.344827586207    0.066666666667    0.000000000000       2
    0.362068965517    0.066666666667    0.000000000000       2
    0.379310344828    0.066666666667    0.000000000000       2
    0.396551724138    0.066666666667    0.000000000000       2
    0.413793103448    0.066666666667    0.000000000000       2
    0.431034482759    0.066666666667    0.000000000000       2
    0.448275862069    0.066666666667    0.000000000000       2
    0.465517241379    0.066666666667    0.000000000000       2
    0.482758620690    0.066666666667    0.000000000000       2
    0.500000000000    0.066666666667    0.000000000000       2
   -0.482758620690    0.066666666667    0.000000000000       2
   -0.465517241379    0.066666666667    0.000000000000       2
   -0.448275862069    0.066666666667    0.000000000000       2
   -0.431034482759    0.066666666667    0.000000000000       2
   -0.413793103448    0.066666666667    0.000000000000       2
   -0.396551724138    0.066666666667    0.000000000000       2
   -0.379310344828    0.066666666667    0.000000000000       2
   -0.362068965517    0.066666666667    0.000000000000       2
   -0.344827586207    0.066666666667    0.000000000000       2
   -0.327586206897    0.066666666667    0.000000000000       2
   -0.310344827586    0.066666666667    0.000000000000       2
   -0.293103448276    0.066666666667    0.000000000000       2
   -0.275862068966    0.066666666667    0.000000000000       2
   -0.258620689655    0.066666666667    0.000000000000       2
   -0.241379310345    0.066666666667    0.000000000000       2
   -0.224137931034    0.066666666667    0.000000000000       2
   -0.206896551724    0.066666666667    0.000000000000       2
   -0.189655172414    0.066666666667    0.000000000000       2
   -0.172413793103    0.066666666667    0.000000000000       2
   -0.155172413793    0.066666666667    0.000000000000       2
   -0.137931034483    0.066666666667    0.000000000000       2
   -0.120689655172    0.066666666667    0.000000000000       2
   -0.103448275862    0.066666666667    0.000000000000       2
   -0.086206896552    0.066666666667    0.000000000000       2
   -0.068965517241    0.066666666667    0.000000000000       2
   -0.051724137931    0.066666666667    0.000000000000       2
   -0.034482758621    0.066666666667    0.000000000000       2
   -0.017241379310    0.066666666667    0.000000000000       2
    0.000000000000    0.133333333333    0.000000000000       2
    0.017241379310    0.133333333333    0.000000000000       2
    0.034482758621    0.133333333333    0.000000000000       2
    0.051724137931    0.133333333333    0.000000000000       2
    0.068965517241    0.133333333333    0.000000000000       2
    0.086206896552    0.133333333333    0.000000000000       2
    0.103448275862    0.133333333333    0.000000000000       2
    0.120689655172    0.133333333333    0.000000000000       2
    0.137931034483    0.133333333333    0.000000000000       2
    0.155172413793    0.133333333333    0.000000000000       2
    0.172413793103    0.133333333333    0.000000000000       2
    0.189655172414    0.133333333333    0.000000000000       2
    0.206896551724    0.133333333333    0.000000000000       2
    0.224137931034    0.133333333333    0.000000000000       2
    0.241379310345    0.133333333333    0.000000000000       2
    0.258620689655    0.133333333333    0.000000000000       2
    0.275862068966    0.133333333333    0.000000000000       2
    0.293103448276    0.133333333333    0.000000000000       2
    0.310344827586    0.133333333333    0.000000000000       2
    0.327586206897    0.133333333333    0.000000000000       2
    0.344827586207    0.133333333333    0.000000000000       2
    0.362068965517    0.133333333333    0.000000000000       2
    0.379310344828    0.133333333333    0.000000000000       2
    0.396551724138    0.133333333333    0.000000000000       2
    0.413793103448    0.133333333333    0.000000000000       2
    0.431034482759    0.133333333333    0.000000000000       2
    0.448275862069    0.133333333333    0.000000000000       2
    0.465517241379    0.133333333333    0.000000000000       2
    0.482758620690    0.133333333333    0.000000000000       2
    0.500000000000    0.133333333333    0.000000000000       2
   -0.482758620690    0.133333333333    0.000000000000       2
   -0.465517241379    0.133333333333    0.000000000000       2
   -0.448275862069    0.133333333333    0.000000000000       2
   -0.431034482759    0.133333333333    0.000000000000       2
   -0.413793103448    0.133333333333    0.000000000000       2
   -0.396551724138    0.133333333333    0.000000000000       2
   -0.379310344828    0.133333333333    0.000000000000       2
   -0.362068965517    0.133333333333    0.000000000000       2
   -0.344827586207    0.133333333333    0.000000000000       2
   -0.327586206897    0.133333333333    0.000000000000       2
   -0.310344827586    0.133333333333    0.000000000000       2
   -0.293103448276    0.133333333333    0.000000000000       2
   -0.275862068966    0.133333333333    0.000000000000       2
   -0.258620689655    0.133333333333    0.000000000000       2
   -0.241379310345    0.133333333333    0.000000000000       2
   -0.224137931034    0.133333333333    0.000000000000       2
   -0.206896551724    0.133333333333    0.000000000000       2
   -0.189655172414    0.133333333333    0.000000000000       2
   -0.172413793103    0.133333333333    0.000000000000       2
   -0.155172413793    0.133333333333    0.000000000000       2
   -0.137931034483    0.133333333333    0.000000000000       2
   -0.120689655172    0.133333333333    0.000000000000       2
   -0.103448275862    0.133333333333    0.000000000000       2
   -0.086206896552    0.133333333333    0.000000000000       2
   -0.068965517241    0.133333333333    0.000000000000       2
   -0.051724137931    0.133333333333    0.000000000000       2
   -0.034482758621    0.133333333333    0.000000000000       2
   -0.017241379310    0.133333333333    0.000000000000       2
    0.000000000000    0.200000000000    0.000000000000       2
    0.017241379310    0.200000000000    0.000000000000       2
    0.034482758621    0.200000000000    0.000000000000       2
    0.051724137931    0.200000000000    0.000000000000       2
    0.068965517241    0.200000000000    0.000000000000       2
    0.086206896552    0.200000000000    0.000000000000       2
    0.103448275862    0.200000000000    0.000000000000       2
    0.120689655172    0.200000000000    0.000000000000       2
    0.137931034483    0.200000000000    0.000000000000       2
    0.155172413793    0.200000000000    0.000000000000       2
    0.172413793103    0.200000000000    0.000000000000       2
    0.189655172414    0.200000000000    0.000000000000       2
    0.206896551724    0.200000000000    0.000000000000       2
    0.224137931034    0.200000000000    0.000000000000       2
    0.241379310345    0.200000000000    0.000000000000       2
    0.258620689655    0.200000000000    0.000000000000       2
    0.275862068966    0.200000000000    0.000000000000       2
    0.293103448276    0.200000000000    0.000000000000       2
    0.310344827586    0.200000000000    0.000000000000       2
    0.327586206897    0.200000000000    0.000000000000       2
    0.344827586207    0.200000000000    0.000000000000       2
    0.362068965517    0.200000000000    0.000000000000       2
    0.379310344828    0.200000000000    0.000000000000       2
    0.396551724138    0.200000000000    0.000000000000       2
    0.413793103448    0.200000000000    0.000000000000       2
    0.431034482759    0.200000000000    0.000000000000       2
    0.448275862069    0.200000000000    0.000000000000       2
    0.465517241379    0.200000000000    0.000000000000       2
    0.482758620690    0.200000000000    0.000000000000       2
    0.500000000000    0.200000000000    0.000000000000       2
   -0.482758620690    0.200000000000    0.000000000000       2
   -0.465517241379    0.200000000000    0.000000000000       2
   -0.448275862069    0.200000000000    0.000000000000       2
   -0.431034482759    0.200000000000    0.000000000000       2
   -0.413793103448    0.200000000000    0.000000000000       2
   -0.396551724138    0.200000000000    0.000000000000       2
   -0.379310344828    0.200000000000    0.000000000000       2
   -0.362068965517    0.200000000000    0.000000000000       2
   -0.344827586207    0.200000000000    0.000000000000       2
   -0.327586206897    0.200000000000    0.000000000000       2
   -0.310344827586    0.200000000000    0.000000000000       2
   -0.293103448276    0.200000000000    0.000000000000       2
   -0.275862068966    0.200000000000    0.000000000000       2
   -0.258620689655    0.200000000000    0.000000000000       2
   -0.241379310345    0.200000000000    0.000000000000       2
   -0.224137931034    0.200000000000    0.000000000000       2
   -0.206896551724    0.200000000000    0.000000000000       2
   -0.189655172414    0.200000000000    0.000000000000       2
   -0.172413793103    0.200000000000    0.000000000000       2
   -0.155172413793    0.200000000000    0.000000000000       2
   -0.137931034483    0.200000000000    0.000000000000       2
   -0.120689655172    0.200000000000    0.000000000000       2
   -0.103448275862    0.200000000000    0.000000000000       2
   -0.086206896552    0.200000000000    0.000000000000       2
   -0.068965517241    0.200000000000    0.000000000000       2
   -0.051724137931    0.200000000000    0.000000000000       2
   -0.034482758621    0.200000000000    0.000000000000       2
   -0.017241379310    0.200000000000    0.000000000000       2
    0.000000000000    0.266666666667    0.000000000000       2
    0.017241379310    0.266666666667    0.000000000000       2
    0.034482758621    0.266666666667    0.000000000000       2
    0.051724137931    0.266666666667    0.000000000000       2
    0.068965517241    0.266666666667    0.000000000000       2
    0.086206896552    0.266666666667    0.000000000000       2
    0.103448275862    0.266666666667    0.000000000000       2
    0.120689655172    0.266666666667    0.000000000000       2
    0.137931034483    0.266666666667    0.000000000000       2
    0.155172413793    0.266666666667    0.000000000000       2
    0.172413793103    0.266666666667    0.000000000000       2
    0.189655172414    0.266666666667    0.000000000000       2
    0.206896551724    0.266666666667    0.000000000000       2
    0.224137931034    0.266666666667    0.000000000000       2
    0.241379310345    0.266666666667    0.000000000000       2
    0.258620689655    0.266666666667    0.000000000000       2
    0.275862068966    0.266666666667    0.000000000000       2
    0.293103448276    0.266666666667    0.000000000000       2
    0.310344827586    0.266666666667    0.000000000000       2
    0.327586206897    0.266666666667    0.000000000000       2
    0.344827586207    0.266666666667    0.000000000000       2
    0.362068965517    0.266666666667    0.000000000000       2
    0.379310344828    0.266666666667    0.000000000000       2
    0.396551724138    0.266666666667    0.000000000000       2
    0.413793103448    0.266666666667    0.000000000000       2
    0.431034482759    0.266666666667    0.000000000000       2
    0.448275862069    0.266666666667    0.000000000000       2
    0.465517241379    0.266666666667    0.000000000000       2
    0.482758620690    0.266666666667    0.000000000000       2
    0.500000000000    0.266666666667    0.000000000000       2
   -0.482758620690    0.266666666667    0.000000000000       2
   -0.465517241379    0.266666666667    0.000000000000       2
   -0.448275862069    0.266666666667    0.000000000000       2
   -0.431034482759    0.266666666667    0.000000000000       2
   -0.413793103448    0.266666666667    0.000000000000       2
   -0.396551724138    0.266666666667    0.000000000000       2
   -0.379310344828    0.266666666667    0.000000000000       2
   -0.362068965517    0.266666666667    0.000000000000       2
   -0.344827586207    0.266666666667    0.000000000000       2
   -0.327586206897    0.266666666667    0.000000000000       2
   -0.310344827586    0.266666666667    0.000000000000       2
   -0.293103448276    0.266666666667    0.000000000000       2
   -0.275862068966    0.266666666667    0.000000000000       2
   -0.258620689655    0.266666666667    0.000000000000       2
   -0.241379310345    0.266666666667    0.000000000000       2
   -0.224137931034    0.266666666667    0.000000000000       2
   -0.206896551724    0.266666666667    0.000000000000       2
   -0.189655172414    0.266666666667    0.000000000000       2
   -0.172413793103    0.266666666667    0.000000000000       2
   -0.155172413793    0.266666666667    0.000000000000       2
   -0.137931034483    0.266666666667    0.000000000000       2
   -0.120689655172    0.266666666667    0.000000000000       2
   -0.103448275862    0.266666666667    0.000000000000       2
   -0.086206896552    0.266666666667    0.000000000000       2
   -0.068965517241    0.266666666667    0.000000000000       2
   -0.051724137931    0.266666666667    0.000000000000       2
   -0.034482758621    0.266666666667    0.000000000000       2
   -0.017241379310    0.266666666667    0.000000000000       2
    0.000000000000    0.333333333333    0.000000000000       2
    0.017241379310    0.333333333333    0.000000000000       2
    0.034482758621    0.333333333333    0.000000000000       2
    0.051724137931    0.333333333333    0.000000000000       2
    0.068965517241    0.333333333333    0.000000000000       2
    0.086206896552    0.333333333333    0.000000000000       2
    0.103448275862    0.333333333333    0.000000000000       2
    0.120689655172    0.333333333333    0.000000000000       2
    0.137931034483    0.333333333333    0.000000000000       2
    0.155172413793    0.333333333333    0.000000000000       2
    0.172413793103    0.333333333333    0.000000000000       2
    0.189655172414    0.333333333333    0.000000000000       2
    0.206896551724    0.333333333333    0.000000000000       2
    0.224137931034    0.333333333333    0.000000000000       2
    0.241379310345    0.333333333333    0.000000000000       2
    0.258620689655    0.333333333333    0.000000000000       2
    0.275862068966    0.333333333333    0.000000000000       2
    0.293103448276    0.333333333333    0.000000000000       2
    0.310344827586    0.333333333333    0.000000000000       2
    0.327586206897    0.333333333333    0.000000000000       2
    0.344827586207    0.333333333333    0.000000000000       2
    0.362068965517    0.333333333333    0.000000000000       2
    0.379310344828    0.333333333333    0.000000000000       2
    0.396551724138    0.333333333333    0.000000000000       2
    0.413793103448    0.333333333333    0.000000000000       2
    0.431034482759    0.333333333333    0.000000000000       2
    0.448275862069    0.333333333333    0.000000000000       2
    0.465517241379    0.333333333333    0.000000000000       2
    0.482758620690    0.333333333333    0.000000000000       2
    0.500000000000    0.333333333333    0.000000000000       2
   -0.482758620690    0.333333333333    0.000000000000       2
   -0.465517241379    0.333333333333    0.000000000000       2
   -0.448275862069    0.333333333333    0.000000000000       2
   -0.431034482759    0.333333333333    0.000000000000       2
   -0.413793103448    0.333333333333    0.000000000000       2
   -0.396551724138    0.333333333333    0.000000000000       2
   -0.379310344828    0.333333333333    0.000000000000       2
   -0.362068965517    0.333333333333    0.000000000000       2
   -0.344827586207    0.333333333333    0.000000000000       2
   -0.327586206897    0.333333333333    0.000000000000       2
   -0.310344827586    0.333333333333    0.000000000000       2
   -0.293103448276    0.333333333333    0.000000000000       2
   -0.275862068966    0.333333333333    0.000000000000       2
   -0.258620689655    0.333333333333    0.000000000000       2
   -0.241379310345    0.333333333333    0.000000000000       2
   -0.224137931034    0.333333333333    0.000000000000       2
   -0.206896551724    0.333333333333    0.000000000000       2
   -0.189655172414    0.333333333333    0.000000000000       2
   -0.172413793103    0.333333333333    0.000000000000       2
   -0.155172413793    0.333333333333    0.000000000000       2
   -0.137931034483    0.333333333333    0.000000000000       2
   -0.120689655172    0.333333333333    0.000000000000       2
   -0.103448275862    0.333333333333    0.000000000000       2
   -0.086206896552    0.333333333333    0.000000000000       2
   -0.068965517241    0.333333333333    0.000000000000       2
   -0.051724137931    0.333333333333    0.000000000000       2
   -0.034482758621    0.333333333333    0.000000000000       2
   -0.017241379310    0.333333333333    0.000000000000       2
    0.000000000000    0.400000000000    0.000000000000       2
    0.017241379310    0.400000000000    0.000000000000       2
    0.034482758621    0.400000000000    0.000000000000       2
    0.051724137931    0.400000000000    0.000000000000       2
    0.068965517241    0.400000000000    0.000000000000       2
    0.086206896552    0.400000000000    0.000000000000       2
    0.103448275862    0.400000000000    0.000000000000       2
    0.120689655172    0.400000000000    0.000000000000       2
    0.137931034483    0.400000000000    0.000000000000       2
    0.155172413793    0.400000000000    0.000000000000       2
    0.172413793103    0.400000000000    0.000000000000       2
    0.189655172414    0.400000000000    0.000000000000       2
    0.206896551724    0.400000000000    0.000000000000       2
    0.224137931034    0.400000000000    0.000000000000       2
    0.241379310345    0.400000000000    0.000000000000       2
    0.258620689655    0.400000000000    0.000000000000       2
    0.275862068966    0.400000000000    0.000000000000       2
    0.293103448276    0.400000000000    0.000000000000       2
    0.310344827586    0.400000000000    0.000000000000       2
    0.327586206897    0.400000000000    0.000000000000       2
    0.344827586207    0.400000000000    0.000000000000       2
    0.362068965517    0.400000000000    0.000000000000       2
    0.379310344828    0.400000000000    0.000000000000       2
    0.396551724138    0.400000000000    0.000000000000       2
    0.413793103448    0.400000000000    0.000000000000       2
    0.431034482759    0.400000000000    0.000000000000       2
    0.448275862069    0.400000000000    0.000000000000       2
    0.465517241379    0.400000000000    0.000000000000       2
    0.482758620690    0.400000000000    0.000000000000       2
    0.500000000000    0.400000000000    0.000000000000       2
   -0.482758620690    0.400000000000    0.000000000000       2
   -0.465517241379    0.400000000000    0.000000000000       2
   -0.448275862069    0.400000000000    0.000000000000       2
   -0.431034482759    0.400000000000    0.000000000000       2
   -0.413793103448    0.400000000000    0.000000000000       2
   -0.396551724138    0.400000000000    0.000000000000       2
   -0.379310344828    0.400000000000    0.000000000000       2
   -0.362068965517    0.400000000000    0.000000000000       2
   -0.344827586207    0.400000000000    0.000000000000       2
   -0.327586206897    0.400000000000    0.000000000000       2
   -0.310344827586    0.400000000000    0.000000000000       2
   -0.293103448276    0.400000000000    0.000000000000       2
   -0.275862068966    0.400000000000    0.000000000000       2
   -0.258620689655    0.400000000000    0.000000000000       2
   -0.241379310345    0.400000000000    0.000000000000       2
   -0.224137931034    0.400000000000    0.000000000000       2
   -0.206896551724    0.400000000000    0.000000000000       2
   -0.189655172414    0.400000000000    0.000000000000       2
   -0.172413793103    0.400000000000    0.000000000000       2
   -0.155172413793    0.400000000000    0.000000000000       2
   -0.137931034483    0.400000000000    0.000000000000       2
   -0.120689655172    0.400000000000    0.000000000000       2
   -0.103448275862    0.400000000000    0.000000000000       2
   -0.086206896552    0.400000000000    0.000000000000       2
   -0.068965517241    0.400000000000    0.000000000000       2
   -0.051724137931    0.400000000000    0.000000000000       2
   -0.034482758621    0.400000000000    0.000000000000       2
   -0.017241379310    0.400000000000    0.000000000000       2
    0.000000000000    0.466666666667    0.000000000000       2
    0.017241379310    0.466666666667    0.000000000000       2
    0.034482758621    0.466666666667    0.000000000000       2
    0.051724137931    0.466666666667    0.000000000000       2
    0.068965517241    0.466666666667    0.000000000000       2
    0.086206896552    0.466666666667    0.000000000000       2
    0.103448275862    0.466666666667    0.000000000000       2
    0.120689655172    0.466666666667    0.000000000000       2
    0.137931034483    0.466666666667    0.000000000000       2
    0.155172413793    0.466666666667    0.000000000000       2
    0.172413793103    0.466666666667    0.000000000000       2
    0.189655172414    0.466666666667    0.000000000000       2
    0.206896551724    0.466666666667    0.000000000000       2
    0.224137931034    0.466666666667    0.000000000000       2
    0.241379310345    0.466666666667    0.000000000000       2
    0.258620689655    0.466666666667    0.000000000000       2
    0.275862068966    0.466666666667    0.000000000000       2
    0.293103448276    0.466666666667    0.000000000000       2
    0.310344827586    0.466666666667    0.000000000000       2
    0.327586206897    0.466666666667    0.000000000000       2
    0.344827586207    0.466666666667    0.000000000000       2
    0.362068965517    0.466666666667    0.000000000000       2
    0.379310344828    0.466666666667    0.000000000000       2
    0.396551724138    0.466666666667    0.000000000000       2
    0.413793103448    0.466666666667    0.000000000000       2
    0.431034482759    0.466666666667    0.000000000000       2
    0.448275862069    0.466666666667    0.000000000000       2
    0.465517241379    0.466666666667    0.000000000000       2
    0.482758620690    0.466666666667    0.000000000000       2
    0.500000000000    0.466666666667    0.000000000000       2
   -0.482758620690    0.466666666667    0.000000000000       2
   -0.465517241379    0.466666666667    0.000000000000       2
   -0.448275862069    0.466666666667    0.000000000000       2
   -0.431034482759    0.466666666667    0.000000000000       2
   -0.413793103448    0.466666666667    0.000000000000       2
   -0.396551724138    0.466666666667    0.000000000000       2
   -0.379310344828    0.466666666667    0.000000000000       2
   -0.362068965517    0.466666666667    0.000000000000       2
   -0.344827586207    0.466666666667    0.000000000000       2
   -0.327586206897    0.466666666667    0.000000000000       2
   -0.310344827586    0.466666666667    0.000000000000       2
   -0.293103448276    0.466666666667    0.000000000000       2
   -0.275862068966    0.466666666667    0.000000000000       2
   -0.258620689655    0.466666666667    0.000000000000       2
   -0.241379310345    0.466666666667    0.000000000000       2
   -0.224137931034    0.466666666667    0.000000000000       2
   -0.206896551724    0.466666666667    0.000000000000       2
   -0.189655172414    0.466666666667    0.000000000000       2
   -0.172413793103    0.466666666667    0.000000000000       2
   -0.155172413793    0.466666666667    0.000000000000       2
   -0.137931034483    0.466666666667    0.000000000000       2
   -0.120689655172    0.466666666667    0.000000000000       2
   -0.103448275862    0.466666666667    0.000000000000       2
   -0.086206896552    0.466666666667    0.000000000000       2
   -0.068965517241    0.466666666667    0.000000000000       2
   -0.051724137931    0.466666666667    0.000000000000       2
   -0.034482758621    0.466666666667    0.000000000000       2
   -0.017241379310    0.466666666667    0.000000000000       2
