CONTCAR\(6)                             
   1.00000000000000     
    14.0796003342000002    0.0000000000000000    0.0000000000000000
    -7.0398001671000001   12.1932915645000008    0.0000000000000000
     0.0000000000000000    0.0000000000000000   18.0872001647999987
   Ti   Se
    16    32
Direct
  0.0000000000000000  0.0000000000000000  0.5000000000000000
  0.2500000000000000  0.0000000000000000  0.5000000000000000
  0.5000000000000000  0.0000000000000000  0.5000000000000000
  0.7499999830000021  0.0000000000000000  0.5000000000000000
  0.0000000009999965  0.2500000020000002  0.5000000000000000
  0.2500000009999965  0.2500000020000002  0.5000000000000000
  0.4999999930000030  0.2500000020000002  0.5000000000000000
  0.7500000089999972  0.2500000020000002  0.5000000000000000
  0.0000000020000002  0.5000000040000003  0.5000000000000000
  0.2500000020000002  0.5000000040000003  0.5000000000000000
  0.5000000020000002  0.5000000040000003  0.5000000000000000
  0.7499999679999974  0.5000000040000003  0.5000000000000000
  0.0000000209999982  0.7500000260000022  0.5000000000000000
  0.2500000209999982  0.7500000260000022  0.5000000000000000
  0.5000000209999982  0.7500000260000022  0.5000000000000000
  0.7500000040000003  0.7500000260000022  0.5000000000000000
  0.0833299949999997  0.1666699989999998  0.4137299949999971
  0.1666700059999968  0.0833300030000004  0.5862699520000021
  0.3333300039999969  0.1666699989999998  0.4137299949999971
  0.4166700059999968  0.0833300030000004  0.5862699520000021
  0.5833299530000033  0.1666699989999998  0.4137299949999971
  0.6666700899999967  0.0833300030000004  0.5862699520000021
  0.8333299700000012  0.1666699989999998  0.4137299949999971
  0.9166700390000031  0.0833300030000004  0.5862699520000021
  0.0833299960000033  0.4166700010000000  0.4137299949999971
  0.1666700079999970  0.3333300250000022  0.5862699520000021
  0.3333300130000012  0.4166700010000000  0.4137299949999971
  0.4166700079999970  0.3333300250000022  0.5862699520000021
  0.5833299800000020  0.4166700010000000  0.4137299949999971
  0.6666700589999977  0.3333300250000022  0.5862699520000021
  0.8333299960000033  0.4166700010000000  0.4137299949999971
  0.9166700079999970  0.3333300250000022  0.5862699520000021
  0.0833300010000002  0.6666700609999978  0.4137299949999971
  0.1666700050000003  0.5833299680000010  0.5862699520000021
  0.3333300179999981  0.6666700609999978  0.4137299949999971
  0.4166700050000003  0.5833299680000010  0.5862699520000021
  0.5833299680000010  0.6666700609999978  0.4137299949999971
  0.6666700560000010  0.5833299680000010  0.5862699520000021
  0.8333299840000024  0.6666700609999978  0.4137299949999971
  0.9166700050000003  0.5833299680000010  0.5862699520000021
  0.0833300179999981  0.9166700440000000  0.4137299949999971
  0.1666700070000005  0.8333299900000029  0.5862699520000021
  0.3333300350000030  0.9166700440000000  0.4137299949999971
  0.4166700070000005  0.8333299900000029  0.5862699520000021
  0.5833299840000024  0.9166700440000000  0.4137299949999971
  0.6666700580000011  0.8333299900000029  0.5862699520000021
  0.8333300010000002  0.9166700440000000  0.4137299949999971
  0.9166700070000005  0.8333299900000029  0.5862699520000021
 
  0.00000000E+00  0.00000000E+00  0.00000000E+00
  0.00000000E+00  0.00000000E+00  0.00000000E+00
  0.00000000E+00  0.00000000E+00  0.00000000E+00
  0.00000000E+00  0.00000000E+00  0.00000000E+00
  0.00000000E+00  0.00000000E+00  0.00000000E+00
  0.00000000E+00  0.00000000E+00  0.00000000E+00
  0.00000000E+00  0.00000000E+00  0.00000000E+00
  0.00000000E+00  0.00000000E+00  0.00000000E+00
  0.00000000E+00  0.00000000E+00  0.00000000E+00
  0.00000000E+00  0.00000000E+00  0.00000000E+00
  0.00000000E+00  0.00000000E+00  0.00000000E+00
  0.00000000E+00  0.00000000E+00  0.00000000E+00
  0.00000000E+00  0.00000000E+00  0.00000000E+00
  0.00000000E+00  0.00000000E+00  0.00000000E+00
  0.00000000E+00  0.00000000E+00  0.00000000E+00
  0.00000000E+00  0.00000000E+00  0.00000000E+00
  0.00000000E+00  0.00000000E+00  0.00000000E+00
  0.00000000E+00  0.00000000E+00  0.00000000E+00
  0.00000000E+00  0.00000000E+00  0.00000000E+00
  0.00000000E+00  0.00000000E+00  0.00000000E+00
  0.00000000E+00  0.00000000E+00  0.00000000E+00
  0.00000000E+00  0.00000000E+00  0.00000000E+00
  0.00000000E+00  0.00000000E+00  0.00000000E+00
  0.00000000E+00  0.00000000E+00  0.00000000E+00
  0.00000000E+00  0.00000000E+00  0.00000000E+00
  0.00000000E+00  0.00000000E+00  0.00000000E+00
  0.00000000E+00  0.00000000E+00  0.00000000E+00
  0.00000000E+00  0.00000000E+00  0.00000000E+00
  0.00000000E+00  0.00000000E+00  0.00000000E+00
  0.00000000E+00  0.00000000E+00  0.00000000E+00
  0.00000000E+00  0.00000000E+00  0.00000000E+00
  0.00000000E+00  0.00000000E+00  0.00000000E+00
  0.00000000E+00  0.00000000E+00  0.00000000E+00
  0.00000000E+00  0.00000000E+00  0.00000000E+00
  0.00000000E+00  0.00000000E+00  0.00000000E+00
  0.00000000E+00  0.00000000E+00  0.00000000E+00
  0.00000000E+00  0.00000000E+00  0.00000000E+00
  0.00000000E+00  0.00000000E+00  0.00000000E+00
  0.00000000E+00  0.00000000E+00  0.00000000E+00
  0.00000000E+00  0.00000000E+00  0.00000000E+00
  0.00000000E+00  0.00000000E+00  0.00000000E+00
  0.00000000E+00  0.00000000E+00  0.00000000E+00
  0.00000000E+00  0.00000000E+00  0.00000000E+00
  0.00000000E+00  0.00000000E+00  0.00000000E+00
  0.00000000E+00  0.00000000E+00  0.00000000E+00
  0.00000000E+00  0.00000000E+00  0.00000000E+00
  0.00000000E+00  0.00000000E+00  0.00000000E+00
  0.00000000E+00  0.00000000E+00  0.00000000E+00
