CONTCAR                                 
   1.00000000000000     
    12.0102996825999995    0.0000000000000000    0.0000000000000000
     6.0051318362000004   10.4012350274000003    0.0000000000000000
     0.0000000000000000    0.0000000000000000   17.7192001342999994
   V    Cl   O 
     8    24     1
Direct
  0.1665626051071468  0.1665055439600716  0.5027399960249395
  0.0056120302068262 -0.0113378432023010  0.4986640120218793
  0.6857495830383471  0.1569385076285644  0.4981390121716759
  0.5055963889537816  0.0055348994109876  0.4985799920364221
  0.1572478158974033  0.6570025099315339  0.4983344970527554
 -0.0113584968094476  0.5054998808700825  0.4990235323626512
  0.6565191481256012  0.6866021559722935  0.4987259634365989
  0.5001375037374810  0.5002667626086692  0.5455290844833036
  0.0201780524659343  0.1397263915852255  0.5797652038987096
  0.3398022767876300  0.0203049135750771  0.5797113900563351
  0.0010018795148644  0.3308708868225309  0.4279241929570167
  0.3306985830127677  0.1678385634303098  0.4276636068076990
  0.1679111581655963  0.0011321919945809  0.4276699415739260
  0.1399050871283293  0.3396711307720675  0.5798508085901342
  0.5245849302332342  0.1555759706871603  0.5778608504653688
  0.8430296323009993  0.9938834599437110  0.5755388931175466
  0.5211125757908485  0.3374979731381628  0.4401609586156264
  0.8475111989353172  0.1442414453481124  0.4164259814228751
  0.6586695649266749  0.0146088683160146  0.4177816647680269
  0.7038696882431790  0.3059694286196527  0.5723779124283923
  0.9946911416946506  0.6623475910503527  0.5759478540781792
  0.3078550349857636  0.4893459046295464  0.5725881976900189
  0.0149781241291680  0.8262620706075399  0.4179316161306194
  0.3377015410502653  0.6413209415546433  0.4404067382055443
  0.1445256990441701  0.5077679257347146  0.4168603864406564
  0.1554275291273340  0.8197030187982213  0.5780958681260581
  0.4875971688469501  0.7058892726889189  0.5718005907020129
  0.8192433228231812  0.5252943237816378  0.5785183956674487
  0.5083206227231122  0.8474257955922798  0.4162331285684112
  0.8264103321192935  0.6583618488922131  0.4182299756499154
  0.6410878615596792  0.5206911590058108  0.4414345093522665
  0.6626911048268733  0.8435155587038677  0.5758736906640960
  0.5015594373070299  0.5009806355477562  0.6357018974328776
 
  0.00000000E+00  0.00000000E+00  0.00000000E+00
  0.00000000E+00  0.00000000E+00  0.00000000E+00
  0.00000000E+00  0.00000000E+00  0.00000000E+00
  0.00000000E+00  0.00000000E+00  0.00000000E+00
  0.00000000E+00  0.00000000E+00  0.00000000E+00
  0.00000000E+00  0.00000000E+00  0.00000000E+00
  0.00000000E+00  0.00000000E+00  0.00000000E+00
  0.00000000E+00  0.00000000E+00  0.00000000E+00
  0.00000000E+00  0.00000000E+00  0.00000000E+00
  0.00000000E+00  0.00000000E+00  0.00000000E+00
  0.00000000E+00  0.00000000E+00  0.00000000E+00
  0.00000000E+00  0.00000000E+00  0.00000000E+00
  0.00000000E+00  0.00000000E+00  0.00000000E+00
  0.00000000E+00  0.00000000E+00  0.00000000E+00
  0.00000000E+00  0.00000000E+00  0.00000000E+00
  0.00000000E+00  0.00000000E+00  0.00000000E+00
  0.00000000E+00  0.00000000E+00  0.00000000E+00
  0.00000000E+00  0.00000000E+00  0.00000000E+00
  0.00000000E+00  0.00000000E+00  0.00000000E+00
  0.00000000E+00  0.00000000E+00  0.00000000E+00
  0.00000000E+00  0.00000000E+00  0.00000000E+00
  0.00000000E+00  0.00000000E+00  0.00000000E+00
  0.00000000E+00  0.00000000E+00  0.00000000E+00
  0.00000000E+00  0.00000000E+00  0.00000000E+00
  0.00000000E+00  0.00000000E+00  0.00000000E+00
  0.00000000E+00  0.00000000E+00  0.00000000E+00
  0.00000000E+00  0.00000000E+00  0.00000000E+00
  0.00000000E+00  0.00000000E+00  0.00000000E+00
  0.00000000E+00  0.00000000E+00  0.00000000E+00
  0.00000000E+00  0.00000000E+00  0.00000000E+00
  0.00000000E+00  0.00000000E+00  0.00000000E+00
  0.00000000E+00  0.00000000E+00  0.00000000E+00
  0.00000000E+00  0.00000000E+00  0.00000000E+00
