CONTCAR\(4)                             
   1.00000000000000     
    12.9882001877000004    0.0000000000000000    0.0000000000000000
     0.0000000000000000   20.1457004546999983    0.0000000000000000
     0.0000000000000000    0.0000000000000000   19.8038997650000006
   Ce   I    O 
    12    36     1
Direct
  0.1632175692170034  0.0004620153667977  0.5044150205355833
  0.9961842626705798  0.2496510484188266  0.4946000932113210
  0.4950694254089644  0.9984248728259348  0.5087298873359556
  0.3307290830706602  0.2497744464971731  0.4946060897532282
  0.8312564937164927  0.9983391741702845  0.5091099268191465
  0.6634334665961044  0.2498826703794799  0.4960016873953758
  0.1635752739995265  0.4997169144990175  0.5029536620125673
  0.9967644939269075  0.7503803651843729  0.4900577865031913
  0.4946935447215582  0.5016833427906220  0.5078063594260012
  0.3294509499884578  0.7504718650252807  0.4899796003736175
  0.8317191395292568  0.5018947308564599  0.5081276155042453
  0.6633777145282500  0.7499280426060664  0.5279966360885816
  0.9949652016498040  0.4069448906299568  0.4258293989275149
  0.1634334196757734  0.3403647940552694  0.5747420527546468
  0.1635504476100722  0.1590399870568409  0.5751754808750564
  0.9949867293460394  0.0930179618638574  0.4263070287377675
  0.0015637234140095  0.0031843580336076  0.6225890409885644
  0.1635180111306449  0.2497883090469829  0.3789311205584006
  0.3318735886503452  0.4068231841483191  0.4255941954656024
  0.4969837917720217  0.3414028029927643  0.5771260726288893
  0.4968841707138088  0.1587371519137191  0.5774418893381001
  0.3318132631489218  0.0930574203344102  0.4261272843319072
  0.3251636239608641  0.0030339303804771  0.6224707705222776
  0.4986098656302136  0.2499706930589154  0.3795626469595990
  0.6639006215724472  0.4095788427024248  0.4281662846595799
  0.8299453744836355  0.3414405201888151  0.5770965405734980
  0.8297705011035843  0.1586470474194647  0.5774787076111569
  0.6635172987123893  0.0905269287928940  0.4283881452855290
  0.6626375235142362  0.9973701091761349  0.6241965611564069
  0.8283899656592875  0.2499479726072556  0.3795615843603788
  0.9976980206156459  0.9118524334926474  0.4204237574953085
  0.1632592591562130  0.8417684976357833  0.5705853293710613
  0.1631454707592196  0.6578417306851940  0.5693782221288881
  0.9976043605698866  0.5883603349633550  0.4192383880537987
  0.0016879224987929  0.4965524468851462  0.6213016330168534
  0.1634018652174828  0.7506419169453643  0.3744337813810915
  0.3284385221978836  0.9116175879452399  0.4202482324292099
  0.4725989934814280  0.8459174724901758  0.5778665721123878
  0.4716379318016271  0.6542129277985091  0.5771300965992602
  0.3286992477555726  0.5886272952134879  0.4190727146178033
  0.3247494469649666  0.4967328279799866  0.6214356554207852
  0.5021177766777111  0.7502735951517326  0.3871489628199087
  0.6631595745463490  0.9072912410162234  0.4337938673215262
  0.8536837434069402  0.8459867046000089  0.5781044372654750
  0.8542095571710490  0.6536870905884130  0.5773957099531156
  0.6635167994272894  0.5927849921922601  0.4332252832960368
  0.6635578053586553  0.5028560946685935  0.6228180896223360
  0.8236133884251248  0.7501336662903751  0.3870884213353275
  0.6631319098463326  0.7492449504351028  0.6191316220661709
 
  0.00000000E+00  0.00000000E+00  0.00000000E+00
  0.00000000E+00  0.00000000E+00  0.00000000E+00
  0.00000000E+00  0.00000000E+00  0.00000000E+00
  0.00000000E+00  0.00000000E+00  0.00000000E+00
  0.00000000E+00  0.00000000E+00  0.00000000E+00
  0.00000000E+00  0.00000000E+00  0.00000000E+00
  0.00000000E+00  0.00000000E+00  0.00000000E+00
  0.00000000E+00  0.00000000E+00  0.00000000E+00
  0.00000000E+00  0.00000000E+00  0.00000000E+00
  0.00000000E+00  0.00000000E+00  0.00000000E+00
  0.00000000E+00  0.00000000E+00  0.00000000E+00
  0.00000000E+00  0.00000000E+00  0.00000000E+00
  0.00000000E+00  0.00000000E+00  0.00000000E+00
  0.00000000E+00  0.00000000E+00  0.00000000E+00
  0.00000000E+00  0.00000000E+00  0.00000000E+00
  0.00000000E+00  0.00000000E+00  0.00000000E+00
  0.00000000E+00  0.00000000E+00  0.00000000E+00
  0.00000000E+00  0.00000000E+00  0.00000000E+00
  0.00000000E+00  0.00000000E+00  0.00000000E+00
  0.00000000E+00  0.00000000E+00  0.00000000E+00
  0.00000000E+00  0.00000000E+00  0.00000000E+00
  0.00000000E+00  0.00000000E+00  0.00000000E+00
  0.00000000E+00  0.00000000E+00  0.00000000E+00
  0.00000000E+00  0.00000000E+00  0.00000000E+00
  0.00000000E+00  0.00000000E+00  0.00000000E+00
  0.00000000E+00  0.00000000E+00  0.00000000E+00
  0.00000000E+00  0.00000000E+00  0.00000000E+00
  0.00000000E+00  0.00000000E+00  0.00000000E+00
  0.00000000E+00  0.00000000E+00  0.00000000E+00
  0.00000000E+00  0.00000000E+00  0.00000000E+00
  0.00000000E+00  0.00000000E+00  0.00000000E+00
  0.00000000E+00  0.00000000E+00  0.00000000E+00
  0.00000000E+00  0.00000000E+00  0.00000000E+00
  0.00000000E+00  0.00000000E+00  0.00000000E+00
  0.00000000E+00  0.00000000E+00  0.00000000E+00
  0.00000000E+00  0.00000000E+00  0.00000000E+00
  0.00000000E+00  0.00000000E+00  0.00000000E+00
  0.00000000E+00  0.00000000E+00  0.00000000E+00
  0.00000000E+00  0.00000000E+00  0.00000000E+00
  0.00000000E+00  0.00000000E+00  0.00000000E+00
  0.00000000E+00  0.00000000E+00  0.00000000E+00
  0.00000000E+00  0.00000000E+00  0.00000000E+00
  0.00000000E+00  0.00000000E+00  0.00000000E+00
  0.00000000E+00  0.00000000E+00  0.00000000E+00
  0.00000000E+00  0.00000000E+00  0.00000000E+00
  0.00000000E+00  0.00000000E+00  0.00000000E+00
  0.00000000E+00  0.00000000E+00  0.00000000E+00
  0.00000000E+00  0.00000000E+00  0.00000000E+00
  0.00000000E+00  0.00000000E+00  0.00000000E+00
