 Hf2 Te10                               
   1.00000000000000     
     4.0033365254453770    0.0000000000000000    0.0000000000000000
     0.0000000000000000   13.6953474503665937    0.0000000000000000
     0.0000000000000000    0.0000000000000000   20.2972128992639966
   Hf   Te
     2    10
Direct
  0.4999998820416924 -0.0000000211605562  0.5483184792014695
  0.0000000932605896  0.5000000066318032  0.4516815297080898
 -0.0000000700760627  0.6837635129809958  0.5289741506319967
  0.5000000299714584  0.8162364736826719  0.4710258597191020
  0.4999999751117910  0.5000000081258142  0.5613466517944969
  0.0000001451042108  0.0000000019967492  0.4386533414839472
  0.5000000608978409  0.6015230576199020  0.3694245463635924
 -0.0000000750884926  0.8984769707482371  0.6305754330095652
 -0.0000000297054991  0.1015230649925182  0.6305754346018519
  0.4999999726279895  0.3984769794214735  0.3694245807372433
  0.0000000035361090  0.3162364659910350  0.5289741390352709
  0.5000000123183730  0.1837634789693564  0.4710258537133744
 
  0.00000000E+00  0.00000000E+00  0.00000000E+00
  0.00000000E+00  0.00000000E+00  0.00000000E+00
  0.00000000E+00  0.00000000E+00  0.00000000E+00
  0.00000000E+00  0.00000000E+00  0.00000000E+00
  0.00000000E+00  0.00000000E+00  0.00000000E+00
  0.00000000E+00  0.00000000E+00  0.00000000E+00
  0.00000000E+00  0.00000000E+00  0.00000000E+00
  0.00000000E+00  0.00000000E+00  0.00000000E+00
  0.00000000E+00  0.00000000E+00  0.00000000E+00
  0.00000000E+00  0.00000000E+00  0.00000000E+00
  0.00000000E+00  0.00000000E+00  0.00000000E+00
  0.00000000E+00  0.00000000E+00  0.00000000E+00
