CONTCAR\(14)                            
   1.00000000000000     
    14.9264001846000003    0.0000000000000000    0.0000000000000000
     0.0000000000000000   14.9455995559999995    0.0000000000000000
     0.0000000000000000    0.0000000000000000   18.3726005553999983
   Li   H    Pt   O 
    50    51    25     1
Direct
  0.1000528116104888  0.9993191008486377  0.4232494975271877
  0.1000754391661687  0.9997065512962138  0.5809889307414338
  0.3012191137380000  0.9988186351927482  0.4234970698940685
  0.3022505100198316  0.9978012380880301  0.5802821073390234
  0.5004762581074331  0.0005976860391712  0.4224351098808299
  0.5019317102032161  0.9954819432279010  0.5795144427789651
  0.6996633391134210  0.0006076520214933  0.4224492569529872
  0.6981890752867059  0.9954866775985209  0.5795080208613825
  0.8988751458905995  0.9987772574096070  0.4235066988396952
  0.8978427242086582  0.9977594665493683  0.5803074664060333
  0.1000312103093890  0.2000077905359490  0.4231811555805507
  0.1000495101364791  0.2000022147555143  0.5805174989098347
  0.3007448853626187  0.2000025087963309  0.4232486086202911
  0.3003514800367597  0.2000007322911017  0.5809354736774495
  0.5002952311095257  0.1999990948700869  0.4234428727545350
  0.5000743063016060  0.1999981194304752  0.5816652864189109
  0.6998866788573395  0.2000039028469445  0.4234771365152454
  0.7000619012768041  0.1999975929092841  0.5816477165356559
  0.8994207130283911  0.2000108696139549  0.4232722132379294
  0.8997869018120284  0.2000013337998752  0.5809998100385272
  0.1000466150546657  0.4006884760505685  0.4232497695240198
  0.1000749228772619  0.4003045895850974  0.5809958816358360
  0.3012162922576778  0.4011815240901626  0.4234976505245882
  0.3022489892184623  0.4021961712485123  0.5802831835363023
  0.5004749934343877  0.3994060975720259  0.4224401185847100
  0.5019291255989273  0.4045126083770612  0.5795141140280506
  0.6996600139993987  0.3993928336114649  0.4224533457341408
  0.6981763761204363  0.4045107238430887  0.5795161856479112
  0.8988656013135099  0.4012319418328474  0.4235129944345744
  0.8978408250634047  0.4022494067181555  0.5803177153659362
  0.1000317732356137  0.6002168664115715  0.4234505888762499
  0.1000468051244781  0.6000272126749167  0.5817143032850041
  0.2993641895869814  0.6003951725144390  0.4224033429701635
  0.3045336142682515  0.6018899145605872  0.5795284865717107
  0.4966860174769963  0.5966198604261379  0.4098573895801181
  0.5139274137953009  0.6139409601124939  0.5882768732219645
  0.7034103657570938  0.5966606237624887  0.4098550243656121
  0.6860082069171014  0.6140879705486668  0.5884519760735216
  0.9006915343663309  0.6004108551778771  0.4224272179050530
  0.8955393147615425  0.6018955931699992  0.5795466911493463
  0.1000332738063108  0.7997880065404246  0.4234476720414193
  0.1000490909440046  0.7999822552792963  0.5817157596856077
  0.2993695340027003  0.7996037547744095  0.4224014757958301
  0.3045385435002359  0.7981126027431813  0.5795261094750472
  0.4966867874020053  0.8033768008509981  0.4098563652783440
  0.5139352062137661  0.7860545030169845  0.5882860695247629
  0.7034084921900075  0.8033374414689618  0.4098510162495401
  0.6859957805694776  0.7859107937304444  0.5884525105823855
  0.9006976142329606  0.7995913213432715  0.4224207874460504
  0.8955418121015555  0.7981130087843553  0.5795460558077821
  0.9996034456524825  0.0995252275650742  0.5935410482605548
  0.9993408998569819  0.0992712545272809  0.4109194643269518
  0.2005220923112816  0.0995376179365266  0.5935161578022061
  0.2007517928414941  0.0992843066479310  0.4108959931120069
  0.4007251247669714  0.0985957708474956  0.5939218518752298
  0.4009597995021181  0.0997604261014615  0.4112813602957317
  0.6000521915957364  0.0974095312245353  0.5941539479233739
  0.6000697042870229  0.1009048599924114  0.4115092761834092
  0.7994239456372725  0.0985839599127090  0.5939408129238686
  0.7992104578592603  0.0997580378683338  0.4113009540563795
  0.9996042874026330  0.3004852203136323  0.5935514549911929
  0.9993353030288645  0.3007489332591504  0.4109300432889569
  0.2005209700974362  0.3004655371617488  0.5935243238179098
  0.2007460409645958  0.3007207311430804  0.4109040355646982
  0.4007241979423171  0.3014028127194521  0.5939221169925304
  0.4009590888850099  0.3002379988076527  0.4112818318213698
  0.6000457603729075  0.3025855737692638  0.5941518274967166
  0.6000702525664110  0.2990953739021833  0.4115073805107485
  0.7994203882305939  0.3014168901986167  0.5939541567305895
  0.7992104865827798  0.3002608897903016  0.4113145153665769
  0.9986662083735354  0.5006846074672779  0.5939462982206649
  0.9998217425241123  0.5009029734874701  0.4113044028758992
  0.2014476897712925  0.5006755377869609  0.5939413545071091
  0.2002487499567209  0.5009087965675434  0.4112984597527856
  0.4044252681092573  0.5044284126709329  0.5918806638168874
  0.4004806955223330  0.5004573072867515  0.4092671856711902
  0.6000360848716895  0.5077552509267136  0.5880257944995719
  0.6000649598346328  0.4970833011910472  0.4058684926219627
  0.7956190957370524  0.5044682262922322  0.5919057536178798
  0.7996007511119032  0.5004928584345691  0.4092922521135165
  0.9974445026653029  0.7000072511437594  0.5941627790961519
  0.0009650775231407  0.7000034707702127  0.4115160427231643
  0.2026219162141274  0.7000035420102080  0.5941562098064423
  0.1990856704835977  0.7000032862120591  0.4115090941348711
  0.4077136905646626  0.6999966474291810  0.5879476640374151
  0.3970625047970344  0.6999972187850005  0.4057856912006912
  0.5998453047893477  0.6999893454953963  0.5569607317615493
  0.6002184953025420  0.7000084812505278  0.3782728299880631
  0.7923469916817325  0.7000065036787930  0.5879982709349534
  0.8030133381384559  0.6999988082195827  0.4058440552746845
  0.9986664699688532  0.8993255572263621  0.5939478451946769
  0.9998312193456513  0.8991026337995720  0.4113057862039255
  0.2014486894095668  0.8993283086883750  0.5939351995638447
  0.2002529060150309  0.8990932104344509  0.4112926305835032
  0.4044306785970093  0.8955721444702789  0.5918771115028463
  0.4004820928160058  0.8995427325486389  0.4092638841096061
  0.6000415050061818  0.8922497143084414  0.5880175543347264
  0.6000638201969721  0.9029191837716510  0.4058610227815720
  0.7956303359141401  0.8955402215001627  0.5918945123888548
  0.7996067012466455  0.8995049793237158  0.4092802566097049
  0.6002860402276937  0.7000253672806451  0.7091651341090852
  0.9995363523389500  0.0994669267764294  0.5022761087751846
  0.2006081800639166  0.0994437107455468  0.5022427502188549
  0.4008427672279495  0.0991173117250312  0.5027138088304710
  0.6000712677404110  0.0990985938725899  0.5029098930916049
  0.7993066232468067  0.0990869892085087  0.5027428356358499
  0.9995346125299704  0.3005463936289985  0.5022872210828950
  0.2006263295387640  0.3005507512853498  0.5022438860864114
  0.4008384574084971  0.3008784244615299  0.5027140502755572
  0.6000717475188395  0.3008894672950788  0.5029118818602143
  0.7992989968470923  0.3009225945758374  0.5027562412266704
  0.9991729176642892  0.5008257387886559  0.5027510958302699
  0.2009023451332510  0.5008076764655627  0.5027317878842226
  0.4032108970361747  0.5032253283075576  0.5008260631717860
  0.6000457608438694  0.5047416059402181  0.4967979331504466
  0.7968812331297315  0.5032607493215409  0.5008406808257675
  0.9992076877050806  0.7000058258821298  0.5029037812363555
  0.2008755298111495  0.6999984339724890  0.5029060711454889
  0.4047270623663834  0.6999990134292489  0.4966976867779778
  0.6000269756254966  0.6999998104662595  0.4719829232517938
  0.7953398187369203  0.6999918126783271  0.4967697879204280
  0.9991676154884743  0.8991808789499487  0.5027352566710093
  0.2009042152419980  0.8992029902484262  0.5027380733747222
  0.4032034846837789  0.8967903136460436  0.5008297113022238
  0.6000528992189658  0.8952553118174720  0.4967906767875760
  0.7968771664337808  0.8967529993928025  0.5008326952171416
  0.6003149285527343  0.7000244280294012  0.6561165735780961
 
  0.00000000E+00  0.00000000E+00  0.00000000E+00
  0.00000000E+00  0.00000000E+00  0.00000000E+00
  0.00000000E+00  0.00000000E+00  0.00000000E+00
  0.00000000E+00  0.00000000E+00  0.00000000E+00
  0.00000000E+00  0.00000000E+00  0.00000000E+00
  0.00000000E+00  0.00000000E+00  0.00000000E+00
  0.00000000E+00  0.00000000E+00  0.00000000E+00
  0.00000000E+00  0.00000000E+00  0.00000000E+00
  0.00000000E+00  0.00000000E+00  0.00000000E+00
  0.00000000E+00  0.00000000E+00  0.00000000E+00
  0.00000000E+00  0.00000000E+00  0.00000000E+00
  0.00000000E+00  0.00000000E+00  0.00000000E+00
  0.00000000E+00  0.00000000E+00  0.00000000E+00
  0.00000000E+00  0.00000000E+00  0.00000000E+00
  0.00000000E+00  0.00000000E+00  0.00000000E+00
  0.00000000E+00  0.00000000E+00  0.00000000E+00
  0.00000000E+00  0.00000000E+00  0.00000000E+00
  0.00000000E+00  0.00000000E+00  0.00000000E+00
  0.00000000E+00  0.00000000E+00  0.00000000E+00
  0.00000000E+00  0.00000000E+00  0.00000000E+00
  0.00000000E+00  0.00000000E+00  0.00000000E+00
  0.00000000E+00  0.00000000E+00  0.00000000E+00
  0.00000000E+00  0.00000000E+00  0.00000000E+00
  0.00000000E+00  0.00000000E+00  0.00000000E+00
  0.00000000E+00  0.00000000E+00  0.00000000E+00
  0.00000000E+00  0.00000000E+00  0.00000000E+00
  0.00000000E+00  0.00000000E+00  0.00000000E+00
  0.00000000E+00  0.00000000E+00  0.00000000E+00
  0.00000000E+00  0.00000000E+00  0.00000000E+00
  0.00000000E+00  0.00000000E+00  0.00000000E+00
  0.00000000E+00  0.00000000E+00  0.00000000E+00
  0.00000000E+00  0.00000000E+00  0.00000000E+00
  0.00000000E+00  0.00000000E+00  0.00000000E+00
  0.00000000E+00  0.00000000E+00  0.00000000E+00
  0.00000000E+00  0.00000000E+00  0.00000000E+00
  0.00000000E+00  0.00000000E+00  0.00000000E+00
  0.00000000E+00  0.00000000E+00  0.00000000E+00
  0.00000000E+00  0.00000000E+00  0.00000000E+00
  0.00000000E+00  0.00000000E+00  0.00000000E+00
  0.00000000E+00  0.00000000E+00  0.00000000E+00
  0.00000000E+00  0.00000000E+00  0.00000000E+00
  0.00000000E+00  0.00000000E+00  0.00000000E+00
  0.00000000E+00  0.00000000E+00  0.00000000E+00
  0.00000000E+00  0.00000000E+00  0.00000000E+00
  0.00000000E+00  0.00000000E+00  0.00000000E+00
  0.00000000E+00  0.00000000E+00  0.00000000E+00
  0.00000000E+00  0.00000000E+00  0.00000000E+00
  0.00000000E+00  0.00000000E+00  0.00000000E+00
  0.00000000E+00  0.00000000E+00  0.00000000E+00
  0.00000000E+00  0.00000000E+00  0.00000000E+00
  0.00000000E+00  0.00000000E+00  0.00000000E+00
  0.00000000E+00  0.00000000E+00  0.00000000E+00
  0.00000000E+00  0.00000000E+00  0.00000000E+00
  0.00000000E+00  0.00000000E+00  0.00000000E+00
  0.00000000E+00  0.00000000E+00  0.00000000E+00
  0.00000000E+00  0.00000000E+00  0.00000000E+00
  0.00000000E+00  0.00000000E+00  0.00000000E+00
  0.00000000E+00  0.00000000E+00  0.00000000E+00
  0.00000000E+00  0.00000000E+00  0.00000000E+00
  0.00000000E+00  0.00000000E+00  0.00000000E+00
  0.00000000E+00  0.00000000E+00  0.00000000E+00
  0.00000000E+00  0.00000000E+00  0.00000000E+00
  0.00000000E+00  0.00000000E+00  0.00000000E+00
  0.00000000E+00  0.00000000E+00  0.00000000E+00
  0.00000000E+00  0.00000000E+00  0.00000000E+00
  0.00000000E+00  0.00000000E+00  0.00000000E+00
  0.00000000E+00  0.00000000E+00  0.00000000E+00
  0.00000000E+00  0.00000000E+00  0.00000000E+00
  0.00000000E+00  0.00000000E+00  0.00000000E+00
  0.00000000E+00  0.00000000E+00  0.00000000E+00
  0.00000000E+00  0.00000000E+00  0.00000000E+00
  0.00000000E+00  0.00000000E+00  0.00000000E+00
  0.00000000E+00  0.00000000E+00  0.00000000E+00
  0.00000000E+00  0.00000000E+00  0.00000000E+00
  0.00000000E+00  0.00000000E+00  0.00000000E+00
  0.00000000E+00  0.00000000E+00  0.00000000E+00
  0.00000000E+00  0.00000000E+00  0.00000000E+00
  0.00000000E+00  0.00000000E+00  0.00000000E+00
  0.00000000E+00  0.00000000E+00  0.00000000E+00
  0.00000000E+00  0.00000000E+00  0.00000000E+00
  0.00000000E+00  0.00000000E+00  0.00000000E+00
  0.00000000E+00  0.00000000E+00  0.00000000E+00
  0.00000000E+00  0.00000000E+00  0.00000000E+00
  0.00000000E+00  0.00000000E+00  0.00000000E+00
  0.00000000E+00  0.00000000E+00  0.00000000E+00
  0.00000000E+00  0.00000000E+00  0.00000000E+00
  0.00000000E+00  0.00000000E+00  0.00000000E+00
  0.00000000E+00  0.00000000E+00  0.00000000E+00
  0.00000000E+00  0.00000000E+00  0.00000000E+00
  0.00000000E+00  0.00000000E+00  0.00000000E+00
  0.00000000E+00  0.00000000E+00  0.00000000E+00
  0.00000000E+00  0.00000000E+00  0.00000000E+00
  0.00000000E+00  0.00000000E+00  0.00000000E+00
  0.00000000E+00  0.00000000E+00  0.00000000E+00
  0.00000000E+00  0.00000000E+00  0.00000000E+00
  0.00000000E+00  0.00000000E+00  0.00000000E+00
  0.00000000E+00  0.00000000E+00  0.00000000E+00
  0.00000000E+00  0.00000000E+00  0.00000000E+00
  0.00000000E+00  0.00000000E+00  0.00000000E+00
  0.00000000E+00  0.00000000E+00  0.00000000E+00
  0.00000000E+00  0.00000000E+00  0.00000000E+00
  0.00000000E+00  0.00000000E+00  0.00000000E+00
  0.00000000E+00  0.00000000E+00  0.00000000E+00
  0.00000000E+00  0.00000000E+00  0.00000000E+00
  0.00000000E+00  0.00000000E+00  0.00000000E+00
  0.00000000E+00  0.00000000E+00  0.00000000E+00
  0.00000000E+00  0.00000000E+00  0.00000000E+00
  0.00000000E+00  0.00000000E+00  0.00000000E+00
  0.00000000E+00  0.00000000E+00  0.00000000E+00
  0.00000000E+00  0.00000000E+00  0.00000000E+00
  0.00000000E+00  0.00000000E+00  0.00000000E+00
  0.00000000E+00  0.00000000E+00  0.00000000E+00
  0.00000000E+00  0.00000000E+00  0.00000000E+00
  0.00000000E+00  0.00000000E+00  0.00000000E+00
  0.00000000E+00  0.00000000E+00  0.00000000E+00
  0.00000000E+00  0.00000000E+00  0.00000000E+00
  0.00000000E+00  0.00000000E+00  0.00000000E+00
  0.00000000E+00  0.00000000E+00  0.00000000E+00
  0.00000000E+00  0.00000000E+00  0.00000000E+00
  0.00000000E+00  0.00000000E+00  0.00000000E+00
  0.00000000E+00  0.00000000E+00  0.00000000E+00
  0.00000000E+00  0.00000000E+00  0.00000000E+00
  0.00000000E+00  0.00000000E+00  0.00000000E+00
  0.00000000E+00  0.00000000E+00  0.00000000E+00
  0.00000000E+00  0.00000000E+00  0.00000000E+00
  0.00000000E+00  0.00000000E+00  0.00000000E+00
  0.00000000E+00  0.00000000E+00  0.00000000E+00
