 Li2 Cu2 P6 O18                         
   1.00000000000000     
     6.0196269560410638    0.0000000000000000    0.0000000000000000
     0.6824208310117830    6.6554583642081102    0.0000000000000000
     0.0000000000000000    0.0000000000000000   21.3703278026039989
   Li   Cu   P    O 
     2     2     6    18
Direct
  0.8742529361810029  0.9786249962716944  0.3895987436292102
  0.1257572862361609  0.0213826043967751  0.6103986757095804
  0.7918638045637979  0.4725959369225526  0.3834616591768618
  0.2081147552396264  0.5274191057398299  0.6165392411765692
  0.8334341655230512  0.2577379798504106  0.5147973141472024
  0.7044574755398187  0.5790152023994845  0.6006786220259326
  0.6329736930830494  0.0257466964608872  0.6121851368219580
  0.3670356869899294  0.9742489563365534  0.3878158584647662
  0.2955336052078068  0.4209838765911888  0.3993213622586230
  0.1665699040978524  0.7422608793539086  0.4852051149952264
  0.9421216535192035  0.7957582111910785  0.4571983267245379
  0.8160108064829803  0.2493020599451240  0.4434025986106326
  0.9122566250852547  0.5379875154117090  0.6405270234551359
  0.8397350965715268  0.0431316193924336  0.6487486225976496
  0.7428127351368162  0.4880041877281027  0.5316503079109094
  0.6413915797245880  0.1392535930119839  0.5436071582567484
  0.6474315761906861  0.8012014214773178  0.5806787692482762
  0.5944396973256298  0.9277400406331414  0.3613101060884799
  0.4901780602395193  0.5066648742464973  0.3676930478826577
  0.5098019279472367  0.4933452050762315  0.6323033162018868
  0.4055720826873684  0.0722479860253640  0.6386926888672472
  0.3525760707719534  0.1987965398099681  0.4193203893965537
  0.3586126357024283  0.8607532248076538  0.4563947117914304
  0.2571867399793866  0.5119896719633051  0.4683499839425881
  0.1602789996781194  0.9568658158849552  0.3512496565732030
  0.0877284107349060  0.4619999244105402  0.3594724010059179
  0.1839850985141143  0.7507011376988284  0.5565992091887708
  0.0578868910461848  0.2042407369624779  0.5427999538514514
 
  0.00000000E+00  0.00000000E+00  0.00000000E+00
  0.00000000E+00  0.00000000E+00  0.00000000E+00
  0.00000000E+00  0.00000000E+00  0.00000000E+00
  0.00000000E+00  0.00000000E+00  0.00000000E+00
  0.00000000E+00  0.00000000E+00  0.00000000E+00
  0.00000000E+00  0.00000000E+00  0.00000000E+00
  0.00000000E+00  0.00000000E+00  0.00000000E+00
  0.00000000E+00  0.00000000E+00  0.00000000E+00
  0.00000000E+00  0.00000000E+00  0.00000000E+00
  0.00000000E+00  0.00000000E+00  0.00000000E+00
  0.00000000E+00  0.00000000E+00  0.00000000E+00
  0.00000000E+00  0.00000000E+00  0.00000000E+00
  0.00000000E+00  0.00000000E+00  0.00000000E+00
  0.00000000E+00  0.00000000E+00  0.00000000E+00
  0.00000000E+00  0.00000000E+00  0.00000000E+00
  0.00000000E+00  0.00000000E+00  0.00000000E+00
  0.00000000E+00  0.00000000E+00  0.00000000E+00
  0.00000000E+00  0.00000000E+00  0.00000000E+00
  0.00000000E+00  0.00000000E+00  0.00000000E+00
  0.00000000E+00  0.00000000E+00  0.00000000E+00
  0.00000000E+00  0.00000000E+00  0.00000000E+00
  0.00000000E+00  0.00000000E+00  0.00000000E+00
  0.00000000E+00  0.00000000E+00  0.00000000E+00
  0.00000000E+00  0.00000000E+00  0.00000000E+00
  0.00000000E+00  0.00000000E+00  0.00000000E+00
  0.00000000E+00  0.00000000E+00  0.00000000E+00
  0.00000000E+00  0.00000000E+00  0.00000000E+00
  0.00000000E+00  0.00000000E+00  0.00000000E+00
