CONTCAR\(6)                             
   1.00000000000000     
    11.4826002120999995    0.0000000000000000    0.0000000000000000
     0.0000000000000000   22.3225002289000010    0.0000000000000000
     0.0000000000000000    0.0000000000000000   23.4783000946000016
   Y    C    I    O 
    42    18    36     6
Direct
  0.1666699920000028  0.9702743040631475  0.4330380743187349
  0.0000000000000000  0.6646009870245443  0.4006024811218716
  0.1666699920000028  0.7500099760000012  0.4913929629895159
  0.0000000000000000  0.6059595370237787  0.5299189597317903
  0.0000000000000000  0.1646010080245425  0.5993874858781332
  0.1666699920000028  0.2499900030000006  0.5086070370104842
  0.1666699920000028  0.4702742610631476  0.5669719586812675
  0.0000000000000000  0.8940505029762207  0.5299189597317903
  0.0000000000000000  0.1059495080237838  0.4700810802682059
  0.0000000000000000  0.8353989699754557  0.4006125141218668
  0.1666699920000028  0.5297257389368525  0.4330280813187287
  0.1666699920000028  0.0297257419368562  0.5669619256812651
  0.0000000000000000  0.3353990129754557  0.5993975188781284
  0.0000000000000000  0.3940405059762213  0.4700810802682059
  0.5000000000000000  0.9702743040631475  0.4330380743187349
  0.3333299969999999  0.6646009870245443  0.4006024811218716
  0.5000000000000000  0.7500099760000012  0.4913929629895159
  0.3333299969999999  0.6059595370237787  0.5299189597317903
  0.3333299969999999  0.1646010080245425  0.5993874858781332
  0.5000000000000000  0.2499900030000006  0.5086070370104842
  0.5000000000000000  0.4702742610631476  0.5669719586812675
  0.3333299969999999  0.8940505029762207  0.5299189597317903
  0.3333299969999999  0.1059495080237838  0.4700810802682059
  0.3333299969999999  0.8353989699754557  0.4006125141218668
  0.5000000000000000  0.5297257389368525  0.4330280813187287
  0.5000000000000000  0.0297257419368562  0.5669619256812651
  0.3333299969999999  0.3353990129754557  0.5993975188781284
  0.3333299969999999  0.3940405059762213  0.4700810802682059
  0.8333299969999999  0.9702743040631475  0.4330380743187349
  0.6666700440000000  0.6646009870245443  0.4006024811218716
  0.8333299969999999  0.7500099760000012  0.4913929629895159
  0.6666700440000000  0.6059595370237787  0.5299189597317903
  0.6666700440000000  0.1646010080245425  0.5993874858781332
  0.8333299969999999  0.2499900030000006  0.5086070370104842
  0.8333299969999999  0.4702742610631476  0.5669719586812675
  0.6666700440000000  0.8940505029762207  0.5299189597317903
  0.6666700440000000  0.1059495080237838  0.4700810802682059
  0.6666700440000000  0.8353989699754557  0.4006125141218668
  0.8333299969999999  0.5297257389368525  0.4330280813187287
  0.8333299969999999  0.0297257419368562  0.5669619256812651
  0.6666700440000000  0.3353990129754557  0.5993975188781284
  0.6666700440000000  0.3940405059762213  0.4700810802682059
  0.1666699920000028  0.1366615470960237  0.5376746096395333
  0.1666699920000028  0.6366615470960236  0.4623153983604642
  0.0000000000000000 -0.0000000000000000  0.5000000000000000
  0.1666699920000028  0.8633384959039764  0.4623254313604666
  0.0000000000000000  0.5000000000000000  0.5000000000000000
  0.1666699920000028  0.3633384529039763  0.5376845606395360
  0.5000000000000000  0.1366615470960237  0.5376746096395333
  0.5000000000000000  0.6366615470960236  0.4623153983604642
  0.3333299969999999 -0.0000000000000000  0.5000000000000000
  0.5000000000000000  0.8633384959039764  0.4623254313604666
  0.3333299969999999  0.5000000000000000  0.5000000000000000
  0.5000000000000000  0.3633384529039763  0.5376845606395360
  0.8333299969999999  0.1366615470960237  0.5376746096395333
  0.8333299969999999  0.6366615470960236  0.4623153983604642
  0.6666700440000000 -0.0000000000000000  0.5000000000000000
  0.8333299969999999  0.8633384959039764  0.4623254313604666
  0.6666700440000000  0.5000000000000000  0.5000000000000000
  0.8333299969999999  0.3633384529039763  0.5376845606395360
  0.1666699920000028  0.2500000000000000  0.6812862310451369
  0.0000000000000000  0.2500000000000000  0.4066868658512746
  0.0000000000000000  0.0565318177606618  0.6749825354286584
  0.1666699920000028  0.9059907434639238  0.6324638835595827
  0.1666699920000028  0.4059907864639238  0.3675361574404171
  0.0000000000000000  0.9434682042393400  0.3250174645713417
  0.0000000000000000  0.4434682042393400  0.6749925684286536
  0.1666699920000028  0.0940092135360762  0.3675361574404171
  0.0000000000000000  0.5565317957606600  0.3250174645713417
  0.0000000000000000  0.7499999790000018  0.5933131341487253
  0.1666699920000028  0.5940092565360762  0.6324638835595827
  0.1666699920000028  0.7499999790000018  0.3187137899548613
  0.5000000000000000  0.2500000000000000  0.6812862310451369
  0.3333299969999999  0.2500000000000000  0.4066868658512746
  0.3333299969999999  0.0565318177606618  0.6749825354286584
  0.5000000000000000  0.9059907434639238  0.6324638835595827
  0.5000000000000000  0.4059907864639238  0.3675361574404171
  0.3333299969999999  0.9434682042393400  0.3250174645713417
  0.3333299969999999  0.4434682042393400  0.6749925684286536
  0.5000000000000000  0.0940092135360762  0.3675361574404171
  0.3333299969999999  0.5565317957606600  0.3250174645713417
  0.3333299969999999  0.7499999790000018  0.5933131341487253
  0.5000000000000000  0.5940092565360762  0.6324638835595827
  0.5000000000000000  0.7499999790000018  0.3187137899548613
  0.8333299969999999  0.2500000000000000  0.6812862310451369
  0.6666700440000000  0.2500000000000000  0.4066868658512746
  0.6666700440000000  0.0565318177606618  0.6749825354286584
  0.8333299969999999  0.9059907434639238  0.6324638835595827
  0.8333299969999999  0.4059907864639238  0.3675361574404171
  0.6666700440000000  0.9434682042393400  0.3250174645713417
  0.6666700440000000  0.4434682042393400  0.6749925684286536
  0.8333299969999999  0.0940092135360762  0.3675361574404171
  0.6666700440000000  0.5565317957606600  0.3250174645713417
  0.6666700440000000  0.7499999790000018  0.5933131341487253
  0.8333299969999999  0.5940092565360762  0.6324638835595827
  0.8333299969999999  0.7499999790000018  0.3187137899548613
  0.0000000000000000  0.7499999790000018  0.4443487178759111
  0.0000000000000000  0.2500000000000000  0.5556512821240890
  0.3333299969999999  0.7499999790000018  0.4443487178759111
  0.3333299969999999  0.2500000000000000  0.5556512821240890
  0.6666700440000000  0.7499999790000018  0.4443487178759111
  0.6666700440000000  0.2500000000000000  0.5556512821240890
 
  0.00000000E+00  0.00000000E+00  0.00000000E+00
  0.00000000E+00  0.00000000E+00  0.00000000E+00
  0.00000000E+00  0.00000000E+00  0.00000000E+00
  0.00000000E+00  0.00000000E+00  0.00000000E+00
  0.00000000E+00  0.00000000E+00  0.00000000E+00
  0.00000000E+00  0.00000000E+00  0.00000000E+00
  0.00000000E+00  0.00000000E+00  0.00000000E+00
  0.00000000E+00  0.00000000E+00  0.00000000E+00
  0.00000000E+00  0.00000000E+00  0.00000000E+00
  0.00000000E+00  0.00000000E+00  0.00000000E+00
  0.00000000E+00  0.00000000E+00  0.00000000E+00
  0.00000000E+00  0.00000000E+00  0.00000000E+00
  0.00000000E+00  0.00000000E+00  0.00000000E+00
  0.00000000E+00  0.00000000E+00  0.00000000E+00
  0.00000000E+00  0.00000000E+00  0.00000000E+00
  0.00000000E+00  0.00000000E+00  0.00000000E+00
  0.00000000E+00  0.00000000E+00  0.00000000E+00
  0.00000000E+00  0.00000000E+00  0.00000000E+00
  0.00000000E+00  0.00000000E+00  0.00000000E+00
  0.00000000E+00  0.00000000E+00  0.00000000E+00
  0.00000000E+00  0.00000000E+00  0.00000000E+00
  0.00000000E+00  0.00000000E+00  0.00000000E+00
  0.00000000E+00  0.00000000E+00  0.00000000E+00
  0.00000000E+00  0.00000000E+00  0.00000000E+00
  0.00000000E+00  0.00000000E+00  0.00000000E+00
  0.00000000E+00  0.00000000E+00  0.00000000E+00
  0.00000000E+00  0.00000000E+00  0.00000000E+00
  0.00000000E+00  0.00000000E+00  0.00000000E+00
  0.00000000E+00  0.00000000E+00  0.00000000E+00
  0.00000000E+00  0.00000000E+00  0.00000000E+00
  0.00000000E+00  0.00000000E+00  0.00000000E+00
  0.00000000E+00  0.00000000E+00  0.00000000E+00
  0.00000000E+00  0.00000000E+00  0.00000000E+00
  0.00000000E+00  0.00000000E+00  0.00000000E+00
  0.00000000E+00  0.00000000E+00  0.00000000E+00
  0.00000000E+00  0.00000000E+00  0.00000000E+00
  0.00000000E+00  0.00000000E+00  0.00000000E+00
  0.00000000E+00  0.00000000E+00  0.00000000E+00
  0.00000000E+00  0.00000000E+00  0.00000000E+00
  0.00000000E+00  0.00000000E+00  0.00000000E+00
  0.00000000E+00  0.00000000E+00  0.00000000E+00
  0.00000000E+00  0.00000000E+00  0.00000000E+00
  0.00000000E+00  0.00000000E+00  0.00000000E+00
  0.00000000E+00  0.00000000E+00  0.00000000E+00
  0.00000000E+00  0.00000000E+00  0.00000000E+00
  0.00000000E+00  0.00000000E+00  0.00000000E+00
  0.00000000E+00  0.00000000E+00  0.00000000E+00
  0.00000000E+00  0.00000000E+00  0.00000000E+00
  0.00000000E+00  0.00000000E+00  0.00000000E+00
  0.00000000E+00  0.00000000E+00  0.00000000E+00
  0.00000000E+00  0.00000000E+00  0.00000000E+00
  0.00000000E+00  0.00000000E+00  0.00000000E+00
  0.00000000E+00  0.00000000E+00  0.00000000E+00
  0.00000000E+00  0.00000000E+00  0.00000000E+00
  0.00000000E+00  0.00000000E+00  0.00000000E+00
  0.00000000E+00  0.00000000E+00  0.00000000E+00
  0.00000000E+00  0.00000000E+00  0.00000000E+00
  0.00000000E+00  0.00000000E+00  0.00000000E+00
  0.00000000E+00  0.00000000E+00  0.00000000E+00
  0.00000000E+00  0.00000000E+00  0.00000000E+00
  0.00000000E+00  0.00000000E+00  0.00000000E+00
  0.00000000E+00  0.00000000E+00  0.00000000E+00
  0.00000000E+00  0.00000000E+00  0.00000000E+00
  0.00000000E+00  0.00000000E+00  0.00000000E+00
  0.00000000E+00  0.00000000E+00  0.00000000E+00
  0.00000000E+00  0.00000000E+00  0.00000000E+00
  0.00000000E+00  0.00000000E+00  0.00000000E+00
  0.00000000E+00  0.00000000E+00  0.00000000E+00
  0.00000000E+00  0.00000000E+00  0.00000000E+00
  0.00000000E+00  0.00000000E+00  0.00000000E+00
  0.00000000E+00  0.00000000E+00  0.00000000E+00
  0.00000000E+00  0.00000000E+00  0.00000000E+00
  0.00000000E+00  0.00000000E+00  0.00000000E+00
  0.00000000E+00  0.00000000E+00  0.00000000E+00
  0.00000000E+00  0.00000000E+00  0.00000000E+00
  0.00000000E+00  0.00000000E+00  0.00000000E+00
  0.00000000E+00  0.00000000E+00  0.00000000E+00
  0.00000000E+00  0.00000000E+00  0.00000000E+00
  0.00000000E+00  0.00000000E+00  0.00000000E+00
  0.00000000E+00  0.00000000E+00  0.00000000E+00
  0.00000000E+00  0.00000000E+00  0.00000000E+00
  0.00000000E+00  0.00000000E+00  0.00000000E+00
  0.00000000E+00  0.00000000E+00  0.00000000E+00
  0.00000000E+00  0.00000000E+00  0.00000000E+00
  0.00000000E+00  0.00000000E+00  0.00000000E+00
  0.00000000E+00  0.00000000E+00  0.00000000E+00
  0.00000000E+00  0.00000000E+00  0.00000000E+00
  0.00000000E+00  0.00000000E+00  0.00000000E+00
  0.00000000E+00  0.00000000E+00  0.00000000E+00
  0.00000000E+00  0.00000000E+00  0.00000000E+00
  0.00000000E+00  0.00000000E+00  0.00000000E+00
  0.00000000E+00  0.00000000E+00  0.00000000E+00
  0.00000000E+00  0.00000000E+00  0.00000000E+00
  0.00000000E+00  0.00000000E+00  0.00000000E+00
  0.00000000E+00  0.00000000E+00  0.00000000E+00
  0.00000000E+00  0.00000000E+00  0.00000000E+00
  0.00000000E+00  0.00000000E+00  0.00000000E+00
  0.00000000E+00  0.00000000E+00  0.00000000E+00
  0.00000000E+00  0.00000000E+00  0.00000000E+00
  0.00000000E+00  0.00000000E+00  0.00000000E+00
  0.00000000E+00  0.00000000E+00  0.00000000E+00
  0.00000000E+00  0.00000000E+00  0.00000000E+00
