CONTCAR\(4)                             
   1.00000000000000     
    10.8315000533999992    0.0000000000000000    0.0000000000000000
     5.4156999588000003    9.3802674871999994    0.0000000000000000
     0.0000000000000000    0.0000000000000000   21.2775001525999983
   Ti   Te   P    O    H 
    18    18     9     2     1
Selective dynamics
Direct
  0.1087975929706460  0.1206801676732070  0.4391064843110755   F   F   F
  0.2189772607863745  0.2310526766842926  0.5632539682937150   F   F   F
  0.4424995657993165  0.1202948007512319  0.4393676426186701   F   F   F
  0.5612840756940685  0.2159462190810402  0.5629302824332783   F   F   F
  0.7755363422518187  0.1201177303343002  0.4392695839357259   F   F   F
  0.8883528098226421  0.2305091100167331  0.5632091682840255   F   F   F
  0.1080671127216490  0.4545663882983320  0.4393132001901918   F   F   F
  0.2029938889797975  0.5731354827845294  0.5635094395735436   F   F   F
  0.4421118991878927  0.4540717723776240  0.4408503160417254   F   F   F
  0.5615968298899290  0.5727302770409324  0.5634978617096209   F   F   F
  0.7753138153029795  0.4547757483072346  0.4393325289413568   F   F   F
  0.8854821362185774  0.5668571655603287  0.5634001953177759   F   F   F
  0.1087342954280430  0.7872509125049874  0.4395134865470354   F   F   F
  0.2191359228935355  0.8996753619919033  0.5635097014812942   F   F   F
  0.4423802269061028  0.7871811893123066  0.4395607563486124   F   F   F
  0.5550143200357525  0.8978961717341818  0.5630802514895237   F   F   F
  0.7750939451619558  0.7874817318584633  0.4371206930350766   F   F   F
  0.8853147547676627  0.8979808062920966  0.5631737681907723   F   F   F
  0.2199727602895294  0.2320814646346108  0.3525830701553971   F   F   F
  0.1086224032782610  0.1208659107572103  0.6511453265857909   F   F   F
  0.5526538698571812  0.2329750738005387  0.3529749185565549   F   F   F
  0.4406957309689830  0.1189053486856793  0.6508332635523431   F   F   F
  0.8863033996019993  0.2320424398466514  0.3525976743151418   F   F   F
  0.7783844774935247  0.1187011259760098  0.6508545768294027   F   F   F
  0.2212253756009659  0.5646014262898973  0.3530267887410474   F   F   F
  0.1066076379948413  0.4529318450383286  0.6510166083265077   F   F   F
  0.5524078083175965  0.5645689338107971  0.3529840680485492   F   F   F
  0.4437788934443532  0.4515884751325743  0.6355838248602055   F   F   F
  0.8873614407878705  0.5633032727495859  0.3513072458751409   F   F   F
  0.7785263931963442  0.4526195104547810  0.6511284477160757   F   F   F
  0.2201182521225107  0.8980560776131625  0.3526120529992838   F   F   F
  0.1062442202443350  0.7905345975848448  0.6509568398213119   F   F   F
  0.5507167690140022  0.8995691153962539  0.3512933112633121   F   F   F
  0.4406383051012028  0.7914593890426929  0.6509091469954384   F   F   F
  0.8878831673826113  0.8994019081359923  0.3513791890206832   F   F   F
  0.7752010069142727  0.7876976906190052  0.6507432843291809   F   F   F
  0.9976768606784034  0.0092867332192341  0.5011149260393992   F   F   F
  0.3310943750482167  0.0094355092301939  0.5012081244015505   F   F   F
  0.6667451866300453  0.0048002963658504  0.4992916435250550   F   F   F
  0.9973765268628512  0.3432079185245414  0.5011664805349909   F   F   F
  0.3307074736406861  0.3430423397211584  0.5029589142388673   F   F   F
  0.6647833733268413  0.3427103082506733  0.5028230604555262   F   F   F
  0.9928322907879732  0.6786538374051290  0.4994332791132763   F   F   F
  0.3312383649832000  0.6756503101875850  0.5034248443438400   F   F   F
  0.6665487899434979  0.6786045734127697  0.4995695576340680   F   F   F
  0.4425053944956403  0.5383288057423670  0.7675547532797253   T   T   T
  0.4722176500993456  0.4125438369176564  0.7321523636583152   T   T   T
  0.5381858550741327  0.5273274998505144  0.7699678500073179   T   T   T
 
  0.00000000E+00  0.00000000E+00  0.00000000E+00
  0.00000000E+00  0.00000000E+00  0.00000000E+00
  0.00000000E+00  0.00000000E+00  0.00000000E+00
  0.00000000E+00  0.00000000E+00  0.00000000E+00
  0.00000000E+00  0.00000000E+00  0.00000000E+00
  0.00000000E+00  0.00000000E+00  0.00000000E+00
  0.00000000E+00  0.00000000E+00  0.00000000E+00
  0.00000000E+00  0.00000000E+00  0.00000000E+00
  0.00000000E+00  0.00000000E+00  0.00000000E+00
  0.00000000E+00  0.00000000E+00  0.00000000E+00
  0.00000000E+00  0.00000000E+00  0.00000000E+00
  0.00000000E+00  0.00000000E+00  0.00000000E+00
  0.00000000E+00  0.00000000E+00  0.00000000E+00
  0.00000000E+00  0.00000000E+00  0.00000000E+00
  0.00000000E+00  0.00000000E+00  0.00000000E+00
  0.00000000E+00  0.00000000E+00  0.00000000E+00
  0.00000000E+00  0.00000000E+00  0.00000000E+00
  0.00000000E+00  0.00000000E+00  0.00000000E+00
  0.00000000E+00  0.00000000E+00  0.00000000E+00
  0.00000000E+00  0.00000000E+00  0.00000000E+00
  0.00000000E+00  0.00000000E+00  0.00000000E+00
  0.00000000E+00  0.00000000E+00  0.00000000E+00
  0.00000000E+00  0.00000000E+00  0.00000000E+00
  0.00000000E+00  0.00000000E+00  0.00000000E+00
  0.00000000E+00  0.00000000E+00  0.00000000E+00
  0.00000000E+00  0.00000000E+00  0.00000000E+00
  0.00000000E+00  0.00000000E+00  0.00000000E+00
  0.00000000E+00  0.00000000E+00  0.00000000E+00
  0.00000000E+00  0.00000000E+00  0.00000000E+00
  0.00000000E+00  0.00000000E+00  0.00000000E+00
  0.00000000E+00  0.00000000E+00  0.00000000E+00
  0.00000000E+00  0.00000000E+00  0.00000000E+00
  0.00000000E+00  0.00000000E+00  0.00000000E+00
  0.00000000E+00  0.00000000E+00  0.00000000E+00
  0.00000000E+00  0.00000000E+00  0.00000000E+00
  0.00000000E+00  0.00000000E+00  0.00000000E+00
  0.00000000E+00  0.00000000E+00  0.00000000E+00
  0.00000000E+00  0.00000000E+00  0.00000000E+00
  0.00000000E+00  0.00000000E+00  0.00000000E+00
  0.00000000E+00  0.00000000E+00  0.00000000E+00
  0.00000000E+00  0.00000000E+00  0.00000000E+00
  0.00000000E+00  0.00000000E+00  0.00000000E+00
  0.00000000E+00  0.00000000E+00  0.00000000E+00
  0.00000000E+00  0.00000000E+00  0.00000000E+00
  0.00000000E+00  0.00000000E+00  0.00000000E+00
  0.00000000E+00  0.00000000E+00  0.00000000E+00
  0.00000000E+00  0.00000000E+00  0.00000000E+00
  0.00000000E+00  0.00000000E+00  0.00000000E+00
