CONTCAR                                 
   1.00000000000000     
    11.7709999084000003    0.0000000000000000    0.0000000000000000
    -5.8855350711999996   11.1688637170000007    0.0000000000000000
     0.0000000000000000    0.0000000000000000   18.2658004761000008
   Cr   I    O    H 
     9    18     1     1
Selective dynamics
Direct
  0.0121657545074711  0.9994665843449653  0.4998158596715996   F   F   F
  0.3438817848227913  0.9974694920436562  0.5001196530721614   F   F   F
  0.6766805711645389  0.9986796883299363  0.5006209570795619   F   F   F
  0.0144122126024939  0.3363014357833052  0.4974101631090448   F   F   F
  0.3453342653697291  0.3305517805519500  0.4970294143324310   F   F   F
  0.6783415590076842  0.3306959006867771  0.4975390307764371   F   F   F
  0.0146490207807020  0.6677704866914667  0.5028417906201810   F   F   F
  0.3450088522731605  0.6649497834313820  0.5018899708359186   F   F   F
  0.6790203285636451  0.6651335975217378  0.5008910374002085   F   F   F
  0.1361081135989579  0.2440252310881093  0.5886030570998457   F   F   F
  0.2224053886051109  0.0853311303812774  0.4083353466026551   F   F   F
  0.4676439484727908  0.2428527102327180  0.5887047780347388   F   F   F
  0.5538790037481292  0.0849477997850627  0.4087683644107045   F   F   F
  0.8011738062029039  0.2446751078762261  0.5892049076341905   F   F   F
  0.8936416733963881  0.0982502529166140  0.4126502127963505   F   F   F
  0.1224466695003272  0.5523404049584286  0.5825157332301956   F   F   F
  0.2239605731145744  0.4185051409963094  0.4053966834852147   F   F   F
  0.4674450419281229  0.5756027775715253  0.5908273983789769   F   F   F
  0.5570950900433402  0.4205381571342386  0.4073528317836193   F   F   F
  0.8017357334683481  0.5768347353783270  0.5911270503707939   F   F   F
  0.8870223574846960  0.4190139102914117  0.4056973719763022   F   F   F
  0.1307482421870887  0.9066634814605834  0.5880368860976333   F   F   F
  0.2212070342852854  0.7495287245700482  0.4095821509517492   F   F   F
  0.4647664848570727  0.9057108637280749  0.5888419753294372   F   F   F
  0.5579269719826669  0.7554145911397825  0.4106521072189366   F   F   F
  0.8015671929067096  0.9127124051687474  0.5913767046741185   F   F   F
  0.8908464971464340  0.7574616747021778  0.4110622665027819   F   F   F
  0.2049793888615881  0.7318571172637576  0.6626288078521156   T   T   T
  0.1683263731172318  0.7045347619714235  0.7105361068479276   T   T   T
 
  0.00000000E+00  0.00000000E+00  0.00000000E+00
  0.00000000E+00  0.00000000E+00  0.00000000E+00
  0.00000000E+00  0.00000000E+00  0.00000000E+00
  0.00000000E+00  0.00000000E+00  0.00000000E+00
  0.00000000E+00  0.00000000E+00  0.00000000E+00
  0.00000000E+00  0.00000000E+00  0.00000000E+00
  0.00000000E+00  0.00000000E+00  0.00000000E+00
  0.00000000E+00  0.00000000E+00  0.00000000E+00
  0.00000000E+00  0.00000000E+00  0.00000000E+00
  0.00000000E+00  0.00000000E+00  0.00000000E+00
  0.00000000E+00  0.00000000E+00  0.00000000E+00
  0.00000000E+00  0.00000000E+00  0.00000000E+00
  0.00000000E+00  0.00000000E+00  0.00000000E+00
  0.00000000E+00  0.00000000E+00  0.00000000E+00
  0.00000000E+00  0.00000000E+00  0.00000000E+00
  0.00000000E+00  0.00000000E+00  0.00000000E+00
  0.00000000E+00  0.00000000E+00  0.00000000E+00
  0.00000000E+00  0.00000000E+00  0.00000000E+00
  0.00000000E+00  0.00000000E+00  0.00000000E+00
  0.00000000E+00  0.00000000E+00  0.00000000E+00
  0.00000000E+00  0.00000000E+00  0.00000000E+00
  0.00000000E+00  0.00000000E+00  0.00000000E+00
  0.00000000E+00  0.00000000E+00  0.00000000E+00
  0.00000000E+00  0.00000000E+00  0.00000000E+00
  0.00000000E+00  0.00000000E+00  0.00000000E+00
  0.00000000E+00  0.00000000E+00  0.00000000E+00
  0.00000000E+00  0.00000000E+00  0.00000000E+00
  0.00000000E+00  0.00000000E+00  0.00000000E+00
  0.00000000E+00  0.00000000E+00  0.00000000E+00
