 Li4 W4 Cl24                            
   1.00000000000000     
    12.4667298939151650    0.0000000000000000    0.0000000000000000
     6.2333649469575825   10.7964256404715169    0.0000000000000000
     0.0000000000000000    0.0000000000000000   17.7941788443569990
   Li   W    Cl
     4     4    24
Direct
  0.3333424724747777  0.3333196959061271  0.5065325719716083
  0.4981362337722474  0.4980312924621141  0.5037388872252049
  0.4979529180965849  1.0038392112795955  0.5037736978158963
  1.0038437486346674  0.4981897317810262  0.5037621719261268
  0.1609903780871302  0.1614877992160624  0.5015343095863136
  0.6666711371364054  0.6666659162828157  0.5011646787816196
  0.1614694005919730  0.6775334203536064  0.5015228863666646
  0.6775528575640897  0.1609899474284453  0.5015296950436595
  0.6616318034987769  0.0163060017917781  0.4253050505079041
  0.1665941126830363  0.0162470544525444  0.4223490239979503
  0.6634400549446730  0.8216607901412538  0.5779836415205575
  0.0162464695502921  0.8171391416503473  0.4223437587137058
  0.8216591154108859  0.5149178766848079  0.5779919668136877
  0.3197304887336419  0.0141335519191471  0.5779988779964759
  0.0162851249489642  0.3220848456150549  0.4253029565933726
  0.5092524087186363  0.3229207528730043  0.4280505748939791
  0.5126243392026085  0.1659200943552800  0.5789855604298696
  0.5149181730668080  0.6634367880640715  0.5779932834179793
  0.1659177740501376  0.3214705335250619  0.5789889814318855
  0.6608488711201687  0.5160578045614690  0.4249041698024990
  0.8171715828848986  0.1665930539921862  0.4223541751885625
  0.0135737730569310  0.1664625572958698  0.5784296060022702
  0.1678558528809561  0.5092150002188514  0.4280444297895765
  0.3229247751977131  0.1678362050147719  0.4280606566657608
  0.3214741254590432  0.5125921922777934  0.5789808569772307
  0.8230906695311703  0.6608381403901085  0.4248920898396474
  0.6661109966642743  0.3197533879504768  0.5779841368522647
  0.1664577940438352  0.8199283477914523  0.5784252294958453
  0.8199596992120979  0.0136008956909102  0.5784263786171893
  0.0141315393695607  0.6661082544882084  0.5779831403113858
  0.3220740527253176  0.6616347990236052  0.4252913022474368
  0.5160682566876859  0.8230859155221258  0.4248977744380179
 
  0.00000000E+00  0.00000000E+00  0.00000000E+00
  0.00000000E+00  0.00000000E+00  0.00000000E+00
  0.00000000E+00  0.00000000E+00  0.00000000E+00
  0.00000000E+00  0.00000000E+00  0.00000000E+00
  0.00000000E+00  0.00000000E+00  0.00000000E+00
  0.00000000E+00  0.00000000E+00  0.00000000E+00
  0.00000000E+00  0.00000000E+00  0.00000000E+00
  0.00000000E+00  0.00000000E+00  0.00000000E+00
  0.00000000E+00  0.00000000E+00  0.00000000E+00
  0.00000000E+00  0.00000000E+00  0.00000000E+00
  0.00000000E+00  0.00000000E+00  0.00000000E+00
  0.00000000E+00  0.00000000E+00  0.00000000E+00
  0.00000000E+00  0.00000000E+00  0.00000000E+00
  0.00000000E+00  0.00000000E+00  0.00000000E+00
  0.00000000E+00  0.00000000E+00  0.00000000E+00
  0.00000000E+00  0.00000000E+00  0.00000000E+00
  0.00000000E+00  0.00000000E+00  0.00000000E+00
  0.00000000E+00  0.00000000E+00  0.00000000E+00
  0.00000000E+00  0.00000000E+00  0.00000000E+00
  0.00000000E+00  0.00000000E+00  0.00000000E+00
  0.00000000E+00  0.00000000E+00  0.00000000E+00
  0.00000000E+00  0.00000000E+00  0.00000000E+00
  0.00000000E+00  0.00000000E+00  0.00000000E+00
  0.00000000E+00  0.00000000E+00  0.00000000E+00
  0.00000000E+00  0.00000000E+00  0.00000000E+00
  0.00000000E+00  0.00000000E+00  0.00000000E+00
  0.00000000E+00  0.00000000E+00  0.00000000E+00
  0.00000000E+00  0.00000000E+00  0.00000000E+00
  0.00000000E+00  0.00000000E+00  0.00000000E+00
  0.00000000E+00  0.00000000E+00  0.00000000E+00
  0.00000000E+00  0.00000000E+00  0.00000000E+00
  0.00000000E+00  0.00000000E+00  0.00000000E+00
