CONTCAR\(9)                             
   1.00000000000000     
    13.5033998488999991    0.0000000000000000    0.0000000000000000
     0.0000000000000000   19.6100006104000002    0.0000000000000000
     0.0000000000000000    0.0000000000000000   18.7679004668999987
   Nb   Se   O 
    32    48     1
Selective dynamics
Direct
  0.0651496115567625  0.4361652779936591  0.4996038633347410   F   F   F
  0.1862410423021004  0.0634387188500654  0.4976080265509708   F   F   F
  0.0624393817921174  0.2808657705686528  0.4474912134466749   F   F   F
  0.1878246495864389  0.2193910959899199  0.5492842089439378   F   F   F
  0.3156092476400971  0.4364995169105654  0.4993147750465212   F   F   F
  0.4374614263680314  0.0634473497517263  0.4975184740896239   F   F   F
  0.3123754582226681  0.2805148837648375  0.4477562279203084   F   F   F
  0.4372678426650367  0.2190523883382127  0.5495349180293303   F   F   F
  0.5591741409516260  0.4364832222168857  0.4994024419698349   F   F   F
  0.6882842564617064  0.0634380143859445  0.4978332176551703   F   F   F
  0.5622253680731291  0.2805389234906457  0.4478843917368707   F   F   F
  0.6865924885939165  0.2193633263219610  0.5494283460729008   F   F   F
  0.8092272234870634  0.4361957579165932  0.4996790975796301   F   F   F
  0.9374069715229538  0.0633385810869385  0.4979645060485680   F   F   F
  0.8121222619502149  0.2808695035563247  0.4475029669090986   F   F   F
  0.9372220426592719  0.2194698120889385  0.5491524419096478   F   F   F
  0.0613283892130809  0.9371136610724875  0.4984958794965166   F   F   F
  0.1853134110709149  0.5631253339959414  0.5003030888556523   F   F   F
  0.0610899567657341  0.7804722000755078  0.4489630607726411   F   F   F
  0.1892208207569439  0.7205921658956385  0.5540996358287629   F   F   F
  0.3129326944281914  0.9374234089723998  0.4985553548335631   F   F   F
  0.4372086417792431  0.5642608931845601  0.5030851595173260   F   F   F
  0.3031441909418149  0.7809127337575319  0.4522153678508403   F   F   F
  0.4374874811177492  0.7181584728209955  0.5942694249197231   F   F   F
  0.5624966139259939  0.9374724850530356  0.4985946501681511   F   F   F
  0.6895401568771433  0.5630918543745409  0.5006038919699094   F   F   F
  0.5719459204721815  0.7808080696473212  0.4521624496147325   F   F   F
  0.6854842614599264  0.7204677312160968  0.5541717146623526   F   F   F
  0.8131599627679549  0.9371723369884393  0.4985467220473438   F   F   F
  0.9373519049134771  0.5636288309386543  0.4998463493670044   F   F   F
  0.8138225936229304  0.7803188275254769  0.4490522980921838   F   F   F
  0.9373159498649315  0.7199733380702256  0.5513296104838616   F   F   F
  0.0617100492721505  0.0278458008175022  0.3996888584491600   F   F   F
  0.1881040437915118  0.4701054094099817  0.5973268570174923   F   F   F
  0.0623559626680290  0.1248054272495196  0.5916864829410926   F   F   F
  0.1881783494260887  0.3757017592531753  0.4052844703040961   F   F   F
  0.1872553544882294  0.1841976056315033  0.4165415138063153   F   F   F
  0.0624676990861346  0.3156411286028842  0.5804920851865205   F   F   F
  0.3123903897576383  0.0284633207090295  0.4000757646398085   F   F   F
  0.4373422047778419  0.4709694060868870  0.5994873227783515   F   F   F
  0.3119454638675876  0.1244729322892439  0.5916082021980174   F   F   F
  0.4373225238025640  0.3760029241160652  0.4050106084043534   F   F   F
  0.4373498950133481  0.1842686045119137  0.4165408130095258   F   F   F
  0.3126461221916728  0.3156765913931849  0.5805283691559779   F   F   F
  0.5624516249799214  0.0285133970930929  0.4000582208991261   F   F   F
  0.6864539118591537  0.4700538689496412  0.5976071866408361   F   F   F
  0.5624315202262551  0.1245300458371688  0.5919239057645527   F   F   F
  0.6864660493453911  0.3758271413546126  0.4054588384822466   F   F   F
  0.6872381340591147  0.1842240386228298  0.4166761623509387   F   F   F
  0.5617688534724650  0.3157267435723909  0.5806708094876072   F   F   F
  0.8127560123652486  0.0281236152604478  0.3998372445012137   F   F   F
  0.9372828081936220  0.4701908439967326  0.5958324670938424   F   F   F
  0.8122108452619159  0.1247776931978279  0.5916647308267144   F   F   F
  0.9372763916829072  0.3753683738873903  0.4058240417264614   F   F   F
  0.9372705633189184  0.1844728845802024  0.4163908635849651   F   F   F
  0.8119974120983500  0.3155881671885794  0.5804261196844749   F   F   F
  0.0622859869558710  0.5277261665402477  0.4018201877046721   F   F   F
  0.1863917336062357  0.9722372608868426  0.5959718829288931   F   F   F
  0.0613776143163349  0.6238694423496796  0.5927716855327816   F   F   F
  0.1877876924536608  0.8749952547644426  0.4038854349250514   F   F   F
  0.1850621110407928  0.6833451287252359  0.4210637475040926   F   F   F
  0.0615957115629868  0.8167773405318641  0.5815547816704054   F   F   F
  0.3135945873208286  0.5306459728358561  0.4034768357216123   F   F   F
  0.4376490519226408  0.9732493874193011  0.5961590549668472   F   F   F
  0.3061602597469602  0.6193453682749563  0.5973304655769951   F   F   F
  0.4377251222601402  0.8717879720309654  0.4106834751191926   F   F   F
  0.4373726599246055  0.6888956100204098  0.4365825507983487   F   F   F
  0.3098743921804683  0.8203295185483128  0.5806720520212210   F   F   F
  0.5612800013043469  0.5308378849259796  0.4037972286923548   F   F   F
  0.6884589817875266  0.9723694788019586  0.5963534026928414   F   F   F
  0.5684113633802710  0.6192483390745096  0.5974556524836814   F   F   F
  0.6874773844508510  0.8749906243232957  0.4038740144624171   F   F   F
  0.6898285047448809  0.6831021248580100  0.4210876658860911   F   F   F
  0.5651004403477913  0.8203725174829231  0.5806376427552564   F   F   F
  0.8122098069917598  0.5278195590606600  0.4019259674348561   F   F   F
  0.9374217962797573  0.9721331473370469  0.5965808428138857   F   F   F
  0.8135034205622418  0.6238235320377541  0.5930430509143250   F   F   F
  0.9373057383124959  0.8748643092953827  0.4050423244958097   F   F   F
  0.9375470405834321  0.6840132218600061  0.4184874673097809   F   F   F
  0.8130356633714300  0.8167642590543167  0.5817070179224544   F   F   F
  0.4373545847742975  0.7234238905275561  0.6850015200328187   T   T   T
 
  0.00000000E+00  0.00000000E+00  0.00000000E+00
  0.00000000E+00  0.00000000E+00  0.00000000E+00
  0.00000000E+00  0.00000000E+00  0.00000000E+00
  0.00000000E+00  0.00000000E+00  0.00000000E+00
  0.00000000E+00  0.00000000E+00  0.00000000E+00
  0.00000000E+00  0.00000000E+00  0.00000000E+00
  0.00000000E+00  0.00000000E+00  0.00000000E+00
  0.00000000E+00  0.00000000E+00  0.00000000E+00
  0.00000000E+00  0.00000000E+00  0.00000000E+00
  0.00000000E+00  0.00000000E+00  0.00000000E+00
  0.00000000E+00  0.00000000E+00  0.00000000E+00
  0.00000000E+00  0.00000000E+00  0.00000000E+00
  0.00000000E+00  0.00000000E+00  0.00000000E+00
  0.00000000E+00  0.00000000E+00  0.00000000E+00
  0.00000000E+00  0.00000000E+00  0.00000000E+00
  0.00000000E+00  0.00000000E+00  0.00000000E+00
  0.00000000E+00  0.00000000E+00  0.00000000E+00
  0.00000000E+00  0.00000000E+00  0.00000000E+00
  0.00000000E+00  0.00000000E+00  0.00000000E+00
  0.00000000E+00  0.00000000E+00  0.00000000E+00
  0.00000000E+00  0.00000000E+00  0.00000000E+00
  0.00000000E+00  0.00000000E+00  0.00000000E+00
  0.00000000E+00  0.00000000E+00  0.00000000E+00
  0.00000000E+00  0.00000000E+00  0.00000000E+00
  0.00000000E+00  0.00000000E+00  0.00000000E+00
  0.00000000E+00  0.00000000E+00  0.00000000E+00
  0.00000000E+00  0.00000000E+00  0.00000000E+00
  0.00000000E+00  0.00000000E+00  0.00000000E+00
  0.00000000E+00  0.00000000E+00  0.00000000E+00
  0.00000000E+00  0.00000000E+00  0.00000000E+00
  0.00000000E+00  0.00000000E+00  0.00000000E+00
  0.00000000E+00  0.00000000E+00  0.00000000E+00
  0.00000000E+00  0.00000000E+00  0.00000000E+00
  0.00000000E+00  0.00000000E+00  0.00000000E+00
  0.00000000E+00  0.00000000E+00  0.00000000E+00
  0.00000000E+00  0.00000000E+00  0.00000000E+00
  0.00000000E+00  0.00000000E+00  0.00000000E+00
  0.00000000E+00  0.00000000E+00  0.00000000E+00
  0.00000000E+00  0.00000000E+00  0.00000000E+00
  0.00000000E+00  0.00000000E+00  0.00000000E+00
  0.00000000E+00  0.00000000E+00  0.00000000E+00
  0.00000000E+00  0.00000000E+00  0.00000000E+00
  0.00000000E+00  0.00000000E+00  0.00000000E+00
  0.00000000E+00  0.00000000E+00  0.00000000E+00
  0.00000000E+00  0.00000000E+00  0.00000000E+00
  0.00000000E+00  0.00000000E+00  0.00000000E+00
  0.00000000E+00  0.00000000E+00  0.00000000E+00
  0.00000000E+00  0.00000000E+00  0.00000000E+00
  0.00000000E+00  0.00000000E+00  0.00000000E+00
  0.00000000E+00  0.00000000E+00  0.00000000E+00
  0.00000000E+00  0.00000000E+00  0.00000000E+00
  0.00000000E+00  0.00000000E+00  0.00000000E+00
  0.00000000E+00  0.00000000E+00  0.00000000E+00
  0.00000000E+00  0.00000000E+00  0.00000000E+00
  0.00000000E+00  0.00000000E+00  0.00000000E+00
  0.00000000E+00  0.00000000E+00  0.00000000E+00
  0.00000000E+00  0.00000000E+00  0.00000000E+00
  0.00000000E+00  0.00000000E+00  0.00000000E+00
  0.00000000E+00  0.00000000E+00  0.00000000E+00
  0.00000000E+00  0.00000000E+00  0.00000000E+00
  0.00000000E+00  0.00000000E+00  0.00000000E+00
  0.00000000E+00  0.00000000E+00  0.00000000E+00
  0.00000000E+00  0.00000000E+00  0.00000000E+00
  0.00000000E+00  0.00000000E+00  0.00000000E+00
  0.00000000E+00  0.00000000E+00  0.00000000E+00
  0.00000000E+00  0.00000000E+00  0.00000000E+00
  0.00000000E+00  0.00000000E+00  0.00000000E+00
  0.00000000E+00  0.00000000E+00  0.00000000E+00
  0.00000000E+00  0.00000000E+00  0.00000000E+00
  0.00000000E+00  0.00000000E+00  0.00000000E+00
  0.00000000E+00  0.00000000E+00  0.00000000E+00
  0.00000000E+00  0.00000000E+00  0.00000000E+00
  0.00000000E+00  0.00000000E+00  0.00000000E+00
  0.00000000E+00  0.00000000E+00  0.00000000E+00
  0.00000000E+00  0.00000000E+00  0.00000000E+00
  0.00000000E+00  0.00000000E+00  0.00000000E+00
  0.00000000E+00  0.00000000E+00  0.00000000E+00
  0.00000000E+00  0.00000000E+00  0.00000000E+00
  0.00000000E+00  0.00000000E+00  0.00000000E+00
  0.00000000E+00  0.00000000E+00  0.00000000E+00
  0.00000000E+00  0.00000000E+00  0.00000000E+00
