 Cu1 Te1 O4                             
   1.00000000000000     
     2.9652865377744710    0.0000000000000000    0.0000000000000000
     0.0000000000000000    5.9333697507452676    0.0000000000000000
     0.0000000000000000    0.0000000000000000   17.5358650214085365
   Cu   Te   O 
     1     1     4
Direct
  0.0009002078065095  0.5834388326621109  0.4999700112412739
  0.5009918693335038  0.0834220440742399  0.4999474894799292
  0.0009540459615778  0.0170104268732700  0.4279527090070943
  0.5008995118859545  0.3947720830920716  0.4662683568619812
  0.0009465890459879  0.1499767093980893  0.5719301273627764
  0.5008947233855565  0.7721664723460435  0.5336550992295912
 
  0.00000000E+00  0.00000000E+00  0.00000000E+00
  0.00000000E+00  0.00000000E+00  0.00000000E+00
  0.00000000E+00  0.00000000E+00  0.00000000E+00
  0.00000000E+00  0.00000000E+00  0.00000000E+00
  0.00000000E+00  0.00000000E+00  0.00000000E+00
  0.00000000E+00  0.00000000E+00  0.00000000E+00
