 Ce2 Zn2 P2 O2                          
   1.00000000000000     
     3.9250344204447081    0.0000000000000000    0.0000000000000000
     1.9625177061608010    3.3991758451154932    0.0000000000000000
     0.0000000000000000    0.0000000000000000   23.2442476518479992
   Ce   Zn   P    O 
     2     2     2     2
Direct
  0.3333332977973313  0.3333333813982264  0.5641976918720175
  0.0000000783983651  0.9999999494590526  0.4358174771975172
  0.9999998808392618  0.9999996156858089  0.6755635402253404
  0.3333332968029552  0.3333337002631467  0.3244180144852677
  0.6666669408405284  0.6666667421411461  0.3432452596881035
  0.6666663904208576  0.6666666990789381  0.6567441882772584
  0.3333332411069136  0.3333330160347998  0.4620806126220600
  0.9999998737937972  0.9999998959388847  0.5379332156324281
 
  0.00000000E+00  0.00000000E+00  0.00000000E+00
  0.00000000E+00  0.00000000E+00  0.00000000E+00
  0.00000000E+00  0.00000000E+00  0.00000000E+00
  0.00000000E+00  0.00000000E+00  0.00000000E+00
  0.00000000E+00  0.00000000E+00  0.00000000E+00
  0.00000000E+00  0.00000000E+00  0.00000000E+00
  0.00000000E+00  0.00000000E+00  0.00000000E+00
  0.00000000E+00  0.00000000E+00  0.00000000E+00
