CONTCAR\(9)                             
   1.00000000000000     
    15.5867004394999995    0.0000000000000000    0.0000000000000000
     0.0000000000000000   15.5869998931999998    0.0000000000000000
     0.0000000000000000    0.0000000000000000   20.8931999206999990
   Sr   Cu   Cl   O 
    32    16    32    32
Direct
  0.0000000000000000  0.0000000000000000  0.4177100089999968
  0.0000000000000000  0.0000000000000000  0.5822899910000032
  0.2500000000000000  0.0000000000000000  0.4177100089999968
  0.2500000000000000  0.0000000000000000  0.5822899910000032
  0.5000000000000000  0.0000000000000000  0.4177100089999968
  0.5000000000000000  0.0000000000000000  0.5822899910000032
  0.7500000000000000  0.0000000000000000  0.4177100089999968
  0.7500000000000000  0.0000000000000000  0.5822899910000032
  0.0000000000000000  0.2500000000000000  0.4177100089999968
  0.0000000000000000  0.2500000000000000  0.5822899910000032
  0.2500000000000000  0.2500000000000000  0.4177100089999968
  0.2500000000000000  0.2500000000000000  0.5822899910000032
  0.5000000000000000  0.2500000000000000  0.4177100089999968
  0.5000000000000000  0.2500000000000000  0.5822899910000032
  0.7500000000000000  0.2500000000000000  0.4177100089999968
  0.7500000000000000  0.2500000000000000  0.5822899910000032
  0.0000000000000000  0.5000000000000000  0.4177100089999968
  0.0000000000000000  0.5000000000000000  0.5822899910000032
  0.2500000000000000  0.5000000000000000  0.4177100089999968
  0.2500000000000000  0.5000000000000000  0.5822899910000032
  0.5000000000000000  0.5000000000000000  0.4177100089999968
  0.5000000000000000  0.5000000000000000  0.5822899910000032
  0.7500000000000000  0.5000000000000000  0.4177100089999968
  0.7500000000000000  0.5000000000000000  0.5822899910000032
  0.0000000000000000  0.7500000309999990  0.4177100089999968
  0.0000000000000000  0.7500000309999990  0.5822899910000032
  0.2500000000000000  0.7500000309999990  0.4177100089999968
  0.2500000000000000  0.7500000309999990  0.5822899910000032
  0.5000000000000000  0.7500000309999990  0.4177100089999968
  0.5000000000000000  0.7500000309999990  0.5822899910000032
  0.7500000000000000  0.7500000309999990  0.4177100089999968
  0.7500000000000000  0.7500000309999990  0.5822899910000032
  0.1250000000000000  0.1250000000000000  0.5000000000000000
  0.3750000000000000  0.1250000000000000  0.5000000000000000
  0.6250000000000000  0.1250000000000000  0.5000000000000000
  0.8750000000000000  0.1250000000000000  0.5000000000000000
  0.1250000000000000  0.3750000149999977  0.5000000000000000
  0.3750000000000000  0.3750000149999977  0.5000000000000000
  0.6250000000000000  0.3750000149999977  0.5000000000000000
  0.8750000000000000  0.3750000149999977  0.5000000000000000
  0.1250000000000000  0.6249999850000023  0.5000000000000000
  0.3750000000000000  0.6249999850000023  0.5000000000000000
  0.6250000000000000  0.6249999850000023  0.5000000000000000
  0.8750000000000000  0.6249999850000023  0.5000000000000000
  0.1250000000000000  0.8750000149999977  0.5000000000000000
  0.3750000000000000  0.8750000149999977  0.5000000000000000
  0.6250000000000000  0.8750000149999977  0.5000000000000000
  0.8750000000000000  0.8750000149999977  0.5000000000000000
  0.1250000000000000  0.1250000000000000  0.3556300019999981
  0.1250000000000000  0.1250000000000000  0.6443700199999967
  0.3750000000000000  0.1250000000000000  0.3556300019999981
  0.3750000000000000  0.1250000000000000  0.6443700199999967
  0.6250000000000000  0.1250000000000000  0.3556300019999981
  0.6250000000000000  0.1250000000000000  0.6443700199999967
  0.8750000000000000  0.1250000000000000  0.3556300019999981
  0.8750000000000000  0.1250000000000000  0.6443700199999967
  0.1250000000000000  0.3750000149999977  0.3556300019999981
  0.1250000000000000  0.3750000149999977  0.6443700199999967
  0.3750000000000000  0.3750000149999977  0.3556300019999981
  0.3750000000000000  0.3750000149999977  0.6443700199999967
  0.6250000000000000  0.3750000149999977  0.3556300019999981
  0.6250000000000000  0.3750000149999977  0.6443700199999967
  0.8750000000000000  0.3750000149999977  0.3556300019999981
  0.8750000000000000  0.3750000149999977  0.6443700199999967
  0.1250000000000000  0.6249999850000023  0.3556300019999981
  0.1250000000000000  0.6249999850000023  0.6443700199999967
  0.3750000000000000  0.6249999850000023  0.3556300019999981
  0.3750000000000000  0.6249999850000023  0.6443700199999967
  0.6250000000000000  0.6249999850000023  0.3556300019999981
  0.6250000000000000  0.6249999850000023  0.6443700199999967
  0.8750000000000000  0.6249999850000023  0.3556300019999981
  0.8750000000000000  0.6249999850000023  0.6443700199999967
  0.1250000000000000  0.8750000149999977  0.3556300019999981
  0.1250000000000000  0.8750000149999977  0.6443700199999967
  0.3750000000000000  0.8750000149999977  0.3556300019999981
  0.3750000000000000  0.8750000149999977  0.6443700199999967
  0.6250000000000000  0.8750000149999977  0.3556300019999981
  0.6250000000000000  0.8750000149999977  0.6443700199999967
  0.8750000000000000  0.8750000149999977  0.3556300019999981
  0.8750000000000000  0.8750000149999977  0.6443700199999967
  0.0000000000000000  0.1250000000000000  0.5000000000000000
  0.1250000000000000  0.0000000000000000  0.5000000000000000
  0.2500000000000000  0.1250000000000000  0.5000000000000000
  0.3750000000000000  0.0000000000000000  0.5000000000000000
  0.5000000000000000  0.1250000000000000  0.5000000000000000
  0.6250000000000000  0.0000000000000000  0.5000000000000000
  0.7500000000000000  0.1250000000000000  0.5000000000000000
  0.8750000000000000  0.0000000000000000  0.5000000000000000
  0.0000000000000000  0.3750000149999977  0.5000000000000000
  0.1250000000000000  0.2500000000000000  0.5000000000000000
  0.2500000000000000  0.3750000149999977  0.5000000000000000
  0.3750000000000000  0.2500000000000000  0.5000000000000000
  0.5000000000000000  0.3750000149999977  0.5000000000000000
  0.6250000000000000  0.2500000000000000  0.5000000000000000
  0.7500000000000000  0.3750000149999977  0.5000000000000000
  0.8750000000000000  0.2500000000000000  0.5000000000000000
  0.0000000000000000  0.6249999850000023  0.5000000000000000
  0.1250000000000000  0.5000000000000000  0.5000000000000000
  0.2500000000000000  0.6249999850000023  0.5000000000000000
  0.3750000000000000  0.5000000000000000  0.5000000000000000
  0.5000000000000000  0.6249999850000023  0.5000000000000000
  0.6250000000000000  0.5000000000000000  0.5000000000000000
  0.7500000000000000  0.6249999850000023  0.5000000000000000
  0.8750000000000000  0.5000000000000000  0.5000000000000000
  0.0000000000000000  0.8750000149999977  0.5000000000000000
  0.1250000000000000  0.7500000309999990  0.5000000000000000
  0.2500000000000000  0.8750000149999977  0.5000000000000000
  0.3750000000000000  0.7500000309999990  0.5000000000000000
  0.5000000000000000  0.8750000149999977  0.5000000000000000
  0.6250000000000000  0.7500000309999990  0.5000000000000000
  0.7500000000000000  0.8750000149999977  0.5000000000000000
  0.8750000000000000  0.7500000309999990  0.5000000000000000
 
  0.00000000E+00  0.00000000E+00  0.00000000E+00
  0.00000000E+00  0.00000000E+00  0.00000000E+00
  0.00000000E+00  0.00000000E+00  0.00000000E+00
  0.00000000E+00  0.00000000E+00  0.00000000E+00
  0.00000000E+00  0.00000000E+00  0.00000000E+00
  0.00000000E+00  0.00000000E+00  0.00000000E+00
  0.00000000E+00  0.00000000E+00  0.00000000E+00
  0.00000000E+00  0.00000000E+00  0.00000000E+00
  0.00000000E+00  0.00000000E+00  0.00000000E+00
  0.00000000E+00  0.00000000E+00  0.00000000E+00
  0.00000000E+00  0.00000000E+00  0.00000000E+00
  0.00000000E+00  0.00000000E+00  0.00000000E+00
  0.00000000E+00  0.00000000E+00  0.00000000E+00
  0.00000000E+00  0.00000000E+00  0.00000000E+00
  0.00000000E+00  0.00000000E+00  0.00000000E+00
  0.00000000E+00  0.00000000E+00  0.00000000E+00
  0.00000000E+00  0.00000000E+00  0.00000000E+00
  0.00000000E+00  0.00000000E+00  0.00000000E+00
  0.00000000E+00  0.00000000E+00  0.00000000E+00
  0.00000000E+00  0.00000000E+00  0.00000000E+00
  0.00000000E+00  0.00000000E+00  0.00000000E+00
  0.00000000E+00  0.00000000E+00  0.00000000E+00
  0.00000000E+00  0.00000000E+00  0.00000000E+00
  0.00000000E+00  0.00000000E+00  0.00000000E+00
  0.00000000E+00  0.00000000E+00  0.00000000E+00
  0.00000000E+00  0.00000000E+00  0.00000000E+00
  0.00000000E+00  0.00000000E+00  0.00000000E+00
  0.00000000E+00  0.00000000E+00  0.00000000E+00
  0.00000000E+00  0.00000000E+00  0.00000000E+00
  0.00000000E+00  0.00000000E+00  0.00000000E+00
  0.00000000E+00  0.00000000E+00  0.00000000E+00
  0.00000000E+00  0.00000000E+00  0.00000000E+00
  0.00000000E+00  0.00000000E+00  0.00000000E+00
  0.00000000E+00  0.00000000E+00  0.00000000E+00
  0.00000000E+00  0.00000000E+00  0.00000000E+00
  0.00000000E+00  0.00000000E+00  0.00000000E+00
  0.00000000E+00  0.00000000E+00  0.00000000E+00
  0.00000000E+00  0.00000000E+00  0.00000000E+00
  0.00000000E+00  0.00000000E+00  0.00000000E+00
  0.00000000E+00  0.00000000E+00  0.00000000E+00
  0.00000000E+00  0.00000000E+00  0.00000000E+00
  0.00000000E+00  0.00000000E+00  0.00000000E+00
  0.00000000E+00  0.00000000E+00  0.00000000E+00
  0.00000000E+00  0.00000000E+00  0.00000000E+00
  0.00000000E+00  0.00000000E+00  0.00000000E+00
  0.00000000E+00  0.00000000E+00  0.00000000E+00
  0.00000000E+00  0.00000000E+00  0.00000000E+00
  0.00000000E+00  0.00000000E+00  0.00000000E+00
  0.00000000E+00  0.00000000E+00  0.00000000E+00
  0.00000000E+00  0.00000000E+00  0.00000000E+00
  0.00000000E+00  0.00000000E+00  0.00000000E+00
  0.00000000E+00  0.00000000E+00  0.00000000E+00
  0.00000000E+00  0.00000000E+00  0.00000000E+00
  0.00000000E+00  0.00000000E+00  0.00000000E+00
  0.00000000E+00  0.00000000E+00  0.00000000E+00
  0.00000000E+00  0.00000000E+00  0.00000000E+00
  0.00000000E+00  0.00000000E+00  0.00000000E+00
  0.00000000E+00  0.00000000E+00  0.00000000E+00
  0.00000000E+00  0.00000000E+00  0.00000000E+00
  0.00000000E+00  0.00000000E+00  0.00000000E+00
  0.00000000E+00  0.00000000E+00  0.00000000E+00
  0.00000000E+00  0.00000000E+00  0.00000000E+00
  0.00000000E+00  0.00000000E+00  0.00000000E+00
  0.00000000E+00  0.00000000E+00  0.00000000E+00
  0.00000000E+00  0.00000000E+00  0.00000000E+00
  0.00000000E+00  0.00000000E+00  0.00000000E+00
  0.00000000E+00  0.00000000E+00  0.00000000E+00
  0.00000000E+00  0.00000000E+00  0.00000000E+00
  0.00000000E+00  0.00000000E+00  0.00000000E+00
  0.00000000E+00  0.00000000E+00  0.00000000E+00
  0.00000000E+00  0.00000000E+00  0.00000000E+00
  0.00000000E+00  0.00000000E+00  0.00000000E+00
  0.00000000E+00  0.00000000E+00  0.00000000E+00
  0.00000000E+00  0.00000000E+00  0.00000000E+00
  0.00000000E+00  0.00000000E+00  0.00000000E+00
  0.00000000E+00  0.00000000E+00  0.00000000E+00
  0.00000000E+00  0.00000000E+00  0.00000000E+00
  0.00000000E+00  0.00000000E+00  0.00000000E+00
  0.00000000E+00  0.00000000E+00  0.00000000E+00
  0.00000000E+00  0.00000000E+00  0.00000000E+00
  0.00000000E+00  0.00000000E+00  0.00000000E+00
  0.00000000E+00  0.00000000E+00  0.00000000E+00
  0.00000000E+00  0.00000000E+00  0.00000000E+00
  0.00000000E+00  0.00000000E+00  0.00000000E+00
  0.00000000E+00  0.00000000E+00  0.00000000E+00
  0.00000000E+00  0.00000000E+00  0.00000000E+00
  0.00000000E+00  0.00000000E+00  0.00000000E+00
  0.00000000E+00  0.00000000E+00  0.00000000E+00
  0.00000000E+00  0.00000000E+00  0.00000000E+00
  0.00000000E+00  0.00000000E+00  0.00000000E+00
  0.00000000E+00  0.00000000E+00  0.00000000E+00
  0.00000000E+00  0.00000000E+00  0.00000000E+00
  0.00000000E+00  0.00000000E+00  0.00000000E+00
  0.00000000E+00  0.00000000E+00  0.00000000E+00
  0.00000000E+00  0.00000000E+00  0.00000000E+00
  0.00000000E+00  0.00000000E+00  0.00000000E+00
  0.00000000E+00  0.00000000E+00  0.00000000E+00
  0.00000000E+00  0.00000000E+00  0.00000000E+00
  0.00000000E+00  0.00000000E+00  0.00000000E+00
  0.00000000E+00  0.00000000E+00  0.00000000E+00
  0.00000000E+00  0.00000000E+00  0.00000000E+00
  0.00000000E+00  0.00000000E+00  0.00000000E+00
  0.00000000E+00  0.00000000E+00  0.00000000E+00
  0.00000000E+00  0.00000000E+00  0.00000000E+00
  0.00000000E+00  0.00000000E+00  0.00000000E+00
  0.00000000E+00  0.00000000E+00  0.00000000E+00
  0.00000000E+00  0.00000000E+00  0.00000000E+00
  0.00000000E+00  0.00000000E+00  0.00000000E+00
  0.00000000E+00  0.00000000E+00  0.00000000E+00
  0.00000000E+00  0.00000000E+00  0.00000000E+00
  0.00000000E+00  0.00000000E+00  0.00000000E+00
  0.00000000E+00  0.00000000E+00  0.00000000E+00
