 Nd2 Te4 Se2                            
   1.00000000000000     
     4.2772589537657240    0.0000000000000000    0.0000000000000000
     0.0000000000000000    4.2792732047928972    0.0000000000000000
     0.0000000000000000    0.0000000000000000   24.0013877244559950
   Nd   Te   Se
     2     4     2
Direct
  0.5000000022069572  0.5000000036730897  0.5770024825652547
 -0.0000000005870068 -0.0000000022847238  0.4229975175617133
  0.4999999974863826  0.0000000028032024  0.3125462800753944
 -0.0000000005642093  0.4999999988168831  0.6874537196646945
  0.0000000008495620  0.4999999977770399  0.3125500166655793
  0.5000000005409680  0.0000000053852802  0.6874499830765450
  0.5000000031937780  0.4999999976518456  0.4517328586694208
 -0.0000000031264318 -0.0000000038226170  0.5482671417213980
 
  0.00000000E+00  0.00000000E+00  0.00000000E+00
  0.00000000E+00  0.00000000E+00  0.00000000E+00
  0.00000000E+00  0.00000000E+00  0.00000000E+00
  0.00000000E+00  0.00000000E+00  0.00000000E+00
  0.00000000E+00  0.00000000E+00  0.00000000E+00
  0.00000000E+00  0.00000000E+00  0.00000000E+00
  0.00000000E+00  0.00000000E+00  0.00000000E+00
  0.00000000E+00  0.00000000E+00  0.00000000E+00
