CONTCAR\(6)                             
   1.00000000000000     
    11.6057996750000001    0.0000000000000000    0.0000000000000000
     5.8029393748000002   10.0514726542999995    0.0000000000000000
     0.0000000000000000    0.0000000000000000   18.0372009276999989
   Ni   P    S    O    H 
     8     8    24     1     1
Selective dynamics
Direct
  0.1671476168386192  0.1653040004638058  0.4990021330591929   F   F   F
  0.3348103244348906  0.3326063885003236  0.5011895612444306   F   F   F
  0.6661959701307723  0.1669475207887672  0.5011261190244838   F   F   F
  0.8324028889436690  0.3333898192461149  0.5013228718198306   F   F   F
  0.1682242634066782  0.6654386959101757  0.5012402846707786   F   F   F
  0.3345966546118149  0.8298369095142704  0.5007931332741222   F   F   F
  0.6670371834214421  0.6629739028201556  0.5015370082433392   F   F   F
  0.8337555971119315  0.8320123411403983  0.4990846142942331   F   F   F
  0.5006481249166228  0.9986741161079280  0.5607620784211633   F   F   F
  0.9987041669617938  0.0003787895416423  0.4392759986251349   F   F   F
  0.0005019201027139  0.9985429286271810  0.5605192688938914   F   F   F
  0.5009869728177492  0.9960136311405350  0.4394537898413517   F   F   F
  0.4997776205412379  0.4969763541624772  0.5899371500574020   F   F   F
  0.0024225766887227  0.4984245189153143  0.4395049464796799   F   F   F
  0.0006874331583475  0.4984249690386378  0.5607295052119809   F   F   F
  0.5005336596710066  0.4979020974379509  0.4613723286413958   F   F   F
  0.3268956164361896  0.1721578413463760  0.5832867149461407   F   F   F
  0.9970118321303687  0.1744848180536422  0.4162353562224368   F   F   F
  0.3285406449949519  0.9938919502937580  0.4166102578464645   F   F   F
  0.1745008585746319  0.9980346611076030  0.5830095056472615   F   F   F
  0.5008952995882794  0.3130373593302167  0.5827104324385317   F   F   F
  0.1770127272254811  0.3260937673636874  0.4165793289945228   F   F   F
  0.8297020860901654  0.1698300356923923  0.5872413928987612   F   F   F
  0.5007059826619482  0.1675227621167110  0.4133618809807587   F   F   F
  0.8240827007829594  0.0026810616258288  0.4164851838534744   F   F   F
  0.6741801553959590  0.9987617620488791  0.5833878515634012   F   F   F
  0.0005939748386368  0.3249476052387479  0.5835296404098287   F   F   F
  0.6698378212285832  0.3293872351684115  0.4240025371081373   F   F   F
  0.3175162717802849  0.6833681897672150  0.5824476349887249   F   F   F
  0.0040116298421324  0.6708318115844776  0.4162966294685404   F   F   F
  0.3311222083082797  0.4988089059062233  0.4239947274142040   F   F   F
  0.1715303113805788  0.4988634621979529  0.5874033431433290   F   F   F
  0.5006193273687458  0.8274464877468120  0.5872602479871460   F   F   F
  0.1699813785368889  0.8285784934570231  0.4134440051583184   F   F   F
  0.8268143126019680  0.6719007681495412  0.5833561792250990   F   F   F
  0.5010460454297245  0.6670443458874900  0.4244040171742327   F   F   F
  0.8309564778037100  0.4979034370110753  0.4139191031667266   F   F   F
  0.6826159820489011  0.4992825000535035  0.5836821272035664   F   F   F
  0.0001776674875131  0.8252010290161138  0.5834199371933622   F   F   F
  0.6733818484243628  0.8215155348720842  0.4167444289326312   F   F   F
  0.4972196676546545  0.4885869633801647  0.6823023391228631   T   T   T
  0.4890541256260690  0.5683900942284482  0.7049629584888875   T   T   T
 
  0.00000000E+00  0.00000000E+00  0.00000000E+00
  0.00000000E+00  0.00000000E+00  0.00000000E+00
  0.00000000E+00  0.00000000E+00  0.00000000E+00
  0.00000000E+00  0.00000000E+00  0.00000000E+00
  0.00000000E+00  0.00000000E+00  0.00000000E+00
  0.00000000E+00  0.00000000E+00  0.00000000E+00
  0.00000000E+00  0.00000000E+00  0.00000000E+00
  0.00000000E+00  0.00000000E+00  0.00000000E+00
  0.00000000E+00  0.00000000E+00  0.00000000E+00
  0.00000000E+00  0.00000000E+00  0.00000000E+00
  0.00000000E+00  0.00000000E+00  0.00000000E+00
  0.00000000E+00  0.00000000E+00  0.00000000E+00
  0.00000000E+00  0.00000000E+00  0.00000000E+00
  0.00000000E+00  0.00000000E+00  0.00000000E+00
  0.00000000E+00  0.00000000E+00  0.00000000E+00
  0.00000000E+00  0.00000000E+00  0.00000000E+00
  0.00000000E+00  0.00000000E+00  0.00000000E+00
  0.00000000E+00  0.00000000E+00  0.00000000E+00
  0.00000000E+00  0.00000000E+00  0.00000000E+00
  0.00000000E+00  0.00000000E+00  0.00000000E+00
  0.00000000E+00  0.00000000E+00  0.00000000E+00
  0.00000000E+00  0.00000000E+00  0.00000000E+00
  0.00000000E+00  0.00000000E+00  0.00000000E+00
  0.00000000E+00  0.00000000E+00  0.00000000E+00
  0.00000000E+00  0.00000000E+00  0.00000000E+00
  0.00000000E+00  0.00000000E+00  0.00000000E+00
  0.00000000E+00  0.00000000E+00  0.00000000E+00
  0.00000000E+00  0.00000000E+00  0.00000000E+00
  0.00000000E+00  0.00000000E+00  0.00000000E+00
  0.00000000E+00  0.00000000E+00  0.00000000E+00
  0.00000000E+00  0.00000000E+00  0.00000000E+00
  0.00000000E+00  0.00000000E+00  0.00000000E+00
  0.00000000E+00  0.00000000E+00  0.00000000E+00
  0.00000000E+00  0.00000000E+00  0.00000000E+00
  0.00000000E+00  0.00000000E+00  0.00000000E+00
  0.00000000E+00  0.00000000E+00  0.00000000E+00
  0.00000000E+00  0.00000000E+00  0.00000000E+00
  0.00000000E+00  0.00000000E+00  0.00000000E+00
  0.00000000E+00  0.00000000E+00  0.00000000E+00
  0.00000000E+00  0.00000000E+00  0.00000000E+00
  0.00000000E+00  0.00000000E+00  0.00000000E+00
  0.00000000E+00  0.00000000E+00  0.00000000E+00
