CONTCAR\(3)                             
   1.00000000000000     
    13.5726995467999991    0.0000000000000000    0.0000000000000000
     0.0000000000000000   13.5726995467999991    0.0000000000000000
     0.0000000000000000    0.0000000000000000   18.0848999022999983
   Pt   Pb   O    H 
     8    32     2     1
Direct
  0.0026568378810552  0.9947940840180607  0.4993029890950922
  0.2501081930151443  0.2441430615291154  0.4959865766505231
  0.5014628251050368  0.9935063982127872  0.4968790898562219
  0.7518555983562010  0.2449589170522088  0.4971255693907821
  0.9998425997120179  0.4933210636104448  0.4980027568825918
  0.2510108534398867  0.7443395628689515  0.4999254136270466
  0.5002561730512554  0.4944800784614287  0.4988830434596281
  0.7538141587664242  0.7482581476489472  0.4913764791259183
  0.3353206325379787  0.4097984697939552  0.4163531616538236
  0.0861970859771617  0.3311694525933007  0.4139616336682792
  0.0857506543146513  0.1619562321753918  0.5787311363504131
  0.4164683830084073  0.3277103538270651  0.5783558083548499
  0.1644537316287042  0.4087027976834605  0.5776988016744582
  0.3357543921280595  0.0799318060417704  0.5777063115540528
  0.1668729022672082  0.0782531992515629  0.4167216809421603
  0.4186204377264531  0.1613943187940237  0.4166492926953183
  0.8348642123520378  0.4105949250570688  0.4164464362086591
  0.5878601952628983  0.3307313968383383  0.4171940051017060
  0.5869090753740522  0.1585305889801347  0.5780995578357562
  0.9143234926562442  0.3305234170804283  0.5797373560076053
  0.6637628203740675  0.4090697193181114  0.5824692499245856
  0.8357447224773935  0.0800137279907673  0.5780822428803205
  0.6676175871647771  0.0785652206217051  0.4160952646348761
  0.9186389220553863  0.1612400200233637  0.4166868133975967
  0.3365399839045793  0.9093589021018573  0.4173026111054412
  0.0867841770602098  0.8293726337461536  0.4179684151170804
  0.0859276413360206  0.6591732804873089  0.5779946872140158
  0.4176219692945224  0.8286791589214957  0.5793699988109040
  0.1672429246697078  0.9098628778554954  0.5810857622000967
  0.3405490265781523  0.5733922285920272  0.5896104511003912
  0.1660281802977153  0.5797821162212671  0.4160088471624803
  0.4172385276043826  0.6605230965427538  0.4233934378779196
  0.8397700883878088  0.9130705904361633  0.4134200488648005
  0.5867770426644370  0.8303551922115417  0.4114338242899507
  0.5846357693448212  0.6546058144831406  0.5898894805698589
  0.9168474756423493  0.8283615372032784  0.5778689885100903
  0.6679206186496742  0.9079992987636487  0.5739282560652086
  0.8326194916602887  0.5813397122895552  0.5767564176905182
  0.6660069042342940  0.5804651232656113  0.4205931071459119
  0.9203341349573364  0.6600262523987581  0.4161406352940844
  0.4838099388637787  0.5440097726134212  0.6722441238550871
  0.4715588068304584  0.5786745513326608  0.7493549069120036
  0.4845704973869758  0.5171605930615257  0.7758252722419101
 
  0.00000000E+00  0.00000000E+00  0.00000000E+00
  0.00000000E+00  0.00000000E+00  0.00000000E+00
  0.00000000E+00  0.00000000E+00  0.00000000E+00
  0.00000000E+00  0.00000000E+00  0.00000000E+00
  0.00000000E+00  0.00000000E+00  0.00000000E+00
  0.00000000E+00  0.00000000E+00  0.00000000E+00
  0.00000000E+00  0.00000000E+00  0.00000000E+00
  0.00000000E+00  0.00000000E+00  0.00000000E+00
  0.00000000E+00  0.00000000E+00  0.00000000E+00
  0.00000000E+00  0.00000000E+00  0.00000000E+00
  0.00000000E+00  0.00000000E+00  0.00000000E+00
  0.00000000E+00  0.00000000E+00  0.00000000E+00
  0.00000000E+00  0.00000000E+00  0.00000000E+00
  0.00000000E+00  0.00000000E+00  0.00000000E+00
  0.00000000E+00  0.00000000E+00  0.00000000E+00
  0.00000000E+00  0.00000000E+00  0.00000000E+00
  0.00000000E+00  0.00000000E+00  0.00000000E+00
  0.00000000E+00  0.00000000E+00  0.00000000E+00
  0.00000000E+00  0.00000000E+00  0.00000000E+00
  0.00000000E+00  0.00000000E+00  0.00000000E+00
  0.00000000E+00  0.00000000E+00  0.00000000E+00
  0.00000000E+00  0.00000000E+00  0.00000000E+00
  0.00000000E+00  0.00000000E+00  0.00000000E+00
  0.00000000E+00  0.00000000E+00  0.00000000E+00
  0.00000000E+00  0.00000000E+00  0.00000000E+00
  0.00000000E+00  0.00000000E+00  0.00000000E+00
  0.00000000E+00  0.00000000E+00  0.00000000E+00
  0.00000000E+00  0.00000000E+00  0.00000000E+00
  0.00000000E+00  0.00000000E+00  0.00000000E+00
  0.00000000E+00  0.00000000E+00  0.00000000E+00
  0.00000000E+00  0.00000000E+00  0.00000000E+00
  0.00000000E+00  0.00000000E+00  0.00000000E+00
  0.00000000E+00  0.00000000E+00  0.00000000E+00
  0.00000000E+00  0.00000000E+00  0.00000000E+00
  0.00000000E+00  0.00000000E+00  0.00000000E+00
  0.00000000E+00  0.00000000E+00  0.00000000E+00
  0.00000000E+00  0.00000000E+00  0.00000000E+00
  0.00000000E+00  0.00000000E+00  0.00000000E+00
  0.00000000E+00  0.00000000E+00  0.00000000E+00
  0.00000000E+00  0.00000000E+00  0.00000000E+00
  0.00000000E+00  0.00000000E+00  0.00000000E+00
  0.00000000E+00  0.00000000E+00  0.00000000E+00
  0.00000000E+00  0.00000000E+00  0.00000000E+00
