CONTCAR\(12)                            
   1.00000000000000     
    14.3999004363999994    0.0000000000000000    0.0000000000000000
    -3.5999958350000001   11.0732005957999995    0.0000000000000000
     0.0000000000000000    0.0000000000000000   23.2912006377999994
   K    V    O 
     8    32    80
Direct
  0.1000299940000033  0.3999299850000000  0.5000000000000000
  0.3500299940000033  0.3999299850000000  0.5000000000000000
  0.6000299940000033  0.3999299850000000  0.5000000000000000
  0.8500300600000017  0.3999299850000000  0.5000000000000000
  0.1000299979999966  0.8999299680000021  0.5000000000000000
  0.3500299979999966  0.8999299680000021  0.5000000000000000
  0.6000299979999966  0.8999299680000021  0.5000000000000000
  0.8500300310000029  0.8999299680000021  0.5000000000000000
  0.0567599970000003  0.2271399759999966  0.3496599910000029
  0.0567599970000003  0.2271399759999966  0.6503400089999971
  0.2332600029999981  0.4329999999999998  0.3485300130000013
  0.2332600000000014  0.4330099900000022  0.6514699869999987
  0.3067600050000010  0.2271399759999966  0.3496599910000029
  0.3067600050000010  0.2271399759999966  0.6503400089999971
  0.4832600109999987  0.4329999999999998  0.3485300130000013
  0.4832600249999999  0.4330099900000022  0.6514699869999987
  0.5567600219999989  0.2271399759999966  0.3496599910000029
  0.5567600219999989  0.2271399759999966  0.6503400089999971
  0.7332599779999995  0.4329999999999998  0.3485300130000013
  0.7332599590000015  0.4330099900000022  0.6514699869999987
  0.8067599889999997  0.2271399759999966  0.3496599910000029
  0.8067599889999997  0.2271399759999966  0.6503400089999971
  0.9832600109999987  0.4329999999999998  0.3485300130000013
  0.9832599920000007  0.4330099900000022  0.6514699869999987
  0.0567599999999970  0.7271400240000006  0.3496599910000029
  0.0567599999999970  0.7271400240000006  0.6503400089999971
  0.2332599980000012  0.9329999830000020  0.3485300130000013
  0.2332599949999974  0.9330099729999972  0.6514699869999987
  0.3067600090000013  0.7271400240000006  0.3496599910000029
  0.3067600090000013  0.7271400240000006  0.6503400089999971
  0.4832600140000025  0.9329999830000020  0.3485300130000013
  0.4832600120000023  0.9330099729999972  0.6514699869999987
  0.5567600420000005  0.7271400240000006  0.3496599910000029
  0.5567600420000005  0.7271400240000006  0.6503400089999971
  0.7332599479999971  0.9329999830000020  0.3485300130000013
  0.7332599289999990  0.9330099729999972  0.6514699869999987
  0.8067600420000005  0.7271400240000006  0.3496599910000029
  0.8067600420000005  0.7271400240000006  0.6503400089999971
  0.9832599810000033  0.9329999830000020  0.3485300130000013
  0.9832599619999982  0.9330099729999972  0.6514699869999987
  0.0200200000000024  0.0800599949999992  0.3182600100000030
  0.0530000030000011  0.2120800020000004  0.5815399869999993
  0.0530000030000011  0.2120800020000004  0.4184499810000020
  0.0200200000000024  0.0800599949999992  0.6817499810000029
  0.1005199989999994  0.4020799979999978  0.3296600070000011
  0.1005199900000022  0.4020699639999989  0.6703400139999971
  0.1895200000000017  0.2581099739999999  0.3299799770000007
  0.2373599989999988  0.4493299880000023  0.4177200009999993
  0.1895200060000022  0.2581299980000011  0.6700199819999995
  0.2373599989999988  0.4493299880000023  0.5822700080000018
  0.2700200150000001  0.0800599949999992  0.3182600100000030
  0.3029999900000035  0.2120800020000004  0.5815399869999993
  0.3029999900000035  0.2120800020000004  0.4184499810000020
  0.2700200150000001  0.0800599949999992  0.6817499810000029
  0.3505200150000007  0.4020799979999978  0.3296600070000011
  0.3505200230000014  0.4020699639999989  0.6703400139999971
  0.4395200000000017  0.2581099739999999  0.3299799770000007
  0.4873599820000010  0.4493299880000023  0.4177200009999993
  0.4395200060000022  0.2581299980000011  0.6700199819999995
  0.4873599820000010  0.4493299880000023  0.5822700080000018
  0.5200200150000001  0.0800599949999992  0.3182600100000030
  0.5529999740000022  0.2120800020000004  0.5815399869999993
  0.5529999740000022  0.2120800020000004  0.4184499810000020
  0.5200200150000001  0.0800599949999992  0.6817499810000029
  0.6005200150000007  0.4020799979999978  0.3296600070000011
  0.6005200230000014  0.4020699639999989  0.6703400139999971
  0.6895200000000017  0.2581099739999999  0.3299799770000007
  0.7373599820000010  0.4493299880000023  0.4177200009999993
  0.6895199730000030  0.2581299980000011  0.6700199819999995
  0.7373599820000010  0.4493299880000023  0.5822700080000018
  0.7700199820000009  0.0800599949999992  0.3182600100000030
  0.8030000070000014  0.2120800020000004  0.5815399869999993
  0.8030000070000014  0.2120800020000004  0.4184499810000020
  0.7700199820000009  0.0800599949999992  0.6817499810000029
  0.8505200150000007  0.4020799979999978  0.3296600070000011
  0.8505199570000030  0.4020699639999989  0.6703400139999971
  0.9395200330000009  0.2581099739999999  0.3299799770000007
  0.9873600159999967  0.4493299880000023  0.4177200009999993
  0.9395200060000022  0.2581299980000011  0.6700199819999995
  0.9873600159999967  0.4493299880000023  0.5822700080000018
  0.0200199849999976  0.5800599780000013  0.3182600100000030
  0.0529999939999968  0.7120799859999991  0.5815399869999993
  0.0529999939999968  0.7120799859999991  0.4184499810000020
  0.0200199849999976  0.5800599780000013  0.6817499810000029
  0.1005199940000026  0.9020799810000000  0.3296600070000011
  0.1005199960000027  0.9020699900000011  0.6703400139999971
  0.1895200089999989  0.7581099780000002  0.3299799770000007
  0.2373600029999992  0.9493299709999974  0.4177200009999993
  0.1895199880000007  0.7581299590000015  0.6700199819999995
  0.2373600029999992  0.9493299709999974  0.5822700080000018
  0.2700200020000025  0.5800599780000013  0.3182600100000030
  0.3029999769999989  0.7120799859999991  0.5815399869999993
  0.3029999769999989  0.7120799859999991  0.4184499810000020
  0.2700200020000025  0.5800599780000013  0.6817499810000029
  0.3505200190000011  0.9020799810000000  0.3296600070000011
  0.3505200210000012  0.9020699900000011  0.6703400139999971
  0.4395200089999989  0.7581099780000002  0.3299799770000007
  0.4873599860000013  0.9493299709999974  0.4177200009999993
  0.4395199880000007  0.7581299590000015  0.6700199819999995
  0.4873599860000013  0.9493299709999974  0.5822700080000018
  0.5200199849999976  0.5800599780000013  0.3182600100000030
  0.5529999769999989  0.7120799859999991  0.5815399869999993
  0.5529999769999989  0.7120799859999991  0.4184499810000020
  0.5200199849999976  0.5800599780000013  0.6817499810000029
  0.6005200190000011  0.9020799810000000  0.3296600070000011
  0.6005200379999991  0.9020699900000011  0.6703400139999971
  0.6895199759999997  0.7581099780000002  0.3299799770000007
  0.7373599860000013  0.9493299709999974  0.4177200009999993
  0.6895199379999966  0.7581299590000015  0.6700199819999995
  0.7373599860000013  0.9493299709999974  0.5822700080000018
  0.7700199519999984  0.5800599780000013  0.3182600100000030
  0.8029999769999989  0.7120799859999991  0.5815399869999993
  0.8029999769999989  0.7120799859999991  0.4184499810000020
  0.7700199519999984  0.5800599780000013  0.6817499810000029
  0.8505199860000019  0.9020799810000000  0.3296600070000011
  0.8505200049999999  0.9020699900000011  0.6703400139999971
  0.9395200089999989  0.7581099780000002  0.3299799770000007
  0.9873600519999997  0.9493299709999974  0.4177200009999993
  0.9395199710000028  0.7581299590000015  0.6700199819999995
  0.9873600519999997  0.9493299709999974  0.5822700080000018
 
  0.00000000E+00  0.00000000E+00  0.00000000E+00
  0.00000000E+00  0.00000000E+00  0.00000000E+00
  0.00000000E+00  0.00000000E+00  0.00000000E+00
  0.00000000E+00  0.00000000E+00  0.00000000E+00
  0.00000000E+00  0.00000000E+00  0.00000000E+00
  0.00000000E+00  0.00000000E+00  0.00000000E+00
  0.00000000E+00  0.00000000E+00  0.00000000E+00
  0.00000000E+00  0.00000000E+00  0.00000000E+00
  0.00000000E+00  0.00000000E+00  0.00000000E+00
  0.00000000E+00  0.00000000E+00  0.00000000E+00
  0.00000000E+00  0.00000000E+00  0.00000000E+00
  0.00000000E+00  0.00000000E+00  0.00000000E+00
  0.00000000E+00  0.00000000E+00  0.00000000E+00
  0.00000000E+00  0.00000000E+00  0.00000000E+00
  0.00000000E+00  0.00000000E+00  0.00000000E+00
  0.00000000E+00  0.00000000E+00  0.00000000E+00
  0.00000000E+00  0.00000000E+00  0.00000000E+00
  0.00000000E+00  0.00000000E+00  0.00000000E+00
  0.00000000E+00  0.00000000E+00  0.00000000E+00
  0.00000000E+00  0.00000000E+00  0.00000000E+00
  0.00000000E+00  0.00000000E+00  0.00000000E+00
  0.00000000E+00  0.00000000E+00  0.00000000E+00
  0.00000000E+00  0.00000000E+00  0.00000000E+00
  0.00000000E+00  0.00000000E+00  0.00000000E+00
  0.00000000E+00  0.00000000E+00  0.00000000E+00
  0.00000000E+00  0.00000000E+00  0.00000000E+00
  0.00000000E+00  0.00000000E+00  0.00000000E+00
  0.00000000E+00  0.00000000E+00  0.00000000E+00
  0.00000000E+00  0.00000000E+00  0.00000000E+00
  0.00000000E+00  0.00000000E+00  0.00000000E+00
  0.00000000E+00  0.00000000E+00  0.00000000E+00
  0.00000000E+00  0.00000000E+00  0.00000000E+00
  0.00000000E+00  0.00000000E+00  0.00000000E+00
  0.00000000E+00  0.00000000E+00  0.00000000E+00
  0.00000000E+00  0.00000000E+00  0.00000000E+00
  0.00000000E+00  0.00000000E+00  0.00000000E+00
  0.00000000E+00  0.00000000E+00  0.00000000E+00
  0.00000000E+00  0.00000000E+00  0.00000000E+00
  0.00000000E+00  0.00000000E+00  0.00000000E+00
  0.00000000E+00  0.00000000E+00  0.00000000E+00
  0.00000000E+00  0.00000000E+00  0.00000000E+00
  0.00000000E+00  0.00000000E+00  0.00000000E+00
  0.00000000E+00  0.00000000E+00  0.00000000E+00
  0.00000000E+00  0.00000000E+00  0.00000000E+00
  0.00000000E+00  0.00000000E+00  0.00000000E+00
  0.00000000E+00  0.00000000E+00  0.00000000E+00
  0.00000000E+00  0.00000000E+00  0.00000000E+00
  0.00000000E+00  0.00000000E+00  0.00000000E+00
  0.00000000E+00  0.00000000E+00  0.00000000E+00
  0.00000000E+00  0.00000000E+00  0.00000000E+00
  0.00000000E+00  0.00000000E+00  0.00000000E+00
  0.00000000E+00  0.00000000E+00  0.00000000E+00
  0.00000000E+00  0.00000000E+00  0.00000000E+00
  0.00000000E+00  0.00000000E+00  0.00000000E+00
  0.00000000E+00  0.00000000E+00  0.00000000E+00
  0.00000000E+00  0.00000000E+00  0.00000000E+00
  0.00000000E+00  0.00000000E+00  0.00000000E+00
  0.00000000E+00  0.00000000E+00  0.00000000E+00
  0.00000000E+00  0.00000000E+00  0.00000000E+00
  0.00000000E+00  0.00000000E+00  0.00000000E+00
  0.00000000E+00  0.00000000E+00  0.00000000E+00
  0.00000000E+00  0.00000000E+00  0.00000000E+00
  0.00000000E+00  0.00000000E+00  0.00000000E+00
  0.00000000E+00  0.00000000E+00  0.00000000E+00
  0.00000000E+00  0.00000000E+00  0.00000000E+00
  0.00000000E+00  0.00000000E+00  0.00000000E+00
  0.00000000E+00  0.00000000E+00  0.00000000E+00
  0.00000000E+00  0.00000000E+00  0.00000000E+00
  0.00000000E+00  0.00000000E+00  0.00000000E+00
  0.00000000E+00  0.00000000E+00  0.00000000E+00
  0.00000000E+00  0.00000000E+00  0.00000000E+00
  0.00000000E+00  0.00000000E+00  0.00000000E+00
  0.00000000E+00  0.00000000E+00  0.00000000E+00
  0.00000000E+00  0.00000000E+00  0.00000000E+00
  0.00000000E+00  0.00000000E+00  0.00000000E+00
  0.00000000E+00  0.00000000E+00  0.00000000E+00
  0.00000000E+00  0.00000000E+00  0.00000000E+00
  0.00000000E+00  0.00000000E+00  0.00000000E+00
  0.00000000E+00  0.00000000E+00  0.00000000E+00
  0.00000000E+00  0.00000000E+00  0.00000000E+00
  0.00000000E+00  0.00000000E+00  0.00000000E+00
  0.00000000E+00  0.00000000E+00  0.00000000E+00
  0.00000000E+00  0.00000000E+00  0.00000000E+00
  0.00000000E+00  0.00000000E+00  0.00000000E+00
  0.00000000E+00  0.00000000E+00  0.00000000E+00
  0.00000000E+00  0.00000000E+00  0.00000000E+00
  0.00000000E+00  0.00000000E+00  0.00000000E+00
  0.00000000E+00  0.00000000E+00  0.00000000E+00
  0.00000000E+00  0.00000000E+00  0.00000000E+00
  0.00000000E+00  0.00000000E+00  0.00000000E+00
  0.00000000E+00  0.00000000E+00  0.00000000E+00
  0.00000000E+00  0.00000000E+00  0.00000000E+00
  0.00000000E+00  0.00000000E+00  0.00000000E+00
  0.00000000E+00  0.00000000E+00  0.00000000E+00
  0.00000000E+00  0.00000000E+00  0.00000000E+00
  0.00000000E+00  0.00000000E+00  0.00000000E+00
  0.00000000E+00  0.00000000E+00  0.00000000E+00
  0.00000000E+00  0.00000000E+00  0.00000000E+00
  0.00000000E+00  0.00000000E+00  0.00000000E+00
  0.00000000E+00  0.00000000E+00  0.00000000E+00
  0.00000000E+00  0.00000000E+00  0.00000000E+00
  0.00000000E+00  0.00000000E+00  0.00000000E+00
  0.00000000E+00  0.00000000E+00  0.00000000E+00
  0.00000000E+00  0.00000000E+00  0.00000000E+00
  0.00000000E+00  0.00000000E+00  0.00000000E+00
  0.00000000E+00  0.00000000E+00  0.00000000E+00
  0.00000000E+00  0.00000000E+00  0.00000000E+00
  0.00000000E+00  0.00000000E+00  0.00000000E+00
  0.00000000E+00  0.00000000E+00  0.00000000E+00
  0.00000000E+00  0.00000000E+00  0.00000000E+00
  0.00000000E+00  0.00000000E+00  0.00000000E+00
  0.00000000E+00  0.00000000E+00  0.00000000E+00
  0.00000000E+00  0.00000000E+00  0.00000000E+00
  0.00000000E+00  0.00000000E+00  0.00000000E+00
  0.00000000E+00  0.00000000E+00  0.00000000E+00
  0.00000000E+00  0.00000000E+00  0.00000000E+00
  0.00000000E+00  0.00000000E+00  0.00000000E+00
  0.00000000E+00  0.00000000E+00  0.00000000E+00
  0.00000000E+00  0.00000000E+00  0.00000000E+00
  0.00000000E+00  0.00000000E+00  0.00000000E+00
