CONTCAR\(13)                            
   1.00000000000000     
    13.0347003936999997    0.0000000000000000    0.0000000000000000
     0.0000000000000000   13.0347003936999997    0.0000000000000000
     0.0000000000000000    0.0000000000000000   24.3213005066000001
   Sm   Te
    18    54
Direct
  0.0000000000000000  0.1666699960000031  0.4131999561528090
  0.1666699960000031  0.0000000000000000  0.5868000438471910
  0.3333300039999969  0.1666699960000031  0.4131999561528090
  0.5000000000000000  0.0000000000000000  0.5868000438471910
  0.6666700319999990  0.1666699960000031  0.4131999561528090
  0.8333299680000010  0.0000000000000000  0.5868000438471910
  0.0000000000000000  0.5000000000000000  0.4131999561528090
  0.1666699960000031  0.3333300039999969  0.5868000438471910
  0.3333300039999969  0.5000000000000000  0.4131999561528090
  0.5000000000000000  0.3333300039999969  0.5868000438471910
  0.6666700319999990  0.5000000000000000  0.4131999561528090
  0.8333299680000010  0.3333300039999969  0.5868000438471910
  0.0000000000000000  0.8333299680000010  0.4131999561528090
  0.1666699960000031  0.6666700319999990  0.5868000438471910
  0.3333300039999969  0.8333299680000010  0.4131999561528090
  0.5000000000000000  0.6666700319999990  0.5868000438471910
  0.6666700319999990  0.8333299680000010  0.4131999561528090
  0.8333299680000010  0.6666700319999990  0.5868000438471910
  0.0000000000000000  0.1666699960000031  0.5473108772927091
  0.1666699960000031  0.0000000000000000  0.4526891227072909
  0.1666699960000031  0.1666699960000031  0.6907959530639900
  0.0000000000000000  0.0000000000000000  0.3092040469360100
  0.0000000000000000  0.0000000000000000  0.6907959530639900
  0.1666699960000031  0.1666699960000031  0.3092040469360100
  0.3333300039999969  0.1666699960000031  0.5473108772927091
  0.5000000000000000  0.0000000000000000  0.4526891227072909
  0.5000000000000000  0.1666699960000031  0.6907959530639900
  0.3333300039999969  0.0000000000000000  0.3092040469360100
  0.3333300039999969  0.0000000000000000  0.6907959530639900
  0.5000000000000000  0.1666699960000031  0.3092040469360100
  0.6666700319999990  0.1666699960000031  0.5473108772927091
  0.8333299680000010  0.0000000000000000  0.4526891227072909
  0.8333299680000010  0.1666699960000031  0.6907959530639900
  0.6666700319999990  0.0000000000000000  0.3092040469360100
  0.6666700319999990  0.0000000000000000  0.6907959530639900
  0.8333299680000010  0.1666699960000031  0.3092040469360100
  0.0000000000000000  0.5000000000000000  0.5473108772927091
  0.1666699960000031  0.3333300039999969  0.4526891227072909
  0.1666699960000031  0.5000000000000000  0.6907959530639900
  0.0000000000000000  0.3333300039999969  0.3092040469360100
  0.0000000000000000  0.3333300039999969  0.6907959530639900
  0.1666699960000031  0.5000000000000000  0.3092040469360100
  0.3333300039999969  0.5000000000000000  0.5473108772927091
  0.5000000000000000  0.3333300039999969  0.4526891227072909
  0.5000000000000000  0.5000000000000000  0.6907959530639900
  0.3333300039999969  0.3333300039999969  0.3092040469360100
  0.3333300039999969  0.3333300039999969  0.6907959530639900
  0.5000000000000000  0.5000000000000000  0.3092040469360100
  0.6666700319999990  0.5000000000000000  0.5473108772927091
  0.8333299680000010  0.3333300039999969  0.4526891227072909
  0.8333299680000010  0.5000000000000000  0.6907959530639900
  0.6666700319999990  0.3333300039999969  0.3092040469360100
  0.6666700319999990  0.3333300039999969  0.6907959530639900
  0.8333299680000010  0.5000000000000000  0.3092040469360100
  0.0000000000000000  0.8333299680000010  0.5473108772927091
  0.1666699960000031  0.6666700319999990  0.4526891227072909
  0.1666699960000031  0.8333299680000010  0.6907959530639900
  0.0000000000000000  0.6666700319999990  0.3092040469360100
  0.0000000000000000  0.6666700319999990  0.6907959530639900
  0.1666699960000031  0.8333299680000010  0.3092040469360100
  0.3333300039999969  0.8333299680000010  0.5473108772927091
  0.5000000000000000  0.6666700319999990  0.4526891227072909
  0.5000000000000000  0.8333299680000010  0.6907959530639900
  0.3333300039999969  0.6666700319999990  0.3092040469360100
  0.3333300039999969  0.6666700319999990  0.6907959530639900
  0.5000000000000000  0.8333299680000010  0.3092040469360100
  0.6666700319999990  0.8333299680000010  0.5473108772927091
  0.8333299680000010  0.6666700319999990  0.4526891227072909
  0.8333299680000010  0.8333299680000010  0.6907959530639900
  0.6666700319999990  0.6666700319999990  0.3092040469360100
  0.6666700319999990  0.6666700319999990  0.6907959530639900
  0.8333299680000010  0.8333299680000010  0.3092040469360100
 
  0.00000000E+00  0.00000000E+00  0.00000000E+00
  0.00000000E+00  0.00000000E+00  0.00000000E+00
  0.00000000E+00  0.00000000E+00  0.00000000E+00
  0.00000000E+00  0.00000000E+00  0.00000000E+00
  0.00000000E+00  0.00000000E+00  0.00000000E+00
  0.00000000E+00  0.00000000E+00  0.00000000E+00
  0.00000000E+00  0.00000000E+00  0.00000000E+00
  0.00000000E+00  0.00000000E+00  0.00000000E+00
  0.00000000E+00  0.00000000E+00  0.00000000E+00
  0.00000000E+00  0.00000000E+00  0.00000000E+00
  0.00000000E+00  0.00000000E+00  0.00000000E+00
  0.00000000E+00  0.00000000E+00  0.00000000E+00
  0.00000000E+00  0.00000000E+00  0.00000000E+00
  0.00000000E+00  0.00000000E+00  0.00000000E+00
  0.00000000E+00  0.00000000E+00  0.00000000E+00
  0.00000000E+00  0.00000000E+00  0.00000000E+00
  0.00000000E+00  0.00000000E+00  0.00000000E+00
  0.00000000E+00  0.00000000E+00  0.00000000E+00
  0.00000000E+00  0.00000000E+00  0.00000000E+00
  0.00000000E+00  0.00000000E+00  0.00000000E+00
  0.00000000E+00  0.00000000E+00  0.00000000E+00
  0.00000000E+00  0.00000000E+00  0.00000000E+00
  0.00000000E+00  0.00000000E+00  0.00000000E+00
  0.00000000E+00  0.00000000E+00  0.00000000E+00
  0.00000000E+00  0.00000000E+00  0.00000000E+00
  0.00000000E+00  0.00000000E+00  0.00000000E+00
  0.00000000E+00  0.00000000E+00  0.00000000E+00
  0.00000000E+00  0.00000000E+00  0.00000000E+00
  0.00000000E+00  0.00000000E+00  0.00000000E+00
  0.00000000E+00  0.00000000E+00  0.00000000E+00
  0.00000000E+00  0.00000000E+00  0.00000000E+00
  0.00000000E+00  0.00000000E+00  0.00000000E+00
  0.00000000E+00  0.00000000E+00  0.00000000E+00
  0.00000000E+00  0.00000000E+00  0.00000000E+00
  0.00000000E+00  0.00000000E+00  0.00000000E+00
  0.00000000E+00  0.00000000E+00  0.00000000E+00
  0.00000000E+00  0.00000000E+00  0.00000000E+00
  0.00000000E+00  0.00000000E+00  0.00000000E+00
  0.00000000E+00  0.00000000E+00  0.00000000E+00
  0.00000000E+00  0.00000000E+00  0.00000000E+00
  0.00000000E+00  0.00000000E+00  0.00000000E+00
  0.00000000E+00  0.00000000E+00  0.00000000E+00
  0.00000000E+00  0.00000000E+00  0.00000000E+00
  0.00000000E+00  0.00000000E+00  0.00000000E+00
  0.00000000E+00  0.00000000E+00  0.00000000E+00
  0.00000000E+00  0.00000000E+00  0.00000000E+00
  0.00000000E+00  0.00000000E+00  0.00000000E+00
  0.00000000E+00  0.00000000E+00  0.00000000E+00
  0.00000000E+00  0.00000000E+00  0.00000000E+00
  0.00000000E+00  0.00000000E+00  0.00000000E+00
  0.00000000E+00  0.00000000E+00  0.00000000E+00
  0.00000000E+00  0.00000000E+00  0.00000000E+00
  0.00000000E+00  0.00000000E+00  0.00000000E+00
  0.00000000E+00  0.00000000E+00  0.00000000E+00
  0.00000000E+00  0.00000000E+00  0.00000000E+00
  0.00000000E+00  0.00000000E+00  0.00000000E+00
  0.00000000E+00  0.00000000E+00  0.00000000E+00
  0.00000000E+00  0.00000000E+00  0.00000000E+00
  0.00000000E+00  0.00000000E+00  0.00000000E+00
  0.00000000E+00  0.00000000E+00  0.00000000E+00
  0.00000000E+00  0.00000000E+00  0.00000000E+00
  0.00000000E+00  0.00000000E+00  0.00000000E+00
  0.00000000E+00  0.00000000E+00  0.00000000E+00
  0.00000000E+00  0.00000000E+00  0.00000000E+00
  0.00000000E+00  0.00000000E+00  0.00000000E+00
  0.00000000E+00  0.00000000E+00  0.00000000E+00
  0.00000000E+00  0.00000000E+00  0.00000000E+00
  0.00000000E+00  0.00000000E+00  0.00000000E+00
  0.00000000E+00  0.00000000E+00  0.00000000E+00
  0.00000000E+00  0.00000000E+00  0.00000000E+00
  0.00000000E+00  0.00000000E+00  0.00000000E+00
  0.00000000E+00  0.00000000E+00  0.00000000E+00
