CONTCAR\(7)                             
   1.00000000000000     
    12.4780998230000009    0.0000000000000000    0.0000000000000000
     0.0000000000000000   15.4434003830000002    0.0000000000000000
     0.0000000000000000    0.0000000000000000   19.6900997161999989
   Nb   Co   Te   O 
    16    16    32     1
Direct
  0.2417070515757143  0.1267952127000499  0.4942362403056889
  0.2581847453107198  0.3256692848792139  0.5061454591831230
  0.4912397367346317  0.0741376924331466  0.5078669553830267
  0.0107469279694339  0.3767318295199415  0.4929319502689861
  0.7416308623581774  0.1266293223235206  0.4947119548070129
  0.7603973621745609  0.3255762730615835  0.5054862832739806
  0.9915005017286747  0.0749298608070215  0.5068994272542079
  0.5095687038274801  0.3761746104609024  0.4938171498324826
  0.2425945464081395  0.6260981628387604  0.4905697295219634
  0.2609001675785776  0.8206177006174408  0.5097171744047903
  0.4892619896488353  0.5764134527107050  0.5078213072992446
  0.0100067477710870  0.8761091063156271  0.4949979525341256
  0.7425590999055576  0.6256051418227199  0.4937903882875543
  0.7600620360273316  0.8250376415437789  0.5075289521315320
  0.9947012911340495  0.5745379116848195  0.4990025832234084
  0.5097182734522478  0.8751803553260525  0.4939133433949585
  0.4283971975229386  0.2279059805353521  0.4592894183789737
  0.1794444189245379  0.4787879406281362  0.5436454306960328
  0.3251078225272603  0.4767068311459460  0.4597283913022591
  0.0733195711525640  0.2229216498255454  0.5412079223389353
  0.9278025379223548  0.2284894386117281  0.4590480787780677
  0.6786435599530211  0.4725918265721477  0.5406465418261056
  0.8233700187089785  0.4780823993337812  0.4572384362781407
  0.5734431115449932  0.2226808754660942  0.5415223610696995
  0.4286152769496669  0.7269015777756112  0.4595339287535367
  0.1768436524806768  0.9714273344624653  0.5416323427436927
  0.3230572784538237  0.9781705386624622  0.4608296338899699
  0.0741671178228019  0.7159556592104932  0.5425729345348812
  0.9263893578266666  0.7294635146207101  0.4592420480601100
  0.6777551539965668  0.9724164264993593  0.5421889638908592
  0.8234484585976906  0.9787069363081525  0.4601537393869671
  0.5764358340696677  0.7222425988315295  0.5409508289213776
  0.1333352171334081  0.4885047017729087  0.4104540306961761
  0.3740238993307081  0.3529423887937897  0.3814455364317597
  0.1220897010902703  0.3487978238083309  0.6181192664700471
  0.3782415312481655  0.2087800423413187  0.5876685463879747
  0.3784850108584766  0.1033536025250574  0.3823496324625789
  0.1283752191753887  0.0966587485364944  0.6189135061416356
  0.1231808693070587  0.2417281426416093  0.4121945753279203
  0.3730597746990635  0.4572250448341030  0.5884332815891988
  0.6276106038437631  0.4937298589341673  0.4130690997635034
  0.8743506158235494  0.3539413598447970  0.3804141143409335
  0.6254950376655232  0.3466085544382414  0.6184382119269339
  0.8784970718779215  0.2092405981622771  0.5879262210875096
  0.8774946513647994  0.1042878311434586  0.3819886917648713
  0.6277788865589573  0.0970090036380740  0.6196430149614798
  0.6233913685974688  0.2430040855047842  0.4127331355365917
  0.8763461907859011  0.4625004195865163  0.5851822401878982
  0.1282662931185340  0.9930237712636573  0.4132821510635913
  0.3708694947850473  0.8540844491665628  0.3832819805759101
  0.1208215654021754  0.8448146156492976  0.6192374777939418
  0.3710202301876613  0.7009310061561119  0.5923921961923601
  0.3791950596923334  0.6024928892749357  0.3805754741111981
  0.1339392786729363  0.5983448079182471  0.6251946492410506
  0.1220062719930409  0.7456209554447595  0.4136653908099035
  0.3724505075841583  0.9554337710490993  0.5883769801489753
  0.6280836254863471  0.9932276034914578  0.4136199858269216
  0.8722002390528971  0.8553373877042288  0.3823546994484209
  0.6212313255767613  0.8461200987914619  0.6193879636317209
  0.8797137343012384  0.7066215425530605  0.5876177919583341
  0.8811162418871219  0.6052145270734386  0.3797378065105974
  0.6301734763595209  0.5964050280165406  0.6188142164421644
  0.6233725777234740  0.7422317210763538  0.4127183579992062
  0.8727971316414594  0.9583061195020689  0.5887274924759953
  0.2681469041154427  0.6437026608279365  0.6677642237369651
 
  0.00000000E+00  0.00000000E+00  0.00000000E+00
  0.00000000E+00  0.00000000E+00  0.00000000E+00
  0.00000000E+00  0.00000000E+00  0.00000000E+00
  0.00000000E+00  0.00000000E+00  0.00000000E+00
  0.00000000E+00  0.00000000E+00  0.00000000E+00
  0.00000000E+00  0.00000000E+00  0.00000000E+00
  0.00000000E+00  0.00000000E+00  0.00000000E+00
  0.00000000E+00  0.00000000E+00  0.00000000E+00
  0.00000000E+00  0.00000000E+00  0.00000000E+00
  0.00000000E+00  0.00000000E+00  0.00000000E+00
  0.00000000E+00  0.00000000E+00  0.00000000E+00
  0.00000000E+00  0.00000000E+00  0.00000000E+00
  0.00000000E+00  0.00000000E+00  0.00000000E+00
  0.00000000E+00  0.00000000E+00  0.00000000E+00
  0.00000000E+00  0.00000000E+00  0.00000000E+00
  0.00000000E+00  0.00000000E+00  0.00000000E+00
  0.00000000E+00  0.00000000E+00  0.00000000E+00
  0.00000000E+00  0.00000000E+00  0.00000000E+00
  0.00000000E+00  0.00000000E+00  0.00000000E+00
  0.00000000E+00  0.00000000E+00  0.00000000E+00
  0.00000000E+00  0.00000000E+00  0.00000000E+00
  0.00000000E+00  0.00000000E+00  0.00000000E+00
  0.00000000E+00  0.00000000E+00  0.00000000E+00
  0.00000000E+00  0.00000000E+00  0.00000000E+00
  0.00000000E+00  0.00000000E+00  0.00000000E+00
  0.00000000E+00  0.00000000E+00  0.00000000E+00
  0.00000000E+00  0.00000000E+00  0.00000000E+00
  0.00000000E+00  0.00000000E+00  0.00000000E+00
  0.00000000E+00  0.00000000E+00  0.00000000E+00
  0.00000000E+00  0.00000000E+00  0.00000000E+00
  0.00000000E+00  0.00000000E+00  0.00000000E+00
  0.00000000E+00  0.00000000E+00  0.00000000E+00
  0.00000000E+00  0.00000000E+00  0.00000000E+00
  0.00000000E+00  0.00000000E+00  0.00000000E+00
  0.00000000E+00  0.00000000E+00  0.00000000E+00
  0.00000000E+00  0.00000000E+00  0.00000000E+00
  0.00000000E+00  0.00000000E+00  0.00000000E+00
  0.00000000E+00  0.00000000E+00  0.00000000E+00
  0.00000000E+00  0.00000000E+00  0.00000000E+00
  0.00000000E+00  0.00000000E+00  0.00000000E+00
  0.00000000E+00  0.00000000E+00  0.00000000E+00
  0.00000000E+00  0.00000000E+00  0.00000000E+00
  0.00000000E+00  0.00000000E+00  0.00000000E+00
  0.00000000E+00  0.00000000E+00  0.00000000E+00
  0.00000000E+00  0.00000000E+00  0.00000000E+00
  0.00000000E+00  0.00000000E+00  0.00000000E+00
  0.00000000E+00  0.00000000E+00  0.00000000E+00
  0.00000000E+00  0.00000000E+00  0.00000000E+00
  0.00000000E+00  0.00000000E+00  0.00000000E+00
  0.00000000E+00  0.00000000E+00  0.00000000E+00
  0.00000000E+00  0.00000000E+00  0.00000000E+00
  0.00000000E+00  0.00000000E+00  0.00000000E+00
  0.00000000E+00  0.00000000E+00  0.00000000E+00
  0.00000000E+00  0.00000000E+00  0.00000000E+00
  0.00000000E+00  0.00000000E+00  0.00000000E+00
  0.00000000E+00  0.00000000E+00  0.00000000E+00
  0.00000000E+00  0.00000000E+00  0.00000000E+00
  0.00000000E+00  0.00000000E+00  0.00000000E+00
  0.00000000E+00  0.00000000E+00  0.00000000E+00
  0.00000000E+00  0.00000000E+00  0.00000000E+00
  0.00000000E+00  0.00000000E+00  0.00000000E+00
  0.00000000E+00  0.00000000E+00  0.00000000E+00
  0.00000000E+00  0.00000000E+00  0.00000000E+00
  0.00000000E+00  0.00000000E+00  0.00000000E+00
  0.00000000E+00  0.00000000E+00  0.00000000E+00
