CONTCAR\(8)                             
   1.00000000000000     
    12.3756999968999999    0.0000000000000000    0.0000000000000000
     0.0000000000000000   15.7599000931000006    0.0000000000000000
     0.0000000000000000    0.0000000000000000   19.7080001831000011
   Ta   Ni   Te   O    H 
    16    16    32     1     1
Direct
  0.3750028564351648  0.4774566020292066  0.5009385979529561
  0.1198313311620822  0.0226559089462616  0.4981652406953267
  0.1314459199630321  0.2254234630871881  0.5028932065208136
  0.3816361970796219  0.2722367764816905  0.4971395588653316
  0.8712564124634296  0.4747904483080492  0.5017753566288832
  0.6190254416362285  0.0213823436787687  0.4977231829972502
  0.6305522676920378  0.2258314453861521  0.5040232195093556
  0.8821460750920513  0.2716888339339473  0.4953674435221070
  0.3679546282068968  0.9754975701720445  0.5055219583196467
  0.1193601466701243  0.5220101032797738  0.4950577366202035
  0.1273419751590471  0.7264028128973898  0.5040034575674031
  0.3776558675486913  0.7716870587045760  0.4980663964687964
  0.8674003568759746  0.9743283432262838  0.5055806528855397
  0.6156951626167225  0.5219798052530804  0.4870112403861624
  0.6265097944290996  0.7231484273311004  0.5045437214594347
  0.8790470040357058  0.7722797227178950  0.4953184941700279
  0.0542477851729014  0.3741691982884390  0.5418478838287224
  0.4485509309116936  0.1235659440553649  0.5439951965048010
  0.3036913224206408  0.1244683205340519  0.4579981387613206
  0.2000384860112653  0.3748271495804026  0.4564981440663872
  0.5545754545706182  0.3781402499388679  0.5444910410919978
  0.9474778872945346  0.1230801964459561  0.5436098402921419
  0.8017660570481415  0.1233808993595190  0.4581130801338005
  0.6991190541210780  0.3735657769226063  0.4566371623267692
  0.0494180032197829  0.8733769812948181  0.5437275246065258
  0.4448418638866575  0.6210084796147215  0.5456298445097454
  0.3001626836350649  0.6251036990100889  0.4577533771063346
  0.1958583241476464  0.8749989479770128  0.4583508993586712
  0.5497534802864382  0.8722732512724893  0.5439771872146216
  0.9442605419660575  0.6224917033776096  0.5431274397269104
  0.7992236237276542  0.6234390056909248  0.4566618132694163
  0.6954891212743518  0.8739114418255852  0.4582255120209448
  0.2539721881733930  0.3685623477210971  0.5847506007898740
  0.0019224749748518  0.2486503052266867  0.6182455136964160
  0.0005940364901308  0.1318963203959804  0.4147243474972816
  0.5017493946066764  0.3793578389704783  0.4127418575006443
  0.2506934213432526  0.2492070327199389  0.3810054421950927
  0.2501064215718808  0.0000834630851336  0.3824399784607366
  0.9996393503380209  0.9978953035292097  0.6202811128457310
  0.2501441120322271  0.1167379108986801  0.5870276657004925
  0.7532609815775629  0.3638258346147189  0.5853155169165420
  0.5011141251517728  0.2491753191085825  0.6191899619169284
  0.5015150937791453  0.1317117132803174  0.4147875912652348
  0.0011596004850670  0.3815744551318803  0.4125114012070906
  0.7502497892070160  0.2478074065249514  0.3810324931897713
  0.7501845093198294  0.9988361346364780  0.3822551702468758
  0.5002863210445936  0.9973686580138360  0.6202014888959925
  0.7490826265821506  0.1148902534824058  0.5869240045159273
  0.2473712236477101  0.8651279715837119  0.5874869935813299
  0.9935139436189179  0.7469807354853792  0.6189393939531483
  0.9973051211971631  0.6324137574523574  0.4141836384867409
  0.4967473594805258  0.8828580926468663  0.4155740253940675
  0.2448263317172109  0.7508364496422425  0.3821049355803358
  0.2519340411355621  0.5001588402487869  0.3804197607203489
 -0.0002253328190738  0.4973324839007060  0.6178888148705604
  0.2453019334956489  0.6151009273570476  0.5863073542045125
  0.7479892454809335  0.8615768336680220  0.5866958084706563
  0.4955941555760491  0.7474293000368406  0.6203111869766559
  0.4946680530043862  0.6351892742838715  0.4118034136871370
  0.9977694078676234  0.8838210008736227  0.4145492695975228
  0.7446222208256192  0.7500163759375144  0.3816003415821032
  0.7519669826527754  0.4983307601176297  0.3783434064085855
  0.5004301235329440  0.4982495935333279  0.6223951356598293
  0.7411202377092084  0.6069021902081179  0.5839297443506014
  0.3773476908431217  0.4574410911681541  0.6905094587476425
  0.4123666415956691  0.4515729498935526  0.7347897184992308
 
  0.00000000E+00  0.00000000E+00  0.00000000E+00
  0.00000000E+00  0.00000000E+00  0.00000000E+00
  0.00000000E+00  0.00000000E+00  0.00000000E+00
  0.00000000E+00  0.00000000E+00  0.00000000E+00
  0.00000000E+00  0.00000000E+00  0.00000000E+00
  0.00000000E+00  0.00000000E+00  0.00000000E+00
  0.00000000E+00  0.00000000E+00  0.00000000E+00
  0.00000000E+00  0.00000000E+00  0.00000000E+00
  0.00000000E+00  0.00000000E+00  0.00000000E+00
  0.00000000E+00  0.00000000E+00  0.00000000E+00
  0.00000000E+00  0.00000000E+00  0.00000000E+00
  0.00000000E+00  0.00000000E+00  0.00000000E+00
  0.00000000E+00  0.00000000E+00  0.00000000E+00
  0.00000000E+00  0.00000000E+00  0.00000000E+00
  0.00000000E+00  0.00000000E+00  0.00000000E+00
  0.00000000E+00  0.00000000E+00  0.00000000E+00
  0.00000000E+00  0.00000000E+00  0.00000000E+00
  0.00000000E+00  0.00000000E+00  0.00000000E+00
  0.00000000E+00  0.00000000E+00  0.00000000E+00
  0.00000000E+00  0.00000000E+00  0.00000000E+00
  0.00000000E+00  0.00000000E+00  0.00000000E+00
  0.00000000E+00  0.00000000E+00  0.00000000E+00
  0.00000000E+00  0.00000000E+00  0.00000000E+00
  0.00000000E+00  0.00000000E+00  0.00000000E+00
  0.00000000E+00  0.00000000E+00  0.00000000E+00
  0.00000000E+00  0.00000000E+00  0.00000000E+00
  0.00000000E+00  0.00000000E+00  0.00000000E+00
  0.00000000E+00  0.00000000E+00  0.00000000E+00
  0.00000000E+00  0.00000000E+00  0.00000000E+00
  0.00000000E+00  0.00000000E+00  0.00000000E+00
  0.00000000E+00  0.00000000E+00  0.00000000E+00
  0.00000000E+00  0.00000000E+00  0.00000000E+00
  0.00000000E+00  0.00000000E+00  0.00000000E+00
  0.00000000E+00  0.00000000E+00  0.00000000E+00
  0.00000000E+00  0.00000000E+00  0.00000000E+00
  0.00000000E+00  0.00000000E+00  0.00000000E+00
  0.00000000E+00  0.00000000E+00  0.00000000E+00
  0.00000000E+00  0.00000000E+00  0.00000000E+00
  0.00000000E+00  0.00000000E+00  0.00000000E+00
  0.00000000E+00  0.00000000E+00  0.00000000E+00
  0.00000000E+00  0.00000000E+00  0.00000000E+00
  0.00000000E+00  0.00000000E+00  0.00000000E+00
  0.00000000E+00  0.00000000E+00  0.00000000E+00
  0.00000000E+00  0.00000000E+00  0.00000000E+00
  0.00000000E+00  0.00000000E+00  0.00000000E+00
  0.00000000E+00  0.00000000E+00  0.00000000E+00
  0.00000000E+00  0.00000000E+00  0.00000000E+00
  0.00000000E+00  0.00000000E+00  0.00000000E+00
  0.00000000E+00  0.00000000E+00  0.00000000E+00
  0.00000000E+00  0.00000000E+00  0.00000000E+00
  0.00000000E+00  0.00000000E+00  0.00000000E+00
  0.00000000E+00  0.00000000E+00  0.00000000E+00
  0.00000000E+00  0.00000000E+00  0.00000000E+00
  0.00000000E+00  0.00000000E+00  0.00000000E+00
  0.00000000E+00  0.00000000E+00  0.00000000E+00
  0.00000000E+00  0.00000000E+00  0.00000000E+00
  0.00000000E+00  0.00000000E+00  0.00000000E+00
  0.00000000E+00  0.00000000E+00  0.00000000E+00
  0.00000000E+00  0.00000000E+00  0.00000000E+00
  0.00000000E+00  0.00000000E+00  0.00000000E+00
  0.00000000E+00  0.00000000E+00  0.00000000E+00
  0.00000000E+00  0.00000000E+00  0.00000000E+00
  0.00000000E+00  0.00000000E+00  0.00000000E+00
  0.00000000E+00  0.00000000E+00  0.00000000E+00
  0.00000000E+00  0.00000000E+00  0.00000000E+00
  0.00000000E+00  0.00000000E+00  0.00000000E+00
