CONTCAR\(3)                             
   1.00000000000000     
    13.6161003113000003    0.0000000000000000    0.0000000000000000
    -6.8080501556000002   11.7918887699999999    0.0000000000000000
     0.0000000000000000    0.0000000000000000   24.7478008269999989
   Ca   Ti   S    O 
     4    32    64     1
Direct
 -0.0008058551364991  0.0008826192213120  0.4989186712323448
  0.5016365241420376  0.0008701023918439  0.4990249653603003
  0.9991701774842708  0.4983001502065702  0.4989306529735466
  0.5001112688835552  0.5000267154361637  0.5036087214177092
  0.5011489362633242  0.2543950521607966  0.6355797319438239
  0.0029006801632404  0.2514549632337262  0.3610586477905027
  0.2514581040806919  0.0030956552414128  0.6352898668200816
  0.2497811809571063  0.4981300289947881  0.3619840465287127
  0.2531684441500441  0.2542909330040575  0.6354964786268650
  0.2498329840368864  0.2517246063209886  0.3619632317003307
  0.0002457088727034 -0.0004163466709202  0.6387417276073666
  0.0000452371805333  0.0000243218771503  0.3587830103649168
  0.9973565534409776  0.2486387421176084  0.6358040124163592
  0.5020962819336744  0.2516053494464932  0.3620226019411056
  0.7511019312714431  0.0025128860095064  0.6358572500204934
  0.7484314730515301  0.4979663587658645  0.3619640062819238
  0.7511019747209216  0.2486191494649988  0.6358867595239270
  0.7487578128169751  0.2512587835901677  0.3611664408995683
  0.4988694251373333 -0.0005955672330455  0.6389652125240629
  0.4999364127059058 -0.0000061471570954  0.3588589580586958
  0.5011487603219648  0.7467415878853529  0.6355827067852758
  0.0020287963401637  0.7510501402916484  0.3618286737788466
  0.2531612259556240  0.4987670128653012  0.6354977818746096
  0.2488657303011370  0.9978692696304137  0.3618771960290324
  0.2514270156929002  0.7482710502025122  0.6353026672144719
  0.2488584400217923  0.7510741210644318  0.3618735022082878
  0.0002808780744828  0.5005877580322244  0.6387608239767537
  0.0000721616484285  0.5000877382679282  0.3587788772835436
  0.9970940690032847  0.7485369132759599  0.6351405769644806
  0.5019998698740948  0.7504830359864516  0.3620340889190750
  0.7457205081803745  0.4989177359446197  0.6353905246966575
  0.7487526748482831  0.9974741868169320  0.3611257433917723
  0.7457242050598895  0.7468185145163045  0.6353343789251072
  0.7483901450400019  0.7504766431257435  0.3619689217972616
  0.5002545960819412  0.5001271110730315  0.7251108380269500
  0.5001104556454804  0.5000863758100341  0.3601291241990983
  0.4165542277060802  0.3330536532510419  0.4211332643225349
  0.4026827355067182  0.3055439315236146  0.7010945825201054
  0.1673214312969021  0.0837307776888838  0.4203260024105195
  0.1654710213548361  0.0806870004183419  0.6925396040233422
  0.1665217197083730  0.3332759012535711  0.4208283699324384
  0.1657041011501107  0.3328064864978161  0.6925648913821333
  0.4163878033093342  0.0837146848620985  0.4203731038878937
  0.4148636169763217  0.0806102013778211  0.6926540881769944
  0.0833562366359417  0.4157351740621226  0.5778449598227798
  0.0845058645539362  0.4169344226213321  0.3037294163162520
  0.3348107005493567  0.1696111728780031  0.5772971207209138
  0.3335401554025555  0.1668596357200185  0.3059631784336013
  0.3286656828128908  0.4142554422569706  0.5793567924560227
  0.3334898486665944  0.4167688521967929  0.3042843760298552
  0.0833600575378743  0.1675918759423840  0.5778370947883109
  0.0845131717727129  0.1676225547912120  0.3037153148961442
  0.9162884469362145  0.3322555296173620  0.4197265491201510
  0.9163744066605278  0.3327115790786869  0.6937171829912121
  0.6678130121487857  0.0838890960381338  0.4197964589415134
  0.6670822282832627  0.0835185226060921  0.6937732965406029
  0.6668623285738580  0.3332344317448672  0.4208886465136789
  0.6671287967199774  0.3329513144896539  0.6926029747232283
  0.9162721906930603  0.0840263369588158  0.4197147896869745
  0.9163124985902594  0.0835575351028984  0.6937005801329835
  0.5855723728265624  0.4141446501823173  0.5793529800667165
  0.5833364646796464  0.4166857736659789  0.3042869129631066
  0.8331621368705092  0.1665782998796732  0.5766202696355829
  0.8333630005604025  0.1666830621812386  0.3054327751101081
  0.8323710840175582  0.4156294777026850  0.5778239325415248
  0.8324687794604634  0.4167948872709767  0.3037516891884892
  0.5840159107464586  0.1674234221073650  0.5780082843342320
  0.5831657952112984  0.1674975560950534  0.3038041861458525
  0.4163718692018574  0.8327243626977395  0.4203765308213822
  0.4148726304556756  0.8341971388059759  0.6926818394111142
  0.1672944715265905  0.5836427605245254  0.4203241311429415
  0.1654803704050180  0.5847252652154497  0.6925597750405337
  0.1665653503528073  0.8333280184969351  0.4209725051799709
  0.1664705931017325  0.8332046131511691  0.6902552442151091
  0.4165083022985431  0.5835065377696629  0.4211407104036577
  0.4026417054374543  0.5971182107463170  0.7011107127650257
  0.0835094605410458  0.9165095809260491  0.5762584541632834
  0.0837669367542641  0.9162736849306164  0.3039075390803260
  0.3348006883028536  0.6650931943131383  0.5773111594290794
  0.3334955397864078  0.6667010937952875  0.3059633059959135
  0.3329117933664318  0.9164040273959930  0.5764144735098964
  0.3324284517763641  0.9162680958882449  0.3039374719731145
  0.0835291674691689  0.6669632817974108  0.5762772948267614
  0.0837979452371955  0.6676112202214102  0.3039091538331575
  0.9163094104579589  0.8327492016402055  0.4203178079586848
  0.9192834966260344  0.8343661057498489  0.6924156386674081
  0.6670968225338038  0.5835561669813193  0.4211027048090368
  0.6947295082307868  0.5973792952537568  0.7009497500013812
  0.6668446842189759  0.8336470496430726  0.4208792772477854
  0.6671399686262224  0.8341532772299224  0.6925663780919166
  0.9163163810236521  0.5835908010670472  0.4203106340486830
  0.9192909527337458  0.5848702812156873  0.6924244247430378
  0.5839605033504400  0.9165961100223837  0.5779859455938673
  0.5831515982774519  0.9156820576910770  0.3038018682001587
  0.8302623315643762  0.6650823335766363  0.5771509924912807
  0.8331484287138793  0.6666057127794116  0.3059285236693150
  0.8323781196701907  0.9167468445929212  0.5777815423148588
  0.8324716980084701  0.9156754680262821  0.3037487719516296
  0.5855851188952508  0.6714496619042609  0.5793182733643967
  0.5832824325358444  0.6666949463351740  0.3042840584387034
  0.5004614283535815  0.5001541063399981  0.7908176287569106
 
  0.00000000E+00  0.00000000E+00  0.00000000E+00
  0.00000000E+00  0.00000000E+00  0.00000000E+00
  0.00000000E+00  0.00000000E+00  0.00000000E+00
  0.00000000E+00  0.00000000E+00  0.00000000E+00
  0.00000000E+00  0.00000000E+00  0.00000000E+00
  0.00000000E+00  0.00000000E+00  0.00000000E+00
  0.00000000E+00  0.00000000E+00  0.00000000E+00
  0.00000000E+00  0.00000000E+00  0.00000000E+00
  0.00000000E+00  0.00000000E+00  0.00000000E+00
  0.00000000E+00  0.00000000E+00  0.00000000E+00
  0.00000000E+00  0.00000000E+00  0.00000000E+00
  0.00000000E+00  0.00000000E+00  0.00000000E+00
  0.00000000E+00  0.00000000E+00  0.00000000E+00
  0.00000000E+00  0.00000000E+00  0.00000000E+00
  0.00000000E+00  0.00000000E+00  0.00000000E+00
  0.00000000E+00  0.00000000E+00  0.00000000E+00
  0.00000000E+00  0.00000000E+00  0.00000000E+00
  0.00000000E+00  0.00000000E+00  0.00000000E+00
  0.00000000E+00  0.00000000E+00  0.00000000E+00
  0.00000000E+00  0.00000000E+00  0.00000000E+00
  0.00000000E+00  0.00000000E+00  0.00000000E+00
  0.00000000E+00  0.00000000E+00  0.00000000E+00
  0.00000000E+00  0.00000000E+00  0.00000000E+00
  0.00000000E+00  0.00000000E+00  0.00000000E+00
  0.00000000E+00  0.00000000E+00  0.00000000E+00
  0.00000000E+00  0.00000000E+00  0.00000000E+00
  0.00000000E+00  0.00000000E+00  0.00000000E+00
  0.00000000E+00  0.00000000E+00  0.00000000E+00
  0.00000000E+00  0.00000000E+00  0.00000000E+00
  0.00000000E+00  0.00000000E+00  0.00000000E+00
  0.00000000E+00  0.00000000E+00  0.00000000E+00
  0.00000000E+00  0.00000000E+00  0.00000000E+00
  0.00000000E+00  0.00000000E+00  0.00000000E+00
  0.00000000E+00  0.00000000E+00  0.00000000E+00
  0.00000000E+00  0.00000000E+00  0.00000000E+00
  0.00000000E+00  0.00000000E+00  0.00000000E+00
  0.00000000E+00  0.00000000E+00  0.00000000E+00
  0.00000000E+00  0.00000000E+00  0.00000000E+00
  0.00000000E+00  0.00000000E+00  0.00000000E+00
  0.00000000E+00  0.00000000E+00  0.00000000E+00
  0.00000000E+00  0.00000000E+00  0.00000000E+00
  0.00000000E+00  0.00000000E+00  0.00000000E+00
  0.00000000E+00  0.00000000E+00  0.00000000E+00
  0.00000000E+00  0.00000000E+00  0.00000000E+00
  0.00000000E+00  0.00000000E+00  0.00000000E+00
  0.00000000E+00  0.00000000E+00  0.00000000E+00
  0.00000000E+00  0.00000000E+00  0.00000000E+00
  0.00000000E+00  0.00000000E+00  0.00000000E+00
  0.00000000E+00  0.00000000E+00  0.00000000E+00
  0.00000000E+00  0.00000000E+00  0.00000000E+00
  0.00000000E+00  0.00000000E+00  0.00000000E+00
  0.00000000E+00  0.00000000E+00  0.00000000E+00
  0.00000000E+00  0.00000000E+00  0.00000000E+00
  0.00000000E+00  0.00000000E+00  0.00000000E+00
  0.00000000E+00  0.00000000E+00  0.00000000E+00
  0.00000000E+00  0.00000000E+00  0.00000000E+00
  0.00000000E+00  0.00000000E+00  0.00000000E+00
  0.00000000E+00  0.00000000E+00  0.00000000E+00
  0.00000000E+00  0.00000000E+00  0.00000000E+00
  0.00000000E+00  0.00000000E+00  0.00000000E+00
  0.00000000E+00  0.00000000E+00  0.00000000E+00
  0.00000000E+00  0.00000000E+00  0.00000000E+00
  0.00000000E+00  0.00000000E+00  0.00000000E+00
  0.00000000E+00  0.00000000E+00  0.00000000E+00
  0.00000000E+00  0.00000000E+00  0.00000000E+00
  0.00000000E+00  0.00000000E+00  0.00000000E+00
  0.00000000E+00  0.00000000E+00  0.00000000E+00
  0.00000000E+00  0.00000000E+00  0.00000000E+00
  0.00000000E+00  0.00000000E+00  0.00000000E+00
  0.00000000E+00  0.00000000E+00  0.00000000E+00
  0.00000000E+00  0.00000000E+00  0.00000000E+00
  0.00000000E+00  0.00000000E+00  0.00000000E+00
  0.00000000E+00  0.00000000E+00  0.00000000E+00
  0.00000000E+00  0.00000000E+00  0.00000000E+00
  0.00000000E+00  0.00000000E+00  0.00000000E+00
  0.00000000E+00  0.00000000E+00  0.00000000E+00
  0.00000000E+00  0.00000000E+00  0.00000000E+00
  0.00000000E+00  0.00000000E+00  0.00000000E+00
  0.00000000E+00  0.00000000E+00  0.00000000E+00
  0.00000000E+00  0.00000000E+00  0.00000000E+00
  0.00000000E+00  0.00000000E+00  0.00000000E+00
  0.00000000E+00  0.00000000E+00  0.00000000E+00
  0.00000000E+00  0.00000000E+00  0.00000000E+00
  0.00000000E+00  0.00000000E+00  0.00000000E+00
  0.00000000E+00  0.00000000E+00  0.00000000E+00
  0.00000000E+00  0.00000000E+00  0.00000000E+00
  0.00000000E+00  0.00000000E+00  0.00000000E+00
  0.00000000E+00  0.00000000E+00  0.00000000E+00
  0.00000000E+00  0.00000000E+00  0.00000000E+00
  0.00000000E+00  0.00000000E+00  0.00000000E+00
  0.00000000E+00  0.00000000E+00  0.00000000E+00
  0.00000000E+00  0.00000000E+00  0.00000000E+00
  0.00000000E+00  0.00000000E+00  0.00000000E+00
  0.00000000E+00  0.00000000E+00  0.00000000E+00
  0.00000000E+00  0.00000000E+00  0.00000000E+00
  0.00000000E+00  0.00000000E+00  0.00000000E+00
  0.00000000E+00  0.00000000E+00  0.00000000E+00
  0.00000000E+00  0.00000000E+00  0.00000000E+00
  0.00000000E+00  0.00000000E+00  0.00000000E+00
  0.00000000E+00  0.00000000E+00  0.00000000E+00
  0.00000000E+00  0.00000000E+00  0.00000000E+00
