CONTCAR\(3)                             
   1.00000000000000     
    12.0853004455999997    0.0000000000000000    0.0000000000000000
     0.0000000000000000   13.7131004332999993    0.0000000000000000
     0.0000000000000000    0.0000000000000000   20.3784999846999995
   Zr   Te   O 
     6    30     1
Direct
  0.9968483641939370  0.5002030729312891  0.4513580123600960
  0.1735883612716738  0.0007429787479062  0.5495564520061545
  0.3297183720590528  0.5015362567262416  0.4556747585064040
  0.5069405582225768  0.0111392777638290  0.5489498846880996
  0.6654660184822940  0.5078416652632488  0.4532903815680862
  0.8388476917387589  0.0037921112354143  0.5462513519191200
  0.1577894946970932  0.4700537960362463  0.5630891111985316
  0.0088041651788613  0.9810445723437566  0.4383567017897489
  0.1657230964444392  0.6120062517244006  0.3777484285735075
  0.0040544277208304  0.9114521291890043  0.6358890073710886
  0.0054411873251239  0.1133468020026283  0.6235279516666717
  0.1653093608724720  0.4101625975252153  0.3649858149334212
  0.9958708080646054  0.3051251517759401  0.5157856059206369
  0.1722775216879968  0.1729691303698933  0.4597449662315432
  0.1733354496005544  0.8057203618209565  0.4854159872897137
  0.0001103649020391  0.6757961433206378  0.5390757792119251
  0.5014581829236424  0.4782563764838723  0.5638509131739058
  0.3373425864229318 -0.0020501688851876  0.4389497783879777
  0.4934114914962167  0.6258195360529466  0.3867346586292666
  0.3467423289804586  0.9117026544980179  0.6336357797479878
  0.3358139942412227  0.1140257058230063  0.6288965092278112
  0.4975757758782185  0.4244584337004227  0.3631650454229208
  0.3338608423804804  0.3083708772562144  0.5190126418998583
  0.5021961123369652  0.1813366526554305  0.4592163934594450
  0.5136370504499650  0.8188271986335098  0.4893802110768398
  0.3056652555406539  0.6556380680985140  0.5569675296616885
  0.8328277817215620  0.4954697627270711  0.5623434851913700
  0.6697520144147260  0.9821852409960596  0.4366636607615135
  0.8321900418734344  0.6118134409593813  0.3721095329715960
  0.6738402126687952  0.9163172895356083  0.6353896372040142
  0.6757420296202289  0.1183035994480675  0.6245036451807343
  0.8283232183165414  0.4096837628993157  0.3660932837429632
  0.6647195683070865  0.3139953259336587  0.5185858916083080
  0.8327866512772378  0.1796326816591131  0.4578168141300680
  0.8414346594873892  0.8122675404740134  0.4781069852355690
  0.6826167778272699  0.6823395387121650  0.5406071965962342
  0.4375682023726521  0.7434741865621950  0.5654703154552172
 
  0.00000000E+00  0.00000000E+00  0.00000000E+00
  0.00000000E+00  0.00000000E+00  0.00000000E+00
  0.00000000E+00  0.00000000E+00  0.00000000E+00
  0.00000000E+00  0.00000000E+00  0.00000000E+00
  0.00000000E+00  0.00000000E+00  0.00000000E+00
  0.00000000E+00  0.00000000E+00  0.00000000E+00
  0.00000000E+00  0.00000000E+00  0.00000000E+00
  0.00000000E+00  0.00000000E+00  0.00000000E+00
  0.00000000E+00  0.00000000E+00  0.00000000E+00
  0.00000000E+00  0.00000000E+00  0.00000000E+00
  0.00000000E+00  0.00000000E+00  0.00000000E+00
  0.00000000E+00  0.00000000E+00  0.00000000E+00
  0.00000000E+00  0.00000000E+00  0.00000000E+00
  0.00000000E+00  0.00000000E+00  0.00000000E+00
  0.00000000E+00  0.00000000E+00  0.00000000E+00
  0.00000000E+00  0.00000000E+00  0.00000000E+00
  0.00000000E+00  0.00000000E+00  0.00000000E+00
  0.00000000E+00  0.00000000E+00  0.00000000E+00
  0.00000000E+00  0.00000000E+00  0.00000000E+00
  0.00000000E+00  0.00000000E+00  0.00000000E+00
  0.00000000E+00  0.00000000E+00  0.00000000E+00
  0.00000000E+00  0.00000000E+00  0.00000000E+00
  0.00000000E+00  0.00000000E+00  0.00000000E+00
  0.00000000E+00  0.00000000E+00  0.00000000E+00
  0.00000000E+00  0.00000000E+00  0.00000000E+00
  0.00000000E+00  0.00000000E+00  0.00000000E+00
  0.00000000E+00  0.00000000E+00  0.00000000E+00
  0.00000000E+00  0.00000000E+00  0.00000000E+00
  0.00000000E+00  0.00000000E+00  0.00000000E+00
  0.00000000E+00  0.00000000E+00  0.00000000E+00
  0.00000000E+00  0.00000000E+00  0.00000000E+00
  0.00000000E+00  0.00000000E+00  0.00000000E+00
  0.00000000E+00  0.00000000E+00  0.00000000E+00
  0.00000000E+00  0.00000000E+00  0.00000000E+00
  0.00000000E+00  0.00000000E+00  0.00000000E+00
  0.00000000E+00  0.00000000E+00  0.00000000E+00
  0.00000000E+00  0.00000000E+00  0.00000000E+00
