 CONTCAR                                
   1.00000000000000     
    12.1569004059000001    0.0000000000000000    0.0000000000000000
    -6.0784502029000000   10.5281845827999998    0.0000000000000000
     0.0000000000000000    0.0000000000000000   17.2780447103650587
   Ti   C    H 
    32    16     1
Direct
  0.1665598234330022  0.0832460740360898  0.5664706222013164
  0.0834465735363120  0.1668048854755149  0.4345661771930213
  0.4165742469660239  0.0831716727716209  0.5668898400515029
  0.3335787028636809  0.1666889355688961  0.4347902896608791
  0.6667412192099713  0.0831417381498732  0.5669124739449317
  0.5834398517101691  0.1666402449001362  0.4350149259194778
  0.9167932275878439  0.0832025792515700  0.5664900079063492
  0.8333022512674199  0.1667157885314054  0.4348110111113281
  0.1665268264130570  0.3328887471087411  0.5662582308459145
  0.0830176905420009  0.4171568310755215  0.4350495515988327
  0.4165494330840679  0.3332953121474188  0.5668528236017207
  0.3342279802291698  0.4171933763979355  0.4350312709142896
  0.6667073919018126  0.3332953521597797  0.5669758473709037
  0.5834061697344235  0.4166100146520818  0.4350151879770957
  0.9168688126660043  0.3332641610709768  0.5669203175984098
  0.8333717499903510  0.4165686885355503  0.4350163053202538
  0.1698605095412493  0.5848758188930143  0.5666449891286494
  0.0830125820822408  0.6657296073274528  0.4350874907848628
  0.4151031501917860  0.5849016878063080  0.5666047182682898
  0.3333598951306184  0.6666460353167558  0.4337373277357735
  0.6667114420223893  0.5834537409869112  0.5668596118088856
  0.5828163777789912  0.6657840245449693  0.4350319157019612
  0.9168418766315251  0.5834403735036076  0.5668989818275791
  0.8333255390452323  0.6664320346534083  0.4348024119720378
  0.1665179827524157  0.8335148894887978  0.5662788406382325
  0.0834613933454950  0.9165518656865627  0.4345932465044471
  0.4151253968496449  0.8301482995435654  0.5666404754506144
  0.3342748469458139  0.9169869071226636  0.4350807266659885
  0.6671176013206258  0.8334862500426110  0.5662604269281835
  0.5828628618646190  0.9169938895019194  0.4350506867993703
  0.9167641766792428  0.8334611847691367  0.5664775567280735
  0.8332046604329520  0.9165496593727442  0.4345607314048491
  0.0000439363809130 -0.0000339993973783  0.5002556253425655
  0.2501372356215009  0.0000190108852766  0.5005270487866674
  0.5004043771550245  0.0006396145836828  0.5013366429908764
  0.7500426738480368  0.0000120048553747  0.5005229276299404
  0.0000000394121290  0.2499765216550139  0.5005282080144977
  0.2501397045738787  0.2499936750717454  0.5004647772977621
  0.5000266511033660  0.2499339536054243  0.5009446681085064
  0.7500810226674112  0.2499256023780659  0.5009960887080809
 -0.0006314437184146  0.4996019944879612  0.5013460074726244
  0.2498779737072998  0.4996685458708995  0.4998663271989968
  0.5003626657797667  0.4996487857979029  0.5012754856724365
  0.7500785803636992  0.4999847044043042  0.5009520418900658
 -0.0000027396719482  0.7498825900657942  0.5005372372997920
  0.2498871580463546  0.7501158103417402  0.4998768559127799
  0.5003371307033977  0.7501277904698509  0.4998659457258699
  0.7500132556129305  0.7498718478861178  0.5004732648165270
  0.3332576783490444  0.6667447599220826  0.6257507247661198
 
  0.00000000E+00  0.00000000E+00  0.00000000E+00
  0.00000000E+00  0.00000000E+00  0.00000000E+00
  0.00000000E+00  0.00000000E+00  0.00000000E+00
  0.00000000E+00  0.00000000E+00  0.00000000E+00
  0.00000000E+00  0.00000000E+00  0.00000000E+00
  0.00000000E+00  0.00000000E+00  0.00000000E+00
  0.00000000E+00  0.00000000E+00  0.00000000E+00
  0.00000000E+00  0.00000000E+00  0.00000000E+00
  0.00000000E+00  0.00000000E+00  0.00000000E+00
  0.00000000E+00  0.00000000E+00  0.00000000E+00
  0.00000000E+00  0.00000000E+00  0.00000000E+00
  0.00000000E+00  0.00000000E+00  0.00000000E+00
  0.00000000E+00  0.00000000E+00  0.00000000E+00
  0.00000000E+00  0.00000000E+00  0.00000000E+00
  0.00000000E+00  0.00000000E+00  0.00000000E+00
  0.00000000E+00  0.00000000E+00  0.00000000E+00
  0.00000000E+00  0.00000000E+00  0.00000000E+00
  0.00000000E+00  0.00000000E+00  0.00000000E+00
  0.00000000E+00  0.00000000E+00  0.00000000E+00
  0.00000000E+00  0.00000000E+00  0.00000000E+00
  0.00000000E+00  0.00000000E+00  0.00000000E+00
  0.00000000E+00  0.00000000E+00  0.00000000E+00
  0.00000000E+00  0.00000000E+00  0.00000000E+00
  0.00000000E+00  0.00000000E+00  0.00000000E+00
  0.00000000E+00  0.00000000E+00  0.00000000E+00
  0.00000000E+00  0.00000000E+00  0.00000000E+00
  0.00000000E+00  0.00000000E+00  0.00000000E+00
  0.00000000E+00  0.00000000E+00  0.00000000E+00
  0.00000000E+00  0.00000000E+00  0.00000000E+00
  0.00000000E+00  0.00000000E+00  0.00000000E+00
  0.00000000E+00  0.00000000E+00  0.00000000E+00
  0.00000000E+00  0.00000000E+00  0.00000000E+00
  0.00000000E+00  0.00000000E+00  0.00000000E+00
  0.00000000E+00  0.00000000E+00  0.00000000E+00
  0.00000000E+00  0.00000000E+00  0.00000000E+00
  0.00000000E+00  0.00000000E+00  0.00000000E+00
  0.00000000E+00  0.00000000E+00  0.00000000E+00
  0.00000000E+00  0.00000000E+00  0.00000000E+00
  0.00000000E+00  0.00000000E+00  0.00000000E+00
  0.00000000E+00  0.00000000E+00  0.00000000E+00
  0.00000000E+00  0.00000000E+00  0.00000000E+00
  0.00000000E+00  0.00000000E+00  0.00000000E+00
  0.00000000E+00  0.00000000E+00  0.00000000E+00
  0.00000000E+00  0.00000000E+00  0.00000000E+00
  0.00000000E+00  0.00000000E+00  0.00000000E+00
  0.00000000E+00  0.00000000E+00  0.00000000E+00
  0.00000000E+00  0.00000000E+00  0.00000000E+00
  0.00000000E+00  0.00000000E+00  0.00000000E+00
  0.00000000E+00  0.00000000E+00  0.00000000E+00
