CONTCAR\(20)                            
   1.00000000000000     
    12.0392999648999997    0.0000000000000000    0.0000000000000000
     1.3648429331000000   13.3109105337999996    0.0000000000000000
     0.0000000000000000    0.0000000000000000   21.3703002929999997
   Li   Cu   P    O 
     8     8    24    72
Direct
  0.4333128653536788  0.4892951652924813  0.3905499826861534
  0.0666971426463252  0.0107048367075189  0.6094500613138429
  0.9333128263536792  0.4892951652924813  0.3905499826861534
  0.5666971336463207  0.0107048367075189  0.6094500613138429
  0.4333128413536768  0.9892951892924763  0.3905499826861534
  0.0666971446463253  0.5107048117075202  0.6094500613138429
  0.9333128413536769  0.9892951892924763  0.3905499826861534
  0.5666971146463227  0.5107048117075202  0.6094500613138429
  0.3912404135915097  0.2360482007016800  0.3825516427252181
  0.1087495814084903  0.2639617822983255  0.6174483572747816
  0.8912404525915162  0.2360482007016800  0.3825516427252181
  0.6087496014084851  0.2639617822983255  0.6174483572747816
  0.3912403925915115  0.7360481897016753  0.3825516427252181
  0.1087495814084903  0.7639617702983246  0.6174483572747816
  0.8912403925915112  0.7360481897016753  0.3825516427252181
  0.6087496204084902  0.7639617702983246  0.6174483572747816
  0.4172028674894334  0.1275199945684699  0.5141064514734406
  0.3565134123112246  0.2879648942419209  0.6015106601904278
  0.3200082406282301  0.0120601088685235  0.6125356564735104
  0.1800017633717733  0.4879298871314799  0.3874743845264925
  0.1434866246887750  0.2120351117580725  0.3984893398095724
  0.0828071065105674  0.3724799674315339  0.4859035445265619
  0.9172028674894340  0.1275199945684699  0.5141064514734406
  0.8565134123112249  0.2879648942419209  0.6015106601904278
  0.8200082216282325  0.0120601088685235  0.6125356564735104
  0.6800017633717730  0.4879298871314799  0.3874743845264925
  0.6434865656887733  0.2120351117580725  0.3984893398095724
  0.5827971155105681  0.3724799674315339  0.4859035445265619
  0.4172028834894276  0.6275200095684681  0.5141064514734406
  0.3565133903112228  0.7879649002419215  0.6015106601904278
  0.3200082406282301  0.5120600948685226  0.6125356564735104
  0.1800017473717719  0.9879298391314759  0.3874743845264925
  0.1434866246887750  0.7120351007580751  0.3984893398095724
  0.0828071115105714  0.8724799914315284  0.4859035445265619
  0.9172028834894282  0.6275200095684681  0.5141064514734406
  0.8565134293112228  0.7879649002419215  0.6015106601904278
  0.8200082406282305  0.5120600948685226  0.6125356564735104
  0.6800017073717683  0.9879298391314759  0.3874743845264925
  0.6434865846887713  0.7120351007580751  0.3984893398095724
  0.5827971305105658  0.8724799914315284  0.4859035445265619
  0.4695267713210410  0.4009495660299029  0.4597983436591860
  0.4043642697927859  0.1252157329978845  0.4428435759696052
  0.4609513125216116  0.2666330901321290  0.6408064013569095
  0.4237205171142584  0.0225800842120367  0.6484239269725706
  0.3739825221121891  0.2425675658917624  0.5324334297469587
  0.3218297919217225  0.0683423026044511  0.5437004643729293
  0.3283869762298776  0.3992241241658099  0.5818281825565429
  0.2935519741866903  0.4652445293873571  0.3606470622332089
  0.2407044389591813  0.2541802137896990  0.3662904373724469
  0.2592855620408120  0.2458197572102948  0.6336995886275516
  0.2064580298133133  0.0347454616126425  0.6393529597667860
  0.1716230467701168  0.1007758378341941  0.4181718174434572
  0.1781802060782734  0.4316676623955457  0.4563095316270664
  0.1260174918878120  0.2574224281082409  0.4675665702530414
  0.0762894548857424  0.4774198907879647  0.3515760510274351
  0.0390387204783844  0.2333569038678742  0.3591935986430909
  0.0956357302072141  0.3747842550021143  0.5571563790303946
  0.0304732276789624  0.0990504219701031  0.5402016563408144
  0.9695268113210376  0.4009495660299029  0.4597983436591860
  0.9043642697927859  0.1252157329978845  0.4428435759696052
  0.9609513125216117  0.2666330901321290  0.6408064013569095
  0.9237205561142579  0.0225800842120367  0.6484239269725706
  0.8739825221121893  0.2425675658917624  0.5324334297469587
  0.8218297529217231  0.0683423026044511  0.5437004643729293
  0.8283869362298811  0.3992241241658099  0.5818281825565429
  0.7935520141866867  0.4652445293873571  0.3606470622332089
  0.7407044199591832  0.2541802137896990  0.3662904373724469
  0.7592855810408173  0.2458197572102948  0.6336995886275516
  0.7064580498133075  0.0347454616126425  0.6393529597667860
  0.6716229477701195  0.1007758378341941  0.4181718174434572
  0.6781802650782744  0.4316676623955457  0.4563095316270664
  0.6260174818878110  0.2574224281082409  0.4675665702530414
  0.5762894458857455  0.4774198907879647  0.3515760510274351
  0.5390387104783835  0.2333569038678742  0.3591935986430909
  0.5956357492072121  0.3747842550021143  0.5571563790303946
  0.5304732476789566  0.0990504219701031  0.5402016563408144
  0.4695267913210427  0.9009495540299017  0.4597983436591860
  0.4043642497927914  0.6252157219978868  0.4428435759696052
  0.4609512985216176  0.7666330241321234  0.6408064013569095
  0.4237205351142599  0.5225800852120339  0.6484239269725706
  0.3739825001121873  0.7425675718917627  0.5324334297469587
  0.3218297699217206  0.5683423086044516  0.5437004643729293
  0.3283869482298823  0.8992241841658076  0.5818281825565429
  0.2935519581866890  0.9652444823873568  0.3606470622332089
  0.2407044389591813  0.7541802017897050  0.3662904373724469
  0.2592855630408157  0.7458197272102998  0.6336995886275516
  0.2064580298133133  0.5347454526126453  0.6393529597667860
  0.1716230477701204  0.6007758168341889  0.4181718174434572
  0.1781802010782766  0.9316676863955476  0.4563095316270664
  0.1260174948878158  0.7574224701082376  0.4675665702530414
  0.0762894488857419  0.9774198437879638  0.3515760510274351
  0.0390387224783846  0.7333568738678721  0.3591935986430909
  0.0956357332072108  0.8747842080021145  0.5571563790303946
  0.0304732316789627  0.5990503749701031  0.5402016563408144
  0.9695267513210397  0.9009495540299017  0.4597983436591860
  0.9043642887927911  0.6252157219978868  0.4428435759696052
  0.9609512585216143  0.7666330241321234  0.6408064013569095
  0.9237204951142564  0.5225800852120339  0.6484239269725706
  0.8739824601121842  0.7425675718917627  0.5324334297469587
  0.8218297699217210  0.5683423086044516  0.5437004643729293
  0.8283869482298821  0.8992241841658076  0.5818281825565429
  0.7935519581866892  0.9652444823873568  0.3606470622332089
  0.7407044389591811  0.7541802017897050  0.3662904373724469
  0.7592855240408162  0.7458197272102998  0.6336995886275516
  0.7064580688133126  0.5347454526126453  0.6393529597667860
  0.6716229687701177  0.6007758168341889  0.4181718174434572
  0.6781802010782763  0.9316676863955476  0.4563095316270664
  0.6260174948878157  0.7574224701082376  0.4675665702530414
  0.5762894288857405  0.9774198437879638  0.3515760510274351
  0.5390387324783853  0.7333568738678721  0.3591935986430909
  0.5956357332072107  0.8747842080021145  0.5571563790303946
  0.5304732716789586  0.5990503749701031  0.5402016563408144
 
  0.00000000E+00  0.00000000E+00  0.00000000E+00
  0.00000000E+00  0.00000000E+00  0.00000000E+00
  0.00000000E+00  0.00000000E+00  0.00000000E+00
  0.00000000E+00  0.00000000E+00  0.00000000E+00
  0.00000000E+00  0.00000000E+00  0.00000000E+00
  0.00000000E+00  0.00000000E+00  0.00000000E+00
  0.00000000E+00  0.00000000E+00  0.00000000E+00
  0.00000000E+00  0.00000000E+00  0.00000000E+00
  0.00000000E+00  0.00000000E+00  0.00000000E+00
  0.00000000E+00  0.00000000E+00  0.00000000E+00
  0.00000000E+00  0.00000000E+00  0.00000000E+00
  0.00000000E+00  0.00000000E+00  0.00000000E+00
  0.00000000E+00  0.00000000E+00  0.00000000E+00
  0.00000000E+00  0.00000000E+00  0.00000000E+00
  0.00000000E+00  0.00000000E+00  0.00000000E+00
  0.00000000E+00  0.00000000E+00  0.00000000E+00
  0.00000000E+00  0.00000000E+00  0.00000000E+00
  0.00000000E+00  0.00000000E+00  0.00000000E+00
  0.00000000E+00  0.00000000E+00  0.00000000E+00
  0.00000000E+00  0.00000000E+00  0.00000000E+00
  0.00000000E+00  0.00000000E+00  0.00000000E+00
  0.00000000E+00  0.00000000E+00  0.00000000E+00
  0.00000000E+00  0.00000000E+00  0.00000000E+00
  0.00000000E+00  0.00000000E+00  0.00000000E+00
  0.00000000E+00  0.00000000E+00  0.00000000E+00
  0.00000000E+00  0.00000000E+00  0.00000000E+00
  0.00000000E+00  0.00000000E+00  0.00000000E+00
  0.00000000E+00  0.00000000E+00  0.00000000E+00
  0.00000000E+00  0.00000000E+00  0.00000000E+00
  0.00000000E+00  0.00000000E+00  0.00000000E+00
  0.00000000E+00  0.00000000E+00  0.00000000E+00
  0.00000000E+00  0.00000000E+00  0.00000000E+00
  0.00000000E+00  0.00000000E+00  0.00000000E+00
  0.00000000E+00  0.00000000E+00  0.00000000E+00
  0.00000000E+00  0.00000000E+00  0.00000000E+00
  0.00000000E+00  0.00000000E+00  0.00000000E+00
  0.00000000E+00  0.00000000E+00  0.00000000E+00
  0.00000000E+00  0.00000000E+00  0.00000000E+00
  0.00000000E+00  0.00000000E+00  0.00000000E+00
  0.00000000E+00  0.00000000E+00  0.00000000E+00
  0.00000000E+00  0.00000000E+00  0.00000000E+00
  0.00000000E+00  0.00000000E+00  0.00000000E+00
  0.00000000E+00  0.00000000E+00  0.00000000E+00
  0.00000000E+00  0.00000000E+00  0.00000000E+00
  0.00000000E+00  0.00000000E+00  0.00000000E+00
  0.00000000E+00  0.00000000E+00  0.00000000E+00
  0.00000000E+00  0.00000000E+00  0.00000000E+00
  0.00000000E+00  0.00000000E+00  0.00000000E+00
  0.00000000E+00  0.00000000E+00  0.00000000E+00
  0.00000000E+00  0.00000000E+00  0.00000000E+00
  0.00000000E+00  0.00000000E+00  0.00000000E+00
  0.00000000E+00  0.00000000E+00  0.00000000E+00
  0.00000000E+00  0.00000000E+00  0.00000000E+00
  0.00000000E+00  0.00000000E+00  0.00000000E+00
  0.00000000E+00  0.00000000E+00  0.00000000E+00
  0.00000000E+00  0.00000000E+00  0.00000000E+00
  0.00000000E+00  0.00000000E+00  0.00000000E+00
  0.00000000E+00  0.00000000E+00  0.00000000E+00
  0.00000000E+00  0.00000000E+00  0.00000000E+00
  0.00000000E+00  0.00000000E+00  0.00000000E+00
  0.00000000E+00  0.00000000E+00  0.00000000E+00
  0.00000000E+00  0.00000000E+00  0.00000000E+00
  0.00000000E+00  0.00000000E+00  0.00000000E+00
  0.00000000E+00  0.00000000E+00  0.00000000E+00
  0.00000000E+00  0.00000000E+00  0.00000000E+00
  0.00000000E+00  0.00000000E+00  0.00000000E+00
  0.00000000E+00  0.00000000E+00  0.00000000E+00
  0.00000000E+00  0.00000000E+00  0.00000000E+00
  0.00000000E+00  0.00000000E+00  0.00000000E+00
  0.00000000E+00  0.00000000E+00  0.00000000E+00
  0.00000000E+00  0.00000000E+00  0.00000000E+00
  0.00000000E+00  0.00000000E+00  0.00000000E+00
  0.00000000E+00  0.00000000E+00  0.00000000E+00
  0.00000000E+00  0.00000000E+00  0.00000000E+00
  0.00000000E+00  0.00000000E+00  0.00000000E+00
  0.00000000E+00  0.00000000E+00  0.00000000E+00
  0.00000000E+00  0.00000000E+00  0.00000000E+00
  0.00000000E+00  0.00000000E+00  0.00000000E+00
  0.00000000E+00  0.00000000E+00  0.00000000E+00
  0.00000000E+00  0.00000000E+00  0.00000000E+00
  0.00000000E+00  0.00000000E+00  0.00000000E+00
  0.00000000E+00  0.00000000E+00  0.00000000E+00
  0.00000000E+00  0.00000000E+00  0.00000000E+00
  0.00000000E+00  0.00000000E+00  0.00000000E+00
  0.00000000E+00  0.00000000E+00  0.00000000E+00
  0.00000000E+00  0.00000000E+00  0.00000000E+00
  0.00000000E+00  0.00000000E+00  0.00000000E+00
  0.00000000E+00  0.00000000E+00  0.00000000E+00
  0.00000000E+00  0.00000000E+00  0.00000000E+00
  0.00000000E+00  0.00000000E+00  0.00000000E+00
  0.00000000E+00  0.00000000E+00  0.00000000E+00
  0.00000000E+00  0.00000000E+00  0.00000000E+00
  0.00000000E+00  0.00000000E+00  0.00000000E+00
  0.00000000E+00  0.00000000E+00  0.00000000E+00
  0.00000000E+00  0.00000000E+00  0.00000000E+00
  0.00000000E+00  0.00000000E+00  0.00000000E+00
  0.00000000E+00  0.00000000E+00  0.00000000E+00
  0.00000000E+00  0.00000000E+00  0.00000000E+00
  0.00000000E+00  0.00000000E+00  0.00000000E+00
  0.00000000E+00  0.00000000E+00  0.00000000E+00
  0.00000000E+00  0.00000000E+00  0.00000000E+00
  0.00000000E+00  0.00000000E+00  0.00000000E+00
  0.00000000E+00  0.00000000E+00  0.00000000E+00
  0.00000000E+00  0.00000000E+00  0.00000000E+00
  0.00000000E+00  0.00000000E+00  0.00000000E+00
  0.00000000E+00  0.00000000E+00  0.00000000E+00
  0.00000000E+00  0.00000000E+00  0.00000000E+00
  0.00000000E+00  0.00000000E+00  0.00000000E+00
  0.00000000E+00  0.00000000E+00  0.00000000E+00
  0.00000000E+00  0.00000000E+00  0.00000000E+00
  0.00000000E+00  0.00000000E+00  0.00000000E+00
  0.00000000E+00  0.00000000E+00  0.00000000E+00
