CONTCAR\(4)                             
   1.00000000000000     
    11.3126001358000003    0.0000000000000000    0.0000000000000000
     0.0000000000000000   12.6614999771000001    0.0000000000000000
     0.0000000000000000    0.0000000000000000   20.9256000518999983
   K    P    Pd   O 
    16    16     8     1
Direct
  0.1269629471466854  0.0009531454812492  0.3552840961428386
  0.1341107497279935  0.2500563635434754  0.4493247723070946
  0.3743692195592424  0.9426697881307569  0.6693397704475283
  0.3750383647723635  0.2499518937661961  0.5681269039295233
  0.6231057667797461  0.0009291883401289  0.3553112787215872
  0.6160466084073872  0.2499986113759298  0.4496001724361506
  0.8750004416751167  0.9989979902859814  0.6422740848137455
  0.8749864499836016  0.2500247841203880  0.5454616947115846
  0.1269462357736064  0.4990917051536087  0.3552826541458922
  0.1346428494363573  0.7500553009787321  0.4503678054870211
  0.3743641948598756  0.5573871050232090  0.6693489074606472
  0.3748920703479315  0.7500218401444604  0.5596465159811059
  0.6230188749467308  0.4990728857349639  0.3553075863210464
  0.6153381536421257  0.7500307835844668  0.4502325413136898
  0.8749713742069376  0.5010228247053707  0.6423132685460167
  0.8752534447259885  0.7500062083869800  0.5434382148306868
  0.1181745380231128  0.9160369402895087  0.5751655079187802
  0.3747262717221060  0.9157977636532181  0.4217834842136428
  0.3750573202862276  0.0885013685525401  0.4219098847551045
  0.1217418997223764  0.0869661502857868  0.5779048492892120
  0.6317907191914274  0.9156151826349020  0.5751223840734380
  0.8751792011360160  0.9162019374472705  0.4165862504872522
  0.8749348440629492  0.0892972215946600  0.4143989671466383
  0.6282108409758131  0.0865395389360768  0.5778604898575490
  0.1217548613360047  0.4130776982811999  0.5779282308558766
  0.3750991220437503  0.4114499303343414  0.4219365899141078
  0.3747767443107767  0.5841975137383678  0.4218095936996781
  0.1181876604764564  0.5840109724280949  0.5751599976829369
  0.6282283294821109  0.4134178497439923  0.5779045650562163
  0.8749480539314880  0.4107046045324179  0.4144052754356330
  0.8751490723457569  0.5837916833614221  0.4166022378203647
  0.6318079110004557  0.5843737095625025  0.5751290811680360
  0.9992813202457779  0.0050095617636881  0.4955303388974979
  0.2499317629455698  0.0025564005035856  0.5008510100097394
  0.4999506642206399  0.0021989714134606  0.5008586321406328
  0.7507366776600457  0.0045992845808691  0.4954584760915791
  0.9992467546538446  0.4950093085454358  0.4955408327629947
  0.2499221746882049  0.4974376941251253  0.5008734139702656
  0.4999528576695764  0.4977341571444220  0.5008661250880294
  0.7507237366195382  0.4953360311292634  0.4954797416069608
  0.3744290442582435  0.7500282946619675  0.6814441484616529
 
  0.00000000E+00  0.00000000E+00  0.00000000E+00
  0.00000000E+00  0.00000000E+00  0.00000000E+00
  0.00000000E+00  0.00000000E+00  0.00000000E+00
  0.00000000E+00  0.00000000E+00  0.00000000E+00
  0.00000000E+00  0.00000000E+00  0.00000000E+00
  0.00000000E+00  0.00000000E+00  0.00000000E+00
  0.00000000E+00  0.00000000E+00  0.00000000E+00
  0.00000000E+00  0.00000000E+00  0.00000000E+00
  0.00000000E+00  0.00000000E+00  0.00000000E+00
  0.00000000E+00  0.00000000E+00  0.00000000E+00
  0.00000000E+00  0.00000000E+00  0.00000000E+00
  0.00000000E+00  0.00000000E+00  0.00000000E+00
  0.00000000E+00  0.00000000E+00  0.00000000E+00
  0.00000000E+00  0.00000000E+00  0.00000000E+00
  0.00000000E+00  0.00000000E+00  0.00000000E+00
  0.00000000E+00  0.00000000E+00  0.00000000E+00
  0.00000000E+00  0.00000000E+00  0.00000000E+00
  0.00000000E+00  0.00000000E+00  0.00000000E+00
  0.00000000E+00  0.00000000E+00  0.00000000E+00
  0.00000000E+00  0.00000000E+00  0.00000000E+00
  0.00000000E+00  0.00000000E+00  0.00000000E+00
  0.00000000E+00  0.00000000E+00  0.00000000E+00
  0.00000000E+00  0.00000000E+00  0.00000000E+00
  0.00000000E+00  0.00000000E+00  0.00000000E+00
  0.00000000E+00  0.00000000E+00  0.00000000E+00
  0.00000000E+00  0.00000000E+00  0.00000000E+00
  0.00000000E+00  0.00000000E+00  0.00000000E+00
  0.00000000E+00  0.00000000E+00  0.00000000E+00
  0.00000000E+00  0.00000000E+00  0.00000000E+00
  0.00000000E+00  0.00000000E+00  0.00000000E+00
  0.00000000E+00  0.00000000E+00  0.00000000E+00
  0.00000000E+00  0.00000000E+00  0.00000000E+00
  0.00000000E+00  0.00000000E+00  0.00000000E+00
  0.00000000E+00  0.00000000E+00  0.00000000E+00
  0.00000000E+00  0.00000000E+00  0.00000000E+00
  0.00000000E+00  0.00000000E+00  0.00000000E+00
  0.00000000E+00  0.00000000E+00  0.00000000E+00
  0.00000000E+00  0.00000000E+00  0.00000000E+00
  0.00000000E+00  0.00000000E+00  0.00000000E+00
  0.00000000E+00  0.00000000E+00  0.00000000E+00
  0.00000000E+00  0.00000000E+00  0.00000000E+00
