G   58   17    1    0.005     # Parameters to Generate KPOINTS (Don't Edit This Line)
     270
Reciprocal lattice
    0.000000000000    0.000000000000    0.000000000000       1
    0.017241379310    0.000000000000    0.000000000000       2
    0.034482758621    0.000000000000    0.000000000000       2
    0.051724137931    0.000000000000    0.000000000000       2
    0.068965517241    0.000000000000    0.000000000000       2
    0.086206896552    0.000000000000    0.000000000000       2
    0.103448275862    0.000000000000    0.000000000000       2
    0.120689655172    0.000000000000    0.000000000000       2
    0.137931034483    0.000000000000    0.000000000000       2
    0.155172413793    0.000000000000    0.000000000000       2
    0.172413793103    0.000000000000    0.000000000000       2
    0.189655172414    0.000000000000    0.000000000000       2
    0.206896551724    0.000000000000    0.000000000000       2
    0.224137931034    0.000000000000    0.000000000000       2
    0.241379310345    0.000000000000    0.000000000000       2
    0.258620689655    0.000000000000    0.000000000000       2
    0.275862068966    0.000000000000    0.000000000000       2
    0.293103448276    0.000000000000    0.000000000000       2
    0.310344827586    0.000000000000    0.000000000000       2
    0.327586206897    0.000000000000    0.000000000000       2
    0.344827586207    0.000000000000    0.000000000000       2
    0.362068965517    0.000000000000    0.000000000000       2
    0.379310344828    0.000000000000    0.000000000000       2
    0.396551724138    0.000000000000    0.000000000000       2
    0.413793103448    0.000000000000    0.000000000000       2
    0.431034482759    0.000000000000    0.000000000000       2
    0.448275862069    0.000000000000    0.000000000000       2
    0.465517241379    0.000000000000    0.000000000000       2
    0.482758620690    0.000000000000    0.000000000000       2
    0.500000000000    0.000000000000    0.000000000000       1
    0.000000000000    0.058823529412    0.000000000000       2
    0.017241379310    0.058823529412    0.000000000000       4
    0.034482758621    0.058823529412    0.000000000000       4
    0.051724137931    0.058823529412    0.000000000000       4
    0.068965517241    0.058823529412    0.000000000000       4
    0.086206896552    0.058823529412    0.000000000000       4
    0.103448275862    0.058823529412    0.000000000000       4
    0.120689655172    0.058823529412    0.000000000000       4
    0.137931034483    0.058823529412    0.000000000000       4
    0.155172413793    0.058823529412    0.000000000000       4
    0.172413793103    0.058823529412    0.000000000000       4
    0.189655172414    0.058823529412    0.000000000000       4
    0.206896551724    0.058823529412    0.000000000000       4
    0.224137931034    0.058823529412    0.000000000000       4
    0.241379310345    0.058823529412    0.000000000000       4
    0.258620689655    0.058823529412    0.000000000000       4
    0.275862068966    0.058823529412    0.000000000000       4
    0.293103448276    0.058823529412    0.000000000000       4
    0.310344827586    0.058823529412    0.000000000000       4
    0.327586206897    0.058823529412    0.000000000000       4
    0.344827586207    0.058823529412    0.000000000000       4
    0.362068965517    0.058823529412    0.000000000000       4
    0.379310344828    0.058823529412    0.000000000000       4
    0.396551724138    0.058823529412    0.000000000000       4
    0.413793103448    0.058823529412    0.000000000000       4
    0.431034482759    0.058823529412    0.000000000000       4
    0.448275862069    0.058823529412    0.000000000000       4
    0.465517241379    0.058823529412    0.000000000000       4
    0.482758620690    0.058823529412    0.000000000000       4
    0.500000000000    0.058823529412    0.000000000000       2
    0.000000000000    0.117647058824    0.000000000000       2
    0.017241379310    0.117647058824    0.000000000000       4
    0.034482758621    0.117647058824    0.000000000000       4
    0.051724137931    0.117647058824    0.000000000000       4
    0.068965517241    0.117647058824    0.000000000000       4
    0.086206896552    0.117647058824    0.000000000000       4
    0.103448275862    0.117647058824    0.000000000000       4
    0.120689655172    0.117647058824    0.000000000000       4
    0.137931034483    0.117647058824    0.000000000000       4
    0.155172413793    0.117647058824    0.000000000000       4
    0.172413793103    0.117647058824    0.000000000000       4
    0.189655172414    0.117647058824    0.000000000000       4
    0.206896551724    0.117647058824    0.000000000000       4
    0.224137931034    0.117647058824    0.000000000000       4
    0.241379310345    0.117647058824    0.000000000000       4
    0.258620689655    0.117647058824    0.000000000000       4
    0.275862068966    0.117647058824    0.000000000000       4
    0.293103448276    0.117647058824    0.000000000000       4
    0.310344827586    0.117647058824    0.000000000000       4
    0.327586206897    0.117647058824    0.000000000000       4
    0.344827586207    0.117647058824    0.000000000000       4
    0.362068965517    0.117647058824    0.000000000000       4
    0.379310344828    0.117647058824    0.000000000000       4
    0.396551724138    0.117647058824    0.000000000000       4
    0.413793103448    0.117647058824    0.000000000000       4
    0.431034482759    0.117647058824    0.000000000000       4
    0.448275862069    0.117647058824    0.000000000000       4
    0.465517241379    0.117647058824    0.000000000000       4
    0.482758620690    0.117647058824    0.000000000000       4
    0.500000000000    0.117647058824    0.000000000000       2
    0.000000000000    0.176470588235    0.000000000000       2
    0.017241379310    0.176470588235    0.000000000000       4
    0.034482758621    0.176470588235    0.000000000000       4
    0.051724137931    0.176470588235    0.000000000000       4
    0.068965517241    0.176470588235    0.000000000000       4
    0.086206896552    0.176470588235    0.000000000000       4
    0.103448275862    0.176470588235    0.000000000000       4
    0.120689655172    0.176470588235    0.000000000000       4
    0.137931034483    0.176470588235    0.000000000000       4
    0.155172413793    0.176470588235    0.000000000000       4
    0.172413793103    0.176470588235    0.000000000000       4
    0.189655172414    0.176470588235    0.000000000000       4
    0.206896551724    0.176470588235    0.000000000000       4
    0.224137931034    0.176470588235    0.000000000000       4
    0.241379310345    0.176470588235    0.000000000000       4
    0.258620689655    0.176470588235    0.000000000000       4
    0.275862068966    0.176470588235    0.000000000000       4
    0.293103448276    0.176470588235    0.000000000000       4
    0.310344827586    0.176470588235    0.000000000000       4
    0.327586206897    0.176470588235    0.000000000000       4
    0.344827586207    0.176470588235    0.000000000000       4
    0.362068965517    0.176470588235    0.000000000000       4
    0.379310344828    0.176470588235    0.000000000000       4
    0.396551724138    0.176470588235    0.000000000000       4
    0.413793103448    0.176470588235    0.000000000000       4
    0.431034482759    0.176470588235    0.000000000000       4
    0.448275862069    0.176470588235    0.000000000000       4
    0.465517241379    0.176470588235    0.000000000000       4
    0.482758620690    0.176470588235    0.000000000000       4
    0.500000000000    0.176470588235    0.000000000000       2
    0.000000000000    0.235294117647    0.000000000000       2
    0.017241379310    0.235294117647    0.000000000000       4
    0.034482758621    0.235294117647    0.000000000000       4
    0.051724137931    0.235294117647    0.000000000000       4
    0.068965517241    0.235294117647    0.000000000000       4
    0.086206896552    0.235294117647    0.000000000000       4
    0.103448275862    0.235294117647    0.000000000000       4
    0.120689655172    0.235294117647    0.000000000000       4
    0.137931034483    0.235294117647    0.000000000000       4
    0.155172413793    0.235294117647    0.000000000000       4
    0.172413793103    0.235294117647    0.000000000000       4
    0.189655172414    0.235294117647    0.000000000000       4
    0.206896551724    0.235294117647    0.000000000000       4
    0.224137931034    0.235294117647    0.000000000000       4
    0.241379310345    0.235294117647    0.000000000000       4
    0.258620689655    0.235294117647    0.000000000000       4
    0.275862068966    0.235294117647    0.000000000000       4
    0.293103448276    0.235294117647    0.000000000000       4
    0.310344827586    0.235294117647    0.000000000000       4
    0.327586206897    0.235294117647    0.000000000000       4
    0.344827586207    0.235294117647    0.000000000000       4
    0.362068965517    0.235294117647    0.000000000000       4
    0.379310344828    0.235294117647    0.000000000000       4
    0.396551724138    0.235294117647    0.000000000000       4
    0.413793103448    0.235294117647    0.000000000000       4
    0.431034482759    0.235294117647    0.000000000000       4
    0.448275862069    0.235294117647    0.000000000000       4
    0.465517241379    0.235294117647    0.000000000000       4
    0.482758620690    0.235294117647    0.000000000000       4
    0.500000000000    0.235294117647    0.000000000000       2
    0.000000000000    0.294117647059    0.000000000000       2
    0.017241379310    0.294117647059    0.000000000000       4
    0.034482758621    0.294117647059    0.000000000000       4
    0.051724137931    0.294117647059    0.000000000000       4
    0.068965517241    0.294117647059    0.000000000000       4
    0.086206896552    0.294117647059    0.000000000000       4
    0.103448275862    0.294117647059    0.000000000000       4
    0.120689655172    0.294117647059    0.000000000000       4
    0.137931034483    0.294117647059    0.000000000000       4
    0.155172413793    0.294117647059    0.000000000000       4
    0.172413793103    0.294117647059    0.000000000000       4
    0.189655172414    0.294117647059    0.000000000000       4
    0.206896551724    0.294117647059    0.000000000000       4
    0.224137931034    0.294117647059    0.000000000000       4
    0.241379310345    0.294117647059    0.000000000000       4
    0.258620689655    0.294117647059    0.000000000000       4
    0.275862068966    0.294117647059    0.000000000000       4
    0.293103448276    0.294117647059    0.000000000000       4
    0.310344827586    0.294117647059    0.000000000000       4
    0.327586206897    0.294117647059    0.000000000000       4
    0.344827586207    0.294117647059    0.000000000000       4
    0.362068965517    0.294117647059    0.000000000000       4
    0.379310344828    0.294117647059    0.000000000000       4
    0.396551724138    0.294117647059    0.000000000000       4
    0.413793103448    0.294117647059    0.000000000000       4
    0.431034482759    0.294117647059    0.000000000000       4
    0.448275862069    0.294117647059    0.000000000000       4
    0.465517241379    0.294117647059    0.000000000000       4
    0.482758620690    0.294117647059    0.000000000000       4
    0.500000000000    0.294117647059    0.000000000000       2
    0.000000000000    0.352941176471    0.000000000000       2
    0.017241379310    0.352941176471    0.000000000000       4
    0.034482758621    0.352941176471    0.000000000000       4
    0.051724137931    0.352941176471    0.000000000000       4
    0.068965517241    0.352941176471    0.000000000000       4
    0.086206896552    0.352941176471    0.000000000000       4
    0.103448275862    0.352941176471    0.000000000000       4
    0.120689655172    0.352941176471    0.000000000000       4
    0.137931034483    0.352941176471    0.000000000000       4
    0.155172413793    0.352941176471    0.000000000000       4
    0.172413793103    0.352941176471    0.000000000000       4
    0.189655172414    0.352941176471    0.000000000000       4
    0.206896551724    0.352941176471    0.000000000000       4
    0.224137931034    0.352941176471    0.000000000000       4
    0.241379310345    0.352941176471    0.000000000000       4
    0.258620689655    0.352941176471    0.000000000000       4
    0.275862068966    0.352941176471    0.000000000000       4
    0.293103448276    0.352941176471    0.000000000000       4
    0.310344827586    0.352941176471    0.000000000000       4
    0.327586206897    0.352941176471    0.000000000000       4
    0.344827586207    0.352941176471    0.000000000000       4
    0.362068965517    0.352941176471    0.000000000000       4
    0.379310344828    0.352941176471    0.000000000000       4
    0.396551724138    0.352941176471    0.000000000000       4
    0.413793103448    0.352941176471    0.000000000000       4
    0.431034482759    0.352941176471    0.000000000000       4
    0.448275862069    0.352941176471    0.000000000000       4
    0.465517241379    0.352941176471    0.000000000000       4
    0.482758620690    0.352941176471    0.000000000000       4
    0.500000000000    0.352941176471    0.000000000000       2
    0.000000000000    0.411764705882    0.000000000000       2
    0.017241379310    0.411764705882    0.000000000000       4
    0.034482758621    0.411764705882    0.000000000000       4
    0.051724137931    0.411764705882    0.000000000000       4
    0.068965517241    0.411764705882    0.000000000000       4
    0.086206896552    0.411764705882    0.000000000000       4
    0.103448275862    0.411764705882    0.000000000000       4
    0.120689655172    0.411764705882    0.000000000000       4
    0.137931034483    0.411764705882    0.000000000000       4
    0.155172413793    0.411764705882    0.000000000000       4
    0.172413793103    0.411764705882    0.000000000000       4
    0.189655172414    0.411764705882    0.000000000000       4
    0.206896551724    0.411764705882    0.000000000000       4
    0.224137931034    0.411764705882    0.000000000000       4
    0.241379310345    0.411764705882    0.000000000000       4
    0.258620689655    0.411764705882    0.000000000000       4
    0.275862068966    0.411764705882    0.000000000000       4
    0.293103448276    0.411764705882    0.000000000000       4
    0.310344827586    0.411764705882    0.000000000000       4
    0.327586206897    0.411764705882    0.000000000000       4
    0.344827586207    0.411764705882    0.000000000000       4
    0.362068965517    0.411764705882    0.000000000000       4
    0.379310344828    0.411764705882    0.000000000000       4
    0.396551724138    0.411764705882    0.000000000000       4
    0.413793103448    0.411764705882    0.000000000000       4
    0.431034482759    0.411764705882    0.000000000000       4
    0.448275862069    0.411764705882    0.000000000000       4
    0.465517241379    0.411764705882    0.000000000000       4
    0.482758620690    0.411764705882    0.000000000000       4
    0.500000000000    0.411764705882    0.000000000000       2
    0.000000000000    0.470588235294    0.000000000000       2
    0.017241379310    0.470588235294    0.000000000000       4
    0.034482758621    0.470588235294    0.000000000000       4
    0.051724137931    0.470588235294    0.000000000000       4
    0.068965517241    0.470588235294    0.000000000000       4
    0.086206896552    0.470588235294    0.000000000000       4
    0.103448275862    0.470588235294    0.000000000000       4
    0.120689655172    0.470588235294    0.000000000000       4
    0.137931034483    0.470588235294    0.000000000000       4
    0.155172413793    0.470588235294    0.000000000000       4
    0.172413793103    0.470588235294    0.000000000000       4
    0.189655172414    0.470588235294    0.000000000000       4
    0.206896551724    0.470588235294    0.000000000000       4
    0.224137931034    0.470588235294    0.000000000000       4
    0.241379310345    0.470588235294    0.000000000000       4
    0.258620689655    0.470588235294    0.000000000000       4
    0.275862068966    0.470588235294    0.000000000000       4
    0.293103448276    0.470588235294    0.000000000000       4
    0.310344827586    0.470588235294    0.000000000000       4
    0.327586206897    0.470588235294    0.000000000000       4
    0.344827586207    0.470588235294    0.000000000000       4
    0.362068965517    0.470588235294    0.000000000000       4
    0.379310344828    0.470588235294    0.000000000000       4
    0.396551724138    0.470588235294    0.000000000000       4
    0.413793103448    0.470588235294    0.000000000000       4
    0.431034482759    0.470588235294    0.000000000000       4
    0.448275862069    0.470588235294    0.000000000000       4
    0.465517241379    0.470588235294    0.000000000000       4
    0.482758620690    0.470588235294    0.000000000000       4
    0.500000000000    0.470588235294    0.000000000000       2
