CONTCAR\(9)                             
   1.00000000000000     
    10.2299003601000003    0.0000000000000000    0.0000000000000000
     0.0000000000000000    9.6009998321999994    0.0000000000000000
     0.0000000000000000    0.0000000000000000   20.0983009338000009
   Ti   S    Cl   O 
    12    12    12     1
Direct
  0.2575827904503640  0.3750100079999967  0.4671264830571502
  0.0832391151280873  0.1254101316580858  0.5416769507408006
  0.5757690783697527  0.3750100079999967  0.4669878039898379
  0.4167186894830337  0.1193428943860297  0.5392718665796039
  0.9167104630143399  0.3750100079999967  0.4630673643449725
  0.7495665973250283  0.1254945776597935  0.5416336439614611
  0.2502613346392053  0.8750100569999972  0.4601280905607652
  0.0832391151280873  0.6245498253419086  0.5416769507408006
  0.5823337881521482  0.8750100569999972  0.4599847889913065
  0.4167186894830337  0.6306170626139647  0.5392718665796039
  0.9167275256350749  0.8750100569999972  0.4602476993621138
  0.7495665973250283  0.6244653793402009  0.5416336439614611
  0.0829508789937847  0.3749899920000033  0.5512700613771244
  0.2495184428489949  0.1259248695683581  0.4541308840941198
  0.4167865891264739  0.3749899920000033  0.5574230289905699
  0.5836681694928529  0.1259436757913761  0.4539661302054085
  0.7502777110788301  0.3749899920000033  0.5512569473837345
  0.9165168717646850  0.1253691291464776  0.4543429951609070
  0.0826208957757189  0.8749899920000033  0.5470028417056270
  0.2495184428489949  0.6240951334316378  0.4541308840941198
  0.4165654121928810  0.8749899920000033  0.5475163853626555
  0.5836681694928529  0.6240763272086198  0.4539661302054085
  0.7502570730357689  0.8749899920000033  0.5466991562971728
  0.9165168717646850  0.6246508738535184  0.4543429951609070
  0.0859601511075994  0.3750000000000000  0.3774629674511658
  0.2492351920098272  0.1148992283610966  0.6275278166525169
  0.4165508113881060  0.3750000000000000  0.3764753880617917
  0.5841648440497167  0.1146776756154324  0.6276346120335461
  0.7475807338461991  0.3750000000000000  0.3773582663956176
  0.9164216827372158  0.1215102827132313  0.6288857134688541
  0.0835045048010130  0.8750000249999985  0.3727358216955210
  0.2492351920098272  0.6351007466389049  0.6275278166525169
  0.4163177254941317  0.8750000249999985  0.3721043113467957
  0.5841648440497167  0.6353222993845691  0.6276346120335461
  0.7497132351482065  0.8750000249999985  0.3727744079676825
  0.9164216827372158  0.6284896922867702  0.6288857134688541
  0.4172199910715477  0.3750199899999984  0.6328170418639800
 
  0.00000000E+00  0.00000000E+00  0.00000000E+00
  0.00000000E+00  0.00000000E+00  0.00000000E+00
  0.00000000E+00  0.00000000E+00  0.00000000E+00
  0.00000000E+00  0.00000000E+00  0.00000000E+00
  0.00000000E+00  0.00000000E+00  0.00000000E+00
  0.00000000E+00  0.00000000E+00  0.00000000E+00
  0.00000000E+00  0.00000000E+00  0.00000000E+00
  0.00000000E+00  0.00000000E+00  0.00000000E+00
  0.00000000E+00  0.00000000E+00  0.00000000E+00
  0.00000000E+00  0.00000000E+00  0.00000000E+00
  0.00000000E+00  0.00000000E+00  0.00000000E+00
  0.00000000E+00  0.00000000E+00  0.00000000E+00
  0.00000000E+00  0.00000000E+00  0.00000000E+00
  0.00000000E+00  0.00000000E+00  0.00000000E+00
  0.00000000E+00  0.00000000E+00  0.00000000E+00
  0.00000000E+00  0.00000000E+00  0.00000000E+00
  0.00000000E+00  0.00000000E+00  0.00000000E+00
  0.00000000E+00  0.00000000E+00  0.00000000E+00
  0.00000000E+00  0.00000000E+00  0.00000000E+00
  0.00000000E+00  0.00000000E+00  0.00000000E+00
  0.00000000E+00  0.00000000E+00  0.00000000E+00
  0.00000000E+00  0.00000000E+00  0.00000000E+00
  0.00000000E+00  0.00000000E+00  0.00000000E+00
  0.00000000E+00  0.00000000E+00  0.00000000E+00
  0.00000000E+00  0.00000000E+00  0.00000000E+00
  0.00000000E+00  0.00000000E+00  0.00000000E+00
  0.00000000E+00  0.00000000E+00  0.00000000E+00
  0.00000000E+00  0.00000000E+00  0.00000000E+00
  0.00000000E+00  0.00000000E+00  0.00000000E+00
  0.00000000E+00  0.00000000E+00  0.00000000E+00
  0.00000000E+00  0.00000000E+00  0.00000000E+00
  0.00000000E+00  0.00000000E+00  0.00000000E+00
  0.00000000E+00  0.00000000E+00  0.00000000E+00
  0.00000000E+00  0.00000000E+00  0.00000000E+00
  0.00000000E+00  0.00000000E+00  0.00000000E+00
  0.00000000E+00  0.00000000E+00  0.00000000E+00
  0.00000000E+00  0.00000000E+00  0.00000000E+00
