CONTCAR\(6)                             
   1.00000000000000     
    11.2744998931999998    0.0000000000000000    0.0000000000000000
     0.0000000000000000   12.4884996414000007    0.0000000000000000
     0.0000000000000000    0.0000000000000000   19.0002002716000007
   Nb   Te   Ir   O    H 
     6    24     6     1     1
Direct
  0.0067701231271601  0.0569320076268882  0.5021109445696176
  0.1709487058601303  0.7376661435779179  0.4952352681009382
  0.3410906239120198  0.0570838723862432  0.5020412771117964
  0.5073991920037593  0.7341500729133931  0.4957273261385987
  0.6739667291238296  0.0577158876560530  0.5017698900989558
  0.8365495011372643  0.7372886620411394  0.4902749997995951
  0.1733942577802971  0.9412670113637478  0.4177186354916747
  0.0077030276993377  0.2012536545859283  0.3982456963562458
  0.0062107282679525  0.3556331764998154  0.5683928209499937
  0.1717182527959784  0.5917802808860286  0.5978506512738860
  0.1762453998571288  0.4428527712296420  0.4261652779465170
  0.0079841317145739  0.6848246580775003  0.3907991914462819
  0.0043976205181135  0.8532205316310637  0.5778660701300710
  0.1736939788754844  0.1130520523280472  0.6032956406276924
  0.5072023055912548  0.9386403036389797  0.4186254689451253
  0.3402859152600153  0.2012321861462982  0.3984239396067519
  0.3407098958795294  0.3533672515737546  0.5702996505507550
  0.5033764896091053  0.5915790998249477  0.6032690116388013
  0.5070717192671430  0.4441509965331004  0.4251497526582521
  0.3402083689897963  0.6831281659056407  0.3941849074382860
  0.3412490415148958  0.8532508563292930  0.5775479471149415
  0.5078614102529195  0.1148295269815830  0.6030202979050197
  0.8398852152476961  0.9425336938087094  0.4161017388245459
  0.6731321823816518  0.2011207305191308  0.3975809629836797
  0.6731741763895922  0.3605549312695553  0.5664459060456265
  0.8375117576208597  0.5925784858357863  0.5936535337776453
  0.8446294749404469  0.4389541763883898  0.4201763692186836
  0.6713337846299136  0.6882593464629186  0.3883447220241545
  0.6750744038489865  0.8540086464782420  0.5780245726247460
  0.8396697028577244  0.1151757862207943  0.6029111612634935
  0.0068518733823826  0.5436151371206828  0.4976352738457742
  0.1735348163827467  0.2529901472919419  0.4953728321818768
  0.3418257069280006  0.5430977037617425  0.5020829371988472
  0.5072264188232261  0.2539632241024128  0.4946814867549674
  0.6785449526861812  0.5469073440092601  0.4934656031610185
  0.8400552952618319  0.2535197264636959  0.4941554815221306
  0.3727608344787172  0.6486428302090805  0.6775381721009577
  0.3807021751023590  0.6047787853206480  0.7199346635720631
 
  0.00000000E+00  0.00000000E+00  0.00000000E+00
  0.00000000E+00  0.00000000E+00  0.00000000E+00
  0.00000000E+00  0.00000000E+00  0.00000000E+00
  0.00000000E+00  0.00000000E+00  0.00000000E+00
  0.00000000E+00  0.00000000E+00  0.00000000E+00
  0.00000000E+00  0.00000000E+00  0.00000000E+00
  0.00000000E+00  0.00000000E+00  0.00000000E+00
  0.00000000E+00  0.00000000E+00  0.00000000E+00
  0.00000000E+00  0.00000000E+00  0.00000000E+00
  0.00000000E+00  0.00000000E+00  0.00000000E+00
  0.00000000E+00  0.00000000E+00  0.00000000E+00
  0.00000000E+00  0.00000000E+00  0.00000000E+00
  0.00000000E+00  0.00000000E+00  0.00000000E+00
  0.00000000E+00  0.00000000E+00  0.00000000E+00
  0.00000000E+00  0.00000000E+00  0.00000000E+00
  0.00000000E+00  0.00000000E+00  0.00000000E+00
  0.00000000E+00  0.00000000E+00  0.00000000E+00
  0.00000000E+00  0.00000000E+00  0.00000000E+00
  0.00000000E+00  0.00000000E+00  0.00000000E+00
  0.00000000E+00  0.00000000E+00  0.00000000E+00
  0.00000000E+00  0.00000000E+00  0.00000000E+00
  0.00000000E+00  0.00000000E+00  0.00000000E+00
  0.00000000E+00  0.00000000E+00  0.00000000E+00
  0.00000000E+00  0.00000000E+00  0.00000000E+00
  0.00000000E+00  0.00000000E+00  0.00000000E+00
  0.00000000E+00  0.00000000E+00  0.00000000E+00
  0.00000000E+00  0.00000000E+00  0.00000000E+00
  0.00000000E+00  0.00000000E+00  0.00000000E+00
  0.00000000E+00  0.00000000E+00  0.00000000E+00
  0.00000000E+00  0.00000000E+00  0.00000000E+00
  0.00000000E+00  0.00000000E+00  0.00000000E+00
  0.00000000E+00  0.00000000E+00  0.00000000E+00
  0.00000000E+00  0.00000000E+00  0.00000000E+00
  0.00000000E+00  0.00000000E+00  0.00000000E+00
  0.00000000E+00  0.00000000E+00  0.00000000E+00
  0.00000000E+00  0.00000000E+00  0.00000000E+00
  0.00000000E+00  0.00000000E+00  0.00000000E+00
  0.00000000E+00  0.00000000E+00  0.00000000E+00
