CONTCAR\(17)                            
   1.00000000000000     
    13.8212003707999997    0.0000000000000000    0.0000000000000000
     2.2957132678000001   11.9646463987999994    0.0000000000000000
     0.0000000000000000    0.0000000000000000   19.5161991119000007
   Li   Cr   C    O 
     6     9    18    54
Direct
  0.0027155515988682  0.9992818715913643  0.5985980656604823
  0.2582190657525771  0.4476294209239029  0.4013756524009153
  0.3360455625988692  0.9992918355913645  0.5985980656604823
  0.5915590117525724  0.4476294209239029  0.4013756524009153
  0.6693756055988729  0.9992818715913643  0.5985980656604823
  0.9248890557525726  0.4476294209239029  0.4013756524009153
  0.1878083400343442  0.8882421234024918  0.5017483269497234
  0.2970483347701744  0.2234784885612910  0.5000013926353262
  0.0731125478721779  0.5586617016228459  0.4982771005620350
  0.5211383150343494  0.8882421234024918  0.5017483269497234
  0.6303783097701796  0.2234784885612910  0.5000013926353262
  0.4064425578721753  0.5586617016228459  0.4982771005620350
  0.8544782950343475  0.8882421234024918  0.5017483269497234
  0.9637183587701799  0.2234784885612910  0.5000013926353262
  0.7397725668721762  0.5586617016228459  0.4982771005620350
  0.1488736566817508  0.1153157863829648  0.5621851608252229
  0.2585431452526521  0.4467534300826586  0.5541426720147840
  0.1119924557898244  0.3315124950478534  0.4377902329281653
  0.0386796454102338  0.7757020359447040  0.5602252204840781
  0.2222207696351006  0.6711145141804593  0.4398029888120476
  0.0023570633869667  0.0000353545859610  0.4458690087001926
  0.4822136196817510  0.1153157863829648  0.5621851608252229
  0.5918830912526545  0.4467534300826586  0.5541426720147840
  0.4453224827898268  0.3315124950478534  0.4377902329281653
  0.3720096724102362  0.7757020359447040  0.5602252204840781
  0.5555607496350987  0.6711145141804593  0.4398029888120476
  0.3356870973869661  0.0000353545859610  0.4458690087001926
  0.8155436646817478  0.1153157863829648  0.5621851608252229
  0.9252131352526547  0.4467534300826586  0.5541426720147840
  0.7786624627898178  0.3315124950478534  0.4377902329281653
  0.7053495844102358  0.7757020359447040  0.5602252204840781
  0.8888907246351039  0.6711145141804593  0.4398029888120476
  0.6690270773869642  0.0000353545859610  0.4458690087001926
  0.1639271255135739  0.4550051684788343  0.5526292782345195
  0.0969811485274761  0.9918197877602140  0.4473837472070201
  0.0742504911687050  0.2443236794830881  0.4416465610067206
  0.0571753116127809  0.4312726054225706  0.4326245478504234
  0.2037365908479245  0.0155888978397769  0.5673840468224967
  0.3148945165112735  0.3492685316060786  0.5554945197021652
  0.1866430141149849  0.2025119457261653  0.5583549233542584
  0.2967539236373682  0.5356998567099609  0.5535539603664006
  0.2775622467214163  0.7883704296772507  0.5615687275398997
  0.2072411427638627  0.3235641873284791  0.4357028650528818
  0.1811916839544594  0.5826333203440868  0.4343191472012293
  0.2975131144542118  0.9110446065820810  0.4464204887812144
  0.1665353413752797  0.7674374104745709  0.4440619188144126
  0.2793626993373692  0.0975144140988604  0.4445313991825799
  0.0943827130430819  0.6793787471849200  0.5559561447575945
  0.0797130465961402  0.8641661431627057  0.5656531313969779
  0.0536518799340371  0.1233271645530678  0.5642295369916468
  0.3166534087013844  0.6585056592407881  0.4384792257645813
  0.4972571355135713  0.4550051684788343  0.5526292782345195
  0.4303211115274763  0.9918197877602140  0.4473837472070201
  0.4075804841687045  0.2443236794830881  0.4416465610067206
  0.3905153266127783  0.4312726054225706  0.4326245478504234
  0.5370665658479226  0.0155888978397769  0.5673840468224967
  0.6482245255112744  0.3492685316060786  0.5554945197021652
  0.5199830291149894  0.2025119457261653  0.5583549233542584
  0.6300940076373678  0.5356998567099609  0.5535539603664006
  0.6108922567214208  0.7883704296772507  0.5615687275398997
  0.5405710837638651  0.3235641873284791  0.4357028650528818
  0.5145316469544596  0.5826333203440868  0.4343191472012293
  0.6308430894542099  0.9110446065820810  0.4464204887812144
  0.4998753563752771  0.7674374104745709  0.4440619188144126
  0.6126926063373759  0.0975144140988604  0.4445313991825799
  0.4277127400430771  0.6793787471849200  0.5559561447575945
  0.4130430735961426  0.8641661431627057  0.5656531313969779
  0.3869818639340394  0.1233271645530678  0.5642295369916468
  0.6499934587013811  0.6585056592407881  0.4384792257645813
  0.8305871455135758  0.4550051684788343  0.5526292782345195
  0.7636511565274731  0.9918197877602140  0.4473837472070201
  0.7409104941687019  0.2443236794830881  0.4416465610067206
  0.7238453366127757  0.4312726054225706  0.4326245478504234
  0.8704065808479271  0.0155888978397769  0.5673840468224967
  0.9815545015112690  0.3492685316060786  0.5554945197021652
  0.8533130041149875  0.2025119457261653  0.5583549233542584
  0.9634239136373708  0.5356998567099609  0.5535539603664006
  0.9442322367214189  0.7883704296772507  0.5615687275398997
  0.8739111337638619  0.3235641873284791  0.4357028650528818
  0.8478616909544598  0.5826333203440868  0.4343191472012293
  0.9641731334542101  0.9110446065820810  0.4464204887812144
  0.8332054013752810  0.7674374104745709  0.4440619188144126
  0.9460226503373761  0.0975144140988604  0.4445313991825799
  0.7610526860430795  0.6793787471849200  0.5559561447575945
  0.7463730145961449  0.8641661431627057  0.5656531313969779
  0.7203118389340375  0.1233271645530678  0.5642295369916468
  0.9833234337013863  0.6585056592407881  0.4384792257645813
 
  0.00000000E+00  0.00000000E+00  0.00000000E+00
  0.00000000E+00  0.00000000E+00  0.00000000E+00
  0.00000000E+00  0.00000000E+00  0.00000000E+00
  0.00000000E+00  0.00000000E+00  0.00000000E+00
  0.00000000E+00  0.00000000E+00  0.00000000E+00
  0.00000000E+00  0.00000000E+00  0.00000000E+00
  0.00000000E+00  0.00000000E+00  0.00000000E+00
  0.00000000E+00  0.00000000E+00  0.00000000E+00
  0.00000000E+00  0.00000000E+00  0.00000000E+00
  0.00000000E+00  0.00000000E+00  0.00000000E+00
  0.00000000E+00  0.00000000E+00  0.00000000E+00
  0.00000000E+00  0.00000000E+00  0.00000000E+00
  0.00000000E+00  0.00000000E+00  0.00000000E+00
  0.00000000E+00  0.00000000E+00  0.00000000E+00
  0.00000000E+00  0.00000000E+00  0.00000000E+00
  0.00000000E+00  0.00000000E+00  0.00000000E+00
  0.00000000E+00  0.00000000E+00  0.00000000E+00
  0.00000000E+00  0.00000000E+00  0.00000000E+00
  0.00000000E+00  0.00000000E+00  0.00000000E+00
  0.00000000E+00  0.00000000E+00  0.00000000E+00
  0.00000000E+00  0.00000000E+00  0.00000000E+00
  0.00000000E+00  0.00000000E+00  0.00000000E+00
  0.00000000E+00  0.00000000E+00  0.00000000E+00
  0.00000000E+00  0.00000000E+00  0.00000000E+00
  0.00000000E+00  0.00000000E+00  0.00000000E+00
  0.00000000E+00  0.00000000E+00  0.00000000E+00
  0.00000000E+00  0.00000000E+00  0.00000000E+00
  0.00000000E+00  0.00000000E+00  0.00000000E+00
  0.00000000E+00  0.00000000E+00  0.00000000E+00
  0.00000000E+00  0.00000000E+00  0.00000000E+00
  0.00000000E+00  0.00000000E+00  0.00000000E+00
  0.00000000E+00  0.00000000E+00  0.00000000E+00
  0.00000000E+00  0.00000000E+00  0.00000000E+00
  0.00000000E+00  0.00000000E+00  0.00000000E+00
  0.00000000E+00  0.00000000E+00  0.00000000E+00
  0.00000000E+00  0.00000000E+00  0.00000000E+00
  0.00000000E+00  0.00000000E+00  0.00000000E+00
  0.00000000E+00  0.00000000E+00  0.00000000E+00
  0.00000000E+00  0.00000000E+00  0.00000000E+00
  0.00000000E+00  0.00000000E+00  0.00000000E+00
  0.00000000E+00  0.00000000E+00  0.00000000E+00
  0.00000000E+00  0.00000000E+00  0.00000000E+00
  0.00000000E+00  0.00000000E+00  0.00000000E+00
  0.00000000E+00  0.00000000E+00  0.00000000E+00
  0.00000000E+00  0.00000000E+00  0.00000000E+00
  0.00000000E+00  0.00000000E+00  0.00000000E+00
  0.00000000E+00  0.00000000E+00  0.00000000E+00
  0.00000000E+00  0.00000000E+00  0.00000000E+00
  0.00000000E+00  0.00000000E+00  0.00000000E+00
  0.00000000E+00  0.00000000E+00  0.00000000E+00
  0.00000000E+00  0.00000000E+00  0.00000000E+00
  0.00000000E+00  0.00000000E+00  0.00000000E+00
  0.00000000E+00  0.00000000E+00  0.00000000E+00
  0.00000000E+00  0.00000000E+00  0.00000000E+00
  0.00000000E+00  0.00000000E+00  0.00000000E+00
  0.00000000E+00  0.00000000E+00  0.00000000E+00
  0.00000000E+00  0.00000000E+00  0.00000000E+00
  0.00000000E+00  0.00000000E+00  0.00000000E+00
  0.00000000E+00  0.00000000E+00  0.00000000E+00
  0.00000000E+00  0.00000000E+00  0.00000000E+00
  0.00000000E+00  0.00000000E+00  0.00000000E+00
  0.00000000E+00  0.00000000E+00  0.00000000E+00
  0.00000000E+00  0.00000000E+00  0.00000000E+00
  0.00000000E+00  0.00000000E+00  0.00000000E+00
  0.00000000E+00  0.00000000E+00  0.00000000E+00
  0.00000000E+00  0.00000000E+00  0.00000000E+00
  0.00000000E+00  0.00000000E+00  0.00000000E+00
  0.00000000E+00  0.00000000E+00  0.00000000E+00
  0.00000000E+00  0.00000000E+00  0.00000000E+00
  0.00000000E+00  0.00000000E+00  0.00000000E+00
  0.00000000E+00  0.00000000E+00  0.00000000E+00
  0.00000000E+00  0.00000000E+00  0.00000000E+00
  0.00000000E+00  0.00000000E+00  0.00000000E+00
  0.00000000E+00  0.00000000E+00  0.00000000E+00
  0.00000000E+00  0.00000000E+00  0.00000000E+00
  0.00000000E+00  0.00000000E+00  0.00000000E+00
  0.00000000E+00  0.00000000E+00  0.00000000E+00
  0.00000000E+00  0.00000000E+00  0.00000000E+00
  0.00000000E+00  0.00000000E+00  0.00000000E+00
  0.00000000E+00  0.00000000E+00  0.00000000E+00
  0.00000000E+00  0.00000000E+00  0.00000000E+00
  0.00000000E+00  0.00000000E+00  0.00000000E+00
  0.00000000E+00  0.00000000E+00  0.00000000E+00
  0.00000000E+00  0.00000000E+00  0.00000000E+00
  0.00000000E+00  0.00000000E+00  0.00000000E+00
  0.00000000E+00  0.00000000E+00  0.00000000E+00
  0.00000000E+00  0.00000000E+00  0.00000000E+00
