CONTCAR\(10)                            
   1.00000000000000     
    12.5135002136000004    0.0000000000000000    0.0000000000000000
     0.0000000000000000   15.7480001450000007    0.0000000000000000
     0.0000000000000000    0.0000000000000000   19.7180004119999985
   Nb   Fe   Te   O    H 
    16    16    32     1     1
Direct
  0.2373781265296734  0.1554269645310730  0.4938399258342374
  0.0104676048264104  0.4043733461312375  0.4940055307683403
  0.9873481757221425  0.0965621124877247  0.5095173261471103
  0.2612506798174890  0.3466814139414361  0.5093547587765973
  0.7378036339032479  0.1551461761083006  0.4936289996927499
  0.5119105864291152  0.4064006800387833  0.4938357978651123
  0.4875118821557772  0.0966487533328429  0.5094692366751538
  0.7634288925417300  0.3487139136699601  0.5092961792938473
  0.2360517120625221  0.6553217215481338  0.4942617686037497
  0.0114277374186852  0.9053903151675115  0.4938536329429820
  0.9841828393198145  0.5964533168273607  0.5111017836837669
  0.2614473836737303  0.8468434090639065  0.5094559804890894
  0.7373650480488724  0.6547799157013654  0.4924133104692839
  0.5113830185481110  0.9055007475132998  0.4936450915725126
  0.4879255745950132  0.5963060136751722  0.5092461475770673
  0.7613488092510061  0.8470980796193226  0.5089430696456672
  0.0714517277846385  0.2466951671156034  0.5398331037185300
  0.3212152853599016  0.0049805606162336  0.4632229676856284
  0.4280378085503340  0.2552536809311293  0.4634529456041505
  0.1774252539536388  0.9972027623314370  0.5399630329180046
  0.5719947559605185  0.2471364030061646  0.5402198383153911
  0.8213865496677207  0.0048702264648071  0.4631202386800680
  0.9277623417957651  0.2545759804685093  0.4629787583900491
  0.6775784771075126  0.9973476017318331  0.5397989442972693
  0.0707053069989397  0.7472965260162570  0.5399233479005016
  0.3201750349374824  0.5049144497769342  0.4636481611648619
  0.4274087069604336  0.7547767430686247  0.4630112125798463
  0.1771701281315700  0.4970214221878670  0.5407521778907332
  0.5713419727834537  0.7475106577435620  0.5394727868254797
  0.8183617545626165  0.5051540746236607  0.4584733710266378
  0.9269241231727419  0.7549349484483836  0.4631300884154253
  0.6808518656885322  0.4977363160812481  0.5404439906216572
  0.3691030848139509  0.3808093028375619  0.3844381771303592
  0.1262374332992467  0.0232222516857693  0.4127225759287769
  0.3726283790951860  0.9788420499634121  0.5904709997732270
  0.1195718020837353  0.3709719606305110  0.6190138527363039
  0.3761514276275145  0.2288784611963335  0.5904512531546050
  0.1225923373861838  0.2733712147232598  0.4125115783727185
  0.1297992860942823  0.1216290507531053  0.6191293314645713
  0.3798907856587102  0.1306331854995605  0.3843248545455077
  0.8687924283476263  0.3784224547658869  0.3830886112401438
  0.6261830706006044  0.0232339714107980  0.4126300676708536
  0.8724356467701821  0.9787772092650602  0.5905234264808853
  0.6179882107990219  0.3722538807215434  0.6187721088513777
  0.8763733676635871  0.2294006877825801  0.5902637659310843
  0.6229510442108848  0.2737094759852040  0.4131209656509486
  0.6301449125233574  0.1215471620669066  0.6190164781141642
  0.8801395452038623  0.1299861164093129  0.3839758165008293
  0.3687073398609395  0.8803779962606073  0.3841190167315237
  0.1245212547544860  0.5237284965580821  0.4140392551205414
  0.3728934080727042  0.4790196265193394  0.5906561839912314
  0.1189495308559828  0.8717077766289602  0.6191030187802480
  0.3762988711763883  0.7288063578091425  0.5902346378762241
  0.1223063317125989  0.7732121002080046  0.4128376219522378
  0.1293719938638007  0.6219297602135172  0.6195697539682617
  0.3784275811023333  0.6300493340949550  0.3845611397439153
  0.8695444069189810  0.8805937033683203  0.3839326493312978
  0.6243935963751571  0.5233635187453227  0.4113083952986844
  0.8707356058642591  0.4781553543970300  0.5875357240477137
  0.6191594755692050  0.8718270779177717  0.6188109741902279
  0.8748129738481299  0.7287709961104156  0.5901651400818724
  0.6224439664357515  0.7731804891693549  0.4121725717991833
  0.6301897951021498  0.6223714035420013  0.6184738922112966
  0.8808914351219754  0.6315583640021677  0.3834402058766011
  0.8874994762756439  0.4434950241608064  0.6904592912048372
  0.9202871546524052  0.4920692746277360  0.7134331711762227
 
  0.00000000E+00  0.00000000E+00  0.00000000E+00
  0.00000000E+00  0.00000000E+00  0.00000000E+00
  0.00000000E+00  0.00000000E+00  0.00000000E+00
  0.00000000E+00  0.00000000E+00  0.00000000E+00
  0.00000000E+00  0.00000000E+00  0.00000000E+00
  0.00000000E+00  0.00000000E+00  0.00000000E+00
  0.00000000E+00  0.00000000E+00  0.00000000E+00
  0.00000000E+00  0.00000000E+00  0.00000000E+00
  0.00000000E+00  0.00000000E+00  0.00000000E+00
  0.00000000E+00  0.00000000E+00  0.00000000E+00
  0.00000000E+00  0.00000000E+00  0.00000000E+00
  0.00000000E+00  0.00000000E+00  0.00000000E+00
  0.00000000E+00  0.00000000E+00  0.00000000E+00
  0.00000000E+00  0.00000000E+00  0.00000000E+00
  0.00000000E+00  0.00000000E+00  0.00000000E+00
  0.00000000E+00  0.00000000E+00  0.00000000E+00
  0.00000000E+00  0.00000000E+00  0.00000000E+00
  0.00000000E+00  0.00000000E+00  0.00000000E+00
  0.00000000E+00  0.00000000E+00  0.00000000E+00
  0.00000000E+00  0.00000000E+00  0.00000000E+00
  0.00000000E+00  0.00000000E+00  0.00000000E+00
  0.00000000E+00  0.00000000E+00  0.00000000E+00
  0.00000000E+00  0.00000000E+00  0.00000000E+00
  0.00000000E+00  0.00000000E+00  0.00000000E+00
  0.00000000E+00  0.00000000E+00  0.00000000E+00
  0.00000000E+00  0.00000000E+00  0.00000000E+00
  0.00000000E+00  0.00000000E+00  0.00000000E+00
  0.00000000E+00  0.00000000E+00  0.00000000E+00
  0.00000000E+00  0.00000000E+00  0.00000000E+00
  0.00000000E+00  0.00000000E+00  0.00000000E+00
  0.00000000E+00  0.00000000E+00  0.00000000E+00
  0.00000000E+00  0.00000000E+00  0.00000000E+00
  0.00000000E+00  0.00000000E+00  0.00000000E+00
  0.00000000E+00  0.00000000E+00  0.00000000E+00
  0.00000000E+00  0.00000000E+00  0.00000000E+00
  0.00000000E+00  0.00000000E+00  0.00000000E+00
  0.00000000E+00  0.00000000E+00  0.00000000E+00
  0.00000000E+00  0.00000000E+00  0.00000000E+00
  0.00000000E+00  0.00000000E+00  0.00000000E+00
  0.00000000E+00  0.00000000E+00  0.00000000E+00
  0.00000000E+00  0.00000000E+00  0.00000000E+00
  0.00000000E+00  0.00000000E+00  0.00000000E+00
  0.00000000E+00  0.00000000E+00  0.00000000E+00
  0.00000000E+00  0.00000000E+00  0.00000000E+00
  0.00000000E+00  0.00000000E+00  0.00000000E+00
  0.00000000E+00  0.00000000E+00  0.00000000E+00
  0.00000000E+00  0.00000000E+00  0.00000000E+00
  0.00000000E+00  0.00000000E+00  0.00000000E+00
  0.00000000E+00  0.00000000E+00  0.00000000E+00
  0.00000000E+00  0.00000000E+00  0.00000000E+00
  0.00000000E+00  0.00000000E+00  0.00000000E+00
  0.00000000E+00  0.00000000E+00  0.00000000E+00
  0.00000000E+00  0.00000000E+00  0.00000000E+00
  0.00000000E+00  0.00000000E+00  0.00000000E+00
  0.00000000E+00  0.00000000E+00  0.00000000E+00
  0.00000000E+00  0.00000000E+00  0.00000000E+00
  0.00000000E+00  0.00000000E+00  0.00000000E+00
  0.00000000E+00  0.00000000E+00  0.00000000E+00
  0.00000000E+00  0.00000000E+00  0.00000000E+00
  0.00000000E+00  0.00000000E+00  0.00000000E+00
  0.00000000E+00  0.00000000E+00  0.00000000E+00
  0.00000000E+00  0.00000000E+00  0.00000000E+00
  0.00000000E+00  0.00000000E+00  0.00000000E+00
  0.00000000E+00  0.00000000E+00  0.00000000E+00
  0.00000000E+00  0.00000000E+00  0.00000000E+00
  0.00000000E+00  0.00000000E+00  0.00000000E+00
