 Y4 C1 I5                               
   1.00000000000000     
     3.9533546518173326    0.0000000000000000    0.0000000000000000
     0.0000000000000000    8.4215854580196652    0.0000000000000000
     0.0000000000000000    0.0000000000000000   21.2530740573920021
   Y    C    I 
     4     1     5
Direct
  0.4999998118065673  0.0012905442779817  0.3885436416639519
 -0.0000000344504557  0.1926358631841787  0.5004019386524868
  0.5000001426466461  0.9987094143642059  0.6114563788616899
  0.0000000428439160  0.8073641360236421  0.4995980236110585
  0.5000000524818347 -0.0000000022053860  0.4999999798080982
  0.0000000553893443  0.2621355101616774  0.3542646135917675
  0.0000000371906350  0.7412638128010981  0.3530419258692185
 -0.0000000015841139  0.2587361932912002  0.6469580830962115
  0.4999999421731590  0.5000000050763054  0.5000000105718958
 -0.0000000484975326  0.7378645230250961  0.6457354042736214
 
  0.00000000E+00  0.00000000E+00  0.00000000E+00
  0.00000000E+00  0.00000000E+00  0.00000000E+00
  0.00000000E+00  0.00000000E+00  0.00000000E+00
  0.00000000E+00  0.00000000E+00  0.00000000E+00
  0.00000000E+00  0.00000000E+00  0.00000000E+00
  0.00000000E+00  0.00000000E+00  0.00000000E+00
  0.00000000E+00  0.00000000E+00  0.00000000E+00
  0.00000000E+00  0.00000000E+00  0.00000000E+00
  0.00000000E+00  0.00000000E+00  0.00000000E+00
  0.00000000E+00  0.00000000E+00  0.00000000E+00
