Na2 Zr1 N2                              
   1.00000000000000     
     3.3504790725236298   -0.0000000000000000    0.0000000000000000
    -1.6752395362618149    2.9015999916221387    0.0000000000000000
    -0.0000000000000000   -0.0000000000000000    8.8342430619684116
   Na   Zr   N 
     2     1     2
Direct
  0.6666666750000019  0.3333333490000001  0.2928298128316204
  0.3333333490000001  0.6666666980000002  0.7071701611683775
 -0.0000000000000000 -0.0000000000000000 -0.0000000000000000
  0.6666666750000019  0.3333333490000001  0.8689439789082098
  0.3333333490000001  0.6666666980000002  0.1310560070917891
 
  0.00000000E+00  0.00000000E+00  0.00000000E+00
  0.00000000E+00  0.00000000E+00  0.00000000E+00
  0.00000000E+00  0.00000000E+00  0.00000000E+00
  0.00000000E+00  0.00000000E+00  0.00000000E+00
  0.00000000E+00  0.00000000E+00  0.00000000E+00
