CONTCAR\(6)                             
   1.00000000000000     
    12.5569000244000009    0.0000000000000000    0.0000000000000000
     0.0000000000000000   12.5685997009000001    0.0000000000000000
     0.0000000000000000    0.0000000000000000   19.2248001098999985
   Cu   Ag   Te   O    H 
    12    12    24     2     1
Direct
  0.1054080916308675 -0.0007901954657802  0.5736232007250239
  0.3770615673492371 -0.0015687635505723  0.5663577919537632
  0.5937002385309003 -0.0005673373678196  0.5671006241027319
  0.8860018699850393  0.0029014634204180  0.5731721406264889
  0.1537727845211990  0.3275323825449479  0.5220634373861743
  0.3683208950542902  0.3301868705009002  0.5093532489985314
  0.6541114687469298  0.3389177023410249  0.5404603394057153
  0.8680355836313982  0.3323632717755065  0.5146820747749766
  0.1321405105800302  0.6728646035321290  0.5112116370784356
  0.3624799683031411  0.6697377515683437  0.5055051015213134
  0.6544269257214393  0.6610407429020999  0.5412047289825077
  0.8683135997019495  0.6707994353048912  0.5168559681402560
  0.0001186742091579  0.1549984698279474  0.4878781595288371
  0.2338570962472345  0.1244537740575886  0.4855539334343688
  0.5057402235938496  0.1582514661653861  0.4840589031502923
  0.7379125977300058  0.1244190823531230  0.4921955929007017
 -0.0005598183999993  0.4955682437157474  0.4621554742438972
  0.2350507245834242  0.5007425245962156  0.4552122980044807
  0.5041844851106387  0.4986113598475423  0.4701792966363116
  0.7369631812215398  0.5005920208888641  0.4702809491723502
 -0.0034777527846224  0.8540026969053742  0.4882485112133380
  0.2335219076668164  0.8717478653836949  0.4843979551341208
  0.5102254650925395  0.8368951089629471  0.4849367883473699
  0.7414623687340309  0.8791891065664583  0.4914412063938035
  0.9915096656610920  0.0030353558120446  0.3859383292838127
  0.1212875781298940  0.1850780917575769  0.6194579798573391
  0.2730233673253184 -0.0010393617782584  0.3717054977415608
  0.3711642001415154  0.1870037045443397  0.6087999541650518
  0.4943088294553414 -0.0030990296949279  0.3884454699694201
  0.6192285492798977  0.1791370130386240  0.6227609961465514
  0.7686330718465132  0.0036229802931583  0.3745617586188205
  0.8706934755326394  0.1906434186636840  0.6153141594900835
  0.9692830358294208  0.3150864851928331  0.3874314790924622
  0.1201865555664560  0.5024528882762087  0.5958287139465154
  0.2320033836913100  0.3048923323890477  0.3916208606170107
  0.3711664725776269  0.5016059630929985  0.5892587940546546
  0.4716283026358351  0.3211710507426946  0.3860630783830016
  0.6140675713561559  0.4994636977867307  0.6247055486438282
  0.7283680094102557  0.3091740153259586  0.4036733475805214
  0.8884318087161686  0.5010390228308019  0.5963450952577968
  0.9792051385706431  0.6848474528787475  0.3934022538333907
  0.1200720633930325  0.8103205401975201  0.6156254734938700
  0.2393955944516626  0.6936205338571291  0.3875414301013076
  0.3690023008039828  0.8091697792458222  0.6071677329904359
  0.4792173568484956  0.6755467779781572  0.3857391321973594
  0.6177855423479491  0.8203661352880516  0.6231907235900480
  0.7332089485768223  0.6927529374557956  0.4051067877376862
  0.8679827466776522  0.8160695621643960  0.6167503299211219
  0.7394480859540880  0.4979161837497510  0.7042014574455114
  0.6841776568087395  0.4957096093284420  0.7717470629317772
  0.6896780146504294  0.4198831248057054  0.7833167620532641
 
  0.00000000E+00  0.00000000E+00  0.00000000E+00
  0.00000000E+00  0.00000000E+00  0.00000000E+00
  0.00000000E+00  0.00000000E+00  0.00000000E+00
  0.00000000E+00  0.00000000E+00  0.00000000E+00
  0.00000000E+00  0.00000000E+00  0.00000000E+00
  0.00000000E+00  0.00000000E+00  0.00000000E+00
  0.00000000E+00  0.00000000E+00  0.00000000E+00
  0.00000000E+00  0.00000000E+00  0.00000000E+00
  0.00000000E+00  0.00000000E+00  0.00000000E+00
  0.00000000E+00  0.00000000E+00  0.00000000E+00
  0.00000000E+00  0.00000000E+00  0.00000000E+00
  0.00000000E+00  0.00000000E+00  0.00000000E+00
  0.00000000E+00  0.00000000E+00  0.00000000E+00
  0.00000000E+00  0.00000000E+00  0.00000000E+00
  0.00000000E+00  0.00000000E+00  0.00000000E+00
  0.00000000E+00  0.00000000E+00  0.00000000E+00
  0.00000000E+00  0.00000000E+00  0.00000000E+00
  0.00000000E+00  0.00000000E+00  0.00000000E+00
  0.00000000E+00  0.00000000E+00  0.00000000E+00
  0.00000000E+00  0.00000000E+00  0.00000000E+00
  0.00000000E+00  0.00000000E+00  0.00000000E+00
  0.00000000E+00  0.00000000E+00  0.00000000E+00
  0.00000000E+00  0.00000000E+00  0.00000000E+00
  0.00000000E+00  0.00000000E+00  0.00000000E+00
  0.00000000E+00  0.00000000E+00  0.00000000E+00
  0.00000000E+00  0.00000000E+00  0.00000000E+00
  0.00000000E+00  0.00000000E+00  0.00000000E+00
  0.00000000E+00  0.00000000E+00  0.00000000E+00
  0.00000000E+00  0.00000000E+00  0.00000000E+00
  0.00000000E+00  0.00000000E+00  0.00000000E+00
  0.00000000E+00  0.00000000E+00  0.00000000E+00
  0.00000000E+00  0.00000000E+00  0.00000000E+00
  0.00000000E+00  0.00000000E+00  0.00000000E+00
  0.00000000E+00  0.00000000E+00  0.00000000E+00
  0.00000000E+00  0.00000000E+00  0.00000000E+00
  0.00000000E+00  0.00000000E+00  0.00000000E+00
  0.00000000E+00  0.00000000E+00  0.00000000E+00
  0.00000000E+00  0.00000000E+00  0.00000000E+00
  0.00000000E+00  0.00000000E+00  0.00000000E+00
  0.00000000E+00  0.00000000E+00  0.00000000E+00
  0.00000000E+00  0.00000000E+00  0.00000000E+00
  0.00000000E+00  0.00000000E+00  0.00000000E+00
  0.00000000E+00  0.00000000E+00  0.00000000E+00
  0.00000000E+00  0.00000000E+00  0.00000000E+00
  0.00000000E+00  0.00000000E+00  0.00000000E+00
  0.00000000E+00  0.00000000E+00  0.00000000E+00
  0.00000000E+00  0.00000000E+00  0.00000000E+00
  0.00000000E+00  0.00000000E+00  0.00000000E+00
  0.00000000E+00  0.00000000E+00  0.00000000E+00
  0.00000000E+00  0.00000000E+00  0.00000000E+00
  0.00000000E+00  0.00000000E+00  0.00000000E+00
