 Nb3 I8                                 
   1.00000000000000     
     7.6228390316753236    0.0000000000000000    0.0000000000000000
     3.8114190180372236    6.6037410737330937    0.0000000000000000
     0.0000000000000000    0.0000000000000000   19.0911982183559985
   Nb   I 
     3     8
Direct
  0.4039951563466988  0.7980300928910532  0.4935367618261061
  0.7979697738729463  0.7980338148220072  0.4935364119864076
  0.7979828089521255  0.4040256556151881  0.4935366710748671
  0.9983519325762713  0.5008401251820584  0.3933288085409232
  0.5008080936965240  0.5008445210699641  0.3933304415374745
  0.5008355026969524  0.9983246635115972  0.3933414688333888
  0.6607230713559720  0.1696000908494821  0.5739786856721821
  0.1696822588270261  0.1695949958592487  0.5739778000236849
  0.1696433246539986  0.6607256973204688  0.5739699961881694
  0.0000239841301141 -0.0000392821383411  0.4167165940839291
  0.6666530928913764  0.6666886250172794  0.6058622451721090
 
  0.00000000E+00  0.00000000E+00  0.00000000E+00
  0.00000000E+00  0.00000000E+00  0.00000000E+00
  0.00000000E+00  0.00000000E+00  0.00000000E+00
  0.00000000E+00  0.00000000E+00  0.00000000E+00
  0.00000000E+00  0.00000000E+00  0.00000000E+00
  0.00000000E+00  0.00000000E+00  0.00000000E+00
  0.00000000E+00  0.00000000E+00  0.00000000E+00
  0.00000000E+00  0.00000000E+00  0.00000000E+00
  0.00000000E+00  0.00000000E+00  0.00000000E+00
  0.00000000E+00  0.00000000E+00  0.00000000E+00
  0.00000000E+00  0.00000000E+00  0.00000000E+00
