 Ni2 P2 S6                              
   1.00000000000000     
     5.8029169593798384    0.0000000000000000    0.0000000000000000
     2.9014589782609383    5.0257277142862415    0.0000000000000000
     0.0000000000000000    0.0000000000000000   18.0372257663999989
   Ni   P    S 
     2     2     6
Direct
  0.3333011508219431  0.3333972085427316  0.4999999909795919
  0.6666990663651806  0.6666024186456762  0.5000000056790725
  0.9997663749238243  0.0000002593222745  0.5604400975132739
  0.0002335884310870 -0.0000001753961204  0.4395599044717891
  0.6539628280329560  0.3457044860135818  0.5843903956690910
  0.0003330262197401  0.3457032984231118  0.4156093466078379
  0.6545765955022257 -0.0000007400505622  0.4155478205331218
  0.3454238121613830 -0.0000000827698534  0.5844521810730361
  0.9996660036587780  0.6542972760984804  0.5843906622985635
  0.3460375538828824  0.6542960511706798  0.4156095951746226
 
  0.00000000E+00  0.00000000E+00  0.00000000E+00
  0.00000000E+00  0.00000000E+00  0.00000000E+00
  0.00000000E+00  0.00000000E+00  0.00000000E+00
  0.00000000E+00  0.00000000E+00  0.00000000E+00
  0.00000000E+00  0.00000000E+00  0.00000000E+00
  0.00000000E+00  0.00000000E+00  0.00000000E+00
  0.00000000E+00  0.00000000E+00  0.00000000E+00
  0.00000000E+00  0.00000000E+00  0.00000000E+00
  0.00000000E+00  0.00000000E+00  0.00000000E+00
  0.00000000E+00  0.00000000E+00  0.00000000E+00
