CONTCAR\(5)                             
   1.00000000000000     
    13.3212995528999993    0.0000000000000000    0.0000000000000000
    -6.6606497764999997   11.5365838241999992    0.0000000000000000
     0.0000000000000000    0.0000000000000000   18.1305007935000013
   Ta   S    O 
    16    32     1
Direct
  0.1708477789261948  0.0853963356793557  0.5012654633686111
  0.4146082802053996  0.0853692927249767  0.5012893811192356
  0.6694704006262455  0.0873797382947998  0.5015682917450235
  0.9178722705556908  0.0872872165538894  0.5015571573362934
  0.1676955849586719  0.3363524166512519  0.5011932400212444
  0.4120106697061487  0.3239801503304847  0.5004304711194649
  0.6686703257467812  0.3362944363392799  0.5011896876928219
  0.9177141810428751  0.3354706485738106  0.5015210956184077
  0.1706506816768467  0.5904125285009982  0.5009745534973860
  0.4119543663752268  0.5931316815449890  0.5001105447779537
  0.6811007222723546  0.5931082964650400  0.5001860376149381
  0.9197064848069942  0.5903706020730226  0.5010338234379006
  0.1683651738896046  0.8365873494730067  0.5011278511207564
  0.4145882855027310  0.8344237686928366  0.5010128037304966
  0.6686829974815964  0.8374175987754384  0.5010429181969656
  0.9197440789095239  0.8343481537693691  0.5011457611358239
  0.0017473789288189  0.0031885563691390  0.5865986528542493
  0.0017239830938038  0.0034828400346356  0.4159334359611009
  0.2509835904239495  0.0019593364642745  0.5887294936026493
  0.2511673852714225  0.0022739902628288  0.4136363082203189
  0.5014579978782194  0.0031699324185510  0.5865843029056279
  0.5019000883601734  0.0036242201912913  0.4158871747943849
  0.7514804972934641  0.0029955576181067  0.5880120413559595
  0.7519811304659001  0.0039306206571510  0.4148160975674031
  0.0020314493361724  0.2534845591074841  0.5880971375543851
  0.0013928824878562  0.2531554147429418  0.4147945862833851
  0.2504020359600787  0.2530585012160742  0.5880583999981610
  0.2487074678423014  0.2521363413662314  0.4139022968036628
  0.5026566829494854  0.2530666495124905  0.5880435135744264
  0.5034397417015555  0.2521163134775435  0.4139111987644810
  0.7515106713238566  0.2535492515753361  0.5881296524322011
  0.7518325288452132  0.2531747502644066  0.4147558354719365
  0.0017918862389408  0.5035661402314844  0.5864644322825612
  0.0014513755759964  0.5029285444574398  0.4157807104949569
  0.2504354844890528  0.5026353906657164  0.5877986857431594
  0.2485950051628834  0.5014214376863251  0.4137061609899604
  0.5017852470476285  0.5038075673533626  0.5783069484276524
  0.5016849783953887  0.5032479980479607  0.4243140707579727
  0.7520764604185430  0.5025422453817825  0.5878288158419167
  0.7528083791287870  0.5014106920681485  0.4137612337880512
  0.0029362049797186  0.7538919404074704  0.5885678062418194
  0.0028427975126064  0.7539415409095938  0.4135401910996706
  0.2509918558099642  0.7538848006658938  0.5885407605703392
  0.2510905670590233  0.7538912024405633  0.4134176761661550
  0.5025011368501140  0.7547578406691429  0.5877346467060605
  0.5035508659696433  0.7564688759881264  0.4136675072488174
  0.7519711108748552  0.7546502929424577  0.5878332056871614
  0.7530072447745795  0.7564920345056692  0.4137307644489283
  0.5019016658671021  0.5042144428578226  0.6606867808272199
 
  0.00000000E+00  0.00000000E+00  0.00000000E+00
  0.00000000E+00  0.00000000E+00  0.00000000E+00
  0.00000000E+00  0.00000000E+00  0.00000000E+00
  0.00000000E+00  0.00000000E+00  0.00000000E+00
  0.00000000E+00  0.00000000E+00  0.00000000E+00
  0.00000000E+00  0.00000000E+00  0.00000000E+00
  0.00000000E+00  0.00000000E+00  0.00000000E+00
  0.00000000E+00  0.00000000E+00  0.00000000E+00
  0.00000000E+00  0.00000000E+00  0.00000000E+00
  0.00000000E+00  0.00000000E+00  0.00000000E+00
  0.00000000E+00  0.00000000E+00  0.00000000E+00
  0.00000000E+00  0.00000000E+00  0.00000000E+00
  0.00000000E+00  0.00000000E+00  0.00000000E+00
  0.00000000E+00  0.00000000E+00  0.00000000E+00
  0.00000000E+00  0.00000000E+00  0.00000000E+00
  0.00000000E+00  0.00000000E+00  0.00000000E+00
  0.00000000E+00  0.00000000E+00  0.00000000E+00
  0.00000000E+00  0.00000000E+00  0.00000000E+00
  0.00000000E+00  0.00000000E+00  0.00000000E+00
  0.00000000E+00  0.00000000E+00  0.00000000E+00
  0.00000000E+00  0.00000000E+00  0.00000000E+00
  0.00000000E+00  0.00000000E+00  0.00000000E+00
  0.00000000E+00  0.00000000E+00  0.00000000E+00
  0.00000000E+00  0.00000000E+00  0.00000000E+00
  0.00000000E+00  0.00000000E+00  0.00000000E+00
  0.00000000E+00  0.00000000E+00  0.00000000E+00
  0.00000000E+00  0.00000000E+00  0.00000000E+00
  0.00000000E+00  0.00000000E+00  0.00000000E+00
  0.00000000E+00  0.00000000E+00  0.00000000E+00
  0.00000000E+00  0.00000000E+00  0.00000000E+00
  0.00000000E+00  0.00000000E+00  0.00000000E+00
  0.00000000E+00  0.00000000E+00  0.00000000E+00
  0.00000000E+00  0.00000000E+00  0.00000000E+00
  0.00000000E+00  0.00000000E+00  0.00000000E+00
  0.00000000E+00  0.00000000E+00  0.00000000E+00
  0.00000000E+00  0.00000000E+00  0.00000000E+00
  0.00000000E+00  0.00000000E+00  0.00000000E+00
  0.00000000E+00  0.00000000E+00  0.00000000E+00
  0.00000000E+00  0.00000000E+00  0.00000000E+00
  0.00000000E+00  0.00000000E+00  0.00000000E+00
  0.00000000E+00  0.00000000E+00  0.00000000E+00
  0.00000000E+00  0.00000000E+00  0.00000000E+00
  0.00000000E+00  0.00000000E+00  0.00000000E+00
  0.00000000E+00  0.00000000E+00  0.00000000E+00
  0.00000000E+00  0.00000000E+00  0.00000000E+00
  0.00000000E+00  0.00000000E+00  0.00000000E+00
  0.00000000E+00  0.00000000E+00  0.00000000E+00
  0.00000000E+00  0.00000000E+00  0.00000000E+00
  0.00000000E+00  0.00000000E+00  0.00000000E+00
