CONTCAR\(12)                            
   1.00000000000000     
    12.9062995910999998    0.0000000000000000    0.0000000000000000
     6.4531410738000003   11.1773039768999993    0.0000000000000000
     0.0000000000000000    0.0000000000000000   25.2430000304999993
   Bi   Se
    27    35
Direct
  0.0007476437536838  0.0008687304430482  0.4999672428502278
  0.1129440680299887  0.1101929714850026  0.3566022321301789
  0.2220258290533257  0.2226083388933452  0.6442147013620846
  0.3333299960000033 -0.0000000000000000  0.5086282759075632
  0.4435229724850028  0.1101929714850026  0.3566022321301789
  0.5645922537974212  0.2312523097974189  0.6483422154541361
  0.6650536668032713  0.0008687304430482  0.4999672428502278
  0.7781291743862462  0.1104116212275087  0.3545013854884778
  0.8708254824051599  0.2312523097974189  0.6483422154541361
  0.0007476377536832  0.3317136398032657  0.4999672428502278
  0.1117195241762154  0.4432209526475731  0.3554025894279298
  0.2246629769070566  0.5543385095464750  0.6452736750789544
  0.3341987024430496  0.3317136398032657  0.4999672428502278
  0.4437415932275101  0.4447892263862436  0.3545013854884778
  0.5645923107974223  0.5374954074051607  0.6483422154541361
  0.6666700540000008  0.3333300139999977  0.5003623080572311
  0.7781291813862432  0.4447892263862436  0.3545013854884778
  0.8876685675464693  0.5543385095464750  0.6452736750789544
  0.0000000009999965  0.6666700540000008  0.4990814570384513
  0.1117195541762108  0.7783895281762121  0.3554025894279298
  0.2220258400533230  0.8886958890533270  0.6442147013620846
  0.3341987264430515  0.6674176977536845  0.4999672428502278
  0.4435229364850069  0.7796140610299881  0.3566022321301789
  0.5559483308933445  0.8886958890533270  0.6442147013620846
  0.6650536308032683  0.6674176977536845  0.4999672428502278
  0.7765609016475721  0.7783895281762121  0.3554025894279298
  0.8876685585464721  0.8913330169070562  0.6452736750789544
  0.0004080947621664  0.0002585242445686  0.2985147196104307
 -0.0039979394285315  0.0056008243361288  0.6999692785718455
  0.1017747851909210  0.1157776129045365  0.5677131867456926
  0.2239384800424696  0.2187830369150573  0.4336399977293718
  0.3333299960000033 -0.0000000000000000  0.2988693976414177
  0.3333299960000033 -0.0000000000000000  0.7002458876154550
  0.4491076139045367  0.1157776129045365  0.5677131867456926
  0.5565185083967927  0.2231785643967902  0.4336632470529693
  0.6660034219932683  0.0002585242445686  0.2985147196104307
  0.6650671560924060  0.0056008243361288  0.6999692785718455
  0.7793956297092377  0.1078787105815254  0.5634921478444408
  0.8869729732064178  0.2231785643967902  0.4336632470529693
  0.0004080887621659  0.3326633949932627  0.2985147196104307
  0.9960020545714682  0.3317271290924005  0.6999692785718455
  0.1109984948555976  0.4446630112888088  0.5645869481934168
  0.2225823221097733  0.5553788369451165  0.4335408008898462
  0.3335884962445700  0.3326633949932627  0.2985147196104307
  0.3389307963361302  0.3317271290924005  0.6999692785718455
  0.4412086825815267  0.4460556817092352  0.5634921478444408
  0.5565185653967939  0.5536428982064185  0.4336632470529693
  0.6666700540000008  0.3333300139999977  0.2981760608423932
  0.7793956367092347  0.4460556817092352  0.5634921478444408
  0.8887088949451107  0.5553788369451165  0.4335408008898462
  0.0000000009999965  0.6666700540000008  0.2990732155550618
  0.0000000009999965  0.6666700540000008  0.7004173439549788
  0.1109985248555929  0.7776684988555943  0.5645869481934168
  0.2239384910424670  0.8906085400424707  0.4336399977293718
  0.3335885202445720  0.6670781487621672  0.2985147196104307
  0.3389308203361322  0.6626721145714695  0.6999692785718455
  0.4491075779045408  0.7684447781909203  0.5677131867456926
  0.5521230289150566  0.8906085400424707  0.4336399977293718
  0.6660033859932654  0.6670781487621672  0.2985147196104307
  0.6650671200924030  0.6626721145714695  0.6999692785718455
  0.7780029602888078  0.7776684988555943  0.5645869481934168
  0.8887088859451135  0.8892523621097728  0.4335408008898462
 
  0.00000000E+00  0.00000000E+00  0.00000000E+00
  0.00000000E+00  0.00000000E+00  0.00000000E+00
  0.00000000E+00  0.00000000E+00  0.00000000E+00
  0.00000000E+00  0.00000000E+00  0.00000000E+00
  0.00000000E+00  0.00000000E+00  0.00000000E+00
  0.00000000E+00  0.00000000E+00  0.00000000E+00
  0.00000000E+00  0.00000000E+00  0.00000000E+00
  0.00000000E+00  0.00000000E+00  0.00000000E+00
  0.00000000E+00  0.00000000E+00  0.00000000E+00
  0.00000000E+00  0.00000000E+00  0.00000000E+00
  0.00000000E+00  0.00000000E+00  0.00000000E+00
  0.00000000E+00  0.00000000E+00  0.00000000E+00
  0.00000000E+00  0.00000000E+00  0.00000000E+00
  0.00000000E+00  0.00000000E+00  0.00000000E+00
  0.00000000E+00  0.00000000E+00  0.00000000E+00
  0.00000000E+00  0.00000000E+00  0.00000000E+00
  0.00000000E+00  0.00000000E+00  0.00000000E+00
  0.00000000E+00  0.00000000E+00  0.00000000E+00
  0.00000000E+00  0.00000000E+00  0.00000000E+00
  0.00000000E+00  0.00000000E+00  0.00000000E+00
  0.00000000E+00  0.00000000E+00  0.00000000E+00
  0.00000000E+00  0.00000000E+00  0.00000000E+00
  0.00000000E+00  0.00000000E+00  0.00000000E+00
  0.00000000E+00  0.00000000E+00  0.00000000E+00
  0.00000000E+00  0.00000000E+00  0.00000000E+00
  0.00000000E+00  0.00000000E+00  0.00000000E+00
  0.00000000E+00  0.00000000E+00  0.00000000E+00
  0.00000000E+00  0.00000000E+00  0.00000000E+00
  0.00000000E+00  0.00000000E+00  0.00000000E+00
  0.00000000E+00  0.00000000E+00  0.00000000E+00
  0.00000000E+00  0.00000000E+00  0.00000000E+00
  0.00000000E+00  0.00000000E+00  0.00000000E+00
  0.00000000E+00  0.00000000E+00  0.00000000E+00
  0.00000000E+00  0.00000000E+00  0.00000000E+00
  0.00000000E+00  0.00000000E+00  0.00000000E+00
  0.00000000E+00  0.00000000E+00  0.00000000E+00
  0.00000000E+00  0.00000000E+00  0.00000000E+00
  0.00000000E+00  0.00000000E+00  0.00000000E+00
  0.00000000E+00  0.00000000E+00  0.00000000E+00
  0.00000000E+00  0.00000000E+00  0.00000000E+00
  0.00000000E+00  0.00000000E+00  0.00000000E+00
  0.00000000E+00  0.00000000E+00  0.00000000E+00
  0.00000000E+00  0.00000000E+00  0.00000000E+00
  0.00000000E+00  0.00000000E+00  0.00000000E+00
  0.00000000E+00  0.00000000E+00  0.00000000E+00
  0.00000000E+00  0.00000000E+00  0.00000000E+00
  0.00000000E+00  0.00000000E+00  0.00000000E+00
  0.00000000E+00  0.00000000E+00  0.00000000E+00
  0.00000000E+00  0.00000000E+00  0.00000000E+00
  0.00000000E+00  0.00000000E+00  0.00000000E+00
  0.00000000E+00  0.00000000E+00  0.00000000E+00
  0.00000000E+00  0.00000000E+00  0.00000000E+00
  0.00000000E+00  0.00000000E+00  0.00000000E+00
  0.00000000E+00  0.00000000E+00  0.00000000E+00
  0.00000000E+00  0.00000000E+00  0.00000000E+00
  0.00000000E+00  0.00000000E+00  0.00000000E+00
  0.00000000E+00  0.00000000E+00  0.00000000E+00
  0.00000000E+00  0.00000000E+00  0.00000000E+00
  0.00000000E+00  0.00000000E+00  0.00000000E+00
  0.00000000E+00  0.00000000E+00  0.00000000E+00
  0.00000000E+00  0.00000000E+00  0.00000000E+00
  0.00000000E+00  0.00000000E+00  0.00000000E+00
