CONTCAR\(4)                             
   1.00000000000000     
    12.1691999435000007    0.0000000000000000    0.0000000000000000
    -2.8101734062000001   10.0349467646000008    0.0000000000000000
     0.0000000000000000    0.0000000000000000   17.4300994873000015
   Cu   Mo   O 
     6     6    25
Direct
  0.4457576649124936  0.9270142113851854  0.4568601721499145
  0.3418926676460615  0.3275769598507793  0.3980194889131562
  0.2809594185984199  0.5834290628275751  0.4194187113778038
  0.9524318026022841  0.9399406323381996  0.4527082157581108
  0.8528890015405264  0.3610944186640180  0.4369671381232605
  0.7837079518932624  0.6001271429747557  0.4116540764082264
  0.2129460566741987  0.0426522127254843  0.5055423535083216
  0.0367437783014791  0.6894754336505485  0.4539476427692913
  0.1042757317781346  0.2860133103739829  0.4872136974962199
  0.7042478796435349  0.0290521960017553  0.4999283106740119
  0.5288000653063067  0.6692829206775783  0.4580245894649367
  0.5908185751759941  0.2798430991548849  0.4669563521530431
  0.0890112126401040  0.8841338043968966  0.4549957264206543
  0.0381121364062604  0.6474825451354290  0.5475474381926834
  0.1561203509188143  0.6535436726001588  0.4082119728443157
  0.2540632889120363  0.2205168379916336  0.5246176657935521
  0.0983634136493086  0.3690069833695203  0.5697128666784006
  0.4824341090760639  0.2817383673813165  0.3993132612319614
  0.3926170689400672  0.7438244882207002  0.4371370046008707
  0.0565090591970979  0.0949061945810095  0.4977925250641356
  0.2085483632030690  0.3942818939560986  0.4172501684039248
  0.2193314414947219 -0.0288004572026666  0.5920094918919565
  0.4155385897588744  0.5213330499509801  0.4184276141156738
  0.3223179873440233  0.9986526544819188  0.4493752858308797
  0.5835298863563602  0.8713172683993767  0.4642668938986717
  0.5455615097498067  0.6319474769764257  0.5508488130132433
  0.6512004646289857  0.6578325766541691  0.4053600490187275
  0.7466820089832622  0.2169846121047677  0.4881913706182276
  0.5585770427570518  0.3485871412202846  0.5487606242150420
  0.9782249467176135  0.2929919791997249  0.4373746824752460
  0.8981918063239579  0.7597623505738382  0.4258867371990313
  0.5541100268608363  0.0904162203069305  0.4852595067811579
  0.7117160716562820  0.4090650414088104  0.4188753821237153
  0.7239446760510089 -0.0000693821021139  0.5934615846486211
  0.9200486654676626  0.5439098712700525  0.4095734589365707
  0.8170283655312475  0.9922088824429721  0.4477098204900740
  0.2467567663028283  0.1670536560570015  0.3721593027163839
 
  0.00000000E+00  0.00000000E+00  0.00000000E+00
  0.00000000E+00  0.00000000E+00  0.00000000E+00
  0.00000000E+00  0.00000000E+00  0.00000000E+00
  0.00000000E+00  0.00000000E+00  0.00000000E+00
  0.00000000E+00  0.00000000E+00  0.00000000E+00
  0.00000000E+00  0.00000000E+00  0.00000000E+00
  0.00000000E+00  0.00000000E+00  0.00000000E+00
  0.00000000E+00  0.00000000E+00  0.00000000E+00
  0.00000000E+00  0.00000000E+00  0.00000000E+00
  0.00000000E+00  0.00000000E+00  0.00000000E+00
  0.00000000E+00  0.00000000E+00  0.00000000E+00
  0.00000000E+00  0.00000000E+00  0.00000000E+00
  0.00000000E+00  0.00000000E+00  0.00000000E+00
  0.00000000E+00  0.00000000E+00  0.00000000E+00
  0.00000000E+00  0.00000000E+00  0.00000000E+00
  0.00000000E+00  0.00000000E+00  0.00000000E+00
  0.00000000E+00  0.00000000E+00  0.00000000E+00
  0.00000000E+00  0.00000000E+00  0.00000000E+00
  0.00000000E+00  0.00000000E+00  0.00000000E+00
  0.00000000E+00  0.00000000E+00  0.00000000E+00
  0.00000000E+00  0.00000000E+00  0.00000000E+00
  0.00000000E+00  0.00000000E+00  0.00000000E+00
  0.00000000E+00  0.00000000E+00  0.00000000E+00
  0.00000000E+00  0.00000000E+00  0.00000000E+00
  0.00000000E+00  0.00000000E+00  0.00000000E+00
  0.00000000E+00  0.00000000E+00  0.00000000E+00
  0.00000000E+00  0.00000000E+00  0.00000000E+00
  0.00000000E+00  0.00000000E+00  0.00000000E+00
  0.00000000E+00  0.00000000E+00  0.00000000E+00
  0.00000000E+00  0.00000000E+00  0.00000000E+00
  0.00000000E+00  0.00000000E+00  0.00000000E+00
  0.00000000E+00  0.00000000E+00  0.00000000E+00
  0.00000000E+00  0.00000000E+00  0.00000000E+00
  0.00000000E+00  0.00000000E+00  0.00000000E+00
  0.00000000E+00  0.00000000E+00  0.00000000E+00
  0.00000000E+00  0.00000000E+00  0.00000000E+00
  0.00000000E+00  0.00000000E+00  0.00000000E+00
