 Ta4 Se6                                
   1.00000000000000     
     3.3578011502808884    0.0000000000000000    0.0000000000000000
     0.0000000000000000    9.7955656234139212    0.0000000000000000
     0.0000000000000000    0.0000000000000000   18.6921250040219995
   Ta   Se
     4     6
Direct
  0.2500000017173747  0.5529071948422555  0.5002547936544204
  0.7500000004865441  0.3027699101802384  0.4996256571956437
  0.2499999987631085  0.8650143788716136  0.5504589892840244
  0.7499999992993409  0.9905901224033471  0.4496740230969962
  0.2500000018223858  0.3685188199672211  0.5991222783506061
  0.7500000038544883  0.4870499409443667  0.4007811222162303
  0.2499999977331484  0.1792804315604783  0.4048181239830058
  0.7499999989436503  0.6760177565371421  0.5951419654225703
  0.7499999981262135  0.0584809995952185  0.5843060671009255
  0.2499999992537454  0.7972044450981386  0.4158169796955704
 
  0.00000000E+00  0.00000000E+00  0.00000000E+00
  0.00000000E+00  0.00000000E+00  0.00000000E+00
  0.00000000E+00  0.00000000E+00  0.00000000E+00
  0.00000000E+00  0.00000000E+00  0.00000000E+00
  0.00000000E+00  0.00000000E+00  0.00000000E+00
  0.00000000E+00  0.00000000E+00  0.00000000E+00
  0.00000000E+00  0.00000000E+00  0.00000000E+00
  0.00000000E+00  0.00000000E+00  0.00000000E+00
  0.00000000E+00  0.00000000E+00  0.00000000E+00
  0.00000000E+00  0.00000000E+00  0.00000000E+00
