CONTCAR\(3)                             
   1.00000000000000     
    10.7180004120000003    0.0000000000000000    0.0000000000000000
     0.0000000000000000   11.1470003127999995    0.0000000000000000
     0.0000000000000000    0.0000000000000000   18.2015991210999992
   Os   Cl   O 
     9    18    10
Direct
  0.0000890570270720  0.0000032935806042  0.5009183821340918
  0.3331589073566310  0.0000056854904505  0.5004968441774887
  0.6670106987865564 -0.0000029123650889  0.5004929978766479
  0.0001137438470261  0.3333961950300286  0.5016130200421088
  0.3337880194456450  0.3333957196970900  0.5013531690994985
  0.6664244598418086  0.3333903900807691  0.5013706820424001
  0.0001129338294332  0.6666438999893901  0.5016127382749114
  0.3337871467316291  0.6666469713846692  0.5013454615306200
  0.6664211086931290  0.6666373461878707  0.5013621803759351
  0.1672095728295466  0.3336569473979635  0.5891895244021768
  0.1663332214414338  0.0000173097460170  0.4127687078899814
  0.5001033486139668  0.3300534599978113  0.5880374316188051
  0.5000558913609526  0.0000258943795529  0.4123834968631275
  0.8330339427027845  0.3336156891389190  0.5892049825636192
  0.8338817278795069  0.0000155008921538  0.4127687842766494
  0.1672168068307474  0.6663661871371694  0.5891849129251656
  0.1666106869633737  0.3339067326936749  0.4133421871806818
  0.5000936127471176  0.6699914599406329  0.5880213047821831
  0.5000997366970071  0.3333543484072444  0.4129421946838726
  0.8330229931913206  0.6663966732371832  0.5892009934945291
  0.8336015195174398  0.3338815843226469  0.4133533771815436
  0.1669397176875133  0.0000098240392465  0.5886928382308738
  0.1666102326621801  0.6661091321841086  0.4133381648238183
  0.5000709536927558  0.0000063154882832  0.5882847695802846
  0.5000942064060829  0.6666693284827264  0.4129405795138458
  0.8332161603025364  0.0000071508612843  0.5886966307565568
  0.8336074665574714  0.6661224271097586  0.4133511147613389
  0.0000963032560009  0.1667794330661268  0.5011114252873352
  0.3329823338522886  0.1664710916418253  0.5004922342498782
  0.6671919208676587  0.1664678213029679  0.5005000273362981
  0.0000925621474164  0.4999944207279149  0.5017341288020531
  0.3343124905828360  0.5000212405928576  0.5015540968031692
  0.6659188174630374  0.5000181783498449  0.5015820039492961
  0.0000931072605110  0.8332210390701658  0.5011104676424074
  0.3329744818703496  0.8335836153871937  0.5004835521220387
  0.6671934481591052  0.8335848711711906  0.5004883402235383
  0.4993866628981184  0.5000554781577834  0.6777767005012647
 
  0.00000000E+00  0.00000000E+00  0.00000000E+00
  0.00000000E+00  0.00000000E+00  0.00000000E+00
  0.00000000E+00  0.00000000E+00  0.00000000E+00
  0.00000000E+00  0.00000000E+00  0.00000000E+00
  0.00000000E+00  0.00000000E+00  0.00000000E+00
  0.00000000E+00  0.00000000E+00  0.00000000E+00
  0.00000000E+00  0.00000000E+00  0.00000000E+00
  0.00000000E+00  0.00000000E+00  0.00000000E+00
  0.00000000E+00  0.00000000E+00  0.00000000E+00
  0.00000000E+00  0.00000000E+00  0.00000000E+00
  0.00000000E+00  0.00000000E+00  0.00000000E+00
  0.00000000E+00  0.00000000E+00  0.00000000E+00
  0.00000000E+00  0.00000000E+00  0.00000000E+00
  0.00000000E+00  0.00000000E+00  0.00000000E+00
  0.00000000E+00  0.00000000E+00  0.00000000E+00
  0.00000000E+00  0.00000000E+00  0.00000000E+00
  0.00000000E+00  0.00000000E+00  0.00000000E+00
  0.00000000E+00  0.00000000E+00  0.00000000E+00
  0.00000000E+00  0.00000000E+00  0.00000000E+00
  0.00000000E+00  0.00000000E+00  0.00000000E+00
  0.00000000E+00  0.00000000E+00  0.00000000E+00
  0.00000000E+00  0.00000000E+00  0.00000000E+00
  0.00000000E+00  0.00000000E+00  0.00000000E+00
  0.00000000E+00  0.00000000E+00  0.00000000E+00
  0.00000000E+00  0.00000000E+00  0.00000000E+00
  0.00000000E+00  0.00000000E+00  0.00000000E+00
  0.00000000E+00  0.00000000E+00  0.00000000E+00
  0.00000000E+00  0.00000000E+00  0.00000000E+00
  0.00000000E+00  0.00000000E+00  0.00000000E+00
  0.00000000E+00  0.00000000E+00  0.00000000E+00
  0.00000000E+00  0.00000000E+00  0.00000000E+00
  0.00000000E+00  0.00000000E+00  0.00000000E+00
  0.00000000E+00  0.00000000E+00  0.00000000E+00
  0.00000000E+00  0.00000000E+00  0.00000000E+00
  0.00000000E+00  0.00000000E+00  0.00000000E+00
  0.00000000E+00  0.00000000E+00  0.00000000E+00
  0.00000000E+00  0.00000000E+00  0.00000000E+00
