CONTCAR\(3)                             
   1.00000000000000     
    15.2456998825000003    0.0000000000000000    0.0000000000000000
     7.6228095670000000   13.2074592144000000    0.0000000000000000
     0.0000000000000000    0.0000000000000000   19.0911998748999991
   Nb   I    O    H 
    12    32     2     1
Direct
  0.2011730705720305  0.3988585706046751  0.4879313151723010
  0.3986461239767850  0.3996450255083389  0.4876283816078632
  0.3977970917187540  0.2022832032274940  0.4879177735627090
  0.7003072903374733  0.3990126014005765  0.4878884559429336
  0.8981920818146989  0.3990256984684605  0.4880888085317944
  0.8978605591451059  0.2018443225527516  0.4878627497488546
  0.2007448174286203  0.8990466045572237  0.4877626080101988
  0.3978385230034199  0.8993927976521717  0.4879608156021413
  0.3978642752402207  0.7014911682374338  0.4876949342019016
  0.7007021656258994  0.8992191908691297  0.4880952315385601
  0.8980447424166395  0.8991413475281446  0.4880706246450224
  0.8980901926479905  0.7017306949628119  0.4881732899852114
  0.4985162792389206  0.2500714392471832  0.3879212233219916
  0.2492439918280587  0.2504455077436391  0.3879597303821703
  0.2491283058367816  0.4994734350987912  0.3879024686643363
  0.3289332133518682  0.0852967047597970  0.5682667249746258
  0.0835354976046576  0.0845435960799213  0.5684497637014110
  0.0838909822699581  0.3303583283115282  0.5686070219129180
  0.9990655130296802  0.4999694037441710  0.4113571051233824
  0.3332881637411550  0.3344160623069561  0.5996967689358497
  0.9985089437756702  0.2502753967697127  0.3882458880526559
  0.7496896305270392  0.2505468084382608  0.3873074139992026
  0.7493632855268869  0.4993148413822382  0.3881209561815190
  0.8288538941151826  0.0851691294556489  0.5681060565803276
  0.5835609993264137  0.0846797653985416  0.5686249073463211
  0.5843993339551831  0.3299957384058023  0.5671228740150998
  0.4991727671750968  0.5002134969075680  0.4106990782227432
  0.8321922476576084  0.3331161019759217  0.6000008963222916
  0.4985097860689996  0.7504735079919763  0.3881765141420637
  0.2493950755136404  0.7509445715636104  0.3871827812598864
  0.2491234611829390 -0.0003082555185609  0.3880494685445766
  0.3283553467645754  0.5857310524148182  0.5668009984472148
  0.0834892480131757  0.5845510288932318  0.5687295251320288
  0.0835438718053731  0.8306508168202491  0.5683600219594668
  0.9989980012313188  0.0000827541908463  0.4111533828643880
  0.3322835338319511  0.8329930087956198  0.5998524828695336
  0.9984264800611252  0.7502020380599291  0.3882538266234657
  0.7493406146366343  0.7503790914682152  0.3881079977170150
  0.7494048169586367 -0.0007424254120528  0.3880757176931401
  0.8287005684641162  0.5850019772367080  0.5682775624121271
  0.5832027730844339  0.5845366113285522  0.5683342907674849
  0.5834709376166691  0.8305813279969486  0.5684385273529363
  0.4990187989478013 -0.0000267292005267  0.4112389888626309
  0.8323300219352184  0.8333931861941432  0.6002199026782731
  0.4406870176039284  0.4330199314483342  0.7025436449852170
  0.4467137729658601  0.4105606574757240  0.7730430272631462
  0.4734909124258006  0.4516393496573797  0.7938573921390852
 
  0.00000000E+00  0.00000000E+00  0.00000000E+00
  0.00000000E+00  0.00000000E+00  0.00000000E+00
  0.00000000E+00  0.00000000E+00  0.00000000E+00
  0.00000000E+00  0.00000000E+00  0.00000000E+00
  0.00000000E+00  0.00000000E+00  0.00000000E+00
  0.00000000E+00  0.00000000E+00  0.00000000E+00
  0.00000000E+00  0.00000000E+00  0.00000000E+00
  0.00000000E+00  0.00000000E+00  0.00000000E+00
  0.00000000E+00  0.00000000E+00  0.00000000E+00
  0.00000000E+00  0.00000000E+00  0.00000000E+00
  0.00000000E+00  0.00000000E+00  0.00000000E+00
  0.00000000E+00  0.00000000E+00  0.00000000E+00
  0.00000000E+00  0.00000000E+00  0.00000000E+00
  0.00000000E+00  0.00000000E+00  0.00000000E+00
  0.00000000E+00  0.00000000E+00  0.00000000E+00
  0.00000000E+00  0.00000000E+00  0.00000000E+00
  0.00000000E+00  0.00000000E+00  0.00000000E+00
  0.00000000E+00  0.00000000E+00  0.00000000E+00
  0.00000000E+00  0.00000000E+00  0.00000000E+00
  0.00000000E+00  0.00000000E+00  0.00000000E+00
  0.00000000E+00  0.00000000E+00  0.00000000E+00
  0.00000000E+00  0.00000000E+00  0.00000000E+00
  0.00000000E+00  0.00000000E+00  0.00000000E+00
  0.00000000E+00  0.00000000E+00  0.00000000E+00
  0.00000000E+00  0.00000000E+00  0.00000000E+00
  0.00000000E+00  0.00000000E+00  0.00000000E+00
  0.00000000E+00  0.00000000E+00  0.00000000E+00
  0.00000000E+00  0.00000000E+00  0.00000000E+00
  0.00000000E+00  0.00000000E+00  0.00000000E+00
  0.00000000E+00  0.00000000E+00  0.00000000E+00
  0.00000000E+00  0.00000000E+00  0.00000000E+00
  0.00000000E+00  0.00000000E+00  0.00000000E+00
  0.00000000E+00  0.00000000E+00  0.00000000E+00
  0.00000000E+00  0.00000000E+00  0.00000000E+00
  0.00000000E+00  0.00000000E+00  0.00000000E+00
  0.00000000E+00  0.00000000E+00  0.00000000E+00
  0.00000000E+00  0.00000000E+00  0.00000000E+00
  0.00000000E+00  0.00000000E+00  0.00000000E+00
  0.00000000E+00  0.00000000E+00  0.00000000E+00
  0.00000000E+00  0.00000000E+00  0.00000000E+00
  0.00000000E+00  0.00000000E+00  0.00000000E+00
  0.00000000E+00  0.00000000E+00  0.00000000E+00
  0.00000000E+00  0.00000000E+00  0.00000000E+00
  0.00000000E+00  0.00000000E+00  0.00000000E+00
  0.00000000E+00  0.00000000E+00  0.00000000E+00
  0.00000000E+00  0.00000000E+00  0.00000000E+00
  0.00000000E+00  0.00000000E+00  0.00000000E+00
