CONTCAR\(2)                             
   1.00000000000000     
    13.3212995528999993    0.0000000000000000    0.0000000000000000
    -6.6606497764999997   11.5365838241999992    0.0000000000000000
     0.0000000000000000    0.0000000000000000   18.1305007935000013
   Ta   S    O    H 
    16    32     2     1
Direct
  0.1730529416214347  0.0844012751413678  0.5046298698355476
  0.4156611987484227  0.0848181198008123  0.5055352837160270
  0.6713983458478232  0.0858831885379094  0.5057066961311892
  0.9188859417721449  0.0859874602289127  0.5051931395875082
  0.1696280196845786  0.3353168192719096  0.5048741922417426
  0.4119729158008372  0.3198722577218024  0.5045768499187334
  0.6701854126910934  0.3351876494267286  0.5052034960826950
  0.9190448188456756  0.3333968775416030  0.5053254074455937
  0.1732001357333246  0.5888147742680114  0.5047330405862663
  0.4116321585761875  0.5925277341243941  0.5048430525016582
  0.6854316863292217  0.5930267030744490  0.5038354896661301
  0.9200422923338225  0.5891662334423008  0.5045350525703176
  0.1697504278335039  0.8351517595113490  0.5048470750252312
  0.4156109590131898  0.8310330436862292  0.5053710543309795
  0.6700329154620945  0.8354959756597856  0.5048264919137119
  0.9201085081033308  0.8314415759606647  0.5044459110342315
  0.0031534902167004  0.0012495735183518  0.5896446394550393
  0.0029635963142982  0.0018368102494049  0.4199221585705011
  0.2516408627276074  0.9997645555055121  0.5926300742354205
  0.2525756368024109  0.0001690771281544  0.4174844755254802
  0.5024038184238916  0.0013250482987184  0.5903468066815422
  0.5027566338974407  0.0015885712668460  0.4208357057367190
  0.7528695738145749  0.0010241043867587  0.5919425093146546
  0.7527719408386038  0.0019405372742934  0.4185689413256685
  0.0037461927026115  0.2520214676875334  0.5918475316782187
  0.0031253224848879  0.2518168184285178  0.4185168579226681
  0.2502259273834426  0.2501364776438946  0.5920439740573390
  0.2501832986491642  0.2506568975251137  0.4176086463094299
  0.5043550813830519  0.2511801233422892  0.5927815025013572
  0.5047674520892377  0.2506012505033204  0.4181316331755995
  0.7529533481610674  0.2522624778849042  0.5920725167339728
  0.7527690185117325  0.2515442364104747  0.4188575830070270
  0.0031633577313168  0.5023614853590335  0.5897017573031531
  0.0029035591957060  0.5015695823543463  0.4200464167103641
  0.2506187729649579  0.5005430878345052  0.5922466626465138
  0.2502908424059775  0.5001422764125268  0.4173587778630934
  0.5061501853566949  0.5028695499937309  0.5781048099903185
  0.5027124627582079  0.5018129713344740  0.4299375290578463
  0.7545419029672130  0.5010546755149149  0.5920453233369795
  0.7540436900087649  0.4995638614874610  0.4172249127214424
  0.0045994666195371  0.7525876013833809  0.5922173527886245
  0.0049600570261667  0.7526534596461585  0.4169668416118594
  0.2516579365314793  0.7522248550215614  0.5924921344223694
  0.2523131569062034  0.7526705488117276  0.4174677659604268
  0.5046400421000654  0.7538391784575237  0.5924213572579208
  0.5045293000181158  0.7543333199835105  0.4178035579587085
  0.7543497549044850  0.7540186058634482  0.5919105877276393
  0.7541317867576225  0.7549157209778803  0.4170716733004424
  0.5287882347078654  0.5117937554463341  0.6702923975996223
  0.4189144228773471  0.4531183108577471  0.7105096234612666
  0.4080213043648715  0.3745477048074001  0.7150524074632878
 
  0.00000000E+00  0.00000000E+00  0.00000000E+00
  0.00000000E+00  0.00000000E+00  0.00000000E+00
  0.00000000E+00  0.00000000E+00  0.00000000E+00
  0.00000000E+00  0.00000000E+00  0.00000000E+00
  0.00000000E+00  0.00000000E+00  0.00000000E+00
  0.00000000E+00  0.00000000E+00  0.00000000E+00
  0.00000000E+00  0.00000000E+00  0.00000000E+00
  0.00000000E+00  0.00000000E+00  0.00000000E+00
  0.00000000E+00  0.00000000E+00  0.00000000E+00
  0.00000000E+00  0.00000000E+00  0.00000000E+00
  0.00000000E+00  0.00000000E+00  0.00000000E+00
  0.00000000E+00  0.00000000E+00  0.00000000E+00
  0.00000000E+00  0.00000000E+00  0.00000000E+00
  0.00000000E+00  0.00000000E+00  0.00000000E+00
  0.00000000E+00  0.00000000E+00  0.00000000E+00
  0.00000000E+00  0.00000000E+00  0.00000000E+00
  0.00000000E+00  0.00000000E+00  0.00000000E+00
  0.00000000E+00  0.00000000E+00  0.00000000E+00
  0.00000000E+00  0.00000000E+00  0.00000000E+00
  0.00000000E+00  0.00000000E+00  0.00000000E+00
  0.00000000E+00  0.00000000E+00  0.00000000E+00
  0.00000000E+00  0.00000000E+00  0.00000000E+00
  0.00000000E+00  0.00000000E+00  0.00000000E+00
  0.00000000E+00  0.00000000E+00  0.00000000E+00
  0.00000000E+00  0.00000000E+00  0.00000000E+00
  0.00000000E+00  0.00000000E+00  0.00000000E+00
  0.00000000E+00  0.00000000E+00  0.00000000E+00
  0.00000000E+00  0.00000000E+00  0.00000000E+00
  0.00000000E+00  0.00000000E+00  0.00000000E+00
  0.00000000E+00  0.00000000E+00  0.00000000E+00
  0.00000000E+00  0.00000000E+00  0.00000000E+00
  0.00000000E+00  0.00000000E+00  0.00000000E+00
  0.00000000E+00  0.00000000E+00  0.00000000E+00
  0.00000000E+00  0.00000000E+00  0.00000000E+00
  0.00000000E+00  0.00000000E+00  0.00000000E+00
  0.00000000E+00  0.00000000E+00  0.00000000E+00
  0.00000000E+00  0.00000000E+00  0.00000000E+00
  0.00000000E+00  0.00000000E+00  0.00000000E+00
  0.00000000E+00  0.00000000E+00  0.00000000E+00
  0.00000000E+00  0.00000000E+00  0.00000000E+00
  0.00000000E+00  0.00000000E+00  0.00000000E+00
  0.00000000E+00  0.00000000E+00  0.00000000E+00
  0.00000000E+00  0.00000000E+00  0.00000000E+00
  0.00000000E+00  0.00000000E+00  0.00000000E+00
  0.00000000E+00  0.00000000E+00  0.00000000E+00
  0.00000000E+00  0.00000000E+00  0.00000000E+00
  0.00000000E+00  0.00000000E+00  0.00000000E+00
  0.00000000E+00  0.00000000E+00  0.00000000E+00
  0.00000000E+00  0.00000000E+00  0.00000000E+00
  0.00000000E+00  0.00000000E+00  0.00000000E+00
  0.00000000E+00  0.00000000E+00  0.00000000E+00
