CONTCAR\(12)                            
   1.00000000000000     
    14.4757995605000005    0.0000000000000000    0.0000000000000000
     7.2285261864999999   12.5388166469000009    0.0000000000000000
     0.0000000000000000    0.0000000000000000   18.6821994780999994
   Nb   Te
    16    32
Direct
  0.0000000000000000 -0.0000000000000000  0.5000000000000000
  0.2500000000000000  0.0000000000000000  0.5000000000000000
  0.5000000000000000  0.0000000000000000  0.5000000000000000
  0.7500000000000000 -0.0000000000000000  0.5000000000000000
  0.0000000009999965  0.2499999959999997  0.5000000000000000
  0.2500000169999979  0.2499999959999997  0.5000000000000000
  0.5000000169999979  0.2499999959999997  0.5000000000000000
  0.7500000169999979  0.2499999959999997  0.5000000000000000
  0.0000000009999965  0.4999999919999993  0.5000000000000000
  0.2500000009999965  0.4999999919999993  0.5000000000000000
  0.5000000340000028  0.4999999919999993  0.5000000000000000
  0.7500000340000028  0.4999999919999993  0.5000000000000000
  0.0000000049999969  0.7499999500000030  0.5000000000000000
  0.2500000049999969  0.7499999500000030  0.5000000000000000
  0.5000000049999969  0.7499999500000030  0.5000000000000000
  0.7500000049999969  0.7499999500000030  0.5000000000000000
  0.0834192277452642  0.0833404527659797  0.3997523958135504
  0.1665807842547368  0.1666595522340171  0.6002475781864475
  0.3334192277452642  0.0833404527659797  0.3997523958135504
  0.4165807512547376  0.1666595522340171  0.6002475781864475
  0.5834192277452642  0.0833404527659797  0.3997523958135504
  0.6665807842547368  0.1666595522340171  0.6002475781864475
  0.8334192277452642  0.0833404527659797  0.3997523958135504
  0.9165807842547368  0.1666595522340171  0.6002475781864475
  0.0834192337452647  0.3333404397659822  0.3997523958135504
  0.1665807682547355  0.4166595482340168  0.6002475781864475
  0.3334192497452660  0.3333404397659822  0.3997523958135504
  0.4165807352547363  0.4166595482340168  0.6002475781864475
  0.5834192497452660  0.3333404397659822  0.3997523958135504
  0.6665807352547363  0.4166595482340168  0.6002475781864475
  0.8334192497452660  0.3333404397659822  0.3997523958135504
  0.9165807352547363  0.4166595482340168  0.6002475781864475
  0.0834192197452635  0.5833403977659788  0.3997523958135504
  0.1665808192547361  0.6666595442340164  0.6002475781864475
  0.3334192197452636  0.5833403977659788  0.3997523958135504
  0.4165808192547361  0.6666595442340164  0.6002475781864475
  0.5834192197452636  0.5833403977659788  0.3997523958135504
  0.6665808192547361  0.6666595442340164  0.6002475781864475
  0.8334192197452636  0.5833403977659788  0.3997523958135504
  0.9165808192547361  0.6666595442340164  0.6002475781864475
  0.0834192187452599  0.8333404317659816  0.3997523958135504
  0.1665807512547376  0.9166595792340158  0.6002475781864475
  0.3334192187452599  0.8333404317659816  0.3997523958135504
  0.4165807512547376  0.9166595792340158  0.6002475781864475
  0.5834192187452599  0.8333404317659816  0.3997523958135504
  0.6665807512547376  0.9166595792340158  0.6002475781864475
  0.8334192847452654  0.8333404317659816  0.3997523958135504
  0.9165807512547376  0.9166595792340158  0.6002475781864475
 
  0.00000000E+00  0.00000000E+00  0.00000000E+00
  0.00000000E+00  0.00000000E+00  0.00000000E+00
  0.00000000E+00  0.00000000E+00  0.00000000E+00
  0.00000000E+00  0.00000000E+00  0.00000000E+00
  0.00000000E+00  0.00000000E+00  0.00000000E+00
  0.00000000E+00  0.00000000E+00  0.00000000E+00
  0.00000000E+00  0.00000000E+00  0.00000000E+00
  0.00000000E+00  0.00000000E+00  0.00000000E+00
  0.00000000E+00  0.00000000E+00  0.00000000E+00
  0.00000000E+00  0.00000000E+00  0.00000000E+00
  0.00000000E+00  0.00000000E+00  0.00000000E+00
  0.00000000E+00  0.00000000E+00  0.00000000E+00
  0.00000000E+00  0.00000000E+00  0.00000000E+00
  0.00000000E+00  0.00000000E+00  0.00000000E+00
  0.00000000E+00  0.00000000E+00  0.00000000E+00
  0.00000000E+00  0.00000000E+00  0.00000000E+00
  0.00000000E+00  0.00000000E+00  0.00000000E+00
  0.00000000E+00  0.00000000E+00  0.00000000E+00
  0.00000000E+00  0.00000000E+00  0.00000000E+00
  0.00000000E+00  0.00000000E+00  0.00000000E+00
  0.00000000E+00  0.00000000E+00  0.00000000E+00
  0.00000000E+00  0.00000000E+00  0.00000000E+00
  0.00000000E+00  0.00000000E+00  0.00000000E+00
  0.00000000E+00  0.00000000E+00  0.00000000E+00
  0.00000000E+00  0.00000000E+00  0.00000000E+00
  0.00000000E+00  0.00000000E+00  0.00000000E+00
  0.00000000E+00  0.00000000E+00  0.00000000E+00
  0.00000000E+00  0.00000000E+00  0.00000000E+00
  0.00000000E+00  0.00000000E+00  0.00000000E+00
  0.00000000E+00  0.00000000E+00  0.00000000E+00
  0.00000000E+00  0.00000000E+00  0.00000000E+00
  0.00000000E+00  0.00000000E+00  0.00000000E+00
  0.00000000E+00  0.00000000E+00  0.00000000E+00
  0.00000000E+00  0.00000000E+00  0.00000000E+00
  0.00000000E+00  0.00000000E+00  0.00000000E+00
  0.00000000E+00  0.00000000E+00  0.00000000E+00
  0.00000000E+00  0.00000000E+00  0.00000000E+00
  0.00000000E+00  0.00000000E+00  0.00000000E+00
  0.00000000E+00  0.00000000E+00  0.00000000E+00
  0.00000000E+00  0.00000000E+00  0.00000000E+00
  0.00000000E+00  0.00000000E+00  0.00000000E+00
  0.00000000E+00  0.00000000E+00  0.00000000E+00
  0.00000000E+00  0.00000000E+00  0.00000000E+00
  0.00000000E+00  0.00000000E+00  0.00000000E+00
  0.00000000E+00  0.00000000E+00  0.00000000E+00
  0.00000000E+00  0.00000000E+00  0.00000000E+00
  0.00000000E+00  0.00000000E+00  0.00000000E+00
  0.00000000E+00  0.00000000E+00  0.00000000E+00
