CONTCAR\(3)                             
   1.00000000000000     
    11.2229003905999996    0.0000000000000000    0.0000000000000000
    -5.6095795793000001    9.7230512306999994    0.0000000000000000
     0.0000000000000000    0.0000000000000000   22.2192001342999994
   Er   Re   O 
     4     8    32
Direct
  0.4998012311231670  0.4998875299302158  0.5000980063394140
  0.9998012521231654  0.4998875299302158  0.5000980063394140
  0.4998012521231652  0.9998875709302153  0.5000980063394140
  0.9998012521231654  0.9998875709302153  0.5000980063394140
  0.3339322653748065  0.1658958753038658  0.5885423606769874
  0.1657067464004003  0.3338564906603507  0.4114409746301339
  0.8339322653748066  0.1658958753038658  0.5885423606769874
  0.6657067144004047  0.3338564906603507  0.4114409746301339
  0.3339322743748108  0.6658958923038636  0.5885423606769874
  0.1657067624004016  0.8338564576603517  0.4114409746301339
  0.8339322103748056  0.6658958923038636  0.5885423606769874
  0.6657067204004052  0.8338564576603517  0.4114409746301339
  0.3617122457753930  0.3270986800893160  0.5598597048272493
  0.0314916796333967  0.3610158318716101  0.4396258369312828
  0.3259639650234055  0.4664825497932452  0.4412624086892816
  0.3311869408730772  0.1647958098830804  0.6661649959588377
  0.1682085155477860  0.3346790344993413  0.3338134945273036
  0.1739085563596826  0.0330043564635395  0.5586461796749953
  0.4685738502392525  0.1393399412949791  0.5603772536203333
  0.1375040516496239  0.1725638472104506  0.4402087661241780
  0.8617122887753931  0.3270986800893160  0.5598597048272493
  0.5314916796333965  0.3610158318716101  0.4396258369312828
  0.8259639220234053  0.4664825497932452  0.4412624086892816
  0.8311868988730737  0.1647958098830804  0.6661649959588377
  0.6682085255477868  0.3346790344993413  0.3338134945273036
  0.6739085353596843  0.0330043564635395  0.5586461796749953
  0.9685738072392527  0.1393399412949791  0.5603772536203333
  0.6375040516496239  0.1725638472104506  0.4402087661241780
  0.3617122887753930  0.8270987210893158  0.5598597048272493
  0.0314916546333982  0.8610158238716094  0.4396258369312828
  0.3259639650234055  0.9664825907932449  0.4412624086892816
  0.3311869378730734  0.6647958018830796  0.6661649959588377
  0.1682085185477898  0.8346789774993405  0.3338134945273036
  0.1739085593596864  0.5330043604635398  0.5586461796749953
  0.4685738402392516  0.6393399202949811  0.5603772536203333
  0.1375040296496221  0.6725638022104504  0.4402087661241780
  0.8617123307753966  0.8270987210893158  0.5598597048272493
  0.5314916546333980  0.8610158238716094  0.4396258369312828
  0.8259639220234053  0.9664825907932449  0.4412624086892816
  0.8311868738730752  0.6647958018830796  0.6661649959588377
  0.6682085185477897  0.8346789774993405  0.3338134945273036
  0.6739085593596792  0.5330043604635398  0.5586461796749953
  0.9685738192392537  0.6393399202949811  0.5603772536203333
  0.6375040296496221  0.6725638022104504  0.4402087661241780
 
  0.00000000E+00  0.00000000E+00  0.00000000E+00
  0.00000000E+00  0.00000000E+00  0.00000000E+00
  0.00000000E+00  0.00000000E+00  0.00000000E+00
  0.00000000E+00  0.00000000E+00  0.00000000E+00
  0.00000000E+00  0.00000000E+00  0.00000000E+00
  0.00000000E+00  0.00000000E+00  0.00000000E+00
  0.00000000E+00  0.00000000E+00  0.00000000E+00
  0.00000000E+00  0.00000000E+00  0.00000000E+00
  0.00000000E+00  0.00000000E+00  0.00000000E+00
  0.00000000E+00  0.00000000E+00  0.00000000E+00
  0.00000000E+00  0.00000000E+00  0.00000000E+00
  0.00000000E+00  0.00000000E+00  0.00000000E+00
  0.00000000E+00  0.00000000E+00  0.00000000E+00
  0.00000000E+00  0.00000000E+00  0.00000000E+00
  0.00000000E+00  0.00000000E+00  0.00000000E+00
  0.00000000E+00  0.00000000E+00  0.00000000E+00
  0.00000000E+00  0.00000000E+00  0.00000000E+00
  0.00000000E+00  0.00000000E+00  0.00000000E+00
  0.00000000E+00  0.00000000E+00  0.00000000E+00
  0.00000000E+00  0.00000000E+00  0.00000000E+00
  0.00000000E+00  0.00000000E+00  0.00000000E+00
  0.00000000E+00  0.00000000E+00  0.00000000E+00
  0.00000000E+00  0.00000000E+00  0.00000000E+00
  0.00000000E+00  0.00000000E+00  0.00000000E+00
  0.00000000E+00  0.00000000E+00  0.00000000E+00
  0.00000000E+00  0.00000000E+00  0.00000000E+00
  0.00000000E+00  0.00000000E+00  0.00000000E+00
  0.00000000E+00  0.00000000E+00  0.00000000E+00
  0.00000000E+00  0.00000000E+00  0.00000000E+00
  0.00000000E+00  0.00000000E+00  0.00000000E+00
  0.00000000E+00  0.00000000E+00  0.00000000E+00
  0.00000000E+00  0.00000000E+00  0.00000000E+00
  0.00000000E+00  0.00000000E+00  0.00000000E+00
  0.00000000E+00  0.00000000E+00  0.00000000E+00
  0.00000000E+00  0.00000000E+00  0.00000000E+00
  0.00000000E+00  0.00000000E+00  0.00000000E+00
  0.00000000E+00  0.00000000E+00  0.00000000E+00
  0.00000000E+00  0.00000000E+00  0.00000000E+00
  0.00000000E+00  0.00000000E+00  0.00000000E+00
  0.00000000E+00  0.00000000E+00  0.00000000E+00
  0.00000000E+00  0.00000000E+00  0.00000000E+00
  0.00000000E+00  0.00000000E+00  0.00000000E+00
  0.00000000E+00  0.00000000E+00  0.00000000E+00
  0.00000000E+00  0.00000000E+00  0.00000000E+00
