CONTCAR                                 
   1.00000000000000     
    10.1990995407000007    0.0000000000000000    0.0000000000000000
     0.0000000000000000   15.1191997528000002    0.0000000000000000
     0.0000000000000000    0.0000000000000000   19.1068992615000006
   Ta   Ni   S 
    12     6    30
Direct
  0.0000000000000000  0.3579181245408012  0.5191859117780991
  0.1666699900000026  0.1420818594591975  0.4808140882219009
  0.1666699900000026  0.8579181565408038  0.4808140882219009
  0.0000000000000000  0.6420818434591962  0.5191859117780991
  0.3333299980000035  0.3579181245408012  0.5191859117780991
  0.5000000000000000  0.1420818594591975  0.4808140882219009
  0.5000000000000000  0.8579181565408038  0.4808140882219009
  0.3333299980000035  0.6420818434591962  0.5191859117780991
  0.6666700020000036  0.3579181245408012  0.5191859117780991
  0.8333299519999997  0.1420818594591975  0.4808140882219009
  0.8333299519999997  0.8579181565408038  0.4808140882219009
  0.6666700020000036  0.6420818434591962  0.5191859117780991
  0.0000000000000000  0.0000000000000000  0.4653485193664886
  0.1666699900000026  0.5000000000000000  0.5346514806335114
  0.3333299980000035  0.0000000000000000  0.4653485193664886
  0.5000000000000000  0.5000000000000000  0.5346514806335114
  0.6666700020000036  0.0000000000000000  0.4653485193664886
  0.8333299519999997  0.5000000000000000  0.5346514806335114
  0.1666699900000026  0.0000000000000000  0.5431140323031541
  0.0000000000000000  0.5000000000000000  0.4568859676968458
  0.0000000000000000  0.1991859882638344  0.5654379696810827
  0.1666699900000026  0.3008140277361670  0.4345620303189173
  0.1666699900000026  0.6991859722638331  0.4345620303189173
  0.0000000000000000  0.8008140277361669  0.5654379696810827
  0.1666699900000026  0.6140007964422592  0.6078331354533024
  0.0000000000000000  0.8859891745577458  0.3921669145467017
  0.0000000000000000  0.1140107864422545  0.3921669145467017
  0.1666699900000026  0.3859892055577448  0.6078331354533024
  0.5000000000000000  0.0000000000000000  0.5431140323031541
  0.3333299980000035  0.5000000000000000  0.4568859676968458
  0.3333299980000035  0.1991859882638344  0.5654379696810827
  0.5000000000000000  0.3008140277361670  0.4345620303189173
  0.5000000000000000  0.6991859722638331  0.4345620303189173
  0.3333299980000035  0.8008140277361669  0.5654379696810827
  0.5000000000000000  0.6140007964422592  0.6078331354533024
  0.3333299980000035  0.8859891745577458  0.3921669145467017
  0.3333299980000035  0.1140107864422545  0.3921669145467017
  0.5000000000000000  0.3859892055577448  0.6078331354533024
  0.8333299519999997  0.0000000000000000  0.5431140323031541
  0.6666700020000036  0.5000000000000000  0.4568859676968458
  0.6666700020000036  0.1991859882638344  0.5654379696810827
  0.8333299519999997  0.3008140277361670  0.4345620303189173
  0.8333299519999997  0.6991859722638331  0.4345620303189173
  0.6666700020000036  0.8008140277361669  0.5654379696810827
  0.8333299519999997  0.6140007964422592  0.6078331354533024
  0.6666700020000036  0.8859891745577458  0.3921669145467017
  0.6666700020000036  0.1140107864422545  0.3921669145467017
  0.8333299519999997  0.3859892055577448  0.6078331354533024
 
  0.00000000E+00  0.00000000E+00  0.00000000E+00
  0.00000000E+00  0.00000000E+00  0.00000000E+00
  0.00000000E+00  0.00000000E+00  0.00000000E+00
  0.00000000E+00  0.00000000E+00  0.00000000E+00
  0.00000000E+00  0.00000000E+00  0.00000000E+00
  0.00000000E+00  0.00000000E+00  0.00000000E+00
  0.00000000E+00  0.00000000E+00  0.00000000E+00
  0.00000000E+00  0.00000000E+00  0.00000000E+00
  0.00000000E+00  0.00000000E+00  0.00000000E+00
  0.00000000E+00  0.00000000E+00  0.00000000E+00
  0.00000000E+00  0.00000000E+00  0.00000000E+00
  0.00000000E+00  0.00000000E+00  0.00000000E+00
  0.00000000E+00  0.00000000E+00  0.00000000E+00
  0.00000000E+00  0.00000000E+00  0.00000000E+00
  0.00000000E+00  0.00000000E+00  0.00000000E+00
  0.00000000E+00  0.00000000E+00  0.00000000E+00
  0.00000000E+00  0.00000000E+00  0.00000000E+00
  0.00000000E+00  0.00000000E+00  0.00000000E+00
  0.00000000E+00  0.00000000E+00  0.00000000E+00
  0.00000000E+00  0.00000000E+00  0.00000000E+00
  0.00000000E+00  0.00000000E+00  0.00000000E+00
  0.00000000E+00  0.00000000E+00  0.00000000E+00
  0.00000000E+00  0.00000000E+00  0.00000000E+00
  0.00000000E+00  0.00000000E+00  0.00000000E+00
  0.00000000E+00  0.00000000E+00  0.00000000E+00
  0.00000000E+00  0.00000000E+00  0.00000000E+00
  0.00000000E+00  0.00000000E+00  0.00000000E+00
  0.00000000E+00  0.00000000E+00  0.00000000E+00
  0.00000000E+00  0.00000000E+00  0.00000000E+00
  0.00000000E+00  0.00000000E+00  0.00000000E+00
  0.00000000E+00  0.00000000E+00  0.00000000E+00
  0.00000000E+00  0.00000000E+00  0.00000000E+00
  0.00000000E+00  0.00000000E+00  0.00000000E+00
  0.00000000E+00  0.00000000E+00  0.00000000E+00
  0.00000000E+00  0.00000000E+00  0.00000000E+00
  0.00000000E+00  0.00000000E+00  0.00000000E+00
  0.00000000E+00  0.00000000E+00  0.00000000E+00
  0.00000000E+00  0.00000000E+00  0.00000000E+00
  0.00000000E+00  0.00000000E+00  0.00000000E+00
  0.00000000E+00  0.00000000E+00  0.00000000E+00
  0.00000000E+00  0.00000000E+00  0.00000000E+00
  0.00000000E+00  0.00000000E+00  0.00000000E+00
  0.00000000E+00  0.00000000E+00  0.00000000E+00
  0.00000000E+00  0.00000000E+00  0.00000000E+00
  0.00000000E+00  0.00000000E+00  0.00000000E+00
  0.00000000E+00  0.00000000E+00  0.00000000E+00
  0.00000000E+00  0.00000000E+00  0.00000000E+00
  0.00000000E+00  0.00000000E+00  0.00000000E+00
