CONTCAR\(3)                             
   1.00000000000000     
    13.6462001800999992    0.0000000000000000    0.0000000000000000
     1.7063387634000000   10.2396006658999994    0.0000000000000000
     0.0000000000000000    0.0000000000000000   19.9377994536999985
   Ta   Te   O    H 
    16    24     2     1
Direct
  0.1368403312560602  0.8629781400616849  0.4964910243943521
  0.1002498722702114  0.1594333771871916  0.5132463572081960
  0.1913927434052027  0.4016945176908493  0.5229429546687641
  0.0421213859755127  0.6200366556963743  0.4821685614930757
  0.3867978880014107  0.8632773318870832  0.4974815745975008
  0.3495837908845800  0.1622168610399868  0.5163004218735594
  0.4447891184455770  0.4003535371899858  0.5300361551378643
  0.2930406472539815  0.6180228102082808  0.4849317545665883
  0.6375974581689761  0.8633076430800557  0.4964657414702671
  0.6008132651296236  0.1588544317956391  0.5147039620757994
  0.6958146208476705  0.4027498447380182  0.5268563769411330
  0.5420646867285299  0.6200804886851330  0.4837564524467268
  0.8867316066084214  0.8633926072889295  0.4958333400015675
  0.8505362633299285  0.1596515368032030  0.5132816186262019
  0.9433303355209972  0.4017380065574585  0.5254891094893566
  0.7915740963971558  0.6204187511207522  0.4820240414317496
  0.1612563247948771  0.6575075153499483  0.5923426625286012
  0.0734956720585203  0.3628580058249469  0.4149667477557983
  0.1579688204555509  0.7092079718368609  0.3804347033353679
  0.0832031117041225  0.3162683357123512  0.6289393305548430
  0.9959542547064757  0.9913892441888095  0.5921439474395669
  0.2419085634903126  0.0321935581000616  0.4188625984970145
  0.4126581856141698  0.6591087279096328  0.5937294090279366
  0.3274624424096473  0.3631765275729038  0.4176157697732634
  0.4055720308605899  0.7090523406487819  0.3810528279143739
  0.3342514722020056  0.3102483068646009  0.6350423045433047
  0.2449098078788126  0.9919343402240486  0.5932614662732618
  0.4902032084315451  0.0326983277684789  0.4192020078764429
  0.6630170539011218  0.6596844322583451  0.5923814331844568
  0.5738841763996376  0.3631092425704168  0.4192449974103454
  0.6544728582164225  0.7103312610523034  0.3797070537804430
  0.5857501616993233  0.3106303506107295  0.6311750332369783
  0.4966864774518243  0.9898007144305296  0.5925579747859544
  0.7408062844654921  0.0314142551840675  0.4175180691206606
  0.9119056207238856  0.6584084208562473  0.5913245887733893
  0.8236841653955693  0.3625399200492438  0.4163198510974127
  0.9060106643467307  0.7099131545965207  0.3790262110483127
  0.8326935734245140  0.3135718564261794  0.6299499312271166
  0.7469997711877667  0.9908913176814451  0.5925853307445692
  0.9915287868968505  0.0302535187743516  0.4174996975018104
  0.4426981062211013  0.2119796163261825  0.7136280636302246
  0.4030883996735497  0.1116165752196423  0.7488074995885441
  0.4298016921657393  0.0332370149317924  0.7222211589272831
 
  0.00000000E+00  0.00000000E+00  0.00000000E+00
  0.00000000E+00  0.00000000E+00  0.00000000E+00
  0.00000000E+00  0.00000000E+00  0.00000000E+00
  0.00000000E+00  0.00000000E+00  0.00000000E+00
  0.00000000E+00  0.00000000E+00  0.00000000E+00
  0.00000000E+00  0.00000000E+00  0.00000000E+00
  0.00000000E+00  0.00000000E+00  0.00000000E+00
  0.00000000E+00  0.00000000E+00  0.00000000E+00
  0.00000000E+00  0.00000000E+00  0.00000000E+00
  0.00000000E+00  0.00000000E+00  0.00000000E+00
  0.00000000E+00  0.00000000E+00  0.00000000E+00
  0.00000000E+00  0.00000000E+00  0.00000000E+00
  0.00000000E+00  0.00000000E+00  0.00000000E+00
  0.00000000E+00  0.00000000E+00  0.00000000E+00
  0.00000000E+00  0.00000000E+00  0.00000000E+00
  0.00000000E+00  0.00000000E+00  0.00000000E+00
  0.00000000E+00  0.00000000E+00  0.00000000E+00
  0.00000000E+00  0.00000000E+00  0.00000000E+00
  0.00000000E+00  0.00000000E+00  0.00000000E+00
  0.00000000E+00  0.00000000E+00  0.00000000E+00
  0.00000000E+00  0.00000000E+00  0.00000000E+00
  0.00000000E+00  0.00000000E+00  0.00000000E+00
  0.00000000E+00  0.00000000E+00  0.00000000E+00
  0.00000000E+00  0.00000000E+00  0.00000000E+00
  0.00000000E+00  0.00000000E+00  0.00000000E+00
  0.00000000E+00  0.00000000E+00  0.00000000E+00
  0.00000000E+00  0.00000000E+00  0.00000000E+00
  0.00000000E+00  0.00000000E+00  0.00000000E+00
  0.00000000E+00  0.00000000E+00  0.00000000E+00
  0.00000000E+00  0.00000000E+00  0.00000000E+00
  0.00000000E+00  0.00000000E+00  0.00000000E+00
  0.00000000E+00  0.00000000E+00  0.00000000E+00
  0.00000000E+00  0.00000000E+00  0.00000000E+00
  0.00000000E+00  0.00000000E+00  0.00000000E+00
  0.00000000E+00  0.00000000E+00  0.00000000E+00
  0.00000000E+00  0.00000000E+00  0.00000000E+00
  0.00000000E+00  0.00000000E+00  0.00000000E+00
  0.00000000E+00  0.00000000E+00  0.00000000E+00
  0.00000000E+00  0.00000000E+00  0.00000000E+00
  0.00000000E+00  0.00000000E+00  0.00000000E+00
  0.00000000E+00  0.00000000E+00  0.00000000E+00
  0.00000000E+00  0.00000000E+00  0.00000000E+00
  0.00000000E+00  0.00000000E+00  0.00000000E+00
