CONTCAR\(12)                            
   1.00000000000000     
    11.5354003905999996    0.0000000000000000    0.0000000000000000
     0.0000000000000000   13.3458003997999999    0.0000000000000000
     0.0000000000000000    0.0000000000000000   18.6074008942000013
   Zr   Ti   Te   O    H 
     6     6    24     1     1
Direct
  0.1539447686441082  0.2445754446312358  0.5008379845209442
  0.4906661520998969  0.2486313970507363  0.4995055065956056
  0.8277988666594580  0.2443180790058582  0.5008225398888756
  0.1573284022650525  0.7466565520033402  0.4999444989064089
  0.4901810058854471  0.7700868361915690  0.4949427079036106
  0.8237162927541104  0.7465226037592645  0.4999687314584770
  0.9905672437584687  0.9927640093094051  0.5005131328316959
  0.3216784398881875  0.0032960185673242  0.4995894137073937
  0.6594833235106652  0.0036081252970073  0.4997878274118662
  0.9912710387584811  0.4962691980581733  0.4998495190751125
  0.3005970456765935  0.4865809831009782  0.4983371480976024
  0.6808278789120640  0.4865269803728436  0.4978363784058902
  0.1586884941443681  0.0736410655448469  0.5956404043899003
  0.1511057716238624  0.4130243434328898  0.4009402108739587
  0.9907990295595538  0.3320069958279905  0.5989095520957425
  0.9908695370161917  0.1579152660226132  0.4023807857356495
  0.4906522861009185  0.0779910649361176  0.5941105848259496
  0.4908350585077584  0.4248108912099600  0.4108539943545698
  0.3224903564593801  0.3355744128385189  0.5979226734557274
  0.3237169863168141  0.1608039409987138  0.4020433164993658
  0.8227435517724070  0.0737462615017194  0.5957583582806255
  0.8306774042998324  0.4128231663958711  0.4009706866130180
  0.6588978983956859  0.3358317371461859  0.5975736859758315
  0.6576052792857036  0.1608231095176494  0.4021116431776975
  0.1544220568092055  0.5749566941832233  0.5958840247844777
  0.1563533552991819  0.9198480105259443  0.4055944231182682
  0.9905112926542194  0.8358410421953095  0.5983477146717798
  0.9906695764334599  0.6567879977184783  0.4026949562813311
  0.4895165240666961  0.5733382033154412  0.5663620557870613
  0.4907535888151126  0.9301282683388490  0.3998345462426844
  0.3240792333450159  0.8358700633235722  0.5971306845802788
  0.3244652441787564  0.6588452005407764  0.4062374383907008
  0.8275490601176749  0.5747017751376832  0.5957369428231676
  0.8246880199772813  0.9199094821563761  0.4057829900436685
  0.6571244230934963  0.8358522099756845  0.5972413641633436
  0.6563212939160098  0.6587923683007627  0.4064434980202556
  0.4800028131630282  0.5691003014701719  0.6744970713134859
  0.5247314648358715  0.6261000660969016  0.6925810236979566
 
  0.00000000E+00  0.00000000E+00  0.00000000E+00
  0.00000000E+00  0.00000000E+00  0.00000000E+00
  0.00000000E+00  0.00000000E+00  0.00000000E+00
  0.00000000E+00  0.00000000E+00  0.00000000E+00
  0.00000000E+00  0.00000000E+00  0.00000000E+00
  0.00000000E+00  0.00000000E+00  0.00000000E+00
  0.00000000E+00  0.00000000E+00  0.00000000E+00
  0.00000000E+00  0.00000000E+00  0.00000000E+00
  0.00000000E+00  0.00000000E+00  0.00000000E+00
  0.00000000E+00  0.00000000E+00  0.00000000E+00
  0.00000000E+00  0.00000000E+00  0.00000000E+00
  0.00000000E+00  0.00000000E+00  0.00000000E+00
  0.00000000E+00  0.00000000E+00  0.00000000E+00
  0.00000000E+00  0.00000000E+00  0.00000000E+00
  0.00000000E+00  0.00000000E+00  0.00000000E+00
  0.00000000E+00  0.00000000E+00  0.00000000E+00
  0.00000000E+00  0.00000000E+00  0.00000000E+00
  0.00000000E+00  0.00000000E+00  0.00000000E+00
  0.00000000E+00  0.00000000E+00  0.00000000E+00
  0.00000000E+00  0.00000000E+00  0.00000000E+00
  0.00000000E+00  0.00000000E+00  0.00000000E+00
  0.00000000E+00  0.00000000E+00  0.00000000E+00
  0.00000000E+00  0.00000000E+00  0.00000000E+00
  0.00000000E+00  0.00000000E+00  0.00000000E+00
  0.00000000E+00  0.00000000E+00  0.00000000E+00
  0.00000000E+00  0.00000000E+00  0.00000000E+00
  0.00000000E+00  0.00000000E+00  0.00000000E+00
  0.00000000E+00  0.00000000E+00  0.00000000E+00
  0.00000000E+00  0.00000000E+00  0.00000000E+00
  0.00000000E+00  0.00000000E+00  0.00000000E+00
  0.00000000E+00  0.00000000E+00  0.00000000E+00
  0.00000000E+00  0.00000000E+00  0.00000000E+00
  0.00000000E+00  0.00000000E+00  0.00000000E+00
  0.00000000E+00  0.00000000E+00  0.00000000E+00
  0.00000000E+00  0.00000000E+00  0.00000000E+00
  0.00000000E+00  0.00000000E+00  0.00000000E+00
  0.00000000E+00  0.00000000E+00  0.00000000E+00
  0.00000000E+00  0.00000000E+00  0.00000000E+00
