CONTCAR\(2)                             
   1.00000000000000     
    11.0214996337999995    0.0000000000000000    0.0000000000000000
     0.0000000000000000   14.9139995575000004    0.0000000000000000
     0.0000000000000000    0.0000000000000000   19.5716991425000018
   Nb   Ni   Te   O 
     6     6    30     1
Direct
  0.0001268343734944  0.2516890448567216  0.4965874336151346
  0.9993130711345413  0.7532290076710487  0.5055977778494370
  0.3332859649555164  0.2520010796587590  0.4973382653712587
  0.3332584271811559  0.7540032209982913  0.5083894424163971
  0.6665222044534149  0.2518700713507590  0.4966794548260944
  0.6672277994307879  0.7534438071983738  0.5055838554147365
  0.1671423087022104  0.0027546718673229  0.5005107969563186
  0.1626188792804465  0.5001185061174070  0.5022852972515800
  0.4996759023114918  0.0034276764820772  0.5013175807136885
  0.5036505280916928  0.5007492005342555  0.5015500920686292
  0.8334184511697363  0.0028474857388745  0.4996941278354233
  0.8332872508725403  0.5026985437751842  0.5016035580315452
  0.0005836924824122  0.0787379460656275  0.4278311739848217
  0.9992694354143099  0.9274494792353863  0.5725394670518533
  0.9997904851025297  0.5799614684012770  0.5742628887850847
  0.9984898167022808  0.4249769656135881  0.4285966824578505
  0.1672938183819569  0.2523763361769490  0.3850637403390225
  0.1639192225876646  0.7558374140507387  0.6179952978471159
  0.1677499696709454  0.8581104575652172  0.4285526880070680
  0.1666701163553374  0.1459663804865440  0.5743724650712067
  0.1657041131544901  0.3566569915318744  0.5748264608069028
  0.1679705038419906  0.6465677373240174  0.4296376095659500
  0.3335711499026397  0.0792897650579426  0.4282303939777930
  0.3332403746425075  0.9283046889465021  0.5744353923114265
  0.3333947196211729  0.5728079140252899  0.5681901614608146
  0.3329010084055303  0.4253996784769279  0.4297420298226829
  0.4993878666765912  0.2526599020480041  0.3850744017707914
  0.5026495961044737  0.7563066130733499  0.6180255456939541
  0.4985596375984124  0.8589840472910144  0.4293281177402162
  0.5000339426579956  0.1468668976846204  0.5750321670152714
  0.5007788832413307  0.3574359495759239  0.5742680874713894
  0.4985065869347264  0.6472856219432129  0.4291557811835235
  0.6658438056405943  0.0787458418022056  0.4281908675123808
  0.6678467417639617  0.9274997295208809  0.5727099594360148
  0.6664720857582307  0.5800573651094015  0.5739676347013589
  0.6681288323455793  0.4249627992134735  0.4284632474326989
  0.8332635331335194  0.2531218705826802  0.3848339673949796
  0.8333230822362847  0.7547932798686873  0.6171681030056811
  0.8333106723413032  0.8578027315258581  0.4270296910953457
  0.8333697566030809  0.1463779638524974  0.5738642339605122
  0.8335112051514305  0.3572452183737391  0.5738820512793187
  0.8332280000361992  0.6468113850731521  0.4285584716248976
  0.3354799495535381  0.5430369712543195  0.6599934668418128
 
  0.00000000E+00  0.00000000E+00  0.00000000E+00
  0.00000000E+00  0.00000000E+00  0.00000000E+00
  0.00000000E+00  0.00000000E+00  0.00000000E+00
  0.00000000E+00  0.00000000E+00  0.00000000E+00
  0.00000000E+00  0.00000000E+00  0.00000000E+00
  0.00000000E+00  0.00000000E+00  0.00000000E+00
  0.00000000E+00  0.00000000E+00  0.00000000E+00
  0.00000000E+00  0.00000000E+00  0.00000000E+00
  0.00000000E+00  0.00000000E+00  0.00000000E+00
  0.00000000E+00  0.00000000E+00  0.00000000E+00
  0.00000000E+00  0.00000000E+00  0.00000000E+00
  0.00000000E+00  0.00000000E+00  0.00000000E+00
  0.00000000E+00  0.00000000E+00  0.00000000E+00
  0.00000000E+00  0.00000000E+00  0.00000000E+00
  0.00000000E+00  0.00000000E+00  0.00000000E+00
  0.00000000E+00  0.00000000E+00  0.00000000E+00
  0.00000000E+00  0.00000000E+00  0.00000000E+00
  0.00000000E+00  0.00000000E+00  0.00000000E+00
  0.00000000E+00  0.00000000E+00  0.00000000E+00
  0.00000000E+00  0.00000000E+00  0.00000000E+00
  0.00000000E+00  0.00000000E+00  0.00000000E+00
  0.00000000E+00  0.00000000E+00  0.00000000E+00
  0.00000000E+00  0.00000000E+00  0.00000000E+00
  0.00000000E+00  0.00000000E+00  0.00000000E+00
  0.00000000E+00  0.00000000E+00  0.00000000E+00
  0.00000000E+00  0.00000000E+00  0.00000000E+00
  0.00000000E+00  0.00000000E+00  0.00000000E+00
  0.00000000E+00  0.00000000E+00  0.00000000E+00
  0.00000000E+00  0.00000000E+00  0.00000000E+00
  0.00000000E+00  0.00000000E+00  0.00000000E+00
  0.00000000E+00  0.00000000E+00  0.00000000E+00
  0.00000000E+00  0.00000000E+00  0.00000000E+00
  0.00000000E+00  0.00000000E+00  0.00000000E+00
  0.00000000E+00  0.00000000E+00  0.00000000E+00
  0.00000000E+00  0.00000000E+00  0.00000000E+00
  0.00000000E+00  0.00000000E+00  0.00000000E+00
  0.00000000E+00  0.00000000E+00  0.00000000E+00
  0.00000000E+00  0.00000000E+00  0.00000000E+00
  0.00000000E+00  0.00000000E+00  0.00000000E+00
  0.00000000E+00  0.00000000E+00  0.00000000E+00
  0.00000000E+00  0.00000000E+00  0.00000000E+00
  0.00000000E+00  0.00000000E+00  0.00000000E+00
  0.00000000E+00  0.00000000E+00  0.00000000E+00
