CONTCAR\(4)                             
   1.00000000000000     
    14.0670995712000000    0.0000000000000000    0.0000000000000000
     0.0000000000000000   11.9769001007000000    0.0000000000000000
     0.0000000000000000    0.0000000000000000   20.6152992248999993
   Sc   C    Cl   O 
    20     4    32     1
Direct
  0.1224895521785774  0.9819447888839054  0.6056526681119802
  0.1233288931900433  0.0194341489756858  0.3949396580527442
  0.9994184245411136  0.1266218677191753  0.5068212411358135
  0.9994718958802278  0.8749217093894870  0.4918339143053119
  0.1254719782615968  0.5011761364592620  0.4993615030737683
  0.3750839671254932  0.9731705474079034  0.6571427706526004
  0.3749801087891831  0.0200830327847264  0.3912276099461373
  0.2515343654224054  0.1263114933947144  0.5077714248281803
  0.2515875005319496  0.8751568978224996  0.4929675067456806
  0.3750707404851567  0.5007636000374952  0.5001581347302209
  0.6276096410605989  0.9819473936333604  0.6055825466462431
  0.6267787744200081  0.0193290877655823  0.3948989218744848
  0.4984508575050521  0.1262605209553653  0.5077893003114659
  0.4983966450018922  0.8750750866641350  0.4929343880220470
  0.6246023780494333  0.5011538652949227  0.4993503186703696
  0.8749715677328319  0.9820788485631179  0.6043485622220530
  0.8749724689604721  0.0192714273966297  0.3951065899340660
  0.7505779861925186  0.1266026648163768  0.5067792594798813
  0.7505714918904453  0.8749597547911705  0.4917841113037151
  0.8750599164086492  0.5008129355699612  0.4992938481826082
  0.1269461955833053  0.0005829925132497  0.5006055804997130
  0.3750532699323409  0.0021365266376926  0.4921486269949435
  0.6229302888677207  0.0005669732959459  0.5005351139377796
  0.8750757380303184  0.0006352773072184  0.4999005131149673
  0.1257238956643727  0.7121945288709165  0.4790005917555689
  0.1254576726226199  0.2898545296971224  0.5179086592155788
  0.9986733210938603  0.8293833893660272  0.6179597960960882
  0.9996944636366694  0.1714538125876441  0.3804957798757049
  0.9998088725410396  0.8756090998613969  0.3623217115110796
  0.9987245673145325  0.1267520233201404  0.6361274385655711
  0.0003115640446716  0.5223550192324592  0.5838943010132220
  0.0004655653583854  0.4798573371194061  0.4145368233942726
  0.3749879147648216  0.7121307896656958  0.4804680096647260
  0.3750494866845600  0.2894181142364157  0.5198538327540481
  0.2460499322806591  0.8296965729557153  0.6162911246875333
  0.2494395986493057  0.1716258498903085  0.3806188635704327
  0.2493519536145790  0.8756585035468921  0.3624321652134390
  0.2457664869273993  0.1274393713727950  0.6342230956760913
  0.2498330789707213  0.5216345781021507  0.5844034567451379
  0.2507509083110218  0.4800129517424953  0.4147432342086946
  0.6243585394539980  0.7121479919092214  0.4789836639517611
  0.6245049542391684  0.2898180256947288  0.5178432450418736
  0.5041042334704425  0.8297070799276283  0.6162674473057174
  0.5006744732701218  0.1714624249822712  0.3806714058542573
  0.5006434932839801  0.8756823861890471  0.3623795031930535
  0.5043709430462270  0.1274786170149265  0.6342431419563758
  0.5002805123244054  0.5214905142576365  0.5844454193849381
  0.4993226020944559  0.4803393180466494  0.4147020317853728
  0.8750548970223557  0.7106978391400073  0.4792425577823985
  0.8750195100237826  0.2910341771247431  0.5190924536736843
  0.7513296154544635  0.8293211191940513  0.6178953446461719
  0.7502667836556758  0.1715203967207717  0.3804509113462859
  0.7503346171633115  0.8755049601591113  0.3621959914196520
  0.7513081285033429  0.1267590119097839  0.6361421297189224
  0.7497468753653578  0.5222840444343229  0.5838508259978819
  0.7496662652170418  0.4795479878778451  0.4145478497498644
  0.3750292608913379  0.9592499597700834  0.7394728984678454
 
  0.00000000E+00  0.00000000E+00  0.00000000E+00
  0.00000000E+00  0.00000000E+00  0.00000000E+00
  0.00000000E+00  0.00000000E+00  0.00000000E+00
  0.00000000E+00  0.00000000E+00  0.00000000E+00
  0.00000000E+00  0.00000000E+00  0.00000000E+00
  0.00000000E+00  0.00000000E+00  0.00000000E+00
  0.00000000E+00  0.00000000E+00  0.00000000E+00
  0.00000000E+00  0.00000000E+00  0.00000000E+00
  0.00000000E+00  0.00000000E+00  0.00000000E+00
  0.00000000E+00  0.00000000E+00  0.00000000E+00
  0.00000000E+00  0.00000000E+00  0.00000000E+00
  0.00000000E+00  0.00000000E+00  0.00000000E+00
  0.00000000E+00  0.00000000E+00  0.00000000E+00
  0.00000000E+00  0.00000000E+00  0.00000000E+00
  0.00000000E+00  0.00000000E+00  0.00000000E+00
  0.00000000E+00  0.00000000E+00  0.00000000E+00
  0.00000000E+00  0.00000000E+00  0.00000000E+00
  0.00000000E+00  0.00000000E+00  0.00000000E+00
  0.00000000E+00  0.00000000E+00  0.00000000E+00
  0.00000000E+00  0.00000000E+00  0.00000000E+00
  0.00000000E+00  0.00000000E+00  0.00000000E+00
  0.00000000E+00  0.00000000E+00  0.00000000E+00
  0.00000000E+00  0.00000000E+00  0.00000000E+00
  0.00000000E+00  0.00000000E+00  0.00000000E+00
  0.00000000E+00  0.00000000E+00  0.00000000E+00
  0.00000000E+00  0.00000000E+00  0.00000000E+00
  0.00000000E+00  0.00000000E+00  0.00000000E+00
  0.00000000E+00  0.00000000E+00  0.00000000E+00
  0.00000000E+00  0.00000000E+00  0.00000000E+00
  0.00000000E+00  0.00000000E+00  0.00000000E+00
  0.00000000E+00  0.00000000E+00  0.00000000E+00
  0.00000000E+00  0.00000000E+00  0.00000000E+00
  0.00000000E+00  0.00000000E+00  0.00000000E+00
  0.00000000E+00  0.00000000E+00  0.00000000E+00
  0.00000000E+00  0.00000000E+00  0.00000000E+00
  0.00000000E+00  0.00000000E+00  0.00000000E+00
  0.00000000E+00  0.00000000E+00  0.00000000E+00
  0.00000000E+00  0.00000000E+00  0.00000000E+00
  0.00000000E+00  0.00000000E+00  0.00000000E+00
  0.00000000E+00  0.00000000E+00  0.00000000E+00
  0.00000000E+00  0.00000000E+00  0.00000000E+00
  0.00000000E+00  0.00000000E+00  0.00000000E+00
  0.00000000E+00  0.00000000E+00  0.00000000E+00
  0.00000000E+00  0.00000000E+00  0.00000000E+00
  0.00000000E+00  0.00000000E+00  0.00000000E+00
  0.00000000E+00  0.00000000E+00  0.00000000E+00
  0.00000000E+00  0.00000000E+00  0.00000000E+00
  0.00000000E+00  0.00000000E+00  0.00000000E+00
  0.00000000E+00  0.00000000E+00  0.00000000E+00
  0.00000000E+00  0.00000000E+00  0.00000000E+00
  0.00000000E+00  0.00000000E+00  0.00000000E+00
  0.00000000E+00  0.00000000E+00  0.00000000E+00
  0.00000000E+00  0.00000000E+00  0.00000000E+00
  0.00000000E+00  0.00000000E+00  0.00000000E+00
  0.00000000E+00  0.00000000E+00  0.00000000E+00
  0.00000000E+00  0.00000000E+00  0.00000000E+00
  0.00000000E+00  0.00000000E+00  0.00000000E+00
