CONTCAR\(5)                             
   1.00000000000000     
    10.2070999146000005    0.0000000000000000    0.0000000000000000
    -1.7011927660999999   18.1179073708000011    0.0000000000000000
     0.0000000000000000    0.0000000000000000   20.2910003661999987
   Ta   Co   Pd   Se   O    H 
    12     6     3    36     2     1
Direct
  0.0248875119301104  0.1532128498112613  0.4644621694735278
  0.3082182599454981  0.8505017721420955  0.5291862688896387
  0.0687757782678418  0.4097283548560071  0.4683359954330513
  0.2651973975699633  0.5941177151605430  0.5247568119990476
  0.3584259710079181  0.1532513905099862  0.4644128533943075
  0.6417746508057007  0.8505550053316568  0.5293155012667228
  0.4015964991140279  0.4096727120433599  0.4681541987520035
  0.5982375135059144  0.5941612002738168  0.5247198971092715
  0.6915116888996664  0.1530362759935002  0.4645850645829128
  0.9752198761058111  0.8505468402309120  0.5291935472979645
  0.7351909390328757  0.4097232827004049  0.4683161974398615
  0.9322643407387474  0.5942369535600420  0.5247443845164312
  0.2143554704079165  0.2868646100497187  0.4380660676717198
  0.1188888839449973  0.7167266862630797  0.5549569876880369
  0.5478618658586214  0.2868508288351208  0.4380382717731095
  0.4522892995534704  0.7166345108362435  0.5549779713589587
  0.8809139910124202  0.2867784163899572  0.4380386541078565
  0.7858241168334956  0.7167930644839160  0.5551354760834997
  0.1666145155068861  0.0020603086214308  0.4968603312310691
  0.4999364477602413  0.0017061521259620  0.4971377305549893
  0.8332762412346923  0.0018502254739658  0.4971962000789745
  0.1861581646919390  0.1199470319014466  0.5572857038464676
  0.1473912675460767  0.8843411643899586  0.4362488433879292
  0.1018479265303185  0.6058290405585538  0.6180532395467750
  0.2322532216408675  0.3973514931498840  0.3747098016840980
  0.2410616523284190  0.4498860138176397  0.5590860060920235
  0.0926581494680860  0.5539327818573909  0.4334473148389293
  0.0396789969111211  0.2401178108944322  0.3674567463834038
  0.2931952561262605  0.7628787316349701  0.6257476329949938
  0.1788244232998082  0.0769237584303823  0.3951494678433960
  0.1545772180812648  0.9270937621735555  0.5986072321055644
  0.0469553024954479  0.2826010011323064  0.5222828768835939
  0.2863626166131041  0.7213318032514735  0.4708087949294892
  0.5191219458860772  0.1196128266383525  0.5574787272053072
  0.4807465408929730  0.8840131765036077  0.4364529850863974
  0.4342618025148184  0.6059975745683133  0.6180670219156212
  0.5661420863102506  0.3974489014331510  0.3748687560175910
  0.5739537871795548  0.4498938489537423  0.5593062466262921
  0.4261800252106838  0.5539022543179968  0.4334799877465798
  0.3732019045014567  0.2402276542764952  0.3674414235099945
  0.6268964032927471  0.7629678253913141  0.6257872792519663
  0.5118721197612004  0.0764816564264521  0.3953430562277660
  0.4877348551452840  0.9266783419592244  0.5988693610702143
  0.3805167926493169  0.2826793993767467  0.5223050885545817
  0.6198087230747902  0.7213263154279517  0.4708926421038200
  0.8526681355882388  0.1197966704831828  0.5575209201630145
  0.8140545679430460  0.8842630604852104  0.4365332372166364
  0.7679505986974320  0.6058535025506018  0.6180117566384737
  0.8993054044018081  0.3974923908045795  0.3749831213646999
  0.9077097694910847  0.4498988373152599  0.5593858519836132
  0.7594306266476778  0.5540228447057061  0.4335896374376205
  0.7063242527849241  0.2398813052221698  0.3675520728010184
  0.9603728591492811  0.7630858998499264  0.6258495188604485
  0.8454279926767256  0.0765519407259418  0.3953286892765462
  0.8215076319651899  0.9268131419195242  0.5988804346557828
  0.7138693403263687  0.2826104861785907  0.5222802374430913
  0.9528659581014622  0.7212736061050080  0.4707648616748941
  0.2139967588352079  0.4775525822185287  0.7656374888969921
  0.2746235285938852  0.4893397463349700  0.7061957551250160
  0.2735199106089681  0.4480393569424521  0.7907200279063673
 
  0.00000000E+00  0.00000000E+00  0.00000000E+00
  0.00000000E+00  0.00000000E+00  0.00000000E+00
  0.00000000E+00  0.00000000E+00  0.00000000E+00
  0.00000000E+00  0.00000000E+00  0.00000000E+00
  0.00000000E+00  0.00000000E+00  0.00000000E+00
  0.00000000E+00  0.00000000E+00  0.00000000E+00
  0.00000000E+00  0.00000000E+00  0.00000000E+00
  0.00000000E+00  0.00000000E+00  0.00000000E+00
  0.00000000E+00  0.00000000E+00  0.00000000E+00
  0.00000000E+00  0.00000000E+00  0.00000000E+00
  0.00000000E+00  0.00000000E+00  0.00000000E+00
  0.00000000E+00  0.00000000E+00  0.00000000E+00
  0.00000000E+00  0.00000000E+00  0.00000000E+00
  0.00000000E+00  0.00000000E+00  0.00000000E+00
  0.00000000E+00  0.00000000E+00  0.00000000E+00
  0.00000000E+00  0.00000000E+00  0.00000000E+00
  0.00000000E+00  0.00000000E+00  0.00000000E+00
  0.00000000E+00  0.00000000E+00  0.00000000E+00
  0.00000000E+00  0.00000000E+00  0.00000000E+00
  0.00000000E+00  0.00000000E+00  0.00000000E+00
  0.00000000E+00  0.00000000E+00  0.00000000E+00
  0.00000000E+00  0.00000000E+00  0.00000000E+00
  0.00000000E+00  0.00000000E+00  0.00000000E+00
  0.00000000E+00  0.00000000E+00  0.00000000E+00
  0.00000000E+00  0.00000000E+00  0.00000000E+00
  0.00000000E+00  0.00000000E+00  0.00000000E+00
  0.00000000E+00  0.00000000E+00  0.00000000E+00
  0.00000000E+00  0.00000000E+00  0.00000000E+00
  0.00000000E+00  0.00000000E+00  0.00000000E+00
  0.00000000E+00  0.00000000E+00  0.00000000E+00
  0.00000000E+00  0.00000000E+00  0.00000000E+00
  0.00000000E+00  0.00000000E+00  0.00000000E+00
  0.00000000E+00  0.00000000E+00  0.00000000E+00
  0.00000000E+00  0.00000000E+00  0.00000000E+00
  0.00000000E+00  0.00000000E+00  0.00000000E+00
  0.00000000E+00  0.00000000E+00  0.00000000E+00
  0.00000000E+00  0.00000000E+00  0.00000000E+00
  0.00000000E+00  0.00000000E+00  0.00000000E+00
  0.00000000E+00  0.00000000E+00  0.00000000E+00
  0.00000000E+00  0.00000000E+00  0.00000000E+00
  0.00000000E+00  0.00000000E+00  0.00000000E+00
  0.00000000E+00  0.00000000E+00  0.00000000E+00
  0.00000000E+00  0.00000000E+00  0.00000000E+00
  0.00000000E+00  0.00000000E+00  0.00000000E+00
  0.00000000E+00  0.00000000E+00  0.00000000E+00
  0.00000000E+00  0.00000000E+00  0.00000000E+00
  0.00000000E+00  0.00000000E+00  0.00000000E+00
  0.00000000E+00  0.00000000E+00  0.00000000E+00
  0.00000000E+00  0.00000000E+00  0.00000000E+00
  0.00000000E+00  0.00000000E+00  0.00000000E+00
  0.00000000E+00  0.00000000E+00  0.00000000E+00
  0.00000000E+00  0.00000000E+00  0.00000000E+00
  0.00000000E+00  0.00000000E+00  0.00000000E+00
  0.00000000E+00  0.00000000E+00  0.00000000E+00
  0.00000000E+00  0.00000000E+00  0.00000000E+00
  0.00000000E+00  0.00000000E+00  0.00000000E+00
  0.00000000E+00  0.00000000E+00  0.00000000E+00
  0.00000000E+00  0.00000000E+00  0.00000000E+00
  0.00000000E+00  0.00000000E+00  0.00000000E+00
  0.00000000E+00  0.00000000E+00  0.00000000E+00
