 Sr2 Co1 Cl2 O2                         
   1.00000000000000     
     3.8320400363000009    0.0000000000000000    0.0000000000000000
     0.0000000000000000    3.8432118705120866    0.0000000000000000
     0.0000000000000000    0.0000000000000000   20.4392021679719988
   Sr   Co   Cl   O 
     2     1     2     2
Direct
  0.4999999796134451  0.5000237889944845  0.4127381598303278
  0.5000000207560807  0.4999762102789982  0.5872618364692390
  0.0000000037973763 -0.0000000033663819  0.5000000303286701
 -0.0000000362052810  0.0000344834047446  0.3458247768841475
  0.0000000241770829  0.9999655275965793  0.6541751550201897
  0.5000000038572862 -0.0000000036849625  0.5000000201927405
  0.0000000040040103  0.4999999967765010  0.5000000212747242
 
  0.00000000E+00  0.00000000E+00  0.00000000E+00
  0.00000000E+00  0.00000000E+00  0.00000000E+00
  0.00000000E+00  0.00000000E+00  0.00000000E+00
  0.00000000E+00  0.00000000E+00  0.00000000E+00
  0.00000000E+00  0.00000000E+00  0.00000000E+00
  0.00000000E+00  0.00000000E+00  0.00000000E+00
  0.00000000E+00  0.00000000E+00  0.00000000E+00
