CONTCAR\(7)                             
   1.00000000000000     
    12.4780998230000009    0.0000000000000000    0.0000000000000000
     0.0000000000000000   15.4434003830000002    0.0000000000000000
     0.0000000000000000    0.0000000000000000   19.6900997161999989
   Nb   Co   Te   O 
    16    16    32     1
Direct
  0.2399301408716422  0.1243218136969200  0.4930171727319021
  0.2544352291286947  0.3195763402406044  0.5039230980712148
  0.4911384590091126  0.0743047433332065  0.5059362248159023
  0.0078085771869968  0.3746193471908054  0.4921710283330202
  0.7398086752078857  0.1263650777449621  0.4922955495602623
  0.7567912557705218  0.3256891842621510  0.5063462386816271
  0.9904814074718857  0.0741369373797296  0.5037146160738593
  0.5074714426185106  0.3744941577134456  0.4956804149176448
  0.2452983492464849  0.6262615231869073  0.4990110030868055
  0.2575184733748049  0.8259155226845396  0.5074096323583042
  0.4916994367241175  0.5707140679270787  0.5244930037030446
  0.0091801575537738  0.8758591643140142  0.4935783971438147
  0.7400335772494795  0.6272649928081092  0.4916794865377175
  0.7605993165414672  0.8262409636810800  0.5066170185946209
  0.9929920259157712  0.5732176523187924  0.5065282836366514
  0.5097057886323934  0.8763322265881317  0.4967744134787084
  0.4263699579828455  0.2268638202277559  0.4591219401417753
  0.1745932490300517  0.4711013180830713  0.5423767962173212
  0.3296946756784954  0.4797190600106402  0.4662837304462966
  0.0693005139049257  0.2210472949489304  0.5400387933079561
  0.9236209507334653  0.2275068028526451  0.4576145166213349
  0.6834794148000671  0.4757124817700764  0.5453852361270890
  0.8243274681898851  0.4776515826210421  0.4597114970515239
  0.5709524044728206  0.2230339824713304  0.5419992630417523
  0.4327358568417600  0.7249068924204394  0.4651021167405052
  0.1770223481220627  0.9729337083067665  0.5413732717115962
  0.3234579545915284  0.9774983222154063  0.4594185085032706
  0.0729875274157825  0.7214511006996942  0.5427844705503304
  0.9265027680783809  0.7271292478388276  0.4595930192181312
  0.6785161682990389  0.9738635311355022  0.5409375065273500
  0.8223461663699254  0.9781744873764924  0.4576722448811583
  0.5816776265620222  0.7225394597700934  0.5441317730499446
  0.1328969634099975  0.4905586971193662  0.4146259055471415
  0.3691406800544196  0.3547984939221606  0.3835145282725492
  0.1171096819251700  0.3438990521567828  0.6179100875397732
  0.3754220999628048  0.2043086425518423  0.5873493589634291
  0.3767704908985692  0.1031797643655145  0.3809380574900453
  0.1242031963603164  0.0963412705927696  0.6180000210516402
  0.1171367647663638  0.2378643486365229  0.4107977148426353
  0.3606694628232117  0.4362952933828789  0.5921769781917341
  0.6264562070296121  0.4941885365001386  0.4192783597001676
  0.8702632991411638  0.3545590436665480  0.3806787154320378
  0.6220991508167866  0.3481808536879008  0.6196964599561292
  0.8752002527916682  0.2079088230551344  0.5868729980517808
  0.8750590682237026  0.1036573491831527  0.3793553510023494
  0.6274822576201259  0.0970131524486945  0.6185085026249270
  0.6201616757726005  0.2433078437133387  0.4124622538469813
  0.8773697553345189  0.4562019041637380  0.5888102500396158
  0.1284509653739166  0.9896706045654946  0.4116372323859849
  0.3733251126238751  0.8494974578692264  0.3846084804239029
  0.1191357634507643  0.8477992448759263  0.6193974910170377
  0.3770273619415994  0.7178514829669537  0.5905674931784703
  0.3832585866151281  0.6033646505240025  0.3883637938128577
  0.1282873093021013  0.5949107648785463  0.6207153196833568
  0.1227827674912427  0.7388659300672518  0.4150380708161949
  0.3717333543405149  0.9594903595746110  0.5889073761173850
  0.6269249574241726  0.9916326827224832  0.4123413840998720
  0.8742194377339652  0.8535981188465988  0.3811759879594382
  0.6252716137194319  0.8497322181167382  0.6202991706699652
  0.8780809563046582  0.7081171310322559  0.5877627993180828
  0.8782868820677963  0.6027564165023985  0.3813289617210035
  0.6551224567472906  0.6055534765463305  0.6248106238303578
  0.6225131491419089  0.7455191161662020  0.4128157629136818
  0.8731024968382225  0.9591380636473454  0.5870850548587279
  0.4966684773757511  0.5622326031319222  0.6242789907782511
 
  0.00000000E+00  0.00000000E+00  0.00000000E+00
  0.00000000E+00  0.00000000E+00  0.00000000E+00
  0.00000000E+00  0.00000000E+00  0.00000000E+00
  0.00000000E+00  0.00000000E+00  0.00000000E+00
  0.00000000E+00  0.00000000E+00  0.00000000E+00
  0.00000000E+00  0.00000000E+00  0.00000000E+00
  0.00000000E+00  0.00000000E+00  0.00000000E+00
  0.00000000E+00  0.00000000E+00  0.00000000E+00
  0.00000000E+00  0.00000000E+00  0.00000000E+00
  0.00000000E+00  0.00000000E+00  0.00000000E+00
  0.00000000E+00  0.00000000E+00  0.00000000E+00
  0.00000000E+00  0.00000000E+00  0.00000000E+00
  0.00000000E+00  0.00000000E+00  0.00000000E+00
  0.00000000E+00  0.00000000E+00  0.00000000E+00
  0.00000000E+00  0.00000000E+00  0.00000000E+00
  0.00000000E+00  0.00000000E+00  0.00000000E+00
  0.00000000E+00  0.00000000E+00  0.00000000E+00
  0.00000000E+00  0.00000000E+00  0.00000000E+00
  0.00000000E+00  0.00000000E+00  0.00000000E+00
  0.00000000E+00  0.00000000E+00  0.00000000E+00
  0.00000000E+00  0.00000000E+00  0.00000000E+00
  0.00000000E+00  0.00000000E+00  0.00000000E+00
  0.00000000E+00  0.00000000E+00  0.00000000E+00
  0.00000000E+00  0.00000000E+00  0.00000000E+00
  0.00000000E+00  0.00000000E+00  0.00000000E+00
  0.00000000E+00  0.00000000E+00  0.00000000E+00
  0.00000000E+00  0.00000000E+00  0.00000000E+00
  0.00000000E+00  0.00000000E+00  0.00000000E+00
  0.00000000E+00  0.00000000E+00  0.00000000E+00
  0.00000000E+00  0.00000000E+00  0.00000000E+00
  0.00000000E+00  0.00000000E+00  0.00000000E+00
  0.00000000E+00  0.00000000E+00  0.00000000E+00
  0.00000000E+00  0.00000000E+00  0.00000000E+00
  0.00000000E+00  0.00000000E+00  0.00000000E+00
  0.00000000E+00  0.00000000E+00  0.00000000E+00
  0.00000000E+00  0.00000000E+00  0.00000000E+00
  0.00000000E+00  0.00000000E+00  0.00000000E+00
  0.00000000E+00  0.00000000E+00  0.00000000E+00
  0.00000000E+00  0.00000000E+00  0.00000000E+00
  0.00000000E+00  0.00000000E+00  0.00000000E+00
  0.00000000E+00  0.00000000E+00  0.00000000E+00
  0.00000000E+00  0.00000000E+00  0.00000000E+00
  0.00000000E+00  0.00000000E+00  0.00000000E+00
  0.00000000E+00  0.00000000E+00  0.00000000E+00
  0.00000000E+00  0.00000000E+00  0.00000000E+00
  0.00000000E+00  0.00000000E+00  0.00000000E+00
  0.00000000E+00  0.00000000E+00  0.00000000E+00
  0.00000000E+00  0.00000000E+00  0.00000000E+00
  0.00000000E+00  0.00000000E+00  0.00000000E+00
  0.00000000E+00  0.00000000E+00  0.00000000E+00
  0.00000000E+00  0.00000000E+00  0.00000000E+00
  0.00000000E+00  0.00000000E+00  0.00000000E+00
  0.00000000E+00  0.00000000E+00  0.00000000E+00
  0.00000000E+00  0.00000000E+00  0.00000000E+00
  0.00000000E+00  0.00000000E+00  0.00000000E+00
  0.00000000E+00  0.00000000E+00  0.00000000E+00
  0.00000000E+00  0.00000000E+00  0.00000000E+00
  0.00000000E+00  0.00000000E+00  0.00000000E+00
  0.00000000E+00  0.00000000E+00  0.00000000E+00
  0.00000000E+00  0.00000000E+00  0.00000000E+00
  0.00000000E+00  0.00000000E+00  0.00000000E+00
  0.00000000E+00  0.00000000E+00  0.00000000E+00
  0.00000000E+00  0.00000000E+00  0.00000000E+00
  0.00000000E+00  0.00000000E+00  0.00000000E+00
  0.00000000E+00  0.00000000E+00  0.00000000E+00
