 Nb4 S12                                
   1.00000000000000     
     4.9519635914221602    0.0000000000000000    0.0000000000000000
     0.0000000000000000    6.7277861122713567    0.0000000000000000
     0.0000000000000000    0.0000000000000000   21.2883967832399996
   Nb   S 
     4    12
Direct
  0.7035822527685269  0.8495779570083732  0.4367480181834970
  0.7038796917276161  0.3997055938784647  0.4330171592195827
  0.2032276049866751  0.1465997107537889  0.5632485966891386
  0.2029095086225703  0.5964614492277391  0.5669833258115441
  0.9957587766555593  0.3665037641218784  0.6457695541091039
  0.7034123514244439  0.1318442263389070  0.5187215980234339
  0.7030525333011607  0.6130259243708993  0.5266580959142897
  0.2037446738201784  0.3831551510640586  0.4733404518530065
  0.5032923549656182  0.6294653796235697  0.3528038984644138
  0.2033702258776635  0.8643386803181585  0.4812770599732850
 -0.0011723851958922  0.8749232096034060  0.6348094969664290
  0.9079642527401055  0.1212564401784375  0.3651910211434454
  0.9110493194536915  0.6296636809454360  0.3542305978899049
  0.4035020049042102  0.3666959057138571  0.6472014599063257
  0.4064590056722034  0.8748299969251099  0.6349773329178362
  0.5003303069831321  0.1213519299279196  0.3650223329347640
 
  0.00000000E+00  0.00000000E+00  0.00000000E+00
  0.00000000E+00  0.00000000E+00  0.00000000E+00
  0.00000000E+00  0.00000000E+00  0.00000000E+00
  0.00000000E+00  0.00000000E+00  0.00000000E+00
  0.00000000E+00  0.00000000E+00  0.00000000E+00
  0.00000000E+00  0.00000000E+00  0.00000000E+00
  0.00000000E+00  0.00000000E+00  0.00000000E+00
  0.00000000E+00  0.00000000E+00  0.00000000E+00
  0.00000000E+00  0.00000000E+00  0.00000000E+00
  0.00000000E+00  0.00000000E+00  0.00000000E+00
  0.00000000E+00  0.00000000E+00  0.00000000E+00
  0.00000000E+00  0.00000000E+00  0.00000000E+00
  0.00000000E+00  0.00000000E+00  0.00000000E+00
  0.00000000E+00  0.00000000E+00  0.00000000E+00
  0.00000000E+00  0.00000000E+00  0.00000000E+00
  0.00000000E+00  0.00000000E+00  0.00000000E+00
