CONTCAR\(7)                             
   1.00000000000000     
    13.2362003325999993    0.0000000000000000    0.0000000000000000
     6.6181200092000001   11.4628742812999995    0.0000000000000000
     0.0000000000000000    0.0000000000000000   17.6413002014000000
   Mn   S    O 
    16    32     1
Direct
  0.0079473136356701  0.9928658999239758  0.4958494239846936
  0.2607465317389017  0.0011836329145773  0.4988586001091779
  0.4676611797569726  0.0174659649247483  0.5022170103908954
  0.7410433717839836  0.0060970044648477  0.5020555130147462
  0.0055980438717006  0.2475941857599311  0.4972230996699891
  0.2607156218671335  0.2402364344284749  0.4977889394175106
  0.4843770612543953  0.2727149369538919  0.5077168509753839
  0.7598160933743175  0.2429203511482459  0.5027137661247855
  0.0049900541421461  0.4988666055177673  0.4966394260158993
  0.2709381058402924  0.4829278862896053  0.5013593931186658
  0.4638882264827157  0.5040105295075314  0.5154038263974510
  0.7569126114264901  0.4982744260509213  0.5032138696702245
  0.0012251647640165  0.7505747076234204  0.4969071431337942
  0.2301926474652012  0.7627273656187206  0.4977017870364043
  0.4955727184559605  0.7499666856477516  0.5084767035619465
  0.7455316064584239  0.7535498628954812  0.5022317331517264
  0.1708748695532682  0.1658024504116111  0.5737624581582963
  0.0901122754611528  0.0801972062943417  0.4228111757491644
  0.4124099548063135  0.1713447438184146  0.5804477812983793
  0.3306386042493156  0.0845685259823643  0.4150776918555231
  0.6622920962446255  0.1729070254070630  0.5773751406105677
  0.5687096628717186  0.0956386841175524  0.4348092565297932
  0.9279867005361659  0.1584111871677128  0.5738533807330088
  0.8312401308931819  0.0826231083907453  0.4246443123391346
  0.1693632192255317  0.4121675098122480  0.5713886176154165
  0.0897486339250844  0.3312975408681135  0.4228032167446195
  0.3955534905197745  0.4197290936843185  0.5948947959218281
  0.3378924616519523  0.3324324156098485  0.4216980317590884
  0.7116427835142008  0.3940442736880384  0.5911430022395875
  0.5798512151382349  0.3447667366447940  0.4392384621651761
  0.9262459335439095  0.4126149160313380  0.5753932322241602
  0.8362975990305080  0.3324680985517510  0.4255459246528354
  0.1644360323599313  0.6627490885397525  0.5720065973671835
  0.0939793432557252  0.5781800455725242  0.4262439316687838
  0.3920769740494975  0.6792824640827237  0.5783897487837858
  0.3278089965179894  0.5840329633363347  0.4267208446877335
  0.6671771378978097  0.6653981836794869  0.5796616064269020
  0.5746947212656103  0.5728286399258379  0.4461129252693124
  0.9182766987506319  0.6671342891982391  0.5728183014292209
  0.8303822475895125  0.5868762438722372  0.4247328780427094
  0.1658451376183863  0.9230875066565228  0.5743574155726404
  0.0778958869219355  0.8347010626665129  0.4144867665903877
  0.4117436429184996  0.9221199229544430  0.5825764676061372
  0.3350675624217769  0.8303599569122583  0.4271760352990730
  0.6509597859561523  0.9256925127868839  0.5721877489013952
  0.5719140379330178  0.8404248366316732  0.4330180491876501
  0.9173429636169294  0.9167657688785291  0.5723791928011396
  0.8261821456874660  0.8377043785490007  0.4259082196169257
  0.5763808147558609  0.4594923766068583  0.6018497303791416
 
  0.00000000E+00  0.00000000E+00  0.00000000E+00
  0.00000000E+00  0.00000000E+00  0.00000000E+00
  0.00000000E+00  0.00000000E+00  0.00000000E+00
  0.00000000E+00  0.00000000E+00  0.00000000E+00
  0.00000000E+00  0.00000000E+00  0.00000000E+00
  0.00000000E+00  0.00000000E+00  0.00000000E+00
  0.00000000E+00  0.00000000E+00  0.00000000E+00
  0.00000000E+00  0.00000000E+00  0.00000000E+00
  0.00000000E+00  0.00000000E+00  0.00000000E+00
  0.00000000E+00  0.00000000E+00  0.00000000E+00
  0.00000000E+00  0.00000000E+00  0.00000000E+00
  0.00000000E+00  0.00000000E+00  0.00000000E+00
  0.00000000E+00  0.00000000E+00  0.00000000E+00
  0.00000000E+00  0.00000000E+00  0.00000000E+00
  0.00000000E+00  0.00000000E+00  0.00000000E+00
  0.00000000E+00  0.00000000E+00  0.00000000E+00
  0.00000000E+00  0.00000000E+00  0.00000000E+00
  0.00000000E+00  0.00000000E+00  0.00000000E+00
  0.00000000E+00  0.00000000E+00  0.00000000E+00
  0.00000000E+00  0.00000000E+00  0.00000000E+00
  0.00000000E+00  0.00000000E+00  0.00000000E+00
  0.00000000E+00  0.00000000E+00  0.00000000E+00
  0.00000000E+00  0.00000000E+00  0.00000000E+00
  0.00000000E+00  0.00000000E+00  0.00000000E+00
  0.00000000E+00  0.00000000E+00  0.00000000E+00
  0.00000000E+00  0.00000000E+00  0.00000000E+00
  0.00000000E+00  0.00000000E+00  0.00000000E+00
  0.00000000E+00  0.00000000E+00  0.00000000E+00
  0.00000000E+00  0.00000000E+00  0.00000000E+00
  0.00000000E+00  0.00000000E+00  0.00000000E+00
  0.00000000E+00  0.00000000E+00  0.00000000E+00
  0.00000000E+00  0.00000000E+00  0.00000000E+00
  0.00000000E+00  0.00000000E+00  0.00000000E+00
  0.00000000E+00  0.00000000E+00  0.00000000E+00
  0.00000000E+00  0.00000000E+00  0.00000000E+00
  0.00000000E+00  0.00000000E+00  0.00000000E+00
  0.00000000E+00  0.00000000E+00  0.00000000E+00
  0.00000000E+00  0.00000000E+00  0.00000000E+00
  0.00000000E+00  0.00000000E+00  0.00000000E+00
  0.00000000E+00  0.00000000E+00  0.00000000E+00
  0.00000000E+00  0.00000000E+00  0.00000000E+00
  0.00000000E+00  0.00000000E+00  0.00000000E+00
  0.00000000E+00  0.00000000E+00  0.00000000E+00
  0.00000000E+00  0.00000000E+00  0.00000000E+00
  0.00000000E+00  0.00000000E+00  0.00000000E+00
  0.00000000E+00  0.00000000E+00  0.00000000E+00
  0.00000000E+00  0.00000000E+00  0.00000000E+00
  0.00000000E+00  0.00000000E+00  0.00000000E+00
  0.00000000E+00  0.00000000E+00  0.00000000E+00
