CONTCAR\(9)                             
   1.00000000000000     
    13.5033998488999991    0.0000000000000000    0.0000000000000000
     0.0000000000000000   19.6100006104000002    0.0000000000000000
     0.0000000000000000    0.0000000000000000   18.7679004668999987
   Nb   Se   O 
    32    48     1
Direct
  0.0623019731762611  0.4352125002085430  0.5004502621314160
  0.1875807998877264  0.0620626854035251  0.5007691716379341
  0.0626567646893790  0.2792531628803587  0.4499809194097111
  0.1877623698872313  0.2182319128701380  0.5520499761564892
  0.3125691743960957  0.4353194913700875  0.5005142614796583
  0.4373321450490693  0.0637067213849107  0.5009411175398384
  0.3126667185442997  0.2794185522378356  0.4501038037424721
  0.4375439455563921  0.2187343340915149  0.5521389740434230
  0.5627090758638147  0.4352480424737095  0.5005078764182969
  0.6871008544834112  0.0619942801464504  0.5006004739861325
  0.5628357802624109  0.2793813248791537  0.4499881398339483
  0.6875273142105414  0.2180711663731429  0.5518628882410539
  0.8127683218841000  0.4352181741790204  0.5004495425162716
  0.9374453809778132  0.0623774576583216  0.5005908903434602
  0.8127242517190680  0.2792070574209760  0.4499068471699914
  0.9375609886630798  0.2179763482720176  0.5518900727907123
  0.0649476450206592  0.9352411788965895  0.5006482424000041
  0.1870003057546157  0.5620589987761306  0.4996042686492643
  0.0625334757999170  0.7794980642904008  0.4486822639385579
  0.1876365340314834  0.7178018255152310  0.5503368640002861
  0.3107396819327164  0.9339612461376703  0.4999435743456075
  0.4375426600563230  0.5620232964795449  0.4996887681785083
  0.3124672115685385  0.7788231632341507  0.4482044748805407
  0.4373884494901077  0.7177883862755934  0.5502462790325282
  0.5638317857210779  0.9338993700700442  0.4999719334843391
  0.6877775231786885  0.5620818284153799  0.4996651949563002
  0.5624500957096146  0.7789633606892465  0.4483692135535122
  0.6873282185427385  0.7178327888313376  0.5503474160156827
  0.8098692902448121  0.9352042268856948  0.5006460610330521
  0.9373824722698245  0.5620724893487363  0.4997832975010823
  0.8124395355760825  0.7794086982688384  0.4485390051685414
  0.9374335921929102  0.7182096164773384  0.5505641251473676
  0.0626245440176092  0.0271915865729255  0.4031581278082683
  0.1873839353281141  0.4707481750780786  0.5978959177570999
  0.0627016212332947  0.1234145085901019  0.5945465655420321
  0.1876117040700720  0.3737469099110697  0.4069580457443678
  0.1878563640092068  0.1827819998280873  0.4193727489829726
  0.0625169570315904  0.3147439579371465  0.5826187113975294
  0.3125667711628708  0.0271610421278226  0.4030301024658201
  0.4377218670952132  0.4705689587912190  0.5979473625086271
  0.3126626930035741  0.1235176085891112  0.5945583879481120
  0.4376439554445497  0.3739168873745982  0.4069774113631226
  0.4378068631537317  0.1831369990416150  0.4191087865518170
  0.3124064143056060  0.3151313176020736  0.5827295376177446
  0.5617765089017936  0.0269726866511633  0.4030312467355870
  0.6877185338745448  0.4707523271944325  0.5979213972325539
  0.5624125418160659  0.1235640854602735  0.5945318816959784
  0.6878088507459168  0.3737447314542948  0.4068759357419296
  0.6876097774511223  0.1827228038591926  0.4191035732227064
  0.5629868579681059  0.3149273895662219  0.5826879031418457
  0.8121188547284675  0.0271436568927754  0.4031225502408020
  0.9376290790565136  0.4707571569147149  0.5980531473280166
  0.8123788792939308  0.1231572833830228  0.5943639496462865
  0.9375854965945507  0.3736938788779938  0.4068422579008555
  0.9377863527598294  0.1827187729039537  0.4192036529112499
  0.8126719802276838  0.3146695697733151  0.5826012458857832
  0.0620926440908249  0.5264801973833428  0.4021276574943258
  0.1885169761467580  0.9701996001266835  0.5989577765246565
  0.0623845040081363  0.6235456130647350  0.5933349973891993
  0.1875085909748293  0.8738693622548368  0.4054743197638544
  0.1870708525144451  0.6825861907050168  0.4176303282547238
  0.0629139111816315  0.8143728215342634  0.5814970084771005
  0.3122583994634596  0.5267548707791576  0.4022779053808847
  0.4372249110482116  0.9701871515397542  0.5938050310714544
  0.3124415620615011  0.6232123350423180  0.5932693843132739
  0.4373071410629805  0.8736400791819250  0.4059122049096757
  0.4376592192165916  0.6822695801476542  0.4176237301849994
  0.3126232864988978  0.8142708528346887  0.5810325544902994
  0.5625128563079898  0.5266093501453710  0.4022787192280859
  0.6860580073310487  0.9701379725355537  0.5988435137968082
  0.5624444955981645  0.6233401846403694  0.5933052379805588
  0.6873036714197482  0.8738642946212423  0.4055205980784251
  0.6876381331454340  0.6826373942428816  0.4176387880968875
  0.5622744842353029  0.8141506897312354  0.5814087346517738
  0.8124946393839991  0.5265711060161848  0.4021353705648920
  0.9374157310163440  0.9696130726170153  0.5971076701822682
  0.8125617902830697  0.6234889180978485  0.5933524594070292
  0.9374228022989826  0.8743406447549731  0.4069067051545545
  0.9376424019833252  0.6828574312758207  0.4179772350829651
  0.8120191544545179  0.8145075735596023  0.5812097400230982
  0.4371883266590899  0.9690861473507226  0.6834666104010552
 
  0.00000000E+00  0.00000000E+00  0.00000000E+00
  0.00000000E+00  0.00000000E+00  0.00000000E+00
  0.00000000E+00  0.00000000E+00  0.00000000E+00
  0.00000000E+00  0.00000000E+00  0.00000000E+00
  0.00000000E+00  0.00000000E+00  0.00000000E+00
  0.00000000E+00  0.00000000E+00  0.00000000E+00
  0.00000000E+00  0.00000000E+00  0.00000000E+00
  0.00000000E+00  0.00000000E+00  0.00000000E+00
  0.00000000E+00  0.00000000E+00  0.00000000E+00
  0.00000000E+00  0.00000000E+00  0.00000000E+00
  0.00000000E+00  0.00000000E+00  0.00000000E+00
  0.00000000E+00  0.00000000E+00  0.00000000E+00
  0.00000000E+00  0.00000000E+00  0.00000000E+00
  0.00000000E+00  0.00000000E+00  0.00000000E+00
  0.00000000E+00  0.00000000E+00  0.00000000E+00
  0.00000000E+00  0.00000000E+00  0.00000000E+00
  0.00000000E+00  0.00000000E+00  0.00000000E+00
  0.00000000E+00  0.00000000E+00  0.00000000E+00
  0.00000000E+00  0.00000000E+00  0.00000000E+00
  0.00000000E+00  0.00000000E+00  0.00000000E+00
  0.00000000E+00  0.00000000E+00  0.00000000E+00
  0.00000000E+00  0.00000000E+00  0.00000000E+00
  0.00000000E+00  0.00000000E+00  0.00000000E+00
  0.00000000E+00  0.00000000E+00  0.00000000E+00
  0.00000000E+00  0.00000000E+00  0.00000000E+00
  0.00000000E+00  0.00000000E+00  0.00000000E+00
  0.00000000E+00  0.00000000E+00  0.00000000E+00
  0.00000000E+00  0.00000000E+00  0.00000000E+00
  0.00000000E+00  0.00000000E+00  0.00000000E+00
  0.00000000E+00  0.00000000E+00  0.00000000E+00
  0.00000000E+00  0.00000000E+00  0.00000000E+00
  0.00000000E+00  0.00000000E+00  0.00000000E+00
  0.00000000E+00  0.00000000E+00  0.00000000E+00
  0.00000000E+00  0.00000000E+00  0.00000000E+00
  0.00000000E+00  0.00000000E+00  0.00000000E+00
  0.00000000E+00  0.00000000E+00  0.00000000E+00
  0.00000000E+00  0.00000000E+00  0.00000000E+00
  0.00000000E+00  0.00000000E+00  0.00000000E+00
  0.00000000E+00  0.00000000E+00  0.00000000E+00
  0.00000000E+00  0.00000000E+00  0.00000000E+00
  0.00000000E+00  0.00000000E+00  0.00000000E+00
  0.00000000E+00  0.00000000E+00  0.00000000E+00
  0.00000000E+00  0.00000000E+00  0.00000000E+00
  0.00000000E+00  0.00000000E+00  0.00000000E+00
  0.00000000E+00  0.00000000E+00  0.00000000E+00
  0.00000000E+00  0.00000000E+00  0.00000000E+00
  0.00000000E+00  0.00000000E+00  0.00000000E+00
  0.00000000E+00  0.00000000E+00  0.00000000E+00
  0.00000000E+00  0.00000000E+00  0.00000000E+00
  0.00000000E+00  0.00000000E+00  0.00000000E+00
  0.00000000E+00  0.00000000E+00  0.00000000E+00
  0.00000000E+00  0.00000000E+00  0.00000000E+00
  0.00000000E+00  0.00000000E+00  0.00000000E+00
  0.00000000E+00  0.00000000E+00  0.00000000E+00
  0.00000000E+00  0.00000000E+00  0.00000000E+00
  0.00000000E+00  0.00000000E+00  0.00000000E+00
  0.00000000E+00  0.00000000E+00  0.00000000E+00
  0.00000000E+00  0.00000000E+00  0.00000000E+00
  0.00000000E+00  0.00000000E+00  0.00000000E+00
  0.00000000E+00  0.00000000E+00  0.00000000E+00
  0.00000000E+00  0.00000000E+00  0.00000000E+00
  0.00000000E+00  0.00000000E+00  0.00000000E+00
  0.00000000E+00  0.00000000E+00  0.00000000E+00
  0.00000000E+00  0.00000000E+00  0.00000000E+00
  0.00000000E+00  0.00000000E+00  0.00000000E+00
  0.00000000E+00  0.00000000E+00  0.00000000E+00
  0.00000000E+00  0.00000000E+00  0.00000000E+00
  0.00000000E+00  0.00000000E+00  0.00000000E+00
  0.00000000E+00  0.00000000E+00  0.00000000E+00
  0.00000000E+00  0.00000000E+00  0.00000000E+00
  0.00000000E+00  0.00000000E+00  0.00000000E+00
  0.00000000E+00  0.00000000E+00  0.00000000E+00
  0.00000000E+00  0.00000000E+00  0.00000000E+00
  0.00000000E+00  0.00000000E+00  0.00000000E+00
  0.00000000E+00  0.00000000E+00  0.00000000E+00
  0.00000000E+00  0.00000000E+00  0.00000000E+00
  0.00000000E+00  0.00000000E+00  0.00000000E+00
  0.00000000E+00  0.00000000E+00  0.00000000E+00
  0.00000000E+00  0.00000000E+00  0.00000000E+00
  0.00000000E+00  0.00000000E+00  0.00000000E+00
  0.00000000E+00  0.00000000E+00  0.00000000E+00
