CONTCAR\(5)                             
   1.00000000000000     
    12.2055997849000004    0.0000000000000000    0.0000000000000000
    -6.1027998924000002   10.5703594821000006    0.0000000000000000
     0.0000000000000000    0.0000000000000000   18.8425998688000007
   Tm   I    O 
     9    18     1
Direct
  0.0148494446652510  0.9851505553347485  0.4955745483807691
  0.3130156311935128  0.9698230572270580  0.4988792047376054
  0.6258526890009352  0.9848305174446755  0.4960511856573538
  0.0151694905553252  0.3741473649990621  0.4960511856573538
  0.3501288440076493  0.3476554344109274  0.5047091408861512
  0.6523424250091169  0.3476576179908830  0.5058180988862179
  0.0301769257729441  0.6869843748064878  0.4988792047376054
  0.3129535651243144  0.6870464238756882  0.4984470214394784
  0.6523446035890681  0.6498711689923551  0.5047091408861512
  0.2233492453290722  0.1148371914684822  0.6004006226760998
  0.1136608228539096  0.2292459773578332  0.4060458298275941
  0.5472820828566046  0.1148426377358600  0.6011576056324875
  0.4363871940498160  0.2163825093452254  0.4025018528036364
  0.8854386543551674  0.1145613396448317  0.5803576802271118
  0.7709675942293536  0.2290324717706447  0.4070423411634420
  0.2237209002342740  0.4533993352529052  0.6004106615234760
  0.1098892671130597  0.5644339411937790  0.3801100662491493
  0.5502066533702017  0.4497933616298032  0.6123945153264180
  0.4366201614228700  0.5633797875771367  0.4013759831456105
  0.8851574282641382  0.4527179381433937  0.6011576056324875
  0.7836175176547734  0.5636127939501898  0.4025018528036364
  0.2186387894219921  0.7813611145780069  0.6208157749582097
  0.1105302728567018  0.8894697771432957  0.3803430637308541
  0.5466006297470952  0.7762790537657221  0.6004106615234760
  0.4355660418062234  0.8901107688869361  0.3801100662491493
  0.8851627855315196  0.7766507146709247  0.6004006226760998
  0.7707540836421610  0.8863392331460878  0.4060458298275941
  0.5442864183429496  0.4556335156570477  0.7134082147547508
 
  0.00000000E+00  0.00000000E+00  0.00000000E+00
  0.00000000E+00  0.00000000E+00  0.00000000E+00
  0.00000000E+00  0.00000000E+00  0.00000000E+00
  0.00000000E+00  0.00000000E+00  0.00000000E+00
  0.00000000E+00  0.00000000E+00  0.00000000E+00
  0.00000000E+00  0.00000000E+00  0.00000000E+00
  0.00000000E+00  0.00000000E+00  0.00000000E+00
  0.00000000E+00  0.00000000E+00  0.00000000E+00
  0.00000000E+00  0.00000000E+00  0.00000000E+00
  0.00000000E+00  0.00000000E+00  0.00000000E+00
  0.00000000E+00  0.00000000E+00  0.00000000E+00
  0.00000000E+00  0.00000000E+00  0.00000000E+00
  0.00000000E+00  0.00000000E+00  0.00000000E+00
  0.00000000E+00  0.00000000E+00  0.00000000E+00
  0.00000000E+00  0.00000000E+00  0.00000000E+00
  0.00000000E+00  0.00000000E+00  0.00000000E+00
  0.00000000E+00  0.00000000E+00  0.00000000E+00
  0.00000000E+00  0.00000000E+00  0.00000000E+00
  0.00000000E+00  0.00000000E+00  0.00000000E+00
  0.00000000E+00  0.00000000E+00  0.00000000E+00
  0.00000000E+00  0.00000000E+00  0.00000000E+00
  0.00000000E+00  0.00000000E+00  0.00000000E+00
  0.00000000E+00  0.00000000E+00  0.00000000E+00
  0.00000000E+00  0.00000000E+00  0.00000000E+00
  0.00000000E+00  0.00000000E+00  0.00000000E+00
  0.00000000E+00  0.00000000E+00  0.00000000E+00
  0.00000000E+00  0.00000000E+00  0.00000000E+00
  0.00000000E+00  0.00000000E+00  0.00000000E+00
