CONTCAR\(8)                             
   1.00000000000000     
    11.2503995895000006    0.0000000000000000    0.0000000000000000
     0.0000000000000000   11.4902000426999997    0.0000000000000000
     0.0000000000000000    0.0000000000000000   19.3134994507000002
   Cr   Te   O 
     8    24     1
Direct
  0.9899024554559220  0.6681539499495073  0.4969094929346200
  0.4960452026189676  0.8271734154482583  0.5049277669716428
 -0.0049949812267366  0.3356816302868788  0.5009673331480179
  0.5122924140261977  0.1720009901873871  0.5006109989342893
  0.2734324457212789  0.5066224256931418  0.5157507511409410
  0.7800199019644456  0.0048361611191953  0.4919438689764400
  0.7406903480577665  0.4981392548424661  0.4889567939385184
  0.2181734336920902  0.0018713055175117  0.5034928925128908
  0.9102851151695829  0.5017134269456263  0.5867344387541961
  0.4095469047761977 -0.0003753499372562  0.4215436132903976
  0.0969828680346968  0.5008516346596401  0.4181071820213424
  0.5964274979888423 -0.0020842450814734  0.5835445191402420
  0.3321163950344456  0.1476341547699060  0.5934546776317489
  0.8372173424407749  0.3469608678658147  0.3953426044317049
  0.6672832526212281  0.8513492028868046  0.4054150920414258
  0.1502666970895588  0.6556628900013280  0.5984370853123261
  0.1704704739544625  0.3439498572747727  0.5987974074491558
  0.6762133150557312  0.1532525800010371  0.3981925835975343
  0.8268764355189840  0.6571571708033778  0.3956234807753787
  0.3393320744323599  0.8250579900951368  0.6131736476486799
  0.6453405074223464  0.3273417627279167  0.5695112582751140
  0.1166664920479745  0.1737523566375036  0.4260745364688755
  0.3814283432035928  0.6652422006973290  0.4299966721153765
  0.8799932559281749  0.8373357693460506  0.5737655337312795
  0.4445160173383489  0.5285412247042838  0.6200534582712580
  0.9442118046910346  0.0018780315916653  0.3904499198476188
  0.5658948451651129  0.4999373855875738  0.3941020902776726
  0.0645308209685231  0.9949651148732689  0.6078493576528657
  0.6342159069878238  0.6635551320643570  0.5670607971400478
  0.1176778990061328  0.8287997345857743  0.4242475816196519
  0.3860267012693278  0.3398126451584981  0.4385745564211840
  0.8681858103193972  0.1770501383584382  0.5772505325407392
  0.3984120492254031  0.6778392253383030  0.6662973939868091
 
  0.00000000E+00  0.00000000E+00  0.00000000E+00
  0.00000000E+00  0.00000000E+00  0.00000000E+00
  0.00000000E+00  0.00000000E+00  0.00000000E+00
  0.00000000E+00  0.00000000E+00  0.00000000E+00
  0.00000000E+00  0.00000000E+00  0.00000000E+00
  0.00000000E+00  0.00000000E+00  0.00000000E+00
  0.00000000E+00  0.00000000E+00  0.00000000E+00
  0.00000000E+00  0.00000000E+00  0.00000000E+00
  0.00000000E+00  0.00000000E+00  0.00000000E+00
  0.00000000E+00  0.00000000E+00  0.00000000E+00
  0.00000000E+00  0.00000000E+00  0.00000000E+00
  0.00000000E+00  0.00000000E+00  0.00000000E+00
  0.00000000E+00  0.00000000E+00  0.00000000E+00
  0.00000000E+00  0.00000000E+00  0.00000000E+00
  0.00000000E+00  0.00000000E+00  0.00000000E+00
  0.00000000E+00  0.00000000E+00  0.00000000E+00
  0.00000000E+00  0.00000000E+00  0.00000000E+00
  0.00000000E+00  0.00000000E+00  0.00000000E+00
  0.00000000E+00  0.00000000E+00  0.00000000E+00
  0.00000000E+00  0.00000000E+00  0.00000000E+00
  0.00000000E+00  0.00000000E+00  0.00000000E+00
  0.00000000E+00  0.00000000E+00  0.00000000E+00
  0.00000000E+00  0.00000000E+00  0.00000000E+00
  0.00000000E+00  0.00000000E+00  0.00000000E+00
  0.00000000E+00  0.00000000E+00  0.00000000E+00
  0.00000000E+00  0.00000000E+00  0.00000000E+00
  0.00000000E+00  0.00000000E+00  0.00000000E+00
  0.00000000E+00  0.00000000E+00  0.00000000E+00
  0.00000000E+00  0.00000000E+00  0.00000000E+00
  0.00000000E+00  0.00000000E+00  0.00000000E+00
  0.00000000E+00  0.00000000E+00  0.00000000E+00
  0.00000000E+00  0.00000000E+00  0.00000000E+00
  0.00000000E+00  0.00000000E+00  0.00000000E+00
