 Hf1 Te2                                
   1.00000000000000     
     3.9421769991054090    0.0000000000000000    0.0000000000000000
    -1.9710889941991681    3.4140245717277526    0.0000000000000000
     0.0000000000000000    0.0000000000000000   18.5140727126559987
   Hf   Te
     1     2
Direct
  0.0000000026023968  0.0000000010982414  0.4999999999921164
  0.3333333169798235  0.6666667758131585  0.4037767180251830
  0.6666666804177781  0.3333332230885993  0.5962232819826997
 
  0.00000000E+00  0.00000000E+00  0.00000000E+00
  0.00000000E+00  0.00000000E+00  0.00000000E+00
  0.00000000E+00  0.00000000E+00  0.00000000E+00
