CONTCAR\(10)                            
   1.00000000000000     
    11.3503999709999999    0.0000000000000000    0.0000000000000000
    -5.6751999854999999    9.8297347179999992    0.0000000000000000
     0.0000000000000000    0.0000000000000000   18.1851005553999983
   Zr   Se   O 
     9    18     1
Direct
  0.9937966943097436  0.9968983471548754  0.4973943692076332
  0.3262862524955779  0.9972190372626315  0.5013134863324495
  0.6682690315357220  0.0082894110520897  0.4964542971642629
  0.9982497678941442  0.3343531419781129  0.4998419919620360
  0.3262862514955742  0.3290672132329462  0.5013134863324495
  0.6606408437175162  0.3303154258587568  0.5045178343318781
  0.9982497878941388  0.6638966839160219  0.4998419919620360
  0.3330753017278667  0.6665426893639363  0.5240348897716984
  0.6682690505357272  0.6599796584836426  0.4964542971642629
  0.2148768601237165  0.1074384265618633  0.5879503211656427
  0.1079355123945760  0.2219687219329174  0.4114866000631210
  0.5510911499477942  0.1068885043071148  0.5886930680851634
  0.4390777129937575  0.2195388489968835  0.4145029982721553
  0.8850776918287195  0.1066689955760154  0.5867169987933494
  0.7726400874285062  0.2240634103425521  0.4121747678088354
  0.2027672179152091  0.4201464908362169  0.5934125815794502
  0.1145236929030418  0.5572668564515268  0.4192929128298033
  0.5510911319477927  0.4441926366406861  0.5886930680851634
  0.4356410315018664  0.5618215495500039  0.4231218508813583
  0.8840697616705953  0.4420298673353003  0.5884867584991653
  0.7726400854285060  0.5485766370859650  0.4121747678088354
  0.2027672039152080  0.7826207120790016  0.5934125815794502
  0.1079355433945750  0.8859668594616608  0.4114866000631210
  0.6051567509226956  0.8025783814613519  0.6021183328630002
  0.4356410435018674  0.8738295479518570  0.4231218508813583
  0.8850776588287204  0.7784086562527079  0.5867169987933494
  0.7719805923454359  0.8859903361727177  0.4109576791001430
  0.4204666304013998  0.7102233357006966  0.6217323646188220
 
  0.00000000E+00  0.00000000E+00  0.00000000E+00
  0.00000000E+00  0.00000000E+00  0.00000000E+00
  0.00000000E+00  0.00000000E+00  0.00000000E+00
  0.00000000E+00  0.00000000E+00  0.00000000E+00
  0.00000000E+00  0.00000000E+00  0.00000000E+00
  0.00000000E+00  0.00000000E+00  0.00000000E+00
  0.00000000E+00  0.00000000E+00  0.00000000E+00
  0.00000000E+00  0.00000000E+00  0.00000000E+00
  0.00000000E+00  0.00000000E+00  0.00000000E+00
  0.00000000E+00  0.00000000E+00  0.00000000E+00
  0.00000000E+00  0.00000000E+00  0.00000000E+00
  0.00000000E+00  0.00000000E+00  0.00000000E+00
  0.00000000E+00  0.00000000E+00  0.00000000E+00
  0.00000000E+00  0.00000000E+00  0.00000000E+00
  0.00000000E+00  0.00000000E+00  0.00000000E+00
  0.00000000E+00  0.00000000E+00  0.00000000E+00
  0.00000000E+00  0.00000000E+00  0.00000000E+00
  0.00000000E+00  0.00000000E+00  0.00000000E+00
  0.00000000E+00  0.00000000E+00  0.00000000E+00
  0.00000000E+00  0.00000000E+00  0.00000000E+00
  0.00000000E+00  0.00000000E+00  0.00000000E+00
  0.00000000E+00  0.00000000E+00  0.00000000E+00
  0.00000000E+00  0.00000000E+00  0.00000000E+00
  0.00000000E+00  0.00000000E+00  0.00000000E+00
  0.00000000E+00  0.00000000E+00  0.00000000E+00
  0.00000000E+00  0.00000000E+00  0.00000000E+00
  0.00000000E+00  0.00000000E+00  0.00000000E+00
  0.00000000E+00  0.00000000E+00  0.00000000E+00
