CONTCAR\(8)                             
   1.00000000000000     
    12.9361000061000002    0.0000000000000000    0.0000000000000000
     0.0000000000000000   12.9357995986999992    0.0000000000000000
     0.0000000000000000    0.0000000000000000   24.1072998046999984
   Dy   Te   O 
    18    54     1
Direct
  0.1661707228499070  0.0007561240405912  0.5841540811063523
  0.9987601024793162  0.1668558494486394  0.4143737933786884
  0.5000732505950739  0.0013769086987661  0.5855909942099781
  0.3323378194852069  0.1665347476865488  0.4147553603099475
  0.8337522182634536  0.0039242280241509  0.5835700991075644
  0.6655442241787385  0.1665928807920966  0.4150786634661716
  0.1631976173941157  0.3331332145118634  0.5836181476801044
  0.9994345061208422  0.4997703834802695  0.4150100576484618
  0.4984738360462889  0.3315429192584529  0.5839589479332477
  0.3329271178482665  0.5005577480257317  0.4157909371821687
  0.8310907139041034  0.3357311548938267  0.5853067436417185
  0.6653847894136667  0.5003498856395607  0.4163243547851910
  0.1653953952377201  0.6671570063488792  0.5855300501697539
  0.9992965314599312  0.8333249303596703  0.4146184843714141
  0.4980279743193426  0.6690241757517571  0.5880955174674154
  0.3325083366706141  0.8333355484454167  0.4156431088047261
  0.8353954115692459  0.6679584385208615  0.5838620909230181
  0.6654432949423051  0.8328409027182346  0.4157271939355028
  0.9992391861344948  0.0000940350988882  0.3112174067486932
  0.1608517540077381  0.1666928142878059  0.6872376222759929
  0.0011672355999463  0.0077272710068024  0.6871972385993113
  0.1659858407612322  0.1666513971291557  0.3112818339736500
  0.1655461977667784  0.0002312823241287  0.4532634433075823
  0.9982514075726892  0.1687836086346793  0.5452635190265405
  0.3323270148711113  0.9995441500108506  0.3120191035220634
  0.4987435771898581  0.1680725813261267  0.6888964788208525
  0.3322896042550991  0.0033065692227589  0.6882668969692074
  0.4989732179032486  0.1661615271383231  0.3118806526204029
  0.4992010967418907  0.9999852160907279  0.4541455529467652
  0.3324985849816957  0.1661408721066923  0.5458546358674815
  0.6657910847321117  0.9995710207447239  0.3120053068810811
  0.8298176895608177  0.1701086565535645  0.6878832055887709
  0.6655539884713682  0.0041537998221683  0.6883815104088978
  0.8320089539856849  0.1667721495890013  0.3114432547370419
  0.8320381549770959  0.9996432659027921  0.4531273446688327
  0.6656036700540929  0.1676050962588714  0.5463928435065448
  0.9988914670008953  0.3332248564005894  0.3115804488226657
  0.1638352311454254  0.5020163050407553  0.6882906116983515
  0.9975009884016358  0.3372891818950947  0.6881049532174084
  0.1660563715626261  0.4999353946029250  0.3119859892965264
  0.1664050289236901  0.3336877168105071  0.4531455132727445
  0.9992884025494372  0.5007058550898994  0.5463306943385425
  0.3329207965299542  0.3335976459897546  0.3119618618617734
  0.4858108222488952  0.4974788653070213  0.6985840376141488
  0.3283097045442305  0.3317635601674599  0.6836088457829723
  0.4993879716729596  0.5000287001823975  0.3128426176303410
  0.4989161800034570  0.3332622028622813  0.4537893048680173
  0.3333750434042440  0.5012781346945377  0.5478882778521685
  0.6654549866528311  0.3331653169996510  0.3124480333083340
  0.8314287401385029  0.5068940301732561  0.6886291097203970
  0.6606491926311582  0.3372998937400018  0.6886742563305566
  0.8322911564964280  0.4996284135471930  0.3123557973140563
  0.8320730750970932  0.3339681308821354  0.4539978227138457
  0.6639576798976525  0.5026002664792264  0.5485926634247486
  0.9991383564618397  0.6659798554782241  0.3117479236467509
  0.1644872991185261  0.8364073780159604  0.6882276755101667
  0.0004433043031411  0.6694124243509211  0.6887611129967309
  0.1656700797621562  0.8330994334944951  0.3119669605829278
  0.1660498353846000  0.6667098777325795  0.4540894901567184
  0.0003097671305108  0.8342593580310602  0.5456516110880216
  0.3324298189233737  0.6666228801769423  0.3126154115082321
  0.4987416608852532  0.8371222601776158  0.6912228025448969
  0.3297059713031819  0.6693239389689765  0.6912170847231774
  0.4989999949730276  0.8329983473667038  0.3126477778334785
  0.4989079976525739  0.6671611638697830  0.4557140360562013
  0.3332770778902792  0.8337091567160252  0.5473181827208403
  0.6655834696680728  0.6660654526859605  0.3127619399167446
  0.8363739938265624  0.8396101068131715  0.6833377465089693
  0.6715729275334825  0.6816682083599854  0.6987062807945269
  0.8326283907089421  0.8331853276594062  0.3119143061010462
  0.8329982586888095  0.6664994388562444  0.4536507837868909
  0.6656683681118243  0.8331138454677410  0.5478422846040949
  0.5887485244276354  0.5791350940201887  0.7441784692609272
 
  0.00000000E+00  0.00000000E+00  0.00000000E+00
  0.00000000E+00  0.00000000E+00  0.00000000E+00
  0.00000000E+00  0.00000000E+00  0.00000000E+00
  0.00000000E+00  0.00000000E+00  0.00000000E+00
  0.00000000E+00  0.00000000E+00  0.00000000E+00
  0.00000000E+00  0.00000000E+00  0.00000000E+00
  0.00000000E+00  0.00000000E+00  0.00000000E+00
  0.00000000E+00  0.00000000E+00  0.00000000E+00
  0.00000000E+00  0.00000000E+00  0.00000000E+00
  0.00000000E+00  0.00000000E+00  0.00000000E+00
  0.00000000E+00  0.00000000E+00  0.00000000E+00
  0.00000000E+00  0.00000000E+00  0.00000000E+00
  0.00000000E+00  0.00000000E+00  0.00000000E+00
  0.00000000E+00  0.00000000E+00  0.00000000E+00
  0.00000000E+00  0.00000000E+00  0.00000000E+00
  0.00000000E+00  0.00000000E+00  0.00000000E+00
  0.00000000E+00  0.00000000E+00  0.00000000E+00
  0.00000000E+00  0.00000000E+00  0.00000000E+00
  0.00000000E+00  0.00000000E+00  0.00000000E+00
  0.00000000E+00  0.00000000E+00  0.00000000E+00
  0.00000000E+00  0.00000000E+00  0.00000000E+00
  0.00000000E+00  0.00000000E+00  0.00000000E+00
  0.00000000E+00  0.00000000E+00  0.00000000E+00
  0.00000000E+00  0.00000000E+00  0.00000000E+00
  0.00000000E+00  0.00000000E+00  0.00000000E+00
  0.00000000E+00  0.00000000E+00  0.00000000E+00
  0.00000000E+00  0.00000000E+00  0.00000000E+00
  0.00000000E+00  0.00000000E+00  0.00000000E+00
  0.00000000E+00  0.00000000E+00  0.00000000E+00
  0.00000000E+00  0.00000000E+00  0.00000000E+00
  0.00000000E+00  0.00000000E+00  0.00000000E+00
  0.00000000E+00  0.00000000E+00  0.00000000E+00
  0.00000000E+00  0.00000000E+00  0.00000000E+00
  0.00000000E+00  0.00000000E+00  0.00000000E+00
  0.00000000E+00  0.00000000E+00  0.00000000E+00
  0.00000000E+00  0.00000000E+00  0.00000000E+00
  0.00000000E+00  0.00000000E+00  0.00000000E+00
  0.00000000E+00  0.00000000E+00  0.00000000E+00
  0.00000000E+00  0.00000000E+00  0.00000000E+00
  0.00000000E+00  0.00000000E+00  0.00000000E+00
  0.00000000E+00  0.00000000E+00  0.00000000E+00
  0.00000000E+00  0.00000000E+00  0.00000000E+00
  0.00000000E+00  0.00000000E+00  0.00000000E+00
  0.00000000E+00  0.00000000E+00  0.00000000E+00
  0.00000000E+00  0.00000000E+00  0.00000000E+00
  0.00000000E+00  0.00000000E+00  0.00000000E+00
  0.00000000E+00  0.00000000E+00  0.00000000E+00
  0.00000000E+00  0.00000000E+00  0.00000000E+00
  0.00000000E+00  0.00000000E+00  0.00000000E+00
  0.00000000E+00  0.00000000E+00  0.00000000E+00
  0.00000000E+00  0.00000000E+00  0.00000000E+00
  0.00000000E+00  0.00000000E+00  0.00000000E+00
  0.00000000E+00  0.00000000E+00  0.00000000E+00
  0.00000000E+00  0.00000000E+00  0.00000000E+00
  0.00000000E+00  0.00000000E+00  0.00000000E+00
  0.00000000E+00  0.00000000E+00  0.00000000E+00
  0.00000000E+00  0.00000000E+00  0.00000000E+00
  0.00000000E+00  0.00000000E+00  0.00000000E+00
  0.00000000E+00  0.00000000E+00  0.00000000E+00
  0.00000000E+00  0.00000000E+00  0.00000000E+00
  0.00000000E+00  0.00000000E+00  0.00000000E+00
  0.00000000E+00  0.00000000E+00  0.00000000E+00
  0.00000000E+00  0.00000000E+00  0.00000000E+00
  0.00000000E+00  0.00000000E+00  0.00000000E+00
  0.00000000E+00  0.00000000E+00  0.00000000E+00
  0.00000000E+00  0.00000000E+00  0.00000000E+00
  0.00000000E+00  0.00000000E+00  0.00000000E+00
  0.00000000E+00  0.00000000E+00  0.00000000E+00
  0.00000000E+00  0.00000000E+00  0.00000000E+00
  0.00000000E+00  0.00000000E+00  0.00000000E+00
  0.00000000E+00  0.00000000E+00  0.00000000E+00
  0.00000000E+00  0.00000000E+00  0.00000000E+00
  0.00000000E+00  0.00000000E+00  0.00000000E+00
