CONTCAR                                 
   1.00000000000000     
    12.1801004410000004    0.0000000000000000    0.0000000000000000
    -1.4509505809000001   16.7930344431000016    0.0000000000000000
     0.0000000000000000    0.0000000000000000   21.1623001098999985
   Cu   Se   Cl   O 
    24    16    16    49
Direct
  0.4121989019645824  0.2754738962013424  0.3758811973492471
  0.2592687564524907  0.1696749881324953  0.4634901913113879
  0.4996871350449731  0.1843853039094047  0.6232913182166517
  0.3478320979682636  0.0086136074347873  0.5319702816626299
  0.1537807516269399  0.2954973676503113  0.5382162389381671
  0.0606852733054359  0.4501439974958447  0.4660272154312631
  0.9118815789863679  0.2744358610798731  0.3750944000717257
  0.7592346439172338  0.1683884988248140  0.4635750567864942
  0.9997861806315259  0.1841050962192324  0.6235129426477504
  0.8486741460696557  0.0092126016013893  0.5331347581615123
  0.6528549131366294  0.2932806219108249  0.5366651241953401
  0.5573434978364945  0.4496768923832704  0.4628472876139166
  0.4138765112780596  0.7777318482114925  0.3769657579957941
  0.2633607339032302  0.6717190072599190  0.4659754796713281
  0.5031682022098781  0.6814666842729994  0.6595540230990307
  0.3613394952389580  0.5145551060673549  0.5406006364693371
  0.1481350412377936  0.7934773935178885  0.5392077857334581
  0.0570171722112692  0.9486544937947193  0.4661781158707218
  0.9142737222038794  0.7763429910108369  0.3764167596918920
  0.7624442822958581  0.6664089320088443  0.4621740251862304
  0.9964540251171324  0.6833553563249372  0.6236083749319591
  0.8546487139989567  0.5107787509379912  0.5355558027265787
  0.6436719966215276  0.7822294409910558  0.5382768465249168
  0.5600847354265092  0.9493009782979028  0.4685571567712699
  0.1607028182501405  0.3260447209337654  0.3768605211616858
  0.2503743601221318  0.1331459147660693  0.6221326760475266
  0.0217376235757549  0.1217086978542548  0.4239410329874855
  0.3914637311871217  0.3389238517485209  0.5763501958614863
  0.6615925364752457  0.3259078120587012  0.3763580021831507
  0.7504340470452794  0.1334905754877992  0.6229742615600634
  0.5218356079797367  0.1220182996291871  0.4234782542615800
  0.8904401326098748  0.3378307645556977  0.5767620510698681
  0.1622306331148838  0.8267906775764658  0.3780667852283199
  0.2486939007056250  0.6345577630912320  0.6244297092496589
  0.0248159547993771  0.6223932925519677  0.4235753274701801
  0.3912642704087309  0.8354404592027799  0.5755169453858261
  0.6633142161202968  0.8271478899786124  0.3799245945401079
  0.7481235016081905  0.6326131786822751  0.6228906317956174
  0.5224154848274034  0.6226666667814515  0.4221998871270533
  0.8841432694276894  0.8370426447332099  0.5775004686595203
  0.2086238325694908  0.4414265217251774  0.5826586621831634
  0.1996064179423066  0.0153399560373855  0.4146931012751464
  0.4192951869111098  0.3997884734951463  0.3455041194903183
  0.4934633343509400  0.0613887241737292  0.6557694202546266
  0.7112690462302892  0.4421067462089480  0.5852657152466936
  0.7013471421111307  0.0158302602433718  0.4160613865672813
  0.9164091547958754  0.3971974822648080  0.3417417893081861
  0.9939692239002312  0.0611209300624602  0.6562011154729065
  0.2066693007733174  0.9436903707733856  0.5853482331943931
  0.1989439346693637  0.5158802339418194  0.4118389495915339
  0.4196000384491911  0.9007885255619434  0.3442040365880020
  0.4738067986329509  0.5498599107637999  0.6418429551344853
  0.7083881177227322  0.9449232723432917  0.5868477481959180
  0.7000917535932205  0.5159921473034684  0.4112526515022553
  0.9203854043658468  0.9003481148514737  0.3450923593737376
  0.9897304270512013  0.5583233722493166  0.6525639790455601
  0.0582785761544238  0.2551547283852191  0.3523414325311922
  0.4451208300986072  0.4204070072262996  0.5302590921985368
  0.1041822219415859  0.1722073931449252  0.4792788947406104
  0.3535754771823412  0.2040317838367061  0.6456704314368591
  0.2930860731368368  0.1124132747326681  0.5439186246168951
  0.1547590739572438  0.2033814665575265  0.6079722054502611
  0.4694567198998562  0.0406502007623038  0.4701833839184192
  0.4041009973110097  0.1768006441389502  0.4260221060805958
  0.3080113837599529  0.2894188432589060  0.5208907896515588
  0.1154134941010965  0.3465921997432396  0.4542980255397643
  0.0080737222274958  0.2827638846193335  0.5735050676279572
  0.2570674025557809  0.2563640662230801  0.3924308125563100
  0.5582090221242365  0.2555991218943262  0.3523142226239013
  0.9433654805943255  0.4196016108020742  0.5303242341277360
  0.6042039716159852  0.1721916727887971  0.4792069888979611
  0.8538857353544581  0.2041346945659017  0.6466460524790317
  0.7948892644293565  0.1131096407956168  0.5450147088449914
  0.6548175599786732  0.2034935551402399  0.6078964259852075
  0.9692825236207354  0.0403042676781636  0.4711385888073569
  0.9041196975819130  0.1765473442962563  0.4263660904535186
  0.8077681002333854  0.2884646081801338  0.5208720871958143
  0.6171217468289186  0.3473844351895915  0.4540707138354543
  0.5081026024148753  0.2829141032693861  0.5732211902055756
  0.7571245600721598  0.2557969863643370  0.3922225354362931
  0.0601169944209130  0.7563458372115432  0.3528327797887382
  0.4371911247663349  0.9190566432253843  0.5272417604623486
  0.1067745997425578  0.6721931223818073  0.4793698768941819
  0.3459889535108993  0.7049609990744748  0.6525878124023462
  0.2927753994063045  0.6134928128225673  0.5457172797415558
  0.1510559723841937  0.7031172349160244  0.6080915405687674
  0.4683323389871362  0.5407806126793681  0.4673450945574039
  0.4070739534417996  0.6794453347982216  0.4276314975508715
  0.3001940433179220  0.7879583283579547  0.5216265924673186
  0.1148724084923026  0.8463391885779191  0.4557231264727345
  0.0025701781116818  0.7828657143799955  0.5741315651363839
  0.2585439634331200  0.7572138853601343  0.3926541122543052
  0.5601003672894561  0.7578852484084387  0.3540839780401539
  0.9355529447115611  0.9170976546326066  0.5284336723390457
  0.6081929849391591  0.6700556765699560  0.4778296097928137
  0.8512172194745365  0.7026955548436550  0.6478103541433199
  0.7940082134331982  0.6122242098235862  0.5447868353790675
  0.6487397384888283  0.6985652132914628  0.6097071524070325
  0.9706375796653491  0.5406725167651195  0.4698468350729874
  0.9071189093835050  0.6775404192564065  0.4268170203320882
  0.7999841176098141  0.7846323619316813  0.5239576132081545
  0.6190483234214034  0.8460819072156240  0.4581860302149878
  0.4986828065136109  0.7781634359427317  0.5685086291909091
  0.7590525252039596  0.7565213720802564  0.3924865455589934
  0.5414340956648770  0.7521367236880844  0.7186335757097747
 
  0.00000000E+00  0.00000000E+00  0.00000000E+00
  0.00000000E+00  0.00000000E+00  0.00000000E+00
  0.00000000E+00  0.00000000E+00  0.00000000E+00
  0.00000000E+00  0.00000000E+00  0.00000000E+00
  0.00000000E+00  0.00000000E+00  0.00000000E+00
  0.00000000E+00  0.00000000E+00  0.00000000E+00
  0.00000000E+00  0.00000000E+00  0.00000000E+00
  0.00000000E+00  0.00000000E+00  0.00000000E+00
  0.00000000E+00  0.00000000E+00  0.00000000E+00
  0.00000000E+00  0.00000000E+00  0.00000000E+00
  0.00000000E+00  0.00000000E+00  0.00000000E+00
  0.00000000E+00  0.00000000E+00  0.00000000E+00
  0.00000000E+00  0.00000000E+00  0.00000000E+00
  0.00000000E+00  0.00000000E+00  0.00000000E+00
  0.00000000E+00  0.00000000E+00  0.00000000E+00
  0.00000000E+00  0.00000000E+00  0.00000000E+00
  0.00000000E+00  0.00000000E+00  0.00000000E+00
  0.00000000E+00  0.00000000E+00  0.00000000E+00
  0.00000000E+00  0.00000000E+00  0.00000000E+00
  0.00000000E+00  0.00000000E+00  0.00000000E+00
  0.00000000E+00  0.00000000E+00  0.00000000E+00
  0.00000000E+00  0.00000000E+00  0.00000000E+00
  0.00000000E+00  0.00000000E+00  0.00000000E+00
  0.00000000E+00  0.00000000E+00  0.00000000E+00
  0.00000000E+00  0.00000000E+00  0.00000000E+00
  0.00000000E+00  0.00000000E+00  0.00000000E+00
  0.00000000E+00  0.00000000E+00  0.00000000E+00
  0.00000000E+00  0.00000000E+00  0.00000000E+00
  0.00000000E+00  0.00000000E+00  0.00000000E+00
  0.00000000E+00  0.00000000E+00  0.00000000E+00
  0.00000000E+00  0.00000000E+00  0.00000000E+00
  0.00000000E+00  0.00000000E+00  0.00000000E+00
  0.00000000E+00  0.00000000E+00  0.00000000E+00
  0.00000000E+00  0.00000000E+00  0.00000000E+00
  0.00000000E+00  0.00000000E+00  0.00000000E+00
  0.00000000E+00  0.00000000E+00  0.00000000E+00
  0.00000000E+00  0.00000000E+00  0.00000000E+00
  0.00000000E+00  0.00000000E+00  0.00000000E+00
  0.00000000E+00  0.00000000E+00  0.00000000E+00
  0.00000000E+00  0.00000000E+00  0.00000000E+00
  0.00000000E+00  0.00000000E+00  0.00000000E+00
  0.00000000E+00  0.00000000E+00  0.00000000E+00
  0.00000000E+00  0.00000000E+00  0.00000000E+00
  0.00000000E+00  0.00000000E+00  0.00000000E+00
  0.00000000E+00  0.00000000E+00  0.00000000E+00
  0.00000000E+00  0.00000000E+00  0.00000000E+00
  0.00000000E+00  0.00000000E+00  0.00000000E+00
  0.00000000E+00  0.00000000E+00  0.00000000E+00
  0.00000000E+00  0.00000000E+00  0.00000000E+00
  0.00000000E+00  0.00000000E+00  0.00000000E+00
  0.00000000E+00  0.00000000E+00  0.00000000E+00
  0.00000000E+00  0.00000000E+00  0.00000000E+00
  0.00000000E+00  0.00000000E+00  0.00000000E+00
  0.00000000E+00  0.00000000E+00  0.00000000E+00
  0.00000000E+00  0.00000000E+00  0.00000000E+00
  0.00000000E+00  0.00000000E+00  0.00000000E+00
  0.00000000E+00  0.00000000E+00  0.00000000E+00
  0.00000000E+00  0.00000000E+00  0.00000000E+00
  0.00000000E+00  0.00000000E+00  0.00000000E+00
  0.00000000E+00  0.00000000E+00  0.00000000E+00
  0.00000000E+00  0.00000000E+00  0.00000000E+00
  0.00000000E+00  0.00000000E+00  0.00000000E+00
  0.00000000E+00  0.00000000E+00  0.00000000E+00
  0.00000000E+00  0.00000000E+00  0.00000000E+00
  0.00000000E+00  0.00000000E+00  0.00000000E+00
  0.00000000E+00  0.00000000E+00  0.00000000E+00
  0.00000000E+00  0.00000000E+00  0.00000000E+00
  0.00000000E+00  0.00000000E+00  0.00000000E+00
  0.00000000E+00  0.00000000E+00  0.00000000E+00
  0.00000000E+00  0.00000000E+00  0.00000000E+00
  0.00000000E+00  0.00000000E+00  0.00000000E+00
  0.00000000E+00  0.00000000E+00  0.00000000E+00
  0.00000000E+00  0.00000000E+00  0.00000000E+00
  0.00000000E+00  0.00000000E+00  0.00000000E+00
  0.00000000E+00  0.00000000E+00  0.00000000E+00
  0.00000000E+00  0.00000000E+00  0.00000000E+00
  0.00000000E+00  0.00000000E+00  0.00000000E+00
  0.00000000E+00  0.00000000E+00  0.00000000E+00
  0.00000000E+00  0.00000000E+00  0.00000000E+00
  0.00000000E+00  0.00000000E+00  0.00000000E+00
  0.00000000E+00  0.00000000E+00  0.00000000E+00
  0.00000000E+00  0.00000000E+00  0.00000000E+00
  0.00000000E+00  0.00000000E+00  0.00000000E+00
  0.00000000E+00  0.00000000E+00  0.00000000E+00
  0.00000000E+00  0.00000000E+00  0.00000000E+00
  0.00000000E+00  0.00000000E+00  0.00000000E+00
  0.00000000E+00  0.00000000E+00  0.00000000E+00
  0.00000000E+00  0.00000000E+00  0.00000000E+00
  0.00000000E+00  0.00000000E+00  0.00000000E+00
  0.00000000E+00  0.00000000E+00  0.00000000E+00
  0.00000000E+00  0.00000000E+00  0.00000000E+00
  0.00000000E+00  0.00000000E+00  0.00000000E+00
  0.00000000E+00  0.00000000E+00  0.00000000E+00
  0.00000000E+00  0.00000000E+00  0.00000000E+00
  0.00000000E+00  0.00000000E+00  0.00000000E+00
  0.00000000E+00  0.00000000E+00  0.00000000E+00
  0.00000000E+00  0.00000000E+00  0.00000000E+00
  0.00000000E+00  0.00000000E+00  0.00000000E+00
  0.00000000E+00  0.00000000E+00  0.00000000E+00
  0.00000000E+00  0.00000000E+00  0.00000000E+00
  0.00000000E+00  0.00000000E+00  0.00000000E+00
  0.00000000E+00  0.00000000E+00  0.00000000E+00
  0.00000000E+00  0.00000000E+00  0.00000000E+00
  0.00000000E+00  0.00000000E+00  0.00000000E+00
  0.00000000E+00  0.00000000E+00  0.00000000E+00
