CONTCAR                                 
   1.00000000000000     
    13.3114004134999995    0.0000000000000000    0.0000000000000000
     0.0000000000000000   13.2841997146999997    0.0000000000000000
     0.0000000000000000    0.0000000000000000   29.9494991301999995
   Bi   I    O 
    54    12     1
Direct
  0.2361245005677916  0.6503712960404570  0.6497442636479341
  0.0848973280945323  0.3396911163143740  0.3486927374008921
  0.2526905537236142  0.3010231493312058  0.4170809747758473
  0.0692859672371793  0.6989173290799011  0.5828741640878440
  0.2519803903831496  0.0796559690084069  0.3862914193364358
  0.0863785066731367  0.9173810063038674  0.6172456450601455
  0.2646246730804460  0.9639821033835477  0.5562057611012220
  0.0872009615808233  0.0228839149798298  0.4527719380963477
  0.2521432511988073  0.1925857511011068  0.5772088822753114
  0.0729429436898651  0.8015041447190659  0.4212657808522301
  0.2465938185030635  0.7590700102233994  0.4861961539337369
  0.0884748397893741  0.2462581474015434  0.5090198005529902
  0.2521465205069505  0.5282052158537727  0.4686865228549445
  0.0855269086916007  0.4723052251032726  0.5334288386088839
  0.0856488903831084  0.5632831084363875  0.3723541388634281
  0.2374249032299426  0.4255411310440320  0.6311494678510673
  0.0715906504184292  0.3790720006237459  0.6997043086369636
  0.2507164738339654  0.6136594693295911  0.3034543163944836
  0.5869608132524936  0.6770711934825288  0.6618710152145161
  0.4191967311096124  0.3398681677492520  0.3478414907202587
  0.5833373376209940  0.3014833152512210  0.4177682795289004
  0.3762458348605016  0.6825110259499303  0.5710895732474717
  0.5869129018401731  0.0811739929478822  0.3863282787671719
  0.4380686086379830  0.9303422268315094  0.6259706447594755
  0.5912958014898940  0.9839909990260860  0.5530719580481332
  0.4196163836805382  0.0217376955528823  0.4508908530628228
  0.5867772437648053  0.2077824838467972  0.5781997535160380
  0.4198169209701268  0.7985903987601294  0.4217742462551525
  0.5783185659310105  0.7563504973737115  0.4940326723892904
  0.4179178789545007  0.2360355153760154  0.5093269152868930
  0.5868791104897352  0.5329681100072632  0.4670340358781656
  0.4247385256414104  0.4645878280275221  0.5322533546836690
  0.4177085518885651  0.5635700400020552  0.3718527021720573
  0.5697621026315025  0.4527088909888051  0.6298403241817899
  0.4095269649014434  0.3912526348792457  0.6991590752840657
  0.5831959097721308  0.6143443120984571  0.3032530149989974
  0.9106230350026648  0.6579163853939506  0.6540656286907524
  0.7508365275679322  0.3414994886176926  0.3495688088695948
  0.9182980929410779  0.2992998477080983  0.4174080100546910
  0.7435367670259928  0.7041275820993173  0.5871198388147851
  0.9198609905874716  0.0782934006333939  0.3877688398490693
  0.7613253642468990  0.9247078277588499  0.6163065666408643
  0.9258888084836288  0.9770275830453340  0.5491986799660012
  0.7516263745976315  0.0262648680752772  0.4528354533228797
  0.9206687191945427  0.2014562455481636  0.5756485236678742
  0.7442990465022793  0.8013639824929186  0.4264761423452618
  0.9148485684200779  0.7522813014617954  0.4916543547775125
  0.7515598736566259  0.2516346200905253  0.5098280407832144
  0.9174591649346885  0.5268766963830502  0.4675968457481326
  0.7518692621540416  0.4774296785617609  0.5340643183885576
  0.7517228654969528  0.5661517676046096  0.3711925168284158
  0.9085311374162801  0.4346656879652075  0.6299073442605747
  0.7379852358792369  0.3897642621577424  0.6961300838337448
  0.9197294860229890  0.6125373334083277  0.3033655361360971
  0.0747821553910061  0.5887198485666446  0.7417359787860268
  0.2501964615791591  0.4045886451392031  0.2606040155076750
  0.0801970604453191  0.1526781236384576  0.6693458646526957
  0.2514989694684279  0.8422178828453261  0.3314499149273963
  0.4046591975699912  0.5936712595494331  0.7433884702452500
  0.5826211518031570  0.4051216684430231  0.2606487390539254
  0.4171362878937058  0.1567313515773950  0.6721586464005933
  0.5864564158986755  0.8424332082993392  0.3321307371327997
  0.7362546596662992  0.6064083683713890  0.7408769234963886
  0.9186926611666196  0.4033734448848176  0.2612110677963709
  0.7461723855923302  0.1661363567848141  0.6709952330641724
  0.9181747120288241  0.8406438794460936  0.3326180225431773
  0.4764399803422767  0.7661077350191973  0.6172877120899387
 
  0.00000000E+00  0.00000000E+00  0.00000000E+00
  0.00000000E+00  0.00000000E+00  0.00000000E+00
  0.00000000E+00  0.00000000E+00  0.00000000E+00
  0.00000000E+00  0.00000000E+00  0.00000000E+00
  0.00000000E+00  0.00000000E+00  0.00000000E+00
  0.00000000E+00  0.00000000E+00  0.00000000E+00
  0.00000000E+00  0.00000000E+00  0.00000000E+00
  0.00000000E+00  0.00000000E+00  0.00000000E+00
  0.00000000E+00  0.00000000E+00  0.00000000E+00
  0.00000000E+00  0.00000000E+00  0.00000000E+00
  0.00000000E+00  0.00000000E+00  0.00000000E+00
  0.00000000E+00  0.00000000E+00  0.00000000E+00
  0.00000000E+00  0.00000000E+00  0.00000000E+00
  0.00000000E+00  0.00000000E+00  0.00000000E+00
  0.00000000E+00  0.00000000E+00  0.00000000E+00
  0.00000000E+00  0.00000000E+00  0.00000000E+00
  0.00000000E+00  0.00000000E+00  0.00000000E+00
  0.00000000E+00  0.00000000E+00  0.00000000E+00
  0.00000000E+00  0.00000000E+00  0.00000000E+00
  0.00000000E+00  0.00000000E+00  0.00000000E+00
  0.00000000E+00  0.00000000E+00  0.00000000E+00
  0.00000000E+00  0.00000000E+00  0.00000000E+00
  0.00000000E+00  0.00000000E+00  0.00000000E+00
  0.00000000E+00  0.00000000E+00  0.00000000E+00
  0.00000000E+00  0.00000000E+00  0.00000000E+00
  0.00000000E+00  0.00000000E+00  0.00000000E+00
  0.00000000E+00  0.00000000E+00  0.00000000E+00
  0.00000000E+00  0.00000000E+00  0.00000000E+00
  0.00000000E+00  0.00000000E+00  0.00000000E+00
  0.00000000E+00  0.00000000E+00  0.00000000E+00
  0.00000000E+00  0.00000000E+00  0.00000000E+00
  0.00000000E+00  0.00000000E+00  0.00000000E+00
  0.00000000E+00  0.00000000E+00  0.00000000E+00
  0.00000000E+00  0.00000000E+00  0.00000000E+00
  0.00000000E+00  0.00000000E+00  0.00000000E+00
  0.00000000E+00  0.00000000E+00  0.00000000E+00
  0.00000000E+00  0.00000000E+00  0.00000000E+00
  0.00000000E+00  0.00000000E+00  0.00000000E+00
  0.00000000E+00  0.00000000E+00  0.00000000E+00
  0.00000000E+00  0.00000000E+00  0.00000000E+00
  0.00000000E+00  0.00000000E+00  0.00000000E+00
  0.00000000E+00  0.00000000E+00  0.00000000E+00
  0.00000000E+00  0.00000000E+00  0.00000000E+00
  0.00000000E+00  0.00000000E+00  0.00000000E+00
  0.00000000E+00  0.00000000E+00  0.00000000E+00
  0.00000000E+00  0.00000000E+00  0.00000000E+00
  0.00000000E+00  0.00000000E+00  0.00000000E+00
  0.00000000E+00  0.00000000E+00  0.00000000E+00
  0.00000000E+00  0.00000000E+00  0.00000000E+00
  0.00000000E+00  0.00000000E+00  0.00000000E+00
  0.00000000E+00  0.00000000E+00  0.00000000E+00
  0.00000000E+00  0.00000000E+00  0.00000000E+00
  0.00000000E+00  0.00000000E+00  0.00000000E+00
  0.00000000E+00  0.00000000E+00  0.00000000E+00
  0.00000000E+00  0.00000000E+00  0.00000000E+00
  0.00000000E+00  0.00000000E+00  0.00000000E+00
  0.00000000E+00  0.00000000E+00  0.00000000E+00
  0.00000000E+00  0.00000000E+00  0.00000000E+00
  0.00000000E+00  0.00000000E+00  0.00000000E+00
  0.00000000E+00  0.00000000E+00  0.00000000E+00
  0.00000000E+00  0.00000000E+00  0.00000000E+00
  0.00000000E+00  0.00000000E+00  0.00000000E+00
  0.00000000E+00  0.00000000E+00  0.00000000E+00
  0.00000000E+00  0.00000000E+00  0.00000000E+00
  0.00000000E+00  0.00000000E+00  0.00000000E+00
  0.00000000E+00  0.00000000E+00  0.00000000E+00
  0.00000000E+00  0.00000000E+00  0.00000000E+00
