CONTCAR\(3)                             
   1.00000000000000     
    11.7590999603000004    0.0000000000000000    0.0000000000000000
     0.0000000000000000   11.7590999603000004    0.0000000000000000
     0.0000000000000000    0.0000000000000000   20.7430992126000007
   Ce   Br   O 
    18    18    19
Direct
  0.1666067921384575  0.0003982536652168  0.4425837304028860
  0.9999653488140500  0.1672912626031013  0.5634653722715587
  0.4999845019379296  0.0005001065495664  0.4410964205636603
  0.3362422615925790  0.1665420763791193  0.5639311509560949
  0.8333766590466668  0.0004064597031044  0.4425455987888300
  0.6637295607767445  0.1665580615303906  0.5638711157069225
  0.1682509683030217  0.3347418068594784  0.4437679333189831
 -0.0000037994504868  0.5002923645989144  0.5628995276185759
  0.4999667612196568  0.3320680986928692  0.4390453077056262
  0.3464111147810470  0.5007335001572363  0.5651282292899926
  0.8318457265244873  0.3346656826835089  0.4436023775104784
  0.6539150714823815  0.5007435684161244  0.5648625159729257
  0.1679783675589923  0.6656265986398455  0.4433729946674797
  0.9999473935477164  0.8331412257683330  0.5632464956172591
  0.4999832095454325  0.6687719818274934  0.4384113806314456
  0.3359288239500954  0.8337949191089824  0.5632024150654904
  0.8321090492815679  0.6657030187610415  0.4432290076272941
  0.6640512462231096  0.8337902820034223  0.5631614234198432
  0.1667908452966102 -0.0000095264009052  0.6427207683162998
  0.0000283482396971  0.1674080632877775  0.3629059404392140
  0.5001009799984268  0.9979947568621026  0.6337586342736530
  0.3320941849068113  0.1665242340951324  0.3610203034044166
  0.8331963180169177  0.0000289994602220  0.6424554477466125
  0.6678638047546838  0.1665425110710600  0.3610211095336424
  0.1669997387970239  0.3336419776394073  0.6420627517311318
  0.0000557007157783  0.5000030848008611  0.3628379256236768
  0.4996566036422132  0.2670779523824041  0.6620275407921485
  0.3284518510746466  0.4999743988076094  0.3594827175050446
  0.8329035473323692  0.3336484770576696  0.6419769474473281
  0.6714112803640048  0.5000383468664134  0.3593708428233633
  0.1668222593041488  0.6669854710396276  0.6419772815208640
  1.0001360854105927  0.8331070245294543  0.3627616801516229
  0.4996277167630178  0.7256923660769836  0.6583548839623287
  0.3318377388441574  0.8341767086004417  0.3607299010215137
  0.8327642832461253  0.6670800061747364  0.6419028929552457
  0.6682366744627010  0.8342731148470492  0.3607003764800366
  1.0000097386195268  0.0003189210215644  0.5029628982825636
  0.1665373908008865  0.1670722630117907  0.5028874931239162
  0.3331928191136905  0.0003053972762398  0.5012085001202630
  0.4999801858260151  0.1663023975863415  0.5005336199336781
  0.6667747699955924  0.0003188031899731  0.5011724024641202
  0.8334613457832507  0.1670812988216732  0.5028147418301059
  0.0000002690223685  0.3332829405925432  0.5029484555753180
  0.1657924328695653  0.5002775995359232  0.5018169987060271
  0.3367255555577874  0.3327134072410209  0.5033867873366865
  0.5000222294890525  0.5009161269086277  0.4883106967062573
  0.6633575871737093  0.3326458921927868  0.5032174723229539
  0.8342948817122872  0.5002710317391632  0.5016213858438308
  0.9999899995559007  0.6671311120111119  0.5027958573647685
  0.1663558099386687  0.8334373307383672  0.5025217104666989
  0.3363999912151135  0.6680133054421202  0.5027029379144767
  0.4999889720090064  0.8342221888183399  0.4997590547038971
  0.6636661637152301  0.6680871647387134  0.5025445846643106
  0.8336324386276939  0.8334499986039534  0.5024594161677729
  0.5003604215313502  0.4945656083839624  0.6141640396088669
 
  0.00000000E+00  0.00000000E+00  0.00000000E+00
  0.00000000E+00  0.00000000E+00  0.00000000E+00
  0.00000000E+00  0.00000000E+00  0.00000000E+00
  0.00000000E+00  0.00000000E+00  0.00000000E+00
  0.00000000E+00  0.00000000E+00  0.00000000E+00
  0.00000000E+00  0.00000000E+00  0.00000000E+00
  0.00000000E+00  0.00000000E+00  0.00000000E+00
  0.00000000E+00  0.00000000E+00  0.00000000E+00
  0.00000000E+00  0.00000000E+00  0.00000000E+00
  0.00000000E+00  0.00000000E+00  0.00000000E+00
  0.00000000E+00  0.00000000E+00  0.00000000E+00
  0.00000000E+00  0.00000000E+00  0.00000000E+00
  0.00000000E+00  0.00000000E+00  0.00000000E+00
  0.00000000E+00  0.00000000E+00  0.00000000E+00
  0.00000000E+00  0.00000000E+00  0.00000000E+00
  0.00000000E+00  0.00000000E+00  0.00000000E+00
  0.00000000E+00  0.00000000E+00  0.00000000E+00
  0.00000000E+00  0.00000000E+00  0.00000000E+00
  0.00000000E+00  0.00000000E+00  0.00000000E+00
  0.00000000E+00  0.00000000E+00  0.00000000E+00
  0.00000000E+00  0.00000000E+00  0.00000000E+00
  0.00000000E+00  0.00000000E+00  0.00000000E+00
  0.00000000E+00  0.00000000E+00  0.00000000E+00
  0.00000000E+00  0.00000000E+00  0.00000000E+00
  0.00000000E+00  0.00000000E+00  0.00000000E+00
  0.00000000E+00  0.00000000E+00  0.00000000E+00
  0.00000000E+00  0.00000000E+00  0.00000000E+00
  0.00000000E+00  0.00000000E+00  0.00000000E+00
  0.00000000E+00  0.00000000E+00  0.00000000E+00
  0.00000000E+00  0.00000000E+00  0.00000000E+00
  0.00000000E+00  0.00000000E+00  0.00000000E+00
  0.00000000E+00  0.00000000E+00  0.00000000E+00
  0.00000000E+00  0.00000000E+00  0.00000000E+00
  0.00000000E+00  0.00000000E+00  0.00000000E+00
  0.00000000E+00  0.00000000E+00  0.00000000E+00
  0.00000000E+00  0.00000000E+00  0.00000000E+00
  0.00000000E+00  0.00000000E+00  0.00000000E+00
  0.00000000E+00  0.00000000E+00  0.00000000E+00
  0.00000000E+00  0.00000000E+00  0.00000000E+00
  0.00000000E+00  0.00000000E+00  0.00000000E+00
  0.00000000E+00  0.00000000E+00  0.00000000E+00
  0.00000000E+00  0.00000000E+00  0.00000000E+00
  0.00000000E+00  0.00000000E+00  0.00000000E+00
  0.00000000E+00  0.00000000E+00  0.00000000E+00
  0.00000000E+00  0.00000000E+00  0.00000000E+00
  0.00000000E+00  0.00000000E+00  0.00000000E+00
  0.00000000E+00  0.00000000E+00  0.00000000E+00
  0.00000000E+00  0.00000000E+00  0.00000000E+00
  0.00000000E+00  0.00000000E+00  0.00000000E+00
  0.00000000E+00  0.00000000E+00  0.00000000E+00
  0.00000000E+00  0.00000000E+00  0.00000000E+00
  0.00000000E+00  0.00000000E+00  0.00000000E+00
  0.00000000E+00  0.00000000E+00  0.00000000E+00
  0.00000000E+00  0.00000000E+00  0.00000000E+00
  0.00000000E+00  0.00000000E+00  0.00000000E+00
