CONTCAR                                 
   1.00000000000000     
    14.4987001419000006    0.0000000000000000    0.0000000000000000
    -0.3851722429000000   15.7714976485000005    0.0000000000000000
     0.0000000000000000    0.0000000000000000   25.2446994780999994
   Cr   P    O 
    24    24   121
Direct
  0.9900547652750616  0.3583825031779279  0.3458357339067771
  0.2451133983939549  0.3747826531618141  0.5177115750914318
  0.0890564849925106  0.1274889537794033  0.4799798624570323
  0.3415820119575300  0.1495188072542510  0.6539695168735080
  0.3252197711074330  0.3562290365072836  0.3459309842017476
  0.5782531137650032  0.3745523151077256  0.5191401000956882
  0.4222493882148394  0.1280206808558560  0.4812470868416856
  0.6767522087224142  0.1439498153142984  0.6531195234430107
  0.6599280347314626  0.3553078841998389  0.3464875627676561
  0.9123354700479300  0.3746817173163128  0.5202352972168024
  0.7553732972592356  0.1272680888809420  0.4799219058995769
  0.0106377539182525  0.1460055173245252  0.6530512511777502
  0.9917658731694715  0.8539423571043864  0.3475755397684659
  0.2476505215318929  0.8747752464660973  0.5205520510343349
  0.0901901577705424  0.6282997969835143  0.4829724844164858
  0.3118601897600089  0.5613037399828363  0.6770857432329669
  0.3222585418077967  0.8562261744205315  0.3455228956283279
  0.5768843652926114  0.8730535830916010  0.5182047370560451
  0.4206672606729339  0.6291748324717876  0.4813977200320292
  0.6726555092537085  0.6472976957259059  0.6541624795668997
  0.6577851871191444  0.8536840888860741  0.3463029419652419
  0.9114431500067700  0.8746004911563759  0.5198000409864663
  0.7550226196029654  0.6272334377664982  0.4814347910256173
  0.0087994336745171  0.6478630819454059  0.6548618819945963
  0.0741862744551713  0.4411976477743216  0.4469098243736342
  0.2546185508448433  0.2190946717290822  0.4303608436201696
  0.0817885091575584  0.2820839961220139  0.5685669044324653
  0.2603536637944080  0.0618434485829398  0.5537985841258098
  0.4083056027298793  0.4412657260783222  0.4455922612112440
  0.5868376026597759  0.2198414192323759  0.4309384196262639
  0.4126598317849314  0.2839593512902728  0.5689207251522845
  0.5929770231254459  0.0606105084208346  0.5527638187358104
  0.7413526803084344  0.4407159263327666  0.4472430935788242
  0.9203900172046684  0.2206869238730163  0.4310328644585802
  0.7467649976192691  0.2818287552012444  0.5688671765409898
  0.9267868777371299  0.0616278537126038  0.5529272052029206
  0.0745567779155346  0.9404000012492461  0.4472124930263510
  0.2529798244762977  0.7202301703367330  0.4313537113524070
  0.0802867662764348  0.7835537488278473  0.5699707163207356
  0.2602892733043169  0.5621501870377934  0.5550661610429424
  0.4067244371907679  0.9412445098939276  0.4459697178145957
  0.5872383550004586  0.7182512998005423  0.4300151246894929
  0.4114711688239754  0.7777861671137531  0.5722402708831787
  0.5916789998116303  0.5617014716803288  0.5537813283424120
  0.7403314180259083  0.9405323146017339  0.4462247081560926
  0.9208372660682695  0.7183720937218270  0.4320163139566113
  0.7453011713424674  0.7828530445721096  0.5690935376603610
  0.9263804168368566  0.5618139010227102  0.5548783107131038
  0.0748117188645871  0.4040345501368682  0.3880928289229871
  0.3072340062896288  0.4400517958050781  0.4636544582646963
  0.2460187422460024  0.4218149981259518  0.3376653154812316
  0.1334425407498336  0.3801700036085954  0.4777723608807489
  0.2168921109811483  0.4712358572829877  0.5539361212072780
  0.2814115841271171  0.2605650541845040  0.3754274436708793
  0.0368969984801002  0.3362317810991310  0.2913209883550563
  0.1841311420578446  0.3081121361228839  0.5711709341803131
  0.2711223830425869  0.2828636449307590  0.4750776535086894
  0.3164634961922616  0.1428893832833981  0.4384643490283471
  0.0190968860078691  0.3580842848174249  0.5615509531120918
  0.0645265232174563  0.2185354122130350  0.5239353457239507
  0.1523402814149010  0.1936122870579034  0.4267966846550653
  0.2948592163723923  0.1703337077244957  0.7086614072538552
  0.0575990253843900  0.2405660040943080  0.6238259354801576
  0.1134384592925369  0.0304477260060235  0.4387949694063487
  0.2002026710954783  0.1161871556464817  0.5188808375978888
  0.0874261001575754  0.0781227475742982  0.6614255922245693
  0.0270566883869844  0.0607643990745220  0.5336465603511417
  0.2569430516256388  0.1066789136188875  0.6103965745353224
  0.4119356532663966  0.3998989418665510  0.3877721187018833
  0.6407886545088122  0.4415506291684381  0.4659173994044222
  0.5829924191522065  0.4224396655011946  0.3361746739965966
  0.4678760720531736  0.3840088166643549  0.4790144660328905
  0.5514303588165609  0.4714687213056925  0.5592891576764488
  0.6119113733066240  0.2613036062364820  0.3757219072023082
  0.3700993023615430  0.3352797325284490  0.2906870069950794
  0.5153275565173951  0.3085326800926219  0.5720039892744254
  0.6042469364210715  0.2834677824624139  0.4755146285450799
  0.6490621060041230  0.1436115975507432  0.4381728369178539
  0.3515488453548555  0.3604875111719980  0.5599319583551625
  0.3960004980452058  0.2189092932998077  0.5249854239815858
  0.4844996300871773  0.1943543786489295  0.4279061954245799
  0.6319201419099685  0.1642885507797848  0.7084410356839621
  0.3862889435970627  0.2447730071395148  0.6244869363236164
  0.4482909587822783  0.0308418344944121  0.4405299442856927
  0.5338122431229103  0.1192435863871554  0.5200021613210682
  0.4203726567324804  0.0837996858513372  0.6630172164917377
  0.3608430386641509  0.0612322622477301  0.5346777929964712
  0.5904977763654595  0.1004978435002710  0.6108157506384655
  0.7446237511178431  0.3973192625398436  0.3901749055775982
  0.9741718962977791  0.4419520558292695  0.4667085195585585
  0.9105479770823559  0.4231312165752587  0.3359849430560243
  0.8008990786805079  0.3849458888140038  0.4815182744881599
  0.8870634554161542  0.4714557637429891  0.5614687119556980
  0.9466041844588396  0.2637407604596403  0.3764442133598635
  0.7077816800071168  0.3325236375418833  0.2923811343991980
  0.8489223230434977  0.3079500204178784  0.5730070045328429
  0.9361340368779660  0.2833096957440123  0.4763293344048586
  0.9831098243217117  0.1447304121849013  0.4380800203258325
  0.6841684678622941  0.3578147595554602  0.5613871832288485
  0.7313599596559305  0.2186088753953196  0.5238246886121439
  0.8183796826597453  0.1941971571326111  0.4269673095409197
  0.9650828750595656  0.1674562272363980  0.7080200912572056
  0.7200654955492859  0.2396427822440491  0.6236258886525499
  0.7805300570551783  0.0303976557251274  0.4386973638151163
  0.8667982942234210  0.1168627519883075  0.5185380281024764
  0.7560278802789849  0.0783407174683789  0.6609815070924191
  0.6933643237934435  0.0603116391982455  0.5336514461020475
  0.9241713713772510  0.1056534564067971  0.6098203786354823
  0.0779415566445723  0.8953301526338037  0.3905848256817141
  0.3069422563010286  0.9420816247322108  0.4662274276704030
  0.2434035527586919  0.9216109145304809  0.3356503892662803
  0.1354940391792812  0.8867371257815665  0.4819855285622753
  0.2216095337552121  0.9717848349984984  0.5618731282182371
  0.2778226792778723  0.7619155329561816  0.3760962379817102
  0.0367871365710128  0.8336624587209166  0.2922564034411087
  0.1823051439270895  0.8097892356399272  0.5727862855623296
  0.2703669938091965  0.7836506960606983  0.4758911491022373
  0.3154725340121124  0.6440015447663853  0.4384128890697496
  0.0172921529988361  0.8591797485806533  0.5619757920744868
  0.0630411639021830  0.7199744157261414  0.5252239937442765
  0.1508289186075468  0.6939732509288751  0.4285279927978425
  0.2792057727343096  0.6261282914032064  0.7223494323462398
  0.0545846251199563  0.7425341321282863  0.6250034627320753
  0.1168289651869088  0.5306691750218193  0.4432199598905144
  0.2002784043673017  0.6213727280593045  0.5224229469088418
  0.0860286903250317  0.5807573250815699  0.6638224890892451
  0.0270165049390929  0.5617339779251844  0.5360532739646671
  0.2620690345996143  0.5934331103834491  0.6124252935374581
  0.4072916463292649  0.9009219803267452  0.3880236787828829
  0.6400168428754469  0.9416681977461757  0.4651510390710949
  0.5787122317103406  0.9195381270051822  0.3385373723628951
  0.4667603351887449  0.8826712898864298  0.4780961564876466
  0.5508073758841071  0.9711528229822723  0.5577469152619623
  0.6136007102841212  0.7568343580916054  0.3740368640686148
  0.3688317292900752  0.8336464199449733  0.2910073422996286
  0.5148058372339136  0.8069065520354715  0.5673293293187593
  0.6057472900794556  0.7843127654973127  0.4730518846812210
  0.6493135576707021  0.6422374604475551  0.4388758090394785
  0.3519527456967649  0.8571370060628895  0.5584246095125692
  0.3980323102782165  0.7184961416603715  0.5225949435091110
  0.4848652652273115  0.6929626681198362  0.4271107977740260
  0.6273343718125365  0.6691994062401908  0.7089688242980688
  0.3878144863452314  0.7389229964260404  0.6239036634880883
  0.4475496144278084  0.5315261892855346  0.4401603423538415
  0.5329141511437196  0.6182975075295756  0.5194874491671100
  0.4230329377402103  0.5594891014491785  0.6744262931391458
  0.3588396808645790  0.5598011429383375  0.5317131321101758
  0.5879573851056997  0.6031666375661365  0.6111231126641583
  0.7433315784795317  0.8960309029528961  0.3893914859328659
  0.9740735682296591  0.9407673900693564  0.4661428852954335
  0.9136125845163255  0.9207030760943671  0.3397949650383656
  0.8006283340085236  0.8854720657028882  0.4806099666107934
  0.8864661235511299  0.9719421545315853  0.5604654490918309
  0.9471478127923488  0.7583041402322763  0.3764688691120779
  0.7036121684089122  0.8345499883212089  0.2910431884531280
  0.8475923582584600  0.8087603418346084  0.5727723856772348
  0.9363666092248826  0.7832037600919640  0.4761335171864597
  0.9833749440077645  0.6427068846113446  0.4405628263602438
  0.6832497208343314  0.8589585372401559  0.5604585019900276
  0.7298614642091757  0.7188879873113332  0.5243758264736289
  0.8185498084689531  0.6927903605894109  0.4282604282118854
  0.9626930696322821  0.6695887668625446  0.7096111062557946
  0.7181119738865810  0.7422234050249454  0.6240273653521574
  0.7817618637667494  0.5304566856915173  0.4405088722945080
  0.8660112078794682  0.6171664712994206  0.5206522072823294
  0.7516618212714372  0.5817826646654171  0.6633414041412294
  0.6924470752889269  0.5609334288344632  0.5348805279341601
  0.9228067706668912  0.6050860777766376  0.6118942425297934
  0.2735673889955270  0.4668217693653046  0.6906564642586147
 
  0.00000000E+00  0.00000000E+00  0.00000000E+00
  0.00000000E+00  0.00000000E+00  0.00000000E+00
  0.00000000E+00  0.00000000E+00  0.00000000E+00
  0.00000000E+00  0.00000000E+00  0.00000000E+00
  0.00000000E+00  0.00000000E+00  0.00000000E+00
  0.00000000E+00  0.00000000E+00  0.00000000E+00
  0.00000000E+00  0.00000000E+00  0.00000000E+00
  0.00000000E+00  0.00000000E+00  0.00000000E+00
  0.00000000E+00  0.00000000E+00  0.00000000E+00
  0.00000000E+00  0.00000000E+00  0.00000000E+00
  0.00000000E+00  0.00000000E+00  0.00000000E+00
  0.00000000E+00  0.00000000E+00  0.00000000E+00
  0.00000000E+00  0.00000000E+00  0.00000000E+00
  0.00000000E+00  0.00000000E+00  0.00000000E+00
  0.00000000E+00  0.00000000E+00  0.00000000E+00
  0.00000000E+00  0.00000000E+00  0.00000000E+00
  0.00000000E+00  0.00000000E+00  0.00000000E+00
  0.00000000E+00  0.00000000E+00  0.00000000E+00
  0.00000000E+00  0.00000000E+00  0.00000000E+00
  0.00000000E+00  0.00000000E+00  0.00000000E+00
  0.00000000E+00  0.00000000E+00  0.00000000E+00
  0.00000000E+00  0.00000000E+00  0.00000000E+00
  0.00000000E+00  0.00000000E+00  0.00000000E+00
  0.00000000E+00  0.00000000E+00  0.00000000E+00
  0.00000000E+00  0.00000000E+00  0.00000000E+00
  0.00000000E+00  0.00000000E+00  0.00000000E+00
  0.00000000E+00  0.00000000E+00  0.00000000E+00
  0.00000000E+00  0.00000000E+00  0.00000000E+00
  0.00000000E+00  0.00000000E+00  0.00000000E+00
  0.00000000E+00  0.00000000E+00  0.00000000E+00
  0.00000000E+00  0.00000000E+00  0.00000000E+00
  0.00000000E+00  0.00000000E+00  0.00000000E+00
  0.00000000E+00  0.00000000E+00  0.00000000E+00
  0.00000000E+00  0.00000000E+00  0.00000000E+00
  0.00000000E+00  0.00000000E+00  0.00000000E+00
  0.00000000E+00  0.00000000E+00  0.00000000E+00
  0.00000000E+00  0.00000000E+00  0.00000000E+00
  0.00000000E+00  0.00000000E+00  0.00000000E+00
  0.00000000E+00  0.00000000E+00  0.00000000E+00
  0.00000000E+00  0.00000000E+00  0.00000000E+00
  0.00000000E+00  0.00000000E+00  0.00000000E+00
  0.00000000E+00  0.00000000E+00  0.00000000E+00
  0.00000000E+00  0.00000000E+00  0.00000000E+00
  0.00000000E+00  0.00000000E+00  0.00000000E+00
  0.00000000E+00  0.00000000E+00  0.00000000E+00
  0.00000000E+00  0.00000000E+00  0.00000000E+00
  0.00000000E+00  0.00000000E+00  0.00000000E+00
  0.00000000E+00  0.00000000E+00  0.00000000E+00
  0.00000000E+00  0.00000000E+00  0.00000000E+00
  0.00000000E+00  0.00000000E+00  0.00000000E+00
  0.00000000E+00  0.00000000E+00  0.00000000E+00
  0.00000000E+00  0.00000000E+00  0.00000000E+00
  0.00000000E+00  0.00000000E+00  0.00000000E+00
  0.00000000E+00  0.00000000E+00  0.00000000E+00
  0.00000000E+00  0.00000000E+00  0.00000000E+00
  0.00000000E+00  0.00000000E+00  0.00000000E+00
  0.00000000E+00  0.00000000E+00  0.00000000E+00
  0.00000000E+00  0.00000000E+00  0.00000000E+00
  0.00000000E+00  0.00000000E+00  0.00000000E+00
  0.00000000E+00  0.00000000E+00  0.00000000E+00
  0.00000000E+00  0.00000000E+00  0.00000000E+00
  0.00000000E+00  0.00000000E+00  0.00000000E+00
  0.00000000E+00  0.00000000E+00  0.00000000E+00
  0.00000000E+00  0.00000000E+00  0.00000000E+00
  0.00000000E+00  0.00000000E+00  0.00000000E+00
  0.00000000E+00  0.00000000E+00  0.00000000E+00
  0.00000000E+00  0.00000000E+00  0.00000000E+00
  0.00000000E+00  0.00000000E+00  0.00000000E+00
  0.00000000E+00  0.00000000E+00  0.00000000E+00
  0.00000000E+00  0.00000000E+00  0.00000000E+00
  0.00000000E+00  0.00000000E+00  0.00000000E+00
  0.00000000E+00  0.00000000E+00  0.00000000E+00
  0.00000000E+00  0.00000000E+00  0.00000000E+00
  0.00000000E+00  0.00000000E+00  0.00000000E+00
  0.00000000E+00  0.00000000E+00  0.00000000E+00
  0.00000000E+00  0.00000000E+00  0.00000000E+00
  0.00000000E+00  0.00000000E+00  0.00000000E+00
  0.00000000E+00  0.00000000E+00  0.00000000E+00
  0.00000000E+00  0.00000000E+00  0.00000000E+00
  0.00000000E+00  0.00000000E+00  0.00000000E+00
  0.00000000E+00  0.00000000E+00  0.00000000E+00
  0.00000000E+00  0.00000000E+00  0.00000000E+00
  0.00000000E+00  0.00000000E+00  0.00000000E+00
  0.00000000E+00  0.00000000E+00  0.00000000E+00
  0.00000000E+00  0.00000000E+00  0.00000000E+00
  0.00000000E+00  0.00000000E+00  0.00000000E+00
  0.00000000E+00  0.00000000E+00  0.00000000E+00
  0.00000000E+00  0.00000000E+00  0.00000000E+00
  0.00000000E+00  0.00000000E+00  0.00000000E+00
  0.00000000E+00  0.00000000E+00  0.00000000E+00
  0.00000000E+00  0.00000000E+00  0.00000000E+00
  0.00000000E+00  0.00000000E+00  0.00000000E+00
  0.00000000E+00  0.00000000E+00  0.00000000E+00
  0.00000000E+00  0.00000000E+00  0.00000000E+00
  0.00000000E+00  0.00000000E+00  0.00000000E+00
  0.00000000E+00  0.00000000E+00  0.00000000E+00
  0.00000000E+00  0.00000000E+00  0.00000000E+00
  0.00000000E+00  0.00000000E+00  0.00000000E+00
  0.00000000E+00  0.00000000E+00  0.00000000E+00
  0.00000000E+00  0.00000000E+00  0.00000000E+00
  0.00000000E+00  0.00000000E+00  0.00000000E+00
  0.00000000E+00  0.00000000E+00  0.00000000E+00
  0.00000000E+00  0.00000000E+00  0.00000000E+00
  0.00000000E+00  0.00000000E+00  0.00000000E+00
  0.00000000E+00  0.00000000E+00  0.00000000E+00
  0.00000000E+00  0.00000000E+00  0.00000000E+00
  0.00000000E+00  0.00000000E+00  0.00000000E+00
  0.00000000E+00  0.00000000E+00  0.00000000E+00
  0.00000000E+00  0.00000000E+00  0.00000000E+00
  0.00000000E+00  0.00000000E+00  0.00000000E+00
  0.00000000E+00  0.00000000E+00  0.00000000E+00
  0.00000000E+00  0.00000000E+00  0.00000000E+00
  0.00000000E+00  0.00000000E+00  0.00000000E+00
  0.00000000E+00  0.00000000E+00  0.00000000E+00
  0.00000000E+00  0.00000000E+00  0.00000000E+00
  0.00000000E+00  0.00000000E+00  0.00000000E+00
  0.00000000E+00  0.00000000E+00  0.00000000E+00
  0.00000000E+00  0.00000000E+00  0.00000000E+00
  0.00000000E+00  0.00000000E+00  0.00000000E+00
  0.00000000E+00  0.00000000E+00  0.00000000E+00
  0.00000000E+00  0.00000000E+00  0.00000000E+00
  0.00000000E+00  0.00000000E+00  0.00000000E+00
  0.00000000E+00  0.00000000E+00  0.00000000E+00
  0.00000000E+00  0.00000000E+00  0.00000000E+00
  0.00000000E+00  0.00000000E+00  0.00000000E+00
  0.00000000E+00  0.00000000E+00  0.00000000E+00
  0.00000000E+00  0.00000000E+00  0.00000000E+00
  0.00000000E+00  0.00000000E+00  0.00000000E+00
  0.00000000E+00  0.00000000E+00  0.00000000E+00
  0.00000000E+00  0.00000000E+00  0.00000000E+00
  0.00000000E+00  0.00000000E+00  0.00000000E+00
  0.00000000E+00  0.00000000E+00  0.00000000E+00
  0.00000000E+00  0.00000000E+00  0.00000000E+00
  0.00000000E+00  0.00000000E+00  0.00000000E+00
  0.00000000E+00  0.00000000E+00  0.00000000E+00
  0.00000000E+00  0.00000000E+00  0.00000000E+00
  0.00000000E+00  0.00000000E+00  0.00000000E+00
  0.00000000E+00  0.00000000E+00  0.00000000E+00
  0.00000000E+00  0.00000000E+00  0.00000000E+00
  0.00000000E+00  0.00000000E+00  0.00000000E+00
  0.00000000E+00  0.00000000E+00  0.00000000E+00
  0.00000000E+00  0.00000000E+00  0.00000000E+00
  0.00000000E+00  0.00000000E+00  0.00000000E+00
  0.00000000E+00  0.00000000E+00  0.00000000E+00
  0.00000000E+00  0.00000000E+00  0.00000000E+00
  0.00000000E+00  0.00000000E+00  0.00000000E+00
  0.00000000E+00  0.00000000E+00  0.00000000E+00
  0.00000000E+00  0.00000000E+00  0.00000000E+00
  0.00000000E+00  0.00000000E+00  0.00000000E+00
  0.00000000E+00  0.00000000E+00  0.00000000E+00
  0.00000000E+00  0.00000000E+00  0.00000000E+00
  0.00000000E+00  0.00000000E+00  0.00000000E+00
  0.00000000E+00  0.00000000E+00  0.00000000E+00
  0.00000000E+00  0.00000000E+00  0.00000000E+00
  0.00000000E+00  0.00000000E+00  0.00000000E+00
  0.00000000E+00  0.00000000E+00  0.00000000E+00
  0.00000000E+00  0.00000000E+00  0.00000000E+00
  0.00000000E+00  0.00000000E+00  0.00000000E+00
  0.00000000E+00  0.00000000E+00  0.00000000E+00
  0.00000000E+00  0.00000000E+00  0.00000000E+00
  0.00000000E+00  0.00000000E+00  0.00000000E+00
  0.00000000E+00  0.00000000E+00  0.00000000E+00
  0.00000000E+00  0.00000000E+00  0.00000000E+00
  0.00000000E+00  0.00000000E+00  0.00000000E+00
  0.00000000E+00  0.00000000E+00  0.00000000E+00
  0.00000000E+00  0.00000000E+00  0.00000000E+00
  0.00000000E+00  0.00000000E+00  0.00000000E+00
  0.00000000E+00  0.00000000E+00  0.00000000E+00
  0.00000000E+00  0.00000000E+00  0.00000000E+00
