CONTCAR\(6)                             
   1.00000000000000     
    12.0179996490000001    0.0000000000000000    0.0000000000000000
     5.5443836140000000   17.3830097696000010    0.0000000000000000
     0.0000000000000000    0.0000000000000000   18.4081001282000010
   Nb   Ir   Se   O    H 
    16     4    40     1     1
Direct
  0.3071297251354427  0.4216416934989538  0.4980854830672505
  0.3780468703750903  0.1929095722435820  0.5062875874238888
  0.0381543574979895  0.0063807827921970  0.4949232219744870
  0.0921070977387336  0.3213601400640170  0.4963640557903273
  0.8146061441640281  0.4188976410666106  0.4970040157482088
  0.8683658578933792  0.2088666198063575  0.5014767846387040
  0.5387222581930167  0.0018378031585953  0.5049845788835514
  0.5732838516667821  0.3124109188803963  0.4940226022166680
  0.3150028685682297  0.9223942077760561  0.4969432346931350
  0.3695157964379345  0.7088256192345961  0.5049698521183829
  0.0411805429474722  0.5015813500691561  0.5017072071982703
  0.0780978134359619  0.8120663594680493  0.4968802014788252
  0.8130273336356544  0.9212003731555135  0.4980848480397623
  0.8789753765865158  0.6965884322559874  0.5004301935755974
  0.5425347598884469  0.5038973659559388  0.4980704385189253
  0.5930159567963421  0.8220511593009757  0.4991496889216400
  0.2064011576383229  0.0954964672382299  0.4893081585865224
  0.7120407262539364  0.0962437879812516  0.5000043079171380
  0.2125657530811962  0.5964563487376768  0.5006882873448171
  0.7097563769827817  0.5966767014734505  0.4997797943713338
  0.1846607360669600  0.0116132207324533  0.5929990076108899
  0.0359750666467995  0.1069636739908562  0.4052256634426705
  0.2698203672417587  0.3079111660595985  0.5842540721688023
  0.1485379189875563  0.4067419467910224  0.4026409529848722
  0.3798816711450854  0.0996797194409006  0.6055039860183474
  0.2295238186654125  0.2013857361739677  0.4091638552192753
  0.4750234377948585  0.4073243045746525  0.5910833452724195
  0.3556300262302201  0.0086994007323610  0.4061569408352194
  0.0712817201360000  0.2003123825755595  0.5671665064607895
  0.4188945862309391  0.3057291070270380  0.4089149196431724
  0.6873703716888655  0.0069008810624509  0.5997921920849478
  0.5390927202176793  0.1072579985734581  0.4154687322132085
  0.7630367511889559  0.3076678450100765  0.5863713910944524
  0.6509658913622874  0.4001905117169077  0.4093013139895285
  0.8801789941224154  0.0974008686658747  0.5844080827782707
  0.7203287355281228  0.2016401546630347  0.4081572910535033
  0.9767781596028076  0.4080738182319069  0.5945228267557383
  0.8488875556317137  0.0110319332276275  0.4069742704535533
  0.5724032121797817  0.1992718397316684  0.5760692374310949
  0.9337006195762995  0.3041917448982692  0.4103601028820313
  0.1831999265743936  0.5083416335947391  0.5999606167687603
  0.0438573907992004  0.6073013725035128  0.4127269170900350
  0.2641469481581438  0.8105113594807523  0.5877578194001764
  0.1518320696097544  0.8999801464427295  0.4099729250743692
  0.3801278728524861  0.5966553446459730  0.5860405068275213
  0.2247797861851502  0.7018261352560090  0.4099567147740182
  0.4731797882463827  0.9094081531006031  0.5966342058998396
  0.3521784190419149  0.5112979870977004  0.4093774131145175
  0.0714797663333998  0.6986999515091183  0.5776249752288616
  0.4338700275571463  0.8055144403592183  0.4133688600534870
  0.6853915149917743  0.5058874216403088  0.5975553412271162
  0.5418451125220830  0.6083674349712521  0.4123616088662621
  0.7727911826188809  0.8072925321654884  0.5840008264054857
  0.6483111257429631  0.9083538780398949  0.4059117318859765
  0.8737218992025744  0.5971684920780046  0.5894184902886915
  0.7237799462539517  0.7025990820797524  0.4103615090340250
  0.9781512488622043  0.9084151875811226  0.5921347766288122
  0.8524339335645298  0.5097344876739328  0.4097103951522431
  0.5700027353266629  0.7022976180788230  0.5735872330038638
  0.9243712613085849  0.8076233931975449  0.4085998352079361
  0.4657075158747663  0.1234079276281006  0.6871735009006522
  0.4576680472113125  0.0874328108381273  0.7248140742670607
 
  0.00000000E+00  0.00000000E+00  0.00000000E+00
  0.00000000E+00  0.00000000E+00  0.00000000E+00
  0.00000000E+00  0.00000000E+00  0.00000000E+00
  0.00000000E+00  0.00000000E+00  0.00000000E+00
  0.00000000E+00  0.00000000E+00  0.00000000E+00
  0.00000000E+00  0.00000000E+00  0.00000000E+00
  0.00000000E+00  0.00000000E+00  0.00000000E+00
  0.00000000E+00  0.00000000E+00  0.00000000E+00
  0.00000000E+00  0.00000000E+00  0.00000000E+00
  0.00000000E+00  0.00000000E+00  0.00000000E+00
  0.00000000E+00  0.00000000E+00  0.00000000E+00
  0.00000000E+00  0.00000000E+00  0.00000000E+00
  0.00000000E+00  0.00000000E+00  0.00000000E+00
  0.00000000E+00  0.00000000E+00  0.00000000E+00
  0.00000000E+00  0.00000000E+00  0.00000000E+00
  0.00000000E+00  0.00000000E+00  0.00000000E+00
  0.00000000E+00  0.00000000E+00  0.00000000E+00
  0.00000000E+00  0.00000000E+00  0.00000000E+00
  0.00000000E+00  0.00000000E+00  0.00000000E+00
  0.00000000E+00  0.00000000E+00  0.00000000E+00
  0.00000000E+00  0.00000000E+00  0.00000000E+00
  0.00000000E+00  0.00000000E+00  0.00000000E+00
  0.00000000E+00  0.00000000E+00  0.00000000E+00
  0.00000000E+00  0.00000000E+00  0.00000000E+00
  0.00000000E+00  0.00000000E+00  0.00000000E+00
  0.00000000E+00  0.00000000E+00  0.00000000E+00
  0.00000000E+00  0.00000000E+00  0.00000000E+00
  0.00000000E+00  0.00000000E+00  0.00000000E+00
  0.00000000E+00  0.00000000E+00  0.00000000E+00
  0.00000000E+00  0.00000000E+00  0.00000000E+00
  0.00000000E+00  0.00000000E+00  0.00000000E+00
  0.00000000E+00  0.00000000E+00  0.00000000E+00
  0.00000000E+00  0.00000000E+00  0.00000000E+00
  0.00000000E+00  0.00000000E+00  0.00000000E+00
  0.00000000E+00  0.00000000E+00  0.00000000E+00
  0.00000000E+00  0.00000000E+00  0.00000000E+00
  0.00000000E+00  0.00000000E+00  0.00000000E+00
  0.00000000E+00  0.00000000E+00  0.00000000E+00
  0.00000000E+00  0.00000000E+00  0.00000000E+00
  0.00000000E+00  0.00000000E+00  0.00000000E+00
  0.00000000E+00  0.00000000E+00  0.00000000E+00
  0.00000000E+00  0.00000000E+00  0.00000000E+00
  0.00000000E+00  0.00000000E+00  0.00000000E+00
  0.00000000E+00  0.00000000E+00  0.00000000E+00
  0.00000000E+00  0.00000000E+00  0.00000000E+00
  0.00000000E+00  0.00000000E+00  0.00000000E+00
  0.00000000E+00  0.00000000E+00  0.00000000E+00
  0.00000000E+00  0.00000000E+00  0.00000000E+00
  0.00000000E+00  0.00000000E+00  0.00000000E+00
  0.00000000E+00  0.00000000E+00  0.00000000E+00
  0.00000000E+00  0.00000000E+00  0.00000000E+00
  0.00000000E+00  0.00000000E+00  0.00000000E+00
  0.00000000E+00  0.00000000E+00  0.00000000E+00
  0.00000000E+00  0.00000000E+00  0.00000000E+00
  0.00000000E+00  0.00000000E+00  0.00000000E+00
  0.00000000E+00  0.00000000E+00  0.00000000E+00
  0.00000000E+00  0.00000000E+00  0.00000000E+00
  0.00000000E+00  0.00000000E+00  0.00000000E+00
  0.00000000E+00  0.00000000E+00  0.00000000E+00
  0.00000000E+00  0.00000000E+00  0.00000000E+00
  0.00000000E+00  0.00000000E+00  0.00000000E+00
  0.00000000E+00  0.00000000E+00  0.00000000E+00
