CONTCAR\(9)                             
   1.00000000000000     
    14.0611000061000002    0.0000000000000000    0.0000000000000000
     0.0000000000000000   17.2483997345000013    0.0000000000000000
     0.0000000000000000    0.0000000000000000   18.5618991852000015
   Cu   H    Se   O 
     8    16    16    49
Direct
 -0.0002208050891333  0.9998088216359076  0.4996735494840613
  0.2484377896313422  0.2488461300235668  0.5010508393499544
  0.5003700632461705  0.9994112593592336  0.5000745932960428
  0.7496478754994836  0.2502565026800386  0.5000510582764964
  0.0004384145047811  0.5002640787834538  0.4973884816564342
  0.2480953107963115  0.7480263607335436  0.5066144717913030
  0.4986122888828413  0.4992427369687065  0.5084413280641034
  0.7508570653861907  0.7506154740510557  0.4981203673795698
  0.3129658293809868  0.0197902711882521  0.4357582001057052
  0.0614931977219115  0.2282730190893319  0.5638079365998143
  0.4359692330217835  0.2742204271211761  0.4381988628679150
  0.1847275313383051  0.4822067767842072  0.5601521696515136
  0.8126214805702114  0.0197709828719936  0.4352061509819510
  0.5623094597825748  0.2280703328024229  0.5634734920528131
  0.9367483501167564  0.2706282804970030  0.4357772143782619
  0.6901829312289239  0.4794735734428381  0.5691141066627703
  0.3135047727332496  0.5209096795795105  0.4350286839764532
  0.0614757207274419  0.7282733932704849  0.5649929612119374
  0.4310577812831197  0.7744828288924758  0.4426121459794159
  0.1861661127054994  0.9817764970236658  0.5627283312274506
  0.8098937085090013  0.5183917486842800  0.4377503401611887
  0.5732515773399609  0.7361839176268743  0.5619841384521904
  0.9388113358869875  0.7716095250618912  0.4355735985657291
  0.6871292468431802  0.9805883058031026  0.5639803520103065
  0.3177395566363493  0.4084692579771309  0.5604820241490408
  0.0727482456012534  0.3411356696692498  0.4394862779621569
  0.4270103382802149  0.1566570204833204  0.5592655313898864
  0.1783458508729300  0.0919110729073721  0.4392197865733690
  0.8246230599945045  0.4073316910911295  0.5604438712047971
  0.5719461870843857  0.3448628490190466  0.4438765839821560
  0.9265710876886192  0.1569227207194267  0.5593120309862357
  0.6782836788361453  0.0921610400651244  0.4390466265756733
  0.3205005910183474  0.9091638828399973  0.5632771691086722
  0.0740663299428802  0.8424570938529022  0.4419140889181985
  0.4403619330753055  0.6665035315383961  0.5709848392118176
  0.1794362767091776  0.5936353895356949  0.4371899150414739
  0.8210899356570119  0.9079228610516104  0.5600465692795439
  0.5692873505463413  0.8419557090027815  0.4393002541644780
  0.9266311049154270  0.6571059273998199  0.5584477092057430
  0.6756692095017058  0.5909338264650872  0.4439473398102692
  0.1134190697699713  0.2594628157460325  0.4848731619594860
  0.3838167227372896  0.2377020454096406  0.5146433382729670
  0.3633627943602111  0.4857240787339245  0.5121030831584410
  0.2315801377461495  0.1377894499875909  0.5106791262634599
  0.1347719571602968  0.0102823199958881  0.4829799985488848
  0.4809419972563029  0.1097483576871860  0.4885514711404813
  0.2648204720251491  0.3589409848745274  0.4906208839276377
  0.0192132160876811  0.3895679209050345  0.5093521381656744
  0.2770914257582721  0.0473984280251532  0.3962597681511898
  0.0249889565279201  0.2008776627456500  0.6031431981016780
  0.2187424522779617  0.4547401225412919  0.6006162004880277
  0.4723653047756211  0.3031379485959412  0.3997554567224383
  0.6145380939833874  0.2610310369620194  0.4846588362567572
  0.8846359260805169  0.2388619448073231  0.5151159953190901
  0.8655783560603821  0.4887669776524496  0.5147948588574359
  0.7330369776082691  0.1392354423256836  0.5091165711558400
  0.6351735069522252  0.0117192849102392  0.4848211739750476
  0.9807625398639775  0.1102473227945025  0.4886005961753408
  0.7666193347956625  0.3613062496795367  0.4910714343276066
  0.5202086507752482  0.3886516111067851  0.5171918572396681
  0.7761659838012001  0.0468198738881750  0.3956923994506317
  0.5258171546302485  0.2005287310842108  0.6026643011764842
  0.7289881970845031  0.4518565807446727  0.6070201411531500
  0.9734665354812713  0.2974426095271364  0.3963055563589765
  0.1142043658077843  0.7599720443710655  0.4863201037612702
  0.3833063015881126  0.7427658738928379  0.5308118114175706
  0.3652822665836621  0.9865058516211479  0.5139359294660065
  0.2318438490475277  0.6377004131141799  0.5096963065138678
  0.1347028619186977  0.5111532602183108  0.4791245377034687
  0.4802528020081356  0.6116682749391128  0.5017260619919539
  0.2662144287811473  0.8584653836786921  0.4950521710694836
  0.0189879464533362  0.8892469140737664  0.5121355131383809
  0.2789438600822215  0.5492011019630040  0.3951409398203103
  0.0240124420667922  0.7008256774165498  0.6036676742084168
  0.2222877829340011  0.9567556442172717  0.6036487286062546
  0.4661330857940376  0.7980697942748061  0.4011569514239755
  0.6150623554402247  0.7597724388279294  0.4810248821384465
  0.8854367392565101  0.7392711209371675  0.5136109226768193
  0.8647465322700769  0.9881060580516012  0.5143305186460978
  0.7344494544313783  0.6401432228341061  0.5108593715663533
  0.6334767780216609  0.5129639043761715  0.4935475581151766
  0.9817038366885357  0.6110121048451321  0.4878990746415421
  0.7657353462515505  0.8613262575972214  0.4897486660710267
  0.5216893324302003  0.8887070190903233  0.5121274786498469
  0.7706914457664302  0.5440634195286889  0.3987737846206723
  0.5416298902906733  0.7125129590107828  0.6061336740587637
  0.7234794643227980  0.9534268105771418  0.6035079602698979
  0.9760590861893582  0.7992758536723936  0.3968250913157701
  0.3871251925669437  0.6239981885469109  0.6371484760153906
 
  0.00000000E+00  0.00000000E+00  0.00000000E+00
  0.00000000E+00  0.00000000E+00  0.00000000E+00
  0.00000000E+00  0.00000000E+00  0.00000000E+00
  0.00000000E+00  0.00000000E+00  0.00000000E+00
  0.00000000E+00  0.00000000E+00  0.00000000E+00
  0.00000000E+00  0.00000000E+00  0.00000000E+00
  0.00000000E+00  0.00000000E+00  0.00000000E+00
  0.00000000E+00  0.00000000E+00  0.00000000E+00
  0.00000000E+00  0.00000000E+00  0.00000000E+00
  0.00000000E+00  0.00000000E+00  0.00000000E+00
  0.00000000E+00  0.00000000E+00  0.00000000E+00
  0.00000000E+00  0.00000000E+00  0.00000000E+00
  0.00000000E+00  0.00000000E+00  0.00000000E+00
  0.00000000E+00  0.00000000E+00  0.00000000E+00
  0.00000000E+00  0.00000000E+00  0.00000000E+00
  0.00000000E+00  0.00000000E+00  0.00000000E+00
  0.00000000E+00  0.00000000E+00  0.00000000E+00
  0.00000000E+00  0.00000000E+00  0.00000000E+00
  0.00000000E+00  0.00000000E+00  0.00000000E+00
  0.00000000E+00  0.00000000E+00  0.00000000E+00
  0.00000000E+00  0.00000000E+00  0.00000000E+00
  0.00000000E+00  0.00000000E+00  0.00000000E+00
  0.00000000E+00  0.00000000E+00  0.00000000E+00
  0.00000000E+00  0.00000000E+00  0.00000000E+00
  0.00000000E+00  0.00000000E+00  0.00000000E+00
  0.00000000E+00  0.00000000E+00  0.00000000E+00
  0.00000000E+00  0.00000000E+00  0.00000000E+00
  0.00000000E+00  0.00000000E+00  0.00000000E+00
  0.00000000E+00  0.00000000E+00  0.00000000E+00
  0.00000000E+00  0.00000000E+00  0.00000000E+00
  0.00000000E+00  0.00000000E+00  0.00000000E+00
  0.00000000E+00  0.00000000E+00  0.00000000E+00
  0.00000000E+00  0.00000000E+00  0.00000000E+00
  0.00000000E+00  0.00000000E+00  0.00000000E+00
  0.00000000E+00  0.00000000E+00  0.00000000E+00
  0.00000000E+00  0.00000000E+00  0.00000000E+00
  0.00000000E+00  0.00000000E+00  0.00000000E+00
  0.00000000E+00  0.00000000E+00  0.00000000E+00
  0.00000000E+00  0.00000000E+00  0.00000000E+00
  0.00000000E+00  0.00000000E+00  0.00000000E+00
  0.00000000E+00  0.00000000E+00  0.00000000E+00
  0.00000000E+00  0.00000000E+00  0.00000000E+00
  0.00000000E+00  0.00000000E+00  0.00000000E+00
  0.00000000E+00  0.00000000E+00  0.00000000E+00
  0.00000000E+00  0.00000000E+00  0.00000000E+00
  0.00000000E+00  0.00000000E+00  0.00000000E+00
  0.00000000E+00  0.00000000E+00  0.00000000E+00
  0.00000000E+00  0.00000000E+00  0.00000000E+00
  0.00000000E+00  0.00000000E+00  0.00000000E+00
  0.00000000E+00  0.00000000E+00  0.00000000E+00
  0.00000000E+00  0.00000000E+00  0.00000000E+00
  0.00000000E+00  0.00000000E+00  0.00000000E+00
  0.00000000E+00  0.00000000E+00  0.00000000E+00
  0.00000000E+00  0.00000000E+00  0.00000000E+00
  0.00000000E+00  0.00000000E+00  0.00000000E+00
  0.00000000E+00  0.00000000E+00  0.00000000E+00
  0.00000000E+00  0.00000000E+00  0.00000000E+00
  0.00000000E+00  0.00000000E+00  0.00000000E+00
  0.00000000E+00  0.00000000E+00  0.00000000E+00
  0.00000000E+00  0.00000000E+00  0.00000000E+00
  0.00000000E+00  0.00000000E+00  0.00000000E+00
  0.00000000E+00  0.00000000E+00  0.00000000E+00
  0.00000000E+00  0.00000000E+00  0.00000000E+00
  0.00000000E+00  0.00000000E+00  0.00000000E+00
  0.00000000E+00  0.00000000E+00  0.00000000E+00
  0.00000000E+00  0.00000000E+00  0.00000000E+00
  0.00000000E+00  0.00000000E+00  0.00000000E+00
  0.00000000E+00  0.00000000E+00  0.00000000E+00
  0.00000000E+00  0.00000000E+00  0.00000000E+00
  0.00000000E+00  0.00000000E+00  0.00000000E+00
  0.00000000E+00  0.00000000E+00  0.00000000E+00
  0.00000000E+00  0.00000000E+00  0.00000000E+00
  0.00000000E+00  0.00000000E+00  0.00000000E+00
  0.00000000E+00  0.00000000E+00  0.00000000E+00
  0.00000000E+00  0.00000000E+00  0.00000000E+00
  0.00000000E+00  0.00000000E+00  0.00000000E+00
  0.00000000E+00  0.00000000E+00  0.00000000E+00
  0.00000000E+00  0.00000000E+00  0.00000000E+00
  0.00000000E+00  0.00000000E+00  0.00000000E+00
  0.00000000E+00  0.00000000E+00  0.00000000E+00
  0.00000000E+00  0.00000000E+00  0.00000000E+00
  0.00000000E+00  0.00000000E+00  0.00000000E+00
  0.00000000E+00  0.00000000E+00  0.00000000E+00
  0.00000000E+00  0.00000000E+00  0.00000000E+00
  0.00000000E+00  0.00000000E+00  0.00000000E+00
  0.00000000E+00  0.00000000E+00  0.00000000E+00
  0.00000000E+00  0.00000000E+00  0.00000000E+00
  0.00000000E+00  0.00000000E+00  0.00000000E+00
  0.00000000E+00  0.00000000E+00  0.00000000E+00
