CONTCAR\(4)                             
   1.00000000000000     
    15.6891002655000005    0.0000000000000000    0.0000000000000000
     7.8445501328000002   13.5871593924000003    0.0000000000000000
     0.0000000000000000    0.0000000000000000   18.9503002167000005
   Te   Pt   O 
    32    32     1
Direct
  0.1650066352115118  0.1666757248469750  0.6094460889563464
  0.1645984262485385  0.1662823654322665  0.3892653406272757
  0.4142439926419428  0.1665923109715663  0.6095243387441727
  0.4165079148320814  0.1648098691298614  0.3911398382056603
  0.6650407816504185  0.1655601015986576  0.6114231123670493
  0.6662682472270163  0.1646390227074690  0.3919388288107868
  0.9157165851893438  0.1657165191893455  0.6102461874536189
  0.9150245201939740  0.1650244541939756  0.3914385464104484
  0.1651892317505883  0.4151892607505872  0.6090313732653101
  0.1646778344036477  0.4146778634036465  0.3887209150014428
  0.4145842982924890  0.4154715871110994  0.6091319582844150
  0.4162617641993975  0.4138063076550722  0.3899098437726423
  0.6663105706177603  0.4148610527152030  0.6100611858118015
  0.6675036637174472  0.4130199363282472  0.3907493669366673
  0.9166757388469762  0.4150066432115125  0.6094460889563464
  0.9162823794322676  0.4145984342485391  0.3892653406272757
  0.1654715491110963  0.6645844072924874  0.6091319582844150
  0.1638062696550691  0.6662618731993959  0.3899098437726423
  0.4149560296942241  0.6649561476942267  0.6010779340584804
  0.4153837923493668  0.6653839103493624  0.3939549938010956
  0.6664191734960028  0.6648188020763683  0.6098327672832724
  0.6666408493498324  0.6654618614866337  0.3910082942987003
  0.9165923159715632  0.6642440496419439  0.6095243387441727
  0.9148098741298583  0.6665079718320825  0.3911398382056603
  0.1648610407152020  0.9163106266177579  0.6100611858118015
  0.1630199243282462  0.9175037197174447  0.3907493669366673
  0.4148187100763678  0.9164192384960046  0.6098327672832724
  0.4154617694866332  0.9166409143498342  0.3910082942987003
  0.6655608874804884  0.9155609264804880  0.6107282568096366
  0.6658029449170826  0.9158029839170823  0.3918114105484065
  0.9155601325986567  0.9150407856504188  0.6114231123670493
  0.9146390537074680  0.9162682512270166  0.3919388288107868
  0.0819954774625060  0.0829335601796686  0.5414036100069453
  0.9977889425566318  0.9994237908281463  0.4609288233082509
  0.3315153605531691  0.0828894962783977  0.5409256208707305
  0.2474353457831100  0.0009305807018336  0.4580456151807866
  0.5818087809068970  0.0824350081133502  0.5426012258244768
  0.4990869696087898  0.9989373995673390  0.4603332764874395
  0.8319363894385461  0.0819363904385497  0.5433591009143299
  0.7487418501317933  0.9987418801317887  0.4614023429014225
  0.0822415858372025  0.3322415778372019  0.5401973526457198
  0.9986344126535300  0.2486344066535295  0.4586778537145122
  0.3313100528237172  0.3323288063246892  0.5400548826181080
  0.2487825463312632  0.2484877917062391  0.4579106746373185
  0.5823281381010830  0.3316808493921712  0.5423561735299458
  0.4991721939725693  0.2482926710550544  0.4599041003327358
  0.8329335721796696  0.3319954824625100  0.5414036100069453
  0.7494237778281487  0.2477889385566314  0.4609288233082509
  0.0823287973246920  0.5813099878237153  0.5400548826181080
  0.9984877997062398  0.4987825503312635  0.4579106746373185
  0.3302152386997577  0.5802151906997537  0.5383895888844847
  0.2476712146061786  0.4976712016061811  0.4563560026383584
  0.5857015789167335  0.5801378376768227  0.5398286530640419
  0.5003768992543485  0.4961651846686124  0.4583446804410229
  0.8328894302783993  0.5815152785531694  0.5409256208707305
  0.7509305847018339  0.4974353367831199  0.4580456151807866
  0.0816808483921676  0.8323281161010812  0.5423561735299458
  0.9982926580550568  0.7491721819725683  0.4599041003327358
  0.3301378936768202  0.8357015749167331  0.5398286530640419
  0.2461651456686127  0.7503769302543404  0.4583446804410229
  0.5821914621570201  0.8321914491570155  0.5424251841878913
  0.4997537857767540  0.7497538077767487  0.4588979486066620
  0.8324350721133484  0.8318087719068927  0.5426012258244768
  0.7489374125673365  0.7490869746087867  0.4603332764874395
  0.4132111784134764  0.6631711494134791  0.6982176033569019
 
  0.00000000E+00  0.00000000E+00  0.00000000E+00
  0.00000000E+00  0.00000000E+00  0.00000000E+00
  0.00000000E+00  0.00000000E+00  0.00000000E+00
  0.00000000E+00  0.00000000E+00  0.00000000E+00
  0.00000000E+00  0.00000000E+00  0.00000000E+00
  0.00000000E+00  0.00000000E+00  0.00000000E+00
  0.00000000E+00  0.00000000E+00  0.00000000E+00
  0.00000000E+00  0.00000000E+00  0.00000000E+00
  0.00000000E+00  0.00000000E+00  0.00000000E+00
  0.00000000E+00  0.00000000E+00  0.00000000E+00
  0.00000000E+00  0.00000000E+00  0.00000000E+00
  0.00000000E+00  0.00000000E+00  0.00000000E+00
  0.00000000E+00  0.00000000E+00  0.00000000E+00
  0.00000000E+00  0.00000000E+00  0.00000000E+00
  0.00000000E+00  0.00000000E+00  0.00000000E+00
  0.00000000E+00  0.00000000E+00  0.00000000E+00
  0.00000000E+00  0.00000000E+00  0.00000000E+00
  0.00000000E+00  0.00000000E+00  0.00000000E+00
  0.00000000E+00  0.00000000E+00  0.00000000E+00
  0.00000000E+00  0.00000000E+00  0.00000000E+00
  0.00000000E+00  0.00000000E+00  0.00000000E+00
  0.00000000E+00  0.00000000E+00  0.00000000E+00
  0.00000000E+00  0.00000000E+00  0.00000000E+00
  0.00000000E+00  0.00000000E+00  0.00000000E+00
  0.00000000E+00  0.00000000E+00  0.00000000E+00
  0.00000000E+00  0.00000000E+00  0.00000000E+00
  0.00000000E+00  0.00000000E+00  0.00000000E+00
  0.00000000E+00  0.00000000E+00  0.00000000E+00
  0.00000000E+00  0.00000000E+00  0.00000000E+00
  0.00000000E+00  0.00000000E+00  0.00000000E+00
  0.00000000E+00  0.00000000E+00  0.00000000E+00
  0.00000000E+00  0.00000000E+00  0.00000000E+00
  0.00000000E+00  0.00000000E+00  0.00000000E+00
  0.00000000E+00  0.00000000E+00  0.00000000E+00
  0.00000000E+00  0.00000000E+00  0.00000000E+00
  0.00000000E+00  0.00000000E+00  0.00000000E+00
  0.00000000E+00  0.00000000E+00  0.00000000E+00
  0.00000000E+00  0.00000000E+00  0.00000000E+00
  0.00000000E+00  0.00000000E+00  0.00000000E+00
  0.00000000E+00  0.00000000E+00  0.00000000E+00
  0.00000000E+00  0.00000000E+00  0.00000000E+00
  0.00000000E+00  0.00000000E+00  0.00000000E+00
  0.00000000E+00  0.00000000E+00  0.00000000E+00
  0.00000000E+00  0.00000000E+00  0.00000000E+00
  0.00000000E+00  0.00000000E+00  0.00000000E+00
  0.00000000E+00  0.00000000E+00  0.00000000E+00
  0.00000000E+00  0.00000000E+00  0.00000000E+00
  0.00000000E+00  0.00000000E+00  0.00000000E+00
  0.00000000E+00  0.00000000E+00  0.00000000E+00
  0.00000000E+00  0.00000000E+00  0.00000000E+00
  0.00000000E+00  0.00000000E+00  0.00000000E+00
  0.00000000E+00  0.00000000E+00  0.00000000E+00
  0.00000000E+00  0.00000000E+00  0.00000000E+00
  0.00000000E+00  0.00000000E+00  0.00000000E+00
  0.00000000E+00  0.00000000E+00  0.00000000E+00
  0.00000000E+00  0.00000000E+00  0.00000000E+00
  0.00000000E+00  0.00000000E+00  0.00000000E+00
  0.00000000E+00  0.00000000E+00  0.00000000E+00
  0.00000000E+00  0.00000000E+00  0.00000000E+00
  0.00000000E+00  0.00000000E+00  0.00000000E+00
  0.00000000E+00  0.00000000E+00  0.00000000E+00
  0.00000000E+00  0.00000000E+00  0.00000000E+00
  0.00000000E+00  0.00000000E+00  0.00000000E+00
  0.00000000E+00  0.00000000E+00  0.00000000E+00
  0.00000000E+00  0.00000000E+00  0.00000000E+00
