CONTCAR\(2)                             
   1.00000000000000     
    13.1398000716999999    0.0000000000000000    0.0000000000000000
     0.0000000000000000   13.1344995498999992    0.0000000000000000
     0.0000000000000000    0.0000000000000000   24.5086002349999994
   Pr   Te   O    H 
    18    54     1     1
Selective dynamics
Direct
  0.1396405951123256  0.0020080294786240  0.5863688902717357   F   F   F
  0.3069081527558239  0.1667296538267493  0.4124263531037684   F   F   F
  0.4729379223007442  0.9995596565316447  0.5881994442349168   F   F   F
  0.6396917217974902  0.1664156459281187  0.4124457536728201   F   F   F
  0.8060033146773549  0.9991776322286725  0.5866933768077658   F   F   F
  0.9735182375085287  0.1666615107362617  0.4121327133257040   F   F   F
  0.1408221114399311  0.3344772270171177  0.5881007376171183   F   F   F
  0.3069584371274203  0.5002113636874341  0.4140634585245166   F   F   F
  0.4733779186458804  0.3311395972802487  0.5879980227448982   F   F   F
  0.6395099959283925  0.5001036943576054  0.4132876572691018   F   F   F
  0.8085832423855663  0.3328998831285261  0.5865840277039354   F   F   F
  0.9734633233574925  0.4999001977263973  0.4125238775646238   F   F   F
  0.1379611195178114  0.6664978612417016  0.5879424233053641   F   F   F
  0.3071112848310520  0.8326278279563937  0.4134935566264701   F   F   F
  0.4740282217694443  0.6658749493734959  0.5931899145889616   F   F   F
  0.6397020454016555  0.8327603833601884  0.4133375324929389   F   F   F
  0.8068892773822256  0.6663163656173552  0.5884122970385306   F   F   F
  0.9730425836622132  0.8330105787002182  0.4122633516974830   F   F   F
  0.1403223573529786  0.1664951751469630  0.3073038660798773   F   F   F
  0.3076294990555439  0.0035207652107658  0.6927255887647092   F   F   F
  0.3067633991053285  0.1666601313120140  0.5479321972615168   F   F   F
  0.1403236769729688  0.9994789855791026  0.4516985418221040   F   F   F
  0.3071431336794461  0.9993911339647639  0.3077918898214094   F   F   F
  0.1434466454332295  0.1696227315794445  0.6924777541825051   F   F   F
  0.4731991939841507  0.1665117488787118  0.3076399715952576   F   F   F
  0.6403505273782386  0.9992981032398731  0.6922631496053029   F   F   F
  0.6399794363782405  0.1657204692865477  0.5476426526257967   F   F   F
  0.4731011013267832  0.9996270500083710  0.4528028087780527   F   F   F
  0.6402574066662368  0.9996086739972796  0.3080926471107830   F   F   F
  0.4722079721211117  0.1632824762961675  0.6932778944121551   F   F   F
  0.8065896234396206  0.1667236492042150  0.3074667189503302   F   F   F
  0.9708572823436086  0.0058662569999939  0.6915581146914320   F   F   F
  0.9742684111342470  0.1672827886507733  0.5469070673458134   F   F   F
  0.8065533710138340  0.9998087346359128  0.4520096097404007   F   F   F
  0.9734630376675213  0.9996842811852105  0.3072463786958366   F   F   F
  0.8153383491613866  0.1643160191693696  0.6919013664103772   F   F   F
  0.1404679564043789  0.4998745727080660  0.3083248366541511   F   F   F
  0.3068936606745538  0.3336923612185458  0.6942963015976389   F   F   F
  0.3085571845007209  0.5017422367089850  0.5511863181587202   F   F   F
  0.1403328899557721  0.3334184356751635  0.4525886825269723   F   F   F
  0.3064901675009821  0.3334333310289850  0.3081762550975924   F   F   F
  0.1394070500678453  0.5026524382586928  0.6942931491886810   F   F   F
  0.4730054562102239  0.4999428681427531  0.3087209984795578   F   F   F
  0.6431471011558543  0.3278440994923031  0.6886190814601960   F   F   F
  0.6393873974739606  0.5001875572241090  0.5497788197407374   F   F   F
  0.4735357406847527  0.3331975618555063  0.4531384805546494   F   F   F
  0.6396164365503481  0.3333883271777225  0.3078048837607739   F   F   F
  0.4932187683151952  0.4829141873974834  0.7023679141188808   F   F   F
  0.8067133747084441  0.4999846612350325  0.3079332291199464   F   F   F
  0.9752942964392588  0.3353651587947439  0.6926574745030649   F   F   F
  0.9735451733304146  0.5000241043458900  0.5479541282681311   F   F   F
  0.8062392979648649  0.3334415410293801  0.4520001203590525   F   F   F
  0.9733441423511167  0.3333513354781559  0.3075556766098302   F   F   F
  0.8111397026639580  0.5005942398800372  0.6926246425837803   F   F   F
  0.1402336667899604  0.8328141641733282  0.3078310728007665   F   F   F
  0.2934991024989841  0.6868272615911266  0.7056040518490150   F   F   F
  0.3072586325154134  0.8312794803905135  0.5501810790342674   F   F   F
  0.1396241981244728  0.6667491067311602  0.4529993522382867   F   F   F
  0.3068433837712803  0.6664200792400052  0.3087798907258019   F   F   F
  0.1325619622608869  0.8373988743144665  0.6876828967377762   F   F   F
  0.4733216947104779  0.8327852115119327  0.3085009227141029   F   F   F
  0.6440838988292654  0.6661289505264278  0.6961709067695239   F   F   F
  0.6381910174701773  0.8311642314153218  0.5492702123029503   F   F   F
  0.4734649294313087  0.6662294780341185  0.4551755255746599   F   F   F
  0.6397590149913697  0.6665219320363462  0.3084675094972340   F   F   F
  0.4728967234440304  0.8359314672220748  0.6967490902088755   F   F   F
  0.8062826095495836  0.8331352784245212  0.3078533282876919   F   F   F
  0.9712073076944421  0.6649211047652486  0.6933977352534981   F   F   F
  0.9721695118645641  0.8331571434389389  0.5473518102898964   F   F   F
  0.8063723755343304  0.6661216943551196  0.4528841012372453   F   F   F
  0.9732623541895933  0.6664439854080015  0.3076428370157345   F   F   F
  0.8035556915819058  0.8337592377948511  0.6928843059522833   F   F   F
  0.3657670135799407  0.5666268647177262  0.7546006906518699   T   T   T
  0.3968247433995699  0.5989246457350106  0.7860273505348734   T   T   T
 
  0.00000000E+00  0.00000000E+00  0.00000000E+00
  0.00000000E+00  0.00000000E+00  0.00000000E+00
  0.00000000E+00  0.00000000E+00  0.00000000E+00
  0.00000000E+00  0.00000000E+00  0.00000000E+00
  0.00000000E+00  0.00000000E+00  0.00000000E+00
  0.00000000E+00  0.00000000E+00  0.00000000E+00
  0.00000000E+00  0.00000000E+00  0.00000000E+00
  0.00000000E+00  0.00000000E+00  0.00000000E+00
  0.00000000E+00  0.00000000E+00  0.00000000E+00
  0.00000000E+00  0.00000000E+00  0.00000000E+00
  0.00000000E+00  0.00000000E+00  0.00000000E+00
  0.00000000E+00  0.00000000E+00  0.00000000E+00
  0.00000000E+00  0.00000000E+00  0.00000000E+00
  0.00000000E+00  0.00000000E+00  0.00000000E+00
  0.00000000E+00  0.00000000E+00  0.00000000E+00
  0.00000000E+00  0.00000000E+00  0.00000000E+00
  0.00000000E+00  0.00000000E+00  0.00000000E+00
  0.00000000E+00  0.00000000E+00  0.00000000E+00
  0.00000000E+00  0.00000000E+00  0.00000000E+00
  0.00000000E+00  0.00000000E+00  0.00000000E+00
  0.00000000E+00  0.00000000E+00  0.00000000E+00
  0.00000000E+00  0.00000000E+00  0.00000000E+00
  0.00000000E+00  0.00000000E+00  0.00000000E+00
  0.00000000E+00  0.00000000E+00  0.00000000E+00
  0.00000000E+00  0.00000000E+00  0.00000000E+00
  0.00000000E+00  0.00000000E+00  0.00000000E+00
  0.00000000E+00  0.00000000E+00  0.00000000E+00
  0.00000000E+00  0.00000000E+00  0.00000000E+00
  0.00000000E+00  0.00000000E+00  0.00000000E+00
  0.00000000E+00  0.00000000E+00  0.00000000E+00
  0.00000000E+00  0.00000000E+00  0.00000000E+00
  0.00000000E+00  0.00000000E+00  0.00000000E+00
  0.00000000E+00  0.00000000E+00  0.00000000E+00
  0.00000000E+00  0.00000000E+00  0.00000000E+00
  0.00000000E+00  0.00000000E+00  0.00000000E+00
  0.00000000E+00  0.00000000E+00  0.00000000E+00
  0.00000000E+00  0.00000000E+00  0.00000000E+00
  0.00000000E+00  0.00000000E+00  0.00000000E+00
  0.00000000E+00  0.00000000E+00  0.00000000E+00
  0.00000000E+00  0.00000000E+00  0.00000000E+00
  0.00000000E+00  0.00000000E+00  0.00000000E+00
  0.00000000E+00  0.00000000E+00  0.00000000E+00
  0.00000000E+00  0.00000000E+00  0.00000000E+00
  0.00000000E+00  0.00000000E+00  0.00000000E+00
  0.00000000E+00  0.00000000E+00  0.00000000E+00
  0.00000000E+00  0.00000000E+00  0.00000000E+00
  0.00000000E+00  0.00000000E+00  0.00000000E+00
  0.00000000E+00  0.00000000E+00  0.00000000E+00
  0.00000000E+00  0.00000000E+00  0.00000000E+00
  0.00000000E+00  0.00000000E+00  0.00000000E+00
  0.00000000E+00  0.00000000E+00  0.00000000E+00
  0.00000000E+00  0.00000000E+00  0.00000000E+00
  0.00000000E+00  0.00000000E+00  0.00000000E+00
  0.00000000E+00  0.00000000E+00  0.00000000E+00
  0.00000000E+00  0.00000000E+00  0.00000000E+00
  0.00000000E+00  0.00000000E+00  0.00000000E+00
  0.00000000E+00  0.00000000E+00  0.00000000E+00
  0.00000000E+00  0.00000000E+00  0.00000000E+00
  0.00000000E+00  0.00000000E+00  0.00000000E+00
  0.00000000E+00  0.00000000E+00  0.00000000E+00
  0.00000000E+00  0.00000000E+00  0.00000000E+00
  0.00000000E+00  0.00000000E+00  0.00000000E+00
  0.00000000E+00  0.00000000E+00  0.00000000E+00
  0.00000000E+00  0.00000000E+00  0.00000000E+00
  0.00000000E+00  0.00000000E+00  0.00000000E+00
  0.00000000E+00  0.00000000E+00  0.00000000E+00
  0.00000000E+00  0.00000000E+00  0.00000000E+00
  0.00000000E+00  0.00000000E+00  0.00000000E+00
  0.00000000E+00  0.00000000E+00  0.00000000E+00
  0.00000000E+00  0.00000000E+00  0.00000000E+00
  0.00000000E+00  0.00000000E+00  0.00000000E+00
  0.00000000E+00  0.00000000E+00  0.00000000E+00
  0.00000000E+00  0.00000000E+00  0.00000000E+00
  0.00000000E+00  0.00000000E+00  0.00000000E+00
