 Nb3 Ir1 Se8                            
   1.00000000000000     
     6.8549781870042121    0.0000000000000000    0.0000000000000000
    -3.4109314281915695    5.9649988075307077    0.0000000000000000
     0.0000000000000000    0.0000000000000000   18.6952636235900016
   Nb   Ir   Se
     3     1     8
Direct
  0.9796546111448974  0.4789742854376360  0.4997226756603504
  0.9674858179296606  0.0017096235080629  0.5014672711087476
  0.5009046064122681  0.4671359658700172  0.4982644109555727
  0.5505424329356433  0.0504309782600938  0.4999214866443689
  0.8442719177954418  0.1795438422521329  0.5986011817541171
  0.8196673817777798  0.6563498901299272  0.5902833632674485
  0.3297293218795623  0.1501300956126398  0.5876824849195846
  0.3513651680338145  0.6949690854022056  0.5753621202386117
  0.6782995246430900  0.3432916468539914  0.4011659203123939
  0.6496065664849694  0.8293996432276881  0.4122022193035501
  0.1558417036146995  0.3189933781803429  0.4090669249854099
  0.1945580071178607  0.8511162575928309  0.4243826134810201
 
  0.00000000E+00  0.00000000E+00  0.00000000E+00
  0.00000000E+00  0.00000000E+00  0.00000000E+00
  0.00000000E+00  0.00000000E+00  0.00000000E+00
  0.00000000E+00  0.00000000E+00  0.00000000E+00
  0.00000000E+00  0.00000000E+00  0.00000000E+00
  0.00000000E+00  0.00000000E+00  0.00000000E+00
  0.00000000E+00  0.00000000E+00  0.00000000E+00
  0.00000000E+00  0.00000000E+00  0.00000000E+00
  0.00000000E+00  0.00000000E+00  0.00000000E+00
  0.00000000E+00  0.00000000E+00  0.00000000E+00
  0.00000000E+00  0.00000000E+00  0.00000000E+00
  0.00000000E+00  0.00000000E+00  0.00000000E+00
