CONTCAR\(5)                             
   1.00000000000000     
    11.4826002120999995    0.0000000000000000    0.0000000000000000
     0.0000000000000000   22.3225002289000010    0.0000000000000000
     0.0000000000000000    0.0000000000000000   23.4783000946000016
   Y    C    I    O 
    42    18    36     7
Direct
  0.1667487190827533  0.9715853209548531  0.4325339543235964
  0.0005126164084478  0.6650745145992074  0.3969770214570967
  0.1667026149536981  0.7499318227310278  0.4879717586597750
  0.9971162263454165  0.6080298231277570  0.5269973368084433
 -0.0000186002697592  0.1647725105593237  0.6019485793256887
  0.1668098163652422  0.2510985652403579  0.5120467544238183
  0.1665411530162424  0.4704822456325236  0.5675352100114133
  0.0003390474696520  0.8938746322230373  0.5283225961213019
  0.0000899129179916  0.1071227149817437  0.4719759436103722
  0.0001137718155241  0.8367079160895552  0.3980615104358584
  0.1668004113185314  0.5302810751466934  0.4335696600908304
  0.1668723212099294  0.0295680642042376  0.5676886728592007
  0.9996856038577371  0.3366879545436210  0.6021026956452880
  0.9995814660548380  0.3939796662211962  0.4715329865446647
  0.5000642725333770  0.9717016340496789  0.4325831862390651
  0.3329516586700483  0.6651075362134099  0.3970555009469476
  0.5000779139309786  0.7507092609990049  0.4879794966672926
  0.3360440802849937  0.6082967908647949  0.5271652548316036
  0.3334595068039828  0.1647881097986020  0.6019959220408875
  0.5001611144034940  0.2508523836515315  0.5119070904864491
  0.4996190622341059  0.4721569912623776  0.5671260234983668
  0.3333856259322686  0.8939134487665993  0.5283366397190413
  0.3333826966368731  0.1072044321713866  0.4719499929970930
  0.3333495092490390  0.8367829496703652  0.3980585749611770
  0.5001699120585247  0.5296138531970936  0.4320461739874171
  0.5000280139265294  0.0295898943633621  0.5676470293524762
  0.3338219589242019  0.3368415823359982  0.6020762058383151
  0.3338088374126866  0.3941615201926277  0.4715482097498105
  0.8335001219211763  0.9716315443981549  0.4326154026808993
  0.6666712620261118  0.6650156488860466  0.3975345571959203
  0.8334123106095885  0.7505763746070826  0.4879948948136952
  0.6668541360128440  0.6075514671168809  0.5280247322209961
  0.6666661730878155  0.1646830335824888  0.6020773084444675
  0.8331670305624909  0.2508209985830357  0.5119534469678357
  0.8338574786670683  0.4719894884466351  0.5671129987654066
  0.6666816750725904  0.8939865607851392  0.5283801674305227
  0.6667037773702545  0.1071578652106018  0.4719847850545784
  0.6668309883808194  0.8368727033254530  0.3980384538234494
  0.8331576804955328  0.5294865888570532  0.4319431698725058
  0.8333495347622809  0.0295427471990147  0.5676566476568782
  0.6666382624749605  0.3367861368246924  0.6019427246673785
  0.6666037451605469  0.3942544862758348  0.4715655939565865
  0.1668871385117458  0.1370502095252091  0.5398930291025372
  0.1667751762007931  0.6382587995069974  0.4586345774892353
  0.0000949669395666  0.0006208960316396  0.5001556595156351
  0.1667972283888465  0.8644270256001949  0.4601385716020633
  0.9977297376022370  0.5001288941612185  0.4996751901063035
  0.1667118980546826  0.3638848429510190  0.5397403913999811
  0.5000495736832877  0.1370904120194541  0.5399631537615940
  0.5008249501573974  0.6373788869390358  0.4594542353473591
  0.3334951701627105  0.0006057585028777  0.5000773241159818
  0.5000764298649170  0.8643649512018597  0.4601796873128073
  0.3353551101172647  0.5003029844623236  0.4998073956887256
  0.5004035757289033  0.3640559225476242  0.5397341878159847
  0.8332101804312396  0.1370549093183605  0.5399619941557430
  0.8324683611741228  0.6373011421703403  0.4593528921420962
  0.6667201554541694  0.0006322189317977  0.5000983817179916
  0.8334606950303859  0.8643332318911932  0.4601416026495637
  0.6667466727098239  0.5009632354603329  0.4994125946619953
  0.8329867873326553  0.3638931069423268  0.5397622973722190
  0.1666938283046512  0.2504844926010001  0.6840369328492630
  0.0000446261305736  0.2506208303819955  0.4101862108442021
  0.0001600505759724  0.0553250041105542  0.6758470054084419
  0.1669041787100425  0.9047565141058326  0.6308878812214537
  0.1666599290290797  0.4056715703491029  0.3693313275297762
  0.0000493891304315  0.9458643070710827  0.3238122622839646
  0.0002925765741844  0.4463274788996617  0.6756341129466952
  0.1667799423421201  0.0961594335420074  0.3692591836661252
  0.0003930898033773  0.5551551209409826  0.3238949248283362
  0.0002111468287073  0.7493262937468630  0.5897568041191545
  0.1660194529426999  0.5953540260610303  0.6252026988687536
  0.1668901967991338  0.7515377214285238  0.3152027911965578
  0.4999628689898492  0.2512717784496582  0.6842126653886170
  0.3333178219377027  0.2509924289519535  0.4101201012691740
  0.3333491568870013  0.0555098463377904  0.6761775966793555
  0.4999480501227452  0.9054259892676034  0.6311643026140902
  0.5001054570997304  0.4054244711952196  0.3685984362466298
  0.3333279379758460  0.9461768064224174  0.3240561599294620
  0.3333339741510208  0.4467015109787139  0.6754932064876182
  0.5001618014906460  0.0965626193809726  0.3692579533763823
  0.3331528806419256  0.5552136921174985  0.3238959742711716
  0.3331786220839008  0.7494515678478121  0.5898732437230942
  0.4993521638638960  0.5966822687359282  0.6306897786787897
  0.5002210953942485  0.7514752188062792  0.3155378884891583
  0.8333817833975822  0.2506318793736917  0.6842128318063863
  0.6668998385081600  0.2509505870388691  0.4100038758129518
  0.6667356518316078  0.0554848000514112  0.6762323447413453
  0.8336324691853031  0.9050468815593381  0.6309518512372414
  0.8331701942658550  0.4049995992385496  0.3686940686213683
  0.6667610189791364  0.9462773922569268  0.3240193455650025
  0.6668406350911565  0.4463351574747457  0.6755390961303509
  0.8333487412231824  0.0961439327240846  0.3692898419502174
  0.6669001754946284  0.5556196834671763  0.3233351195927662
  0.6667890718405161  0.7512025872777547  0.5897853437794894
  0.8342583784961501  0.5962864021726345  0.6306594822781023
  0.8332628559700699  0.7516092653582277  0.3153281407576408
  0.9998938825101595  0.7506818969766567  0.4406210576322461
 -0.0000319578771240  0.2507398662168461  0.5589507749319690
  0.3334800954070126  0.7507842400598229  0.4406736493033542
  0.3334670058083563  0.2508067250461162  0.5590052697584330
  0.6668451574449138  0.7509384576438122  0.4407174320960766
  0.6667241788164470  0.2506284926410711  0.5590997083118197
  0.1597639171012589  0.6338207876379068  0.6965425836347674
 
  0.00000000E+00  0.00000000E+00  0.00000000E+00
  0.00000000E+00  0.00000000E+00  0.00000000E+00
  0.00000000E+00  0.00000000E+00  0.00000000E+00
  0.00000000E+00  0.00000000E+00  0.00000000E+00
  0.00000000E+00  0.00000000E+00  0.00000000E+00
  0.00000000E+00  0.00000000E+00  0.00000000E+00
  0.00000000E+00  0.00000000E+00  0.00000000E+00
  0.00000000E+00  0.00000000E+00  0.00000000E+00
  0.00000000E+00  0.00000000E+00  0.00000000E+00
  0.00000000E+00  0.00000000E+00  0.00000000E+00
  0.00000000E+00  0.00000000E+00  0.00000000E+00
  0.00000000E+00  0.00000000E+00  0.00000000E+00
  0.00000000E+00  0.00000000E+00  0.00000000E+00
  0.00000000E+00  0.00000000E+00  0.00000000E+00
  0.00000000E+00  0.00000000E+00  0.00000000E+00
  0.00000000E+00  0.00000000E+00  0.00000000E+00
  0.00000000E+00  0.00000000E+00  0.00000000E+00
  0.00000000E+00  0.00000000E+00  0.00000000E+00
  0.00000000E+00  0.00000000E+00  0.00000000E+00
  0.00000000E+00  0.00000000E+00  0.00000000E+00
  0.00000000E+00  0.00000000E+00  0.00000000E+00
  0.00000000E+00  0.00000000E+00  0.00000000E+00
  0.00000000E+00  0.00000000E+00  0.00000000E+00
  0.00000000E+00  0.00000000E+00  0.00000000E+00
  0.00000000E+00  0.00000000E+00  0.00000000E+00
  0.00000000E+00  0.00000000E+00  0.00000000E+00
  0.00000000E+00  0.00000000E+00  0.00000000E+00
  0.00000000E+00  0.00000000E+00  0.00000000E+00
  0.00000000E+00  0.00000000E+00  0.00000000E+00
  0.00000000E+00  0.00000000E+00  0.00000000E+00
  0.00000000E+00  0.00000000E+00  0.00000000E+00
  0.00000000E+00  0.00000000E+00  0.00000000E+00
  0.00000000E+00  0.00000000E+00  0.00000000E+00
  0.00000000E+00  0.00000000E+00  0.00000000E+00
  0.00000000E+00  0.00000000E+00  0.00000000E+00
  0.00000000E+00  0.00000000E+00  0.00000000E+00
  0.00000000E+00  0.00000000E+00  0.00000000E+00
  0.00000000E+00  0.00000000E+00  0.00000000E+00
  0.00000000E+00  0.00000000E+00  0.00000000E+00
  0.00000000E+00  0.00000000E+00  0.00000000E+00
  0.00000000E+00  0.00000000E+00  0.00000000E+00
  0.00000000E+00  0.00000000E+00  0.00000000E+00
  0.00000000E+00  0.00000000E+00  0.00000000E+00
  0.00000000E+00  0.00000000E+00  0.00000000E+00
  0.00000000E+00  0.00000000E+00  0.00000000E+00
  0.00000000E+00  0.00000000E+00  0.00000000E+00
  0.00000000E+00  0.00000000E+00  0.00000000E+00
  0.00000000E+00  0.00000000E+00  0.00000000E+00
  0.00000000E+00  0.00000000E+00  0.00000000E+00
  0.00000000E+00  0.00000000E+00  0.00000000E+00
  0.00000000E+00  0.00000000E+00  0.00000000E+00
  0.00000000E+00  0.00000000E+00  0.00000000E+00
  0.00000000E+00  0.00000000E+00  0.00000000E+00
  0.00000000E+00  0.00000000E+00  0.00000000E+00
  0.00000000E+00  0.00000000E+00  0.00000000E+00
  0.00000000E+00  0.00000000E+00  0.00000000E+00
  0.00000000E+00  0.00000000E+00  0.00000000E+00
  0.00000000E+00  0.00000000E+00  0.00000000E+00
  0.00000000E+00  0.00000000E+00  0.00000000E+00
  0.00000000E+00  0.00000000E+00  0.00000000E+00
  0.00000000E+00  0.00000000E+00  0.00000000E+00
  0.00000000E+00  0.00000000E+00  0.00000000E+00
  0.00000000E+00  0.00000000E+00  0.00000000E+00
  0.00000000E+00  0.00000000E+00  0.00000000E+00
  0.00000000E+00  0.00000000E+00  0.00000000E+00
  0.00000000E+00  0.00000000E+00  0.00000000E+00
  0.00000000E+00  0.00000000E+00  0.00000000E+00
  0.00000000E+00  0.00000000E+00  0.00000000E+00
  0.00000000E+00  0.00000000E+00  0.00000000E+00
  0.00000000E+00  0.00000000E+00  0.00000000E+00
  0.00000000E+00  0.00000000E+00  0.00000000E+00
  0.00000000E+00  0.00000000E+00  0.00000000E+00
  0.00000000E+00  0.00000000E+00  0.00000000E+00
  0.00000000E+00  0.00000000E+00  0.00000000E+00
  0.00000000E+00  0.00000000E+00  0.00000000E+00
  0.00000000E+00  0.00000000E+00  0.00000000E+00
  0.00000000E+00  0.00000000E+00  0.00000000E+00
  0.00000000E+00  0.00000000E+00  0.00000000E+00
  0.00000000E+00  0.00000000E+00  0.00000000E+00
  0.00000000E+00  0.00000000E+00  0.00000000E+00
  0.00000000E+00  0.00000000E+00  0.00000000E+00
  0.00000000E+00  0.00000000E+00  0.00000000E+00
  0.00000000E+00  0.00000000E+00  0.00000000E+00
  0.00000000E+00  0.00000000E+00  0.00000000E+00
  0.00000000E+00  0.00000000E+00  0.00000000E+00
  0.00000000E+00  0.00000000E+00  0.00000000E+00
  0.00000000E+00  0.00000000E+00  0.00000000E+00
  0.00000000E+00  0.00000000E+00  0.00000000E+00
  0.00000000E+00  0.00000000E+00  0.00000000E+00
  0.00000000E+00  0.00000000E+00  0.00000000E+00
  0.00000000E+00  0.00000000E+00  0.00000000E+00
  0.00000000E+00  0.00000000E+00  0.00000000E+00
  0.00000000E+00  0.00000000E+00  0.00000000E+00
  0.00000000E+00  0.00000000E+00  0.00000000E+00
  0.00000000E+00  0.00000000E+00  0.00000000E+00
  0.00000000E+00  0.00000000E+00  0.00000000E+00
  0.00000000E+00  0.00000000E+00  0.00000000E+00
  0.00000000E+00  0.00000000E+00  0.00000000E+00
  0.00000000E+00  0.00000000E+00  0.00000000E+00
  0.00000000E+00  0.00000000E+00  0.00000000E+00
  0.00000000E+00  0.00000000E+00  0.00000000E+00
  0.00000000E+00  0.00000000E+00  0.00000000E+00
  0.00000000E+00  0.00000000E+00  0.00000000E+00
