CONTCAR\(3)                             
   1.00000000000000     
    14.4307003021000000    0.0000000000000000    0.0000000000000000
     3.6076641542000001   11.0374642728999994    0.0000000000000000
     0.0000000000000000    0.0000000000000000   22.9083003998000017
   Rb   V    O 
     8    32    81
Direct
  0.1250995917125607  0.9998291290379865  0.5001643132922466
  0.3750161185052648  0.9999713627309820  0.5002001965303533
  0.6249359786323927  0.0001516527584268  0.5001615943014668
  0.8750356615319160  0.9999775113400360  0.5001252156114562
  0.1251518395867018  0.4999427113692665  0.5002808923835163
  0.3749660166835780  0.5001782962736880  0.5005481690048588
  0.6248663395620904  0.5000503294031436  0.5002936664376705
  0.8750084646414108  0.5000403408329399  0.5001261138878332
  0.2136807912445310  0.1463134167215542  0.6509402865872654
  0.2128131004737644  0.1485758956571196  0.3492581547590790
  0.0372415891921308  0.3514716258369678  0.6508566396715678
  0.0365607759195266  0.3531380650803861  0.3493051649109982
  0.4634173811601924  0.1470571966642598  0.6507940636633119
  0.4628119270679804  0.1485473538221970  0.3492932242224910
  0.2872185073472044  0.3514499040705786  0.6508428379406442
  0.2865641252189293  0.3531406660246773  0.3492972929348039
  0.7133959129334999  0.1468968592023277  0.6507461300961941
  0.7128104691479957  0.1485680757091424  0.3492568837178666
  0.5371313570649315  0.3514082910440162  0.6508177825294341
  0.5365385431256212  0.3531374291224944  0.3493008313702299
  0.9636014190318800  0.1464313264690201  0.6508553668548938
  0.9628155221527257  0.1485583720495386  0.3493055555165903
  0.7872428794219754  0.3514060796862095  0.6508129968364117
  0.7865331237011421  0.3531270551953099  0.3493029860773063
  0.2135050523682733  0.6466258817603754  0.6509451214506533
  0.2128309403382970  0.6485381198370499  0.3493084652953558
  0.0373189424952148  0.8513262104001276  0.6508175321599949
  0.0365538409767036  0.8531501080807555  0.3492864977964441
  0.4635161564427791  0.6465164692897407  0.6510361237342994
  0.4628097588607623  0.6485205488696602  0.3493266256058153
  0.2872141019807098  0.8511966053257750  0.6508185581118830
  0.2865384693428508  0.8531752317958164  0.3492686122789933
  0.7133451930861324  0.6467938478887080  0.6509112257025242
  0.7128149799873561  0.6485276981413316  0.3493281122206708
  0.5369024532910177  0.8519032322303414  0.6509589710645579
  0.5365483472923613  0.8531360469881226  0.3492912493117198
  0.9634062576472527  0.6469146824674873  0.6508407379473675
  0.9628327772663907  0.6485272457377078  0.3493281500878392
  0.7870871410770489  0.8517288901628903  0.6508164265994737
  0.7865346983669582  0.8531576406905718  0.3492810596638845
  0.2496960401666388  0.0008569155302387  0.3179631585575582
  0.2174849927633330  0.1301296914163855  0.5808449004473613
  0.2168885348710211  0.1321606260891039  0.4193217213233582
  0.0808801897051271  0.1766063941296943  0.6702579320074287
  0.0803218398437715  0.1783641737329070  0.3297379582775182
  0.1696380247963896  0.3208280065585952  0.6702503733384394
  0.1690303168921714  0.3233775113586682  0.3297392853615372
  0.0331293441901174  0.3677710527192029  0.5807727320700662
  0.0325586769038553  0.3694628985978735  0.4193827206775898
  0.0003619900781350  0.4991246446809731  0.6820271573491063
  0.4996873824904642  0.0008396425157639  0.3180053980798766
  0.4675984076198957  0.1300697728091164  0.5807438572976475
  0.4668688421968136  0.1321569392645336  0.4193544053430222
  0.3310774730068581  0.1761776814489102  0.6700886177277453
  0.3303363979416528  0.1783643321658530  0.3297338208162796
  0.4195922877557017  0.3218642236356430  0.6694167167818456
  0.4190376012206534  0.3233460571320334  0.3297421080222762
  0.2828956002361512  0.3674333999321030  0.5807050382346137
  0.2825502576092030  0.3695216769304738  0.4193614883544623
  0.2488062711626103  0.4989351887007814  0.6812599814128962
  0.7496982634503537  0.0008403838238401  0.3179733187953922
  0.7176435353594077  0.1304888112019906  0.5806648121122959
  0.7168904529381587  0.1321614484086199  0.4193237459749089
  0.5811463168384556  0.1761809399520670  0.6700514965703366
  0.5803270348221586  0.1783464175964720  0.3297437419566406
  0.6700906214072579  0.3210465537601132  0.6702102574881712
  0.6690147272357423  0.3233618932102410  0.3297346161178340
  0.5335079215941140  0.3674461482255454  0.5806748217049639
  0.5324822441454459  0.3694699403040831  0.4193728082818030
  0.5019553648392281  0.4988778441271163  0.6813317131548065
  0.9996800184019007  0.0008590432991757  0.3180065739433993
  0.9676444862703982  0.1302005355642754  0.5807610694475572
  0.9668964539452046  0.1321572942023575  0.4193755073645957
  0.8311091675859427  0.1766082792426465  0.6702055689219218
  0.8303343241886704  0.1783670396038124  0.3297351569400455
  0.9197939246836009  0.3213800945657878  0.6702946892045335
  0.9190253176376140  0.3233677344166830  0.3297765258656742
  0.7832685283379525  0.3677809450409871  0.5807340764216460
  0.7824650023037288  0.3694794058552167  0.4193803003414235
  0.7502556554551826  0.4990718524128214  0.6820600401252594
  0.2496947829905398  0.5008689162106466  0.3180232512077539
  0.2168090445139540  0.6308778549153793  0.5807848118146496
  0.2169382497729552  0.6321419163813520  0.4193840238412623
  0.0805707127144527  0.6771392563052600  0.6703593589295820
  0.0803361062103426  0.6783722722411903  0.3297827802731065
  0.1695709038118033  0.8219707166185554  0.6700700479661144
  0.1690353689274851  0.8233320088209570  0.3297456917211232
  0.0330350731514528  0.8677873487027081  0.5807393383315504
  0.0325203275605388  0.8695056822580458  0.4193526461561204
  0.0002210135650618  0.9990937562178429  0.6821932260477428
  0.4996735270146338  0.5008680864530592  0.3180346104104170
  0.4680470368979242  0.6306718391597735  0.5808874273012409
  0.4668350856115190  0.6321186525699845  0.4193892888321020
  0.3310579010396140  0.6762539110358641  0.6691794728132415
  0.3303213882330799  0.6783869294063460  0.3297540254500976
  0.4195620721824477  0.8219181377193836  0.6701009445706712
  0.4190430515647652  0.8233185134590056  0.3297496210457984
  0.2830165497040896  0.8683193965187638  0.5807785386466802
  0.2825101007948703  0.8695457167849899  0.4193294499050464
  0.2502195925554239  0.9989956740891373  0.6822692764079390
  0.7496963068033630  0.5008547864838276  0.3180267858896729
  0.7173722236285848  0.6306015611184125  0.5808221776200374
  0.7168764708864530  0.6321452983313202  0.4193964240684261
  0.5809969295353485  0.6774211639295153  0.6704079512868198
  0.5803259881660034  0.6783472109462463  0.3297942985696712
  0.6697429190624483  0.8216436902260764  0.6702356816481256
  0.6690408064417912  0.8233089340310166  0.3297472070447465
  0.5330815375690486  0.8681299370200096  0.5808601195544079
  0.5325121846153623  0.8695069927324781  0.4193623356276805
  0.5003834262805442  0.9992674817250090  0.6822520389772567
  0.9996779940653797  0.5008728081080105  0.3180344065798607
  0.9674014529581655  0.6306469664147855  0.5807552478903497
  0.9669173941334011  0.6321434383997677  0.4193954156079729
  0.8308609155902574  0.6767871569508990  0.6703151791901216
  0.8303310470556026  0.6783742476353718  0.3297874254223038
  0.9195414427532127  0.8216406457397267  0.6702179476291826
  0.9190361376750096  0.8233168911576485  0.3297576432021297
  0.7830519028747762  0.8679849400618639  0.5807273923968245
  0.7824794828713537  0.8695543542358098  0.4193575250674449
  0.7504697518911844  0.9991246593185269  0.6821346708676093
  0.3721197285546092  0.5112686176340622  0.7753744598032792
 
  0.00000000E+00  0.00000000E+00  0.00000000E+00
  0.00000000E+00  0.00000000E+00  0.00000000E+00
  0.00000000E+00  0.00000000E+00  0.00000000E+00
  0.00000000E+00  0.00000000E+00  0.00000000E+00
  0.00000000E+00  0.00000000E+00  0.00000000E+00
  0.00000000E+00  0.00000000E+00  0.00000000E+00
  0.00000000E+00  0.00000000E+00  0.00000000E+00
  0.00000000E+00  0.00000000E+00  0.00000000E+00
  0.00000000E+00  0.00000000E+00  0.00000000E+00
  0.00000000E+00  0.00000000E+00  0.00000000E+00
  0.00000000E+00  0.00000000E+00  0.00000000E+00
  0.00000000E+00  0.00000000E+00  0.00000000E+00
  0.00000000E+00  0.00000000E+00  0.00000000E+00
  0.00000000E+00  0.00000000E+00  0.00000000E+00
  0.00000000E+00  0.00000000E+00  0.00000000E+00
  0.00000000E+00  0.00000000E+00  0.00000000E+00
  0.00000000E+00  0.00000000E+00  0.00000000E+00
  0.00000000E+00  0.00000000E+00  0.00000000E+00
  0.00000000E+00  0.00000000E+00  0.00000000E+00
  0.00000000E+00  0.00000000E+00  0.00000000E+00
  0.00000000E+00  0.00000000E+00  0.00000000E+00
  0.00000000E+00  0.00000000E+00  0.00000000E+00
  0.00000000E+00  0.00000000E+00  0.00000000E+00
  0.00000000E+00  0.00000000E+00  0.00000000E+00
  0.00000000E+00  0.00000000E+00  0.00000000E+00
  0.00000000E+00  0.00000000E+00  0.00000000E+00
  0.00000000E+00  0.00000000E+00  0.00000000E+00
  0.00000000E+00  0.00000000E+00  0.00000000E+00
  0.00000000E+00  0.00000000E+00  0.00000000E+00
  0.00000000E+00  0.00000000E+00  0.00000000E+00
  0.00000000E+00  0.00000000E+00  0.00000000E+00
  0.00000000E+00  0.00000000E+00  0.00000000E+00
  0.00000000E+00  0.00000000E+00  0.00000000E+00
  0.00000000E+00  0.00000000E+00  0.00000000E+00
  0.00000000E+00  0.00000000E+00  0.00000000E+00
  0.00000000E+00  0.00000000E+00  0.00000000E+00
  0.00000000E+00  0.00000000E+00  0.00000000E+00
  0.00000000E+00  0.00000000E+00  0.00000000E+00
  0.00000000E+00  0.00000000E+00  0.00000000E+00
  0.00000000E+00  0.00000000E+00  0.00000000E+00
  0.00000000E+00  0.00000000E+00  0.00000000E+00
  0.00000000E+00  0.00000000E+00  0.00000000E+00
  0.00000000E+00  0.00000000E+00  0.00000000E+00
  0.00000000E+00  0.00000000E+00  0.00000000E+00
  0.00000000E+00  0.00000000E+00  0.00000000E+00
  0.00000000E+00  0.00000000E+00  0.00000000E+00
  0.00000000E+00  0.00000000E+00  0.00000000E+00
  0.00000000E+00  0.00000000E+00  0.00000000E+00
  0.00000000E+00  0.00000000E+00  0.00000000E+00
  0.00000000E+00  0.00000000E+00  0.00000000E+00
  0.00000000E+00  0.00000000E+00  0.00000000E+00
  0.00000000E+00  0.00000000E+00  0.00000000E+00
  0.00000000E+00  0.00000000E+00  0.00000000E+00
  0.00000000E+00  0.00000000E+00  0.00000000E+00
  0.00000000E+00  0.00000000E+00  0.00000000E+00
  0.00000000E+00  0.00000000E+00  0.00000000E+00
  0.00000000E+00  0.00000000E+00  0.00000000E+00
  0.00000000E+00  0.00000000E+00  0.00000000E+00
  0.00000000E+00  0.00000000E+00  0.00000000E+00
  0.00000000E+00  0.00000000E+00  0.00000000E+00
  0.00000000E+00  0.00000000E+00  0.00000000E+00
  0.00000000E+00  0.00000000E+00  0.00000000E+00
  0.00000000E+00  0.00000000E+00  0.00000000E+00
  0.00000000E+00  0.00000000E+00  0.00000000E+00
  0.00000000E+00  0.00000000E+00  0.00000000E+00
  0.00000000E+00  0.00000000E+00  0.00000000E+00
  0.00000000E+00  0.00000000E+00  0.00000000E+00
  0.00000000E+00  0.00000000E+00  0.00000000E+00
  0.00000000E+00  0.00000000E+00  0.00000000E+00
  0.00000000E+00  0.00000000E+00  0.00000000E+00
  0.00000000E+00  0.00000000E+00  0.00000000E+00
  0.00000000E+00  0.00000000E+00  0.00000000E+00
  0.00000000E+00  0.00000000E+00  0.00000000E+00
  0.00000000E+00  0.00000000E+00  0.00000000E+00
  0.00000000E+00  0.00000000E+00  0.00000000E+00
  0.00000000E+00  0.00000000E+00  0.00000000E+00
  0.00000000E+00  0.00000000E+00  0.00000000E+00
  0.00000000E+00  0.00000000E+00  0.00000000E+00
  0.00000000E+00  0.00000000E+00  0.00000000E+00
  0.00000000E+00  0.00000000E+00  0.00000000E+00
  0.00000000E+00  0.00000000E+00  0.00000000E+00
  0.00000000E+00  0.00000000E+00  0.00000000E+00
  0.00000000E+00  0.00000000E+00  0.00000000E+00
  0.00000000E+00  0.00000000E+00  0.00000000E+00
  0.00000000E+00  0.00000000E+00  0.00000000E+00
  0.00000000E+00  0.00000000E+00  0.00000000E+00
  0.00000000E+00  0.00000000E+00  0.00000000E+00
  0.00000000E+00  0.00000000E+00  0.00000000E+00
  0.00000000E+00  0.00000000E+00  0.00000000E+00
  0.00000000E+00  0.00000000E+00  0.00000000E+00
  0.00000000E+00  0.00000000E+00  0.00000000E+00
  0.00000000E+00  0.00000000E+00  0.00000000E+00
  0.00000000E+00  0.00000000E+00  0.00000000E+00
  0.00000000E+00  0.00000000E+00  0.00000000E+00
  0.00000000E+00  0.00000000E+00  0.00000000E+00
  0.00000000E+00  0.00000000E+00  0.00000000E+00
  0.00000000E+00  0.00000000E+00  0.00000000E+00
  0.00000000E+00  0.00000000E+00  0.00000000E+00
  0.00000000E+00  0.00000000E+00  0.00000000E+00
  0.00000000E+00  0.00000000E+00  0.00000000E+00
  0.00000000E+00  0.00000000E+00  0.00000000E+00
  0.00000000E+00  0.00000000E+00  0.00000000E+00
  0.00000000E+00  0.00000000E+00  0.00000000E+00
  0.00000000E+00  0.00000000E+00  0.00000000E+00
  0.00000000E+00  0.00000000E+00  0.00000000E+00
  0.00000000E+00  0.00000000E+00  0.00000000E+00
  0.00000000E+00  0.00000000E+00  0.00000000E+00
  0.00000000E+00  0.00000000E+00  0.00000000E+00
  0.00000000E+00  0.00000000E+00  0.00000000E+00
  0.00000000E+00  0.00000000E+00  0.00000000E+00
  0.00000000E+00  0.00000000E+00  0.00000000E+00
  0.00000000E+00  0.00000000E+00  0.00000000E+00
  0.00000000E+00  0.00000000E+00  0.00000000E+00
  0.00000000E+00  0.00000000E+00  0.00000000E+00
  0.00000000E+00  0.00000000E+00  0.00000000E+00
  0.00000000E+00  0.00000000E+00  0.00000000E+00
  0.00000000E+00  0.00000000E+00  0.00000000E+00
  0.00000000E+00  0.00000000E+00  0.00000000E+00
  0.00000000E+00  0.00000000E+00  0.00000000E+00
  0.00000000E+00  0.00000000E+00  0.00000000E+00
  0.00000000E+00  0.00000000E+00  0.00000000E+00
