CONTCAR\(10)                            
   1.00000000000000     
     9.7571001052999993    0.0000000000000000    0.0000000000000000
    -3.0063686365000000   15.8319856181999992    0.0000000000000000
     0.0000000000000000    0.0000000000000000   18.2793006897000012
   V    P    S    O 
     4     8    26     1
Direct
  0.6160703080504365  0.6058869145599008  0.4966295658535282
  0.6173363079392199  0.1077965514835778  0.5063354731129281
  0.3731109421235556  0.3996697839027710  0.5012037280393502
  0.3849249633419107  0.8986009297707070  0.4986243530755296
  0.8301722336577196  0.2646829495209689  0.4965760142097981
  0.7035567202239416  0.4394376839033007  0.5345835471068271
  0.1717823023824229  0.7421962220439410  0.5041900825730722
  0.1698924107476953  0.2401626906049827  0.4962526129775117
  0.3058242809539249  0.0683532152880062  0.5414088199583388
  0.6965670604059859  0.9379713836543951  0.4636509372466228
  0.3061231642840447  0.5699870906185268  0.4612292533722223
  0.8286695927549748  0.7629793585144942  0.5039340141883947
  0.1131131581671864  0.1110960314395922  0.5305631293039463
  0.8876230862631149  0.8934930462405483  0.4738221530639789
 -0.0000126112454212  0.7521104119622567  0.5741818463250881
  0.3938163766997512  0.0434212577178667  0.4425930733957347
  0.5353344038826905  0.3539190907931918  0.5900262974820010
  0.2457001597998407  0.4581939760290051  0.4091455945296413
  0.1940793886312613  0.3239225868529876  0.5795505162502118
  0.6611046166116057  0.7349146719092471  0.5695047851907603
  0.4594095940674755  0.6507037322024238  0.4101888204938446
  0.6041624650799786  0.4594485851912548  0.4380532336597308
  0.6593817360720561  0.2368655704687203  0.4331309321641993
  0.8950377515032878  0.3962906280539796  0.5218846594326928
 -0.0010211089110335  0.2497269894742899  0.4259037935880217
  0.6086229173912550  0.9628312429666511  0.5625447039204338
  0.8033877314900228  0.6825664622123224  0.4190938300291928
  0.3910431385696591  0.5415996077934674  0.5600966329970113
  0.1983457273618112  0.8232588071797620  0.4199795642782725
  0.7580007923780387  0.5491918732913690  0.5874056731177384
  0.5427535649188845  0.8588600006503224  0.4107373643288529
  0.2423788081925904  0.9549248196385326  0.5889826408198412
  0.3385584573042235  0.7693205472601112  0.5706401183511783
  0.8045916048796133  0.1872039103984745  0.5832763939348197
  0.7609697419494649  0.0516536744305260  0.4165278216790645
  0.4591757252847475  0.1481062069371242  0.5941372177009270
  0.1130812473771890  0.6123778632422442  0.4723526871277015
  0.3375552197443010  0.2671143968483450  0.4312896793811926
  0.5293158426705867  0.3795393469497935  0.6688185947397940
 
  0.00000000E+00  0.00000000E+00  0.00000000E+00
  0.00000000E+00  0.00000000E+00  0.00000000E+00
  0.00000000E+00  0.00000000E+00  0.00000000E+00
  0.00000000E+00  0.00000000E+00  0.00000000E+00
  0.00000000E+00  0.00000000E+00  0.00000000E+00
  0.00000000E+00  0.00000000E+00  0.00000000E+00
  0.00000000E+00  0.00000000E+00  0.00000000E+00
  0.00000000E+00  0.00000000E+00  0.00000000E+00
  0.00000000E+00  0.00000000E+00  0.00000000E+00
  0.00000000E+00  0.00000000E+00  0.00000000E+00
  0.00000000E+00  0.00000000E+00  0.00000000E+00
  0.00000000E+00  0.00000000E+00  0.00000000E+00
  0.00000000E+00  0.00000000E+00  0.00000000E+00
  0.00000000E+00  0.00000000E+00  0.00000000E+00
  0.00000000E+00  0.00000000E+00  0.00000000E+00
  0.00000000E+00  0.00000000E+00  0.00000000E+00
  0.00000000E+00  0.00000000E+00  0.00000000E+00
  0.00000000E+00  0.00000000E+00  0.00000000E+00
  0.00000000E+00  0.00000000E+00  0.00000000E+00
  0.00000000E+00  0.00000000E+00  0.00000000E+00
  0.00000000E+00  0.00000000E+00  0.00000000E+00
  0.00000000E+00  0.00000000E+00  0.00000000E+00
  0.00000000E+00  0.00000000E+00  0.00000000E+00
  0.00000000E+00  0.00000000E+00  0.00000000E+00
  0.00000000E+00  0.00000000E+00  0.00000000E+00
  0.00000000E+00  0.00000000E+00  0.00000000E+00
  0.00000000E+00  0.00000000E+00  0.00000000E+00
  0.00000000E+00  0.00000000E+00  0.00000000E+00
  0.00000000E+00  0.00000000E+00  0.00000000E+00
  0.00000000E+00  0.00000000E+00  0.00000000E+00
  0.00000000E+00  0.00000000E+00  0.00000000E+00
  0.00000000E+00  0.00000000E+00  0.00000000E+00
  0.00000000E+00  0.00000000E+00  0.00000000E+00
  0.00000000E+00  0.00000000E+00  0.00000000E+00
  0.00000000E+00  0.00000000E+00  0.00000000E+00
  0.00000000E+00  0.00000000E+00  0.00000000E+00
  0.00000000E+00  0.00000000E+00  0.00000000E+00
  0.00000000E+00  0.00000000E+00  0.00000000E+00
  0.00000000E+00  0.00000000E+00  0.00000000E+00
