CONTCAR\(8)                             
   1.00000000000000     
    14.6440000533999992    0.0000000000000000    0.0000000000000000
     0.0000000000000000   14.6358003615999994    0.0000000000000000
     0.0000000000000000    0.0000000000000000   19.3710002898999996
   Pd   Se   O 
    18    18    55
Direct
  0.0023805252573084  0.1656088446592818  0.5007804255457557
  0.1697494051664066  0.9994517554466782  0.5003060480260189
  0.3357174483907528  0.1659941400185545  0.4992829751560350
  0.5029414053970314  0.0004426173598802  0.4997701059316313
  0.6690853626018196  0.1662007584502518  0.4996562885777891
  0.8362332343154151  0.9995524018131334  0.5006945939003558
  0.0052312433853672  0.4996900503157491  0.5021427684034165
  0.1702110998704285  0.3322637144846468  0.5006638573296485
  0.3392089265999942  0.5006453799405435  0.4996237046531036
  0.5038971225789552  0.3339261025945461  0.4988837625436062
  0.6726813006795709  0.5010889936325000  0.5001161369091633
  0.8375509700550623  0.3329671196471509  0.5008028248640315
  0.0032387662741442  0.8330552296275471  0.5008856896268057
  0.1703359404348816  0.6668487887175445  0.5009615902562814
  0.3368045286149979  0.8334581525518061  0.5003539649201585
  0.5049332398764932  0.6673493800035928  0.5000980751320654
  0.6701401061352925  0.8333644922252006  0.5007823470986494
  0.8382262710210142  0.6663913789495197  0.5014795649650665
  0.1687453312531062  0.1648476194537665  0.6160710302486407
  0.1686305853357553  0.1674191022061464  0.3848610907309862
  0.5016084876548845  0.1669212622933287  0.6148826357208250
  0.5034823927455605  0.1674011540875000  0.3837452520627949
  0.8340753409864945  0.1655750820149393  0.6162267060462270
  0.8367299547275522  0.1670528879222815  0.3850580753237267
  0.1715542674326400  0.4971846299399090  0.6131906062478549
  0.1716582168881331  0.5007018429720276  0.3855066228093378
  0.5052822528559417  0.4991881925805757  0.6149806025431559
  0.5072072604170543  0.5021604513864304  0.3837846787854531
  0.8372604830061050  0.4986225656959817  0.6169415512958167
  0.8414123293943447  0.5006339331123115  0.3856567282086019
  0.1691630918895797  0.8327803247113863  0.6161976445554274
  0.1705766500522401  0.8330844033860529  0.3849951119880117
  0.5027173988310594  0.8333228174648326  0.6158088574146703
  0.5045420557290754  0.8338866265894183  0.3847388198821093
  0.8357251526414942  0.8329013956768563  0.6166288460336276
  0.8372487615278672  0.8329511527873734  0.3854914031458421
  0.1456861619935239  0.2784841440303154  0.4065000072589555
  0.2797794440804324  0.1445534130428641  0.4046104357778120
  0.1122914758076874  0.1092732954072488  0.4561389443166775
  0.1915790274031579  0.0539985919298047  0.5952701888675520
  0.2250050517739552  0.2208552213593222  0.5434400727173170
  0.0579127271434459  0.1879323987355690  0.5953666145280891
  0.4804770710189459  0.2783227800104555  0.4045216936477232
  0.6143026004232865  0.1443990845767757  0.4047606835952138
  0.4455297358727179  0.1096390152068452  0.4547048706435319
  0.5248762519508361  0.0559284803892126  0.5945153106834553
  0.5581537676374921  0.2225162522408937  0.5424249114034012
  0.3907275064878917  0.1892409120798746  0.5937918185936226
  0.8140652643158361  0.2779952826868950  0.4061766426959537
  0.9475557511973065  0.1439064669279375  0.4058455924092996
  0.7796840519299550  0.1096684717665610  0.4564224680021809
  0.8574069174038925  0.0546996018319845  0.5955835835175520
  0.8923722320424901  0.2222338480285941  0.5449758289130813
  0.7235183863856420  0.1886665790644955  0.5945496042491456
  0.1490161998555166  0.6117336515758325  0.4058561447859077
  0.2829034662887437  0.4781755199648074  0.4051326923235266
  0.1191810609781001  0.4475610666458181  0.4608345683587061
  0.1963150745099043  0.3859709984817599  0.5960825092391673
  0.2314028813215288  0.5593438242515987  0.5471772171515497
  0.0598542350914144  0.5214297326442079  0.5979818294358878
  0.4841510048832092  0.6128588902988454  0.4048569818681145
  0.6176938422492881  0.4787436071777975  0.4053797705077997
  0.4485354892210509  0.4445563323067461  0.4546311285857172
  0.5283163062121830  0.3885014844702539  0.5933493435133599
  0.5625099673749858  0.5573222766367749  0.5436701700595279
  0.3951273263777324  0.5226868077638898  0.5934622161852374
  0.8187136845404552  0.6116035446086485  0.4061555510850923
  0.9520269689890029  0.4769589407120591  0.4075716893867067
  0.7835933442996961  0.4445650321415400  0.4570108731779499
  0.8604983376258915  0.3880142437073388  0.5954302475409818
  0.8957707578221559  0.5570849412302579  0.5463174309500189
  0.7268623825105820  0.5220795466599739  0.5953018475969145
  0.1474581284810341  0.9439738327488172  0.4057146702878285
  0.2814197347647109  0.8103590923530390  0.4057874619008572
  0.1132003950450127  0.7760308880321176  0.4567954966602557
  0.1920290675055796  0.7223351572405861  0.5949324564210414
  0.2264637103511333  0.8896775905877092  0.5443089277193849
  0.0583606722790861  0.8561206079635753  0.5953049428037502
  0.4811066539354485  0.9448050575421476  0.4051377118271233
  0.6154749458062554  0.8114938021192586  0.4058315588832215
  0.4471862547874110  0.7770427331635403  0.4563185679338559
  0.5259531876694297  0.7224436394605362  0.5949278352938947
  0.5598794838896453  0.8906163180174644  0.5441987329108855
  0.3918939462622930  0.8562529565350587  0.5948684736475442
  0.8143511642503896  0.9439816867008091  0.4060458917396019
  0.9482678283183787  0.8103566933482824  0.4061025915492706
  0.7805252902897095  0.7760548102369853  0.4573702051481021
  0.8586247531957483  0.7218627413387821  0.5961989916610619
  0.8930815311370353  0.8897226531080236  0.5449576917700796
  0.7249031093384488  0.8556431404348359  0.5955788304338796
  0.2021374756495220  0.5261075717554178  0.6903565249529464
 
  0.00000000E+00  0.00000000E+00  0.00000000E+00
  0.00000000E+00  0.00000000E+00  0.00000000E+00
  0.00000000E+00  0.00000000E+00  0.00000000E+00
  0.00000000E+00  0.00000000E+00  0.00000000E+00
  0.00000000E+00  0.00000000E+00  0.00000000E+00
  0.00000000E+00  0.00000000E+00  0.00000000E+00
  0.00000000E+00  0.00000000E+00  0.00000000E+00
  0.00000000E+00  0.00000000E+00  0.00000000E+00
  0.00000000E+00  0.00000000E+00  0.00000000E+00
  0.00000000E+00  0.00000000E+00  0.00000000E+00
  0.00000000E+00  0.00000000E+00  0.00000000E+00
  0.00000000E+00  0.00000000E+00  0.00000000E+00
  0.00000000E+00  0.00000000E+00  0.00000000E+00
  0.00000000E+00  0.00000000E+00  0.00000000E+00
  0.00000000E+00  0.00000000E+00  0.00000000E+00
  0.00000000E+00  0.00000000E+00  0.00000000E+00
  0.00000000E+00  0.00000000E+00  0.00000000E+00
  0.00000000E+00  0.00000000E+00  0.00000000E+00
  0.00000000E+00  0.00000000E+00  0.00000000E+00
  0.00000000E+00  0.00000000E+00  0.00000000E+00
  0.00000000E+00  0.00000000E+00  0.00000000E+00
  0.00000000E+00  0.00000000E+00  0.00000000E+00
  0.00000000E+00  0.00000000E+00  0.00000000E+00
  0.00000000E+00  0.00000000E+00  0.00000000E+00
  0.00000000E+00  0.00000000E+00  0.00000000E+00
  0.00000000E+00  0.00000000E+00  0.00000000E+00
  0.00000000E+00  0.00000000E+00  0.00000000E+00
  0.00000000E+00  0.00000000E+00  0.00000000E+00
  0.00000000E+00  0.00000000E+00  0.00000000E+00
  0.00000000E+00  0.00000000E+00  0.00000000E+00
  0.00000000E+00  0.00000000E+00  0.00000000E+00
  0.00000000E+00  0.00000000E+00  0.00000000E+00
  0.00000000E+00  0.00000000E+00  0.00000000E+00
  0.00000000E+00  0.00000000E+00  0.00000000E+00
  0.00000000E+00  0.00000000E+00  0.00000000E+00
  0.00000000E+00  0.00000000E+00  0.00000000E+00
  0.00000000E+00  0.00000000E+00  0.00000000E+00
  0.00000000E+00  0.00000000E+00  0.00000000E+00
  0.00000000E+00  0.00000000E+00  0.00000000E+00
  0.00000000E+00  0.00000000E+00  0.00000000E+00
  0.00000000E+00  0.00000000E+00  0.00000000E+00
  0.00000000E+00  0.00000000E+00  0.00000000E+00
  0.00000000E+00  0.00000000E+00  0.00000000E+00
  0.00000000E+00  0.00000000E+00  0.00000000E+00
  0.00000000E+00  0.00000000E+00  0.00000000E+00
  0.00000000E+00  0.00000000E+00  0.00000000E+00
  0.00000000E+00  0.00000000E+00  0.00000000E+00
  0.00000000E+00  0.00000000E+00  0.00000000E+00
  0.00000000E+00  0.00000000E+00  0.00000000E+00
  0.00000000E+00  0.00000000E+00  0.00000000E+00
  0.00000000E+00  0.00000000E+00  0.00000000E+00
  0.00000000E+00  0.00000000E+00  0.00000000E+00
  0.00000000E+00  0.00000000E+00  0.00000000E+00
  0.00000000E+00  0.00000000E+00  0.00000000E+00
  0.00000000E+00  0.00000000E+00  0.00000000E+00
  0.00000000E+00  0.00000000E+00  0.00000000E+00
  0.00000000E+00  0.00000000E+00  0.00000000E+00
  0.00000000E+00  0.00000000E+00  0.00000000E+00
  0.00000000E+00  0.00000000E+00  0.00000000E+00
  0.00000000E+00  0.00000000E+00  0.00000000E+00
  0.00000000E+00  0.00000000E+00  0.00000000E+00
  0.00000000E+00  0.00000000E+00  0.00000000E+00
  0.00000000E+00  0.00000000E+00  0.00000000E+00
  0.00000000E+00  0.00000000E+00  0.00000000E+00
  0.00000000E+00  0.00000000E+00  0.00000000E+00
  0.00000000E+00  0.00000000E+00  0.00000000E+00
  0.00000000E+00  0.00000000E+00  0.00000000E+00
  0.00000000E+00  0.00000000E+00  0.00000000E+00
  0.00000000E+00  0.00000000E+00  0.00000000E+00
  0.00000000E+00  0.00000000E+00  0.00000000E+00
  0.00000000E+00  0.00000000E+00  0.00000000E+00
  0.00000000E+00  0.00000000E+00  0.00000000E+00
  0.00000000E+00  0.00000000E+00  0.00000000E+00
  0.00000000E+00  0.00000000E+00  0.00000000E+00
  0.00000000E+00  0.00000000E+00  0.00000000E+00
  0.00000000E+00  0.00000000E+00  0.00000000E+00
  0.00000000E+00  0.00000000E+00  0.00000000E+00
  0.00000000E+00  0.00000000E+00  0.00000000E+00
  0.00000000E+00  0.00000000E+00  0.00000000E+00
  0.00000000E+00  0.00000000E+00  0.00000000E+00
  0.00000000E+00  0.00000000E+00  0.00000000E+00
  0.00000000E+00  0.00000000E+00  0.00000000E+00
  0.00000000E+00  0.00000000E+00  0.00000000E+00
  0.00000000E+00  0.00000000E+00  0.00000000E+00
  0.00000000E+00  0.00000000E+00  0.00000000E+00
  0.00000000E+00  0.00000000E+00  0.00000000E+00
  0.00000000E+00  0.00000000E+00  0.00000000E+00
  0.00000000E+00  0.00000000E+00  0.00000000E+00
  0.00000000E+00  0.00000000E+00  0.00000000E+00
  0.00000000E+00  0.00000000E+00  0.00000000E+00
  0.00000000E+00  0.00000000E+00  0.00000000E+00
