CONTCAR\(5)                             
   1.00000000000000     
    12.6589002608999994    0.0000000000000000    0.0000000000000000
    -6.3294555933999996   10.9637343354999999    0.0000000000000000
     0.0000000000000000    0.0000000000000000   35.9861984253000031
   Bi   Se   O    H 
    54    54     2     1
Direct
  0.2214031802971264  0.1100655315665904  0.5256190641869354
  0.1104767982366687  0.2203777724613662  0.4747706942947209
  0.2222594822485932  0.1111607236701304  0.3593300114272622
  0.1115722784729727  0.2226386786809941  0.6388831559799028
  0.0004956907320551  0.0006770230533186  0.2533979448294429
 -0.0007919879534488  0.3346395527450708  0.7453668093108781
  0.5554287040511749  0.1113168273906720  0.5253596738779508
  0.4429492779302930  0.2210762654593468  0.4749715697697359
  0.5557098403619390  0.1118027018436288  0.3592853980900255
  0.4460503645850623  0.2259033425846949  0.6402061988295870
  0.3338966791755488  0.0001725560897065  0.2535037197404817
  0.3328582869222541  0.3356629264735013  0.7448558021694360
  0.8878159406922503  0.1114509781284836  0.5248353033092800
  0.7763891459559105  0.2221157272206312  0.4742595945168969
  0.8891515478069387  0.1113281787575994  0.3593418501191847
  0.7761449646806415  0.2235967151469911  0.6389067873651232
  0.6663063218506653  0.0001813188604928  0.2534906307576125
  0.6660137768406464  0.3338880659079644  0.7448629666316857
  0.2219541169781722  0.4437783168866077  0.5248210495192406
  0.1115966187844261  0.5559925478221027  0.4745733256490601
  0.2224804511087037  0.4448493018347482  0.3595755262542118
  0.1103595796828843  0.5576648025730799  0.6389213992690796
  0.0000398218720965  0.3339073536314761  0.2535420799205125
  0.9993599198004540  0.6678754335530339  0.7446642918051501
  0.5555006289346677  0.4444563611683509  0.5248050316535268
  0.4442192253121919  0.5556133059114228  0.4745265106928221
  0.5556102608668804  0.4447081833861469  0.3591581212153105
  0.4460972529004816  0.5576905661959002  0.6412669290802049
  0.3342462201987255  0.3342862593220942  0.2535384932713057
  0.3324649972511335  0.6660786484792167  0.7448955694603849
  0.8885606217628366  0.4443962633927711  0.5245935783971661
  0.7771656034878657  0.5550944079689419  0.4742807497444394
  0.8888365901035759  0.4445365611868887  0.3593484866532163
  0.7762231046791938  0.5589146401551982  0.6413744139421290
  0.6667940306971727  0.3335402104735643  0.2534224088295214
  0.6663038876731868  0.6717615729356494  0.7742329318570383
  0.2224892381088165  0.7770206680832030  0.5256579803307552
  0.1121588323498155  0.8884812055404089  0.4750167117306431
  0.2225774540723267  0.7781090879371348  0.3593872862248083
  0.1087824796260497  0.8894081738086399  0.6402133850814145
  0.0002093354726345  0.6663527888616759  0.2535350680110763
 -0.0005213442109944  0.0029609787306529  0.7446906803745879
  0.5559619541813566  0.7775386290065984  0.5249924770124337
  0.4441537448092117  0.8889166771644901  0.4750695366106752
  0.5554546900319305  0.7782652324930296  0.3594813994999698
  0.4450874756127460  0.8881193636782788  0.6402897838821088
  0.3333653762538845  0.6666735637487760  0.2533875381436488
  0.3329545209394763  0.0006824429861416  0.7452380593487226
  0.8886371430061196  0.7769935576943152  0.5248579350310412
  0.7784200392165725  0.8891790325658027  0.4746726371480514
  0.8889960537297056  0.7779373335107242  0.3593713718812432
  0.7759741436049600  0.8875718190659098  0.6413043961235655
  0.6676170786040468  0.6675513426729891  0.2536030354078725
  0.6676099776083951  0.0016643953591625  0.7449756117319152
  0.0001704672795491  0.0000442478243257  0.4028770002750072
  0.3341621974144939  0.3360385743812766  0.5961120492375620
  0.2221607497103008  0.1117180572879673  0.6906512745231234
  0.1114479881662247  0.2226861052939255  0.3073029092581456
  0.2227722674328139  0.1119038452464537  0.2111598459821969
  0.1118183061623263  0.2228275620133343  0.7869577612951490
  0.3340320637736824  0.0004159527654691  0.4028994182767893
  0.6675686085499880  0.3370700961766392  0.5960452865838788
  0.5547604171763812  0.1118155620526182  0.6909328795344195
  0.4445410765521433  0.2223451203093642  0.3070969950109144
  0.5556141037173398  0.1112328561278442  0.2109711009458296
  0.4440335799218137  0.2232448389057817  0.7874544779316492
  0.6665309690952353  0.0006409820834915  0.4028819581438723
 -0.0003629261802404  0.3344649877076392  0.5956498387953361
  0.8892147730779828  0.1139955552676195  0.6911695369520147
  0.7778087241907629  0.2224115060381053  0.3071201933184909
  0.8890770605854151  0.1114616754051203  0.2111770512049783
  0.7753297037230772  0.2224966453571263  0.7870651595076359
  0.0000390296631224  0.3339421834365126  0.4029335836927118
  0.3334461712964508  0.6664633782097809  0.5961832755093890
  0.2200462078355923  0.4442638863731883  0.6912702623204230
  0.1114864555346286  0.5559480157067356  0.3072562224390231
  0.2222067019004617  0.4442955664721022  0.2111140955751898
  0.1109349214964835  0.5583742023019156  0.7868926283374293
  0.3341403224273892  0.3340225540805111  0.4028547316451037
  0.6658992515483328  0.6676918907384780  0.5965280060813274
  0.5558201547264116  0.4466047032002994  0.6916885778214217
  0.4447964970192960  0.5565278129707589  0.3072351295667066
  0.5563912335663938  0.4455671011701097  0.2111445893676340
  0.4100581595236519  0.5393860222871462  0.7919659894136188
  0.6664344412655182  0.3336812631495146  0.4028036288457904
 -0.0023519514955109  0.6667846377178117  0.5960784598551948
  0.8890938524059918  0.4450706550162368  0.6913088895207488
  0.7778954346669429  0.5555686760726771  0.3070968644755377
  0.8892114513002412  0.4446480009288535  0.2110534824460340
  0.7919392415602445  0.5404480171248994  0.7913978050997759
  0.0001667398026698  0.6663125239517615  0.4028492692030019
  0.3336556435898593  0.0007350622891896  0.5964760340102375
  0.2213674113364434  0.7791198819716432  0.6908923653384638
  0.1112921438880937  0.8890215079549785  0.3072893341645989
  0.2221161334796790  0.7779910141959508  0.2111020899408956
  0.1101397119100616  0.8899934962548218  0.7873691795085699
  0.3335465575913609  0.6672173998081889  0.4029469264225733
  0.6668594595939216  0.0002576665022829  0.5963076230329849
  0.5560028672870766  0.7776221830704330  0.6919533560456319
  0.4445009698842419  0.8891297820476366  0.3071666897151269
  0.5559513221938653  0.7780759049058947  0.2111555450164713
  0.4442875098540064  0.8892010017609081  0.7874408950979798
  0.6661170793991484  0.6662688131162351  0.4027914363033041
  0.9974271136265206  0.0000014210373666  0.5960139572672749
  0.8872987313730515  0.7785881383143995  0.6917529669059131
  0.7779981060601528  0.8893825649365876  0.3073143176306345
  0.8896445979846908  0.7784535703567408  0.2111518719909468
  0.7960315392891827  0.9267006425945816  0.7923477117632526
  0.6782349312997152  0.6965934137400741  0.8341691546925973
  0.6129694423981412  0.5779629534582414  0.8529624465167870
  0.6818644665681169  0.5697241127041510  0.8617926196476515
 
  0.00000000E+00  0.00000000E+00  0.00000000E+00
  0.00000000E+00  0.00000000E+00  0.00000000E+00
  0.00000000E+00  0.00000000E+00  0.00000000E+00
  0.00000000E+00  0.00000000E+00  0.00000000E+00
  0.00000000E+00  0.00000000E+00  0.00000000E+00
  0.00000000E+00  0.00000000E+00  0.00000000E+00
  0.00000000E+00  0.00000000E+00  0.00000000E+00
  0.00000000E+00  0.00000000E+00  0.00000000E+00
  0.00000000E+00  0.00000000E+00  0.00000000E+00
  0.00000000E+00  0.00000000E+00  0.00000000E+00
  0.00000000E+00  0.00000000E+00  0.00000000E+00
  0.00000000E+00  0.00000000E+00  0.00000000E+00
  0.00000000E+00  0.00000000E+00  0.00000000E+00
  0.00000000E+00  0.00000000E+00  0.00000000E+00
  0.00000000E+00  0.00000000E+00  0.00000000E+00
  0.00000000E+00  0.00000000E+00  0.00000000E+00
  0.00000000E+00  0.00000000E+00  0.00000000E+00
  0.00000000E+00  0.00000000E+00  0.00000000E+00
  0.00000000E+00  0.00000000E+00  0.00000000E+00
  0.00000000E+00  0.00000000E+00  0.00000000E+00
  0.00000000E+00  0.00000000E+00  0.00000000E+00
  0.00000000E+00  0.00000000E+00  0.00000000E+00
  0.00000000E+00  0.00000000E+00  0.00000000E+00
  0.00000000E+00  0.00000000E+00  0.00000000E+00
  0.00000000E+00  0.00000000E+00  0.00000000E+00
  0.00000000E+00  0.00000000E+00  0.00000000E+00
  0.00000000E+00  0.00000000E+00  0.00000000E+00
  0.00000000E+00  0.00000000E+00  0.00000000E+00
  0.00000000E+00  0.00000000E+00  0.00000000E+00
  0.00000000E+00  0.00000000E+00  0.00000000E+00
  0.00000000E+00  0.00000000E+00  0.00000000E+00
  0.00000000E+00  0.00000000E+00  0.00000000E+00
  0.00000000E+00  0.00000000E+00  0.00000000E+00
  0.00000000E+00  0.00000000E+00  0.00000000E+00
  0.00000000E+00  0.00000000E+00  0.00000000E+00
  0.00000000E+00  0.00000000E+00  0.00000000E+00
  0.00000000E+00  0.00000000E+00  0.00000000E+00
  0.00000000E+00  0.00000000E+00  0.00000000E+00
  0.00000000E+00  0.00000000E+00  0.00000000E+00
  0.00000000E+00  0.00000000E+00  0.00000000E+00
  0.00000000E+00  0.00000000E+00  0.00000000E+00
  0.00000000E+00  0.00000000E+00  0.00000000E+00
  0.00000000E+00  0.00000000E+00  0.00000000E+00
  0.00000000E+00  0.00000000E+00  0.00000000E+00
  0.00000000E+00  0.00000000E+00  0.00000000E+00
  0.00000000E+00  0.00000000E+00  0.00000000E+00
  0.00000000E+00  0.00000000E+00  0.00000000E+00
  0.00000000E+00  0.00000000E+00  0.00000000E+00
  0.00000000E+00  0.00000000E+00  0.00000000E+00
  0.00000000E+00  0.00000000E+00  0.00000000E+00
  0.00000000E+00  0.00000000E+00  0.00000000E+00
  0.00000000E+00  0.00000000E+00  0.00000000E+00
  0.00000000E+00  0.00000000E+00  0.00000000E+00
  0.00000000E+00  0.00000000E+00  0.00000000E+00
  0.00000000E+00  0.00000000E+00  0.00000000E+00
  0.00000000E+00  0.00000000E+00  0.00000000E+00
  0.00000000E+00  0.00000000E+00  0.00000000E+00
  0.00000000E+00  0.00000000E+00  0.00000000E+00
  0.00000000E+00  0.00000000E+00  0.00000000E+00
  0.00000000E+00  0.00000000E+00  0.00000000E+00
  0.00000000E+00  0.00000000E+00  0.00000000E+00
  0.00000000E+00  0.00000000E+00  0.00000000E+00
  0.00000000E+00  0.00000000E+00  0.00000000E+00
  0.00000000E+00  0.00000000E+00  0.00000000E+00
  0.00000000E+00  0.00000000E+00  0.00000000E+00
  0.00000000E+00  0.00000000E+00  0.00000000E+00
  0.00000000E+00  0.00000000E+00  0.00000000E+00
  0.00000000E+00  0.00000000E+00  0.00000000E+00
  0.00000000E+00  0.00000000E+00  0.00000000E+00
  0.00000000E+00  0.00000000E+00  0.00000000E+00
  0.00000000E+00  0.00000000E+00  0.00000000E+00
  0.00000000E+00  0.00000000E+00  0.00000000E+00
  0.00000000E+00  0.00000000E+00  0.00000000E+00
  0.00000000E+00  0.00000000E+00  0.00000000E+00
  0.00000000E+00  0.00000000E+00  0.00000000E+00
  0.00000000E+00  0.00000000E+00  0.00000000E+00
  0.00000000E+00  0.00000000E+00  0.00000000E+00
  0.00000000E+00  0.00000000E+00  0.00000000E+00
  0.00000000E+00  0.00000000E+00  0.00000000E+00
  0.00000000E+00  0.00000000E+00  0.00000000E+00
  0.00000000E+00  0.00000000E+00  0.00000000E+00
  0.00000000E+00  0.00000000E+00  0.00000000E+00
  0.00000000E+00  0.00000000E+00  0.00000000E+00
  0.00000000E+00  0.00000000E+00  0.00000000E+00
  0.00000000E+00  0.00000000E+00  0.00000000E+00
  0.00000000E+00  0.00000000E+00  0.00000000E+00
  0.00000000E+00  0.00000000E+00  0.00000000E+00
  0.00000000E+00  0.00000000E+00  0.00000000E+00
  0.00000000E+00  0.00000000E+00  0.00000000E+00
  0.00000000E+00  0.00000000E+00  0.00000000E+00
  0.00000000E+00  0.00000000E+00  0.00000000E+00
  0.00000000E+00  0.00000000E+00  0.00000000E+00
  0.00000000E+00  0.00000000E+00  0.00000000E+00
  0.00000000E+00  0.00000000E+00  0.00000000E+00
  0.00000000E+00  0.00000000E+00  0.00000000E+00
  0.00000000E+00  0.00000000E+00  0.00000000E+00
  0.00000000E+00  0.00000000E+00  0.00000000E+00
  0.00000000E+00  0.00000000E+00  0.00000000E+00
  0.00000000E+00  0.00000000E+00  0.00000000E+00
  0.00000000E+00  0.00000000E+00  0.00000000E+00
  0.00000000E+00  0.00000000E+00  0.00000000E+00
  0.00000000E+00  0.00000000E+00  0.00000000E+00
  0.00000000E+00  0.00000000E+00  0.00000000E+00
  0.00000000E+00  0.00000000E+00  0.00000000E+00
  0.00000000E+00  0.00000000E+00  0.00000000E+00
  0.00000000E+00  0.00000000E+00  0.00000000E+00
  0.00000000E+00  0.00000000E+00  0.00000000E+00
  0.00000000E+00  0.00000000E+00  0.00000000E+00
  0.00000000E+00  0.00000000E+00  0.00000000E+00
  0.00000000E+00  0.00000000E+00  0.00000000E+00
  0.00000000E+00  0.00000000E+00  0.00000000E+00
