CONTCAR\(2)                             
   1.00000000000000     
    12.0173997879000005    0.0000000000000000    0.0000000000000000
    -6.0086827942000003   10.4083072789000006    0.0000000000000000
     0.0000000000000000    0.0000000000000000   21.9916992186999991
   C    Ti   O    H 
    32    48    32     1
Direct
  0.1666785295422106  0.0834309079305577  0.5571911132910993
  0.0835439009259641  0.1671122447555330  0.4429056586665898
  0.4166653318870472  0.0834235502433642  0.5571948097814821
  0.3336355465781195  0.1672802784834775  0.4429451504272263
  0.6665259954568112  0.0834824921221047  0.5574069566510836
  0.5835303197010443  0.1670989814766408  0.4429070670830902
  0.9168309381860551  0.0834542887660772  0.5574031628224345
  0.8334434843035565  0.1669551992744350  0.4429396775605204
  0.1667626299185406  0.3335861108813974  0.5573405216552468
  0.0835496951976267  0.4168920116025375  0.4429044541110134
  0.4171695202548270  0.3344350090593944  0.5574861576299825
  0.3333922143172753  0.4169137199208381  0.4425060124131451
  0.6667019404611593  0.3336510359638257  0.5573468748346034
  0.5835136953002475  0.4169054828005525  0.4425142876404666
  0.9168345437925014  0.3338173170855302  0.5574055375737869
  0.8333166701289543  0.4168932938956887  0.4428980782436586
  0.1666782486201087  0.5836901715313394  0.5571841221375600
  0.0834993051790228  0.6670611347360466  0.4427832006389333
  0.4171547827948787  0.5831666944154725  0.5574636011083740
  0.3336451132520210  0.6667996471605787  0.4429392343316267
  0.6659216008467297  0.5831680048964231  0.5574886718507079
  0.5835119777812968  0.6670360782860627  0.4425066395488401
  0.9169203892904066  0.5836607001693318  0.5571732624821996
  0.8331293130424339  0.6667897023402614  0.4429240426491449
  0.1667428853692593  0.8335931359879810  0.5573106375832598
  0.0834944678873565  0.9168959702641348  0.4427901922153257
  0.4166651545614760  0.8336853860838443  0.5571817325694448
  0.3333410571999793  0.9168982426725435  0.4427893601431490
  0.6667052840456087  0.8334992292973352  0.5573338586240163
  0.5835477587413750  0.9168964253630031  0.4429014122044116
  0.9169046953848300  0.8336871158225871  0.5571725494845076
  0.8333189916122197  0.9168925714884525  0.4428960278784300
  0.0001822788756821  0.0002041021819836  0.5001643455696924
  0.0827846121089848  0.1659750314854677  0.6170241253806131
  0.1666614791284686  0.0834061462347962  0.3830608382656333
  0.2501320513369708  0.0003389677443125  0.5001504874092054
  0.3336410698593344  0.1674636705816169  0.6166958792916439
  0.4167519163473981  0.0833919191598331  0.3830649837622082
  0.4999469469082419  0.0001914959371128  0.5001476695792262
  0.5830338668925586  0.1659395207207371  0.6169825377072158
  0.6671204056655913  0.0838322209675522  0.3833456620391230
  0.7502639753385056  0.0005943001022652  0.4999851071065098
  0.8333495244315896  0.1669212639028802  0.6171601605929744
  0.9167458576571565  0.0838585299889506  0.3833734665163990
 -0.0002077819300786  0.2501160769508921  0.5000210785112268
  0.0827878009708886  0.4172828977919813  0.6170259440636024
  0.1670755215806161  0.3338085005560347  0.3829703370154743
  0.2498219717157084  0.2497504135777122  0.4993355793920441
  0.3262359021194837  0.4133444048643046  0.6136680378051885
  0.4169463034665706  0.3338481871564708  0.3829746716524912
  0.4998540282430957  0.2497398251857849  0.4993291405347897
  0.5870348239917127  0.4133046273628438  0.6137742330242558
  0.6667624389843835  0.3337555564641134  0.3829546421174646
  0.7502530312115776  0.2501186025656036  0.4999889244748371
  0.8343874160205144  0.4172677515162753  0.6169842962176132
  0.9167419679496924  0.3334091761803127  0.3833819409512351
  0.0001791805825421  0.5004212378688431  0.5001668110135332
  0.0836215759981907  0.6674032530778335  0.6168676411912868
  0.1666546437031484  0.5837802042596782  0.3830528562633037
  0.2498098685798473  0.5004902534746520  0.4993305993741083
  0.3336313801332922  0.6666535205752254  0.6166880110339485
  0.4169526364145765  0.5836421077056181  0.3829753863383617
  0.5001057520147588  0.5002579932754234  0.5003097055909947
  0.5870078397220468  0.6741493927965170  0.6137331371807486
  0.6667432339012183  0.5836483585156166  0.3829583294337786
  0.7506384790591080  0.5005085737491106  0.4993163999593336
  0.8328510626821838  0.6666730769239397  0.6166564268231973
  0.9171365113295937  0.5837550507029123  0.3830160600834750
  0.0000308624623083  0.7502411561178003  0.5001177762502658
  0.0836208331251961  0.9167013713505977  0.6168630120211304
  0.1668325134051620  0.8336722821044771  0.3836644973818907
  0.2501414205176513  0.7502331227703838  0.5001445588864012
  0.3329470787922696  0.9167127344978052  0.6168834774041387
  0.4167632004259257  0.8338995187042564  0.3830537241190057
  0.4998495804414229  0.7505350492303230  0.4993252606420220
  0.5830392109113625  0.9175242796659685  0.6169833018283557
  0.6667747843350568  0.8335655179375010  0.3829585465164532
  0.7506373315915311  0.7505507344471244  0.4993070702836983
  0.8343644320570845  0.9175725503340804  0.6169778469877399
  0.9171441938229925  0.8339119824152996  0.3830198242178016
  0.0000820523280685  0.0001895687001253  0.6593367508564861
  0.0000998142344713  0.0004118261435203  0.3411690334259614
  0.2501321987905837  0.0003993526609374  0.6590228043239524
  0.2503079891102857  0.0006315486833401  0.3411621772418078
  0.4999922074871288  0.0002163250532315  0.6593381538762962
  0.5003006594572936  0.0003978319815063  0.3411696608211825
  0.7501180617505357  0.0003690065752137  0.6590989095572725
  0.7502522473550377  0.0005068792925189  0.3410752269177108
 -0.0000748374298599  0.2501932710746560  0.6591364573298295
  0.0000257464716950  0.2502545422293385  0.3410956083885628
  0.2502776512213524  0.2507066657375071  0.6590423483894944
  0.2500456314601734  0.2500258410882666  0.3409168538288497
  0.5003186956555888  0.2506915335291386  0.6590491012060492
  0.4999967475108031  0.2500099727642699  0.3409068996711589
  0.7501291145657467  0.2502107255219648  0.6591105539109330
  0.7502507015950618  0.2502229553677146  0.3410753220752750
  0.0000974296027799  0.5003574603154685  0.6593444529615817
  0.0000899712423924  0.5001616458401650  0.3411652982103511
  0.2502832882874917  0.5000340634901134  0.6590373253079144
  0.2500390929723213  0.5004901186779027  0.3409170998594775
  0.4997677080847667  0.5002142064028000  0.6661678451066263
  0.5001845111441164  0.5003254608219283  0.3409141812252993
  0.7496423856218002  0.5000433542899034  0.6590397311544514
  0.7504646554849803  0.5004675566374266  0.3408825396411105
 -0.0000955325954250  0.7501849973969689  0.6590002749791241
 -0.0001644536249772  0.7501602987995473  0.3411220167094151
  0.2501388396417498  0.7501897111468456  0.6590205670549004
  0.2503214717848838  0.7501590766120860  0.3411529826862870
  0.5003248837219609  0.7500724118041417  0.6590341805898726
  0.4999933654920645  0.7504671797354180  0.3409034234768262
  0.7496134258209276  0.7500412416016610  0.6590261258690938
  0.7504760685518866  0.7504704730266990  0.3408828201564607
  0.4983785107582454  0.4999131355394602  0.7105242935494267
 
  0.00000000E+00  0.00000000E+00  0.00000000E+00
  0.00000000E+00  0.00000000E+00  0.00000000E+00
  0.00000000E+00  0.00000000E+00  0.00000000E+00
  0.00000000E+00  0.00000000E+00  0.00000000E+00
  0.00000000E+00  0.00000000E+00  0.00000000E+00
  0.00000000E+00  0.00000000E+00  0.00000000E+00
  0.00000000E+00  0.00000000E+00  0.00000000E+00
  0.00000000E+00  0.00000000E+00  0.00000000E+00
  0.00000000E+00  0.00000000E+00  0.00000000E+00
  0.00000000E+00  0.00000000E+00  0.00000000E+00
  0.00000000E+00  0.00000000E+00  0.00000000E+00
  0.00000000E+00  0.00000000E+00  0.00000000E+00
  0.00000000E+00  0.00000000E+00  0.00000000E+00
  0.00000000E+00  0.00000000E+00  0.00000000E+00
  0.00000000E+00  0.00000000E+00  0.00000000E+00
  0.00000000E+00  0.00000000E+00  0.00000000E+00
  0.00000000E+00  0.00000000E+00  0.00000000E+00
  0.00000000E+00  0.00000000E+00  0.00000000E+00
  0.00000000E+00  0.00000000E+00  0.00000000E+00
  0.00000000E+00  0.00000000E+00  0.00000000E+00
  0.00000000E+00  0.00000000E+00  0.00000000E+00
  0.00000000E+00  0.00000000E+00  0.00000000E+00
  0.00000000E+00  0.00000000E+00  0.00000000E+00
  0.00000000E+00  0.00000000E+00  0.00000000E+00
  0.00000000E+00  0.00000000E+00  0.00000000E+00
  0.00000000E+00  0.00000000E+00  0.00000000E+00
  0.00000000E+00  0.00000000E+00  0.00000000E+00
  0.00000000E+00  0.00000000E+00  0.00000000E+00
  0.00000000E+00  0.00000000E+00  0.00000000E+00
  0.00000000E+00  0.00000000E+00  0.00000000E+00
  0.00000000E+00  0.00000000E+00  0.00000000E+00
  0.00000000E+00  0.00000000E+00  0.00000000E+00
  0.00000000E+00  0.00000000E+00  0.00000000E+00
  0.00000000E+00  0.00000000E+00  0.00000000E+00
  0.00000000E+00  0.00000000E+00  0.00000000E+00
  0.00000000E+00  0.00000000E+00  0.00000000E+00
  0.00000000E+00  0.00000000E+00  0.00000000E+00
  0.00000000E+00  0.00000000E+00  0.00000000E+00
  0.00000000E+00  0.00000000E+00  0.00000000E+00
  0.00000000E+00  0.00000000E+00  0.00000000E+00
  0.00000000E+00  0.00000000E+00  0.00000000E+00
  0.00000000E+00  0.00000000E+00  0.00000000E+00
  0.00000000E+00  0.00000000E+00  0.00000000E+00
  0.00000000E+00  0.00000000E+00  0.00000000E+00
  0.00000000E+00  0.00000000E+00  0.00000000E+00
  0.00000000E+00  0.00000000E+00  0.00000000E+00
  0.00000000E+00  0.00000000E+00  0.00000000E+00
  0.00000000E+00  0.00000000E+00  0.00000000E+00
  0.00000000E+00  0.00000000E+00  0.00000000E+00
  0.00000000E+00  0.00000000E+00  0.00000000E+00
  0.00000000E+00  0.00000000E+00  0.00000000E+00
  0.00000000E+00  0.00000000E+00  0.00000000E+00
  0.00000000E+00  0.00000000E+00  0.00000000E+00
  0.00000000E+00  0.00000000E+00  0.00000000E+00
  0.00000000E+00  0.00000000E+00  0.00000000E+00
  0.00000000E+00  0.00000000E+00  0.00000000E+00
  0.00000000E+00  0.00000000E+00  0.00000000E+00
  0.00000000E+00  0.00000000E+00  0.00000000E+00
  0.00000000E+00  0.00000000E+00  0.00000000E+00
  0.00000000E+00  0.00000000E+00  0.00000000E+00
  0.00000000E+00  0.00000000E+00  0.00000000E+00
  0.00000000E+00  0.00000000E+00  0.00000000E+00
  0.00000000E+00  0.00000000E+00  0.00000000E+00
  0.00000000E+00  0.00000000E+00  0.00000000E+00
  0.00000000E+00  0.00000000E+00  0.00000000E+00
  0.00000000E+00  0.00000000E+00  0.00000000E+00
  0.00000000E+00  0.00000000E+00  0.00000000E+00
  0.00000000E+00  0.00000000E+00  0.00000000E+00
  0.00000000E+00  0.00000000E+00  0.00000000E+00
  0.00000000E+00  0.00000000E+00  0.00000000E+00
  0.00000000E+00  0.00000000E+00  0.00000000E+00
  0.00000000E+00  0.00000000E+00  0.00000000E+00
  0.00000000E+00  0.00000000E+00  0.00000000E+00
  0.00000000E+00  0.00000000E+00  0.00000000E+00
  0.00000000E+00  0.00000000E+00  0.00000000E+00
  0.00000000E+00  0.00000000E+00  0.00000000E+00
  0.00000000E+00  0.00000000E+00  0.00000000E+00
  0.00000000E+00  0.00000000E+00  0.00000000E+00
  0.00000000E+00  0.00000000E+00  0.00000000E+00
  0.00000000E+00  0.00000000E+00  0.00000000E+00
  0.00000000E+00  0.00000000E+00  0.00000000E+00
  0.00000000E+00  0.00000000E+00  0.00000000E+00
  0.00000000E+00  0.00000000E+00  0.00000000E+00
  0.00000000E+00  0.00000000E+00  0.00000000E+00
  0.00000000E+00  0.00000000E+00  0.00000000E+00
  0.00000000E+00  0.00000000E+00  0.00000000E+00
  0.00000000E+00  0.00000000E+00  0.00000000E+00
  0.00000000E+00  0.00000000E+00  0.00000000E+00
  0.00000000E+00  0.00000000E+00  0.00000000E+00
  0.00000000E+00  0.00000000E+00  0.00000000E+00
  0.00000000E+00  0.00000000E+00  0.00000000E+00
  0.00000000E+00  0.00000000E+00  0.00000000E+00
  0.00000000E+00  0.00000000E+00  0.00000000E+00
  0.00000000E+00  0.00000000E+00  0.00000000E+00
  0.00000000E+00  0.00000000E+00  0.00000000E+00
  0.00000000E+00  0.00000000E+00  0.00000000E+00
  0.00000000E+00  0.00000000E+00  0.00000000E+00
  0.00000000E+00  0.00000000E+00  0.00000000E+00
  0.00000000E+00  0.00000000E+00  0.00000000E+00
  0.00000000E+00  0.00000000E+00  0.00000000E+00
  0.00000000E+00  0.00000000E+00  0.00000000E+00
  0.00000000E+00  0.00000000E+00  0.00000000E+00
  0.00000000E+00  0.00000000E+00  0.00000000E+00
  0.00000000E+00  0.00000000E+00  0.00000000E+00
  0.00000000E+00  0.00000000E+00  0.00000000E+00
  0.00000000E+00  0.00000000E+00  0.00000000E+00
  0.00000000E+00  0.00000000E+00  0.00000000E+00
  0.00000000E+00  0.00000000E+00  0.00000000E+00
  0.00000000E+00  0.00000000E+00  0.00000000E+00
  0.00000000E+00  0.00000000E+00  0.00000000E+00
  0.00000000E+00  0.00000000E+00  0.00000000E+00
  0.00000000E+00  0.00000000E+00  0.00000000E+00
  0.00000000E+00  0.00000000E+00  0.00000000E+00
