CONTCAR\(16)                            
   1.00000000000000     
    12.3274002075000002    0.0000000000000000    0.0000000000000000
     0.0000000000000000   15.7540998459000008    0.0000000000000000
     0.0000000000000000    0.0000000000000000   20.2700004577999984
   Pr   Br   O 
    12    30     1
Direct
  0.2530325608181058  0.6436779304983010  0.5121438598843413
  0.0831386150964128  0.3665767838501072  0.4769629616758213
  0.2447842846903225  0.1392572636968883  0.5248709831063147
  0.0842185102591119  0.8695850504310060  0.4635117467319653
  0.5838246019231140  0.6369946640128764  0.6181696269140959
  0.4183074511460679  0.3734990662085861  0.4797632672690867
  0.5870937888698053  0.1366870188010312  0.5275198068397927
  0.4074486946032470  0.8676741493878620  0.4670271085834045
  0.9128425769416886  0.6414544863978930  0.5116861201230998
  0.7486676974223461  0.3693035682237991  0.4800801181598540
  0.9182806390236805  0.1406431494706842  0.5238960782404817
  0.7578672971905084  0.8678804677186319  0.4655464011860566
  0.2499367465994669  0.8876220172898470  0.3621272631186332
  0.0818867204142444  0.1261354105766257  0.6279241762209963
  0.2508259423592215  0.4872796093084129  0.4168308325889076
  0.0833882021279329  0.5211723868667700  0.5693904147074283
  0.0829928297070690  0.0667397915672969  0.4305822589576478
  0.2433716302625773  0.9480791260398740  0.5570802834317924
  0.0818271387149216  0.7480752816906021  0.5822579670434248
  0.2553457686145535  0.2617530128347109  0.4068116496002342
  0.0830645336816855  0.6871654824539060  0.4106663121116761
  0.2482071597679571  0.3187579498811816  0.5792257738755359
  0.5820695532067677  0.8798873368497347  0.3696249514852400
  0.4153414509495107  0.1256192717768241  0.6255390740825251
  0.5843076853254124  0.4869179043808857  0.4277004015402138
  0.3956989659885456  0.5164198006287882  0.5805198319469117
  0.4171149394410683  0.0645216514639002  0.4360736858757266
  0.5840703910427909  0.9374740495913015  0.5567051534916658
  0.3908560797073997  0.7590721774782001  0.5935433727126741
  0.5809108243498129  0.2584575846673810  0.4103290022276144
  0.4173338782167006  0.6912073311059385  0.4183965792340031
  0.5820317970468690  0.3199260928421141  0.5819165899991272
  0.9176735208686515  0.8868401733669119  0.3619363456812036
  0.7528951970232951  0.1233788514403721  0.6277701434203853
  0.9152227135781339  0.4860530409734651  0.4168082061971116
  0.7706229342679175  0.5150189278566305  0.5803452601363872
  0.7497902859259361  0.0637899813842965  0.4337320454163844
  0.9218821213996893  0.9478842645868046  0.5555472369633793
  0.7758122631722769  0.7587005797253273  0.5916864298177563
  0.9136774244899769  0.2614912740003903  0.4054731876235641
  0.7510251165964853  0.6910541705183960  0.4168664088738973
  0.9195305552777415  0.3187485298368258  0.5795215623738033
  0.5850191678910083  0.6258929473186259  0.7125193375298124
 
  0.00000000E+00  0.00000000E+00  0.00000000E+00
  0.00000000E+00  0.00000000E+00  0.00000000E+00
  0.00000000E+00  0.00000000E+00  0.00000000E+00
  0.00000000E+00  0.00000000E+00  0.00000000E+00
  0.00000000E+00  0.00000000E+00  0.00000000E+00
  0.00000000E+00  0.00000000E+00  0.00000000E+00
  0.00000000E+00  0.00000000E+00  0.00000000E+00
  0.00000000E+00  0.00000000E+00  0.00000000E+00
  0.00000000E+00  0.00000000E+00  0.00000000E+00
  0.00000000E+00  0.00000000E+00  0.00000000E+00
  0.00000000E+00  0.00000000E+00  0.00000000E+00
  0.00000000E+00  0.00000000E+00  0.00000000E+00
  0.00000000E+00  0.00000000E+00  0.00000000E+00
  0.00000000E+00  0.00000000E+00  0.00000000E+00
  0.00000000E+00  0.00000000E+00  0.00000000E+00
  0.00000000E+00  0.00000000E+00  0.00000000E+00
  0.00000000E+00  0.00000000E+00  0.00000000E+00
  0.00000000E+00  0.00000000E+00  0.00000000E+00
  0.00000000E+00  0.00000000E+00  0.00000000E+00
  0.00000000E+00  0.00000000E+00  0.00000000E+00
  0.00000000E+00  0.00000000E+00  0.00000000E+00
  0.00000000E+00  0.00000000E+00  0.00000000E+00
  0.00000000E+00  0.00000000E+00  0.00000000E+00
  0.00000000E+00  0.00000000E+00  0.00000000E+00
  0.00000000E+00  0.00000000E+00  0.00000000E+00
  0.00000000E+00  0.00000000E+00  0.00000000E+00
  0.00000000E+00  0.00000000E+00  0.00000000E+00
  0.00000000E+00  0.00000000E+00  0.00000000E+00
  0.00000000E+00  0.00000000E+00  0.00000000E+00
  0.00000000E+00  0.00000000E+00  0.00000000E+00
  0.00000000E+00  0.00000000E+00  0.00000000E+00
  0.00000000E+00  0.00000000E+00  0.00000000E+00
  0.00000000E+00  0.00000000E+00  0.00000000E+00
  0.00000000E+00  0.00000000E+00  0.00000000E+00
  0.00000000E+00  0.00000000E+00  0.00000000E+00
  0.00000000E+00  0.00000000E+00  0.00000000E+00
  0.00000000E+00  0.00000000E+00  0.00000000E+00
  0.00000000E+00  0.00000000E+00  0.00000000E+00
  0.00000000E+00  0.00000000E+00  0.00000000E+00
  0.00000000E+00  0.00000000E+00  0.00000000E+00
  0.00000000E+00  0.00000000E+00  0.00000000E+00
  0.00000000E+00  0.00000000E+00  0.00000000E+00
  0.00000000E+00  0.00000000E+00  0.00000000E+00
