 CONTCAR\(2)                            
   1.00000000000000     
     2.8708954266641844    0.0000000000000000    0.0000000000000000
    -1.4354477018371110    2.4862755519321302    0.0000000000000000
     0.0000000000000000    0.0000000000000000   19.4676747272327226
   V    C    O 
     2     1     2
Direct
  0.6666677852821860  0.3333331702148627  0.5612609756944833
  0.3333330079884523  0.6666670016760877  0.4387225030851162
  0.0000003832391870  0.0000000860350784  0.4999942573042709
  0.3333334583040171  0.6666664365717577  0.6141587101936843
  0.6666654521861543  0.3333333745022081  0.3858269718681707
 
  0.00000000E+00  0.00000000E+00  0.00000000E+00
  0.00000000E+00  0.00000000E+00  0.00000000E+00
  0.00000000E+00  0.00000000E+00  0.00000000E+00
  0.00000000E+00  0.00000000E+00  0.00000000E+00
  0.00000000E+00  0.00000000E+00  0.00000000E+00
