CONTCAR\(11)                            
   1.00000000000000     
    13.2923002242999999    0.0000000000000000    0.0000000000000000
     6.5701190447000002   11.5675693128999999    0.0000000000000000
     0.0000000000000000    0.0000000000000000   18.3850994109999988
   Nb   Ir   S    O    H 
    12     4    32     2     1
Direct
  0.2409097381940555  0.0230278075751258  0.5038266894543639
  0.4816740514351494  0.0005793737523092  0.5058378158783015
  0.4877164876693172  0.2375489251215441  0.5031480590363415
  0.7645243061118094  0.0141200966616566  0.5072551225973214
  0.0007267862251368  0.0227595240943188  0.5050382057999769
  0.9794623676940191  0.2630691285241724  0.5061589175925079
  0.2614924958518188  0.5164066427571612  0.5040531399045065
  0.4954533520805668  0.5241637350579893  0.5061986020052629
  0.4784774447620137  0.7618946859193301  0.5063587215022807
  0.7364420543173793  0.5239851946737417  0.5024687633547700
  0.9837249366668885  0.5010703537163437  0.5052556156760986
  0.9907280711052309  0.7364821276201212  0.5034713832515649
  0.2718847837492504  0.2297706022808512  0.5029159802314567
  0.7716928429757672  0.2317644068726494  0.5075102431698681
  0.2703145779764640  0.7337675259325991  0.5072673281352351
  0.7719065466035886  0.7291477131276878  0.5028998252005508
  0.3381385909909298  0.0792184575520238  0.4112712940925860
  0.0788338098175672  0.0983949293350932  0.4162714851537288
  0.0968285871973578  0.3257891553539309  0.4303470996892500
  0.3297185051733891  0.3342352213625688  0.4212998975228572
  0.1638976775605272  0.1800387259784131  0.5871329153367810
  0.4194607520981322  0.1596876274478873  0.5963050371245302
  0.4249698666200032  0.4181465745444868  0.5803594741408844
  0.1768455312877322  0.4071011256387465  0.5713789191050083
  0.8418359437360508  0.0836805056852299  0.4147979083895095
  0.5854431785081076  0.0817255037254014  0.4238207862633487
  0.5933535624279642  0.3281560341033014  0.4393455238094930
  0.8223884926123546  0.3382054375379084  0.4226369373129089
  0.6677590307698011  0.1719612874666225  0.5883666037384288
  0.9221524720871486  0.1669192829376698  0.5991761805998337
  0.9053510575037436  0.4253104641157890  0.5931255658077177
  0.6783168394494581  0.4079088636279096  0.5785325578804930
  0.3414015470033007  0.5880058979635905  0.4130404350079715
  0.0853701678810239  0.5821795352071106  0.4215570606901622
  0.0939081506796384  0.8286816398390542  0.4377215398101342
  0.3220770890151314  0.8397136325003913  0.4227110867901587
  0.1682883994747399  0.6720990005808574  0.5881877893969616
  0.4193692596896597  0.6690464823012547  0.5997614338813619
  0.4039469124909658  0.9240485532238125  0.5943475318088289
  0.1751180049601757  0.9083354859118273  0.5800004872615077
  0.8389988567681002  0.5779741722368144  0.4115603333707583
  0.5783797453909187  0.5999834462683040  0.4160639769780801
  0.5960226130331776  0.8269399321205952  0.4308538545361529
  0.8306503111988803  0.8348150129147456  0.4231103508395790
  0.6636546982269849  0.6788607645240035  0.5868995068683347
  0.9203603321667018  0.6595636475203008  0.5958421651654788
  0.9215587889708132  0.9170654864323851  0.5861523731794591
  0.6763911138874548  0.9059845665861914  0.5725488119564162
  0.4361915066001245  0.4187442485206603  0.6752792803377048
  0.3489235192224456  0.4008123314579350  0.7104516347618102
  0.3877832730810269  0.3157199507895854  0.7127378286014050
 
  0.00000000E+00  0.00000000E+00  0.00000000E+00
  0.00000000E+00  0.00000000E+00  0.00000000E+00
  0.00000000E+00  0.00000000E+00  0.00000000E+00
  0.00000000E+00  0.00000000E+00  0.00000000E+00
  0.00000000E+00  0.00000000E+00  0.00000000E+00
  0.00000000E+00  0.00000000E+00  0.00000000E+00
  0.00000000E+00  0.00000000E+00  0.00000000E+00
  0.00000000E+00  0.00000000E+00  0.00000000E+00
  0.00000000E+00  0.00000000E+00  0.00000000E+00
  0.00000000E+00  0.00000000E+00  0.00000000E+00
  0.00000000E+00  0.00000000E+00  0.00000000E+00
  0.00000000E+00  0.00000000E+00  0.00000000E+00
  0.00000000E+00  0.00000000E+00  0.00000000E+00
  0.00000000E+00  0.00000000E+00  0.00000000E+00
  0.00000000E+00  0.00000000E+00  0.00000000E+00
  0.00000000E+00  0.00000000E+00  0.00000000E+00
  0.00000000E+00  0.00000000E+00  0.00000000E+00
  0.00000000E+00  0.00000000E+00  0.00000000E+00
  0.00000000E+00  0.00000000E+00  0.00000000E+00
  0.00000000E+00  0.00000000E+00  0.00000000E+00
  0.00000000E+00  0.00000000E+00  0.00000000E+00
  0.00000000E+00  0.00000000E+00  0.00000000E+00
  0.00000000E+00  0.00000000E+00  0.00000000E+00
  0.00000000E+00  0.00000000E+00  0.00000000E+00
  0.00000000E+00  0.00000000E+00  0.00000000E+00
  0.00000000E+00  0.00000000E+00  0.00000000E+00
  0.00000000E+00  0.00000000E+00  0.00000000E+00
  0.00000000E+00  0.00000000E+00  0.00000000E+00
  0.00000000E+00  0.00000000E+00  0.00000000E+00
  0.00000000E+00  0.00000000E+00  0.00000000E+00
  0.00000000E+00  0.00000000E+00  0.00000000E+00
  0.00000000E+00  0.00000000E+00  0.00000000E+00
  0.00000000E+00  0.00000000E+00  0.00000000E+00
  0.00000000E+00  0.00000000E+00  0.00000000E+00
  0.00000000E+00  0.00000000E+00  0.00000000E+00
  0.00000000E+00  0.00000000E+00  0.00000000E+00
  0.00000000E+00  0.00000000E+00  0.00000000E+00
  0.00000000E+00  0.00000000E+00  0.00000000E+00
  0.00000000E+00  0.00000000E+00  0.00000000E+00
  0.00000000E+00  0.00000000E+00  0.00000000E+00
  0.00000000E+00  0.00000000E+00  0.00000000E+00
  0.00000000E+00  0.00000000E+00  0.00000000E+00
  0.00000000E+00  0.00000000E+00  0.00000000E+00
  0.00000000E+00  0.00000000E+00  0.00000000E+00
  0.00000000E+00  0.00000000E+00  0.00000000E+00
  0.00000000E+00  0.00000000E+00  0.00000000E+00
  0.00000000E+00  0.00000000E+00  0.00000000E+00
  0.00000000E+00  0.00000000E+00  0.00000000E+00
  0.00000000E+00  0.00000000E+00  0.00000000E+00
  0.00000000E+00  0.00000000E+00  0.00000000E+00
  0.00000000E+00  0.00000000E+00  0.00000000E+00
