SYSTEM =gra_geo_opt
PREC=Medium
ENCUT = 400
ISTART = 0 
ICHARG = 2        
EDIFF = 1E-05
LREAL = Auto     
#EDIFFG = -2E-02   
#NSW =1000
IBRION =-1
ISIF = 2   
ISMEAR = 1
#MAGMOM = 71*2 4 
SIGMA =0.05  
GGA = PE
ALGO=Fast
ISPIN = 2
NCORE=4
LWAVE=.FALSE.
LCHARG=.FALSE.
#LAECHG=.TRUE.
NELM=250
IVDW=11
