CONTCAR\(10)                            
   1.00000000000000     
    11.5354003905999996    0.0000000000000000    0.0000000000000000
     0.0000000000000000   13.3458003997999999    0.0000000000000000
     0.0000000000000000    0.0000000000000000   18.6074008942000013
   Zr   Ti   Te
     6     6    24
Direct
  0.1666699980000033  0.2525154246988482  0.4999691500848655
  0.5000000000000000  0.2525154246988482  0.4999691500848655
  0.8333299709999977  0.2525154246988482  0.4999691500848655
  0.1666699980000033  0.7525154596988476  0.4999691500848655
  0.5000000000000000  0.7525154596988476  0.4999691500848655
  0.8333299709999977  0.7525154596988476  0.4999691500848655
  0.0000000000000000  0.0026612477197817  0.4998420291497788
  0.3333300130000012  0.0026612477197817  0.4998420291497788
  0.6666700290000023  0.0026612477197817  0.4998420291497788
  0.0000000000000000  0.5026612517197749  0.4998420291497788
  0.3333300130000012  0.5026612517197749  0.4998420291497788
  0.6666700290000023  0.5026612517197749  0.4998420291497788
  0.1666699980000033  0.0803410256913297  0.5943383368922678
  0.1666699980000033  0.4245188619761965  0.4054961401766029
  0.0000000000000000  0.3409007438847237  0.5973254623490617
  0.0000000000000000  0.1641726740291184  0.4025188423474253
  0.5000000000000000  0.0803410256913297  0.5943383368922678
  0.5000000000000000  0.4245188619761965  0.4054961401766029
  0.3333300130000012  0.3409007438847237  0.5973254623490617
  0.3333300130000012  0.1641726740291184  0.4025188423474253
  0.8333299709999977  0.0803410256913297  0.5943383368922678
  0.8333299709999977  0.4245188619761965  0.4054961401766029
  0.6666700290000023  0.3409007438847237  0.5973254623490617
  0.6666700290000023  0.1641726740291184  0.4025188423474253
  0.1666699980000033  0.5803410346913339  0.5943383368922678
  0.1666699980000033  0.9245189339762024  0.4054961401766029
  0.0000000000000000  0.8409008148847260  0.5973254623490617
  0.0000000000000000  0.6641727090291177  0.4025188423474253
  0.5000000000000000  0.5803410346913339  0.5943383368922678
  0.5000000000000000  0.9245189339762024  0.4054961401766029
  0.3333300130000012  0.8409008148847260  0.5973254623490617
  0.3333300130000012  0.6641727090291177  0.4025188423474253
  0.8333299709999977  0.5803410346913339  0.5943383368922678
  0.8333299709999977  0.9245189339762024  0.4054961401766029
  0.6666700290000023  0.8409008148847260  0.5973254623490617
  0.6666700290000023  0.6641727090291177  0.4025188423474253
 
  0.00000000E+00  0.00000000E+00  0.00000000E+00
  0.00000000E+00  0.00000000E+00  0.00000000E+00
  0.00000000E+00  0.00000000E+00  0.00000000E+00
  0.00000000E+00  0.00000000E+00  0.00000000E+00
  0.00000000E+00  0.00000000E+00  0.00000000E+00
  0.00000000E+00  0.00000000E+00  0.00000000E+00
  0.00000000E+00  0.00000000E+00  0.00000000E+00
  0.00000000E+00  0.00000000E+00  0.00000000E+00
  0.00000000E+00  0.00000000E+00  0.00000000E+00
  0.00000000E+00  0.00000000E+00  0.00000000E+00
  0.00000000E+00  0.00000000E+00  0.00000000E+00
  0.00000000E+00  0.00000000E+00  0.00000000E+00
  0.00000000E+00  0.00000000E+00  0.00000000E+00
  0.00000000E+00  0.00000000E+00  0.00000000E+00
  0.00000000E+00  0.00000000E+00  0.00000000E+00
  0.00000000E+00  0.00000000E+00  0.00000000E+00
  0.00000000E+00  0.00000000E+00  0.00000000E+00
  0.00000000E+00  0.00000000E+00  0.00000000E+00
  0.00000000E+00  0.00000000E+00  0.00000000E+00
  0.00000000E+00  0.00000000E+00  0.00000000E+00
  0.00000000E+00  0.00000000E+00  0.00000000E+00
  0.00000000E+00  0.00000000E+00  0.00000000E+00
  0.00000000E+00  0.00000000E+00  0.00000000E+00
  0.00000000E+00  0.00000000E+00  0.00000000E+00
  0.00000000E+00  0.00000000E+00  0.00000000E+00
  0.00000000E+00  0.00000000E+00  0.00000000E+00
  0.00000000E+00  0.00000000E+00  0.00000000E+00
  0.00000000E+00  0.00000000E+00  0.00000000E+00
  0.00000000E+00  0.00000000E+00  0.00000000E+00
  0.00000000E+00  0.00000000E+00  0.00000000E+00
  0.00000000E+00  0.00000000E+00  0.00000000E+00
  0.00000000E+00  0.00000000E+00  0.00000000E+00
  0.00000000E+00  0.00000000E+00  0.00000000E+00
  0.00000000E+00  0.00000000E+00  0.00000000E+00
  0.00000000E+00  0.00000000E+00  0.00000000E+00
  0.00000000E+00  0.00000000E+00  0.00000000E+00
