CONTCAR\(4)                             
   1.00000000000000     
    13.4425001143999996    0.0000000000000000    0.0000000000000000
     3.3606099258000000   18.5762653218000011    0.0000000000000000
     0.0000000000000000    0.0000000000000000   18.6296005248999990
   V    Te   O    H 
    24    48     2     1
Selective dynamics
Direct
  0.9999320315086990  0.9993221469939186  0.5035297979140836   F   F   F
  0.0887091426292770  0.1443544248095350  0.4996776683418602   F   F   F
  0.1614458627707194  0.3545860537953658  0.5049949545865005   F   F   F
  0.2501354473328163  0.9993838677016669  0.5038394971305351   F   F   F
  0.3387381524603512  0.1444637886169602  0.4993456573373294   F   F   F
  0.4117316018481034  0.3548189660084873  0.5053906465302731   F   F   F
  0.4993892036029806  0.9996258196004106  0.5033780669258121   F   F   F
  0.5886086869419955  0.1441141038664711  0.4993904048175821   F   F   F
  0.6612450810822779  0.3545705257370670  0.5053444541471990   F   F   F
  0.7497561120210747  0.9993899731167915  0.5035154694214299   F   F   F
  0.8386491092336996  0.1441710207903242  0.4996773533829568   F   F   F
  0.9112163495625083  0.3544331599468435  0.5048537207824637   F   F   F
  0.0000070717057810  0.4993969731286541  0.5000570571416247   F   F   F
  0.0889542497230877  0.6435543523195477  0.4960724071963796   F   F   F
  0.1608019565715892  0.8550340553884439  0.5069093987515529   F   F   F
  0.2501086632278273  0.4997860389014903  0.4999646086359419   F   F   F
  0.3364948612168988  0.6412516853257344  0.4953567288228555   F   F   F
  0.4097205419696266  0.8598213347660177  0.5070367388283685   F   F   F
  0.5006781860657910  0.4982201274949105  0.4998740873215297   F   F   F
  0.5928408411120145  0.6407556846731310  0.4951661694113767   F   F   F
  0.6609319452403781  0.8550287570122919  0.5068700270280573   F   F   F
  0.7498374353266684  0.4995731101861480  0.4999877304935225   F   F   F
  0.8391670500014925  0.6434082402317713  0.4958242079875887   F   F   F
  0.9109957601519767  0.8547319621776595  0.5060163234671009   F   F   F
  0.1106875376302412  0.0542439730198083  0.6049908271812825   F   F   F
  0.1388550656936687  0.4442399405038202  0.3991097970060906   F   F   F
  0.1937381507535605  0.2244433111560085  0.5832201587517716   F   F   F
  0.0563629374519721  0.2746473501084310  0.4214355042800619   F   F   F
  0.0266348407707326  0.3931696969847636  0.6055805841374990   F   F   F
  0.2228887738459875  0.1063448078022660  0.3987745238449278   F   F   F
  0.3611582205145112  0.0549070631815596  0.6049529152346196   F   F   F
  0.3887267205817082  0.4436548309155839  0.3990177723033952   F   F   F
  0.4437529490880152  0.2244248271434373  0.5831449648803400   F   F   F
  0.3065387389111152  0.2747766942638066  0.4215309150339195   F   F   F
  0.2767085002654284  0.3933964036727104  0.6056671854311162   F   F   F
  0.4732933314966061  0.1063403286198721  0.3985434305613822   F   F   F
  0.6113756423334635  0.0542491968931174  0.6048598213316438   F   F   F
  0.6394534444297122  0.4433426303726549  0.3989623557828637   F   F   F
  0.6936069657386170  0.2240638998264544  0.5832379275571284   F   F   F
  0.5564270126548010  0.2744105196959410  0.4216415313798478   F   F   F
  0.5269093083739733  0.3931422207558484  0.6061541819200755   F   F   F
  0.7233482802783371  0.1059314857066909  0.3986848504744387   F   F   F
  0.8612888281209905  0.0537600803339444  0.6049510070508575   F   F   F
  0.8890406182596209  0.4441055927994100  0.3990791511290652   F   F   F
  0.9436765452714653  0.2242479515424591  0.5832844896828959   F   F   F
  0.8061533527518066  0.2743408535733991  0.4214511927009994   F   F   F
  0.7768542406914491  0.3932152498909289  0.6056479010489255   F   F   F
  0.9731743749492949  0.1060505784735142  0.3988628000041672   F   F   F
  0.1113193353060424  0.5533962497598850  0.6015082425132903   F   F   F
  0.1380632412274210  0.9457583441030977  0.4019393656629902   F   F   F
  0.1922029011483133  0.7228163588437724  0.5810617529143229   F   F   F
  0.0557922557338131  0.7755991265182445  0.4215752573607929   F   F   F
  0.0261616706534085  0.8922230809240190  0.6078042613671286   F   F   F
  0.2221610259232634  0.6052135381057013  0.3938570043698633   F   F   F
  0.3615613042398280  0.5532547874706353  0.6018160253027460   F   F   F
  0.3875792362455854  0.9471812220828326  0.4008453866972346   F   F   F
  0.4428951277196589  0.7259559754022931  0.5612067483423857   F   F   F
  0.3047721676204063  0.7756611729695351  0.4225639327176225   F   F   F
  0.2753775725738947  0.8936790600801459  0.6085019895205122   F   F   F
  0.4740617860044978  0.6032646430371003  0.3948581411072283   F   F   F
  0.6118684565418135  0.5534630157674130  0.6018420233511179   F   F   F
  0.6384355398111268  0.9455974073254367  0.4018014419815756   F   F   F
  0.6960394678289532  0.7227557410241019  0.5805682533985319   F   F   F
  0.5564177889890445  0.7751656840135155  0.4233368718485693   F   F   F
  0.5273739925392107  0.8943011038972983  0.6083213663951668   F   F   F
  0.7250812489902501  0.6048787034753857  0.3936523958634766   F   F   F
  0.8617371344785454  0.5534363960280402  0.6014901346233046   F   F   F
  0.8881132540044945  0.9459276180097547  0.4015760683479144   F   F   F
  0.9437653067838596  0.7228571022163095  0.5806964061053606   F   F   F
  0.8059185681175691  0.7756221561772065  0.4214535255337069   F   F   F
  0.7770999188201699  0.8921106972850694  0.6077619591946331   F   F   F
  0.9735115791002755  0.6056945405626593  0.3947678580390104   F   F   F
  0.4316914778757450  0.7039574296946185  0.6717175346463122   T   T   T
  0.5035935069495565  0.7371353301630990  0.7127814779551116   T   T   T
  0.4585154126085413  0.7785981332367909  0.7330003964828287   T   T   T
 
  0.00000000E+00  0.00000000E+00  0.00000000E+00
  0.00000000E+00  0.00000000E+00  0.00000000E+00
  0.00000000E+00  0.00000000E+00  0.00000000E+00
  0.00000000E+00  0.00000000E+00  0.00000000E+00
  0.00000000E+00  0.00000000E+00  0.00000000E+00
  0.00000000E+00  0.00000000E+00  0.00000000E+00
  0.00000000E+00  0.00000000E+00  0.00000000E+00
  0.00000000E+00  0.00000000E+00  0.00000000E+00
  0.00000000E+00  0.00000000E+00  0.00000000E+00
  0.00000000E+00  0.00000000E+00  0.00000000E+00
  0.00000000E+00  0.00000000E+00  0.00000000E+00
  0.00000000E+00  0.00000000E+00  0.00000000E+00
  0.00000000E+00  0.00000000E+00  0.00000000E+00
  0.00000000E+00  0.00000000E+00  0.00000000E+00
  0.00000000E+00  0.00000000E+00  0.00000000E+00
  0.00000000E+00  0.00000000E+00  0.00000000E+00
  0.00000000E+00  0.00000000E+00  0.00000000E+00
  0.00000000E+00  0.00000000E+00  0.00000000E+00
  0.00000000E+00  0.00000000E+00  0.00000000E+00
  0.00000000E+00  0.00000000E+00  0.00000000E+00
  0.00000000E+00  0.00000000E+00  0.00000000E+00
  0.00000000E+00  0.00000000E+00  0.00000000E+00
  0.00000000E+00  0.00000000E+00  0.00000000E+00
  0.00000000E+00  0.00000000E+00  0.00000000E+00
  0.00000000E+00  0.00000000E+00  0.00000000E+00
  0.00000000E+00  0.00000000E+00  0.00000000E+00
  0.00000000E+00  0.00000000E+00  0.00000000E+00
  0.00000000E+00  0.00000000E+00  0.00000000E+00
  0.00000000E+00  0.00000000E+00  0.00000000E+00
  0.00000000E+00  0.00000000E+00  0.00000000E+00
  0.00000000E+00  0.00000000E+00  0.00000000E+00
  0.00000000E+00  0.00000000E+00  0.00000000E+00
  0.00000000E+00  0.00000000E+00  0.00000000E+00
  0.00000000E+00  0.00000000E+00  0.00000000E+00
  0.00000000E+00  0.00000000E+00  0.00000000E+00
  0.00000000E+00  0.00000000E+00  0.00000000E+00
  0.00000000E+00  0.00000000E+00  0.00000000E+00
  0.00000000E+00  0.00000000E+00  0.00000000E+00
  0.00000000E+00  0.00000000E+00  0.00000000E+00
  0.00000000E+00  0.00000000E+00  0.00000000E+00
  0.00000000E+00  0.00000000E+00  0.00000000E+00
  0.00000000E+00  0.00000000E+00  0.00000000E+00
  0.00000000E+00  0.00000000E+00  0.00000000E+00
  0.00000000E+00  0.00000000E+00  0.00000000E+00
  0.00000000E+00  0.00000000E+00  0.00000000E+00
  0.00000000E+00  0.00000000E+00  0.00000000E+00
  0.00000000E+00  0.00000000E+00  0.00000000E+00
  0.00000000E+00  0.00000000E+00  0.00000000E+00
  0.00000000E+00  0.00000000E+00  0.00000000E+00
  0.00000000E+00  0.00000000E+00  0.00000000E+00
  0.00000000E+00  0.00000000E+00  0.00000000E+00
  0.00000000E+00  0.00000000E+00  0.00000000E+00
  0.00000000E+00  0.00000000E+00  0.00000000E+00
  0.00000000E+00  0.00000000E+00  0.00000000E+00
  0.00000000E+00  0.00000000E+00  0.00000000E+00
  0.00000000E+00  0.00000000E+00  0.00000000E+00
  0.00000000E+00  0.00000000E+00  0.00000000E+00
  0.00000000E+00  0.00000000E+00  0.00000000E+00
  0.00000000E+00  0.00000000E+00  0.00000000E+00
  0.00000000E+00  0.00000000E+00  0.00000000E+00
  0.00000000E+00  0.00000000E+00  0.00000000E+00
  0.00000000E+00  0.00000000E+00  0.00000000E+00
  0.00000000E+00  0.00000000E+00  0.00000000E+00
  0.00000000E+00  0.00000000E+00  0.00000000E+00
  0.00000000E+00  0.00000000E+00  0.00000000E+00
  0.00000000E+00  0.00000000E+00  0.00000000E+00
  0.00000000E+00  0.00000000E+00  0.00000000E+00
  0.00000000E+00  0.00000000E+00  0.00000000E+00
  0.00000000E+00  0.00000000E+00  0.00000000E+00
  0.00000000E+00  0.00000000E+00  0.00000000E+00
  0.00000000E+00  0.00000000E+00  0.00000000E+00
  0.00000000E+00  0.00000000E+00  0.00000000E+00
  0.00000000E+00  0.00000000E+00  0.00000000E+00
  0.00000000E+00  0.00000000E+00  0.00000000E+00
  0.00000000E+00  0.00000000E+00  0.00000000E+00
