CONTCAR                                 
   1.00000000000000     
    13.9656000136999996    0.0000000000000000    0.0000000000000000
     0.0000000000000000   11.8057003021000000    0.0000000000000000
     0.0000000000000000    0.0000000000000000   25.8033008574999982
   Ti   I    N    O    H 
    24    24    24     1     1
Direct
  0.1249714613778963  0.1669639583937226  0.4710521231375182
  0.0000194682116330  0.0000000000000000  0.5257195413063442
  0.3753110389654495  0.1666521628162911  0.4711380206377314
  0.2498568145463551  0.0000000000000000  0.5257285666130187
  0.6247397029037884  0.1666370255197620  0.4711275556361372
  0.5000188967854768  0.0000000000000000  0.5259230969737985
  0.8750599656278055  0.1669669172538732  0.4710480851393939
  0.7501825055708409  0.0000000000000000  0.5257225343129619
  0.1248727439041204  0.5000000000000000  0.4714460217984993
  0.0000087838541987  0.3331114849572572  0.5260299699183406
  0.3753473909398295  0.5000000000000000  0.4711417048004733
  0.2507990910932421  0.3332601808875637  0.5259677213064080
  0.6247129123197226  0.5000000000000000  0.4711320004033013
  0.5000293508992470  0.3333762217389520  0.5264318312376446
  0.8751663791190580  0.5000000000000000  0.4714391689862865
  0.7492281417283593  0.3332591253451938  0.5259673327870615
  0.1249714613778963  0.8330360316062837  0.4710521231375182
  0.0000087838541987  0.6668885360427410  0.5260299699183406
  0.3753110389654495  0.8333478271837151  0.4711380206377314
  0.2507990910932421  0.6667398401124345  0.5259677213064080
  0.6247397029037884  0.8333629644802443  0.4711275556361372
  0.5000293508992470  0.6666237992610462  0.5264318312376446
  0.8750599656278055  0.8330330727461401  0.4710480851393939
  0.7492281417283593  0.6667408956548044  0.5259673327870615
  0.0000153496371595  0.1665912074566336  0.3855451697855798
  0.1251013757979678  0.0000000000000000  0.6112743226272670
  0.2500392295453722  0.1673573908457584  0.3854802154817563
  0.3748398025306230  0.0000000000000000  0.6115342327819562
  0.5000142186228231  0.1666186071893208  0.3856055119743615
  0.6252708348841622  0.0000000000000000  0.6115142823078159
  0.7499818546785377  0.1673659945145900  0.3854708756467673
  0.8749612310668269  0.0000000000000000  0.6112731006082512
  0.0000281462752341  0.5000000000000000  0.3859065424629122
  0.1253069591374469  0.3324116043006953  0.6117855786946720
  0.2499549409253632  0.5000000000000000  0.3857296555470313
  0.3743205169597843  0.3339860058109068  0.6116718617214332
  0.5000214011409057  0.5000000000000000  0.3856067151854532
  0.6256931720121131  0.3338974331620648  0.6116682364440749
  0.7501140229642758  0.5000000000000000  0.3857195727842395
  0.8747226121394505  0.3324019805363747  0.6117860337084196
  0.0000153496371595  0.8334087825433727  0.3855451697855798
  0.1253069591374469  0.6675884166993029  0.6117855786946720
  0.2500392295453722  0.8326425991542479  0.3854802154817563
  0.3743205169597843  0.6660140151890914  0.6116718617214332
  0.5000142186228231  0.8333813828106855  0.3856055119743615
  0.6256931720121131  0.6661025878379334  0.6116682364440749
  0.7499818546785377  0.8326339954854163  0.3854708756467673
  0.8747226121394505  0.6675980404636235  0.6117860337084196
  0.1250276224794220  0.0000000000000000  0.4854802608313094
  0.0000195695082468  0.1665666686199856  0.5113588420009592
  0.3752494651410601  0.0000000000000000  0.4855093589558948
  0.2501434168970889  0.1665920112186541  0.5112235711043098
  0.6247945509359880  0.0000000000000000  0.4854974521244344
  0.5000280141695868  0.1666581571888273  0.5116380338723374
  0.8750182770881949  0.0000000000000000  0.4854784822963794
  0.7498931277497434  0.1665911613768714  0.5112165936688626
  0.1248109566631328  0.3332848234749477  0.4857614742532306
  0.0000196090816615  0.5000000000000000  0.5119378617480379
  0.3752427211181555  0.3333711959798222  0.4856906952699305
  0.2501502678368581  0.5000000000000000  0.5113210569778630
  0.6248072574323373  0.3333725506765930  0.4856830646595540
  0.5000337683270857  0.5000000000000000  0.5115986449507091
  0.8752238966049291  0.3332814366108963  0.4857617816293853
  0.7498880421587728  0.5000000000000000  0.5113148878216052
  0.1248109566631328  0.6667151975250505  0.4857614742532306
  0.0000195695082468  0.8334333213800207  0.5113588420009592
  0.3752427211181555  0.6666288250201760  0.4856906952699305
  0.2501434168970889  0.8334079787813451  0.5112235711043098
  0.6248072574323373  0.6666274703234052  0.4856830646595540
  0.5000280141695868  0.8333418328111790  0.5116380338723374
  0.8752238966049291  0.6667185843891019  0.4857617816293853
  0.7498931277497434  0.8334088286231349  0.5112165936688626
  0.5000752341329360  0.5000299699999999  0.6682772909568087
  0.5000140511837898  0.5000299699999999  0.7063337684055995
 
  0.00000000E+00  0.00000000E+00  0.00000000E+00
  0.00000000E+00  0.00000000E+00  0.00000000E+00
  0.00000000E+00  0.00000000E+00  0.00000000E+00
  0.00000000E+00  0.00000000E+00  0.00000000E+00
  0.00000000E+00  0.00000000E+00  0.00000000E+00
  0.00000000E+00  0.00000000E+00  0.00000000E+00
  0.00000000E+00  0.00000000E+00  0.00000000E+00
  0.00000000E+00  0.00000000E+00  0.00000000E+00
  0.00000000E+00  0.00000000E+00  0.00000000E+00
  0.00000000E+00  0.00000000E+00  0.00000000E+00
  0.00000000E+00  0.00000000E+00  0.00000000E+00
  0.00000000E+00  0.00000000E+00  0.00000000E+00
  0.00000000E+00  0.00000000E+00  0.00000000E+00
  0.00000000E+00  0.00000000E+00  0.00000000E+00
  0.00000000E+00  0.00000000E+00  0.00000000E+00
  0.00000000E+00  0.00000000E+00  0.00000000E+00
  0.00000000E+00  0.00000000E+00  0.00000000E+00
  0.00000000E+00  0.00000000E+00  0.00000000E+00
  0.00000000E+00  0.00000000E+00  0.00000000E+00
  0.00000000E+00  0.00000000E+00  0.00000000E+00
  0.00000000E+00  0.00000000E+00  0.00000000E+00
  0.00000000E+00  0.00000000E+00  0.00000000E+00
  0.00000000E+00  0.00000000E+00  0.00000000E+00
  0.00000000E+00  0.00000000E+00  0.00000000E+00
  0.00000000E+00  0.00000000E+00  0.00000000E+00
  0.00000000E+00  0.00000000E+00  0.00000000E+00
  0.00000000E+00  0.00000000E+00  0.00000000E+00
  0.00000000E+00  0.00000000E+00  0.00000000E+00
  0.00000000E+00  0.00000000E+00  0.00000000E+00
  0.00000000E+00  0.00000000E+00  0.00000000E+00
  0.00000000E+00  0.00000000E+00  0.00000000E+00
  0.00000000E+00  0.00000000E+00  0.00000000E+00
  0.00000000E+00  0.00000000E+00  0.00000000E+00
  0.00000000E+00  0.00000000E+00  0.00000000E+00
  0.00000000E+00  0.00000000E+00  0.00000000E+00
  0.00000000E+00  0.00000000E+00  0.00000000E+00
  0.00000000E+00  0.00000000E+00  0.00000000E+00
  0.00000000E+00  0.00000000E+00  0.00000000E+00
  0.00000000E+00  0.00000000E+00  0.00000000E+00
  0.00000000E+00  0.00000000E+00  0.00000000E+00
  0.00000000E+00  0.00000000E+00  0.00000000E+00
  0.00000000E+00  0.00000000E+00  0.00000000E+00
  0.00000000E+00  0.00000000E+00  0.00000000E+00
  0.00000000E+00  0.00000000E+00  0.00000000E+00
  0.00000000E+00  0.00000000E+00  0.00000000E+00
  0.00000000E+00  0.00000000E+00  0.00000000E+00
  0.00000000E+00  0.00000000E+00  0.00000000E+00
  0.00000000E+00  0.00000000E+00  0.00000000E+00
  0.00000000E+00  0.00000000E+00  0.00000000E+00
  0.00000000E+00  0.00000000E+00  0.00000000E+00
  0.00000000E+00  0.00000000E+00  0.00000000E+00
  0.00000000E+00  0.00000000E+00  0.00000000E+00
  0.00000000E+00  0.00000000E+00  0.00000000E+00
  0.00000000E+00  0.00000000E+00  0.00000000E+00
  0.00000000E+00  0.00000000E+00  0.00000000E+00
  0.00000000E+00  0.00000000E+00  0.00000000E+00
  0.00000000E+00  0.00000000E+00  0.00000000E+00
  0.00000000E+00  0.00000000E+00  0.00000000E+00
  0.00000000E+00  0.00000000E+00  0.00000000E+00
  0.00000000E+00  0.00000000E+00  0.00000000E+00
  0.00000000E+00  0.00000000E+00  0.00000000E+00
  0.00000000E+00  0.00000000E+00  0.00000000E+00
  0.00000000E+00  0.00000000E+00  0.00000000E+00
  0.00000000E+00  0.00000000E+00  0.00000000E+00
  0.00000000E+00  0.00000000E+00  0.00000000E+00
  0.00000000E+00  0.00000000E+00  0.00000000E+00
  0.00000000E+00  0.00000000E+00  0.00000000E+00
  0.00000000E+00  0.00000000E+00  0.00000000E+00
  0.00000000E+00  0.00000000E+00  0.00000000E+00
  0.00000000E+00  0.00000000E+00  0.00000000E+00
  0.00000000E+00  0.00000000E+00  0.00000000E+00
  0.00000000E+00  0.00000000E+00  0.00000000E+00
  0.00000000E+00  0.00000000E+00  0.00000000E+00
  0.00000000E+00  0.00000000E+00  0.00000000E+00
