CONTCAR\(10)                            
   1.00000000000000     
    12.0853004455999997    0.0000000000000000    0.0000000000000000
     0.0000000000000000   13.7131004332999993    0.0000000000000000
     0.0000000000000000    0.0000000000000000   20.3784999846999995
   Zr   Te   O    H 
     6    30     1     1
Direct
  0.9938966835776170  0.5000678968166186  0.4593338036556144
  0.1674864660413696  0.0000971984874519  0.5475895801409122
  0.3344938964154309  0.5000801598021898  0.4224358005052973
  0.5013799371887241  0.0001486375002280  0.5479491525476635
  0.6757858361835376  0.5000998406751983  0.4599945383380297
  0.8342121077597371  0.0000971427634325  0.5530349695762347
  0.1796386387740434  0.5001479493897395  0.5533920892558633
  0.9965488724214887  0.0001831819310402  0.4401944166106927
  0.1352480667740019  0.6025161084349776  0.3663182005930684
  0.0035000918845346  0.8984927457720258  0.6324657713740321
  0.0035511859445214  0.1015705255127749  0.6325717543655901
  0.1353072071716790  0.3975992947968345  0.3663484580419865
  0.0019837718230294  0.3141305659507586  0.5333329857248571
  0.1653820580103488  0.1842851723305905  0.4686958696293770
  0.1654284223850088  0.8160442105984805  0.4684748153200747
  0.0022150626281241  0.6861087085239639  0.5332113028871739
  0.4902942696365764  0.5002821816313593  0.5543305264479869
  0.3344683581884231  0.0001339421547687  0.4372715960948637
  0.5357512927724359  0.6013553214849664  0.3657924446226551
  0.3341877047514389  0.8988947098802401  0.6295075637522137
  0.3342241958109847  0.1011255692570810  0.6296164993879648
  0.5356913673985770  0.3986773147348517  0.3658645443199469
  0.3351532615836386  0.3243590706089911  0.5159306694304190
  0.5036412667653554  0.1838578604078530  0.4688237332598560
  0.5036591393137069  0.8166513796945303  0.4685986007103654
  0.3351727865801108  0.6759477038081446  0.5158063097026611
  0.8357025148839418  0.5000511140774591  0.5711879759885023
  0.6720404566245102  0.0003625623130813  0.4402932540194048
  0.8341696072346186  0.6006271588261948  0.3728531042895624
  0.6653017910315895  0.8984146627800565  0.6327125706915865
  0.6654122551435017  0.1016136203220647  0.6328727691757920
  0.8341667296109887  0.3994508246399149  0.3728981987487686
  0.6666192403159337  0.3138417604059415  0.5336994946222838
  0.8341596135674789  0.1829873366514498  0.4751850556304370
  0.8341264552109318  0.8172257339118375  0.4751173710265079
  0.6665473618230461  0.6865189074215686  0.5335425933807615
  0.3445614905482338  0.5001125723904284  0.3196782307037556
  0.2797705602207931  0.5000793323109092  0.2912235234272763
 
  0.00000000E+00  0.00000000E+00  0.00000000E+00
  0.00000000E+00  0.00000000E+00  0.00000000E+00
  0.00000000E+00  0.00000000E+00  0.00000000E+00
  0.00000000E+00  0.00000000E+00  0.00000000E+00
  0.00000000E+00  0.00000000E+00  0.00000000E+00
  0.00000000E+00  0.00000000E+00  0.00000000E+00
  0.00000000E+00  0.00000000E+00  0.00000000E+00
  0.00000000E+00  0.00000000E+00  0.00000000E+00
  0.00000000E+00  0.00000000E+00  0.00000000E+00
  0.00000000E+00  0.00000000E+00  0.00000000E+00
  0.00000000E+00  0.00000000E+00  0.00000000E+00
  0.00000000E+00  0.00000000E+00  0.00000000E+00
  0.00000000E+00  0.00000000E+00  0.00000000E+00
  0.00000000E+00  0.00000000E+00  0.00000000E+00
  0.00000000E+00  0.00000000E+00  0.00000000E+00
  0.00000000E+00  0.00000000E+00  0.00000000E+00
  0.00000000E+00  0.00000000E+00  0.00000000E+00
  0.00000000E+00  0.00000000E+00  0.00000000E+00
  0.00000000E+00  0.00000000E+00  0.00000000E+00
  0.00000000E+00  0.00000000E+00  0.00000000E+00
  0.00000000E+00  0.00000000E+00  0.00000000E+00
  0.00000000E+00  0.00000000E+00  0.00000000E+00
  0.00000000E+00  0.00000000E+00  0.00000000E+00
  0.00000000E+00  0.00000000E+00  0.00000000E+00
  0.00000000E+00  0.00000000E+00  0.00000000E+00
  0.00000000E+00  0.00000000E+00  0.00000000E+00
  0.00000000E+00  0.00000000E+00  0.00000000E+00
  0.00000000E+00  0.00000000E+00  0.00000000E+00
  0.00000000E+00  0.00000000E+00  0.00000000E+00
  0.00000000E+00  0.00000000E+00  0.00000000E+00
  0.00000000E+00  0.00000000E+00  0.00000000E+00
  0.00000000E+00  0.00000000E+00  0.00000000E+00
  0.00000000E+00  0.00000000E+00  0.00000000E+00
  0.00000000E+00  0.00000000E+00  0.00000000E+00
  0.00000000E+00  0.00000000E+00  0.00000000E+00
  0.00000000E+00  0.00000000E+00  0.00000000E+00
  0.00000000E+00  0.00000000E+00  0.00000000E+00
  0.00000000E+00  0.00000000E+00  0.00000000E+00
