CONTCAR\(9)                             
   1.00000000000000     
    12.6978998183999998    0.0000000000000000    0.0000000000000000
     0.0000000000000000   11.4748001099000003    0.0000000000000000
     0.0000000000000000    0.0000000000000000   18.8323001862000012
   Ta   Si   Te
    12     4    24
Direct
  0.3322965674355558  0.5851231460162651  0.5000000000000000
  0.0822965674355558  0.4148768539837349  0.5000000000000000
  0.4842798387760752  0.9380001499735684  0.5000000000000000
  0.2342798197760771  0.0619998810264306  0.5000000000000000
  0.3488868692539668  0.2847003794602756  0.5000000000000000
  0.0988868882539649  0.7152995785397280  0.5000000000000000
  0.8322966054355589  0.5851231460162651  0.5000000000000000
  0.5822965864355609  0.4148768539837349  0.5000000000000000
  0.9842798387760752  0.9380001499735684  0.5000000000000000
  0.7342798577760803  0.0619998810264306  0.5000000000000000
  0.8488868692539668  0.2847003794602756  0.5000000000000000
  0.5988868882539649  0.7152995785397280  0.5000000000000000
  0.2881155215750724  0.8249033947864177  0.5000000000000000
  0.0381155265750692  0.1750965422135806  0.5000000000000000
  0.7881155025750672  0.8249033947864177  0.5000000000000000
  0.5381155215750724  0.1750965422135806  0.5000000000000000
  0.3986131594575966  0.0942490540772525  0.6002237517862454
  0.1486131414576022  0.9057509349227431  0.3997762982137516
  0.1486131414576022  0.9057509349227431  0.6002237517862454
  0.3986131594575966  0.0942490540772525  0.3997762982137516
  0.4272961924921290  0.7469332232162742  0.5972231481473500
  0.1772961924921290  0.2530667977837240  0.4027768268526515
  0.1772961924921290  0.2530667977837240  0.5972231481473500
  0.4272961924921290  0.7469332232162742  0.4027768268526515
  0.4241262750299413  0.4327192129104205  0.6027198534557101
  0.1741262560299361  0.5672807870895795  0.3972801725442920
  0.1741262560299361  0.5672807870895795  0.6027298294557113
  0.4241262750299413  0.4327192129104205  0.3972801725442920
  0.8986131594575966  0.0942490540772525  0.6002237517862454
  0.6486131784576017  0.9057509349227431  0.3997762982137516
  0.6486131784576017  0.9057509349227431  0.6002237517862454
  0.8986131594575966  0.0942490540772525  0.3997762982137516
  0.9272961554921224  0.7469332232162742  0.5972231481473500
  0.6772961734921239  0.2530667977837240  0.4027768268526515
  0.6772961734921239  0.2530667977837240  0.5972231481473500
  0.9272961554921224  0.7469332232162742  0.4027768268526515
  0.9241262380299418  0.4327192129104205  0.6027198534557101
  0.6741262560299361  0.5672807870895795  0.3972801725442920
  0.6741262560299361  0.5672807870895795  0.6027298294557113
  0.9241262380299418  0.4327192129104205  0.3972801725442920
 
  0.00000000E+00  0.00000000E+00  0.00000000E+00
  0.00000000E+00  0.00000000E+00  0.00000000E+00
  0.00000000E+00  0.00000000E+00  0.00000000E+00
  0.00000000E+00  0.00000000E+00  0.00000000E+00
  0.00000000E+00  0.00000000E+00  0.00000000E+00
  0.00000000E+00  0.00000000E+00  0.00000000E+00
  0.00000000E+00  0.00000000E+00  0.00000000E+00
  0.00000000E+00  0.00000000E+00  0.00000000E+00
  0.00000000E+00  0.00000000E+00  0.00000000E+00
  0.00000000E+00  0.00000000E+00  0.00000000E+00
  0.00000000E+00  0.00000000E+00  0.00000000E+00
  0.00000000E+00  0.00000000E+00  0.00000000E+00
  0.00000000E+00  0.00000000E+00  0.00000000E+00
  0.00000000E+00  0.00000000E+00  0.00000000E+00
  0.00000000E+00  0.00000000E+00  0.00000000E+00
  0.00000000E+00  0.00000000E+00  0.00000000E+00
  0.00000000E+00  0.00000000E+00  0.00000000E+00
  0.00000000E+00  0.00000000E+00  0.00000000E+00
  0.00000000E+00  0.00000000E+00  0.00000000E+00
  0.00000000E+00  0.00000000E+00  0.00000000E+00
  0.00000000E+00  0.00000000E+00  0.00000000E+00
  0.00000000E+00  0.00000000E+00  0.00000000E+00
  0.00000000E+00  0.00000000E+00  0.00000000E+00
  0.00000000E+00  0.00000000E+00  0.00000000E+00
  0.00000000E+00  0.00000000E+00  0.00000000E+00
  0.00000000E+00  0.00000000E+00  0.00000000E+00
  0.00000000E+00  0.00000000E+00  0.00000000E+00
  0.00000000E+00  0.00000000E+00  0.00000000E+00
  0.00000000E+00  0.00000000E+00  0.00000000E+00
  0.00000000E+00  0.00000000E+00  0.00000000E+00
  0.00000000E+00  0.00000000E+00  0.00000000E+00
  0.00000000E+00  0.00000000E+00  0.00000000E+00
  0.00000000E+00  0.00000000E+00  0.00000000E+00
  0.00000000E+00  0.00000000E+00  0.00000000E+00
  0.00000000E+00  0.00000000E+00  0.00000000E+00
  0.00000000E+00  0.00000000E+00  0.00000000E+00
  0.00000000E+00  0.00000000E+00  0.00000000E+00
  0.00000000E+00  0.00000000E+00  0.00000000E+00
  0.00000000E+00  0.00000000E+00  0.00000000E+00
  0.00000000E+00  0.00000000E+00  0.00000000E+00
