 Zr2 Cl2                                
   1.00000000000000     
     3.4146389451293335    0.0000000000000000    0.0000000000000000
    -1.7073184801949670    2.9589832145114685    0.0000000000000000
     0.0000000000000000    0.0000000000000000   20.8739312016000014
   Zr   Cl
     2     2
Direct
  0.1671055698207411  0.3342115891129538  0.5568994486461207
  0.5008751029443985  0.0017500599516751  0.4431015388290547
  0.8339450254381333  0.6678902919725331  0.6404787590198424
  0.8340373017967266  0.6680750589628417  0.3595202535049822
 
  0.00000000E+00  0.00000000E+00  0.00000000E+00
  0.00000000E+00  0.00000000E+00  0.00000000E+00
  0.00000000E+00  0.00000000E+00  0.00000000E+00
  0.00000000E+00  0.00000000E+00  0.00000000E+00
