G   69   69    1    0.005     # Parameters to Generate KPOINTS (Don't Edit This Line)
    1225
Reciprocal lattice
    0.000000000000    0.000000000000    0.000000000000       1
    0.014492753623    0.000000000000    0.000000000000       4
    0.028985507246    0.000000000000    0.000000000000       4
    0.043478260870    0.000000000000    0.000000000000       4
    0.057971014493    0.000000000000    0.000000000000       4
    0.072463768116    0.000000000000    0.000000000000       4
    0.086956521739    0.000000000000    0.000000000000       4
    0.101449275362    0.000000000000    0.000000000000       4
    0.115942028986    0.000000000000    0.000000000000       4
    0.130434782609    0.000000000000    0.000000000000       4
    0.144927536232    0.000000000000    0.000000000000       4
    0.159420289855    0.000000000000    0.000000000000       4
    0.173913043478    0.000000000000    0.000000000000       4
    0.188405797101    0.000000000000    0.000000000000       4
    0.202898550725    0.000000000000    0.000000000000       4
    0.217391304348    0.000000000000    0.000000000000       4
    0.231884057971    0.000000000000    0.000000000000       4
    0.246376811594    0.000000000000    0.000000000000       4
    0.260869565217    0.000000000000    0.000000000000       4
    0.275362318841    0.000000000000    0.000000000000       4
    0.289855072464    0.000000000000    0.000000000000       4
    0.304347826087    0.000000000000    0.000000000000       4
    0.318840579710    0.000000000000    0.000000000000       4
    0.333333333333    0.000000000000    0.000000000000       4
    0.347826086957    0.000000000000    0.000000000000       4
    0.362318840580    0.000000000000    0.000000000000       4
    0.376811594203    0.000000000000    0.000000000000       4
    0.391304347826    0.000000000000    0.000000000000       4
    0.405797101449    0.000000000000    0.000000000000       4
    0.420289855072    0.000000000000    0.000000000000       4
    0.434782608696    0.000000000000    0.000000000000       4
    0.449275362319    0.000000000000    0.000000000000       4
    0.463768115942    0.000000000000    0.000000000000       4
    0.478260869565    0.000000000000    0.000000000000       4
    0.492753623188    0.000000000000    0.000000000000       4
    0.000000000000    0.014492753623    0.000000000000       2
    0.014492753623    0.014492753623    0.000000000000       4
    0.028985507246    0.014492753623    0.000000000000       4
    0.043478260870    0.014492753623    0.000000000000       4
    0.057971014493    0.014492753623    0.000000000000       4
    0.072463768116    0.014492753623    0.000000000000       4
    0.086956521739    0.014492753623    0.000000000000       4
    0.101449275362    0.014492753623    0.000000000000       4
    0.115942028986    0.014492753623    0.000000000000       4
    0.130434782609    0.014492753623    0.000000000000       4
    0.144927536232    0.014492753623    0.000000000000       4
    0.159420289855    0.014492753623    0.000000000000       4
    0.173913043478    0.014492753623    0.000000000000       4
    0.188405797101    0.014492753623    0.000000000000       4
    0.202898550725    0.014492753623    0.000000000000       4
    0.217391304348    0.014492753623    0.000000000000       4
    0.231884057971    0.014492753623    0.000000000000       4
    0.246376811594    0.014492753623    0.000000000000       4
    0.260869565217    0.014492753623    0.000000000000       4
    0.275362318841    0.014492753623    0.000000000000       4
    0.289855072464    0.014492753623    0.000000000000       4
    0.304347826087    0.014492753623    0.000000000000       4
    0.318840579710    0.014492753623    0.000000000000       4
    0.333333333333    0.014492753623    0.000000000000       4
    0.347826086957    0.014492753623    0.000000000000       4
    0.362318840580    0.014492753623    0.000000000000       4
    0.376811594203    0.014492753623    0.000000000000       4
    0.391304347826    0.014492753623    0.000000000000       4
    0.405797101449    0.014492753623    0.000000000000       4
    0.420289855072    0.014492753623    0.000000000000       4
    0.434782608696    0.014492753623    0.000000000000       4
    0.449275362319    0.014492753623    0.000000000000       4
    0.463768115942    0.014492753623    0.000000000000       4
    0.478260869565    0.014492753623    0.000000000000       4
    0.492753623188    0.014492753623    0.000000000000       4
   -0.492753623188    0.014492753623    0.000000000000       4
   -0.478260869565    0.014492753623    0.000000000000       4
   -0.463768115942    0.014492753623    0.000000000000       4
   -0.449275362319    0.014492753623    0.000000000000       4
   -0.434782608696    0.014492753623    0.000000000000       4
   -0.420289855072    0.014492753623    0.000000000000       4
   -0.405797101449    0.014492753623    0.000000000000       4
   -0.391304347826    0.014492753623    0.000000000000       4
   -0.376811594203    0.014492753623    0.000000000000       4
   -0.362318840580    0.014492753623    0.000000000000       4
   -0.347826086957    0.014492753623    0.000000000000       4
   -0.333333333333    0.014492753623    0.000000000000       4
   -0.318840579710    0.014492753623    0.000000000000       4
   -0.304347826087    0.014492753623    0.000000000000       4
   -0.289855072464    0.014492753623    0.000000000000       4
   -0.275362318841    0.014492753623    0.000000000000       4
   -0.260869565217    0.014492753623    0.000000000000       4
   -0.246376811594    0.014492753623    0.000000000000       4
   -0.231884057971    0.014492753623    0.000000000000       4
   -0.217391304348    0.014492753623    0.000000000000       4
   -0.202898550725    0.014492753623    0.000000000000       4
   -0.188405797101    0.014492753623    0.000000000000       4
   -0.173913043478    0.014492753623    0.000000000000       4
   -0.159420289855    0.014492753623    0.000000000000       4
   -0.144927536232    0.014492753623    0.000000000000       4
   -0.130434782609    0.014492753623    0.000000000000       4
   -0.115942028986    0.014492753623    0.000000000000       4
   -0.101449275362    0.014492753623    0.000000000000       4
   -0.086956521739    0.014492753623    0.000000000000       4
   -0.072463768116    0.014492753623    0.000000000000       4
   -0.057971014493    0.014492753623    0.000000000000       4
   -0.043478260870    0.014492753623    0.000000000000       4
   -0.028985507246    0.014492753623    0.000000000000       2
    0.000000000000    0.028985507246    0.000000000000       2
    0.014492753623    0.028985507246    0.000000000000       4
    0.028985507246    0.028985507246    0.000000000000       4
    0.043478260870    0.028985507246    0.000000000000       4
    0.057971014493    0.028985507246    0.000000000000       4
    0.072463768116    0.028985507246    0.000000000000       4
    0.086956521739    0.028985507246    0.000000000000       4
    0.101449275362    0.028985507246    0.000000000000       4
    0.115942028986    0.028985507246    0.000000000000       4
    0.130434782609    0.028985507246    0.000000000000       4
    0.144927536232    0.028985507246    0.000000000000       4
    0.159420289855    0.028985507246    0.000000000000       4
    0.173913043478    0.028985507246    0.000000000000       4
    0.188405797101    0.028985507246    0.000000000000       4
    0.202898550725    0.028985507246    0.000000000000       4
    0.217391304348    0.028985507246    0.000000000000       4
    0.231884057971    0.028985507246    0.000000000000       4
    0.246376811594    0.028985507246    0.000000000000       4
    0.260869565217    0.028985507246    0.000000000000       4
    0.275362318841    0.028985507246    0.000000000000       4
    0.289855072464    0.028985507246    0.000000000000       4
    0.304347826087    0.028985507246    0.000000000000       4
    0.318840579710    0.028985507246    0.000000000000       4
    0.333333333333    0.028985507246    0.000000000000       4
    0.347826086957    0.028985507246    0.000000000000       4
    0.362318840580    0.028985507246    0.000000000000       4
    0.376811594203    0.028985507246    0.000000000000       4
    0.391304347826    0.028985507246    0.000000000000       4
    0.405797101449    0.028985507246    0.000000000000       4
    0.420289855072    0.028985507246    0.000000000000       4
    0.434782608696    0.028985507246    0.000000000000       4
    0.449275362319    0.028985507246    0.000000000000       4
    0.463768115942    0.028985507246    0.000000000000       4
    0.478260869565    0.028985507246    0.000000000000       4
    0.492753623188    0.028985507246    0.000000000000       4
   -0.492753623188    0.028985507246    0.000000000000       4
   -0.478260869565    0.028985507246    0.000000000000       4
   -0.463768115942    0.028985507246    0.000000000000       4
   -0.449275362319    0.028985507246    0.000000000000       4
   -0.434782608696    0.028985507246    0.000000000000       4
   -0.420289855072    0.028985507246    0.000000000000       4
   -0.405797101449    0.028985507246    0.000000000000       4
   -0.391304347826    0.028985507246    0.000000000000       4
   -0.376811594203    0.028985507246    0.000000000000       4
   -0.362318840580    0.028985507246    0.000000000000       4
   -0.347826086957    0.028985507246    0.000000000000       4
   -0.333333333333    0.028985507246    0.000000000000       4
   -0.318840579710    0.028985507246    0.000000000000       4
   -0.304347826087    0.028985507246    0.000000000000       4
   -0.289855072464    0.028985507246    0.000000000000       4
   -0.275362318841    0.028985507246    0.000000000000       4
   -0.260869565217    0.028985507246    0.000000000000       4
   -0.246376811594    0.028985507246    0.000000000000       4
   -0.231884057971    0.028985507246    0.000000000000       4
   -0.217391304348    0.028985507246    0.000000000000       4
   -0.202898550725    0.028985507246    0.000000000000       4
   -0.188405797101    0.028985507246    0.000000000000       4
   -0.173913043478    0.028985507246    0.000000000000       4
   -0.159420289855    0.028985507246    0.000000000000       4
   -0.144927536232    0.028985507246    0.000000000000       4
   -0.130434782609    0.028985507246    0.000000000000       4
   -0.115942028986    0.028985507246    0.000000000000       4
   -0.101449275362    0.028985507246    0.000000000000       4
   -0.086956521739    0.028985507246    0.000000000000       4
   -0.072463768116    0.028985507246    0.000000000000       4
   -0.057971014493    0.028985507246    0.000000000000       2
    0.000000000000    0.043478260870    0.000000000000       2
    0.014492753623    0.043478260870    0.000000000000       4
    0.028985507246    0.043478260870    0.000000000000       4
    0.043478260870    0.043478260870    0.000000000000       4
    0.057971014493    0.043478260870    0.000000000000       4
    0.072463768116    0.043478260870    0.000000000000       4
    0.086956521739    0.043478260870    0.000000000000       4
    0.101449275362    0.043478260870    0.000000000000       4
    0.115942028986    0.043478260870    0.000000000000       4
    0.130434782609    0.043478260870    0.000000000000       4
    0.144927536232    0.043478260870    0.000000000000       4
    0.159420289855    0.043478260870    0.000000000000       4
    0.173913043478    0.043478260870    0.000000000000       4
    0.188405797101    0.043478260870    0.000000000000       4
    0.202898550725    0.043478260870    0.000000000000       4
    0.217391304348    0.043478260870    0.000000000000       4
    0.231884057971    0.043478260870    0.000000000000       4
    0.246376811594    0.043478260870    0.000000000000       4
    0.260869565217    0.043478260870    0.000000000000       4
    0.275362318841    0.043478260870    0.000000000000       4
    0.289855072464    0.043478260870    0.000000000000       4
    0.304347826087    0.043478260870    0.000000000000       4
    0.318840579710    0.043478260870    0.000000000000       4
    0.333333333333    0.043478260870    0.000000000000       4
    0.347826086957    0.043478260870    0.000000000000       4
    0.362318840580    0.043478260870    0.000000000000       4
    0.376811594203    0.043478260870    0.000000000000       4
    0.391304347826    0.043478260870    0.000000000000       4
    0.405797101449    0.043478260870    0.000000000000       4
    0.420289855072    0.043478260870    0.000000000000       4
    0.434782608696    0.043478260870    0.000000000000       4
    0.449275362319    0.043478260870    0.000000000000       4
    0.463768115942    0.043478260870    0.000000000000       4
    0.478260869565    0.043478260870    0.000000000000       4
    0.492753623188    0.043478260870    0.000000000000       4
   -0.492753623188    0.043478260870    0.000000000000       4
   -0.478260869565    0.043478260870    0.000000000000       4
   -0.463768115942    0.043478260870    0.000000000000       4
   -0.449275362319    0.043478260870    0.000000000000       4
   -0.434782608696    0.043478260870    0.000000000000       4
   -0.420289855072    0.043478260870    0.000000000000       4
   -0.405797101449    0.043478260870    0.000000000000       4
   -0.391304347826    0.043478260870    0.000000000000       4
   -0.376811594203    0.043478260870    0.000000000000       4
   -0.362318840580    0.043478260870    0.000000000000       4
   -0.347826086957    0.043478260870    0.000000000000       4
   -0.333333333333    0.043478260870    0.000000000000       4
   -0.318840579710    0.043478260870    0.000000000000       4
   -0.304347826087    0.043478260870    0.000000000000       4
   -0.289855072464    0.043478260870    0.000000000000       4
   -0.275362318841    0.043478260870    0.000000000000       4
   -0.260869565217    0.043478260870    0.000000000000       4
   -0.246376811594    0.043478260870    0.000000000000       4
   -0.231884057971    0.043478260870    0.000000000000       4
   -0.217391304348    0.043478260870    0.000000000000       4
   -0.202898550725    0.043478260870    0.000000000000       4
   -0.188405797101    0.043478260870    0.000000000000       4
   -0.173913043478    0.043478260870    0.000000000000       4
   -0.159420289855    0.043478260870    0.000000000000       4
   -0.144927536232    0.043478260870    0.000000000000       4
   -0.130434782609    0.043478260870    0.000000000000       4
   -0.115942028986    0.043478260870    0.000000000000       4
   -0.101449275362    0.043478260870    0.000000000000       4
   -0.086956521739    0.043478260870    0.000000000000       2
    0.000000000000    0.057971014493    0.000000000000       2
    0.014492753623    0.057971014493    0.000000000000       4
    0.028985507246    0.057971014493    0.000000000000       4
    0.043478260870    0.057971014493    0.000000000000       4
    0.057971014493    0.057971014493    0.000000000000       4
    0.072463768116    0.057971014493    0.000000000000       4
    0.086956521739    0.057971014493    0.000000000000       4
    0.101449275362    0.057971014493    0.000000000000       4
    0.115942028986    0.057971014493    0.000000000000       4
    0.130434782609    0.057971014493    0.000000000000       4
    0.144927536232    0.057971014493    0.000000000000       4
    0.159420289855    0.057971014493    0.000000000000       4
    0.173913043478    0.057971014493    0.000000000000       4
    0.188405797101    0.057971014493    0.000000000000       4
    0.202898550725    0.057971014493    0.000000000000       4
    0.217391304348    0.057971014493    0.000000000000       4
    0.231884057971    0.057971014493    0.000000000000       4
    0.246376811594    0.057971014493    0.000000000000       4
    0.260869565217    0.057971014493    0.000000000000       4
    0.275362318841    0.057971014493    0.000000000000       4
    0.289855072464    0.057971014493    0.000000000000       4
    0.304347826087    0.057971014493    0.000000000000       4
    0.318840579710    0.057971014493    0.000000000000       4
    0.333333333333    0.057971014493    0.000000000000       4
    0.347826086957    0.057971014493    0.000000000000       4
    0.362318840580    0.057971014493    0.000000000000       4
    0.376811594203    0.057971014493    0.000000000000       4
    0.391304347826    0.057971014493    0.000000000000       4
    0.405797101449    0.057971014493    0.000000000000       4
    0.420289855072    0.057971014493    0.000000000000       4
    0.434782608696    0.057971014493    0.000000000000       4
    0.449275362319    0.057971014493    0.000000000000       4
    0.463768115942    0.057971014493    0.000000000000       4
    0.478260869565    0.057971014493    0.000000000000       4
    0.492753623188    0.057971014493    0.000000000000       4
   -0.492753623188    0.057971014493    0.000000000000       4
   -0.478260869565    0.057971014493    0.000000000000       4
   -0.463768115942    0.057971014493    0.000000000000       4
   -0.449275362319    0.057971014493    0.000000000000       4
   -0.434782608696    0.057971014493    0.000000000000       4
   -0.420289855072    0.057971014493    0.000000000000       4
   -0.405797101449    0.057971014493    0.000000000000       4
   -0.391304347826    0.057971014493    0.000000000000       4
   -0.376811594203    0.057971014493    0.000000000000       4
   -0.362318840580    0.057971014493    0.000000000000       4
   -0.347826086957    0.057971014493    0.000000000000       4
   -0.333333333333    0.057971014493    0.000000000000       4
   -0.318840579710    0.057971014493    0.000000000000       4
   -0.304347826087    0.057971014493    0.000000000000       4
   -0.289855072464    0.057971014493    0.000000000000       4
   -0.275362318841    0.057971014493    0.000000000000       4
   -0.260869565217    0.057971014493    0.000000000000       4
   -0.246376811594    0.057971014493    0.000000000000       4
   -0.231884057971    0.057971014493    0.000000000000       4
   -0.217391304348    0.057971014493    0.000000000000       4
   -0.202898550725    0.057971014493    0.000000000000       4
   -0.188405797101    0.057971014493    0.000000000000       4
   -0.173913043478    0.057971014493    0.000000000000       4
   -0.159420289855    0.057971014493    0.000000000000       4
   -0.144927536232    0.057971014493    0.000000000000       4
   -0.130434782609    0.057971014493    0.000000000000       4
   -0.115942028986    0.057971014493    0.000000000000       2
    0.000000000000    0.072463768116    0.000000000000       2
    0.014492753623    0.072463768116    0.000000000000       4
    0.028985507246    0.072463768116    0.000000000000       4
    0.043478260870    0.072463768116    0.000000000000       4
    0.057971014493    0.072463768116    0.000000000000       4
    0.072463768116    0.072463768116    0.000000000000       4
    0.086956521739    0.072463768116    0.000000000000       4
    0.101449275362    0.072463768116    0.000000000000       4
    0.115942028986    0.072463768116    0.000000000000       4
    0.130434782609    0.072463768116    0.000000000000       4
    0.144927536232    0.072463768116    0.000000000000       4
    0.159420289855    0.072463768116    0.000000000000       4
    0.173913043478    0.072463768116    0.000000000000       4
    0.188405797101    0.072463768116    0.000000000000       4
    0.202898550725    0.072463768116    0.000000000000       4
    0.217391304348    0.072463768116    0.000000000000       4
    0.231884057971    0.072463768116    0.000000000000       4
    0.246376811594    0.072463768116    0.000000000000       4
    0.260869565217    0.072463768116    0.000000000000       4
    0.275362318841    0.072463768116    0.000000000000       4
    0.289855072464    0.072463768116    0.000000000000       4
    0.304347826087    0.072463768116    0.000000000000       4
    0.318840579710    0.072463768116    0.000000000000       4
    0.333333333333    0.072463768116    0.000000000000       4
    0.347826086957    0.072463768116    0.000000000000       4
    0.362318840580    0.072463768116    0.000000000000       4
    0.376811594203    0.072463768116    0.000000000000       4
    0.391304347826    0.072463768116    0.000000000000       4
    0.405797101449    0.072463768116    0.000000000000       4
    0.420289855072    0.072463768116    0.000000000000       4
    0.434782608696    0.072463768116    0.000000000000       4
    0.449275362319    0.072463768116    0.000000000000       4
    0.463768115942    0.072463768116    0.000000000000       4
    0.478260869565    0.072463768116    0.000000000000       4
    0.492753623188    0.072463768116    0.000000000000       4
   -0.492753623188    0.072463768116    0.000000000000       4
   -0.478260869565    0.072463768116    0.000000000000       4
   -0.463768115942    0.072463768116    0.000000000000       4
   -0.449275362319    0.072463768116    0.000000000000       4
   -0.434782608696    0.072463768116    0.000000000000       4
   -0.420289855072    0.072463768116    0.000000000000       4
   -0.405797101449    0.072463768116    0.000000000000       4
   -0.391304347826    0.072463768116    0.000000000000       4
   -0.376811594203    0.072463768116    0.000000000000       4
   -0.362318840580    0.072463768116    0.000000000000       4
   -0.347826086957    0.072463768116    0.000000000000       4
   -0.333333333333    0.072463768116    0.000000000000       4
   -0.318840579710    0.072463768116    0.000000000000       4
   -0.304347826087    0.072463768116    0.000000000000       4
   -0.289855072464    0.072463768116    0.000000000000       4
   -0.275362318841    0.072463768116    0.000000000000       4
   -0.260869565217    0.072463768116    0.000000000000       4
   -0.246376811594    0.072463768116    0.000000000000       4
   -0.231884057971    0.072463768116    0.000000000000       4
   -0.217391304348    0.072463768116    0.000000000000       4
   -0.202898550725    0.072463768116    0.000000000000       4
   -0.188405797101    0.072463768116    0.000000000000       4
   -0.173913043478    0.072463768116    0.000000000000       4
   -0.159420289855    0.072463768116    0.000000000000       4
   -0.144927536232    0.072463768116    0.000000000000       2
    0.000000000000    0.086956521739    0.000000000000       2
    0.014492753623    0.086956521739    0.000000000000       4
    0.028985507246    0.086956521739    0.000000000000       4
    0.043478260870    0.086956521739    0.000000000000       4
    0.057971014493    0.086956521739    0.000000000000       4
    0.072463768116    0.086956521739    0.000000000000       4
    0.086956521739    0.086956521739    0.000000000000       4
    0.101449275362    0.086956521739    0.000000000000       4
    0.115942028986    0.086956521739    0.000000000000       4
    0.130434782609    0.086956521739    0.000000000000       4
    0.144927536232    0.086956521739    0.000000000000       4
    0.159420289855    0.086956521739    0.000000000000       4
    0.173913043478    0.086956521739    0.000000000000       4
    0.188405797101    0.086956521739    0.000000000000       4
    0.202898550725    0.086956521739    0.000000000000       4
    0.217391304348    0.086956521739    0.000000000000       4
    0.231884057971    0.086956521739    0.000000000000       4
    0.246376811594    0.086956521739    0.000000000000       4
    0.260869565217    0.086956521739    0.000000000000       4
    0.275362318841    0.086956521739    0.000000000000       4
    0.289855072464    0.086956521739    0.000000000000       4
    0.304347826087    0.086956521739    0.000000000000       4
    0.318840579710    0.086956521739    0.000000000000       4
    0.333333333333    0.086956521739    0.000000000000       4
    0.347826086957    0.086956521739    0.000000000000       4
    0.362318840580    0.086956521739    0.000000000000       4
    0.376811594203    0.086956521739    0.000000000000       4
    0.391304347826    0.086956521739    0.000000000000       4
    0.405797101449    0.086956521739    0.000000000000       4
    0.420289855072    0.086956521739    0.000000000000       4
    0.434782608696    0.086956521739    0.000000000000       4
    0.449275362319    0.086956521739    0.000000000000       4
    0.463768115942    0.086956521739    0.000000000000       4
    0.478260869565    0.086956521739    0.000000000000       4
    0.492753623188    0.086956521739    0.000000000000       4
   -0.492753623188    0.086956521739    0.000000000000       4
   -0.478260869565    0.086956521739    0.000000000000       4
   -0.463768115942    0.086956521739    0.000000000000       4
   -0.449275362319    0.086956521739    0.000000000000       4
   -0.434782608696    0.086956521739    0.000000000000       4
   -0.420289855072    0.086956521739    0.000000000000       4
   -0.405797101449    0.086956521739    0.000000000000       4
   -0.391304347826    0.086956521739    0.000000000000       4
   -0.376811594203    0.086956521739    0.000000000000       4
   -0.362318840580    0.086956521739    0.000000000000       4
   -0.347826086957    0.086956521739    0.000000000000       4
   -0.333333333333    0.086956521739    0.000000000000       4
   -0.318840579710    0.086956521739    0.000000000000       4
   -0.304347826087    0.086956521739    0.000000000000       4
   -0.289855072464    0.086956521739    0.000000000000       4
   -0.275362318841    0.086956521739    0.000000000000       4
   -0.260869565217    0.086956521739    0.000000000000       4
   -0.246376811594    0.086956521739    0.000000000000       4
   -0.231884057971    0.086956521739    0.000000000000       4
   -0.217391304348    0.086956521739    0.000000000000       4
   -0.202898550725    0.086956521739    0.000000000000       4
   -0.188405797101    0.086956521739    0.000000000000       4
   -0.173913043478    0.086956521739    0.000000000000       2
    0.000000000000    0.101449275362    0.000000000000       2
    0.014492753623    0.101449275362    0.000000000000       4
    0.028985507246    0.101449275362    0.000000000000       4
    0.043478260870    0.101449275362    0.000000000000       4
    0.057971014493    0.101449275362    0.000000000000       4
    0.072463768116    0.101449275362    0.000000000000       4
    0.086956521739    0.101449275362    0.000000000000       4
    0.101449275362    0.101449275362    0.000000000000       4
    0.115942028986    0.101449275362    0.000000000000       4
    0.130434782609    0.101449275362    0.000000000000       4
    0.144927536232    0.101449275362    0.000000000000       4
    0.159420289855    0.101449275362    0.000000000000       4
    0.173913043478    0.101449275362    0.000000000000       4
    0.188405797101    0.101449275362    0.000000000000       4
    0.202898550725    0.101449275362    0.000000000000       4
    0.217391304348    0.101449275362    0.000000000000       4
    0.231884057971    0.101449275362    0.000000000000       4
    0.246376811594    0.101449275362    0.000000000000       4
    0.260869565217    0.101449275362    0.000000000000       4
    0.275362318841    0.101449275362    0.000000000000       4
    0.289855072464    0.101449275362    0.000000000000       4
    0.304347826087    0.101449275362    0.000000000000       4
    0.318840579710    0.101449275362    0.000000000000       4
    0.333333333333    0.101449275362    0.000000000000       4
    0.347826086957    0.101449275362    0.000000000000       4
    0.362318840580    0.101449275362    0.000000000000       4
    0.376811594203    0.101449275362    0.000000000000       4
    0.391304347826    0.101449275362    0.000000000000       4
    0.405797101449    0.101449275362    0.000000000000       4
    0.420289855072    0.101449275362    0.000000000000       4
    0.434782608696    0.101449275362    0.000000000000       4
    0.449275362319    0.101449275362    0.000000000000       4
    0.463768115942    0.101449275362    0.000000000000       4
    0.478260869565    0.101449275362    0.000000000000       4
    0.492753623188    0.101449275362    0.000000000000       4
   -0.492753623188    0.101449275362    0.000000000000       4
   -0.478260869565    0.101449275362    0.000000000000       4
   -0.463768115942    0.101449275362    0.000000000000       4
   -0.449275362319    0.101449275362    0.000000000000       4
   -0.434782608696    0.101449275362    0.000000000000       4
   -0.420289855072    0.101449275362    0.000000000000       4
   -0.405797101449    0.101449275362    0.000000000000       4
   -0.391304347826    0.101449275362    0.000000000000       4
   -0.376811594203    0.101449275362    0.000000000000       4
   -0.362318840580    0.101449275362    0.000000000000       4
   -0.347826086957    0.101449275362    0.000000000000       4
   -0.333333333333    0.101449275362    0.000000000000       4
   -0.318840579710    0.101449275362    0.000000000000       4
   -0.304347826087    0.101449275362    0.000000000000       4
   -0.289855072464    0.101449275362    0.000000000000       4
   -0.275362318841    0.101449275362    0.000000000000       4
   -0.260869565217    0.101449275362    0.000000000000       4
   -0.246376811594    0.101449275362    0.000000000000       4
   -0.231884057971    0.101449275362    0.000000000000       4
   -0.217391304348    0.101449275362    0.000000000000       4
   -0.202898550725    0.101449275362    0.000000000000       2
    0.000000000000    0.115942028986    0.000000000000       2
    0.014492753623    0.115942028986    0.000000000000       4
    0.028985507246    0.115942028986    0.000000000000       4
    0.043478260870    0.115942028986    0.000000000000       4
    0.057971014493    0.115942028986    0.000000000000       4