CONTCAR\(7)                             
   1.00000000000000     
    12.8648996353000005    0.0000000000000000    0.0000000000000000
    -6.4324498177000002   11.1413299013000007    0.0000000000000000
     0.0000000000000000    0.0000000000000000   18.7835006713999988
   Li   C    O    H 
     9   108     2     1
Direct
  0.9999721491690639  0.0001369980191580  0.5000283700055819
  0.3332639974377768 -0.0001896491805389  0.4995257533885662
  0.6664805168228530 -0.0002845335917330  0.4998153904131181
 -0.0000353179394148  0.3332830412174252  0.4998799731484533
  0.3331987322847272  0.3332853095340463  0.4997305406186863
  0.6666872787755596  0.3335155694652888  0.4999944065239141
  0.0002682692259563  0.6668011987993331  0.4997412867470233
  0.3333167299631881  0.6666038845351582  0.4993563685933761
  0.6667439683646317  0.6668933027685625  0.4998542815268082
  0.2222242145528478  0.0000198623306405  0.3990150172539143
 -0.0000252196729539  0.2222557165995870  0.3995861219966269
  0.1110774687931981  0.1111109820596399  0.3995197215071974
  0.1110701171544157  0.0000133348792769  0.3993290381292277
 -0.0000293402027481  0.1111028592571766  0.3996339820649891
  0.2222166336404598  0.2222427524609061  0.3994606293140880
  0.1111527648217120  0.0001218107321184  0.6004062053352017
 -0.0000247960924445  0.1112558906352564  0.6004315273439629
  0.2222656765503671  0.2223774940109167  0.6002995324588628
  0.2223258844074230  0.0000885651605963  0.6001778357979288
 -0.0000048582433798  0.2224354968516163  0.6003633785295791
  0.1111197943447517  0.1112517273946514  0.6003850733490931
  0.5555404360714327  0.0000074808517734  0.3989956090356807
  0.3333257085373915  0.2222529846089768  0.3994270831863870
  0.4444200615859489  0.1111125606068907  0.3991468603587055
  0.4444057526298463 -0.0000013669418381  0.3988469207021828
  0.3333266925986648  0.1111043512832769  0.3991789611861022
  0.5555552733735414  0.2222500822519276  0.3995131403267122
  0.4442961121249102 -0.0000675674475790  0.5997991088039030
  0.3333580932668329  0.1111386525303081  0.6001720125042482
  0.5555327753966115  0.2223092622754122  0.6002820026812482
  0.5554027286564484 -0.0000257887096001  0.6000136640375456
  0.3333473691221882  0.2224041815387937  0.6002133108635224
  0.4443811240492030  0.1111192304334458  0.6001157643306128
  0.8888797801288472  0.0000198912166742  0.3995755806523040
  0.6666417367713864  0.2222509257321589  0.3995652645574711
  0.7777265827108244  0.1111121180241420  0.3994737911407628
  0.7777323261356562  0.0000221825052943  0.3994089343594392
  0.6666363054199210  0.1111159049710601  0.3993427533838990
  0.8888800972815035  0.2222579792841343  0.3995963058900987
  0.7776324362318099  0.0001268517848595  0.6004060597127842
  0.6665361900046829  0.1111476127228901  0.6002083005944011
  0.8888923897151330  0.2224268790810097  0.6003548850066793
  0.8888709293438198  0.0001602408224219  0.6004691262536549
  0.6665995665238188  0.2223098360555648  0.6002762022548442
  0.7776293088356051  0.1111853794831088  0.6003253069581815
  0.2222226254726318  0.3333613890133131  0.3994270782991537
 -0.0000090354184578  0.5555878798909989  0.3992582893106969
  0.1110835651157454  0.4444561786051718  0.3992283334277681
  0.1110800754075308  0.3333554822686482  0.3994429502011987
 -0.0000139436131398  0.4444567212890005  0.3993877083930532
  0.2222211284989027  0.5555823764790705  0.3989492123768463
  0.1111527699876870  0.3335903733996058  0.6002509232484937
  0.0001151901423483  0.4446899032558745  0.6001451038920775
  0.2223664543538597  0.5559022624005331  0.5997579551457514
  0.2222830005050014  0.3335911694683588  0.6002092008874135
  0.0001681668910022  0.5558450515649804  0.6000851667073188
  0.1112058598436464  0.4447474406266650  0.6000633708991349
  0.5555587257042275  0.3333468503500923  0.3996853617572422
  0.3333174363814498  0.5555849594424989  0.3990287835120925
  0.4444179823611110  0.4444552855285419  0.3995119012668056
  0.4444205780963469  0.3333378251217118  0.3995794690121159
  0.3333180468544081  0.4444487225983713  0.3993007059076693
  0.5555489837979414  0.5555872906314959  0.3995205988181938
  0.4444292299773743  0.3334503374250926  0.6002047057682187
  0.3333585666422484  0.4446647853142283  0.5999931269824038
  0.5555415276104527  0.5557601465549517  0.6001182988343887
  0.5555694711676276  0.3334759686402037  0.6002284464224875
  0.3333355708681163  0.5558844484638032  0.5998115070004320
  0.4444256771049577  0.4446483155462126  0.6000975555285814
  0.8888848228364581  0.3333563561668817  0.3996061606885696
  0.6666495697786685  0.5555840018968395  0.3996720826116755
  0.7777484173526674  0.4444418175089810  0.3997296632575968
  0.7777533113195826  0.3333565738128109  0.3997039033585562
  0.6666492110463155  0.4444408005779353  0.3997772634494214
  0.8888845103190133  0.5555831529608712  0.3995043620612022
  0.7777793384868440  0.3334994683608853  0.6002941969054838
  0.6666871372109601  0.4446020668397752  0.6002289267065024
  0.8890088148989815  0.5557970558541119  0.6002203127494075
  0.8889097524938715  0.3335143158173881  0.6002899657615227
  0.6666799215584744  0.5557552074686112  0.6001831596298408
  0.7777987993141225  0.4446189885573009  0.6002614820064130
  0.2222349101983983  0.6666859385596464  0.3987055610387498
 -0.0000179079787661  0.8889207622377321  0.3993769002405907
  0.1110900295309162  0.7777742325378559  0.3988278254375024
  0.1110929393675975  0.6666821593224042  0.3988526078240582
 -0.0000227255504074  0.7777746906111966  0.3991768778081202
  0.2222228714991028  0.8889099484020745  0.3987063732051954
  0.1112704024310038  0.6669295416601482  0.5998998834490108
  0.0001279259390106  0.7779256512153488  0.6001910166334965
  0.2224036833573754  0.8889819850235230  0.5998024232735836
  0.2224740361145323  0.6670256450716410  0.5995931579739182
  0.0000713133825162  0.8890430980163869  0.6003635662457416
  0.1112686550058671  0.7779017060238200  0.5999697395186887
  0.5555486985164200  0.6666855320144117  0.3992208635748644
  0.3333150345867461  0.8889123404705097  0.3985855402173746
  0.4444053839875057  0.7777799021395996  0.3987200004859514
  0.4444060350153584  0.6666827046177488  0.3989575831795556
  0.3333128213590687  0.7777748457427308  0.3985731023642419
  0.5555342891197652  0.8889110479284896  0.3988917107276565
  0.4442873212108461  0.6668607048967555  0.5997622961640203
  0.3333393169528915  0.7779048353088213  0.5987956611828936
  0.5553707934065116  0.8889884966004086  0.5999871565959928
  0.5554554144626925  0.6668562576221942  0.6000562933647624
  0.3333491603460864  0.8889569706583027  0.5993970271664667
  0.4441902178933422  0.7778899305310163  0.5996295967911981
  0.8888856692996939  0.6666653143440729  0.3994458645619411
  0.6666290549930599  0.8889107842042306  0.3991706187826545
  0.7777502244640750  0.7777811637916120  0.3994659628067844
  0.7777316632673218  0.6666643174332086  0.3995722862077285
  0.6666304297466314  0.7777706829935795  0.3992762167497705
  0.8888752957986196  0.8889193546850481  0.3995278716484109
  0.7777620383400534  0.6668538212077463  0.6002523040854831
  0.6665374353604580  0.7778981277129062  0.6002415453074483
  0.8888865171706949  0.8890517508293828  0.6004224255184188
  0.8890236585159231  0.6668668418514550  0.6002085327054703
  0.6664718279302302  0.8890117435433187  0.6002389855776255
  0.7777545843802575  0.7779355983504607  0.6003450528664521
  0.3363488354650666  0.7665825949151615  0.7407515724393123
  0.3383956413931519  0.7782149567967483  0.8150257580156403
  0.3363616056773613  0.7047325725222572  0.8317221326498005
 
  0.00000000E+00  0.00000000E+00  0.00000000E+00
  0.00000000E+00  0.00000000E+00  0.00000000E+00
  0.00000000E+00  0.00000000E+00  0.00000000E+00
  0.00000000E+00  0.00000000E+00  0.00000000E+00
  0.00000000E+00  0.00000000E+00  0.00000000E+00
  0.00000000E+00  0.00000000E+00  0.00000000E+00
  0.00000000E+00  0.00000000E+00  0.00000000E+00
  0.00000000E+00  0.00000000E+00  0.00000000E+00
  0.00000000E+00  0.00000000E+00  0.00000000E+00
  0.00000000E+00  0.00000000E+00  0.00000000E+00
  0.00000000E+00  0.00000000E+00  0.00000000E+00
  0.00000000E+00  0.00000000E+00  0.00000000E+00
  0.00000000E+00  0.00000000E+00  0.00000000E+00
  0.00000000E+00  0.00000000E+00  0.00000000E+00
  0.00000000E+00  0.00000000E+00  0.00000000E+00
  0.00000000E+00  0.00000000E+00  0.00000000E+00
  0.00000000E+00  0.00000000E+00  0.00000000E+00
  0.00000000E+00  0.00000000E+00  0.00000000E+00
  0.00000000E+00  0.00000000E+00  0.00000000E+00
  0.00000000E+00  0.00000000E+00  0.00000000E+00
  0.00000000E+00  0.00000000E+00  0.00000000E+00
  0.00000000E+00  0.00000000E+00  0.00000000E+00
  0.00000000E+00  0.00000000E+00  0.00000000E+00
  0.00000000E+00  0.00000000E+00  0.00000000E+00
  0.00000000E+00  0.00000000E+00  0.00000000E+00
  0.00000000E+00  0.00000000E+00  0.00000000E+00
  0.00000000E+00  0.00000000E+00  0.00000000E+00
  0.00000000E+00  0.00000000E+00  0.00000000E+00
  0.00000000E+00  0.00000000E+00  0.00000000E+00
  0.00000000E+00  0.00000000E+00  0.00000000E+00
  0.00000000E+00  0.00000000E+00  0.00000000E+00
  0.00000000E+00  0.00000000E+00  0.00000000E+00
  0.00000000E+00  0.00000000E+00  0.00000000E+00
  0.00000000E+00  0.00000000E+00  0.00000000E+00
  0.00000000E+00  0.00000000E+00  0.00000000E+00
  0.00000000E+00  0.00000000E+00  0.00000000E+00
  0.00000000E+00  0.00000000E+00  0.00000000E+00
  0.00000000E+00  0.00000000E+00  0.00000000E+00
  0.00000000E+00  0.00000000E+00  0.00000000E+00
  0.00000000E+00  0.00000000E+00  0.00000000E+00
  0.00000000E+00  0.00000000E+00  0.00000000E+00
  0.00000000E+00  0.00000000E+00  0.00000000E+00
  0.00000000E+00  0.00000000E+00  0.00000000E+00
  0.00000000E+00  0.00000000E+00  0.00000000E+00
  0.00000000E+00  0.00000000E+00  0.00000000E+00
  0.00000000E+00  0.00000000E+00  0.00000000E+00
  0.00000000E+00  0.00000000E+00  0.00000000E+00
  0.00000000E+00  0.00000000E+00  0.00000000E+00
  0.00000000E+00  0.00000000E+00  0.00000000E+00
  0.00000000E+00  0.00000000E+00  0.00000000E+00
  0.00000000E+00  0.00000000E+00  0.00000000E+00
  0.00000000E+00  0.00000000E+00  0.00000000E+00
  0.00000000E+00  0.00000000E+00  0.00000000E+00
  0.00000000E+00  0.00000000E+00  0.00000000E+00
  0.00000000E+00  0.00000000E+00  0.00000000E+00
  0.00000000E+00  0.00000000E+00  0.00000000E+00
  0.00000000E+00  0.00000000E+00  0.00000000E+00
  0.00000000E+00  0.00000000E+00  0.00000000E+00
  0.00000000E+00  0.00000000E+00  0.00000000E+00
  0.00000000E+00  0.00000000E+00  0.00000000E+00
  0.00000000E+00  0.00000000E+00  0.00000000E+00
  0.00000000E+00  0.00000000E+00  0.00000000E+00
  0.00000000E+00  0.00000000E+00  0.00000000E+00
  0.00000000E+00  0.00000000E+00  0.00000000E+00
  0.00000000E+00  0.00000000E+00  0.00000000E+00
  0.00000000E+00  0.00000000E+00  0.00000000E+00
  0.00000000E+00  0.00000000E+00  0.00000000E+00
  0.00000000E+00  0.00000000E+00  0.00000000E+00
  0.00000000E+00  0.00000000E+00  0.00000000E+00
  0.00000000E+00  0.00000000E+00  0.00000000E+00
  0.00000000E+00  0.00000000E+00  0.00000000E+00
  0.00000000E+00  0.00000000E+00  0.00000000E+00
  0.00000000E+00  0.00000000E+00  0.00000000E+00
  0.00000000E+00  0.00000000E+00  0.00000000E+00
  0.00000000E+00  0.00000000E+00  0.00000000E+00
  0.00000000E+00  0.00000000E+00  0.00000000E+00
  0.00000000E+00  0.00000000E+00  0.00000000E+00
  0.00000000E+00  0.00000000E+00  0.00000000E+00
  0.00000000E+00  0.00000000E+00  0.00000000E+00
  0.00000000E+00  0.00000000E+00  0.00000000E+00
  0.00000000E+00  0.00000000E+00  0.00000000E+00
  0.00000000E+00  0.00000000E+00  0.00000000E+00
  0.00000000E+00  0.00000000E+00  0.00000000E+00
  0.00000000E+00  0.00000000E+00  0.00000000E+00
  0.00000000E+00  0.00000000E+00  0.00000000E+00
  0.00000000E+00  0.00000000E+00  0.00000000E+00
  0.00000000E+00  0.00000000E+00  0.00000000E+00
  0.00000000E+00  0.00000000E+00  0.00000000E+00
  0.00000000E+00  0.00000000E+00  0.00000000E+00
  0.00000000E+00  0.00000000E+00  0.00000000E+00
  0.00000000E+00  0.00000000E+00  0.00000000E+00
  0.00000000E+00  0.00000000E+00  0.00000000E+00
  0.00000000E+00  0.00000000E+00  0.00000000E+00
  0.00000000E+00  0.00000000E+00  0.00000000E+00
  0.00000000E+00  0.00000000E+00  0.00000000E+00
  0.00000000E+00  0.00000000E+00  0.00000000E+00
  0.00000000E+00  0.00000000E+00  0.00000000E+00
  0.00000000E+00  0.00000000E+00  0.00000000E+00
  0.00000000E+00  0.00000000E+00  0.00000000E+00
  0.00000000E+00  0.00000000E+00  0.00000000E+00
  0.00000000E+00  0.00000000E+00  0.00000000E+00
  0.00000000E+00  0.00000000E+00  0.00000000E+00
  0.00000000E+00  0.00000000E+00  0.00000000E+00
  0.00000000E+00  0.00000000E+00  0.00000000E+00
  0.00000000E+00  0.00000000E+00  0.00000000E+00
  0.00000000E+00  0.00000000E+00  0.00000000E+00
  0.00000000E+00  0.00000000E+00  0.00000000E+00
  0.00000000E+00  0.00000000E+00  0.00000000E+00
  0.00000000E+00  0.00000000E+00  0.00000000E+00
  0.00000000E+00  0.00000000E+00  0.00000000E+00
  0.00000000E+00  0.00000000E+00  0.00000000E+00
  0.00000000E+00  0.00000000E+00  0.00000000E+00
  0.00000000E+00  0.00000000E+00  0.00000000E+00
  0.00000000E+00  0.00000000E+00  0.00000000E+00
  0.00000000E+00  0.00000000E+00  0.00000000E+00
  0.00000000E+00  0.00000000E+00  0.00000000E+00
  0.00000000E+00  0.00000000E+00  0.00000000E+00
  0.00000000E+00  0.00000000E+00  0.00000000E+00
  0.00000000E+00  0.00000000E+00  0.00000000E+00
  0.00000000E+00  0.00000000E+00  0.00000000E+00
