CONTCAR\(6)                             
   1.00000000000000     
    12.6871004104999994    0.0000000000000000    0.0000000000000000
     6.3137961378999998   11.0849910486999992    0.0000000000000000
     0.0000000000000000    0.0000000000000000   18.1028995514000002
   Ti   Br   O    H 
     8    24     2     1
Direct
  0.0763558753879615  0.3278958717991498  0.4972367460420777
  0.2456619818847135  0.4952926815333507  0.5524012570689684
  0.5913775082664455  0.3205926024604712  0.4946411133114539
  0.7634107994931321  0.4930036115842059  0.4956906104236821
  0.0835713873495489  0.8404553749041187  0.4927495177695069
  0.2499862297020416  0.9860879536236296  0.4931380458960828
  0.5827356256498459  0.8315082409042113  0.4958379935804577
  0.7399287461826515  0.0072153971367029  0.4928592941495849
  0.0974174558646124  0.4903808730405345  0.4356487632693805
  0.2549327825695431  0.2981272718986863  0.5827973764245292
  0.2431090719473782  0.1598965269654022  0.4134032440027036
  0.0842381909334931  0.1553529365291640  0.5751501130364327
  0.4419221055680105  0.4897912321360163  0.5835593598804171
  0.4078973027453052  0.3449899627827516  0.4322718944481852
  0.5954781561502918  0.4883587841433730  0.4143425803832991
  0.7541790367727644  0.3301709088076292  0.5762299268335590
  0.7410287215816327  0.1656480483767909  0.4051422938387598
  0.5930046794347543  0.1638988301154260  0.5845473595585786
  0.9212909084115206  0.4824109023239430  0.5884562845506346
  0.9193117904911215  0.3369891028700838  0.4066382347006707
  0.0911338661474268  0.9891203958261531  0.4033951493029166
  0.2400035928892671  0.8375978420723800  0.5840983018388544
  0.2424309197499311  0.6571506789566038  0.4317458016004006
  0.0518007262462801  0.6959765026818476  0.5785506687982526
  0.4155150711464170  0.9848638769073975  0.5795643409940726
  0.4186649374641753  0.8275002571067790  0.4118157115258858
  0.5810740578549857  0.9959581412181679  0.4111364924916894
  0.7390366525661868  0.8438872647103709  0.5791757630741006
  0.7523689201603951  0.6636182909712187  0.4150605300393095
  0.5955652323443033  0.6607120025880452  0.5784201272583284
  0.9120371092468099  0.0035201277679221  0.5727051093872472
  0.9113266996984749  0.8444543394722195  0.4104901910241739
  0.2250954363054889  0.5160340857440932  0.6553546893082370
  0.3114538287305548  0.4220313142077869  0.7043488745648067
  0.2719241570625434  0.4566485588333650  0.7517361676227053
 
  0.00000000E+00  0.00000000E+00  0.00000000E+00
  0.00000000E+00  0.00000000E+00  0.00000000E+00
  0.00000000E+00  0.00000000E+00  0.00000000E+00
  0.00000000E+00  0.00000000E+00  0.00000000E+00
  0.00000000E+00  0.00000000E+00  0.00000000E+00
  0.00000000E+00  0.00000000E+00  0.00000000E+00
  0.00000000E+00  0.00000000E+00  0.00000000E+00
  0.00000000E+00  0.00000000E+00  0.00000000E+00
  0.00000000E+00  0.00000000E+00  0.00000000E+00
  0.00000000E+00  0.00000000E+00  0.00000000E+00
  0.00000000E+00  0.00000000E+00  0.00000000E+00
  0.00000000E+00  0.00000000E+00  0.00000000E+00
  0.00000000E+00  0.00000000E+00  0.00000000E+00
  0.00000000E+00  0.00000000E+00  0.00000000E+00
  0.00000000E+00  0.00000000E+00  0.00000000E+00
  0.00000000E+00  0.00000000E+00  0.00000000E+00
  0.00000000E+00  0.00000000E+00  0.00000000E+00
  0.00000000E+00  0.00000000E+00  0.00000000E+00
  0.00000000E+00  0.00000000E+00  0.00000000E+00
  0.00000000E+00  0.00000000E+00  0.00000000E+00
  0.00000000E+00  0.00000000E+00  0.00000000E+00
  0.00000000E+00  0.00000000E+00  0.00000000E+00
  0.00000000E+00  0.00000000E+00  0.00000000E+00
  0.00000000E+00  0.00000000E+00  0.00000000E+00
  0.00000000E+00  0.00000000E+00  0.00000000E+00
  0.00000000E+00  0.00000000E+00  0.00000000E+00
  0.00000000E+00  0.00000000E+00  0.00000000E+00
  0.00000000E+00  0.00000000E+00  0.00000000E+00
  0.00000000E+00  0.00000000E+00  0.00000000E+00
  0.00000000E+00  0.00000000E+00  0.00000000E+00
  0.00000000E+00  0.00000000E+00  0.00000000E+00
  0.00000000E+00  0.00000000E+00  0.00000000E+00
  0.00000000E+00  0.00000000E+00  0.00000000E+00
  0.00000000E+00  0.00000000E+00  0.00000000E+00
  0.00000000E+00  0.00000000E+00  0.00000000E+00
