CONTCAR\(6)                             
   1.00000000000000     
    11.3158998488999991    0.0000000000000000    0.0000000000000000
     0.0000000000000000   12.4995002747000008    0.0000000000000000
     0.0000000000000000    0.0000000000000000   18.9974002838000011
   Ta   Te   Ir
     6    24     6
Direct
  0.0000000000000000  0.0508727869518921  0.5044407679007890
  0.1666699989999998  0.7305620852680406  0.4950731407980982
  0.3333300110000010  0.0508727869518921  0.5044407679007890
  0.5000000000000000  0.7305620852680406  0.4950731407980982
  0.6666700099999971  0.0508727869518921  0.5044407679007890
  0.8333299479999994  0.7305620852680406  0.4950731407980982
  0.1666699989999998  0.1055907804509459  0.6057454505898932
  0.0000000000000000  0.8470544774659388  0.5788057154805344
  0.0000000000000000  0.6763155568255428  0.3936708671273053
  0.1666699989999998  0.4342871232123144  0.4277973939575972
  0.1666699989999998  0.9342997277289129  0.4207722382555232
  0.0000000000000000  0.1938076600732828  0.3999958897433658
  0.0000000000000000  0.3469322383624487  0.5710616249881966
  0.1666699989999998  0.5868825651787688  0.5990585925229013
  0.5000000000000000  0.1055907804509459  0.6057454505898932
  0.3333300110000010  0.8470544774659388  0.5788057154805344
  0.3333300110000010  0.6763155568255428  0.3936708671273053
  0.5000000000000000  0.4342871232123144  0.4277973939575972
  0.5000000000000000  0.9342997277289129  0.4207722382555232
  0.3333300110000010  0.1938076600732828  0.3999958897433658
  0.3333300110000010  0.3469322383624487  0.5710616249881966
  0.5000000000000000  0.5868825651787688  0.5990585925229013
  0.8333299479999994  0.1055907804509459  0.6057454505898932
  0.6666700099999971  0.8470544774659388  0.5788057154805344
  0.6666700099999971  0.6763155568255428  0.3936708671273053
  0.8333299479999994  0.4342871232123144  0.4277973939575972
  0.8333299479999994  0.9342997277289129  0.4207722382555232
  0.6666700099999971  0.1938076600732828  0.3999958897433658
  0.6666700099999971  0.3469322383624487  0.5710616249881966
  0.8333299479999994  0.5868825651787688  0.5990585925229013
  0.0000000000000000  0.5353214532334505  0.5015678043203735
  0.1666699989999998  0.2459035492484745  0.4973905353154251
  0.3333300110000010  0.5353214532334505  0.5015678043203735
  0.5000000000000000  0.2459035492484745  0.4973905353154251
  0.6666700099999971  0.5353214532334505  0.5015678043203735
  0.8333299479999994  0.2459035492484745  0.4973905353154251
 
  0.00000000E+00  0.00000000E+00  0.00000000E+00
  0.00000000E+00  0.00000000E+00  0.00000000E+00
  0.00000000E+00  0.00000000E+00  0.00000000E+00
  0.00000000E+00  0.00000000E+00  0.00000000E+00
  0.00000000E+00  0.00000000E+00  0.00000000E+00
  0.00000000E+00  0.00000000E+00  0.00000000E+00
  0.00000000E+00  0.00000000E+00  0.00000000E+00
  0.00000000E+00  0.00000000E+00  0.00000000E+00
  0.00000000E+00  0.00000000E+00  0.00000000E+00
  0.00000000E+00  0.00000000E+00  0.00000000E+00
  0.00000000E+00  0.00000000E+00  0.00000000E+00
  0.00000000E+00  0.00000000E+00  0.00000000E+00
  0.00000000E+00  0.00000000E+00  0.00000000E+00
  0.00000000E+00  0.00000000E+00  0.00000000E+00
  0.00000000E+00  0.00000000E+00  0.00000000E+00
  0.00000000E+00  0.00000000E+00  0.00000000E+00
  0.00000000E+00  0.00000000E+00  0.00000000E+00
  0.00000000E+00  0.00000000E+00  0.00000000E+00
  0.00000000E+00  0.00000000E+00  0.00000000E+00
  0.00000000E+00  0.00000000E+00  0.00000000E+00
  0.00000000E+00  0.00000000E+00  0.00000000E+00
  0.00000000E+00  0.00000000E+00  0.00000000E+00
  0.00000000E+00  0.00000000E+00  0.00000000E+00
  0.00000000E+00  0.00000000E+00  0.00000000E+00
  0.00000000E+00  0.00000000E+00  0.00000000E+00
  0.00000000E+00  0.00000000E+00  0.00000000E+00
  0.00000000E+00  0.00000000E+00  0.00000000E+00
  0.00000000E+00  0.00000000E+00  0.00000000E+00
  0.00000000E+00  0.00000000E+00  0.00000000E+00
  0.00000000E+00  0.00000000E+00  0.00000000E+00
  0.00000000E+00  0.00000000E+00  0.00000000E+00
  0.00000000E+00  0.00000000E+00  0.00000000E+00
  0.00000000E+00  0.00000000E+00  0.00000000E+00
  0.00000000E+00  0.00000000E+00  0.00000000E+00
  0.00000000E+00  0.00000000E+00  0.00000000E+00
  0.00000000E+00  0.00000000E+00  0.00000000E+00
