 Nb9 Ir1 Se20                           
   1.00000000000000     
     6.9101672172999997    0.0000000000000000    0.0000000000000000
     1.7075283835999999   15.0073758753999993    0.0000000000000000
     0.0000000000000000    0.0000000000000000   18.4675712585000014
   Nb   Ir   Se
     9     1    19
Direct
  0.1647119471700224  0.1819242179452800  0.4936974613903963
  0.0061854458283267  0.9792370820629305  0.4992944454086916
  0.7988246430135477  0.8023140025368813  0.5034671364935467
  0.5924539837489565  0.6237110677273167  0.5045997538882208
  0.4966411019381856  0.9833120358936599  0.4998484105176231
  0.3966286111257755  0.4244751629214977  0.4934016158823442
  0.2973640392882389  0.8037784202725424  0.5032561450716859
  0.0935221120065346  0.6217711231093294  0.5044527442431367
  0.8940620611050782  0.3800183598755337  0.4984877590333716
  0.7332674992741651  0.2145239142092115  0.4948366885331873
  0.9396189535625200  0.2624952408266780  0.5951095750158321
  0.1747820817533709  0.3306013262114718  0.4138079295895277
  0.7227254374972701  0.0788698889864384  0.5734224781913758
  0.9555023155431672  0.1239115058419385  0.4056973956565585
  0.5328904617459490  0.8675147588471368  0.5984295902129738
  0.7616060872212053  0.9313194105252425  0.4054705515427137
  0.6587126772119843  0.3374980803943639  0.4047459913017077
  0.3318456730180505  0.6723032198054760  0.6001185345130861
  0.2249020518067991  0.0639609520895488  0.5893934686446856
  0.4786206229237900  0.1404109969558569  0.4234207886535663
  0.5644142353497681  0.7408347388324578  0.4078424398595937
  0.1335973682844876  0.4663109494516965  0.5849250277722009
  0.0299965790416722  0.8656206979393783  0.5990872605872454
  0.3630421813681307  0.5494456266199570  0.4090870558051674
  0.2654927719805590  0.9321744453691785  0.4032385739609627
  0.8325060679394219  0.6708369680674156  0.6000271466338741
  0.0621970657570231  0.7400162745596164  0.4079825627904815
  0.6326743633759662  0.4690934770588164  0.5855969350774805
  0.8657069251200378  0.5362829030631426  0.4242294947287474
 
  0.00000000E+00  0.00000000E+00  0.00000000E+00
  0.00000000E+00  0.00000000E+00  0.00000000E+00
  0.00000000E+00  0.00000000E+00  0.00000000E+00
  0.00000000E+00  0.00000000E+00  0.00000000E+00
  0.00000000E+00  0.00000000E+00  0.00000000E+00
  0.00000000E+00  0.00000000E+00  0.00000000E+00
  0.00000000E+00  0.00000000E+00  0.00000000E+00
  0.00000000E+00  0.00000000E+00  0.00000000E+00
  0.00000000E+00  0.00000000E+00  0.00000000E+00
  0.00000000E+00  0.00000000E+00  0.00000000E+00
  0.00000000E+00  0.00000000E+00  0.00000000E+00
  0.00000000E+00  0.00000000E+00  0.00000000E+00
  0.00000000E+00  0.00000000E+00  0.00000000E+00
  0.00000000E+00  0.00000000E+00  0.00000000E+00
  0.00000000E+00  0.00000000E+00  0.00000000E+00
  0.00000000E+00  0.00000000E+00  0.00000000E+00
  0.00000000E+00  0.00000000E+00  0.00000000E+00
  0.00000000E+00  0.00000000E+00  0.00000000E+00
  0.00000000E+00  0.00000000E+00  0.00000000E+00
  0.00000000E+00  0.00000000E+00  0.00000000E+00
  0.00000000E+00  0.00000000E+00  0.00000000E+00
  0.00000000E+00  0.00000000E+00  0.00000000E+00
  0.00000000E+00  0.00000000E+00  0.00000000E+00
  0.00000000E+00  0.00000000E+00  0.00000000E+00
  0.00000000E+00  0.00000000E+00  0.00000000E+00
  0.00000000E+00  0.00000000E+00  0.00000000E+00
  0.00000000E+00  0.00000000E+00  0.00000000E+00
  0.00000000E+00  0.00000000E+00  0.00000000E+00
  0.00000000E+00  0.00000000E+00  0.00000000E+00
