CONTCAR\(6)                             
   1.00000000000000     
    13.8635997771999993    0.0000000000000000    0.0000000000000000
     6.9317998885999996   12.0062295950000006    0.0000000000000000
     0.0000000000000000    0.0000000000000000   20.7936000824000011
   Sc   Cl   O    H 
    32    32     2     1
Direct
  0.0000497168171107  0.0001621577325924  0.5591575379230143
  0.0833358431941830  0.0834316754918340  0.4382750387593591
  0.2499585055903149  0.0003345606591323  0.5591898018853396
  0.3333454310263395  0.0834231325173042  0.4383359918784236
  0.4998315377055543  0.0002583465563373  0.5591775598204923
  0.5833216923411264  0.0835388663108244  0.4383552809734637
  0.7498920526481124  0.0001585792067787  0.5592552170799331
  0.8332846331725418  0.0835259551585010  0.4383260960766167
  0.0001352955696517  0.2501201123776415  0.5592537393163494
  0.0833324830134287  0.3334292137176411  0.4383955477619541
  0.2499079637120044  0.2500554973324882  0.5592288189395854
  0.3333524320273612  0.3334467159215399  0.4383520116416249
  0.4998879270206004  0.2502125601536123  0.5593147811912840
  0.5833121110024554  0.3335585662862265  0.4385430482549009
  0.7500715867976184  0.2502498712452064  0.5593795797442944
  0.8333446500824596  0.3334105087601412  0.4382996694002651
  0.0001519501968044  0.4999778759552427  0.5592464843858188
  0.0834719626661063  0.5833914421444004  0.4383906055133368
  0.2500958972029892  0.4999982496073672  0.5593661913484390
  0.3334603160130751  0.5834142752921598  0.4385075205845517
  0.5001918790841419  0.5002691626447134  0.5603984849462453
  0.5833027801175895  0.5834416591649108  0.4384531842040235
  0.7500477128407793  0.5000369100559536  0.5594951884297101
  0.8333338785283811  0.5833945680151043  0.4383885720967612
  0.0000772912211674  0.7499973675248722  0.5592504451212144
  0.0834550493375652  0.8333648173014870  0.4382361390942344
  0.2500215761941662  0.7502058000923134  0.5592116383403281
  0.3333022459399114  0.8334724943215459  0.4381309217136315
  0.4999728727461215  0.7502297723597520  0.5593315542759496
  0.5833089234064583  0.8334415483340558  0.4382867357625584
  0.7499059159859885  0.7500563597149102  0.5593309520778009
  0.8333660504684568  0.8334376800886641  0.4383805545873282
  0.1666823140135135  0.1668225686643970  0.3595048314847770
  0.1666974810291338  0.1667718264025415  0.6381157240565596
  0.4166730787248807  0.1668212775240387  0.3594938529823298
  0.4166210419550104  0.1667470508451377  0.6380962379680759
  0.6666005654181456  0.1669328394627060  0.3596255001016490
  0.6666528813007658  0.1667271355741007  0.6380916596326702
  0.9166137890592456  0.1668391956228624  0.3594136366602333
  0.9169400580201181  0.1665179966465963  0.6379710764878785
  0.1666762306561926  0.4167506524650755  0.3595303486930322
  0.1666224532779234  0.4167448387005100  0.6381336192314770
  0.4167454435204141  0.4167950846807033  0.3596417474199015
  0.4163710370856786  0.4163502964936436  0.6378873225241309
  0.6665853203544067  0.4168020568677889  0.3595814396563679
  0.6679797205864499  0.4160764516805593  0.6370859303293124
  0.9166772511314957  0.4167624138670208  0.3595194938693819
  0.9169870986387518  0.4167465215093152  0.6379980103524386
  0.1668385317272685  0.6666200680195707  0.3595796508119750
  0.1666711493617671  0.6667848709556579  0.6379872735288937
  0.4167589753183678  0.6666153344679888  0.3595222068038133
  0.4157993134414725  0.6682300072216688  0.6368080992382792
  0.6667324988432924  0.6667048106373554  0.3596002264696809
  0.6666838943138415  0.6668830946213536  0.6378536606770769
  0.9167233901371430  0.6667128891648615  0.3595734025660213
  0.9167143010934510  0.6667396940744723  0.6380227475683690
  0.1666517964990546  0.9167829367472853  0.3593360147289065
  0.1664683662635689  0.9170047533634357  0.6378840696369904
  0.4167454025704714  0.9167991073019437  0.3593832157452716
  0.4166041975239531  0.9170966244670427  0.6379249268701975
  0.6667708716046341  0.9167662831346732  0.3595166194681604
  0.6665402266460875  0.9168841699726274  0.6380215051878098
  0.9166504401196309  0.9167642256942080  0.3594956528961540
  0.9166651961802474  0.9167904979152329  0.6379686332383696
  0.5132948422884209  0.4708992845173987  0.8104973254084993
  0.5137156928012874  0.5194647077409327  0.7525663785570041
  0.4756747068233747  0.4282116479299539  0.8004327610195057
 
  0.00000000E+00  0.00000000E+00  0.00000000E+00
  0.00000000E+00  0.00000000E+00  0.00000000E+00
  0.00000000E+00  0.00000000E+00  0.00000000E+00
  0.00000000E+00  0.00000000E+00  0.00000000E+00
  0.00000000E+00  0.00000000E+00  0.00000000E+00
  0.00000000E+00  0.00000000E+00  0.00000000E+00
  0.00000000E+00  0.00000000E+00  0.00000000E+00
  0.00000000E+00  0.00000000E+00  0.00000000E+00
  0.00000000E+00  0.00000000E+00  0.00000000E+00
  0.00000000E+00  0.00000000E+00  0.00000000E+00
  0.00000000E+00  0.00000000E+00  0.00000000E+00
  0.00000000E+00  0.00000000E+00  0.00000000E+00
  0.00000000E+00  0.00000000E+00  0.00000000E+00
  0.00000000E+00  0.00000000E+00  0.00000000E+00
  0.00000000E+00  0.00000000E+00  0.00000000E+00
  0.00000000E+00  0.00000000E+00  0.00000000E+00
  0.00000000E+00  0.00000000E+00  0.00000000E+00
  0.00000000E+00  0.00000000E+00  0.00000000E+00
  0.00000000E+00  0.00000000E+00  0.00000000E+00
  0.00000000E+00  0.00000000E+00  0.00000000E+00
  0.00000000E+00  0.00000000E+00  0.00000000E+00
  0.00000000E+00  0.00000000E+00  0.00000000E+00
  0.00000000E+00  0.00000000E+00  0.00000000E+00
  0.00000000E+00  0.00000000E+00  0.00000000E+00
  0.00000000E+00  0.00000000E+00  0.00000000E+00
  0.00000000E+00  0.00000000E+00  0.00000000E+00
  0.00000000E+00  0.00000000E+00  0.00000000E+00
  0.00000000E+00  0.00000000E+00  0.00000000E+00
  0.00000000E+00  0.00000000E+00  0.00000000E+00
  0.00000000E+00  0.00000000E+00  0.00000000E+00
  0.00000000E+00  0.00000000E+00  0.00000000E+00
  0.00000000E+00  0.00000000E+00  0.00000000E+00
  0.00000000E+00  0.00000000E+00  0.00000000E+00
  0.00000000E+00  0.00000000E+00  0.00000000E+00
  0.00000000E+00  0.00000000E+00  0.00000000E+00
  0.00000000E+00  0.00000000E+00  0.00000000E+00
  0.00000000E+00  0.00000000E+00  0.00000000E+00
  0.00000000E+00  0.00000000E+00  0.00000000E+00
  0.00000000E+00  0.00000000E+00  0.00000000E+00
  0.00000000E+00  0.00000000E+00  0.00000000E+00
  0.00000000E+00  0.00000000E+00  0.00000000E+00
  0.00000000E+00  0.00000000E+00  0.00000000E+00
  0.00000000E+00  0.00000000E+00  0.00000000E+00
  0.00000000E+00  0.00000000E+00  0.00000000E+00
  0.00000000E+00  0.00000000E+00  0.00000000E+00
  0.00000000E+00  0.00000000E+00  0.00000000E+00
  0.00000000E+00  0.00000000E+00  0.00000000E+00
  0.00000000E+00  0.00000000E+00  0.00000000E+00
  0.00000000E+00  0.00000000E+00  0.00000000E+00
  0.00000000E+00  0.00000000E+00  0.00000000E+00
  0.00000000E+00  0.00000000E+00  0.00000000E+00
  0.00000000E+00  0.00000000E+00  0.00000000E+00
  0.00000000E+00  0.00000000E+00  0.00000000E+00
  0.00000000E+00  0.00000000E+00  0.00000000E+00
  0.00000000E+00  0.00000000E+00  0.00000000E+00
  0.00000000E+00  0.00000000E+00  0.00000000E+00
  0.00000000E+00  0.00000000E+00  0.00000000E+00
  0.00000000E+00  0.00000000E+00  0.00000000E+00
  0.00000000E+00  0.00000000E+00  0.00000000E+00
  0.00000000E+00  0.00000000E+00  0.00000000E+00
  0.00000000E+00  0.00000000E+00  0.00000000E+00
  0.00000000E+00  0.00000000E+00  0.00000000E+00
  0.00000000E+00  0.00000000E+00  0.00000000E+00
  0.00000000E+00  0.00000000E+00  0.00000000E+00
  0.00000000E+00  0.00000000E+00  0.00000000E+00
  0.00000000E+00  0.00000000E+00  0.00000000E+00
  0.00000000E+00  0.00000000E+00  0.00000000E+00
