 Dy2 Te6                                
   1.00000000000000     
     4.3120203228001532    0.0000000000000000    0.0000000000000000
     0.0000000000000000    4.3119322577132673    0.0000000000000000
     0.0000000000000000    0.0000000000000000   24.1073430299040012
   Dy   Te
     2     6
Direct
  0.4999999430959736 -0.0000000184688076  0.5850012316511820
  0.0000001023182125  0.5000000455276697  0.4149987520978284
 -0.0000000086109842 -0.0000000112321055  0.3108163315920984
  0.4999999920546848  0.4999999870924480  0.6891836535991787
  0.0000000024031045 -0.0000000131584921  0.6891654489444632
  0.5000000023579644  0.4999999898547537  0.3108345419649257
  0.5000000114845646  0.0000000107168377  0.4535013841930032
 -0.0000000451035200  0.5000000096676962  0.5464986559573208
 
  0.00000000E+00  0.00000000E+00  0.00000000E+00
  0.00000000E+00  0.00000000E+00  0.00000000E+00
  0.00000000E+00  0.00000000E+00  0.00000000E+00
  0.00000000E+00  0.00000000E+00  0.00000000E+00
  0.00000000E+00  0.00000000E+00  0.00000000E+00
  0.00000000E+00  0.00000000E+00  0.00000000E+00
  0.00000000E+00  0.00000000E+00  0.00000000E+00
  0.00000000E+00  0.00000000E+00  0.00000000E+00
