 Cu4 Te4 O12                            
   1.00000000000000     
     7.3325227221362343    0.0000000000000000    0.0000000000000000
     0.0000000000000000    8.6395570444173426    0.0000000000000000
    -0.1285807886605726    0.0000000000000000   17.7376334087797289
   Cu   Te   O 
     4     4    12
Direct
  0.6861229616490357  0.5252426912425670  0.5298603436793362
  0.1861945306386721  0.9747496873032202  0.5298659372911296
  0.3138723432414148  0.4747479768342502  0.4701399434016795
  0.8138060119168343  0.0252421405707651  0.4701337538918954
  0.5618023160321653  0.2069969097775443  0.5863841919191689
  0.4382366060183654  0.7930067211414473  0.4136195464724475
  0.9381987369945047  0.7069935903360970  0.4136375158932987
  0.0617825818761639  0.2929998730688522  0.5863565336646531
  0.6052909358917974  0.1489446397077503  0.4860901853927393
  0.5339672700552666  0.5895693933077275  0.4412317829679069
  0.7992734723336828  0.3644237251915801  0.5906080130482508
  0.9660354071500655  0.0896056889697317  0.5587993578420235
  0.7007072878212564  0.8644422525035077  0.4093941869816370
  0.2992820451613323  0.1355667930843023  0.5906061373601404
  0.8947587142225913  0.6490014081425386  0.5139319993025144
  0.3947167144203794  0.8510512834218421  0.5139113630067892
  0.0339452999293998  0.9104026420093406  0.4411992691150099
  0.4660445995202810  0.4104447540086726  0.5587732441486535
  0.1052305148272289  0.3509893411243087  0.4860666851030186
  0.2007315702995693  0.6355784002539403  0.4093899059992060
 
  0.00000000E+00  0.00000000E+00  0.00000000E+00
  0.00000000E+00  0.00000000E+00  0.00000000E+00
  0.00000000E+00  0.00000000E+00  0.00000000E+00
  0.00000000E+00  0.00000000E+00  0.00000000E+00
  0.00000000E+00  0.00000000E+00  0.00000000E+00
  0.00000000E+00  0.00000000E+00  0.00000000E+00
  0.00000000E+00  0.00000000E+00  0.00000000E+00
  0.00000000E+00  0.00000000E+00  0.00000000E+00
  0.00000000E+00  0.00000000E+00  0.00000000E+00
  0.00000000E+00  0.00000000E+00  0.00000000E+00
  0.00000000E+00  0.00000000E+00  0.00000000E+00
  0.00000000E+00  0.00000000E+00  0.00000000E+00
  0.00000000E+00  0.00000000E+00  0.00000000E+00
  0.00000000E+00  0.00000000E+00  0.00000000E+00
  0.00000000E+00  0.00000000E+00  0.00000000E+00
  0.00000000E+00  0.00000000E+00  0.00000000E+00
  0.00000000E+00  0.00000000E+00  0.00000000E+00
  0.00000000E+00  0.00000000E+00  0.00000000E+00
  0.00000000E+00  0.00000000E+00  0.00000000E+00
  0.00000000E+00  0.00000000E+00  0.00000000E+00
