CONTCAR\(8)                             
   1.00000000000000     
    13.7044000625999995    0.0000000000000000    0.0000000000000000
     6.8522000312999998   11.8683585978000004    0.0000000000000000
     0.0000000000000000    0.0000000000000000   18.4445991515999985
   Cr   Ge   Te   O 
     8     8    24     1
Direct
  0.1687887945577668  0.1620908857040873  0.4971025817823710
  0.3346940191011425  0.3269555972217340  0.5000114278175444
  0.6752637878548478  0.1574439130856932  0.5019757178534530
  0.8375903684583488  0.3269762923698918  0.5014740431229886
  0.1639286843062757  0.6656421908875801  0.5007942185735532
  0.3378129591043830  0.8294183822095141  0.5025740889108972
  0.6707120539144346  0.6649519945482607  0.5012884234365030
  0.8314552382608644  0.8373475151764197  0.4973356001189071
  0.0044749322299988  0.9938848158631586  0.4358164528431324
  0.0065921374011483  0.9928196968682740  0.5670183756083643
  0.5011772177443762  0.9973222379995472  0.4345666025655844
  0.5015710635287058  0.9997985879288848  0.5658230650387499
  0.0000214437587054  0.4972100548508588  0.4318717581578276
 -0.0007673240958915  0.4974442662906940  0.5629690154185065
  0.4974911215562262  0.4967939863408485  0.4481226178154399
  0.5213504679667024  0.4965199913602649  0.5792782945070454
  0.3141648970990608 -0.0004007912114538  0.5945054938460469
  0.0073860183008245  0.1804060613062551  0.5940352472063496
  0.1851395258744297  0.3080378126238060  0.5930582046598774
  0.1888747646501052  0.4961506803318431  0.4063414306218347
  0.5062037966077928  0.3086979186703607  0.4133416489115651
  0.3148150190946645  0.1826106351865219  0.4030064858378416
  0.8173694526772054  0.9963780196535156  0.5963483827374814
  0.5057341216160501  0.1854582627667308  0.5934025331451011
  0.7015141811641026  0.2986609404048116  0.5980248687145927
  0.6826510533662039  0.4961103970921728  0.4113087409524517
 -0.0001518032800020  0.3093498564817505  0.4041285102760772
  0.8157025913715370  0.1804378900960133  0.4082786655877601
  0.2807394518717670  0.4958908506080106  0.5972484633875789
  0.9935993981071829  0.6879670094224282  0.5929001008352940
  0.1929064792305585  0.8048986868231559  0.5965065713318046
  0.1914750690890719  0.9927469430175213  0.4053978057933450
  0.5036505252328073  0.8084656481566309  0.4066885328617502
  0.3162455399617580  0.6815135743812618  0.4113399122698619
  0.8155632753613442  0.4955608711832329  0.5950900071447831
  0.5082779870607763  0.6919104227214253  0.5987072069339777
  0.6911029988102866  0.8138849481310806  0.5934515606270353
  0.6851811617501897  0.0035187665425921  0.4037582738282634
  0.0003701382805920  0.8109266045880870  0.4034508257430958
  0.8131136209826676  0.6866142139415810  0.4045080524416432
  0.4161631830709774  0.4985336033749261  0.6382798827337157
 
  0.00000000E+00  0.00000000E+00  0.00000000E+00
  0.00000000E+00  0.00000000E+00  0.00000000E+00
  0.00000000E+00  0.00000000E+00  0.00000000E+00
  0.00000000E+00  0.00000000E+00  0.00000000E+00
  0.00000000E+00  0.00000000E+00  0.00000000E+00
  0.00000000E+00  0.00000000E+00  0.00000000E+00
  0.00000000E+00  0.00000000E+00  0.00000000E+00
  0.00000000E+00  0.00000000E+00  0.00000000E+00
  0.00000000E+00  0.00000000E+00  0.00000000E+00
  0.00000000E+00  0.00000000E+00  0.00000000E+00
  0.00000000E+00  0.00000000E+00  0.00000000E+00
  0.00000000E+00  0.00000000E+00  0.00000000E+00
  0.00000000E+00  0.00000000E+00  0.00000000E+00
  0.00000000E+00  0.00000000E+00  0.00000000E+00
  0.00000000E+00  0.00000000E+00  0.00000000E+00
  0.00000000E+00  0.00000000E+00  0.00000000E+00
  0.00000000E+00  0.00000000E+00  0.00000000E+00
  0.00000000E+00  0.00000000E+00  0.00000000E+00
  0.00000000E+00  0.00000000E+00  0.00000000E+00
  0.00000000E+00  0.00000000E+00  0.00000000E+00
  0.00000000E+00  0.00000000E+00  0.00000000E+00
  0.00000000E+00  0.00000000E+00  0.00000000E+00
  0.00000000E+00  0.00000000E+00  0.00000000E+00
  0.00000000E+00  0.00000000E+00  0.00000000E+00
  0.00000000E+00  0.00000000E+00  0.00000000E+00
  0.00000000E+00  0.00000000E+00  0.00000000E+00
  0.00000000E+00  0.00000000E+00  0.00000000E+00
  0.00000000E+00  0.00000000E+00  0.00000000E+00
  0.00000000E+00  0.00000000E+00  0.00000000E+00
  0.00000000E+00  0.00000000E+00  0.00000000E+00
  0.00000000E+00  0.00000000E+00  0.00000000E+00
  0.00000000E+00  0.00000000E+00  0.00000000E+00
  0.00000000E+00  0.00000000E+00  0.00000000E+00
  0.00000000E+00  0.00000000E+00  0.00000000E+00
  0.00000000E+00  0.00000000E+00  0.00000000E+00
  0.00000000E+00  0.00000000E+00  0.00000000E+00
  0.00000000E+00  0.00000000E+00  0.00000000E+00
  0.00000000E+00  0.00000000E+00  0.00000000E+00
  0.00000000E+00  0.00000000E+00  0.00000000E+00
  0.00000000E+00  0.00000000E+00  0.00000000E+00
  0.00000000E+00  0.00000000E+00  0.00000000E+00
