CONTCAR                                 
   1.00000000000000     
    11.5825996398999997    0.0000000000000000    0.0000000000000000
     0.0000000000000000   12.9533996582000004    0.0000000000000000
     0.0000000000000000    0.0000000000000000   20.9237995147999989
   K    As   Pd   O 
    16    16     8     1
Direct
  0.1247526813075836  0.0000000000000000  0.4363172244585303
  0.3820533976534884  0.0000000000000000  0.5533195429235478
  0.1249887403813283  0.2463059229975682  0.3641801212693935
  0.3637248619580867  0.2434066438965931  0.6469231592325280
  0.6249667061567310  0.0000000000000000  0.4494822293840243
  0.8676047639323491  0.0000000000000000  0.5533492749444704
  0.6249665044145186  0.2539056979079617  0.3637793524896474
  0.8864263481291880  0.2434328499193789  0.6469713596768124
  0.1248177525116266  0.5000000000000000  0.4285626361390578
  0.3629920790847788  0.5000000000000000  0.5552902931513202
  0.1249887403813283  0.7536940770024320  0.3641801212693935
  0.3637248619580867  0.7565933561034069  0.6469231592325280
  0.6247293103221919  0.5000000000000000  0.4581348163217075
  0.8869844659908283  0.5000000000000000  0.5549277762841720
  0.6249665044145186  0.7460943020920382  0.3637793524896474
  0.8864263481291880  0.7565671500806210  0.6469713596768124
  0.3709074887301167  0.3425124570461727  0.4265937601608225
  0.1250072562953490  0.1173550322024086  0.5759316237420492
  0.1250499743692849  0.3563144272698434  0.5786000107147797
  0.3749998737933647  0.1551871228806719  0.4223526906232135
  0.8789503822983029  0.3426050684804057  0.4265126461805253
  0.6248933393256150  0.1547930353955737  0.5866498374112299
  0.6250275028777253  0.3420503830700536  0.5870097623545997
  0.8750553821215762  0.1552250039832993  0.4224180205918334
  0.3749998737933647  0.8448128591193264  0.4223526906232135
  0.1250499743692849  0.6436856087301526  0.5786000107147797
  0.1250072562953490  0.8826449497975971  0.5759316237420492
  0.3709074887301167  0.6574875789538230  0.4265937601608225
  0.8750553821215762  0.8447749780167068  0.4224180205918334
  0.6250275028777253  0.6579496529299419  0.5870097623545997
  0.6248933393256150  0.8452069466044319  0.5866498374112299
  0.8789503822983029  0.6573949675195900  0.4265126461805253
  0.0031999260105160  0.2412289933298313  0.5079159725718202
  0.2468060973245482  0.2411382242955528  0.5078776940812471
  0.4989414055312876  0.2489041559817450  0.5057498356042941
  0.7510630336239029  0.2487679211900053  0.5057817461792270
  0.0031999260105160  0.7587710066701687  0.5079159725718202
  0.2468060973245482  0.7588617757044473  0.5078776940812471
  0.4989414055312876  0.7510958440182550  0.5057498356042941
  0.7510630336239029  0.7512320788099951  0.5057817461792270
  0.1251429386710129  0.4999500099999992  0.5455813636251331
 
  0.00000000E+00  0.00000000E+00  0.00000000E+00
  0.00000000E+00  0.00000000E+00  0.00000000E+00
  0.00000000E+00  0.00000000E+00  0.00000000E+00
  0.00000000E+00  0.00000000E+00  0.00000000E+00
  0.00000000E+00  0.00000000E+00  0.00000000E+00
  0.00000000E+00  0.00000000E+00  0.00000000E+00
  0.00000000E+00  0.00000000E+00  0.00000000E+00
  0.00000000E+00  0.00000000E+00  0.00000000E+00
  0.00000000E+00  0.00000000E+00  0.00000000E+00
  0.00000000E+00  0.00000000E+00  0.00000000E+00
  0.00000000E+00  0.00000000E+00  0.00000000E+00
  0.00000000E+00  0.00000000E+00  0.00000000E+00
  0.00000000E+00  0.00000000E+00  0.00000000E+00
  0.00000000E+00  0.00000000E+00  0.00000000E+00
  0.00000000E+00  0.00000000E+00  0.00000000E+00
  0.00000000E+00  0.00000000E+00  0.00000000E+00
  0.00000000E+00  0.00000000E+00  0.00000000E+00
  0.00000000E+00  0.00000000E+00  0.00000000E+00
  0.00000000E+00  0.00000000E+00  0.00000000E+00
  0.00000000E+00  0.00000000E+00  0.00000000E+00
  0.00000000E+00  0.00000000E+00  0.00000000E+00
  0.00000000E+00  0.00000000E+00  0.00000000E+00
  0.00000000E+00  0.00000000E+00  0.00000000E+00
  0.00000000E+00  0.00000000E+00  0.00000000E+00
  0.00000000E+00  0.00000000E+00  0.00000000E+00
  0.00000000E+00  0.00000000E+00  0.00000000E+00
  0.00000000E+00  0.00000000E+00  0.00000000E+00
  0.00000000E+00  0.00000000E+00  0.00000000E+00
  0.00000000E+00  0.00000000E+00  0.00000000E+00
  0.00000000E+00  0.00000000E+00  0.00000000E+00
  0.00000000E+00  0.00000000E+00  0.00000000E+00
  0.00000000E+00  0.00000000E+00  0.00000000E+00
  0.00000000E+00  0.00000000E+00  0.00000000E+00
  0.00000000E+00  0.00000000E+00  0.00000000E+00
  0.00000000E+00  0.00000000E+00  0.00000000E+00
  0.00000000E+00  0.00000000E+00  0.00000000E+00
  0.00000000E+00  0.00000000E+00  0.00000000E+00
  0.00000000E+00  0.00000000E+00  0.00000000E+00
  0.00000000E+00  0.00000000E+00  0.00000000E+00
  0.00000000E+00  0.00000000E+00  0.00000000E+00
  0.00000000E+00  0.00000000E+00  0.00000000E+00
