CONTCAR\(4)                             
   1.00000000000000     
    13.3522996902000006    0.0000000000000000    0.0000000000000000
    -6.6761498451000003   11.5634307307000004    0.0000000000000000
     0.0000000000000000    0.0000000000000000   22.4906005859000011
   La   Ge   I    O 
    18     9    18     1
Direct
  0.2231322323355704  0.1126736242804847  0.4226409067330018
  0.1088804432970255  0.2208907754951232  0.5761464682034768
  0.5564655003041521  0.1113453186909432  0.4238061976638514
  0.4453749155723514  0.2208546973985150  0.5761470654930011
  0.8885106044324282  0.1114885932382764  0.4237509918695541
  0.7779122656593285  0.2220757464787690  0.5762733901163725
  0.2225937960298658  0.4447300599556253  0.4274116994322894
  0.1085156648487738  0.5546179429403401  0.5763061974823136
  0.5556222040358599  0.4443731493035167  0.4272528650937361
  0.4442578261391268  0.5557162406658530  0.6086189451780712
  0.8886344975074933  0.4435225240920008  0.4238109974227411
  0.7791315182607012  0.5546151401697468  0.5761474940605129
  0.2229863649774622  0.7769989492660552  0.4227691263289208
  0.1110928465325316  0.8889146279995487  0.5744513494008617
  0.5552687374041505  0.7773966371734948  0.4274109477218601
  0.4453896981899496  0.8914791604234220  0.5763025520286180
  0.8873284747539856  0.7768753868704087  0.4226413140191266
  0.7791496221931298  0.8911353960411187  0.5761308244657911
  0.0003974730143658 -0.0003654967380619  0.4981022932820193
  0.3327249842712792 -0.0003632696921009  0.4981857325317985
  0.6677050986561542  0.0019933596504394  0.4989734475555312
 -0.0019983404687741  0.3322956240786778  0.4989774146178952
  0.3303273168146656  0.3271008937258537  0.5009593499000792
  0.6678288146037963  0.3321565357698613  0.4989498883260347
  0.0003556397486606  0.6672812550568857  0.4981642755115033
  0.3301592937340899  0.6698322272743263  0.5011903378186118
  0.6728971503480294  0.6696603345701065  0.5009499870867491
  0.1123339945692958  0.2261547212594876  0.3332081557504834
  0.2216063862139560  0.1101806230560466  0.6659649488861322
  0.4474647982258045  0.2252129362077024  0.3331168032646220
  0.5556911396914949  0.1117209328899219  0.6667873773820557
  0.7777200364778276  0.2222750529291452  0.3321348431246128
  0.8892791125325028  0.1107163906929827  0.6666830902841657
  0.1121271465247543  0.5533439308809587  0.3331603841160579
  0.1776107244746457  0.4221162276281636  0.6697909348660144
  0.4443520500542928  0.5556382220883379  0.3363916085248215
  0.5772288303264222  0.4227535360346575  0.6695399509000363
  0.7747843101532739  0.5525278962662635  0.3331208402066814
  0.8882710210517405  0.4443043951713215  0.6667878116311476
  0.1110410559063750  0.8889560039607142  0.3322746407121603
  0.2217802341601954  0.7782505752940899  0.6660206848746943
  0.4466692059932069  0.8878781406050008  0.3331644000477652
  0.5779512235062171  0.8224072968612347  0.6697730352526013
  0.7738411735502423  0.8876622675120281  0.3332088120529716
  0.8898207419594056  0.7783915352150204  0.6659638675215850
  0.4442424254321973  0.5557438792676395  0.6934656162570813
 
  0.00000000E+00  0.00000000E+00  0.00000000E+00
  0.00000000E+00  0.00000000E+00  0.00000000E+00
  0.00000000E+00  0.00000000E+00  0.00000000E+00
  0.00000000E+00  0.00000000E+00  0.00000000E+00
  0.00000000E+00  0.00000000E+00  0.00000000E+00
  0.00000000E+00  0.00000000E+00  0.00000000E+00
  0.00000000E+00  0.00000000E+00  0.00000000E+00
  0.00000000E+00  0.00000000E+00  0.00000000E+00
  0.00000000E+00  0.00000000E+00  0.00000000E+00
  0.00000000E+00  0.00000000E+00  0.00000000E+00
  0.00000000E+00  0.00000000E+00  0.00000000E+00
  0.00000000E+00  0.00000000E+00  0.00000000E+00
  0.00000000E+00  0.00000000E+00  0.00000000E+00
  0.00000000E+00  0.00000000E+00  0.00000000E+00
  0.00000000E+00  0.00000000E+00  0.00000000E+00
  0.00000000E+00  0.00000000E+00  0.00000000E+00
  0.00000000E+00  0.00000000E+00  0.00000000E+00
  0.00000000E+00  0.00000000E+00  0.00000000E+00
  0.00000000E+00  0.00000000E+00  0.00000000E+00
  0.00000000E+00  0.00000000E+00  0.00000000E+00
  0.00000000E+00  0.00000000E+00  0.00000000E+00
  0.00000000E+00  0.00000000E+00  0.00000000E+00
  0.00000000E+00  0.00000000E+00  0.00000000E+00
  0.00000000E+00  0.00000000E+00  0.00000000E+00
  0.00000000E+00  0.00000000E+00  0.00000000E+00
  0.00000000E+00  0.00000000E+00  0.00000000E+00
  0.00000000E+00  0.00000000E+00  0.00000000E+00
  0.00000000E+00  0.00000000E+00  0.00000000E+00
  0.00000000E+00  0.00000000E+00  0.00000000E+00
  0.00000000E+00  0.00000000E+00  0.00000000E+00
  0.00000000E+00  0.00000000E+00  0.00000000E+00
  0.00000000E+00  0.00000000E+00  0.00000000E+00
  0.00000000E+00  0.00000000E+00  0.00000000E+00
  0.00000000E+00  0.00000000E+00  0.00000000E+00
  0.00000000E+00  0.00000000E+00  0.00000000E+00
  0.00000000E+00  0.00000000E+00  0.00000000E+00
  0.00000000E+00  0.00000000E+00  0.00000000E+00
  0.00000000E+00  0.00000000E+00  0.00000000E+00
  0.00000000E+00  0.00000000E+00  0.00000000E+00
  0.00000000E+00  0.00000000E+00  0.00000000E+00
  0.00000000E+00  0.00000000E+00  0.00000000E+00
  0.00000000E+00  0.00000000E+00  0.00000000E+00
  0.00000000E+00  0.00000000E+00  0.00000000E+00
  0.00000000E+00  0.00000000E+00  0.00000000E+00
  0.00000000E+00  0.00000000E+00  0.00000000E+00
  0.00000000E+00  0.00000000E+00  0.00000000E+00
