 Ta2 C1 S2                              
   1.00000000000000     
     3.2664203845891544    0.0000000000000000    0.0000000000000000
     1.6332096953792261    2.8288031036070218    0.0000000000000000
     0.0000000000000000    0.0000000000000000   20.6284124044159967
   Ta   C    S 
     2     1     2
Direct
  0.6666666443827651  0.6666666438942670  0.5575460577833056
  0.3333333558698754  0.3333333563148457  0.4424540955484986
  0.0000000000538165  0.0000000000755804  0.5000002020061487
  0.6666667569887750  0.6666667495040386  0.3634593413547407
  0.3333332427047679  0.3333332502112683  0.6365403033073065
 
  0.00000000E+00  0.00000000E+00  0.00000000E+00
  0.00000000E+00  0.00000000E+00  0.00000000E+00
  0.00000000E+00  0.00000000E+00  0.00000000E+00
  0.00000000E+00  0.00000000E+00  0.00000000E+00
  0.00000000E+00  0.00000000E+00  0.00000000E+00
