CONTCAR\(3)                             
   1.00000000000000     
    13.8191995620999997    0.0000000000000000    0.0000000000000000
     0.0000000000000000   12.6052999496000009    0.0000000000000000
     0.0000000000000000    0.0000000000000000   19.1947002411000014
   Te   W    O    H 
    32    16     1     1
Direct
  0.1250189767078281  0.3943937512750080  0.4233118490400258
  0.0010576114162899  0.1500805996336996  0.3940356572570898
  0.1257058228046180  0.0725680372217268  0.6129408257929945
  0.0013215628294711  0.3268555403783033  0.5801843563881218
  0.3768258408159466  0.3981101082723050  0.4265757744503978
  0.2516467320541546  0.1528564228961947  0.3941261678433932
  0.3763650264954314  0.0717335520513211  0.6123815924077333
  0.2501883975845786  0.3265555894832073  0.5812791021758621
  0.6261298138667892  0.3976527839553122  0.4264801901637668
  0.5014328925622210  0.1531325942095803  0.3942249017811693
  0.6260872148893777  0.0715797972620332  0.6127269726014523
  0.5014549753024710  0.3284397933704485  0.5812583148662381
  0.8771272841591536  0.3943062993721559  0.4236448144572191
  0.7507325037970968  0.1522100595784272  0.3942424673096976
  0.8768767106514702  0.0727827188704014  0.6131404117391622
  0.7521687973604420  0.3264922184104657  0.5815817539036665
  0.1256335628518810  0.8966490017354880  0.4252072668169787
  0.0012884771015423  0.6510828367326347  0.3926115695538741
  0.1243303045247311  0.5712501299657635  0.6121324290290664
  0.0010449495389627  0.8265401185055460  0.5813070168330829
  0.3721451571245291  0.8969812586230800  0.4248581803549282
  0.2458432953503932  0.6455038157096009  0.3904429087702216
  0.3726552648059309  0.5726191385863248  0.6118779559550939
  0.2474620958220435  0.8276216576148594  0.5830560325840876
  0.6309361312698214  0.8968590753764479  0.4250130388203699
  0.5017431632191999  0.6538323309616065  0.3998694562372209
  0.6303949474953721  0.5736507325700082  0.6125961922314799
  0.5015574273623483  0.8204034855356309  0.5601751975989433
  0.8767100287641114  0.8966067796025029  0.4251726019428617
  0.7565383652072036  0.6452845675191934  0.3906529280673567
  0.8782074736858015  0.5714991855852718  0.6121451039798188
  0.7556087175311751  0.8272674418610553  0.5838244213523001
  0.0011302472456423  0.0219734205657759  0.5084150560536755
  0.1261384072952253  0.2005583391397215  0.4980742739815109
  0.2505947198973345  0.0233920466625924  0.5085384523089223
  0.3761945787106255  0.2019384625803121  0.4986561809014513
  0.5014630300170991  0.0242789093550466  0.5077532942223179
  0.6265442950560667  0.2016964940546325  0.4988126662568679
  0.7519736037048383  0.0231755560536484  0.5089305882291755
  0.8761296490616796  0.2005297369059315  0.4982295003874329
  0.0012867768297682  0.5217790758618424  0.5067331305932650
  0.1248303651006139  0.7011204203230247  0.4974552669557811
  0.2469791459802849  0.5203098386830701  0.5071957285944856
  0.3596490414439832  0.6996739738917149  0.4975522031212147
  0.5022618065831003  0.5253434421414666  0.5105796410232908
  0.6433575291439952  0.7000439577427199  0.4980826118872744
  0.7551427256702358  0.5202441408858310  0.5075260798575146
  0.8777253683774836  0.7010287274180053  0.4973610970860441
  0.5053068956650383  0.8014759177484496  0.6649138708891463
  0.4378526362645594  0.8031959812605831  0.6807530033449428
 
  0.00000000E+00  0.00000000E+00  0.00000000E+00
  0.00000000E+00  0.00000000E+00  0.00000000E+00
  0.00000000E+00  0.00000000E+00  0.00000000E+00
  0.00000000E+00  0.00000000E+00  0.00000000E+00
  0.00000000E+00  0.00000000E+00  0.00000000E+00
  0.00000000E+00  0.00000000E+00  0.00000000E+00
  0.00000000E+00  0.00000000E+00  0.00000000E+00
  0.00000000E+00  0.00000000E+00  0.00000000E+00
  0.00000000E+00  0.00000000E+00  0.00000000E+00
  0.00000000E+00  0.00000000E+00  0.00000000E+00
  0.00000000E+00  0.00000000E+00  0.00000000E+00
  0.00000000E+00  0.00000000E+00  0.00000000E+00
  0.00000000E+00  0.00000000E+00  0.00000000E+00
  0.00000000E+00  0.00000000E+00  0.00000000E+00
  0.00000000E+00  0.00000000E+00  0.00000000E+00
  0.00000000E+00  0.00000000E+00  0.00000000E+00
  0.00000000E+00  0.00000000E+00  0.00000000E+00
  0.00000000E+00  0.00000000E+00  0.00000000E+00
  0.00000000E+00  0.00000000E+00  0.00000000E+00
  0.00000000E+00  0.00000000E+00  0.00000000E+00
  0.00000000E+00  0.00000000E+00  0.00000000E+00
  0.00000000E+00  0.00000000E+00  0.00000000E+00
  0.00000000E+00  0.00000000E+00  0.00000000E+00
  0.00000000E+00  0.00000000E+00  0.00000000E+00
  0.00000000E+00  0.00000000E+00  0.00000000E+00
  0.00000000E+00  0.00000000E+00  0.00000000E+00
  0.00000000E+00  0.00000000E+00  0.00000000E+00
  0.00000000E+00  0.00000000E+00  0.00000000E+00
  0.00000000E+00  0.00000000E+00  0.00000000E+00
  0.00000000E+00  0.00000000E+00  0.00000000E+00
  0.00000000E+00  0.00000000E+00  0.00000000E+00
  0.00000000E+00  0.00000000E+00  0.00000000E+00
  0.00000000E+00  0.00000000E+00  0.00000000E+00
  0.00000000E+00  0.00000000E+00  0.00000000E+00
  0.00000000E+00  0.00000000E+00  0.00000000E+00
  0.00000000E+00  0.00000000E+00  0.00000000E+00
  0.00000000E+00  0.00000000E+00  0.00000000E+00
  0.00000000E+00  0.00000000E+00  0.00000000E+00
  0.00000000E+00  0.00000000E+00  0.00000000E+00
  0.00000000E+00  0.00000000E+00  0.00000000E+00
  0.00000000E+00  0.00000000E+00  0.00000000E+00
  0.00000000E+00  0.00000000E+00  0.00000000E+00
  0.00000000E+00  0.00000000E+00  0.00000000E+00
  0.00000000E+00  0.00000000E+00  0.00000000E+00
  0.00000000E+00  0.00000000E+00  0.00000000E+00
  0.00000000E+00  0.00000000E+00  0.00000000E+00
  0.00000000E+00  0.00000000E+00  0.00000000E+00
  0.00000000E+00  0.00000000E+00  0.00000000E+00
  0.00000000E+00  0.00000000E+00  0.00000000E+00
  0.00000000E+00  0.00000000E+00  0.00000000E+00
