CONTCAR\(2)                             
   1.00000000000000     
     6.8951001167000001    0.0000000000000000    0.0000000000000000
     3.4475500584000001    5.9713318626999996    0.0000000000000000
     0.0000000000000000    0.0000000000000000   18.3700008391999994
   Nb   Se   O    H 
     4     8     6     3
Direct
  0.1880068547488183  0.1303475270573309  0.4995389560928110
  0.7083524448982931  0.1125298420294085  0.4988194622324852
  0.1714540672756643  0.6463759128899388  0.4985308800072155
  0.7040776652931592  0.6381972061662664  0.4991335685489334
  0.3598517938170324  0.3004061886526821  0.5803751394303011
  0.3596357324352194  0.2983144805298666  0.4104935449738965
  0.8576720017901989  0.3009878978337130  0.5918518188920213
  0.8550689999951253  0.2990742449147553  0.4145877809407155
  0.3631091354443082  0.7966407660196414  0.5907400589129504
  0.3619570128245123  0.7945442834752873  0.4162067347657882
  0.8598441838076083  0.7992013857992246  0.5965327862192368
  0.8586591735106792  0.7994027836376736  0.4012462495873658
  0.3251987187108123  0.2886042498322300  0.6839169027908781
  0.3894890424968652  0.4292731577420349  0.7221507391561068
  0.8638074288994793  0.2997826848725174  0.3063104919294024
  0.7187099974910218  0.2315381840712679  0.2758837322895611
  0.3529304539027779  0.8310438363631729  0.3091025478972735
  0.3257791963373350  0.6629865032605196  0.2725920035164732
  0.5756421525743654  0.3761216538934911  0.2707582029222182
  0.2484766440877627  0.5741908836569893  0.7223700975769896
  0.1620369326589615  0.7270267063019890  0.2720284293173518
 
  0.00000000E+00  0.00000000E+00  0.00000000E+00
  0.00000000E+00  0.00000000E+00  0.00000000E+00
  0.00000000E+00  0.00000000E+00  0.00000000E+00
  0.00000000E+00  0.00000000E+00  0.00000000E+00
  0.00000000E+00  0.00000000E+00  0.00000000E+00
  0.00000000E+00  0.00000000E+00  0.00000000E+00
  0.00000000E+00  0.00000000E+00  0.00000000E+00
  0.00000000E+00  0.00000000E+00  0.00000000E+00
  0.00000000E+00  0.00000000E+00  0.00000000E+00
  0.00000000E+00  0.00000000E+00  0.00000000E+00
  0.00000000E+00  0.00000000E+00  0.00000000E+00
  0.00000000E+00  0.00000000E+00  0.00000000E+00
  0.00000000E+00  0.00000000E+00  0.00000000E+00
  0.00000000E+00  0.00000000E+00  0.00000000E+00
  0.00000000E+00  0.00000000E+00  0.00000000E+00
  0.00000000E+00  0.00000000E+00  0.00000000E+00
  0.00000000E+00  0.00000000E+00  0.00000000E+00
  0.00000000E+00  0.00000000E+00  0.00000000E+00
  0.00000000E+00  0.00000000E+00  0.00000000E+00
  0.00000000E+00  0.00000000E+00  0.00000000E+00
  0.00000000E+00  0.00000000E+00  0.00000000E+00
