CONTCAR\(17)                            
   1.00000000000000     
    11.6057996750000001    0.0000000000000000    0.0000000000000000
     5.8029393748000002   10.0514726542999995    0.0000000000000000
     0.0000000000000000    0.0000000000000000   18.0372009276999989
   Ni   P    S 
     8     8    24
Direct
  0.1666499860000030  0.1667000010000024  0.5000000000000000
  0.3333499740000008  0.3332999989999976  0.5000000000000000
  0.6666499860000030  0.1667000010000024  0.5000000000000000
  0.8333499330000009  0.3332999989999976  0.5000000000000000
  0.1666499880000032  0.6667000010000024  0.5000000000000000
  0.3333500399999991  0.8332999530000009  0.5000000000000000
  0.6666499470000034  0.6667000010000024  0.5000000000000000
  0.8333499989999993  0.8332999530000009  0.5000000000000000
  0.4998799869999999  0.0000000000000000  0.5604400289999987
  0.0001200000000026  0.0000000000000000  0.4395599970000035
  0.9998800290000034  0.0000000000000000  0.5604400289999987
  0.5001199709999966  0.0000000000000000  0.4395599970000035
  0.4998799480000002  0.5000000000000000  0.5604400289999987
  0.0001199929999984  0.5000000000000000  0.4395599970000035
  0.9998799890000001  0.5000000000000000  0.5604400289999987
  0.5001199729999968  0.5000000000000000  0.4395599970000035
  0.3269800099999998  0.1728500030000006  0.5843900109999964
  0.0001700010000008  0.1728500030000006  0.4156099890000036
  0.3272899979999977  0.0000000000000000  0.4155500050000001
  0.1727100020000023  0.0000000000000000  0.5844500210000021
  0.4998300479999997  0.3271499860000020  0.5843900109999964
  0.1730199969999973  0.3271499860000020  0.4156099890000036
  0.8269800099999998  0.1728500030000006  0.5843900109999964
  0.5001699600000009  0.1728500030000006  0.4156099890000036
  0.8272900190000030  0.0000000000000000  0.4155500050000001
  0.6727099809999970  0.0000000000000000  0.5844500210000021
  0.9998300069999999  0.3271499860000020  0.5843900109999964
  0.6730199969999973  0.3271499860000020  0.4156099890000036
  0.3269800059999994  0.6728500150000016  0.5843900109999964
  0.0001699959999968  0.6728500150000016  0.4156099890000036
  0.3272900199999995  0.5000000000000000  0.4155500050000001
  0.1727100239999970  0.5000000000000000  0.5844500210000021
  0.4998300080000035  0.8271499860000020  0.5843900109999964
  0.1730199989999974  0.8271499860000020  0.4156099890000036
  0.8269799649999996  0.6728500150000016  0.5843900109999964
  0.5001699549999969  0.6728500150000016  0.4156099890000036
  0.8272900609999994  0.5000000000000000  0.4155500050000001
  0.6727099829999972  0.5000000000000000  0.5844500210000021
  0.9998300490000034  0.8271499860000020  0.5843900109999964
  0.6730200399999973  0.8271499860000020  0.4156099890000036
 
  0.00000000E+00  0.00000000E+00  0.00000000E+00
  0.00000000E+00  0.00000000E+00  0.00000000E+00
  0.00000000E+00  0.00000000E+00  0.00000000E+00
  0.00000000E+00  0.00000000E+00  0.00000000E+00
  0.00000000E+00  0.00000000E+00  0.00000000E+00
  0.00000000E+00  0.00000000E+00  0.00000000E+00
  0.00000000E+00  0.00000000E+00  0.00000000E+00
  0.00000000E+00  0.00000000E+00  0.00000000E+00
  0.00000000E+00  0.00000000E+00  0.00000000E+00
  0.00000000E+00  0.00000000E+00  0.00000000E+00
  0.00000000E+00  0.00000000E+00  0.00000000E+00
  0.00000000E+00  0.00000000E+00  0.00000000E+00
  0.00000000E+00  0.00000000E+00  0.00000000E+00
  0.00000000E+00  0.00000000E+00  0.00000000E+00
  0.00000000E+00  0.00000000E+00  0.00000000E+00
  0.00000000E+00  0.00000000E+00  0.00000000E+00
  0.00000000E+00  0.00000000E+00  0.00000000E+00
  0.00000000E+00  0.00000000E+00  0.00000000E+00
  0.00000000E+00  0.00000000E+00  0.00000000E+00
  0.00000000E+00  0.00000000E+00  0.00000000E+00
  0.00000000E+00  0.00000000E+00  0.00000000E+00
  0.00000000E+00  0.00000000E+00  0.00000000E+00
  0.00000000E+00  0.00000000E+00  0.00000000E+00
  0.00000000E+00  0.00000000E+00  0.00000000E+00
  0.00000000E+00  0.00000000E+00  0.00000000E+00
  0.00000000E+00  0.00000000E+00  0.00000000E+00
  0.00000000E+00  0.00000000E+00  0.00000000E+00
  0.00000000E+00  0.00000000E+00  0.00000000E+00
  0.00000000E+00  0.00000000E+00  0.00000000E+00
  0.00000000E+00  0.00000000E+00  0.00000000E+00
  0.00000000E+00  0.00000000E+00  0.00000000E+00
  0.00000000E+00  0.00000000E+00  0.00000000E+00
  0.00000000E+00  0.00000000E+00  0.00000000E+00
  0.00000000E+00  0.00000000E+00  0.00000000E+00
  0.00000000E+00  0.00000000E+00  0.00000000E+00
  0.00000000E+00  0.00000000E+00  0.00000000E+00
  0.00000000E+00  0.00000000E+00  0.00000000E+00
  0.00000000E+00  0.00000000E+00  0.00000000E+00
  0.00000000E+00  0.00000000E+00  0.00000000E+00
  0.00000000E+00  0.00000000E+00  0.00000000E+00
