CONTCAR\(3)                             
   1.00000000000000     
    11.4385995865000005    0.0000000000000000    0.0000000000000000
     0.0000000000000000   12.0461997986000000    0.0000000000000000
     0.0000000000000000    0.0000000000000000   20.3069000244000009
   Mo   B    O    H 
    32    32    32     1
Direct
  0.0000055180490965  0.1250285141576077  0.5706501327727386
  0.1253673221395956  0.1246596909262596  0.4305782664131306
  0.2499978838529657  0.1249731508845682  0.5710976448265223
  0.3751887778709720  0.1247646142137878  0.4309935284767537
  0.5003733887411403  0.1249780775994955  0.5710976335262147
  0.6249949758316278  0.1246618945560331  0.4305854982211987
  0.7503627184430675  0.1250322036751577  0.5706518204027532
  0.8751739737766281  0.1247496020234767  0.4303140527546771
  0.0008265428234566  0.3753274018524682  0.5708238834155331
  0.1249015979751689  0.3745398131388287  0.4301208483263615
  0.2508604858288848  0.3764453532879858  0.5698254052524854
  0.3751849586425147  0.3743679650013559  0.4295236816640328
  0.4995344642103907  0.3764499900100449  0.5698160714581989
  0.6254827122896116  0.3745477245401532  0.4301033930369108
  0.7495685503801442  0.3753305464002874  0.5708129945523429
  0.8751995928296739  0.3745474790014845  0.4304071469771363
  0.0000982562228085  0.6242779229033858  0.5700471824034964
  0.1258258910009564  0.6250633392019570  0.4290196037545927
  0.2462027493418908  0.6234900007922257  0.5689570116528940
  0.3751840468269100  0.6250795977279273  0.4293477635228012
  0.5041593479733306  0.6234913326721729  0.5689568154270638
  0.6245418527503968  0.6250766529070001  0.4290241842681945
  0.7502883349911704  0.6242811252300479  0.5700453003262200
  0.8751867918966176  0.6248935583140688  0.4291855439583769
  0.0002110519167932  0.8741008538950169  0.5709466042624580
  0.1244951078227501  0.8747754539259932  0.4307417917728392
  0.2502673317970995  0.8741770212407256  0.5707174378410860
  0.3751715974367946  0.8747554960167266  0.4305518462183861
  0.5000871601763134  0.8741867411211774  0.5707215614130404
  0.6258504328944460  0.8747808310737566  0.4307451235430073
  0.7501543332262740  0.8741089440658520  0.5709522433269526
  0.8751769586471690  0.8750676899041850  0.4309804393839393
  0.0001589474885470 -0.0002311431376826  0.4792467652745143
  0.1251539504781898 -0.0002859673350849  0.5225539692557776
  0.2501477733105752 -0.0002431384940031  0.4793206429699548
  0.3751671725942388 -0.0002455269041147  0.5226504288933744
  0.5001810042535889 -0.0002243099262595  0.4793264581991274
  0.6251803090249322 -0.0002882640935290  0.5225590358626456
  0.7501663298942128 -0.0002254961477739  0.4792565812080237
  0.8751665514821346 -0.0003673109585512  0.5226147774198778
  0.0002984742830385  0.2498772970474437  0.4790325144586489
  0.1252887379445004  0.2499833797578200  0.5222831263324073
  0.2503023633933205  0.2499931381467289  0.4791359894758370
  0.3751918039671127  0.2503782948176527  0.5226338037232837
  0.5000744378173494  0.2499985350986323  0.4791276025390121
  0.6251071025545677  0.2499810916530967  0.5222751155723320
  0.7500828277147452  0.2498722673513838  0.4790192333949355
  0.8751951228941658  0.2499280665603592  0.5221962856416368
  0.0002613455587098  0.5002534420587802  0.4781565733617824
  0.1254506154097369  0.4999830957130876  0.5209492659156462
  0.2507062198358427  0.5001820608059114  0.4776118838184434
  0.3751852572055538  0.5011108957425785  0.5216033417881283
  0.4996627062486059  0.5001995913725329  0.4776009376207259
  0.6249287445576014  0.4999779594707708  0.5209583197717671
  0.7501170060957637  0.5002573485420729  0.4781456630460817
  0.8751792644769779  0.4999706229035066  0.5213865660394957
  0.0001550124686912  0.7492550066756340  0.4785964071692780
  0.1250128392550809  0.7492099214157314  0.5218114303969031
  0.2508371448018459  0.7487057057530583  0.4790554650362976
  0.3751836824344673  0.7478317594200282  0.5234040373612140
  0.4995362204387904  0.7487135592023955  0.4790512957905292
  0.6253541145726355  0.7492463433541714  0.5218094216282717
  0.7502227762539739  0.7492541971315232  0.4785952044857824
  0.8751920389650549  0.7493774430535366  0.5218409603523985
  0.1250891341816781  0.1250255477097803  0.6364839770176686
  0.0001269959513417  0.1244657825913156  0.3648973064316827
  0.3751762048170104  0.1252734503606326  0.6366274062972094
  0.2502339266565654  0.1247637793917638  0.3651002214446648
  0.6252640547726165  0.1250452567463826  0.6364864457634509
  0.5001224309485033  0.1247731458514682  0.3650998598012350
  0.8751766383430317  0.1251021519320728  0.6364279962985060
  0.7502523268366412  0.1244676867773032  0.3648963098324209
  0.1250932004239559  0.3761410262615068  0.6361401593054803
  0.0002373520085432  0.3738471834972711  0.3644403854283084
  0.3752068785312351  0.3812370463585990  0.6368583084880456
  0.2503453148415242  0.3744207669438217  0.3642448870803958
  0.6252994707479096  0.3761505029839879  0.6361293294986919
  0.5000123363340833  0.3744321759385521  0.3642396517627782
  0.8751803614010638  0.3752697905049991  0.6359880480470259
  0.7501272981430304  0.3738502447143346  0.3644375787365253
  0.1262332024011600  0.6222192146500242  0.6364111438361846
  0.0001834236344922  0.6253589816482907  0.3635444082664496
  0.3751879213827154  0.6239306620058349  0.6425731892310287
  0.2500911810333296  0.6255116113326061  0.3632228872245632
  0.6241329917145063  0.6222147447931072  0.6364040905016878
  0.5002810914417699  0.6255263953165835  0.3632230765452854
  0.8751778092373227  0.6243911881677174  0.6358700826422850
  0.7501830210171497  0.6253802812319762  0.3635471094773117
  0.1250509245386101  0.8742641817725334  0.6364364096239775
  0.0006498138443581  0.8757739032169169  0.3649274503543998
  0.3751761981795652  0.8741167223878614  0.6364156856195293
  0.2506090764917153  0.8743072758981256  0.3652956895451018
  0.6253078478569739  0.8742763969794546  0.6364414858010677
  0.4997309690399674  0.8743089866458078  0.3653005368653972
  0.8751903134499878  0.8739293761533080  0.6364828961555169
  0.7496852813966578  0.8758127756759631  0.3649344601459257
  0.3751924671198379  0.5695811092474654  0.6785003089736448
 
  0.00000000E+00  0.00000000E+00  0.00000000E+00
  0.00000000E+00  0.00000000E+00  0.00000000E+00
  0.00000000E+00  0.00000000E+00  0.00000000E+00
  0.00000000E+00  0.00000000E+00  0.00000000E+00
  0.00000000E+00  0.00000000E+00  0.00000000E+00
  0.00000000E+00  0.00000000E+00  0.00000000E+00
  0.00000000E+00  0.00000000E+00  0.00000000E+00
  0.00000000E+00  0.00000000E+00  0.00000000E+00
  0.00000000E+00  0.00000000E+00  0.00000000E+00
  0.00000000E+00  0.00000000E+00  0.00000000E+00
  0.00000000E+00  0.00000000E+00  0.00000000E+00
  0.00000000E+00  0.00000000E+00  0.00000000E+00
  0.00000000E+00  0.00000000E+00  0.00000000E+00
  0.00000000E+00  0.00000000E+00  0.00000000E+00
  0.00000000E+00  0.00000000E+00  0.00000000E+00
  0.00000000E+00  0.00000000E+00  0.00000000E+00
  0.00000000E+00  0.00000000E+00  0.00000000E+00
  0.00000000E+00  0.00000000E+00  0.00000000E+00
  0.00000000E+00  0.00000000E+00  0.00000000E+00
  0.00000000E+00  0.00000000E+00  0.00000000E+00
  0.00000000E+00  0.00000000E+00  0.00000000E+00
  0.00000000E+00  0.00000000E+00  0.00000000E+00
  0.00000000E+00  0.00000000E+00  0.00000000E+00
  0.00000000E+00  0.00000000E+00  0.00000000E+00
  0.00000000E+00  0.00000000E+00  0.00000000E+00
  0.00000000E+00  0.00000000E+00  0.00000000E+00
  0.00000000E+00  0.00000000E+00  0.00000000E+00
  0.00000000E+00  0.00000000E+00  0.00000000E+00
  0.00000000E+00  0.00000000E+00  0.00000000E+00
  0.00000000E+00  0.00000000E+00  0.00000000E+00
  0.00000000E+00  0.00000000E+00  0.00000000E+00
  0.00000000E+00  0.00000000E+00  0.00000000E+00
  0.00000000E+00  0.00000000E+00  0.00000000E+00
  0.00000000E+00  0.00000000E+00  0.00000000E+00
  0.00000000E+00  0.00000000E+00  0.00000000E+00
  0.00000000E+00  0.00000000E+00  0.00000000E+00
  0.00000000E+00  0.00000000E+00  0.00000000E+00
  0.00000000E+00  0.00000000E+00  0.00000000E+00
  0.00000000E+00  0.00000000E+00  0.00000000E+00
  0.00000000E+00  0.00000000E+00  0.00000000E+00
  0.00000000E+00  0.00000000E+00  0.00000000E+00
  0.00000000E+00  0.00000000E+00  0.00000000E+00
  0.00000000E+00  0.00000000E+00  0.00000000E+00
  0.00000000E+00  0.00000000E+00  0.00000000E+00
  0.00000000E+00  0.00000000E+00  0.00000000E+00
  0.00000000E+00  0.00000000E+00  0.00000000E+00
  0.00000000E+00  0.00000000E+00  0.00000000E+00
  0.00000000E+00  0.00000000E+00  0.00000000E+00
  0.00000000E+00  0.00000000E+00  0.00000000E+00
  0.00000000E+00  0.00000000E+00  0.00000000E+00
  0.00000000E+00  0.00000000E+00  0.00000000E+00
  0.00000000E+00  0.00000000E+00  0.00000000E+00
  0.00000000E+00  0.00000000E+00  0.00000000E+00
  0.00000000E+00  0.00000000E+00  0.00000000E+00
  0.00000000E+00  0.00000000E+00  0.00000000E+00
  0.00000000E+00  0.00000000E+00  0.00000000E+00
  0.00000000E+00  0.00000000E+00  0.00000000E+00
  0.00000000E+00  0.00000000E+00  0.00000000E+00
  0.00000000E+00  0.00000000E+00  0.00000000E+00
  0.00000000E+00  0.00000000E+00  0.00000000E+00
  0.00000000E+00  0.00000000E+00  0.00000000E+00
  0.00000000E+00  0.00000000E+00  0.00000000E+00
  0.00000000E+00  0.00000000E+00  0.00000000E+00
  0.00000000E+00  0.00000000E+00  0.00000000E+00
  0.00000000E+00  0.00000000E+00  0.00000000E+00
  0.00000000E+00  0.00000000E+00  0.00000000E+00
  0.00000000E+00  0.00000000E+00  0.00000000E+00
  0.00000000E+00  0.00000000E+00  0.00000000E+00
  0.00000000E+00  0.00000000E+00  0.00000000E+00
  0.00000000E+00  0.00000000E+00  0.00000000E+00
  0.00000000E+00  0.00000000E+00  0.00000000E+00
  0.00000000E+00  0.00000000E+00  0.00000000E+00
  0.00000000E+00  0.00000000E+00  0.00000000E+00
  0.00000000E+00  0.00000000E+00  0.00000000E+00
  0.00000000E+00  0.00000000E+00  0.00000000E+00
  0.00000000E+00  0.00000000E+00  0.00000000E+00
  0.00000000E+00  0.00000000E+00  0.00000000E+00
  0.00000000E+00  0.00000000E+00  0.00000000E+00
  0.00000000E+00  0.00000000E+00  0.00000000E+00
  0.00000000E+00  0.00000000E+00  0.00000000E+00
  0.00000000E+00  0.00000000E+00  0.00000000E+00
  0.00000000E+00  0.00000000E+00  0.00000000E+00
  0.00000000E+00  0.00000000E+00  0.00000000E+00
  0.00000000E+00  0.00000000E+00  0.00000000E+00
  0.00000000E+00  0.00000000E+00  0.00000000E+00
  0.00000000E+00  0.00000000E+00  0.00000000E+00
  0.00000000E+00  0.00000000E+00  0.00000000E+00
  0.00000000E+00  0.00000000E+00  0.00000000E+00
  0.00000000E+00  0.00000000E+00  0.00000000E+00
  0.00000000E+00  0.00000000E+00  0.00000000E+00
  0.00000000E+00  0.00000000E+00  0.00000000E+00
  0.00000000E+00  0.00000000E+00  0.00000000E+00
  0.00000000E+00  0.00000000E+00  0.00000000E+00
  0.00000000E+00  0.00000000E+00  0.00000000E+00
  0.00000000E+00  0.00000000E+00  0.00000000E+00
  0.00000000E+00  0.00000000E+00  0.00000000E+00
  0.00000000E+00  0.00000000E+00  0.00000000E+00
