 Ag2 Cl2 O4                             
   1.00000000000000     
     3.4682262934942041    0.0000000000000000    0.0000000000000000
     0.0000000000000000    3.9466413333707995    0.0000000000000000
     0.0000000000000000    0.0000000000000000   24.6360473401979974
   Ag   Cl   O 
     2     2     4
Direct
  0.2499999987621706  0.6006551129645956  0.4443885798819949
  0.7500000003447056  0.0958793738119894  0.5556170804318228
  0.7500000000729443  0.1006965727716960  0.4373334214502478
  0.2500000020108573  0.5958355812382976  0.5626715888051166
  0.2499999998542677  0.5918901562007335  0.3302701343233707
  0.2499999998133475  0.8557057511158987  0.3030859731980016
  0.7499999996114752  0.8408014649361277  0.6969159818546018
  0.7499999995302318  0.1045419869606761  0.6697172400548510
 
  0.00000000E+00  0.00000000E+00  0.00000000E+00
  0.00000000E+00  0.00000000E+00  0.00000000E+00
  0.00000000E+00  0.00000000E+00  0.00000000E+00
  0.00000000E+00  0.00000000E+00  0.00000000E+00
  0.00000000E+00  0.00000000E+00  0.00000000E+00
  0.00000000E+00  0.00000000E+00  0.00000000E+00
  0.00000000E+00  0.00000000E+00  0.00000000E+00
  0.00000000E+00  0.00000000E+00  0.00000000E+00
