 Sr2 Cu2                                
   1.00000000000000     
     4.2841432889660185    0.0000000000000000    0.0000000000000000
    -2.1420716444830092    3.7101550105332137    0.0000000000000000
     0.0000000000000000    0.0000000000000000   19.0007890218120004
   Sr   Cu
     2     2
Direct
  0.0000004385284385  0.9999996937545887  0.6048596609566772
  0.9999992074117472  0.0000001353343180  0.3951416683742224
  0.3333325160719625  0.6666659429773532  0.4999990483661350
  0.6666678379878519  0.3333342279337330  0.4999996223029655
 
  0.00000000E+00  0.00000000E+00  0.00000000E+00
  0.00000000E+00  0.00000000E+00  0.00000000E+00
  0.00000000E+00  0.00000000E+00  0.00000000E+00
  0.00000000E+00  0.00000000E+00  0.00000000E+00
