CONTCAR\(6)                             
   1.00000000000000     
    12.0100002288999992    0.0000000000000000    0.0000000000000000
     0.0000000000000000   13.6953001021999992    0.0000000000000000
     0.0000000000000000    0.0000000000000000   20.2971992493000002
   Hf   Te   O 
     6    30     1
Selective dynamics
Direct
  0.1633467874681287  0.0018515666476375  0.5513368400054475   F   F   F
  0.9958755520266180  0.5018243851080015  0.4538574714099610   F   F   F
  0.4963999307423705  0.0019617922477622  0.5505885336756293   F   F   F
  0.3247439726500971  0.5019568665920460  0.4643941818557877   F   F   F
  0.8310797554215981  0.0017474780452389  0.5476126173499978   F   F   F
  0.6715979402866310  0.5019852951149488  0.4557627279661034   F   F   F
  0.9960765222522667  0.6861065398118029  0.5312180301070910   F   F   F
  0.1619710849589282  0.8210405800199112  0.4720024189188194   F   F   F
  0.1477021916074079  0.5022722063019103  0.5673616563944393   F   F   F
  0.0025086608749163  0.0028672623685679  0.4384187775457136   F   F   F
  0.1624822318129020  0.6024960976108460  0.3728086830322610   F   F   F
  0.9954789497719929  0.8997515108934451  0.6311529163636749   F   F   F
  0.9953177358855498  0.1031907044216780  0.6316870291827215   F   F   F
  0.1619924013948193  0.4001612127705911  0.3733179729415426   F   F   F
  0.9953480788262112  0.3179831043124466  0.5319110973548717   F   F   F
  0.1614935176231427  0.1832044544734828  0.4727599556818163   F   F   F
  0.3220098615354559  0.6953521395891684  0.5328170927410127   F   F   F
  0.4950157731446367  0.8219564552731669  0.4714021573036362   F   F   F
  0.5640467504782336  0.5022474975260636  0.5854317750336833   F   F   F
  0.3286243218285279  0.0017738930286555  0.4400857645728067   F   F   F
  0.4940365524697015  0.6029884060180706  0.3814514851357558   F   F   F
  0.3301881241086022  0.8989292709807728  0.6316933279937516   F   F   F
  0.3300905798102960  0.1041553113173919  0.6323292172360198   F   F   F
  0.4937599272691671  0.4010310355821289  0.3815228247303608   F   F   F
  0.3224437213706963  0.3089979273218688  0.5333957182002607   F   F   F
  0.4942149399362066  0.1818589250371545  0.4713808314551642   F   F   F
  0.6687866757658725  0.6921840086625508  0.5285314065909006   F   F   F
  0.8324723087667465  0.8204859700859473  0.4682952129239411   F   F   F
  0.8304348728187989  0.5017909829071954  0.5685019079369837   F   F   F
  0.6614919590777575  0.0018635011795851  0.4386616205856342   F   F   F
  0.8313635037790945  0.6038778404507426  0.3711432459818127   F   F   F
  0.6648840028385976  0.9001957150282109  0.6304853660006273   F   F   F
  0.6655880329438233  0.1040694610736352  0.6302119633745562   F   F   F
  0.8307776422956792  0.4000866013908251  0.3712598957704500   F   F   F
  0.6684631071610312  0.3113496086474683  0.5281177854359100   F   F   F
  0.8320790665595652  0.1830732398561992  0.4685404357821383   F   F   F
  0.4090929474379408  0.5037511033028395  0.5478711312117056   T   T   T
 
  0.00000000E+00  0.00000000E+00  0.00000000E+00
  0.00000000E+00  0.00000000E+00  0.00000000E+00
  0.00000000E+00  0.00000000E+00  0.00000000E+00
  0.00000000E+00  0.00000000E+00  0.00000000E+00
  0.00000000E+00  0.00000000E+00  0.00000000E+00
  0.00000000E+00  0.00000000E+00  0.00000000E+00
  0.00000000E+00  0.00000000E+00  0.00000000E+00
  0.00000000E+00  0.00000000E+00  0.00000000E+00
  0.00000000E+00  0.00000000E+00  0.00000000E+00
  0.00000000E+00  0.00000000E+00  0.00000000E+00
  0.00000000E+00  0.00000000E+00  0.00000000E+00
  0.00000000E+00  0.00000000E+00  0.00000000E+00
  0.00000000E+00  0.00000000E+00  0.00000000E+00
  0.00000000E+00  0.00000000E+00  0.00000000E+00
  0.00000000E+00  0.00000000E+00  0.00000000E+00
  0.00000000E+00  0.00000000E+00  0.00000000E+00
  0.00000000E+00  0.00000000E+00  0.00000000E+00
  0.00000000E+00  0.00000000E+00  0.00000000E+00
  0.00000000E+00  0.00000000E+00  0.00000000E+00
  0.00000000E+00  0.00000000E+00  0.00000000E+00
  0.00000000E+00  0.00000000E+00  0.00000000E+00
  0.00000000E+00  0.00000000E+00  0.00000000E+00
  0.00000000E+00  0.00000000E+00  0.00000000E+00
  0.00000000E+00  0.00000000E+00  0.00000000E+00
  0.00000000E+00  0.00000000E+00  0.00000000E+00
  0.00000000E+00  0.00000000E+00  0.00000000E+00
  0.00000000E+00  0.00000000E+00  0.00000000E+00
  0.00000000E+00  0.00000000E+00  0.00000000E+00
  0.00000000E+00  0.00000000E+00  0.00000000E+00
  0.00000000E+00  0.00000000E+00  0.00000000E+00
  0.00000000E+00  0.00000000E+00  0.00000000E+00
  0.00000000E+00  0.00000000E+00  0.00000000E+00
  0.00000000E+00  0.00000000E+00  0.00000000E+00
  0.00000000E+00  0.00000000E+00  0.00000000E+00
  0.00000000E+00  0.00000000E+00  0.00000000E+00
  0.00000000E+00  0.00000000E+00  0.00000000E+00
  0.00000000E+00  0.00000000E+00  0.00000000E+00
