 Zr2 Si2 Te2                            
   1.00000000000000     
     3.6496033084269692    0.0000000000000000    0.0000000000000000
     0.0000000000000000    3.6496033026530621    0.0000000000000000
     0.0000000000000000    0.0000000000000000   22.0592834817579799
   Zr   Si   Te
     2     2     2
Direct
  0.4999999473514407  0.0000000164222627  0.5964437685687827
  0.0000000433929515  0.4999999776447979  0.4035524957119492
  0.5000000152755391  0.5000000053935736  0.4999992623015785
  0.0000000094827755  0.0000000103641327  0.4999992730680418
  0.9999999510035735  0.5000000112137428  0.6600070892510104
  0.5000000334937269  0.9999999789614904  0.3399929107489896
 
  0.00000000E+00  0.00000000E+00  0.00000000E+00
  0.00000000E+00  0.00000000E+00  0.00000000E+00
  0.00000000E+00  0.00000000E+00  0.00000000E+00
  0.00000000E+00  0.00000000E+00  0.00000000E+00
  0.00000000E+00  0.00000000E+00  0.00000000E+00
  0.00000000E+00  0.00000000E+00  0.00000000E+00
