CONTCAR\(2)                             
   1.00000000000000     
    11.7135000228999999    0.0000000000000000    0.0000000000000000
     0.0000000000000000   10.5269002914000005    0.0000000000000000
     0.0000000000000000    0.0000000000000000   20.5844001769999991
   Mn   Sb   Se   I    O    H 
     6     6    12     6     2     1
Direct
  0.3360632819966317 -0.0012884876448590  0.5058765107923652
  0.0046285486267599  0.4782879099085718  0.5040042885010253
  0.6621852211781762 -0.0070303603684380  0.4985573175307140
  0.3362826716572197  0.4896689523786622  0.5067247338603433
 -0.0019783740595855 -0.0148137086984740  0.4963681050852750
  0.6722744949304077  0.4934293664283049  0.4995278769362939
  0.1635676884193927  0.2875814157179098  0.6329409858723143
  0.1792379966737632  0.7042967322412191  0.3877712795012995
  0.5119583780538790  0.2948783688747278  0.6211338237088204
  0.4911854745012104  0.6962932852410584  0.3875958391661709
  0.8350079084975293  0.2692260993040741  0.6084528584353752
  0.8361494335534962  0.7076098374985619  0.3839040740898292
  0.9952046474370329  0.2251809926587659  0.5229340793913329
  0.1635551151588935  0.4666860589991930  0.4187892949253335
  0.0013481654244285  0.7705340401099313  0.4731214119500114
  0.1599356685278916  0.5208553005030808  0.5907248742485138
  0.3325024460341332  0.2421397693367956  0.5450662026095692
  0.4980921787553439  0.4588451762059205  0.4138417949248567
  0.3358946703306711  0.7483851875727721  0.4788805830997886
  0.5150206420421821  0.5308771731834937  0.5890340517733124
  0.6633629824814014  0.2394700161691289  0.5246562641374422
  0.8475687783637996  0.4692977457545393  0.4160748376580557
  0.6683292318679209  0.7471028141348367  0.4692159620051662
  0.8453666406946004  0.5146557979252738  0.5862592009457963
  0.1563108999222002  0.9371325133387811  0.5919374283908944
  0.1616653991883399  0.0471667157920663  0.4119231327294316
  0.5035300337308488  0.9330834108438921  0.5998745181186547
  0.4945349207866833  0.0543033467236649  0.4043795401284215
  0.8388701380699870  0.9423897593562920  0.5894193085723635
  0.8403530950439698  0.0364630846394449  0.4046888028147098
  0.2731364485320592  0.3108046070981188  0.7114689686406572
  0.3638989777412011  0.4076545324337086  0.7009929543131532
  0.3912861568375282  0.4180324353389729  0.7457891421427143
 
  0.00000000E+00  0.00000000E+00  0.00000000E+00
  0.00000000E+00  0.00000000E+00  0.00000000E+00
  0.00000000E+00  0.00000000E+00  0.00000000E+00
  0.00000000E+00  0.00000000E+00  0.00000000E+00
  0.00000000E+00  0.00000000E+00  0.00000000E+00
  0.00000000E+00  0.00000000E+00  0.00000000E+00
  0.00000000E+00  0.00000000E+00  0.00000000E+00
  0.00000000E+00  0.00000000E+00  0.00000000E+00
  0.00000000E+00  0.00000000E+00  0.00000000E+00
  0.00000000E+00  0.00000000E+00  0.00000000E+00
  0.00000000E+00  0.00000000E+00  0.00000000E+00
  0.00000000E+00  0.00000000E+00  0.00000000E+00
  0.00000000E+00  0.00000000E+00  0.00000000E+00
  0.00000000E+00  0.00000000E+00  0.00000000E+00
  0.00000000E+00  0.00000000E+00  0.00000000E+00
  0.00000000E+00  0.00000000E+00  0.00000000E+00
  0.00000000E+00  0.00000000E+00  0.00000000E+00
  0.00000000E+00  0.00000000E+00  0.00000000E+00
  0.00000000E+00  0.00000000E+00  0.00000000E+00
  0.00000000E+00  0.00000000E+00  0.00000000E+00
  0.00000000E+00  0.00000000E+00  0.00000000E+00
  0.00000000E+00  0.00000000E+00  0.00000000E+00
  0.00000000E+00  0.00000000E+00  0.00000000E+00
  0.00000000E+00  0.00000000E+00  0.00000000E+00
  0.00000000E+00  0.00000000E+00  0.00000000E+00
  0.00000000E+00  0.00000000E+00  0.00000000E+00
  0.00000000E+00  0.00000000E+00  0.00000000E+00
  0.00000000E+00  0.00000000E+00  0.00000000E+00
  0.00000000E+00  0.00000000E+00  0.00000000E+00
  0.00000000E+00  0.00000000E+00  0.00000000E+00
  0.00000000E+00  0.00000000E+00  0.00000000E+00
  0.00000000E+00  0.00000000E+00  0.00000000E+00
  0.00000000E+00  0.00000000E+00  0.00000000E+00
