CONTCAR\(13)                            
   1.00000000000000     
    11.2263002396000005    0.0000000000000000    0.0000000000000000
     0.0000000000000000   21.7961997986000000    0.0000000000000000
     0.0000000000000000    0.0000000000000000   19.3752994536999985
   Ta   Te   Pd   O    H 
     9    42     9     1     1
Direct
  0.1623235714232152  0.4749585761108364  0.5028829697885797
  0.1641480315594279  0.1223382207927131  0.4985645717439198
  0.1669084947040886  0.7748731807661429  0.5172419538475665
  0.4950681194284670  0.4737357625195671  0.5046543340459948
  0.4972536466243085  0.1224993222423905  0.4992211681374883
  0.4988570652025786  0.7763955763470420  0.5180548216035348
  0.8300853659717475  0.4757800831628813  0.5040344552496165
  0.8298280826061912  0.1222176569271767  0.4988702855645286
  0.8322882590246152  0.7753285295930965  0.5169947307035372
  0.9948463662079874  0.4081670852505894  0.4222515457029985
  0.1638960361635071  0.2395043185731183  0.4254024580629476
  0.1649662386615631  0.8908657997155842  0.5867929551097859
  0.9996016072349008  0.8402865420288563  0.4346771846479740
  0.9960146233584481  0.5504685532252793  0.4299955173053789
  0.9971684820711602  0.4791362502007388  0.6156382799494651
  0.1652956299072983  0.0027749014606684  0.4301336372292539
  0.9974799661029152  0.0545556116912991  0.5795013527903023
  0.1669777082234276  0.5911233059670877  0.5766303672084803
  0.9969882758176425  0.1954911980817400  0.5731147105078733
  0.1645602114409925  0.6976125113008393  0.4088996914817784
  0.9968972916540935  0.1198910265195963  0.3864749355103427
  0.9993668375789539  0.7404188788833324  0.6151703709952230
  0.1607862177045476  0.3571609347048366  0.5751935387501348
  0.3294059065066506  0.4068650569949881  0.4230676668200317
  0.4970148506419392  0.2395123824934302  0.4256327502255814
  0.4976165637974859  0.8918586154433044  0.5888563605198200
  0.3324886404228593  0.8400515854968305  0.4337453983273534
  0.3307591159837315  0.5471413959449265  0.4282162046366267
  0.3265525411527221  0.4764311298200354  0.6156016834171893
  0.4980812166226940  0.0029283065960897  0.4312135556873926
  0.3304397021760508  0.0537884871728949  0.5791431148897175
  0.5003523148312254  0.5956102155169845  0.5644733993611624
  0.3301255375854524  0.1946253416413626  0.5751652353783214
  0.4998844626942187  0.6990222989094121  0.4102755709550010
  0.3312427523611277  0.1212554001582120  0.3865030224859751
  0.3323232370484135  0.7433711324529000  0.6169214465436283
  0.4958657706766587  0.3565310514700357  0.5781178957176323
  0.6628749328796673  0.4068137024413829  0.4250658440180857
  0.8279615088595946  0.2387500190550540  0.4246767385325967
  0.8331303149143992  0.8911622906117458  0.5869549312580205
  0.6658755054353307  0.8404608257724107  0.4340641533789693
  0.6604792150366379  0.5476914495096210  0.4288390383722884
  0.6654046888213472  0.4781730475250754  0.6163226642252653
  0.8309816717941771  0.0026491769658818  0.4307359283405674
  0.6640153718985218  0.0535179452786778  0.5793670643736917
  0.8315118230975358  0.5927914252741715  0.5764027686694888
  0.6637888836242567  0.1946296494519046  0.5755155623612538
  0.8365494809285678  0.6988786430375029  0.4078936216579407
  0.6631275949045943  0.1207291296338440  0.3866492110454587
  0.6662403957228022  0.7446916517489299  0.6170564150275766
  0.8318468959186660  0.3574679699952412  0.5763054617894383
  0.9987843888536574  0.9459475192184428  0.5074227595126359
  0.9952410780799994  0.3000022172880037  0.4975584024432322
  0.9997817154382389  0.6599669800536674  0.5063271313335207
  0.3314730702193458  0.9454223189685109  0.5077650312039310
  0.3294834250032537  0.2997669161793652  0.4997192807512434
  0.3290366996441847  0.6630641539044362  0.5064428499385301
  0.6648297474814697  0.9454256460561936  0.5083136238945656
  0.6640798091018922  0.2996422727316244  0.5001975219688362
  0.6717947609313555  0.6650182790452206  0.5057658947303949
  0.4791799398219325  0.6063450079445047  0.6686955045628906
  0.5545980934152723  0.5946555491317582  0.6904939357074298
 
  0.00000000E+00  0.00000000E+00  0.00000000E+00
  0.00000000E+00  0.00000000E+00  0.00000000E+00
  0.00000000E+00  0.00000000E+00  0.00000000E+00
  0.00000000E+00  0.00000000E+00  0.00000000E+00
  0.00000000E+00  0.00000000E+00  0.00000000E+00
  0.00000000E+00  0.00000000E+00  0.00000000E+00
  0.00000000E+00  0.00000000E+00  0.00000000E+00
  0.00000000E+00  0.00000000E+00  0.00000000E+00
  0.00000000E+00  0.00000000E+00  0.00000000E+00
  0.00000000E+00  0.00000000E+00  0.00000000E+00
  0.00000000E+00  0.00000000E+00  0.00000000E+00
  0.00000000E+00  0.00000000E+00  0.00000000E+00
  0.00000000E+00  0.00000000E+00  0.00000000E+00
  0.00000000E+00  0.00000000E+00  0.00000000E+00
  0.00000000E+00  0.00000000E+00  0.00000000E+00
  0.00000000E+00  0.00000000E+00  0.00000000E+00
  0.00000000E+00  0.00000000E+00  0.00000000E+00
  0.00000000E+00  0.00000000E+00  0.00000000E+00
  0.00000000E+00  0.00000000E+00  0.00000000E+00
  0.00000000E+00  0.00000000E+00  0.00000000E+00
  0.00000000E+00  0.00000000E+00  0.00000000E+00
  0.00000000E+00  0.00000000E+00  0.00000000E+00
  0.00000000E+00  0.00000000E+00  0.00000000E+00
  0.00000000E+00  0.00000000E+00  0.00000000E+00
  0.00000000E+00  0.00000000E+00  0.00000000E+00
  0.00000000E+00  0.00000000E+00  0.00000000E+00
  0.00000000E+00  0.00000000E+00  0.00000000E+00
  0.00000000E+00  0.00000000E+00  0.00000000E+00
  0.00000000E+00  0.00000000E+00  0.00000000E+00
  0.00000000E+00  0.00000000E+00  0.00000000E+00
  0.00000000E+00  0.00000000E+00  0.00000000E+00
  0.00000000E+00  0.00000000E+00  0.00000000E+00
  0.00000000E+00  0.00000000E+00  0.00000000E+00
  0.00000000E+00  0.00000000E+00  0.00000000E+00
  0.00000000E+00  0.00000000E+00  0.00000000E+00
  0.00000000E+00  0.00000000E+00  0.00000000E+00
  0.00000000E+00  0.00000000E+00  0.00000000E+00
  0.00000000E+00  0.00000000E+00  0.00000000E+00
  0.00000000E+00  0.00000000E+00  0.00000000E+00
  0.00000000E+00  0.00000000E+00  0.00000000E+00
  0.00000000E+00  0.00000000E+00  0.00000000E+00
  0.00000000E+00  0.00000000E+00  0.00000000E+00
  0.00000000E+00  0.00000000E+00  0.00000000E+00
  0.00000000E+00  0.00000000E+00  0.00000000E+00
  0.00000000E+00  0.00000000E+00  0.00000000E+00
  0.00000000E+00  0.00000000E+00  0.00000000E+00
  0.00000000E+00  0.00000000E+00  0.00000000E+00
  0.00000000E+00  0.00000000E+00  0.00000000E+00
  0.00000000E+00  0.00000000E+00  0.00000000E+00
  0.00000000E+00  0.00000000E+00  0.00000000E+00
  0.00000000E+00  0.00000000E+00  0.00000000E+00
  0.00000000E+00  0.00000000E+00  0.00000000E+00
  0.00000000E+00  0.00000000E+00  0.00000000E+00
  0.00000000E+00  0.00000000E+00  0.00000000E+00
  0.00000000E+00  0.00000000E+00  0.00000000E+00
  0.00000000E+00  0.00000000E+00  0.00000000E+00
  0.00000000E+00  0.00000000E+00  0.00000000E+00
  0.00000000E+00  0.00000000E+00  0.00000000E+00
  0.00000000E+00  0.00000000E+00  0.00000000E+00
  0.00000000E+00  0.00000000E+00  0.00000000E+00
  0.00000000E+00  0.00000000E+00  0.00000000E+00
  0.00000000E+00  0.00000000E+00  0.00000000E+00
