CONTCAR                                 
   1.00000000000000     
    13.9025001526000000    0.0000000000000000    0.0000000000000000
     0.0000000000000000   11.8838996886999997    0.0000000000000000
     0.0000000000000000    0.0000000000000000   20.5958003998000017
   Sc   N    Cl   O 
    20     4    32     1
Direct
  0.1239510063906001  0.9787933062795394  0.6073912708705088
  0.1257575521220513  0.0169258707381096  0.4021023288213296
  0.9999950816801123  0.1214125247571796  0.5123904449816334
  0.9999916026780008  0.8747982508182803  0.4970838976358895
  0.1249138491944001  0.4980106997299967  0.5008631473278746
  0.3951541095138936  0.9781135280882257  0.6195287354668007
  0.3736983784547050  0.0176191677786055  0.3997664346931230
  0.2518688181104239  0.1215705120541675  0.5099916644191933
  0.2526642127892734  0.8749979501706450  0.4950195963134036
  0.3744798244938108  0.5003413421367698  0.4947373575133932
  0.6048087933228877  0.9781173212650884  0.6195367972636358
  0.6262825577749400  0.0176215056903307  0.3997635343610586
  0.4999880187491242  0.1242978281087806  0.5064560742571270
  0.4999930173610913  0.8748565559026068  0.4909933367009462
  0.6254984785066989  0.5003464827362232  0.4947403809910222
  0.8760341923406176  0.9787937478668617  0.6073894763661756
  0.8742283474574486  0.0169264004697807  0.4021018238128277
  0.7481119467693399  0.1215694929934116  0.5099883415141907
  0.7473144034064981  0.8749995659007480  0.4950193364428696
  0.8750663286124507  0.4980103790939425  0.5008734161945047
  0.1269676641928504  0.9977275664101601  0.5055059972610400
  0.3759570496455734  0.9981911008665665  0.5050915036137795
  0.6240227882976527  0.9981947711485674  0.5050902565360481
  0.8730167797976548  0.9977289831031413  0.5055049666529968
  0.1250852062028000  0.7113744815835543  0.4831351332253531
  0.1254114160020853  0.2861068838686378  0.5243099156811197
 -0.0000136648922006  0.8239899246992760  0.6215136762912192
  0.9999943475500260  0.1698277968822307  0.3877782971745414
  0.9999901601858286  0.8734230185514300  0.3686220818629853
  0.9999917244430315  0.1245776843910714  0.6407282339958419
  0.9999941723358872  0.5198516369195721  0.5866794862821711
  0.9999852092348186  0.4768162359839551  0.4156130475107882
  0.3726308271431268  0.7101789283108813  0.4708404285996604
  0.3713224465450841  0.2892406994226502  0.5099713651495293
  0.2544947867113268  0.8309690763641500  0.6197105890072148
  0.2482946545177813  0.1704658712801785  0.3841845922279665
  0.2486868106405120  0.8735155826219312  0.3656127368059990
  0.2538695703091358  0.1198293778582870  0.6377204536093694
  0.2534643703251128  0.5224677600356928  0.5831331270340561
  0.2452840352499865  0.4783232475632995  0.4120451379252431
  0.6273524286007176  0.7101793611444316  0.4708251810434238
  0.6286547888044708  0.2892380745598422  0.5099628647797261
  0.5000026263226234  0.7896678295044786  0.5982359444576536
  0.4999845982199523  0.1690942910699900  0.3810766739095712
  0.4999921172649320  0.8766358584705219  0.3626486003153342
  0.4999978065303418  0.1723440035577418  0.6217752274197826
  0.4999878972319463  0.5100151056307485  0.5796459187865172
  0.4999925958709379  0.4798064747563136  0.4089763975791199
  0.8748928539258521  0.7113802723944319  0.4831424213522252
  0.8745733956188546  0.2861075059101110  0.5243158530289840
  0.7454805581984949  0.8309801605987386  0.6197118883450715
  0.7516922140036979  0.1704652409409118  0.3841806208087284
  0.7512978560278148  0.8735182459216609  0.3656119415611365
  0.7461130733329001  0.1198231756045898  0.6377180882703830
  0.7465178347933362  0.5224705402725403  0.5831387977545963
  0.7546965398479272  0.4783231382512867  0.4120558978905483
  0.4999799432387558  0.9676578169671510  0.6792693233027086
 
  0.00000000E+00  0.00000000E+00  0.00000000E+00
  0.00000000E+00  0.00000000E+00  0.00000000E+00
  0.00000000E+00  0.00000000E+00  0.00000000E+00
  0.00000000E+00  0.00000000E+00  0.00000000E+00
  0.00000000E+00  0.00000000E+00  0.00000000E+00
  0.00000000E+00  0.00000000E+00  0.00000000E+00
  0.00000000E+00  0.00000000E+00  0.00000000E+00
  0.00000000E+00  0.00000000E+00  0.00000000E+00
  0.00000000E+00  0.00000000E+00  0.00000000E+00
  0.00000000E+00  0.00000000E+00  0.00000000E+00
  0.00000000E+00  0.00000000E+00  0.00000000E+00
  0.00000000E+00  0.00000000E+00  0.00000000E+00
  0.00000000E+00  0.00000000E+00  0.00000000E+00
  0.00000000E+00  0.00000000E+00  0.00000000E+00
  0.00000000E+00  0.00000000E+00  0.00000000E+00
  0.00000000E+00  0.00000000E+00  0.00000000E+00
  0.00000000E+00  0.00000000E+00  0.00000000E+00
  0.00000000E+00  0.00000000E+00  0.00000000E+00
  0.00000000E+00  0.00000000E+00  0.00000000E+00
  0.00000000E+00  0.00000000E+00  0.00000000E+00
  0.00000000E+00  0.00000000E+00  0.00000000E+00
  0.00000000E+00  0.00000000E+00  0.00000000E+00
  0.00000000E+00  0.00000000E+00  0.00000000E+00
  0.00000000E+00  0.00000000E+00  0.00000000E+00
  0.00000000E+00  0.00000000E+00  0.00000000E+00
  0.00000000E+00  0.00000000E+00  0.00000000E+00
  0.00000000E+00  0.00000000E+00  0.00000000E+00
  0.00000000E+00  0.00000000E+00  0.00000000E+00
  0.00000000E+00  0.00000000E+00  0.00000000E+00
  0.00000000E+00  0.00000000E+00  0.00000000E+00
  0.00000000E+00  0.00000000E+00  0.00000000E+00
  0.00000000E+00  0.00000000E+00  0.00000000E+00
  0.00000000E+00  0.00000000E+00  0.00000000E+00
  0.00000000E+00  0.00000000E+00  0.00000000E+00
  0.00000000E+00  0.00000000E+00  0.00000000E+00
  0.00000000E+00  0.00000000E+00  0.00000000E+00
  0.00000000E+00  0.00000000E+00  0.00000000E+00
  0.00000000E+00  0.00000000E+00  0.00000000E+00
  0.00000000E+00  0.00000000E+00  0.00000000E+00
  0.00000000E+00  0.00000000E+00  0.00000000E+00
  0.00000000E+00  0.00000000E+00  0.00000000E+00
  0.00000000E+00  0.00000000E+00  0.00000000E+00
  0.00000000E+00  0.00000000E+00  0.00000000E+00
  0.00000000E+00  0.00000000E+00  0.00000000E+00
  0.00000000E+00  0.00000000E+00  0.00000000E+00
  0.00000000E+00  0.00000000E+00  0.00000000E+00
  0.00000000E+00  0.00000000E+00  0.00000000E+00
  0.00000000E+00  0.00000000E+00  0.00000000E+00
  0.00000000E+00  0.00000000E+00  0.00000000E+00
  0.00000000E+00  0.00000000E+00  0.00000000E+00
  0.00000000E+00  0.00000000E+00  0.00000000E+00
  0.00000000E+00  0.00000000E+00  0.00000000E+00
  0.00000000E+00  0.00000000E+00  0.00000000E+00
  0.00000000E+00  0.00000000E+00  0.00000000E+00
  0.00000000E+00  0.00000000E+00  0.00000000E+00
  0.00000000E+00  0.00000000E+00  0.00000000E+00
  0.00000000E+00  0.00000000E+00  0.00000000E+00
