CONTCAR\(19)                            
   1.00000000000000     
    14.4448003769000000    0.0000000000000000    0.0000000000000000
     0.0000000000000000   10.3396997452000008    0.0000000000000000
     0.0000000000000000    0.0000000000000000   18.5883998870999996
   Cu   Mo   F 
     6     6    36
Direct
  0.0007118981024612 -0.0000222806657868  0.4999152927467534
  0.3340418821024635 -0.0000222806657868  0.4999152927467534
  0.6673718701024591 -0.0000222806657868  0.4999152927467534
  0.0007118981024612  0.4999777193342133  0.4999152927467534
  0.3340418821024635  0.4999777193342133  0.4999152927467534
  0.6673718701024591  0.4999777193342133  0.4999152927467534
  0.1674156329465890  0.2499933073320480  0.5000260185510967
  0.5007456709465888  0.2499933073320480  0.5000260185510967
  0.8340756259465923  0.2499933073320480  0.5000260185510967
  0.1674156329465890  0.7499933303320462  0.5000260185510967
  0.5007456709465888  0.7499933303320462  0.5000260185510967
  0.8340756259465923  0.7499933303320462  0.5000260185510967
  0.2214140728110045  0.0908677317560501  0.5391056155634327
  0.1135404198732747  0.4092413071554307  0.4609376997196729
  0.1116840875843772  0.2809032362098188  0.5890299444826750
  0.2229248587053640  0.2188947713210563  0.4109421621041134
  0.0576205632093360  0.1594128329387677  0.4657861908812490
  0.2771384547675972  0.3407090539526191  0.5342570769510109
  0.5547540798110013  0.0908677317560501  0.5391056155634327
  0.4468704248732752  0.4092413071554307  0.4609376997196729
  0.4450240615843750  0.2809032362098188  0.5890299444826750
  0.5562647997053625  0.2188947713210563  0.4109421621041134
  0.3909505552093320  0.1594128329387677  0.4657861908812490
  0.6104684437675965  0.3407090539526191  0.5342570769510109
  0.8880840678110040  0.0908677317560501  0.5391056155634327
  0.7802004458732699  0.4092413071554307  0.4609376997196729
  0.7783541155843759  0.2809032362098188  0.5890299444826750
  0.8895948537053635  0.2188947713210563  0.4109421621041134
  0.7242805772093374  0.1594128329387677  0.4657861908812490
  0.9437984977675975  0.3407090539526191  0.5342570769510109
  0.2214140728110045  0.5908677367560469  0.5391056155634327
  0.1135404198732747  0.9092413531554275  0.4609376997196729
  0.1116840875843772  0.7809032822098223  0.5890299444826750
  0.2229248587053640  0.7188948173210528  0.4109421621041134
  0.0576205632093360  0.6594128209387666  0.4657861908812490
  0.2771384547675972  0.8407090539526190  0.5342570769510109
  0.5547540798110013  0.5908677367560469  0.5391056155634327
  0.4468704248732752  0.9092413531554275  0.4609376997196729
  0.4450240615843750  0.7809032822098223  0.5890299444826750
  0.5562647997053625  0.7188948173210528  0.4109421621041134
  0.3909505552093320  0.6594128209387666  0.4657861908812490
  0.6104684437675965  0.8407090539526190  0.5342570769510109
  0.8880840678110040  0.5908677367560469  0.5391056155634327
  0.7802004458732699  0.9092413531554275  0.4609376997196729
  0.7783541155843759  0.7809032822098223  0.5890299444826750
  0.8895948537053635  0.7188948173210528  0.4109421621041134
  0.7242805772093374  0.6594128209387666  0.4657861908812490
  0.9437984977675975  0.8407090539526190  0.5342570769510109
 
  0.00000000E+00  0.00000000E+00  0.00000000E+00
  0.00000000E+00  0.00000000E+00  0.00000000E+00
  0.00000000E+00  0.00000000E+00  0.00000000E+00
  0.00000000E+00  0.00000000E+00  0.00000000E+00
  0.00000000E+00  0.00000000E+00  0.00000000E+00
  0.00000000E+00  0.00000000E+00  0.00000000E+00
  0.00000000E+00  0.00000000E+00  0.00000000E+00
  0.00000000E+00  0.00000000E+00  0.00000000E+00
  0.00000000E+00  0.00000000E+00  0.00000000E+00
  0.00000000E+00  0.00000000E+00  0.00000000E+00
  0.00000000E+00  0.00000000E+00  0.00000000E+00
  0.00000000E+00  0.00000000E+00  0.00000000E+00
  0.00000000E+00  0.00000000E+00  0.00000000E+00
  0.00000000E+00  0.00000000E+00  0.00000000E+00
  0.00000000E+00  0.00000000E+00  0.00000000E+00
  0.00000000E+00  0.00000000E+00  0.00000000E+00
  0.00000000E+00  0.00000000E+00  0.00000000E+00
  0.00000000E+00  0.00000000E+00  0.00000000E+00
  0.00000000E+00  0.00000000E+00  0.00000000E+00
  0.00000000E+00  0.00000000E+00  0.00000000E+00
  0.00000000E+00  0.00000000E+00  0.00000000E+00
  0.00000000E+00  0.00000000E+00  0.00000000E+00
  0.00000000E+00  0.00000000E+00  0.00000000E+00
  0.00000000E+00  0.00000000E+00  0.00000000E+00
  0.00000000E+00  0.00000000E+00  0.00000000E+00
  0.00000000E+00  0.00000000E+00  0.00000000E+00
  0.00000000E+00  0.00000000E+00  0.00000000E+00
  0.00000000E+00  0.00000000E+00  0.00000000E+00
  0.00000000E+00  0.00000000E+00  0.00000000E+00
  0.00000000E+00  0.00000000E+00  0.00000000E+00
  0.00000000E+00  0.00000000E+00  0.00000000E+00
  0.00000000E+00  0.00000000E+00  0.00000000E+00
  0.00000000E+00  0.00000000E+00  0.00000000E+00
  0.00000000E+00  0.00000000E+00  0.00000000E+00
  0.00000000E+00  0.00000000E+00  0.00000000E+00
  0.00000000E+00  0.00000000E+00  0.00000000E+00
  0.00000000E+00  0.00000000E+00  0.00000000E+00
  0.00000000E+00  0.00000000E+00  0.00000000E+00
  0.00000000E+00  0.00000000E+00  0.00000000E+00
  0.00000000E+00  0.00000000E+00  0.00000000E+00
  0.00000000E+00  0.00000000E+00  0.00000000E+00
  0.00000000E+00  0.00000000E+00  0.00000000E+00
  0.00000000E+00  0.00000000E+00  0.00000000E+00
  0.00000000E+00  0.00000000E+00  0.00000000E+00
  0.00000000E+00  0.00000000E+00  0.00000000E+00
  0.00000000E+00  0.00000000E+00  0.00000000E+00
  0.00000000E+00  0.00000000E+00  0.00000000E+00
  0.00000000E+00  0.00000000E+00  0.00000000E+00
