CONTCAR\(4)                             
   1.00000000000000     
    13.6164999007999992    0.0000000000000000    0.0000000000000000
     0.0000000000000000   12.7049999237000009    0.0000000000000000
     0.0000000000000000    0.0000000000000000   19.1487998961999999
   Te   Mo   O    H 
    32    16     2     1
Direct
  0.1875239600720917  0.2158034412823753  0.4248461899989451
  0.0609859322263731  0.2840824114224247  0.5813508803440826
  0.0622236500356976  0.4613544663046767  0.3949578526364803
  0.1828457935585490  0.0379306173672518  0.6104794677057654
  0.4367486496259403  0.2157386145105065  0.4248683695265569
  0.3119605553855820  0.2830070366282840  0.5813110403805766
  0.3119413176340302  0.4611856770883875  0.3953672956474321
  0.4412586231057745  0.0378912133846967  0.6108463636539199
  0.6875938314599850  0.2193461858441168  0.4219133191381701
  0.5632904931493101  0.2845678489813110  0.5813613086215099
  0.5619125958076978  0.4619349361463634  0.3950142350094694
  0.6892571290863856  0.0402454809998218  0.6094255447556662
  0.9365593042900500  0.2192344626155744  0.4218020039405843
  0.8120785146255898  0.2838448409099357  0.5802654313452749
  0.8121449793662663  0.4630515477411095  0.3945462332778860
  0.9351322892398457  0.0398959330686637  0.6092988934964580
  0.1812498201476558  0.7157506273181653  0.4238937167259280
  0.0557315711919983  0.7852715280976525  0.5835713879755957
  0.0569142328301950  0.9681676527981011  0.3903133668813723
  0.1862533840424661  0.5394395371292404  0.6111482454635535
  0.4418915405704382  0.7162960645147791  0.4247147209553432
  0.3114166058702708  0.7921401932562162  0.5584650031562646
  0.3123170936475645  0.9575874966576166  0.4010497708059262
  0.4379260937377509  0.5384358740447084  0.6109228085135001
  0.6882253990137741  0.7162077569834935  0.4234984722467772
  0.5685010820235590  0.7855727332222671  0.5838556401709170
  0.5672348985051840  0.9681110876168262  0.3906911591849607
  0.6883638815043867  0.5380994987397187  0.6119936904302179
  0.9358414152616135  0.7160698139035588  0.4234444259327361
  0.8119662592432846  0.7861660381335582  0.5813059752008698
  0.8121729179573691  0.9637267309783368  0.3912668841951330
  0.9359473233115949  0.5377626247966916  0.6119345633428495
  0.1864676566178076  0.4085763991228148  0.4989137129798564
  0.0586698563556425  0.0935081947579519  0.5056386724963247
  0.4375495800297031  0.4085383319443352  0.4987123271554808
  0.3122572222102917  0.0885641956211458  0.5093710641290201
  0.6876295726690245  0.4099400778027089  0.4981870350431876
  0.5654506874333904  0.0937065202153207  0.5059550780728301
  0.9366554788183166  0.4097116732991282  0.4981730529459441
  0.8121105019966564  0.0929816958090512  0.5045168914441618
  0.1676536248710150  0.9097709301837540  0.4976606520783804
  0.0597358518643958  0.5909764155148096  0.5080939243352063
  0.4565005807262210  0.9104132025314371  0.4982168316320994
  0.3115375625447641  0.5905851234923531  0.5072511011564984
  0.6903961692326206  0.9098919546932365  0.4960643239402174
  0.5644664826260737  0.5913302258347528  0.5082371271105899
  0.9340961248998525  0.9096562063453817  0.4959723541052057
  0.8121232763484016  0.5922825593388481  0.5076168221754074
  0.2915952917831817  0.8195626671635097  0.6652513376548725
  0.3754781935929969  0.7824230161568266  0.7060840111132052
  0.3501947978514153  0.7148704756861974  0.7234391737707995
 
  0.00000000E+00  0.00000000E+00  0.00000000E+00
  0.00000000E+00  0.00000000E+00  0.00000000E+00
  0.00000000E+00  0.00000000E+00  0.00000000E+00
  0.00000000E+00  0.00000000E+00  0.00000000E+00
  0.00000000E+00  0.00000000E+00  0.00000000E+00
  0.00000000E+00  0.00000000E+00  0.00000000E+00
  0.00000000E+00  0.00000000E+00  0.00000000E+00
  0.00000000E+00  0.00000000E+00  0.00000000E+00
  0.00000000E+00  0.00000000E+00  0.00000000E+00
  0.00000000E+00  0.00000000E+00  0.00000000E+00
  0.00000000E+00  0.00000000E+00  0.00000000E+00
  0.00000000E+00  0.00000000E+00  0.00000000E+00
  0.00000000E+00  0.00000000E+00  0.00000000E+00
  0.00000000E+00  0.00000000E+00  0.00000000E+00
  0.00000000E+00  0.00000000E+00  0.00000000E+00
  0.00000000E+00  0.00000000E+00  0.00000000E+00
  0.00000000E+00  0.00000000E+00  0.00000000E+00
  0.00000000E+00  0.00000000E+00  0.00000000E+00
  0.00000000E+00  0.00000000E+00  0.00000000E+00
  0.00000000E+00  0.00000000E+00  0.00000000E+00
  0.00000000E+00  0.00000000E+00  0.00000000E+00
  0.00000000E+00  0.00000000E+00  0.00000000E+00
  0.00000000E+00  0.00000000E+00  0.00000000E+00
  0.00000000E+00  0.00000000E+00  0.00000000E+00
  0.00000000E+00  0.00000000E+00  0.00000000E+00
  0.00000000E+00  0.00000000E+00  0.00000000E+00
  0.00000000E+00  0.00000000E+00  0.00000000E+00
  0.00000000E+00  0.00000000E+00  0.00000000E+00
  0.00000000E+00  0.00000000E+00  0.00000000E+00
  0.00000000E+00  0.00000000E+00  0.00000000E+00
  0.00000000E+00  0.00000000E+00  0.00000000E+00
  0.00000000E+00  0.00000000E+00  0.00000000E+00
  0.00000000E+00  0.00000000E+00  0.00000000E+00
  0.00000000E+00  0.00000000E+00  0.00000000E+00
  0.00000000E+00  0.00000000E+00  0.00000000E+00
  0.00000000E+00  0.00000000E+00  0.00000000E+00
  0.00000000E+00  0.00000000E+00  0.00000000E+00
  0.00000000E+00  0.00000000E+00  0.00000000E+00
  0.00000000E+00  0.00000000E+00  0.00000000E+00
  0.00000000E+00  0.00000000E+00  0.00000000E+00
  0.00000000E+00  0.00000000E+00  0.00000000E+00
  0.00000000E+00  0.00000000E+00  0.00000000E+00
  0.00000000E+00  0.00000000E+00  0.00000000E+00
  0.00000000E+00  0.00000000E+00  0.00000000E+00
  0.00000000E+00  0.00000000E+00  0.00000000E+00
  0.00000000E+00  0.00000000E+00  0.00000000E+00
  0.00000000E+00  0.00000000E+00  0.00000000E+00
  0.00000000E+00  0.00000000E+00  0.00000000E+00
  0.00000000E+00  0.00000000E+00  0.00000000E+00
  0.00000000E+00  0.00000000E+00  0.00000000E+00
  0.00000000E+00  0.00000000E+00  0.00000000E+00
