 Nb4 Ge2 Te8                            
   1.00000000000000     
     6.4805091058626161    0.0000000000000000    0.0000000000000000
     0.0000000000000000    7.9259671431263659    0.0000000000000000
     0.0000000000000000    0.0000000000000000   18.7993849322940001
   Nb   Ge   Te
     4     2     8
Direct
  0.3573212288849206  0.0346773938436726  0.4999774013706073
  0.6426797885180378  0.5346725506266168  0.5000224838281966
  0.8573226787426549  0.2141291555526479  0.4999852018234066
  0.1426793325901343  0.7141356911364696  0.5000147995178708
  0.2499371240028836  0.3744241588948611  0.5000847115634457
  0.7500592091359835  0.8744315660825350  0.4999157802378065
  0.0385952385912702  0.9892111431344048  0.3986190478804161
  0.9614041127020769  0.4892036795661028  0.6013827372312690
  0.4616754119079687  0.7598158257289924  0.6012689628830685
  0.5383255315333386  0.2598094722726572  0.3987327282797466
  0.9614755060443230  0.4891602433597981  0.3986956708406382
  0.0385238824983745  0.9891677244406694  0.6013023590791633
  0.5385087377746842  0.2595605191313979  0.6012770266247642
  0.4614922170733564  0.7595668762291652  0.3987210888396007
 
  0.00000000E+00  0.00000000E+00  0.00000000E+00
  0.00000000E+00  0.00000000E+00  0.00000000E+00
  0.00000000E+00  0.00000000E+00  0.00000000E+00
  0.00000000E+00  0.00000000E+00  0.00000000E+00
  0.00000000E+00  0.00000000E+00  0.00000000E+00
  0.00000000E+00  0.00000000E+00  0.00000000E+00
  0.00000000E+00  0.00000000E+00  0.00000000E+00
  0.00000000E+00  0.00000000E+00  0.00000000E+00
  0.00000000E+00  0.00000000E+00  0.00000000E+00
  0.00000000E+00  0.00000000E+00  0.00000000E+00
  0.00000000E+00  0.00000000E+00  0.00000000E+00
  0.00000000E+00  0.00000000E+00  0.00000000E+00
  0.00000000E+00  0.00000000E+00  0.00000000E+00
  0.00000000E+00  0.00000000E+00  0.00000000E+00
