CONTCAR\(7)                             
   1.00000000000000     
    13.9118995667000007    0.0000000000000000    0.0000000000000000
     6.9559656922000004   12.0482805079999995    0.0000000000000000
     0.0000000000000000    0.0000000000000000   17.6690006255999990
   Co   Cl
    16    32
Direct
  0.0000000000000000  0.0000000000000000  0.5000000000000000
  0.2500000000000000  0.0000000000000000  0.5000000000000000
  0.5000000000000000  0.0000000000000000  0.5000000000000000
  0.7500000000000000  0.0000000000000000  0.5000000000000000
  0.9999999950000031  0.2500000040000003  0.5000000000000000
  0.2499999859999988  0.2500000040000003  0.5000000000000000
  0.5000000200000017  0.2500000040000003  0.5000000000000000
  0.7500000200000017  0.2500000040000003  0.5000000000000000
  0.9999999890000026  0.5000000089999972  0.5000000000000000
  0.2499999719999977  0.5000000089999972  0.5000000000000000
  0.4999999719999977  0.5000000089999972  0.5000000000000000
  0.7499999719999977  0.5000000089999972  0.5000000000000000
  0.9999999730000013  0.7500000530000008  0.5000000000000000
  0.2499999730000013  0.7500000530000008  0.5000000000000000
  0.4999999730000013  0.7500000530000008  0.5000000000000000
  0.7499999730000013  0.7500000530000008  0.5000000000000000
  0.1666699849999986  0.1666700010000000  0.4232923043797854
  0.0833299840000024  0.0833300039999969  0.5767077226202133
  0.4166699849999986  0.1666700010000000  0.4232923043797854
  0.3333300010000002  0.0833300039999969  0.5767077226202133
  0.6666700190000014  0.1666700010000000  0.4232923043797854
  0.5833299330000017  0.0833300039999969  0.5767077226202133
  0.9166700190000014  0.1666700010000000  0.4232923043797854
  0.8333299330000017  0.0833300039999969  0.5767077226202133
  0.1666699809999983  0.4166699849999986  0.4232923043797854
  0.0833299780000019  0.3333300279999989  0.5767077226202133
  0.4166699809999983  0.4166699849999986  0.4232923043797854
  0.3333300119999976  0.3333300279999989  0.5767077226202133
  0.6666700489999968  0.4166699849999986  0.4232923043797854
  0.5833299430000025  0.3333300279999989  0.5767077226202133
  0.9166700489999968  0.4166699849999986  0.4232923043797854
  0.8333299430000025  0.3333300279999989  0.5767077226202133
  0.1666699809999983  0.6666700290000023  0.4232923043797854
  0.0833299840000024  0.5833299929999995  0.5767077226202133
  0.4166699809999983  0.6666700290000023  0.4232923043797854
  0.3333300520000009  0.5833299929999995  0.5767077226202133
  0.6666700500000005  0.6666700290000023  0.4232923043797854
  0.5833299840000024  0.5833299929999995  0.5767077226202133
  0.9166700500000005  0.6666700290000023  0.4232923043797854
  0.8333299150000002  0.5833299929999995  0.5767077226202133
  0.1666699820000019  0.9166700729999988  0.4232923043797854
  0.0833299700000012  0.8333299969999999  0.5767077226202133
  0.4166699820000019  0.9166700729999988  0.4232923043797854
  0.3333300039999969  0.8333299969999999  0.5767077226202133
  0.6666700509999970  0.9166700729999988  0.4232923043797854
  0.5833299359999984  0.8333299969999999  0.5767077226202133
  0.9166699820000019  0.9166700729999988  0.4232923043797854
  0.8333298670000033  0.8333299969999999  0.5767077226202133
 
  0.00000000E+00  0.00000000E+00  0.00000000E+00
  0.00000000E+00  0.00000000E+00  0.00000000E+00
  0.00000000E+00  0.00000000E+00  0.00000000E+00
  0.00000000E+00  0.00000000E+00  0.00000000E+00
  0.00000000E+00  0.00000000E+00  0.00000000E+00
  0.00000000E+00  0.00000000E+00  0.00000000E+00
  0.00000000E+00  0.00000000E+00  0.00000000E+00
  0.00000000E+00  0.00000000E+00  0.00000000E+00
  0.00000000E+00  0.00000000E+00  0.00000000E+00
  0.00000000E+00  0.00000000E+00  0.00000000E+00
  0.00000000E+00  0.00000000E+00  0.00000000E+00
  0.00000000E+00  0.00000000E+00  0.00000000E+00
  0.00000000E+00  0.00000000E+00  0.00000000E+00
  0.00000000E+00  0.00000000E+00  0.00000000E+00
  0.00000000E+00  0.00000000E+00  0.00000000E+00
  0.00000000E+00  0.00000000E+00  0.00000000E+00
  0.00000000E+00  0.00000000E+00  0.00000000E+00
  0.00000000E+00  0.00000000E+00  0.00000000E+00
  0.00000000E+00  0.00000000E+00  0.00000000E+00
  0.00000000E+00  0.00000000E+00  0.00000000E+00
  0.00000000E+00  0.00000000E+00  0.00000000E+00
  0.00000000E+00  0.00000000E+00  0.00000000E+00
  0.00000000E+00  0.00000000E+00  0.00000000E+00
  0.00000000E+00  0.00000000E+00  0.00000000E+00
  0.00000000E+00  0.00000000E+00  0.00000000E+00
  0.00000000E+00  0.00000000E+00  0.00000000E+00
  0.00000000E+00  0.00000000E+00  0.00000000E+00
  0.00000000E+00  0.00000000E+00  0.00000000E+00
  0.00000000E+00  0.00000000E+00  0.00000000E+00
  0.00000000E+00  0.00000000E+00  0.00000000E+00
  0.00000000E+00  0.00000000E+00  0.00000000E+00
  0.00000000E+00  0.00000000E+00  0.00000000E+00
  0.00000000E+00  0.00000000E+00  0.00000000E+00
  0.00000000E+00  0.00000000E+00  0.00000000E+00
  0.00000000E+00  0.00000000E+00  0.00000000E+00
  0.00000000E+00  0.00000000E+00  0.00000000E+00
  0.00000000E+00  0.00000000E+00  0.00000000E+00
  0.00000000E+00  0.00000000E+00  0.00000000E+00
  0.00000000E+00  0.00000000E+00  0.00000000E+00
  0.00000000E+00  0.00000000E+00  0.00000000E+00
  0.00000000E+00  0.00000000E+00  0.00000000E+00
  0.00000000E+00  0.00000000E+00  0.00000000E+00
  0.00000000E+00  0.00000000E+00  0.00000000E+00
  0.00000000E+00  0.00000000E+00  0.00000000E+00
  0.00000000E+00  0.00000000E+00  0.00000000E+00
  0.00000000E+00  0.00000000E+00  0.00000000E+00
  0.00000000E+00  0.00000000E+00  0.00000000E+00
  0.00000000E+00  0.00000000E+00  0.00000000E+00
