CONTCAR\(12)                            
   1.00000000000000     
    14.1683998108000004    0.0000000000000000    0.0000000000000000
     0.0000000000000000   20.5298995972000000    0.0000000000000000
     0.0000000000000000    0.0000000000000000   19.1021003723000007
   Nb   Te   O 
    32    48     1
Direct
  0.0625273670941100  0.1359858811097879  0.5475714954971482
  0.1877197303575710  0.0754021024913901  0.4501857610198793
  0.0626546041253365  0.2933460982834895  0.4980141910682085
  0.1863054952484233  0.4164201286458491  0.4995270929701708
  0.3124294513127947  0.1358402821888848  0.5476981811493206
  0.4374628258384048  0.0752426899441995  0.4505526869815857
  0.3117601441471048  0.2933413857019543  0.4974915535883748
  0.4365179728054481  0.4162972393939345  0.4994139910083186
  0.5623887191107281  0.1358787689932446  0.5478125036796301
  0.6874753838787675  0.0752096224552675  0.4505630622175314
  0.5624230279027245  0.2929683908995509  0.4969065690291399
  0.6885895849922742  0.4162180906573476  0.4994213978273606
  0.8125795155752976  0.1358174772682593  0.5476350385526739
  0.9375505980523549  0.0755129496287066  0.4500937593873061
  0.8128750681673257  0.2931966744505365  0.4974478514881471
  0.9386006327766885  0.4162662638721137  0.4994875756805700
  0.0623469957963580  0.6347831177715499  0.5483633766325264
  0.1838930045313708  0.5749156226477939  0.4502799762845764
  0.0624421359671750  0.7949152441911934  0.4983448143129179
  0.1868533856282717  0.9186425312909511  0.4995191711313507
  0.3154560584442673  0.6347127298702210  0.5525031952064405
  0.4226745359523579  0.5747576362217445  0.4539520280027478
  0.3073961712847989  0.7951930208543865  0.4988673471069248
  0.4370258545472052  0.9180838504384334  0.5007520702184715
  0.5625424913991188  0.6384217466615957  0.5885215412386984
  0.7025418545064245  0.5747686220844384  0.4538914167054633
  0.5625558521985619  0.7927077566718292  0.5022590702545244
  0.6877802481965678  0.9181840743808033  0.5007522850714583
  0.8099212417825526  0.6347357533905221  0.5524255987114558
  0.9410288149095491  0.5750066069182480  0.4501612873887491
  0.8176605626575589  0.7952132071171032  0.4988940998654905
  0.9384914832696849  0.9186294111447736  0.4994161750733971
  0.1869291659776388  0.3272704470931674  0.3910195799747478
  0.0626817949089410  0.1737209340982399  0.4083690602233960
  0.1876040168650183  0.2316183689042792  0.5991061607300787
  0.0624171541346744  0.4784409166926793  0.3978450477041154
  0.0624924296572011  0.3830559078391006  0.6065125552295751
  0.1874479330531066  0.0380138592023816  0.5897363169797496
  0.4374110602449145  0.3274564160095438  0.3909608243080872
  0.3127299923880707  0.1734991753045250  0.4083855248882221
  0.4372925902771825  0.2315658522480801  0.5988319707410161
  0.3111000998319742  0.4782026186855299  0.3972993919389432
  0.3111911714476125  0.3825861220177315  0.6061413891783715
  0.4375289612572192  0.0377095501198188  0.5899049409464661
  0.6873193753789363  0.3274394611769476  0.3908390533302971
  0.5623921111583264  0.1731894841873673  0.4083617813063811
  0.6874928033216389  0.2314348815416836  0.5988097782825749
  0.5626214032131807  0.4841562293644973  0.4064883538167191
  0.5625434298946442  0.3815013750055344  0.6053294468181534
  0.6874440618549684  0.0378108164673295  0.5900303567667876
  0.9379334650320271  0.3267727032212477  0.3911436460935556
  0.8122376328873301  0.1734387343807211  0.4082798660188859
  0.9373002131634486  0.2315528913055453  0.5990495480565012
  0.8139774228662354  0.4781349299576034  0.3973201970158325
  0.8138113830256559  0.3823674948875787  0.6062086205936700
  0.9376323658974387  0.0378742983232004  0.5895553023874658
  0.1865821761578320  0.8297628178814108  0.3907495059612256
  0.0626044286133470  0.6746173610933053  0.4094627746827522
  0.1854187437488390  0.7328812890989919  0.5989203595484838
  0.0626407801525054  0.9805820349971364  0.3978541991458946
  0.0626341876027064  0.8849775885417531  0.6062773493528389
  0.1870312963357550  0.5367118253077379  0.5898052351519364
  0.4383312205034839  0.8260021325068214  0.3945894858075426
  0.3081992318834130  0.6754562078244438  0.4133215067592124
  0.4287695857638485  0.7392791904492263  0.6033408783186437
  0.3130512359998070  0.9794828556029155  0.3987765263088917
  0.3105878719596011  0.8857877317399857  0.6066700507249039
  0.4344655973382233  0.5313345937453229  0.5887748075771783
  0.6866608670733385  0.8260951214966157  0.3946811676016219
  0.5625790599353259  0.6680081300586912  0.4294778848146386
  0.6964389785155664  0.7391274837106502  0.6033751744437931
  0.5624645867573459  0.9788444956237480  0.3997304221658424
  0.5625072534975396  0.8849577427532272  0.6079474444299818
  0.6909798922774012  0.5314049394117222  0.5888127777988861
  0.9383753848469630  0.8296422042363378  0.3907077805751981
  0.8168350780490040  0.6755547807569132  0.4131967017631059
  0.9396112243170454  0.7331669168571907  0.5990113163321967
  0.8120722311072220  0.9796744473188390  0.3987977519835925
  0.8144414257534668  0.8860443549251679  0.6064539993377663
  0.9379842315470535  0.5363609686167700  0.5895250061178451
  0.5621416230688921  0.6373042187705688  0.6791354996157625
 
  0.00000000E+00  0.00000000E+00  0.00000000E+00
  0.00000000E+00  0.00000000E+00  0.00000000E+00
  0.00000000E+00  0.00000000E+00  0.00000000E+00
  0.00000000E+00  0.00000000E+00  0.00000000E+00
  0.00000000E+00  0.00000000E+00  0.00000000E+00
  0.00000000E+00  0.00000000E+00  0.00000000E+00
  0.00000000E+00  0.00000000E+00  0.00000000E+00
  0.00000000E+00  0.00000000E+00  0.00000000E+00
  0.00000000E+00  0.00000000E+00  0.00000000E+00
  0.00000000E+00  0.00000000E+00  0.00000000E+00
  0.00000000E+00  0.00000000E+00  0.00000000E+00
  0.00000000E+00  0.00000000E+00  0.00000000E+00
  0.00000000E+00  0.00000000E+00  0.00000000E+00
  0.00000000E+00  0.00000000E+00  0.00000000E+00
  0.00000000E+00  0.00000000E+00  0.00000000E+00
  0.00000000E+00  0.00000000E+00  0.00000000E+00
  0.00000000E+00  0.00000000E+00  0.00000000E+00
  0.00000000E+00  0.00000000E+00  0.00000000E+00
  0.00000000E+00  0.00000000E+00  0.00000000E+00
  0.00000000E+00  0.00000000E+00  0.00000000E+00
  0.00000000E+00  0.00000000E+00  0.00000000E+00
  0.00000000E+00  0.00000000E+00  0.00000000E+00
  0.00000000E+00  0.00000000E+00  0.00000000E+00
  0.00000000E+00  0.00000000E+00  0.00000000E+00
  0.00000000E+00  0.00000000E+00  0.00000000E+00
  0.00000000E+00  0.00000000E+00  0.00000000E+00
  0.00000000E+00  0.00000000E+00  0.00000000E+00
  0.00000000E+00  0.00000000E+00  0.00000000E+00
  0.00000000E+00  0.00000000E+00  0.00000000E+00
  0.00000000E+00  0.00000000E+00  0.00000000E+00
  0.00000000E+00  0.00000000E+00  0.00000000E+00
  0.00000000E+00  0.00000000E+00  0.00000000E+00
  0.00000000E+00  0.00000000E+00  0.00000000E+00
  0.00000000E+00  0.00000000E+00  0.00000000E+00
  0.00000000E+00  0.00000000E+00  0.00000000E+00
  0.00000000E+00  0.00000000E+00  0.00000000E+00
  0.00000000E+00  0.00000000E+00  0.00000000E+00
  0.00000000E+00  0.00000000E+00  0.00000000E+00
  0.00000000E+00  0.00000000E+00  0.00000000E+00
  0.00000000E+00  0.00000000E+00  0.00000000E+00
  0.00000000E+00  0.00000000E+00  0.00000000E+00
  0.00000000E+00  0.00000000E+00  0.00000000E+00
  0.00000000E+00  0.00000000E+00  0.00000000E+00
  0.00000000E+00  0.00000000E+00  0.00000000E+00
  0.00000000E+00  0.00000000E+00  0.00000000E+00
  0.00000000E+00  0.00000000E+00  0.00000000E+00
  0.00000000E+00  0.00000000E+00  0.00000000E+00
  0.00000000E+00  0.00000000E+00  0.00000000E+00
  0.00000000E+00  0.00000000E+00  0.00000000E+00
  0.00000000E+00  0.00000000E+00  0.00000000E+00
  0.00000000E+00  0.00000000E+00  0.00000000E+00
  0.00000000E+00  0.00000000E+00  0.00000000E+00
  0.00000000E+00  0.00000000E+00  0.00000000E+00
  0.00000000E+00  0.00000000E+00  0.00000000E+00
  0.00000000E+00  0.00000000E+00  0.00000000E+00
  0.00000000E+00  0.00000000E+00  0.00000000E+00
  0.00000000E+00  0.00000000E+00  0.00000000E+00
  0.00000000E+00  0.00000000E+00  0.00000000E+00
  0.00000000E+00  0.00000000E+00  0.00000000E+00
  0.00000000E+00  0.00000000E+00  0.00000000E+00
  0.00000000E+00  0.00000000E+00  0.00000000E+00
  0.00000000E+00  0.00000000E+00  0.00000000E+00
  0.00000000E+00  0.00000000E+00  0.00000000E+00
  0.00000000E+00  0.00000000E+00  0.00000000E+00
  0.00000000E+00  0.00000000E+00  0.00000000E+00
  0.00000000E+00  0.00000000E+00  0.00000000E+00
  0.00000000E+00  0.00000000E+00  0.00000000E+00
  0.00000000E+00  0.00000000E+00  0.00000000E+00
  0.00000000E+00  0.00000000E+00  0.00000000E+00
  0.00000000E+00  0.00000000E+00  0.00000000E+00
  0.00000000E+00  0.00000000E+00  0.00000000E+00
  0.00000000E+00  0.00000000E+00  0.00000000E+00
  0.00000000E+00  0.00000000E+00  0.00000000E+00
  0.00000000E+00  0.00000000E+00  0.00000000E+00
  0.00000000E+00  0.00000000E+00  0.00000000E+00
  0.00000000E+00  0.00000000E+00  0.00000000E+00
  0.00000000E+00  0.00000000E+00  0.00000000E+00
  0.00000000E+00  0.00000000E+00  0.00000000E+00
  0.00000000E+00  0.00000000E+00  0.00000000E+00
  0.00000000E+00  0.00000000E+00  0.00000000E+00
  0.00000000E+00  0.00000000E+00  0.00000000E+00
