CONTCAR\(14)                            
   1.00000000000000     
    12.5853996276999993    0.0000000000000000    0.0000000000000000
     0.0000000000000000   10.3535003662000005    0.0000000000000000
     0.0000000000000000    0.0000000000000000   22.0041007995999998
   Cu   O    F 
    36    13    60
Selective dynamics
Direct
  0.0053063508912317  0.2130806562168104  0.3515196743358757   F   F   F
  0.1819523543031636  0.4731801495405890  0.3353833417629062   F   F   F
  0.9921870392629302  0.0378791857719918  0.6338669297781934   F   F   F
  0.1568125796947726  0.2886199801812097  0.6602996364453730   F   F   F
  0.1219427815632628  0.0899745074675451  0.4619291114534931   F   F   F
  0.3051599625553223  0.3619053032177959  0.5101090429283204   F   F   F
  0.3389256726654963  0.2181266641458350  0.3436981640015944   F   F   F
  0.5067160004887441  0.4749108062273564  0.3707985408529950   F   F   F
  0.3486527493085561  0.0334481827997664  0.6601360818530253   F   F   F
  0.5058935085978362  0.2880975679032147  0.6333343366499236   F   F   F
  0.4209864817431210  0.0950865384676831  0.4683331960750223   F   F   F
  0.6374121906708652  0.3731066259191067  0.5055965853272468   F   F   F
  0.6759552749145925  0.2143161045258992  0.3799208351282246   F   F   F
  0.8359964645154250  0.4710035720841788  0.3693851773398080   F   F   F
  0.6730319512543943  0.0288329507600338  0.6283098535928886   F   F   F
  0.8442093225659093  0.2892976120929518  0.6248043743690701   F   F   F
  0.8418160965263866  0.1285043951484184  0.4917439891251263   F   F   F
  0.0313958998873431  0.3769767720468167  0.5231125330784252   F   F   F
  0.0036065313953486  0.7147027490711366  0.3500807600927445   F   F   F
  0.1805964412667151  0.9738135592855599  0.3379660574755974   F   F   F
  0.9990339062102507  0.5409580439269490  0.6328441547387200   F   F   F
  0.1593865481430257  0.7971005941032772  0.6601834165321137   F   F   F
  0.1266028735287676  0.6027867403304867  0.4569252879872892   F   F   F
  0.2611814400027157  0.9066719209813812  0.5464906527978002   F   F   F
  0.3358392251132756  0.7185976169942094  0.3421764772502982   F   F   F
  0.5099139494100484  0.9730041770454534  0.3567360620945124   F   F   F
  0.3688278238696157  0.5786760368208945  0.6294744501039276   F   F   F
  0.5168687479878926  0.7940644883051533  0.6382945703085312   F   F   F
  0.4242052549601354  0.6887618135164928  0.4665017003718361   F   F   F
  0.6444807217247899  0.8723225548711895  0.5066625490462542   F   F   F
  0.6823082991243723  0.7142734412420353  0.3744231370310942   F   F   F
  0.8339208302142680  0.9734405650487759  0.3712253847306144   F   F   F
  0.6688340486987627  0.5264527287994341  0.6272729360108187   F   F   F
  0.8371167375192954  0.7884373940521741  0.6247589127875131   F   F   F
  0.8424576625997631  0.6162565718953630  0.4906066251921075   F   F   F
  0.0017916935311177  0.8548786953907239  0.5212504603751924   F   F   F
  0.2249251056760286  0.2906934370405239  0.7441645595800352   F   F   F
  0.1251601870554566  0.1175148689370999  0.3786269391857928   F   F   F
  0.6042619957694271  0.3846641602979659  0.5933471269461918   F   F   F
  0.4390880546703855  0.1190604730174272  0.3851327720292161   F   F   F
  0.9470390806751681  0.3953158064374591  0.5949086388575893   F   F   F
  0.7895008865219637  0.1221059525001564  0.4114095139390841   F   F   F
  0.2772702599949000  0.8886624360718187  0.6312115286963902   F   F   F
  0.1251109866445788  0.6195840496974299  0.3722904754274765   F   F   F
  0.6099535974714954  0.8856966026791540  0.5929587723819125   F   F   F
  0.4361785642335008  0.6287347367201832  0.3876502621645415   F   F   F
  0.9445683837446950  0.8927182998745806  0.5957002269621654   F   F   F
  0.7900903613568531  0.6176045070655078  0.4096826931442692   F   F   F
  0.2381738103932989  0.3949032610408737  0.7701989542137192   T   T   T
  0.2895936121782228  0.0721262070725430  0.3005177468072091   F   F   F
  0.0108378176040986  0.1899401610691740  0.6779451712436071   F   F   F
  0.2397750638531377  0.3212658328738485  0.2988259404195617   F   F   F
  0.0938702626931587  0.4459492396972209  0.6819334108871473   F   F   F
  0.2264391961996139  0.1327502639982825  0.6482646952388720   F   F   F
  0.1080701770575061  0.0506618555003442  0.5448259542061109   F   F   F
  0.1498783105167334  0.3106169981113069  0.5711923707585669   F   F   F
  0.2035707164398701  0.4334818063669132  0.4565393840820633   F   F   F
  0.2966283866225012  0.2047737517012251  0.4654981312431588   F   F   F
  0.0713798931972107  0.3718237910089215  0.3666920949201824   F   F   F
  0.6319999038487012  0.0691165218883398  0.3332904114844411   F   F   F
  0.4203074082082807  0.1852597282854589  0.6864495478677881   F   F   F
  0.5728606086801520  0.3202661415358321  0.3397564610901185   F   F   F
  0.4452810645781113  0.4362568551386161  0.6680406834464208   F   F   F
  0.5630597709440721  0.1340099247441557  0.6012271653203030   F   F   F
  0.3750688876556296  0.0290131033329857  0.5460844794059199   F   F   F
  0.4006083092341797  0.2825755205044516  0.5606741188457036   F   F   F
  0.5260315920614431  0.4690948443751850  0.4690277877781881   F   F   F
  0.5786204747493002  0.2254694041384724  0.4687079185744309   F   F   F
  0.3808781920138529  0.3726052340547881  0.3821319406515471   F   F   F
  0.9328932606807001  0.0650888464950299  0.3227878778439859   F   F   F
  0.7424406290491348  0.1757203842816253  0.6608358200017364   F   F   F
  0.8810224897349954  0.3156621670184734  0.3311482948644624   F   F   F
  0.7779548853591862  0.4290111071250848  0.6651915730533631   F   F   F
  0.9030479056753435  0.1410885754794506  0.5787813397636157   F   F   F
  0.7278634664694650  0.0200526382237527  0.5280278832111733   F   F   F
  0.7686685627590606  0.2768181675796058  0.5229336898317527   F   F   F
  0.9293592345093771  0.4630999317290829  0.4701808095975366   F   F   F
  0.0147706439408353  0.2208690149760386  0.4709500494495629   F   F   F
  0.7321868673764484  0.3737345250950668  0.4118867792112368   F   F   F
  0.2926978197357997  0.5701138258237961  0.2989560217773715   F   F   F
  0.0342428843716434  0.6955193524677128  0.6763058760655767   F   F   F
  0.2358094333740084  0.8232298482650648  0.2983030785634000   F   F   F
  0.0857878122145195  0.9435080637239537  0.6862291010877613   F   F   F
  0.2297360833689481  0.6425627919926242  0.6470201167241640   F   F   F
  0.0947745105666229  0.5541313984740697  0.5392303213204315   F   F   F
  0.1399987053577689  0.7945196113466366  0.5485682740633138   F   F   F
  0.2265884253787362  0.9546603722510838  0.4613281500559268   F   F   F
  0.2777489066507428  0.6858758889837162  0.4546796702953912   F   F   F
  0.0726490283826493  0.8706068995502321  0.3710877528592746   F   F   F
  0.6275311909659962  0.5663663850356571  0.3366619486520221   F   F   F
  0.4275331628922885  0.6925034402457726  0.6884515519858923   F   F   F
  0.5813234031016208  0.8196819932108070  0.3308355818676318   F   F   F
  0.4742288623236348  0.9406612755086812  0.6820455357237876   F   F   F
  0.5549053597198821  0.6343495748237160  0.6012253720277059   F   F   F
  0.3257842639979955  0.5176002531642041  0.5527135085478392   F   F   F
  0.4005615254414892  0.7654546432144258  0.5419865133195927   F   F   F
  0.5314655180965033  0.9714143962928290  0.4667523012190813   F   F   F
  0.5723353130110880  0.7229592089068291  0.4707848910960450   F   F   F
  0.3876762084265550  0.8736490090004736  0.3766424055748629   F   F   F
  0.9309274053326675  0.5667195939978598  0.3209072801168418   F   F   F
  0.7340233351137613  0.6760817561593129  0.6607806292783778   F   F   F
  0.8784843008291929  0.8175100111843747  0.3321647609172018   F   F   F
  0.7773731556404186  0.9288000942172587  0.6682379802790948   F   F   F
  0.9013493926866616  0.6395993465265306  0.5831379707382496   F   F   F
  0.7211596674493350  0.5230742865127667  0.5273551034263022   F   F   F
  0.7749652370102211  0.7709832577990952  0.5215109988818725   F   F   F
  0.9272089031627502  0.9759937432184387  0.4693065211193854   F   F   F
  0.9942578310073884  0.7148349152179776  0.4607114107922143   F   F   F
  0.7272778565815514  0.8716358289047861  0.4130711988561444   F   F   F
 
  0.00000000E+00  0.00000000E+00  0.00000000E+00
  0.00000000E+00  0.00000000E+00  0.00000000E+00
  0.00000000E+00  0.00000000E+00  0.00000000E+00
  0.00000000E+00  0.00000000E+00  0.00000000E+00
  0.00000000E+00  0.00000000E+00  0.00000000E+00
  0.00000000E+00  0.00000000E+00  0.00000000E+00
  0.00000000E+00  0.00000000E+00  0.00000000E+00
  0.00000000E+00  0.00000000E+00  0.00000000E+00
  0.00000000E+00  0.00000000E+00  0.00000000E+00
  0.00000000E+00  0.00000000E+00  0.00000000E+00
  0.00000000E+00  0.00000000E+00  0.00000000E+00
  0.00000000E+00  0.00000000E+00  0.00000000E+00
  0.00000000E+00  0.00000000E+00  0.00000000E+00
  0.00000000E+00  0.00000000E+00  0.00000000E+00
  0.00000000E+00  0.00000000E+00  0.00000000E+00
  0.00000000E+00  0.00000000E+00  0.00000000E+00
  0.00000000E+00  0.00000000E+00  0.00000000E+00
  0.00000000E+00  0.00000000E+00  0.00000000E+00
  0.00000000E+00  0.00000000E+00  0.00000000E+00
  0.00000000E+00  0.00000000E+00  0.00000000E+00
  0.00000000E+00  0.00000000E+00  0.00000000E+00
  0.00000000E+00  0.00000000E+00  0.00000000E+00
  0.00000000E+00  0.00000000E+00  0.00000000E+00
  0.00000000E+00  0.00000000E+00  0.00000000E+00
  0.00000000E+00  0.00000000E+00  0.00000000E+00
  0.00000000E+00  0.00000000E+00  0.00000000E+00
  0.00000000E+00  0.00000000E+00  0.00000000E+00
  0.00000000E+00  0.00000000E+00  0.00000000E+00
  0.00000000E+00  0.00000000E+00  0.00000000E+00
  0.00000000E+00  0.00000000E+00  0.00000000E+00
  0.00000000E+00  0.00000000E+00  0.00000000E+00
  0.00000000E+00  0.00000000E+00  0.00000000E+00
  0.00000000E+00  0.00000000E+00  0.00000000E+00
  0.00000000E+00  0.00000000E+00  0.00000000E+00
  0.00000000E+00  0.00000000E+00  0.00000000E+00
  0.00000000E+00  0.00000000E+00  0.00000000E+00
  0.00000000E+00  0.00000000E+00  0.00000000E+00
  0.00000000E+00  0.00000000E+00  0.00000000E+00
  0.00000000E+00  0.00000000E+00  0.00000000E+00
  0.00000000E+00  0.00000000E+00  0.00000000E+00
  0.00000000E+00  0.00000000E+00  0.00000000E+00
  0.00000000E+00  0.00000000E+00  0.00000000E+00
  0.00000000E+00  0.00000000E+00  0.00000000E+00
  0.00000000E+00  0.00000000E+00  0.00000000E+00
  0.00000000E+00  0.00000000E+00  0.00000000E+00
  0.00000000E+00  0.00000000E+00  0.00000000E+00
  0.00000000E+00  0.00000000E+00  0.00000000E+00
  0.00000000E+00  0.00000000E+00  0.00000000E+00
  0.00000000E+00  0.00000000E+00  0.00000000E+00
  0.00000000E+00  0.00000000E+00  0.00000000E+00
  0.00000000E+00  0.00000000E+00  0.00000000E+00
  0.00000000E+00  0.00000000E+00  0.00000000E+00
  0.00000000E+00  0.00000000E+00  0.00000000E+00
  0.00000000E+00  0.00000000E+00  0.00000000E+00
  0.00000000E+00  0.00000000E+00  0.00000000E+00
  0.00000000E+00  0.00000000E+00  0.00000000E+00
  0.00000000E+00  0.00000000E+00  0.00000000E+00
  0.00000000E+00  0.00000000E+00  0.00000000E+00
  0.00000000E+00  0.00000000E+00  0.00000000E+00
  0.00000000E+00  0.00000000E+00  0.00000000E+00
  0.00000000E+00  0.00000000E+00  0.00000000E+00
  0.00000000E+00  0.00000000E+00  0.00000000E+00
  0.00000000E+00  0.00000000E+00  0.00000000E+00
  0.00000000E+00  0.00000000E+00  0.00000000E+00
  0.00000000E+00  0.00000000E+00  0.00000000E+00
  0.00000000E+00  0.00000000E+00  0.00000000E+00
  0.00000000E+00  0.00000000E+00  0.00000000E+00
  0.00000000E+00  0.00000000E+00  0.00000000E+00
  0.00000000E+00  0.00000000E+00  0.00000000E+00
  0.00000000E+00  0.00000000E+00  0.00000000E+00
  0.00000000E+00  0.00000000E+00  0.00000000E+00
  0.00000000E+00  0.00000000E+00  0.00000000E+00
  0.00000000E+00  0.00000000E+00  0.00000000E+00
  0.00000000E+00  0.00000000E+00  0.00000000E+00
  0.00000000E+00  0.00000000E+00  0.00000000E+00
  0.00000000E+00  0.00000000E+00  0.00000000E+00
  0.00000000E+00  0.00000000E+00  0.00000000E+00
  0.00000000E+00  0.00000000E+00  0.00000000E+00
  0.00000000E+00  0.00000000E+00  0.00000000E+00
  0.00000000E+00  0.00000000E+00  0.00000000E+00
  0.00000000E+00  0.00000000E+00  0.00000000E+00
  0.00000000E+00  0.00000000E+00  0.00000000E+00
  0.00000000E+00  0.00000000E+00  0.00000000E+00
  0.00000000E+00  0.00000000E+00  0.00000000E+00
  0.00000000E+00  0.00000000E+00  0.00000000E+00
  0.00000000E+00  0.00000000E+00  0.00000000E+00
  0.00000000E+00  0.00000000E+00  0.00000000E+00
  0.00000000E+00  0.00000000E+00  0.00000000E+00
  0.00000000E+00  0.00000000E+00  0.00000000E+00
  0.00000000E+00  0.00000000E+00  0.00000000E+00
  0.00000000E+00  0.00000000E+00  0.00000000E+00
  0.00000000E+00  0.00000000E+00  0.00000000E+00
  0.00000000E+00  0.00000000E+00  0.00000000E+00
  0.00000000E+00  0.00000000E+00  0.00000000E+00
  0.00000000E+00  0.00000000E+00  0.00000000E+00
  0.00000000E+00  0.00000000E+00  0.00000000E+00
  0.00000000E+00  0.00000000E+00  0.00000000E+00
  0.00000000E+00  0.00000000E+00  0.00000000E+00
  0.00000000E+00  0.00000000E+00  0.00000000E+00
  0.00000000E+00  0.00000000E+00  0.00000000E+00
  0.00000000E+00  0.00000000E+00  0.00000000E+00
  0.00000000E+00  0.00000000E+00  0.00000000E+00
  0.00000000E+00  0.00000000E+00  0.00000000E+00
  0.00000000E+00  0.00000000E+00  0.00000000E+00
  0.00000000E+00  0.00000000E+00  0.00000000E+00
  0.00000000E+00  0.00000000E+00  0.00000000E+00
  0.00000000E+00  0.00000000E+00  0.00000000E+00
  0.00000000E+00  0.00000000E+00  0.00000000E+00
  0.00000000E+00  0.00000000E+00  0.00000000E+00
