G   57   55    1    0.005     # Parameters to Generate KPOINTS (Don't Edit This Line)
     812
Reciprocal lattice
    0.000000000000    0.000000000000    0.000000000000       1
    0.017543859649    0.000000000000    0.000000000000       2
    0.035087719298    0.000000000000    0.000000000000       2
    0.052631578947    0.000000000000    0.000000000000       2
    0.070175438596    0.000000000000    0.000000000000       2
    0.087719298246    0.000000000000    0.000000000000       2
    0.105263157895    0.000000000000    0.000000000000       2
    0.122807017544    0.000000000000    0.000000000000       2
    0.140350877193    0.000000000000    0.000000000000       2
    0.157894736842    0.000000000000    0.000000000000       2
    0.175438596491    0.000000000000    0.000000000000       2
    0.192982456140    0.000000000000    0.000000000000       2
    0.210526315789    0.000000000000    0.000000000000       2
    0.228070175439    0.000000000000    0.000000000000       2
    0.245614035088    0.000000000000    0.000000000000       2
    0.263157894737    0.000000000000    0.000000000000       2
    0.280701754386    0.000000000000    0.000000000000       2
    0.298245614035    0.000000000000    0.000000000000       2
    0.315789473684    0.000000000000    0.000000000000       2
    0.333333333333    0.000000000000    0.000000000000       2
    0.350877192982    0.000000000000    0.000000000000       2
    0.368421052632    0.000000000000    0.000000000000       2
    0.385964912281    0.000000000000    0.000000000000       2
    0.403508771930    0.000000000000    0.000000000000       2
    0.421052631579    0.000000000000    0.000000000000       2
    0.438596491228    0.000000000000    0.000000000000       2
    0.456140350877    0.000000000000    0.000000000000       2
    0.473684210526    0.000000000000    0.000000000000       2
    0.491228070175    0.000000000000    0.000000000000       2
    0.000000000000    0.018181818182    0.000000000000       2
    0.017543859649    0.018181818182    0.000000000000       4
    0.035087719298    0.018181818182    0.000000000000       4
    0.052631578947    0.018181818182    0.000000000000       4
    0.070175438596    0.018181818182    0.000000000000       4
    0.087719298246    0.018181818182    0.000000000000       4
    0.105263157895    0.018181818182    0.000000000000       4
    0.122807017544    0.018181818182    0.000000000000       4
    0.140350877193    0.018181818182    0.000000000000       4
    0.157894736842    0.018181818182    0.000000000000       4
    0.175438596491    0.018181818182    0.000000000000       4
    0.192982456140    0.018181818182    0.000000000000       4
    0.210526315789    0.018181818182    0.000000000000       4
    0.228070175439    0.018181818182    0.000000000000       4
    0.245614035088    0.018181818182    0.000000000000       4
    0.263157894737    0.018181818182    0.000000000000       4
    0.280701754386    0.018181818182    0.000000000000       4
    0.298245614035    0.018181818182    0.000000000000       4
    0.315789473684    0.018181818182    0.000000000000       4
    0.333333333333    0.018181818182    0.000000000000       4
    0.350877192982    0.018181818182    0.000000000000       4
    0.368421052632    0.018181818182    0.000000000000       4
    0.385964912281    0.018181818182    0.000000000000       4
    0.403508771930    0.018181818182    0.000000000000       4
    0.421052631579    0.018181818182    0.000000000000       4
    0.438596491228    0.018181818182    0.000000000000       4
    0.456140350877    0.018181818182    0.000000000000       4
    0.473684210526    0.018181818182    0.000000000000       4
    0.491228070175    0.018181818182    0.000000000000       4
    0.000000000000    0.036363636364    0.000000000000       2
    0.017543859649    0.036363636364    0.000000000000       4
    0.035087719298    0.036363636364    0.000000000000       4
    0.052631578947    0.036363636364    0.000000000000       4
    0.070175438596    0.036363636364    0.000000000000       4
    0.087719298246    0.036363636364    0.000000000000       4
    0.105263157895    0.036363636364    0.000000000000       4
    0.122807017544    0.036363636364    0.000000000000       4
    0.140350877193    0.036363636364    0.000000000000       4
    0.157894736842    0.036363636364    0.000000000000       4
    0.175438596491    0.036363636364    0.000000000000       4
    0.192982456140    0.036363636364    0.000000000000       4
    0.210526315789    0.036363636364    0.000000000000       4
    0.228070175439    0.036363636364    0.000000000000       4
    0.245614035088    0.036363636364    0.000000000000       4
    0.263157894737    0.036363636364    0.000000000000       4
    0.280701754386    0.036363636364    0.000000000000       4
    0.298245614035    0.036363636364    0.000000000000       4
    0.315789473684    0.036363636364    0.000000000000       4
    0.333333333333    0.036363636364    0.000000000000       4
    0.350877192982    0.036363636364    0.000000000000       4
    0.368421052632    0.036363636364    0.000000000000       4
    0.385964912281    0.036363636364    0.000000000000       4
    0.403508771930    0.036363636364    0.000000000000       4
    0.421052631579    0.036363636364    0.000000000000       4
    0.438596491228    0.036363636364    0.000000000000       4
    0.456140350877    0.036363636364    0.000000000000       4
    0.473684210526    0.036363636364    0.000000000000       4
    0.491228070175    0.036363636364    0.000000000000       4
    0.000000000000    0.054545454545    0.000000000000       2
    0.017543859649    0.054545454545    0.000000000000       4
    0.035087719298    0.054545454545    0.000000000000       4
    0.052631578947    0.054545454545    0.000000000000       4
    0.070175438596    0.054545454545    0.000000000000       4
    0.087719298246    0.054545454545    0.000000000000       4
    0.105263157895    0.054545454545    0.000000000000       4
    0.122807017544    0.054545454545    0.000000000000       4
    0.140350877193    0.054545454545    0.000000000000       4
    0.157894736842    0.054545454545    0.000000000000       4
    0.175438596491    0.054545454545    0.000000000000       4
    0.192982456140    0.054545454545    0.000000000000       4
    0.210526315789    0.054545454545    0.000000000000       4
    0.228070175439    0.054545454545    0.000000000000       4
    0.245614035088    0.054545454545    0.000000000000       4
    0.263157894737    0.054545454545    0.000000000000       4
    0.280701754386    0.054545454545    0.000000000000       4
    0.298245614035    0.054545454545    0.000000000000       4
    0.315789473684    0.054545454545    0.000000000000       4
    0.333333333333    0.054545454545    0.000000000000       4
    0.350877192982    0.054545454545    0.000000000000       4
    0.368421052632    0.054545454545    0.000000000000       4
    0.385964912281    0.054545454545    0.000000000000       4
    0.403508771930    0.054545454545    0.000000000000       4
    0.421052631579    0.054545454545    0.000000000000       4
    0.438596491228    0.054545454545    0.000000000000       4
    0.456140350877    0.054545454545    0.000000000000       4
    0.473684210526    0.054545454545    0.000000000000       4
    0.491228070175    0.054545454545    0.000000000000       4
    0.000000000000    0.072727272727    0.000000000000       2
    0.017543859649    0.072727272727    0.000000000000       4
    0.035087719298    0.072727272727    0.000000000000       4
    0.052631578947    0.072727272727    0.000000000000       4
    0.070175438596    0.072727272727    0.000000000000       4
    0.087719298246    0.072727272727    0.000000000000       4
    0.105263157895    0.072727272727    0.000000000000       4
    0.122807017544    0.072727272727    0.000000000000       4
    0.140350877193    0.072727272727    0.000000000000       4
    0.157894736842    0.072727272727    0.000000000000       4
    0.175438596491    0.072727272727    0.000000000000       4
    0.192982456140    0.072727272727    0.000000000000       4
    0.210526315789    0.072727272727    0.000000000000       4
    0.228070175439    0.072727272727    0.000000000000       4
    0.245614035088    0.072727272727    0.000000000000       4
    0.263157894737    0.072727272727    0.000000000000       4
    0.280701754386    0.072727272727    0.000000000000       4
    0.298245614035    0.072727272727    0.000000000000       4
    0.315789473684    0.072727272727    0.000000000000       4
    0.333333333333    0.072727272727    0.000000000000       4
    0.350877192982    0.072727272727    0.000000000000       4
    0.368421052632    0.072727272727    0.000000000000       4
    0.385964912281    0.072727272727    0.000000000000       4
    0.403508771930    0.072727272727    0.000000000000       4
    0.421052631579    0.072727272727    0.000000000000       4
    0.438596491228    0.072727272727    0.000000000000       4
    0.456140350877    0.072727272727    0.000000000000       4
    0.473684210526    0.072727272727    0.000000000000       4
    0.491228070175    0.072727272727    0.000000000000       4
    0.000000000000    0.090909090909    0.000000000000       2
    0.017543859649    0.090909090909    0.000000000000       4
    0.035087719298    0.090909090909    0.000000000000       4
    0.052631578947    0.090909090909    0.000000000000       4
    0.070175438596    0.090909090909    0.000000000000       4
    0.087719298246    0.090909090909    0.000000000000       4
    0.105263157895    0.090909090909    0.000000000000       4
    0.122807017544    0.090909090909    0.000000000000       4
    0.140350877193    0.090909090909    0.000000000000       4
    0.157894736842    0.090909090909    0.000000000000       4
    0.175438596491    0.090909090909    0.000000000000       4
    0.192982456140    0.090909090909    0.000000000000       4
    0.210526315789    0.090909090909    0.000000000000       4
    0.228070175439    0.090909090909    0.000000000000       4
    0.245614035088    0.090909090909    0.000000000000       4
    0.263157894737    0.090909090909    0.000000000000       4
    0.280701754386    0.090909090909    0.000000000000       4
    0.298245614035    0.090909090909    0.000000000000       4
    0.315789473684    0.090909090909    0.000000000000       4
    0.333333333333    0.090909090909    0.000000000000       4
    0.350877192982    0.090909090909    0.000000000000       4
    0.368421052632    0.090909090909    0.000000000000       4
    0.385964912281    0.090909090909    0.000000000000       4
    0.403508771930    0.090909090909    0.000000000000       4
    0.421052631579    0.090909090909    0.000000000000       4
    0.438596491228    0.090909090909    0.000000000000       4
    0.456140350877    0.090909090909    0.000000000000       4
    0.473684210526    0.090909090909    0.000000000000       4
    0.491228070175    0.090909090909    0.000000000000       4
    0.000000000000    0.109090909091    0.000000000000       2
    0.017543859649    0.109090909091    0.000000000000       4
    0.035087719298    0.109090909091    0.000000000000       4
    0.052631578947    0.109090909091    0.000000000000       4
    0.070175438596    0.109090909091    0.000000000000       4
    0.087719298246    0.109090909091    0.000000000000       4
    0.105263157895    0.109090909091    0.000000000000       4
    0.122807017544    0.109090909091    0.000000000000       4
    0.140350877193    0.109090909091    0.000000000000       4
    0.157894736842    0.109090909091    0.000000000000       4
    0.175438596491    0.109090909091    0.000000000000       4
    0.192982456140    0.109090909091    0.000000000000       4
    0.210526315789    0.109090909091    0.000000000000       4
    0.228070175439    0.109090909091    0.000000000000       4
    0.245614035088    0.109090909091    0.000000000000       4
    0.263157894737    0.109090909091    0.000000000000       4
    0.280701754386    0.109090909091    0.000000000000       4
    0.298245614035    0.109090909091    0.000000000000       4
    0.315789473684    0.109090909091    0.000000000000       4
    0.333333333333    0.109090909091    0.000000000000       4
    0.350877192982    0.109090909091    0.000000000000       4
    0.368421052632    0.109090909091    0.000000000000       4
    0.385964912281    0.109090909091    0.000000000000       4
    0.403508771930    0.109090909091    0.000000000000       4
    0.421052631579    0.109090909091    0.000000000000       4
    0.438596491228    0.109090909091    0.000000000000       4
    0.456140350877    0.109090909091    0.000000000000       4
    0.473684210526    0.109090909091    0.000000000000       4
    0.491228070175    0.109090909091    0.000000000000       4
    0.000000000000    0.127272727273    0.000000000000       2
    0.017543859649    0.127272727273    0.000000000000       4
    0.035087719298    0.127272727273    0.000000000000       4
    0.052631578947    0.127272727273    0.000000000000       4
    0.070175438596    0.127272727273    0.000000000000       4
    0.087719298246    0.127272727273    0.000000000000       4
    0.105263157895    0.127272727273    0.000000000000       4
    0.122807017544    0.127272727273    0.000000000000       4
    0.140350877193    0.127272727273    0.000000000000       4
    0.157894736842    0.127272727273    0.000000000000       4
    0.175438596491    0.127272727273    0.000000000000       4
    0.192982456140    0.127272727273    0.000000000000       4
    0.210526315789    0.127272727273    0.000000000000       4
    0.228070175439    0.127272727273    0.000000000000       4
    0.245614035088    0.127272727273    0.000000000000       4
    0.263157894737    0.127272727273    0.000000000000       4
    0.280701754386    0.127272727273    0.000000000000       4
    0.298245614035    0.127272727273    0.000000000000       4
    0.315789473684    0.127272727273    0.000000000000       4
    0.333333333333    0.127272727273    0.000000000000       4
    0.350877192982    0.127272727273    0.000000000000       4
    0.368421052632    0.127272727273    0.000000000000       4
    0.385964912281    0.127272727273    0.000000000000       4
    0.403508771930    0.127272727273    0.000000000000       4
    0.421052631579    0.127272727273    0.000000000000       4
    0.438596491228    0.127272727273    0.000000000000       4
    0.456140350877    0.127272727273    0.000000000000       4
    0.473684210526    0.127272727273    0.000000000000       4
    0.491228070175    0.127272727273    0.000000000000       4
    0.000000000000    0.145454545455    0.000000000000       2
    0.017543859649    0.145454545455    0.000000000000       4
    0.035087719298    0.145454545455    0.000000000000       4
    0.052631578947    0.145454545455    0.000000000000       4
    0.070175438596    0.145454545455    0.000000000000       4
    0.087719298246    0.145454545455    0.000000000000       4
    0.105263157895    0.145454545455    0.000000000000       4
    0.122807017544    0.145454545455    0.000000000000       4
    0.140350877193    0.145454545455    0.000000000000       4
    0.157894736842    0.145454545455    0.000000000000       4
    0.175438596491    0.145454545455    0.000000000000       4
    0.192982456140    0.145454545455    0.000000000000       4
    0.210526315789    0.145454545455    0.000000000000       4
    0.228070175439    0.145454545455    0.000000000000       4
    0.245614035088    0.145454545455    0.000000000000       4
    0.263157894737    0.145454545455    0.000000000000       4
    0.280701754386    0.145454545455    0.000000000000       4
    0.298245614035    0.145454545455    0.000000000000       4
    0.315789473684    0.145454545455    0.000000000000       4
    0.333333333333    0.145454545455    0.000000000000       4
    0.350877192982    0.145454545455    0.000000000000       4
    0.368421052632    0.145454545455    0.000000000000       4
    0.385964912281    0.145454545455    0.000000000000       4
    0.403508771930    0.145454545455    0.000000000000       4
    0.421052631579    0.145454545455    0.000000000000       4
    0.438596491228    0.145454545455    0.000000000000       4
    0.456140350877    0.145454545455    0.000000000000       4
    0.473684210526    0.145454545455    0.000000000000       4
    0.491228070175    0.145454545455    0.000000000000       4
    0.000000000000    0.163636363636    0.000000000000       2
    0.017543859649    0.163636363636    0.000000000000       4
    0.035087719298    0.163636363636    0.000000000000       4
    0.052631578947    0.163636363636    0.000000000000       4
    0.070175438596    0.163636363636    0.000000000000       4
    0.087719298246    0.163636363636    0.000000000000       4
    0.105263157895    0.163636363636    0.000000000000       4
    0.122807017544    0.163636363636    0.000000000000       4
    0.140350877193    0.163636363636    0.000000000000       4
    0.157894736842    0.163636363636    0.000000000000       4
    0.175438596491    0.163636363636    0.000000000000       4
    0.192982456140    0.163636363636    0.000000000000       4
    0.210526315789    0.163636363636    0.000000000000       4
    0.228070175439    0.163636363636    0.000000000000       4
    0.245614035088    0.163636363636    0.000000000000       4
    0.263157894737    0.163636363636    0.000000000000       4
    0.280701754386    0.163636363636    0.000000000000       4
    0.298245614035    0.163636363636    0.000000000000       4
    0.315789473684    0.163636363636    0.000000000000       4
    0.333333333333    0.163636363636    0.000000000000       4
    0.350877192982    0.163636363636    0.000000000000       4
    0.368421052632    0.163636363636    0.000000000000       4
    0.385964912281    0.163636363636    0.000000000000       4
    0.403508771930    0.163636363636    0.000000000000       4
    0.421052631579    0.163636363636    0.000000000000       4
    0.438596491228    0.163636363636    0.000000000000       4
    0.456140350877    0.163636363636    0.000000000000       4
    0.473684210526    0.163636363636    0.000000000000       4
    0.491228070175    0.163636363636    0.000000000000       4
    0.000000000000    0.181818181818    0.000000000000       2
    0.017543859649    0.181818181818    0.000000000000       4
    0.035087719298    0.181818181818    0.000000000000       4
    0.052631578947    0.181818181818    0.000000000000       4
    0.070175438596    0.181818181818    0.000000000000       4
    0.087719298246    0.181818181818    0.000000000000       4
    0.105263157895    0.181818181818    0.000000000000       4
    0.122807017544    0.181818181818    0.000000000000       4
    0.140350877193    0.181818181818    0.000000000000       4
    0.157894736842    0.181818181818    0.000000000000       4
    0.175438596491    0.181818181818    0.000000000000       4
    0.192982456140    0.181818181818    0.000000000000       4
    0.210526315789    0.181818181818    0.000000000000       4
    0.228070175439    0.181818181818    0.000000000000       4
    0.245614035088    0.181818181818    0.000000000000       4
    0.263157894737    0.181818181818    0.000000000000       4
    0.280701754386    0.181818181818    0.000000000000       4
    0.298245614035    0.181818181818    0.000000000000       4
    0.315789473684    0.181818181818    0.000000000000       4
    0.333333333333    0.181818181818    0.000000000000       4
    0.350877192982    0.181818181818    0.000000000000       4
    0.368421052632    0.181818181818    0.000000000000       4
    0.385964912281    0.181818181818    0.000000000000       4
    0.403508771930    0.181818181818    0.000000000000       4
    0.421052631579    0.181818181818    0.000000000000       4
    0.438596491228    0.181818181818    0.000000000000       4
    0.456140350877    0.181818181818    0.000000000000       4
    0.473684210526    0.181818181818    0.000000000000       4
    0.491228070175    0.181818181818    0.000000000000       4
    0.000000000000    0.200000000000    0.000000000000       2
    0.017543859649    0.200000000000    0.000000000000       4
    0.035087719298    0.200000000000    0.000000000000       4
    0.052631578947    0.200000000000    0.000000000000       4
    0.070175438596    0.200000000000    0.000000000000       4
    0.087719298246    0.200000000000    0.000000000000       4
    0.105263157895    0.200000000000    0.000000000000       4
    0.122807017544    0.200000000000    0.000000000000       4
    0.140350877193    0.200000000000    0.000000000000       4
    0.157894736842    0.200000000000    0.000000000000       4
    0.175438596491    0.200000000000    0.000000000000       4
    0.192982456140    0.200000000000    0.000000000000       4
    0.210526315789    0.200000000000    0.000000000000       4
    0.228070175439    0.200000000000    0.000000000000       4
    0.245614035088    0.200000000000    0.000000000000       4
    0.263157894737    0.200000000000    0.000000000000       4
    0.280701754386    0.200000000000    0.000000000000       4
    0.298245614035    0.200000000000    0.000000000000       4
    0.315789473684    0.200000000000    0.000000000000       4
    0.333333333333    0.200000000000    0.000000000000       4
    0.350877192982    0.200000000000    0.000000000000       4
    0.368421052632    0.200000000000    0.000000000000       4
    0.385964912281    0.200000000000    0.000000000000       4
    0.403508771930    0.200000000000    0.000000000000       4
    0.421052631579    0.200000000000    0.000000000000       4
    0.438596491228    0.200000000000    0.000000000000       4
    0.456140350877    0.200000000000    0.000000000000       4
    0.473684210526    0.200000000000    0.000000000000       4
    0.491228070175    0.200000000000    0.000000000000       4
    0.000000000000    0.218181818182    0.000000000000       2
    0.017543859649    0.218181818182    0.000000000000       4
    0.035087719298    0.218181818182    0.000000000000       4
    0.052631578947    0.218181818182    0.000000000000       4
    0.070175438596    0.218181818182    0.000000000000       4
    0.087719298246    0.218181818182    0.000000000000       4
    0.105263157895    0.218181818182    0.000000000000       4
    0.122807017544    0.218181818182    0.000000000000       4
    0.140350877193    0.218181818182    0.000000000000       4
    0.157894736842    0.218181818182    0.000000000000       4
    0.175438596491    0.218181818182    0.000000000000       4
    0.192982456140    0.218181818182    0.000000000000       4
    0.210526315789    0.218181818182    0.000000000000       4
    0.228070175439    0.218181818182    0.000000000000       4
    0.245614035088    0.218181818182    0.000000000000       4
    0.263157894737    0.218181818182    0.000000000000       4
    0.280701754386    0.218181818182    0.000000000000       4
    0.298245614035    0.218181818182    0.000000000000       4
    0.315789473684    0.218181818182    0.000000000000       4
    0.333333333333    0.218181818182    0.000000000000       4
    0.350877192982    0.218181818182    0.000000000000       4
    0.368421052632    0.218181818182    0.000000000000       4
    0.385964912281    0.218181818182    0.000000000000       4
    0.403508771930    0.218181818182    0.000000000000       4
    0.421052631579    0.218181818182    0.000000000000       4
    0.438596491228    0.218181818182    0.000000000000       4
    0.456140350877    0.218181818182    0.000000000000       4
    0.473684210526    0.218181818182    0.000000000000       4
    0.491228070175    0.218181818182    0.000000000000       4
    0.000000000000    0.236363636364    0.000000000000       2
    0.017543859649    0.236363636364    0.000000000000       4
    0.035087719298    0.236363636364    0.000000000000       4
    0.052631578947    0.236363636364    0.000000000000       4
    0.070175438596    0.236363636364    0.000000000000       4
    0.087719298246    0.236363636364    0.000000000000       4
    0.105263157895    0.236363636364    0.000000000000       4
    0.122807017544    0.236363636364    0.000000000000       4
    0.140350877193    0.236363636364    0.000000000000       4
    0.157894736842    0.236363636364    0.000000000000       4
    0.175438596491    0.236363636364    0.000000000000       4
    0.192982456140    0.236363636364    0.000000000000       4
    0.210526315789    0.236363636364    0.000000000000       4
    0.228070175439    0.236363636364    0.000000000000       4
    0.245614035088    0.236363636364    0.000000000000       4
    0.263157894737    0.236363636364    0.000000000000       4
    0.280701754386    0.236363636364    0.000000000000       4
    0.298245614035    0.236363636364    0.000000000000       4
    0.315789473684    0.236363636364    0.000000000000       4
    0.333333333333    0.236363636364    0.000000000000       4
    0.350877192982    0.236363636364    0.000000000000       4
    0.368421052632    0.236363636364    0.000000000000       4
    0.385964912281    0.236363636364    0.000000000000       4
    0.403508771930    0.236363636364    0.000000000000       4
    0.421052631579    0.236363636364    0.000000000000       4
    0.438596491228    0.236363636364    0.000000000000       4
    0.456140350877    0.236363636364    0.000000000000       4
    0.473684210526    0.236363636364    0.000000000000       4
    0.491228070175    0.236363636364    0.000000000000       4
    0.000000000000    0.254545454545    0.000000000000       2
    0.017543859649    0.254545454545    0.000000000000       4
    0.035087719298    0.254545454545    0.000000000000       4
    0.052631578947    0.254545454545    0.000000000000       4
    0.070175438596    0.254545454545    0.000000000000       4
    0.087719298246    0.254545454545    0.000000000000       4
    0.105263157895    0.254545454545    0.000000000000       4
    0.122807017544    0.254545454545    0.000000000000       4
    0.140350877193    0.254545454545    0.000000000000       4
    0.157894736842    0.254545454545    0.000000000000       4
    0.175438596491    0.254545454545    0.000000000000       4
    0.192982456140    0.254545454545    0.000000000000       4
    0.210526315789    0.254545454545    0.000000000000       4
    0.228070175439    0.254545454545    0.000000000000       4
    0.245614035088    0.254545454545    0.000000000000       4
    0.263157894737    0.254545454545    0.000000000000       4
    0.280701754386    0.254545454545    0.000000000000       4
    0.298245614035    0.254545454545    0.000000000000       4
    0.315789473684    0.254545454545    0.000000000000       4
    0.333333333333    0.254545454545    0.000000000000       4
    0.350877192982    0.254545454545    0.000000000000       4
    0.368421052632    0.254545454545    0.000000000000       4
    0.385964912281    0.254545454545    0.000000000000       4
    0.403508771930    0.254545454545    0.000000000000       4
    0.421052631579    0.254545454545    0.000000000000       4
    0.438596491228    0.254545454545    0.000000000000       4
    0.456140350877    0.254545454545    0.000000000000       4
    0.473684210526    0.254545454545    0.000000000000       4
    0.491228070175    0.254545454545    0.000000000000       4
    0.000000000000    0.272727272727    0.000000000000       2
    0.017543859649    0.272727272727    0.000000000000       4
    0.035087719298    0.272727272727    0.000000000000       4
    0.052631578947    0.272727272727    0.000000000000       4
    0.070175438596    0.272727272727    0.000000000000       4
    0.087719298246    0.272727272727    0.000000000000       4
    0.105263157895    0.272727272727    0.000000000000       4
    0.122807017544    0.272727272727    0.000000000000       4
    0.140350877193    0.272727272727    0.000000000000       4
    0.157894736842    0.272727272727    0.000000000000       4
    0.175438596491    0.272727272727    0.000000000000       4
    0.192982456140    0.272727272727    0.000000000000       4
    0.210526315789    0.272727272727    0.000000000000       4
    0.228070175439    0.272727272727    0.000000000000       4
    0.245614035088    0.272727272727    0.000000000000       4
    0.263157894737    0.272727272727    0.000000000000       4
    0.280701754386    0.272727272727    0.000000000000       4
    0.298245614035    0.272727272727    0.000000000000       4
    0.315789473684    0.272727272727    0.000000000000       4
    0.333333333333    0.272727272727    0.000000000000       4
    0.350877192982    0.272727272727    0.000000000000       4
    0.368421052632    0.272727272727    0.000000000000       4
    0.385964912281    0.272727272727    0.000000000000       4
    0.403508771930    0.272727272727    0.000000000000       4
    0.421052631579    0.272727272727    0.000000000000       4
    0.438596491228    0.272727272727    0.000000000000       4
    0.456140350877    0.272727272727    0.000000000000       4
    0.473684210526    0.272727272727    0.000000000000       4
    0.491228070175    0.272727272727    0.000000000000       4
    0.000000000000    0.290909090909    0.000000000000       2
    0.017543859649    0.290909090909    0.000000000000       4
    0.035087719298    0.290909090909    0.000000000000       4
    0.052631578947    0.290909090909    0.000000000000       4
    0.070175438596    0.290909090909    0.000000000000       4
    0.087719298246    0.290909090909    0.000000000000       4
    0.105263157895    0.290909090909    0.000000000000       4
    0.122807017544    0.290909090909    0.000000000000       4
    0.140350877193    0.290909090909    0.000000000000       4
    0.157894736842    0.290909090909    0.000000000000       4