CONTCAR                                 
   1.00000000000000     
     9.7571001052999993    0.0000000000000000    0.0000000000000000
    -3.0063686365000000   15.8319856181999992    0.0000000000000000
     0.0000000000000000    0.0000000000000000   18.2793006897000012
   V    P    S    O    H 
     4     8    26     1     1
Direct
  0.6142162121803907  0.6059536423430465  0.5147574093140328
  0.6227963903907724  0.1015283466602773  0.4943564625091113
  0.3834956974036473  0.3918476972668319  0.5015777083922870
  0.3950194615746177  0.8914633251286356  0.4924623473922064
  0.8309841441787309  0.2591100696827134  0.4891212740518565
  0.6947601834630437  0.4298386493652531  0.5367369444729907
  0.1712203665836765  0.7406558456248201  0.5057377299686030
  0.1741956288246141  0.2351987256979967  0.4898064159566234
  0.3108165993384022  0.0625289093416270  0.5305775115780114
  0.7091528461937048  0.9343540278806755  0.4497918865145164
  0.2999954241090104  0.5621207799037351  0.4679420072766209
  0.8206172412918171  0.7712042078911766  0.5069999439535283
  0.1176469215311967  0.1038045456147913  0.5166766501654574
  0.8984871990959471  0.8906117779005849  0.4496177131084166
  0.0004056959849968  0.7594344004327931  0.5719673931526018
  0.3989396676764492  0.0348636184689964  0.4326890842269643
  0.5424160470949283  0.3463410508096081  0.5861236986991712
  0.2380445908798772  0.4519259977981898  0.4146970240487043
  0.1976315024580115  0.3115581003539270  0.5772237692453054
  0.6315592858815616  0.7014921722272001  0.6075726888710894
  0.4584490752609598  0.6445707687396751  0.4225787866733779
  0.6068555365349139  0.4637168464317261  0.4415952930761140
  0.6643730691699965  0.2323399682938422  0.4230456148868211
  0.8877798202492426  0.3886157496428473  0.5217334887959775
  0.0035629235987677  0.2488086043724966  0.4199194026775875
  0.6246019574301851  0.9582935594940527  0.5507035999037887
  0.7862206235175725  0.6747636677031320  0.4321085684184532
  0.3825529670695019  0.5294989548781832  0.5658453382158422
  0.2047275452920574  0.8151363568288676  0.4168760439940572
  0.7557175726924846  0.5388262545979714  0.5931068266195415
  0.5477722498653850  0.8526390859326638  0.4030634586781659
  0.2520879462139278  0.9508859445296515  0.5812314668426740
  0.3427105574125026  0.7693205659934611  0.5700749948769123
  0.8060805422556890  0.1773069707113302  0.5730673014309635
  0.7565258388621203  0.0484343203322483  0.4002067599563425
  0.4637337819071486  0.1438304952224755  0.5815588559015207
  0.1103426372902915  0.6083691464746747  0.4813684174755279
  0.3414143888856202  0.2663660244262629  0.4242194501203266
  0.5423362180756551  0.6459830299283342  0.6781380529378257
  0.5709035502805800  0.6794378450732278  0.7220827556200914
 
  0.00000000E+00  0.00000000E+00  0.00000000E+00
  0.00000000E+00  0.00000000E+00  0.00000000E+00
  0.00000000E+00  0.00000000E+00  0.00000000E+00
  0.00000000E+00  0.00000000E+00  0.00000000E+00
  0.00000000E+00  0.00000000E+00  0.00000000E+00
  0.00000000E+00  0.00000000E+00  0.00000000E+00
  0.00000000E+00  0.00000000E+00  0.00000000E+00
  0.00000000E+00  0.00000000E+00  0.00000000E+00
  0.00000000E+00  0.00000000E+00  0.00000000E+00
  0.00000000E+00  0.00000000E+00  0.00000000E+00
  0.00000000E+00  0.00000000E+00  0.00000000E+00
  0.00000000E+00  0.00000000E+00  0.00000000E+00
  0.00000000E+00  0.00000000E+00  0.00000000E+00
  0.00000000E+00  0.00000000E+00  0.00000000E+00
  0.00000000E+00  0.00000000E+00  0.00000000E+00
  0.00000000E+00  0.00000000E+00  0.00000000E+00
  0.00000000E+00  0.00000000E+00  0.00000000E+00
  0.00000000E+00  0.00000000E+00  0.00000000E+00
  0.00000000E+00  0.00000000E+00  0.00000000E+00
  0.00000000E+00  0.00000000E+00  0.00000000E+00
  0.00000000E+00  0.00000000E+00  0.00000000E+00
  0.00000000E+00  0.00000000E+00  0.00000000E+00
  0.00000000E+00  0.00000000E+00  0.00000000E+00
  0.00000000E+00  0.00000000E+00  0.00000000E+00
  0.00000000E+00  0.00000000E+00  0.00000000E+00
  0.00000000E+00  0.00000000E+00  0.00000000E+00
  0.00000000E+00  0.00000000E+00  0.00000000E+00
  0.00000000E+00  0.00000000E+00  0.00000000E+00
  0.00000000E+00  0.00000000E+00  0.00000000E+00
  0.00000000E+00  0.00000000E+00  0.00000000E+00
  0.00000000E+00  0.00000000E+00  0.00000000E+00
  0.00000000E+00  0.00000000E+00  0.00000000E+00
  0.00000000E+00  0.00000000E+00  0.00000000E+00
  0.00000000E+00  0.00000000E+00  0.00000000E+00
  0.00000000E+00  0.00000000E+00  0.00000000E+00
  0.00000000E+00  0.00000000E+00  0.00000000E+00
  0.00000000E+00  0.00000000E+00  0.00000000E+00
  0.00000000E+00  0.00000000E+00  0.00000000E+00
  0.00000000E+00  0.00000000E+00  0.00000000E+00
  0.00000000E+00  0.00000000E+00  0.00000000E+00
