CONTCAR\(4)                             
   1.00000000000000     
    10.8957996367999996    0.0000000000000000    0.0000000000000000
     0.0000000000000000   12.8001003265000008    0.0000000000000000
     0.0000000000000000    0.0000000000000000   21.8099994658999989
   Cu   Si   P    O    H 
    12    24    36     2     1
Direct
 -0.0020105705104148  0.1089785553694552  0.4630749748951355
 -0.0026997526809571  0.2910638788356532  0.3587686193543348
  0.3311617447140507  0.1089861503278493  0.4630014092455116
  0.3313792410755350  0.2906141978223029  0.3573182041241814
  0.6654616438211767  0.1087887691389542  0.4628270466278129
  0.6640093691274812  0.2903876584833746  0.3572281702066968
 -0.0031178430567718  0.6094877932808866  0.4609481999840445
 -0.0017438977392395  0.7911085162140665  0.3630890327313184
  0.3311650955786729  0.6098450064855374  0.4615975117887679
  0.3316109765280580  0.7934402013903704  0.3620567045641178
  0.6631471531489829  0.6100071594298798  0.4615121102339718
  0.6632152282751610  0.7936786305788969  0.3619320825108496
  0.1641749074946580  0.0507501069504802  0.3888902352831993
  0.1656941274955206  0.1935575717861198  0.6092133170250983
  0.1643463153442550  0.3548742451969567  0.4789478604604978
 -0.0032808524734024  0.4425383617015953  0.6128181331170148
  0.4971436759181995  0.0524849906943073  0.3905123109823803
  0.4982921844762467  0.1815040181844518  0.6062707548573466
  0.4973054362155701  0.3563825188735099  0.4749638335967398
  0.3307704211374752  0.4412703364110396  0.6125067647845323
  0.8299639247509438  0.0501739316977191  0.3886834189925097
  0.8290751470583898  0.1937901971911963  0.6093072287552034
  0.8298983491764992  0.3550868125138047  0.4789415273216474
  0.6630909672748697  0.4415641685847988  0.6126041764014637
  0.1644155965642694  0.5496606156479416  0.3862626667369526
  0.1617714459390180  0.6913261497502230  0.6080747569465025
  0.1655815839736372  0.8567732128473173  0.4843263787516408
 -0.0040428503609315  0.9444642097552640  0.6166887320140459
  0.4975895052700540  0.5514409618068645  0.3845176527684821
  0.4965836455836614  0.6925345028768273  0.6105507675192948
  0.4976297904459784  0.8562266704874397  0.4847577973008063
  0.3305269808462892  0.9405528373155855  0.6207286115437182
  0.8304793229646286  0.5499929484595696  0.3860815668993229
  0.8297111643615214  0.6925816767100009  0.6085621350407316
  0.8292156814731930  0.8563853857185415  0.4835207223059463
  0.6607434471756199  0.9434068065832601  0.6201805714129196
 -0.0030333744856872  0.1222614023716870  0.3464454899492324
  0.1644542795080432  0.1884329901362019  0.5059373182101713
  0.1647060740940824  0.3777196977754668  0.3776003703211788
 -0.0025874548184082  0.2755442630281615  0.6530507849452378
 -0.0028800268841501  0.4486724078674387  0.5094748242033910
  0.1625461176537012  0.0305861493568823  0.6576843080137296
  0.3305045964869071  0.1215811260729711  0.3455025077278609
  0.4983004338663602  0.1921767701990175  0.5025626947647471
  0.4977543607728098  0.3808740412580178  0.3736906566096894
  0.3350061075285158  0.2739408445302373  0.6506516881307340
  0.3312293144141306  0.4488769004067291  0.5089090332252703
  0.4951047665646132  0.0113336404762244  0.6742499301797934
  0.6635970258764606  0.1213913308645707  0.3453463607254638
  0.8313970294838469  0.1887413699492545  0.5059770366634775
  0.8301220795259850  0.3780291847508020  0.3776145778949865
  0.6601396794474789  0.2745001043832949  0.6509761327147804
  0.6630136394918670  0.4491211008454001  0.5089882752781293
  0.8301947457688071  0.0311496706483529  0.6577058847467024
 -0.0023711026436778  0.6235709200412564  0.3446136789886165
  0.1632213354837464  0.6882913986612633  0.5054171721645343
  0.1646468291100628  0.8790976587160638  0.3832709785873105
 -0.0037086503752998  0.7742074307833912  0.6541854298194639
 -0.0029490040548953  0.9498156087903372  0.5135808985753708
  0.1632072811777035  0.5274182274134636  0.6535617292524607
  0.3299732802848311  0.6259437908337268  0.3449363525993189
  0.4970348445047151  0.6884496828249123  0.5073697286692678
  0.4973848246944876  0.8805432124315495  0.3838291682395786
  0.3254685822259636  0.7692380374977048  0.6555180782616018
  0.3326529253735719  0.9509795576958567  0.5168199110230376
  0.4967440567362187  0.5268654152535134  0.6546899432540519
  0.6648942441903442  0.6262167043814695  0.3448410779633275
  0.8306123204076996  0.6884224658696773  0.5057720653347116
  0.8310025838375014  0.8785769897321514  0.3823721736569253
  0.6656859100885734  0.7716277217048757  0.6557176931272811
  0.6630100687710004  0.9506626927145480  0.5162054012103972
  0.8301462485256277  0.5279724755507798  0.6536336032691146
  0.5632205067224989  0.9233682376817068  0.7782721901528932
  0.4796161716149813  0.9014412029423178  0.7265013474749672
  0.5039795366410903  0.9488481984567414  0.8086877479864596
 
  0.00000000E+00  0.00000000E+00  0.00000000E+00
  0.00000000E+00  0.00000000E+00  0.00000000E+00
  0.00000000E+00  0.00000000E+00  0.00000000E+00
  0.00000000E+00  0.00000000E+00  0.00000000E+00
  0.00000000E+00  0.00000000E+00  0.00000000E+00
  0.00000000E+00  0.00000000E+00  0.00000000E+00
  0.00000000E+00  0.00000000E+00  0.00000000E+00
  0.00000000E+00  0.00000000E+00  0.00000000E+00
  0.00000000E+00  0.00000000E+00  0.00000000E+00
  0.00000000E+00  0.00000000E+00  0.00000000E+00
  0.00000000E+00  0.00000000E+00  0.00000000E+00
  0.00000000E+00  0.00000000E+00  0.00000000E+00
  0.00000000E+00  0.00000000E+00  0.00000000E+00
  0.00000000E+00  0.00000000E+00  0.00000000E+00
  0.00000000E+00  0.00000000E+00  0.00000000E+00
  0.00000000E+00  0.00000000E+00  0.00000000E+00
  0.00000000E+00  0.00000000E+00  0.00000000E+00
  0.00000000E+00  0.00000000E+00  0.00000000E+00
  0.00000000E+00  0.00000000E+00  0.00000000E+00
  0.00000000E+00  0.00000000E+00  0.00000000E+00
  0.00000000E+00  0.00000000E+00  0.00000000E+00
  0.00000000E+00  0.00000000E+00  0.00000000E+00
  0.00000000E+00  0.00000000E+00  0.00000000E+00
  0.00000000E+00  0.00000000E+00  0.00000000E+00
  0.00000000E+00  0.00000000E+00  0.00000000E+00
  0.00000000E+00  0.00000000E+00  0.00000000E+00
  0.00000000E+00  0.00000000E+00  0.00000000E+00
  0.00000000E+00  0.00000000E+00  0.00000000E+00
  0.00000000E+00  0.00000000E+00  0.00000000E+00
  0.00000000E+00  0.00000000E+00  0.00000000E+00
  0.00000000E+00  0.00000000E+00  0.00000000E+00
  0.00000000E+00  0.00000000E+00  0.00000000E+00
  0.00000000E+00  0.00000000E+00  0.00000000E+00
  0.00000000E+00  0.00000000E+00  0.00000000E+00
  0.00000000E+00  0.00000000E+00  0.00000000E+00
  0.00000000E+00  0.00000000E+00  0.00000000E+00
  0.00000000E+00  0.00000000E+00  0.00000000E+00
  0.00000000E+00  0.00000000E+00  0.00000000E+00
  0.00000000E+00  0.00000000E+00  0.00000000E+00
  0.00000000E+00  0.00000000E+00  0.00000000E+00
  0.00000000E+00  0.00000000E+00  0.00000000E+00
  0.00000000E+00  0.00000000E+00  0.00000000E+00
  0.00000000E+00  0.00000000E+00  0.00000000E+00
  0.00000000E+00  0.00000000E+00  0.00000000E+00
  0.00000000E+00  0.00000000E+00  0.00000000E+00
  0.00000000E+00  0.00000000E+00  0.00000000E+00
  0.00000000E+00  0.00000000E+00  0.00000000E+00
  0.00000000E+00  0.00000000E+00  0.00000000E+00
  0.00000000E+00  0.00000000E+00  0.00000000E+00
  0.00000000E+00  0.00000000E+00  0.00000000E+00
  0.00000000E+00  0.00000000E+00  0.00000000E+00
  0.00000000E+00  0.00000000E+00  0.00000000E+00
  0.00000000E+00  0.00000000E+00  0.00000000E+00
  0.00000000E+00  0.00000000E+00  0.00000000E+00
  0.00000000E+00  0.00000000E+00  0.00000000E+00
  0.00000000E+00  0.00000000E+00  0.00000000E+00
  0.00000000E+00  0.00000000E+00  0.00000000E+00
  0.00000000E+00  0.00000000E+00  0.00000000E+00
  0.00000000E+00  0.00000000E+00  0.00000000E+00
  0.00000000E+00  0.00000000E+00  0.00000000E+00
  0.00000000E+00  0.00000000E+00  0.00000000E+00
  0.00000000E+00  0.00000000E+00  0.00000000E+00
  0.00000000E+00  0.00000000E+00  0.00000000E+00
  0.00000000E+00  0.00000000E+00  0.00000000E+00
  0.00000000E+00  0.00000000E+00  0.00000000E+00
  0.00000000E+00  0.00000000E+00  0.00000000E+00
  0.00000000E+00  0.00000000E+00  0.00000000E+00
  0.00000000E+00  0.00000000E+00  0.00000000E+00
  0.00000000E+00  0.00000000E+00  0.00000000E+00
  0.00000000E+00  0.00000000E+00  0.00000000E+00
  0.00000000E+00  0.00000000E+00  0.00000000E+00
  0.00000000E+00  0.00000000E+00  0.00000000E+00
  0.00000000E+00  0.00000000E+00  0.00000000E+00
  0.00000000E+00  0.00000000E+00  0.00000000E+00
  0.00000000E+00  0.00000000E+00  0.00000000E+00
