 Ce2 Zn2 P2 O2                          
   1.00000000000000     
     3.9250344204447081    0.0000000000000000    0.0000000000000000
     1.9625177061608010    3.3991758451154932    0.0000000000000000
     0.0000000000000000    0.0000000000000000   23.2442476518479992
   Ce   Zn   P    O 
     2     2     2     2
Direct
  0.3333332977973320  0.3333333813982283  0.5641976918720165
  0.0000000783983648 -0.0000000505409507  0.4358174771975192
 -0.0000001191607394 -0.0000003843141945  0.6755635402253402
  0.3333332968029563  0.3333337002631488  0.3244180144852712
  0.6666669408405257  0.6666667421411481  0.3432452596881055
  0.6666663904208576  0.6666666990789391  0.6567441882772579
  0.3333332411069131  0.3333330160347979  0.4620806126220624
 -0.0000001262062050 -0.0000001040611138  0.5379332156324265
 
  0.00000000E+00  0.00000000E+00  0.00000000E+00
  0.00000000E+00  0.00000000E+00  0.00000000E+00
  0.00000000E+00  0.00000000E+00  0.00000000E+00
  0.00000000E+00  0.00000000E+00  0.00000000E+00
  0.00000000E+00  0.00000000E+00  0.00000000E+00
  0.00000000E+00  0.00000000E+00  0.00000000E+00
  0.00000000E+00  0.00000000E+00  0.00000000E+00
  0.00000000E+00  0.00000000E+00  0.00000000E+00
