CONTCAR                                 
   1.00000000000000     
    14.0796003342000002    0.0000000000000000    0.0000000000000000
    -7.0398001671000001   12.1932915645000008    0.0000000000000000
     0.0000000000000000    0.0000000000000000   18.0872001647999987
   Ti   Se   O 
    16    32     1
Direct
  0.9962465363122459  0.9976807090702090  0.5003222391299292
  0.2501641690170843  0.9992259530406591  0.4977823443418456
  0.4956567937521249  0.0007212277483920  0.4953817000374807
  0.7527318575204307  0.0015959889558750  0.5025603719098614
  0.0050547995925791  0.2512716563979135  0.5022666445492205
  0.2517777073906449  0.2450333053024478  0.5047019479436976
  0.5070155019656600  0.2530780667323122  0.5011806863776634
  0.7506714103808841  0.2440708585807164  0.5000068179554976
  0.9929411852703408  0.4969785242380206  0.4965332626287966
  0.2415204183769621  0.4968211572702328  0.4977954143331378
  0.4981209238772471  0.4988730566310765  0.5272478773649745
  0.7514577416004852  0.4985496436849551  0.5003716402690013
  0.0067685450859310  0.7530358868056687  0.4971954852241144
  0.2508721718452845  0.7455669041159936  0.4948862914153450
  0.5074706536069814  0.7616182167318972  0.5007637197080970
  0.7522613426422546  0.7454063413141411  0.5053915734905560
  0.0864375457162074  0.1664241994645564  0.4162743539307980
  0.1682675681818381  0.0794595881066779  0.5876806452799700
  0.3332257681490586  0.1689284843928256  0.4148741450851724
  0.4158300998087222  0.0759392921051886  0.5851241003625768
  0.5860114420690229  0.1686493740110351  0.4121812298458817
  0.6676262129035108  0.0833771440146589  0.5860242630632062
  0.8328119736247599  0.1628185339697445  0.4143510700894801
  0.9176184947942331  0.0798669299773456  0.5884071940726585
  0.0811470319264814  0.4098246673778894  0.4123915213002307
  0.1644771685282478  0.3326539578826487  0.5888986540541525
  0.3463746000388586  0.4236158346502007  0.4281022441973482
  0.4143415533152305  0.3137918806500685  0.5942784863708197
  0.5820436399209139  0.4176069267798319  0.4212148347937911
  0.6682785681342981  0.3301896632217036  0.5872112681123529
  0.8341400083026357  0.4155784590746204  0.4116710047376694
  0.9176940338990497  0.3341633261206267  0.5854135317586289
  0.0827374861269657  0.6656387663420540  0.4100303602230806
  0.1667543222900786  0.5876842800658757  0.5845814679197040
  0.3333093090577584  0.6639834358923690  0.4123254377112310
  0.3884545670509890  0.6012710206940848  0.6007055279989779
  0.5772682608578471  0.6562027226395492  0.4281989133701725
  0.6896865242195898  0.5863689369015849  0.5943885333360276
  0.8292983723785519  0.6648314662557741  0.4149681235327609
  0.9232441100720167  0.5821432646183325  0.5855347580240796
  0.0837415421258525  0.9154169267897512  0.4117981571021984
  0.1661812772357804  0.8321407394314401  0.5836202609716309
  0.3354211184368847  0.9186948981663786  0.4094476102825232
  0.4143018100737167  0.8382462564687063  0.5845231034582054
  0.5863210633388689  0.9154567474635252  0.4129665980070216
  0.6634776685328304  0.8317719403892102  0.5895608992094247
  0.8334223126333784  0.9131123589365840  0.4163253544666476
  0.9219382705267199  0.8334424101128520  0.5875120556140456
  0.4774448414919581  0.5418485784118140  0.6192754020383164
 
  0.00000000E+00  0.00000000E+00  0.00000000E+00
  0.00000000E+00  0.00000000E+00  0.00000000E+00
  0.00000000E+00  0.00000000E+00  0.00000000E+00
  0.00000000E+00  0.00000000E+00  0.00000000E+00
  0.00000000E+00  0.00000000E+00  0.00000000E+00
  0.00000000E+00  0.00000000E+00  0.00000000E+00
  0.00000000E+00  0.00000000E+00  0.00000000E+00
  0.00000000E+00  0.00000000E+00  0.00000000E+00
  0.00000000E+00  0.00000000E+00  0.00000000E+00
  0.00000000E+00  0.00000000E+00  0.00000000E+00
  0.00000000E+00  0.00000000E+00  0.00000000E+00
  0.00000000E+00  0.00000000E+00  0.00000000E+00
  0.00000000E+00  0.00000000E+00  0.00000000E+00
  0.00000000E+00  0.00000000E+00  0.00000000E+00
  0.00000000E+00  0.00000000E+00  0.00000000E+00
  0.00000000E+00  0.00000000E+00  0.00000000E+00
  0.00000000E+00  0.00000000E+00  0.00000000E+00
  0.00000000E+00  0.00000000E+00  0.00000000E+00
  0.00000000E+00  0.00000000E+00  0.00000000E+00
  0.00000000E+00  0.00000000E+00  0.00000000E+00
  0.00000000E+00  0.00000000E+00  0.00000000E+00
  0.00000000E+00  0.00000000E+00  0.00000000E+00
  0.00000000E+00  0.00000000E+00  0.00000000E+00
  0.00000000E+00  0.00000000E+00  0.00000000E+00
  0.00000000E+00  0.00000000E+00  0.00000000E+00
  0.00000000E+00  0.00000000E+00  0.00000000E+00
  0.00000000E+00  0.00000000E+00  0.00000000E+00
  0.00000000E+00  0.00000000E+00  0.00000000E+00
  0.00000000E+00  0.00000000E+00  0.00000000E+00
  0.00000000E+00  0.00000000E+00  0.00000000E+00
  0.00000000E+00  0.00000000E+00  0.00000000E+00
  0.00000000E+00  0.00000000E+00  0.00000000E+00
  0.00000000E+00  0.00000000E+00  0.00000000E+00
  0.00000000E+00  0.00000000E+00  0.00000000E+00
  0.00000000E+00  0.00000000E+00  0.00000000E+00
  0.00000000E+00  0.00000000E+00  0.00000000E+00
  0.00000000E+00  0.00000000E+00  0.00000000E+00
  0.00000000E+00  0.00000000E+00  0.00000000E+00
  0.00000000E+00  0.00000000E+00  0.00000000E+00
  0.00000000E+00  0.00000000E+00  0.00000000E+00
  0.00000000E+00  0.00000000E+00  0.00000000E+00
  0.00000000E+00  0.00000000E+00  0.00000000E+00
  0.00000000E+00  0.00000000E+00  0.00000000E+00
  0.00000000E+00  0.00000000E+00  0.00000000E+00
  0.00000000E+00  0.00000000E+00  0.00000000E+00
  0.00000000E+00  0.00000000E+00  0.00000000E+00
  0.00000000E+00  0.00000000E+00  0.00000000E+00
  0.00000000E+00  0.00000000E+00  0.00000000E+00
  0.00000000E+00  0.00000000E+00  0.00000000E+00
