CONTCAR\(2)                             
   1.00000000000000     
    10.0475997924999998    0.0000000000000000    0.0000000000000000
    -1.1209227180000001   12.1269055328000004    0.0000000000000000
     0.0000000000000000    0.0000000000000000   21.6054000853999995
   Li   Cu   F    O 
    16    16    56     1
Direct
  0.1603302546515561  0.0299353700928528  0.5815371453639249
  0.4198337829078377  0.4609964369361148  0.5503264900197399
  0.3896349891563618  0.2857590707773858  0.4541279733075785
  0.1459821010059183  0.2196585435259651  0.4227664811044705
  0.6588410490465344  0.0334782943928960  0.5789847684968131
  0.9221707195884793  0.4604721434694833  0.5520635010544948
  0.8897172547697392  0.2879347542003874  0.4542606939166153
  0.6473032820292099  0.2163178890748366  0.4209811217510374
  0.1628724451340775  0.5208740976726222  0.5888419896823013
  0.4108711725125004  0.9551330599294784  0.5450902022570646
  0.3816782173917222  0.7827680759815303  0.4297968298865590
  0.1351412702106232  0.7222654202388463  0.4014916259148408
  0.6636719592537091  0.5280579015974500  0.5829099649969064
  0.9193669056705246  0.9589832758767064  0.5491833555474305
  0.8930310903299283  0.7878961265488552  0.4530572634282467
  0.6540782737904078  0.7151076335970148  0.4191439923985339
  0.0739452092054187  0.3089195625945592  0.6344607897698770
  0.3111513097440393  0.2299918809770472  0.5796018385346255
  0.0004222029741699  0.0160646392387377  0.4234891718193385
  0.2365310125365561  0.4333938803484284  0.3715515060929515
  0.5748897563609255  0.3129367877397844  0.6326194823611159
  0.8106631381332671  0.2322430470695124  0.5788073976718350
  0.4993259355740550  0.0133778397929944  0.4219207474172287
  0.7376387649962416  0.4321014229659492  0.3719084287590451
  0.0711260369050622  0.8122339909937073  0.6316621736918724
  0.2794533519886409  0.7231055529244333  0.5611157222064961
  0.0032561036204494  0.5163488569987514  0.4270091025401870
  0.2339098500478821  0.9406825907354098  0.3636681965566757
  0.5716171295588739  0.8137516082063593  0.6190006933562612
  0.8125976949312468  0.7317836712501142  0.5775176697822043
  0.5016497213132913  0.5142614546182424  0.4253029682463317
  0.7359566038385688  0.9341159311197199  0.3688687854408640
  0.0197239426864444  0.4503522290004454  0.6349141785044350
  0.1489842561491088  0.1724587540730133  0.6258845525567620
  0.4084158805468971  0.2428781714180769  0.6580226320547152
  0.2427527223835078  0.3752094960946932  0.6019384501535401
  0.3415090870968585  0.0807747742017418  0.5701756345911028
  0.0830870720774029  0.0116482287754342  0.5029274367826745
  0.4642527562226483  0.3025546382239290  0.5395541960444271
  0.3466383019653460  0.4445506342998976  0.4655150039262541
  0.2282709039379635  0.2330189041250637  0.5004451142516134
  0.4683859833826849  0.1608499758762401  0.4349608684818955
  0.0695378823227262  0.3706603239524233  0.4084394390534281
  0.4043930021976453  0.5022771813210223  0.3468371159520702
  0.1622805552182196  0.0770717170275697  0.3787148290138754
  0.2889879830963589  0.2917173556364127  0.3737335070042408
  0.5217082237469215  0.4553844275578863  0.6314682676342496
  0.6477118572351508  0.1743825862770793  0.6238601236408784
  0.9058700055189661  0.2408287080575184  0.6579905859821621
  0.7449453687258788  0.3770757529826930  0.6002052201209048
  0.8415754930881659  0.0845628739973744  0.5683328113250388
  0.5784964664302504  0.0041632529700731  0.5020823548699261
  0.9655911121546138  0.3032909737446318  0.5395892414443294
  0.8484557338043673  0.4454402285371570  0.4664540961083617
  0.7272467499914765  0.2343327617895548  0.4994627246876164
  0.9667120401050563  0.1630177367547215  0.4345637854601039
  0.5681723062138188  0.3684756137631160  0.4045705851908912
  0.9058775208597454  0.4975590397045497  0.3473390518141817
  0.6625781493147386  0.0721542197413820  0.3781272123763990
  0.7898483085692705  0.2906210182866480  0.3733649865477291
  0.0237856853409758  0.9556249343677687  0.6308135741376789
  0.1397753430989575  0.6722061196422828  0.6210300082298319
  0.4075762448298999  0.7320457306028523  0.6889836430455357
  0.2384503626088642  0.8696393974748426  0.5919823527958765
  0.3389004183816071  0.5847412755140842  0.5734863893583890
  0.0831927574439253  0.5194674380481048  0.5079666819030925
  0.4555544183611475  0.7925732963217247  0.5449153547042834
  0.3463153812984908  0.9359162709119730  0.4588601726027938
  0.2280390488345007  0.7332086387952076  0.4758822551234224
  0.4751646701519377  0.6639737442067812  0.4343528962103440
  0.0665983221139017  0.8733249523048349  0.3983031624262282
  0.4044031718598225  0.0086822061617965  0.3425580253476763
  0.1614133864173397  0.5704660008263311  0.3765149590547722
  0.2807659312359294  0.7973799206134419  0.3537887772481687
  0.5176148380877545  0.9520637612800044  0.6268511966707893
  0.6407205198067097  0.6767582326054316  0.6202034217191006
  0.9025896006228644  0.7464734820948744  0.6577708387138987
  0.7524319516305026  0.8794871378776974  0.5937841064800579
  0.8426761988884901  0.5832705443961731  0.5732466215358424
  0.5827909860851023  0.5117926678325866  0.5050878532497846
  0.9696612803505675  0.8005811275410043  0.5372327868883316
  0.8473770923969857  0.9431291038610643  0.4631156664292801
  0.7315438285188014  0.7318937652562446  0.4976521154407237
  0.9637710473669462  0.6631771026759776  0.4280946424232370
  0.5637970812485343  0.8681725167135123  0.3981227258921645
  0.9026875984885334  0.0053845602988476  0.3448729079329391
  0.6646585983619809  0.5696382169321256  0.3784115518154709
  0.7903091970794266  0.7928326116738325  0.3703429888629632
  0.4204666338694956  0.6219223704921206  0.7041402888100734
 
  0.00000000E+00  0.00000000E+00  0.00000000E+00
  0.00000000E+00  0.00000000E+00  0.00000000E+00
  0.00000000E+00  0.00000000E+00  0.00000000E+00
  0.00000000E+00  0.00000000E+00  0.00000000E+00
  0.00000000E+00  0.00000000E+00  0.00000000E+00
  0.00000000E+00  0.00000000E+00  0.00000000E+00
  0.00000000E+00  0.00000000E+00  0.00000000E+00
  0.00000000E+00  0.00000000E+00  0.00000000E+00
  0.00000000E+00  0.00000000E+00  0.00000000E+00
  0.00000000E+00  0.00000000E+00  0.00000000E+00
  0.00000000E+00  0.00000000E+00  0.00000000E+00
  0.00000000E+00  0.00000000E+00  0.00000000E+00
  0.00000000E+00  0.00000000E+00  0.00000000E+00
  0.00000000E+00  0.00000000E+00  0.00000000E+00
  0.00000000E+00  0.00000000E+00  0.00000000E+00
  0.00000000E+00  0.00000000E+00  0.00000000E+00
  0.00000000E+00  0.00000000E+00  0.00000000E+00
  0.00000000E+00  0.00000000E+00  0.00000000E+00
  0.00000000E+00  0.00000000E+00  0.00000000E+00
  0.00000000E+00  0.00000000E+00  0.00000000E+00
  0.00000000E+00  0.00000000E+00  0.00000000E+00
  0.00000000E+00  0.00000000E+00  0.00000000E+00
  0.00000000E+00  0.00000000E+00  0.00000000E+00
  0.00000000E+00  0.00000000E+00  0.00000000E+00
  0.00000000E+00  0.00000000E+00  0.00000000E+00
  0.00000000E+00  0.00000000E+00  0.00000000E+00
  0.00000000E+00  0.00000000E+00  0.00000000E+00
  0.00000000E+00  0.00000000E+00  0.00000000E+00
  0.00000000E+00  0.00000000E+00  0.00000000E+00
  0.00000000E+00  0.00000000E+00  0.00000000E+00
  0.00000000E+00  0.00000000E+00  0.00000000E+00
  0.00000000E+00  0.00000000E+00  0.00000000E+00
  0.00000000E+00  0.00000000E+00  0.00000000E+00
  0.00000000E+00  0.00000000E+00  0.00000000E+00
  0.00000000E+00  0.00000000E+00  0.00000000E+00
  0.00000000E+00  0.00000000E+00  0.00000000E+00
  0.00000000E+00  0.00000000E+00  0.00000000E+00
  0.00000000E+00  0.00000000E+00  0.00000000E+00
  0.00000000E+00  0.00000000E+00  0.00000000E+00
  0.00000000E+00  0.00000000E+00  0.00000000E+00
  0.00000000E+00  0.00000000E+00  0.00000000E+00
  0.00000000E+00  0.00000000E+00  0.00000000E+00
  0.00000000E+00  0.00000000E+00  0.00000000E+00
  0.00000000E+00  0.00000000E+00  0.00000000E+00
  0.00000000E+00  0.00000000E+00  0.00000000E+00
  0.00000000E+00  0.00000000E+00  0.00000000E+00
  0.00000000E+00  0.00000000E+00  0.00000000E+00
  0.00000000E+00  0.00000000E+00  0.00000000E+00
  0.00000000E+00  0.00000000E+00  0.00000000E+00
  0.00000000E+00  0.00000000E+00  0.00000000E+00
  0.00000000E+00  0.00000000E+00  0.00000000E+00
  0.00000000E+00  0.00000000E+00  0.00000000E+00
  0.00000000E+00  0.00000000E+00  0.00000000E+00
  0.00000000E+00  0.00000000E+00  0.00000000E+00
  0.00000000E+00  0.00000000E+00  0.00000000E+00
  0.00000000E+00  0.00000000E+00  0.00000000E+00
  0.00000000E+00  0.00000000E+00  0.00000000E+00
  0.00000000E+00  0.00000000E+00  0.00000000E+00
  0.00000000E+00  0.00000000E+00  0.00000000E+00
  0.00000000E+00  0.00000000E+00  0.00000000E+00
  0.00000000E+00  0.00000000E+00  0.00000000E+00
  0.00000000E+00  0.00000000E+00  0.00000000E+00
  0.00000000E+00  0.00000000E+00  0.00000000E+00
  0.00000000E+00  0.00000000E+00  0.00000000E+00
  0.00000000E+00  0.00000000E+00  0.00000000E+00
  0.00000000E+00  0.00000000E+00  0.00000000E+00
  0.00000000E+00  0.00000000E+00  0.00000000E+00
  0.00000000E+00  0.00000000E+00  0.00000000E+00
  0.00000000E+00  0.00000000E+00  0.00000000E+00
  0.00000000E+00  0.00000000E+00  0.00000000E+00
  0.00000000E+00  0.00000000E+00  0.00000000E+00
  0.00000000E+00  0.00000000E+00  0.00000000E+00
  0.00000000E+00  0.00000000E+00  0.00000000E+00
  0.00000000E+00  0.00000000E+00  0.00000000E+00
  0.00000000E+00  0.00000000E+00  0.00000000E+00
  0.00000000E+00  0.00000000E+00  0.00000000E+00
  0.00000000E+00  0.00000000E+00  0.00000000E+00
  0.00000000E+00  0.00000000E+00  0.00000000E+00
  0.00000000E+00  0.00000000E+00  0.00000000E+00
  0.00000000E+00  0.00000000E+00  0.00000000E+00
  0.00000000E+00  0.00000000E+00  0.00000000E+00
  0.00000000E+00  0.00000000E+00  0.00000000E+00
  0.00000000E+00  0.00000000E+00  0.00000000E+00
  0.00000000E+00  0.00000000E+00  0.00000000E+00
  0.00000000E+00  0.00000000E+00  0.00000000E+00
  0.00000000E+00  0.00000000E+00  0.00000000E+00
  0.00000000E+00  0.00000000E+00  0.00000000E+00
  0.00000000E+00  0.00000000E+00  0.00000000E+00
  0.00000000E+00  0.00000000E+00  0.00000000E+00
