CONTCAR\(9)                             
   1.00000000000000     
    10.6030998230000009    0.0000000000000000    0.0000000000000000
     0.0000000000000000   13.3226995467999991    0.0000000000000000
     0.0000000000000000    0.0000000000000000   20.2077999115000004
   Sc   Cl   O 
    15    24     1
Direct
  0.0007477931009574  0.9983561081837400  0.4968836274529277
  0.1697955804028883  0.3365133044242762  0.5152022331788162
  0.1697398070494842  0.6633735813334700  0.4866966249628815
  0.0002661864406907  0.5143260690587120  0.5716256560205462
  0.0015236140678801  0.4844612851518873  0.4240795362949524
  0.3334542870468811  0.0004436834073733  0.4985949803602612
  0.4970416258087832  0.3364604589903944  0.5151095645807433
  0.4970993972433056  0.6633732964823560  0.4865895273712629
  0.3335552662376332  0.5277306244147912  0.6362504728150713
  0.3333905872852042  0.4852280548530630  0.4280213671649616
  0.6660822693171862  0.9983296233317120  0.4968730570397161
  0.8333971027353061  0.3302131052721821  0.5118210751116532
  0.8333745191446426  0.6685596728436498  0.4824783230095074
  0.6665537800541173  0.5143030054754967  0.5715328767851831
  0.6652882082518640  0.4844387253578984  0.4239977995493905
  0.1521439621999632  0.3896536440702579  0.6327964127816629
  0.1670362716644164  0.6016674779344251  0.3685086412162970
  0.1682612252618050  0.0291996192590505  0.4125862300505336
  0.1657536843921762  0.9694231969604258  0.5828777726825554
  0.1518347644695681  0.6594885282404470  0.6092349978550476
  0.1670712664235137  0.3487811526900711  0.3907533167110189
  0.0024475404897956  0.8070280279001817  0.4655505160554672
  0.0019136665103943  0.1909231303129190  0.5244549666560552
  0.5147585456671934  0.3895581584838709  0.6326848195053577
  0.4997374667718930  0.6016176334070423  0.3684011286674351
  0.4985877373829618  0.0293270524001608  0.4125855638054783
  0.5011436626361820  0.9693123370887637  0.5828530167952977
  0.5151197618409139  0.6595338459993834  0.6091045180416300
  0.4996949514482863  0.3487864966432934  0.3906564960445261
  0.3334121943503618  0.8065990286821586  0.4719453966515543
  0.3333844338398664  0.1922947703896687  0.5298382452552417
  0.8333936224578814  0.3968586579057194  0.6276506148504105
  0.8334073217393788  0.6016759059411496  0.3665453552651755
  0.8334221808266586  0.0288642486735072  0.4120384724712876
  0.8334081361082052  0.9671528844973629  0.5815096273855768
  0.8333961896608932  0.6504328756134753  0.6054867065349394
  0.8334096366167070  0.3483786832154182  0.3885202785178439
  0.6642954431606931  0.8070622548648257  0.4653684666965515
  0.6648873666685128  0.1908988429638966  0.5244993822155352
  0.3338987442249369  0.5441207502815122  0.7199622835896626
 
  0.00000000E+00  0.00000000E+00  0.00000000E+00
  0.00000000E+00  0.00000000E+00  0.00000000E+00
  0.00000000E+00  0.00000000E+00  0.00000000E+00
  0.00000000E+00  0.00000000E+00  0.00000000E+00
  0.00000000E+00  0.00000000E+00  0.00000000E+00
  0.00000000E+00  0.00000000E+00  0.00000000E+00
  0.00000000E+00  0.00000000E+00  0.00000000E+00
  0.00000000E+00  0.00000000E+00  0.00000000E+00
  0.00000000E+00  0.00000000E+00  0.00000000E+00
  0.00000000E+00  0.00000000E+00  0.00000000E+00
  0.00000000E+00  0.00000000E+00  0.00000000E+00
  0.00000000E+00  0.00000000E+00  0.00000000E+00
  0.00000000E+00  0.00000000E+00  0.00000000E+00
  0.00000000E+00  0.00000000E+00  0.00000000E+00
  0.00000000E+00  0.00000000E+00  0.00000000E+00
  0.00000000E+00  0.00000000E+00  0.00000000E+00
  0.00000000E+00  0.00000000E+00  0.00000000E+00
  0.00000000E+00  0.00000000E+00  0.00000000E+00
  0.00000000E+00  0.00000000E+00  0.00000000E+00
  0.00000000E+00  0.00000000E+00  0.00000000E+00
  0.00000000E+00  0.00000000E+00  0.00000000E+00
  0.00000000E+00  0.00000000E+00  0.00000000E+00
  0.00000000E+00  0.00000000E+00  0.00000000E+00
  0.00000000E+00  0.00000000E+00  0.00000000E+00
  0.00000000E+00  0.00000000E+00  0.00000000E+00
  0.00000000E+00  0.00000000E+00  0.00000000E+00
  0.00000000E+00  0.00000000E+00  0.00000000E+00
  0.00000000E+00  0.00000000E+00  0.00000000E+00
  0.00000000E+00  0.00000000E+00  0.00000000E+00
  0.00000000E+00  0.00000000E+00  0.00000000E+00
  0.00000000E+00  0.00000000E+00  0.00000000E+00
  0.00000000E+00  0.00000000E+00  0.00000000E+00
  0.00000000E+00  0.00000000E+00  0.00000000E+00
  0.00000000E+00  0.00000000E+00  0.00000000E+00
  0.00000000E+00  0.00000000E+00  0.00000000E+00
  0.00000000E+00  0.00000000E+00  0.00000000E+00
  0.00000000E+00  0.00000000E+00  0.00000000E+00
  0.00000000E+00  0.00000000E+00  0.00000000E+00
  0.00000000E+00  0.00000000E+00  0.00000000E+00
  0.00000000E+00  0.00000000E+00  0.00000000E+00
