CONTCAR\(2)                             
   1.00000000000000     
    14.5984001160000005    0.0000000000000000    0.0000000000000000
     0.0000000000000000   14.5984001160000005    0.0000000000000000
     0.0000000000000000    0.0000000000000000   22.0592994689999990
   Zr   Si   Te   H 
    32    32    32     1
Selective dynamics
Direct
  0.1251310619657318  0.0000000000000000  0.5966657493924714   F   F   F
  0.9999068446002966  0.1248974441844624  0.4034233649926904   F   F   F
  0.3750124627969882  0.0000000000000000  0.5968321651051980   F   F   F
  0.2501375183472589  0.1249753845054329  0.4036757392568973   F   F   F
  0.6249053910945648  0.0000000000000000  0.5966569468385359   F   F   F
  0.4998743936886143  0.1249699329205356  0.4036656405561843   F   F   F
  0.8750120575447227  0.0000000000000000  0.5965158060325777   F   F   F
  0.7501120690584031  0.1248963286880738  0.4034203039325490   F   F   F
  0.1248062930997449  0.2497909545967687  0.5964516997604719   F   F   F
  0.9999852146267543  0.3751328976970001  0.4036745385538367   F   F   F
  0.3750320996312055  0.2510845291126031  0.5975144142649498   F   F   F
  0.2501123736452016  0.3750960337504949  0.4037802920546270   F   F   F
  0.6252378151028850  0.2497757776822525  0.5964254068505710   F   F   F
  0.4999099790841370  0.3751023426077467  0.4037661756698583   F   F   F
  0.8750207078390773  0.2501140798552512  0.5966618067557903   F   F   F
  0.7500400453866618  0.3751283541946719  0.4036642338789349   F   F   F
  0.1261210890491640  0.5000000000000000  0.5975238295169731   F   F   F
  0.9999852146267543  0.6248671353029991  0.4036745385538367   F   F   F
  0.3750347041232445  0.5000000000000000  0.5984939554152646   F   F   F
  0.2501123736452016  0.6249039992495042  0.4037802920546270   F   F   F
  0.6239430370185914  0.5000000000000000  0.5975014062088562   F   F   F
  0.4999099790841370  0.6248976903922525  0.4037661756698583   F   F   F
  0.8750140170350988  0.5000000000000000  0.5968312816444765   F   F   F
  0.7500400453866618  0.6248716788053272  0.4036642338789349   F   F   F
  0.1248062930997449  0.7502090454032313  0.5964516997604719   F   F   F
  0.9999068446002966  0.8751025228155385  0.4034233649926904   F   F   F
  0.3750320996312055  0.7489154708873969  0.5975144142649498   F   F   F
  0.2501375183472589  0.8750245824945679  0.4036757392568973   F   F   F
  0.6252378151028850  0.7502242223177475  0.5964254068505710   F   F   F
  0.4998743936886143  0.8750300340794652  0.4036656405561843   F   F   F
  0.8750207078390773  0.7498859201447488  0.5966618067557903   F   F   F
  0.7501120690584031  0.8751036383119271  0.4034203039325490   F   F   F
  0.1248798167347971  0.1249579845609929  0.5000669099203066   F   F   F
  0.0001678663422524  0.0000000000000000  0.4999956188502424   F   F   F
  0.3750099451752149  0.1251594997349343  0.5003137778674329   F   F   F
  0.2501715580594208  0.0000000000000000  0.5001417305009852   F   F   F
  0.6251374593029908  0.1249479861858518  0.5000556001819163   F   F   F
  0.4998410089269640  0.0000000000000000  0.5001380926069245   F   F   F
  0.8750097628576583  0.1251574330078213  0.4999930040598599   F   F   F
  0.7498518896032778  0.0000000000000000  0.4999908435198961   F   F   F
  0.1251857395935545  0.3752203070835520  0.5002493014812970   F   F   F
  0.9999672355602698  0.2498728766876965  0.5000652374653782   F   F   F
  0.3750162387180964  0.3744451063530008  0.5003357074351911   F   F   F
  0.2502408616917009  0.2501695845058833  0.5002524782468356   F   F   F
  0.6248449694301641  0.3752117592365707  0.5002287076778842   F   F   F
  0.4997972590064848  0.2501659175226791  0.5002298217263856   F   F   F
  0.8750091700855336  0.3751662226981622  0.5001388296989262   F   F   F
  0.7500609487229042  0.2498687347522832  0.5000566840698824   F   F   F
  0.1251857395935545  0.6247797259164471  0.5002493014812970   F   F   F
  0.0001853067292288  0.5000000000000000  0.5003190296749906   F   F   F
  0.3750162387180964  0.6255549266469984  0.5003357074351911   F   F   F
  0.2494544386480229  0.5000000000000000  0.5003404146522215   F   F   F
  0.6248449694301641  0.6247882737634285  0.5002287076778842   F   F   F
  0.5005696192635369  0.5000000000000000  0.5003310265109278   F   F   F
  0.8750091700855336  0.6248338103018369  0.5001388296989262   F   F   F
  0.7498636322218957  0.5000000000000000  0.5002983320116599   F   F   F
  0.1248798167347971  0.8750419824390079  0.5000669099203066   F   F   F
  0.9999672355602698  0.7501271233123035  0.5000652374653782   F   F   F
  0.3750099451752149  0.8748404672650665  0.5003137778674329   F   F   F
  0.2502408616917009  0.7498304154941167  0.5002524782468356   F   F   F
  0.6251374593029908  0.8750519808141490  0.5000556001819163   F   F   F
  0.4997972590064848  0.7498340824773209  0.5002298217263856   F   F   F
  0.8750097628576583  0.8748425339921795  0.4999930040598599   F   F   F
  0.7500609487229042  0.7501312652477168  0.5000566840698824   F   F   F
  0.9999198354480896  0.1249054765709161  0.6600383793434048   F   F   F
  0.1251402551078371  0.0000000000000000  0.3400166161623446   F   F   F
  0.2499441655050418  0.1249763336090481  0.6601775959658553   F   F   F
  0.3749982617778684  0.0000000000000000  0.3399164792006104   F   F   F
  0.5001006294040593  0.1249704025514689  0.6601535373538994   F   F   F
  0.6248716688830740  0.0000000000000000  0.3400118578476281   F   F   F
  0.7501057356272725  0.1249092051289935  0.6600350555738288   F   F   F
  0.8750083018888972  0.0000000000000000  0.3392887636262500   F   F   F
  0.9999907048473418  0.3749312997934879  0.6601768515235023   F   F   F
  0.1251334450534927  0.2501279592793466  0.3402927476612518   F   F   F
  0.2491272682747834  0.3740637645625497  0.6607553264086050   F   F   F
  0.3750050014927027  0.2499805353582687  0.3402509908221134   F   F   F
  0.5009699177979243  0.3740681592706565  0.6607231009352219   F   F   F
  0.6248814547603629  0.2501220748410589  0.3402789266453610   F   F   F
  0.7500426579422026  0.3749141804128300  0.6601536956410143   F   F   F
  0.8750107449511901  0.2501333265123264  0.3400143047404427   F   F   F
  0.9999907048473418  0.6250687332065112  0.6601768515235023   F   F   F
  0.1249949591450914  0.5000000000000000  0.3402557447085215   F   F   F
  0.2491272682747834  0.6259362684374423  0.6607553264086050   F   F   F
  0.3750033570568192  0.5000000000000000  0.3401453409230726   F   F   F
  0.5009699177979243  0.6259318737293427  0.6607231009352219   F   F   F
  0.6250355615218908  0.5000000000000000  0.3402321991898205   F   F   F
  0.7500426579422026  0.6250858525871692  0.6601536956410143   F   F   F
  0.8750131148858600  0.5000000000000000  0.3399165501566657   F   F   F
  0.9999198354480896  0.8750944904290847  0.6600383793434048   F   F   F
  0.1251334450534927  0.7498720407206534  0.3402927476612518   F   F   F
  0.2499441655050418  0.8750236333909527  0.6601775959658553   F   F   F
  0.3750050014927027  0.7500194646417313  0.3402509908221134   F   F   F
  0.5001006294040593  0.8750295644485320  0.6601535373538994   F   F   F
  0.6248814547603629  0.7498779251589411  0.3402789266453610   F   F   F
  0.7501057356272725  0.8750907618710073  0.6600350555738288   F   F   F
  0.8750107449511901  0.7498666734876736  0.3400143047404427   F   F   F
  0.3752627281217968  0.5000100279999984  0.6838194134278363   T   T   T
 
  0.00000000E+00  0.00000000E+00  0.00000000E+00
  0.00000000E+00  0.00000000E+00  0.00000000E+00
  0.00000000E+00  0.00000000E+00  0.00000000E+00
  0.00000000E+00  0.00000000E+00  0.00000000E+00
  0.00000000E+00  0.00000000E+00  0.00000000E+00
  0.00000000E+00  0.00000000E+00  0.00000000E+00
  0.00000000E+00  0.00000000E+00  0.00000000E+00
  0.00000000E+00  0.00000000E+00  0.00000000E+00
  0.00000000E+00  0.00000000E+00  0.00000000E+00
  0.00000000E+00  0.00000000E+00  0.00000000E+00
  0.00000000E+00  0.00000000E+00  0.00000000E+00
  0.00000000E+00  0.00000000E+00  0.00000000E+00
  0.00000000E+00  0.00000000E+00  0.00000000E+00
  0.00000000E+00  0.00000000E+00  0.00000000E+00
  0.00000000E+00  0.00000000E+00  0.00000000E+00
  0.00000000E+00  0.00000000E+00  0.00000000E+00
  0.00000000E+00  0.00000000E+00  0.00000000E+00
  0.00000000E+00  0.00000000E+00  0.00000000E+00
  0.00000000E+00  0.00000000E+00  0.00000000E+00
  0.00000000E+00  0.00000000E+00  0.00000000E+00
  0.00000000E+00  0.00000000E+00  0.00000000E+00
  0.00000000E+00  0.00000000E+00  0.00000000E+00
  0.00000000E+00  0.00000000E+00  0.00000000E+00
  0.00000000E+00  0.00000000E+00  0.00000000E+00
  0.00000000E+00  0.00000000E+00  0.00000000E+00
  0.00000000E+00  0.00000000E+00  0.00000000E+00
  0.00000000E+00  0.00000000E+00  0.00000000E+00
  0.00000000E+00  0.00000000E+00  0.00000000E+00
  0.00000000E+00  0.00000000E+00  0.00000000E+00
  0.00000000E+00  0.00000000E+00  0.00000000E+00
  0.00000000E+00  0.00000000E+00  0.00000000E+00
  0.00000000E+00  0.00000000E+00  0.00000000E+00
  0.00000000E+00  0.00000000E+00  0.00000000E+00
  0.00000000E+00  0.00000000E+00  0.00000000E+00
  0.00000000E+00  0.00000000E+00  0.00000000E+00
  0.00000000E+00  0.00000000E+00  0.00000000E+00
  0.00000000E+00  0.00000000E+00  0.00000000E+00
  0.00000000E+00  0.00000000E+00  0.00000000E+00
  0.00000000E+00  0.00000000E+00  0.00000000E+00
  0.00000000E+00  0.00000000E+00  0.00000000E+00
  0.00000000E+00  0.00000000E+00  0.00000000E+00
  0.00000000E+00  0.00000000E+00  0.00000000E+00
  0.00000000E+00  0.00000000E+00  0.00000000E+00
  0.00000000E+00  0.00000000E+00  0.00000000E+00
  0.00000000E+00  0.00000000E+00  0.00000000E+00
  0.00000000E+00  0.00000000E+00  0.00000000E+00
  0.00000000E+00  0.00000000E+00  0.00000000E+00
  0.00000000E+00  0.00000000E+00  0.00000000E+00
  0.00000000E+00  0.00000000E+00  0.00000000E+00
  0.00000000E+00  0.00000000E+00  0.00000000E+00
  0.00000000E+00  0.00000000E+00  0.00000000E+00
  0.00000000E+00  0.00000000E+00  0.00000000E+00
  0.00000000E+00  0.00000000E+00  0.00000000E+00
  0.00000000E+00  0.00000000E+00  0.00000000E+00
  0.00000000E+00  0.00000000E+00  0.00000000E+00
  0.00000000E+00  0.00000000E+00  0.00000000E+00
  0.00000000E+00  0.00000000E+00  0.00000000E+00
  0.00000000E+00  0.00000000E+00  0.00000000E+00
  0.00000000E+00  0.00000000E+00  0.00000000E+00
  0.00000000E+00  0.00000000E+00  0.00000000E+00
  0.00000000E+00  0.00000000E+00  0.00000000E+00
  0.00000000E+00  0.00000000E+00  0.00000000E+00
  0.00000000E+00  0.00000000E+00  0.00000000E+00
  0.00000000E+00  0.00000000E+00  0.00000000E+00
  0.00000000E+00  0.00000000E+00  0.00000000E+00
  0.00000000E+00  0.00000000E+00  0.00000000E+00
  0.00000000E+00  0.00000000E+00  0.00000000E+00
  0.00000000E+00  0.00000000E+00  0.00000000E+00
  0.00000000E+00  0.00000000E+00  0.00000000E+00
  0.00000000E+00  0.00000000E+00  0.00000000E+00
  0.00000000E+00  0.00000000E+00  0.00000000E+00
  0.00000000E+00  0.00000000E+00  0.00000000E+00
  0.00000000E+00  0.00000000E+00  0.00000000E+00
  0.00000000E+00  0.00000000E+00  0.00000000E+00
  0.00000000E+00  0.00000000E+00  0.00000000E+00
  0.00000000E+00  0.00000000E+00  0.00000000E+00
  0.00000000E+00  0.00000000E+00  0.00000000E+00
  0.00000000E+00  0.00000000E+00  0.00000000E+00
  0.00000000E+00  0.00000000E+00  0.00000000E+00
  0.00000000E+00  0.00000000E+00  0.00000000E+00
  0.00000000E+00  0.00000000E+00  0.00000000E+00
  0.00000000E+00  0.00000000E+00  0.00000000E+00
  0.00000000E+00  0.00000000E+00  0.00000000E+00
  0.00000000E+00  0.00000000E+00  0.00000000E+00
  0.00000000E+00  0.00000000E+00  0.00000000E+00
  0.00000000E+00  0.00000000E+00  0.00000000E+00
  0.00000000E+00  0.00000000E+00  0.00000000E+00
  0.00000000E+00  0.00000000E+00  0.00000000E+00
  0.00000000E+00  0.00000000E+00  0.00000000E+00
  0.00000000E+00  0.00000000E+00  0.00000000E+00
  0.00000000E+00  0.00000000E+00  0.00000000E+00
  0.00000000E+00  0.00000000E+00  0.00000000E+00
  0.00000000E+00  0.00000000E+00  0.00000000E+00
  0.00000000E+00  0.00000000E+00  0.00000000E+00
  0.00000000E+00  0.00000000E+00  0.00000000E+00
  0.00000000E+00  0.00000000E+00  0.00000000E+00
  0.00000000E+00  0.00000000E+00  0.00000000E+00
