CONTCAR\(6)                             
   1.00000000000000     
    10.4815998077000003    0.0000000000000000    0.0000000000000000
     0.0000000000000000   10.4815998077000003    0.0000000000000000
     0.0000000000000000    0.0000000000000000   21.6266002654999987
   Hf   Si   Se   O 
    18    18    18     1
Direct
  0.1624146967659189  0.0058223103111345  0.5997444648568090
  0.9994791732208831  0.1640216723890141  0.4018936168792762
  0.5043471121604675  0.0058178358160714  0.5997434597413585
  0.3333933862094771  0.1648205711164354  0.4019009102545290
  0.8333796459086439  0.9953913000512661  0.6001071789897721
  0.6673109069934231  0.1640366746348307  0.4018867351949797
  0.1636301283387904  0.3281724071627104  0.5991616703745595
  0.0002626680246771  0.4982778130102587  0.4026226145644787
  0.5031272661304895  0.3281668449988243  0.5991585374508155
  0.3333916704752005  0.4968963061845054  0.4028032380055006
  0.8333790286055451  0.3317500800978263  0.5998361188996554
  0.6665454472095731  0.4982868646025725  0.4026154277040540
  0.1743255025287746  0.6587568911780753  0.6029360974800785
  0.0005631578537833  0.8302127298090373  0.4034174235864655
  0.4924369869857818  0.6587584563508333  0.6029361946255630
  0.3333962270564365  0.8313040988387128  0.4037507492609334
  0.8333855784263109  0.6647155123392264  0.6008292813280687
  0.6662418792624104  0.8302087737897488  0.4034118794442528
  0.9993622333469409  0.9968185745432288  0.5008125919965531
  0.1657293044666433  0.1650044533146525  0.5002320469656342
  0.3333946460625749  0.9991309645511595  0.5023320366316062
  0.5010429154871293  0.1650139707431417  0.5002225256939402
  0.6674079140245195  0.9968188085680739  0.5008027473870521
  0.8333795205904404  0.1642303767995936  0.5013532362568587
  0.9986952260924492  0.3312965788570083  0.5006701567188755
  0.1663235059697165  0.4964245123751169  0.5015842356237256
  0.3333905187836879  0.3299724654580762  0.5011006644861472
  0.5004753411111026  0.4964256777258181  0.5015734908342629
  0.6680753974999736  0.3313009404014036  0.5006699231432479
  0.8333856873080587  0.4985525419445699  0.5015013502231421
  0.0013525742623973  0.6643228086515097  0.5021604375448115
  0.1680303743667365  0.8310039519767897  0.5038147221514196
  0.3333855644474866  0.6627062473929369  0.5014614055655306
  0.4987402849753508  0.8310009324003700  0.5038106864240994
  0.6654315059233074  0.6643225299410551  0.5021629946198255
  0.8333822760762619  0.8295839049029446  0.5015467129043346
  0.9968275138870185  0.1649608970078093  0.6561746727874189
  0.1669294203213404  0.9971487388401967  0.3478548992709184
  0.3333708220455676  0.1703190327241150  0.6583201306175284
  0.4998374420101865  0.9971686056551451  0.3478517460858622
  0.6699204642774008  0.1649687045580256  0.6561670298044553
  0.8334190385047345  0.9967180262567904  0.3473706785117353
  0.0002563660843258  0.4977803363651718  0.6556863442007186
  0.1664885217535486  0.3313016271668525  0.3471332277737159
  0.3333918899267552  0.4786613416548968  0.6559459185153501
  0.5002992469157096  0.3313352918757839  0.3471206137999878
  0.6664840115177786  0.4977514749493441  0.6556763543861850
  0.8334122050870554  0.3316806199746360  0.3471828897740658
  0.0042890010007737  0.8292436061293226  0.6547877124574253
  0.1674162831672611  0.6647182311408327  0.3479855195848736
  0.3333735461623455  0.9106962572316435  0.6766723405308982
  0.4993596212972207  0.6647259236371833  0.3479842676176617
  0.6624565774799603  0.8292434134664779  0.6547816719105002
  0.8334587164578211  0.6648490405494426  0.3474971087862802
  0.3333839351518315  0.7343613755877585  0.6526901157721231
 
  0.00000000E+00  0.00000000E+00  0.00000000E+00
  0.00000000E+00  0.00000000E+00  0.00000000E+00
  0.00000000E+00  0.00000000E+00  0.00000000E+00
  0.00000000E+00  0.00000000E+00  0.00000000E+00
  0.00000000E+00  0.00000000E+00  0.00000000E+00
  0.00000000E+00  0.00000000E+00  0.00000000E+00
  0.00000000E+00  0.00000000E+00  0.00000000E+00
  0.00000000E+00  0.00000000E+00  0.00000000E+00
  0.00000000E+00  0.00000000E+00  0.00000000E+00
  0.00000000E+00  0.00000000E+00  0.00000000E+00
  0.00000000E+00  0.00000000E+00  0.00000000E+00
  0.00000000E+00  0.00000000E+00  0.00000000E+00
  0.00000000E+00  0.00000000E+00  0.00000000E+00
  0.00000000E+00  0.00000000E+00  0.00000000E+00
  0.00000000E+00  0.00000000E+00  0.00000000E+00
  0.00000000E+00  0.00000000E+00  0.00000000E+00
  0.00000000E+00  0.00000000E+00  0.00000000E+00
  0.00000000E+00  0.00000000E+00  0.00000000E+00
  0.00000000E+00  0.00000000E+00  0.00000000E+00
  0.00000000E+00  0.00000000E+00  0.00000000E+00
  0.00000000E+00  0.00000000E+00  0.00000000E+00
  0.00000000E+00  0.00000000E+00  0.00000000E+00
  0.00000000E+00  0.00000000E+00  0.00000000E+00
  0.00000000E+00  0.00000000E+00  0.00000000E+00
  0.00000000E+00  0.00000000E+00  0.00000000E+00
  0.00000000E+00  0.00000000E+00  0.00000000E+00
  0.00000000E+00  0.00000000E+00  0.00000000E+00
  0.00000000E+00  0.00000000E+00  0.00000000E+00
  0.00000000E+00  0.00000000E+00  0.00000000E+00
  0.00000000E+00  0.00000000E+00  0.00000000E+00
  0.00000000E+00  0.00000000E+00  0.00000000E+00
  0.00000000E+00  0.00000000E+00  0.00000000E+00
  0.00000000E+00  0.00000000E+00  0.00000000E+00
  0.00000000E+00  0.00000000E+00  0.00000000E+00
  0.00000000E+00  0.00000000E+00  0.00000000E+00
  0.00000000E+00  0.00000000E+00  0.00000000E+00
  0.00000000E+00  0.00000000E+00  0.00000000E+00
  0.00000000E+00  0.00000000E+00  0.00000000E+00
  0.00000000E+00  0.00000000E+00  0.00000000E+00
  0.00000000E+00  0.00000000E+00  0.00000000E+00
  0.00000000E+00  0.00000000E+00  0.00000000E+00
  0.00000000E+00  0.00000000E+00  0.00000000E+00
  0.00000000E+00  0.00000000E+00  0.00000000E+00
  0.00000000E+00  0.00000000E+00  0.00000000E+00
  0.00000000E+00  0.00000000E+00  0.00000000E+00
  0.00000000E+00  0.00000000E+00  0.00000000E+00
  0.00000000E+00  0.00000000E+00  0.00000000E+00
  0.00000000E+00  0.00000000E+00  0.00000000E+00
  0.00000000E+00  0.00000000E+00  0.00000000E+00
  0.00000000E+00  0.00000000E+00  0.00000000E+00
  0.00000000E+00  0.00000000E+00  0.00000000E+00
  0.00000000E+00  0.00000000E+00  0.00000000E+00
  0.00000000E+00  0.00000000E+00  0.00000000E+00
  0.00000000E+00  0.00000000E+00  0.00000000E+00
  0.00000000E+00  0.00000000E+00  0.00000000E+00
