CONTCAR                                 
   1.00000000000000     
    12.9397001266000000    0.0000000000000000    0.0000000000000000
     0.0000000000000000   12.9407997131000005    0.0000000000000000
     0.0000000000000000    0.0000000000000000   24.2110004425000014
   Y    Te   O    H 
    18    54     2     1
Selective dynamics
Direct
  0.9968422329781461  0.1687731758877646  0.5858094461364587   F   F   F
  0.1644387477242830  0.0020935639225002  0.4159317827029412   F   F   F
  0.3306722103106381  0.1689329379134179  0.5859015705606865   F   F   F
  0.4975094935451807  0.0022815938943737  0.4160706227937965   F   F   F
  0.6629848132118354  0.1694727299300283  0.5861900388608916   F   F   F
  0.8304297009971648  0.0020796825056948  0.4159186956753800   F   F   F
  0.9970555671985721  0.5034681727335624  0.5851521016366235   F   F   F
  0.1632895204919791  0.3350845980499741  0.4145704909471846   F   F   F
  0.3214643718536152  0.4998165027725037  0.5817236217760282   F   F   F
  0.4974988849278290  0.3355040332423300  0.4150066603805058   F   F   F
  0.6725344761918493  0.5014716253550873  0.5820235392291622   F   F   F
  0.8312991173962203  0.3351117922432820  0.4146575712415412   F   F   F
  0.9970216789637476  0.8380425229394604  0.5861415229718929   F   F   F
  0.1637370003450442  0.6695527066258435  0.4150723917861328   F   F   F
  0.3304132003110851  0.8369145837791834  0.5867257102249823   F   F   F
  0.4975060104493352  0.6681223184875194  0.4152471415332215   F   F   F
  0.6637552038926700  0.8371733269748276  0.5864573806296747   F   F   F
  0.8312882457906312  0.6694053433247120  0.4149461724819545   F   F   F
  0.1641522913803968  0.1688153966662043  0.3125199294040613   F   F   F
  0.9967749139707678  0.0069114314407059  0.6896338134224678   F   F   F
  0.1632017567650266  0.1693904218645130  0.6892224187322924   F   F   F
  0.9979278514458159  0.0019145111361212  0.3129086366915885   F   F   F
  0.9971857679129741  0.1680789920780867  0.4540841805023632   F   F   F
  0.1643526464601521  0.0026067943145449  0.5473449461288382   F   F   F
  0.4977378286368719  0.1691284424417816  0.3128028208462510   F   F   F
  0.3303709399258992  0.0029760861532822  0.6897727595946819   F   F   F
  0.4969090074950131  0.1738713085785832  0.6892215466111793   F   F   F
  0.3314949919291053  0.0026551359109206  0.3133048354454857   F   F   F
  0.3310656860309749  0.1697512041223916  0.4544972694544285   F   F   F
  0.4971903961230524  0.0026013054049727  0.5477939526750220   F   F   F
  0.8311838477963533  0.1684408005772937  0.3125126508253757   F   F   F
  0.6630315784654854  0.0035887728550961  0.6896984342967940   F   F   F
  0.8300110746358413  0.1689664256046655  0.6895746111171164   F   F   F
  0.6640631310679197  0.0023185346379151  0.3131472978529217   F   F   F
  0.6636448755374502  0.1694477113823893  0.4545847992357537   F   F   F
  0.8297647061188442  0.0028412078906257  0.5474587636867199   F   F   F
  0.1640567560838520  0.5025907608647771  0.3119670815452409   F   F   F
  0.9961062942075642  0.3376787056956161  0.6885793595170924   F   F   F
  0.1629057129109839  0.5021257731916791  0.6875367645261079   F   F   F
  0.9974454564747219  0.3354519126210107  0.3117305438200475   F   F   F
  0.9974243079559812  0.5023838463400594  0.4536898391406723   F   F   F
  0.1614803137078127  0.3338916072722640  0.5459543567529082   F   F   F
  0.4979058830229945  0.5018795167083212  0.3121188504576082   F   F   F
  0.3297655686551835  0.3360336941526469  0.6869212184041871   F   F   F
  0.4973934496346786  0.5107625509690550  0.6784564417048742   F   F   F
  0.3307208882915802  0.3356911410766372  0.3119959380024540   F   F   F
  0.3296256842294056  0.5020595393276253  0.4525135727164411   F   F   F
  0.4971161283235830  0.3376279481264035  0.5472877508091045   F   F   F
  0.8313983961054561  0.5027423767916019  0.3118052903503425   F   F   F
  0.6630425825194379  0.3380521966691461  0.6886808228185402   F   F   F
  0.8307940132059812  0.5023039710871302  0.6875283596260715   F   F   F
  0.6648451978385594  0.3353933552005302  0.3118323555978080   F   F   F
  0.6651486077552988  0.5022614508488843  0.4526657869523660   F   F   F
  0.8322336834531328  0.3343683366564960  0.5462172496820088   F   F   F
  0.1649253471054166  0.8358346695543588  0.3129708410886991   F   F   F
  0.9973195323310620  0.6724794956018911  0.6890849702607653   F   F   F
  0.1634984119722134  0.8365496281362468  0.6895316019952134   F   F   F
  0.9978190306393060  0.6695249836017823  0.3119723336033928   F   F   F
  0.9973236326090031  0.8362561820924483  0.4544334422879714   F   F   F
  0.1628851976660641  0.6709599659483132  0.5467591014305384   F   F   F
  0.4974774420798340  0.8355091741058303  0.3128536503023724   F   F   F
  0.3282369381627532  0.6696184883105403  0.6902608355019169   F   F   F
  0.4962383323235855  0.8389473034925672  0.6897410596775160   F   F   F
  0.3312577312083391  0.6688798336922730  0.3123191452269083   F   F   F
  0.3323290726497277  0.8344304028727834  0.4550514124480998   F   F   F
  0.4970713697504863  0.6659577164900554  0.5493641614996889   F   F   F
  0.8307824484949791  0.8359247100095573  0.3127542520286397   F   F   F
  0.6657212400166372  0.6715378458820851  0.6883496663372455   F   F   F
  0.8310910864508472  0.8367353142938185  0.6897175061823830   F   F   F
  0.6641013057200666  0.6689997590438281  0.3122641317363204   F   F   F
  0.6628759424252664  0.8343595026639576  0.4548948595479203   F   F   F
  0.8317757196255684  0.6711619829542883  0.5465511611768932   F   F   F
  0.4335883116443568  0.5292690524643362  0.7997109272098157   T   T   T
  0.5091396274690254  0.4767899315591677  0.7666092470165751   T   T   T
  0.4698102820014469  0.5934694379878707  0.8089544278404689   T   T   T
 
  0.00000000E+00  0.00000000E+00  0.00000000E+00
  0.00000000E+00  0.00000000E+00  0.00000000E+00
  0.00000000E+00  0.00000000E+00  0.00000000E+00
  0.00000000E+00  0.00000000E+00  0.00000000E+00
  0.00000000E+00  0.00000000E+00  0.00000000E+00
  0.00000000E+00  0.00000000E+00  0.00000000E+00
  0.00000000E+00  0.00000000E+00  0.00000000E+00
  0.00000000E+00  0.00000000E+00  0.00000000E+00
  0.00000000E+00  0.00000000E+00  0.00000000E+00
  0.00000000E+00  0.00000000E+00  0.00000000E+00
  0.00000000E+00  0.00000000E+00  0.00000000E+00
  0.00000000E+00  0.00000000E+00  0.00000000E+00
  0.00000000E+00  0.00000000E+00  0.00000000E+00
  0.00000000E+00  0.00000000E+00  0.00000000E+00
  0.00000000E+00  0.00000000E+00  0.00000000E+00
  0.00000000E+00  0.00000000E+00  0.00000000E+00
  0.00000000E+00  0.00000000E+00  0.00000000E+00
  0.00000000E+00  0.00000000E+00  0.00000000E+00
  0.00000000E+00  0.00000000E+00  0.00000000E+00
  0.00000000E+00  0.00000000E+00  0.00000000E+00
  0.00000000E+00  0.00000000E+00  0.00000000E+00
  0.00000000E+00  0.00000000E+00  0.00000000E+00
  0.00000000E+00  0.00000000E+00  0.00000000E+00
  0.00000000E+00  0.00000000E+00  0.00000000E+00
  0.00000000E+00  0.00000000E+00  0.00000000E+00
  0.00000000E+00  0.00000000E+00  0.00000000E+00
  0.00000000E+00  0.00000000E+00  0.00000000E+00
  0.00000000E+00  0.00000000E+00  0.00000000E+00
  0.00000000E+00  0.00000000E+00  0.00000000E+00
  0.00000000E+00  0.00000000E+00  0.00000000E+00
  0.00000000E+00  0.00000000E+00  0.00000000E+00
  0.00000000E+00  0.00000000E+00  0.00000000E+00
  0.00000000E+00  0.00000000E+00  0.00000000E+00
  0.00000000E+00  0.00000000E+00  0.00000000E+00
  0.00000000E+00  0.00000000E+00  0.00000000E+00
  0.00000000E+00  0.00000000E+00  0.00000000E+00
  0.00000000E+00  0.00000000E+00  0.00000000E+00
  0.00000000E+00  0.00000000E+00  0.00000000E+00
  0.00000000E+00  0.00000000E+00  0.00000000E+00
  0.00000000E+00  0.00000000E+00  0.00000000E+00
  0.00000000E+00  0.00000000E+00  0.00000000E+00
  0.00000000E+00  0.00000000E+00  0.00000000E+00
  0.00000000E+00  0.00000000E+00  0.00000000E+00
  0.00000000E+00  0.00000000E+00  0.00000000E+00
  0.00000000E+00  0.00000000E+00  0.00000000E+00
  0.00000000E+00  0.00000000E+00  0.00000000E+00
  0.00000000E+00  0.00000000E+00  0.00000000E+00
  0.00000000E+00  0.00000000E+00  0.00000000E+00
  0.00000000E+00  0.00000000E+00  0.00000000E+00
  0.00000000E+00  0.00000000E+00  0.00000000E+00
  0.00000000E+00  0.00000000E+00  0.00000000E+00
  0.00000000E+00  0.00000000E+00  0.00000000E+00
  0.00000000E+00  0.00000000E+00  0.00000000E+00
  0.00000000E+00  0.00000000E+00  0.00000000E+00
  0.00000000E+00  0.00000000E+00  0.00000000E+00
  0.00000000E+00  0.00000000E+00  0.00000000E+00
  0.00000000E+00  0.00000000E+00  0.00000000E+00
  0.00000000E+00  0.00000000E+00  0.00000000E+00
  0.00000000E+00  0.00000000E+00  0.00000000E+00
  0.00000000E+00  0.00000000E+00  0.00000000E+00
  0.00000000E+00  0.00000000E+00  0.00000000E+00
  0.00000000E+00  0.00000000E+00  0.00000000E+00
  0.00000000E+00  0.00000000E+00  0.00000000E+00
  0.00000000E+00  0.00000000E+00  0.00000000E+00
  0.00000000E+00  0.00000000E+00  0.00000000E+00
  0.00000000E+00  0.00000000E+00  0.00000000E+00
  0.00000000E+00  0.00000000E+00  0.00000000E+00
  0.00000000E+00  0.00000000E+00  0.00000000E+00
  0.00000000E+00  0.00000000E+00  0.00000000E+00
  0.00000000E+00  0.00000000E+00  0.00000000E+00
  0.00000000E+00  0.00000000E+00  0.00000000E+00
  0.00000000E+00  0.00000000E+00  0.00000000E+00
  0.00000000E+00  0.00000000E+00  0.00000000E+00
  0.00000000E+00  0.00000000E+00  0.00000000E+00
  0.00000000E+00  0.00000000E+00  0.00000000E+00
