CONTCAR\(14)                            
   1.00000000000000     
    10.8957996367999996    0.0000000000000000    0.0000000000000000
     0.0000000000000000   12.8001003265000008    0.0000000000000000
     0.0000000000000000    0.0000000000000000   21.8099994658999989
   Cu   Si   P    O 
    12    24    36     1
Direct
 -0.0000000000000000  0.1071958711716283  0.4621073499735969
 -0.0000000000000000  0.2888298380098722  0.3597185169352400
  0.3333088565789372  0.1070143559467513  0.4626273578390117
  0.3345638100131856  0.2878333571950415  0.3599952201519668
  0.6666911864210630  0.1070143559467513  0.4626273578390117
  0.6654362329868213  0.2878333571950415  0.3599952201519668
 -0.0000000000000000  0.6062639625413098  0.4569671788408232
 -0.0000000000000000  0.7866883869404816  0.3593117034687867
  0.3390392898308812  0.6094989575609696  0.4651185335472811
  0.3335299352395700  0.7886927246747448  0.3616005831221026
  0.6609607531691187  0.6094989575609696  0.4651185335472811
  0.6664701077604298  0.7886927246747448  0.3616005831221026
  0.1667536773234101  0.0469630355905043  0.3871675693152256
  0.1657542292658464  0.1942668626701951  0.6083138560790675
  0.1672537210423541  0.3542179563538319  0.4792994110140796
 -0.0000000000000000  0.4453484120341009  0.6130323453653321
  0.5000000000000000  0.0455306305324187  0.3891546004665455
  0.5000000000000000  0.1914139839599941  0.6096407245876151
  0.5000000000000000  0.3529961971501142  0.4808470613971160
  0.3338471773255786  0.4438597991971825  0.6147350549112505
  0.8332463226765827  0.0469630355905043  0.3871675693152256
  0.8342457707341535  0.1942668626701951  0.6083138560790675
  0.8327462789576456  0.3542179563538319  0.4792994110140796
  0.6661528656744214  0.4438597991971825  0.6147350549112505
  0.1659648772768998  0.5477891911629152  0.3853682019563703
  0.1588397196722924  0.6950565430380440  0.6067330567808780
  0.1666653331412938  0.8533732265555316  0.4813007056874192
 -0.0000000000000000  0.9437441558435563  0.6153360024496901
  0.5000000000000000  0.5487961684321462  0.3911877861221823
  0.5000000000000000  0.7003548860607441  0.6256097128045497
  0.5000000000000000  0.8507434806329826  0.4857565604228745
  0.3294486190770987  0.9432772665682816  0.6157927741273421
  0.8340351227231001  0.5477891911629152  0.3853682019563703
  0.8411602803277078  0.6950565430380440  0.6067330567808780
  0.8333346668587064  0.8533732265555316  0.4813007056874192
  0.6705514239229016  0.9432772665682816  0.6157927741273421
 -0.0000000000000000  0.1205204855073498  0.3456153109915105
  0.1664577457449457  0.1876217837989011  0.5053225682943303
  0.1675984862404814  0.3757180482772438  0.3779607083497299
 -0.0000000000000000  0.2777256203375722  0.6527874194534906
 -0.0000000000000000  0.4483898497149543  0.5093840459236442
  0.1650593834409810  0.0323422313544584  0.6560514817147645
  0.3345827433650368  0.1192891410841219  0.3460409924166190
  0.5000000000000000  0.1863652277173783  0.5065359390582449
  0.5000000000000000  0.3769304863509667  0.3798656182063223
  0.3323523679404612  0.2749514819720670  0.6537639075314056
  0.3335154350079935  0.4477157136376209  0.5113083692107847
  0.5000000000000000  0.0273315164856954  0.6562298681497761
  0.6654172996349631  0.1192891410841219  0.3460409924166190
  0.8335422542550542  0.1876217837989011  0.5053225682943303
  0.8324015137595188  0.3757180482772438  0.3779607083497299
  0.6676476750595387  0.2749514819720670  0.6537639075314056
  0.6664846079920064  0.4477157136376209  0.5113083692107847
  0.8349406165590190  0.0323422313544584  0.6560514817147645
 -0.0000000000000000  0.6187520760620957  0.3406520660633753
  0.1648354762356937  0.6853444528392063  0.5044360710485311
  0.1658761028414862  0.8753539124940326  0.3799186988859866
 -0.0000000000000000  0.7750927635084286  0.6550925674411868
 -0.0000000000000000  0.9476439591415986  0.5118332940161970
  0.1654650646623566  0.5312789889102272  0.6541263367157968
  0.3349031132613466  0.6206223411274960  0.3466638374948648
  0.5000000000000000  0.6878078073722139  0.5177060911633842
  0.5000000000000000  0.8736524085771791  0.3842685432629332
  0.3172375780339900  0.7782908938394976  0.6545910693553056
  0.3325230671094687  0.9479321531670520  0.5124848554532309
  0.5000000000000000  0.5247633593153076  0.6580084108602656
  0.6650969297386606  0.6206223411274960  0.3466638374948648
  0.8351645237643063  0.6853444528392063  0.5044360710485311
  0.8341238971585138  0.8753539124940326  0.3799186988859866
  0.6827624649660099  0.7782908938394976  0.6545910693553056
  0.6674769758905311  0.9479321531670520  0.5124848554532309
  0.8345349353376434  0.5312789889102272  0.6541263367157968
  0.4999800000000008  0.7706499895681437  0.6920990975686183
 
  0.00000000E+00  0.00000000E+00  0.00000000E+00
  0.00000000E+00  0.00000000E+00  0.00000000E+00
  0.00000000E+00  0.00000000E+00  0.00000000E+00
  0.00000000E+00  0.00000000E+00  0.00000000E+00
  0.00000000E+00  0.00000000E+00  0.00000000E+00
  0.00000000E+00  0.00000000E+00  0.00000000E+00
  0.00000000E+00  0.00000000E+00  0.00000000E+00
  0.00000000E+00  0.00000000E+00  0.00000000E+00
  0.00000000E+00  0.00000000E+00  0.00000000E+00
  0.00000000E+00  0.00000000E+00  0.00000000E+00
  0.00000000E+00  0.00000000E+00  0.00000000E+00
  0.00000000E+00  0.00000000E+00  0.00000000E+00
  0.00000000E+00  0.00000000E+00  0.00000000E+00
  0.00000000E+00  0.00000000E+00  0.00000000E+00
  0.00000000E+00  0.00000000E+00  0.00000000E+00
  0.00000000E+00  0.00000000E+00  0.00000000E+00
  0.00000000E+00  0.00000000E+00  0.00000000E+00
  0.00000000E+00  0.00000000E+00  0.00000000E+00
  0.00000000E+00  0.00000000E+00  0.00000000E+00
  0.00000000E+00  0.00000000E+00  0.00000000E+00
  0.00000000E+00  0.00000000E+00  0.00000000E+00
  0.00000000E+00  0.00000000E+00  0.00000000E+00
  0.00000000E+00  0.00000000E+00  0.00000000E+00
  0.00000000E+00  0.00000000E+00  0.00000000E+00
  0.00000000E+00  0.00000000E+00  0.00000000E+00
  0.00000000E+00  0.00000000E+00  0.00000000E+00
  0.00000000E+00  0.00000000E+00  0.00000000E+00
  0.00000000E+00  0.00000000E+00  0.00000000E+00
  0.00000000E+00  0.00000000E+00  0.00000000E+00
  0.00000000E+00  0.00000000E+00  0.00000000E+00
  0.00000000E+00  0.00000000E+00  0.00000000E+00
  0.00000000E+00  0.00000000E+00  0.00000000E+00
  0.00000000E+00  0.00000000E+00  0.00000000E+00
  0.00000000E+00  0.00000000E+00  0.00000000E+00
  0.00000000E+00  0.00000000E+00  0.00000000E+00
  0.00000000E+00  0.00000000E+00  0.00000000E+00
  0.00000000E+00  0.00000000E+00  0.00000000E+00
  0.00000000E+00  0.00000000E+00  0.00000000E+00
  0.00000000E+00  0.00000000E+00  0.00000000E+00
  0.00000000E+00  0.00000000E+00  0.00000000E+00
  0.00000000E+00  0.00000000E+00  0.00000000E+00
  0.00000000E+00  0.00000000E+00  0.00000000E+00
  0.00000000E+00  0.00000000E+00  0.00000000E+00
  0.00000000E+00  0.00000000E+00  0.00000000E+00
  0.00000000E+00  0.00000000E+00  0.00000000E+00
  0.00000000E+00  0.00000000E+00  0.00000000E+00
  0.00000000E+00  0.00000000E+00  0.00000000E+00
  0.00000000E+00  0.00000000E+00  0.00000000E+00
  0.00000000E+00  0.00000000E+00  0.00000000E+00
  0.00000000E+00  0.00000000E+00  0.00000000E+00
  0.00000000E+00  0.00000000E+00  0.00000000E+00
  0.00000000E+00  0.00000000E+00  0.00000000E+00
  0.00000000E+00  0.00000000E+00  0.00000000E+00
  0.00000000E+00  0.00000000E+00  0.00000000E+00
  0.00000000E+00  0.00000000E+00  0.00000000E+00
  0.00000000E+00  0.00000000E+00  0.00000000E+00
  0.00000000E+00  0.00000000E+00  0.00000000E+00
  0.00000000E+00  0.00000000E+00  0.00000000E+00
  0.00000000E+00  0.00000000E+00  0.00000000E+00
  0.00000000E+00  0.00000000E+00  0.00000000E+00
  0.00000000E+00  0.00000000E+00  0.00000000E+00
  0.00000000E+00  0.00000000E+00  0.00000000E+00
  0.00000000E+00  0.00000000E+00  0.00000000E+00
  0.00000000E+00  0.00000000E+00  0.00000000E+00
  0.00000000E+00  0.00000000E+00  0.00000000E+00
  0.00000000E+00  0.00000000E+00  0.00000000E+00
  0.00000000E+00  0.00000000E+00  0.00000000E+00
  0.00000000E+00  0.00000000E+00  0.00000000E+00
  0.00000000E+00  0.00000000E+00  0.00000000E+00
  0.00000000E+00  0.00000000E+00  0.00000000E+00
  0.00000000E+00  0.00000000E+00  0.00000000E+00
  0.00000000E+00  0.00000000E+00  0.00000000E+00
  0.00000000E+00  0.00000000E+00  0.00000000E+00
