CONTCAR                                 
   1.00000000000000     
     7.8445000648000001    0.0000000000000000    0.0000000000000000
     3.9223001003000002    6.7936230563000004    0.0000000000000000
     0.0000000000000000    0.0000000000000000   18.9503002167000005
   Te   Pt   O    H 
     8     8     2     1
Selective dynamics
Direct
  0.3349500626336095  0.3332085905635438  0.6150279946391493   F   F   F
  0.3356113468023310  0.3323166236371193  0.3927568585752681   F   F   F
  0.8327001290990239  0.3325267261922065  0.6147423301605315   F   F   F
  0.8325931070671686  0.3322020143558575  0.3926715151385096   F   F   F
  0.3317776714058098  0.8362978937872185  0.5970270436981693   F   F   F
  0.3337126364476575  0.8330002824110423  0.3952700594466094   F   F   F
  0.8327695588257953  0.8353437859059056  0.6149189122212420   F   F   F
  0.8318604030101895  0.8361362668689054  0.3925925193944977   F   F   F
  0.1612665794795092  0.1784901008698085  0.5434594490639384   F   F   F
  0.9989084802099413  0.0007596305428521  0.4622124032753590   F   F   F
  0.6663504286818309  0.1671348235763830  0.5455600877831088   F   F   F
  0.5008413033845756  0.0007659010950860  0.4624586474149979   F   F   F
  0.1617865536662677  0.6614779457690716  0.5437024323968345   F   F   F
  0.9998230218482433  0.5004887576199479  0.4599893503541495   F   F   F
  0.6768285780803467  0.6616094251979305  0.5439938060326668   F   F   F
  0.5010280885898979  0.4985371061087562  0.4623301190332469   F   F   F
  0.3187718852222261  0.8661987048975845  0.7073260824578114   T   T   T
  0.4182257951270145  0.6696123503036233  0.7385735588069267   T   T   T
  0.5475143394185621  0.6542230302971532  0.7489451309188353   T   T   T
 
  0.00000000E+00  0.00000000E+00  0.00000000E+00
  0.00000000E+00  0.00000000E+00  0.00000000E+00
  0.00000000E+00  0.00000000E+00  0.00000000E+00
  0.00000000E+00  0.00000000E+00  0.00000000E+00
  0.00000000E+00  0.00000000E+00  0.00000000E+00
  0.00000000E+00  0.00000000E+00  0.00000000E+00
  0.00000000E+00  0.00000000E+00  0.00000000E+00
  0.00000000E+00  0.00000000E+00  0.00000000E+00
  0.00000000E+00  0.00000000E+00  0.00000000E+00
  0.00000000E+00  0.00000000E+00  0.00000000E+00
  0.00000000E+00  0.00000000E+00  0.00000000E+00
  0.00000000E+00  0.00000000E+00  0.00000000E+00
  0.00000000E+00  0.00000000E+00  0.00000000E+00
  0.00000000E+00  0.00000000E+00  0.00000000E+00
  0.00000000E+00  0.00000000E+00  0.00000000E+00
  0.00000000E+00  0.00000000E+00  0.00000000E+00
  0.00000000E+00  0.00000000E+00  0.00000000E+00
  0.00000000E+00  0.00000000E+00  0.00000000E+00
  0.00000000E+00  0.00000000E+00  0.00000000E+00
