CONTCAR\(4)                             
   1.00000000000000     
    14.8165998459000008    0.0000000000000000    0.0000000000000000
    -7.4083277786000004   12.8316514086000009    0.0000000000000000
     0.0000000000000000    0.0000000000000000   18.0188999175999989
   Fe   Br   O    H 
    16    32     1     1
Direct
  0.9860158446640224  0.9702843479892854  0.4988864975561756
  0.2561408491513275  0.0036731995609279  0.5004313316301051
  0.4971417865537091  0.9881777227499744  0.4996091547246392
  0.7487821643822953  0.0022678220393732  0.5023397347346460
  0.9949006210767691  0.2395658619761020  0.5023406363379468
  0.2473526867341118  0.2406259772654648  0.5020282109797155
  0.5293495464825617  0.2606678322922487  0.4961525324417191
  0.7362120367811976  0.2666992380253289  0.4983847955581400
  0.0189590400613224  0.5083037484248982  0.5012182012740289
  0.2364686470341899  0.4996111086788217  0.4988279393495630
  0.4975903875165907  0.5010569730500503  0.5006588203486343
  0.7352085486049700  0.4614763571097311  0.4974150104684902
  0.9789009104455740  0.7571598592985682  0.5004198763759405
  0.2344326966513436  0.7302936431831574  0.5016801933334418
  0.5046137731412206  0.7552694483718982  0.5001484056184382
  0.7806853836246517  0.7583038992536432  0.4995170530940405
  0.1628210252952555  0.0765075646054278  0.4177782210695350
  0.0804279434118862  0.1581354216829056  0.5828094441851084
  0.4211460126256034  0.0840102265765394  0.4182895068285970
  0.3357842147263502  0.1640716514310442  0.5837577689098855
  0.6666337242334229  0.0837294679410610  0.4203675264414539
  0.5838523325132001  0.1644494560257108  0.5850833912039092
  0.9153997359266268  0.0757702295274055  0.4189529548887435
  0.8320460857050983  0.1633693204874371  0.5856835815212639
  0.1634454707655909  0.3299764240191252  0.4188936137429384
  0.0824418886327360  0.4132749092579959  0.5873298186393739
  0.4199487853940759  0.3294996864634969  0.4196606138809238
  0.3311663485518664  0.4125098158401279  0.5790714084910076
  0.6666790419760027  0.3296211148174810  0.3950759814430540
  0.5836988416620748  0.4126338392157954  0.5838777940855787
  0.9134272458833386  0.3321540259316248  0.4237335872231955
  0.8308237224376179  0.4131354875536114  0.5890411091470357
  0.1647808322347216  0.5804862425491100  0.4074185797131021
  0.0801517360832728  0.6619089851340761  0.5879425699514372
  0.4136010530026003  0.5804182179464401  0.4178276334787734
  0.3303733552949736  0.6619239640442897  0.5823898126368244
  0.6691396523282601  0.5798073448378073  0.4242364065464608
  0.5775932505421939  0.6625321511501419  0.5818446958849498
  0.9125550066376336  0.5790451031392401  0.4249639384103489
  0.8321412921005624  0.6655434719556711  0.5900051593052873
  0.1619996697454326  0.8283769796013746  0.4227916873967879
  0.0814703312371487  0.9123343671042030  0.5857814383812463
  0.4134236073690374  0.8276173172273928  0.4163644907884931
  0.3327186676971398  0.9115951806165035  0.5826519388371749
  0.6698066271700792  0.8296135209152790  0.4221275089124163
  0.5827655064313353  0.9132776331576672  0.5882548580340075
  0.9162032713016648  0.8297507248687807  0.3994121447508499
  0.8322062221383841  0.9112335549788392  0.5863968760652758
  0.5367174573013500  0.5665381689336909  0.6936052032892026
  0.5222555907379133  0.6128619071927082  0.7240403360896539
 
  0.00000000E+00  0.00000000E+00  0.00000000E+00
  0.00000000E+00  0.00000000E+00  0.00000000E+00
  0.00000000E+00  0.00000000E+00  0.00000000E+00
  0.00000000E+00  0.00000000E+00  0.00000000E+00
  0.00000000E+00  0.00000000E+00  0.00000000E+00
  0.00000000E+00  0.00000000E+00  0.00000000E+00
  0.00000000E+00  0.00000000E+00  0.00000000E+00
  0.00000000E+00  0.00000000E+00  0.00000000E+00
  0.00000000E+00  0.00000000E+00  0.00000000E+00
  0.00000000E+00  0.00000000E+00  0.00000000E+00
  0.00000000E+00  0.00000000E+00  0.00000000E+00
  0.00000000E+00  0.00000000E+00  0.00000000E+00
  0.00000000E+00  0.00000000E+00  0.00000000E+00
  0.00000000E+00  0.00000000E+00  0.00000000E+00
  0.00000000E+00  0.00000000E+00  0.00000000E+00
  0.00000000E+00  0.00000000E+00  0.00000000E+00
  0.00000000E+00  0.00000000E+00  0.00000000E+00
  0.00000000E+00  0.00000000E+00  0.00000000E+00
  0.00000000E+00  0.00000000E+00  0.00000000E+00
  0.00000000E+00  0.00000000E+00  0.00000000E+00
  0.00000000E+00  0.00000000E+00  0.00000000E+00
  0.00000000E+00  0.00000000E+00  0.00000000E+00
  0.00000000E+00  0.00000000E+00  0.00000000E+00
  0.00000000E+00  0.00000000E+00  0.00000000E+00
  0.00000000E+00  0.00000000E+00  0.00000000E+00
  0.00000000E+00  0.00000000E+00  0.00000000E+00
  0.00000000E+00  0.00000000E+00  0.00000000E+00
  0.00000000E+00  0.00000000E+00  0.00000000E+00
  0.00000000E+00  0.00000000E+00  0.00000000E+00
  0.00000000E+00  0.00000000E+00  0.00000000E+00
  0.00000000E+00  0.00000000E+00  0.00000000E+00
  0.00000000E+00  0.00000000E+00  0.00000000E+00
  0.00000000E+00  0.00000000E+00  0.00000000E+00
  0.00000000E+00  0.00000000E+00  0.00000000E+00
  0.00000000E+00  0.00000000E+00  0.00000000E+00
  0.00000000E+00  0.00000000E+00  0.00000000E+00
  0.00000000E+00  0.00000000E+00  0.00000000E+00
  0.00000000E+00  0.00000000E+00  0.00000000E+00
  0.00000000E+00  0.00000000E+00  0.00000000E+00
  0.00000000E+00  0.00000000E+00  0.00000000E+00
  0.00000000E+00  0.00000000E+00  0.00000000E+00
  0.00000000E+00  0.00000000E+00  0.00000000E+00
  0.00000000E+00  0.00000000E+00  0.00000000E+00
  0.00000000E+00  0.00000000E+00  0.00000000E+00
  0.00000000E+00  0.00000000E+00  0.00000000E+00
  0.00000000E+00  0.00000000E+00  0.00000000E+00
  0.00000000E+00  0.00000000E+00  0.00000000E+00
  0.00000000E+00  0.00000000E+00  0.00000000E+00
  0.00000000E+00  0.00000000E+00  0.00000000E+00
  0.00000000E+00  0.00000000E+00  0.00000000E+00
