CONTCAR\(8)                             
   1.00000000000000     
    14.5429000853999995    0.0000000000000000    0.0000000000000000
     0.0000000000000000   10.6486997603999995    0.0000000000000000
     0.0000000000000000    0.0000000000000000   18.9185009002999998
   Ta   Ni   Te
     8    16    24
Direct
  0.0625000000000000  0.7952400200000014  0.5068899859999974
  0.1875000000000000  0.2047900040000030  0.4931100140000026
  0.3125000000000000  0.7952400200000014  0.5068899859999974
  0.4375000000000000  0.2047900040000030  0.4931100140000026
  0.5625000329999992  0.7952400200000014  0.5068899859999974
  0.6874999670000008  0.2047900040000030  0.4931100140000026
  0.8125000329999992  0.7952400200000014  0.5068899859999974
  0.9374999670000008  0.2047900040000030  0.4931100140000026
  0.0625000000000000  0.4067099940000034  0.5011299820000019
  0.1875000000000000  0.5933200079999992  0.4988699680000011
  0.1875000000000000  0.9636399740000030  0.4606600349999965
  0.0625000000000000  0.0364000029999971  0.5393400150000005
  0.3125000000000000  0.4067099940000034  0.5011299820000019
  0.4375000000000000  0.5933200079999992  0.4988699680000011
  0.4375000000000000  0.9636399740000030  0.4606600349999965
  0.3125000000000000  0.0364000029999971  0.5393400150000005
  0.5625000329999992  0.4067099940000034  0.5011299820000019
  0.6874999670000008  0.5933200079999992  0.4988699680000011
  0.6874999670000008  0.9636399740000030  0.4606600349999965
  0.5625000329999992  0.0364000029999971  0.5393400150000005
  0.8125000329999992  0.4067099940000034  0.5011299820000019
  0.9374999670000008  0.5933200079999992  0.4988699680000011
  0.9374999670000008  0.9636399740000030  0.4606600349999965
  0.8125000329999992  0.0364000029999971  0.5393400150000005
  0.1875000000000000  0.7501700030000009  0.3973099970000007
  0.0625000000000000  0.2498500129999996  0.6026800469999998
  0.1875000000000000  0.4120599990000002  0.4076699789999978
  0.0625000000000000  0.5879700030000024  0.5923299959999966
  0.0625000000000000  0.0841900019999997  0.3950699950000001
  0.1875000000000000  0.9158400110000002  0.6049400109999965
  0.4375000000000000  0.7501700030000009  0.3973099970000007
  0.3125000000000000  0.2498500129999996  0.6026800469999998
  0.4375000000000000  0.4120599990000002  0.4076699789999978
  0.3125000000000000  0.5879700030000024  0.5923299959999966
  0.3125000000000000  0.0841900019999997  0.3950699950000001
  0.4375000000000000  0.9158400110000002  0.6049400109999965
  0.6874999670000008  0.7501700030000009  0.3973099970000007
  0.5625000329999992  0.2498500129999996  0.6026800469999998
  0.6874999670000008  0.4120599990000002  0.4076699789999978
  0.5625000329999992  0.5879700030000024  0.5923299959999966
  0.5625000329999992  0.0841900019999997  0.3950699950000001
  0.6874999670000008  0.9158400110000002  0.6049400109999965
  0.9374999670000008  0.7501700030000009  0.3973099970000007
  0.8125000329999992  0.2498500129999996  0.6026800469999998
  0.9374999670000008  0.4120599990000002  0.4076699789999978
  0.8125000329999992  0.5879700030000024  0.5923299959999966
  0.8125000329999992  0.0841900019999997  0.3950699950000001
  0.9374999670000008  0.9158400110000002  0.6049400109999965
 
  0.00000000E+00  0.00000000E+00  0.00000000E+00
  0.00000000E+00  0.00000000E+00  0.00000000E+00
  0.00000000E+00  0.00000000E+00  0.00000000E+00
  0.00000000E+00  0.00000000E+00  0.00000000E+00
  0.00000000E+00  0.00000000E+00  0.00000000E+00
  0.00000000E+00  0.00000000E+00  0.00000000E+00
  0.00000000E+00  0.00000000E+00  0.00000000E+00
  0.00000000E+00  0.00000000E+00  0.00000000E+00
  0.00000000E+00  0.00000000E+00  0.00000000E+00
  0.00000000E+00  0.00000000E+00  0.00000000E+00
  0.00000000E+00  0.00000000E+00  0.00000000E+00
  0.00000000E+00  0.00000000E+00  0.00000000E+00
  0.00000000E+00  0.00000000E+00  0.00000000E+00
  0.00000000E+00  0.00000000E+00  0.00000000E+00
  0.00000000E+00  0.00000000E+00  0.00000000E+00
  0.00000000E+00  0.00000000E+00  0.00000000E+00
  0.00000000E+00  0.00000000E+00  0.00000000E+00
  0.00000000E+00  0.00000000E+00  0.00000000E+00
  0.00000000E+00  0.00000000E+00  0.00000000E+00
  0.00000000E+00  0.00000000E+00  0.00000000E+00
  0.00000000E+00  0.00000000E+00  0.00000000E+00
  0.00000000E+00  0.00000000E+00  0.00000000E+00
  0.00000000E+00  0.00000000E+00  0.00000000E+00
  0.00000000E+00  0.00000000E+00  0.00000000E+00
  0.00000000E+00  0.00000000E+00  0.00000000E+00
  0.00000000E+00  0.00000000E+00  0.00000000E+00
  0.00000000E+00  0.00000000E+00  0.00000000E+00
  0.00000000E+00  0.00000000E+00  0.00000000E+00
  0.00000000E+00  0.00000000E+00  0.00000000E+00
  0.00000000E+00  0.00000000E+00  0.00000000E+00
  0.00000000E+00  0.00000000E+00  0.00000000E+00
  0.00000000E+00  0.00000000E+00  0.00000000E+00
  0.00000000E+00  0.00000000E+00  0.00000000E+00
  0.00000000E+00  0.00000000E+00  0.00000000E+00
  0.00000000E+00  0.00000000E+00  0.00000000E+00
  0.00000000E+00  0.00000000E+00  0.00000000E+00
  0.00000000E+00  0.00000000E+00  0.00000000E+00
  0.00000000E+00  0.00000000E+00  0.00000000E+00
  0.00000000E+00  0.00000000E+00  0.00000000E+00
  0.00000000E+00  0.00000000E+00  0.00000000E+00
  0.00000000E+00  0.00000000E+00  0.00000000E+00
  0.00000000E+00  0.00000000E+00  0.00000000E+00
  0.00000000E+00  0.00000000E+00  0.00000000E+00
  0.00000000E+00  0.00000000E+00  0.00000000E+00
  0.00000000E+00  0.00000000E+00  0.00000000E+00
  0.00000000E+00  0.00000000E+00  0.00000000E+00
  0.00000000E+00  0.00000000E+00  0.00000000E+00
  0.00000000E+00  0.00000000E+00  0.00000000E+00
