CONTCAR\(9)                             
   1.00000000000000     
    14.3102998734000000    0.0000000000000000    0.0000000000000000
     0.0000000000000000   14.3102998734000000    0.0000000000000000
     0.0000000000000000    0.0000000000000000   17.4472007751000007
   Fe   S    O 
    32    32     1
Direct
  0.1247998271230486  0.1268162631430272  0.5018077195937778
  0.9999727552244480  0.0018832218335589  0.5007940007808145
  0.3750369475036024  0.1273247326606608  0.5025402783940436
  0.2500232663249591  0.0018922672596631  0.5014692094957951
  0.6252470244311326  0.1268194979513169  0.5018889870446657
  0.5000633103931378  0.0019385215846341  0.5015302868450533
  0.8750196883951418  0.1267942533782787  0.5013586120503248
  0.7500916055269755  0.0018373598826429  0.5007914590300615
  0.1247632015895661  0.3767213429061513  0.5018145911991780
  0.9997707129960887  0.2518161524244391  0.5018396355971433
  0.3749990147118893  0.3763144724216829  0.4993933331815512
  0.2497278686139879  0.2518032336625282  0.5024027060255420
  0.6252263861782694  0.3767153122710667  0.5018938660881318
  0.5003011632411116  0.2517660553936949  0.5024871829763029
  0.8750253598358100  0.3770085400775685  0.5021501765009475
  0.7502493158294712  0.2518318617796496  0.5018903116202651
  0.1249906213962291  0.6270468935037670  0.5004289288320933
  0.0003884086920891  0.5020916152803423  0.5016643337196243
  0.3750068850463322  0.6269510152180402  0.4974830353794317
  0.2495904010135348  0.5017121445680317  0.4985451319509409
  0.6250662406917868  0.6270686165994448  0.5004867328140961
  0.5004601148416228  0.5017710275284202  0.4986546578908104
  0.8750416667093930  0.6270341806394697  0.5012246529930948
  0.7496718542611873  0.5020781089356277  0.5017114396062183
  0.1250278501882036  0.8770998019480487  0.5003976167350075
  0.9999990099678087  0.7521302464140760  0.5005560705191527
  0.3750407112353003  0.8764846864337343  0.5004577687609597
  0.2498947774445313  0.7519111194148920  0.4995012281988025
  0.6250474077847841  0.8770874182106780  0.5004578466503560
  0.5001494126714690  0.7519410855053010  0.4996343341651013
  0.8750483819563968  0.8769161981808509  0.5002501045860015
  0.7500888548577294  0.7520838734895605  0.5005759834862289
  0.0000500409097057  0.1272377290805622  0.4311626460175120
  0.1247102691836091  0.0014448846247390  0.5713787997204705
  0.2501960363493509  0.1271504929836595  0.4319567553711963
  0.3750540228700316  0.0010747077321014  0.5715936904755807
  0.4998690426496850  0.1271859876695203  0.4320511610243472
  0.6253307778876263  0.0014314009453571  0.5714244447133368
  0.7499616367099762  0.1272932289749704  0.4311593583268944
  0.8750497361176954  0.0014287080599686  0.5710189612952661
  0.9997113928232011  0.3768815084590784  0.4317000645595712
  0.1243359266033437  0.2516444401406090  0.5723461979978879
  0.2486961626386588  0.3750207203163285  0.4308935830553011
  0.3749610928764113  0.2531935076165439  0.5721678591504045
  0.5013005582853722  0.3750684299546378  0.4309872783108801
  0.6256808143674419  0.2516822950881021  0.5724431892543862
  0.7502643964407767  0.3769244830275582  0.4316860478559263
  0.8750489388899396  0.2515642118184189  0.5721593411273176
  0.9996215449775505  0.6266610175125678  0.4307977045070146
  0.1262919868577015  0.5024560486072076  0.5710344989701568
  0.2486375836313925  0.6273784239403994  0.4292072363870290
  0.3750300805244038  0.5023363470802025  0.5661359090198630
  0.5014569448544322  0.6273824709793843  0.4293245505983521
  0.6237508463597052  0.5024270871824967  0.5710866716944096
  0.7504108967074217  0.6266706600368153  0.4308115337128484
  0.8750551526419699  0.5023640469078572  0.5717653898471937
  0.0000690260959573  0.8771345684101490  0.4301479161734960
  0.1252809006728910  0.7521806066336296  0.5704404467636977
  0.2500348561301067  0.8777316307904144  0.4301602872469346
  0.3749600580960575  0.7504319610166377  0.5695114232896046
  0.5000470753251278  0.8777151617477443  0.4303153538434117
  0.6248159831908922  0.7522011116259577  0.5705162473516978
  0.7499873905849981  0.8771576855250913  0.4300987943507479
  0.8750649017375665  0.7523911842775561  0.5708851215925606
  0.3749538393319440  0.5032620637328975  0.6513097346831742
 
  0.00000000E+00  0.00000000E+00  0.00000000E+00
  0.00000000E+00  0.00000000E+00  0.00000000E+00
  0.00000000E+00  0.00000000E+00  0.00000000E+00
  0.00000000E+00  0.00000000E+00  0.00000000E+00
  0.00000000E+00  0.00000000E+00  0.00000000E+00
  0.00000000E+00  0.00000000E+00  0.00000000E+00
  0.00000000E+00  0.00000000E+00  0.00000000E+00
  0.00000000E+00  0.00000000E+00  0.00000000E+00
  0.00000000E+00  0.00000000E+00  0.00000000E+00
  0.00000000E+00  0.00000000E+00  0.00000000E+00
  0.00000000E+00  0.00000000E+00  0.00000000E+00
  0.00000000E+00  0.00000000E+00  0.00000000E+00
  0.00000000E+00  0.00000000E+00  0.00000000E+00
  0.00000000E+00  0.00000000E+00  0.00000000E+00
  0.00000000E+00  0.00000000E+00  0.00000000E+00
  0.00000000E+00  0.00000000E+00  0.00000000E+00
  0.00000000E+00  0.00000000E+00  0.00000000E+00
  0.00000000E+00  0.00000000E+00  0.00000000E+00
  0.00000000E+00  0.00000000E+00  0.00000000E+00
  0.00000000E+00  0.00000000E+00  0.00000000E+00
  0.00000000E+00  0.00000000E+00  0.00000000E+00
  0.00000000E+00  0.00000000E+00  0.00000000E+00
  0.00000000E+00  0.00000000E+00  0.00000000E+00
  0.00000000E+00  0.00000000E+00  0.00000000E+00
  0.00000000E+00  0.00000000E+00  0.00000000E+00
  0.00000000E+00  0.00000000E+00  0.00000000E+00
  0.00000000E+00  0.00000000E+00  0.00000000E+00
  0.00000000E+00  0.00000000E+00  0.00000000E+00
  0.00000000E+00  0.00000000E+00  0.00000000E+00
  0.00000000E+00  0.00000000E+00  0.00000000E+00
  0.00000000E+00  0.00000000E+00  0.00000000E+00
  0.00000000E+00  0.00000000E+00  0.00000000E+00
  0.00000000E+00  0.00000000E+00  0.00000000E+00
  0.00000000E+00  0.00000000E+00  0.00000000E+00
  0.00000000E+00  0.00000000E+00  0.00000000E+00
  0.00000000E+00  0.00000000E+00  0.00000000E+00
  0.00000000E+00  0.00000000E+00  0.00000000E+00
  0.00000000E+00  0.00000000E+00  0.00000000E+00
  0.00000000E+00  0.00000000E+00  0.00000000E+00
  0.00000000E+00  0.00000000E+00  0.00000000E+00
  0.00000000E+00  0.00000000E+00  0.00000000E+00
  0.00000000E+00  0.00000000E+00  0.00000000E+00
  0.00000000E+00  0.00000000E+00  0.00000000E+00
  0.00000000E+00  0.00000000E+00  0.00000000E+00
  0.00000000E+00  0.00000000E+00  0.00000000E+00
  0.00000000E+00  0.00000000E+00  0.00000000E+00
  0.00000000E+00  0.00000000E+00  0.00000000E+00
  0.00000000E+00  0.00000000E+00  0.00000000E+00
  0.00000000E+00  0.00000000E+00  0.00000000E+00
  0.00000000E+00  0.00000000E+00  0.00000000E+00
  0.00000000E+00  0.00000000E+00  0.00000000E+00
  0.00000000E+00  0.00000000E+00  0.00000000E+00
  0.00000000E+00  0.00000000E+00  0.00000000E+00
  0.00000000E+00  0.00000000E+00  0.00000000E+00
  0.00000000E+00  0.00000000E+00  0.00000000E+00
  0.00000000E+00  0.00000000E+00  0.00000000E+00
  0.00000000E+00  0.00000000E+00  0.00000000E+00
  0.00000000E+00  0.00000000E+00  0.00000000E+00
  0.00000000E+00  0.00000000E+00  0.00000000E+00
  0.00000000E+00  0.00000000E+00  0.00000000E+00
  0.00000000E+00  0.00000000E+00  0.00000000E+00
  0.00000000E+00  0.00000000E+00  0.00000000E+00
  0.00000000E+00  0.00000000E+00  0.00000000E+00
  0.00000000E+00  0.00000000E+00  0.00000000E+00
  0.00000000E+00  0.00000000E+00  0.00000000E+00
