CONTCAR\(8)                             
   1.00000000000000     
    10.2070999146000005    0.0000000000000000    0.0000000000000000
    -1.7011927660999999   18.1179073708000011    0.0000000000000000
     0.0000000000000000    0.0000000000000000   20.2910003661999987
   Ta   Co   Pd   Se   O 
    12     6     3    36     1
Direct
  0.0297773054191458  0.1506215104251196  0.4656864540349964
  0.2998233798194775  0.8523458805566329  0.5333983816833722
  0.0728163757290826  0.4069929897125460  0.4716775577980714
  0.2697113715641070  0.5904980380775681  0.5336103083005433
  0.3629142245495582  0.1503230453352144  0.4659135353914621
  0.6375086481172696  0.8465434458471529  0.5365041612991406
  0.4060786638270993  0.4068090601756479  0.4724123434005272
  0.6019244035764596  0.5891293814066135  0.5307686848442289
  0.6962850401463579  0.1499830830608303  0.4663626887330923
  0.9694616672729768  0.8476132185965785  0.5341741633760432
  0.7401406501295074  0.4065192608147610  0.4712076178804914
  0.9359800263979331  0.5926494038379936  0.5308450535689905
  0.2185606499030604  0.2842311468652571  0.4402114651327926
  0.1106902745567711  0.7189301898189042  0.5650619080774703
  0.5517879810645846  0.2837728088164965  0.4402745314583822
  0.4634126402969529  0.7096106040166817  0.5698275976356468
  0.8850374364459289  0.2843277248175725  0.4400805787262529
  0.7867261456510554  0.7133796192998890  0.5601463197827471
  0.1659669480819327  0.0009757491863768  0.4981813192923659
  0.5020809424398956  0.9981121426058406  0.5010831644219207
  0.8325949874247115  0.9987837374455545  0.4999450708652349
  0.1906365847164241  0.1184085568221181  0.5588194718114454
  0.1419647811362223  0.8818325443167289  0.4400654333985556
  0.1055222580163127  0.6063060148754347  0.6256539798829313
  0.2373928062749104  0.3959810544236173  0.3785049750538926
  0.2437996621811022  0.4450444825447243  0.5640670314782942
  0.0991532620333259  0.5525725933149404  0.4407805327035710
  0.0441682242487406  0.2382655088158080  0.3691880270448006
  0.2438871495394581  0.7842194068832634  0.6435433408081430
  0.1837736206164101  0.0745782357797925  0.3959428920654041
  0.1449676881250776  0.9306551404963820  0.6016524638139802
  0.0508377490453768  0.2795259363405185  0.5243865812587269
  0.2923162678337158  0.7203008213481856  0.4887789682226656
  0.5238123922084906  0.1169665405761967  0.5593472384617315
  0.4771648115229716  0.8794975214705049  0.4423124747537152
  0.4415100200641233  0.5933596563461985  0.6249952644145450
  0.5697364150280128  0.3955630158346216  0.3785335876809154
  0.5801425907065211  0.4444455646385379  0.5633188611880884
  0.4288843808381499  0.5514587896285322  0.4399863786306001
  0.3777650915517920  0.2379892676220181  0.3693750209375679
  0.6385653718674951  0.7607449320166199  0.6343761258187867
  0.5164220031505767  0.0719509976444322  0.3984828873977665
  0.4826460661229161  0.9241314244868187  0.6039339942286825
  0.3844826560964467  0.2790931862617191  0.5245434451735380
  0.6153905671312579  0.7172265772524768  0.4787669050414552
  0.8576927136439688  0.1173354431370431  0.5590675649749056
  0.8076740256120929  0.8793465878463400  0.4418702690640186
  0.7722775165578041  0.6024544416015001  0.6239025544310040
  0.9043399341517574  0.3958568695449234  0.3778128044980900
  0.9116920092809049  0.4468314260431387  0.5630526671393122
  0.7645302846691965  0.5512752817918204  0.4391603966350338
  0.7105560544751796  0.2372796738176317  0.3695288294114101
  0.9485611329199115  0.7624126344161540  0.6336859263843816
  0.8500666229627989  0.0729452750075175  0.3975009814080706
  0.8161345378057051  0.9258427094244680  0.6027487129073518
  0.7180891384112682  0.2790490121079079  0.5244020689480626
  0.9536269324467794  0.7184000657942138  0.4753778693674555
  0.3804667355929334  0.7324095080079330  0.6524209718572742
 
  0.00000000E+00  0.00000000E+00  0.00000000E+00
  0.00000000E+00  0.00000000E+00  0.00000000E+00
  0.00000000E+00  0.00000000E+00  0.00000000E+00
  0.00000000E+00  0.00000000E+00  0.00000000E+00
  0.00000000E+00  0.00000000E+00  0.00000000E+00
  0.00000000E+00  0.00000000E+00  0.00000000E+00
  0.00000000E+00  0.00000000E+00  0.00000000E+00
  0.00000000E+00  0.00000000E+00  0.00000000E+00
  0.00000000E+00  0.00000000E+00  0.00000000E+00
  0.00000000E+00  0.00000000E+00  0.00000000E+00
  0.00000000E+00  0.00000000E+00  0.00000000E+00
  0.00000000E+00  0.00000000E+00  0.00000000E+00
  0.00000000E+00  0.00000000E+00  0.00000000E+00
  0.00000000E+00  0.00000000E+00  0.00000000E+00
  0.00000000E+00  0.00000000E+00  0.00000000E+00
  0.00000000E+00  0.00000000E+00  0.00000000E+00
  0.00000000E+00  0.00000000E+00  0.00000000E+00
  0.00000000E+00  0.00000000E+00  0.00000000E+00
  0.00000000E+00  0.00000000E+00  0.00000000E+00
  0.00000000E+00  0.00000000E+00  0.00000000E+00
  0.00000000E+00  0.00000000E+00  0.00000000E+00
  0.00000000E+00  0.00000000E+00  0.00000000E+00
  0.00000000E+00  0.00000000E+00  0.00000000E+00
  0.00000000E+00  0.00000000E+00  0.00000000E+00
  0.00000000E+00  0.00000000E+00  0.00000000E+00
  0.00000000E+00  0.00000000E+00  0.00000000E+00
  0.00000000E+00  0.00000000E+00  0.00000000E+00
  0.00000000E+00  0.00000000E+00  0.00000000E+00
  0.00000000E+00  0.00000000E+00  0.00000000E+00
  0.00000000E+00  0.00000000E+00  0.00000000E+00
  0.00000000E+00  0.00000000E+00  0.00000000E+00
  0.00000000E+00  0.00000000E+00  0.00000000E+00
  0.00000000E+00  0.00000000E+00  0.00000000E+00
  0.00000000E+00  0.00000000E+00  0.00000000E+00
  0.00000000E+00  0.00000000E+00  0.00000000E+00
  0.00000000E+00  0.00000000E+00  0.00000000E+00
  0.00000000E+00  0.00000000E+00  0.00000000E+00
  0.00000000E+00  0.00000000E+00  0.00000000E+00
  0.00000000E+00  0.00000000E+00  0.00000000E+00
  0.00000000E+00  0.00000000E+00  0.00000000E+00
  0.00000000E+00  0.00000000E+00  0.00000000E+00
  0.00000000E+00  0.00000000E+00  0.00000000E+00
  0.00000000E+00  0.00000000E+00  0.00000000E+00
  0.00000000E+00  0.00000000E+00  0.00000000E+00
  0.00000000E+00  0.00000000E+00  0.00000000E+00
  0.00000000E+00  0.00000000E+00  0.00000000E+00
  0.00000000E+00  0.00000000E+00  0.00000000E+00
  0.00000000E+00  0.00000000E+00  0.00000000E+00
  0.00000000E+00  0.00000000E+00  0.00000000E+00
  0.00000000E+00  0.00000000E+00  0.00000000E+00
  0.00000000E+00  0.00000000E+00  0.00000000E+00
  0.00000000E+00  0.00000000E+00  0.00000000E+00
  0.00000000E+00  0.00000000E+00  0.00000000E+00
  0.00000000E+00  0.00000000E+00  0.00000000E+00
  0.00000000E+00  0.00000000E+00  0.00000000E+00
  0.00000000E+00  0.00000000E+00  0.00000000E+00
  0.00000000E+00  0.00000000E+00  0.00000000E+00
  0.00000000E+00  0.00000000E+00  0.00000000E+00
