 Nb2 Te10 Pd2                           
   1.00000000000000     
     3.7204445545208187    0.0000000000000000    0.0000000000000000
     0.0000000000000000   15.5193514607905723    0.0000000000000000
     0.0000000000000000    0.0000000000000000   19.4729168701800006
   Nb   Te   Pd
     2    10     2
Direct
  0.4999999993546780  0.8420364586975921  0.4966032902944804
  0.5000000006426433  0.3420364619272647  0.5033967036071019
  0.9999999997174172  0.9395536695479834  0.5766454484643120
  0.9999999994797548  0.4395536581419179  0.4233545197893278
  0.4999999978629290  0.0098558557903914  0.4297227187198800
  0.5000000017110722  0.5098558290858293  0.5702772970522716
  0.0000000003980603  0.3473765562511062  0.6152285649363094
  0.9999999999067413  0.8473765510277360  0.3847714564443123
  0.0000000005909300  0.7386687919168224  0.5712097523137913
  0.0000000000068567  0.2386687953597360  0.4287902301112112
  0.5000000006534080  0.6796673709415728  0.4196534339318490
  0.4999999997912354  0.1796674079536871  0.5803465708754061
  0.0000000031222740  0.5925112739003566  0.4935482607071293
  0.9999999967619999  0.0925113194580192  0.5064517527526249
 
  0.00000000E+00  0.00000000E+00  0.00000000E+00
  0.00000000E+00  0.00000000E+00  0.00000000E+00
  0.00000000E+00  0.00000000E+00  0.00000000E+00
  0.00000000E+00  0.00000000E+00  0.00000000E+00
  0.00000000E+00  0.00000000E+00  0.00000000E+00
  0.00000000E+00  0.00000000E+00  0.00000000E+00
  0.00000000E+00  0.00000000E+00  0.00000000E+00
  0.00000000E+00  0.00000000E+00  0.00000000E+00
  0.00000000E+00  0.00000000E+00  0.00000000E+00
  0.00000000E+00  0.00000000E+00  0.00000000E+00
  0.00000000E+00  0.00000000E+00  0.00000000E+00
  0.00000000E+00  0.00000000E+00  0.00000000E+00
  0.00000000E+00  0.00000000E+00  0.00000000E+00
  0.00000000E+00  0.00000000E+00  0.00000000E+00
