CONTCAR\(10)                            
   1.00000000000000     
    14.5429000853999995    0.0000000000000000    0.0000000000000000
     0.0000000000000000   10.6486997603999995    0.0000000000000000
     0.0000000000000000    0.0000000000000000   18.9185009002999998
   Ta   Ni   Te   O 
     8    16    24     1
Direct
  0.0626623777545286  0.7990752168300288  0.5087139710040876
  0.1874777282174710  0.2088295434205548  0.4930674396215594
  0.3115777335100274  0.7968424820419566  0.5073401869263207
  0.4374426286553708  0.2079753050019885  0.4911075896586308
  0.5634887721927970  0.7967795208426572  0.5070239616543382
  0.6874332558163809  0.2086438580694871  0.4926175821130079
  0.8122490348062900  0.7990298341051520  0.5083840312062162
  0.9375672550703456  0.2092675476234449  0.4931184620441859
  0.0626875156649311  0.4112753778374865  0.5011548771461464
  0.1874944490820812  0.5964419657498299  0.5002672220405476
  0.1869422542048821  0.9676435606175553  0.4612406004917365
  0.0627858193822521  0.0407010014826503  0.5398520980284330
  0.3131240022355427  0.4098642399511633  0.5014812850379998
  0.4373911310822896  0.5978910885773593  0.5006831284561881
  0.4373891395520981  0.9671791805795277  0.4569658254300081
  0.3142798190338758  0.0379280009390823  0.5383919156391830
  0.5618534807367318  0.4097843540349903  0.5012401366630317
  0.6875155721231702  0.5963849123540247  0.4996584007846651
  0.6879077391847307  0.9675205042055987  0.4606824404430951
  0.5606881407643849  0.0379058999077443  0.5381558235340591
  0.8122788217537622  0.4110212660340842  0.5009903418190124
  0.9374948001054424  0.5967035736533793  0.5004114554174666
  0.9375400610090785  0.9679402579166740  0.4616597888597908
  0.8120845670617491  0.0406796264375220  0.5393263529179450
  0.1864596401226553  0.7534599583580115  0.3985491730541488
  0.0626996325200637  0.2541462508044027  0.6026122032203597
  0.1879706597430199  0.4163610666111637  0.4080056351090016
  0.0625535257354355  0.5913831893517325  0.5937740957811987
  0.0621546577482475  0.0878995903972626  0.3953218293882529
  0.1882266478427901  0.9212972630975775  0.6056508145296124
  0.4373957505644021  0.7527261651786638  0.3977979415855603
  0.3138062569438735  0.2501848024036284  0.6021191512896547
  0.4373327341394450  0.4168116770007907  0.4075708597860951
  0.3120504684102714  0.5901644629253063  0.5938067295623962
  0.3108817569771578  0.0873994293436102  0.3938896022912556
  0.4376396861830647  0.9186932468216906  0.6026411056260149
  0.6885145720246456  0.7534230227142839  0.3980698517639444
  0.5615010954925742  0.2500689245499597  0.6018317952181791
  0.6870253414830328  0.4161305730960841  0.4076851284159878
  0.5631102784954156  0.5899567041676647  0.5934787570226945
  0.5638857683449299  0.0874416166209176  0.3936814700592983
  0.6867526404553528  0.9213790710536429  0.6052422534659330
  0.9376021061841228  0.7541203293516444  0.3990568883914266
  0.8120272869369838  0.2538638581269973  0.6023806974367426
  0.9376141334500092  0.4167260714256280  0.4078762588722463
  0.8121900778448480  0.5911965471463055  0.5934482322955336
  0.8131078817754793  0.0876949276109634  0.3950172542152341
  0.9372751170604805  0.9211263762673408  0.6058270340354914
  0.4377361895214876  0.9613668883608185  0.6978304526460475
 
  0.00000000E+00  0.00000000E+00  0.00000000E+00
  0.00000000E+00  0.00000000E+00  0.00000000E+00
  0.00000000E+00  0.00000000E+00  0.00000000E+00
  0.00000000E+00  0.00000000E+00  0.00000000E+00
  0.00000000E+00  0.00000000E+00  0.00000000E+00
  0.00000000E+00  0.00000000E+00  0.00000000E+00
  0.00000000E+00  0.00000000E+00  0.00000000E+00
  0.00000000E+00  0.00000000E+00  0.00000000E+00
  0.00000000E+00  0.00000000E+00  0.00000000E+00
  0.00000000E+00  0.00000000E+00  0.00000000E+00
  0.00000000E+00  0.00000000E+00  0.00000000E+00
  0.00000000E+00  0.00000000E+00  0.00000000E+00
  0.00000000E+00  0.00000000E+00  0.00000000E+00
  0.00000000E+00  0.00000000E+00  0.00000000E+00
  0.00000000E+00  0.00000000E+00  0.00000000E+00
  0.00000000E+00  0.00000000E+00  0.00000000E+00
  0.00000000E+00  0.00000000E+00  0.00000000E+00
  0.00000000E+00  0.00000000E+00  0.00000000E+00
  0.00000000E+00  0.00000000E+00  0.00000000E+00
  0.00000000E+00  0.00000000E+00  0.00000000E+00
  0.00000000E+00  0.00000000E+00  0.00000000E+00
  0.00000000E+00  0.00000000E+00  0.00000000E+00
  0.00000000E+00  0.00000000E+00  0.00000000E+00
  0.00000000E+00  0.00000000E+00  0.00000000E+00
  0.00000000E+00  0.00000000E+00  0.00000000E+00
  0.00000000E+00  0.00000000E+00  0.00000000E+00
  0.00000000E+00  0.00000000E+00  0.00000000E+00
  0.00000000E+00  0.00000000E+00  0.00000000E+00
  0.00000000E+00  0.00000000E+00  0.00000000E+00
  0.00000000E+00  0.00000000E+00  0.00000000E+00
  0.00000000E+00  0.00000000E+00  0.00000000E+00
  0.00000000E+00  0.00000000E+00  0.00000000E+00
  0.00000000E+00  0.00000000E+00  0.00000000E+00
  0.00000000E+00  0.00000000E+00  0.00000000E+00
  0.00000000E+00  0.00000000E+00  0.00000000E+00
  0.00000000E+00  0.00000000E+00  0.00000000E+00
  0.00000000E+00  0.00000000E+00  0.00000000E+00
  0.00000000E+00  0.00000000E+00  0.00000000E+00
  0.00000000E+00  0.00000000E+00  0.00000000E+00
  0.00000000E+00  0.00000000E+00  0.00000000E+00
  0.00000000E+00  0.00000000E+00  0.00000000E+00
  0.00000000E+00  0.00000000E+00  0.00000000E+00
  0.00000000E+00  0.00000000E+00  0.00000000E+00
  0.00000000E+00  0.00000000E+00  0.00000000E+00
  0.00000000E+00  0.00000000E+00  0.00000000E+00
  0.00000000E+00  0.00000000E+00  0.00000000E+00
  0.00000000E+00  0.00000000E+00  0.00000000E+00
  0.00000000E+00  0.00000000E+00  0.00000000E+00
  0.00000000E+00  0.00000000E+00  0.00000000E+00
