CONTCAR\(8)                             
   1.00000000000000     
    12.6962003707999997    0.0000000000000000    0.0000000000000000
     6.3480846718999997   11.0165970520999998    0.0000000000000000
     0.0000000000000000    0.0000000000000000   18.4927997588999986
   V    Ag   P    Se
     4     4     8    24
Direct
  0.1642540670035402  0.1714818829929143  0.5000000000000000
  0.6642540670035402  0.1714818829929143  0.5000000000000000
  0.1642540480035422  0.6714819039929125  0.5000000000000000
  0.6642540860035453  0.6714819039929125  0.5000000000000000
  0.3326172595734960  0.3347554048530057  0.5000000000000000
  0.8326172975734920  0.3347554048530057  0.5000000000000000
  0.3326172725734935  0.8347554368530083  0.5000000000000000
  0.8326173105734966  0.8347554368530083  0.5000000000000000
  0.4986052932751903  0.0034399525925437  0.5601513865052112
  0.4979546871322640  0.0034399525925437  0.4398486134947888
  0.9986053312751864  0.0034399525925437  0.5601513865052112
  0.9979547251322671  0.0034399525925437  0.4398486134947888
  0.4986053272751860  0.5034399425925429  0.5601513865052112
  0.4979547211322668  0.5034399425925429  0.4398486134947888
  0.9986053652751892  0.5034399425925429  0.5601513865052112
  0.9979547591322628  0.5034399425925429  0.4398486134947888
  0.1554742772820745  0.3252774876703270  0.4065881458496037
  0.0192482040475994  0.3252774876703270  0.5934119061503935
  0.3197547588242458  0.1610482734068341  0.5929644512819507
  0.0192069107689292  0.1610482734068341  0.4070355487180493
  0.3196071548830020  0.0238156059073376  0.4072608002541998
  0.1565772222096626  0.0238156059073376  0.5927291947458002
  0.6554742022820719  0.3252774876703270  0.4065881458496037
  0.5192481660476034  0.3252774876703270  0.5934119061503935
  0.8197547958242453  0.1610482734068341  0.5929644512819507
  0.5192069007689284  0.1610482734068341  0.4070355487180493
  0.8196071548830020  0.0238156059073376  0.4072608002541998
  0.6565772602096587  0.0238156059073376  0.5927291947458002
  0.1554742742820707  0.8252774756703261  0.4065881458496037
  0.0192482010476027  0.8252774756703261  0.5934119061503935
  0.3197547288242504  0.6610482404068279  0.5929644512819507
  0.0192069087689291  0.6610482404068279  0.4070355487180493
  0.3196071638829991  0.5238155699073417  0.4072608002541998
  0.1565772312096598  0.5238155699073417  0.5927291947458002
  0.6554742372820712  0.8252774756703261  0.4065881458496037
  0.5192482010476027  0.8252774756703261  0.5934119061503935
  0.8197547668242464  0.6610482404068279  0.5929644512819507
  0.5192068717689295  0.6610482404068279  0.4070355487180493
  0.8196071268829996  0.5238155699073417  0.4072608002541998
  0.6565772312096598  0.5238155699073417  0.5927291947458002
 
  0.00000000E+00  0.00000000E+00  0.00000000E+00
  0.00000000E+00  0.00000000E+00  0.00000000E+00
  0.00000000E+00  0.00000000E+00  0.00000000E+00
  0.00000000E+00  0.00000000E+00  0.00000000E+00
  0.00000000E+00  0.00000000E+00  0.00000000E+00
  0.00000000E+00  0.00000000E+00  0.00000000E+00
  0.00000000E+00  0.00000000E+00  0.00000000E+00
  0.00000000E+00  0.00000000E+00  0.00000000E+00
  0.00000000E+00  0.00000000E+00  0.00000000E+00
  0.00000000E+00  0.00000000E+00  0.00000000E+00
  0.00000000E+00  0.00000000E+00  0.00000000E+00
  0.00000000E+00  0.00000000E+00  0.00000000E+00
  0.00000000E+00  0.00000000E+00  0.00000000E+00
  0.00000000E+00  0.00000000E+00  0.00000000E+00
  0.00000000E+00  0.00000000E+00  0.00000000E+00
  0.00000000E+00  0.00000000E+00  0.00000000E+00
  0.00000000E+00  0.00000000E+00  0.00000000E+00
  0.00000000E+00  0.00000000E+00  0.00000000E+00
  0.00000000E+00  0.00000000E+00  0.00000000E+00
  0.00000000E+00  0.00000000E+00  0.00000000E+00
  0.00000000E+00  0.00000000E+00  0.00000000E+00
  0.00000000E+00  0.00000000E+00  0.00000000E+00
  0.00000000E+00  0.00000000E+00  0.00000000E+00
  0.00000000E+00  0.00000000E+00  0.00000000E+00
  0.00000000E+00  0.00000000E+00  0.00000000E+00
  0.00000000E+00  0.00000000E+00  0.00000000E+00
  0.00000000E+00  0.00000000E+00  0.00000000E+00
  0.00000000E+00  0.00000000E+00  0.00000000E+00
  0.00000000E+00  0.00000000E+00  0.00000000E+00
  0.00000000E+00  0.00000000E+00  0.00000000E+00
  0.00000000E+00  0.00000000E+00  0.00000000E+00
  0.00000000E+00  0.00000000E+00  0.00000000E+00
  0.00000000E+00  0.00000000E+00  0.00000000E+00
  0.00000000E+00  0.00000000E+00  0.00000000E+00
  0.00000000E+00  0.00000000E+00  0.00000000E+00
  0.00000000E+00  0.00000000E+00  0.00000000E+00
  0.00000000E+00  0.00000000E+00  0.00000000E+00
  0.00000000E+00  0.00000000E+00  0.00000000E+00
  0.00000000E+00  0.00000000E+00  0.00000000E+00
  0.00000000E+00  0.00000000E+00  0.00000000E+00
