CONTCAR\(2)                             
   1.00000000000000     
    13.3212995528999993    0.0000000000000000    0.0000000000000000
    -6.6606497764999997   11.5365838241999992    0.0000000000000000
     0.0000000000000000    0.0000000000000000   18.1305007935000013
   Ta   S    O    H 
    16    32     1     1
Direct
  0.1715476378970706  0.0838401918309231  0.5035283072403871
  0.4140983956902744  0.0839451022441366  0.5032745036465016
  0.6700087204790250  0.0852239012391962  0.5041767767082348
  0.9172468459081102  0.0851873688111553  0.5042764522842660
  0.1673380635865556  0.3340053134254077  0.5030873444321173
  0.4103986209857808  0.3189801813057329  0.5013767478540387
  0.6683547227823396  0.3341437909208551  0.5032934076039552
  0.9172687166025781  0.3326322640725934  0.5042128086782114
  0.1716042446827828  0.5882920385350729  0.5036830289820742
  0.4103013260062838  0.5919740477084900  0.5016448166531191
  0.6833362458780883  0.5920005509559374  0.5025322683588485
  0.9182613323361579  0.5883064245248235  0.5037753881275790
  0.1680871620994253  0.8343494656128314  0.5036673444733353
  0.4141163798965195  0.8306357687048376  0.5035208827527242
  0.6683298666475963  0.8347082645030568  0.5035610883778361
  0.9183172085612483  0.8306144518047702  0.5037937996530886
  0.0019294812685757  0.0007505613287933  0.5887447696198365
  0.0010640049056221  0.0007676966457737  0.4191039049556693
  0.2505979022794662  0.9994057611339500  0.5910253948938546
  0.2501668939912278  0.9990352984199617  0.4159464475085954
  0.5008393230612143  0.0007939756655659  0.5884223147847862
  0.5016416675999054  0.0009495715374470  0.4189282745059373
  0.7509342662515905  0.0001060854663990  0.5907994365679556
  0.7515697547537883  0.0012490308063988  0.4173762392139224
  0.0024935002370796  0.2515455864912326  0.5906557936995469
  0.0008675536701688  0.2507045821209530  0.4172244966897622
  0.2502985256766763  0.2510055421149673  0.5904584325654980
  0.2475254490469823  0.2492935326129526  0.4157174109360469
  0.5022623544104690  0.2504404153997228  0.5900918529618622
  0.5035970897888902  0.2494591627284706  0.4154780390325641
  0.7508643695441251  0.2514386448088572  0.5906400190354333
  0.7515846236197135  0.2507409540383989  0.4172706146515424
  0.0018021028715793  0.5017429807307039  0.5887289442778822
  0.0011926579542916  0.5009949422613218  0.4191434890130807
  0.2501320696561606  0.4997285599616959  0.5904728053290995
  0.2476761091252015  0.4989875081315844  0.4157598497594677
  0.5015374646152466  0.5006638407823942  0.5757124873632549
  0.5016345331691383  0.5011898364929550  0.4273196404559840
  0.7516875194673247  0.4997059150284144  0.5906597455038778
  0.7527134259546031  0.4992140849503528  0.4159625327231424
  0.0031048396298985  0.7518061485391456  0.5913380932154695
  0.0029378074935167  0.7517652658433747  0.4162402582267006
  0.2504927630764797  0.7517516228972525  0.5911646156706425
  0.2503060184887218  0.7517560007099249  0.4161332639950572
  0.5022070489113517  0.7521285975876779  0.5903822514480765
  0.5035856290783443  0.7546231992927090  0.4157507708333270
  0.7517491707023893  0.7523922348779095  0.5908116182110632
  0.7526998485995406  0.7541635669997788  0.4160625813783696
  0.5072979772101291  0.5030407959663421  0.6665227575161410
  0.4280108708507626  0.4531493844268013  0.6849854796302921
 
  0.00000000E+00  0.00000000E+00  0.00000000E+00
  0.00000000E+00  0.00000000E+00  0.00000000E+00
  0.00000000E+00  0.00000000E+00  0.00000000E+00
  0.00000000E+00  0.00000000E+00  0.00000000E+00
  0.00000000E+00  0.00000000E+00  0.00000000E+00
  0.00000000E+00  0.00000000E+00  0.00000000E+00
  0.00000000E+00  0.00000000E+00  0.00000000E+00
  0.00000000E+00  0.00000000E+00  0.00000000E+00
  0.00000000E+00  0.00000000E+00  0.00000000E+00
  0.00000000E+00  0.00000000E+00  0.00000000E+00
  0.00000000E+00  0.00000000E+00  0.00000000E+00
  0.00000000E+00  0.00000000E+00  0.00000000E+00
  0.00000000E+00  0.00000000E+00  0.00000000E+00
  0.00000000E+00  0.00000000E+00  0.00000000E+00
  0.00000000E+00  0.00000000E+00  0.00000000E+00
  0.00000000E+00  0.00000000E+00  0.00000000E+00
  0.00000000E+00  0.00000000E+00  0.00000000E+00
  0.00000000E+00  0.00000000E+00  0.00000000E+00
  0.00000000E+00  0.00000000E+00  0.00000000E+00
  0.00000000E+00  0.00000000E+00  0.00000000E+00
  0.00000000E+00  0.00000000E+00  0.00000000E+00
  0.00000000E+00  0.00000000E+00  0.00000000E+00
  0.00000000E+00  0.00000000E+00  0.00000000E+00
  0.00000000E+00  0.00000000E+00  0.00000000E+00
  0.00000000E+00  0.00000000E+00  0.00000000E+00
  0.00000000E+00  0.00000000E+00  0.00000000E+00
  0.00000000E+00  0.00000000E+00  0.00000000E+00
  0.00000000E+00  0.00000000E+00  0.00000000E+00
  0.00000000E+00  0.00000000E+00  0.00000000E+00
  0.00000000E+00  0.00000000E+00  0.00000000E+00
  0.00000000E+00  0.00000000E+00  0.00000000E+00
  0.00000000E+00  0.00000000E+00  0.00000000E+00
  0.00000000E+00  0.00000000E+00  0.00000000E+00
  0.00000000E+00  0.00000000E+00  0.00000000E+00
  0.00000000E+00  0.00000000E+00  0.00000000E+00
  0.00000000E+00  0.00000000E+00  0.00000000E+00
  0.00000000E+00  0.00000000E+00  0.00000000E+00
  0.00000000E+00  0.00000000E+00  0.00000000E+00
  0.00000000E+00  0.00000000E+00  0.00000000E+00
  0.00000000E+00  0.00000000E+00  0.00000000E+00
  0.00000000E+00  0.00000000E+00  0.00000000E+00
  0.00000000E+00  0.00000000E+00  0.00000000E+00
  0.00000000E+00  0.00000000E+00  0.00000000E+00
  0.00000000E+00  0.00000000E+00  0.00000000E+00
  0.00000000E+00  0.00000000E+00  0.00000000E+00
  0.00000000E+00  0.00000000E+00  0.00000000E+00
  0.00000000E+00  0.00000000E+00  0.00000000E+00
  0.00000000E+00  0.00000000E+00  0.00000000E+00
  0.00000000E+00  0.00000000E+00  0.00000000E+00
  0.00000000E+00  0.00000000E+00  0.00000000E+00
