CONTCAR\(11)                            
   1.00000000000000     
    13.5033998488999991    0.0000000000000000    0.0000000000000000
     0.0000000000000000   19.6100006104000002    0.0000000000000000
     0.0000000000000000    0.0000000000000000   18.7679004668999987
   Nb   Se
    32    48
Direct
  0.0625000000000000  0.4365471606945286  0.4998643510971750
  0.1875000040000003  0.0634528693054667  0.5001356489028250
  0.0625000000000000  0.2806810693563839  0.4490262684378962
  0.1875000040000003  0.2193189556436147  0.5509837425621044
  0.3124999959999997  0.4365471606945286  0.4998643510971750
  0.4374999870000025  0.0634528693054667  0.5001356489028250
  0.3124999959999997  0.2806810693563839  0.4490262684378962
  0.4374999870000025  0.2193189556436147  0.5509837425621044
  0.5625000129999975  0.4365471606945286  0.4998643510971750
  0.6875000040000003  0.0634528693054667  0.5001356489028250
  0.5625000129999975  0.2806810693563839  0.4490262684378962
  0.6875000040000003  0.2193189556436147  0.5509837425621044
  0.8125000309999990  0.4365471606945286  0.4998643510971750
  0.9374999870000025  0.0634528693054667  0.5001356489028250
  0.8125000309999990  0.2806810693563839  0.4490262684378962
  0.9374999870000025  0.2193189556436147  0.5509837425621044
  0.0625000000000000  0.9365471116945282  0.4998643510971750
  0.1875000040000003  0.5634528393054713  0.5001356489028250
  0.0625000000000000  0.7806810443563853  0.4490262684378962
  0.1875000040000003  0.7193189556436147  0.5509837425621044
  0.3124999959999997  0.9365471116945282  0.4998643510971750
  0.4374999870000025  0.5634528393054713  0.5001356489028250
  0.3124999959999997  0.7806810443563853  0.4490262684378962
  0.4374999870000025  0.7193189556436147  0.5509837425621044
  0.5625000129999975  0.9365471116945282  0.4998643510971750
  0.6875000040000003  0.5634528393054713  0.5001356489028250
  0.5625000129999975  0.7806810443563853  0.4490262684378962
  0.6875000040000003  0.7193189556436147  0.5509837425621044
  0.8125000309999990  0.9365471116945282  0.4998643510971750
  0.9374999870000025  0.5634528393054713  0.5001356489028250
  0.8125000309999990  0.7806810443563853  0.4490262684378962
  0.9374999870000025  0.7193189556436147  0.5509837425621044
  0.0625000000000000  0.0287183608439988  0.4024304049355879
  0.1875000040000003  0.4712816301560040  0.5975695690644099
  0.0625000000000000  0.1246560652567103  0.5939390687632194
  0.1875000040000003  0.3753439467432836  0.4060609052367783
  0.1875000040000003  0.1841324273282844  0.4182167597149544
  0.0625000000000000  0.3158675726717156  0.5817831902850485
  0.3124999959999997  0.0287183608439988  0.4024304049355879
  0.4374999870000025  0.4712816301560040  0.5975695690644099
  0.3124999959999997  0.1246560652567103  0.5939390687632194
  0.4374999870000025  0.3753439467432836  0.4060609052367783
  0.4374999870000025  0.1841324273282844  0.4182167597149544
  0.3124999959999997  0.3158675726717156  0.5817831902850485
  0.5625000129999975  0.0287183608439988  0.4024304049355879
  0.6875000040000003  0.4712816301560040  0.5975695690644099
  0.5625000129999975  0.1246560652567103  0.5939390687632194
  0.6875000040000003  0.3753439467432836  0.4060609052367783
  0.6875000040000003  0.1841324273282844  0.4182167597149544
  0.5625000129999975  0.3158675726717156  0.5817831902850485
  0.8125000309999990  0.0287183608439988  0.4024304049355879
  0.9374999870000025  0.4712816301560040  0.5975695690644099
  0.8125000309999990  0.1246560652567103  0.5939390687632194
  0.9374999870000025  0.3753439467432836  0.4060609052367783
  0.9374999870000025  0.1841324273282844  0.4182167597149544
  0.8125000309999990  0.3158675726717156  0.5817831902850485
  0.0625000000000000  0.5287183218439991  0.4024304049355879
  0.1875000040000003  0.9712816781560009  0.5975695690644099
  0.0625000000000000  0.6246561022567169  0.5939390687632194
  0.1875000040000003  0.8753439467432836  0.4060609052367783
  0.1875000040000003  0.6841323793282804  0.4182167597149544
  0.0625000000000000  0.8158676206717196  0.5817831902850485
  0.3124999959999997  0.5287183218439991  0.4024304049355879
  0.4374999870000025  0.9712816781560009  0.5975695690644099
  0.3124999959999997  0.6246561022567169  0.5939390687632194
  0.4374999870000025  0.8753439467432836  0.4060609052367783
  0.4374999870000025  0.6841323793282804  0.4182167597149544
  0.3124999959999997  0.8158676206717196  0.5817831902850485
  0.5625000129999975  0.5287183218439991  0.4024304049355879
  0.6875000040000003  0.9712816781560009  0.5975695690644099
  0.5625000129999975  0.6246561022567169  0.5939390687632194
  0.6875000040000003  0.8753439467432836  0.4060609052367783
  0.6875000040000003  0.6841323793282804  0.4182167597149544
  0.5625000129999975  0.8158676206717196  0.5817831902850485
  0.8125000309999990  0.5287183218439991  0.4024304049355879
  0.9374999870000025  0.9712816781560009  0.5975695690644099
  0.8125000309999990  0.6246561022567169  0.5939390687632194
  0.9374999870000025  0.8753439467432836  0.4060609052367783
  0.9374999870000025  0.6841323793282804  0.4182167597149544
  0.8125000309999990  0.8158676206717196  0.5817831902850485
 
  0.00000000E+00  0.00000000E+00  0.00000000E+00
  0.00000000E+00  0.00000000E+00  0.00000000E+00
  0.00000000E+00  0.00000000E+00  0.00000000E+00
  0.00000000E+00  0.00000000E+00  0.00000000E+00
  0.00000000E+00  0.00000000E+00  0.00000000E+00
  0.00000000E+00  0.00000000E+00  0.00000000E+00
  0.00000000E+00  0.00000000E+00  0.00000000E+00
  0.00000000E+00  0.00000000E+00  0.00000000E+00
  0.00000000E+00  0.00000000E+00  0.00000000E+00
  0.00000000E+00  0.00000000E+00  0.00000000E+00
  0.00000000E+00  0.00000000E+00  0.00000000E+00
  0.00000000E+00  0.00000000E+00  0.00000000E+00
  0.00000000E+00  0.00000000E+00  0.00000000E+00
  0.00000000E+00  0.00000000E+00  0.00000000E+00
  0.00000000E+00  0.00000000E+00  0.00000000E+00
  0.00000000E+00  0.00000000E+00  0.00000000E+00
  0.00000000E+00  0.00000000E+00  0.00000000E+00
  0.00000000E+00  0.00000000E+00  0.00000000E+00
  0.00000000E+00  0.00000000E+00  0.00000000E+00
  0.00000000E+00  0.00000000E+00  0.00000000E+00
  0.00000000E+00  0.00000000E+00  0.00000000E+00
  0.00000000E+00  0.00000000E+00  0.00000000E+00
  0.00000000E+00  0.00000000E+00  0.00000000E+00
  0.00000000E+00  0.00000000E+00  0.00000000E+00
  0.00000000E+00  0.00000000E+00  0.00000000E+00
  0.00000000E+00  0.00000000E+00  0.00000000E+00
  0.00000000E+00  0.00000000E+00  0.00000000E+00
  0.00000000E+00  0.00000000E+00  0.00000000E+00
  0.00000000E+00  0.00000000E+00  0.00000000E+00
  0.00000000E+00  0.00000000E+00  0.00000000E+00
  0.00000000E+00  0.00000000E+00  0.00000000E+00
  0.00000000E+00  0.00000000E+00  0.00000000E+00
  0.00000000E+00  0.00000000E+00  0.00000000E+00
  0.00000000E+00  0.00000000E+00  0.00000000E+00
  0.00000000E+00  0.00000000E+00  0.00000000E+00
  0.00000000E+00  0.00000000E+00  0.00000000E+00
  0.00000000E+00  0.00000000E+00  0.00000000E+00
  0.00000000E+00  0.00000000E+00  0.00000000E+00
  0.00000000E+00  0.00000000E+00  0.00000000E+00
  0.00000000E+00  0.00000000E+00  0.00000000E+00
  0.00000000E+00  0.00000000E+00  0.00000000E+00
  0.00000000E+00  0.00000000E+00  0.00000000E+00
  0.00000000E+00  0.00000000E+00  0.00000000E+00
  0.00000000E+00  0.00000000E+00  0.00000000E+00
  0.00000000E+00  0.00000000E+00  0.00000000E+00
  0.00000000E+00  0.00000000E+00  0.00000000E+00
  0.00000000E+00  0.00000000E+00  0.00000000E+00
  0.00000000E+00  0.00000000E+00  0.00000000E+00
  0.00000000E+00  0.00000000E+00  0.00000000E+00
  0.00000000E+00  0.00000000E+00  0.00000000E+00
  0.00000000E+00  0.00000000E+00  0.00000000E+00
  0.00000000E+00  0.00000000E+00  0.00000000E+00
  0.00000000E+00  0.00000000E+00  0.00000000E+00
  0.00000000E+00  0.00000000E+00  0.00000000E+00
  0.00000000E+00  0.00000000E+00  0.00000000E+00
  0.00000000E+00  0.00000000E+00  0.00000000E+00
  0.00000000E+00  0.00000000E+00  0.00000000E+00
  0.00000000E+00  0.00000000E+00  0.00000000E+00
  0.00000000E+00  0.00000000E+00  0.00000000E+00
  0.00000000E+00  0.00000000E+00  0.00000000E+00
  0.00000000E+00  0.00000000E+00  0.00000000E+00
  0.00000000E+00  0.00000000E+00  0.00000000E+00
  0.00000000E+00  0.00000000E+00  0.00000000E+00
  0.00000000E+00  0.00000000E+00  0.00000000E+00
  0.00000000E+00  0.00000000E+00  0.00000000E+00
  0.00000000E+00  0.00000000E+00  0.00000000E+00
  0.00000000E+00  0.00000000E+00  0.00000000E+00
  0.00000000E+00  0.00000000E+00  0.00000000E+00
  0.00000000E+00  0.00000000E+00  0.00000000E+00
  0.00000000E+00  0.00000000E+00  0.00000000E+00
  0.00000000E+00  0.00000000E+00  0.00000000E+00
  0.00000000E+00  0.00000000E+00  0.00000000E+00
  0.00000000E+00  0.00000000E+00  0.00000000E+00
  0.00000000E+00  0.00000000E+00  0.00000000E+00
  0.00000000E+00  0.00000000E+00  0.00000000E+00
  0.00000000E+00  0.00000000E+00  0.00000000E+00
  0.00000000E+00  0.00000000E+00  0.00000000E+00
  0.00000000E+00  0.00000000E+00  0.00000000E+00
  0.00000000E+00  0.00000000E+00  0.00000000E+00
  0.00000000E+00  0.00000000E+00  0.00000000E+00
