CONTCAR\(6)                             
   1.00000000000000     
    11.2666997910000006    0.0000000000000000    0.0000000000000000
     0.0000000000000000   10.8214998245000000    0.0000000000000000
     0.0000000000000000    0.0000000000000000   21.2649002074999984
   Zr   Se   O    H 
    12    36     2     1
Selective dynamics
Direct
  0.0849987289496426  0.3595373707773319  0.4276497561706378   F   F   F
  0.2515928749162057  0.1091665330659026  0.5683843993455895   F   F   F
  0.4183312959418970  0.3592214125812632  0.4275268002652837   F   F   F
  0.5850974110813993  0.1093039461547676  0.5683561976813607   F   F   F
  0.7518636000588614  0.3592986116553121  0.4277177384990765   F   F   F
  0.9181946293780143  0.1096249354415448  0.5684825211358060   F   F   F
  0.0848464645803730  0.8598994373709274  0.4274912300454901   F   F   F
  0.2507398676866970  0.6092168214476530  0.5676750548657949   F   F   F
  0.4182893911289725  0.8593581202861245  0.4276766523213027   F   F   F
  0.5859210313798400  0.6092990561166545  0.5678597931222740   F   F   F
  0.7518026269293330  0.8595335940774618  0.4276241941678691   F   F   F
  0.9184533678927025  0.6097095047785928  0.5682191837701680   F   F   F
  0.2513777262352903  0.2499087353650609  0.3503306476776800   F   F   F
  0.0850242239390937  0.2185963790748175  0.6459799439621818   F   F   F
  0.2518396404414744  0.4702520223433098  0.3510087895866505   F   F   F
  0.0848629116971011  0.9983502186129058  0.6446393476013981   F   F   F
  0.2516121503532887  0.3593506649720979  0.5218124604521179   F   F   F
  0.0847397681254236  0.1096515786207419  0.4741869121627857   F   F   F
  0.5850274801809192  0.2499309337692850  0.3503154393733965   F   F   F
  0.4179693776148099  0.2239899689436413  0.6420813733543227   F   F   F
  0.5852674433973135  0.4702774055707906  0.3513082298887795   F   F   F
  0.4188807767585914  0.0037865597848707  0.6484315840001287   F   F   F
  0.5850963546356667  0.3593360097447800  0.5217305844293563   F   F   F
  0.4183502329215543  0.1089316928220185  0.4741240950759220   F   F   F
  0.9184028214599067  0.2489985379588902  0.3508650689262609   F   F   F
  0.7508134112411824  0.2192615583449466  0.6455570318606547   F   F   F
  0.9184798519353308  0.4692611826161084  0.3506466522837073   F   F   F
  0.7520733796137691  0.9989986726626299  0.6450996661133459   F   F   F
  0.9185280583911748  0.3597012656766694  0.5219499571989559   F   F   F
  0.7517131221903597  0.1095061442927872  0.4742041001221295   F   F   F
  0.2514412801935748  0.7500950172124590  0.3503057954932771   F   F   F
  0.0853888042809032  0.7187092244890252  0.6456021553788602   F   F   F
  0.2520240535807474  0.9704177144183035  0.3510882802806563   F   F   F
  0.0851416697410627  0.4984815062361108  0.6444972467068126   F   F   F
  0.2513865176078554  0.8594504738219015  0.5217662561703591   F   F   F
  0.0846446069345177  0.6101420483659510  0.4737250546352030   F   F   F
  0.5849104082119823  0.7500372639239075  0.3503453108768397   F   F   F
  0.4176231983658099  0.7242154474172935  0.6403275928965755   F   F   F
  0.5850359690554043  0.9704000911178099  0.3513636622036600   F   F   F
  0.4188473924034639  0.5034588962790068  0.6489624412147492   F   F   F
  0.5852869508164034  0.8593019809722477  0.5217668106320730   F   F   F
  0.4184864202817309  0.6086252450878433  0.4739414854269697   F   F   F
  0.9182662185316914  0.7493610261213632  0.3507023531091491   F   F   F
  0.7509229283669541  0.7189052683371315  0.6451721419712229   F   F   F
  0.9182963163221203  0.9697522004124366  0.3506151375717224   F   F   F
  0.7525464436831939  0.4988672192347181  0.6445502469708089   F   F   F
  0.9184357001674428  0.8597339006003040  0.5219379069449843   F   F   F
  0.7521380002753091  0.6096212817494973  0.4738000774377582   F   F   F
  0.5906571579004591  0.6796354344089579  0.7732126933738854   T   T   T
  0.5718164772867738  0.5583972237316246  0.7828967103747360   T   T   T
  0.5186628949363623  0.5316823521321582  0.7466498571244833   T   T   T
 
  0.00000000E+00  0.00000000E+00  0.00000000E+00
  0.00000000E+00  0.00000000E+00  0.00000000E+00
  0.00000000E+00  0.00000000E+00  0.00000000E+00
  0.00000000E+00  0.00000000E+00  0.00000000E+00
  0.00000000E+00  0.00000000E+00  0.00000000E+00
  0.00000000E+00  0.00000000E+00  0.00000000E+00
  0.00000000E+00  0.00000000E+00  0.00000000E+00
  0.00000000E+00  0.00000000E+00  0.00000000E+00
  0.00000000E+00  0.00000000E+00  0.00000000E+00
  0.00000000E+00  0.00000000E+00  0.00000000E+00
  0.00000000E+00  0.00000000E+00  0.00000000E+00
  0.00000000E+00  0.00000000E+00  0.00000000E+00
  0.00000000E+00  0.00000000E+00  0.00000000E+00
  0.00000000E+00  0.00000000E+00  0.00000000E+00
  0.00000000E+00  0.00000000E+00  0.00000000E+00
  0.00000000E+00  0.00000000E+00  0.00000000E+00
  0.00000000E+00  0.00000000E+00  0.00000000E+00
  0.00000000E+00  0.00000000E+00  0.00000000E+00
  0.00000000E+00  0.00000000E+00  0.00000000E+00
  0.00000000E+00  0.00000000E+00  0.00000000E+00
  0.00000000E+00  0.00000000E+00  0.00000000E+00
  0.00000000E+00  0.00000000E+00  0.00000000E+00
  0.00000000E+00  0.00000000E+00  0.00000000E+00
  0.00000000E+00  0.00000000E+00  0.00000000E+00
  0.00000000E+00  0.00000000E+00  0.00000000E+00
  0.00000000E+00  0.00000000E+00  0.00000000E+00
  0.00000000E+00  0.00000000E+00  0.00000000E+00
  0.00000000E+00  0.00000000E+00  0.00000000E+00
  0.00000000E+00  0.00000000E+00  0.00000000E+00
  0.00000000E+00  0.00000000E+00  0.00000000E+00
  0.00000000E+00  0.00000000E+00  0.00000000E+00
  0.00000000E+00  0.00000000E+00  0.00000000E+00
  0.00000000E+00  0.00000000E+00  0.00000000E+00
  0.00000000E+00  0.00000000E+00  0.00000000E+00
  0.00000000E+00  0.00000000E+00  0.00000000E+00
  0.00000000E+00  0.00000000E+00  0.00000000E+00
  0.00000000E+00  0.00000000E+00  0.00000000E+00
  0.00000000E+00  0.00000000E+00  0.00000000E+00
  0.00000000E+00  0.00000000E+00  0.00000000E+00
  0.00000000E+00  0.00000000E+00  0.00000000E+00
  0.00000000E+00  0.00000000E+00  0.00000000E+00
  0.00000000E+00  0.00000000E+00  0.00000000E+00
  0.00000000E+00  0.00000000E+00  0.00000000E+00
  0.00000000E+00  0.00000000E+00  0.00000000E+00
  0.00000000E+00  0.00000000E+00  0.00000000E+00
  0.00000000E+00  0.00000000E+00  0.00000000E+00
  0.00000000E+00  0.00000000E+00  0.00000000E+00
  0.00000000E+00  0.00000000E+00  0.00000000E+00
  0.00000000E+00  0.00000000E+00  0.00000000E+00
  0.00000000E+00  0.00000000E+00  0.00000000E+00
  0.00000000E+00  0.00000000E+00  0.00000000E+00
