CONTCAR                                 
   1.00000000000000     
     9.4547004700000006    0.0000000000000000    0.0000000000000000
    -2.1212102605999998   15.2124219391000004    0.0000000000000000
     0.0000000000000000    0.0000000000000000   27.1490001678000006
   Li   Fe   P    O 
    16     8    32   105
Direct
  0.4363981894171859  0.1665988978269506  0.4829415801922404
  0.3254744114798815  0.2129817046802686  0.2814784688889866
  0.1858471294218009  0.2822485874122397  0.7209438237768068
  0.0637153612660044  0.3327458087826351  0.5169901718559743
  0.9367875361072177  0.1652442160682072  0.4822882609410704
  0.8257787262867217  0.2135397397264379  0.2817580693485632
  0.6630179880694221  0.2855638142649611  0.7200599751805346
  0.5610860928739457  0.3355374736680124  0.5175172723361916
  0.4334389614794669  0.6673785277866647  0.4826547836968086
  0.3257539476315421  0.7136747598415666  0.2815488229577763
  0.1731369819840212  0.7865157123804346  0.7188864114581314
  0.0627813730843703  0.8335488037554531  0.5172049291769317
  0.9380487410607131  0.6648205178983069  0.4830489295574613
  0.8255388792729117  0.7138232052670167  0.2816571567345973
  0.6718405708475771  0.7857259950647936  0.7185273491075136
  0.5616721199152478  0.8337060716603765  0.5175292211938045
  0.2999425598730370  0.0614366743761064  0.3820702373674077
  0.1985055234187874  0.4383074549892355  0.6188216322527708
  0.7998720573711218  0.0615017612955081  0.3821564363185906
  0.6984053378151295  0.4404436754340153  0.6177985110341798
  0.2997057011041932  0.5614516684873960  0.3817293730783370
  0.1984825906722961  0.9384061263784383  0.6185036289816077
  0.7999211901630997  0.5615474696435893  0.3820374916744858
  0.6988821502466610  0.9389533891551683  0.6183722118390790
  0.0379945668797718  0.4699590304650118  0.4331698546677182
  0.4342950769749825  0.3506634482809097  0.6721587715298055
  0.3695565384406976  0.3757893739833352  0.3584606079381585
  0.3048689311477881  0.2612870972495496  0.5824339269484515
  0.1940954766208421  0.2388621647846361  0.4180496342580201
  0.1293342669398444  0.1239721842226683  0.6417551192459687
  0.0673419779967802  0.1497838846125855  0.3279383714847957
  0.4610779897204888  0.0303923448733312  0.5675338812744521
  0.5369003150953359  0.4697890996127712  0.4323164825495482
  0.9388009121621838  0.3405780570732192  0.6761578915298625
  0.8702419839314229  0.3759508345306950  0.3590879837661683
  0.8028070638985377  0.2620866491376681  0.5816385706484086
  0.6939336783643832  0.2390417066616837  0.4184729629615645
  0.6276967067771700  0.1240329148080038  0.6422927919329845
  0.5674550537099583  0.1502402137657055  0.3282027234051316
  0.9613092634488689  0.0307087569841919  0.5676464303742884
  0.0376232186209727  0.9700849494740674  0.4331190629922452
  0.4313144121274142  0.8499183694893467  0.6723798190386441
  0.3702047915612933  0.8758609777022244  0.3590532389239021
  0.3036633997066759  0.7609537985027327  0.5823382784434179
  0.1938308798328112  0.7388849327381778  0.4181739176425880
  0.1270721374100704  0.6239321150085815  0.6419513621880788
  0.0672708748671440  0.6503343590159740  0.3279129960772387
  0.4575334510883760  0.5291710763629501  0.5667360486122858
  0.5375474248855615  0.9700217756868839  0.4330736194719274
  0.9304789238781799  0.8495485620504573  0.6722927237915254
  0.8698303937773979  0.8757743200197178  0.3592585492626826
  0.8044358936828667  0.7617896787203740  0.5816120263016075
  0.6936143275192068  0.7386611007107030  0.4185079745443298
  0.6253353231381750  0.6251505492961618  0.6401380450804967
  0.5675201652719205  0.6504060075768477  0.3279825842223086
  0.9607782209094634  0.5300735155144288  0.5675509862158761
  0.4611656434837223  0.0510452849490175  0.4205066373881371
  0.4030398807835879  0.1251839377199578  0.3282259524102780
  0.0195933235535019  0.4058667978602811  0.3846861276282927
  0.4877563108996278  0.4169221698195080  0.4761434308594332
  0.3795090909057606  0.3152119276003461  0.3168755172398336
  0.4068799532838268  0.2777801172304191  0.6287544663959674
  0.2987278694419163  0.9976423017936972  0.5671554877987106
  0.3873669651941081  0.3094923638801093  0.7205924347654422
  0.2987514736249742  0.1705586347822881  0.4192573607210906
  0.3867736501068972  0.2527443843404645  0.5363592364302122
  0.2824358900154156  0.3317601783592217  0.4054795601826502
  0.3609450090919105  0.4294605001850960  0.6565161326005419
  0.3029146343300952  0.4582289235002420  0.3451488181219001
  0.1947501762921067  0.0415155249257106  0.6554405402406028
  0.1381531214586397  0.0701845509546148  0.3443629080653302
  0.2180882041707376  0.1679378665054524  0.5951077753143160
  0.1112047556457798  0.2480175109783403  0.4638880680789680
  0.1986881377034867  0.3287361192681012  0.5821163343921176
  0.1198312920445083  0.1898132498087240  0.2799493881155360
  0.2003179081636519  0.5028688864703388  0.4333903742227421
  0.0931376015822408  0.2224786001456089  0.3715717948362838
  0.1185543511199085  0.1850248064276501  0.6832304625081915
  0.0099844544443103  0.0834332617030769  0.5236925891679513
  0.4795131977304390  0.0947273451428292  0.6160430924796003
  0.0986238385811003  0.3709274253058608  0.6759925485080487
  0.0319828780196330  0.4478961797045548  0.5827218279353600
  0.9612055285980308  0.0511648290393474  0.4206114190537199
  0.9028800113673052  0.1249378298119253  0.3282145012171698
  0.5194195133868802  0.4060104946679265  0.3836497304499263
  0.9911760161728380  0.4173505141951780  0.4773950166976568
  0.8808225790400436  0.3153317517543563  0.3175541316607355
  0.9065550259828666  0.2836558008134653  0.6279306081896657
  0.7987304438624729  0.9988933324542753  0.5672004057474956
  0.8719696783392475  0.2989799218522111  0.7211712390667828
  0.7986847661689481  0.1707315480612507  0.4193964185109955
  0.8882635474904851  0.2516218604951319  0.5367237777239332
  0.7822014348557671  0.3320366630751863  0.4059400325572753
  0.8609004448352364  0.4298714080546054  0.6613277748991387
  0.8042270413059330  0.4584587096961784  0.3455017024343969
  0.6946196688971291  0.0418663500577163  0.6554457905012883
  0.6382215376385120  0.0705025898630854  0.3444720974476752
  0.7185229136779050  0.1695736831088016  0.5961964220706798
  0.6115933851380042  0.2483651315045529  0.4644043391450765
  0.6995241247628466  0.3303665091227739  0.5805864234315318
  0.6202211965575904  0.1906749684678996  0.2803448157097823
  0.6992858860479098  0.5024612363848245  0.4333081680043256
  0.5926744880713860  0.2226636473941253  0.3720199222571443
  0.6154123924673667  0.1841404459610416  0.6839051686415480
  0.5092945264643877  0.0834101180733206  0.5236315603584044
  0.9797385347185925  0.0950106927535967  0.6162791485939566
  0.5984160250256525  0.3760596491271766  0.6714854031865355
  0.5354162477081007  0.4489965066167034  0.5785942573257802
  0.4612438907353287  0.5510197691238592  0.4196527164113903
  0.4030720317178285  0.6252228280859455  0.3279904843311964
  0.0193713763022171  0.9059550516741478  0.3846498482235164
  0.4895391601251914  0.9175030485916097  0.4771735654500707
  0.3806174385028635  0.8153304759800786  0.3174705978751343
  0.4054607770251947  0.7775242834016645  0.6286109910030970
  0.2944736834949916  0.4960179050578200  0.5669811643563469
  0.3790849425393077  0.8095907154148532  0.7203401917613254
  0.2984791660921006  0.6705804902683874  0.4190723449014839
  0.3860852748464679  0.7518205946661061  0.5364273318696795
  0.2823901266942309  0.8318944041361017  0.4059336733457404
  0.3601618889552770  0.9295661879728931  0.6562383143614552
  0.3038639620473971  0.9582986275425347  0.3455594988067706
  0.1925196167297412  0.5408294472367495  0.6552825880026306
  0.1377582537455454  0.5705623763864116  0.3442580577611981
  0.2153617628904663  0.6680515641752535  0.5951922886611146
  0.1111081336008011  0.7478072738291405  0.4640489807166616
  0.1992323089060949  0.8294465248483301  0.5812424181570133
  0.1199320456750205  0.6905945949302470  0.2799983069305405
  0.2000265001903486  0.0027894207954170  0.4335923615535442
  0.0929581636395003  0.7229271938457286  0.3716305593521962
  0.1174115074490096  0.6844597039930702  0.6835423073615046
  0.0141733991924660  0.5820600498704527  0.5238856249448032
  0.4759200873665541  0.5941082106800639  0.6149961064765567
  0.0949809076872080  0.8742585829572399  0.6721499579915177
  0.0370901856811548  0.9495258915730811  0.5802279672216277
  0.9608461877021693  0.5507702810093842  0.4207969808286594
  0.9028828813083831  0.6254405666973011  0.3281660049402754
  0.5196239617062418  0.9059409925714894  0.3845600706898345
  0.9898371602648363  0.9176565230317282  0.4772707789632654
  0.8802568653081795  0.8153205298418785  0.3176450565882851
  0.9039113918091977  0.7769059671062468  0.6285697517841237
  0.7982277772471715  0.4984281618217881  0.5659722299580406
  0.8774987055149698  0.8092166226429628  0.7201501490886021
  0.7982374968221908  0.6703214933423636  0.4195014921441870
  0.8882027985856781  0.7518183399740086  0.5360976894225238
  0.7823244503440435  0.8316560538243628  0.4061587520315796
  0.8604494154333959  0.9296057097066139  0.6560441493345738
  0.8033850216454511  0.9582172536901489  0.3457758868119190
  0.6929720166255912  0.5428993203924242  0.6531476942618830
  0.6386878711865748  0.5707175711960524  0.3440854573252315
  0.7126050213299562  0.6694347062721629  0.5933189905266045
  0.6104951657386180  0.7478474113117948  0.4642711475971574
  0.7012617085358835  0.8309700531419583  0.5803625580109505
  0.6199540215993776  0.6910441820817693  0.2801256979128209
  0.6999091755037810  0.0028876675397954  0.4336697573010532
  0.5928663889222822  0.7226269414184574  0.3718793142063471
  0.6152563412828633  0.6850632632964192  0.6819898078124920
  0.5012378562099215  0.5819341755477928  0.5223549733491475
  0.9774974179479677  0.5942053239038357  0.6162708704938590
  0.5957525471007405  0.8748524978382605  0.6720508615812559
  0.5374213640561359  0.9494663369736897  0.5801255306843264
  0.8891084479338587  0.4807283552606122  0.7035388369584009
 
  0.00000000E+00  0.00000000E+00  0.00000000E+00
  0.00000000E+00  0.00000000E+00  0.00000000E+00
  0.00000000E+00  0.00000000E+00  0.00000000E+00
  0.00000000E+00  0.00000000E+00  0.00000000E+00
  0.00000000E+00  0.00000000E+00  0.00000000E+00
  0.00000000E+00  0.00000000E+00  0.00000000E+00
  0.00000000E+00  0.00000000E+00  0.00000000E+00
  0.00000000E+00  0.00000000E+00  0.00000000E+00
  0.00000000E+00  0.00000000E+00  0.00000000E+00
  0.00000000E+00  0.00000000E+00  0.00000000E+00
  0.00000000E+00  0.00000000E+00  0.00000000E+00
  0.00000000E+00  0.00000000E+00  0.00000000E+00
  0.00000000E+00  0.00000000E+00  0.00000000E+00
  0.00000000E+00  0.00000000E+00  0.00000000E+00
  0.00000000E+00  0.00000000E+00  0.00000000E+00
  0.00000000E+00  0.00000000E+00  0.00000000E+00
  0.00000000E+00  0.00000000E+00  0.00000000E+00
  0.00000000E+00  0.00000000E+00  0.00000000E+00
  0.00000000E+00  0.00000000E+00  0.00000000E+00
  0.00000000E+00  0.00000000E+00  0.00000000E+00
  0.00000000E+00  0.00000000E+00  0.00000000E+00
  0.00000000E+00  0.00000000E+00  0.00000000E+00
  0.00000000E+00  0.00000000E+00  0.00000000E+00
  0.00000000E+00  0.00000000E+00  0.00000000E+00
  0.00000000E+00  0.00000000E+00  0.00000000E+00
  0.00000000E+00  0.00000000E+00  0.00000000E+00
  0.00000000E+00  0.00000000E+00  0.00000000E+00
  0.00000000E+00  0.00000000E+00  0.00000000E+00
  0.00000000E+00  0.00000000E+00  0.00000000E+00
  0.00000000E+00  0.00000000E+00  0.00000000E+00
  0.00000000E+00  0.00000000E+00  0.00000000E+00
  0.00000000E+00  0.00000000E+00  0.00000000E+00
  0.00000000E+00  0.00000000E+00  0.00000000E+00
  0.00000000E+00  0.00000000E+00  0.00000000E+00
  0.00000000E+00  0.00000000E+00  0.00000000E+00
  0.00000000E+00  0.00000000E+00  0.00000000E+00
  0.00000000E+00  0.00000000E+00  0.00000000E+00
  0.00000000E+00  0.00000000E+00  0.00000000E+00
  0.00000000E+00  0.00000000E+00  0.00000000E+00
  0.00000000E+00  0.00000000E+00  0.00000000E+00
  0.00000000E+00  0.00000000E+00  0.00000000E+00
  0.00000000E+00  0.00000000E+00  0.00000000E+00
  0.00000000E+00  0.00000000E+00  0.00000000E+00
  0.00000000E+00  0.00000000E+00  0.00000000E+00
  0.00000000E+00  0.00000000E+00  0.00000000E+00
  0.00000000E+00  0.00000000E+00  0.00000000E+00
  0.00000000E+00  0.00000000E+00  0.00000000E+00
  0.00000000E+00  0.00000000E+00  0.00000000E+00
  0.00000000E+00  0.00000000E+00  0.00000000E+00
  0.00000000E+00  0.00000000E+00  0.00000000E+00
  0.00000000E+00  0.00000000E+00  0.00000000E+00
  0.00000000E+00  0.00000000E+00  0.00000000E+00
  0.00000000E+00  0.00000000E+00  0.00000000E+00
  0.00000000E+00  0.00000000E+00  0.00000000E+00
  0.00000000E+00  0.00000000E+00  0.00000000E+00
  0.00000000E+00  0.00000000E+00  0.00000000E+00
  0.00000000E+00  0.00000000E+00  0.00000000E+00
  0.00000000E+00  0.00000000E+00  0.00000000E+00
  0.00000000E+00  0.00000000E+00  0.00000000E+00
  0.00000000E+00  0.00000000E+00  0.00000000E+00
  0.00000000E+00  0.00000000E+00  0.00000000E+00
  0.00000000E+00  0.00000000E+00  0.00000000E+00
  0.00000000E+00  0.00000000E+00  0.00000000E+00
  0.00000000E+00  0.00000000E+00  0.00000000E+00
  0.00000000E+00  0.00000000E+00  0.00000000E+00
  0.00000000E+00  0.00000000E+00  0.00000000E+00
  0.00000000E+00  0.00000000E+00  0.00000000E+00
  0.00000000E+00  0.00000000E+00  0.00000000E+00
  0.00000000E+00  0.00000000E+00  0.00000000E+00
  0.00000000E+00  0.00000000E+00  0.00000000E+00
  0.00000000E+00  0.00000000E+00  0.00000000E+00
  0.00000000E+00  0.00000000E+00  0.00000000E+00
  0.00000000E+00  0.00000000E+00  0.00000000E+00
  0.00000000E+00  0.00000000E+00  0.00000000E+00
  0.00000000E+00  0.00000000E+00  0.00000000E+00
  0.00000000E+00  0.00000000E+00  0.00000000E+00
  0.00000000E+00  0.00000000E+00  0.00000000E+00
  0.00000000E+00  0.00000000E+00  0.00000000E+00
  0.00000000E+00  0.00000000E+00  0.00000000E+00
  0.00000000E+00  0.00000000E+00  0.00000000E+00
  0.00000000E+00  0.00000000E+00  0.00000000E+00
  0.00000000E+00  0.00000000E+00  0.00000000E+00
  0.00000000E+00  0.00000000E+00  0.00000000E+00
  0.00000000E+00  0.00000000E+00  0.00000000E+00
  0.00000000E+00  0.00000000E+00  0.00000000E+00
  0.00000000E+00  0.00000000E+00  0.00000000E+00
  0.00000000E+00  0.00000000E+00  0.00000000E+00
  0.00000000E+00  0.00000000E+00  0.00000000E+00
  0.00000000E+00  0.00000000E+00  0.00000000E+00
  0.00000000E+00  0.00000000E+00  0.00000000E+00
  0.00000000E+00  0.00000000E+00  0.00000000E+00
  0.00000000E+00  0.00000000E+00  0.00000000E+00
  0.00000000E+00  0.00000000E+00  0.00000000E+00
  0.00000000E+00  0.00000000E+00  0.00000000E+00
  0.00000000E+00  0.00000000E+00  0.00000000E+00
  0.00000000E+00  0.00000000E+00  0.00000000E+00
  0.00000000E+00  0.00000000E+00  0.00000000E+00
  0.00000000E+00  0.00000000E+00  0.00000000E+00
  0.00000000E+00  0.00000000E+00  0.00000000E+00
  0.00000000E+00  0.00000000E+00  0.00000000E+00
  0.00000000E+00  0.00000000E+00  0.00000000E+00
  0.00000000E+00  0.00000000E+00  0.00000000E+00
  0.00000000E+00  0.00000000E+00  0.00000000E+00
  0.00000000E+00  0.00000000E+00  0.00000000E+00
  0.00000000E+00  0.00000000E+00  0.00000000E+00
  0.00000000E+00  0.00000000E+00  0.00000000E+00
  0.00000000E+00  0.00000000E+00  0.00000000E+00
  0.00000000E+00  0.00000000E+00  0.00000000E+00
  0.00000000E+00  0.00000000E+00  0.00000000E+00
  0.00000000E+00  0.00000000E+00  0.00000000E+00
  0.00000000E+00  0.00000000E+00  0.00000000E+00
  0.00000000E+00  0.00000000E+00  0.00000000E+00
  0.00000000E+00  0.00000000E+00  0.00000000E+00
  0.00000000E+00  0.00000000E+00  0.00000000E+00
  0.00000000E+00  0.00000000E+00  0.00000000E+00
  0.00000000E+00  0.00000000E+00  0.00000000E+00
  0.00000000E+00  0.00000000E+00  0.00000000E+00
  0.00000000E+00  0.00000000E+00  0.00000000E+00
  0.00000000E+00  0.00000000E+00  0.00000000E+00
  0.00000000E+00  0.00000000E+00  0.00000000E+00
  0.00000000E+00  0.00000000E+00  0.00000000E+00
  0.00000000E+00  0.00000000E+00  0.00000000E+00
  0.00000000E+00  0.00000000E+00  0.00000000E+00
  0.00000000E+00  0.00000000E+00  0.00000000E+00
  0.00000000E+00  0.00000000E+00  0.00000000E+00
  0.00000000E+00  0.00000000E+00  0.00000000E+00
  0.00000000E+00  0.00000000E+00  0.00000000E+00
  0.00000000E+00  0.00000000E+00  0.00000000E+00
  0.00000000E+00  0.00000000E+00  0.00000000E+00
  0.00000000E+00  0.00000000E+00  0.00000000E+00
  0.00000000E+00  0.00000000E+00  0.00000000E+00
  0.00000000E+00  0.00000000E+00  0.00000000E+00
  0.00000000E+00  0.00000000E+00  0.00000000E+00
  0.00000000E+00  0.00000000E+00  0.00000000E+00
  0.00000000E+00  0.00000000E+00  0.00000000E+00
  0.00000000E+00  0.00000000E+00  0.00000000E+00
  0.00000000E+00  0.00000000E+00  0.00000000E+00
  0.00000000E+00  0.00000000E+00  0.00000000E+00
  0.00000000E+00  0.00000000E+00  0.00000000E+00
  0.00000000E+00  0.00000000E+00  0.00000000E+00
  0.00000000E+00  0.00000000E+00  0.00000000E+00
  0.00000000E+00  0.00000000E+00  0.00000000E+00
  0.00000000E+00  0.00000000E+00  0.00000000E+00
  0.00000000E+00  0.00000000E+00  0.00000000E+00
  0.00000000E+00  0.00000000E+00  0.00000000E+00
  0.00000000E+00  0.00000000E+00  0.00000000E+00
  0.00000000E+00  0.00000000E+00  0.00000000E+00
  0.00000000E+00  0.00000000E+00  0.00000000E+00
  0.00000000E+00  0.00000000E+00  0.00000000E+00
  0.00000000E+00  0.00000000E+00  0.00000000E+00
  0.00000000E+00  0.00000000E+00  0.00000000E+00
  0.00000000E+00  0.00000000E+00  0.00000000E+00
  0.00000000E+00  0.00000000E+00  0.00000000E+00
  0.00000000E+00  0.00000000E+00  0.00000000E+00
  0.00000000E+00  0.00000000E+00  0.00000000E+00
  0.00000000E+00  0.00000000E+00  0.00000000E+00
  0.00000000E+00  0.00000000E+00  0.00000000E+00
  0.00000000E+00  0.00000000E+00  0.00000000E+00
  0.00000000E+00  0.00000000E+00  0.00000000E+00
  0.00000000E+00  0.00000000E+00  0.00000000E+00
  0.00000000E+00  0.00000000E+00  0.00000000E+00
