CONTCAR\(2)                             
   1.00000000000000     
    16.6793994904000016    0.0000000000000000    0.0000000000000000
     8.3396997452000008   14.4447836785000003    0.0000000000000000
     0.0000000000000000    0.0000000000000000   17.5718002318999993
   Ag   I    O 
    18     9    54
Direct
  0.2222200140000012  0.2222299929999991  0.5000100410000030
  0.1111000020000006  0.1111199979999995  0.5000399990000020
  0.5555499929999996  0.2222299929999991  0.5000100410000030
  0.4444400009999967  0.1111199979999995  0.5000399990000020
  0.8888799719999980  0.2222299929999991  0.5000100410000030
  0.7777699800000022  0.1111199979999995  0.5000399990000020
  0.2222199799999984  0.5555699889999985  0.5000100410000030
  0.1111000129999979  0.4444499829999984  0.5000399990000020
  0.5555499589999968  0.5555699889999985  0.5000100410000030
  0.4444399980000000  0.4444499829999984  0.5000399990000020
  0.8888800519999975  0.5555699889999985  0.5000100410000030
  0.7777699769999984  0.4444499829999984  0.5000399990000020
  0.2222200380000032  0.8888999659999968  0.5000100410000030
  0.1111000280000027  0.7777899960000028  0.5000399990000020
  0.5555500170000016  0.8888999659999968  0.5000100410000030
  0.4444400129999977  0.7777899960000028  0.5000399990000020
  0.8888799960000000  0.8888999659999968  0.5000100410000030
  0.7777699339999984  0.7777899960000028  0.5000399990000020
  0.0000000000000000  0.0000000000000000  0.4999699870000001
  0.3333300079999972  0.0000000000000000  0.4999699870000001
  0.6666700210000016  0.0000000000000000  0.4999699870000001
  0.9999999990000035  0.3333300099999974  0.4999699870000001
  0.3333300199999982  0.3333300099999974  0.4999699870000001
  0.6666700050000003  0.3333300099999974  0.4999699870000001
  0.9999999970000033  0.6666600209999984  0.4999699870000001
  0.3333300050000005  0.6666600209999984  0.4999699870000001
  0.6666699900000026  0.6666600209999984  0.4999699870000001
  0.0946600010000012  0.0000500000000017  0.5615300059999981
  0.0000400079999991  0.2386299870000030  0.5615300059999981
  0.2386299919999999  0.0946599979999974  0.5615300059999981
  0.2386599820000015  0.3332299870000028  0.4384699940000019
  0.3332299810000023  0.0947799930000031  0.4384599810000012
  0.0947900009999998  0.2386499919999991  0.4384599810000012
  0.4279999860000032  0.0000500000000017  0.5615300059999981
  0.3333700219999969  0.2386299870000030  0.5615300059999981
  0.5719700340000031  0.0946599979999974  0.5615300059999981
  0.5719900460000034  0.3332299870000028  0.4384699940000019
  0.6665600170000019  0.0947799930000031  0.4384599810000012
  0.4281200080000005  0.2386499919999991  0.4384599810000012
  0.7613299940000005  0.0000500000000017  0.5615300059999981
  0.6667100640000001  0.2386299870000030  0.5615300059999981
  0.9053000700000027  0.0946599979999974  0.5615300059999981
  0.9053200250000017  0.3332299870000028  0.4384699940000019
  0.9998900530000014  0.0947799930000031  0.4384599810000012
  0.7614600499999966  0.2386499919999991  0.4384599810000012
  0.0946600250000031  0.3333799890000009  0.5615300059999981
  0.0000399870000010  0.5719599640000013  0.5615300059999981
  0.2386299839999992  0.4279899909999969  0.5615300059999981
  0.2386599940000025  0.6665599970000002  0.4384699940000019
  0.3332299730000017  0.4281099869999991  0.4384599810000012
  0.0947900299999986  0.5719799689999974  0.4384599810000012
  0.4280000099999981  0.3333799890000009  0.5615300059999981
  0.3333699659999994  0.5719599640000013  0.5615300059999981
  0.5719700260000025  0.4279899909999969  0.5615300059999981
  0.5719900309999986  0.6665599970000002  0.4384699940000019
  0.6665600090000012  0.4281099869999991  0.4384599810000012
  0.4281200089999970  0.5719799689999974  0.4384599810000012
  0.7613300459999977  0.3333799890000009  0.5615300059999981
  0.6667100080000026  0.5719599640000013  0.5615300059999981
  0.9053000050000009  0.4279899909999969  0.5615300059999981
  0.9053199519999993  0.6665599970000002  0.4384699940000019
  0.9998899879999996  0.4281099869999991  0.4384599810000012
  0.7614599939999991  0.5719799689999974  0.4384599810000012
  0.0946600090000018  0.6667100000000019  0.5615300059999981
  0.0000399830000006  0.9052900080000015  0.5615300059999981
  0.2386300260000027  0.7613200019999979  0.5615300059999981
  0.2386599849999982  0.9998999439999992  0.4384699940000019
  0.3332299739999982  0.7614399639999974  0.4384599810000012
  0.0947900310000023  0.9053099469999992  0.4384599810000012
  0.4279999939999968  0.6667100000000019  0.5615300059999981
  0.3333699909999979  0.9052900080000015  0.5615300059999981
  0.5719700109999977  0.7613200019999979  0.5615300059999981
  0.5719899639999966  0.9998999439999992  0.4384699940000019
  0.6665600669999989  0.7614399639999974  0.4384599810000012
  0.4281200100000007  0.9053099469999992  0.4384599810000012
  0.7613300869999975  0.6667100000000019  0.5615300059999981
  0.6667100330000011  0.9052900080000015  0.5615300059999981
  0.9053000939999976  0.7613299710000021  0.5615300059999981
  0.9053200569999973  0.9998999439999992  0.4384699940000019
  0.9998899320000021  0.7614399639999974  0.4384599810000012
  0.7614600519999968  0.9053099469999992  0.4384599810000012
 
  0.00000000E+00  0.00000000E+00  0.00000000E+00
  0.00000000E+00  0.00000000E+00  0.00000000E+00
  0.00000000E+00  0.00000000E+00  0.00000000E+00
  0.00000000E+00  0.00000000E+00  0.00000000E+00
  0.00000000E+00  0.00000000E+00  0.00000000E+00
  0.00000000E+00  0.00000000E+00  0.00000000E+00
  0.00000000E+00  0.00000000E+00  0.00000000E+00
  0.00000000E+00  0.00000000E+00  0.00000000E+00
  0.00000000E+00  0.00000000E+00  0.00000000E+00
  0.00000000E+00  0.00000000E+00  0.00000000E+00
  0.00000000E+00  0.00000000E+00  0.00000000E+00
  0.00000000E+00  0.00000000E+00  0.00000000E+00
  0.00000000E+00  0.00000000E+00  0.00000000E+00
  0.00000000E+00  0.00000000E+00  0.00000000E+00
  0.00000000E+00  0.00000000E+00  0.00000000E+00
  0.00000000E+00  0.00000000E+00  0.00000000E+00
  0.00000000E+00  0.00000000E+00  0.00000000E+00
  0.00000000E+00  0.00000000E+00  0.00000000E+00
  0.00000000E+00  0.00000000E+00  0.00000000E+00
  0.00000000E+00  0.00000000E+00  0.00000000E+00
  0.00000000E+00  0.00000000E+00  0.00000000E+00
  0.00000000E+00  0.00000000E+00  0.00000000E+00
  0.00000000E+00  0.00000000E+00  0.00000000E+00
  0.00000000E+00  0.00000000E+00  0.00000000E+00
  0.00000000E+00  0.00000000E+00  0.00000000E+00
  0.00000000E+00  0.00000000E+00  0.00000000E+00
  0.00000000E+00  0.00000000E+00  0.00000000E+00
  0.00000000E+00  0.00000000E+00  0.00000000E+00
  0.00000000E+00  0.00000000E+00  0.00000000E+00
  0.00000000E+00  0.00000000E+00  0.00000000E+00
  0.00000000E+00  0.00000000E+00  0.00000000E+00
  0.00000000E+00  0.00000000E+00  0.00000000E+00
  0.00000000E+00  0.00000000E+00  0.00000000E+00
  0.00000000E+00  0.00000000E+00  0.00000000E+00
  0.00000000E+00  0.00000000E+00  0.00000000E+00
  0.00000000E+00  0.00000000E+00  0.00000000E+00
  0.00000000E+00  0.00000000E+00  0.00000000E+00
  0.00000000E+00  0.00000000E+00  0.00000000E+00
  0.00000000E+00  0.00000000E+00  0.00000000E+00
  0.00000000E+00  0.00000000E+00  0.00000000E+00
  0.00000000E+00  0.00000000E+00  0.00000000E+00
  0.00000000E+00  0.00000000E+00  0.00000000E+00
  0.00000000E+00  0.00000000E+00  0.00000000E+00
  0.00000000E+00  0.00000000E+00  0.00000000E+00
  0.00000000E+00  0.00000000E+00  0.00000000E+00
  0.00000000E+00  0.00000000E+00  0.00000000E+00
  0.00000000E+00  0.00000000E+00  0.00000000E+00
  0.00000000E+00  0.00000000E+00  0.00000000E+00
  0.00000000E+00  0.00000000E+00  0.00000000E+00
  0.00000000E+00  0.00000000E+00  0.00000000E+00
  0.00000000E+00  0.00000000E+00  0.00000000E+00
  0.00000000E+00  0.00000000E+00  0.00000000E+00
  0.00000000E+00  0.00000000E+00  0.00000000E+00
  0.00000000E+00  0.00000000E+00  0.00000000E+00
  0.00000000E+00  0.00000000E+00  0.00000000E+00
  0.00000000E+00  0.00000000E+00  0.00000000E+00
  0.00000000E+00  0.00000000E+00  0.00000000E+00
  0.00000000E+00  0.00000000E+00  0.00000000E+00
  0.00000000E+00  0.00000000E+00  0.00000000E+00
  0.00000000E+00  0.00000000E+00  0.00000000E+00
  0.00000000E+00  0.00000000E+00  0.00000000E+00
  0.00000000E+00  0.00000000E+00  0.00000000E+00
  0.00000000E+00  0.00000000E+00  0.00000000E+00
  0.00000000E+00  0.00000000E+00  0.00000000E+00
  0.00000000E+00  0.00000000E+00  0.00000000E+00
  0.00000000E+00  0.00000000E+00  0.00000000E+00
  0.00000000E+00  0.00000000E+00  0.00000000E+00
  0.00000000E+00  0.00000000E+00  0.00000000E+00
  0.00000000E+00  0.00000000E+00  0.00000000E+00
  0.00000000E+00  0.00000000E+00  0.00000000E+00
  0.00000000E+00  0.00000000E+00  0.00000000E+00
  0.00000000E+00  0.00000000E+00  0.00000000E+00
  0.00000000E+00  0.00000000E+00  0.00000000E+00
  0.00000000E+00  0.00000000E+00  0.00000000E+00
  0.00000000E+00  0.00000000E+00  0.00000000E+00
  0.00000000E+00  0.00000000E+00  0.00000000E+00
  0.00000000E+00  0.00000000E+00  0.00000000E+00
  0.00000000E+00  0.00000000E+00  0.00000000E+00
  0.00000000E+00  0.00000000E+00  0.00000000E+00
  0.00000000E+00  0.00000000E+00  0.00000000E+00
  0.00000000E+00  0.00000000E+00  0.00000000E+00
