 Ta6 Si2 Te12                           
   1.00000000000000     
     6.4159718466523019    0.0000000000000000    0.0000000000000000
     0.0000000000000000   11.5700880738870833    0.0000000000000000
     0.0000000000000000    0.0000000000000000   18.8322766805399979
   Ta   Si   Te
     6     2    12
Direct
  0.6641499696590230  0.5861737882105844  0.4999999939571254
  0.1641476256908673  0.4138250247928877  0.4999999968939832
  0.9678511318484131  0.9371333094392229  0.5000000016559483
  0.4678504461018495  0.0628683487042307  0.5000000030050700
  0.6994282356621095  0.2819770252052844  0.5000000021118538
  0.1994338781783523  0.7180204942566935  0.4999999933756953
  0.5760545365748684  0.8255963867665099  0.5000000002639737
  0.0760521177800682  0.1744056318061840  0.5000000028813574
  0.7961814900874783  0.0921556519892225  0.6005952861031837
  0.2961827838262120  0.9078458675203802  0.3994045400247636
  0.2961827915522487  0.9078458655533705  0.6005954607439087
  0.7961814798161070  0.0921556524956050  0.3994047187958877
  0.8558005751518747  0.7466033998184649  0.5974278480877285
  0.3558015274908183  0.2533962488823213  0.4025720643231285
  0.3558015237555378  0.2533962553231212  0.5974279414941063
  0.8558005847610131  0.7466034065509284  0.4025721507666138
  0.8479278492959863  0.4314661876254532  0.6017267997653871
  0.3479287971716274  0.5685326349746022  0.3982723974598844
  0.3479288074226843  0.5685326420210616  0.6017275959196550
  0.8479278481728669  0.4314661780638643  0.3982732023707601
 
  0.00000000E+00  0.00000000E+00  0.00000000E+00
  0.00000000E+00  0.00000000E+00  0.00000000E+00
  0.00000000E+00  0.00000000E+00  0.00000000E+00
  0.00000000E+00  0.00000000E+00  0.00000000E+00
  0.00000000E+00  0.00000000E+00  0.00000000E+00
  0.00000000E+00  0.00000000E+00  0.00000000E+00
  0.00000000E+00  0.00000000E+00  0.00000000E+00
  0.00000000E+00  0.00000000E+00  0.00000000E+00
  0.00000000E+00  0.00000000E+00  0.00000000E+00
  0.00000000E+00  0.00000000E+00  0.00000000E+00
  0.00000000E+00  0.00000000E+00  0.00000000E+00
  0.00000000E+00  0.00000000E+00  0.00000000E+00
  0.00000000E+00  0.00000000E+00  0.00000000E+00
  0.00000000E+00  0.00000000E+00  0.00000000E+00
  0.00000000E+00  0.00000000E+00  0.00000000E+00
  0.00000000E+00  0.00000000E+00  0.00000000E+00
  0.00000000E+00  0.00000000E+00  0.00000000E+00
  0.00000000E+00  0.00000000E+00  0.00000000E+00
  0.00000000E+00  0.00000000E+00  0.00000000E+00
  0.00000000E+00  0.00000000E+00  0.00000000E+00
