Ti2AlC_mp-12990_conventional_standard   
   1.00000000000000     
     3.0392312394511771    0.0000000000000000    0.0000000000000000
    -1.5196156197751021    2.6320496893179790    0.0000000000000000
     0.0000000000000000    0.0000000000000000   13.7363996505999992
   Ti   C 
     2     1
Direct
  0.6666694135755277  0.3333306488866517  0.5829159916089854
  0.3333306267846143  0.6666693648649756  0.4170840114421824
  0.0000000036398545 -0.0000000027516300  0.4999999969488322
 
  0.00000000E+00  0.00000000E+00  0.00000000E+00
  0.00000000E+00  0.00000000E+00  0.00000000E+00
  0.00000000E+00  0.00000000E+00  0.00000000E+00
