G   35   31    1    0.005     # Parameters to Generate KPOINTS (Don't Edit This Line)
     288
Reciprocal lattice
    0.000000000000    0.000000000000    0.000000000000       1
    0.028571428571    0.000000000000    0.000000000000       2
    0.057142857143    0.000000000000    0.000000000000       2
    0.085714285714    0.000000000000    0.000000000000       2
    0.114285714286    0.000000000000    0.000000000000       2
    0.142857142857    0.000000000000    0.000000000000       2
    0.171428571429    0.000000000000    0.000000000000       2
    0.200000000000    0.000000000000    0.000000000000       2
    0.228571428571    0.000000000000    0.000000000000       2
    0.257142857143    0.000000000000    0.000000000000       2
    0.285714285714    0.000000000000    0.000000000000       2
    0.314285714286    0.000000000000    0.000000000000       2
    0.342857142857    0.000000000000    0.000000000000       2
    0.371428571429    0.000000000000    0.000000000000       2
    0.400000000000    0.000000000000    0.000000000000       2
    0.428571428571    0.000000000000    0.000000000000       2
    0.457142857143    0.000000000000    0.000000000000       2
    0.485714285714    0.000000000000    0.000000000000       2
    0.000000000000    0.032258064516    0.000000000000       2
    0.028571428571    0.032258064516    0.000000000000       4
    0.057142857143    0.032258064516    0.000000000000       4
    0.085714285714    0.032258064516    0.000000000000       4
    0.114285714286    0.032258064516    0.000000000000       4
    0.142857142857    0.032258064516    0.000000000000       4
    0.171428571429    0.032258064516    0.000000000000       4
    0.200000000000    0.032258064516    0.000000000000       4
    0.228571428571    0.032258064516    0.000000000000       4
    0.257142857143    0.032258064516    0.000000000000       4
    0.285714285714    0.032258064516    0.000000000000       4
    0.314285714286    0.032258064516    0.000000000000       4
    0.342857142857    0.032258064516    0.000000000000       4
    0.371428571429    0.032258064516    0.000000000000       4
    0.400000000000    0.032258064516    0.000000000000       4
    0.428571428571    0.032258064516    0.000000000000       4
    0.457142857143    0.032258064516    0.000000000000       4
    0.485714285714    0.032258064516    0.000000000000       4
    0.000000000000    0.064516129032    0.000000000000       2
    0.028571428571    0.064516129032    0.000000000000       4
    0.057142857143    0.064516129032    0.000000000000       4
    0.085714285714    0.064516129032    0.000000000000       4
    0.114285714286    0.064516129032    0.000000000000       4
    0.142857142857    0.064516129032    0.000000000000       4
    0.171428571429    0.064516129032    0.000000000000       4
    0.200000000000    0.064516129032    0.000000000000       4
    0.228571428571    0.064516129032    0.000000000000       4
    0.257142857143    0.064516129032    0.000000000000       4
    0.285714285714    0.064516129032    0.000000000000       4
    0.314285714286    0.064516129032    0.000000000000       4
    0.342857142857    0.064516129032    0.000000000000       4
    0.371428571429    0.064516129032    0.000000000000       4
    0.400000000000    0.064516129032    0.000000000000       4
    0.428571428571    0.064516129032    0.000000000000       4
    0.457142857143    0.064516129032    0.000000000000       4
    0.485714285714    0.064516129032    0.000000000000       4
    0.000000000000    0.096774193548    0.000000000000       2
    0.028571428571    0.096774193548    0.000000000000       4
    0.057142857143    0.096774193548    0.000000000000       4
    0.085714285714    0.096774193548    0.000000000000       4
    0.114285714286    0.096774193548    0.000000000000       4
    0.142857142857    0.096774193548    0.000000000000       4
    0.171428571429    0.096774193548    0.000000000000       4
    0.200000000000    0.096774193548    0.000000000000       4
    0.228571428571    0.096774193548    0.000000000000       4
    0.257142857143    0.096774193548    0.000000000000       4
    0.285714285714    0.096774193548    0.000000000000       4
    0.314285714286    0.096774193548    0.000000000000       4
    0.342857142857    0.096774193548    0.000000000000       4
    0.371428571429    0.096774193548    0.000000000000       4
    0.400000000000    0.096774193548    0.000000000000       4
    0.428571428571    0.096774193548    0.000000000000       4
    0.457142857143    0.096774193548    0.000000000000       4
    0.485714285714    0.096774193548    0.000000000000       4
    0.000000000000    0.129032258065    0.000000000000       2
    0.028571428571    0.129032258065    0.000000000000       4
    0.057142857143    0.129032258065    0.000000000000       4
    0.085714285714    0.129032258065    0.000000000000       4
    0.114285714286    0.129032258065    0.000000000000       4
    0.142857142857    0.129032258065    0.000000000000       4
    0.171428571429    0.129032258065    0.000000000000       4
    0.200000000000    0.129032258065    0.000000000000       4
    0.228571428571    0.129032258065    0.000000000000       4
    0.257142857143    0.129032258065    0.000000000000       4
    0.285714285714    0.129032258065    0.000000000000       4
    0.314285714286    0.129032258065    0.000000000000       4
    0.342857142857    0.129032258065    0.000000000000       4
    0.371428571429    0.129032258065    0.000000000000       4
    0.400000000000    0.129032258065    0.000000000000       4
    0.428571428571    0.129032258065    0.000000000000       4
    0.457142857143    0.129032258065    0.000000000000       4
    0.485714285714    0.129032258065    0.000000000000       4
    0.000000000000    0.161290322581    0.000000000000       2
    0.028571428571    0.161290322581    0.000000000000       4
    0.057142857143    0.161290322581    0.000000000000       4
    0.085714285714    0.161290322581    0.000000000000       4
    0.114285714286    0.161290322581    0.000000000000       4
    0.142857142857    0.161290322581    0.000000000000       4
    0.171428571429    0.161290322581    0.000000000000       4
    0.200000000000    0.161290322581    0.000000000000       4
    0.228571428571    0.161290322581    0.000000000000       4
    0.257142857143    0.161290322581    0.000000000000       4
    0.285714285714    0.161290322581    0.000000000000       4
    0.314285714286    0.161290322581    0.000000000000       4
    0.342857142857    0.161290322581    0.000000000000       4
    0.371428571429    0.161290322581    0.000000000000       4
    0.400000000000    0.161290322581    0.000000000000       4
    0.428571428571    0.161290322581    0.000000000000       4
    0.457142857143    0.161290322581    0.000000000000       4
    0.485714285714    0.161290322581    0.000000000000       4
    0.000000000000    0.193548387097    0.000000000000       2
    0.028571428571    0.193548387097    0.000000000000       4
    0.057142857143    0.193548387097    0.000000000000       4
    0.085714285714    0.193548387097    0.000000000000       4
    0.114285714286    0.193548387097    0.000000000000       4
    0.142857142857    0.193548387097    0.000000000000       4
    0.171428571429    0.193548387097    0.000000000000       4
    0.200000000000    0.193548387097    0.000000000000       4
    0.228571428571    0.193548387097    0.000000000000       4
    0.257142857143    0.193548387097    0.000000000000       4
    0.285714285714    0.193548387097    0.000000000000       4
    0.314285714286    0.193548387097    0.000000000000       4
    0.342857142857    0.193548387097    0.000000000000       4
    0.371428571429    0.193548387097    0.000000000000       4
    0.400000000000    0.193548387097    0.000000000000       4
    0.428571428571    0.193548387097    0.000000000000       4
    0.457142857143    0.193548387097    0.000000000000       4
    0.485714285714    0.193548387097    0.000000000000       4
    0.000000000000    0.225806451613    0.000000000000       2
    0.028571428571    0.225806451613    0.000000000000       4
    0.057142857143    0.225806451613    0.000000000000       4
    0.085714285714    0.225806451613    0.000000000000       4
    0.114285714286    0.225806451613    0.000000000000       4
    0.142857142857    0.225806451613    0.000000000000       4
    0.171428571429    0.225806451613    0.000000000000       4
    0.200000000000    0.225806451613    0.000000000000       4
    0.228571428571    0.225806451613    0.000000000000       4
    0.257142857143    0.225806451613    0.000000000000       4
    0.285714285714    0.225806451613    0.000000000000       4
    0.314285714286    0.225806451613    0.000000000000       4
    0.342857142857    0.225806451613    0.000000000000       4
    0.371428571429    0.225806451613    0.000000000000       4
    0.400000000000    0.225806451613    0.000000000000       4
    0.428571428571    0.225806451613    0.000000000000       4
    0.457142857143    0.225806451613    0.000000000000       4
    0.485714285714    0.225806451613    0.000000000000       4
    0.000000000000    0.258064516129    0.000000000000       2
    0.028571428571    0.258064516129    0.000000000000       4
    0.057142857143    0.258064516129    0.000000000000       4
    0.085714285714    0.258064516129    0.000000000000       4
    0.114285714286    0.258064516129    0.000000000000       4
    0.142857142857    0.258064516129    0.000000000000       4
    0.171428571429    0.258064516129    0.000000000000       4
    0.200000000000    0.258064516129    0.000000000000       4
    0.228571428571    0.258064516129    0.000000000000       4
    0.257142857143    0.258064516129    0.000000000000       4
    0.285714285714    0.258064516129    0.000000000000       4
    0.314285714286    0.258064516129    0.000000000000       4
    0.342857142857    0.258064516129    0.000000000000       4
    0.371428571429    0.258064516129    0.000000000000       4
    0.400000000000    0.258064516129    0.000000000000       4
    0.428571428571    0.258064516129    0.000000000000       4
    0.457142857143    0.258064516129    0.000000000000       4
    0.485714285714    0.258064516129    0.000000000000       4
    0.000000000000    0.290322580645    0.000000000000       2
    0.028571428571    0.290322580645    0.000000000000       4
    0.057142857143    0.290322580645    0.000000000000       4
    0.085714285714    0.290322580645    0.000000000000       4
    0.114285714286    0.290322580645    0.000000000000       4
    0.142857142857    0.290322580645    0.000000000000       4
    0.171428571429    0.290322580645    0.000000000000       4
    0.200000000000    0.290322580645    0.000000000000       4
    0.228571428571    0.290322580645    0.000000000000       4
    0.257142857143    0.290322580645    0.000000000000       4
    0.285714285714    0.290322580645    0.000000000000       4
    0.314285714286    0.290322580645    0.000000000000       4
    0.342857142857    0.290322580645    0.000000000000       4
    0.371428571429    0.290322580645    0.000000000000       4
    0.400000000000    0.290322580645    0.000000000000       4
    0.428571428571    0.290322580645    0.000000000000       4
    0.457142857143    0.290322580645    0.000000000000       4
    0.485714285714    0.290322580645    0.000000000000       4
    0.000000000000    0.322580645161    0.000000000000       2
    0.028571428571    0.322580645161    0.000000000000       4
    0.057142857143    0.322580645161    0.000000000000       4
    0.085714285714    0.322580645161    0.000000000000       4
    0.114285714286    0.322580645161    0.000000000000       4
    0.142857142857    0.322580645161    0.000000000000       4
    0.171428571429    0.322580645161    0.000000000000       4
    0.200000000000    0.322580645161    0.000000000000       4
    0.228571428571    0.322580645161    0.000000000000       4
    0.257142857143    0.322580645161    0.000000000000       4
    0.285714285714    0.322580645161    0.000000000000       4
    0.314285714286    0.322580645161    0.000000000000       4
    0.342857142857    0.322580645161    0.000000000000       4
    0.371428571429    0.322580645161    0.000000000000       4
    0.400000000000    0.322580645161    0.000000000000       4
    0.428571428571    0.322580645161    0.000000000000       4
    0.457142857143    0.322580645161    0.000000000000       4
    0.485714285714    0.322580645161    0.000000000000       4
    0.000000000000    0.354838709677    0.000000000000       2
    0.028571428571    0.354838709677    0.000000000000       4
    0.057142857143    0.354838709677    0.000000000000       4
    0.085714285714    0.354838709677    0.000000000000       4
    0.114285714286    0.354838709677    0.000000000000       4
    0.142857142857    0.354838709677    0.000000000000       4
    0.171428571429    0.354838709677    0.000000000000       4
    0.200000000000    0.354838709677    0.000000000000       4
    0.228571428571    0.354838709677    0.000000000000       4
    0.257142857143    0.354838709677    0.000000000000       4
    0.285714285714    0.354838709677    0.000000000000       4
    0.314285714286    0.354838709677    0.000000000000       4
    0.342857142857    0.354838709677    0.000000000000       4
    0.371428571429    0.354838709677    0.000000000000       4
    0.400000000000    0.354838709677    0.000000000000       4
    0.428571428571    0.354838709677    0.000000000000       4
    0.457142857143    0.354838709677    0.000000000000       4
    0.485714285714    0.354838709677    0.000000000000       4
    0.000000000000    0.387096774194    0.000000000000       2
    0.028571428571    0.387096774194    0.000000000000       4
    0.057142857143    0.387096774194    0.000000000000       4
    0.085714285714    0.387096774194    0.000000000000       4
    0.114285714286    0.387096774194    0.000000000000       4
    0.142857142857    0.387096774194    0.000000000000       4
    0.171428571429    0.387096774194    0.000000000000       4
    0.200000000000    0.387096774194    0.000000000000       4
    0.228571428571    0.387096774194    0.000000000000       4
    0.257142857143    0.387096774194    0.000000000000       4
    0.285714285714    0.387096774194    0.000000000000       4
    0.314285714286    0.387096774194    0.000000000000       4
    0.342857142857    0.387096774194    0.000000000000       4
    0.371428571429    0.387096774194    0.000000000000       4
    0.400000000000    0.387096774194    0.000000000000       4
    0.428571428571    0.387096774194    0.000000000000       4
    0.457142857143    0.387096774194    0.000000000000       4
    0.485714285714    0.387096774194    0.000000000000       4
    0.000000000000    0.419354838710    0.000000000000       2
    0.028571428571    0.419354838710    0.000000000000       4
    0.057142857143    0.419354838710    0.000000000000       4
    0.085714285714    0.419354838710    0.000000000000       4
    0.114285714286    0.419354838710    0.000000000000       4
    0.142857142857    0.419354838710    0.000000000000       4
    0.171428571429    0.419354838710    0.000000000000       4
    0.200000000000    0.419354838710    0.000000000000       4
    0.228571428571    0.419354838710    0.000000000000       4
    0.257142857143    0.419354838710    0.000000000000       4
    0.285714285714    0.419354838710    0.000000000000       4
    0.314285714286    0.419354838710    0.000000000000       4
    0.342857142857    0.419354838710    0.000000000000       4
    0.371428571429    0.419354838710    0.000000000000       4
    0.400000000000    0.419354838710    0.000000000000       4
    0.428571428571    0.419354838710    0.000000000000       4
    0.457142857143    0.419354838710    0.000000000000       4
    0.485714285714    0.419354838710    0.000000000000       4
    0.000000000000    0.451612903226    0.000000000000       2
    0.028571428571    0.451612903226    0.000000000000       4
    0.057142857143    0.451612903226    0.000000000000       4
    0.085714285714    0.451612903226    0.000000000000       4
    0.114285714286    0.451612903226    0.000000000000       4
    0.142857142857    0.451612903226    0.000000000000       4
    0.171428571429    0.451612903226    0.000000000000       4
    0.200000000000    0.451612903226    0.000000000000       4
    0.228571428571    0.451612903226    0.000000000000       4
    0.257142857143    0.451612903226    0.000000000000       4
    0.285714285714    0.451612903226    0.000000000000       4
    0.314285714286    0.451612903226    0.000000000000       4
    0.342857142857    0.451612903226    0.000000000000       4
    0.371428571429    0.451612903226    0.000000000000       4
    0.400000000000    0.451612903226    0.000000000000       4
    0.428571428571    0.451612903226    0.000000000000       4
    0.457142857143    0.451612903226    0.000000000000       4
    0.485714285714    0.451612903226    0.000000000000       4
    0.000000000000    0.483870967742    0.000000000000       2
    0.028571428571    0.483870967742    0.000000000000       4
    0.057142857143    0.483870967742    0.000000000000       4
    0.085714285714    0.483870967742    0.000000000000       4
    0.114285714286    0.483870967742    0.000000000000       4
    0.142857142857    0.483870967742    0.000000000000       4
    0.171428571429    0.483870967742    0.000000000000       4
    0.200000000000    0.483870967742    0.000000000000       4
    0.228571428571    0.483870967742    0.000000000000       4
    0.257142857143    0.483870967742    0.000000000000       4
    0.285714285714    0.483870967742    0.000000000000       4
    0.314285714286    0.483870967742    0.000000000000       4
    0.342857142857    0.483870967742    0.000000000000       4
    0.371428571429    0.483870967742    0.000000000000       4
    0.400000000000    0.483870967742    0.000000000000       4
    0.428571428571    0.483870967742    0.000000000000       4
    0.457142857143    0.483870967742    0.000000000000       4
    0.485714285714    0.483870967742    0.000000000000       4
