CONTCAR\(3)                             
   1.00000000000000     
    12.0853004455999997    0.0000000000000000    0.0000000000000000
     0.0000000000000000   13.7131004332999993    0.0000000000000000
     0.0000000000000000    0.0000000000000000   20.3784999846999995
   Zr   Te   O 
     6    30     1
Direct
 -0.0001149250568800  0.5015808737259940  0.4545299256994691
  0.1669826666235058 -0.0003238606348722  0.5489840945171833
  0.3327417963437218  0.5019982331471283  0.4557039263265545
  0.5000166775128856  0.0029961310008666  0.5476348835508433
  0.6670431324333709  0.5016128488889759  0.4557338450067812
  0.8331008907757623 -0.0004526807747166  0.5487403871284550
  0.1680047942080567  0.4978367926871664  0.5650008879251045
  0.0006614145842537  0.0147253058700047  0.4378371729836311
  0.1668138415086546  0.6060307691608476  0.3733964841978767
 -0.0000285454636875  0.8965326019324614  0.6298307655059500
 -0.0000815720777658  0.0989914867337013  0.6326672934798301
  0.1667259244793850  0.4037106710512392  0.3708410191371826
 -0.0000274111475099  0.3186726282111094  0.5323878694992741
  0.1623288461087029  0.1830838508833469  0.4712717097034414
  0.1670575382114561  0.8127501729095422  0.4719784528999093
 -0.0005644235563682  0.6837296080348572  0.5331540920976695
  0.4994691983388809  0.4924345244168585  0.5664484692234801
  0.3299228045019738 -0.0013258220389985  0.4376622307053588
  0.5000243901408554  0.6039154494397426  0.3738791281535618
  0.3353508538028407  0.8999358318259764  0.6306020384848208
  0.3327769589146885  0.1035147661697518  0.6299140290331854
  0.4998456583531589  0.4021668249040355  0.3722734798596500
  0.3342670122637140  0.3125700189753398  0.5282101835368960
  0.4997195312078727  0.1835925717403738  0.4672303289836023
  0.5000703191984891  0.8225722581992644  0.4684079824156945
  0.3392143603586663  0.6930580839672071  0.5337303352476346
  0.8314916943321805  0.4974392101416845  0.5651292796465203
  0.6700732468578021 -0.0010754918216228  0.4375850640649683
  0.8328263182786324  0.6061919660961007  0.3737063097353335
  0.6648991099883312  0.8995344454905004  0.6303434117950958
  0.6672929079969416  0.1031492010815051  0.6299719620441085
  0.8330922473487774  0.4037758666608737  0.3707696174116661
  0.6661488074514309  0.3121365964632185  0.5282283087909535
  0.8367897057183220  0.1835823186219968  0.4715067790446936
  0.8333750379616438  0.8127197135209039  0.4713590461840211
  0.6597097187346818  0.6925794601499022  0.5342348994682766
  0.5026094937625739  0.6400167291677252  0.5854144565113528
 
  0.00000000E+00  0.00000000E+00  0.00000000E+00
  0.00000000E+00  0.00000000E+00  0.00000000E+00
  0.00000000E+00  0.00000000E+00  0.00000000E+00
  0.00000000E+00  0.00000000E+00  0.00000000E+00
  0.00000000E+00  0.00000000E+00  0.00000000E+00
  0.00000000E+00  0.00000000E+00  0.00000000E+00
  0.00000000E+00  0.00000000E+00  0.00000000E+00
  0.00000000E+00  0.00000000E+00  0.00000000E+00
  0.00000000E+00  0.00000000E+00  0.00000000E+00
  0.00000000E+00  0.00000000E+00  0.00000000E+00
  0.00000000E+00  0.00000000E+00  0.00000000E+00
  0.00000000E+00  0.00000000E+00  0.00000000E+00
  0.00000000E+00  0.00000000E+00  0.00000000E+00
  0.00000000E+00  0.00000000E+00  0.00000000E+00
  0.00000000E+00  0.00000000E+00  0.00000000E+00
  0.00000000E+00  0.00000000E+00  0.00000000E+00
  0.00000000E+00  0.00000000E+00  0.00000000E+00
  0.00000000E+00  0.00000000E+00  0.00000000E+00
  0.00000000E+00  0.00000000E+00  0.00000000E+00
  0.00000000E+00  0.00000000E+00  0.00000000E+00
  0.00000000E+00  0.00000000E+00  0.00000000E+00
  0.00000000E+00  0.00000000E+00  0.00000000E+00
  0.00000000E+00  0.00000000E+00  0.00000000E+00
  0.00000000E+00  0.00000000E+00  0.00000000E+00
  0.00000000E+00  0.00000000E+00  0.00000000E+00
  0.00000000E+00  0.00000000E+00  0.00000000E+00
  0.00000000E+00  0.00000000E+00  0.00000000E+00
  0.00000000E+00  0.00000000E+00  0.00000000E+00
  0.00000000E+00  0.00000000E+00  0.00000000E+00
  0.00000000E+00  0.00000000E+00  0.00000000E+00
  0.00000000E+00  0.00000000E+00  0.00000000E+00
  0.00000000E+00  0.00000000E+00  0.00000000E+00
  0.00000000E+00  0.00000000E+00  0.00000000E+00
  0.00000000E+00  0.00000000E+00  0.00000000E+00
  0.00000000E+00  0.00000000E+00  0.00000000E+00
  0.00000000E+00  0.00000000E+00  0.00000000E+00
  0.00000000E+00  0.00000000E+00  0.00000000E+00
