CONTCAR\(9)                             
   1.00000000000000     
    16.6394004821999992    0.0000000000000000    0.0000000000000000
     6.4194950950000003   15.5733957347000000    0.0000000000000000
     0.0000000000000000    0.0000000000000000   20.8805007935000013
   Cu   Te   Br   O 
    27    18    18    54
Direct
  0.1450207905245441  0.1435910187207749  0.5532031374183185
  0.0201213900116482  0.0178205928136493  0.4999921601236606
  0.2285155661968185  0.2254030211957954  0.4468675981807825
  0.4783507995245448  0.1435910187207749  0.5532031374183185
  0.3534613790116435  0.0178205928136493  0.4999921601236606
  0.5618555771968156  0.2254030211957954  0.4468675981807825
  0.8116808085245386  0.1435910187207749  0.5532031374183185
  0.6867914160116464  0.0178205928136493  0.4999921601236606
  0.8951854711968176  0.2254030211957954  0.4468675981807825
  0.1450208095245421  0.4769210097207742  0.5532031374183185
  0.0201213970116452  0.3511505968136462  0.4999921601236606
  0.2285155511968208  0.5587330271957995  0.4468675981807825
  0.4783508185245429  0.4769210097207742  0.5532031374183185
  0.3534613640116459  0.3511505968136462  0.4999921601236606
  0.5618555901968202  0.5587330271957995  0.4468675981807825
  0.8116808275245437  0.4769210097207742  0.5532031374183185
  0.6867913730116464  0.3511505968136462  0.4999921601236606
  0.8951854851968187  0.5587330271957995  0.4468675981807825
  0.1450208005245449  0.8102610277207756  0.5532031374183185
  0.0201213960116487  0.6844806028136503  0.4999921601236606
  0.2285155541968175  0.8920730141957947  0.4468675981807825
  0.4783507525245445  0.8102610277207756  0.5532031374183185
  0.3534613780116470  0.6844806028136503  0.4999921601236606
  0.5618555351968192  0.8920730141957947  0.4468675981807825
  0.8116807615245383  0.8102610277207756  0.5532031374183185
  0.6867913870116475  0.6844806028136503  0.4999921601236606
  0.8951855441968201  0.8920730141957947  0.4468675981807825
  0.0989220419592703  0.0953321082480808  0.3986703266881950
  0.2746217847901907  0.2738184173809735  0.6013509590721883
  0.4322520219592724  0.0953321082480808  0.3986703266881950
  0.6079518227901904  0.2738184173809735  0.6013509590721883
  0.7655920609592719  0.0953321082480808  0.3986703266881950
  0.9412918617901899  0.2738184173809735  0.6013509590721883
  0.0989220319592695  0.4286620992480803  0.3986703266881950
  0.2746217697901930  0.6071484233809705  0.6013509590721883
  0.4322520409592704  0.4286620992480803  0.3986703266881950
  0.6079518367901916  0.6071484233809705  0.6013509590721883
  0.7655920799592699  0.4286620992480803  0.3986703266881950
  0.9412917607901922  0.6071484233809705  0.6013509590721883
  0.0989220459592707  0.7619921052480846  0.3986703266881950
  0.2746217837901941  0.9404784293809747  0.6013509590721883
  0.4322520439592742  0.7620020862480826  0.3986703266881950
  0.6079517927901951  0.9404784293809747  0.6013509590721883
  0.7655920829592737  0.7620020862480826  0.3986703266881950
  0.9412917747901933  0.9404784293809747  0.6013509590721883
  0.0903807809201571  0.0901692979729826  0.6451020028982620
  0.2829741539627478  0.2781998435067560  0.3546259836962396
  0.4237107619201556  0.0901692979729826  0.6451020028982620
  0.6163041339627501  0.2781998435067560  0.3546259836962396
  0.7570407999201554  0.0901692979729826  0.6451020028982620
  0.9496441159627483  0.2781998435067560  0.3546259836962396
  0.0903807779201533  0.4235093009729861  0.6451020028982620
  0.2829741849627468  0.6115398305067509  0.3546259836962396
  0.4237107299201601  0.4235093009729861  0.6451020028982620
  0.6163040789627491  0.6115398305067509  0.3546259836962396
  0.7570407959201551  0.4235093009729861  0.6451020028982620
  0.9496441759627462  0.6115398305067509  0.3546259836962396
  0.0903807909201579  0.7568393069729831  0.6451020028982620
  0.2829741979627444  0.9448698365067550  0.3546259836962396
  0.4237107429201576  0.7568393069729831  0.6451020028982620
  0.6163040929627502  0.9448698365067550  0.3546259836962396
  0.7570408669201574  0.7568393069729831  0.6451020028982620
  0.9496441889627437  0.9448698365067550  0.3546259836962396
  0.2233915080067270  0.2194621783810108  0.5468065728760783
  0.1235164744871243  0.3242027307450107  0.4481922434093690
  0.2501272831937786  0.0448988015647230  0.5518543019889949
  0.3258952007273799  0.1192972687551145  0.4471302007959942
  0.0477260838408113  0.2497278274824041  0.5529127760029900
  0.1503269263788082  0.1494169242327264  0.4532917128489247
  0.5567214890067256  0.2194621783810108  0.5468065728760783
  0.4568565134871236  0.3242027307450107  0.4481922434093690
  0.5834572631937807  0.0448988015647230  0.5518543019889949
  0.6592251807273817  0.1192972687551145  0.4471302007959942
  0.3810660658408095  0.2497278274824041  0.5529127760029900
  0.4836669513788063  0.1494169242327264  0.4532917128489247
  0.8900614700067273  0.2194621783810108  0.5468065728760783
  0.7901865224871246  0.3242027307450107  0.4481922434093690
  0.9167872721937744  0.0448988015647230  0.5518543019889949
  0.9925552477273802  0.1192972687551145  0.4471302007959942
  0.7143961038408164  0.2497278274824041  0.5529127760029900
  0.8169969603788072  0.1494169242327264  0.4532917128489247
  0.2233914990067298  0.5528021963810121  0.5468065728760783
  0.1235165114871238  0.6575326747450099  0.4481922434093690
  0.2501273201937781  0.3782387745647169  0.5518543019889949
  0.3258951907273791  0.4526272597551140  0.4471302007959942
  0.0477260688408136  0.5830578334824011  0.5529127760029900
  0.1503269313788050  0.4827469152327256  0.4532917128489247
  0.5567214790067248  0.5528021963810121  0.5468065728760783
  0.4568564924871183  0.6575326747450099  0.4481922434093690
  0.5834572721937779  0.3782387745647169  0.5518543019889949
  0.6592252007273762  0.4526272597551140  0.4471302007959942
  0.3810660508408119  0.5830578334824011  0.5529127760029900
  0.4836669703788044  0.4827469152327256  0.4532917128489247
  0.8900614040067290  0.5528021963810121  0.5468065728760783
  0.7901865594871241  0.6575326747450099  0.4481922434093690
  0.9167872811937787  0.3782387745647169  0.5518543019889949
  0.9925552667273783  0.4526272597551140  0.4471302007959942
  0.7143960598408128  0.5830578334824011  0.5529127760029900
  0.8169969223788112  0.4827469152327256  0.4532917128489247
  0.2233915410067262  0.8861322023810092  0.5468065728760783
  0.1235165004871194  0.9908627427450121  0.4481922434093690
  0.2501272641937806  0.7115688105647234  0.5518543019889949
  0.3258952057273768  0.7859672167551137  0.4471302007959942
  0.0477260998408126  0.9163978204824034  0.5529127760029900
  0.1503269453788062  0.8160769212327300  0.4532917128489247
  0.5567214930067259  0.8861322023810092  0.5468065728760783
  0.4568564824871175  0.9908627427450121  0.4481922434093690
  0.5834572731937744  0.7115688105647234  0.5518543019889949
  0.6592252147273774  0.7859672167551137  0.4471302007959942
  0.3810660528408120  0.9163978204824034  0.5529127760029900
  0.4836669273788043  0.8160769212327300  0.4532917128489247
  0.8900615320067253  0.8861322023810092  0.5468065728760783
  0.7901864344871244  0.9908627427450121  0.4481922434093690
  0.9167872821937753  0.7115688105647234  0.5518543019889949
  0.9925552237273783  0.7859672167551137  0.4471302007959942
  0.7143960618408129  0.9163978204824034  0.5529127760029900
  0.8169969363788052  0.8160769212327300  0.4532917128489247
 
  0.00000000E+00  0.00000000E+00  0.00000000E+00
  0.00000000E+00  0.00000000E+00  0.00000000E+00
  0.00000000E+00  0.00000000E+00  0.00000000E+00
  0.00000000E+00  0.00000000E+00  0.00000000E+00
  0.00000000E+00  0.00000000E+00  0.00000000E+00
  0.00000000E+00  0.00000000E+00  0.00000000E+00
  0.00000000E+00  0.00000000E+00  0.00000000E+00
  0.00000000E+00  0.00000000E+00  0.00000000E+00
  0.00000000E+00  0.00000000E+00  0.00000000E+00
  0.00000000E+00  0.00000000E+00  0.00000000E+00
  0.00000000E+00  0.00000000E+00  0.00000000E+00
  0.00000000E+00  0.00000000E+00  0.00000000E+00
  0.00000000E+00  0.00000000E+00  0.00000000E+00
  0.00000000E+00  0.00000000E+00  0.00000000E+00
  0.00000000E+00  0.00000000E+00  0.00000000E+00
  0.00000000E+00  0.00000000E+00  0.00000000E+00
  0.00000000E+00  0.00000000E+00  0.00000000E+00
  0.00000000E+00  0.00000000E+00  0.00000000E+00
  0.00000000E+00  0.00000000E+00  0.00000000E+00
  0.00000000E+00  0.00000000E+00  0.00000000E+00
  0.00000000E+00  0.00000000E+00  0.00000000E+00
  0.00000000E+00  0.00000000E+00  0.00000000E+00
  0.00000000E+00  0.00000000E+00  0.00000000E+00
  0.00000000E+00  0.00000000E+00  0.00000000E+00
  0.00000000E+00  0.00000000E+00  0.00000000E+00
  0.00000000E+00  0.00000000E+00  0.00000000E+00
  0.00000000E+00  0.00000000E+00  0.00000000E+00
  0.00000000E+00  0.00000000E+00  0.00000000E+00
  0.00000000E+00  0.00000000E+00  0.00000000E+00
  0.00000000E+00  0.00000000E+00  0.00000000E+00
  0.00000000E+00  0.00000000E+00  0.00000000E+00
  0.00000000E+00  0.00000000E+00  0.00000000E+00
  0.00000000E+00  0.00000000E+00  0.00000000E+00
  0.00000000E+00  0.00000000E+00  0.00000000E+00
  0.00000000E+00  0.00000000E+00  0.00000000E+00
  0.00000000E+00  0.00000000E+00  0.00000000E+00
  0.00000000E+00  0.00000000E+00  0.00000000E+00
  0.00000000E+00  0.00000000E+00  0.00000000E+00
  0.00000000E+00  0.00000000E+00  0.00000000E+00
  0.00000000E+00  0.00000000E+00  0.00000000E+00
  0.00000000E+00  0.00000000E+00  0.00000000E+00
  0.00000000E+00  0.00000000E+00  0.00000000E+00
  0.00000000E+00  0.00000000E+00  0.00000000E+00
  0.00000000E+00  0.00000000E+00  0.00000000E+00
  0.00000000E+00  0.00000000E+00  0.00000000E+00
  0.00000000E+00  0.00000000E+00  0.00000000E+00
  0.00000000E+00  0.00000000E+00  0.00000000E+00
  0.00000000E+00  0.00000000E+00  0.00000000E+00
  0.00000000E+00  0.00000000E+00  0.00000000E+00
  0.00000000E+00  0.00000000E+00  0.00000000E+00
  0.00000000E+00  0.00000000E+00  0.00000000E+00
  0.00000000E+00  0.00000000E+00  0.00000000E+00
  0.00000000E+00  0.00000000E+00  0.00000000E+00
  0.00000000E+00  0.00000000E+00  0.00000000E+00
  0.00000000E+00  0.00000000E+00  0.00000000E+00
  0.00000000E+00  0.00000000E+00  0.00000000E+00
  0.00000000E+00  0.00000000E+00  0.00000000E+00
  0.00000000E+00  0.00000000E+00  0.00000000E+00
  0.00000000E+00  0.00000000E+00  0.00000000E+00
  0.00000000E+00  0.00000000E+00  0.00000000E+00
  0.00000000E+00  0.00000000E+00  0.00000000E+00
  0.00000000E+00  0.00000000E+00  0.00000000E+00
  0.00000000E+00  0.00000000E+00  0.00000000E+00
  0.00000000E+00  0.00000000E+00  0.00000000E+00
  0.00000000E+00  0.00000000E+00  0.00000000E+00
  0.00000000E+00  0.00000000E+00  0.00000000E+00
  0.00000000E+00  0.00000000E+00  0.00000000E+00
  0.00000000E+00  0.00000000E+00  0.00000000E+00
  0.00000000E+00  0.00000000E+00  0.00000000E+00
  0.00000000E+00  0.00000000E+00  0.00000000E+00
  0.00000000E+00  0.00000000E+00  0.00000000E+00
  0.00000000E+00  0.00000000E+00  0.00000000E+00
  0.00000000E+00  0.00000000E+00  0.00000000E+00
  0.00000000E+00  0.00000000E+00  0.00000000E+00
  0.00000000E+00  0.00000000E+00  0.00000000E+00
  0.00000000E+00  0.00000000E+00  0.00000000E+00
  0.00000000E+00  0.00000000E+00  0.00000000E+00
  0.00000000E+00  0.00000000E+00  0.00000000E+00
  0.00000000E+00  0.00000000E+00  0.00000000E+00
  0.00000000E+00  0.00000000E+00  0.00000000E+00
  0.00000000E+00  0.00000000E+00  0.00000000E+00
  0.00000000E+00  0.00000000E+00  0.00000000E+00
  0.00000000E+00  0.00000000E+00  0.00000000E+00
  0.00000000E+00  0.00000000E+00  0.00000000E+00
  0.00000000E+00  0.00000000E+00  0.00000000E+00
  0.00000000E+00  0.00000000E+00  0.00000000E+00
  0.00000000E+00  0.00000000E+00  0.00000000E+00
  0.00000000E+00  0.00000000E+00  0.00000000E+00
  0.00000000E+00  0.00000000E+00  0.00000000E+00
  0.00000000E+00  0.00000000E+00  0.00000000E+00
  0.00000000E+00  0.00000000E+00  0.00000000E+00
  0.00000000E+00  0.00000000E+00  0.00000000E+00
  0.00000000E+00  0.00000000E+00  0.00000000E+00
  0.00000000E+00  0.00000000E+00  0.00000000E+00
  0.00000000E+00  0.00000000E+00  0.00000000E+00
  0.00000000E+00  0.00000000E+00  0.00000000E+00
  0.00000000E+00  0.00000000E+00  0.00000000E+00
  0.00000000E+00  0.00000000E+00  0.00000000E+00
  0.00000000E+00  0.00000000E+00  0.00000000E+00
  0.00000000E+00  0.00000000E+00  0.00000000E+00
  0.00000000E+00  0.00000000E+00  0.00000000E+00
  0.00000000E+00  0.00000000E+00  0.00000000E+00
  0.00000000E+00  0.00000000E+00  0.00000000E+00
  0.00000000E+00  0.00000000E+00  0.00000000E+00
  0.00000000E+00  0.00000000E+00  0.00000000E+00
  0.00000000E+00  0.00000000E+00  0.00000000E+00
  0.00000000E+00  0.00000000E+00  0.00000000E+00
  0.00000000E+00  0.00000000E+00  0.00000000E+00
  0.00000000E+00  0.00000000E+00  0.00000000E+00
  0.00000000E+00  0.00000000E+00  0.00000000E+00
  0.00000000E+00  0.00000000E+00  0.00000000E+00
  0.00000000E+00  0.00000000E+00  0.00000000E+00
  0.00000000E+00  0.00000000E+00  0.00000000E+00
  0.00000000E+00  0.00000000E+00  0.00000000E+00
  0.00000000E+00  0.00000000E+00  0.00000000E+00
  0.00000000E+00  0.00000000E+00  0.00000000E+00
  0.00000000E+00  0.00000000E+00  0.00000000E+00
