CONTCAR\(2)                             
   1.00000000000000     
    10.9488000870000004    0.0000000000000000    0.0000000000000000
     0.0000000000000000   10.9488000870000004    0.0000000000000000
     0.0000000000000000    0.0000000000000000   22.0405998230000009
   Zr   Si   Te   O 
    18    18    18     1
Direct
  0.1716065375947207  0.0000192795604226  0.5982738909413117
  0.0024619432463022  0.1659502755511218  0.4044702452629743
  0.5024046053651811  0.0000253141742407  0.5986436336730190
  0.3364164927248209  0.1672001975755717  0.4057354551391681
  0.8345505210533505  0.0000129822261099  0.5981526704820121
  0.6684365575418827  0.1668861453345216  0.4049392450203153
  0.1612863962452638  0.3310185615062783  0.5976665111626986
  0.0016526081531670  0.5000197426593684  0.4041503634666712
  0.5068154323205925  0.3451826516217169  0.6004310864317565
  0.3353516751058563  0.5000191045372313  0.4053020760410426
  0.8384787541773651  0.3295166356988922  0.5972645970039635
  0.6699818364633949  0.5000056019266997  0.4047417015574291
  0.1612882706620573  0.6690314484256656  0.5976595105746806
  0.0024789313129053  0.8341194684607754  0.4044703650369332
  0.5068181999984818  0.6548510912576633  0.6004285556314684
  0.3364103818991273  0.8328550576714526  0.4057363931223806
  0.8384749047218107  0.6705178047871141  0.5972613240995630
  0.6684500411779224  0.8331709803880184  0.4049468824425951
  0.1700484538055202  0.1657323532430583  0.5012770824841526
  0.0025533646554215  0.0000223910691561  0.5018945559641644
  0.5026131250815450  0.1679214686079494  0.5023207394076452
  0.3371772641862294  0.0000297655237463  0.5017552628925660
  0.8351590551273101  0.1650251591485944  0.5009886088665751
  0.6686168813035067  0.0000190518464368  0.5016263124576698
  0.1676061102553750  0.5000326628510886  0.5026024140278060
  0.0014310831567032  0.3327897246072259  0.5005833790149740
  0.5047383575887538  0.5000129177127732  0.4998203905461472
  0.3355799691908377  0.3345563614954515  0.5031173526197270
  0.8368803051223606  0.5000239680587582  0.5015114763505767
  0.6704321657411272  0.3330934359428140  0.5016407589080288
  0.1700520559679420  0.8343078724827878  0.5012685658816528
  0.0014372531529481  0.6672472038415128  0.5005817502015877
  0.5026205543304900  0.8321618026493507  0.5023201470021180
  0.3355884172607639  0.6654904289936927  0.5031161269408465
  0.8351639286555419  0.8350072289413251  0.5009897403088215
  0.6704277449615608  0.6669532931018619  0.5016359354925524
  0.0021890539593452  0.1638710925041919  0.6629166894381942
  0.1697707680581820  0.0000258056199508  0.3416604539836043
  0.3382510531368989  0.1727547797171503  0.6601321026476851
  0.5016766924415776  0.0000157225158518  0.3416817345085730
  0.6676042246680181  0.1676706913597152  0.6619283810236598
  0.8350450141538223  0.0000205588271867  0.3413548243264790
  0.9920580388320225  0.5000562124644137  0.6681963399080432
  0.1690296481058868  0.3333796552562282  0.3418666859479555
  0.2565833973223368  0.5000519820876050  0.6849138510385681
  0.5017521588267385  0.3338512386952577  0.3416982910261395
  0.6897355368867563  0.5000260777889075  0.6646905380987067
  0.8355847341670740  0.3328376915566705  0.3410717356654625
  0.0021881128156802  0.8361447601709240  0.6629172893131404
  0.1690526546016292  0.6666648794508655  0.3418593347361733
  0.3382473233136229  0.8272793769456672  0.6601306387385592
  0.5017528865359954  0.6662036951409979  0.3417097440168654
  0.6675979022620431  0.8323561202519171  0.6619228755325796
  0.8355701947278057  0.6671824355249159  0.3410841287926748
  0.4342404068764347  0.5000177906411166  0.6451790737994197
 
  0.00000000E+00  0.00000000E+00  0.00000000E+00
  0.00000000E+00  0.00000000E+00  0.00000000E+00
  0.00000000E+00  0.00000000E+00  0.00000000E+00
  0.00000000E+00  0.00000000E+00  0.00000000E+00
  0.00000000E+00  0.00000000E+00  0.00000000E+00
  0.00000000E+00  0.00000000E+00  0.00000000E+00
  0.00000000E+00  0.00000000E+00  0.00000000E+00
  0.00000000E+00  0.00000000E+00  0.00000000E+00
  0.00000000E+00  0.00000000E+00  0.00000000E+00
  0.00000000E+00  0.00000000E+00  0.00000000E+00
  0.00000000E+00  0.00000000E+00  0.00000000E+00
  0.00000000E+00  0.00000000E+00  0.00000000E+00
  0.00000000E+00  0.00000000E+00  0.00000000E+00
  0.00000000E+00  0.00000000E+00  0.00000000E+00
  0.00000000E+00  0.00000000E+00  0.00000000E+00
  0.00000000E+00  0.00000000E+00  0.00000000E+00
  0.00000000E+00  0.00000000E+00  0.00000000E+00
  0.00000000E+00  0.00000000E+00  0.00000000E+00
  0.00000000E+00  0.00000000E+00  0.00000000E+00
  0.00000000E+00  0.00000000E+00  0.00000000E+00
  0.00000000E+00  0.00000000E+00  0.00000000E+00
  0.00000000E+00  0.00000000E+00  0.00000000E+00
  0.00000000E+00  0.00000000E+00  0.00000000E+00
  0.00000000E+00  0.00000000E+00  0.00000000E+00
  0.00000000E+00  0.00000000E+00  0.00000000E+00
  0.00000000E+00  0.00000000E+00  0.00000000E+00
  0.00000000E+00  0.00000000E+00  0.00000000E+00
  0.00000000E+00  0.00000000E+00  0.00000000E+00
  0.00000000E+00  0.00000000E+00  0.00000000E+00
  0.00000000E+00  0.00000000E+00  0.00000000E+00
  0.00000000E+00  0.00000000E+00  0.00000000E+00
  0.00000000E+00  0.00000000E+00  0.00000000E+00
  0.00000000E+00  0.00000000E+00  0.00000000E+00
  0.00000000E+00  0.00000000E+00  0.00000000E+00
  0.00000000E+00  0.00000000E+00  0.00000000E+00
  0.00000000E+00  0.00000000E+00  0.00000000E+00
  0.00000000E+00  0.00000000E+00  0.00000000E+00
  0.00000000E+00  0.00000000E+00  0.00000000E+00
  0.00000000E+00  0.00000000E+00  0.00000000E+00
  0.00000000E+00  0.00000000E+00  0.00000000E+00
  0.00000000E+00  0.00000000E+00  0.00000000E+00
  0.00000000E+00  0.00000000E+00  0.00000000E+00
  0.00000000E+00  0.00000000E+00  0.00000000E+00
  0.00000000E+00  0.00000000E+00  0.00000000E+00
  0.00000000E+00  0.00000000E+00  0.00000000E+00
  0.00000000E+00  0.00000000E+00  0.00000000E+00
  0.00000000E+00  0.00000000E+00  0.00000000E+00
  0.00000000E+00  0.00000000E+00  0.00000000E+00
  0.00000000E+00  0.00000000E+00  0.00000000E+00
  0.00000000E+00  0.00000000E+00  0.00000000E+00
  0.00000000E+00  0.00000000E+00  0.00000000E+00
  0.00000000E+00  0.00000000E+00  0.00000000E+00
  0.00000000E+00  0.00000000E+00  0.00000000E+00
  0.00000000E+00  0.00000000E+00  0.00000000E+00
  0.00000000E+00  0.00000000E+00  0.00000000E+00
