CONTCAR\(14)                            
   1.00000000000000     
    11.7227001190000006    0.0000000000000000    0.0000000000000000
     1.9537737858999999   10.6868737691000000    0.0000000000000000
     0.0000000000000000    0.0000000000000000   24.3673000335999994
   Y    C    I    O    H 
    18     6    21     2     1
Direct
  0.2817988037640860  0.3218781302055869  0.6502534823436510
  0.2578747472961312  0.4638856117721382  0.4461688481697695
  0.2071820161069394  0.7670661744239581  0.4764882211187405
  0.1317161668387607  0.2378632078344885  0.5253181568392514
  0.0786443685329278  0.5411694382904673  0.5561628836934719
  0.0567509213799760  0.6721068434512967  0.3644703036255577
  0.6147990899130259  0.3308105474527413  0.6368820789462334
  0.5915961564074742  0.4641115881364387  0.4454913578097017
  0.5415822550310938  0.7665037353269624  0.4762763938978456
  0.4590961916228838  0.2380220299001798  0.5251985306607888
  0.4111609874951976  0.5412775906781813  0.5562181471799500
  0.3903592832403163  0.6723932379595305  0.3646662354777086
  0.9445733435076653  0.3307337947809200  0.6369233600320423
  0.9240389152548723  0.4639918512736830  0.4454579059355154
  0.8739512605862758  0.7667336609264731  0.4759751029467844
  0.7951546522192751  0.2386791856991188  0.5244844241073987
  0.7450061078270053  0.5409582316945658  0.5559445862350727
  0.7234001367692138  0.6721703822143719  0.3642487478723950
  0.2718978044951457  0.3784767321746985  0.5435907844931943
  0.0650389079325343  0.6242372397356947  0.4585999419266887
  0.6025529779904961  0.3799510320858096  0.5432810803162780
  0.3973202282968386  0.6244414940197868  0.4587482815104888
  0.9410103343920800  0.3798627592277620  0.5433077576084303
  0.7314088417878216  0.6236703834429311  0.4582792432974248
  0.1875667379454824  0.8901630344894097  0.3574008622058732
  0.1437014955446733  0.1087304375092208  0.6388024360410395
  0.2100248245864956  0.7491548173785932  0.5988675281909744
  0.1260393393617682  0.2556674119499353  0.4022793871553168
  0.0007020491434188  0.0025906843447173  0.4979711023925714
  0.2525340306228545  0.4990446063220761  0.3084320820648142
  0.0775725110094039  0.5119687451910758  0.6904189202434482
  0.5207052136824175  0.8904867704969348  0.3574858699050033
  0.4900954097313469  0.1083268240801001  0.6382246855975682
  0.5446603199440637  0.7504535349916063  0.5982968233347193
  0.4587329279815788  0.2559222347389902  0.4021814406402113
  0.3353622090683939  0.0014497311956887  0.4993762191696652
  0.5853448771134637  0.4990141751130986  0.3081711586374151
  0.4219160296017746  0.5128403321487354  0.6903346226357869
  0.8542073876388371  0.8899491033070080  0.3563995664124479
  0.8160240991504709  0.1118538126102313  0.6421439291235593
  0.8755862962884211  0.7507402885245811  0.5981117484392383
  0.7921370678004871  0.2565015061557142  0.4019194071716892
  0.6691817309090703  0.0028245169811026  0.4977359903721260
  0.9192141827233700  0.4987578382796569  0.3081954284758291
  0.7506601076950431  0.5054117588006976  0.6930765375859960
  0.3171821172944922  0.1379823206833586  0.7612603480863106
  0.2956827434675436  0.2508804616718920  0.7289197074710189
  0.3139221460071188  0.1734594513278505  0.7982984026029629
 
  0.00000000E+00  0.00000000E+00  0.00000000E+00
  0.00000000E+00  0.00000000E+00  0.00000000E+00
  0.00000000E+00  0.00000000E+00  0.00000000E+00
  0.00000000E+00  0.00000000E+00  0.00000000E+00
  0.00000000E+00  0.00000000E+00  0.00000000E+00
  0.00000000E+00  0.00000000E+00  0.00000000E+00
  0.00000000E+00  0.00000000E+00  0.00000000E+00
  0.00000000E+00  0.00000000E+00  0.00000000E+00
  0.00000000E+00  0.00000000E+00  0.00000000E+00
  0.00000000E+00  0.00000000E+00  0.00000000E+00
  0.00000000E+00  0.00000000E+00  0.00000000E+00
  0.00000000E+00  0.00000000E+00  0.00000000E+00
  0.00000000E+00  0.00000000E+00  0.00000000E+00
  0.00000000E+00  0.00000000E+00  0.00000000E+00
  0.00000000E+00  0.00000000E+00  0.00000000E+00
  0.00000000E+00  0.00000000E+00  0.00000000E+00
  0.00000000E+00  0.00000000E+00  0.00000000E+00
  0.00000000E+00  0.00000000E+00  0.00000000E+00
  0.00000000E+00  0.00000000E+00  0.00000000E+00
  0.00000000E+00  0.00000000E+00  0.00000000E+00
  0.00000000E+00  0.00000000E+00  0.00000000E+00
  0.00000000E+00  0.00000000E+00  0.00000000E+00
  0.00000000E+00  0.00000000E+00  0.00000000E+00
  0.00000000E+00  0.00000000E+00  0.00000000E+00
  0.00000000E+00  0.00000000E+00  0.00000000E+00
  0.00000000E+00  0.00000000E+00  0.00000000E+00
  0.00000000E+00  0.00000000E+00  0.00000000E+00
  0.00000000E+00  0.00000000E+00  0.00000000E+00
  0.00000000E+00  0.00000000E+00  0.00000000E+00
  0.00000000E+00  0.00000000E+00  0.00000000E+00
  0.00000000E+00  0.00000000E+00  0.00000000E+00
  0.00000000E+00  0.00000000E+00  0.00000000E+00
  0.00000000E+00  0.00000000E+00  0.00000000E+00
  0.00000000E+00  0.00000000E+00  0.00000000E+00
  0.00000000E+00  0.00000000E+00  0.00000000E+00
  0.00000000E+00  0.00000000E+00  0.00000000E+00
  0.00000000E+00  0.00000000E+00  0.00000000E+00
  0.00000000E+00  0.00000000E+00  0.00000000E+00
  0.00000000E+00  0.00000000E+00  0.00000000E+00
  0.00000000E+00  0.00000000E+00  0.00000000E+00
  0.00000000E+00  0.00000000E+00  0.00000000E+00
  0.00000000E+00  0.00000000E+00  0.00000000E+00
  0.00000000E+00  0.00000000E+00  0.00000000E+00
  0.00000000E+00  0.00000000E+00  0.00000000E+00
  0.00000000E+00  0.00000000E+00  0.00000000E+00
  0.00000000E+00  0.00000000E+00  0.00000000E+00
  0.00000000E+00  0.00000000E+00  0.00000000E+00
  0.00000000E+00  0.00000000E+00  0.00000000E+00
