CONTCAR                                 
   1.00000000000000     
    15.2456998825000003    0.0000000000000000    0.0000000000000000
     7.6228095670000000   13.2074592144000000    0.0000000000000000
     0.0000000000000000    0.0000000000000000   19.0911998748999991
   Nb   I    O    H 
    12    32     1     1
Direct
  0.1968810473540615  0.4020369857164277  0.4922105454576427
  0.3941572955494311  0.4009031497986504  0.4969941284032038
  0.3935306330051702  0.2064291769058081  0.4961967965628930
  0.6951254206604482  0.4023192635046561  0.4964478773043213
  0.8939007059723776  0.4027913079127858  0.4958822214709709
  0.8938249943814705  0.2050077291004025  0.4961756426207000
  0.1964075543856283  0.9023589844357887  0.4966744409317740
  0.3938838963546433  0.9026969003474207  0.4968598159130605
  0.3937592027720425  0.7044152487936729  0.4968755084626855
  0.6954924452854502  0.9037291462525257  0.4964263890887969
  0.8940561832554622  0.9025659401452536  0.4961322177598352
  0.8940173400013508  0.7047043558956098  0.4959165903035639
  0.4952218279125187  0.2531571362274403  0.3966073862666896
  0.2456582231531990  0.2511406184939581  0.3951536096954607
  0.2459948931212563  0.5049475046845925  0.3961778919957930
  0.3258868393781645  0.0877775091327724  0.5773921264471467
  0.0795269310610160  0.0884090114211451  0.5765806455489195
  0.0807752566029947  0.3335158361031626  0.5744625271399534
 -0.0072366126380584  0.5043635875096173  0.4176733497173012
  0.3314349406819017  0.3346236473350021  0.6081674531868726
  0.9936181169275800  0.2539219238405558  0.3960609483389594
  0.7450628897329410  0.2534191209642858  0.3963685703745898
  0.7440317715298344  0.5030995558668939  0.3966862043209236
  0.8250842728390450  0.0881695364073760  0.5765357453390205
  0.5795860180886786  0.0880895082132363  0.5768839476069163
  0.5802308626228443  0.3340593549306797  0.5770816189177853
  0.4948067965464512  0.5032268172229414  0.4200366998894731
  0.8278482656746419  0.3368522401539277  0.6079134586887835
  0.4937964562103249  0.7536234020134239  0.3970014725399756
  0.2450688544061110  0.7537204300901968  0.3967529623985622
  0.2451487216597446  0.0024234118286982  0.3968191130806837
  0.3261266840939742  0.5871723163416657  0.5776825350199165
  0.0807808231469444  0.5867258982628383  0.5747374964260851
  0.0796456178045911  0.8334708845383352  0.5767167026767521
 -0.0050830481606226  0.0032873825479196  0.4195394462992332
  0.3279219862716459  0.8364611561005107  0.6086647225146437
  0.9938546392266455  0.7537063738165269  0.3960626534973172
  0.7442250581310473  0.7543316672052683  0.3966706023292904
  0.7451343683841893  0.0027569482649991  0.3962497335008388
  0.8256552312973487  0.5878989252925116  0.5765110215431348
  0.5795573885968980  0.5884455225462074  0.5766741748527140
  0.5798354130629305  0.8334132832755602  0.5767559901470785
  0.4949268126572500  0.0029342550658747  0.4198242641550845
  0.8281297962271067  0.8367021875162665  0.6079199996891188
  0.4527660085244142  0.2847250073746340  0.6947050264840255
  0.4443202512468847  0.2383803226020223  0.7257276140915122
 
  0.00000000E+00  0.00000000E+00  0.00000000E+00
  0.00000000E+00  0.00000000E+00  0.00000000E+00
  0.00000000E+00  0.00000000E+00  0.00000000E+00
  0.00000000E+00  0.00000000E+00  0.00000000E+00
  0.00000000E+00  0.00000000E+00  0.00000000E+00
  0.00000000E+00  0.00000000E+00  0.00000000E+00
  0.00000000E+00  0.00000000E+00  0.00000000E+00
  0.00000000E+00  0.00000000E+00  0.00000000E+00
  0.00000000E+00  0.00000000E+00  0.00000000E+00
  0.00000000E+00  0.00000000E+00  0.00000000E+00
  0.00000000E+00  0.00000000E+00  0.00000000E+00
  0.00000000E+00  0.00000000E+00  0.00000000E+00
  0.00000000E+00  0.00000000E+00  0.00000000E+00
  0.00000000E+00  0.00000000E+00  0.00000000E+00
  0.00000000E+00  0.00000000E+00  0.00000000E+00
  0.00000000E+00  0.00000000E+00  0.00000000E+00
  0.00000000E+00  0.00000000E+00  0.00000000E+00
  0.00000000E+00  0.00000000E+00  0.00000000E+00
  0.00000000E+00  0.00000000E+00  0.00000000E+00
  0.00000000E+00  0.00000000E+00  0.00000000E+00
  0.00000000E+00  0.00000000E+00  0.00000000E+00
  0.00000000E+00  0.00000000E+00  0.00000000E+00
  0.00000000E+00  0.00000000E+00  0.00000000E+00
  0.00000000E+00  0.00000000E+00  0.00000000E+00
  0.00000000E+00  0.00000000E+00  0.00000000E+00
  0.00000000E+00  0.00000000E+00  0.00000000E+00
  0.00000000E+00  0.00000000E+00  0.00000000E+00
  0.00000000E+00  0.00000000E+00  0.00000000E+00
  0.00000000E+00  0.00000000E+00  0.00000000E+00
  0.00000000E+00  0.00000000E+00  0.00000000E+00
  0.00000000E+00  0.00000000E+00  0.00000000E+00
  0.00000000E+00  0.00000000E+00  0.00000000E+00
  0.00000000E+00  0.00000000E+00  0.00000000E+00
  0.00000000E+00  0.00000000E+00  0.00000000E+00
  0.00000000E+00  0.00000000E+00  0.00000000E+00
  0.00000000E+00  0.00000000E+00  0.00000000E+00
  0.00000000E+00  0.00000000E+00  0.00000000E+00
  0.00000000E+00  0.00000000E+00  0.00000000E+00
  0.00000000E+00  0.00000000E+00  0.00000000E+00
  0.00000000E+00  0.00000000E+00  0.00000000E+00
  0.00000000E+00  0.00000000E+00  0.00000000E+00
  0.00000000E+00  0.00000000E+00  0.00000000E+00
  0.00000000E+00  0.00000000E+00  0.00000000E+00
  0.00000000E+00  0.00000000E+00  0.00000000E+00
  0.00000000E+00  0.00000000E+00  0.00000000E+00
  0.00000000E+00  0.00000000E+00  0.00000000E+00
