CONTCAR                                 
   1.00000000000000     
    11.7709999084000003    0.0000000000000000    0.0000000000000000
    -5.8855350711999996   11.1688637170000007    0.0000000000000000
     0.0000000000000000    0.0000000000000000   18.2658004761000008
   Cr   I    O    H 
     9    18     2     1
Selective dynamics
Direct
  0.9962119366361151  0.9993516777291376  0.4939993514016194   F   F   F
  0.3303085745400978  0.0002677423448958  0.4936694296131705   F   F   F
  0.6637924167492386  0.0007052854332343  0.4939337907643022   F   F   F
  0.9989337996538055  0.3359063576164942  0.4942465916686416   F   F   F
  0.3350405828514269  0.3414394672482786  0.4957814962034135   F   F   F
  0.6646164332992015  0.3342323296272127  0.4935771599537588   F   F   F
  0.9967115412596925  0.6659463064156199  0.4943677698880649   F   F   F
  0.3344321283630762  0.6734145199679773  0.4977114002411582   F   F   F
  0.6628608108754790  0.6653426263826390  0.4940563005994107   F   F   F
  0.1206903185941215  0.2470561553174235  0.5847940150580015   F   F   F
  0.2088471757770307  0.0919632229837788  0.4046304291836549   F   F   F
  0.4543323821555845  0.2466907130919864  0.5844138854727277   F   F   F
  0.5414745627767985  0.0891143673549024  0.4030558310891337   F   F   F
  0.7873088279661218  0.2462455978395042  0.5842715773575264   F   F   F
  0.8746993849573528  0.0884978636738794  0.4033113965733435   F   F   F
  0.1208030583177262  0.5804238572883946  0.5859023758387636   F   F   F
  0.2084715580371537  0.4227873628246570  0.4031306698645807   F   F   F
  0.4504685310374654  0.5722235080199738  0.5831768293744446   F   F   F
  0.5431101483712979  0.4235052267109012  0.4028011092195882   F   F   F
  0.7872094356076147  0.5796513609051885  0.5855034549913327   F   F   F
  0.8758863848419551  0.4231998205044221  0.4032124093337259   F   F   F
  0.1205937879760626  0.9138778740997680  0.5851707851444772   F   F   F
  0.2086764257810216  0.7563902651098005  0.4045398187504716   F   F   F
  0.4532124800876289  0.9128688516956132  0.5844384840669221   F   F   F
  0.5412637210489137  0.7558722120931591  0.4041154016676600   F   F   F
  0.7857559906914631  0.9121828412522959  0.5848536487819871   F   F   F
  0.8756097563512668  0.7563912175055378  0.4039450896957035   F   F   F
  0.4050059583951224  0.7031201900879864  0.7046573715912885   T   T   T
  0.3641809245894123  0.6411580247321425  0.7697151104072191   T   T   T
  0.2703709044107541  0.5935128501432345  0.7626456393797433   T   T   T
 
  0.00000000E+00  0.00000000E+00  0.00000000E+00
  0.00000000E+00  0.00000000E+00  0.00000000E+00
  0.00000000E+00  0.00000000E+00  0.00000000E+00
  0.00000000E+00  0.00000000E+00  0.00000000E+00
  0.00000000E+00  0.00000000E+00  0.00000000E+00
  0.00000000E+00  0.00000000E+00  0.00000000E+00
  0.00000000E+00  0.00000000E+00  0.00000000E+00
  0.00000000E+00  0.00000000E+00  0.00000000E+00
  0.00000000E+00  0.00000000E+00  0.00000000E+00
  0.00000000E+00  0.00000000E+00  0.00000000E+00
  0.00000000E+00  0.00000000E+00  0.00000000E+00
  0.00000000E+00  0.00000000E+00  0.00000000E+00
  0.00000000E+00  0.00000000E+00  0.00000000E+00
  0.00000000E+00  0.00000000E+00  0.00000000E+00
  0.00000000E+00  0.00000000E+00  0.00000000E+00
  0.00000000E+00  0.00000000E+00  0.00000000E+00
  0.00000000E+00  0.00000000E+00  0.00000000E+00
  0.00000000E+00  0.00000000E+00  0.00000000E+00
  0.00000000E+00  0.00000000E+00  0.00000000E+00
  0.00000000E+00  0.00000000E+00  0.00000000E+00
  0.00000000E+00  0.00000000E+00  0.00000000E+00
  0.00000000E+00  0.00000000E+00  0.00000000E+00
  0.00000000E+00  0.00000000E+00  0.00000000E+00
  0.00000000E+00  0.00000000E+00  0.00000000E+00
  0.00000000E+00  0.00000000E+00  0.00000000E+00
  0.00000000E+00  0.00000000E+00  0.00000000E+00
  0.00000000E+00  0.00000000E+00  0.00000000E+00
  0.00000000E+00  0.00000000E+00  0.00000000E+00
  0.00000000E+00  0.00000000E+00  0.00000000E+00
  0.00000000E+00  0.00000000E+00  0.00000000E+00
