CONTCAR\(3)                             
   1.00000000000000     
    11.7590999603000004    0.0000000000000000    0.0000000000000000
     0.0000000000000000   11.7590999603000004    0.0000000000000000
     0.0000000000000000    0.0000000000000000   20.7430992126000007
   Ce   Br   O 
    18    18    19
Direct
  0.1672918593698000 -0.0000019837107643  0.4394081471606063
  0.9990822218508173  0.1657897187018993  0.5599441102514268
  0.4993720425979931  0.0000078541917989  0.4393787441198465
  0.3333694369197091  0.1663620067214876  0.5619796457605029
  0.8333463084830149  0.0000183303661815  0.4376794004583148
  0.6675551668674170  0.1657568860505277  0.5598867298753255
  0.1685988710875562  0.3353448305386487  0.4430957317965773
 -0.0003089929496399  0.5000119284395966  0.5621344995963760
  0.4980815428292796  0.3353077263707563  0.4430065697932111
  0.3333659745367918  0.5000290585809586  0.5752921813356652
  0.8333566526991916  0.3340003204553820  0.4394224900923165
  0.6669519753533626  0.5000022566554221  0.5620642151159835
  0.1686335358739960  0.6646660102298555  0.4430599925557595
 -0.0009300840150631  0.8342605556853134  0.5599256897749222
  0.4980451166340486  0.6646947431743427  0.4429499372518889
  0.3333529195870719  0.8336532785416595  0.5620422339281627
  0.8333827016925821  0.6660182346778440  0.4394233880738087
  0.6675577673204696  0.8342537202743552  0.5598691379902342
  0.1658961668856913 -0.0000032821238772  0.6397557369858788
  0.0008554467152126  0.1675529048478741  0.3594319553953051
  0.5007896310256539 -0.0000182906941051  0.6397440804463148
  0.3333240682341390  0.1677396983462281  0.3604086015848835
  0.8331827113595183 -0.0000256910347208  0.6396383232052456
  0.6658353989065624  0.1675548672081876  0.3593801254161598
  0.1510174349686855  0.3176756332582572  0.6406022513719416
  0.0010990462715068  0.4999956650620332  0.3604106443630982
  0.5155268559263188  0.3177860837532595  0.6404946868718756
  0.3332684813374368  0.4999488973607313  0.3621761407146505
  0.8332302358800411  0.3323885817048852  0.6398510532550032
  0.6656292422033938  0.4999812877465336  0.3603639738673955
  0.1510214185720797  0.6823478441205683  0.6405897767613877
  0.0008561231754732  0.8324722637274596  0.3594309263953477
  0.5155672913686952  0.6822548898445472  0.6404909402888290
  0.3333207612714686  0.8321912042867801  0.3603091417386360
  0.8332930945558111  0.6676095514081533  0.6398235328014861
  0.6658703360352064  0.8325036011638502  0.3593652553091265
 -0.0004084394802467  0.0000168305930181  0.4983449517555238
  0.1662977253980686  0.1656383444453299  0.5000395543882018
  0.3333584580176579 -0.0000112510592603  0.5003118198831145
  0.5003480192361807  0.1655727036053466  0.4999660182313596
  0.6670662867242797 -0.0000027310252982  0.4982890921627709
  0.8333601601414377  0.1662846858318603  0.4983566565322226
  0.9989215118484396  0.3330330524991548  0.5000861210795021
  0.1637860751566987  0.4999946441017340  0.5033496296335040
  0.3333509189028510  0.3304820765555461  0.5032555330417915
  0.5029043434046265  0.5000220783604133  0.5031975905786009
  0.6677475831718875  0.3330387336737196  0.5000103859602313
  0.8333319139489458  0.5000113728406819  0.5004099400518930
  0.9989330626087013  0.6669847894104729  0.5000751576201615
  0.1663496356426753  0.8343878038600864  0.5000235714532262
  0.3333607072497321  0.6695367346620537  0.5032518545809300
  0.5002928457943689  0.8344292610728428  0.4999611998782226
  0.6677437691568957  0.6669956797570368  0.4999943693194530
  0.8333681223098154  0.8337403435922004  0.4983423954023360
  0.3331285303356770  0.5000836842911522  0.6637441887433913
 
  0.00000000E+00  0.00000000E+00  0.00000000E+00
  0.00000000E+00  0.00000000E+00  0.00000000E+00
  0.00000000E+00  0.00000000E+00  0.00000000E+00
  0.00000000E+00  0.00000000E+00  0.00000000E+00
  0.00000000E+00  0.00000000E+00  0.00000000E+00
  0.00000000E+00  0.00000000E+00  0.00000000E+00
  0.00000000E+00  0.00000000E+00  0.00000000E+00
  0.00000000E+00  0.00000000E+00  0.00000000E+00
  0.00000000E+00  0.00000000E+00  0.00000000E+00
  0.00000000E+00  0.00000000E+00  0.00000000E+00
  0.00000000E+00  0.00000000E+00  0.00000000E+00
  0.00000000E+00  0.00000000E+00  0.00000000E+00
  0.00000000E+00  0.00000000E+00  0.00000000E+00
  0.00000000E+00  0.00000000E+00  0.00000000E+00
  0.00000000E+00  0.00000000E+00  0.00000000E+00
  0.00000000E+00  0.00000000E+00  0.00000000E+00
  0.00000000E+00  0.00000000E+00  0.00000000E+00
  0.00000000E+00  0.00000000E+00  0.00000000E+00
  0.00000000E+00  0.00000000E+00  0.00000000E+00
  0.00000000E+00  0.00000000E+00  0.00000000E+00
  0.00000000E+00  0.00000000E+00  0.00000000E+00
  0.00000000E+00  0.00000000E+00  0.00000000E+00
  0.00000000E+00  0.00000000E+00  0.00000000E+00
  0.00000000E+00  0.00000000E+00  0.00000000E+00
  0.00000000E+00  0.00000000E+00  0.00000000E+00
  0.00000000E+00  0.00000000E+00  0.00000000E+00
  0.00000000E+00  0.00000000E+00  0.00000000E+00
  0.00000000E+00  0.00000000E+00  0.00000000E+00
  0.00000000E+00  0.00000000E+00  0.00000000E+00
  0.00000000E+00  0.00000000E+00  0.00000000E+00
  0.00000000E+00  0.00000000E+00  0.00000000E+00
  0.00000000E+00  0.00000000E+00  0.00000000E+00
  0.00000000E+00  0.00000000E+00  0.00000000E+00
  0.00000000E+00  0.00000000E+00  0.00000000E+00
  0.00000000E+00  0.00000000E+00  0.00000000E+00
  0.00000000E+00  0.00000000E+00  0.00000000E+00
  0.00000000E+00  0.00000000E+00  0.00000000E+00
  0.00000000E+00  0.00000000E+00  0.00000000E+00
  0.00000000E+00  0.00000000E+00  0.00000000E+00
  0.00000000E+00  0.00000000E+00  0.00000000E+00
  0.00000000E+00  0.00000000E+00  0.00000000E+00
  0.00000000E+00  0.00000000E+00  0.00000000E+00
  0.00000000E+00  0.00000000E+00  0.00000000E+00
  0.00000000E+00  0.00000000E+00  0.00000000E+00
  0.00000000E+00  0.00000000E+00  0.00000000E+00
  0.00000000E+00  0.00000000E+00  0.00000000E+00
  0.00000000E+00  0.00000000E+00  0.00000000E+00
  0.00000000E+00  0.00000000E+00  0.00000000E+00
  0.00000000E+00  0.00000000E+00  0.00000000E+00
  0.00000000E+00  0.00000000E+00  0.00000000E+00
  0.00000000E+00  0.00000000E+00  0.00000000E+00
  0.00000000E+00  0.00000000E+00  0.00000000E+00
  0.00000000E+00  0.00000000E+00  0.00000000E+00
  0.00000000E+00  0.00000000E+00  0.00000000E+00
  0.00000000E+00  0.00000000E+00  0.00000000E+00
