 Sc12 C4 I22                            
   1.00000000000000     
     9.0457986304992684    0.0000000000000000    0.0000000000000000
     1.9381076514558671   16.0410005300128340    0.0000000000000000
     0.0000000000000000    0.0000000000000000   22.7442477572900046
   Sc   C    I 
    12     4    22
Direct
  0.7517978028586541  0.5320634090800525  0.5526745731808731
  0.4167896886353333  0.6841183811745069  0.4473184658311382
  0.9263690477593158  0.3385628999337555  0.4950008526483316
  0.2422314556842622  0.8776262475052548  0.5050046754226614
  0.6917596248040283  0.3355434934995216  0.5981306394685575
  0.4768179691778798  0.8806613178054832  0.4018698007884822
  0.4332659339037761  0.4200944428017621  0.5185500875423585
  0.7353457957412175  0.7960958014233199  0.4814248739390905
  0.6675419292644662  0.4276238810413275  0.4163280545614612
  0.5010853125512682  0.7885266771795401  0.5836582463047151
  0.6186027455888947  0.2291763155908129  0.4635325440547220
  0.5499256946699234  0.9870026208976768  0.5364764254830661
  0.4725706726995114  0.7943207182321146  0.4821656247309392
  0.6960283092979935  0.4218303520489854  0.5178195568123414
  0.5058471535928177  0.8725996929601010  0.5031886718240912
  0.6627606498344676  0.3435999074452880  0.4968154120397017
  0.7609527959718250  0.4777604024430389  0.6714768790887362
  0.4076411072848956  0.7384786917066180  0.3285293268646967
  0.0659495410286297  0.4894421219675564  0.5358926760705458
  0.1026655108562906  0.7267239687516351  0.4641341462909807
  0.4318982917727396  0.6023054078560932  0.5678442434799251
  0.7366016562238471  0.6138313718242969  0.4321354011434337
  0.5459231775226741  0.0594878768760694  0.4160359134375611
  0.6225370609186598  0.1567185868298679  0.5839820688664048
  0.9254143601325353  0.1720702601030837  0.4458209218556135
  0.2431219436728966  0.0441183905667941  0.5542149459700454
  0.2932553289601429  0.2796913239337115  0.4764176373498898
  0.8751998587684611  0.9365235274084824  0.5236175418992275
  0.7755398508766120  0.8431072192217499  0.3620772094870830
  0.3930389947645523  0.3731542944354160  0.6378892319902789
  0.1768170161094389  0.9493789724514698  0.3902472877678207
  0.9917035835438668  0.2668092472691868  0.6097718131767280
  0.8044209721489537  0.7091793312309917  0.5947519024920425
  0.3642489637321944  0.5070176012956935  0.4052250853154007
  0.2060487841878214  0.8135779222805652  0.6238670612335042
  0.9625712618833049  0.4025036452399462  0.3761025700262337
  0.5795568198848002  0.9218880734928163  0.6564945053255187
  0.5889733336910297  0.2942536041953829  0.3435131262357984
 
  0.00000000E+00  0.00000000E+00  0.00000000E+00
  0.00000000E+00  0.00000000E+00  0.00000000E+00
  0.00000000E+00  0.00000000E+00  0.00000000E+00
  0.00000000E+00  0.00000000E+00  0.00000000E+00
  0.00000000E+00  0.00000000E+00  0.00000000E+00
  0.00000000E+00  0.00000000E+00  0.00000000E+00
  0.00000000E+00  0.00000000E+00  0.00000000E+00
  0.00000000E+00  0.00000000E+00  0.00000000E+00
  0.00000000E+00  0.00000000E+00  0.00000000E+00
  0.00000000E+00  0.00000000E+00  0.00000000E+00
  0.00000000E+00  0.00000000E+00  0.00000000E+00
  0.00000000E+00  0.00000000E+00  0.00000000E+00
  0.00000000E+00  0.00000000E+00  0.00000000E+00
  0.00000000E+00  0.00000000E+00  0.00000000E+00
  0.00000000E+00  0.00000000E+00  0.00000000E+00
  0.00000000E+00  0.00000000E+00  0.00000000E+00
  0.00000000E+00  0.00000000E+00  0.00000000E+00
  0.00000000E+00  0.00000000E+00  0.00000000E+00
  0.00000000E+00  0.00000000E+00  0.00000000E+00
  0.00000000E+00  0.00000000E+00  0.00000000E+00
  0.00000000E+00  0.00000000E+00  0.00000000E+00
  0.00000000E+00  0.00000000E+00  0.00000000E+00
  0.00000000E+00  0.00000000E+00  0.00000000E+00
  0.00000000E+00  0.00000000E+00  0.00000000E+00
  0.00000000E+00  0.00000000E+00  0.00000000E+00
  0.00000000E+00  0.00000000E+00  0.00000000E+00
  0.00000000E+00  0.00000000E+00  0.00000000E+00
  0.00000000E+00  0.00000000E+00  0.00000000E+00
  0.00000000E+00  0.00000000E+00  0.00000000E+00
  0.00000000E+00  0.00000000E+00  0.00000000E+00
  0.00000000E+00  0.00000000E+00  0.00000000E+00
  0.00000000E+00  0.00000000E+00  0.00000000E+00
  0.00000000E+00  0.00000000E+00  0.00000000E+00
  0.00000000E+00  0.00000000E+00  0.00000000E+00
  0.00000000E+00  0.00000000E+00  0.00000000E+00
  0.00000000E+00  0.00000000E+00  0.00000000E+00
  0.00000000E+00  0.00000000E+00  0.00000000E+00
  0.00000000E+00  0.00000000E+00  0.00000000E+00
