CONTCAR\(2)                             
   1.00000000000000     
     9.7571001052999993    0.0000000000000000    0.0000000000000000
    -3.0063686365000000   15.8319856181999992    0.0000000000000000
     0.0000000000000000    0.0000000000000000   18.2793006897000012
   V    P    S    O    H 
     4     8    26     2     1
Direct
  0.6229926772076892  0.6075193356558738  0.4983165402169905
  0.6225587228088980  0.1072651261542351  0.5057317903148223
  0.3906840534006958  0.3979302317399894  0.5055747355358736
  0.3908866174532478  0.8984797964933369  0.5002706474093148
  0.8350352938164127  0.2639933628705430  0.4983934961433084
  0.7025114258396574  0.4378702428484847  0.5397558730401052
  0.1780287278752478  0.7413990349289756  0.5072971456398508
  0.1776214407893580  0.2415395618162725  0.4990581382876009
  0.3108304070261974  0.0684016516594672  0.5413455145655004
  0.7026027340754755  0.9373056206205186  0.4638080122313383
  0.3111548959093299  0.5677441815780884  0.4645493298328544
  0.8358657210489137  0.7640209355460635  0.5036442661440548
  0.1186923898895027  0.1112095854175074  0.5294599435292250
  0.8951014084167859  0.8944068387631948  0.4732730957763840
  0.0051207484591748  0.7527432134136026  0.5755501915365167
  0.3987970375460992  0.0422446393112947  0.4427550437992622
  0.5494810053919021  0.3578377007398587  0.5925360160734940
  0.2464592426659879  0.4547886532279142  0.4162746789879354
  0.2041260727991192  0.3215731354823176  0.5839742051314798
  0.6697484935632425  0.7358632794867547  0.5704946191975995
  0.4633551842139768  0.6479410006237739  0.4114780332625489
  0.6134449347019683  0.4627895627592640  0.4412129079873811
  0.6678527043031670  0.2360055363915291  0.4324473169498660
  0.8941752057767801  0.3943623055407603  0.5280812920786619
  0.0066554026975143  0.2524242138912504  0.4287424544694372
  0.6157661271416331  0.9630950647739244  0.5629914912536642
  0.8096511183333177  0.6831277465695114  0.4193425484395129
  0.4005669113743644  0.5425939684255664  0.5627181078759746
  0.2053548076430266  0.8213945311808634  0.4221961709142052
  0.7658317788185910  0.5509285791428384  0.5878360674393597
  0.5485288199036951  0.8569027362250432  0.4125479242156745
  0.2481515660166819  0.9552968895365067  0.5899353065924352
  0.3458309838577974  0.7694351218845125  0.5731366878174659
  0.8086475664343634  0.1840858133416934  0.5835634339854392
  0.7640735098232517  0.0506898235829727  0.4155722807620527
  0.4640185230683612  0.1488153787481589  0.5932055352341922
  0.1195483615444159  0.6110622436899145  0.4776282545239852
  0.3446551638484364  0.2694145282280863  0.4327827416866329
  0.5666333579853662  0.6511232213710964  0.7090398858451736
  0.5595459630676467  0.7131288354460795  0.7580470762969834
  0.5010326724627152  0.7493568748923856  0.7340813209758736
 
  0.00000000E+00  0.00000000E+00  0.00000000E+00
  0.00000000E+00  0.00000000E+00  0.00000000E+00
  0.00000000E+00  0.00000000E+00  0.00000000E+00
  0.00000000E+00  0.00000000E+00  0.00000000E+00
  0.00000000E+00  0.00000000E+00  0.00000000E+00
  0.00000000E+00  0.00000000E+00  0.00000000E+00
  0.00000000E+00  0.00000000E+00  0.00000000E+00
  0.00000000E+00  0.00000000E+00  0.00000000E+00
  0.00000000E+00  0.00000000E+00  0.00000000E+00
  0.00000000E+00  0.00000000E+00  0.00000000E+00
  0.00000000E+00  0.00000000E+00  0.00000000E+00
  0.00000000E+00  0.00000000E+00  0.00000000E+00
  0.00000000E+00  0.00000000E+00  0.00000000E+00
  0.00000000E+00  0.00000000E+00  0.00000000E+00
  0.00000000E+00  0.00000000E+00  0.00000000E+00
  0.00000000E+00  0.00000000E+00  0.00000000E+00
  0.00000000E+00  0.00000000E+00  0.00000000E+00
  0.00000000E+00  0.00000000E+00  0.00000000E+00
  0.00000000E+00  0.00000000E+00  0.00000000E+00
  0.00000000E+00  0.00000000E+00  0.00000000E+00
  0.00000000E+00  0.00000000E+00  0.00000000E+00
  0.00000000E+00  0.00000000E+00  0.00000000E+00
  0.00000000E+00  0.00000000E+00  0.00000000E+00
  0.00000000E+00  0.00000000E+00  0.00000000E+00
  0.00000000E+00  0.00000000E+00  0.00000000E+00
  0.00000000E+00  0.00000000E+00  0.00000000E+00
  0.00000000E+00  0.00000000E+00  0.00000000E+00
  0.00000000E+00  0.00000000E+00  0.00000000E+00
  0.00000000E+00  0.00000000E+00  0.00000000E+00
  0.00000000E+00  0.00000000E+00  0.00000000E+00
  0.00000000E+00  0.00000000E+00  0.00000000E+00
  0.00000000E+00  0.00000000E+00  0.00000000E+00
  0.00000000E+00  0.00000000E+00  0.00000000E+00
  0.00000000E+00  0.00000000E+00  0.00000000E+00
  0.00000000E+00  0.00000000E+00  0.00000000E+00
  0.00000000E+00  0.00000000E+00  0.00000000E+00
  0.00000000E+00  0.00000000E+00  0.00000000E+00
  0.00000000E+00  0.00000000E+00  0.00000000E+00
  0.00000000E+00  0.00000000E+00  0.00000000E+00
  0.00000000E+00  0.00000000E+00  0.00000000E+00
  0.00000000E+00  0.00000000E+00  0.00000000E+00
