 Hf2 Te10                               
   1.00000000000000     
     4.0033365254453770    0.0000000000000000    0.0000000000000000
     0.0000000000000000   13.6953474503665937    0.0000000000000000
     0.0000000000000000    0.0000000000000000   20.2972128992639966
   Hf   Te
     2    10
Direct
  0.4999998820416920  0.9999999788394405  0.5483184792014697
  0.0000000932605886  0.5000000066318009  0.4516815297080896
  0.9999999299239377  0.6837635129809954  0.5289741506319956
  0.5000000299714600  0.8162364736826717  0.4710258597190986
  0.4999999751117912  0.5000000081258165  0.5613466517944943
  0.0000001451042095  0.0000000019967459  0.4386533414839491
  0.5000000608978397  0.6015230576199002  0.3694245463635895
  0.9999999249115064  0.8984769707482343  0.6305754330095681
  0.9999999702945033  0.1015230649925201  0.6305754346018517
  0.4999999726279896  0.3984769794214742  0.3694245807372454
  0.0000000035361083  0.3162364659910324  0.5289741390352702
  0.5000000123183739  0.1837634789693539  0.4710258537133711
 
  0.00000000E+00  0.00000000E+00  0.00000000E+00
  0.00000000E+00  0.00000000E+00  0.00000000E+00
  0.00000000E+00  0.00000000E+00  0.00000000E+00
  0.00000000E+00  0.00000000E+00  0.00000000E+00
  0.00000000E+00  0.00000000E+00  0.00000000E+00
  0.00000000E+00  0.00000000E+00  0.00000000E+00
  0.00000000E+00  0.00000000E+00  0.00000000E+00
  0.00000000E+00  0.00000000E+00  0.00000000E+00
  0.00000000E+00  0.00000000E+00  0.00000000E+00
  0.00000000E+00  0.00000000E+00  0.00000000E+00
  0.00000000E+00  0.00000000E+00  0.00000000E+00
  0.00000000E+00  0.00000000E+00  0.00000000E+00
