CONTCAR\(16)                            
   1.00000000000000     
    11.3502998351999995    0.0000000000000000    0.0000000000000000
    -5.6751499175999998    9.8296479979000004    0.0000000000000000
     0.0000000000000000    0.0000000000000000   21.7800998688000007
   Gd   Br
    18    18
Direct
  0.1111100079999972  0.2222200149999978  0.5656800109999978
  0.2222200180000016  0.1111100079999972  0.4343199890000022
  0.4444400360000031  0.2222200149999978  0.5656800109999978
  0.5555599610000002  0.1111100079999972  0.4343199890000022
  0.7777800209999981  0.2222200149999978  0.5656800109999978
  0.8888900740000025  0.1111100079999972  0.4343199890000022
  0.1111100039999968  0.5555599710000010  0.5656800109999978
  0.2222200149999978  0.4444400309999992  0.4343199890000022
  0.4444400209999984  0.5555599710000010  0.5656800109999978
  0.5555599799999982  0.4444400309999992  0.4343199890000022
  0.7777799859999988  0.5555599710000010  0.5656800109999978
  0.8888900709999987  0.4444400309999992  0.4343199890000022
  0.1111099999999965  0.8888900549999974  0.5656800109999978
  0.2222200129999976  0.7777800109999973  0.4343199890000022
  0.4444400280000025  0.8888900549999974  0.5656800109999978
  0.5555599770000015  0.7777800109999973  0.4343199890000022
  0.7777800129999974  0.8888900549999974  0.5656800109999978
  0.8888900469999967  0.7777800109999973  0.4343199890000022
  0.1111100079999972  0.2222200149999978  0.3440600110000034
  0.2222200180000016  0.1111100079999972  0.6559400109999984
  0.4444400360000031  0.2222200149999978  0.3440600110000034
  0.5555599610000002  0.1111100079999972  0.6559400109999984
  0.7777800209999981  0.2222200149999978  0.3440600110000034
  0.8888900740000025  0.1111100079999972  0.6559400109999984
  0.1111100039999968  0.5555599710000010  0.3440600110000034
  0.2222200149999978  0.4444400309999992  0.6559400109999984
  0.4444400209999984  0.5555599710000010  0.3440600110000034
  0.5555599799999982  0.4444400309999992  0.6559400109999984
  0.7777799859999988  0.5555599710000010  0.3440600110000034
  0.8888900709999987  0.4444400309999992  0.6559400109999984
  0.1111099999999965  0.8888900549999974  0.3440600110000034
  0.2222200129999976  0.7777800109999973  0.6559400109999984
  0.4444400280000025  0.8888900549999974  0.3440600110000034
  0.5555599770000015  0.7777800109999973  0.6559400109999984
  0.7777800129999974  0.8888900549999974  0.3440600110000034
  0.8888900469999967  0.7777800109999973  0.6559400109999984
 
  0.00000000E+00  0.00000000E+00  0.00000000E+00
  0.00000000E+00  0.00000000E+00  0.00000000E+00
  0.00000000E+00  0.00000000E+00  0.00000000E+00
  0.00000000E+00  0.00000000E+00  0.00000000E+00
  0.00000000E+00  0.00000000E+00  0.00000000E+00
  0.00000000E+00  0.00000000E+00  0.00000000E+00
  0.00000000E+00  0.00000000E+00  0.00000000E+00
  0.00000000E+00  0.00000000E+00  0.00000000E+00
  0.00000000E+00  0.00000000E+00  0.00000000E+00
  0.00000000E+00  0.00000000E+00  0.00000000E+00
  0.00000000E+00  0.00000000E+00  0.00000000E+00
  0.00000000E+00  0.00000000E+00  0.00000000E+00
  0.00000000E+00  0.00000000E+00  0.00000000E+00
  0.00000000E+00  0.00000000E+00  0.00000000E+00
  0.00000000E+00  0.00000000E+00  0.00000000E+00
  0.00000000E+00  0.00000000E+00  0.00000000E+00
  0.00000000E+00  0.00000000E+00  0.00000000E+00
  0.00000000E+00  0.00000000E+00  0.00000000E+00
  0.00000000E+00  0.00000000E+00  0.00000000E+00
  0.00000000E+00  0.00000000E+00  0.00000000E+00
  0.00000000E+00  0.00000000E+00  0.00000000E+00
  0.00000000E+00  0.00000000E+00  0.00000000E+00
  0.00000000E+00  0.00000000E+00  0.00000000E+00
  0.00000000E+00  0.00000000E+00  0.00000000E+00
  0.00000000E+00  0.00000000E+00  0.00000000E+00
  0.00000000E+00  0.00000000E+00  0.00000000E+00
  0.00000000E+00  0.00000000E+00  0.00000000E+00
  0.00000000E+00  0.00000000E+00  0.00000000E+00
  0.00000000E+00  0.00000000E+00  0.00000000E+00
  0.00000000E+00  0.00000000E+00  0.00000000E+00
  0.00000000E+00  0.00000000E+00  0.00000000E+00
  0.00000000E+00  0.00000000E+00  0.00000000E+00
  0.00000000E+00  0.00000000E+00  0.00000000E+00
  0.00000000E+00  0.00000000E+00  0.00000000E+00
  0.00000000E+00  0.00000000E+00  0.00000000E+00
  0.00000000E+00  0.00000000E+00  0.00000000E+00
