CONTCAR\(3)                             
   1.00000000000000     
    12.0100002288999992    0.0000000000000000    0.0000000000000000
     0.0000000000000000   13.6953001021999992    0.0000000000000000
     0.0000000000000000    0.0000000000000000   20.2971992493000002
   Hf   Te   O    H 
     6    30     2     1
Direct
  0.1667216077717115  0.0000621957819716  0.5513732302251112
  0.0002937257610511  0.5000524963606724  0.4548816821042342
  0.5000374276116414  0.0001249620122515  0.5515832654769265
  0.3331492185729983  0.4997809656905948  0.4544210595730337
  0.8333770842903383  0.0001934397696577  0.5513396233369751
  0.6661481686196257  0.5000594418544601  0.4547763076705120
 -0.0002126067887318  0.6833499819697325  0.5328498148247131
  0.1663318739702489  0.8163185318951389  0.4740435300584796
  0.1667763291797190  0.4998870683561736  0.5650099003898925
 -0.0000148117944586 -0.0001100766651455  0.4414381852894653
  0.1661884136459476  0.6015521526118716  0.3729285424170368
  0.9999378732022076  0.8987059768173140  0.6334114001977955
  0.0000421861007000  0.1019748124407627  0.6333751299337570
  0.1665009631385659  0.3986861918431779  0.3725303839815184
  0.0000315148920924  0.3163212287483270  0.5323198016334034
  0.1664710701337186  0.1833851897644968  0.4736298703243791
  0.3332094148117568  0.6832981451958673  0.5324046444393550
  0.4999058204482452  0.8164748151688213  0.4740048522283080
  0.4995426662069696  0.4999275064443052  0.5649685520649967
  0.3334395544730734  0.0001935355813164  0.4415240402654990
  0.4999114974793579  0.6010762654907271  0.3727602597486916
  0.3333345646424892  0.8985115405487232  0.6336049063688535
  0.3332783470586634  0.1017033653449310  0.6336357303574628
  0.4999391932958606  0.3981307208630989  0.3728430252181185
  0.3331875254693298  0.3164953828983589  0.5323782110833751
  0.4999192731245868  0.1834847396056843  0.4738799533076913
  0.6663573920145260  0.6834059062439666  0.5326396344407689
  0.8333753735208337  0.8162649212330108  0.4740142832007758
  0.8331247393389450  0.5001378915575951  0.5649731514046207
  0.6667093732817289 -0.0001137826452458  0.4415987335754449
  0.8332152923902202  0.6019942485854999  0.3730524329851430
  0.6669586538032783  0.8986721932227588  0.6335017167849658
  0.6667926461993018  0.1019144573788593  0.6334828666132354
  0.8332002102276971  0.3989568962510129  0.3726062142880645
  0.6664198037872739  0.3166318458792860  0.5324727348094968
  0.8331389136690872  0.1836588942134643  0.4737062947162239
  0.3351458911940132  0.5066321612899156  0.1885080165358337
  0.3343009049556048  0.4886520322397430  0.2549530480194852
  0.3337128972998007  0.5786316671568114  0.1853050401063701
 
  0.00000000E+00  0.00000000E+00  0.00000000E+00
  0.00000000E+00  0.00000000E+00  0.00000000E+00
  0.00000000E+00  0.00000000E+00  0.00000000E+00
  0.00000000E+00  0.00000000E+00  0.00000000E+00
  0.00000000E+00  0.00000000E+00  0.00000000E+00
  0.00000000E+00  0.00000000E+00  0.00000000E+00
  0.00000000E+00  0.00000000E+00  0.00000000E+00
  0.00000000E+00  0.00000000E+00  0.00000000E+00
  0.00000000E+00  0.00000000E+00  0.00000000E+00
  0.00000000E+00  0.00000000E+00  0.00000000E+00
  0.00000000E+00  0.00000000E+00  0.00000000E+00
  0.00000000E+00  0.00000000E+00  0.00000000E+00
  0.00000000E+00  0.00000000E+00  0.00000000E+00
  0.00000000E+00  0.00000000E+00  0.00000000E+00
  0.00000000E+00  0.00000000E+00  0.00000000E+00
  0.00000000E+00  0.00000000E+00  0.00000000E+00
  0.00000000E+00  0.00000000E+00  0.00000000E+00
  0.00000000E+00  0.00000000E+00  0.00000000E+00
  0.00000000E+00  0.00000000E+00  0.00000000E+00
  0.00000000E+00  0.00000000E+00  0.00000000E+00
  0.00000000E+00  0.00000000E+00  0.00000000E+00
  0.00000000E+00  0.00000000E+00  0.00000000E+00
  0.00000000E+00  0.00000000E+00  0.00000000E+00
  0.00000000E+00  0.00000000E+00  0.00000000E+00
  0.00000000E+00  0.00000000E+00  0.00000000E+00
  0.00000000E+00  0.00000000E+00  0.00000000E+00
  0.00000000E+00  0.00000000E+00  0.00000000E+00
  0.00000000E+00  0.00000000E+00  0.00000000E+00
  0.00000000E+00  0.00000000E+00  0.00000000E+00
  0.00000000E+00  0.00000000E+00  0.00000000E+00
  0.00000000E+00  0.00000000E+00  0.00000000E+00
  0.00000000E+00  0.00000000E+00  0.00000000E+00
  0.00000000E+00  0.00000000E+00  0.00000000E+00
  0.00000000E+00  0.00000000E+00  0.00000000E+00
  0.00000000E+00  0.00000000E+00  0.00000000E+00
  0.00000000E+00  0.00000000E+00  0.00000000E+00
  0.00000000E+00  0.00000000E+00  0.00000000E+00
  0.00000000E+00  0.00000000E+00  0.00000000E+00
  0.00000000E+00  0.00000000E+00  0.00000000E+00
