CONTCAR\(16)                            
   1.00000000000000     
    12.3274002075000002    0.0000000000000000    0.0000000000000000
     0.0000000000000000   15.7540998459000008    0.0000000000000000
     0.0000000000000000    0.0000000000000000   20.2700004577999984
   Pr   Br   O 
    12    30     1
Direct
  0.2494993576038169  0.6343430951057059  0.5071145748588890
  0.0834322180984373  0.3570233748943750  0.4728276977125390
  0.2546257933261629  0.1245105639764361  0.5310821180252248
  0.0835077437581546  0.8611257912212196  0.4650310060690970
  0.5832651352827440  0.6395540778812503  0.5097752392000388
  0.4192705361960591  0.3654154146310873  0.4631773363120146
  0.5832953091064326  0.1923486389063882  0.6832613647852668
  0.4196071723156578  0.8713973213358628  0.4710869618132350
  0.9171945542161311  0.6342533046832699  0.5071739406789249
  0.7475866200530135  0.3654269970666988  0.4631536971316237
  0.9120233654189818  0.1244333396465649  0.5308110503799526
  0.7471029028503153  0.8711383977735494  0.4711833832514785
  0.2522290985599298  0.8837577839630342  0.3669823355830815
  0.0831269405584081  0.1246465115119264  0.6290916596720706
  0.2475339078879770  0.4799837846849968  0.4087156443013953
  0.0833043005352749  0.5096254990051605  0.5657346869273567
  0.0834158845768087  0.0586156937381332  0.4395518191494432
  0.2430598111973623  0.9334456093300929  0.5622946945059653
  0.0834221916319180  0.7353969450563298  0.5821578303575237
  0.2531972029320428  0.2481430714195128  0.4036409082411225
  0.0832824076865606  0.6830050787780024  0.4059210398540216
  0.2640541599040276  0.3125716794493840  0.5714221241487110
  0.5834017194146313  0.8823439243354017  0.3677194312149723
  0.3763967636199652  0.1059245281220598  0.6521970034823426
  0.5834140270775876  0.4918421489165681  0.4090462021518846
  0.4171108067550335  0.5133613946690971  0.5632341981388436
  0.4248409591397646  0.0619669168145762  0.4478121933265200
  0.5833916909091172  0.9280553445370572  0.5667064434500517
  0.4112684856974695  0.7374589297574232  0.5843057469649011
  0.5833869926981805  0.2674743504132593  0.3890461917534580
  0.4163477113072958  0.6890932310256090  0.4093548090524521
  0.5833651276603788  0.3177543008503818  0.5651641802987797
  0.9144187922692879  0.8834640463198298  0.3671092235577476
  0.7896041039696371  0.1053091214720894  0.6514554703115110
  0.9194271721085698  0.4798517522095267  0.4085805721712603
  0.7495417595233320  0.5133041910732814  0.5632029245367391
  0.7416382667012087  0.0616947060060795  0.4477497203859997
  0.9238287813469341  0.9331018902586976  0.5622713505623906
  0.7553086515446239  0.7372336370636958  0.5844483268089533
  0.9136381472820432  0.2479462026764523  0.4037146499253055
  0.7503407077720183  0.6889092642604879  0.4094116821014993
  0.9027077296327519  0.3125101293075758  0.5713960780132084
  0.5830752798740022  0.2480976138518471  0.7677522758322226
 
  0.00000000E+00  0.00000000E+00  0.00000000E+00
  0.00000000E+00  0.00000000E+00  0.00000000E+00
  0.00000000E+00  0.00000000E+00  0.00000000E+00
  0.00000000E+00  0.00000000E+00  0.00000000E+00
  0.00000000E+00  0.00000000E+00  0.00000000E+00
  0.00000000E+00  0.00000000E+00  0.00000000E+00
  0.00000000E+00  0.00000000E+00  0.00000000E+00
  0.00000000E+00  0.00000000E+00  0.00000000E+00
  0.00000000E+00  0.00000000E+00  0.00000000E+00
  0.00000000E+00  0.00000000E+00  0.00000000E+00
  0.00000000E+00  0.00000000E+00  0.00000000E+00
  0.00000000E+00  0.00000000E+00  0.00000000E+00
  0.00000000E+00  0.00000000E+00  0.00000000E+00
  0.00000000E+00  0.00000000E+00  0.00000000E+00
  0.00000000E+00  0.00000000E+00  0.00000000E+00
  0.00000000E+00  0.00000000E+00  0.00000000E+00
  0.00000000E+00  0.00000000E+00  0.00000000E+00
  0.00000000E+00  0.00000000E+00  0.00000000E+00
  0.00000000E+00  0.00000000E+00  0.00000000E+00
  0.00000000E+00  0.00000000E+00  0.00000000E+00
  0.00000000E+00  0.00000000E+00  0.00000000E+00
  0.00000000E+00  0.00000000E+00  0.00000000E+00
  0.00000000E+00  0.00000000E+00  0.00000000E+00
  0.00000000E+00  0.00000000E+00  0.00000000E+00
  0.00000000E+00  0.00000000E+00  0.00000000E+00
  0.00000000E+00  0.00000000E+00  0.00000000E+00
  0.00000000E+00  0.00000000E+00  0.00000000E+00
  0.00000000E+00  0.00000000E+00  0.00000000E+00
  0.00000000E+00  0.00000000E+00  0.00000000E+00
  0.00000000E+00  0.00000000E+00  0.00000000E+00
  0.00000000E+00  0.00000000E+00  0.00000000E+00
  0.00000000E+00  0.00000000E+00  0.00000000E+00
  0.00000000E+00  0.00000000E+00  0.00000000E+00
  0.00000000E+00  0.00000000E+00  0.00000000E+00
  0.00000000E+00  0.00000000E+00  0.00000000E+00
  0.00000000E+00  0.00000000E+00  0.00000000E+00
  0.00000000E+00  0.00000000E+00  0.00000000E+00
  0.00000000E+00  0.00000000E+00  0.00000000E+00
  0.00000000E+00  0.00000000E+00  0.00000000E+00
  0.00000000E+00  0.00000000E+00  0.00000000E+00
  0.00000000E+00  0.00000000E+00  0.00000000E+00
  0.00000000E+00  0.00000000E+00  0.00000000E+00
  0.00000000E+00  0.00000000E+00  0.00000000E+00
