CONTCAR\(8)                             
   1.00000000000000     
    12.8318004608000003    0.0000000000000000    0.0000000000000000
     0.0000000000000000   12.8378000259000000    0.0000000000000000
     0.0000000000000000    0.0000000000000000   24.0013999939000016
   Nd   Te   Se   O    H 
    18    36    18     1     1
Selective dynamics
Direct
  0.1662991480623717  0.1670258885208895  0.5758070901490626   F   F   F
  0.9984039420913575  0.0000457649255310  0.4215327152190156   F   F   F
  0.5006433064699962  0.1611854981525269  0.5732991131369971   F   F   F
  0.3320287527912171  0.9997672871138334  0.4214596624880471   F   F   F
  0.8332621327347312  0.1668246437630643  0.5754426894355120   F   F   F
  0.6654576424731005  0.9993879165895407  0.4209794882737654   F   F   F
  0.1648551481827027  0.4994744551859256  0.5756894319210915   F   F   F
  0.9985582012362215  0.3332542897825235  0.4216827757687653   F   F   F
  0.4990547255161388  0.5066479837665412  0.5738730952562108   F   F   F
  0.3319188951841383  0.3334168776223407  0.4225328782938718   F   F   F
  0.8328997704808501  0.5000289726590452  0.5757226078248081   F   F   F
  0.6650808258604286  0.3337531143819632  0.4221039040435670   F   F   F
  0.1637710177218281  0.8332128442103368  0.5756398683488655   F   F   F
  0.9987565154206521  0.6667781311702328  0.4215649609499081   F   F   F
  0.4983679143794220  0.8341699042655293  0.5762824254232655   F   F   F
  0.3319358976408182  0.6672806478512143  0.4214532557663944   F   F   F
  0.8324897562471705  0.8334750931478609  0.5754971011366266   F   F   F
  0.6654649364979264  0.6666233164416013  0.4213344977417819   F   F   F
  0.1654117891220821  0.0000668612846084  0.3123901364541553   F   F   F
  0.0014056599980208  0.1709825254186796  0.6852876866509234   F   F   F
  0.9984840763954494  0.1664497898965394  0.3123967703729775   F   F   F
  0.1677949677703765  0.0004700857867874  0.6847186325829497   F   F   F
  0.4989909583661785  0.9998367910352499  0.3120478182351363   F   F   F
  0.3441080975437742  0.1709791243497421  0.6875393529403553   F   F   F
  0.3322516090058301  0.1666305652662103  0.3127960116925053   F   F   F
  0.5007073975270018  0.0039778296389130  0.6865988729066927   F   F   F
  0.8314933729616953  0.9999346437078742  0.3120664166669940   F   F   F
  0.6614037158328401  0.1707992778918950  0.6813871331137449   F   F   F
  0.6652992843113665  0.1670935908160800  0.3122371222089555   F   F   F
  0.8342487990856426  0.9993562787251733  0.6850507243666826   F   F   F
  0.1653810076786399  0.3329368653914884  0.3126874013975822   F   F   F
  0.9986173650824739  0.5036091667123443  0.6860918926073296   F   F   F
  0.9990636437144715  0.4997858973732647  0.3124550840290254   F   F   F
  0.1657162082384502  0.3324906923150905  0.6854739333935100   F   F   F
  0.4983304626434943  0.3336624347510622  0.3133539482741767   F   F   F
  0.3338148245221149  0.5008962518285429  0.6857512969885562   F   F   F
  0.3313036245330281  0.4999526396407461  0.3127360958696954   F   F   F
  0.4944928500982755  0.3416256420921471  0.7308264205523685   F   F   F
  0.8322088705942718  0.3334283568047240  0.3125760134914159   F   F   F
  0.6608654017689375  0.4948030984138541  0.6889478393503055   F   F   F
  0.6654823233823421  0.4999735327363481  0.3125202781243175   F   F   F
  0.8276488051158069  0.3351838229338995  0.6859471591423372   F   F   F
  0.1653597905122979  0.6669455578072743  0.3123562794033958   F   F   F
  0.9964851424882895  0.8387623006356506  0.6850142797046459   F   F   F
  0.9986177265089822  0.8335375074983773  0.3121943968535135   F   F   F
  0.1698772561326507  0.6634260316096459  0.6847298398867565   F   F   F
  0.4984437572157603  0.6663545010913765  0.3122027272712842   F   F   F
  0.3293540324502899  0.8355493894546768  0.6851885909987985   F   F   F
  0.3322955538304200  0.8333818887341522  0.3121481331628360   F   F   F
  0.5010688484406458  0.6701747228051218  0.6864082839220416   F   F   F
  0.8323634217088909  0.6665245003439253  0.3121361564467051   F   F   F
  0.6651139218295086  0.8317233667943640  0.6853064832262348   F   F   F
  0.6652928950983608  0.8328449715676740  0.3119469064237634   F   F   F
  0.8337448848884463  0.6648289750692555  0.6851798014688484   F   F   F
  0.1655312944615730  0.1673170069662291  0.4511979294576847   F   F   F
  0.9992801434884200  0.0013245598174834  0.5465467210423895   F   F   F
  0.4990236093854605  0.1654992779285323  0.4499540923201764   F   F   F
  0.3320152188099428  0.0005253314014126  0.5469861675303918   F   F   F
  0.8314416550485149  0.1670791370906741  0.4509831871170249   F   F   F
  0.6663411446263723  0.9987071090753687  0.5462017023341090   F   F   F
  0.1656058807696468  0.4996348949265936  0.4513110610194815   F   F   F
  0.9986057782830002  0.3338446441093623  0.5471184920123449   F   F   F
  0.4981646736224903  0.5015666331306079  0.4506235580780640   F   F   F
  0.3374993593990823  0.3334138003350304  0.5487828804885524   F   F   F
  0.8317619878924774  0.4998660364037022  0.4511960374825250   F   F   F
  0.6609150910893078  0.3350808796665063  0.5482057359200923   F   F   F
  0.1651431900229170  0.8335825401832366  0.4508833573808317   F   F   F
  0.9990347685648615  0.6665659544351357  0.5467535654837334   F   F   F
  0.4988980123872508  0.8333852694306216  0.4512678891552397   F   F   F
  0.3319529193618251  0.6677041414116189  0.5468450708283186   F   F   F
  0.8322839802421740  0.8331758410024221  0.4507264546495620   F   F   F
  0.6660077745258732  0.6663651930326182  0.5470743432691734   F   F   F
  0.4382169558900486  0.4138369817224401  0.8002004970329679   T   T   T
  0.4753457007406112  0.3847530681571527  0.8316532084942774   T   T   T
 
  0.00000000E+00  0.00000000E+00  0.00000000E+00
  0.00000000E+00  0.00000000E+00  0.00000000E+00
  0.00000000E+00  0.00000000E+00  0.00000000E+00
  0.00000000E+00  0.00000000E+00  0.00000000E+00
  0.00000000E+00  0.00000000E+00  0.00000000E+00
  0.00000000E+00  0.00000000E+00  0.00000000E+00
  0.00000000E+00  0.00000000E+00  0.00000000E+00
  0.00000000E+00  0.00000000E+00  0.00000000E+00
  0.00000000E+00  0.00000000E+00  0.00000000E+00
  0.00000000E+00  0.00000000E+00  0.00000000E+00
  0.00000000E+00  0.00000000E+00  0.00000000E+00
  0.00000000E+00  0.00000000E+00  0.00000000E+00
  0.00000000E+00  0.00000000E+00  0.00000000E+00
  0.00000000E+00  0.00000000E+00  0.00000000E+00
  0.00000000E+00  0.00000000E+00  0.00000000E+00
  0.00000000E+00  0.00000000E+00  0.00000000E+00
  0.00000000E+00  0.00000000E+00  0.00000000E+00
  0.00000000E+00  0.00000000E+00  0.00000000E+00
  0.00000000E+00  0.00000000E+00  0.00000000E+00
  0.00000000E+00  0.00000000E+00  0.00000000E+00
  0.00000000E+00  0.00000000E+00  0.00000000E+00
  0.00000000E+00  0.00000000E+00  0.00000000E+00
  0.00000000E+00  0.00000000E+00  0.00000000E+00
  0.00000000E+00  0.00000000E+00  0.00000000E+00
  0.00000000E+00  0.00000000E+00  0.00000000E+00
  0.00000000E+00  0.00000000E+00  0.00000000E+00
  0.00000000E+00  0.00000000E+00  0.00000000E+00
  0.00000000E+00  0.00000000E+00  0.00000000E+00
  0.00000000E+00  0.00000000E+00  0.00000000E+00
  0.00000000E+00  0.00000000E+00  0.00000000E+00
  0.00000000E+00  0.00000000E+00  0.00000000E+00
  0.00000000E+00  0.00000000E+00  0.00000000E+00
  0.00000000E+00  0.00000000E+00  0.00000000E+00
  0.00000000E+00  0.00000000E+00  0.00000000E+00
  0.00000000E+00  0.00000000E+00  0.00000000E+00
  0.00000000E+00  0.00000000E+00  0.00000000E+00
  0.00000000E+00  0.00000000E+00  0.00000000E+00
  0.00000000E+00  0.00000000E+00  0.00000000E+00
  0.00000000E+00  0.00000000E+00  0.00000000E+00
  0.00000000E+00  0.00000000E+00  0.00000000E+00
  0.00000000E+00  0.00000000E+00  0.00000000E+00
  0.00000000E+00  0.00000000E+00  0.00000000E+00
  0.00000000E+00  0.00000000E+00  0.00000000E+00
  0.00000000E+00  0.00000000E+00  0.00000000E+00
  0.00000000E+00  0.00000000E+00  0.00000000E+00
  0.00000000E+00  0.00000000E+00  0.00000000E+00
  0.00000000E+00  0.00000000E+00  0.00000000E+00
  0.00000000E+00  0.00000000E+00  0.00000000E+00
  0.00000000E+00  0.00000000E+00  0.00000000E+00
  0.00000000E+00  0.00000000E+00  0.00000000E+00
  0.00000000E+00  0.00000000E+00  0.00000000E+00
  0.00000000E+00  0.00000000E+00  0.00000000E+00
  0.00000000E+00  0.00000000E+00  0.00000000E+00
  0.00000000E+00  0.00000000E+00  0.00000000E+00
  0.00000000E+00  0.00000000E+00  0.00000000E+00
  0.00000000E+00  0.00000000E+00  0.00000000E+00
  0.00000000E+00  0.00000000E+00  0.00000000E+00
  0.00000000E+00  0.00000000E+00  0.00000000E+00
  0.00000000E+00  0.00000000E+00  0.00000000E+00
  0.00000000E+00  0.00000000E+00  0.00000000E+00
  0.00000000E+00  0.00000000E+00  0.00000000E+00
  0.00000000E+00  0.00000000E+00  0.00000000E+00
  0.00000000E+00  0.00000000E+00  0.00000000E+00
  0.00000000E+00  0.00000000E+00  0.00000000E+00
  0.00000000E+00  0.00000000E+00  0.00000000E+00
  0.00000000E+00  0.00000000E+00  0.00000000E+00
  0.00000000E+00  0.00000000E+00  0.00000000E+00
  0.00000000E+00  0.00000000E+00  0.00000000E+00
  0.00000000E+00  0.00000000E+00  0.00000000E+00
  0.00000000E+00  0.00000000E+00  0.00000000E+00
  0.00000000E+00  0.00000000E+00  0.00000000E+00
  0.00000000E+00  0.00000000E+00  0.00000000E+00
  0.00000000E+00  0.00000000E+00  0.00000000E+00
  0.00000000E+00  0.00000000E+00  0.00000000E+00
