CONTCAR\(14)                            
   1.00000000000000     
    12.6843996047999994    0.0000000000000000    0.0000000000000000
     0.0000000000000000   11.4939002990999999    0.0000000000000000
     0.0000000000000000    0.0000000000000000   18.8276996612999987
   Nb   Si   Te   O    H 
    12     4    24     1     1
Direct
  0.0757990021349060  0.0841796108910474  0.4977012751650772
  0.3271811133890128  0.9133775502769598  0.4981306606040035
  0.3425724643898849  0.2135423668526393  0.4980320161387422
  0.0921040973926502  0.7846404154903049  0.4982168267955263
  0.4785774102126427  0.5608471818035438  0.4983552325233040
  0.2286993706050705  0.4374720342196632  0.4983108086307747
  0.5762348968527727  0.0840531640460511  0.4980210686790514
  0.8266041079706273  0.9153401703560543  0.4978172721834495
  0.8420958866643877  0.2147672445742274  0.4978790891552561
  0.5903125731027182  0.7836080572815944  0.4988744445427998
  0.9788855163065030  0.5608258109487126  0.4979566108580210
  0.7272205421453283  0.4360221521425570  0.4992629936304265
  0.0325781658880859  0.3227183595240122  0.4978691699170825
  0.2818788397155446  0.6750966128256443  0.4983161739464015
  0.5311592937404808  0.3234054672236599  0.4980159893783119
  0.7838073960765456  0.6766312434234626  0.4905274924736976
  0.4178500051266957  0.0653767406946560  0.6010093105284081
  0.1679146445542782  0.9320369992467108  0.3951013073559266
  0.1675956194499971  0.9327913454710781  0.6005895257404826
  0.4177588164698722  0.0649034789451214  0.3949766724569552
  0.3927018291901787  0.4043631847108607  0.5984133291750428
  0.1431855134678555  0.5944731635557601  0.3984047146501057
  0.1420405126444979  0.5948029309833747  0.5978887160306647
  0.3927719533215890  0.4037247389463147  0.3983013561340119
  0.1717884013252476  0.2459945238142782  0.5950712982510374
  0.4211692888700171  0.7507009196900218  0.4008312545397164
  0.4193662894860152  0.7509082638822664  0.5964617599063184
  0.1717865369599681  0.2468654567804418  0.4007147100598682
  0.9180564197313413  0.0661100265029037  0.6005969877069915
  0.6667274662072220  0.9320187685183657  0.3955863427812857
  0.6683452934310702  0.9344287470248249  0.6005327854355705
  0.9173148479368320  0.0667003464308974  0.3946652494507447
  0.8938371222910447  0.4029563662873858  0.5979289716881847
  0.6414343160108710  0.5930684389336204  0.3957403172597062
  0.6434782716473164  0.5954360027130341  0.5938772332925475
  0.8925905151369313  0.4034588418850475  0.3985470775078405
  0.6713733715183157  0.2461853598703296  0.5954634921333325
  0.9221683964271199  0.7523584920752557  0.3993453493136092
  0.9197749478443921  0.7511753018828702  0.5940401788946447
  0.6707165747953220  0.2470933190221662  0.4005630829386398
  0.5872987819619644  0.5553682327528286  0.6939586951802057
  0.6332540116068767  0.5947523394994784  0.7281230939662211
 
  0.00000000E+00  0.00000000E+00  0.00000000E+00
  0.00000000E+00  0.00000000E+00  0.00000000E+00
  0.00000000E+00  0.00000000E+00  0.00000000E+00
  0.00000000E+00  0.00000000E+00  0.00000000E+00
  0.00000000E+00  0.00000000E+00  0.00000000E+00
  0.00000000E+00  0.00000000E+00  0.00000000E+00
  0.00000000E+00  0.00000000E+00  0.00000000E+00
  0.00000000E+00  0.00000000E+00  0.00000000E+00
  0.00000000E+00  0.00000000E+00  0.00000000E+00
  0.00000000E+00  0.00000000E+00  0.00000000E+00
  0.00000000E+00  0.00000000E+00  0.00000000E+00
  0.00000000E+00  0.00000000E+00  0.00000000E+00
  0.00000000E+00  0.00000000E+00  0.00000000E+00
  0.00000000E+00  0.00000000E+00  0.00000000E+00
  0.00000000E+00  0.00000000E+00  0.00000000E+00
  0.00000000E+00  0.00000000E+00  0.00000000E+00
  0.00000000E+00  0.00000000E+00  0.00000000E+00
  0.00000000E+00  0.00000000E+00  0.00000000E+00
  0.00000000E+00  0.00000000E+00  0.00000000E+00
  0.00000000E+00  0.00000000E+00  0.00000000E+00
  0.00000000E+00  0.00000000E+00  0.00000000E+00
  0.00000000E+00  0.00000000E+00  0.00000000E+00
  0.00000000E+00  0.00000000E+00  0.00000000E+00
  0.00000000E+00  0.00000000E+00  0.00000000E+00
  0.00000000E+00  0.00000000E+00  0.00000000E+00
  0.00000000E+00  0.00000000E+00  0.00000000E+00
  0.00000000E+00  0.00000000E+00  0.00000000E+00
  0.00000000E+00  0.00000000E+00  0.00000000E+00
  0.00000000E+00  0.00000000E+00  0.00000000E+00
  0.00000000E+00  0.00000000E+00  0.00000000E+00
  0.00000000E+00  0.00000000E+00  0.00000000E+00
  0.00000000E+00  0.00000000E+00  0.00000000E+00
  0.00000000E+00  0.00000000E+00  0.00000000E+00
  0.00000000E+00  0.00000000E+00  0.00000000E+00
  0.00000000E+00  0.00000000E+00  0.00000000E+00
  0.00000000E+00  0.00000000E+00  0.00000000E+00
  0.00000000E+00  0.00000000E+00  0.00000000E+00
  0.00000000E+00  0.00000000E+00  0.00000000E+00
  0.00000000E+00  0.00000000E+00  0.00000000E+00
  0.00000000E+00  0.00000000E+00  0.00000000E+00
  0.00000000E+00  0.00000000E+00  0.00000000E+00
  0.00000000E+00  0.00000000E+00  0.00000000E+00
