 Li4 Cu4 F10                            
   1.00000000000000     
     2.8092870468382571    0.0000000000000000    0.0000000000000000
     0.0000000000000000    7.3624983833968365    0.0000000000000000
     0.0000000000000000    0.0000000000000000   22.6672551092639978
   Li   Cu   F 
     4     4    10
Direct
  0.7499999980960368  0.1384806276763939  0.5197653682094341
  0.7500000018398367  0.8493442872615731  0.6077624614008315
  0.2499999974355731  0.1506369985433551  0.3922316438063405
  0.2500000008279386  0.8615546319685023  0.4802517966756668
  0.2499999965864816  0.5019622073037766  0.5666367969794095
  0.2500000029849687  0.1695768184532795  0.6588511033810960
  0.7500000006665033  0.8303696913274692  0.3411077796646396
  0.7500000004432295  0.4980823742559295  0.4333921047436391
  0.2499999952211240  0.3193461203689480  0.5076164566992745
  0.2500000003213003  0.9901757533095505  0.5558237325943551
  0.2500000016576251  0.6897371034509092  0.6202253884411348
  0.7499999990225845  0.3305289279010495  0.6279407842173228
  0.7500000058874505  0.9996926643281583  0.6792084397463540
  0.2500000033336960  0.0002332002589966  0.3207435028798358
  0.2499999971711659  0.6694570526665302  0.3720281740536464
  0.7499999969180067  0.3103000486196805  0.3798145831879083
  0.7500000016068782  0.0098263927363433  0.4441853910871529
  0.7499999999796074  0.6806950995695615  0.4924144922319655
 
  0.00000000E+00  0.00000000E+00  0.00000000E+00
  0.00000000E+00  0.00000000E+00  0.00000000E+00
  0.00000000E+00  0.00000000E+00  0.00000000E+00
  0.00000000E+00  0.00000000E+00  0.00000000E+00
  0.00000000E+00  0.00000000E+00  0.00000000E+00
  0.00000000E+00  0.00000000E+00  0.00000000E+00
  0.00000000E+00  0.00000000E+00  0.00000000E+00
  0.00000000E+00  0.00000000E+00  0.00000000E+00
  0.00000000E+00  0.00000000E+00  0.00000000E+00
  0.00000000E+00  0.00000000E+00  0.00000000E+00
  0.00000000E+00  0.00000000E+00  0.00000000E+00
  0.00000000E+00  0.00000000E+00  0.00000000E+00
  0.00000000E+00  0.00000000E+00  0.00000000E+00
  0.00000000E+00  0.00000000E+00  0.00000000E+00
  0.00000000E+00  0.00000000E+00  0.00000000E+00
  0.00000000E+00  0.00000000E+00  0.00000000E+00
  0.00000000E+00  0.00000000E+00  0.00000000E+00
  0.00000000E+00  0.00000000E+00  0.00000000E+00
