CONTCAR\(3)                             
   1.00000000000000     
    11.7227001190000006    0.0000000000000000    0.0000000000000000
     1.9537737858999999   10.6868737691000000    0.0000000000000000
     0.0000000000000000    0.0000000000000000   24.3673000335999994
   Y    C    I 
    18     6    21
Direct
  0.2783164589581262  0.3299891037077800  0.6359229492271513
  0.2563632768443210  0.4618847413150251  0.4447108527459648
  0.2060630761233984  0.7639129213153669  0.4760204768286239
  0.1272705619199721  0.2360933615954051  0.5239792060768170
  0.0769768293654635  0.5381010850252226  0.5552853733550049
  0.0550156976801551  0.6700063245516787  0.3640636746244959
  0.6116464439581252  0.3299891037077800  0.6359229492271513
  0.5896932818443216  0.4618847413150251  0.4447108527459648
  0.5393931011233934  0.7639129213153669  0.4760204768286239
  0.4606005669199726  0.2360933615954051  0.5239792060768170
  0.4103068133654658  0.5381010850252226  0.5552853733550049
  0.3883457126801564  0.6700063245516787  0.3640636746244959
  0.9449864749581239  0.3299891037077800  0.6359229492271513
  0.9230233068443167  0.4618847413150251  0.4447108527459648
  0.8727330511233962  0.7639129213153669  0.4760204768286239
  0.7939305509199679  0.2360933615954051  0.5239792060768170
  0.7436367983654647  0.5381010850252226  0.5552853733550049
  0.7216856626801521  0.6700063245516787  0.3640636746244959
  0.2703574176522777  0.3780493477720353  0.5420252745176942
  0.0629776015837165  0.6219457936141126  0.4579785604169661
  0.6036874226522712  0.3780493477720353  0.5420252745176942
  0.3963075855837117  0.6219457936141126  0.4579785604169661
  0.9370274536522770  0.3780493477720353  0.5420252745176942
  0.7296375695837141  0.6219457936141126  0.4579785604169661
  0.1853810199456312  0.8881267376794959  0.3572637956873493
  0.1479472173392667  0.1118720330697545  0.6427361465881418
  0.2090322541268292  0.7463164219277502  0.5985618797476963
  0.1243113651487944  0.2536749493970173  0.4014388177174238
 -0.0000004567908289  0.9999976401962225  0.5000007303305039
  0.2506834358827845  0.4970797321615451  0.3075836735236382
  0.0826342542201040  0.5029295566715896  0.6924184906125243
  0.5187210109456337  0.8881267376794959  0.3572637956873493
  0.4812772113392699  0.1118720330697545  0.6427361465881418
  0.5423722651268333  0.7463164219277502  0.5985618797476963
  0.4576513361487953  0.2536749493970173  0.4014388177174238
  0.3333295482091646  0.9999976401962225  0.5000007303305039
  0.5840233658827856  0.4970797321615451  0.3075836735236382
  0.4159742452201065  0.5029295566715896  0.6924184906125243
  0.8520510759456321  0.8881267376794959  0.3572637956873493
  0.8146172023392725  0.1118720330697545  0.6427361465881418
  0.8757022091268324  0.7463164219277502  0.5985618797476963
  0.7909812791487907  0.2536749493970173  0.4014388177174238
  0.6666695382091705  0.9999976401962225  0.5000007303305039
  0.9173533908827807  0.4970797321615451  0.3075836735236382
  0.7493042292201089  0.5029295566715896  0.6924184906125243
 
  0.00000000E+00  0.00000000E+00  0.00000000E+00
  0.00000000E+00  0.00000000E+00  0.00000000E+00
  0.00000000E+00  0.00000000E+00  0.00000000E+00
  0.00000000E+00  0.00000000E+00  0.00000000E+00
  0.00000000E+00  0.00000000E+00  0.00000000E+00
  0.00000000E+00  0.00000000E+00  0.00000000E+00
  0.00000000E+00  0.00000000E+00  0.00000000E+00
  0.00000000E+00  0.00000000E+00  0.00000000E+00
  0.00000000E+00  0.00000000E+00  0.00000000E+00
  0.00000000E+00  0.00000000E+00  0.00000000E+00
  0.00000000E+00  0.00000000E+00  0.00000000E+00
  0.00000000E+00  0.00000000E+00  0.00000000E+00
  0.00000000E+00  0.00000000E+00  0.00000000E+00
  0.00000000E+00  0.00000000E+00  0.00000000E+00
  0.00000000E+00  0.00000000E+00  0.00000000E+00
  0.00000000E+00  0.00000000E+00  0.00000000E+00
  0.00000000E+00  0.00000000E+00  0.00000000E+00
  0.00000000E+00  0.00000000E+00  0.00000000E+00
  0.00000000E+00  0.00000000E+00  0.00000000E+00
  0.00000000E+00  0.00000000E+00  0.00000000E+00
  0.00000000E+00  0.00000000E+00  0.00000000E+00
  0.00000000E+00  0.00000000E+00  0.00000000E+00
  0.00000000E+00  0.00000000E+00  0.00000000E+00
  0.00000000E+00  0.00000000E+00  0.00000000E+00
  0.00000000E+00  0.00000000E+00  0.00000000E+00
  0.00000000E+00  0.00000000E+00  0.00000000E+00
  0.00000000E+00  0.00000000E+00  0.00000000E+00
  0.00000000E+00  0.00000000E+00  0.00000000E+00
  0.00000000E+00  0.00000000E+00  0.00000000E+00
  0.00000000E+00  0.00000000E+00  0.00000000E+00
  0.00000000E+00  0.00000000E+00  0.00000000E+00
  0.00000000E+00  0.00000000E+00  0.00000000E+00
  0.00000000E+00  0.00000000E+00  0.00000000E+00
  0.00000000E+00  0.00000000E+00  0.00000000E+00
  0.00000000E+00  0.00000000E+00  0.00000000E+00
  0.00000000E+00  0.00000000E+00  0.00000000E+00
  0.00000000E+00  0.00000000E+00  0.00000000E+00
  0.00000000E+00  0.00000000E+00  0.00000000E+00
  0.00000000E+00  0.00000000E+00  0.00000000E+00
  0.00000000E+00  0.00000000E+00  0.00000000E+00
  0.00000000E+00  0.00000000E+00  0.00000000E+00
  0.00000000E+00  0.00000000E+00  0.00000000E+00
  0.00000000E+00  0.00000000E+00  0.00000000E+00
  0.00000000E+00  0.00000000E+00  0.00000000E+00
  0.00000000E+00  0.00000000E+00  0.00000000E+00
