CONTCAR\(6)                             
   1.00000000000000     
    12.0100002288999992    0.0000000000000000    0.0000000000000000
     0.0000000000000000   13.6953001021999992    0.0000000000000000
     0.0000000000000000    0.0000000000000000   20.2971992493000002
   Hf   Te   O 
     6    30     1
Selective dynamics
Direct
  0.1645602778360242  0.9998710169694220  0.5470050561828543   F   F   F
  0.9984040160560923  0.4999612337172081  0.4486199733975340   F   F   F
  0.4982559997949139  0.0001344056463566  0.5491564109703120   F   F   F
  0.3388452678083738  0.5000425356144191  0.4427538128197952   F   F   F
  0.8309795988115525  0.0001535446528180  0.5466540736239978   F   F   F
  0.6615916515348843  0.5005038575426894  0.4466342074641076   F   F   F
  0.9972738098391432  0.6835965176633820  0.5266928620531957   F   F   F
  0.1649767909561746  0.8157031769580101  0.4695102390729460   F   F   F
  0.1647727593973940  0.4994059429374502  0.5574363582507615   F   F   F
  0.9981985549407284  0.9992856802924166  0.4368959951120104   F   F   F
  0.1634509794844305  0.6014899926212181  0.3654002739825160   F   F   F
  0.9974253753512698  0.8985870650382068  0.6287693318868719   F   F   F
  0.9976158964687087  0.1021011794989946  0.6282960891470850   F   F   F
  0.1635118339992943  0.3984511676873765  0.3653277971866657   F   F   F
  0.9966915110165075  0.3157425092842061  0.5260640639133669   F   F   F
  0.1647582227756104  0.1834732832776282  0.4689738405137120   F   F   F
  0.3285925071439806  0.6779151976260280  0.5291267240850104   F   F   F
  0.4959483775914748  0.8149739473688911  0.4737246373850468   F   F   F
  0.4974125380702574  0.4994629831495985  0.5593697104797570   F   F   F
  0.3327000211380806  0.9996786851860051  0.4383803085732083   F   F   F
  0.5027278413698966  0.6233575892529615  0.3735327928710248   F   F   F
  0.3302846506817474  0.8987585117745880  0.6302810249874469   F   F   F
  0.3303681056794545  0.1019901682161688  0.6299639891986928   F   F   F
  0.5039518272497219  0.3784070244995021  0.3728287453994668   F   F   F
  0.3285966547173516  0.3212684314626699  0.5280905887700911   F   F   F
  0.4953621733365168  0.1836933620841563  0.4724116194697459   F   F   F
  0.6653551202078631  0.6811694343452430  0.5291764316437266   F   F   F
  0.8299471294440153  0.8170999895530215  0.4688039374827966   F   F   F
  0.8297831818617993  0.4995978065850437  0.5572014915921031   F   F   F
  0.6631507936700061  0.9995708888559705  0.4380879034687553   F   F   F
  0.8321455598202192  0.6019706510265976  0.3661779879816009   F   F   F
  0.6653757432502019  0.8990762498685427  0.6303849523930438   F   F   F
  0.6654873717478438  0.1024103363151667  0.6298570245195592   F   F   F
  0.8320053480619620  0.3994921372455735  0.3656377219347391   F   F   F
  0.6644875741565102  0.3181830794611358  0.5275387014425021   F   F   F
  0.8296847982590165  0.1824239944094614  0.4677602811528061   F   F   F
  0.4086001214709896  0.5004063873118554  0.3420140543741099   T   T   T
 
  0.00000000E+00  0.00000000E+00  0.00000000E+00
  0.00000000E+00  0.00000000E+00  0.00000000E+00
  0.00000000E+00  0.00000000E+00  0.00000000E+00
  0.00000000E+00  0.00000000E+00  0.00000000E+00
  0.00000000E+00  0.00000000E+00  0.00000000E+00
  0.00000000E+00  0.00000000E+00  0.00000000E+00
  0.00000000E+00  0.00000000E+00  0.00000000E+00
  0.00000000E+00  0.00000000E+00  0.00000000E+00
  0.00000000E+00  0.00000000E+00  0.00000000E+00
  0.00000000E+00  0.00000000E+00  0.00000000E+00
  0.00000000E+00  0.00000000E+00  0.00000000E+00
  0.00000000E+00  0.00000000E+00  0.00000000E+00
  0.00000000E+00  0.00000000E+00  0.00000000E+00
  0.00000000E+00  0.00000000E+00  0.00000000E+00
  0.00000000E+00  0.00000000E+00  0.00000000E+00
  0.00000000E+00  0.00000000E+00  0.00000000E+00
  0.00000000E+00  0.00000000E+00  0.00000000E+00
  0.00000000E+00  0.00000000E+00  0.00000000E+00
  0.00000000E+00  0.00000000E+00  0.00000000E+00
  0.00000000E+00  0.00000000E+00  0.00000000E+00
  0.00000000E+00  0.00000000E+00  0.00000000E+00
  0.00000000E+00  0.00000000E+00  0.00000000E+00
  0.00000000E+00  0.00000000E+00  0.00000000E+00
  0.00000000E+00  0.00000000E+00  0.00000000E+00
  0.00000000E+00  0.00000000E+00  0.00000000E+00
  0.00000000E+00  0.00000000E+00  0.00000000E+00
  0.00000000E+00  0.00000000E+00  0.00000000E+00
  0.00000000E+00  0.00000000E+00  0.00000000E+00
  0.00000000E+00  0.00000000E+00  0.00000000E+00
  0.00000000E+00  0.00000000E+00  0.00000000E+00
  0.00000000E+00  0.00000000E+00  0.00000000E+00
  0.00000000E+00  0.00000000E+00  0.00000000E+00
  0.00000000E+00  0.00000000E+00  0.00000000E+00
  0.00000000E+00  0.00000000E+00  0.00000000E+00
  0.00000000E+00  0.00000000E+00  0.00000000E+00
  0.00000000E+00  0.00000000E+00  0.00000000E+00
  0.00000000E+00  0.00000000E+00  0.00000000E+00
