CONTCAR\(21)                            
   1.00000000000000     
    13.2600002288999992    0.0000000000000000    0.0000000000000000
    -6.6300199930000003   11.4834855754999996    0.0000000000000000
     0.0000000000000000    0.0000000000000000   20.2117004394999995
   Na   Zr   N 
    32    16    32
Direct
  0.1666699940000029  0.0833299929999995  0.3729600120000001
  0.0833299969999999  0.1666699940000029  0.6270400120000019
  0.4166699940000029  0.0833299929999995  0.3729600120000001
  0.3333299969999999  0.1666699940000029  0.6270400120000019
  0.6666700299999988  0.0833299929999995  0.3729600120000001
  0.5833299969999999  0.1666699940000029  0.6270400120000019
  0.9166699940000029  0.0833299929999995  0.3729600120000001
  0.8333299609999969  0.1666699940000029  0.6270400120000019
  0.1666699949999995  0.3333300010000002  0.3729600120000001
  0.0833299860000025  0.4166699960000031  0.6270400120000019
  0.4166700130000009  0.3333300010000002  0.3729600120000001
  0.3333299769999982  0.4166699960000031  0.6270400120000019
  0.6666700310000024  0.3333300010000002  0.3729600120000001
  0.5833299949999997  0.4166699960000031  0.6270400120000019
  0.9166699949999995  0.3333300010000002  0.3729600120000001
  0.8333299589999967  0.4166699960000031  0.6270400120000019
  0.1666699780000016  0.5833299729999979  0.3729600120000001
  0.0833299629999971  0.6666700099999971  0.6270400120000019
  0.4166699960000031  0.5833299729999979  0.3729600120000001
  0.3333299629999971  0.6666700099999971  0.6270400120000019
  0.6666700139999975  0.5833299729999979  0.3729600120000001
  0.5833299629999971  0.6666700099999971  0.6270400120000019
  0.9166699780000016  0.5833299729999979  0.3729600120000001
  0.8333299270000012  0.6666700099999971  0.6270400120000019
  0.1666699789999981  0.8333299439999990  0.3729600120000001
  0.0833299459999992  0.9166699809999983  0.6270400120000019
  0.4166699969999996  0.8333299439999990  0.3729600120000001
  0.3333299459999992  0.9166699809999983  0.6270400120000019
  0.6666700330000026  0.8333299439999990  0.3729600120000001
  0.5833299459999992  0.9166699809999983  0.6270400120000019
  0.9166699969999996  0.8333299439999990  0.3729600120000001
  0.8333299100000033  0.9166699809999983  0.6270400120000019
  0.0000000000000000  0.0000000000000000  0.5000000000000000
  0.2500000000000000  0.0000000000000000  0.5000000000000000
  0.5000000000000000  0.0000000000000000  0.5000000000000000
  0.7499999639999970  0.0000000000000000  0.5000000000000000
  0.9999999930000030  0.2499999919999993  0.5000000000000000
  0.2499999930000030  0.2499999919999993  0.5000000000000000
  0.4999999930000030  0.2499999919999993  0.5000000000000000
  0.7499999570000000  0.2499999919999993  0.5000000000000000
  0.9999999870000025  0.4999999850000023  0.5000000000000000
  0.2499999870000025  0.4999999850000023  0.5000000000000000
  0.4999999870000025  0.4999999850000023  0.5000000000000000
  0.7499999509999995  0.4999999850000023  0.5000000000000000
  0.9999999699999975  0.7499999560000035  0.5000000000000000
  0.2499999699999975  0.7499999560000035  0.5000000000000000
  0.4999999699999975  0.7499999560000035  0.5000000000000000
  0.7499999340000016  0.7499999560000035  0.5000000000000000
  0.1666699940000029  0.0833299929999995  0.5578200280000019
  0.0833299969999999  0.1666699940000029  0.4421800189999985
  0.4166699940000029  0.0833299929999995  0.5578200280000019
  0.3333299969999999  0.1666699940000029  0.4421800189999985
  0.6666700299999988  0.0833299929999995  0.5578200280000019
  0.5833299969999999  0.1666699940000029  0.4421800189999985
  0.9166699940000029  0.0833299929999995  0.5578200280000019
  0.8333299609999969  0.1666699940000029  0.4421800189999985
  0.1666699949999995  0.3333300010000002  0.5578200280000019
  0.0833299860000025  0.4166699960000031  0.4421800189999985
  0.4166700130000009  0.3333300010000002  0.5578200280000019
  0.3333299769999982  0.4166699960000031  0.4421800189999985
  0.6666700310000024  0.3333300010000002  0.5578200280000019
  0.5833299949999997  0.4166699960000031  0.4421800189999985
  0.9166699949999995  0.3333300010000002  0.5578200280000019
  0.8333299589999967  0.4166699960000031  0.4421800189999985
  0.1666699780000016  0.5833299729999979  0.5578200280000019
  0.0833299629999971  0.6666700099999971  0.4421800189999985
  0.4166699960000031  0.5833299729999979  0.5578200280000019
  0.3333299629999971  0.6666700099999971  0.4421800189999985
  0.6666700139999975  0.5833299729999979  0.5578200280000019
  0.5833299629999971  0.6666700099999971  0.4421800189999985
  0.9166699780000016  0.5833299729999979  0.5578200280000019
  0.8333299270000012  0.6666700099999971  0.4421800189999985
  0.1666699789999981  0.8333299439999990  0.5578200280000019
  0.0833299459999992  0.9166699809999983  0.4421800189999985
  0.4166699969999996  0.8333299439999990  0.5578200280000019
  0.3333299459999992  0.9166699809999983  0.4421800189999985
  0.6666700330000026  0.8333299439999990  0.5578200280000019
  0.5833299459999992  0.9166699809999983  0.4421800189999985
  0.9166699969999996  0.8333299439999990  0.5578200280000019
  0.8333299100000033  0.9166699809999983  0.4421800189999985
 
  0.00000000E+00  0.00000000E+00  0.00000000E+00
  0.00000000E+00  0.00000000E+00  0.00000000E+00
  0.00000000E+00  0.00000000E+00  0.00000000E+00
  0.00000000E+00  0.00000000E+00  0.00000000E+00
  0.00000000E+00  0.00000000E+00  0.00000000E+00
  0.00000000E+00  0.00000000E+00  0.00000000E+00
  0.00000000E+00  0.00000000E+00  0.00000000E+00
  0.00000000E+00  0.00000000E+00  0.00000000E+00
  0.00000000E+00  0.00000000E+00  0.00000000E+00
  0.00000000E+00  0.00000000E+00  0.00000000E+00
  0.00000000E+00  0.00000000E+00  0.00000000E+00
  0.00000000E+00  0.00000000E+00  0.00000000E+00
  0.00000000E+00  0.00000000E+00  0.00000000E+00
  0.00000000E+00  0.00000000E+00  0.00000000E+00
  0.00000000E+00  0.00000000E+00  0.00000000E+00
  0.00000000E+00  0.00000000E+00  0.00000000E+00
  0.00000000E+00  0.00000000E+00  0.00000000E+00
  0.00000000E+00  0.00000000E+00  0.00000000E+00
  0.00000000E+00  0.00000000E+00  0.00000000E+00
  0.00000000E+00  0.00000000E+00  0.00000000E+00
  0.00000000E+00  0.00000000E+00  0.00000000E+00
  0.00000000E+00  0.00000000E+00  0.00000000E+00
  0.00000000E+00  0.00000000E+00  0.00000000E+00
  0.00000000E+00  0.00000000E+00  0.00000000E+00
  0.00000000E+00  0.00000000E+00  0.00000000E+00
  0.00000000E+00  0.00000000E+00  0.00000000E+00
  0.00000000E+00  0.00000000E+00  0.00000000E+00
  0.00000000E+00  0.00000000E+00  0.00000000E+00
  0.00000000E+00  0.00000000E+00  0.00000000E+00
  0.00000000E+00  0.00000000E+00  0.00000000E+00
  0.00000000E+00  0.00000000E+00  0.00000000E+00
  0.00000000E+00  0.00000000E+00  0.00000000E+00
  0.00000000E+00  0.00000000E+00  0.00000000E+00
  0.00000000E+00  0.00000000E+00  0.00000000E+00
  0.00000000E+00  0.00000000E+00  0.00000000E+00
  0.00000000E+00  0.00000000E+00  0.00000000E+00
  0.00000000E+00  0.00000000E+00  0.00000000E+00
  0.00000000E+00  0.00000000E+00  0.00000000E+00
  0.00000000E+00  0.00000000E+00  0.00000000E+00
  0.00000000E+00  0.00000000E+00  0.00000000E+00
  0.00000000E+00  0.00000000E+00  0.00000000E+00
  0.00000000E+00  0.00000000E+00  0.00000000E+00
  0.00000000E+00  0.00000000E+00  0.00000000E+00
  0.00000000E+00  0.00000000E+00  0.00000000E+00
  0.00000000E+00  0.00000000E+00  0.00000000E+00
  0.00000000E+00  0.00000000E+00  0.00000000E+00
  0.00000000E+00  0.00000000E+00  0.00000000E+00
  0.00000000E+00  0.00000000E+00  0.00000000E+00
  0.00000000E+00  0.00000000E+00  0.00000000E+00
  0.00000000E+00  0.00000000E+00  0.00000000E+00
  0.00000000E+00  0.00000000E+00  0.00000000E+00
  0.00000000E+00  0.00000000E+00  0.00000000E+00
  0.00000000E+00  0.00000000E+00  0.00000000E+00
  0.00000000E+00  0.00000000E+00  0.00000000E+00
  0.00000000E+00  0.00000000E+00  0.00000000E+00
  0.00000000E+00  0.00000000E+00  0.00000000E+00
  0.00000000E+00  0.00000000E+00  0.00000000E+00
  0.00000000E+00  0.00000000E+00  0.00000000E+00
  0.00000000E+00  0.00000000E+00  0.00000000E+00
  0.00000000E+00  0.00000000E+00  0.00000000E+00
  0.00000000E+00  0.00000000E+00  0.00000000E+00
  0.00000000E+00  0.00000000E+00  0.00000000E+00
  0.00000000E+00  0.00000000E+00  0.00000000E+00
  0.00000000E+00  0.00000000E+00  0.00000000E+00
  0.00000000E+00  0.00000000E+00  0.00000000E+00
  0.00000000E+00  0.00000000E+00  0.00000000E+00
  0.00000000E+00  0.00000000E+00  0.00000000E+00
  0.00000000E+00  0.00000000E+00  0.00000000E+00
  0.00000000E+00  0.00000000E+00  0.00000000E+00
  0.00000000E+00  0.00000000E+00  0.00000000E+00
  0.00000000E+00  0.00000000E+00  0.00000000E+00
  0.00000000E+00  0.00000000E+00  0.00000000E+00
  0.00000000E+00  0.00000000E+00  0.00000000E+00
  0.00000000E+00  0.00000000E+00  0.00000000E+00
  0.00000000E+00  0.00000000E+00  0.00000000E+00
  0.00000000E+00  0.00000000E+00  0.00000000E+00
  0.00000000E+00  0.00000000E+00  0.00000000E+00
  0.00000000E+00  0.00000000E+00  0.00000000E+00
  0.00000000E+00  0.00000000E+00  0.00000000E+00
  0.00000000E+00  0.00000000E+00  0.00000000E+00
