CONTCAR\(5)                             
   1.00000000000000     
    10.6176996231000000    0.0000000000000000    0.0000000000000000
     0.0000000000000000   17.6849002838000011    0.0000000000000000
     0.0000000000000000    0.0000000000000000   18.8054008484000015
   K    Fe   Se   O    H 
     8    16    24     1     1
Direct
  0.3723952874167310  0.2535103891580380  0.4080303929865874
  0.1216528879882505  0.2467223724679345  0.5920376082282442
  0.8712093848028926  0.2547311859121308  0.4127866188309409
  0.6281026170751556  0.2473566716118251  0.5964915332459478
  0.3727695951623596  0.7449018319650258  0.4079616283940490
  0.1184556741998146  0.7526476255442837  0.5958644822773580
  0.8755390553405701  0.7439156680071175  0.4124197934966973
  0.6326543733578162  0.7532918117608312  0.5985514727332865
  0.2491424244961481  0.0724240960744841  0.4965728098730104
 -0.0026599968193532  0.0723739487726233  0.4960865361367457
  0.2482725462196716  0.9271365373429031  0.4978150665772035
 -0.0017124383308657  0.9269154347079315  0.4974030261371616
  0.7473517092682226  0.0715299081307531  0.4965231574433024
  0.4991664331973188  0.0712010722404750  0.4972167986101154
  0.7477763601259364  0.9266461617435017  0.4982776301848112
  0.4982348899643296  0.9266128419338669  0.4988739117191002
  0.2479422297722698  0.5750469353764259  0.5113271163286436
 -0.0059286530774313  0.5721699671369201  0.5007079823527193
  0.2487719946795311  0.4246329688653575  0.5037613805494675
 -0.0086888914271745  0.4245757888540940  0.5006078660251382
  0.7581927291163379  0.5734173714448926  0.5024791813977577
  0.5051981618493396  0.5748946907501290  0.5156101268075363
  0.7566287679122561  0.4247644502806871  0.5038093611953474
  0.4993070155034102  0.4320845880938131  0.5149522794756762
  0.3752499862951835 -0.0021855127493877  0.4230468913158816
  0.1227461304433334 -0.0013320246660953  0.5727038938003534
  0.3769057368979866  0.1408786174440938  0.5707556662010786
  0.1226144573516748  0.1449734375724986  0.4237851775719224
  0.1233438405232717  0.8555486970565960  0.4279662403994490
  0.3725173529837284  0.8604236774438744  0.5709189002073959
  0.8714802295471826 -0.0022325151104057  0.4229846227713970
  0.6233654859727973 -0.0006368257878269  0.5721058944194085
  0.8709907371149000  0.1402744074157855  0.5715811724852544
  0.6223350974865474  0.1443554799063460  0.4270508125267012
  0.6230621978406193  0.8540356110337596  0.4297384668005149
  0.8739481072034178  0.8603333839628581  0.5714251280052651
  0.3843079987857245  0.4966895305734275  0.4255912109717405
  0.1083741559077519  0.4968309063510076  0.5832600618916391
  0.3763702456949642  0.6711809508474411  0.5719087100550789
  0.1271104036558901  0.6344043271018373  0.4216536242610058
  0.1233210652899478  0.3633844655067320  0.4205843630961764
  0.3774515292699597  0.3395068487065502  0.5704816135368733
  0.8693084862473073  0.4984227914696187  0.4182165087269679
  0.6512036536321721  0.4990881906351734  0.5865893319403125
  0.8774301248515377  0.6482730765081511  0.5806338209485941
  0.6213318225889853  0.6379424030710504  0.4287611298006621
  0.6123689570320989  0.3650250632087456  0.4312784676030369
  0.8756403634473331  0.3489345504858415  0.5806482863612219
  0.3899241462044969  0.5055440309407513  0.5733975526647480
  0.3971236459376611  0.5065118968955418  0.6253844436304600
 
  0.00000000E+00  0.00000000E+00  0.00000000E+00
  0.00000000E+00  0.00000000E+00  0.00000000E+00
  0.00000000E+00  0.00000000E+00  0.00000000E+00
  0.00000000E+00  0.00000000E+00  0.00000000E+00
  0.00000000E+00  0.00000000E+00  0.00000000E+00
  0.00000000E+00  0.00000000E+00  0.00000000E+00
  0.00000000E+00  0.00000000E+00  0.00000000E+00
  0.00000000E+00  0.00000000E+00  0.00000000E+00
  0.00000000E+00  0.00000000E+00  0.00000000E+00
  0.00000000E+00  0.00000000E+00  0.00000000E+00
  0.00000000E+00  0.00000000E+00  0.00000000E+00
  0.00000000E+00  0.00000000E+00  0.00000000E+00
  0.00000000E+00  0.00000000E+00  0.00000000E+00
  0.00000000E+00  0.00000000E+00  0.00000000E+00
  0.00000000E+00  0.00000000E+00  0.00000000E+00
  0.00000000E+00  0.00000000E+00  0.00000000E+00
  0.00000000E+00  0.00000000E+00  0.00000000E+00
  0.00000000E+00  0.00000000E+00  0.00000000E+00
  0.00000000E+00  0.00000000E+00  0.00000000E+00
  0.00000000E+00  0.00000000E+00  0.00000000E+00
  0.00000000E+00  0.00000000E+00  0.00000000E+00
  0.00000000E+00  0.00000000E+00  0.00000000E+00
  0.00000000E+00  0.00000000E+00  0.00000000E+00
  0.00000000E+00  0.00000000E+00  0.00000000E+00
  0.00000000E+00  0.00000000E+00  0.00000000E+00
  0.00000000E+00  0.00000000E+00  0.00000000E+00
  0.00000000E+00  0.00000000E+00  0.00000000E+00
  0.00000000E+00  0.00000000E+00  0.00000000E+00
  0.00000000E+00  0.00000000E+00  0.00000000E+00
  0.00000000E+00  0.00000000E+00  0.00000000E+00
  0.00000000E+00  0.00000000E+00  0.00000000E+00
  0.00000000E+00  0.00000000E+00  0.00000000E+00
  0.00000000E+00  0.00000000E+00  0.00000000E+00
  0.00000000E+00  0.00000000E+00  0.00000000E+00
  0.00000000E+00  0.00000000E+00  0.00000000E+00
  0.00000000E+00  0.00000000E+00  0.00000000E+00
  0.00000000E+00  0.00000000E+00  0.00000000E+00
  0.00000000E+00  0.00000000E+00  0.00000000E+00
  0.00000000E+00  0.00000000E+00  0.00000000E+00
  0.00000000E+00  0.00000000E+00  0.00000000E+00
  0.00000000E+00  0.00000000E+00  0.00000000E+00
  0.00000000E+00  0.00000000E+00  0.00000000E+00
  0.00000000E+00  0.00000000E+00  0.00000000E+00
  0.00000000E+00  0.00000000E+00  0.00000000E+00
  0.00000000E+00  0.00000000E+00  0.00000000E+00
  0.00000000E+00  0.00000000E+00  0.00000000E+00
  0.00000000E+00  0.00000000E+00  0.00000000E+00
  0.00000000E+00  0.00000000E+00  0.00000000E+00
  0.00000000E+00  0.00000000E+00  0.00000000E+00
  0.00000000E+00  0.00000000E+00  0.00000000E+00
