CONTCAR\(3)                             
   1.00000000000000     
    11.8208999634000005    0.0000000000000000    0.0000000000000000
     2.9552306013999998    8.5110336759000003    0.0000000000000000
     0.0000000000000000    0.0000000000000000   24.9838008880999993
   Na   Ti   S    O    H 
     6    20    40     1     1
Direct
  0.1409775483247913  0.0020827643851608  0.5001356719642153
  0.3641536594679355  0.3809636699820129  0.5032893267966783
  0.0525816554851531  0.6223367794945318  0.5034232389086035
  0.6426765468339054  0.0014307448704489  0.4999368624109752
  0.8630499427379885  0.3835471689188288  0.5031288401639419
  0.5539008748801970  0.6217389154227734  0.5033432061793823
  0.4336573159997121  0.8045219645919607  0.6398845262274644
  0.1317873856364194  0.0059421788839521  0.6424070673208507
  0.4673695586618195  0.0012056954619278  0.3621873757822501
  0.3316219472576530  0.2011343216067884  0.6407709948996911
  0.1686996312885799  0.1998360889167143  0.3625699311003975
  0.0305810024464645  0.4023917752351935  0.6416770727250307
  0.3665880051481452  0.4021589699705134  0.3611975926702559
  0.2297112376780498  0.5979042304871252  0.6394893817691590
  0.0672176303397203  0.6003427551301479  0.3611199054550230
  0.2680387370527249  0.8029319180407338  0.3626612244397243
  0.9304724102220906  0.8034235834125821  0.6408717134100612
  0.6335992667522549  0.0017080204240915  0.6434482482708858
  0.9674395207677549  0.0014191767379717  0.3620984811775006
  0.8342350101658629  0.1988050147805465  0.6417185238522519
  0.6687312294358205  0.1998104234524322  0.3624202008601319
  0.5314542081561324  0.4011867580368576  0.6405551728001256
  0.8666262003228303  0.4023155644543244  0.3610758810475019
  0.7293384390047928  0.6016095322720670  0.6417399129530470
  0.5671943924420721  0.6002825039823751  0.3611309664897375
  0.7680815856938145  0.8030882356069202  0.3624287388865092
  0.0973396519056982  0.8052708940618205  0.5830076545830654
  0.4339655885298363  0.8013458006735041  0.3058853718013826
  0.3003307973731305  0.0036880898659181  0.5827458104098118
  0.1344826252981091  0.0012233371210297  0.3061979511906760
 -0.0010656665206994  0.2012571269282098  0.5825686169716129
  0.3339464048650823  0.2011807122994986  0.3058995295679385
  0.1950382901563191  0.3992661963076541  0.5811993444708502
  0.4642881005457626  0.0017375256280816  0.6976374486271910
  0.0342590635864492  0.4004194169397581  0.3057481572815458
  0.3039385768638034  0.0014133827338601  0.4212014576697911
  0.3963305481998776  0.6018546598067761  0.5819219493364121
  0.1660129655195859  0.2033208491061305  0.6979260745787143
  0.2339257875340470  0.6022233288743687  0.3058451848743340
  0.0008542865620880  0.2022109279543852  0.4206598005450191
  0.3642298030343928  0.4036912913311047  0.6968932680340053
  0.1991256078335978  0.4015841838665168  0.4209897205586446
  0.0653602749899985  0.6026040488176885  0.6969381506103360
  0.3993654488179909  0.6011886364273088  0.4210431184106502
  0.2649534313491652  0.8002054778018605  0.6945117401915433
  0.1012360831934333  0.8009614339848464  0.4207333122658317
  0.6007215506024356  0.8041059917723027  0.5825054896167896
  0.9341643415977512  0.8015275256634543  0.3057666201167615
  0.7997542212055345  0.0026063691320391  0.5831185756651620
  0.6342260910905866  0.0012916055656478  0.3061209290098044
  0.5010292350723323  0.1985761611972965  0.5830030089869069
  0.8340266598745034  0.2013353042946158  0.3057733569406985
  0.6970477331849433  0.4007200629546135  0.5823830225299452
  0.9659487108263626  0.0009718279768424  0.6981022290673036
  0.5341375952756410  0.4003609441994406  0.3057688779381472
  0.8041111771510614  0.0014519220880471  0.4210094054725668
  0.8951437368213434  0.6022381169175626  0.5825173319256148
  0.6647954720131327  0.2037450926601391  0.6978045664906616
  0.7338028372889132  0.6023086839406714  0.3057469414194389
  0.5012142565831356  0.2017750424529763  0.4206815615705494
  0.8647839347947209  0.4021307730406526  0.6973972260442795
  0.6991619780871526  0.4014371093655891  0.4209384946844065
  0.5635609791750549  0.6022148415051340  0.6971846231481670
  0.8992655128338015  0.6013987873777443  0.4209084087067907
  0.7658020144333264  0.8005581540983944  0.6981296795244651
  0.6014566190419800  0.8008660106016834  0.4206465886106229
  0.2633341898024998  0.7987694581255366  0.7614454410417991
  0.3142385484033895  0.6932853129803043  0.7725742349483961
 
  0.00000000E+00  0.00000000E+00  0.00000000E+00
  0.00000000E+00  0.00000000E+00  0.00000000E+00
  0.00000000E+00  0.00000000E+00  0.00000000E+00
  0.00000000E+00  0.00000000E+00  0.00000000E+00
  0.00000000E+00  0.00000000E+00  0.00000000E+00
  0.00000000E+00  0.00000000E+00  0.00000000E+00
  0.00000000E+00  0.00000000E+00  0.00000000E+00
  0.00000000E+00  0.00000000E+00  0.00000000E+00
  0.00000000E+00  0.00000000E+00  0.00000000E+00
  0.00000000E+00  0.00000000E+00  0.00000000E+00
  0.00000000E+00  0.00000000E+00  0.00000000E+00
  0.00000000E+00  0.00000000E+00  0.00000000E+00
  0.00000000E+00  0.00000000E+00  0.00000000E+00
  0.00000000E+00  0.00000000E+00  0.00000000E+00
  0.00000000E+00  0.00000000E+00  0.00000000E+00
  0.00000000E+00  0.00000000E+00  0.00000000E+00
  0.00000000E+00  0.00000000E+00  0.00000000E+00
  0.00000000E+00  0.00000000E+00  0.00000000E+00
  0.00000000E+00  0.00000000E+00  0.00000000E+00
  0.00000000E+00  0.00000000E+00  0.00000000E+00
  0.00000000E+00  0.00000000E+00  0.00000000E+00
  0.00000000E+00  0.00000000E+00  0.00000000E+00
  0.00000000E+00  0.00000000E+00  0.00000000E+00
  0.00000000E+00  0.00000000E+00  0.00000000E+00
  0.00000000E+00  0.00000000E+00  0.00000000E+00
  0.00000000E+00  0.00000000E+00  0.00000000E+00
  0.00000000E+00  0.00000000E+00  0.00000000E+00
  0.00000000E+00  0.00000000E+00  0.00000000E+00
  0.00000000E+00  0.00000000E+00  0.00000000E+00
  0.00000000E+00  0.00000000E+00  0.00000000E+00
  0.00000000E+00  0.00000000E+00  0.00000000E+00
  0.00000000E+00  0.00000000E+00  0.00000000E+00
  0.00000000E+00  0.00000000E+00  0.00000000E+00
  0.00000000E+00  0.00000000E+00  0.00000000E+00
  0.00000000E+00  0.00000000E+00  0.00000000E+00
  0.00000000E+00  0.00000000E+00  0.00000000E+00
  0.00000000E+00  0.00000000E+00  0.00000000E+00
  0.00000000E+00  0.00000000E+00  0.00000000E+00
  0.00000000E+00  0.00000000E+00  0.00000000E+00
  0.00000000E+00  0.00000000E+00  0.00000000E+00
  0.00000000E+00  0.00000000E+00  0.00000000E+00
  0.00000000E+00  0.00000000E+00  0.00000000E+00
  0.00000000E+00  0.00000000E+00  0.00000000E+00
  0.00000000E+00  0.00000000E+00  0.00000000E+00
  0.00000000E+00  0.00000000E+00  0.00000000E+00
  0.00000000E+00  0.00000000E+00  0.00000000E+00
  0.00000000E+00  0.00000000E+00  0.00000000E+00
  0.00000000E+00  0.00000000E+00  0.00000000E+00
  0.00000000E+00  0.00000000E+00  0.00000000E+00
  0.00000000E+00  0.00000000E+00  0.00000000E+00
  0.00000000E+00  0.00000000E+00  0.00000000E+00
  0.00000000E+00  0.00000000E+00  0.00000000E+00
  0.00000000E+00  0.00000000E+00  0.00000000E+00
  0.00000000E+00  0.00000000E+00  0.00000000E+00
  0.00000000E+00  0.00000000E+00  0.00000000E+00
  0.00000000E+00  0.00000000E+00  0.00000000E+00
  0.00000000E+00  0.00000000E+00  0.00000000E+00
  0.00000000E+00  0.00000000E+00  0.00000000E+00
  0.00000000E+00  0.00000000E+00  0.00000000E+00
  0.00000000E+00  0.00000000E+00  0.00000000E+00
  0.00000000E+00  0.00000000E+00  0.00000000E+00
  0.00000000E+00  0.00000000E+00  0.00000000E+00
  0.00000000E+00  0.00000000E+00  0.00000000E+00
  0.00000000E+00  0.00000000E+00  0.00000000E+00
  0.00000000E+00  0.00000000E+00  0.00000000E+00
  0.00000000E+00  0.00000000E+00  0.00000000E+00
  0.00000000E+00  0.00000000E+00  0.00000000E+00
  0.00000000E+00  0.00000000E+00  0.00000000E+00
