 V2 Cu2 O8                              
   1.00000000000000     
     5.5749179268857203    0.0000000000000000    0.0000000000000000
     0.0000000000000000    6.1119432401499756    0.0000000000000000
     0.0000000000000000    0.0000000000000000   17.5557474875399997
   V    Cu   O 
     2     2     8
Direct
  0.2499952119376516  0.0000000253500687  0.5180102045340291
  0.7500041282427929  0.9999999720340043  0.4819946165855526
  0.5000010567639563  0.4999999966843873  0.4999996065280570
  0.9999962169276628  0.4999999980810372  0.4999999007208302
  0.7500019753115836  0.6929278971142878  0.5123879324274370
  0.9928619391939151  0.9999998122807838  0.4264358284584731
  0.0071431059355476  0.0000001894427299  0.5735617833854789
  0.4928534870891852  0.0000001934916440  0.5735636888902746
  0.2499992934287434  0.6929303372375841  0.4876127207451546
  0.2499994140617758  0.3070696053275839  0.4876123607631371
  0.5071420719656459  0.9999998189150290  0.4264337669674063
  0.7500020991415397  0.3070721540408741  0.5123875899941694
 
  0.00000000E+00  0.00000000E+00  0.00000000E+00
  0.00000000E+00  0.00000000E+00  0.00000000E+00
  0.00000000E+00  0.00000000E+00  0.00000000E+00
  0.00000000E+00  0.00000000E+00  0.00000000E+00
  0.00000000E+00  0.00000000E+00  0.00000000E+00
  0.00000000E+00  0.00000000E+00  0.00000000E+00
  0.00000000E+00  0.00000000E+00  0.00000000E+00
  0.00000000E+00  0.00000000E+00  0.00000000E+00
  0.00000000E+00  0.00000000E+00  0.00000000E+00
  0.00000000E+00  0.00000000E+00  0.00000000E+00
  0.00000000E+00  0.00000000E+00  0.00000000E+00
  0.00000000E+00  0.00000000E+00  0.00000000E+00
