CONTCAR\(5)                             
   1.00000000000000     
    12.7552003860000003    0.0000000000000000    0.0000000000000000
     0.0000000000000000   11.8367004394999995    0.0000000000000000
     0.0000000000000000    0.0000000000000000   18.9375991821000014
   Cu   Te   O 
    24    24     1
Direct
  0.0000841174401387  0.1698729378053869  0.4851700878184886
  0.1267041011438508  0.0038255551733855  0.5139916431691560
  0.2579354876504780  0.1704411055174191  0.4877428125110939
  0.3768508730022759  0.0004500517416091  0.5189884066203092
  0.4999085220693544  0.1674184902329259  0.4893895923241232
  0.6231975075227183  0.0005299482197927  0.5189864140267844
  0.7422179048200874  0.1705192445082275  0.4876410434119620
  0.8733255406830409  0.0038295996157771  0.5139223448477992
  0.9999791786970889  0.5024629220653694  0.4810381404340092
  0.1274923643412293  0.3347375966658390  0.5107672022139695
  0.2451703772614522  0.5028538950038950  0.4805877051025575
  0.3824765310008402  0.3408497165586297  0.5209445641238020
  0.5001181711770499  0.5035162167280873  0.4875431737461753
  0.6175135801865963  0.3407093983072116  0.5207758367537068
  0.7546932578017476  0.5026925273467526  0.4804770850753144
  0.8725159006718002  0.3347608268988580  0.5106633647428680
  0.9999140470282910  0.8381665791891351  0.4836162031688431
  0.1236222271676155  0.6712831250634679  0.5104056192396129
  0.2536680432696912  0.8357245048023927  0.4862930668813377
  0.3714487125646713  0.6625541759337921  0.5162947210474158
  0.5001085620790491  0.8316395072108023  0.4889727552715115
  0.6288514377822239  0.6624708279627285  0.5164008112093370
  0.7461561753542796  0.8357377998130531  0.4862410018651815
  0.8760681027901640  0.6712591684292377  0.5103790071472361
  0.0000243898373782  0.0050855646551398  0.3962981666056749
  0.1249707807857874  0.1718331760168041  0.6020225804064410
  0.2524487387758398  0.0033987688204746  0.3984913890366784
  0.3741576084152385  0.1689498938150393  0.6068015973793877
  0.5000229854881084  0.0003980101372747  0.4001157452829887
  0.6262165099498276  0.1690264110116217  0.6067330908147497
  0.7476657819557602  0.0033878118549424  0.3984709419310519
  0.8752754222400227  0.1718571728610314  0.6019419675215616
  0.0000939344237665  0.3339528141135588  0.3944388965203487
  0.1249909659385509  0.5034447350977800  0.5977605837059770
  0.2548688170510260  0.3328134658332047  0.3964486093449864
  0.3640435885033071  0.5060023654052515  0.6121938873046631
  0.5000306004092181  0.3344597026983536  0.4000794824776222
  0.6357444127878580  0.5057281335054427  0.6122005175713454
  0.7453866022308873  0.3327706806758925  0.3962318525439343
  0.8749177081627053  0.5034001642620467  0.5977256355884606
  0.9998184606873721  0.6721418455636083  0.3935324932030468
  0.1244563563019696  0.8350532556960530  0.6013142721557188
  0.2515104581112837  0.6726671858009894  0.3949763436054781
  0.3740613127872194  0.8294123406343772  0.6050186705875831
  0.4999812276551907  0.6669524913378240  0.3989115830361669
  0.6260377506228636  0.8294457981890275  0.6050903613905234
  0.7483233386689676  0.6726130473517316  0.3948828982179222
  0.8754225286096400  0.8350440554280496  0.6012946929598897
  0.4999189670944375  0.5483753124407542  0.6622616860551389
 
  0.00000000E+00  0.00000000E+00  0.00000000E+00
  0.00000000E+00  0.00000000E+00  0.00000000E+00
  0.00000000E+00  0.00000000E+00  0.00000000E+00
  0.00000000E+00  0.00000000E+00  0.00000000E+00
  0.00000000E+00  0.00000000E+00  0.00000000E+00
  0.00000000E+00  0.00000000E+00  0.00000000E+00
  0.00000000E+00  0.00000000E+00  0.00000000E+00
  0.00000000E+00  0.00000000E+00  0.00000000E+00
  0.00000000E+00  0.00000000E+00  0.00000000E+00
  0.00000000E+00  0.00000000E+00  0.00000000E+00
  0.00000000E+00  0.00000000E+00  0.00000000E+00
  0.00000000E+00  0.00000000E+00  0.00000000E+00
  0.00000000E+00  0.00000000E+00  0.00000000E+00
  0.00000000E+00  0.00000000E+00  0.00000000E+00
  0.00000000E+00  0.00000000E+00  0.00000000E+00
  0.00000000E+00  0.00000000E+00  0.00000000E+00
  0.00000000E+00  0.00000000E+00  0.00000000E+00
  0.00000000E+00  0.00000000E+00  0.00000000E+00
  0.00000000E+00  0.00000000E+00  0.00000000E+00
  0.00000000E+00  0.00000000E+00  0.00000000E+00
  0.00000000E+00  0.00000000E+00  0.00000000E+00
  0.00000000E+00  0.00000000E+00  0.00000000E+00
  0.00000000E+00  0.00000000E+00  0.00000000E+00
  0.00000000E+00  0.00000000E+00  0.00000000E+00
  0.00000000E+00  0.00000000E+00  0.00000000E+00
  0.00000000E+00  0.00000000E+00  0.00000000E+00
  0.00000000E+00  0.00000000E+00  0.00000000E+00
  0.00000000E+00  0.00000000E+00  0.00000000E+00
  0.00000000E+00  0.00000000E+00  0.00000000E+00
  0.00000000E+00  0.00000000E+00  0.00000000E+00
  0.00000000E+00  0.00000000E+00  0.00000000E+00
  0.00000000E+00  0.00000000E+00  0.00000000E+00
  0.00000000E+00  0.00000000E+00  0.00000000E+00
  0.00000000E+00  0.00000000E+00  0.00000000E+00
  0.00000000E+00  0.00000000E+00  0.00000000E+00
  0.00000000E+00  0.00000000E+00  0.00000000E+00
  0.00000000E+00  0.00000000E+00  0.00000000E+00
  0.00000000E+00  0.00000000E+00  0.00000000E+00
  0.00000000E+00  0.00000000E+00  0.00000000E+00
  0.00000000E+00  0.00000000E+00  0.00000000E+00
  0.00000000E+00  0.00000000E+00  0.00000000E+00
  0.00000000E+00  0.00000000E+00  0.00000000E+00
  0.00000000E+00  0.00000000E+00  0.00000000E+00
  0.00000000E+00  0.00000000E+00  0.00000000E+00
  0.00000000E+00  0.00000000E+00  0.00000000E+00
  0.00000000E+00  0.00000000E+00  0.00000000E+00
  0.00000000E+00  0.00000000E+00  0.00000000E+00
  0.00000000E+00  0.00000000E+00  0.00000000E+00
  0.00000000E+00  0.00000000E+00  0.00000000E+00
