CONTCAR\(3)                             
   1.00000000000000     
    13.7056999207000008    0.0000000000000000    0.0000000000000000
     4.1214080124999999   12.9276297616000004    0.0000000000000000
     0.0000000000000000    0.0000000000000000   18.6212005615000002
   Bi   Rh   S    O 
    16    24    16     1
Direct
  0.1970014450528979  0.1942614422509905  0.5853268024884670
  0.4293218488749062  0.4591117598005354  0.6095874899761071
  0.0802058793652947  0.0812236526025529  0.4089334568120009
  0.3302214804143091  0.3368841766514166  0.4131425429891138
  0.6894138171601725  0.2016931524971426  0.5848954461849232
  0.9463682063923216  0.4467223598120214  0.5923437989314877
  0.5790439371486400  0.0796770092413013  0.4100359570275245
  0.8339545325385416  0.3352423983798261  0.4136505702342888
  0.2200268426742227  0.6777091671339264  0.6069605256208348
  0.4424954706491633  0.9445646150965246  0.5948273804007655
  0.0838483766179436  0.5844158567914519  0.4087927479784028
  0.3322961177118913  0.8330004661688548  0.4102045298145214
  0.6935822126493392  0.6995304073815021  0.5858646935690004
  0.9463876900984758  0.9450604963983338  0.5925749732565251
  0.5819191507459323  0.5789380951632594  0.4100401012840678
  0.8318510923260050  0.8370501110039186  0.4105032317854054
  0.0133030346216430  0.2614010018981858  0.4984360753033599
  0.4113144144277996  0.1093915836764978  0.5032083290483200
  0.1112875512205420  0.4131659260255773  0.4982499049553226
  0.2604285093656742  0.0116713453977795  0.4975060439259167
  0.3218988989707512  0.3198262861733880  0.5595534269366738
  0.2097081428497063  0.2099332307599795  0.4409035852804308
  0.5102932024110061  0.2590511345197442  0.4915684901004056
  0.9109849565738983  0.1123300078604288  0.5001455181503687
  0.6121084151793212  0.4100437958710330  0.5036852881686826
  0.7572711294339811  0.0156717130952586  0.4993888455418372
  0.8203155187126114  0.3199166010429408  0.5586716455477614
  0.7096439562966950  0.2128225257087237  0.4403971250119270
  0.0072115266317496  0.7666635926544458  0.4895462399262556
  0.4162270044892438  0.6072036727054879  0.5047457881761943
  0.1096666012230116  0.9142644643202615  0.5008368103015712
  0.2606661985846230  0.5134417062383463  0.5029570603379128
  0.3205489285502168  0.8174294745315436  0.5563840687221315
  0.2114279389513101  0.7113064259018529  0.4504839618452294
  0.5107795086609457  0.7610255020091969  0.4926160114933396
  0.9144033804042948  0.6118229911293724  0.4999942006023446
  0.6092623767117047  0.9113496417648079  0.5044053181829895
  0.7608953714390339  0.5149676060250954  0.5006653400952104
  0.8212145553439427  0.8199043298850199  0.5567327797270423
  0.7107502123593790  0.7113521745673808  0.4415339398002942
  0.4622997633815373  0.1915688362826629  0.5981074604481762
  0.1858487682640018  0.4538105327160338  0.5999540854300704
  0.0690147928360361  0.3348886536045583  0.3978352068668798
  0.3370213360115955  0.0691897744026448  0.4002848198088884
  0.9576774863078370  0.1894362083383783  0.5995206802972533
  0.6908546686379964  0.4571403101407654  0.6015969053614114
  0.5699850319993800  0.3399967227949077  0.3990946502570552
  0.8336774192153769  0.0699281878671343  0.3997254927054641
  0.4636535683720950  0.6938335069219619  0.5983266614523544
  0.1903014312247677  0.9548564059019640  0.5995699893952917
  0.0789169252357667  0.8355669786974076  0.3972049715928989
  0.3353184752556473  0.5707833900878114  0.4050308343434992
  0.9654197078755473  0.6945589388021105  0.5951694141030401
  0.6913774510402746  0.9564861309815313  0.6011772822788686
  0.5721460512605390  0.8386677313443087  0.3983634814376131
  0.8361393053612289  0.5699351606237073  0.4003459407922065
  0.3280888608871919  0.5746101833561639  0.6770224158940295
 
  0.00000000E+00  0.00000000E+00  0.00000000E+00
  0.00000000E+00  0.00000000E+00  0.00000000E+00
  0.00000000E+00  0.00000000E+00  0.00000000E+00
  0.00000000E+00  0.00000000E+00  0.00000000E+00
  0.00000000E+00  0.00000000E+00  0.00000000E+00
  0.00000000E+00  0.00000000E+00  0.00000000E+00
  0.00000000E+00  0.00000000E+00  0.00000000E+00
  0.00000000E+00  0.00000000E+00  0.00000000E+00
  0.00000000E+00  0.00000000E+00  0.00000000E+00
  0.00000000E+00  0.00000000E+00  0.00000000E+00
  0.00000000E+00  0.00000000E+00  0.00000000E+00
  0.00000000E+00  0.00000000E+00  0.00000000E+00
  0.00000000E+00  0.00000000E+00  0.00000000E+00
  0.00000000E+00  0.00000000E+00  0.00000000E+00
  0.00000000E+00  0.00000000E+00  0.00000000E+00
  0.00000000E+00  0.00000000E+00  0.00000000E+00
  0.00000000E+00  0.00000000E+00  0.00000000E+00
  0.00000000E+00  0.00000000E+00  0.00000000E+00
  0.00000000E+00  0.00000000E+00  0.00000000E+00
  0.00000000E+00  0.00000000E+00  0.00000000E+00
  0.00000000E+00  0.00000000E+00  0.00000000E+00
  0.00000000E+00  0.00000000E+00  0.00000000E+00
  0.00000000E+00  0.00000000E+00  0.00000000E+00
  0.00000000E+00  0.00000000E+00  0.00000000E+00
  0.00000000E+00  0.00000000E+00  0.00000000E+00
  0.00000000E+00  0.00000000E+00  0.00000000E+00
  0.00000000E+00  0.00000000E+00  0.00000000E+00
  0.00000000E+00  0.00000000E+00  0.00000000E+00
  0.00000000E+00  0.00000000E+00  0.00000000E+00
  0.00000000E+00  0.00000000E+00  0.00000000E+00
  0.00000000E+00  0.00000000E+00  0.00000000E+00
  0.00000000E+00  0.00000000E+00  0.00000000E+00
  0.00000000E+00  0.00000000E+00  0.00000000E+00
  0.00000000E+00  0.00000000E+00  0.00000000E+00
  0.00000000E+00  0.00000000E+00  0.00000000E+00
  0.00000000E+00  0.00000000E+00  0.00000000E+00
  0.00000000E+00  0.00000000E+00  0.00000000E+00
  0.00000000E+00  0.00000000E+00  0.00000000E+00
  0.00000000E+00  0.00000000E+00  0.00000000E+00
  0.00000000E+00  0.00000000E+00  0.00000000E+00
  0.00000000E+00  0.00000000E+00  0.00000000E+00
  0.00000000E+00  0.00000000E+00  0.00000000E+00
  0.00000000E+00  0.00000000E+00  0.00000000E+00
  0.00000000E+00  0.00000000E+00  0.00000000E+00
  0.00000000E+00  0.00000000E+00  0.00000000E+00
  0.00000000E+00  0.00000000E+00  0.00000000E+00
  0.00000000E+00  0.00000000E+00  0.00000000E+00
  0.00000000E+00  0.00000000E+00  0.00000000E+00
  0.00000000E+00  0.00000000E+00  0.00000000E+00
  0.00000000E+00  0.00000000E+00  0.00000000E+00
  0.00000000E+00  0.00000000E+00  0.00000000E+00
  0.00000000E+00  0.00000000E+00  0.00000000E+00
  0.00000000E+00  0.00000000E+00  0.00000000E+00
  0.00000000E+00  0.00000000E+00  0.00000000E+00
  0.00000000E+00  0.00000000E+00  0.00000000E+00
  0.00000000E+00  0.00000000E+00  0.00000000E+00
  0.00000000E+00  0.00000000E+00  0.00000000E+00
