CONTCAR\(10)                            
   1.00000000000000     
    12.4687995910999998    0.0000000000000000    0.0000000000000000
     0.0000000000000000   15.4259996414000007    0.0000000000000000
     0.0000000000000000    0.0000000000000000   19.6597995758000010
   Ta   Co   Te   O    H 
    16    16    32     2     1
Direct
  0.4941476231556062  0.0556765239363481  0.5062867923512445
  0.2440182320554468  0.1094516470890588  0.4934513837427422
  0.0134522170902050  0.3587080784871244  0.4958112523714821
  0.2643764000626796  0.3063640606213546  0.5066914369538252
  0.9942347862656189  0.0559350911482294  0.5062252554381534
  0.7437896739485262  0.1096466082316595  0.4935198617859731
  0.5138192190851972  0.3585352522356687  0.4938225945271355
  0.7630527673325626  0.3059765946344408  0.5071630178679575
  0.4921980997148679  0.5556579828173770  0.5091771655000874
  0.2437526973305251  0.6090845755888530  0.4939186379511046
  0.0148093794071617  0.8594241291309641  0.4937676115662097
  0.2646875783894953  0.8058295149256774  0.5064436367133490
  0.9944452854052236  0.5553503982855205  0.5084348494291764
  0.7428852931572363  0.6095671869140250  0.4948686538776363
  0.5148523223157292  0.8596780316750042  0.4937780760491588
  0.7648624374360286  0.8057975342466545  0.5064401987967633
  0.4290250496774539  0.2113938583036702  0.4605399061353746
  0.0798616532784109  0.2026330617886245  0.5402587400027089
  0.3251499581364790  0.4622047762806217  0.4572252551179511
  0.1798358795120933  0.4541046014286960  0.5425229726891182
  0.9296184404172559  0.2122900378869789  0.4608203165626508
  0.5791891404629774  0.2022269113172477  0.5397466058572116
  0.8282570546155370  0.4625110271835990  0.4625031645690380
  0.6774073050971017  0.4529309290141782  0.5413545676829552
  0.4295014345944264  0.7125975373964590  0.4611112256029695
  0.0797637250190750  0.7032340376919329  0.5401555733753904
  0.3296488494828625  0.9619706620731272  0.4603707845836607
  0.1794845030456656  0.9527451243947783  0.5394283758386723
  0.9295607450690222  0.7120251946274120  0.4610440668327412
  0.5792279930438681  0.7033166131715887  0.5400658378497084
  0.8298210732544249  0.9622948472837177  0.4602400052916487
  0.6795958500937553  0.9528429426591938  0.5393632737673689
  0.1311252242040522  0.4764543289206353  0.4123483173395001
  0.1254711998893570  0.2282947851230404  0.4116449537736246
  0.3824485065834828  0.1873119136737505  0.5887378243814572
  0.3717903447428338  0.4372596646143975  0.5849557928944359
  0.1259141597278896  0.3259939969994681  0.6200641539294233
  0.3767256938361297  0.3365621533471576  0.3808511129731237
  0.3806742733741871  0.0880228794625367  0.3809948474626245
  0.1307794186538739  0.0760117127663963  0.6188415352309301
  0.6310755547898428  0.4787104949331448  0.4131328540350989
  0.6247980748921291  0.2284143807745568  0.4111711746064674
  0.8821678402565425  0.1870856276352505  0.5887215585844169
  0.8744031099851802  0.4368808054526392  0.5904929332466725
  0.6250419387144487  0.3261461815901261  0.6193999082337801
  0.8763974690386868  0.3393121171435017  0.3828545034493372
  0.8804151175251301  0.0889876278034167  0.3811582575963650
  0.6309109655107354  0.0762805690572104  0.6189016853230759
  0.1327853212115196  0.9779009294621147  0.4112022396141607
  0.1261150129058109  0.7274577195929349  0.4114831881481218
  0.3821067763014743  0.6876254790459404  0.5892638590735277
  0.3760916833392217  0.9372972858950085  0.5888186897204224
  0.1280121433811185  0.8270833963419461  0.6190282983246775
  0.3782589057781702  0.8383430624808520  0.3812425793939120
  0.3824179851685916  0.5895429011927936  0.3819682282349703
  0.1307212819934155  0.5785294885252298  0.6206142999695513
  0.6329881588885540  0.9781817432998052  0.4111263226269531
  0.6261098948070551  0.7281616914860924  0.4115743028663087
  0.8827418178626484  0.6875053128497656  0.5891396285365135
  0.8760621247857301  0.9372678289335279  0.5886295682569556
  0.6282561253782639  0.8269855520728149  0.6190110509624032
  0.8781862970403000  0.8379687519100102  0.3813286169570201
  0.8813255604307850  0.5875138144279661  0.3830367920940691
  0.6315783229031856  0.5775934396525447  0.6201538869291908
  0.3822324379969856  0.4007899917086097  0.6957282966304131
  0.4570165906116119  0.4572633368586968  0.7299704079733372
  0.4086120105385219  0.4987134954963467  0.7521580599460105
 
  0.00000000E+00  0.00000000E+00  0.00000000E+00
  0.00000000E+00  0.00000000E+00  0.00000000E+00
  0.00000000E+00  0.00000000E+00  0.00000000E+00
  0.00000000E+00  0.00000000E+00  0.00000000E+00
  0.00000000E+00  0.00000000E+00  0.00000000E+00
  0.00000000E+00  0.00000000E+00  0.00000000E+00
  0.00000000E+00  0.00000000E+00  0.00000000E+00
  0.00000000E+00  0.00000000E+00  0.00000000E+00
  0.00000000E+00  0.00000000E+00  0.00000000E+00
  0.00000000E+00  0.00000000E+00  0.00000000E+00
  0.00000000E+00  0.00000000E+00  0.00000000E+00
  0.00000000E+00  0.00000000E+00  0.00000000E+00
  0.00000000E+00  0.00000000E+00  0.00000000E+00
  0.00000000E+00  0.00000000E+00  0.00000000E+00
  0.00000000E+00  0.00000000E+00  0.00000000E+00
  0.00000000E+00  0.00000000E+00  0.00000000E+00
  0.00000000E+00  0.00000000E+00  0.00000000E+00
  0.00000000E+00  0.00000000E+00  0.00000000E+00
  0.00000000E+00  0.00000000E+00  0.00000000E+00
  0.00000000E+00  0.00000000E+00  0.00000000E+00
  0.00000000E+00  0.00000000E+00  0.00000000E+00
  0.00000000E+00  0.00000000E+00  0.00000000E+00
  0.00000000E+00  0.00000000E+00  0.00000000E+00
  0.00000000E+00  0.00000000E+00  0.00000000E+00
  0.00000000E+00  0.00000000E+00  0.00000000E+00
  0.00000000E+00  0.00000000E+00  0.00000000E+00
  0.00000000E+00  0.00000000E+00  0.00000000E+00
  0.00000000E+00  0.00000000E+00  0.00000000E+00
  0.00000000E+00  0.00000000E+00  0.00000000E+00
  0.00000000E+00  0.00000000E+00  0.00000000E+00
  0.00000000E+00  0.00000000E+00  0.00000000E+00
  0.00000000E+00  0.00000000E+00  0.00000000E+00
  0.00000000E+00  0.00000000E+00  0.00000000E+00
  0.00000000E+00  0.00000000E+00  0.00000000E+00
  0.00000000E+00  0.00000000E+00  0.00000000E+00
  0.00000000E+00  0.00000000E+00  0.00000000E+00
  0.00000000E+00  0.00000000E+00  0.00000000E+00
  0.00000000E+00  0.00000000E+00  0.00000000E+00
  0.00000000E+00  0.00000000E+00  0.00000000E+00
  0.00000000E+00  0.00000000E+00  0.00000000E+00
  0.00000000E+00  0.00000000E+00  0.00000000E+00
  0.00000000E+00  0.00000000E+00  0.00000000E+00
  0.00000000E+00  0.00000000E+00  0.00000000E+00
  0.00000000E+00  0.00000000E+00  0.00000000E+00
  0.00000000E+00  0.00000000E+00  0.00000000E+00
  0.00000000E+00  0.00000000E+00  0.00000000E+00
  0.00000000E+00  0.00000000E+00  0.00000000E+00
  0.00000000E+00  0.00000000E+00  0.00000000E+00
  0.00000000E+00  0.00000000E+00  0.00000000E+00
  0.00000000E+00  0.00000000E+00  0.00000000E+00
  0.00000000E+00  0.00000000E+00  0.00000000E+00
  0.00000000E+00  0.00000000E+00  0.00000000E+00
  0.00000000E+00  0.00000000E+00  0.00000000E+00
  0.00000000E+00  0.00000000E+00  0.00000000E+00
  0.00000000E+00  0.00000000E+00  0.00000000E+00
  0.00000000E+00  0.00000000E+00  0.00000000E+00
  0.00000000E+00  0.00000000E+00  0.00000000E+00
  0.00000000E+00  0.00000000E+00  0.00000000E+00
  0.00000000E+00  0.00000000E+00  0.00000000E+00
  0.00000000E+00  0.00000000E+00  0.00000000E+00
  0.00000000E+00  0.00000000E+00  0.00000000E+00
  0.00000000E+00  0.00000000E+00  0.00000000E+00
  0.00000000E+00  0.00000000E+00  0.00000000E+00
  0.00000000E+00  0.00000000E+00  0.00000000E+00
  0.00000000E+00  0.00000000E+00  0.00000000E+00
  0.00000000E+00  0.00000000E+00  0.00000000E+00
  0.00000000E+00  0.00000000E+00  0.00000000E+00
