CONTCAR\(2)                             
   1.00000000000000     
    11.7750997542999993    0.0000000000000000    0.0000000000000000
     5.8875498771999997   10.1975355193000006    0.0000000000000000
     0.0000000000000000    0.0000000000000000   23.2443008422999995
   Ce   Zn   P    O    H 
    18    18    18    20     1
Direct
  0.1133347239755324  0.1058542818261484  0.5653440161279732
  0.0025099967379763  0.9939560000130044  0.4370779759181088
  0.4456981407400701  0.1058320821831405  0.5653328479984104
  0.3351460886373789  0.9945228297984466  0.4370303683556904
  0.7801867613591952  0.1045146425776291  0.5646103023031184
  0.6683865929982813  0.9939207717267258  0.4370804374189896
  0.1124955557334783  0.4398938262803210  0.5665627606658497
  0.0025345758915187  0.3280414449348823  0.4370153322408166
  0.4454560958537688  0.4389852753852695  0.5644207022713282
  0.3342634687922818  0.3280127993867532  0.4370125255122949
  0.7804317049635384  0.4389737413060894  0.5644455281341139
  0.6689163268198939  0.3269969678274577  0.4366809251426371
  0.1146790825492398  0.7714668180267413  0.5661103781060230
  0.0018302530240437  0.6612017744005343  0.4376599914238948
  0.4468486785335895  0.7711391610278095  0.5651110993834205
  0.3348164807788734  0.6612311384399640  0.4367864519285898
  0.7787749609462984  0.7714218766927230  0.5660979332206543
  0.6688061762599005  0.6612242688700253  0.4367815112992390
  0.0039990287284510  0.9929752600248993  0.6747754320047079
  0.1128757068777037  0.1056333598367809  0.3260575482589336
  0.3344967722400373  0.9957332496917403  0.6763768371003727
  0.4459970094697517  0.1056216312621386  0.3260776592650085
  0.6679395223352712  0.9929169723747749  0.6747056998038643
  0.7796046307969601  0.1054006150702804  0.3260705586959453
  0.9986850188774790  0.3336875943050697  0.6763699167889512
  0.1125329012806418  0.4393885692699497  0.3258070048686676
  0.3327207882282887  0.3336708206398449  0.6763571762556336
  0.4460237943293066  0.4387538576859781  0.3261128949949305
  0.6694588975781171  0.3258436859929075  0.6724994481398844
  0.7796271403240993  0.4388796604088726  0.3261231967500155
  0.0036555319470548  0.6570328186086528  0.6769346965371533
  0.1126676044253851  0.7723343040553639  0.3259772820444853
  0.3542185851445149  0.6655986413033452  0.6870761495112018
  0.4461772782290974  0.7721477408098645  0.3261089854763734
  0.6440286051309336  0.6659175681064852  0.6870800143169068
  0.7795096920893168  0.7723726678867555  0.3259526052326848
  0.2237436941238429  0.2171052315363494  0.3445516857503276
  0.2225843611938273  0.2198454210440250  0.6580244099321257
  0.5573066461209866  0.2164399658612737  0.3446661163646058
  0.5562500998957550  0.2160080655085045  0.6565001969225741
  0.8908318525356054  0.2164957003417719  0.3446070425656411
  0.8925754846306684  0.2161089883287190  0.6565124111077364
  0.2237224027634175  0.5502015963622652  0.3446317855227460
  0.2295204451647761  0.5575077743042915  0.6614384966994733
  0.5573795066709003  0.5498335934169162  0.3444820600321224
  0.5615554727803822  0.5414914265466576  0.6413513585338548
  0.8906521410893360  0.5502410818917934  0.3446314403637372
  0.8773495405718076  0.5575788011865636  0.6615077450538047
  0.2239370709504731  0.8834144484308801  0.3446530862367186
  0.2253046887975967  0.8834965451763243  0.6522511042919523
  0.5572797032645299  0.8833587838066992  0.3446331877638290
  0.5559953453033716  0.8834635179049460  0.6524225840470613
  0.8907554073023282  0.8831934709741517  0.3446440721102034
  0.8913615848623915  0.8822150010417940  0.6569830078080962
  0.1126747440092733  0.1060908855453409  0.4631021822980620
  0.0021061833663469  0.9943460310902572  0.5385695938847673
  0.4461015525314881  0.1060546992805831  0.4631089484787624
  0.3344018755360322  0.9960930972280964  0.5381184603410450
  0.7806215523968472  0.1036121251037897  0.4626037389328995
  0.6684507506377578  0.9942487181341628  0.5385870353260409
  0.1125074718902724  0.4398121162192269  0.4635575485556199
  0.0038698222264547  0.3285752428185457  0.5389621689681502
  0.4459416794682705  0.4383203475297759  0.4625492937838995
  0.3324157667232926  0.3285615116233775  0.5389528505650948
  0.7805807115349902  0.4383128369403004  0.4625536471757254
  0.6701885283346370  0.3244793188436781  0.5369814185020872
  0.1122705990269825  0.7722133553745351  0.4633268365614302
  0.0021822451281186  0.6605220389722899  0.5400040995195482
  0.4463288297426123  0.7722262742526450  0.4629481781780506
  0.3336643119022860  0.6608928516122645  0.5374839765196907
  0.7804295894339947  0.7721312512055249  0.4633188217005336
  0.6703098258765074  0.6608974705297447  0.5374991473525773
  0.4881179156356127  0.6866835128603069  0.7426466806321107
  0.4266666932964209  0.8070824617586750  0.7790796380232957
  0.4487305816525793  0.7675360233756072  0.8173994860971872
 
  0.00000000E+00  0.00000000E+00  0.00000000E+00
  0.00000000E+00  0.00000000E+00  0.00000000E+00
  0.00000000E+00  0.00000000E+00  0.00000000E+00
  0.00000000E+00  0.00000000E+00  0.00000000E+00
  0.00000000E+00  0.00000000E+00  0.00000000E+00
  0.00000000E+00  0.00000000E+00  0.00000000E+00
  0.00000000E+00  0.00000000E+00  0.00000000E+00
  0.00000000E+00  0.00000000E+00  0.00000000E+00
  0.00000000E+00  0.00000000E+00  0.00000000E+00
  0.00000000E+00  0.00000000E+00  0.00000000E+00
  0.00000000E+00  0.00000000E+00  0.00000000E+00
  0.00000000E+00  0.00000000E+00  0.00000000E+00
  0.00000000E+00  0.00000000E+00  0.00000000E+00
  0.00000000E+00  0.00000000E+00  0.00000000E+00
  0.00000000E+00  0.00000000E+00  0.00000000E+00
  0.00000000E+00  0.00000000E+00  0.00000000E+00
  0.00000000E+00  0.00000000E+00  0.00000000E+00
  0.00000000E+00  0.00000000E+00  0.00000000E+00
  0.00000000E+00  0.00000000E+00  0.00000000E+00
  0.00000000E+00  0.00000000E+00  0.00000000E+00
  0.00000000E+00  0.00000000E+00  0.00000000E+00
  0.00000000E+00  0.00000000E+00  0.00000000E+00
  0.00000000E+00  0.00000000E+00  0.00000000E+00
  0.00000000E+00  0.00000000E+00  0.00000000E+00
  0.00000000E+00  0.00000000E+00  0.00000000E+00
  0.00000000E+00  0.00000000E+00  0.00000000E+00
  0.00000000E+00  0.00000000E+00  0.00000000E+00
  0.00000000E+00  0.00000000E+00  0.00000000E+00
  0.00000000E+00  0.00000000E+00  0.00000000E+00
  0.00000000E+00  0.00000000E+00  0.00000000E+00
  0.00000000E+00  0.00000000E+00  0.00000000E+00
  0.00000000E+00  0.00000000E+00  0.00000000E+00
  0.00000000E+00  0.00000000E+00  0.00000000E+00
  0.00000000E+00  0.00000000E+00  0.00000000E+00
  0.00000000E+00  0.00000000E+00  0.00000000E+00
  0.00000000E+00  0.00000000E+00  0.00000000E+00
  0.00000000E+00  0.00000000E+00  0.00000000E+00
  0.00000000E+00  0.00000000E+00  0.00000000E+00
  0.00000000E+00  0.00000000E+00  0.00000000E+00
  0.00000000E+00  0.00000000E+00  0.00000000E+00
  0.00000000E+00  0.00000000E+00  0.00000000E+00
  0.00000000E+00  0.00000000E+00  0.00000000E+00
  0.00000000E+00  0.00000000E+00  0.00000000E+00
  0.00000000E+00  0.00000000E+00  0.00000000E+00
  0.00000000E+00  0.00000000E+00  0.00000000E+00
  0.00000000E+00  0.00000000E+00  0.00000000E+00
  0.00000000E+00  0.00000000E+00  0.00000000E+00
  0.00000000E+00  0.00000000E+00  0.00000000E+00
  0.00000000E+00  0.00000000E+00  0.00000000E+00
  0.00000000E+00  0.00000000E+00  0.00000000E+00
  0.00000000E+00  0.00000000E+00  0.00000000E+00
  0.00000000E+00  0.00000000E+00  0.00000000E+00
  0.00000000E+00  0.00000000E+00  0.00000000E+00
  0.00000000E+00  0.00000000E+00  0.00000000E+00
  0.00000000E+00  0.00000000E+00  0.00000000E+00
  0.00000000E+00  0.00000000E+00  0.00000000E+00
  0.00000000E+00  0.00000000E+00  0.00000000E+00
  0.00000000E+00  0.00000000E+00  0.00000000E+00
  0.00000000E+00  0.00000000E+00  0.00000000E+00
  0.00000000E+00  0.00000000E+00  0.00000000E+00
  0.00000000E+00  0.00000000E+00  0.00000000E+00
  0.00000000E+00  0.00000000E+00  0.00000000E+00
  0.00000000E+00  0.00000000E+00  0.00000000E+00
  0.00000000E+00  0.00000000E+00  0.00000000E+00
  0.00000000E+00  0.00000000E+00  0.00000000E+00
  0.00000000E+00  0.00000000E+00  0.00000000E+00
  0.00000000E+00  0.00000000E+00  0.00000000E+00
  0.00000000E+00  0.00000000E+00  0.00000000E+00
  0.00000000E+00  0.00000000E+00  0.00000000E+00
  0.00000000E+00  0.00000000E+00  0.00000000E+00
  0.00000000E+00  0.00000000E+00  0.00000000E+00
  0.00000000E+00  0.00000000E+00  0.00000000E+00
  0.00000000E+00  0.00000000E+00  0.00000000E+00
  0.00000000E+00  0.00000000E+00  0.00000000E+00
  0.00000000E+00  0.00000000E+00  0.00000000E+00
