CONTCAR\(3)                             
   1.00000000000000     
    10.9605998993000000    0.0000000000000000    0.0000000000000000
     5.4620360536000003    9.5107522852000006    0.0000000000000000
     0.0000000000000000    0.0000000000000000   24.0680007935000013
   Cr   Ga   S    O 
     9    18    36     1
Direct
  0.3317580234056000  0.0049273226773719  0.5003425836619261
  0.6634629468336841  0.0082866110223816  0.5000586124693444
  0.9984150930638251  0.0047425814696746  0.5002902002273187
  0.3337328760805395  0.3405586432365927  0.5003037424625028
  0.6606561114185699  0.3404294691158488  0.5004015393111294
  0.9984385138233020  0.3382039488407656  0.5003224722262348
  0.3339458967226445  0.6670185168536349  0.5003187646202651
  0.6636106267059692  0.6700043162863526  0.5001666443144490
  0.0015862571077525  0.6699965432929049  0.4999606348737651
  0.1104254613732272  0.1124359941869570  0.3555092395186583
  0.2215875321021423  0.2298490940479084  0.6446633439547304
  0.4438214959370410  0.1131904745253775  0.3554209921190404
  0.5319586955334720  0.2708463126855917  0.6480705801093629
  0.7764580373166290  0.1131191041761156  0.3554193542855087
  0.8839987800838659  0.2297398751549691  0.6446641717258396
  0.1109688618977870  0.4459153136976833  0.3553183113169867
  0.2635162490249428  0.5400679502749750  0.6478771330637697
  0.4437345883208341  0.4458759697102237  0.3540291653362079
  0.5322387107718897  0.5412938579357766  0.6483238943247001
  0.7764761861261864  0.4458949598863807  0.3554090718402202
  0.8887993348492880  0.5586499471286428  0.6438055695773796
  0.1109883739015590  0.7786133178608491  0.3553169730930130
  0.2217305617073297  0.8923646675819077  0.6446496331004683
  0.4438077383448244  0.7784994352489449  0.3554371343443125
  0.5509024655299339  0.8967978115314248  0.6437590253408152
  0.7772485323258154  0.7791949069964975  0.3556178375631550
  0.8886942699488534  0.8966909678441323  0.6437178241316089
  0.1095674295089172  0.1157395249112405  0.4491199096430519
  0.2215978984313326  0.2281827653371380  0.5503286954153299
  0.1090308655977268  0.1171846254790401  0.6836468472228452
  0.2216237452158271  0.2236241972744990  0.3130526974819747
  0.4420512188691093  0.1172946887043324  0.4489883569356087
  0.5530449601824934  0.2286143521732294  0.5509252978809339
  0.4437263830102984  0.1190195980435776  0.6830130777138925
  0.5553143682229442  0.2230616409451409  0.3122674128048208
  0.7755887431284024  0.1173985971346301  0.4489897009961117
  0.8853867893274169  0.2280684319036053  0.5503542630314840
  0.7725116532172998  0.1187758410194331  0.6828977656116615
  0.8883487941233211  0.2237081518449076  0.3130533478879042
  0.1111869745304268  0.4481784743490421  0.4488728433864098
  0.2213857577815014  0.5600130313413246  0.5507216114057286
  0.1111418429067268  0.4518308136711901  0.6829572954398653
  0.2209836626252426  0.5574265268978148  0.3122448610926437
  0.4431933774852321  0.4487703589302723  0.4477281542159958
  0.5532150964612125  0.5597979238133870  0.5510200762600559
  0.4445202625623409  0.4503277078916885  0.7249662721096125
  0.5552917284855224  0.5573893007827180  0.3122756040948660
  0.7755079680769376  0.4482733386198732  0.4489922920791530
  0.8870767526122842  0.5612883233231092  0.5497669979838830
  0.7729753117881947  0.4517779007412832  0.6829270917278648
  0.8882269714273818  0.5571254033111088  0.3133654651538781
  0.1114220688442335  0.7815599360042634  0.4488597584208737
  0.2215123321901079  0.8921957559444105  0.5503132024714227
  0.1109767604151312  0.7806642071591940  0.6827271826618860
  0.2216219891879715  0.8904958902170681  0.3130007773423932
  0.4421506026199973  0.7815902440461387  0.4490101856097911
  0.5547739141381277  0.8937645390309786  0.5497575430679992
  0.4437338879487702  0.7814417737449181  0.6830336817267821
  0.5549902346275051  0.8904207434013092  0.3134950446298382
  0.7763773687440055  0.7824191452254423  0.4486725732123491
  0.8866571131581034  0.8936667935201746  0.5496920695383422
  0.7760778742655915  0.7838284578265804  0.6832417709678608
  0.8882663055752777  0.8905287195750624  0.3133304355657983
  0.4495284614495695  0.4495654315909976  0.7869352442963048
 
  0.00000000E+00  0.00000000E+00  0.00000000E+00
  0.00000000E+00  0.00000000E+00  0.00000000E+00
  0.00000000E+00  0.00000000E+00  0.00000000E+00
  0.00000000E+00  0.00000000E+00  0.00000000E+00
  0.00000000E+00  0.00000000E+00  0.00000000E+00
  0.00000000E+00  0.00000000E+00  0.00000000E+00
  0.00000000E+00  0.00000000E+00  0.00000000E+00
  0.00000000E+00  0.00000000E+00  0.00000000E+00
  0.00000000E+00  0.00000000E+00  0.00000000E+00
  0.00000000E+00  0.00000000E+00  0.00000000E+00
  0.00000000E+00  0.00000000E+00  0.00000000E+00
  0.00000000E+00  0.00000000E+00  0.00000000E+00
  0.00000000E+00  0.00000000E+00  0.00000000E+00
  0.00000000E+00  0.00000000E+00  0.00000000E+00
  0.00000000E+00  0.00000000E+00  0.00000000E+00
  0.00000000E+00  0.00000000E+00  0.00000000E+00
  0.00000000E+00  0.00000000E+00  0.00000000E+00
  0.00000000E+00  0.00000000E+00  0.00000000E+00
  0.00000000E+00  0.00000000E+00  0.00000000E+00
  0.00000000E+00  0.00000000E+00  0.00000000E+00
  0.00000000E+00  0.00000000E+00  0.00000000E+00
  0.00000000E+00  0.00000000E+00  0.00000000E+00
  0.00000000E+00  0.00000000E+00  0.00000000E+00
  0.00000000E+00  0.00000000E+00  0.00000000E+00
  0.00000000E+00  0.00000000E+00  0.00000000E+00
  0.00000000E+00  0.00000000E+00  0.00000000E+00
  0.00000000E+00  0.00000000E+00  0.00000000E+00
  0.00000000E+00  0.00000000E+00  0.00000000E+00
  0.00000000E+00  0.00000000E+00  0.00000000E+00
  0.00000000E+00  0.00000000E+00  0.00000000E+00
  0.00000000E+00  0.00000000E+00  0.00000000E+00
  0.00000000E+00  0.00000000E+00  0.00000000E+00
  0.00000000E+00  0.00000000E+00  0.00000000E+00
  0.00000000E+00  0.00000000E+00  0.00000000E+00
  0.00000000E+00  0.00000000E+00  0.00000000E+00
  0.00000000E+00  0.00000000E+00  0.00000000E+00
  0.00000000E+00  0.00000000E+00  0.00000000E+00
  0.00000000E+00  0.00000000E+00  0.00000000E+00
  0.00000000E+00  0.00000000E+00  0.00000000E+00
  0.00000000E+00  0.00000000E+00  0.00000000E+00
  0.00000000E+00  0.00000000E+00  0.00000000E+00
  0.00000000E+00  0.00000000E+00  0.00000000E+00
  0.00000000E+00  0.00000000E+00  0.00000000E+00
  0.00000000E+00  0.00000000E+00  0.00000000E+00
  0.00000000E+00  0.00000000E+00  0.00000000E+00
  0.00000000E+00  0.00000000E+00  0.00000000E+00
  0.00000000E+00  0.00000000E+00  0.00000000E+00
  0.00000000E+00  0.00000000E+00  0.00000000E+00
  0.00000000E+00  0.00000000E+00  0.00000000E+00
  0.00000000E+00  0.00000000E+00  0.00000000E+00
  0.00000000E+00  0.00000000E+00  0.00000000E+00
  0.00000000E+00  0.00000000E+00  0.00000000E+00
  0.00000000E+00  0.00000000E+00  0.00000000E+00
  0.00000000E+00  0.00000000E+00  0.00000000E+00
  0.00000000E+00  0.00000000E+00  0.00000000E+00
  0.00000000E+00  0.00000000E+00  0.00000000E+00
  0.00000000E+00  0.00000000E+00  0.00000000E+00
  0.00000000E+00  0.00000000E+00  0.00000000E+00
  0.00000000E+00  0.00000000E+00  0.00000000E+00
  0.00000000E+00  0.00000000E+00  0.00000000E+00
  0.00000000E+00  0.00000000E+00  0.00000000E+00
  0.00000000E+00  0.00000000E+00  0.00000000E+00
  0.00000000E+00  0.00000000E+00  0.00000000E+00
  0.00000000E+00  0.00000000E+00  0.00000000E+00
