CONTCAR                                 
   1.00000000000000     
    13.9656000136999996    0.0000000000000000    0.0000000000000000
     0.0000000000000000   11.8057003021000000    0.0000000000000000
     0.0000000000000000    0.0000000000000000   25.8033008574999982
   Ti   I    N    O    H 
    24    24    24     1     1
Direct
  0.1249714613778963  0.1669639583937242  0.4710521231375202
  0.0000194682116342  0.0000000000000000  0.5257195413063430
  0.3753110389654508  0.1666521628162926  0.4711380206377307
  0.2498568145463559  0.0000000000000000  0.5257285666130221
  0.6247397029037860  0.1666370255197585  0.4711275556361355
  0.5000188967854802  0.0000000000000000  0.5259230969737955
  0.8750599656278056  0.1669669172538736  0.4710480851393935
  0.7501825055708389  0.0000000000000000  0.5257225343129602
  0.1248727439041216  0.5000000000000000  0.4714460217984982
  0.0000087838541954  0.3331114849572539  0.5260299699183372
  0.3753473909398327  0.5000000000000000  0.4711417048004743
  0.2507990910932386  0.3332601808875654  0.5259677213064063
  0.6247129123197249  0.5000000000000000  0.4711320004033041
  0.5000293508992451  0.3333762217389546  0.5264318312376445
  0.8751663791190593  0.5000000000000000  0.4714391689862860
  0.7492281417283605  0.3332591253451913  0.5259673327870596
  0.1249714613778963  0.8330360316062824  0.4710521231375202
  0.0000087838541954  0.6668885360427441  0.5260299699183372
  0.3753110389654508  0.8333478271837137  0.4711380206377307
  0.2507990910932386  0.6667398401124330  0.5259677213064063
  0.6247397029037860  0.8333629644802476  0.4711275556361355
  0.5000293508992451  0.6666237992610440  0.5264318312376445
  0.8750599656278056  0.8330330727461401  0.4710480851393935
  0.7492281417283605  0.6667408956548069  0.5259673327870596
  0.0000153496371583  0.1665912074566309  0.3855451697855779
  0.1251013757979662  0.0000000000000000  0.6112743226272661
  0.2500392295453708  0.1673573908457599  0.3854802154817556
  0.3748398025306263  0.0000000000000000  0.6115342327819563
  0.5000142186228200  0.1666186071893206  0.3856055119743645
  0.6252708348841634  0.0000000000000000  0.6115142823078151
  0.7499818546785373  0.1673659945145874  0.3854708756467651
  0.8749612310668290  0.0000000000000000  0.6112731006082546
  0.0000281462752353  0.5000000000000000  0.3859065424629149
  0.1253069591374501  0.3324116043006939  0.6117855786946718
  0.2499549409253615  0.5000000000000000  0.3857296555470333
  0.3743205169597859  0.3339860058109091  0.6116718617214313
  0.5000214011409091  0.5000000000000000  0.3856067151854511
  0.6256931720121096  0.3338974331620671  0.6116682364440725
  0.7501140229642753  0.5000000000000000  0.3857195727842430
  0.8747226121394535  0.3324019805363717  0.6117860337084209
  0.0000153496371583  0.8334087825433752  0.3855451697855779
  0.1253069591374501  0.6675884166993042  0.6117855786946718
  0.2500392295453708  0.8326425991542468  0.3854802154817556
  0.3743205169597859  0.6660140151890894  0.6116718617214313
  0.5000142186228200  0.8333813828106853  0.3856055119743645
  0.6256931720121096  0.6661025878379310  0.6116682364440725
  0.7499818546785373  0.8326339954854188  0.3854708756467651
  0.8747226121394535  0.6675980404636265  0.6117860337084209
  0.1250276224794222  0.0000000000000000  0.4854802608313122
  0.0000195695082465  0.1665666686199854  0.5113588420009592
  0.3752494651410592  0.0000000000000000  0.4855093589558946
  0.2501434168970856  0.1665920112186564  0.5112235711043123
  0.6247945509359908  0.0000000000000000  0.4854974521244315
  0.5000280141695856  0.1666581571888284  0.5116380338723384
  0.8750182770881969  0.0000000000000000  0.4854784822963801
  0.7498931277497441  0.1665911613768691  0.5112165936688643
  0.1248109566631354  0.3332848234749464  0.4857614742532330
  0.0000196090816591  0.5000000000000000  0.5119378617480361
  0.3752427211181574  0.3333711959798200  0.4856906952699278
  0.2501502678368605  0.5000000000000000  0.5113210569778597
  0.6248072574323394  0.3333725506765900  0.4856830646595571
  0.5000337683270843  0.5000000000000000  0.5115986449507057
  0.8752238966049299  0.3332814366108988  0.4857617816293855
  0.7498880421587761  0.5000000000000000  0.5113148878216034
  0.1248109566631354  0.6667151975250520  0.4857614742532330
  0.0000195695082465  0.8334333213800211  0.5113588420009592
  0.3752427211181574  0.6666288250201784  0.4856906952699278
  0.2501434168970856  0.8334079787813427  0.5112235711043123
  0.6248072574323394  0.6666274703234082  0.4856830646595571
  0.5000280141695856  0.8333418328111777  0.5116380338723384
  0.8752238966049299  0.6667185843890990  0.4857617816293855
  0.7498931277497441  0.8334088286231370  0.5112165936688643
  0.5000752341329342  0.5000299699999999  0.6682772909568107
  0.5000140511837868  0.5000299699999999  0.7063337684056025
 
  0.00000000E+00  0.00000000E+00  0.00000000E+00
  0.00000000E+00  0.00000000E+00  0.00000000E+00
  0.00000000E+00  0.00000000E+00  0.00000000E+00
  0.00000000E+00  0.00000000E+00  0.00000000E+00
  0.00000000E+00  0.00000000E+00  0.00000000E+00
  0.00000000E+00  0.00000000E+00  0.00000000E+00
  0.00000000E+00  0.00000000E+00  0.00000000E+00
  0.00000000E+00  0.00000000E+00  0.00000000E+00
  0.00000000E+00  0.00000000E+00  0.00000000E+00
  0.00000000E+00  0.00000000E+00  0.00000000E+00
  0.00000000E+00  0.00000000E+00  0.00000000E+00
  0.00000000E+00  0.00000000E+00  0.00000000E+00
  0.00000000E+00  0.00000000E+00  0.00000000E+00
  0.00000000E+00  0.00000000E+00  0.00000000E+00
  0.00000000E+00  0.00000000E+00  0.00000000E+00
  0.00000000E+00  0.00000000E+00  0.00000000E+00
  0.00000000E+00  0.00000000E+00  0.00000000E+00
  0.00000000E+00  0.00000000E+00  0.00000000E+00
  0.00000000E+00  0.00000000E+00  0.00000000E+00
  0.00000000E+00  0.00000000E+00  0.00000000E+00
  0.00000000E+00  0.00000000E+00  0.00000000E+00
  0.00000000E+00  0.00000000E+00  0.00000000E+00
  0.00000000E+00  0.00000000E+00  0.00000000E+00
  0.00000000E+00  0.00000000E+00  0.00000000E+00
  0.00000000E+00  0.00000000E+00  0.00000000E+00
  0.00000000E+00  0.00000000E+00  0.00000000E+00
  0.00000000E+00  0.00000000E+00  0.00000000E+00
  0.00000000E+00  0.00000000E+00  0.00000000E+00
  0.00000000E+00  0.00000000E+00  0.00000000E+00
  0.00000000E+00  0.00000000E+00  0.00000000E+00
  0.00000000E+00  0.00000000E+00  0.00000000E+00
  0.00000000E+00  0.00000000E+00  0.00000000E+00
  0.00000000E+00  0.00000000E+00  0.00000000E+00
  0.00000000E+00  0.00000000E+00  0.00000000E+00
  0.00000000E+00  0.00000000E+00  0.00000000E+00
  0.00000000E+00  0.00000000E+00  0.00000000E+00
  0.00000000E+00  0.00000000E+00  0.00000000E+00
  0.00000000E+00  0.00000000E+00  0.00000000E+00
  0.00000000E+00  0.00000000E+00  0.00000000E+00
  0.00000000E+00  0.00000000E+00  0.00000000E+00
  0.00000000E+00  0.00000000E+00  0.00000000E+00
  0.00000000E+00  0.00000000E+00  0.00000000E+00
  0.00000000E+00  0.00000000E+00  0.00000000E+00
  0.00000000E+00  0.00000000E+00  0.00000000E+00
  0.00000000E+00  0.00000000E+00  0.00000000E+00
  0.00000000E+00  0.00000000E+00  0.00000000E+00
  0.00000000E+00  0.00000000E+00  0.00000000E+00
  0.00000000E+00  0.00000000E+00  0.00000000E+00
  0.00000000E+00  0.00000000E+00  0.00000000E+00
  0.00000000E+00  0.00000000E+00  0.00000000E+00
  0.00000000E+00  0.00000000E+00  0.00000000E+00
  0.00000000E+00  0.00000000E+00  0.00000000E+00
  0.00000000E+00  0.00000000E+00  0.00000000E+00
  0.00000000E+00  0.00000000E+00  0.00000000E+00
  0.00000000E+00  0.00000000E+00  0.00000000E+00
  0.00000000E+00  0.00000000E+00  0.00000000E+00
  0.00000000E+00  0.00000000E+00  0.00000000E+00
  0.00000000E+00  0.00000000E+00  0.00000000E+00
  0.00000000E+00  0.00000000E+00  0.00000000E+00
  0.00000000E+00  0.00000000E+00  0.00000000E+00
  0.00000000E+00  0.00000000E+00  0.00000000E+00
  0.00000000E+00  0.00000000E+00  0.00000000E+00
  0.00000000E+00  0.00000000E+00  0.00000000E+00
  0.00000000E+00  0.00000000E+00  0.00000000E+00
  0.00000000E+00  0.00000000E+00  0.00000000E+00
  0.00000000E+00  0.00000000E+00  0.00000000E+00
  0.00000000E+00  0.00000000E+00  0.00000000E+00
  0.00000000E+00  0.00000000E+00  0.00000000E+00
  0.00000000E+00  0.00000000E+00  0.00000000E+00
  0.00000000E+00  0.00000000E+00  0.00000000E+00
  0.00000000E+00  0.00000000E+00  0.00000000E+00
  0.00000000E+00  0.00000000E+00  0.00000000E+00
  0.00000000E+00  0.00000000E+00  0.00000000E+00
  0.00000000E+00  0.00000000E+00  0.00000000E+00
