CONTCAR\(10)                            
   1.00000000000000     
    11.0221996306999994    0.0000000000000000    0.0000000000000000
     0.0000000000000000   11.0221996306999994    0.0000000000000000
     0.0000000000000000    0.0000000000000000   21.0879001616999986
   Hf   Te
    27    18
Direct
  0.1666699980000033  0.1666699980000033  0.5804318459665776
  0.1666699980000033  0.1666699980000033  0.4195681080334258
 -0.0000000000000000  0.0000000000000000  0.5000000000000000
  0.5000000000000000  0.1666699980000033  0.5804318459665776
  0.5000000000000000  0.1666699980000033  0.4195681080334258
  0.3333300019999967  0.0000000000000000  0.5000000000000000
  0.8333299589999967  0.1666699980000033  0.5804318459665776
  0.8333299589999967  0.1666699980000033  0.4195681080334258
  0.6666700410000033  0.0000000000000000  0.5000000000000000
  0.1666699980000033  0.5000000000000000  0.5804318459665776
  0.1666699980000033  0.5000000000000000  0.4195681080334258
 -0.0000000000000000  0.3333300019999967  0.5000000000000000
  0.5000000000000000  0.5000000000000000  0.5804318459665776
  0.5000000000000000  0.5000000000000000  0.4195681080334258
  0.3333300019999967  0.3333300019999967  0.5000000000000000
  0.8333299589999967  0.5000000000000000  0.5804318459665776
  0.8333299589999967  0.5000000000000000  0.4195681080334258
  0.6666700410000033  0.3333300019999967  0.5000000000000000
  0.1666699980000033  0.8333299589999967  0.5804318459665776
  0.1666699980000033  0.8333299589999967  0.4195681080334258
 -0.0000000000000000  0.6666700410000033  0.5000000000000000
  0.5000000000000000  0.8333299589999967  0.5804318459665776
  0.5000000000000000  0.8333299589999967  0.4195681080334258
  0.3333300019999967  0.6666700410000033  0.5000000000000000
  0.8333299589999967  0.8333299589999967  0.5804318459665776
  0.8333299589999967  0.8333299589999967  0.4195681080334258
  0.6666700410000033  0.6666700410000033  0.5000000000000000
 -0.0000000000000000 -0.0000000000000000  0.6439463892068684
 -0.0000000000000000 -0.0000000000000000  0.3560535887931297
  0.3333300019999967 -0.0000000000000000  0.6439463892068684
  0.3333300019999967  0.0000000000000000  0.3560535887931297
  0.6666700410000033  0.0000000000000000  0.6439463892068684
  0.6666700410000033  0.0000000000000000  0.3560535887931297
 -0.0000000000000000  0.3333300019999967  0.6439463892068684
 -0.0000000000000000  0.3333300019999967  0.3560535887931297
  0.3333300019999967  0.3333300019999967  0.6439463892068684
  0.3333300019999967  0.3333300019999967  0.3560535887931297
  0.6666700410000033  0.3333300019999967  0.6439463892068684
  0.6666700410000033  0.3333300019999967  0.3560535887931297
  0.0000000000000000  0.6666700410000033  0.6439463892068684
  0.0000000000000000  0.6666700410000033  0.3560535887931297
  0.3333300019999967  0.6666700410000033  0.6439463892068684
  0.3333300019999967  0.6666700410000033  0.3560535887931297
  0.6666700410000033  0.6666700410000033  0.6439463892068684
  0.6666700410000033  0.6666700410000033  0.3560535887931297
 
  0.00000000E+00  0.00000000E+00  0.00000000E+00
  0.00000000E+00  0.00000000E+00  0.00000000E+00
  0.00000000E+00  0.00000000E+00  0.00000000E+00
  0.00000000E+00  0.00000000E+00  0.00000000E+00
  0.00000000E+00  0.00000000E+00  0.00000000E+00
  0.00000000E+00  0.00000000E+00  0.00000000E+00
  0.00000000E+00  0.00000000E+00  0.00000000E+00
  0.00000000E+00  0.00000000E+00  0.00000000E+00
  0.00000000E+00  0.00000000E+00  0.00000000E+00
  0.00000000E+00  0.00000000E+00  0.00000000E+00
  0.00000000E+00  0.00000000E+00  0.00000000E+00
  0.00000000E+00  0.00000000E+00  0.00000000E+00
  0.00000000E+00  0.00000000E+00  0.00000000E+00
  0.00000000E+00  0.00000000E+00  0.00000000E+00
  0.00000000E+00  0.00000000E+00  0.00000000E+00
  0.00000000E+00  0.00000000E+00  0.00000000E+00
  0.00000000E+00  0.00000000E+00  0.00000000E+00
  0.00000000E+00  0.00000000E+00  0.00000000E+00
  0.00000000E+00  0.00000000E+00  0.00000000E+00
  0.00000000E+00  0.00000000E+00  0.00000000E+00
  0.00000000E+00  0.00000000E+00  0.00000000E+00
  0.00000000E+00  0.00000000E+00  0.00000000E+00
  0.00000000E+00  0.00000000E+00  0.00000000E+00
  0.00000000E+00  0.00000000E+00  0.00000000E+00
  0.00000000E+00  0.00000000E+00  0.00000000E+00
  0.00000000E+00  0.00000000E+00  0.00000000E+00
  0.00000000E+00  0.00000000E+00  0.00000000E+00
  0.00000000E+00  0.00000000E+00  0.00000000E+00
  0.00000000E+00  0.00000000E+00  0.00000000E+00
  0.00000000E+00  0.00000000E+00  0.00000000E+00
  0.00000000E+00  0.00000000E+00  0.00000000E+00
  0.00000000E+00  0.00000000E+00  0.00000000E+00
  0.00000000E+00  0.00000000E+00  0.00000000E+00
  0.00000000E+00  0.00000000E+00  0.00000000E+00
  0.00000000E+00  0.00000000E+00  0.00000000E+00
  0.00000000E+00  0.00000000E+00  0.00000000E+00
  0.00000000E+00  0.00000000E+00  0.00000000E+00
  0.00000000E+00  0.00000000E+00  0.00000000E+00
  0.00000000E+00  0.00000000E+00  0.00000000E+00
  0.00000000E+00  0.00000000E+00  0.00000000E+00
  0.00000000E+00  0.00000000E+00  0.00000000E+00
  0.00000000E+00  0.00000000E+00  0.00000000E+00
  0.00000000E+00  0.00000000E+00  0.00000000E+00
  0.00000000E+00  0.00000000E+00  0.00000000E+00
  0.00000000E+00  0.00000000E+00  0.00000000E+00
