CONTCAR                                 
   1.00000000000000     
    14.0840997695999999    0.0000000000000000    0.0000000000000000
     0.0000000000000000   11.8172998428000007    0.0000000000000000
     0.0000000000000000    0.0000000000000000   21.4158000946000016
   Zr   H    Br   O 
    32    16    32     1
Direct
  0.1865224478401047  0.2400472783291610  0.4366637335166264
  0.0614534064547906  0.2544382399520305  0.5544435126975180
  0.1857092234070120  0.0021833728710021  0.5554424624097509
  0.0629307398757834  0.4962803419870976  0.4367151510147077
  0.4374023227610134  0.2341412733011623  0.4357680283631313
  0.3120647828855292  0.2628815735265741  0.5513077560211387
  0.4374248567638350 -0.0011365792349665  0.5552475373415965
  0.3143574279867911  0.4885975630600793  0.4445987385369261
  0.6884468476494721  0.2398505697246524  0.4367924285589939
  0.5626528776243485  0.2626524057883223  0.5513448365182283
  0.6891961783287799  0.0020880995713814  0.5555653879891248
  0.5605281477251837  0.4883546254806370  0.4446544713099173
  0.9375305540508185  0.2449755657602284  0.4365491400788512
  0.8135258456513378  0.2544691396182646  0.5544687724117633
  0.9375515019796224  0.0033580846101598  0.5564982118358187
  0.8119468435324021  0.4961706258912614  0.4367650441951945
  0.1874608334776707  0.7454293277827939  0.4402935709686992
  0.0615608938232237  0.7556902900351101  0.5570948469751270
  0.1808776435210341  0.5068125907770523  0.5586231268151416
  0.0618423694697492  0.9958061364149958  0.4345995007798190
  0.4376042246736732  0.7450563553981094  0.4418384529496484
  0.3094213576219553  0.7574724653485229  0.5579555580324451
  0.4378793693435810  0.5182805724516906  0.7100286376168916
  0.3115331066834743  0.9944196768339186  0.4346636160723156
  0.6875679658584080  0.7451644313987954  0.4403811002902703
  0.5657540794497659  0.7572620307911885  0.5581375782560056
  0.6941213371874768  0.5066843672682562  0.5587546985186904
  0.5634227668076542  0.9943382562180599  0.4348030201068895
  0.9374023220616596  0.7458979231773990  0.4383557025573585
  0.8135099302228375  0.7556015618090625  0.5571807304509295
  0.9375733563152620  0.5033651210359330  0.5569905120477608
  0.8130684716714527  0.9956386903789856  0.4346841514065686
  0.1867102092736817  0.0677442563958291  0.4646753169137779
  0.0609224377818778  0.4283868547592575  0.5263993158951591
  0.4374269713922548  0.0637674537722695  0.4649986291720551
  0.3098990409708358  0.4408866446334371  0.5355687853923766
  0.6882356024703780  0.0675985648825205  0.4647979218345592
  0.5650217390451497  0.4407989547506150  0.5356668652269166
  0.9374526619468413  0.0706636098413067  0.4656695584275849
  0.8141176416745532  0.4284173447816106  0.5264616536798962
  0.1881274527105605  0.5694211817502045  0.4686335095757095
  0.0613662254266908  0.9285212867488160  0.5249778301549132
  0.4374871723860976  0.5749299654355009  0.4709094009329363
  0.3109143843934264  0.9280341111730936  0.5254145039384692
  0.6867323392777144  0.5691405564840926  0.4687420383321720
  0.5639593745351857  0.9278194503907874  0.5255469402121630
  0.9374173748973278  0.5707765536110436  0.4665554455910887
  0.8136188866026075  0.9285007236928423  0.5250896388519953
  0.1915909562328466  0.4128149283019798  0.3533423525668165
  0.0624873351582297  0.0887959451449025  0.6419796053904230
  0.1869699763441191  0.3371073363880020  0.6441443200084828
  0.0621549909603549  0.1622832994475270  0.3458917213427807
  0.4373241657110847  0.4100001965495381  0.3556633781297452
  0.3123087911215559  0.0912735936557543  0.6378906212214630
  0.4372697782017171  0.3260712870924186  0.6518279461486245
  0.3113101686903604  0.1593890989363763  0.3451037773154759
  0.6834349270065645  0.4123572327844170  0.3534015242424265
  0.5623842050181923  0.0910793707671151  0.6380321083658999
  0.6877188203500688  0.3367544519542728  0.6441154620697019
  0.5637442537595775  0.1593624099353561  0.3453319839404724
  0.9373687484924182  0.4132809855932799  0.3501660614206727
  0.8127107206875139  0.0888549151323675  0.6419349145116128
  0.9374461220307612  0.3362958927564422  0.6451418411055673
  0.8128457300857376  0.1621174846830437  0.3460402069014121
  0.1871277380903587  0.9081878523217949  0.3495882551043587
  0.0569644899182841  0.5888787450727171  0.6449301560311853
  0.1845474765661977  0.8440106191285588  0.6469978419622596
  0.0633209036155985  0.6622920222072866  0.3492955258377193
  0.4376008874235749  0.9065285755071748  0.3506167190900162
  0.2876289178407930  0.6002954551333551  0.6572436481505216
  0.4374643561856132  0.8373549884929091  0.6471572282607482
  0.3135285404170263  0.6562861176500099  0.3545198305185021
  0.6876751752869031  0.9080238997374609  0.3497271460624332
  0.5884522821525552  0.6003183867592050  0.6578992544193399
  0.6907263381593688  0.8441368254252933  0.6471561144430453
  0.5615418981587708  0.6559157828232937  0.3545603263384504
  0.9374315552515040  0.9107045356919984  0.3489809758731746
  0.8184665699092375  0.5886966419155395  0.6449889011588767
  0.9376986323530702  0.8406822438434824  0.6465612900480685
  0.8116146823669387  0.6620431988646394  0.3492214804992045
  0.4374958529621971  0.5100859888423022  0.7917593947449543
 
  0.00000000E+00  0.00000000E+00  0.00000000E+00
  0.00000000E+00  0.00000000E+00  0.00000000E+00
  0.00000000E+00  0.00000000E+00  0.00000000E+00
  0.00000000E+00  0.00000000E+00  0.00000000E+00
  0.00000000E+00  0.00000000E+00  0.00000000E+00
  0.00000000E+00  0.00000000E+00  0.00000000E+00
  0.00000000E+00  0.00000000E+00  0.00000000E+00
  0.00000000E+00  0.00000000E+00  0.00000000E+00
  0.00000000E+00  0.00000000E+00  0.00000000E+00
  0.00000000E+00  0.00000000E+00  0.00000000E+00
  0.00000000E+00  0.00000000E+00  0.00000000E+00
  0.00000000E+00  0.00000000E+00  0.00000000E+00
  0.00000000E+00  0.00000000E+00  0.00000000E+00
  0.00000000E+00  0.00000000E+00  0.00000000E+00
  0.00000000E+00  0.00000000E+00  0.00000000E+00
  0.00000000E+00  0.00000000E+00  0.00000000E+00
  0.00000000E+00  0.00000000E+00  0.00000000E+00
  0.00000000E+00  0.00000000E+00  0.00000000E+00
  0.00000000E+00  0.00000000E+00  0.00000000E+00
  0.00000000E+00  0.00000000E+00  0.00000000E+00
  0.00000000E+00  0.00000000E+00  0.00000000E+00
  0.00000000E+00  0.00000000E+00  0.00000000E+00
  0.00000000E+00  0.00000000E+00  0.00000000E+00
  0.00000000E+00  0.00000000E+00  0.00000000E+00
  0.00000000E+00  0.00000000E+00  0.00000000E+00
  0.00000000E+00  0.00000000E+00  0.00000000E+00
  0.00000000E+00  0.00000000E+00  0.00000000E+00
  0.00000000E+00  0.00000000E+00  0.00000000E+00
  0.00000000E+00  0.00000000E+00  0.00000000E+00
  0.00000000E+00  0.00000000E+00  0.00000000E+00
  0.00000000E+00  0.00000000E+00  0.00000000E+00
  0.00000000E+00  0.00000000E+00  0.00000000E+00
  0.00000000E+00  0.00000000E+00  0.00000000E+00
  0.00000000E+00  0.00000000E+00  0.00000000E+00
  0.00000000E+00  0.00000000E+00  0.00000000E+00
  0.00000000E+00  0.00000000E+00  0.00000000E+00
  0.00000000E+00  0.00000000E+00  0.00000000E+00
  0.00000000E+00  0.00000000E+00  0.00000000E+00
  0.00000000E+00  0.00000000E+00  0.00000000E+00
  0.00000000E+00  0.00000000E+00  0.00000000E+00
  0.00000000E+00  0.00000000E+00  0.00000000E+00
  0.00000000E+00  0.00000000E+00  0.00000000E+00
  0.00000000E+00  0.00000000E+00  0.00000000E+00
  0.00000000E+00  0.00000000E+00  0.00000000E+00
  0.00000000E+00  0.00000000E+00  0.00000000E+00
  0.00000000E+00  0.00000000E+00  0.00000000E+00
  0.00000000E+00  0.00000000E+00  0.00000000E+00
  0.00000000E+00  0.00000000E+00  0.00000000E+00
  0.00000000E+00  0.00000000E+00  0.00000000E+00
  0.00000000E+00  0.00000000E+00  0.00000000E+00
  0.00000000E+00  0.00000000E+00  0.00000000E+00
  0.00000000E+00  0.00000000E+00  0.00000000E+00
  0.00000000E+00  0.00000000E+00  0.00000000E+00
  0.00000000E+00  0.00000000E+00  0.00000000E+00
  0.00000000E+00  0.00000000E+00  0.00000000E+00
  0.00000000E+00  0.00000000E+00  0.00000000E+00
  0.00000000E+00  0.00000000E+00  0.00000000E+00
  0.00000000E+00  0.00000000E+00  0.00000000E+00
  0.00000000E+00  0.00000000E+00  0.00000000E+00
  0.00000000E+00  0.00000000E+00  0.00000000E+00
  0.00000000E+00  0.00000000E+00  0.00000000E+00
  0.00000000E+00  0.00000000E+00  0.00000000E+00
  0.00000000E+00  0.00000000E+00  0.00000000E+00
  0.00000000E+00  0.00000000E+00  0.00000000E+00
  0.00000000E+00  0.00000000E+00  0.00000000E+00
  0.00000000E+00  0.00000000E+00  0.00000000E+00
  0.00000000E+00  0.00000000E+00  0.00000000E+00
  0.00000000E+00  0.00000000E+00  0.00000000E+00
  0.00000000E+00  0.00000000E+00  0.00000000E+00
  0.00000000E+00  0.00000000E+00  0.00000000E+00
  0.00000000E+00  0.00000000E+00  0.00000000E+00
  0.00000000E+00  0.00000000E+00  0.00000000E+00
  0.00000000E+00  0.00000000E+00  0.00000000E+00
  0.00000000E+00  0.00000000E+00  0.00000000E+00
  0.00000000E+00  0.00000000E+00  0.00000000E+00
  0.00000000E+00  0.00000000E+00  0.00000000E+00
  0.00000000E+00  0.00000000E+00  0.00000000E+00
  0.00000000E+00  0.00000000E+00  0.00000000E+00
  0.00000000E+00  0.00000000E+00  0.00000000E+00
  0.00000000E+00  0.00000000E+00  0.00000000E+00
  0.00000000E+00  0.00000000E+00  0.00000000E+00
