CONTCAR\(2)                             
   1.00000000000000     
    12.9315996169999998    0.0000000000000000    0.0000000000000000
     0.0000000000000000   12.9343004226999998    0.0000000000000000
     0.0000000000000000    0.0000000000000000   24.0856990814000014
   La   Te   Se   O    H 
    18    36    18     1     1
Selective dynamics
Direct
  0.1655794662483956  0.0016589054066785  0.5781420778218802   F   F   F
  0.9977493468763541  0.1684745603001900  0.4238394664443987   F   F   F
  0.5000006426970884  0.0015679244920932  0.5781713108959678   F   F   F
  0.3307728281358280  0.1676147300344084  0.4227137321966197   F   F   F
  0.8340098077720839  0.0018632578463809  0.5785796866970614   F   F   F
  0.6649257977274274  0.1677404017849966  0.4232662562299083   F   F   F
  0.1650165085424291  0.3350365560628603  0.5782842765682261   F   F   F
  0.9975324332792113  0.5016070988504566  0.4240749888551321   F   F   F
  0.4961594392615680  0.3271271998662471  0.5749865047922071   F   F   F
  0.3308714406487212  0.5017022059687193  0.4234250910102233   F   F   F
  0.8319860090843392  0.3348506905782926  0.5795532248242452   F   F   F
  0.6641164918334823  0.5016891564505315  0.4240198684644128   F   F   F
  0.1645332368798620  0.6679592045581089  0.5782119063772626   F   F   F
  0.9977927245577050  0.8347583358314736  0.4237614271203682   F   F   F
  0.4964102804684245  0.6757010233478127  0.5751459884900143   F   F   F
  0.3308085400949494  0.8356149421610084  0.4228062670447628   F   F   F
  0.8320225509771078  0.6687916439759221  0.5793972925475828   F   F   F
  0.6649219319651749  0.8355942337819187  0.4231556909519725   F   F   F
  0.0063418567136182  0.0019955132050811  0.6900765453589273   F   F   F
  0.1641114149123624  0.1683280999453416  0.3125565828230421   F   F   F
  0.1647810920743638  0.1680871055941253  0.6897984354865443   F   F   F
  0.9980272058187794  0.0015312555581488  0.3127666008613446   F   F   F
  0.3354673092926603  0.0022805652328799  0.6891486396362581   F   F   F
  0.4977214781584109  0.1683684648124455  0.3122502210778748   F   F   F
  0.4972699410418215  0.1670287730614177  0.6887267190168771   F   F   F
  0.3305621861355164  0.0015345666048674  0.3120885610598805   F   F   F
  0.6706678309724552  0.0011983972643748  0.6901855083335633   F   F   F
  0.8314958377334847  0.1684609686985752  0.3128489561280432   F   F   F
  0.8325005450875977  0.1673616219711676  0.6906126838380260   F   F   F
  0.6644588451301345  0.0020451735845484  0.3123413606535550   F   F   F
  0.9995271238008883  0.3350050639387021  0.6903426216752209   F   F   F
  0.1641582689041456  0.5020523441616618  0.3129219025164005   F   F   F
  0.1716575056616350  0.5009102947149984  0.6893541250287782   F   F   F
  0.9975961363139305  0.3353808583670883  0.3131523646975296   F   F   F
  0.3327605363296087  0.3356485459412326  0.6868906343553292   F   F   F
  0.4981557547169047  0.5015532334032144  0.3130614429651146   F   F   F
  0.5156480126802521  0.5016816433097517  0.6807342849988842   F   F   F
  0.3311443606762836  0.3352141352124889  0.3124275100188214   F   F   F
  0.6692989642108742  0.3300009665723564  0.6909226659243828   F   F   F
  0.8305704351529144  0.5015330132478724  0.3131252463168366   F   F   F
  0.8374302453710314  0.5020070687201823  0.6904752884442900   F   F   F
  0.6646615217646143  0.3348259408589769  0.3129360067746987   F   F   F
  0.9987991959235174  0.6678840418221412  0.6900380516730280   F   F   F
  0.1641534884866545  0.8345506744045039  0.3124906532634526   F   F   F
  0.1643178418672804  0.8357565711590738  0.6898854142668469   F   F   F
  0.9973108596324849  0.6680523811530463  0.3131838509822629   F   F   F
  0.3314618754531224  0.6697424991333492  0.6870900261542374   F   F   F
  0.4976310743545298  0.8353190751827100  0.3122263127991260   F   F   F
  0.4980894215691265  0.8358922158075828  0.6884608258861391   F   F   F
  0.3311397716737190  0.6683988808822221  0.3124759907901478   F   F   F
  0.6684127507956248  0.6720781651228336  0.6897822259620057   F   F   F
  0.8314027620123454  0.8351246225378191  0.3127657764994964   F   F   F
  0.8333463555111891  0.8375403429791746  0.6903582357887359   F   F   F
  0.6644631453606848  0.6682051367059287  0.3128426476884201   F   F   F
  0.9982123663756681  0.1690879522269313  0.5508184956072242   F   F   F
  0.1639730394787264  0.0014133248608772  0.4515492833307349   F   F   F
  0.3308773520187884  0.1663723450017187  0.5495253512675120   F   F   F
  0.4980195124919291  0.0016549733050226  0.4513705634625182   F   F   F
  0.6659405736396096  0.1671853802815377  0.5504371396536740   F   F   F
  0.8317319833118262  0.0016585144211874  0.4518743828637639   F   F   F
  0.9981504387878459  0.5017251287417466  0.5510588128073408   F   F   F
  0.1650082371370658  0.3351151551821658  0.4518481476326244   F   F   F
  0.3348117192789459  0.5018727747320781  0.5505982591215499   F   F   F
  0.4979251978984962  0.3339802626441042  0.4505014853888269   F   F   F
  0.6586304591905048  0.5012800289537367  0.5536973391930786   F   F   F
  0.8298583261001227  0.3359343234911023  0.4527425936994902   F   F   F
  0.9984427500768547  0.8345377302798695  0.5506853431417937   F   F   F
  0.1649531478004391  0.6679977325031317  0.4518315192554496   F   F   F
  0.3307993402684204  0.8365443537370112  0.5497629783900422   F   F   F
  0.4979513324598344  0.6693892697349071  0.4506873231632582   F   F   F
  0.6662131910943998  0.8360412130404526  0.5502329226080249   F   F   F
  0.8301143325745741  0.6673713843162403  0.4527969032122812   F   F   F
  0.4906253210640088  0.5008391277084883  0.7628221185962829   T   T   T
  0.4296493466071851  0.5448691626676734  0.7684056193343511   T   T   T
 
  0.00000000E+00  0.00000000E+00  0.00000000E+00
  0.00000000E+00  0.00000000E+00  0.00000000E+00
  0.00000000E+00  0.00000000E+00  0.00000000E+00
  0.00000000E+00  0.00000000E+00  0.00000000E+00
  0.00000000E+00  0.00000000E+00  0.00000000E+00
  0.00000000E+00  0.00000000E+00  0.00000000E+00
  0.00000000E+00  0.00000000E+00  0.00000000E+00
  0.00000000E+00  0.00000000E+00  0.00000000E+00
  0.00000000E+00  0.00000000E+00  0.00000000E+00
  0.00000000E+00  0.00000000E+00  0.00000000E+00
  0.00000000E+00  0.00000000E+00  0.00000000E+00
  0.00000000E+00  0.00000000E+00  0.00000000E+00
  0.00000000E+00  0.00000000E+00  0.00000000E+00
  0.00000000E+00  0.00000000E+00  0.00000000E+00
  0.00000000E+00  0.00000000E+00  0.00000000E+00
  0.00000000E+00  0.00000000E+00  0.00000000E+00
  0.00000000E+00  0.00000000E+00  0.00000000E+00
  0.00000000E+00  0.00000000E+00  0.00000000E+00
  0.00000000E+00  0.00000000E+00  0.00000000E+00
  0.00000000E+00  0.00000000E+00  0.00000000E+00
  0.00000000E+00  0.00000000E+00  0.00000000E+00
  0.00000000E+00  0.00000000E+00  0.00000000E+00
  0.00000000E+00  0.00000000E+00  0.00000000E+00
  0.00000000E+00  0.00000000E+00  0.00000000E+00
  0.00000000E+00  0.00000000E+00  0.00000000E+00
  0.00000000E+00  0.00000000E+00  0.00000000E+00
  0.00000000E+00  0.00000000E+00  0.00000000E+00
  0.00000000E+00  0.00000000E+00  0.00000000E+00
  0.00000000E+00  0.00000000E+00  0.00000000E+00
  0.00000000E+00  0.00000000E+00  0.00000000E+00
  0.00000000E+00  0.00000000E+00  0.00000000E+00
  0.00000000E+00  0.00000000E+00  0.00000000E+00
  0.00000000E+00  0.00000000E+00  0.00000000E+00
  0.00000000E+00  0.00000000E+00  0.00000000E+00
  0.00000000E+00  0.00000000E+00  0.00000000E+00
  0.00000000E+00  0.00000000E+00  0.00000000E+00
  0.00000000E+00  0.00000000E+00  0.00000000E+00
  0.00000000E+00  0.00000000E+00  0.00000000E+00
  0.00000000E+00  0.00000000E+00  0.00000000E+00
  0.00000000E+00  0.00000000E+00  0.00000000E+00
  0.00000000E+00  0.00000000E+00  0.00000000E+00
  0.00000000E+00  0.00000000E+00  0.00000000E+00
  0.00000000E+00  0.00000000E+00  0.00000000E+00
  0.00000000E+00  0.00000000E+00  0.00000000E+00
  0.00000000E+00  0.00000000E+00  0.00000000E+00
  0.00000000E+00  0.00000000E+00  0.00000000E+00
  0.00000000E+00  0.00000000E+00  0.00000000E+00
  0.00000000E+00  0.00000000E+00  0.00000000E+00
  0.00000000E+00  0.00000000E+00  0.00000000E+00
  0.00000000E+00  0.00000000E+00  0.00000000E+00
  0.00000000E+00  0.00000000E+00  0.00000000E+00
  0.00000000E+00  0.00000000E+00  0.00000000E+00
  0.00000000E+00  0.00000000E+00  0.00000000E+00
  0.00000000E+00  0.00000000E+00  0.00000000E+00
  0.00000000E+00  0.00000000E+00  0.00000000E+00
  0.00000000E+00  0.00000000E+00  0.00000000E+00
  0.00000000E+00  0.00000000E+00  0.00000000E+00
  0.00000000E+00  0.00000000E+00  0.00000000E+00
  0.00000000E+00  0.00000000E+00  0.00000000E+00
  0.00000000E+00  0.00000000E+00  0.00000000E+00
  0.00000000E+00  0.00000000E+00  0.00000000E+00
  0.00000000E+00  0.00000000E+00  0.00000000E+00
  0.00000000E+00  0.00000000E+00  0.00000000E+00
  0.00000000E+00  0.00000000E+00  0.00000000E+00
  0.00000000E+00  0.00000000E+00  0.00000000E+00
  0.00000000E+00  0.00000000E+00  0.00000000E+00
  0.00000000E+00  0.00000000E+00  0.00000000E+00
  0.00000000E+00  0.00000000E+00  0.00000000E+00
  0.00000000E+00  0.00000000E+00  0.00000000E+00
  0.00000000E+00  0.00000000E+00  0.00000000E+00
  0.00000000E+00  0.00000000E+00  0.00000000E+00
  0.00000000E+00  0.00000000E+00  0.00000000E+00
  0.00000000E+00  0.00000000E+00  0.00000000E+00
  0.00000000E+00  0.00000000E+00  0.00000000E+00
