 Mn1 In2 Se4                            
   1.00000000000000     
     4.1012161098301183    0.0000000000000000    0.0000000000000000
     2.0506080549150592    3.5517632902294580    0.0000000000000000
     0.0000000000000000    0.0000000000000000   24.8090587107800005
   Mn   In   Se
     1     2     4
Direct
  0.6666676247717112  0.6666673446536742  0.3276842952830056
 -0.0000001628541429 -0.0000002608025751  0.4858609989896565
  0.3333325083737349  0.3333327186322956  0.6538421354531508
  0.0000009054864115  0.0000010569420805  0.2996155000819989
 -0.0000005875212017 -0.0000005583475793  0.7023792714017705
  0.6666664937840596  0.6666665473764647  0.4303685079901343
  0.3333332179594277  0.3333331515456390  0.5502610489178448
 
  0.00000000E+00  0.00000000E+00  0.00000000E+00
  0.00000000E+00  0.00000000E+00  0.00000000E+00
  0.00000000E+00  0.00000000E+00  0.00000000E+00
  0.00000000E+00  0.00000000E+00  0.00000000E+00
  0.00000000E+00  0.00000000E+00  0.00000000E+00
  0.00000000E+00  0.00000000E+00  0.00000000E+00
  0.00000000E+00  0.00000000E+00  0.00000000E+00
