CONTCAR                                 
   1.00000000000000     
    11.2263002396000005    0.0000000000000000    0.0000000000000000
     0.0000000000000000   21.7961997986000000    0.0000000000000000
     0.0000000000000000    0.0000000000000000   19.3752994536999985
   Ta   Te   Pd   O 
     9    42     9     1
Direct
  0.1674621002877004  0.4773068981023982  0.4983149083267335
  0.1699121409853888  0.1238535877312472  0.5050960902176271
  0.1665868690389303  0.7760535986353858  0.5162845869191699
  0.5000000000000000  0.4789452632178239  0.4974533946746007
  0.5000000000000000  0.1233120890246227  0.5052140173307933
  0.5000000000000000  0.7747289224147522  0.5151813604217566
  0.8325378457123023  0.4773068981023982  0.4983149083267335
  0.8300878050146139  0.1238535877312472  0.5050960902176271
  0.8334130769610724  0.7760535986353858  0.5162845869191699
  0.0000000000000000  0.4091041058418554  0.4191301017328541
  0.1681744907266989  0.2396845298635171  0.4292401742855816
  0.1668010104511950  0.8901654804605315  0.5906975310222151
  0.0000000000000000  0.8437385796149144  0.4365986768814949
  0.0000000000000000  0.5510788421840331  0.4254272489505126
  0.0000000000000000  0.4799423203115367  0.6108936622756502
  0.1662286554669805  0.0049542461420060  0.4368420091493093
  0.0000000000000000  0.0563227341689014  0.5854987821078197
  0.1678191405708773  0.5936086735229722  0.5716376646672714
  0.0000000000000000  0.1978255058760823  0.5774898294241950
  0.1649860720480660  0.7002942605917966  0.4066909476514908
  0.0000000000000000  0.1208908165511033  0.3940151361755966
  0.0000000000000000  0.7394721004924136  0.6138558157890444
  0.1696679001612793  0.3598596234856259  0.5722323420898761
  0.3342803699369341  0.4112852331332917  0.4166298106159729
  0.5000000000000000  0.2375779578350574  0.4204308752023067
  0.5000000000000000  0.8887567128175107  0.5884099334941979
  0.3344995186587951  0.8420195665079930  0.4339052567970967
  0.3328957505233419  0.5516607252901125  0.4234045678580287
  0.3336766789263805  0.4817511248703141  0.6106705477106473
  0.5000000000000000  0.0037426730646928  0.4339777315679498
  0.3324308108122551  0.0499183140803936  0.5830752301488502
  0.5000000000000000  0.5942441432980274  0.5714497270274208
  0.3364315331404413  0.2032136324702307  0.5743030335323738
  0.5000000000000000  0.6982811565661464  0.4064334982399274
  0.3323304657240556  0.1200662540333042  0.3906840017688324
  0.3335425699523782  0.7408943869242179  0.6137629166871150
  0.5000000000000000  0.3624268644164559  0.5716935000624161
  0.6657196510630641  0.4112852331332917  0.4166298106159729
  0.8318254552733038  0.2396845298635171  0.4292401742855816
  0.8331989355488076  0.8901654804605315  0.5906975310222151
  0.6655005023412031  0.8420195665079930  0.4339052567970967
  0.6671042704766563  0.5516607252901125  0.4234045678580287
  0.6663233420736177  0.4817511248703141  0.6106705477106473
  0.8337712905330221  0.0049542461420060  0.4368420091493093
  0.6675692101877431  0.0499183140803936  0.5830752301488502
  0.8321808054291253  0.5936086735229722  0.5716376646672714
  0.6635684878595569  0.2032136324702307  0.5743030335323738
  0.8350138739519366  0.7002942605917966  0.4066909476514908
  0.6676695552759426  0.1200662540333042  0.3906840017688324
  0.6664574510476200  0.7408943869242179  0.6137629166871150
  0.8303320458387233  0.3598596234856259  0.5722323420898761
  0.0000000000000000  0.9471430372455458  0.5134578083152022
  0.0000000000000000  0.3017694802199600  0.4984863909354189
  0.0000000000000000  0.6617001588405174  0.5023779438287619
  0.3328590857184111  0.9450579351568535  0.5102981011430074
  0.3368369870393622  0.3038939477021714  0.4938826590401817
  0.3327229550479416  0.6625036360302872  0.5020825007316532
  0.6671409352815871  0.9450579351568535  0.5102981011430074
  0.6631630339606360  0.3038939477021714  0.4938826590401817
  0.6672770659520566  0.6625036360302872  0.5020825007316532
  0.5000400110000029  0.1348952565287149  0.6107053048359461
 
  0.00000000E+00  0.00000000E+00  0.00000000E+00
  0.00000000E+00  0.00000000E+00  0.00000000E+00
  0.00000000E+00  0.00000000E+00  0.00000000E+00
  0.00000000E+00  0.00000000E+00  0.00000000E+00
  0.00000000E+00  0.00000000E+00  0.00000000E+00
  0.00000000E+00  0.00000000E+00  0.00000000E+00
  0.00000000E+00  0.00000000E+00  0.00000000E+00
  0.00000000E+00  0.00000000E+00  0.00000000E+00
  0.00000000E+00  0.00000000E+00  0.00000000E+00
  0.00000000E+00  0.00000000E+00  0.00000000E+00
  0.00000000E+00  0.00000000E+00  0.00000000E+00
  0.00000000E+00  0.00000000E+00  0.00000000E+00
  0.00000000E+00  0.00000000E+00  0.00000000E+00
  0.00000000E+00  0.00000000E+00  0.00000000E+00
  0.00000000E+00  0.00000000E+00  0.00000000E+00
  0.00000000E+00  0.00000000E+00  0.00000000E+00
  0.00000000E+00  0.00000000E+00  0.00000000E+00
  0.00000000E+00  0.00000000E+00  0.00000000E+00
  0.00000000E+00  0.00000000E+00  0.00000000E+00
  0.00000000E+00  0.00000000E+00  0.00000000E+00
  0.00000000E+00  0.00000000E+00  0.00000000E+00
  0.00000000E+00  0.00000000E+00  0.00000000E+00
  0.00000000E+00  0.00000000E+00  0.00000000E+00
  0.00000000E+00  0.00000000E+00  0.00000000E+00
  0.00000000E+00  0.00000000E+00  0.00000000E+00
  0.00000000E+00  0.00000000E+00  0.00000000E+00
  0.00000000E+00  0.00000000E+00  0.00000000E+00
  0.00000000E+00  0.00000000E+00  0.00000000E+00
  0.00000000E+00  0.00000000E+00  0.00000000E+00
  0.00000000E+00  0.00000000E+00  0.00000000E+00
  0.00000000E+00  0.00000000E+00  0.00000000E+00
  0.00000000E+00  0.00000000E+00  0.00000000E+00
  0.00000000E+00  0.00000000E+00  0.00000000E+00
  0.00000000E+00  0.00000000E+00  0.00000000E+00
  0.00000000E+00  0.00000000E+00  0.00000000E+00
  0.00000000E+00  0.00000000E+00  0.00000000E+00
  0.00000000E+00  0.00000000E+00  0.00000000E+00
  0.00000000E+00  0.00000000E+00  0.00000000E+00
  0.00000000E+00  0.00000000E+00  0.00000000E+00
  0.00000000E+00  0.00000000E+00  0.00000000E+00
  0.00000000E+00  0.00000000E+00  0.00000000E+00
  0.00000000E+00  0.00000000E+00  0.00000000E+00
  0.00000000E+00  0.00000000E+00  0.00000000E+00
  0.00000000E+00  0.00000000E+00  0.00000000E+00
  0.00000000E+00  0.00000000E+00  0.00000000E+00
  0.00000000E+00  0.00000000E+00  0.00000000E+00
  0.00000000E+00  0.00000000E+00  0.00000000E+00
  0.00000000E+00  0.00000000E+00  0.00000000E+00
  0.00000000E+00  0.00000000E+00  0.00000000E+00
  0.00000000E+00  0.00000000E+00  0.00000000E+00
  0.00000000E+00  0.00000000E+00  0.00000000E+00
  0.00000000E+00  0.00000000E+00  0.00000000E+00
  0.00000000E+00  0.00000000E+00  0.00000000E+00
  0.00000000E+00  0.00000000E+00  0.00000000E+00
  0.00000000E+00  0.00000000E+00  0.00000000E+00
  0.00000000E+00  0.00000000E+00  0.00000000E+00
  0.00000000E+00  0.00000000E+00  0.00000000E+00
  0.00000000E+00  0.00000000E+00  0.00000000E+00
  0.00000000E+00  0.00000000E+00  0.00000000E+00
  0.00000000E+00  0.00000000E+00  0.00000000E+00
  0.00000000E+00  0.00000000E+00  0.00000000E+00
