CONTCAR\(2)                             
   1.00000000000000     
     8.6349000931000006    0.0000000000000000    0.0000000000000000
     0.0000000000000000    8.9694995879999997    0.0000000000000000
     0.0000000000000000    0.0000000000000000   22.5806007384999994
   V    B    O    H 
    27    36    18     1
Direct
  0.1668905398712184  0.1658044786375541  0.6182082702466474
  0.0001209379476990  0.1655286334392585  0.5007083876120149
  0.1668444076906326  0.1660774012999369  0.3825154654279288
  0.4999491700355136  0.1658010332152031  0.6181807169066218
  0.3333691553442435  0.1657332789400385  0.5007663270073408
  0.4998889556803690  0.1660687744686626  0.3825185605941499
  0.8333957070453337  0.1656761723268971  0.6182139867688718
  0.6666051497875287  0.1655181401435613  0.5007059950924102
  0.8333672650265882  0.1658161130256772  0.3823811721490387
  0.1668699616208471  0.5001743578119928  0.6179564151107115
  0.9999579089573984  0.4993849784375115  0.5004254934877395
  0.1664949615341555  0.4986644170159522  0.3823938920554966
  0.4998671012562852  0.5001912350393241  0.6179623665880811
  0.3333755774418918  0.4993484399664752  0.5005140137632651
  0.5002811963141696  0.4986704408254283  0.3824079489082592
  0.8333792500468178  0.4994574647423420  0.6181864265176031
  0.6667919883849152  0.4993762152701464  0.5004277961303245
  0.8333762067418249  0.4990005226662859  0.3824203883329389
  0.1631347879784926  0.8318180710543928  0.6159386425454514
  0.9999739886340322  0.8325815682243061  0.4997179235009170
  0.1665008006250588  0.8324987760291691  0.3823101879821778
  0.5036886078345901  0.8317972403889087  0.6159473423113653
  0.3333810541433238  0.8323870609510848  0.4997760582877788
  0.5002323223768883  0.8325034154010638  0.3823062275416831
  0.8334337037947108  0.8316389923183038  0.6188350889823084
  0.6667624522964744  0.8325881394519072  0.4997146720397154
  0.8333964504344777  0.8326841721318772  0.3822675612325952
  0.0003366567321663  0.9978661973383893  0.5760436915145419
  0.1671566450660933  0.9989897597200041  0.5396903614924042
  0.0000496505195997  0.9994863302123136  0.4246307059369769
  0.1668147904799255  0.9994206680189635  0.4608405363873800
  0.3333922739125867  0.9948026158921905  0.5771906051147155
  0.4996086318990507  0.9989745491517326  0.5396882963065082
  0.3333757041217069  0.9997479285205202  0.4245693995951996
  0.4999339540511087  0.9994091572982668  0.4608428380744130
  0.6664237053889011  0.9978713816235185  0.5760377643531598
  0.8333790799732981  0.9991847266851437  0.5398061255860114
  0.6666852104851841  0.9994800801951556  0.4246295251823540
  0.8333713586568834  0.9994330612625788  0.4608272942020406
  0.0000007697987385  0.3325826213058747  0.5760218745808103
  0.1667750569916890  0.3325597936884250  0.5400071911142987
  0.0001428780171864  0.3324371946542897  0.4249249318303470
  0.1667583857389374  0.3323900690454522  0.4611053372763365
  0.3333806537941584  0.3332974595167073  0.5765036557754328
  0.4999750039094337  0.3325675662618366  0.5400001638679015
  0.3333712254124208  0.3319624392160705  0.4250462941644031
  0.4999795730781997  0.3323805525933992  0.4611023486398125
  0.6667358793223812  0.3325814972758963  0.5760209335910602
  0.8333700846280507  0.3324973721780111  0.5398409124040668
  0.6665931178614599  0.3324411436019190  0.4249254252876113
  0.8333717355537971  0.3323884749841142  0.4609486449569502
  0.0006568683547883  0.6671397988043779  0.5758689675455173
  0.1669444719096305  0.6657277280229366  0.5391523020874658
  0.9998454434244906  0.6656491861311764  0.4244203995478060
  0.1667086249030305  0.6655993415057040  0.4604875577905645
  0.3333755046693838  0.6690055447923484  0.5761397805256578
  0.4998051939440487  0.6657486512942796  0.5391540163526116
  0.3333770024955456  0.6652108620144475  0.4243453425069958
  0.5000461303087249  0.6656020023177760  0.4604900657333815
  0.6661000090659428  0.6671420104437331  0.5758700576527644
  0.8333797951561763  0.6659143509874994  0.5397003096953839
  0.6669025573701362  0.6656350023631390  0.4244251333321571
  0.8333759554745797  0.6658740534012395  0.4607131266631441
  0.9999264257095035  0.1660557072034763  0.6682034295364616
  0.0000617104414147  0.1658672707917788  0.3324539165237539
  0.3334143757599932  0.1655860950557155  0.6682530978401573
  0.3333649737558702  0.1663190585920731  0.3324205950330210
  0.6668219795148076  0.1660574542055997  0.6682014004290480
  0.6666750799062626  0.1658761209444677  0.3324579167318333
  0.0003986875090050  0.4984514008791976  0.6681513819223497
  0.0000919988464574  0.4990563337527121  0.3323474372220474
  0.3333725646316594  0.5072023763058979  0.6690326984038819
  0.3333927046733294  0.4973476021779959  0.3324950767479393
  0.6663519648795742  0.4984382804040166  0.6681475364910341
  0.6666521488195869  0.4990684031617008  0.3323461968416979
  0.0016188858092860  0.8302299492656786  0.6689510777833831
  0.0000279815556468  0.8327435417691902  0.3322501700481055
  0.3333838282870047  0.8293822636350612  0.6768598907150576
  0.3333604649595117  0.8325535490639169  0.3324179785605494
  0.6651733970536142  0.8302439008723184  0.6689383305467018
  0.6667189819687707  0.8327388586581463  0.3322611838633307
  0.3333627536037937  0.7379711667183315  0.7009511029679985
 
  0.00000000E+00  0.00000000E+00  0.00000000E+00
  0.00000000E+00  0.00000000E+00  0.00000000E+00
  0.00000000E+00  0.00000000E+00  0.00000000E+00
  0.00000000E+00  0.00000000E+00  0.00000000E+00
  0.00000000E+00  0.00000000E+00  0.00000000E+00
  0.00000000E+00  0.00000000E+00  0.00000000E+00
  0.00000000E+00  0.00000000E+00  0.00000000E+00
  0.00000000E+00  0.00000000E+00  0.00000000E+00
  0.00000000E+00  0.00000000E+00  0.00000000E+00
  0.00000000E+00  0.00000000E+00  0.00000000E+00
  0.00000000E+00  0.00000000E+00  0.00000000E+00
  0.00000000E+00  0.00000000E+00  0.00000000E+00
  0.00000000E+00  0.00000000E+00  0.00000000E+00
  0.00000000E+00  0.00000000E+00  0.00000000E+00
  0.00000000E+00  0.00000000E+00  0.00000000E+00
  0.00000000E+00  0.00000000E+00  0.00000000E+00
  0.00000000E+00  0.00000000E+00  0.00000000E+00
  0.00000000E+00  0.00000000E+00  0.00000000E+00
  0.00000000E+00  0.00000000E+00  0.00000000E+00
  0.00000000E+00  0.00000000E+00  0.00000000E+00
  0.00000000E+00  0.00000000E+00  0.00000000E+00
  0.00000000E+00  0.00000000E+00  0.00000000E+00
  0.00000000E+00  0.00000000E+00  0.00000000E+00
  0.00000000E+00  0.00000000E+00  0.00000000E+00
  0.00000000E+00  0.00000000E+00  0.00000000E+00
  0.00000000E+00  0.00000000E+00  0.00000000E+00
  0.00000000E+00  0.00000000E+00  0.00000000E+00
  0.00000000E+00  0.00000000E+00  0.00000000E+00
  0.00000000E+00  0.00000000E+00  0.00000000E+00
  0.00000000E+00  0.00000000E+00  0.00000000E+00
  0.00000000E+00  0.00000000E+00  0.00000000E+00
  0.00000000E+00  0.00000000E+00  0.00000000E+00
  0.00000000E+00  0.00000000E+00  0.00000000E+00
  0.00000000E+00  0.00000000E+00  0.00000000E+00
  0.00000000E+00  0.00000000E+00  0.00000000E+00
  0.00000000E+00  0.00000000E+00  0.00000000E+00
  0.00000000E+00  0.00000000E+00  0.00000000E+00
  0.00000000E+00  0.00000000E+00  0.00000000E+00
  0.00000000E+00  0.00000000E+00  0.00000000E+00
  0.00000000E+00  0.00000000E+00  0.00000000E+00
  0.00000000E+00  0.00000000E+00  0.00000000E+00
  0.00000000E+00  0.00000000E+00  0.00000000E+00
  0.00000000E+00  0.00000000E+00  0.00000000E+00
  0.00000000E+00  0.00000000E+00  0.00000000E+00
  0.00000000E+00  0.00000000E+00  0.00000000E+00
  0.00000000E+00  0.00000000E+00  0.00000000E+00
  0.00000000E+00  0.00000000E+00  0.00000000E+00
  0.00000000E+00  0.00000000E+00  0.00000000E+00
  0.00000000E+00  0.00000000E+00  0.00000000E+00
  0.00000000E+00  0.00000000E+00  0.00000000E+00
  0.00000000E+00  0.00000000E+00  0.00000000E+00
  0.00000000E+00  0.00000000E+00  0.00000000E+00
  0.00000000E+00  0.00000000E+00  0.00000000E+00
  0.00000000E+00  0.00000000E+00  0.00000000E+00
  0.00000000E+00  0.00000000E+00  0.00000000E+00
  0.00000000E+00  0.00000000E+00  0.00000000E+00
  0.00000000E+00  0.00000000E+00  0.00000000E+00
  0.00000000E+00  0.00000000E+00  0.00000000E+00
  0.00000000E+00  0.00000000E+00  0.00000000E+00
  0.00000000E+00  0.00000000E+00  0.00000000E+00
  0.00000000E+00  0.00000000E+00  0.00000000E+00
  0.00000000E+00  0.00000000E+00  0.00000000E+00
  0.00000000E+00  0.00000000E+00  0.00000000E+00
  0.00000000E+00  0.00000000E+00  0.00000000E+00
  0.00000000E+00  0.00000000E+00  0.00000000E+00
  0.00000000E+00  0.00000000E+00  0.00000000E+00
  0.00000000E+00  0.00000000E+00  0.00000000E+00
  0.00000000E+00  0.00000000E+00  0.00000000E+00
  0.00000000E+00  0.00000000E+00  0.00000000E+00
  0.00000000E+00  0.00000000E+00  0.00000000E+00
  0.00000000E+00  0.00000000E+00  0.00000000E+00
  0.00000000E+00  0.00000000E+00  0.00000000E+00
  0.00000000E+00  0.00000000E+00  0.00000000E+00
  0.00000000E+00  0.00000000E+00  0.00000000E+00
  0.00000000E+00  0.00000000E+00  0.00000000E+00
  0.00000000E+00  0.00000000E+00  0.00000000E+00
  0.00000000E+00  0.00000000E+00  0.00000000E+00
  0.00000000E+00  0.00000000E+00  0.00000000E+00
  0.00000000E+00  0.00000000E+00  0.00000000E+00
  0.00000000E+00  0.00000000E+00  0.00000000E+00
  0.00000000E+00  0.00000000E+00  0.00000000E+00
  0.00000000E+00  0.00000000E+00  0.00000000E+00
