 Ti2 Cl6                                
   1.00000000000000     
     6.0151756492875590    0.0000000000000000    0.0000000000000000
    -3.0075873240125253    5.1819626751640326    0.0000000000000000
     0.0000000000000000    0.0000000000000000   17.8997126008620029
   Ti   Cl
     2     6
Direct
  0.8953875067630294  0.7907751646927215  0.5000000356942930
  0.2156834734565851  0.4313667822328621  0.5000000114114919
  0.2134298064385324  0.1110894933515707  0.5812108696906580
  0.8976600662639639  0.1110893905797352  0.4187890793918261
  0.5546799430964143  0.4559392496653703  0.4222716524034607
  0.2098448097820368  0.7662863299007050  0.4222836955373328
  0.9012592557988128  0.4559390482870401  0.5777283745230537
  0.5564411384006268  0.7662865412899978  0.5777162813478837
 
  0.00000000E+00  0.00000000E+00  0.00000000E+00
  0.00000000E+00  0.00000000E+00  0.00000000E+00
  0.00000000E+00  0.00000000E+00  0.00000000E+00
  0.00000000E+00  0.00000000E+00  0.00000000E+00
  0.00000000E+00  0.00000000E+00  0.00000000E+00
  0.00000000E+00  0.00000000E+00  0.00000000E+00
  0.00000000E+00  0.00000000E+00  0.00000000E+00
  0.00000000E+00  0.00000000E+00  0.00000000E+00
