CONTCAR\(2)                             
   1.00000000000000     
    11.2371997832999995    0.0000000000000000    0.0000000000000000
     0.0000000000000000   14.7250003814999992    0.0000000000000000
     0.0000000000000000    0.0000000000000000   22.6672992706000009
   Li   Cu   F    O    H 
    32    32    80     1     1
Direct
  0.1874892901947432  0.0664847971203747  0.5152017117601256
  0.1946476165143341  0.4217091138315400  0.6033339879369592
  0.0622524039688201  0.0768988968373887  0.3878985319752098
  0.0620286908654826  0.4333384493852295  0.4789987545024516
  0.4368160778267809  0.0768977578483477  0.5291934106024568
  0.4349179309330977  0.3466842753480724  0.6731209150841607
  0.3129682762444786  0.0773388385656343  0.3909105136310016
  0.3137912520288027  0.4311792740930528  0.4822730870837293
  0.6859455893116589  0.0695598310264375  0.5166391330505105
  0.6810092549981833  0.4240401881216347  0.6030439288647415
  0.5610021805010295  0.0773646280057413  0.3915551919838703
  0.5606294728713446  0.4319907476482890  0.4822519266363740
  0.9384399985899796  0.0698844167445716  0.5175304894675472
  0.9387147801292817  0.4255646920061167  0.6045591875499589
  0.8120767469689888  0.0771255642183802  0.3899255478197993
  0.8124774865151303  0.4339175169893081  0.4789798522787014
  0.1865329868851777  0.5733029327230367  0.5189728393321248
  0.1912199300002609  0.9369275445696911  0.6061001915091198
  0.0621270132730900  0.5776071361380912  0.3902743794032015
  0.0624069158377569  0.9307892556597190  0.4766317521313750
  0.4369083990554239  0.5691598422345853  0.5239682480945455
  0.4356454421380399  0.9393723509519795  0.6151823446808589
  0.3115537034749282  0.5764479450141933  0.3929451099895056
  0.3150716096919374  0.9325546730760599  0.4781512190395231
  0.6880126005328315  0.5739328941986074  0.5190255434769974
  0.6820307799594620  0.9327521451253580  0.6069013106234540
  0.5626687097151533  0.5766141565760495  0.3930372056419738
  0.5593627832705919  0.9332208115106396  0.4797324771596403
  0.9372261420668085  0.5733504756659661  0.5187837205119528
  0.9415673894440021  0.9302867471952020  0.6044644706933724
  0.8119538482037209  0.5777636268755291  0.3902763993726267
  0.8120251085213311  0.9319206665809585  0.4784009033187405
  0.0717096332556954  0.2481583983524815  0.5664727650526971
  0.0691164736774824  0.1101444583077111  0.6663378844769307
  0.1877604033124803  0.4174682982358365  0.3398480392136326
  0.1847230070910776  0.2507311404288246  0.4302753960041868
  0.2995453689050035  0.2424069570350347  0.5660723856534419
  0.3216384997427860  0.1164946690554390  0.6909969323970124
  0.4374317246467193  0.4176937615604236  0.3426544972964434
  0.4371195120634566  0.2491823510757974  0.4329174146914112
  0.5670786769700019  0.2483298953855611  0.5662613017482325
  0.5611000428790026  0.1120399548098153  0.6827153276823916
  0.6868049870350575  0.4174071041873685  0.3402799132373106
  0.6887480500638485  0.2506980805051418  0.4317628045306501
  0.8065468117058935  0.2522898078229525  0.5649842944537492
  0.8128627528690933  0.0921338551315370  0.6530124836946978
  0.9370962485451018  0.4171096120641920  0.3386458907993277
  0.9375695960007767  0.2507486563874384  0.4321509813230963
  0.0662410087577601  0.7552348048267201  0.5675679948895233
  0.0635878395939230  0.5823176960141482  0.6560360142299595
  0.1875464092366460  0.9172308855351810  0.3388091565472504
  0.1884723334948650  0.7506404878047798  0.4317821672646164
  0.3136040922491163  0.7558203047462515  0.5696301513241057
  0.3154958121212872  0.5668264850721764  0.6543859534583463
  0.4371666519862814  0.9175559328291321  0.3407296032667479
  0.4375600694059538  0.7488419875798323  0.4336965733599613
  0.5600786367893089  0.7546905301132242  0.5707244120856463
  0.5568879216203791  0.5658968494398432  0.6545045095505519
  0.6868513117594510  0.9172113512047144  0.3411679354065619
  0.6861046619552484  0.7508599779076844  0.4336255753395599
  0.8109767069630003  0.7556681165595494  0.5684804487398754
  0.8096749834542807  0.5820946788572360  0.6562939832860382
  0.9370888797924171  0.9166049091806425  0.3390875480941171
  0.9369705004175354  0.7503815992911056  0.4326035414410889
  0.0632021340954370  0.1600764937193180  0.5070206301772380
  0.0596695904697126  0.4969507839869917  0.5540779214753687
  0.0647749634794931  0.3443234572740729  0.6170693759486596
  0.1859314723589646  0.1960604528997336  0.6937962781670256
  0.2033631157375307  0.0246879807309458  0.6685420869137688
  0.0623704715821619  0.5019643390246656  0.3185994703106249
  0.0623183403011930  0.3361756241178914  0.3683797154716383
  0.1867106095991025  0.1579746591291806  0.3758247507490925
  0.1865608947703550  0.0050019418588046  0.4387435548401635
  0.1865292787670223  0.3419351249364321  0.4893292937895109
  0.3031355050171805  0.1630304571129076  0.4990159949496241
  0.3034613897677436  0.4972333589662302  0.5549277513774598
  0.3080004886994352  0.3330573475815076  0.6226166340264232
  0.4325229095214980  0.1576079538777614  0.5984632323014127
  0.4369543123863686  0.0168859747125111  0.6873250285723221
  0.3129390343304748  0.5019948786904169  0.3204727365059979
  0.3120398289982943  0.3372698423816164  0.3726409955369800
  0.4371088981554517  0.1591603983415292  0.3766960194648075
  0.4375806968688812  0.0060510535238397  0.4398564645082553
  0.4378148117482838  0.3377979485420621  0.4929858627827168
  0.5689319614584143  0.1648960114236589  0.5006275407540360
  0.5708027836442494  0.4987189623939779  0.5546177874467213
  0.5619463228699495  0.3403680343792256  0.6225195865914956
  0.6868820306025115  0.1801504938588200  0.6388308738371363
  0.6808363663708032  0.0143166311456096  0.6740150666854264
  0.5618254089489069  0.5020833828625879  0.3206457353910875
  0.5626599654744658  0.3375968759519526  0.3735115557222969
  0.6873885710278229  0.1581263289807127  0.3770819798285696
  0.6877821938207654  0.0061439853934314  0.4410972542864071
  0.6879824270542864  0.3418485036373237  0.4912209577420750
  0.8125422208418199  0.1616340189601925  0.5060786507384819
  0.8144443931266724  0.4980798948521217  0.5538519806000736
  0.8110046249588908  0.3477093782480796  0.6170328294905831
  0.9375985087818204  0.1760033006247083  0.6247584276460723
  0.9474200234158462  0.0145252637311717  0.6695513138635668
  0.8118844553387842  0.5020674229084184  0.3187489996383289
  0.8121453848781918  0.3365346883883897  0.3693780414515951
  0.9371698098022883  0.1586229159490280  0.3774599468996030
  0.9369138319759519  0.0066463104945895  0.4405366349013084
  0.9369007938884475  0.3416053060334789  0.4908410537982620
  0.0622320886998985  0.6652167669649377  0.5076289282541073
  0.0624422315723596  0.9943252748158596  0.5509399665329139
  0.0664230357283059  0.8493249022641397  0.6206472722474639
  0.1927987545320028  0.6570591656414188  0.6254384645870796
  0.1837721812078836  0.4924803229238289  0.6776983107910420
  0.0619426941867743  0.0006837819559259  0.3165860465431723
  0.0624558521054966  0.8366491816897343  0.3693473371728765
  0.1876292716015721  0.6581663648538200  0.3774699274716378
  0.1869680696318798  0.5084908724275239  0.4426072182663627
  0.1876282207914727  0.8411006547851686  0.4905479671695732
  0.3131193271703836  0.6660137187011964  0.5091887105734646
  0.3111564506006076  0.9954541766038510  0.5515423309405197
  0.3134078184977070  0.8504868247637213  0.6224872648321998
  0.4366196877400224  0.6500994536874104  0.6250175333672003
  0.4355769802860517  0.4829291852137877  0.6876651356063642
  0.3125770513336329  0.0016611090022106  0.3182295654451550
  0.3120483915545677  0.8365157277479476  0.3699177931497276
  0.4371796015785391  0.6568391188822003  0.3790344471794602
  0.4370913628798824  0.5070667043673559  0.4452867306245926
  0.4373144353606834  0.8403662549651417  0.4917272663280066
  0.5615130126535209  0.6664501445471838  0.5092995737730198
  0.5639097270395621  0.9968050606601240  0.5536301061822325
  0.5592934672940766  0.8496358945932863  0.6234391768697430
  0.6799860462443383  0.6569337952855818  0.6261342021515924
  0.6893775844773603  0.4927679200047330  0.6785002790195759
  0.5622643761434110  0.0012380284517342  0.3191527321691677
  0.5617860114428256  0.8374063287029301  0.3726434406642044
  0.6866256561705680  0.6589772696455987  0.3787022241632266
  0.6873995091265064  0.5081365361131636  0.4425856334658754
  0.6870902489519878  0.8417850317136428  0.4925253128205190
  0.8122382108233372  0.6659165590265501  0.5082366526790110
  0.8126550901224818  0.9980405952682939  0.5535258025703614
  0.8116021170233304  0.8509107056382420  0.6209148443045799
  0.9364793879743565  0.6640229493019102  0.6262712855216361
  0.9369373689011247  0.5008118600515036  0.6779852000681256
  0.8118893435221012  0.0008057723648759  0.3184832108228167
  0.8123963017172112  0.8378992601310733  0.3727458595178574
  0.9370185244797609  0.6588367938922653  0.3774631777423044
  0.9372252396674569  0.5085939037876477  0.4421776307189177
  0.9371546361774147  0.8412609405683590  0.4915336357806918
  0.4477141930967704  0.2021203528388769  0.7148928257524859
  0.4520505640617194  0.2038812463357191  0.7579111742311231
 
  0.00000000E+00  0.00000000E+00  0.00000000E+00
  0.00000000E+00  0.00000000E+00  0.00000000E+00
  0.00000000E+00  0.00000000E+00  0.00000000E+00
  0.00000000E+00  0.00000000E+00  0.00000000E+00
  0.00000000E+00  0.00000000E+00  0.00000000E+00
  0.00000000E+00  0.00000000E+00  0.00000000E+00
  0.00000000E+00  0.00000000E+00  0.00000000E+00
  0.00000000E+00  0.00000000E+00  0.00000000E+00
  0.00000000E+00  0.00000000E+00  0.00000000E+00
  0.00000000E+00  0.00000000E+00  0.00000000E+00
  0.00000000E+00  0.00000000E+00  0.00000000E+00
  0.00000000E+00  0.00000000E+00  0.00000000E+00
  0.00000000E+00  0.00000000E+00  0.00000000E+00
  0.00000000E+00  0.00000000E+00  0.00000000E+00
  0.00000000E+00  0.00000000E+00  0.00000000E+00
  0.00000000E+00  0.00000000E+00  0.00000000E+00
  0.00000000E+00  0.00000000E+00  0.00000000E+00
  0.00000000E+00  0.00000000E+00  0.00000000E+00
  0.00000000E+00  0.00000000E+00  0.00000000E+00
  0.00000000E+00  0.00000000E+00  0.00000000E+00
  0.00000000E+00  0.00000000E+00  0.00000000E+00
  0.00000000E+00  0.00000000E+00  0.00000000E+00
  0.00000000E+00  0.00000000E+00  0.00000000E+00
  0.00000000E+00  0.00000000E+00  0.00000000E+00
  0.00000000E+00  0.00000000E+00  0.00000000E+00
  0.00000000E+00  0.00000000E+00  0.00000000E+00
  0.00000000E+00  0.00000000E+00  0.00000000E+00
  0.00000000E+00  0.00000000E+00  0.00000000E+00
  0.00000000E+00  0.00000000E+00  0.00000000E+00
  0.00000000E+00  0.00000000E+00  0.00000000E+00
  0.00000000E+00  0.00000000E+00  0.00000000E+00
  0.00000000E+00  0.00000000E+00  0.00000000E+00
  0.00000000E+00  0.00000000E+00  0.00000000E+00
  0.00000000E+00  0.00000000E+00  0.00000000E+00
  0.00000000E+00  0.00000000E+00  0.00000000E+00
  0.00000000E+00  0.00000000E+00  0.00000000E+00
  0.00000000E+00  0.00000000E+00  0.00000000E+00
  0.00000000E+00  0.00000000E+00  0.00000000E+00
  0.00000000E+00  0.00000000E+00  0.00000000E+00
  0.00000000E+00  0.00000000E+00  0.00000000E+00
  0.00000000E+00  0.00000000E+00  0.00000000E+00
  0.00000000E+00  0.00000000E+00  0.00000000E+00
  0.00000000E+00  0.00000000E+00  0.00000000E+00
  0.00000000E+00  0.00000000E+00  0.00000000E+00
  0.00000000E+00  0.00000000E+00  0.00000000E+00
  0.00000000E+00  0.00000000E+00  0.00000000E+00
  0.00000000E+00  0.00000000E+00  0.00000000E+00
  0.00000000E+00  0.00000000E+00  0.00000000E+00
  0.00000000E+00  0.00000000E+00  0.00000000E+00
  0.00000000E+00  0.00000000E+00  0.00000000E+00
  0.00000000E+00  0.00000000E+00  0.00000000E+00
  0.00000000E+00  0.00000000E+00  0.00000000E+00
  0.00000000E+00  0.00000000E+00  0.00000000E+00
  0.00000000E+00  0.00000000E+00  0.00000000E+00
  0.00000000E+00  0.00000000E+00  0.00000000E+00
  0.00000000E+00  0.00000000E+00  0.00000000E+00
  0.00000000E+00  0.00000000E+00  0.00000000E+00
  0.00000000E+00  0.00000000E+00  0.00000000E+00
  0.00000000E+00  0.00000000E+00  0.00000000E+00
  0.00000000E+00  0.00000000E+00  0.00000000E+00
  0.00000000E+00  0.00000000E+00  0.00000000E+00
  0.00000000E+00  0.00000000E+00  0.00000000E+00
  0.00000000E+00  0.00000000E+00  0.00000000E+00
  0.00000000E+00  0.00000000E+00  0.00000000E+00
  0.00000000E+00  0.00000000E+00  0.00000000E+00
  0.00000000E+00  0.00000000E+00  0.00000000E+00
  0.00000000E+00  0.00000000E+00  0.00000000E+00
  0.00000000E+00  0.00000000E+00  0.00000000E+00
  0.00000000E+00  0.00000000E+00  0.00000000E+00
  0.00000000E+00  0.00000000E+00  0.00000000E+00
  0.00000000E+00  0.00000000E+00  0.00000000E+00
  0.00000000E+00  0.00000000E+00  0.00000000E+00
  0.00000000E+00  0.00000000E+00  0.00000000E+00
  0.00000000E+00  0.00000000E+00  0.00000000E+00
  0.00000000E+00  0.00000000E+00  0.00000000E+00
  0.00000000E+00  0.00000000E+00  0.00000000E+00
  0.00000000E+00  0.00000000E+00  0.00000000E+00
  0.00000000E+00  0.00000000E+00  0.00000000E+00
  0.00000000E+00  0.00000000E+00  0.00000000E+00
  0.00000000E+00  0.00000000E+00  0.00000000E+00
  0.00000000E+00  0.00000000E+00  0.00000000E+00
  0.00000000E+00  0.00000000E+00  0.00000000E+00
  0.00000000E+00  0.00000000E+00  0.00000000E+00
  0.00000000E+00  0.00000000E+00  0.00000000E+00
  0.00000000E+00  0.00000000E+00  0.00000000E+00
  0.00000000E+00  0.00000000E+00  0.00000000E+00
  0.00000000E+00  0.00000000E+00  0.00000000E+00
  0.00000000E+00  0.00000000E+00  0.00000000E+00
  0.00000000E+00  0.00000000E+00  0.00000000E+00
  0.00000000E+00  0.00000000E+00  0.00000000E+00
  0.00000000E+00  0.00000000E+00  0.00000000E+00
  0.00000000E+00  0.00000000E+00  0.00000000E+00
  0.00000000E+00  0.00000000E+00  0.00000000E+00
  0.00000000E+00  0.00000000E+00  0.00000000E+00
  0.00000000E+00  0.00000000E+00  0.00000000E+00
  0.00000000E+00  0.00000000E+00  0.00000000E+00
  0.00000000E+00  0.00000000E+00  0.00000000E+00
  0.00000000E+00  0.00000000E+00  0.00000000E+00
  0.00000000E+00  0.00000000E+00  0.00000000E+00
  0.00000000E+00  0.00000000E+00  0.00000000E+00
  0.00000000E+00  0.00000000E+00  0.00000000E+00
  0.00000000E+00  0.00000000E+00  0.00000000E+00
  0.00000000E+00  0.00000000E+00  0.00000000E+00
  0.00000000E+00  0.00000000E+00  0.00000000E+00
  0.00000000E+00  0.00000000E+00  0.00000000E+00
  0.00000000E+00  0.00000000E+00  0.00000000E+00
  0.00000000E+00  0.00000000E+00  0.00000000E+00
  0.00000000E+00  0.00000000E+00  0.00000000E+00
  0.00000000E+00  0.00000000E+00  0.00000000E+00
  0.00000000E+00  0.00000000E+00  0.00000000E+00
  0.00000000E+00  0.00000000E+00  0.00000000E+00
  0.00000000E+00  0.00000000E+00  0.00000000E+00
  0.00000000E+00  0.00000000E+00  0.00000000E+00
  0.00000000E+00  0.00000000E+00  0.00000000E+00
  0.00000000E+00  0.00000000E+00  0.00000000E+00
  0.00000000E+00  0.00000000E+00  0.00000000E+00
  0.00000000E+00  0.00000000E+00  0.00000000E+00
  0.00000000E+00  0.00000000E+00  0.00000000E+00
  0.00000000E+00  0.00000000E+00  0.00000000E+00
  0.00000000E+00  0.00000000E+00  0.00000000E+00
  0.00000000E+00  0.00000000E+00  0.00000000E+00
  0.00000000E+00  0.00000000E+00  0.00000000E+00
  0.00000000E+00  0.00000000E+00  0.00000000E+00
  0.00000000E+00  0.00000000E+00  0.00000000E+00
  0.00000000E+00  0.00000000E+00  0.00000000E+00
  0.00000000E+00  0.00000000E+00  0.00000000E+00
  0.00000000E+00  0.00000000E+00  0.00000000E+00
  0.00000000E+00  0.00000000E+00  0.00000000E+00
  0.00000000E+00  0.00000000E+00  0.00000000E+00
  0.00000000E+00  0.00000000E+00  0.00000000E+00
  0.00000000E+00  0.00000000E+00  0.00000000E+00
  0.00000000E+00  0.00000000E+00  0.00000000E+00
  0.00000000E+00  0.00000000E+00  0.00000000E+00
  0.00000000E+00  0.00000000E+00  0.00000000E+00
  0.00000000E+00  0.00000000E+00  0.00000000E+00
  0.00000000E+00  0.00000000E+00  0.00000000E+00
  0.00000000E+00  0.00000000E+00  0.00000000E+00
  0.00000000E+00  0.00000000E+00  0.00000000E+00
  0.00000000E+00  0.00000000E+00  0.00000000E+00
  0.00000000E+00  0.00000000E+00  0.00000000E+00
  0.00000000E+00  0.00000000E+00  0.00000000E+00
  0.00000000E+00  0.00000000E+00  0.00000000E+00
  0.00000000E+00  0.00000000E+00  0.00000000E+00
  0.00000000E+00  0.00000000E+00  0.00000000E+00
  0.00000000E+00  0.00000000E+00  0.00000000E+00
  0.00000000E+00  0.00000000E+00  0.00000000E+00
