CONTCAR\(2)                             
   1.00000000000000     
    11.7456998825000003    0.0000000000000000    0.0000000000000000
     0.0000000000000000   17.6870002747000008    0.0000000000000000
     0.0000000000000000    0.0000000000000000   19.5771007537999999
   Ti   Ge   Te   O    H 
     6     6    36     1     1
Selective dynamics
Direct
  0.0841187871284319  0.4795084682872144  0.5103801309937168   F   F   F
  0.2528438385445639  0.9531632438756290  0.4851505184739295   F   F   F
  0.4182921355898088  0.4820529369870528  0.5220218039310822   F   F   F
  0.5876797382401193  0.9529769414720590  0.4851801638392033   F   F   F
  0.7531991708370924  0.4795492738890843  0.5103731470595037   F   F   F
  0.9204400643096022  0.9553351328002861  0.4866043656462722   F   F   F
  0.2577282640672465  0.8021182174693635  0.4733765043298277   F   F   F
  0.0863646247682439  0.6303801349912987  0.5227671194893446   F   F   F
  0.5812225915597864  0.8021713059313669  0.4733305454634973   F   F   F
  0.4183150052791902  0.6177732585666931  0.5894776793419467   F   F   F
  0.9195488429013920  0.8041452885306271  0.4797244330857140   F   F   F
  0.7513382484291355  0.6302289658557569  0.5227323864543152   F   F   F
  0.0848024334955682  0.9249809416091068  0.3803333543091227   F   F   F
  0.2539720456861474  0.2531742263249441  0.5655550760015728   F   F   F
  0.2538470659982366  0.0617985786267141  0.3770074784378394   F   F   F
  0.0882049847752171  0.9001398073073901  0.5832704400067925   F   F   F
  0.2366567974829366  0.4952137674614434  0.6249198322429450   F   F   F
  0.0814640118345409  0.3597961147819149  0.6087492309154996   F   F   F
  0.0904669193450829  0.1781385344376787  0.4254520242992825   F   F   F
  0.2425735230557393  0.7180933233907183  0.5906245877262819   F   F   F
  0.0843523390163341  0.7254888896361891  0.4102194467839198   F   F   F
  0.2561217171253602  0.3883269197064436  0.4522754178338317   F   F   F
  0.0883717382812819  0.0530151412239448  0.5421874067161525   F   F   F
  0.2620434853317732  0.5445494554447308  0.4251731465778121   F   F   F
  0.4199872762696373  0.9235284447740639  0.3782174670908915   F   F   F
  0.5839055755902791  0.2531706758760848  0.5659651246335002   F   F   F
  0.5864799959829412  0.0613628391935137  0.3769192784552686   F   F   F
  0.4203926499867734  0.8986900395665955  0.5818623597830594   F   F   F
  0.6004155978108301  0.4951797120256813  0.6250369227715922   F   F   F
  0.4187713408067637  0.3607856188671406  0.6174199687589308   F   F   F
  0.4203179954550933  0.1747608716750193  0.4198799849145374   F   F   F
  0.5949272557460574  0.7176528662906634  0.5905980072851023   F   F   F
  0.4196291600101389  0.7296208471411489  0.4028039770054050   F   F   F
  0.5808738432547145  0.3885013200989036  0.4524426894220070   F   F   F
  0.4202867159548020  0.0521210475046274  0.5391342232290910   F   F   F
  0.5744042810434919  0.5447649886047898  0.4255125560806547   F   F   F
  0.7553373725224901  0.9247065023852059  0.3804386992400097   F   F   F
  0.9188911832821418  0.2479012854642022  0.5474620822330678   F   F   F
  0.9202280908064182  0.0684754129615399  0.3810288777475392   F   F   F
  0.7533446734549827  0.9000278118435716  0.5833514645627318   F   F   F
  0.9185889977030186  0.5039218602735076  0.6154156477572883   F   F   F
  0.7559866543955849  0.3601210583918544  0.6088282905595221   F   F   F
  0.7492524127207716  0.1780130740603241  0.4248383116218122   F   F   F
  0.9188596167798835  0.7075539176057219  0.5912339575152572   F   F   F
  0.7545509966522275  0.7255091006260557  0.4103374655075029   F   F   F
  0.9185411912181465  0.3851783794455415  0.4468748018866577   F   F   F
  0.7518876517475661  0.0526121642825430  0.5420788773456238   F   F   F
  0.9185996588615524  0.5420565246077231  0.4152026488983580   F   F   F
  0.4177148016499430  0.6108881840209790  0.6844187491913942   T   T   T
  0.4286469492109149  0.6600163238052943  0.7052553422462963   T   T   T
 
  0.00000000E+00  0.00000000E+00  0.00000000E+00
  0.00000000E+00  0.00000000E+00  0.00000000E+00
  0.00000000E+00  0.00000000E+00  0.00000000E+00
  0.00000000E+00  0.00000000E+00  0.00000000E+00
  0.00000000E+00  0.00000000E+00  0.00000000E+00
  0.00000000E+00  0.00000000E+00  0.00000000E+00
  0.00000000E+00  0.00000000E+00  0.00000000E+00
  0.00000000E+00  0.00000000E+00  0.00000000E+00
  0.00000000E+00  0.00000000E+00  0.00000000E+00
  0.00000000E+00  0.00000000E+00  0.00000000E+00
  0.00000000E+00  0.00000000E+00  0.00000000E+00
  0.00000000E+00  0.00000000E+00  0.00000000E+00
  0.00000000E+00  0.00000000E+00  0.00000000E+00
  0.00000000E+00  0.00000000E+00  0.00000000E+00
  0.00000000E+00  0.00000000E+00  0.00000000E+00
  0.00000000E+00  0.00000000E+00  0.00000000E+00
  0.00000000E+00  0.00000000E+00  0.00000000E+00
  0.00000000E+00  0.00000000E+00  0.00000000E+00
  0.00000000E+00  0.00000000E+00  0.00000000E+00
  0.00000000E+00  0.00000000E+00  0.00000000E+00
  0.00000000E+00  0.00000000E+00  0.00000000E+00
  0.00000000E+00  0.00000000E+00  0.00000000E+00
  0.00000000E+00  0.00000000E+00  0.00000000E+00
  0.00000000E+00  0.00000000E+00  0.00000000E+00
  0.00000000E+00  0.00000000E+00  0.00000000E+00
  0.00000000E+00  0.00000000E+00  0.00000000E+00
  0.00000000E+00  0.00000000E+00  0.00000000E+00
  0.00000000E+00  0.00000000E+00  0.00000000E+00
  0.00000000E+00  0.00000000E+00  0.00000000E+00
  0.00000000E+00  0.00000000E+00  0.00000000E+00
  0.00000000E+00  0.00000000E+00  0.00000000E+00
  0.00000000E+00  0.00000000E+00  0.00000000E+00
  0.00000000E+00  0.00000000E+00  0.00000000E+00
  0.00000000E+00  0.00000000E+00  0.00000000E+00
  0.00000000E+00  0.00000000E+00  0.00000000E+00
  0.00000000E+00  0.00000000E+00  0.00000000E+00
  0.00000000E+00  0.00000000E+00  0.00000000E+00
  0.00000000E+00  0.00000000E+00  0.00000000E+00
  0.00000000E+00  0.00000000E+00  0.00000000E+00
  0.00000000E+00  0.00000000E+00  0.00000000E+00
  0.00000000E+00  0.00000000E+00  0.00000000E+00
  0.00000000E+00  0.00000000E+00  0.00000000E+00
  0.00000000E+00  0.00000000E+00  0.00000000E+00
  0.00000000E+00  0.00000000E+00  0.00000000E+00
  0.00000000E+00  0.00000000E+00  0.00000000E+00
  0.00000000E+00  0.00000000E+00  0.00000000E+00
  0.00000000E+00  0.00000000E+00  0.00000000E+00
  0.00000000E+00  0.00000000E+00  0.00000000E+00
  0.00000000E+00  0.00000000E+00  0.00000000E+00
  0.00000000E+00  0.00000000E+00  0.00000000E+00
