CONTCAR\(5)                             
   1.00000000000000     
    11.6875000000000000    0.0000000000000000    0.0000000000000000
     0.0000000000000000   15.6604003905999996    0.0000000000000000
     0.0000000000000000    0.0000000000000000   20.9486999511999983
   Pr   C    Cl   O    H 
    24    12    30     2     1
Direct
  0.1667269107807021  0.2498064853572988  0.3602494218816142
  0.1666638210905289  0.2497050574021772  0.6398623283846376
  0.0000815519567717  0.3573263784490353  0.5001133962651367
  0.0000661280836175  0.1423381745760640  0.5000381601488325
  0.5000516779499247  0.2497887632612489  0.3603039290309343
  0.5000239201646139  0.2496488197750913  0.6398722479630486
  0.3333026409314404  0.3572687429659224  0.5001759390371336
  0.3333049493300199  0.1423442292013037  0.5000736136702930
  0.8333882486401151  0.2498037522175595  0.3602556345051156
  0.8334605526815744  0.2496753955724509  0.6398585637084964
  0.6668195518585410  0.3572614482717723  0.5001972725140774
  0.6668282228000043  0.1423677032360865  0.5000717106760895
  0.1667870147411798  0.7496900628827389  0.3606826587314835
  0.1691412827820918  0.7499421588622218  0.6402454033462166
  0.0001397227078796  0.8569532772676006  0.5005537442839287
  0.0001002656824353  0.6424041995349844  0.5004550948759300
  0.5000591149571579  0.7497634432392941  0.3607930415583485
  0.5002343259120103  0.7509017021156902  0.6496687140352111
  0.3352524824039663  0.8566126857256394  0.4997422447497887
  0.3352970808138531  0.6429878461081151  0.4999715624315138
  0.8333276139498017  0.7496909958136463  0.3606719309808020
  0.8310247039664431  0.7500036181249242  0.6402150023141054
  0.6649819652969675  0.8566787009237234  0.4996709557386106
  0.6648652466385182  0.6429891854473373  0.4999787722232664
  0.1667257449025696  0.2498407471817023  0.4665734771489692
  0.1666684497530838  0.2498239270591452  0.5335746246564108
  0.5000866777760519  0.2498347225972280  0.4665950418603928
  0.5000715622931051  0.2498190235398803  0.5335738436165494
  0.8334244215838275  0.2498510343094619  0.4665729173630676
  0.8334698285659912  0.2498314052883333  0.5335686088213568
  0.1663774408104721  0.7496455139555135  0.4667917654749439
  0.1667659067622330  0.7496850680367568  0.5337595512778823
  0.5001209880609340  0.7497949179995872  0.4672439349064035
  0.5001260227909379  0.7498990704676817  0.5345868669530517
  0.8338445269664611  0.7496527801873140  0.4667856102204070
  0.8334826841883289  0.7496951385093400  0.5337473878079181
  0.0000997107691293  0.1173411140968802  0.6436308365317376
  0.0001396023118652  0.1174373724735728  0.3562261459539423
  0.0000546247639953  0.3821039723258562  0.3562656520253174
  0.0000251463576403  0.3820385391397663  0.6438030244066681
  0.1667086697101330  0.4995677814084922  0.5001458886301596
  0.3332728204340396  0.1177593039629312  0.6435957672106575
  0.3334216137824684  0.1174459146551785  0.3562220504101158
  0.3333789855992355  0.3820608195615163  0.3562934529724238
  0.3333389122731393  0.3817400093663576  0.6438400081876680
  0.5000825721209117  0.4993155989647539  0.4996472333646773
  0.6668316433813427  0.1177589978751788  0.6436038594847940
  0.6668435801270304  0.1174441564739821  0.3562395809029119
  0.6667388340691719  0.3820491886780065  0.3562965142532150
  0.6667544203441721  0.3817026514445485  0.6438593002420985
  0.8334504979031133  0.4995582779393512  0.5001244557380186
  0.0000630357124613  0.6192868576799718  0.6447409789480429
  0.0000605202865064  0.6177418096698732  0.3562173877944075
  0.0000566145698825  0.8816748919510301  0.3563072643576008
  0.0001085938569044  0.8805167610039079  0.6445119844377125
  0.1665639760670041  0.0000671985042328  0.5000261798624686
  0.3320952967087625  0.6165931050389828  0.6408138974683480
  0.3328311870224114  0.6178627128618728  0.3556609588709893
  0.3327468249518168  0.8815963382614549  0.3555555721710978
  0.3313698975694739  0.8838237151844959  0.6403541888964404
  0.5000798160728248  0.0002475432083907  0.4995294598143610
  0.6681807391699097  0.6164812661958322  0.6407748038527028
  0.6672973311883964  0.6178277180679571  0.3556348672593285
  0.6673902476748769  0.8816271161603418  0.3554951928448436
  0.6689294228927848  0.8840109850788890  0.6401364896511136
  0.8336062926863089  0.0000692669621109  0.4999914021650252
  0.5016488495969915  0.7471639361540391  0.7542798852231437
  0.5025749288788987  0.7482661246299378  0.8236647084292471
  0.5076516615722789  0.6870228595563855  0.8325966564767572
 
  0.00000000E+00  0.00000000E+00  0.00000000E+00
  0.00000000E+00  0.00000000E+00  0.00000000E+00
  0.00000000E+00  0.00000000E+00  0.00000000E+00
  0.00000000E+00  0.00000000E+00  0.00000000E+00
  0.00000000E+00  0.00000000E+00  0.00000000E+00
  0.00000000E+00  0.00000000E+00  0.00000000E+00
  0.00000000E+00  0.00000000E+00  0.00000000E+00
  0.00000000E+00  0.00000000E+00  0.00000000E+00
  0.00000000E+00  0.00000000E+00  0.00000000E+00
  0.00000000E+00  0.00000000E+00  0.00000000E+00
  0.00000000E+00  0.00000000E+00  0.00000000E+00
  0.00000000E+00  0.00000000E+00  0.00000000E+00
  0.00000000E+00  0.00000000E+00  0.00000000E+00
  0.00000000E+00  0.00000000E+00  0.00000000E+00
  0.00000000E+00  0.00000000E+00  0.00000000E+00
  0.00000000E+00  0.00000000E+00  0.00000000E+00
  0.00000000E+00  0.00000000E+00  0.00000000E+00
  0.00000000E+00  0.00000000E+00  0.00000000E+00
  0.00000000E+00  0.00000000E+00  0.00000000E+00
  0.00000000E+00  0.00000000E+00  0.00000000E+00
  0.00000000E+00  0.00000000E+00  0.00000000E+00
  0.00000000E+00  0.00000000E+00  0.00000000E+00
  0.00000000E+00  0.00000000E+00  0.00000000E+00
  0.00000000E+00  0.00000000E+00  0.00000000E+00
  0.00000000E+00  0.00000000E+00  0.00000000E+00
  0.00000000E+00  0.00000000E+00  0.00000000E+00
  0.00000000E+00  0.00000000E+00  0.00000000E+00
  0.00000000E+00  0.00000000E+00  0.00000000E+00
  0.00000000E+00  0.00000000E+00  0.00000000E+00
  0.00000000E+00  0.00000000E+00  0.00000000E+00
  0.00000000E+00  0.00000000E+00  0.00000000E+00
  0.00000000E+00  0.00000000E+00  0.00000000E+00
  0.00000000E+00  0.00000000E+00  0.00000000E+00
  0.00000000E+00  0.00000000E+00  0.00000000E+00
  0.00000000E+00  0.00000000E+00  0.00000000E+00
  0.00000000E+00  0.00000000E+00  0.00000000E+00
  0.00000000E+00  0.00000000E+00  0.00000000E+00
  0.00000000E+00  0.00000000E+00  0.00000000E+00
  0.00000000E+00  0.00000000E+00  0.00000000E+00
  0.00000000E+00  0.00000000E+00  0.00000000E+00
  0.00000000E+00  0.00000000E+00  0.00000000E+00
  0.00000000E+00  0.00000000E+00  0.00000000E+00
  0.00000000E+00  0.00000000E+00  0.00000000E+00
  0.00000000E+00  0.00000000E+00  0.00000000E+00
  0.00000000E+00  0.00000000E+00  0.00000000E+00
  0.00000000E+00  0.00000000E+00  0.00000000E+00
  0.00000000E+00  0.00000000E+00  0.00000000E+00
  0.00000000E+00  0.00000000E+00  0.00000000E+00
  0.00000000E+00  0.00000000E+00  0.00000000E+00
  0.00000000E+00  0.00000000E+00  0.00000000E+00
  0.00000000E+00  0.00000000E+00  0.00000000E+00
  0.00000000E+00  0.00000000E+00  0.00000000E+00
  0.00000000E+00  0.00000000E+00  0.00000000E+00
  0.00000000E+00  0.00000000E+00  0.00000000E+00
  0.00000000E+00  0.00000000E+00  0.00000000E+00
  0.00000000E+00  0.00000000E+00  0.00000000E+00
  0.00000000E+00  0.00000000E+00  0.00000000E+00
  0.00000000E+00  0.00000000E+00  0.00000000E+00
  0.00000000E+00  0.00000000E+00  0.00000000E+00
  0.00000000E+00  0.00000000E+00  0.00000000E+00
  0.00000000E+00  0.00000000E+00  0.00000000E+00
  0.00000000E+00  0.00000000E+00  0.00000000E+00
  0.00000000E+00  0.00000000E+00  0.00000000E+00
  0.00000000E+00  0.00000000E+00  0.00000000E+00
  0.00000000E+00  0.00000000E+00  0.00000000E+00
  0.00000000E+00  0.00000000E+00  0.00000000E+00
  0.00000000E+00  0.00000000E+00  0.00000000E+00
  0.00000000E+00  0.00000000E+00  0.00000000E+00
  0.00000000E+00  0.00000000E+00  0.00000000E+00
