CONTCAR\(6)                             
   1.00000000000000     
    11.7135000228999999    0.0000000000000000    0.0000000000000000
     0.0000000000000000   10.5269002914000005    0.0000000000000000
     0.0000000000000000    0.0000000000000000   20.5844001769999991
   Mn   Sb   Se   I    O 
     6     6    12     6     1
Selective dynamics
Direct
  0.3333165557896010  0.9997226948659517  0.4967328295239426   F   F   F
  0.0007247855596688  0.4956889868904355  0.5033456601575992   F   F   F
  0.6697144434150957  0.0122492601583346  0.4970864784290612   F   F   F
  0.3332893639430949  0.4972171072989724  0.5023900503628340   F   F   F
  0.9971159366928006  0.0121683720314820  0.4971132379092253   F   F   F
  0.6659433984698779  0.4957112252762030  0.5032975725485542   F   F   F
  0.1886408987092878  0.2960296066667922  0.6291486653593736   F   F   F
  0.1606371743288619  0.7215511334886529  0.3860721963419209   F   F   F
  0.4779659728790691  0.2960961019043111  0.6291606139773265   F   F   F
  0.5060362918350805  0.7217851407679419  0.3860101778969138   F   F   F
  0.8333552282867558  0.2808895928404667  0.6058563658741676   F   F   F
  0.8332790924909403  0.7144605972031783  0.3882491322270312   F   F   F
  0.0000030142126803  0.2509817159439578  0.5229458250288701   F   F   F
  0.1743854640374281  0.4822079985982768  0.4169756245612817   F   F   F
  0.9994776119222948  0.7603825700144711  0.4754524852218154   F   F   F
  0.1736362237131814  0.5322862556134069  0.5843062571621402   F   F   F
  0.3333129855255876  0.2371615268971823  0.5298285308024475   F   F   F
  0.4921737307887284  0.4824005578195809  0.4169214167766668   F   F   F
  0.3334291316774411  0.7841229973214539  0.4720415287997497   F   F   F
  0.4930161300806688  0.5323595589526846  0.5842791671142535   F   F   F
  0.6666903604361352  0.2510305828644590  0.5229527593177465   F   F   F
  0.8333112252467600  0.4748733941241809  0.4157430314020303   F   F   F
  0.6671196027317663  0.7604824495089844  0.4754510276812312   F   F   F
  0.8333635925132867  0.5287729770378675  0.5879357021695668   F   F   F
  0.1730804225400178  0.9525324608197820  0.5883444317351803   F   F   F
  0.1750823682328573  0.0556105716066355  0.4060507053166305   F   F   F
  0.4936459473218093  0.9526085685253562  0.5883008613252301   F   F   F
  0.4915935982803319  0.0555768970584083  0.4060903782593712   F   F   F
  0.8334408543126486  0.9501759942499532  0.5957834262173378   F   F   F
  0.8333984282643243  0.0455359906101762  0.3951776905954176   F   F   F
  0.3332301207619394  0.3199469470404423  0.6795674457350580   T   T   T
 
  0.00000000E+00  0.00000000E+00  0.00000000E+00
  0.00000000E+00  0.00000000E+00  0.00000000E+00
  0.00000000E+00  0.00000000E+00  0.00000000E+00
  0.00000000E+00  0.00000000E+00  0.00000000E+00
  0.00000000E+00  0.00000000E+00  0.00000000E+00
  0.00000000E+00  0.00000000E+00  0.00000000E+00
  0.00000000E+00  0.00000000E+00  0.00000000E+00
  0.00000000E+00  0.00000000E+00  0.00000000E+00
  0.00000000E+00  0.00000000E+00  0.00000000E+00
  0.00000000E+00  0.00000000E+00  0.00000000E+00
  0.00000000E+00  0.00000000E+00  0.00000000E+00
  0.00000000E+00  0.00000000E+00  0.00000000E+00
  0.00000000E+00  0.00000000E+00  0.00000000E+00
  0.00000000E+00  0.00000000E+00  0.00000000E+00
  0.00000000E+00  0.00000000E+00  0.00000000E+00
  0.00000000E+00  0.00000000E+00  0.00000000E+00
  0.00000000E+00  0.00000000E+00  0.00000000E+00
  0.00000000E+00  0.00000000E+00  0.00000000E+00
  0.00000000E+00  0.00000000E+00  0.00000000E+00
  0.00000000E+00  0.00000000E+00  0.00000000E+00
  0.00000000E+00  0.00000000E+00  0.00000000E+00
  0.00000000E+00  0.00000000E+00  0.00000000E+00
  0.00000000E+00  0.00000000E+00  0.00000000E+00
  0.00000000E+00  0.00000000E+00  0.00000000E+00
  0.00000000E+00  0.00000000E+00  0.00000000E+00
  0.00000000E+00  0.00000000E+00  0.00000000E+00
  0.00000000E+00  0.00000000E+00  0.00000000E+00
  0.00000000E+00  0.00000000E+00  0.00000000E+00
  0.00000000E+00  0.00000000E+00  0.00000000E+00
  0.00000000E+00  0.00000000E+00  0.00000000E+00
  0.00000000E+00  0.00000000E+00  0.00000000E+00
