CONTCAR                                 
   1.00000000000000     
    11.2263002396000005    0.0000000000000000    0.0000000000000000
     0.0000000000000000   21.7961997986000000    0.0000000000000000
     0.0000000000000000    0.0000000000000000   19.3752994536999985
   Ta   Te   Pd   O 
     9    42     9     1
Direct
  0.1633172641105883  0.4782265188257466  0.5066213725608597
  0.1666222031736139  0.1241030465044068  0.4983145898068669
  0.1691214651160893  0.7779548884002111  0.5120810389982638
  0.4965951781534201  0.4769181005606625  0.5071406352538901
  0.4997562604103894  0.1241518533581162  0.4981252259068045
  0.5013335103888212  0.7772413962450894  0.5121278156892860
  0.8294443931078482  0.4782599242597425  0.5053157381745462
  0.8335346577805954  0.1246483202851218  0.4990340854456758
  0.8345703702809977  0.7784717645076359  0.5100086049484901
 -0.0028530564849147  0.4102498208255416  0.4248984068814377
  0.1662374488750043  0.2411383956473508  0.4253966649207443
  0.1693145337746672  0.8926168735430121  0.5844928631343111
  0.0024229174190598  0.8448084886473627  0.4307381562507831
 -0.0032621960982347  0.5509670430586334  0.4305996144044536
 -0.0044639083579464  0.4824873985959396  0.6178748450182804
  0.1669243585865617  0.0053250775608322  0.4288232168456235
  0.0000864051203826  0.0560718675044149  0.5793772429508306
  0.1583990479937633  0.5981960590715615  0.5733619580545062
  0.0005860784755096  0.1976816095514217  0.5734738004470685
  0.1660405014541264  0.7000430318654033  0.4049464722915301
  0.9994894356587020  0.1222964356235576  0.3862802093730883
  0.9990626984013710  0.7445911918769734  0.6094983472634363
  0.1696371905380301  0.3604634487755290  0.5793890248580326
  0.3300392243667519  0.4102365579374241  0.4255807442384436
  0.4985074872448646  0.2408770163524972  0.4248275630773582
  0.4992186167479831  0.8919176293251180  0.5847415544148967
  0.3345277218392439  0.8434509817060525  0.4300834091959711
  0.3303740537635454  0.5513007514351472  0.4329344110743598
  0.3300403737850707  0.4743624086716520  0.6223474258854255
  0.5002272741285030  0.0056474326667739  0.4279741567341393
  0.3333860066258987  0.0553240070701041  0.5784529709619806
  0.4930017155862694  0.5942512525109687  0.5783031020455690
  0.3331497039102859  0.1968179611450003  0.5737668305197497
  0.5000654240280277  0.6981807139009749  0.4063151636662401
  0.3329387599572995  0.1229436408773789  0.3858432238303908
  0.3342955273404848  0.7432715230059899  0.6111099097050752
  0.4982140063935560  0.3583108164008636  0.5777938998613230
  0.6633878104702875  0.4093338952003479  0.4264552273599337
  0.8343813438936517  0.2422632884290843  0.4276750395143175
  0.8331374920707529  0.8923451465800240  0.5842518045342967
  0.6659186888033084  0.8447008981926707  0.4303236658177080
  0.6596119988943590  0.5541454678753411  0.4335548907691167
  0.6650694061548228  0.4816939798685259  0.6191077969561576
  0.8339290571446019  0.0056731300012881  0.4298554621830015
  0.6666708663373896  0.0551255101673598  0.5782410103920123
  0.8281030219308453  0.5968122482072377  0.5740537777566407
  0.6656434673121135  0.1975742866582011  0.5738646777305086
  0.8440166015763462  0.7030136690842709  0.4002197210314810
  0.6678476434657203  0.1239777554802959  0.3860979933871782
  0.6679491408928129  0.7431445713118561  0.6094453323477729
  0.8306038620055424  0.3602432039897818  0.5775897360786795
  0.0012210496507483  0.9480867106560776  0.5069254047335935
  0.0010916883693976  0.3030450144988295  0.5004711079209651
  0.9975975169500297  0.6625577626201598  0.5012166867131382
  0.3346387429523905  0.9479622085509612  0.5051934175359705
  0.3323717657241297  0.3014486304429003  0.4991923083170435
  0.3319030145500513  0.6626839234294968  0.5027823485349832
  0.6659712304417101  0.9479198876936850  0.5062157324435509
  0.6645099629623219  0.3019384161032013  0.4994326521745915
  0.6742343603873491  0.6668493480594210  0.4981066390731193
  0.3736973524631006  0.5639258297987830  0.6500337130044705
 
  0.00000000E+00  0.00000000E+00  0.00000000E+00
  0.00000000E+00  0.00000000E+00  0.00000000E+00
  0.00000000E+00  0.00000000E+00  0.00000000E+00
  0.00000000E+00  0.00000000E+00  0.00000000E+00
  0.00000000E+00  0.00000000E+00  0.00000000E+00
  0.00000000E+00  0.00000000E+00  0.00000000E+00
  0.00000000E+00  0.00000000E+00  0.00000000E+00
  0.00000000E+00  0.00000000E+00  0.00000000E+00
  0.00000000E+00  0.00000000E+00  0.00000000E+00
  0.00000000E+00  0.00000000E+00  0.00000000E+00
  0.00000000E+00  0.00000000E+00  0.00000000E+00
  0.00000000E+00  0.00000000E+00  0.00000000E+00
  0.00000000E+00  0.00000000E+00  0.00000000E+00
  0.00000000E+00  0.00000000E+00  0.00000000E+00
  0.00000000E+00  0.00000000E+00  0.00000000E+00
  0.00000000E+00  0.00000000E+00  0.00000000E+00
  0.00000000E+00  0.00000000E+00  0.00000000E+00
  0.00000000E+00  0.00000000E+00  0.00000000E+00
  0.00000000E+00  0.00000000E+00  0.00000000E+00
  0.00000000E+00  0.00000000E+00  0.00000000E+00
  0.00000000E+00  0.00000000E+00  0.00000000E+00
  0.00000000E+00  0.00000000E+00  0.00000000E+00
  0.00000000E+00  0.00000000E+00  0.00000000E+00
  0.00000000E+00  0.00000000E+00  0.00000000E+00
  0.00000000E+00  0.00000000E+00  0.00000000E+00
  0.00000000E+00  0.00000000E+00  0.00000000E+00
  0.00000000E+00  0.00000000E+00  0.00000000E+00
  0.00000000E+00  0.00000000E+00  0.00000000E+00
  0.00000000E+00  0.00000000E+00  0.00000000E+00
  0.00000000E+00  0.00000000E+00  0.00000000E+00
  0.00000000E+00  0.00000000E+00  0.00000000E+00
  0.00000000E+00  0.00000000E+00  0.00000000E+00
  0.00000000E+00  0.00000000E+00  0.00000000E+00
  0.00000000E+00  0.00000000E+00  0.00000000E+00
  0.00000000E+00  0.00000000E+00  0.00000000E+00
  0.00000000E+00  0.00000000E+00  0.00000000E+00
  0.00000000E+00  0.00000000E+00  0.00000000E+00
  0.00000000E+00  0.00000000E+00  0.00000000E+00
  0.00000000E+00  0.00000000E+00  0.00000000E+00
  0.00000000E+00  0.00000000E+00  0.00000000E+00
  0.00000000E+00  0.00000000E+00  0.00000000E+00
  0.00000000E+00  0.00000000E+00  0.00000000E+00
  0.00000000E+00  0.00000000E+00  0.00000000E+00
  0.00000000E+00  0.00000000E+00  0.00000000E+00
  0.00000000E+00  0.00000000E+00  0.00000000E+00
  0.00000000E+00  0.00000000E+00  0.00000000E+00
  0.00000000E+00  0.00000000E+00  0.00000000E+00
  0.00000000E+00  0.00000000E+00  0.00000000E+00
  0.00000000E+00  0.00000000E+00  0.00000000E+00
  0.00000000E+00  0.00000000E+00  0.00000000E+00
  0.00000000E+00  0.00000000E+00  0.00000000E+00
  0.00000000E+00  0.00000000E+00  0.00000000E+00
  0.00000000E+00  0.00000000E+00  0.00000000E+00
  0.00000000E+00  0.00000000E+00  0.00000000E+00
  0.00000000E+00  0.00000000E+00  0.00000000E+00
  0.00000000E+00  0.00000000E+00  0.00000000E+00
  0.00000000E+00  0.00000000E+00  0.00000000E+00
  0.00000000E+00  0.00000000E+00  0.00000000E+00
  0.00000000E+00  0.00000000E+00  0.00000000E+00
  0.00000000E+00  0.00000000E+00  0.00000000E+00
  0.00000000E+00  0.00000000E+00  0.00000000E+00
