 Cu2 O4 F2                              
   1.00000000000000     
     3.1843835158876841    0.0000000000000000    0.0000000000000000
     0.0000000000000000    4.1007595237063610    0.0000000000000000
     0.0000000000000000    0.0000000000000000   21.0970603331400000
   Cu   O    F 
     2     4     2
Direct
  0.0000000140500234  0.6664320424142502  0.4177141343114528
  0.5000000083720266  0.1664598388154914  0.5822825855231386
  0.0000000031778598  0.9879693022150491  0.5319118869498425
  0.5000000306635712  0.4879830717676938  0.4680968387352635
  0.5000000363967061  0.5314494195267017  0.5300592552274566
  0.0000000096756025  0.0314298742511880  0.4699525142262573
  0.0000000574297658  0.3596495875915409  0.3579325452532416
  0.4999998402344517  0.8595668634180882  0.6420502397733472
 
  0.00000000E+00  0.00000000E+00  0.00000000E+00
  0.00000000E+00  0.00000000E+00  0.00000000E+00
  0.00000000E+00  0.00000000E+00  0.00000000E+00
  0.00000000E+00  0.00000000E+00  0.00000000E+00
  0.00000000E+00  0.00000000E+00  0.00000000E+00
  0.00000000E+00  0.00000000E+00  0.00000000E+00
  0.00000000E+00  0.00000000E+00  0.00000000E+00
  0.00000000E+00  0.00000000E+00  0.00000000E+00
