CONTCAR\(17)                            
   1.00000000000000     
    11.3502998351999995    0.0000000000000000    0.0000000000000000
    -5.6751499175999998    9.8296479979000004    0.0000000000000000
     0.0000000000000000    0.0000000000000000   21.7800998688000007
   Gd   Br   O 
    18    18     1
Direct
  0.1043118888095610  0.2188660478942194  0.5661648029895565
  0.2168630396169264  0.1085551737026300  0.4341729532649059
  0.4351237105303711  0.2125945941012693  0.5670404028652888
  0.5510643744726279  0.1086539207790424  0.4341418145073382
  0.7713994907632912  0.2188359759317601  0.5663069568729001
  0.8840161656441514  0.1085206669486875  0.4340578617058905
  0.1048127507827707  0.5523463077697744  0.5669070212570860
  0.2171031556028203  0.4416101834718433  0.4339607391216953
  0.4348156696476177  0.5555387176334834  0.5665558709739138
  0.5504752000089993  0.4417906770672029  0.4389225254078774
  0.7774296595194362  0.5553688510723489  0.5672560388288704
  0.8839177546779681  0.4415552991941922  0.4342835905474335
  0.1045603517653977  0.8855501840052723  0.5671177088372108
  0.2173046851248910  0.7751995488111164  0.4349684879292181
  0.4382012323611280  0.8855866737326882  0.5668553170379117
  0.5510503662416533  0.7753971005972916  0.4339521960172469
  0.7713928910805044  0.8856325186821614  0.5661966119695336
  0.8840467582506140  0.7754521962525071  0.4343572565957538
  0.1066376593636709  0.2202237474588162  0.3436802166178924
  0.2153855564512829  0.1089542658707799  0.6568036999160585
  0.4408430505101912  0.2223544962214696  0.3454961438064736
  0.5496373121839276  0.1077664074398560  0.6570978912864870
  0.7734391848364939  0.2201236574008563  0.3436772230926860
  0.8821548040394442  0.1075935218229609  0.6563008603501107
  0.1067106315954209  0.5539732711789530  0.3440786655962088
  0.2153634798049050  0.4401651747505614  0.6565738584065438
  0.4409438754904266  0.5515102962019631  0.3453043364521440
  0.5475010603801188  0.4408003874075402  0.6496235709078720
  0.7702066629722267  0.5517256721250731  0.3455551285920052
  0.8819871684742984  0.4405376472447992  0.6570406798038970
  0.1068385396753903  0.8861420005825209  0.3441305371763810
  0.2154563541310905  0.7740873907710287  0.6571698934867951
  0.4388636620874543  0.8859268401406339  0.3441401756827673
  0.5494318483323667  0.7742734320036365  0.6567342476727714
  0.7734148839382926  0.8865299564748220  0.3436374645511222
  0.8815514955783775  0.7745896130740539  0.6571909852655481
  0.5436141702538525  0.4408480731821092  0.7303164386066204
 
  0.00000000E+00  0.00000000E+00  0.00000000E+00
  0.00000000E+00  0.00000000E+00  0.00000000E+00
  0.00000000E+00  0.00000000E+00  0.00000000E+00
  0.00000000E+00  0.00000000E+00  0.00000000E+00
  0.00000000E+00  0.00000000E+00  0.00000000E+00
  0.00000000E+00  0.00000000E+00  0.00000000E+00
  0.00000000E+00  0.00000000E+00  0.00000000E+00
  0.00000000E+00  0.00000000E+00  0.00000000E+00
  0.00000000E+00  0.00000000E+00  0.00000000E+00
  0.00000000E+00  0.00000000E+00  0.00000000E+00
  0.00000000E+00  0.00000000E+00  0.00000000E+00
  0.00000000E+00  0.00000000E+00  0.00000000E+00
  0.00000000E+00  0.00000000E+00  0.00000000E+00
  0.00000000E+00  0.00000000E+00  0.00000000E+00
  0.00000000E+00  0.00000000E+00  0.00000000E+00
  0.00000000E+00  0.00000000E+00  0.00000000E+00
  0.00000000E+00  0.00000000E+00  0.00000000E+00
  0.00000000E+00  0.00000000E+00  0.00000000E+00
  0.00000000E+00  0.00000000E+00  0.00000000E+00
  0.00000000E+00  0.00000000E+00  0.00000000E+00
  0.00000000E+00  0.00000000E+00  0.00000000E+00
  0.00000000E+00  0.00000000E+00  0.00000000E+00
  0.00000000E+00  0.00000000E+00  0.00000000E+00
  0.00000000E+00  0.00000000E+00  0.00000000E+00
  0.00000000E+00  0.00000000E+00  0.00000000E+00
  0.00000000E+00  0.00000000E+00  0.00000000E+00
  0.00000000E+00  0.00000000E+00  0.00000000E+00
  0.00000000E+00  0.00000000E+00  0.00000000E+00
  0.00000000E+00  0.00000000E+00  0.00000000E+00
  0.00000000E+00  0.00000000E+00  0.00000000E+00
  0.00000000E+00  0.00000000E+00  0.00000000E+00
  0.00000000E+00  0.00000000E+00  0.00000000E+00
  0.00000000E+00  0.00000000E+00  0.00000000E+00
  0.00000000E+00  0.00000000E+00  0.00000000E+00
  0.00000000E+00  0.00000000E+00  0.00000000E+00
  0.00000000E+00  0.00000000E+00  0.00000000E+00
  0.00000000E+00  0.00000000E+00  0.00000000E+00
