CONTCAR\(12)                            
   1.00000000000000     
    11.5721998214999999    0.0000000000000000    0.0000000000000000
     0.0000000000000000   11.5721998214999999    0.0000000000000000
     0.0000000000000000    0.0000000000000000   18.7880992888999998
   Nd   I    O    H 
     9    18     2     1
Direct
 -0.0002340377469836  0.0013856022972297  0.4943776244095463
  0.3333518649015723  0.0019230851942656  0.4989793050796626
  0.6670504136283089  0.0016553438079023  0.4941479304085711
  0.9994214216535673  0.3340257204087680  0.4943917112032016
  0.3324354269494154  0.3327391088486814  0.4994739609300803
  0.6669387684557861  0.3338206551979971  0.4944746530813135
  0.9986172503788696  0.6680014790239974  0.4994327283447646
  0.3305929364890124  0.6645535297694583  0.5305051766357817
  0.6678320535498443  0.6686947825041485  0.4988771773323840
  0.1681080011634964  0.1682730211737451  0.3956960624857638
  0.1672601841868216  0.1673825372031332  0.5969102535532615
  0.4980989902200252  0.1691397307882115  0.3958160307297340
  0.4992399600193325  0.1674004572840550  0.5967912579650173
  0.8330752397990221  0.1679885892566463  0.3920739495376952
  0.8332858501721080  0.1685342670957308  0.5955605114100961
  0.1676799329667581  0.5029203853534837  0.4005991362812491
  0.1512199228180224  0.4857953326860686  0.6005011303871313
  0.4980287482740152  0.5034439195094066  0.4017378817933410
  0.5149243124558297  0.4857792836584028  0.6012091017037134
  0.8326664169039938  0.5025749771094041  0.3957171029993001
  0.8327743476647939  0.5023519055216727  0.5968322928434364
  0.1686382107830486  0.8336361303066748  0.4006712732953803
  0.1509636317218885  0.8493644141624904  0.6004475080966841
  0.5010156839313274  0.8356625712479634  0.3992645369826672
  0.5142004606476476  0.8489827996313914  0.5995200136879368
  0.8347287299014837  0.8326627534448444  0.3956761086456757
  0.8324901217582434  0.8343937138757747  0.5967188192933014
  0.3079845055032996  0.6294776447153475  0.7144751267870668
  0.3340408192847253  0.6689898351692587  0.6440677644909945
  0.3772597715647668  0.5833863387539017  0.7252641216052753
 
  0.00000000E+00  0.00000000E+00  0.00000000E+00
  0.00000000E+00  0.00000000E+00  0.00000000E+00
  0.00000000E+00  0.00000000E+00  0.00000000E+00
  0.00000000E+00  0.00000000E+00  0.00000000E+00
  0.00000000E+00  0.00000000E+00  0.00000000E+00
  0.00000000E+00  0.00000000E+00  0.00000000E+00
  0.00000000E+00  0.00000000E+00  0.00000000E+00
  0.00000000E+00  0.00000000E+00  0.00000000E+00
  0.00000000E+00  0.00000000E+00  0.00000000E+00
  0.00000000E+00  0.00000000E+00  0.00000000E+00
  0.00000000E+00  0.00000000E+00  0.00000000E+00
  0.00000000E+00  0.00000000E+00  0.00000000E+00
  0.00000000E+00  0.00000000E+00  0.00000000E+00
  0.00000000E+00  0.00000000E+00  0.00000000E+00
  0.00000000E+00  0.00000000E+00  0.00000000E+00
  0.00000000E+00  0.00000000E+00  0.00000000E+00
  0.00000000E+00  0.00000000E+00  0.00000000E+00
  0.00000000E+00  0.00000000E+00  0.00000000E+00
  0.00000000E+00  0.00000000E+00  0.00000000E+00
  0.00000000E+00  0.00000000E+00  0.00000000E+00
  0.00000000E+00  0.00000000E+00  0.00000000E+00
  0.00000000E+00  0.00000000E+00  0.00000000E+00
  0.00000000E+00  0.00000000E+00  0.00000000E+00
  0.00000000E+00  0.00000000E+00  0.00000000E+00
  0.00000000E+00  0.00000000E+00  0.00000000E+00
  0.00000000E+00  0.00000000E+00  0.00000000E+00
  0.00000000E+00  0.00000000E+00  0.00000000E+00
  0.00000000E+00  0.00000000E+00  0.00000000E+00
  0.00000000E+00  0.00000000E+00  0.00000000E+00
  0.00000000E+00  0.00000000E+00  0.00000000E+00
