CONTCAR\(3)                             
   1.00000000000000     
    13.5864000320000002    0.0000000000000000    0.0000000000000000
     0.0000000000000000   13.0711002349999994    0.0000000000000000
     0.0000000000000000    0.0000000000000000   20.1478996276999993
   Ta   Ni   Te   Se   O    H 
    16    32    16    16     2     1
Direct
  0.0005732541502894  0.2041071645935375  0.5219250793267420
  0.0010405503808215  0.4528276924228507  0.4779711701600817
  0.2508540672676816  0.2035333269367499  0.5215172686409701
  0.2522171530844091  0.4530128361302488  0.4779843532078374
  0.5001143299534192  0.2009104064198297  0.5194176281749563
  0.4998846207483894  0.4525563737015403  0.4718370624869408
  0.7496868387234130  0.2047436348637248  0.5242979387984974
  0.7487283374568534  0.4527465138273854  0.4798299169955698
  0.0004440056226329  0.7017577744684829  0.5219590143049970
  0.0001769778074205  0.9524956911336133  0.4786861665917428
  0.2509088655312937  0.7017725796620695  0.5216439740366425
  0.2498847929159567  0.9528715725208698  0.4781737831435180
  0.5002537654299886  0.7049093572688179  0.5194858499970891
  0.5003758395713476  0.9525398716795550  0.4765956998420080
  0.7497435189418766  0.7002980728166222  0.5246415358419156
  0.7506767947239368  0.9531073447791911  0.4802707614885122
  0.1245367749160664  0.0494682044520687  0.5576615996117837
  0.1260663553430987  0.1061123953974104  0.4429786605382589
  0.1272707666932789  0.2994074641947435  0.4420748430567798
  0.1279787428509422  0.3564247370402072  0.5567253526654312
  0.3759439127858215  0.0490862624597526  0.5563690446579415
  0.3726363880496351  0.1055646728025792  0.4413543866202261
  0.3716915146635387  0.2992238861909655  0.4400589399417569
  0.3869939348346207  0.3567642487532083  0.5544792555268998
  0.6226782243980367  0.0493439118525743  0.5572687729519856
  0.6305723208908063  0.1063635448746609  0.4425943506192453
  0.6300367992233902  0.3001419046518521  0.4431339579628997
  0.6068271067488524  0.3573006268572811  0.5588820647649939
  0.8777830055244493  0.0501769755301851  0.5584865785662885
  0.8721617223125619  0.1067422280520915  0.4438535334124936
  0.8721630970032876  0.2995061128833214  0.4428311608970077
  0.8771904224936904  0.3555777838013157  0.5570870639476766
  0.1276996017215382  0.5494555549301623  0.5567886376505555
  0.1271501585724764  0.6063723841446205  0.4421286620305196
  0.1268189512302982  0.7995218997957352  0.4428470311087622
  0.1244558542218925  0.8557968311391591  0.5576450198954817
  0.3881869440726433  0.5487158550307996  0.5545680243869242
  0.3720354870943154  0.6063764496345030  0.4401792529896724
  0.3720816614172975  0.7999405696715556  0.4414068756450362
  0.3759417486056691  0.8565712195111317  0.5563157755649542
  0.6056147191850982  0.5478969136506322  0.5592470273665242
  0.6303956308006420  0.6052652972761408  0.4433805784751925
  0.6316327270503521  0.7991001011730319  0.4427337601662202
  0.6235005936710678  0.8562163325843812  0.5573725458668903
  0.8771555862997644  0.5499447012665541  0.5570708618197742
  0.8719920117518143  0.6062334737869364  0.4428351284201639
  0.8706698876416894  0.7987301214524152  0.4440259773925987
  0.8773772827336472  0.8554596614182728  0.5586532087172529
  0.9993214266326049  0.2030710717923441  0.3723833062426465
  0.0020229703802599  0.4528127895841081  0.6284852699297971
  0.2488768335522167  0.2015739291764476  0.3683866847153325
  0.2590905882906682  0.4533251406190288  0.6248754988962233
  0.5018922144979285  0.2022209452087225  0.3719716856202169
  0.5003841412432948  0.4518565439210676  0.6448276424929631
  0.7515029067376702  0.2030718403752871  0.3688079314245130
  0.7456158817829106  0.4527213227906586  0.6228044473792735
  0.9989936449384942  0.7033147503760873  0.3727548576094151
  0.0011079218513359  0.9526909225064060  0.6308177852395076
  0.2489915643552507  0.7034517969847016  0.3682524129975917
  0.2510430732542019  0.9526333891834895  0.6287841989747704
  0.5021659554184552  0.7038139313238858  0.3723610557664543
  0.4992040307710539  0.9526099691904903  0.6295298707310835
  0.7511789003854403  0.7017571768761428  0.3683971556137280
  0.7497036487887883  0.9533770958597643  0.6288283070128315
  0.1258053147709788  0.2036025870239015  0.6221827262708857
  0.1256418270965511  0.4529457115226734  0.3776149444820618
  0.3762799581604028  0.2032850826342028  0.6206304423641100
  0.3727935545752246  0.4529220479682081  0.3740218737957193
  0.6235827573027493  0.2025211978545798  0.6222909584058058
  0.6283805588788169  0.4527203978099763  0.3755974883642565
  0.8763938587936195  0.2035614006915338  0.6234138057277789
  0.8747946771270705  0.4529286039748186  0.3789317139178863
  0.1257749570634488  0.7020466780881733  0.6222617805667241
  0.1246559519833994  0.9528468036414139  0.3777269372542378
  0.3764162122187216  0.7022623607502467  0.6206807072389751
  0.3746149058496968  0.9527418716143430  0.3764493382809562
  0.6236277793555729  0.7030906268405417  0.6225357809672616
  0.6268995597420997  0.9527144602369404  0.3779358105357886
  0.8764533971318400  0.7019256447919275  0.6236638064594899
  0.8751064060777765  0.9526721900551038  0.3790412499676350
  0.5668773561574625  0.4352883498000324  0.7459214061131050
  0.6680220773194847  0.4380017340134970  0.7693312743375387
  0.6713393404024970  0.5075375454338698  0.7875845250272064
 
  0.00000000E+00  0.00000000E+00  0.00000000E+00
  0.00000000E+00  0.00000000E+00  0.00000000E+00
  0.00000000E+00  0.00000000E+00  0.00000000E+00
  0.00000000E+00  0.00000000E+00  0.00000000E+00
  0.00000000E+00  0.00000000E+00  0.00000000E+00
  0.00000000E+00  0.00000000E+00  0.00000000E+00
  0.00000000E+00  0.00000000E+00  0.00000000E+00
  0.00000000E+00  0.00000000E+00  0.00000000E+00
  0.00000000E+00  0.00000000E+00  0.00000000E+00
  0.00000000E+00  0.00000000E+00  0.00000000E+00
  0.00000000E+00  0.00000000E+00  0.00000000E+00
  0.00000000E+00  0.00000000E+00  0.00000000E+00
  0.00000000E+00  0.00000000E+00  0.00000000E+00
  0.00000000E+00  0.00000000E+00  0.00000000E+00
  0.00000000E+00  0.00000000E+00  0.00000000E+00
  0.00000000E+00  0.00000000E+00  0.00000000E+00
  0.00000000E+00  0.00000000E+00  0.00000000E+00
  0.00000000E+00  0.00000000E+00  0.00000000E+00
  0.00000000E+00  0.00000000E+00  0.00000000E+00
  0.00000000E+00  0.00000000E+00  0.00000000E+00
  0.00000000E+00  0.00000000E+00  0.00000000E+00
  0.00000000E+00  0.00000000E+00  0.00000000E+00
  0.00000000E+00  0.00000000E+00  0.00000000E+00
  0.00000000E+00  0.00000000E+00  0.00000000E+00
  0.00000000E+00  0.00000000E+00  0.00000000E+00
  0.00000000E+00  0.00000000E+00  0.00000000E+00
  0.00000000E+00  0.00000000E+00  0.00000000E+00
  0.00000000E+00  0.00000000E+00  0.00000000E+00
  0.00000000E+00  0.00000000E+00  0.00000000E+00
  0.00000000E+00  0.00000000E+00  0.00000000E+00
  0.00000000E+00  0.00000000E+00  0.00000000E+00
  0.00000000E+00  0.00000000E+00  0.00000000E+00
  0.00000000E+00  0.00000000E+00  0.00000000E+00
  0.00000000E+00  0.00000000E+00  0.00000000E+00
  0.00000000E+00  0.00000000E+00  0.00000000E+00
  0.00000000E+00  0.00000000E+00  0.00000000E+00
  0.00000000E+00  0.00000000E+00  0.00000000E+00
  0.00000000E+00  0.00000000E+00  0.00000000E+00
  0.00000000E+00  0.00000000E+00  0.00000000E+00
  0.00000000E+00  0.00000000E+00  0.00000000E+00
  0.00000000E+00  0.00000000E+00  0.00000000E+00
  0.00000000E+00  0.00000000E+00  0.00000000E+00
  0.00000000E+00  0.00000000E+00  0.00000000E+00
  0.00000000E+00  0.00000000E+00  0.00000000E+00
  0.00000000E+00  0.00000000E+00  0.00000000E+00
  0.00000000E+00  0.00000000E+00  0.00000000E+00
  0.00000000E+00  0.00000000E+00  0.00000000E+00
  0.00000000E+00  0.00000000E+00  0.00000000E+00
  0.00000000E+00  0.00000000E+00  0.00000000E+00
  0.00000000E+00  0.00000000E+00  0.00000000E+00
  0.00000000E+00  0.00000000E+00  0.00000000E+00
  0.00000000E+00  0.00000000E+00  0.00000000E+00
  0.00000000E+00  0.00000000E+00  0.00000000E+00
  0.00000000E+00  0.00000000E+00  0.00000000E+00
  0.00000000E+00  0.00000000E+00  0.00000000E+00
  0.00000000E+00  0.00000000E+00  0.00000000E+00
  0.00000000E+00  0.00000000E+00  0.00000000E+00
  0.00000000E+00  0.00000000E+00  0.00000000E+00
  0.00000000E+00  0.00000000E+00  0.00000000E+00
  0.00000000E+00  0.00000000E+00  0.00000000E+00
  0.00000000E+00  0.00000000E+00  0.00000000E+00
  0.00000000E+00  0.00000000E+00  0.00000000E+00
  0.00000000E+00  0.00000000E+00  0.00000000E+00
  0.00000000E+00  0.00000000E+00  0.00000000E+00
  0.00000000E+00  0.00000000E+00  0.00000000E+00
  0.00000000E+00  0.00000000E+00  0.00000000E+00
  0.00000000E+00  0.00000000E+00  0.00000000E+00
  0.00000000E+00  0.00000000E+00  0.00000000E+00
  0.00000000E+00  0.00000000E+00  0.00000000E+00
  0.00000000E+00  0.00000000E+00  0.00000000E+00
  0.00000000E+00  0.00000000E+00  0.00000000E+00
  0.00000000E+00  0.00000000E+00  0.00000000E+00
  0.00000000E+00  0.00000000E+00  0.00000000E+00
  0.00000000E+00  0.00000000E+00  0.00000000E+00
  0.00000000E+00  0.00000000E+00  0.00000000E+00
  0.00000000E+00  0.00000000E+00  0.00000000E+00
  0.00000000E+00  0.00000000E+00  0.00000000E+00
  0.00000000E+00  0.00000000E+00  0.00000000E+00
  0.00000000E+00  0.00000000E+00  0.00000000E+00
  0.00000000E+00  0.00000000E+00  0.00000000E+00
  0.00000000E+00  0.00000000E+00  0.00000000E+00
  0.00000000E+00  0.00000000E+00  0.00000000E+00
  0.00000000E+00  0.00000000E+00  0.00000000E+00
