CONTCAR\(4)                             
   1.00000000000000     
    12.9882001877000004    0.0000000000000000    0.0000000000000000
     0.0000000000000000   20.1457004546999983    0.0000000000000000
     0.0000000000000000    0.0000000000000000   19.8038997650000006
   Ce   I    O    H 
    12    36     2     1
Direct
  0.1654091552787925  0.9995714254507793  0.5064473092666829
  0.0006180227155020  0.2500284712498224  0.4911924907148398
  0.5016072639300323  0.9996386231841381  0.5069770616634818
  0.3335357457875391  0.2500005125502626  0.4924423643533697
  0.8335424439749515  0.0006004660179378  0.5023708718843468
  0.6664630655992524  0.2499891048919833  0.4915100759680532
  0.1653209503802053  0.5004884844833906  0.5062339477060588
  0.9991105692868991  0.7504589617549857  0.4895338612191921
  0.5018606560292322  0.5001512224950353  0.5070053180633232
  0.3336411426501920  0.7510190124363784  0.5218348223931533
  0.8335907553494859  0.4995680424690439  0.5023625910971640
  0.6683800316161385  0.7505377625094236  0.4901410547153361
  0.0011701605392951  0.4071995926882105  0.4230120611304966
  0.1671482660203980  0.3413619069557823  0.5741966256490699
  0.1671321804875159  0.1588620824262971  0.5741444456220519
  0.0011674164215960  0.0928356465678559  0.4230256691367575
  0.9959032332287563  0.0034568458576066  0.6202441366076954
  0.1686275166475873  0.2500046064944165  0.3761871941821326
  0.3336866707086875  0.4094282469029323  0.4248505472865632
  0.4997996378514237  0.3411566644975330  0.5745199452053613
  0.4997539092909576  0.1589914538361235  0.5742769251238650
  0.3334740345647942  0.0902940294780250  0.4245228872624853
  0.3332222108435687  0.9989518479168764  0.6221238499258330
  0.4991016781006771  0.2500091159789732  0.3764711936838429
  0.6653798770038948  0.4072375712039125  0.4234076299153308
  0.8334614252274326  0.3406447131178628  0.5721072594495208
  0.8336010363185371  0.1595648368684092  0.5721578816752692
  0.6653179958259813  0.0927504906479209  0.4233969996460392
  0.6713767665925319  0.0038593064948209  0.6206117446833705
  0.8330971034080201  0.2500314730774867  0.3756135885375650
  0.9996631408696582  0.9109541738056304  0.4190611808536753
  0.1464079074082179  0.8458906138674963  0.5765456832605013
  0.1464367303032960  0.6542094278598436  0.5760386460328262
  0.9996658420735137  0.5892044660514931  0.4191346496810155
  0.9959606827610968  0.4966546500354528  0.6202558165284517
  0.1763479263309619  0.7500420540069056  0.3872955271263411
  0.3341776772659893  0.9069823652464963  0.4326709432844648
  0.5212319061002161  0.8457264720619992  0.5772183483957875
  0.5213283633901701  0.6542024958219577  0.5771356519862610
  0.3344104775417531  0.5928720817273191  0.4327334614032333
  0.3331122837618577  0.5016749181070946  0.6227750287813347
  0.4916671482097434  0.7500306699018070  0.3876375336944792
  0.6675488018879421  0.9108541620476270  0.4197765472421754
  0.8337332042911644  0.8425832219104727  0.5704504442535570
  0.8339387964602032  0.6581755143252521  0.5703726257003235
  0.6673943437504262  0.5891775988347026  0.4199914434361715
  0.6717533978077471  0.4963846256704817  0.6208646565041350
  0.8331589512329817  0.7500271103825525  0.3735142384470533
  0.3297075273829146  0.7426101177925060  0.6952568280675068
  0.3326644843403319  0.7483049309401382  0.6240562383210787
  0.3425996651499956  0.6947459480985514  0.7010921492313588
 
  0.00000000E+00  0.00000000E+00  0.00000000E+00
  0.00000000E+00  0.00000000E+00  0.00000000E+00
  0.00000000E+00  0.00000000E+00  0.00000000E+00
  0.00000000E+00  0.00000000E+00  0.00000000E+00
  0.00000000E+00  0.00000000E+00  0.00000000E+00
  0.00000000E+00  0.00000000E+00  0.00000000E+00
  0.00000000E+00  0.00000000E+00  0.00000000E+00
  0.00000000E+00  0.00000000E+00  0.00000000E+00
  0.00000000E+00  0.00000000E+00  0.00000000E+00
  0.00000000E+00  0.00000000E+00  0.00000000E+00
  0.00000000E+00  0.00000000E+00  0.00000000E+00
  0.00000000E+00  0.00000000E+00  0.00000000E+00
  0.00000000E+00  0.00000000E+00  0.00000000E+00
  0.00000000E+00  0.00000000E+00  0.00000000E+00
  0.00000000E+00  0.00000000E+00  0.00000000E+00
  0.00000000E+00  0.00000000E+00  0.00000000E+00
  0.00000000E+00  0.00000000E+00  0.00000000E+00
  0.00000000E+00  0.00000000E+00  0.00000000E+00
  0.00000000E+00  0.00000000E+00  0.00000000E+00
  0.00000000E+00  0.00000000E+00  0.00000000E+00
  0.00000000E+00  0.00000000E+00  0.00000000E+00
  0.00000000E+00  0.00000000E+00  0.00000000E+00
  0.00000000E+00  0.00000000E+00  0.00000000E+00
  0.00000000E+00  0.00000000E+00  0.00000000E+00
  0.00000000E+00  0.00000000E+00  0.00000000E+00
  0.00000000E+00  0.00000000E+00  0.00000000E+00
  0.00000000E+00  0.00000000E+00  0.00000000E+00
  0.00000000E+00  0.00000000E+00  0.00000000E+00
  0.00000000E+00  0.00000000E+00  0.00000000E+00
  0.00000000E+00  0.00000000E+00  0.00000000E+00
  0.00000000E+00  0.00000000E+00  0.00000000E+00
  0.00000000E+00  0.00000000E+00  0.00000000E+00
  0.00000000E+00  0.00000000E+00  0.00000000E+00
  0.00000000E+00  0.00000000E+00  0.00000000E+00
  0.00000000E+00  0.00000000E+00  0.00000000E+00
  0.00000000E+00  0.00000000E+00  0.00000000E+00
  0.00000000E+00  0.00000000E+00  0.00000000E+00
  0.00000000E+00  0.00000000E+00  0.00000000E+00
  0.00000000E+00  0.00000000E+00  0.00000000E+00
  0.00000000E+00  0.00000000E+00  0.00000000E+00
  0.00000000E+00  0.00000000E+00  0.00000000E+00
  0.00000000E+00  0.00000000E+00  0.00000000E+00
  0.00000000E+00  0.00000000E+00  0.00000000E+00
  0.00000000E+00  0.00000000E+00  0.00000000E+00
  0.00000000E+00  0.00000000E+00  0.00000000E+00
  0.00000000E+00  0.00000000E+00  0.00000000E+00
  0.00000000E+00  0.00000000E+00  0.00000000E+00
  0.00000000E+00  0.00000000E+00  0.00000000E+00
  0.00000000E+00  0.00000000E+00  0.00000000E+00
  0.00000000E+00  0.00000000E+00  0.00000000E+00
  0.00000000E+00  0.00000000E+00  0.00000000E+00
