CONTCAR\(2)                             
   1.00000000000000     
    11.8893995285000003    0.0000000000000000    0.0000000000000000
     0.0000000000000000   11.8893995285000003    0.0000000000000000
     0.0000000000000000    0.0000000000000000   25.3729991912999999
   Ce   Bi   S    O    H 
    18    18    36    20     1
Direct
  0.0014362997931549  0.9935201931869206  0.4510692611411932
  0.1685844407834596  0.1597882981293264  0.5508762280695781
  0.3341873250768232  0.9935346102312512  0.4510100148548875
  0.5000520873088848  0.1599639303057479  0.5507532026752828
  0.6669042631241977  0.9935411317055344  0.4510397807234466
  0.8342739136291236  0.1588271901471392  0.5503594258073701
  0.0014585746778503  0.3277270386813616  0.4526934897783537
  0.1690551575990015  0.4931734064794963  0.5539018659514877
  0.3341165546933464  0.3279420507684691  0.4530255538740511
  0.4993029335943674  0.4932113891269211  0.5536354630577912
  0.6670567112601176  0.3277739147985042  0.4524626401528194
  0.8342109711625876  0.4931362547455430  0.5516642692703073
  0.0013984455462233  0.6593354671932661  0.4527784182606979
  0.1685213461598263  0.8265741388665810  0.5509297622317731
  0.3340712640738771  0.6591913949111405  0.4530544606442927
  0.4999835466621813  0.8264144802695920  0.5508260081382683
  0.6670035858560203  0.6593651838874094  0.4526173593941222
  0.8342243220435538  0.8274242642184075  0.5503969863217216
  0.0070964334771037  0.9917028228304117  0.7021204893053928
  0.1668485290271364  0.1658852052029091  0.3016240387312533
  0.3368276936831052  0.9915996430679334  0.7016034468326310
  0.5001036888354629  0.1658463738063256  0.3016276261864713
  0.6666639461903252  0.9917011805933729  0.7018894302888125
  0.8335255732572394  0.1657702822306229  0.3018678894798527
  0.0037796849945467  0.3244741775257903  0.7005338288007880
  0.1668164912226644  0.4989026433590493  0.3017038570204715
  0.3373041941929340  0.3371441252037142  0.7043406635282357
  0.5001554209167587  0.4989286917505800  0.3017058217449492
  0.6699609416425086  0.3240629435848865  0.7008332260868965
  0.8335336250229777  0.4988976518836667  0.3018107842715779
  0.0036590789295257  0.6588105165060276  0.7005001800269454
  0.1668043479695402  0.8318714379395910  0.3016631188323030
  0.3373620877056154  0.6460413948488851  0.7043579037214741
  0.5001653302136341  0.8318912751993456  0.3016397827865627
  0.6700176136513264  0.6593971886078190  0.7008233170633239
  0.8335654447535970  0.8319273489087460  0.3018625502459511
  0.0013064387272817  0.9926145614124519  0.6016017087884903
  0.0005427718322402  0.9977522457085902  0.2991688670265579
  0.1676612493895251  0.1628851717848520  0.4018090894354652
  0.1681277999681055  0.1552828455266931  0.7093339347882626
  0.3354078257966701  0.9927530285047836  0.6012133704052979
  0.3336086709787676  0.9973899867253860  0.2979573991391407
  0.5002811043581830  0.1627109167459924  0.4017890480577995
  0.5030765550620814  0.1611537506398066  0.7103974432619576
  0.6673129606152910  0.9926436101817561  0.6015247796978248
  0.6668842478994627  0.9977353297841685  0.2992655718890697
  0.8342807752035944  0.1627801059705949  0.4020273649569575
  0.8334341553478632  0.1623040030401776  0.7098934267987865
  0.9975666667405010  0.3198781190569570  0.6005546922951411
  0.0003452040249118  0.3311329068316383  0.2954976478264963
  0.1673958295022551  0.4945671726979550  0.4021135145538274
  0.1669192646646105  0.4920255863809190  0.6773348044370391
  0.3342748022195914  0.3183699111350686  0.6001808312559908
  0.3337472835832134  0.3313023666053477  0.2952830595497049
  0.5003527853540436  0.4946197531081273  0.4020789551417637
  0.5002191864330924  0.4919394876964314  0.6764224123473747
  0.6712252831166500  0.3209506825543176  0.6006694261325498
  0.6669440817701310  0.3309597422805891  0.2963339136517701
  0.8344030601242871  0.4946390206187091  0.4021717807004654
  0.8384465601781380  0.4914510540775057  0.7041280138802251
  0.9974479135770399  0.6655338552255531  0.6004875247186812
  0.0001915610394431  0.6642596273084090  0.2953933968518458
  0.1673509120654317  0.8262185556706061  0.4018547115199216
  0.1681997159505327  0.8274043895210018  0.7093448311204738
  0.3341137039270770  0.6675618912956668  0.6006106442152958
  0.3337191821717946  0.6642249180763506  0.2951717723636756
  0.5003386407538984  0.8262734603076425  0.4018516912872749
  0.5032907783141546  0.8219948601652421  0.7105350689477571
  0.6712039504990112  0.6644584521868464  0.6006357488204965
  0.6671987652663798  0.6643534998478935  0.2958226991219909
  0.8340375688496131  0.8262794705837551  0.4020494759561527
  0.8333797605512540  0.8212807500605602  0.7098554175876888
  0.0011380753457579  0.1593029990889204  0.5009892684369018
  0.1678806127611135  0.9933214238506707  0.5009851865845494
  0.3342542315488141  0.1590024407328671  0.5005960515069456
  0.5006873314675648  0.9933379453561700  0.5009027402125371
  0.6673076537230731  0.1594600585078515  0.5009575574930319
  0.8342084434124463  0.9933002767438220  0.5007299059258536
  0.0008538801688851  0.4932498594423813  0.5029171468602412
  0.1671446149968037  0.3267285477682911  0.5019643714082133
  0.3341388894034357  0.4934710587132911  0.5024838945798847
  0.5014235984852635  0.3268141534537178  0.5018143776210157
  0.6676044320202351  0.4932987156555587  0.5026981376004060
  0.8342292945429036  0.3267419651075513  0.5015169314907433
  0.0010709863620852  0.8272058121243556  0.5010672397555332
  0.1672313447025341  0.6600002990253375  0.5020125620254126
  0.3341794523137073  0.8274333991231765  0.5006419818718217
  0.5012277148340193  0.6599810932022722  0.5019167388751223
  0.6673120563556902  0.8270724405207114  0.5010681329384029
  0.8341993471707433  0.6599351008904925  0.5015602352278075
  0.2579549877783846  0.4835323558285653  0.8040508705229120
  0.3591382307161102  0.4887433636537352  0.7699556546104918
  0.2941157883037044  0.4755122201897297  0.8384958556213569
 
  0.00000000E+00  0.00000000E+00  0.00000000E+00
  0.00000000E+00  0.00000000E+00  0.00000000E+00
  0.00000000E+00  0.00000000E+00  0.00000000E+00
  0.00000000E+00  0.00000000E+00  0.00000000E+00
  0.00000000E+00  0.00000000E+00  0.00000000E+00
  0.00000000E+00  0.00000000E+00  0.00000000E+00
  0.00000000E+00  0.00000000E+00  0.00000000E+00
  0.00000000E+00  0.00000000E+00  0.00000000E+00
  0.00000000E+00  0.00000000E+00  0.00000000E+00
  0.00000000E+00  0.00000000E+00  0.00000000E+00
  0.00000000E+00  0.00000000E+00  0.00000000E+00
  0.00000000E+00  0.00000000E+00  0.00000000E+00
  0.00000000E+00  0.00000000E+00  0.00000000E+00
  0.00000000E+00  0.00000000E+00  0.00000000E+00
  0.00000000E+00  0.00000000E+00  0.00000000E+00
  0.00000000E+00  0.00000000E+00  0.00000000E+00
  0.00000000E+00  0.00000000E+00  0.00000000E+00
  0.00000000E+00  0.00000000E+00  0.00000000E+00
  0.00000000E+00  0.00000000E+00  0.00000000E+00
  0.00000000E+00  0.00000000E+00  0.00000000E+00
  0.00000000E+00  0.00000000E+00  0.00000000E+00
  0.00000000E+00  0.00000000E+00  0.00000000E+00
  0.00000000E+00  0.00000000E+00  0.00000000E+00
  0.00000000E+00  0.00000000E+00  0.00000000E+00
  0.00000000E+00  0.00000000E+00  0.00000000E+00
  0.00000000E+00  0.00000000E+00  0.00000000E+00
  0.00000000E+00  0.00000000E+00  0.00000000E+00
  0.00000000E+00  0.00000000E+00  0.00000000E+00
  0.00000000E+00  0.00000000E+00  0.00000000E+00
  0.00000000E+00  0.00000000E+00  0.00000000E+00
  0.00000000E+00  0.00000000E+00  0.00000000E+00
  0.00000000E+00  0.00000000E+00  0.00000000E+00
  0.00000000E+00  0.00000000E+00  0.00000000E+00
  0.00000000E+00  0.00000000E+00  0.00000000E+00
  0.00000000E+00  0.00000000E+00  0.00000000E+00
  0.00000000E+00  0.00000000E+00  0.00000000E+00
  0.00000000E+00  0.00000000E+00  0.00000000E+00
  0.00000000E+00  0.00000000E+00  0.00000000E+00
  0.00000000E+00  0.00000000E+00  0.00000000E+00
  0.00000000E+00  0.00000000E+00  0.00000000E+00
  0.00000000E+00  0.00000000E+00  0.00000000E+00
  0.00000000E+00  0.00000000E+00  0.00000000E+00
  0.00000000E+00  0.00000000E+00  0.00000000E+00
  0.00000000E+00  0.00000000E+00  0.00000000E+00
  0.00000000E+00  0.00000000E+00  0.00000000E+00
  0.00000000E+00  0.00000000E+00  0.00000000E+00
  0.00000000E+00  0.00000000E+00  0.00000000E+00
  0.00000000E+00  0.00000000E+00  0.00000000E+00
  0.00000000E+00  0.00000000E+00  0.00000000E+00
  0.00000000E+00  0.00000000E+00  0.00000000E+00
  0.00000000E+00  0.00000000E+00  0.00000000E+00
  0.00000000E+00  0.00000000E+00  0.00000000E+00
  0.00000000E+00  0.00000000E+00  0.00000000E+00
  0.00000000E+00  0.00000000E+00  0.00000000E+00
  0.00000000E+00  0.00000000E+00  0.00000000E+00
  0.00000000E+00  0.00000000E+00  0.00000000E+00
  0.00000000E+00  0.00000000E+00  0.00000000E+00
  0.00000000E+00  0.00000000E+00  0.00000000E+00
  0.00000000E+00  0.00000000E+00  0.00000000E+00
  0.00000000E+00  0.00000000E+00  0.00000000E+00
  0.00000000E+00  0.00000000E+00  0.00000000E+00
  0.00000000E+00  0.00000000E+00  0.00000000E+00
  0.00000000E+00  0.00000000E+00  0.00000000E+00
  0.00000000E+00  0.00000000E+00  0.00000000E+00
  0.00000000E+00  0.00000000E+00  0.00000000E+00
  0.00000000E+00  0.00000000E+00  0.00000000E+00
  0.00000000E+00  0.00000000E+00  0.00000000E+00
  0.00000000E+00  0.00000000E+00  0.00000000E+00
  0.00000000E+00  0.00000000E+00  0.00000000E+00
  0.00000000E+00  0.00000000E+00  0.00000000E+00
  0.00000000E+00  0.00000000E+00  0.00000000E+00
  0.00000000E+00  0.00000000E+00  0.00000000E+00
  0.00000000E+00  0.00000000E+00  0.00000000E+00
  0.00000000E+00  0.00000000E+00  0.00000000E+00
  0.00000000E+00  0.00000000E+00  0.00000000E+00
  0.00000000E+00  0.00000000E+00  0.00000000E+00
  0.00000000E+00  0.00000000E+00  0.00000000E+00
  0.00000000E+00  0.00000000E+00  0.00000000E+00
  0.00000000E+00  0.00000000E+00  0.00000000E+00
  0.00000000E+00  0.00000000E+00  0.00000000E+00
  0.00000000E+00  0.00000000E+00  0.00000000E+00
  0.00000000E+00  0.00000000E+00  0.00000000E+00
  0.00000000E+00  0.00000000E+00  0.00000000E+00
  0.00000000E+00  0.00000000E+00  0.00000000E+00
  0.00000000E+00  0.00000000E+00  0.00000000E+00
  0.00000000E+00  0.00000000E+00  0.00000000E+00
  0.00000000E+00  0.00000000E+00  0.00000000E+00
  0.00000000E+00  0.00000000E+00  0.00000000E+00
  0.00000000E+00  0.00000000E+00  0.00000000E+00
  0.00000000E+00  0.00000000E+00  0.00000000E+00
  0.00000000E+00  0.00000000E+00  0.00000000E+00
  0.00000000E+00  0.00000000E+00  0.00000000E+00
  0.00000000E+00  0.00000000E+00  0.00000000E+00
