CONTCAR\(10)                            
   1.00000000000000     
    12.5135002136000004    0.0000000000000000    0.0000000000000000
     0.0000000000000000   15.7480001450000007    0.0000000000000000
     0.0000000000000000    0.0000000000000000   19.7180004119999985
   Nb   Fe   Te   O    H 
    16    16    32     2     1
Selective dynamics
Direct
  0.2393618457591131  0.1574317259091060  0.4938957838621505   F   F   F
  0.0119105828692128  0.4071008562815592  0.4950913409165665   F   F   F
  0.9895559583066813  0.0989338464018275  0.5095286594140163   F   F   F
  0.2632634948896140  0.3490205366062327  0.5094217661010489   F   F   F
  0.7400056702750106  0.1574227380253603  0.4937068646183889   F   F   F
  0.5133165373591311  0.4083301736063447  0.4944592664404084   F   F   F
  0.4895802829820326  0.0988010902250593  0.5095694074625357   F   F   F
  0.7643196237172347  0.3508053729101235  0.5092275131145101   F   F   F
  0.2390535989521183  0.6573357331357812  0.4947333632614175   F   F   F
  0.0137186237550537  0.9075019369189263  0.4942892068622839   F   F   F
  0.9878694792612066  0.5986914217014530  0.5114199899817820   F   F   F
  0.2637216815142338  0.8491184142157380  0.5099163323584719   F   F   F
  0.7397149664380862  0.6572019129980475  0.4937072057936618   F   F   F
  0.5137431960579164  0.9077479593640447  0.4940725588037722   F   F   F
  0.4902768690123978  0.5985595230286478  0.5105048138441646   F   F   F
  0.7638690459742463  0.8491326639453689  0.5097871886721279   F   F   F
  0.0736195050704893  0.2491677132908308  0.5398936831903356   F   F   F
  0.3233535873717841  0.0069763424518143  0.4634310802642929   F   F   F
  0.4296160878259130  0.2572824607566844  0.4634787806728085   F   F   F
  0.1796316326765748  0.9995751408495366  0.5402521684193644   F   F   F
  0.5734956456969016  0.2490273211899279  0.5400515288686165   F   F   F
  0.8236601302258890  0.0070204725417895  0.4632866418003232   F   F   F
  0.9297625349205347  0.2572782564004612  0.4629180743898758   F   F   F
  0.6799338755192892  0.9997011493498036  0.5400566326306873   F   F   F
  0.0736396220726547  0.7494115675866411  0.5406223661113927   F   F   F
  0.3228589565808946  0.5070103193611644  0.4642330146951608   F   F   F
  0.4296589213575430  0.7569691338167317  0.4638091213248572   F   F   F
  0.1794893509235322  0.4987826998551341  0.5412257374883183   F   F   F
  0.5735908866108019  0.7498482394028514  0.5403591004784971   F   F   F
  0.8216578573803588  0.5072893543978907  0.4621311942089505   F   F   F
  0.9295247217598828  0.7567525512840803  0.4640115402107341   F   F   F
  0.6819780775884894  0.4993114222244088  0.5426693892017695   F   F   F
  0.3717392292270247  0.3831402491438425  0.3846235684310813   F   F   F
  0.1283137668841832  0.0251619714652023  0.4128954131253266   F   F   F
  0.3747484530071148  0.9812666752355597  0.5907694017808041   F   F   F
  0.1221794503313731  0.3727346608755866  0.6197418023814549   F   F   F
  0.3778903963987545  0.2309763384173493  0.5906024953694029   F   F   F
  0.1247905443820230  0.2756521166273700  0.4127401341423038   F   F   F
  0.1316469553497939  0.1240682384940257  0.6193372424275765   F   F   F
  0.3819511109791947  0.1325252468235902  0.3844174149580084   F   F   F
  0.8713122600082741  0.3822622357541334  0.3838775321701107   F   F   F
  0.6284842460818609  0.0253798041886384  0.4128836424041609   F   F   F
  0.8747353761405705  0.9814988552406945  0.5908444164331499   F   F   F
  0.6190322964403094  0.3728881048426871  0.6194317944337939   F   F   F
  0.8785418297746475  0.2320333036211935  0.5900426459469585   F   F   F
  0.6248634006712024  0.2756010811891230  0.4132077006315384   F   F   F
  0.6323380985876810  0.1239306455599660  0.6192066315138902   F   F   F
  0.8823121792387099  0.1322495796729299  0.3841243341190363   F   F   F
  0.3713579473840269  0.8822297190965003  0.3845271664734824   F   F   F
  0.1275290601520140  0.5257918444329377  0.4144271019922883   F   F   F
  0.3745972405693010  0.4811828338768152  0.5915024262595026   F   F   F
  0.1211623316177608  0.8743659229490746  0.6195301637182027   F   F   F
  0.3784920548220896  0.7314306409080444  0.5909361981901000   F   F   F
  0.1247153090980078  0.7750283108698994  0.4133388523136006   F   F   F
  0.1326495922790585  0.6239328401163675  0.6199398732100292   F   F   F
  0.3825108576888425  0.6318786516927446  0.3852655054132299   F   F   F
  0.8717747799648379  0.8821220628789348  0.3845884180593160   F   F   F
  0.6279224197073034  0.5252002381736176  0.4131475734357934   F   F   F
  0.8747692798712805  0.4795860710399253  0.5906425273995879   F   F   F
  0.6213402633929093  0.8746313917299275  0.6193375625172948   F   F   F
  0.8779476018872430  0.7306676911761940  0.5909965884955781   F   F   F
  0.6249591064199223  0.7752872552658800  0.4130753821018089   F   F   F
  0.6327350756061350  0.6254245868186743  0.6198010821285607   F   F   F
  0.8828510218100050  0.6328511020718537  0.3847204143295855   F   F   F
  0.9144828566759884  0.4200110356488267  0.6918717764351214   T   T   T
  0.8301394393886312  0.4318675399074579  0.7408509156852503   T   T   T
  0.7886511174571353  0.3793005771610751  0.7343821958857200   T   T   T
 
  0.00000000E+00  0.00000000E+00  0.00000000E+00
  0.00000000E+00  0.00000000E+00  0.00000000E+00
  0.00000000E+00  0.00000000E+00  0.00000000E+00
  0.00000000E+00  0.00000000E+00  0.00000000E+00
  0.00000000E+00  0.00000000E+00  0.00000000E+00
  0.00000000E+00  0.00000000E+00  0.00000000E+00
  0.00000000E+00  0.00000000E+00  0.00000000E+00
  0.00000000E+00  0.00000000E+00  0.00000000E+00
  0.00000000E+00  0.00000000E+00  0.00000000E+00
  0.00000000E+00  0.00000000E+00  0.00000000E+00
  0.00000000E+00  0.00000000E+00  0.00000000E+00
  0.00000000E+00  0.00000000E+00  0.00000000E+00
  0.00000000E+00  0.00000000E+00  0.00000000E+00
  0.00000000E+00  0.00000000E+00  0.00000000E+00
  0.00000000E+00  0.00000000E+00  0.00000000E+00
  0.00000000E+00  0.00000000E+00  0.00000000E+00
  0.00000000E+00  0.00000000E+00  0.00000000E+00
  0.00000000E+00  0.00000000E+00  0.00000000E+00
  0.00000000E+00  0.00000000E+00  0.00000000E+00
  0.00000000E+00  0.00000000E+00  0.00000000E+00
  0.00000000E+00  0.00000000E+00  0.00000000E+00
  0.00000000E+00  0.00000000E+00  0.00000000E+00
  0.00000000E+00  0.00000000E+00  0.00000000E+00
  0.00000000E+00  0.00000000E+00  0.00000000E+00
  0.00000000E+00  0.00000000E+00  0.00000000E+00
  0.00000000E+00  0.00000000E+00  0.00000000E+00
  0.00000000E+00  0.00000000E+00  0.00000000E+00
  0.00000000E+00  0.00000000E+00  0.00000000E+00
  0.00000000E+00  0.00000000E+00  0.00000000E+00
  0.00000000E+00  0.00000000E+00  0.00000000E+00
  0.00000000E+00  0.00000000E+00  0.00000000E+00
  0.00000000E+00  0.00000000E+00  0.00000000E+00
  0.00000000E+00  0.00000000E+00  0.00000000E+00
  0.00000000E+00  0.00000000E+00  0.00000000E+00
  0.00000000E+00  0.00000000E+00  0.00000000E+00
  0.00000000E+00  0.00000000E+00  0.00000000E+00
  0.00000000E+00  0.00000000E+00  0.00000000E+00
  0.00000000E+00  0.00000000E+00  0.00000000E+00
  0.00000000E+00  0.00000000E+00  0.00000000E+00
  0.00000000E+00  0.00000000E+00  0.00000000E+00
  0.00000000E+00  0.00000000E+00  0.00000000E+00
  0.00000000E+00  0.00000000E+00  0.00000000E+00
  0.00000000E+00  0.00000000E+00  0.00000000E+00
  0.00000000E+00  0.00000000E+00  0.00000000E+00
  0.00000000E+00  0.00000000E+00  0.00000000E+00
  0.00000000E+00  0.00000000E+00  0.00000000E+00
  0.00000000E+00  0.00000000E+00  0.00000000E+00
  0.00000000E+00  0.00000000E+00  0.00000000E+00
  0.00000000E+00  0.00000000E+00  0.00000000E+00
  0.00000000E+00  0.00000000E+00  0.00000000E+00
  0.00000000E+00  0.00000000E+00  0.00000000E+00
  0.00000000E+00  0.00000000E+00  0.00000000E+00
  0.00000000E+00  0.00000000E+00  0.00000000E+00
  0.00000000E+00  0.00000000E+00  0.00000000E+00
  0.00000000E+00  0.00000000E+00  0.00000000E+00
  0.00000000E+00  0.00000000E+00  0.00000000E+00
  0.00000000E+00  0.00000000E+00  0.00000000E+00
  0.00000000E+00  0.00000000E+00  0.00000000E+00
  0.00000000E+00  0.00000000E+00  0.00000000E+00
  0.00000000E+00  0.00000000E+00  0.00000000E+00
  0.00000000E+00  0.00000000E+00  0.00000000E+00
  0.00000000E+00  0.00000000E+00  0.00000000E+00
  0.00000000E+00  0.00000000E+00  0.00000000E+00
  0.00000000E+00  0.00000000E+00  0.00000000E+00
  0.00000000E+00  0.00000000E+00  0.00000000E+00
  0.00000000E+00  0.00000000E+00  0.00000000E+00
  0.00000000E+00  0.00000000E+00  0.00000000E+00
