CONTCAR\(2)                             
   1.00000000000000     
     2.9970250983628741    0.0000000000000000    0.0000000000000000
    -1.4985125492307436    2.5954989463506957    0.0000000000000000
     0.0000000000000000    0.0000000000000000   13.7363996505999992
   Ti   C    O 
     2     1     2
Direct
  0.6666669760992018  0.3333329795495530  0.5955109336607206
  0.3333329849713642  0.6666670365927758  0.4048088295531348
  0.0000000230254177  0.0000000554090508  0.5001634852735637
  0.3333334265479044  0.6666661747790553  0.6628001076406932
  0.6666666353561228  0.3333338456695587  0.3375566388718877
 
  0.00000000E+00  0.00000000E+00  0.00000000E+00
  0.00000000E+00  0.00000000E+00  0.00000000E+00
  0.00000000E+00  0.00000000E+00  0.00000000E+00
  0.00000000E+00  0.00000000E+00  0.00000000E+00
  0.00000000E+00  0.00000000E+00  0.00000000E+00
