CONTCAR                                 
   1.00000000000000     
    13.1778001785000001    0.0000000000000000    0.0000000000000000
    -6.5889000893000000   11.4123097205999997    0.0000000000000000
     0.0000000000000000    0.0000000000000000   18.1460990905999999
   W    Se   H 
    16    32     1
Direct
  0.0846436219858760  0.1673746179358345  0.5003616097472926
  0.3320391064998285  0.1643131928157321  0.4972913392366377
  0.5825370251161345  0.1673607950211220  0.5004701029266334
  0.8335138160681267  0.1672231766328469  0.5006618266809661
  0.0837724162552112  0.4173620980617703  0.5007433411181593
  0.3342249489117782  0.4170009529548283  0.5021453428494864
  0.5824838220745346  0.4170468216056787  0.5023452567028366
  0.8333166962358438  0.4173431873707827  0.5008875284086137
  0.0832701621932516  0.6668635302233997  0.5001343621970560
  0.3332638275192617  0.6674974728414378  0.5000726518116005
  0.5836410872352017  0.6675572569673593  0.5008691454843591
  0.8339392534989636  0.6674741046955468  0.5002595158464817
  0.0830161619638236  0.9168478174269875  0.4996542146663445
  0.3336023900919410  0.9168552257404704  0.4996384683242226
  0.5832647933871491  0.9169817902892718  0.5002889512357771
  0.8334797405628420  0.9169637635325848  0.5003081879150891
  0.1654529349089328  0.0826714656206933  0.4058074601578857
  0.1682351989620396  0.0839578765536702  0.5925190382635689
  0.4170490160017192  0.0826975049988700  0.4058543385982731
  0.4154318028752046  0.0839368524515884  0.5925553053694741
  0.6668756867473324  0.0842998013025115  0.4076845299078961
  0.6662377224644195  0.0837625497958099  0.5933204793589446
  0.9171751775545789  0.0842525822863722  0.4076427573955850
  0.9174555678069078  0.0837934839235393  0.5932639259095246
  0.1678309493339850  0.3344371009744492  0.4080177130445844
  0.1660216735842495  0.3332648776319203  0.5940474578444855
  0.4170454774716750  0.3341601134037935  0.4083963811769028
  0.4204687775317339  0.3414941705291645  0.6002801086170922
  0.6662884244662520  0.3344531154970058  0.4082244838397689
  0.6669988373799717  0.3332518773916848  0.5942082311903699
  0.9167418278837020  0.3339373856955998  0.4078390056788648
  0.9168514442706436  0.3337933714860994  0.5936802077109653
  0.1665838074533142  0.5833785716051808  0.4072067169040375
  0.1669655717866081  0.5843081079074458  0.5934876858452511
  0.4165804733196759  0.5826708826412417  0.4080341037450910
  0.4170276492985683  0.5851886713451308  0.5938420171081140
  0.6658659649111289  0.5826446384398969  0.4081699715087285
  0.6679230514477767  0.5853336442341802  0.5939653671349789
  0.9163230173406525  0.5832950361328716  0.4073527153470339
  0.9171529494543365  0.5843388777707208  0.5935994397141188
  0.1665013328455784  0.8332420641739240  0.4068180095544642
  0.1668601173601448  0.8339700344015866  0.5926956185451852
  0.4170394463801481  0.8334377017482920  0.4068193471234738
  0.4166481219970444  0.8341219839081726  0.5932168890797150
  0.6667334291655728  0.8336872625719544  0.4073365137187507
  0.6671175530322143  0.8344933921559653  0.5936038470408124
  0.9160894930292526  0.8332725412298958  0.4068927398913124
  0.9173131899636099  0.8342062483296594  0.5932845569726708
  0.4746152213712697  0.4521797747453928  0.6562811465505185
 
  0.00000000E+00  0.00000000E+00  0.00000000E+00
  0.00000000E+00  0.00000000E+00  0.00000000E+00
  0.00000000E+00  0.00000000E+00  0.00000000E+00
  0.00000000E+00  0.00000000E+00  0.00000000E+00
  0.00000000E+00  0.00000000E+00  0.00000000E+00
  0.00000000E+00  0.00000000E+00  0.00000000E+00
  0.00000000E+00  0.00000000E+00  0.00000000E+00
  0.00000000E+00  0.00000000E+00  0.00000000E+00
  0.00000000E+00  0.00000000E+00  0.00000000E+00
  0.00000000E+00  0.00000000E+00  0.00000000E+00
  0.00000000E+00  0.00000000E+00  0.00000000E+00
  0.00000000E+00  0.00000000E+00  0.00000000E+00
  0.00000000E+00  0.00000000E+00  0.00000000E+00
  0.00000000E+00  0.00000000E+00  0.00000000E+00
  0.00000000E+00  0.00000000E+00  0.00000000E+00
  0.00000000E+00  0.00000000E+00  0.00000000E+00
  0.00000000E+00  0.00000000E+00  0.00000000E+00
  0.00000000E+00  0.00000000E+00  0.00000000E+00
  0.00000000E+00  0.00000000E+00  0.00000000E+00
  0.00000000E+00  0.00000000E+00  0.00000000E+00
  0.00000000E+00  0.00000000E+00  0.00000000E+00
  0.00000000E+00  0.00000000E+00  0.00000000E+00
  0.00000000E+00  0.00000000E+00  0.00000000E+00
  0.00000000E+00  0.00000000E+00  0.00000000E+00
  0.00000000E+00  0.00000000E+00  0.00000000E+00
  0.00000000E+00  0.00000000E+00  0.00000000E+00
  0.00000000E+00  0.00000000E+00  0.00000000E+00
  0.00000000E+00  0.00000000E+00  0.00000000E+00
  0.00000000E+00  0.00000000E+00  0.00000000E+00
  0.00000000E+00  0.00000000E+00  0.00000000E+00
  0.00000000E+00  0.00000000E+00  0.00000000E+00
  0.00000000E+00  0.00000000E+00  0.00000000E+00
  0.00000000E+00  0.00000000E+00  0.00000000E+00
  0.00000000E+00  0.00000000E+00  0.00000000E+00
  0.00000000E+00  0.00000000E+00  0.00000000E+00
  0.00000000E+00  0.00000000E+00  0.00000000E+00
  0.00000000E+00  0.00000000E+00  0.00000000E+00
  0.00000000E+00  0.00000000E+00  0.00000000E+00
  0.00000000E+00  0.00000000E+00  0.00000000E+00
  0.00000000E+00  0.00000000E+00  0.00000000E+00
  0.00000000E+00  0.00000000E+00  0.00000000E+00
  0.00000000E+00  0.00000000E+00  0.00000000E+00
  0.00000000E+00  0.00000000E+00  0.00000000E+00
  0.00000000E+00  0.00000000E+00  0.00000000E+00
  0.00000000E+00  0.00000000E+00  0.00000000E+00
  0.00000000E+00  0.00000000E+00  0.00000000E+00
  0.00000000E+00  0.00000000E+00  0.00000000E+00
  0.00000000E+00  0.00000000E+00  0.00000000E+00
  0.00000000E+00  0.00000000E+00  0.00000000E+00
