CONTCAR\(4)                             
   1.00000000000000     
    12.5341997146999997    0.0000000000000000    0.0000000000000000
    -6.2670998572999999   10.8549353689999997    0.0000000000000000
     0.0000000000000000    0.0000000000000000   23.0692996979000000
   Tb   Ga   I    O    H 
    18    18    18     1     1
Selective dynamics
Direct
  0.0000882487021130  0.0000444176850039  0.5859300354446262   F   F   F
  0.0001038039764012  0.0000672369804207  0.4130306688970222   F   F   F
  0.3332285867918188  0.0034451120164647  0.5848867735334622   F   F   F
  0.3341838914680295  0.9991428403619267  0.4115057986611390   F   F   F
  0.6703458001872633  0.0034690159867594  0.5848823922708988   F   F   F
  0.6650617421142186  0.9991343374532207  0.4115408935470981   F   F   F
  0.9966811534158140  0.3297933077050814  0.5848953329696016   F   F   F
  0.0010487222789237  0.3350937790255415  0.4115263517671792   F   F   F
  0.3332087222140601  0.3297521441037077  0.5848778837478577   F   F   F
  0.3341980694399922  0.3350951543005749  0.4115190553527697   F   F   F
  0.6667654614953378  0.3333907506409446  0.5850066039418849   F   F   F
  0.6667618711405865  0.3333852225231908  0.4099196107032270   F   F   F
  0.9966943610970134  0.6669108047126500  0.5848951562629026   F   F   F
  0.0010434892080866  0.6659768329940405  0.4115264314412812   F   F   F
  0.3334414992484298  0.6666646271541836  0.6245417025647413   F   F   F
  0.3334055424575055  0.6667187308518905  0.4146223953413113   F   F   F
  0.6703685594021280  0.6669274132092653  0.5848758698361110   F   F   F
  0.6650639616040692  0.6659467243114108  0.4115444880715557   F   F   F
  0.2200386098090590  0.1100226864359897  0.5113680007717818   F   F   F
  0.1142474419056043  0.2283251615210489  0.4852291925505483   F   F   F
  0.5562804880007803  0.1124144518354129  0.5115270482536758   F   F   F
  0.4440187485828773  0.2220270829546180  0.4830661394509974   F   F   F
  0.8901511332503134  0.1100112001199847  0.5113841803429438   F   F   F
  0.7781817262682509  0.2220273691727073  0.4830679331414842   F   F   F
  0.2269373594031947  0.4537279984460127  0.5194268973204430   F   F   F
  0.1096177730017800  0.5548192368628690  0.4849866415356416   F   F   F
  0.5562815099300309  0.4439026151746717  0.5115377811688262   F   F   F
  0.4453111207206035  0.5548147521837663  0.4849792365290355   F   F   F
  0.8877413349901033  0.4438806674480134  0.5115537354413107   F   F   F
  0.7781716612341754  0.5561688635901021  0.4830710845454078   F   F   F
  0.2269348034062162  0.7732309728328985  0.5194152624584447   F   F   F
  0.1142375646310683  0.8859443152055420  0.4852240989302885   F   F   F
  0.5463739730969763  0.7732048170917167  0.5194192176229748   F   F   F
  0.4453119035358952  0.8905348524513528  0.4849683443904240   F   F   F
  0.8901506749684884  0.7801582187030363  0.5113786735889434   F   F   F
  0.7718095727348953  0.8859121689748619  0.4852287196524827   F   F   F
  0.2223583634092066  0.1112654338486720  0.3259828498275681   F   F   F
  0.1114637714208300  0.2228021265979407  0.6718065566704183   F   F   F
  0.5553048586787739  0.1104858183078008  0.3242421502816342   F   F   F
  0.4446426592564023  0.2223246571212485  0.6712741400639501   F   F   F
  0.8889025329437246  0.1112013988340834  0.3260091631766500   F   F   F
  0.7777623047488333  0.2222843244643968  0.6712952427800118   F   F   F
  0.2234082312284400  0.4467079484984495  0.3263503018255705   F   F   F
  0.0684479300733898  0.5342187929416937  0.6733909773852034   F   F   F
  0.5553070610903745  0.4448411004924822  0.3242473050489991   F   F   F
  0.4658306285291403  0.5342690523023421  0.6733979078713404   F   F   F
  0.8895523945884634  0.4447836183754532  0.3242437750076448   F   F   F
  0.7777682460668345  0.5554970684169405  0.6712906399463776   F   F   F
  0.2234043360353226  0.7767195924473214  0.3263465831671795   F   F   F
  0.1114707383013140  0.8886665800632727  0.6718013554852789   F   F   F
  0.5534323657774323  0.7767182301417535  0.3264273129815152   F   F   F
  0.4658359622315800  0.9315602538786365  0.6733826938348528   F   F   F
  0.8889061474063809  0.7777177563884052  0.3260081214689734   F   F   F
  0.7772329120013310  0.8886227170310406  0.6718052741264771   F   F   F
  0.3330892153287692  0.6666677494468658  0.7126383735007806   T   T   T
  0.3369589211713659  0.6661704853802490  0.7537397627031182   T   T   T
 
  0.00000000E+00  0.00000000E+00  0.00000000E+00
  0.00000000E+00  0.00000000E+00  0.00000000E+00
  0.00000000E+00  0.00000000E+00  0.00000000E+00
  0.00000000E+00  0.00000000E+00  0.00000000E+00
  0.00000000E+00  0.00000000E+00  0.00000000E+00
  0.00000000E+00  0.00000000E+00  0.00000000E+00
  0.00000000E+00  0.00000000E+00  0.00000000E+00
  0.00000000E+00  0.00000000E+00  0.00000000E+00
  0.00000000E+00  0.00000000E+00  0.00000000E+00
  0.00000000E+00  0.00000000E+00  0.00000000E+00
  0.00000000E+00  0.00000000E+00  0.00000000E+00
  0.00000000E+00  0.00000000E+00  0.00000000E+00
  0.00000000E+00  0.00000000E+00  0.00000000E+00
  0.00000000E+00  0.00000000E+00  0.00000000E+00
  0.00000000E+00  0.00000000E+00  0.00000000E+00
  0.00000000E+00  0.00000000E+00  0.00000000E+00
  0.00000000E+00  0.00000000E+00  0.00000000E+00
  0.00000000E+00  0.00000000E+00  0.00000000E+00
  0.00000000E+00  0.00000000E+00  0.00000000E+00
  0.00000000E+00  0.00000000E+00  0.00000000E+00
  0.00000000E+00  0.00000000E+00  0.00000000E+00
  0.00000000E+00  0.00000000E+00  0.00000000E+00
  0.00000000E+00  0.00000000E+00  0.00000000E+00
  0.00000000E+00  0.00000000E+00  0.00000000E+00
  0.00000000E+00  0.00000000E+00  0.00000000E+00
  0.00000000E+00  0.00000000E+00  0.00000000E+00
  0.00000000E+00  0.00000000E+00  0.00000000E+00
  0.00000000E+00  0.00000000E+00  0.00000000E+00
  0.00000000E+00  0.00000000E+00  0.00000000E+00
  0.00000000E+00  0.00000000E+00  0.00000000E+00
  0.00000000E+00  0.00000000E+00  0.00000000E+00
  0.00000000E+00  0.00000000E+00  0.00000000E+00
  0.00000000E+00  0.00000000E+00  0.00000000E+00
  0.00000000E+00  0.00000000E+00  0.00000000E+00
  0.00000000E+00  0.00000000E+00  0.00000000E+00
  0.00000000E+00  0.00000000E+00  0.00000000E+00
  0.00000000E+00  0.00000000E+00  0.00000000E+00
  0.00000000E+00  0.00000000E+00  0.00000000E+00
  0.00000000E+00  0.00000000E+00  0.00000000E+00
  0.00000000E+00  0.00000000E+00  0.00000000E+00
  0.00000000E+00  0.00000000E+00  0.00000000E+00
  0.00000000E+00  0.00000000E+00  0.00000000E+00
  0.00000000E+00  0.00000000E+00  0.00000000E+00
  0.00000000E+00  0.00000000E+00  0.00000000E+00
  0.00000000E+00  0.00000000E+00  0.00000000E+00
  0.00000000E+00  0.00000000E+00  0.00000000E+00
  0.00000000E+00  0.00000000E+00  0.00000000E+00
  0.00000000E+00  0.00000000E+00  0.00000000E+00
  0.00000000E+00  0.00000000E+00  0.00000000E+00
  0.00000000E+00  0.00000000E+00  0.00000000E+00
  0.00000000E+00  0.00000000E+00  0.00000000E+00
  0.00000000E+00  0.00000000E+00  0.00000000E+00
  0.00000000E+00  0.00000000E+00  0.00000000E+00
  0.00000000E+00  0.00000000E+00  0.00000000E+00
  0.00000000E+00  0.00000000E+00  0.00000000E+00
  0.00000000E+00  0.00000000E+00  0.00000000E+00
