CONTCAR\(3)                             
   1.00000000000000     
    11.2130002975000007    0.0000000000000000    0.0000000000000000
     0.0000000000000000   15.4723997115999996    0.0000000000000000
     0.0000000000000000    0.0000000000000000   19.4957008362000010
   Ta   Te   Pt   O    H 
     6    30     6     2     1
Direct
  0.0070174398904357  0.2484027812302362  0.5057889418682795
  0.0069215417094580  0.7497664066231232  0.4967828296605798
  0.3411800563453015  0.2461563133781400  0.5056905536495520
  0.3407763851962644  0.7501313797935572  0.4982633250396796
  0.6752403029924163  0.2485033873958579  0.5057981773215385
  0.6742807432925968  0.7500366870739723  0.4971124408498474
  0.1726801480538858  0.2474608077413175  0.6171912777959526
  0.1752770325042934  0.7498860172510473  0.3863347370245490
  0.0081846217695825  0.9157328191467061  0.4251737946513540
  0.0058910551377521  0.0819884308384019  0.5770540828337096
  0.1737301281030186  0.1462847922474695  0.4281767536907997
  0.1731421002109582  0.8508412554206989  0.5756569934059461
  0.1720213972139201  0.6488513636872844  0.5748116486974350
  0.1741832068643895  0.3494926068361869  0.4280329672544658
  0.0057282687368998  0.5837730777901329  0.4248814715863984
  0.0050533255421525  0.4150426397220646  0.5772575876926513
  0.5091666513999031  0.2463035298413437  0.6168922328108440
  0.5061345546400544  0.7503960513796332  0.3864066729114464
  0.3404413698199956  0.9161860661706371  0.4269040237931186
  0.3405544708342089  0.0807812504505856  0.5773403331057960
  0.5083612120478795  0.1466604190699703  0.4280203972587526
  0.5080471044800630  0.8513567339927431  0.5756170934462790
  0.5089451958956684  0.6497627780417986  0.5757002991035572
  0.5076441895204243  0.3503726588803355  0.4288283194050613
  0.3404587620046260  0.5840837662183296  0.4274562297432367
  0.3385619728136797  0.4153725928158276  0.5646618271784377
  0.8411116910189222  0.2483926891043949  0.6171008125540529
  0.8401856674619098  0.7482339485706031  0.3854452619041631
  0.6736620776251824  0.9160464636636967  0.4252073069979498
  0.6758685859353704  0.0817688846755728  0.5765505031543228
  0.8408921070680776  0.1470195519796308  0.4274902298120278
  0.8410386780515996  0.8509139281584395  0.5746433971775061
  0.8408144555918285  0.6479546316289611  0.5740702617483843
  0.8412463954235626  0.3502661276355401  0.4278944291736172
  0.6736422205699355  0.5834178147672967  0.4262489280372902
  0.6773136154816790  0.4150407076585034  0.5771873174143849
  0.1730146398639919  0.9988433700978172  0.5020685445440489
  0.1690409208496912  0.5009050830603928  0.5011323490316691
  0.5080517878922896  0.9990848183599732  0.5017618357744218
  0.5107378184288830  0.5010752969754172  0.5030991562979954
  0.8411517085538908  0.9988675285641417  0.5007788674597154
  0.8410561515403268  0.4991722142855490  0.5006214780406504
  0.3340025641674363  0.4233972734903721  0.6735320902183388
  0.4366169591887609  0.4702347272694271  0.6990774400899561
  0.4958390092667717  0.4234581670169145  0.7039349757902523
 
  0.00000000E+00  0.00000000E+00  0.00000000E+00
  0.00000000E+00  0.00000000E+00  0.00000000E+00
  0.00000000E+00  0.00000000E+00  0.00000000E+00
  0.00000000E+00  0.00000000E+00  0.00000000E+00
  0.00000000E+00  0.00000000E+00  0.00000000E+00
  0.00000000E+00  0.00000000E+00  0.00000000E+00
  0.00000000E+00  0.00000000E+00  0.00000000E+00
  0.00000000E+00  0.00000000E+00  0.00000000E+00
  0.00000000E+00  0.00000000E+00  0.00000000E+00
  0.00000000E+00  0.00000000E+00  0.00000000E+00
  0.00000000E+00  0.00000000E+00  0.00000000E+00
  0.00000000E+00  0.00000000E+00  0.00000000E+00
  0.00000000E+00  0.00000000E+00  0.00000000E+00
  0.00000000E+00  0.00000000E+00  0.00000000E+00
  0.00000000E+00  0.00000000E+00  0.00000000E+00
  0.00000000E+00  0.00000000E+00  0.00000000E+00
  0.00000000E+00  0.00000000E+00  0.00000000E+00
  0.00000000E+00  0.00000000E+00  0.00000000E+00
  0.00000000E+00  0.00000000E+00  0.00000000E+00
  0.00000000E+00  0.00000000E+00  0.00000000E+00
  0.00000000E+00  0.00000000E+00  0.00000000E+00
  0.00000000E+00  0.00000000E+00  0.00000000E+00
  0.00000000E+00  0.00000000E+00  0.00000000E+00
  0.00000000E+00  0.00000000E+00  0.00000000E+00
  0.00000000E+00  0.00000000E+00  0.00000000E+00
  0.00000000E+00  0.00000000E+00  0.00000000E+00
  0.00000000E+00  0.00000000E+00  0.00000000E+00
  0.00000000E+00  0.00000000E+00  0.00000000E+00
  0.00000000E+00  0.00000000E+00  0.00000000E+00
  0.00000000E+00  0.00000000E+00  0.00000000E+00
  0.00000000E+00  0.00000000E+00  0.00000000E+00
  0.00000000E+00  0.00000000E+00  0.00000000E+00
  0.00000000E+00  0.00000000E+00  0.00000000E+00
  0.00000000E+00  0.00000000E+00  0.00000000E+00
  0.00000000E+00  0.00000000E+00  0.00000000E+00
  0.00000000E+00  0.00000000E+00  0.00000000E+00
  0.00000000E+00  0.00000000E+00  0.00000000E+00
  0.00000000E+00  0.00000000E+00  0.00000000E+00
  0.00000000E+00  0.00000000E+00  0.00000000E+00
  0.00000000E+00  0.00000000E+00  0.00000000E+00
  0.00000000E+00  0.00000000E+00  0.00000000E+00
  0.00000000E+00  0.00000000E+00  0.00000000E+00
  0.00000000E+00  0.00000000E+00  0.00000000E+00
  0.00000000E+00  0.00000000E+00  0.00000000E+00
  0.00000000E+00  0.00000000E+00  0.00000000E+00
