 V1 Br2 O1                              
   1.00000000000000     
     3.6025770515787419    0.0000000000000000    0.0000000000000000
     0.0000000000000000    3.5970217086594474    0.0000000000000000
     0.0000000000000000    0.0000000000000000   18.5931378035200012
   V    Br   O 
     1     2     1
Direct
  0.9999660071305598  0.9999865208941117  0.4999998640504515
  0.0000697190230383  0.5001182237725601  0.5972082800853613
  0.0000575051724496  0.4999139293024939  0.4027951178475959
  0.5001467153330310  0.9999813260307988  0.4999967380165202
 
  0.00000000E+00  0.00000000E+00  0.00000000E+00
  0.00000000E+00  0.00000000E+00  0.00000000E+00
  0.00000000E+00  0.00000000E+00  0.00000000E+00
  0.00000000E+00  0.00000000E+00  0.00000000E+00
