CONTCAR\(8)                             
   1.00000000000000     
    18.0916004181000005    0.0000000000000000    0.0000000000000000
     1.9381108455000000   16.0410405593999990    0.0000000000000000
     0.0000000000000000    0.0000000000000000   22.7443008422999995
   Sc   C    I    O 
    24     8    44     1
Direct
  0.3744130972496572  0.5323045072452155  0.5532105438453051
  0.2059384610014628  0.6843836346891595  0.4480524016449120
  0.4611870542286914  0.3390853908731636  0.4952412533289927
  0.1194424458865365  0.8774789396280581  0.5055862719187814
  0.3450757254969898  0.3354774847378371  0.5989458754737341
  0.2359130424607019  0.8809918072197814  0.4021385293722434
  0.2146520908478977  0.4202391781581835  0.5205996914016976
  0.3661940281577769  0.7964909013194242  0.4808662534046677
  0.3305973910877111  0.4282925275484752  0.4173779292346905
  0.2495834120415023  0.7885894841226436  0.5838039533650073
  0.3070007050327364  0.2296576171980199  0.4643080765828250
  0.2737670742779428  0.9869664039246547  0.5365462036701646
  0.8716691912125180  0.5349473878677743  0.5582743166327478
  0.7053051724989089  0.6846785549288446  0.4463364085489993
  0.9617054910206863  0.3386583680290592  0.4964940439667416
  0.6176678727066743  0.8785961741214525  0.5033800609191054
  0.8448589527570165  0.3236056436616486  0.5967911851215976
  0.7352211854003380  0.8813165202471483  0.4000822642600640
  0.7163328408027713  0.4211812239793092  0.5211285539050579
  0.8647237281538512  0.7982766453609654  0.4798200038039492
  0.8323419605099793  0.4289902345949501  0.4192647030433876
  0.7472925209007805  0.7896529148678901  0.5821256490192352
  0.8071853626571838  0.2307819997165403  0.4623653061315527
  0.7717688335323061  0.9873181584576834  0.5346138413165861
  0.2346175998888471  0.7944873142009997  0.4824568898752307
  0.3460663869115234  0.4220576751106890  0.5187070513835422
  0.2514180770877477  0.8726832045931703  0.5033500606619508
  0.3292085303991898  0.3439117056446990  0.4977425848874806
  0.7330006061527270  0.7952788881291850  0.4805077746965655
  0.8467318613328074  0.4209132838990227  0.5217762523794905
  0.7495822173445087  0.8734707776150731  0.5014422060334977
  0.8300987018054169  0.3434753357656003  0.4982116466836583
  0.3801728943977046  0.4780247098721859  0.6719904987797971
  0.2009804108401139  0.7385369462180552  0.3292584354113267
  0.0298717270994894  0.4877391639879578  0.5430136713003426
  0.0490355709969823  0.7269676269173353  0.4648231317616970
  0.2144507235783672  0.6028391688458350  0.5690876236047446
  0.3654671217824411  0.6137416081799173  0.4322434831147062
  0.2700481554404833  0.0604160813707220  0.4164197142127364
  0.3103057781293891  0.1566813036143193  0.5844458973820668
  0.4603513068787755  0.1730539739808708  0.4454476698491545
  0.1205965109612699  0.0435610174255051  0.5550790797716534
  0.1440336216938262  0.2802928597253141  0.4785340184453896
  0.4360830245036421  0.9375843911196178  0.5222543654412590
  0.3846927050576012  0.8446287282689805  0.3613652032774620
  0.1961910224565097  0.3719871940250201  0.6401110148671025
  0.0859219836248645  0.9495978388708596  0.3909963569180991
  0.4952258576231086  0.2671349745568413  0.6101069409012826
  0.4014357393530965  0.7093042776618279  0.5941549161913298
  0.1781887909552691  0.5072758715352195  0.4078268333578017
  0.1019179632577612  0.8141548791826053  0.6245046681179410
  0.4782009358018960  0.4033175317044017  0.3765220704614154
  0.2903943461177614  0.9213534461540978  0.6563962680490568
  0.2900435543796638  0.2955684764765080  0.3445559352476968
  0.9023389449229828  0.4385887469157849  0.6883578964896661
  0.7011844430087832  0.7384888965700913  0.3273238462856223
  0.5315030730750334  0.4893233418001586  0.5364765357222687
  0.5475320663630561  0.7281398914045080  0.4619397918449226
  0.7100742074966951  0.6055722416538758  0.5668197965100428
  0.8653849804461144  0.6146538534248691  0.4337810728827643
  0.7696277920332265  0.0611318599952054  0.4147485856295789
  0.8065325612823010  0.1548592825952798  0.5833514725699879
  0.9604828658891431  0.1731154956524136  0.4440387410514646
  0.6184244226115151  0.0445921645845063  0.5530119137272784
  0.6450625859766411  0.2813501679748643  0.4786249964485855
  0.9347726703339165  0.9390636116030392  0.5220477132379894
  0.8851515451359634  0.8448025789004225  0.3605854202762080
  0.7005542982595474  0.3776627947995443  0.6419549834089736
  0.5853944852115559  0.9507326049120254  0.3885372777760417
  0.9954987257537485  0.2538310532914942  0.6082374050723288
  0.8996323460703873  0.7159089323058093  0.5926322808587623
  0.6802308759829391  0.5067246368746019  0.4069472996419350
  0.5996469810923070  0.8152532027219883  0.6225586089515966
  0.9799559376142909  0.4051322791507171  0.3790165388262294
  0.7860432662182941  0.9235792333577793  0.6549685136907096
  0.7922503519094490  0.2980021385352573  0.3440066515462068
  0.8648393345367418  0.5400986468255555  0.6452770185732754
 
  0.00000000E+00  0.00000000E+00  0.00000000E+00
  0.00000000E+00  0.00000000E+00  0.00000000E+00
  0.00000000E+00  0.00000000E+00  0.00000000E+00
  0.00000000E+00  0.00000000E+00  0.00000000E+00
  0.00000000E+00  0.00000000E+00  0.00000000E+00
  0.00000000E+00  0.00000000E+00  0.00000000E+00
  0.00000000E+00  0.00000000E+00  0.00000000E+00
  0.00000000E+00  0.00000000E+00  0.00000000E+00
  0.00000000E+00  0.00000000E+00  0.00000000E+00
  0.00000000E+00  0.00000000E+00  0.00000000E+00
  0.00000000E+00  0.00000000E+00  0.00000000E+00
  0.00000000E+00  0.00000000E+00  0.00000000E+00
  0.00000000E+00  0.00000000E+00  0.00000000E+00
  0.00000000E+00  0.00000000E+00  0.00000000E+00
  0.00000000E+00  0.00000000E+00  0.00000000E+00
  0.00000000E+00  0.00000000E+00  0.00000000E+00
  0.00000000E+00  0.00000000E+00  0.00000000E+00
  0.00000000E+00  0.00000000E+00  0.00000000E+00
  0.00000000E+00  0.00000000E+00  0.00000000E+00
  0.00000000E+00  0.00000000E+00  0.00000000E+00
  0.00000000E+00  0.00000000E+00  0.00000000E+00
  0.00000000E+00  0.00000000E+00  0.00000000E+00
  0.00000000E+00  0.00000000E+00  0.00000000E+00
  0.00000000E+00  0.00000000E+00  0.00000000E+00
  0.00000000E+00  0.00000000E+00  0.00000000E+00
  0.00000000E+00  0.00000000E+00  0.00000000E+00
  0.00000000E+00  0.00000000E+00  0.00000000E+00
  0.00000000E+00  0.00000000E+00  0.00000000E+00
  0.00000000E+00  0.00000000E+00  0.00000000E+00
  0.00000000E+00  0.00000000E+00  0.00000000E+00
  0.00000000E+00  0.00000000E+00  0.00000000E+00
  0.00000000E+00  0.00000000E+00  0.00000000E+00
  0.00000000E+00  0.00000000E+00  0.00000000E+00
  0.00000000E+00  0.00000000E+00  0.00000000E+00
  0.00000000E+00  0.00000000E+00  0.00000000E+00
  0.00000000E+00  0.00000000E+00  0.00000000E+00
  0.00000000E+00  0.00000000E+00  0.00000000E+00
  0.00000000E+00  0.00000000E+00  0.00000000E+00
  0.00000000E+00  0.00000000E+00  0.00000000E+00
  0.00000000E+00  0.00000000E+00  0.00000000E+00
  0.00000000E+00  0.00000000E+00  0.00000000E+00
  0.00000000E+00  0.00000000E+00  0.00000000E+00
  0.00000000E+00  0.00000000E+00  0.00000000E+00
  0.00000000E+00  0.00000000E+00  0.00000000E+00
  0.00000000E+00  0.00000000E+00  0.00000000E+00
  0.00000000E+00  0.00000000E+00  0.00000000E+00
  0.00000000E+00  0.00000000E+00  0.00000000E+00
  0.00000000E+00  0.00000000E+00  0.00000000E+00
  0.00000000E+00  0.00000000E+00  0.00000000E+00
  0.00000000E+00  0.00000000E+00  0.00000000E+00
  0.00000000E+00  0.00000000E+00  0.00000000E+00
  0.00000000E+00  0.00000000E+00  0.00000000E+00
  0.00000000E+00  0.00000000E+00  0.00000000E+00
  0.00000000E+00  0.00000000E+00  0.00000000E+00
  0.00000000E+00  0.00000000E+00  0.00000000E+00
  0.00000000E+00  0.00000000E+00  0.00000000E+00
  0.00000000E+00  0.00000000E+00  0.00000000E+00
  0.00000000E+00  0.00000000E+00  0.00000000E+00
  0.00000000E+00  0.00000000E+00  0.00000000E+00
  0.00000000E+00  0.00000000E+00  0.00000000E+00
  0.00000000E+00  0.00000000E+00  0.00000000E+00
  0.00000000E+00  0.00000000E+00  0.00000000E+00
  0.00000000E+00  0.00000000E+00  0.00000000E+00
  0.00000000E+00  0.00000000E+00  0.00000000E+00
  0.00000000E+00  0.00000000E+00  0.00000000E+00
  0.00000000E+00  0.00000000E+00  0.00000000E+00
  0.00000000E+00  0.00000000E+00  0.00000000E+00
  0.00000000E+00  0.00000000E+00  0.00000000E+00
  0.00000000E+00  0.00000000E+00  0.00000000E+00
  0.00000000E+00  0.00000000E+00  0.00000000E+00
  0.00000000E+00  0.00000000E+00  0.00000000E+00
  0.00000000E+00  0.00000000E+00  0.00000000E+00
  0.00000000E+00  0.00000000E+00  0.00000000E+00
  0.00000000E+00  0.00000000E+00  0.00000000E+00
  0.00000000E+00  0.00000000E+00  0.00000000E+00
  0.00000000E+00  0.00000000E+00  0.00000000E+00
  0.00000000E+00  0.00000000E+00  0.00000000E+00
