CONTCAR\(2)                             
   1.00000000000000     
    11.0214996337999995    0.0000000000000000    0.0000000000000000
     0.0000000000000000   14.9139995575000004    0.0000000000000000
     0.0000000000000000    0.0000000000000000   19.5716991425000018
   Nb   Ni   Te   O 
     6     6    30     1
Direct
  0.9912272236846248  0.2459512857780219  0.4948902871446841
  0.9988392272522820  0.7492692452976653  0.5043599603935768
  0.3251199291959279  0.2502503402082427  0.5057444129211636
  0.3326226452888927  0.7465992325302198  0.5046026256821011
  0.6698993798922658  0.2475437122795086  0.4962367841347234
  0.6650159933764301  0.7489424717688051  0.5042375582325374
  0.1643718512094269  0.9991549598858596  0.5017430125602963
  0.1595787338508469  0.4999943586055752  0.5016604688869364
  0.5002455164723786  0.9965838301823814  0.4985855993693220
  0.5075851344963073  0.4949729575884333  0.5061106873298341
  0.8302844903120954  0.9977329339998907  0.5000140109302369
  0.8340928874251763  0.4995709560498387  0.5003412229537840
  0.9982363669110240  0.0723825166293032  0.4272153532038138
  0.9971653827137782  0.9227503052735395  0.5723034385710906
  0.9972150658448882  0.5775019746614912  0.5747545042737735
  0.9979779987863800  0.4205867517843883  0.4276257400569446
  0.1652573688089784  0.2487809816407248  0.3875220684423089
  0.1661244795487781  0.7496774025874554  0.6162782938653919
  0.1666372386380799  0.8548824306063025  0.4282247081051061
  0.1578469943892969  0.1425719881855702  0.5774172009094233
  0.1430231197654611  0.3561596638636541  0.5727788858378753
  0.1650983828294975  0.6435482983871141  0.4267326435635191
  0.3303315388768420  0.0773620138982767  0.4308024783743453
  0.3329866476010505  0.9210855168515228  0.5719380210735922
  0.3321226191611918  0.5711000482810508  0.5731271498465726
  0.3347605438394794  0.4230972367677195  0.4371474196793804
  0.4914893801919110  0.2516964355766340  0.3911101078417579
  0.4987298154467814  0.7474320792565420  0.6166003102519823
  0.4977282743189936  0.8528419335353161  0.4257820651554627
  0.5012845237100454  0.1367963948643816  0.5714861205861853
  0.5454657850509665  0.3648484618627383  0.5903203165790016
  0.4996723869916271  0.6367811059183637  0.4307155812552159
  0.6658793580360580  0.0747266106548749  0.4270744483508849
  0.6647698109866307  0.9216602654041702  0.5731564919012256
  0.6710960472256000  0.5779867692911388  0.5749229506026448
  0.6679244013469233  0.4213147528269640  0.4272206277427129
  0.8291894474703543  0.2471763449768394  0.3827032650123163
  0.8321511242363636  0.7526440477442421  0.6159152507590842
  0.8319327410472288  0.8541160753029556  0.4263594175274454
  0.8291719481860037  0.1401057132141366  0.5745864584495648
  0.8334567489418037  0.3567247707924198  0.5741540824734407
  0.8324003079619725  0.6429807098068425  0.4272244943050454
  0.3774713426793745  0.3128138563788538  0.5916234098636665
 
  0.00000000E+00  0.00000000E+00  0.00000000E+00
  0.00000000E+00  0.00000000E+00  0.00000000E+00
  0.00000000E+00  0.00000000E+00  0.00000000E+00
  0.00000000E+00  0.00000000E+00  0.00000000E+00
  0.00000000E+00  0.00000000E+00  0.00000000E+00
  0.00000000E+00  0.00000000E+00  0.00000000E+00
  0.00000000E+00  0.00000000E+00  0.00000000E+00
  0.00000000E+00  0.00000000E+00  0.00000000E+00
  0.00000000E+00  0.00000000E+00  0.00000000E+00
  0.00000000E+00  0.00000000E+00  0.00000000E+00
  0.00000000E+00  0.00000000E+00  0.00000000E+00
  0.00000000E+00  0.00000000E+00  0.00000000E+00
  0.00000000E+00  0.00000000E+00  0.00000000E+00
  0.00000000E+00  0.00000000E+00  0.00000000E+00
  0.00000000E+00  0.00000000E+00  0.00000000E+00
  0.00000000E+00  0.00000000E+00  0.00000000E+00
  0.00000000E+00  0.00000000E+00  0.00000000E+00
  0.00000000E+00  0.00000000E+00  0.00000000E+00
  0.00000000E+00  0.00000000E+00  0.00000000E+00
  0.00000000E+00  0.00000000E+00  0.00000000E+00
  0.00000000E+00  0.00000000E+00  0.00000000E+00
  0.00000000E+00  0.00000000E+00  0.00000000E+00
  0.00000000E+00  0.00000000E+00  0.00000000E+00
  0.00000000E+00  0.00000000E+00  0.00000000E+00
  0.00000000E+00  0.00000000E+00  0.00000000E+00
  0.00000000E+00  0.00000000E+00  0.00000000E+00
  0.00000000E+00  0.00000000E+00  0.00000000E+00
  0.00000000E+00  0.00000000E+00  0.00000000E+00
  0.00000000E+00  0.00000000E+00  0.00000000E+00
  0.00000000E+00  0.00000000E+00  0.00000000E+00
  0.00000000E+00  0.00000000E+00  0.00000000E+00
  0.00000000E+00  0.00000000E+00  0.00000000E+00
  0.00000000E+00  0.00000000E+00  0.00000000E+00
  0.00000000E+00  0.00000000E+00  0.00000000E+00
  0.00000000E+00  0.00000000E+00  0.00000000E+00
  0.00000000E+00  0.00000000E+00  0.00000000E+00
  0.00000000E+00  0.00000000E+00  0.00000000E+00
  0.00000000E+00  0.00000000E+00  0.00000000E+00
  0.00000000E+00  0.00000000E+00  0.00000000E+00
  0.00000000E+00  0.00000000E+00  0.00000000E+00
  0.00000000E+00  0.00000000E+00  0.00000000E+00
  0.00000000E+00  0.00000000E+00  0.00000000E+00
  0.00000000E+00  0.00000000E+00  0.00000000E+00
