CONTCAR\(15)                            
   1.00000000000000     
    11.9152002335000002    0.0000000000000000    0.0000000000000000
     0.0000000000000000   11.5832004547000000    0.0000000000000000
     0.0000000000000000    0.0000000000000000   16.4783992766999994
   Ag   F    O 
    12    24     1
Direct
  0.1662523870268108  0.2476762268375330  0.4954040584087513
  0.9924083941120695  0.0024218556530061  0.4888956209911634
  0.4985761705117939  0.2476561941671396  0.4973312329784955
  0.3260375415852449  0.9983619577233587  0.4890511110268569
  0.8223742078937175  0.2473702236221605  0.5137656241568054
  0.6657069597057461  0.9982248514929140  0.5014057801141417
  0.1659916722756893  0.7496617449457269  0.4873780704435673
  0.9979795694218981  0.4953857805535299  0.5004743958272444
  0.5007907024379976  0.7466078834363418  0.5072049259981278
  0.3272771765977360  0.4992347828882560  0.4984566572314647
  0.8218888788648296  0.7545760495086430  0.4876601469284290
  0.6536070770454497  0.4902587249942343  0.5360424794712955
  0.0418319044497130  0.3427339174954402  0.5590360670997738
  0.1993739675790459  0.4080695378615954  0.4370685366640810
  0.1245558001225780  0.0861187122155450  0.5477310977097281
  0.2938470873776652  0.1572869631414657  0.4315797497926049
  0.3669154499662770  0.3412564618775096  0.5525365690014932
  0.5552750476152143  0.4094944248549898  0.4503329229267025
  0.4521106882041280  0.0891049966462205  0.5499466048242240
  0.6309336571134718  0.1538716363754940  0.4430021276193054
  0.6883395493946507  0.3281667862308635  0.5807201696507120
  0.8515599857486964  0.4115431367177458  0.4637088746437126
  0.7923912216110620  0.0843821402553987  0.5658248090801914
  0.9525695130614948  0.1658981612768735  0.4457083394649998
  0.0274870905940884  0.8401575577053415  0.5365882938515838
  0.1995879304964595  0.9081689384626054  0.4270244587898842
  0.1301062974190800  0.5933720925722807  0.5478555905714630
  0.3023093124555791  0.6566996537837151  0.4364909299824020
  0.3596610922750073  0.8436519093239170  0.5483644524518553
  0.5419949203860059  0.9003792321039270  0.4434354156075003
  0.4541854811795222  0.5883492711644226  0.5622793714856281
  0.6508663441854929  0.6471094852478771  0.4742303919293321
  0.7014581572679951  0.8462763690692967  0.5618804975825068
  0.8607181289576074  0.9254692471494418  0.4290657485041403
  0.8373503238826810  0.6042938189510236  0.6094106732619959
  0.9460745134785995  0.6415961845455269  0.4411074675237953
  0.7270859056988817  0.5637232671486231  0.6318205894040533
 
  0.00000000E+00  0.00000000E+00  0.00000000E+00
  0.00000000E+00  0.00000000E+00  0.00000000E+00
  0.00000000E+00  0.00000000E+00  0.00000000E+00
  0.00000000E+00  0.00000000E+00  0.00000000E+00
  0.00000000E+00  0.00000000E+00  0.00000000E+00
  0.00000000E+00  0.00000000E+00  0.00000000E+00
  0.00000000E+00  0.00000000E+00  0.00000000E+00
  0.00000000E+00  0.00000000E+00  0.00000000E+00
  0.00000000E+00  0.00000000E+00  0.00000000E+00
  0.00000000E+00  0.00000000E+00  0.00000000E+00
  0.00000000E+00  0.00000000E+00  0.00000000E+00
  0.00000000E+00  0.00000000E+00  0.00000000E+00
  0.00000000E+00  0.00000000E+00  0.00000000E+00
  0.00000000E+00  0.00000000E+00  0.00000000E+00
  0.00000000E+00  0.00000000E+00  0.00000000E+00
  0.00000000E+00  0.00000000E+00  0.00000000E+00
  0.00000000E+00  0.00000000E+00  0.00000000E+00
  0.00000000E+00  0.00000000E+00  0.00000000E+00
  0.00000000E+00  0.00000000E+00  0.00000000E+00
  0.00000000E+00  0.00000000E+00  0.00000000E+00
  0.00000000E+00  0.00000000E+00  0.00000000E+00
  0.00000000E+00  0.00000000E+00  0.00000000E+00
  0.00000000E+00  0.00000000E+00  0.00000000E+00
  0.00000000E+00  0.00000000E+00  0.00000000E+00
  0.00000000E+00  0.00000000E+00  0.00000000E+00
  0.00000000E+00  0.00000000E+00  0.00000000E+00
  0.00000000E+00  0.00000000E+00  0.00000000E+00
  0.00000000E+00  0.00000000E+00  0.00000000E+00
  0.00000000E+00  0.00000000E+00  0.00000000E+00
  0.00000000E+00  0.00000000E+00  0.00000000E+00
  0.00000000E+00  0.00000000E+00  0.00000000E+00
  0.00000000E+00  0.00000000E+00  0.00000000E+00
  0.00000000E+00  0.00000000E+00  0.00000000E+00
  0.00000000E+00  0.00000000E+00  0.00000000E+00
  0.00000000E+00  0.00000000E+00  0.00000000E+00
  0.00000000E+00  0.00000000E+00  0.00000000E+00
  0.00000000E+00  0.00000000E+00  0.00000000E+00
