CONTCAR\(7)                             
   1.00000000000000     
    12.0179996490000001    0.0000000000000000    0.0000000000000000
     5.5443836140000000   17.3830097696000010    0.0000000000000000
     0.0000000000000000    0.0000000000000000   18.4081001282000010
   Nb   Ir   Se   O 
    16     4    40     1
Selective dynamics
Direct
  0.3100798946954413  0.4213953373050856  0.5043125443211025   F   F   F
  0.3951010991018009  0.2192813143676631  0.5310885748065317   F   F   F
  0.0355935027812393  0.9939438796299527  0.4985852781966074   F   F   F
  0.0768262120077665  0.3120923519928596  0.5009691595010892   F   F   F
  0.8051882938207768  0.4197934470583533  0.4991187903299803   F   F   F
  0.9229211190182127  0.1743119633303252  0.4978625835481338   F   F   F
  0.5390787410368603  0.0071688708978357  0.5005625742091055   F   F   F
  0.5972321001169689  0.3287354498380921  0.4948629954296493   F   F   F
  0.3014140304865975  0.9160688516403610  0.4977155161792979   F   F   F
  0.3788581048952651  0.6907794077258060  0.4963125992075348   F   F   F
  0.0384786605088792  0.5021956786123951  0.5020594246978050   F   F   F
  0.0867202326824312  0.8180060431074665  0.4951417177837953   F   F   F
  0.8126043518799619  0.9169037768177830  0.5001732014914069   F   F   F
  0.8674654913009547  0.7051126277760105  0.5049032481291320   F   F   F
  0.5422747391572358  0.4985850038148527  0.5018133300971215   F   F   F
  0.5707186088939622  0.8093932736540381  0.4984880154181397   F   F   F
  0.1921432702440313  0.0890431615998182  0.5021140650864737   F   F   F
  0.7217922052472829  0.0953943870164764  0.5052805451312707   F   F   F
  0.2082935127953291  0.5941940834091355  0.5007524551272269   F   F   F
  0.7125112392681814  0.5952806757359710  0.5006894815892053   F   F   F
  0.1745748475966238  0.9976418563523097  0.6001385101032568   F   F   F
  0.0498705264816266  0.0928454045459972  0.3995191120887824   F   F   F
  0.2546843058876078  0.3178769158669397  0.6002884590656592   F   F   F
  0.1538562260398919  0.3970652701204926  0.4153221409315648   F   F   F
  0.3578898520242006  0.0955279804248121  0.5813636201461421   F   F   F
  0.2423873842909288  0.1973665724886686  0.4361868750638820   F   F   F
  0.4808996535900647  0.4088106771384332  0.5975736136996588   F   F   F
  0.3478984338061366  0.0116065700588024  0.4142788887329871   F   F   F
  0.0754866114752133  0.1964367528939519  0.5860648128072725   F   F   F
  0.4315665747520399  0.3005055472629792  0.4233460482137446   F   F   F
  0.6836318109183566  0.0049071587007319  0.6004043502100984   F   F   F
  0.5472527441550881  0.1126883017748881  0.4213506517883232   F   F   F
  0.7802874887744622  0.2977285069443454  0.5756587523855003   F   F   F
  0.6510545781352306  0.4070336784745194  0.3981101661044093   F   F   F
  0.8890825922830530  0.0881838775548260  0.5928457750411908   F   F   F
  0.7366997537777635  0.2029316320370498  0.4188082501151840   F   F   F
  0.9692476463164184  0.4064449853195882  0.5954643642751520   F   F   F
  0.8452652270949770  0.0057737223673939  0.4091217998669379   F   F   F
  0.6206533927122280  0.2030123540480844  0.5882339912402443   F   F   F
  0.9332951918293375  0.3020643965548970  0.4109444177818418   F   F   F
  0.1803158681388055  0.5088188866217962  0.6020965897055035   F   F   F
  0.0393616187571695  0.6045075495215926  0.4138526961808964   F   F   F
  0.2707055218230678  0.8009900119680893  0.5803200471333270   F   F   F
  0.1489746137753940  0.8989475125220707  0.3997493116460618   F   F   F
  0.3732898216334846  0.5956160955044680  0.5889578318340369   F   F   F
  0.2202247160209225  0.6978515683269961  0.4079639556291141   F   F   F
  0.4693329325214819  0.9069790484410376  0.5916066435986025   F   F   F
  0.3512410852101482  0.5060832373777373  0.4120420477638831   F   F   F
  0.0677231443312962  0.7004874185390193  0.5733177413074841   F   F   F
  0.4219766577108359  0.8043836859212306  0.4074694991666021   F   F   F
  0.6828083970897865  0.5069451211427705  0.6004693907757002   F   F   F
  0.5455882994870223  0.6044658552398445  0.4108122419123177   F   F   F
  0.7594909352604233  0.8058825725079615  0.5885202318715841   F   F   F
  0.6443064362649054  0.9005534481354402  0.4141876889809382   F   F   F
  0.8764991277809742  0.5954759955024542  0.5888037516020646   F   F   F
  0.7219097345246297  0.7005147959904221  0.4099882293267356   F   F   F
  0.9753501592675704  0.9019390239992333  0.5957615668167549   F   F   F
  0.8519920252775250  0.5082964912056696  0.4100729175018145   F   F   F
  0.5681829073463334  0.6954578465580639  0.5776851878844482   F   F   F
  0.9257379424977259  0.8031754621391300  0.4113043887618844   F   F   F
  0.4896583364000548  0.1769450255749518  0.6156019899870737   T   T   T
 
  0.00000000E+00  0.00000000E+00  0.00000000E+00
  0.00000000E+00  0.00000000E+00  0.00000000E+00
  0.00000000E+00  0.00000000E+00  0.00000000E+00
  0.00000000E+00  0.00000000E+00  0.00000000E+00
  0.00000000E+00  0.00000000E+00  0.00000000E+00
  0.00000000E+00  0.00000000E+00  0.00000000E+00
  0.00000000E+00  0.00000000E+00  0.00000000E+00
  0.00000000E+00  0.00000000E+00  0.00000000E+00
  0.00000000E+00  0.00000000E+00  0.00000000E+00
  0.00000000E+00  0.00000000E+00  0.00000000E+00
  0.00000000E+00  0.00000000E+00  0.00000000E+00
  0.00000000E+00  0.00000000E+00  0.00000000E+00
  0.00000000E+00  0.00000000E+00  0.00000000E+00
  0.00000000E+00  0.00000000E+00  0.00000000E+00
  0.00000000E+00  0.00000000E+00  0.00000000E+00
  0.00000000E+00  0.00000000E+00  0.00000000E+00
  0.00000000E+00  0.00000000E+00  0.00000000E+00
  0.00000000E+00  0.00000000E+00  0.00000000E+00
  0.00000000E+00  0.00000000E+00  0.00000000E+00
  0.00000000E+00  0.00000000E+00  0.00000000E+00
  0.00000000E+00  0.00000000E+00  0.00000000E+00
  0.00000000E+00  0.00000000E+00  0.00000000E+00
  0.00000000E+00  0.00000000E+00  0.00000000E+00
  0.00000000E+00  0.00000000E+00  0.00000000E+00
  0.00000000E+00  0.00000000E+00  0.00000000E+00
  0.00000000E+00  0.00000000E+00  0.00000000E+00
  0.00000000E+00  0.00000000E+00  0.00000000E+00
  0.00000000E+00  0.00000000E+00  0.00000000E+00
  0.00000000E+00  0.00000000E+00  0.00000000E+00
  0.00000000E+00  0.00000000E+00  0.00000000E+00
  0.00000000E+00  0.00000000E+00  0.00000000E+00
  0.00000000E+00  0.00000000E+00  0.00000000E+00
  0.00000000E+00  0.00000000E+00  0.00000000E+00
  0.00000000E+00  0.00000000E+00  0.00000000E+00
  0.00000000E+00  0.00000000E+00  0.00000000E+00
  0.00000000E+00  0.00000000E+00  0.00000000E+00
  0.00000000E+00  0.00000000E+00  0.00000000E+00
  0.00000000E+00  0.00000000E+00  0.00000000E+00
  0.00000000E+00  0.00000000E+00  0.00000000E+00
  0.00000000E+00  0.00000000E+00  0.00000000E+00
  0.00000000E+00  0.00000000E+00  0.00000000E+00
  0.00000000E+00  0.00000000E+00  0.00000000E+00
  0.00000000E+00  0.00000000E+00  0.00000000E+00
  0.00000000E+00  0.00000000E+00  0.00000000E+00
  0.00000000E+00  0.00000000E+00  0.00000000E+00
  0.00000000E+00  0.00000000E+00  0.00000000E+00
  0.00000000E+00  0.00000000E+00  0.00000000E+00
  0.00000000E+00  0.00000000E+00  0.00000000E+00
  0.00000000E+00  0.00000000E+00  0.00000000E+00
  0.00000000E+00  0.00000000E+00  0.00000000E+00
  0.00000000E+00  0.00000000E+00  0.00000000E+00
  0.00000000E+00  0.00000000E+00  0.00000000E+00
  0.00000000E+00  0.00000000E+00  0.00000000E+00
  0.00000000E+00  0.00000000E+00  0.00000000E+00
  0.00000000E+00  0.00000000E+00  0.00000000E+00
  0.00000000E+00  0.00000000E+00  0.00000000E+00
  0.00000000E+00  0.00000000E+00  0.00000000E+00
  0.00000000E+00  0.00000000E+00  0.00000000E+00
  0.00000000E+00  0.00000000E+00  0.00000000E+00
  0.00000000E+00  0.00000000E+00  0.00000000E+00
  0.00000000E+00  0.00000000E+00  0.00000000E+00
