 Na3 Ti10 S20                           
   1.00000000000000     
     5.9486366391546150    0.0000000000000000    0.0000000000000000
     2.9743183195773075    8.5646104039581452    0.0000000000000000
     0.0000000000000000    0.0000000000000000   24.9838328136540007
   Na   Ti   S 
     3    10    20
Direct
  0.2824508531464100  0.9999909007930367  0.4986087620290215
  0.7278850679719883  0.3793607742304092  0.5011748975619819
  0.1072804709372898  0.6206714135015906  0.5011788164553352
  0.8646979579158178  0.8016370598632319  0.6398310274022520
  0.2711282786082455 -0.0001041766230086  0.6412652533396280
  0.9347766404089568  0.0000885219519753  0.3598260018478439
  0.6666803770291305  0.1979904989460027  0.6398770716827605
  0.3375074228299315  0.1983811313599085  0.3601349524035163
  0.0631252128362528  0.4006742790399910  0.6401589542633249
  0.7332762643880647  0.4011475199544000  0.3590849134265950
  0.4637016730649866  0.5992383810560231  0.6401906243093319
  0.1344039336006342  0.5991509208105728  0.3591530231998422
  0.5363163835125391  0.8017977491618208  0.3601537693943642
  0.2006286768274705  0.8020002179141373  0.5818446510291352
  0.8675367125219671  0.7999647595363168  0.3040459704180511
  0.6028234851879901  0.0000213356016511  0.5816203774535734
  0.2680732332768279  0.9999198015119577  0.3042008277582630
  0.0026532479001164  0.1980341609977229  0.5818623457950289
  0.6676011336584091  0.1998327720072357  0.3040324463585984
  0.3946422797294948  0.3997577319922240  0.5811562457914832
  0.9338216897938861  0.0000889594213959  0.6959585952157938
  0.0677361111138886  0.3992926819000364  0.3040954219598222
  0.6071087443845128 -0.0000340567594440  0.4184211697102966
  0.7943483789394278  0.6002528040080165  0.5811500901622733
  0.3337519249844650  0.2012217520478592  0.6960511626808566
  0.4670616351666336  0.6005304394736952  0.3040859628123150
  0.0023457898279388  0.2001572852893152  0.4182459770907505
  0.7327227697148239  0.4000303204542223  0.6955844703228935
  0.3983232809310531  0.4004766568923483  0.4186217597260858
  0.1326167400675597  0.6001662020432804  0.6955897287525101
  0.7988830888963344  0.5994458356739149  0.4186314431195947
  0.5348817746176180  0.7989857018721106  0.6960644180282263
  0.2025567662092899  0.7998296640760284  0.4182572855198627
 
  0.00000000E+00  0.00000000E+00  0.00000000E+00
  0.00000000E+00  0.00000000E+00  0.00000000E+00
  0.00000000E+00  0.00000000E+00  0.00000000E+00
  0.00000000E+00  0.00000000E+00  0.00000000E+00
  0.00000000E+00  0.00000000E+00  0.00000000E+00
  0.00000000E+00  0.00000000E+00  0.00000000E+00
  0.00000000E+00  0.00000000E+00  0.00000000E+00
  0.00000000E+00  0.00000000E+00  0.00000000E+00
  0.00000000E+00  0.00000000E+00  0.00000000E+00
  0.00000000E+00  0.00000000E+00  0.00000000E+00
  0.00000000E+00  0.00000000E+00  0.00000000E+00
  0.00000000E+00  0.00000000E+00  0.00000000E+00
  0.00000000E+00  0.00000000E+00  0.00000000E+00
  0.00000000E+00  0.00000000E+00  0.00000000E+00
  0.00000000E+00  0.00000000E+00  0.00000000E+00
  0.00000000E+00  0.00000000E+00  0.00000000E+00
  0.00000000E+00  0.00000000E+00  0.00000000E+00
  0.00000000E+00  0.00000000E+00  0.00000000E+00
  0.00000000E+00  0.00000000E+00  0.00000000E+00
  0.00000000E+00  0.00000000E+00  0.00000000E+00
  0.00000000E+00  0.00000000E+00  0.00000000E+00
  0.00000000E+00  0.00000000E+00  0.00000000E+00
  0.00000000E+00  0.00000000E+00  0.00000000E+00
  0.00000000E+00  0.00000000E+00  0.00000000E+00
  0.00000000E+00  0.00000000E+00  0.00000000E+00
  0.00000000E+00  0.00000000E+00  0.00000000E+00
  0.00000000E+00  0.00000000E+00  0.00000000E+00
  0.00000000E+00  0.00000000E+00  0.00000000E+00
  0.00000000E+00  0.00000000E+00  0.00000000E+00
  0.00000000E+00  0.00000000E+00  0.00000000E+00
  0.00000000E+00  0.00000000E+00  0.00000000E+00
  0.00000000E+00  0.00000000E+00  0.00000000E+00
  0.00000000E+00  0.00000000E+00  0.00000000E+00
