CONTCAR\(12)                            
   1.00000000000000     
    13.7187995910999998    0.0000000000000000    0.0000000000000000
    -4.5729412920000003   17.9978325079000001    0.0000000000000000
     0.0000000000000000    0.0000000000000000   21.4340000153000005
   Ag   Te   Mo
     6    36    36
Direct
  0.0000000000000000  0.0000000000000000  0.5000000000000000
  0.3333299969999999  0.0000000000000000  0.5000000000000000
  0.6666700030000001  0.0000000000000000  0.5000000000000000
  0.0000000060000005  0.5000000209999982  0.5000000000000000
  0.3333300030000004  0.5000000209999982  0.5000000000000000
  0.6666700270000021  0.5000000209999982  0.5000000000000000
  0.2576694560342716  0.2728217412398379  0.6495377359268701
  0.1382607569992373  0.4146272721877153  0.5647064597167386
  0.1950692460007630  0.0853727478122863  0.4353035062832618
  0.0358231033679886  0.1076744325230408  0.5966724761076350
  0.2975069276320070  0.3923255884769574  0.4033275238923650
  0.0756705569657328  0.2271783057601553  0.3504622420731280
  0.5909994530342715  0.2728217412398379  0.6495377359268701
  0.4716007639992341  0.4146272721877153  0.5647064597167386
  0.5283992250007614  0.0853727478122863  0.4353035062832618
  0.3691531243679904  0.1076744325230408  0.5966724761076350
  0.6308468996320116  0.3923255884769574  0.4033275238923650
  0.4090005449657284  0.2271783057601553  0.3504622420731280
  0.9243394600342683  0.2728217412398379  0.6495377359268701
  0.8049307599992375  0.4146272721877153  0.5647064597167386
  0.8617292570007606  0.0853727478122863  0.4353035062832618
  0.7024931313679872  0.1076744325230408  0.5966724761076350
  0.9641768966320114  0.3923255884769574  0.4033275238923650
  0.7423305759657310  0.2271783057601553  0.3504622420731280
  0.2576694540342714  0.7728217352398445  0.6495377359268701
  0.1382607719992350  0.9146272661877148  0.5647064597167386
  0.1950692610007607  0.5853727958122832  0.4353035062832618
  0.0358230993679882  0.6076744535230461  0.5966724761076350
  0.2975069346320112  0.8923256614769599  0.4033275238923650
  0.0756705719657305  0.7271783267601677  0.3504622420731280
  0.5909994680342692  0.7728217352398445  0.6495377359268701
  0.4716007789992389  0.9146272661877148  0.5647064597167386
  0.5283992580007606  0.5853727958122832  0.4353035062832618
  0.3691531133679931  0.6076744535230461  0.5966724761076350
  0.6308469066320086  0.8923256614769599  0.4033275238923650
  0.4090005689657303  0.7271783267601677  0.3504622420731280
  0.9243394750342659  0.7728217352398445  0.6495377359268701
  0.8049307749992352  0.9146272661877148  0.5647064597167386
  0.8617292200007611  0.5853727958122832  0.4353035062832618
  0.7024931203679898  0.6076744535230461  0.5966724761076350
  0.9641769376320113  0.8923256614769599  0.4033275238923650
  0.7423305649657337  0.7271783267601677  0.3504622420731280
  0.1061289135753896  0.3182600037685219  0.4569543416477515
  0.2272110914246070  0.1817400162314797  0.5430456583522485
  0.0569886442751155  0.1710755826278287  0.4730986242800128
  0.2763413767248863  0.3289244513721670  0.5269013757199872
  0.0868218421938920  0.2606058814962608  0.5710577454960344
  0.2465181628061046  0.2393941385037408  0.4289422545039656
  0.4394589355753951  0.3182600037685219  0.4569543416477515
  0.5605410874246104  0.1817400162314797  0.5430456583522485
  0.3903286722751176  0.1710755826278287  0.4730986242800128
  0.6096713907248841  0.3289244513721670  0.5269013757199872
  0.4201518301938947  0.2606058814962608  0.5710577454960344
  0.5798481588061080  0.2393941385037408  0.4289422545039656
  0.7727889325753949  0.3182600037685219  0.4569543416477515
  0.8938810944246072  0.1817400162314797  0.5430456583522485
  0.7236586692751175  0.1710755826278287  0.4730986242800128
  0.9430114317248837  0.3289244513721670  0.5269013757199872
  0.7534918021938921  0.2606058814962608  0.5710577454960344
  0.9131781558061078  0.2393941385037408  0.4289422545039656
  0.1061289115753894  0.8182600777685209  0.4569543416477515
  0.2272110974246075  0.6817399842314842  0.5430456583522485
  0.0569886422751154  0.6710756156278279  0.4730986242800128
  0.2763413917248840  0.8289244463721701  0.5269013757199872
  0.0868218571938968  0.7606059024962590  0.5710577454960344
  0.2465181518061073  0.7393941595037390  0.4289422545039656
  0.4394589425753921  0.8182600777685209  0.4569543416477515
  0.5605410944246074  0.6817399842314842  0.5430456583522485
  0.3903286492751192  0.6710756156278279  0.4730986242800128
  0.6096714057248818  0.8289244463721701  0.5269013757199872
  0.4201518541938967  0.7606059024962590  0.5710577454960344
  0.5798481828061028  0.7393941595037390  0.4289422545039656
  0.7727889395753920  0.8182600777685209  0.4569543416477515
  0.8938811004246077  0.6817399842314842  0.5430456583522485
  0.7236586972751198  0.6710756156278279  0.4730986242800128
  0.9430114467248814  0.8289244463721701  0.5269013757199872
  0.7534918261938941  0.7606059024962590  0.5710577454960344
  0.9131781098061040  0.7393941595037390  0.4289422545039656
 
  0.00000000E+00  0.00000000E+00  0.00000000E+00
  0.00000000E+00  0.00000000E+00  0.00000000E+00
  0.00000000E+00  0.00000000E+00  0.00000000E+00
  0.00000000E+00  0.00000000E+00  0.00000000E+00
  0.00000000E+00  0.00000000E+00  0.00000000E+00
  0.00000000E+00  0.00000000E+00  0.00000000E+00
  0.00000000E+00  0.00000000E+00  0.00000000E+00
  0.00000000E+00  0.00000000E+00  0.00000000E+00
  0.00000000E+00  0.00000000E+00  0.00000000E+00
  0.00000000E+00  0.00000000E+00  0.00000000E+00
  0.00000000E+00  0.00000000E+00  0.00000000E+00
  0.00000000E+00  0.00000000E+00  0.00000000E+00
  0.00000000E+00  0.00000000E+00  0.00000000E+00
  0.00000000E+00  0.00000000E+00  0.00000000E+00
  0.00000000E+00  0.00000000E+00  0.00000000E+00
  0.00000000E+00  0.00000000E+00  0.00000000E+00
  0.00000000E+00  0.00000000E+00  0.00000000E+00
  0.00000000E+00  0.00000000E+00  0.00000000E+00
  0.00000000E+00  0.00000000E+00  0.00000000E+00
  0.00000000E+00  0.00000000E+00  0.00000000E+00
  0.00000000E+00  0.00000000E+00  0.00000000E+00
  0.00000000E+00  0.00000000E+00  0.00000000E+00
  0.00000000E+00  0.00000000E+00  0.00000000E+00
  0.00000000E+00  0.00000000E+00  0.00000000E+00
  0.00000000E+00  0.00000000E+00  0.00000000E+00
  0.00000000E+00  0.00000000E+00  0.00000000E+00
  0.00000000E+00  0.00000000E+00  0.00000000E+00
  0.00000000E+00  0.00000000E+00  0.00000000E+00
  0.00000000E+00  0.00000000E+00  0.00000000E+00
  0.00000000E+00  0.00000000E+00  0.00000000E+00
  0.00000000E+00  0.00000000E+00  0.00000000E+00
  0.00000000E+00  0.00000000E+00  0.00000000E+00
  0.00000000E+00  0.00000000E+00  0.00000000E+00
  0.00000000E+00  0.00000000E+00  0.00000000E+00
  0.00000000E+00  0.00000000E+00  0.00000000E+00
  0.00000000E+00  0.00000000E+00  0.00000000E+00
  0.00000000E+00  0.00000000E+00  0.00000000E+00
  0.00000000E+00  0.00000000E+00  0.00000000E+00
  0.00000000E+00  0.00000000E+00  0.00000000E+00
  0.00000000E+00  0.00000000E+00  0.00000000E+00
  0.00000000E+00  0.00000000E+00  0.00000000E+00
  0.00000000E+00  0.00000000E+00  0.00000000E+00
  0.00000000E+00  0.00000000E+00  0.00000000E+00
  0.00000000E+00  0.00000000E+00  0.00000000E+00
  0.00000000E+00  0.00000000E+00  0.00000000E+00
  0.00000000E+00  0.00000000E+00  0.00000000E+00
  0.00000000E+00  0.00000000E+00  0.00000000E+00
  0.00000000E+00  0.00000000E+00  0.00000000E+00
  0.00000000E+00  0.00000000E+00  0.00000000E+00
  0.00000000E+00  0.00000000E+00  0.00000000E+00
  0.00000000E+00  0.00000000E+00  0.00000000E+00
  0.00000000E+00  0.00000000E+00  0.00000000E+00
  0.00000000E+00  0.00000000E+00  0.00000000E+00
  0.00000000E+00  0.00000000E+00  0.00000000E+00
  0.00000000E+00  0.00000000E+00  0.00000000E+00
  0.00000000E+00  0.00000000E+00  0.00000000E+00
  0.00000000E+00  0.00000000E+00  0.00000000E+00
  0.00000000E+00  0.00000000E+00  0.00000000E+00
  0.00000000E+00  0.00000000E+00  0.00000000E+00
  0.00000000E+00  0.00000000E+00  0.00000000E+00
  0.00000000E+00  0.00000000E+00  0.00000000E+00
  0.00000000E+00  0.00000000E+00  0.00000000E+00
  0.00000000E+00  0.00000000E+00  0.00000000E+00
  0.00000000E+00  0.00000000E+00  0.00000000E+00
  0.00000000E+00  0.00000000E+00  0.00000000E+00
  0.00000000E+00  0.00000000E+00  0.00000000E+00
  0.00000000E+00  0.00000000E+00  0.00000000E+00
  0.00000000E+00  0.00000000E+00  0.00000000E+00
  0.00000000E+00  0.00000000E+00  0.00000000E+00
  0.00000000E+00  0.00000000E+00  0.00000000E+00
  0.00000000E+00  0.00000000E+00  0.00000000E+00
  0.00000000E+00  0.00000000E+00  0.00000000E+00
  0.00000000E+00  0.00000000E+00  0.00000000E+00
  0.00000000E+00  0.00000000E+00  0.00000000E+00
  0.00000000E+00  0.00000000E+00  0.00000000E+00
  0.00000000E+00  0.00000000E+00  0.00000000E+00
  0.00000000E+00  0.00000000E+00  0.00000000E+00
  0.00000000E+00  0.00000000E+00  0.00000000E+00
