CONTCAR\(2)                             
   1.00000000000000     
    14.3248996734999992    0.0000000000000000    0.0000000000000000
    -7.1590188013000002   12.4195981305000007    0.0000000000000000
     0.0000000000000000    0.0000000000000000   17.6436004639000004
   Rb   O    H 
    24    13     1
Direct
  0.3348473357395067  0.3483526961377037  0.5725541969463268
  0.4976065649192955  0.3247748110432039  0.4199989135446014
  0.1714193463979564  0.1619167534281287  0.4201283959127064
  0.0139014896104394  0.1798690655363399  0.5747986081561161
  0.3341539726980542  0.9934004014865437  0.4276028957212624
  0.1820761297270498  0.5007038893564415  0.5727771515426194
  0.8350276483826221  0.3366321878152260  0.5825330341813554
  0.9954758513778709  0.3374471511649469  0.4205473031142657
  0.6678106564076433  0.1670910563309019  0.4292366280880421
  0.4984340973137607  0.1653856119089334  0.5821997867695603
  0.8410915454554236  0.0075785719660971  0.4274482820213762
  0.6548670970935454  0.5006417732390835  0.5745916386678294
  0.3346223380983004  0.8211638043522969  0.5751353963033612
  0.5101053837460583  0.8393612208742487  0.4202061606551402
  0.1587443196527812  0.6638768592723995  0.4205484410356173
 -0.0008239507579870  0.6644828692068850  0.5826459883383830
  0.3345768303387668  0.5008481927003857  0.4049444383940344
  0.1703440898287921  0.0015798213943660  0.5824406078617794
  0.8337092842651358  0.8359692876900240  0.5822342169585253
  0.0013530049028760  0.8339298391072643  0.4292938967883235
  0.6735212150448783  0.6765981874061420  0.4200825130078211
  0.4872250771046082  0.6530554105911901  0.5726658847460893
  0.8276294509104517  0.5007458039048460  0.4275224948151608
  0.6692258263244006 -0.0005538153153160  0.5824926257392642
  0.1659247764013005  0.3320957975359407  0.4791091410759063
  0.3344512906351838  0.1615832877290972  0.5016391110833609
  0.0041159075689454  0.0024045340379705  0.5050552934319530
  0.6647768698560118  0.3326786636072321  0.5052713856769181
  0.8359694441750842  0.1701536953440849  0.5058470227237154
  0.5021789646300773 -0.0013712749615612  0.5053710819678346
  0.1665175739016740  0.8308966313694719  0.5060535054359419
  0.3345585217773994  0.6694894446600108  0.4791753683048656
  0.9954586529933649  0.5006068714481122  0.5018991144335105
  0.6734155081467839  0.8395912981978675  0.5017107199734401
  0.8327736337101612  0.6686141257715941  0.5054450950511710
  0.5033994001441372  0.5007086232755001  0.4786454860121274
  0.3352536613083227  0.5008101062663554  0.6765754248835950
  0.3340413171693253  0.5007676311200425  0.7317025526360659
 
  0.00000000E+00  0.00000000E+00  0.00000000E+00
  0.00000000E+00  0.00000000E+00  0.00000000E+00
  0.00000000E+00  0.00000000E+00  0.00000000E+00
  0.00000000E+00  0.00000000E+00  0.00000000E+00
  0.00000000E+00  0.00000000E+00  0.00000000E+00
  0.00000000E+00  0.00000000E+00  0.00000000E+00
  0.00000000E+00  0.00000000E+00  0.00000000E+00
  0.00000000E+00  0.00000000E+00  0.00000000E+00
  0.00000000E+00  0.00000000E+00  0.00000000E+00
  0.00000000E+00  0.00000000E+00  0.00000000E+00
  0.00000000E+00  0.00000000E+00  0.00000000E+00
  0.00000000E+00  0.00000000E+00  0.00000000E+00
  0.00000000E+00  0.00000000E+00  0.00000000E+00
  0.00000000E+00  0.00000000E+00  0.00000000E+00
  0.00000000E+00  0.00000000E+00  0.00000000E+00
  0.00000000E+00  0.00000000E+00  0.00000000E+00
  0.00000000E+00  0.00000000E+00  0.00000000E+00
  0.00000000E+00  0.00000000E+00  0.00000000E+00
  0.00000000E+00  0.00000000E+00  0.00000000E+00
  0.00000000E+00  0.00000000E+00  0.00000000E+00
  0.00000000E+00  0.00000000E+00  0.00000000E+00
  0.00000000E+00  0.00000000E+00  0.00000000E+00
  0.00000000E+00  0.00000000E+00  0.00000000E+00
  0.00000000E+00  0.00000000E+00  0.00000000E+00
  0.00000000E+00  0.00000000E+00  0.00000000E+00
  0.00000000E+00  0.00000000E+00  0.00000000E+00
  0.00000000E+00  0.00000000E+00  0.00000000E+00
  0.00000000E+00  0.00000000E+00  0.00000000E+00
  0.00000000E+00  0.00000000E+00  0.00000000E+00
  0.00000000E+00  0.00000000E+00  0.00000000E+00
  0.00000000E+00  0.00000000E+00  0.00000000E+00
  0.00000000E+00  0.00000000E+00  0.00000000E+00
  0.00000000E+00  0.00000000E+00  0.00000000E+00
  0.00000000E+00  0.00000000E+00  0.00000000E+00
  0.00000000E+00  0.00000000E+00  0.00000000E+00
  0.00000000E+00  0.00000000E+00  0.00000000E+00
  0.00000000E+00  0.00000000E+00  0.00000000E+00
  0.00000000E+00  0.00000000E+00  0.00000000E+00
