CONTCAR\(4)                             
   1.00000000000000     
    12.5853996276999993    0.0000000000000000    0.0000000000000000
     0.0000000000000000   10.3535003662000005    0.0000000000000000
     0.0000000000000000    0.0000000000000000   22.0041007995999998
   Cu   O    F    H 
    36    13    60     1
Direct
  0.0061113949935133  0.2187943337973830  0.3626907717264761
  0.1717356608770833  0.4763703648349471  0.3626566423810084
 -0.0003652874437032  0.0228574313521274  0.6385791165939132
  0.1634943449258371  0.2800294718847900  0.6424252716087480
  0.1468786565110372  0.1301837640208658  0.4850326486512272
  0.3098735157362589  0.3686211108849400  0.5232949101230211
  0.3340173607109256  0.2178527821548538  0.3618016810441941
  0.5004912920968712  0.4772443628437107  0.3634861128687223
  0.3404635378969255  0.0244622413463500  0.6409678659477107
  0.5116279163227703  0.2811429819019625  0.6379024604009527
  0.4751710123817354  0.1308770376367880  0.4845351232091191
  0.6457319671790754  0.3695054202990901  0.5143848711978110
  0.6676184206140114  0.2188836332532510  0.3616527345110456
  0.8374647721642446  0.4773659950787655  0.3615310577960062
  0.6742489068050704  0.0241787114324262  0.6385057568584414
  0.8345703592239352  0.2824777755738966  0.6379617927923136
  0.8144356832135047  0.1287991522524055  0.4822762959312196
  0.9806396435470139  0.3699996322408403  0.5146536481771636
  0.0059807127423305  0.7182679532983368  0.3633359566870991
  0.1718084477592635  0.9760363023636667  0.3619808834524424
 -0.0033606851935769  0.5244293368185338  0.6365987005762785
  0.1672330445564013  0.7818613474920699  0.6405882991677174
  0.1482647469842357  0.6299407726518318  0.4859939676514310
  0.3102942438704094  0.8715920791308073  0.5201823025097748
  0.3352259527125755  0.7175082667367445  0.3634433572651760
  0.5012880954902191  0.9770140308548656  0.3621513381354888
  0.3363652730404532  0.5240708518500280  0.6444559434511445
  0.5122430363368518  0.7844740825565214  0.6371897621035703
  0.4738538262246097  0.6270531600863928  0.4887941386476945
  0.6474104149692772  0.8711444387887359  0.5131052910784113
  0.6676455953718134  0.7186518059236234  0.3628408041179509
  0.8377091275122545  0.9770994298170836  0.3611122241167809
  0.6736807868576665  0.5239340623931115  0.6385292850064236
  0.8350507684692297  0.7826766438084803  0.6377355362066572
  0.8150156921585343  0.6285628638156115  0.4833695095703409
  0.9802435059381663  0.8712427882471661  0.5152624356064590
  0.2703603498338883  0.3759263802862069  0.6087848116459429
  0.1124944802610001  0.1216578844593030  0.3971198595765573
  0.6172832548858861  0.3769747905991360  0.6027030547342478
  0.4391714741650961  0.1211029532861816  0.3973062611063313
  0.9358778154712634  0.3812221631000381  0.6004302411563451
  0.7749147992839533  0.1220388381723631  0.3951308431198104
  0.2750894398681119  0.8799763142382507  0.6077524842600993
  0.1123665137900684  0.6212836458819989  0.3982740614933223
  0.6172961178964903  0.8793746414007781  0.6019089101462602
  0.4390128022198719  0.6203920679209365  0.4001424224334635
  0.9394916664516908  0.8797115869414213  0.6020325576003216
  0.7748714975312536  0.6218520930284513  0.3962071786969715
  0.2774525101023333  0.5157284532364327  0.7239549704438278
  0.2792113204813338  0.0725777266844211  0.3214524186593681
  0.0554390089263357  0.1737672389992297  0.6772715402269891
  0.2272979001933357  0.3237012067316434  0.3247494652857955
  0.0956790292308891  0.4224176559065491  0.6776100200905145
  0.2263043663266788  0.1282429017147666  0.6129617088433346
  0.0550308156899865  0.0316529110604121  0.5360364159969815
  0.1078701985244002  0.2759606281113388  0.5370427077626740
  0.2275294046494834  0.4716757724516893  0.4690341979332466
  0.2760397738648777  0.2251498748083197  0.4679539084153562
  0.0646343142980815  0.3710679609040541  0.3967074072131648
  0.6091963740045412  0.0744787270761124  0.3224263575808298
  0.4041536106097315  0.1774774933562537  0.6750483332994350
  0.5598998022361774  0.3258478769519776  0.3261431980556526
  0.4618086607429169  0.4279767167212893  0.6764620081260201
  0.5664687403296796  0.1278326761428356  0.6042309296032601
  0.3872284480536153  0.0323661119264492  0.5381351170328972
  0.4416119465050527  0.2756663668392128  0.5385995399717994
  0.5463070832334117  0.4670088544738767  0.4680554191766199
  0.6040362327654615  0.2243586835546952  0.4630664819510603
  0.3908996942881041  0.3712054305913531  0.3938810908792651
  0.9483449115372049  0.0743558201732110  0.3229691268062049
  0.7297373249054044  0.1762642212781730  0.6763943379040496
  0.8994136305072222  0.3253790975124073  0.3262042273633708
  0.7812041869529933  0.4272578395676995  0.6793326132043876
  0.8918849914144689  0.1297853603873650  0.6048731909049783
  0.7226983061139738  0.0310156158960699  0.5328208658993840
  0.7749858239910993  0.2765649808403726  0.5314869541183230
  0.8899567102490040  0.4686238550935231  0.4630050439277671
  0.9438219443144923  0.2219514029952336  0.4638043091980092
  0.7268990649922891  0.3721723949977525  0.3929758583066721
  0.2803437012667410  0.5725819606174444  0.3229663532434560
  0.0555081663283847  0.6758277474688112  0.6732265438703400
  0.2290831828779649  0.8228339079947380  0.3254481060538551
  0.1071012735184889  0.9250797098116673  0.6790563665633486
  0.2270097339027640  0.6331368429376047  0.6079520256754297
  0.0548314555778118  0.5310590617635014  0.5355331680724282
  0.1085114852725418  0.7781291316647296  0.5360474238574867
  0.2234311563006920  0.9698896292291164  0.4664077447479991
  0.2770505987926085  0.7239639572153809  0.4680316701320063
  0.0641345162583670  0.8713094164030279  0.3959395899225883
  0.6085805841052079  0.5743436247578360  0.3240783486958826
  0.4100047516186713  0.6821356655266214  0.6744554054426407
  0.5608550194292208  0.8247578231876698  0.3260632425479354
  0.4555980079535221  0.9295317762239412  0.6764261108719916
  0.5691522506911075  0.6319768976722319  0.6033422507241502
  0.3897136022626684  0.5288095425462802  0.5488951496701689
  0.4398196908922840  0.7774730327957041  0.5379742858342990
  0.5522599666797693  0.9696644535308303  0.4647567206998450
  0.6039693446641009  0.7227208846726305  0.4654821386237717
  0.3925905020440730  0.8713939796710297  0.3944533609651497
  0.9484499867635575  0.5739989257660879  0.3235808842614138
  0.7305674997840917  0.6761791473210761  0.6761692599414230
  0.8993036653060772  0.8244901028219662  0.3263103322555699
  0.7815063595098882  0.9274332402925152  0.6791568562186212
  0.8901949955407689  0.6300461721070927  0.6028095823845252
  0.7219085208645917  0.5302122218963741  0.5325640984254679
  0.7759108119271909  0.7776579593515872  0.5319491712596826
  0.8903597567278035  0.9691995336523919  0.4628441946484225
  0.9436293152084533  0.7227885104418771  0.4643953201965360
  0.7275310333149180  0.8718340722677184  0.3934979040221466
  0.3384007773656779  0.5126889106677482  0.7518059328505888
 
  0.00000000E+00  0.00000000E+00  0.00000000E+00
  0.00000000E+00  0.00000000E+00  0.00000000E+00
  0.00000000E+00  0.00000000E+00  0.00000000E+00
  0.00000000E+00  0.00000000E+00  0.00000000E+00
  0.00000000E+00  0.00000000E+00  0.00000000E+00
  0.00000000E+00  0.00000000E+00  0.00000000E+00
  0.00000000E+00  0.00000000E+00  0.00000000E+00
  0.00000000E+00  0.00000000E+00  0.00000000E+00
  0.00000000E+00  0.00000000E+00  0.00000000E+00
  0.00000000E+00  0.00000000E+00  0.00000000E+00
  0.00000000E+00  0.00000000E+00  0.00000000E+00
  0.00000000E+00  0.00000000E+00  0.00000000E+00
  0.00000000E+00  0.00000000E+00  0.00000000E+00
  0.00000000E+00  0.00000000E+00  0.00000000E+00
  0.00000000E+00  0.00000000E+00  0.00000000E+00
  0.00000000E+00  0.00000000E+00  0.00000000E+00
  0.00000000E+00  0.00000000E+00  0.00000000E+00
  0.00000000E+00  0.00000000E+00  0.00000000E+00
  0.00000000E+00  0.00000000E+00  0.00000000E+00
  0.00000000E+00  0.00000000E+00  0.00000000E+00
  0.00000000E+00  0.00000000E+00  0.00000000E+00
  0.00000000E+00  0.00000000E+00  0.00000000E+00
  0.00000000E+00  0.00000000E+00  0.00000000E+00
  0.00000000E+00  0.00000000E+00  0.00000000E+00
  0.00000000E+00  0.00000000E+00  0.00000000E+00
  0.00000000E+00  0.00000000E+00  0.00000000E+00
  0.00000000E+00  0.00000000E+00  0.00000000E+00
  0.00000000E+00  0.00000000E+00  0.00000000E+00
  0.00000000E+00  0.00000000E+00  0.00000000E+00
  0.00000000E+00  0.00000000E+00  0.00000000E+00
  0.00000000E+00  0.00000000E+00  0.00000000E+00
  0.00000000E+00  0.00000000E+00  0.00000000E+00
  0.00000000E+00  0.00000000E+00  0.00000000E+00
  0.00000000E+00  0.00000000E+00  0.00000000E+00
  0.00000000E+00  0.00000000E+00  0.00000000E+00
  0.00000000E+00  0.00000000E+00  0.00000000E+00
  0.00000000E+00  0.00000000E+00  0.00000000E+00
  0.00000000E+00  0.00000000E+00  0.00000000E+00
  0.00000000E+00  0.00000000E+00  0.00000000E+00
  0.00000000E+00  0.00000000E+00  0.00000000E+00
  0.00000000E+00  0.00000000E+00  0.00000000E+00
  0.00000000E+00  0.00000000E+00  0.00000000E+00
  0.00000000E+00  0.00000000E+00  0.00000000E+00
  0.00000000E+00  0.00000000E+00  0.00000000E+00
  0.00000000E+00  0.00000000E+00  0.00000000E+00
  0.00000000E+00  0.00000000E+00  0.00000000E+00
  0.00000000E+00  0.00000000E+00  0.00000000E+00
  0.00000000E+00  0.00000000E+00  0.00000000E+00
  0.00000000E+00  0.00000000E+00  0.00000000E+00
  0.00000000E+00  0.00000000E+00  0.00000000E+00
  0.00000000E+00  0.00000000E+00  0.00000000E+00
  0.00000000E+00  0.00000000E+00  0.00000000E+00
  0.00000000E+00  0.00000000E+00  0.00000000E+00
  0.00000000E+00  0.00000000E+00  0.00000000E+00
  0.00000000E+00  0.00000000E+00  0.00000000E+00
  0.00000000E+00  0.00000000E+00  0.00000000E+00
  0.00000000E+00  0.00000000E+00  0.00000000E+00
  0.00000000E+00  0.00000000E+00  0.00000000E+00
  0.00000000E+00  0.00000000E+00  0.00000000E+00
  0.00000000E+00  0.00000000E+00  0.00000000E+00
  0.00000000E+00  0.00000000E+00  0.00000000E+00
  0.00000000E+00  0.00000000E+00  0.00000000E+00
  0.00000000E+00  0.00000000E+00  0.00000000E+00
  0.00000000E+00  0.00000000E+00  0.00000000E+00
  0.00000000E+00  0.00000000E+00  0.00000000E+00
  0.00000000E+00  0.00000000E+00  0.00000000E+00
  0.00000000E+00  0.00000000E+00  0.00000000E+00
  0.00000000E+00  0.00000000E+00  0.00000000E+00
  0.00000000E+00  0.00000000E+00  0.00000000E+00
  0.00000000E+00  0.00000000E+00  0.00000000E+00
  0.00000000E+00  0.00000000E+00  0.00000000E+00
  0.00000000E+00  0.00000000E+00  0.00000000E+00
  0.00000000E+00  0.00000000E+00  0.00000000E+00
  0.00000000E+00  0.00000000E+00  0.00000000E+00
  0.00000000E+00  0.00000000E+00  0.00000000E+00
  0.00000000E+00  0.00000000E+00  0.00000000E+00
  0.00000000E+00  0.00000000E+00  0.00000000E+00
  0.00000000E+00  0.00000000E+00  0.00000000E+00
  0.00000000E+00  0.00000000E+00  0.00000000E+00
  0.00000000E+00  0.00000000E+00  0.00000000E+00
  0.00000000E+00  0.00000000E+00  0.00000000E+00
  0.00000000E+00  0.00000000E+00  0.00000000E+00
  0.00000000E+00  0.00000000E+00  0.00000000E+00
  0.00000000E+00  0.00000000E+00  0.00000000E+00
  0.00000000E+00  0.00000000E+00  0.00000000E+00
  0.00000000E+00  0.00000000E+00  0.00000000E+00
  0.00000000E+00  0.00000000E+00  0.00000000E+00
  0.00000000E+00  0.00000000E+00  0.00000000E+00
  0.00000000E+00  0.00000000E+00  0.00000000E+00
  0.00000000E+00  0.00000000E+00  0.00000000E+00
  0.00000000E+00  0.00000000E+00  0.00000000E+00
  0.00000000E+00  0.00000000E+00  0.00000000E+00
  0.00000000E+00  0.00000000E+00  0.00000000E+00
  0.00000000E+00  0.00000000E+00  0.00000000E+00
  0.00000000E+00  0.00000000E+00  0.00000000E+00
  0.00000000E+00  0.00000000E+00  0.00000000E+00
  0.00000000E+00  0.00000000E+00  0.00000000E+00
  0.00000000E+00  0.00000000E+00  0.00000000E+00
  0.00000000E+00  0.00000000E+00  0.00000000E+00
  0.00000000E+00  0.00000000E+00  0.00000000E+00
  0.00000000E+00  0.00000000E+00  0.00000000E+00
  0.00000000E+00  0.00000000E+00  0.00000000E+00
  0.00000000E+00  0.00000000E+00  0.00000000E+00
  0.00000000E+00  0.00000000E+00  0.00000000E+00
  0.00000000E+00  0.00000000E+00  0.00000000E+00
  0.00000000E+00  0.00000000E+00  0.00000000E+00
  0.00000000E+00  0.00000000E+00  0.00000000E+00
  0.00000000E+00  0.00000000E+00  0.00000000E+00
  0.00000000E+00  0.00000000E+00  0.00000000E+00
  0.00000000E+00  0.00000000E+00  0.00000000E+00
