 Ge4 Te7 As2                            
   1.00000000000000     
     4.1503309648241942    0.0000000000000000    0.0000000000000000
     2.0751649873707083    3.5942959996777066    0.0000000000000000
     0.0000000000000000    0.0000000000000000   35.7986177044800016
   Ge   Te   As
     4     7     2
Direct
  0.9999979978828790  0.0000037935572905  0.6483907079354339
  0.6666701209038024  0.6666632884071646  0.4506382351594098
  0.3333364280656355  0.3333315687583536  0.5493578610170218
  0.9999999393894115  0.0000022147232457  0.3516099299965347
  0.0000059727170409  0.9999915203456098  0.7909310859459779
  0.3333186288768388  0.3333424783179098  0.6962800615639111
  0.6666674855748482  0.6666660995427662  0.3037214541390867
  0.0000032581559068  0.9999946317566284  0.2090714267705422
  0.9999995401513644  0.0000014959258294  0.5000012749999243
  0.3333334061835913  0.3333341643225438  0.4018160678300049
  0.6666648270566711  0.6666691197308410  0.5981804980718906
  0.3333342248573885  0.3333330120355456  0.2517952316241221
  0.6666681701846073  0.6666666125762859  0.7482061649461471
 
  0.00000000E+00  0.00000000E+00  0.00000000E+00
  0.00000000E+00  0.00000000E+00  0.00000000E+00
  0.00000000E+00  0.00000000E+00  0.00000000E+00
  0.00000000E+00  0.00000000E+00  0.00000000E+00
  0.00000000E+00  0.00000000E+00  0.00000000E+00
  0.00000000E+00  0.00000000E+00  0.00000000E+00
  0.00000000E+00  0.00000000E+00  0.00000000E+00
  0.00000000E+00  0.00000000E+00  0.00000000E+00
  0.00000000E+00  0.00000000E+00  0.00000000E+00
  0.00000000E+00  0.00000000E+00  0.00000000E+00
  0.00000000E+00  0.00000000E+00  0.00000000E+00
  0.00000000E+00  0.00000000E+00  0.00000000E+00
  0.00000000E+00  0.00000000E+00  0.00000000E+00
