CONTCAR\(3)                             
   1.00000000000000     
    13.2600002288999992    0.0000000000000000    0.0000000000000000
    -6.6300199930000003   11.4834855754999996    0.0000000000000000
     0.0000000000000000    0.0000000000000000   20.2117004394999995
   Na   Zr   N    O    H 
    32    16    32     1     1
Selective dynamics
Direct
  0.1669565244673592  0.0838696635711074  0.3746454780633925   F   F   F
  0.0840468109116514  0.1675298759221349  0.6274634745046086   F   F   F
  0.4170242930619779  0.0835601399857993  0.3744726719881655   F   F   F
  0.3335424233831716  0.1675668257570209  0.6274751063831943   F   F   F
  0.6671535998730178  0.0842212128362618  0.3741638126951230   F   F   F
  0.5835895277259979  0.1667921736871492  0.6277807202386327   F   F   F
  0.9165225463690305  0.0835851341371026  0.3744642179700506   F   F   F
  0.8332066100444493  0.1667963840035682  0.6278452219032502   F   F   F
  0.1655962770010007  0.3322932068644491  0.3740148494052420   F   F   F
  0.0860600411381967  0.4180664087019963  0.6276872142925782   F   F   F
  0.4166683796138742  0.3322066331829276  0.3739935320381278   F   F   F
  0.3400686425041144  0.4298408813234431  0.6317794288647960   F   F   F
  0.6670861335286276  0.3329339581728803  0.3741762667044952   F   F   F
  0.5820622154126838  0.4180666660967276  0.6276852525694281   F   F   F
  0.9158832039023750  0.3329079706088649  0.3741755793583508   F   F   F
  0.8332271705141281  0.4164448791562307  0.6277820862294377   F   F   F
  0.1655830765513286  0.5832853291361673  0.3739744932099711   F   F   F
  0.0840450869311695  0.6665110769815357  0.6274353007167761   F   F   F
  0.4166307703900998  0.5833285468846441  0.3736001883833922   F   F   F
  0.3400341949884904  0.6602615628098505  0.6317229001518498   F   F   F
  0.6677978411041678  0.5833175658100558  0.3739608524188398   F   F   F
  0.5706140996157814  0.6603137235277856  0.6316385909809412   F   F   F
  0.9164972854395543  0.5829788519276420  0.3744584378518638   F   F   F
  0.8325019709948975  0.6665146091250733  0.6274295042964084   F   F   F
  0.1669165607246796  0.8331192876872464  0.3746462403274862   F   F   F
  0.0833298273313687  0.9166718102675304  0.6278191095311954   F   F   F
  0.4167081698576638  0.8344549678074245  0.3739586008968558   F   F   F
  0.3335237412387073  0.9159885750816201  0.6274305730468157   F   F   F
  0.6677581095254723  0.8344634868441645  0.3739680341344283   F   F   F
  0.5819987552985566  0.9139286821004333  0.6276532078572927   F   F   F
  0.9162339552402727  0.8331150723073435  0.3746150816343246   F   F   F
  0.8325394715911756  0.9159963643261477  0.6274173387168247   F   F   F
  0.9999555667877900  0.0001086851878824  0.5009796613436990   F   F   F
  0.2501838198999877  0.0000966198710017  0.5009842286175115   F   F   F
  0.4999982581430444  0.9995308409314987  0.5010320659242495   F   F   F
  0.7495996922733070  0.9995676211393416  0.5010325947188221   F   F   F
  0.0004719308171417  0.2504472845289953  0.5010615317118763   F   F   F
  0.2507172326381450  0.2513897347690630  0.5018651700876831   F   F   F
  0.5000070706560322  0.2504498527427543  0.5010411873269192   F   F   F
  0.7500242491953202  0.2500186346743405  0.5011217567980495   F   F   F
  0.0005109227346551  0.5000428171422229  0.5010413530974631   F   F   F
  0.2510362896202807  0.5005144393959498  0.5001126579781499   F   F   F
  0.4995114047814084  0.5005498888143691  0.5000644678593886   F   F   F
  0.7495988013685775  0.5000388871911596  0.5010160737262837   F   F   F
  0.9999577530477595  0.7498564752694321  0.5009654513904209   F   F   F
  0.2507169852505271  0.7493276976979573  0.5018306596317927   F   F   F
  0.4995361891583769  0.7490176781574291  0.5000521683374970   F   F   F
  0.7486865926234714  0.7493405253846959  0.5017853991372121   F   F   F
  0.1667732300949254  0.0835013547098953  0.5590267076384450   F   F   F
  0.0828948989125493  0.1663789920056900  0.4435002645079749   F   F   F
  0.4167356692342921  0.0833793485579335  0.5590907474746416   F   F   F
  0.3335075151678311  0.1663581634120419  0.4434911090594724   F   F   F
  0.6664061519629314  0.0827632160731042  0.5592052474233853   F   F   F
  0.5836073193360676  0.1668015277331207  0.4435914340638618   F   F   F
  0.9166608636067295  0.0833804546587658  0.5591044350595382   F   F   F
  0.8332547356872055  0.1668247235890945  0.4436080946207710   F   F   F
  0.1679845805717406  0.3346533809209902  0.5586134426615317   F   F   F
  0.0820129805578418  0.4159997731588660  0.4424376865932587   F   F   F
  0.4167396109294685  0.3346492411126647  0.5585793000230694   F   F   F
  0.3323964675447897  0.4147832253023438  0.4413408375633239   F   F   F
  0.6664052387952140  0.3336452517174067  0.5591963618669809   F   F   F
  0.5840243727571206  0.4160017714284479  0.4423975240206204   F   F   F
  0.9172636919504740  0.3336321559192115  0.5592219871628501   F   F   F
  0.8332544779554851  0.4164256578035435  0.4435869710434162   F   F   F
  0.1679697259549684  0.5833387274987629  0.5585900533292545   F   F   F
  0.0828925307988229  0.6665143135728258  0.4434717539717923   F   F   F
  0.4167355079559840  0.5833780645590778  0.5512983232904460   F   F   F
  0.3324092216511545  0.6676227839422566  0.4413196146748817   F   F   F
  0.6654457680843180  0.5833417820258688  0.5585339325401009   F   F   F
  0.5852457302401461  0.6676338446662697  0.4412943211954783   F   F   F
  0.9166622032732050  0.5833032756302359  0.5590784376653630   F   F   F
  0.8337009426531807  0.6665266107708945  0.4434428501274255   F   F   F
  0.1667608704654953  0.8332658846715333  0.5589992188876423   F   F   F
  0.0833652769721240  0.9166968567055420  0.4434161647124597   F   F   F
  0.4167314801133131  0.8320984050463736  0.5585602396369040   F   F   F
  0.3335109398334097  0.9171555112115684  0.4434746630049702   F   F   F
  0.6654394427540637  0.8320992461137138  0.5585374612515679   F   F   F
  0.5840445505203959  0.9180524085949813  0.4423956617893197   F   F   F
  0.9165332285258998  0.8332588005580277  0.5589918988610165   F   F   F
  0.8337009072601944  0.9171746971183978  0.4434550370905797   F   F   F
  0.4173379905019772  0.5838136684268704  0.7050161092278273   T   T   T
  0.4178203521058208  0.5840964942532736  0.7523112765233484   T   T   T
 
  0.00000000E+00  0.00000000E+00  0.00000000E+00
  0.00000000E+00  0.00000000E+00  0.00000000E+00
  0.00000000E+00  0.00000000E+00  0.00000000E+00
  0.00000000E+00  0.00000000E+00  0.00000000E+00
  0.00000000E+00  0.00000000E+00  0.00000000E+00
  0.00000000E+00  0.00000000E+00  0.00000000E+00
  0.00000000E+00  0.00000000E+00  0.00000000E+00
  0.00000000E+00  0.00000000E+00  0.00000000E+00
  0.00000000E+00  0.00000000E+00  0.00000000E+00
  0.00000000E+00  0.00000000E+00  0.00000000E+00
  0.00000000E+00  0.00000000E+00  0.00000000E+00
  0.00000000E+00  0.00000000E+00  0.00000000E+00
  0.00000000E+00  0.00000000E+00  0.00000000E+00
  0.00000000E+00  0.00000000E+00  0.00000000E+00
  0.00000000E+00  0.00000000E+00  0.00000000E+00
  0.00000000E+00  0.00000000E+00  0.00000000E+00
  0.00000000E+00  0.00000000E+00  0.00000000E+00
  0.00000000E+00  0.00000000E+00  0.00000000E+00
  0.00000000E+00  0.00000000E+00  0.00000000E+00
  0.00000000E+00  0.00000000E+00  0.00000000E+00
  0.00000000E+00  0.00000000E+00  0.00000000E+00
  0.00000000E+00  0.00000000E+00  0.00000000E+00
  0.00000000E+00  0.00000000E+00  0.00000000E+00
  0.00000000E+00  0.00000000E+00  0.00000000E+00
  0.00000000E+00  0.00000000E+00  0.00000000E+00
  0.00000000E+00  0.00000000E+00  0.00000000E+00
  0.00000000E+00  0.00000000E+00  0.00000000E+00
  0.00000000E+00  0.00000000E+00  0.00000000E+00
  0.00000000E+00  0.00000000E+00  0.00000000E+00
  0.00000000E+00  0.00000000E+00  0.00000000E+00
  0.00000000E+00  0.00000000E+00  0.00000000E+00
  0.00000000E+00  0.00000000E+00  0.00000000E+00
  0.00000000E+00  0.00000000E+00  0.00000000E+00
  0.00000000E+00  0.00000000E+00  0.00000000E+00
  0.00000000E+00  0.00000000E+00  0.00000000E+00
  0.00000000E+00  0.00000000E+00  0.00000000E+00
  0.00000000E+00  0.00000000E+00  0.00000000E+00
  0.00000000E+00  0.00000000E+00  0.00000000E+00
  0.00000000E+00  0.00000000E+00  0.00000000E+00
  0.00000000E+00  0.00000000E+00  0.00000000E+00
  0.00000000E+00  0.00000000E+00  0.00000000E+00
  0.00000000E+00  0.00000000E+00  0.00000000E+00
  0.00000000E+00  0.00000000E+00  0.00000000E+00
  0.00000000E+00  0.00000000E+00  0.00000000E+00
  0.00000000E+00  0.00000000E+00  0.00000000E+00
  0.00000000E+00  0.00000000E+00  0.00000000E+00
  0.00000000E+00  0.00000000E+00  0.00000000E+00
  0.00000000E+00  0.00000000E+00  0.00000000E+00
  0.00000000E+00  0.00000000E+00  0.00000000E+00
  0.00000000E+00  0.00000000E+00  0.00000000E+00
  0.00000000E+00  0.00000000E+00  0.00000000E+00
  0.00000000E+00  0.00000000E+00  0.00000000E+00
  0.00000000E+00  0.00000000E+00  0.00000000E+00
  0.00000000E+00  0.00000000E+00  0.00000000E+00
  0.00000000E+00  0.00000000E+00  0.00000000E+00
  0.00000000E+00  0.00000000E+00  0.00000000E+00
  0.00000000E+00  0.00000000E+00  0.00000000E+00
  0.00000000E+00  0.00000000E+00  0.00000000E+00
  0.00000000E+00  0.00000000E+00  0.00000000E+00
  0.00000000E+00  0.00000000E+00  0.00000000E+00
  0.00000000E+00  0.00000000E+00  0.00000000E+00
  0.00000000E+00  0.00000000E+00  0.00000000E+00
  0.00000000E+00  0.00000000E+00  0.00000000E+00
  0.00000000E+00  0.00000000E+00  0.00000000E+00
  0.00000000E+00  0.00000000E+00  0.00000000E+00
  0.00000000E+00  0.00000000E+00  0.00000000E+00
  0.00000000E+00  0.00000000E+00  0.00000000E+00
  0.00000000E+00  0.00000000E+00  0.00000000E+00
  0.00000000E+00  0.00000000E+00  0.00000000E+00
  0.00000000E+00  0.00000000E+00  0.00000000E+00
  0.00000000E+00  0.00000000E+00  0.00000000E+00
  0.00000000E+00  0.00000000E+00  0.00000000E+00
  0.00000000E+00  0.00000000E+00  0.00000000E+00
  0.00000000E+00  0.00000000E+00  0.00000000E+00
  0.00000000E+00  0.00000000E+00  0.00000000E+00
  0.00000000E+00  0.00000000E+00  0.00000000E+00
  0.00000000E+00  0.00000000E+00  0.00000000E+00
  0.00000000E+00  0.00000000E+00  0.00000000E+00
  0.00000000E+00  0.00000000E+00  0.00000000E+00
  0.00000000E+00  0.00000000E+00  0.00000000E+00
  0.00000000E+00  0.00000000E+00  0.00000000E+00
  0.00000000E+00  0.00000000E+00  0.00000000E+00
