CONTCAR\(12)                            
   1.00000000000000     
    13.0895996094000004    0.0000000000000000    0.0000000000000000
     6.5373165239000004   11.3368964473999991    0.0000000000000000
     0.0000000000000000    0.0000000000000000   17.7437992095999988
   Cr   S    O    H 
    16    32     1     1
Selective dynamics
Direct
  0.0094727995528672  0.2324657129974028  0.4993152706448427   F   F   F
  0.2465017670942018  0.2510356718856883  0.5014649985474833   F   F   F
  0.5107547599209283  0.2381928498897565  0.5023210729833139   F   F   F
  0.7525146335971442  0.2422849243281675  0.5025702071199518   F   F   F
  0.9912372240679233  0.4805991629808233  0.4979584821269540   F   F   F
  0.2647817415950584  0.4780384099760582  0.5015508428767461   F   F   F
  0.5293198967462800  0.4615643163228000  0.5023706526316261   F   F   F
  0.7527809197555442  0.4893613892804893  0.5017885720731101   F   F   F
  0.9827199123121702  0.7532883455109811  0.4954374157124519   F   F   F
  0.2275338295442069  0.7404586505936166  0.5014756141663099   F   F   F
  0.5146097173533875  0.7608882275374143  0.4952403741264177   F   F   F
  0.7701940338229107  0.7224229830043285  0.5036504236758717   F   F   F
  0.0226038546690859  0.9945401719143234  0.5003173597488271   F   F   F
  0.2439090034714084  0.0200366619753893  0.4961625217208550   F   F   F
  0.4901015300025549  0.0042608025327624  0.5003813828999526   F   F   F
  0.7476921806824279  0.0110887591413515  0.5060510372980289   F   F   F
  0.0925355116301745  0.0734252371804871  0.4142950720577971   F   F   F
  0.1711102098808297  0.1610987614670734  0.5825046595451013   F   F   F
  0.3313429526698428  0.0834067687748501  0.4166182226916959   F   F   F
  0.4168035426635441  0.1646242879241342  0.5797656644522107   F   F   F
  0.5882986353014985  0.0773520334389559  0.4221301929039214   F   F   F
  0.6713735489853576  0.1590907804483948  0.5871103681912047   F   F   F
  0.8424377880109404  0.0758043895741523  0.4262366266449860   F   F   F
  0.9241831015028197  0.1550256576033391  0.5793939405411805   F   F   F
  0.0837122831775261  0.3253301876286230  0.4183688467376072   F   F   F
  0.1621165072669513  0.4111814629357013  0.5793301288839743   F   F   F
  0.3418714690236158  0.3209521688615098  0.4223443033819052   F   F   F
  0.4261025900775621  0.4072086731391593  0.5824426380495638   F   F   F
  0.5935080246296991  0.3201520908254238  0.4179096210976567   F   F   F
  0.6749102264323028  0.4045147074249087  0.5857972865374279   F   F   F
  0.8401162653537639  0.3206368452627828  0.4241909424334267   F   F   F
  0.9217529997801819  0.3990092056569452  0.5813838773504330   F   F   F
  0.0854126881738750  0.5717126535697119  0.4350865630146714   F   F   F
  0.1610728391400826  0.6591849871726225  0.5809759941766970   F   F   F
  0.3433350917526141  0.5713796260533215  0.4299892385793811   F   F   F
  0.4233490993074938  0.6556289160645434  0.5575599898216410   F   F   F
  0.5833664688315068  0.5783666326397636  0.4285425193131545   F   F   F
  0.6689764643114131  0.6613355177150453  0.5798515586563582   F   F   F
  0.8330459011572415  0.5739067499032231  0.4179529250906526   F   F   F
  0.9209379971427438  0.6546144820569992  0.5802147044453179   F   F   F
  0.0786741900459802  0.8274888057049949  0.4189754534183550   F   F   F
  0.1793118774063203  0.9064669306682660  0.5769253646565673   F   F   F
  0.3326446615796428  0.8307551577391976  0.4358104187714531   F   F   F
  0.4142920490969288  0.9153317159774801  0.5770241695723399   F   F   F
  0.5931619626542144  0.8301465954238836  0.4182377226353395   F   F   F
  0.6698337545137889  0.9080223658089039  0.5669388019522543   F   F   F
  0.8284882051800651  0.8294614437760544  0.4220935458167503   F   F   F
  0.9233516342267976  0.9126188875590628  0.5753130458337239   F   F   F
  0.4297808166347181  0.6478996393006753  0.6512512714952976   T   T   T
  0.3931202542698317  0.7290692448484962  0.6696423461543553   T   T   T
 
  0.00000000E+00  0.00000000E+00  0.00000000E+00
  0.00000000E+00  0.00000000E+00  0.00000000E+00
  0.00000000E+00  0.00000000E+00  0.00000000E+00
  0.00000000E+00  0.00000000E+00  0.00000000E+00
  0.00000000E+00  0.00000000E+00  0.00000000E+00
  0.00000000E+00  0.00000000E+00  0.00000000E+00
  0.00000000E+00  0.00000000E+00  0.00000000E+00
  0.00000000E+00  0.00000000E+00  0.00000000E+00
  0.00000000E+00  0.00000000E+00  0.00000000E+00
  0.00000000E+00  0.00000000E+00  0.00000000E+00
  0.00000000E+00  0.00000000E+00  0.00000000E+00
  0.00000000E+00  0.00000000E+00  0.00000000E+00
  0.00000000E+00  0.00000000E+00  0.00000000E+00
  0.00000000E+00  0.00000000E+00  0.00000000E+00
  0.00000000E+00  0.00000000E+00  0.00000000E+00
  0.00000000E+00  0.00000000E+00  0.00000000E+00
  0.00000000E+00  0.00000000E+00  0.00000000E+00
  0.00000000E+00  0.00000000E+00  0.00000000E+00
  0.00000000E+00  0.00000000E+00  0.00000000E+00
  0.00000000E+00  0.00000000E+00  0.00000000E+00
  0.00000000E+00  0.00000000E+00  0.00000000E+00
  0.00000000E+00  0.00000000E+00  0.00000000E+00
  0.00000000E+00  0.00000000E+00  0.00000000E+00
  0.00000000E+00  0.00000000E+00  0.00000000E+00
  0.00000000E+00  0.00000000E+00  0.00000000E+00
  0.00000000E+00  0.00000000E+00  0.00000000E+00
  0.00000000E+00  0.00000000E+00  0.00000000E+00
  0.00000000E+00  0.00000000E+00  0.00000000E+00
  0.00000000E+00  0.00000000E+00  0.00000000E+00
  0.00000000E+00  0.00000000E+00  0.00000000E+00
  0.00000000E+00  0.00000000E+00  0.00000000E+00
  0.00000000E+00  0.00000000E+00  0.00000000E+00
  0.00000000E+00  0.00000000E+00  0.00000000E+00
  0.00000000E+00  0.00000000E+00  0.00000000E+00
  0.00000000E+00  0.00000000E+00  0.00000000E+00
  0.00000000E+00  0.00000000E+00  0.00000000E+00
  0.00000000E+00  0.00000000E+00  0.00000000E+00
  0.00000000E+00  0.00000000E+00  0.00000000E+00
  0.00000000E+00  0.00000000E+00  0.00000000E+00
  0.00000000E+00  0.00000000E+00  0.00000000E+00
  0.00000000E+00  0.00000000E+00  0.00000000E+00
  0.00000000E+00  0.00000000E+00  0.00000000E+00
  0.00000000E+00  0.00000000E+00  0.00000000E+00
  0.00000000E+00  0.00000000E+00  0.00000000E+00
  0.00000000E+00  0.00000000E+00  0.00000000E+00
  0.00000000E+00  0.00000000E+00  0.00000000E+00
  0.00000000E+00  0.00000000E+00  0.00000000E+00
  0.00000000E+00  0.00000000E+00  0.00000000E+00
  0.00000000E+00  0.00000000E+00  0.00000000E+00
  0.00000000E+00  0.00000000E+00  0.00000000E+00
