G   57   20    1    0.005     # Parameters to Generate KPOINTS (Don't Edit This Line)
     319
Reciprocal lattice
    0.000000000000    0.000000000000    0.000000000000       1
    0.017543859649    0.000000000000    0.000000000000       2
    0.035087719298    0.000000000000    0.000000000000       2
    0.052631578947    0.000000000000    0.000000000000       2
    0.070175438596    0.000000000000    0.000000000000       2
    0.087719298246    0.000000000000    0.000000000000       2
    0.105263157895    0.000000000000    0.000000000000       2
    0.122807017544    0.000000000000    0.000000000000       2
    0.140350877193    0.000000000000    0.000000000000       2
    0.157894736842    0.000000000000    0.000000000000       2
    0.175438596491    0.000000000000    0.000000000000       2
    0.192982456140    0.000000000000    0.000000000000       2
    0.210526315789    0.000000000000    0.000000000000       2
    0.228070175439    0.000000000000    0.000000000000       2
    0.245614035088    0.000000000000    0.000000000000       2
    0.263157894737    0.000000000000    0.000000000000       2
    0.280701754386    0.000000000000    0.000000000000       2
    0.298245614035    0.000000000000    0.000000000000       2
    0.315789473684    0.000000000000    0.000000000000       2
    0.333333333333    0.000000000000    0.000000000000       2
    0.350877192982    0.000000000000    0.000000000000       2
    0.368421052632    0.000000000000    0.000000000000       2
    0.385964912281    0.000000000000    0.000000000000       2
    0.403508771930    0.000000000000    0.000000000000       2
    0.421052631579    0.000000000000    0.000000000000       2
    0.438596491228    0.000000000000    0.000000000000       2
    0.456140350877    0.000000000000    0.000000000000       2
    0.473684210526    0.000000000000    0.000000000000       2
    0.491228070175    0.000000000000    0.000000000000       2
    0.000000000000    0.050000000000    0.000000000000       2
    0.017543859649    0.050000000000    0.000000000000       4
    0.035087719298    0.050000000000    0.000000000000       4
    0.052631578947    0.050000000000    0.000000000000       4
    0.070175438596    0.050000000000    0.000000000000       4
    0.087719298246    0.050000000000    0.000000000000       4
    0.105263157895    0.050000000000    0.000000000000       4
    0.122807017544    0.050000000000    0.000000000000       4
    0.140350877193    0.050000000000    0.000000000000       4
    0.157894736842    0.050000000000    0.000000000000       4
    0.175438596491    0.050000000000    0.000000000000       4
    0.192982456140    0.050000000000    0.000000000000       4
    0.210526315789    0.050000000000    0.000000000000       4
    0.228070175439    0.050000000000    0.000000000000       4
    0.245614035088    0.050000000000    0.000000000000       4
    0.263157894737    0.050000000000    0.000000000000       4
    0.280701754386    0.050000000000    0.000000000000       4
    0.298245614035    0.050000000000    0.000000000000       4
    0.315789473684    0.050000000000    0.000000000000       4
    0.333333333333    0.050000000000    0.000000000000       4
    0.350877192982    0.050000000000    0.000000000000       4
    0.368421052632    0.050000000000    0.000000000000       4
    0.385964912281    0.050000000000    0.000000000000       4
    0.403508771930    0.050000000000    0.000000000000       4
    0.421052631579    0.050000000000    0.000000000000       4
    0.438596491228    0.050000000000    0.000000000000       4
    0.456140350877    0.050000000000    0.000000000000       4
    0.473684210526    0.050000000000    0.000000000000       4
    0.491228070175    0.050000000000    0.000000000000       4
    0.000000000000    0.100000000000    0.000000000000       2
    0.017543859649    0.100000000000    0.000000000000       4
    0.035087719298    0.100000000000    0.000000000000       4
    0.052631578947    0.100000000000    0.000000000000       4
    0.070175438596    0.100000000000    0.000000000000       4
    0.087719298246    0.100000000000    0.000000000000       4
    0.105263157895    0.100000000000    0.000000000000       4
    0.122807017544    0.100000000000    0.000000000000       4
    0.140350877193    0.100000000000    0.000000000000       4
    0.157894736842    0.100000000000    0.000000000000       4
    0.175438596491    0.100000000000    0.000000000000       4
    0.192982456140    0.100000000000    0.000000000000       4
    0.210526315789    0.100000000000    0.000000000000       4
    0.228070175439    0.100000000000    0.000000000000       4
    0.245614035088    0.100000000000    0.000000000000       4
    0.263157894737    0.100000000000    0.000000000000       4
    0.280701754386    0.100000000000    0.000000000000       4
    0.298245614035    0.100000000000    0.000000000000       4
    0.315789473684    0.100000000000    0.000000000000       4
    0.333333333333    0.100000000000    0.000000000000       4
    0.350877192982    0.100000000000    0.000000000000       4
    0.368421052632    0.100000000000    0.000000000000       4
    0.385964912281    0.100000000000    0.000000000000       4
    0.403508771930    0.100000000000    0.000000000000       4
    0.421052631579    0.100000000000    0.000000000000       4
    0.438596491228    0.100000000000    0.000000000000       4
    0.456140350877    0.100000000000    0.000000000000       4
    0.473684210526    0.100000000000    0.000000000000       4
    0.491228070175    0.100000000000    0.000000000000       4
    0.000000000000    0.150000000000    0.000000000000       2
    0.017543859649    0.150000000000    0.000000000000       4
    0.035087719298    0.150000000000    0.000000000000       4
    0.052631578947    0.150000000000    0.000000000000       4
    0.070175438596    0.150000000000    0.000000000000       4
    0.087719298246    0.150000000000    0.000000000000       4
    0.105263157895    0.150000000000    0.000000000000       4
    0.122807017544    0.150000000000    0.000000000000       4
    0.140350877193    0.150000000000    0.000000000000       4
    0.157894736842    0.150000000000    0.000000000000       4
    0.175438596491    0.150000000000    0.000000000000       4
    0.192982456140    0.150000000000    0.000000000000       4
    0.210526315789    0.150000000000    0.000000000000       4
    0.228070175439    0.150000000000    0.000000000000       4
    0.245614035088    0.150000000000    0.000000000000       4
    0.263157894737    0.150000000000    0.000000000000       4
    0.280701754386    0.150000000000    0.000000000000       4
    0.298245614035    0.150000000000    0.000000000000       4
    0.315789473684    0.150000000000    0.000000000000       4
    0.333333333333    0.150000000000    0.000000000000       4
    0.350877192982    0.150000000000    0.000000000000       4
    0.368421052632    0.150000000000    0.000000000000       4
    0.385964912281    0.150000000000    0.000000000000       4
    0.403508771930    0.150000000000    0.000000000000       4
    0.421052631579    0.150000000000    0.000000000000       4
    0.438596491228    0.150000000000    0.000000000000       4
    0.456140350877    0.150000000000    0.000000000000       4
    0.473684210526    0.150000000000    0.000000000000       4
    0.491228070175    0.150000000000    0.000000000000       4
    0.000000000000    0.200000000000    0.000000000000       2
    0.017543859649    0.200000000000    0.000000000000       4
    0.035087719298    0.200000000000    0.000000000000       4
    0.052631578947    0.200000000000    0.000000000000       4
    0.070175438596    0.200000000000    0.000000000000       4
    0.087719298246    0.200000000000    0.000000000000       4
    0.105263157895    0.200000000000    0.000000000000       4
    0.122807017544    0.200000000000    0.000000000000       4
    0.140350877193    0.200000000000    0.000000000000       4
    0.157894736842    0.200000000000    0.000000000000       4
    0.175438596491    0.200000000000    0.000000000000       4
    0.192982456140    0.200000000000    0.000000000000       4
    0.210526315789    0.200000000000    0.000000000000       4
    0.228070175439    0.200000000000    0.000000000000       4
    0.245614035088    0.200000000000    0.000000000000       4
    0.263157894737    0.200000000000    0.000000000000       4
    0.280701754386    0.200000000000    0.000000000000       4
    0.298245614035    0.200000000000    0.000000000000       4
    0.315789473684    0.200000000000    0.000000000000       4
    0.333333333333    0.200000000000    0.000000000000       4
    0.350877192982    0.200000000000    0.000000000000       4
    0.368421052632    0.200000000000    0.000000000000       4
    0.385964912281    0.200000000000    0.000000000000       4
    0.403508771930    0.200000000000    0.000000000000       4
    0.421052631579    0.200000000000    0.000000000000       4
    0.438596491228    0.200000000000    0.000000000000       4
    0.456140350877    0.200000000000    0.000000000000       4
    0.473684210526    0.200000000000    0.000000000000       4
    0.491228070175    0.200000000000    0.000000000000       4
    0.000000000000    0.250000000000    0.000000000000       2
    0.017543859649    0.250000000000    0.000000000000       4
    0.035087719298    0.250000000000    0.000000000000       4
    0.052631578947    0.250000000000    0.000000000000       4
    0.070175438596    0.250000000000    0.000000000000       4
    0.087719298246    0.250000000000    0.000000000000       4
    0.105263157895    0.250000000000    0.000000000000       4
    0.122807017544    0.250000000000    0.000000000000       4
    0.140350877193    0.250000000000    0.000000000000       4
    0.157894736842    0.250000000000    0.000000000000       4
    0.175438596491    0.250000000000    0.000000000000       4
    0.192982456140    0.250000000000    0.000000000000       4
    0.210526315789    0.250000000000    0.000000000000       4
    0.228070175439    0.250000000000    0.000000000000       4
    0.245614035088    0.250000000000    0.000000000000       4
    0.263157894737    0.250000000000    0.000000000000       4
    0.280701754386    0.250000000000    0.000000000000       4
    0.298245614035    0.250000000000    0.000000000000       4
    0.315789473684    0.250000000000    0.000000000000       4
    0.333333333333    0.250000000000    0.000000000000       4
    0.350877192982    0.250000000000    0.000000000000       4
    0.368421052632    0.250000000000    0.000000000000       4
    0.385964912281    0.250000000000    0.000000000000       4
    0.403508771930    0.250000000000    0.000000000000       4
    0.421052631579    0.250000000000    0.000000000000       4
    0.438596491228    0.250000000000    0.000000000000       4
    0.456140350877    0.250000000000    0.000000000000       4
    0.473684210526    0.250000000000    0.000000000000       4
    0.491228070175    0.250000000000    0.000000000000       4
    0.000000000000    0.300000000000    0.000000000000       2
    0.017543859649    0.300000000000    0.000000000000       4
    0.035087719298    0.300000000000    0.000000000000       4
    0.052631578947    0.300000000000    0.000000000000       4
    0.070175438596    0.300000000000    0.000000000000       4
    0.087719298246    0.300000000000    0.000000000000       4
    0.105263157895    0.300000000000    0.000000000000       4
    0.122807017544    0.300000000000    0.000000000000       4
    0.140350877193    0.300000000000    0.000000000000       4
    0.157894736842    0.300000000000    0.000000000000       4
    0.175438596491    0.300000000000    0.000000000000       4
    0.192982456140    0.300000000000    0.000000000000       4
    0.210526315789    0.300000000000    0.000000000000       4
    0.228070175439    0.300000000000    0.000000000000       4
    0.245614035088    0.300000000000    0.000000000000       4
    0.263157894737    0.300000000000    0.000000000000       4
    0.280701754386    0.300000000000    0.000000000000       4
    0.298245614035    0.300000000000    0.000000000000       4
    0.315789473684    0.300000000000    0.000000000000       4
    0.333333333333    0.300000000000    0.000000000000       4
    0.350877192982    0.300000000000    0.000000000000       4
    0.368421052632    0.300000000000    0.000000000000       4
    0.385964912281    0.300000000000    0.000000000000       4
    0.403508771930    0.300000000000    0.000000000000       4
    0.421052631579    0.300000000000    0.000000000000       4
    0.438596491228    0.300000000000    0.000000000000       4
    0.456140350877    0.300000000000    0.000000000000       4
    0.473684210526    0.300000000000    0.000000000000       4
    0.491228070175    0.300000000000    0.000000000000       4
    0.000000000000    0.350000000000    0.000000000000       2
    0.017543859649    0.350000000000    0.000000000000       4
    0.035087719298    0.350000000000    0.000000000000       4
    0.052631578947    0.350000000000    0.000000000000       4
    0.070175438596    0.350000000000    0.000000000000       4
    0.087719298246    0.350000000000    0.000000000000       4
    0.105263157895    0.350000000000    0.000000000000       4
    0.122807017544    0.350000000000    0.000000000000       4
    0.140350877193    0.350000000000    0.000000000000       4
    0.157894736842    0.350000000000    0.000000000000       4
    0.175438596491    0.350000000000    0.000000000000       4
    0.192982456140    0.350000000000    0.000000000000       4
    0.210526315789    0.350000000000    0.000000000000       4
    0.228070175439    0.350000000000    0.000000000000       4
    0.245614035088    0.350000000000    0.000000000000       4
    0.263157894737    0.350000000000    0.000000000000       4
    0.280701754386    0.350000000000    0.000000000000       4
    0.298245614035    0.350000000000    0.000000000000       4
    0.315789473684    0.350000000000    0.000000000000       4
    0.333333333333    0.350000000000    0.000000000000       4
    0.350877192982    0.350000000000    0.000000000000       4
    0.368421052632    0.350000000000    0.000000000000       4
    0.385964912281    0.350000000000    0.000000000000       4
    0.403508771930    0.350000000000    0.000000000000       4
    0.421052631579    0.350000000000    0.000000000000       4
    0.438596491228    0.350000000000    0.000000000000       4
    0.456140350877    0.350000000000    0.000000000000       4
    0.473684210526    0.350000000000    0.000000000000       4
    0.491228070175    0.350000000000    0.000000000000       4
    0.000000000000    0.400000000000    0.000000000000       2
    0.017543859649    0.400000000000    0.000000000000       4
    0.035087719298    0.400000000000    0.000000000000       4
    0.052631578947    0.400000000000    0.000000000000       4
    0.070175438596    0.400000000000    0.000000000000       4
    0.087719298246    0.400000000000    0.000000000000       4
    0.105263157895    0.400000000000    0.000000000000       4
    0.122807017544    0.400000000000    0.000000000000       4
    0.140350877193    0.400000000000    0.000000000000       4
    0.157894736842    0.400000000000    0.000000000000       4
    0.175438596491    0.400000000000    0.000000000000       4
    0.192982456140    0.400000000000    0.000000000000       4
    0.210526315789    0.400000000000    0.000000000000       4
    0.228070175439    0.400000000000    0.000000000000       4
    0.245614035088    0.400000000000    0.000000000000       4
    0.263157894737    0.400000000000    0.000000000000       4
    0.280701754386    0.400000000000    0.000000000000       4
    0.298245614035    0.400000000000    0.000000000000       4
    0.315789473684    0.400000000000    0.000000000000       4
    0.333333333333    0.400000000000    0.000000000000       4
    0.350877192982    0.400000000000    0.000000000000       4
    0.368421052632    0.400000000000    0.000000000000       4
    0.385964912281    0.400000000000    0.000000000000       4
    0.403508771930    0.400000000000    0.000000000000       4
    0.421052631579    0.400000000000    0.000000000000       4
    0.438596491228    0.400000000000    0.000000000000       4
    0.456140350877    0.400000000000    0.000000000000       4
    0.473684210526    0.400000000000    0.000000000000       4
    0.491228070175    0.400000000000    0.000000000000       4
    0.000000000000    0.450000000000    0.000000000000       2
    0.017543859649    0.450000000000    0.000000000000       4
    0.035087719298    0.450000000000    0.000000000000       4
    0.052631578947    0.450000000000    0.000000000000       4
    0.070175438596    0.450000000000    0.000000000000       4
    0.087719298246    0.450000000000    0.000000000000       4
    0.105263157895    0.450000000000    0.000000000000       4
    0.122807017544    0.450000000000    0.000000000000       4
    0.140350877193    0.450000000000    0.000000000000       4
    0.157894736842    0.450000000000    0.000000000000       4
    0.175438596491    0.450000000000    0.000000000000       4
    0.192982456140    0.450000000000    0.000000000000       4
    0.210526315789    0.450000000000    0.000000000000       4
    0.228070175439    0.450000000000    0.000000000000       4
    0.245614035088    0.450000000000    0.000000000000       4
    0.263157894737    0.450000000000    0.000000000000       4
    0.280701754386    0.450000000000    0.000000000000       4
    0.298245614035    0.450000000000    0.000000000000       4
    0.315789473684    0.450000000000    0.000000000000       4
    0.333333333333    0.450000000000    0.000000000000       4
    0.350877192982    0.450000000000    0.000000000000       4
    0.368421052632    0.450000000000    0.000000000000       4
    0.385964912281    0.450000000000    0.000000000000       4
    0.403508771930    0.450000000000    0.000000000000       4
    0.421052631579    0.450000000000    0.000000000000       4
    0.438596491228    0.450000000000    0.000000000000       4
    0.456140350877    0.450000000000    0.000000000000       4
    0.473684210526    0.450000000000    0.000000000000       4
    0.491228070175    0.450000000000    0.000000000000       4
    0.000000000000    0.500000000000    0.000000000000       1
    0.017543859649    0.500000000000    0.000000000000       2
    0.035087719298    0.500000000000    0.000000000000       2
    0.052631578947    0.500000000000    0.000000000000       2
    0.070175438596    0.500000000000    0.000000000000       2
    0.087719298246    0.500000000000    0.000000000000       2
    0.105263157895    0.500000000000    0.000000000000       2
    0.122807017544    0.500000000000    0.000000000000       2
    0.140350877193    0.500000000000    0.000000000000       2
    0.157894736842    0.500000000000    0.000000000000       2
    0.175438596491    0.500000000000    0.000000000000       2
    0.192982456140    0.500000000000    0.000000000000       2
    0.210526315789    0.500000000000    0.000000000000       2
    0.228070175439    0.500000000000    0.000000000000       2
    0.245614035088    0.500000000000    0.000000000000       2
    0.263157894737    0.500000000000    0.000000000000       2
    0.280701754386    0.500000000000    0.000000000000       2
    0.298245614035    0.500000000000    0.000000000000       2
    0.315789473684    0.500000000000    0.000000000000       2
    0.333333333333    0.500000000000    0.000000000000       2
    0.350877192982    0.500000000000    0.000000000000       2
    0.368421052632    0.500000000000    0.000000000000       2
    0.385964912281    0.500000000000    0.000000000000       2
    0.403508771930    0.500000000000    0.000000000000       2
    0.421052631579    0.500000000000    0.000000000000       2
    0.438596491228    0.500000000000    0.000000000000       2
    0.456140350877    0.500000000000    0.000000000000       2
    0.473684210526    0.500000000000    0.000000000000       2
    0.491228070175    0.500000000000    0.000000000000       2
