CONTCAR\(11)                            
   1.00000000000000     
    15.5289001464999998    0.0000000000000000    0.0000000000000000
     0.0000000000000000   11.7992000580000003    0.0000000000000000
     0.0000000000000000    0.0000000000000000   21.8141002654999987
   Hf   Te   O    H 
    16    48     2     1
Direct
  0.1853677367581170  0.3286986087604333  0.4227749090503679
  0.0597672922887895  0.0785051387112077  0.5760257219142559
  0.4356462954136546  0.3291954818496450  0.4222429929862273
  0.3109283631732467  0.0788923703975613  0.5759850360755010
  0.6852130759586785  0.3296000462404152  0.4220186955487932
  0.5617589892778696  0.0801610598644018  0.5773061460864568
  0.9348569910533584  0.3285133545306351  0.4224545099199517
  0.8084609073765137  0.0796863622624713  0.5775194820645169
  0.1853014606091747  0.8287604120394221  0.4227586234837446
  0.0603945427747092  0.5787055708449458  0.5762232125412723
  0.4349548087549238  0.8294003639921286  0.4217928705358318
  0.3112340171690349  0.5791782732533264  0.5760391727736547
  0.6849200656462386  0.8288659382749515  0.4216385407148522
  0.5607503450380520  0.5783699478203204  0.5747831115343089
  0.9350416135417490  0.8285424665586447  0.4226844544432993
  0.8111700258434666  0.5775330014120357  0.5755936388627916
  0.1853448130862887  0.0790110522535983  0.4753277994527991
  0.0600589212814313  0.3286711818441077  0.5236089377616153
  0.1859399926924254  0.4581073102091295  0.6536005423404845
  0.0600661080569296  0.4487052749483027  0.3445531320910078
  0.1851518009493276  0.1979439085280177  0.6547920251606101
  0.0603974305008137  0.2086148461501978  0.3442849155332226
  0.4363764409337136  0.0794173819407291  0.4753030562947345
  0.3108060533028478  0.3289933866917494  0.5234836680308277
  0.4353702761784461  0.4579439927138296  0.6534589659229795
  0.3095279774275426  0.4499874199410456  0.3451097121124818
  0.4354266354814200  0.1986157575062251  0.6553639242281761
  0.3107115385914057  0.2098656371812027  0.3433300376395962
  0.6851942333326519  0.0789686220140240  0.4751204030807585
  0.5607599150210731  0.3296362114273705  0.5231459137525150
  0.6844763305889572  0.4692114288904534  0.6567272786265477
  0.5595648424083919  0.4482449379177424  0.3428327530900503
  0.6851951398569582  0.2081380667385986  0.6512017426496612
  0.5605948056566916  0.2080391601658036  0.3445691126227288
  0.9339687857293342  0.0784999651095859  0.4755958509133791
  0.8098538950162606  0.3292997110111031  0.5233581766965898
  0.9359532709402671  0.4595066730309796  0.6557234251841848
  0.8097907992307753  0.4472561846570926  0.3426779857781526
  0.9349448324722971  0.1996009162341394  0.6538091655090099
  0.8104192220761917  0.2070914510341737  0.3450474094590774
  0.1855424795911347  0.5788282037154460  0.4753562528342670
  0.0601196765869219  0.8286199447645188  0.5236169106062363
  0.1855904037044525  0.9580731829066735  0.6534729830766182
  0.0597317561453394  0.9489168966945343  0.3448300930975776
  0.1858906834389629  0.6980696669481077  0.6553971390764275
  0.0604125567349314  0.7088088627482492  0.3442781017335221
  0.4345312729542385  0.5791187765563635  0.4744291225627464
  0.3107311110244240  0.8287594174669906  0.5234490434723611
  0.4354808095558838  0.9582410261731340  0.6538111498045254
  0.3092537561474771  0.9503081576742005  0.3449900486598381
  0.4378439836345791  0.6988174616412977  0.6556292972673958
  0.3101014541137559  0.7100619975168456  0.3428402480771453
  0.6859465770831932  0.5787682892670745  0.4735673975821868
  0.5595620089967568  0.8307657514259361  0.5222218655731368
  0.6846376205454305  0.9657393911852665  0.6598514610481061
  0.5591816116525905  0.9485758550659469  0.3425324502026896
  0.6840605016578678  0.7136498655901420  0.6400144744315241
  0.5603192585691446  0.7081549021537654  0.3444650246408827
  0.9362153963620159  0.5775885596406880  0.4749612477170615
  0.8095057751403303  0.8303089716975123  0.5231612520559850
  0.9350740175094217  0.9596771905950661  0.6556572013774016
  0.8097699257626658  0.9475764656637153  0.3426774862494923
  0.9344254059338368  0.6994030014396131  0.6537106875053809
  0.8107785335830684  0.7072457036118465  0.3453718959491852
  0.6549771592550826  0.7243959499295372  0.7391044021194730
  0.6232381604636572  0.6242173824715707  0.7682394166631639
  0.5609775223628262  0.6281602715041856  0.7594255791486475
 
  0.00000000E+00  0.00000000E+00  0.00000000E+00
  0.00000000E+00  0.00000000E+00  0.00000000E+00
  0.00000000E+00  0.00000000E+00  0.00000000E+00
  0.00000000E+00  0.00000000E+00  0.00000000E+00
  0.00000000E+00  0.00000000E+00  0.00000000E+00
  0.00000000E+00  0.00000000E+00  0.00000000E+00
  0.00000000E+00  0.00000000E+00  0.00000000E+00
  0.00000000E+00  0.00000000E+00  0.00000000E+00
  0.00000000E+00  0.00000000E+00  0.00000000E+00
  0.00000000E+00  0.00000000E+00  0.00000000E+00
  0.00000000E+00  0.00000000E+00  0.00000000E+00
  0.00000000E+00  0.00000000E+00  0.00000000E+00
  0.00000000E+00  0.00000000E+00  0.00000000E+00
  0.00000000E+00  0.00000000E+00  0.00000000E+00
  0.00000000E+00  0.00000000E+00  0.00000000E+00
  0.00000000E+00  0.00000000E+00  0.00000000E+00
  0.00000000E+00  0.00000000E+00  0.00000000E+00
  0.00000000E+00  0.00000000E+00  0.00000000E+00
  0.00000000E+00  0.00000000E+00  0.00000000E+00
  0.00000000E+00  0.00000000E+00  0.00000000E+00
  0.00000000E+00  0.00000000E+00  0.00000000E+00
  0.00000000E+00  0.00000000E+00  0.00000000E+00
  0.00000000E+00  0.00000000E+00  0.00000000E+00
  0.00000000E+00  0.00000000E+00  0.00000000E+00
  0.00000000E+00  0.00000000E+00  0.00000000E+00
  0.00000000E+00  0.00000000E+00  0.00000000E+00
  0.00000000E+00  0.00000000E+00  0.00000000E+00
  0.00000000E+00  0.00000000E+00  0.00000000E+00
  0.00000000E+00  0.00000000E+00  0.00000000E+00
  0.00000000E+00  0.00000000E+00  0.00000000E+00
  0.00000000E+00  0.00000000E+00  0.00000000E+00
  0.00000000E+00  0.00000000E+00  0.00000000E+00
  0.00000000E+00  0.00000000E+00  0.00000000E+00
  0.00000000E+00  0.00000000E+00  0.00000000E+00
  0.00000000E+00  0.00000000E+00  0.00000000E+00
  0.00000000E+00  0.00000000E+00  0.00000000E+00
  0.00000000E+00  0.00000000E+00  0.00000000E+00
  0.00000000E+00  0.00000000E+00  0.00000000E+00
  0.00000000E+00  0.00000000E+00  0.00000000E+00
  0.00000000E+00  0.00000000E+00  0.00000000E+00
  0.00000000E+00  0.00000000E+00  0.00000000E+00
  0.00000000E+00  0.00000000E+00  0.00000000E+00
  0.00000000E+00  0.00000000E+00  0.00000000E+00
  0.00000000E+00  0.00000000E+00  0.00000000E+00
  0.00000000E+00  0.00000000E+00  0.00000000E+00
  0.00000000E+00  0.00000000E+00  0.00000000E+00
  0.00000000E+00  0.00000000E+00  0.00000000E+00
  0.00000000E+00  0.00000000E+00  0.00000000E+00
  0.00000000E+00  0.00000000E+00  0.00000000E+00
  0.00000000E+00  0.00000000E+00  0.00000000E+00
  0.00000000E+00  0.00000000E+00  0.00000000E+00
  0.00000000E+00  0.00000000E+00  0.00000000E+00
  0.00000000E+00  0.00000000E+00  0.00000000E+00
  0.00000000E+00  0.00000000E+00  0.00000000E+00
  0.00000000E+00  0.00000000E+00  0.00000000E+00
  0.00000000E+00  0.00000000E+00  0.00000000E+00
  0.00000000E+00  0.00000000E+00  0.00000000E+00
  0.00000000E+00  0.00000000E+00  0.00000000E+00
  0.00000000E+00  0.00000000E+00  0.00000000E+00
  0.00000000E+00  0.00000000E+00  0.00000000E+00
  0.00000000E+00  0.00000000E+00  0.00000000E+00
  0.00000000E+00  0.00000000E+00  0.00000000E+00
  0.00000000E+00  0.00000000E+00  0.00000000E+00
  0.00000000E+00  0.00000000E+00  0.00000000E+00
  0.00000000E+00  0.00000000E+00  0.00000000E+00
  0.00000000E+00  0.00000000E+00  0.00000000E+00
  0.00000000E+00  0.00000000E+00  0.00000000E+00
