 Ta2 Pd1 Se6                            
   1.00000000000000     
     3.3738568027247493    0.0000000000000000    0.0000000000000000
    -1.6869284013623747    9.5108173273381347    0.0000000000000000
     0.0000000000000000    0.0000000000000000   18.9101216524300000
   Ta   Pd   Se
     2     1     6
Direct
  0.3518727928873292  0.7035814284228790  0.5237513018000589
  0.6481272166099284  0.2964185720336339  0.4762486988714430
  0.0000000119479226  0.0000000004015950  0.5000000002809551
  0.9206882830007055  0.8410836169390259  0.6035902981732089
  0.0793117207927722  0.1589163830117937  0.3964097013037177
  0.2429753538541260  0.4861288898042624  0.4272452397230498
  0.8933373708953364  0.7861151328698358  0.4259850462837461
  0.1066626178919371  0.2138848675518439  0.5740149529692525
  0.7570246321199425  0.5138711089651302  0.5727547605945680
 
  0.00000000E+00  0.00000000E+00  0.00000000E+00
  0.00000000E+00  0.00000000E+00  0.00000000E+00
  0.00000000E+00  0.00000000E+00  0.00000000E+00
  0.00000000E+00  0.00000000E+00  0.00000000E+00
  0.00000000E+00  0.00000000E+00  0.00000000E+00
  0.00000000E+00  0.00000000E+00  0.00000000E+00
  0.00000000E+00  0.00000000E+00  0.00000000E+00
  0.00000000E+00  0.00000000E+00  0.00000000E+00
  0.00000000E+00  0.00000000E+00  0.00000000E+00
