G   58   32    1    0.005     # Parameters to Generate KPOINTS (Don't Edit This Line)
     510
Reciprocal lattice
    0.000000000000    0.000000000000    0.000000000000       1
    0.017241379310    0.000000000000    0.000000000000       2
    0.034482758621    0.000000000000    0.000000000000       2
    0.051724137931    0.000000000000    0.000000000000       2
    0.068965517241    0.000000000000    0.000000000000       2
    0.086206896552    0.000000000000    0.000000000000       2
    0.103448275862    0.000000000000    0.000000000000       2
    0.120689655172    0.000000000000    0.000000000000       2
    0.137931034483    0.000000000000    0.000000000000       2
    0.155172413793    0.000000000000    0.000000000000       2
    0.172413793103    0.000000000000    0.000000000000       2
    0.189655172414    0.000000000000    0.000000000000       2
    0.206896551724    0.000000000000    0.000000000000       2
    0.224137931034    0.000000000000    0.000000000000       2
    0.241379310345    0.000000000000    0.000000000000       2
    0.258620689655    0.000000000000    0.000000000000       2
    0.275862068966    0.000000000000    0.000000000000       2
    0.293103448276    0.000000000000    0.000000000000       2
    0.310344827586    0.000000000000    0.000000000000       2
    0.327586206897    0.000000000000    0.000000000000       2
    0.344827586207    0.000000000000    0.000000000000       2
    0.362068965517    0.000000000000    0.000000000000       2
    0.379310344828    0.000000000000    0.000000000000       2
    0.396551724138    0.000000000000    0.000000000000       2
    0.413793103448    0.000000000000    0.000000000000       2
    0.431034482759    0.000000000000    0.000000000000       2
    0.448275862069    0.000000000000    0.000000000000       2
    0.465517241379    0.000000000000    0.000000000000       2
    0.482758620690    0.000000000000    0.000000000000       2
    0.500000000000    0.000000000000    0.000000000000       1
    0.000000000000    0.031250000000    0.000000000000       2
    0.017241379310    0.031250000000    0.000000000000       4
    0.034482758621    0.031250000000    0.000000000000       4
    0.051724137931    0.031250000000    0.000000000000       4
    0.068965517241    0.031250000000    0.000000000000       4
    0.086206896552    0.031250000000    0.000000000000       4
    0.103448275862    0.031250000000    0.000000000000       4
    0.120689655172    0.031250000000    0.000000000000       4
    0.137931034483    0.031250000000    0.000000000000       4
    0.155172413793    0.031250000000    0.000000000000       4
    0.172413793103    0.031250000000    0.000000000000       4
    0.189655172414    0.031250000000    0.000000000000       4
    0.206896551724    0.031250000000    0.000000000000       4
    0.224137931034    0.031250000000    0.000000000000       4
    0.241379310345    0.031250000000    0.000000000000       4
    0.258620689655    0.031250000000    0.000000000000       4
    0.275862068966    0.031250000000    0.000000000000       4
    0.293103448276    0.031250000000    0.000000000000       4
    0.310344827586    0.031250000000    0.000000000000       4
    0.327586206897    0.031250000000    0.000000000000       4
    0.344827586207    0.031250000000    0.000000000000       4
    0.362068965517    0.031250000000    0.000000000000       4
    0.379310344828    0.031250000000    0.000000000000       4
    0.396551724138    0.031250000000    0.000000000000       4
    0.413793103448    0.031250000000    0.000000000000       4
    0.431034482759    0.031250000000    0.000000000000       4
    0.448275862069    0.031250000000    0.000000000000       4
    0.465517241379    0.031250000000    0.000000000000       4
    0.482758620690    0.031250000000    0.000000000000       4
    0.500000000000    0.031250000000    0.000000000000       2
    0.000000000000    0.062500000000    0.000000000000       2
    0.017241379310    0.062500000000    0.000000000000       4
    0.034482758621    0.062500000000    0.000000000000       4
    0.051724137931    0.062500000000    0.000000000000       4
    0.068965517241    0.062500000000    0.000000000000       4
    0.086206896552    0.062500000000    0.000000000000       4
    0.103448275862    0.062500000000    0.000000000000       4
    0.120689655172    0.062500000000    0.000000000000       4
    0.137931034483    0.062500000000    0.000000000000       4
    0.155172413793    0.062500000000    0.000000000000       4
    0.172413793103    0.062500000000    0.000000000000       4
    0.189655172414    0.062500000000    0.000000000000       4
    0.206896551724    0.062500000000    0.000000000000       4
    0.224137931034    0.062500000000    0.000000000000       4
    0.241379310345    0.062500000000    0.000000000000       4
    0.258620689655    0.062500000000    0.000000000000       4
    0.275862068966    0.062500000000    0.000000000000       4
    0.293103448276    0.062500000000    0.000000000000       4
    0.310344827586    0.062500000000    0.000000000000       4
    0.327586206897    0.062500000000    0.000000000000       4
    0.344827586207    0.062500000000    0.000000000000       4
    0.362068965517    0.062500000000    0.000000000000       4
    0.379310344828    0.062500000000    0.000000000000       4
    0.396551724138    0.062500000000    0.000000000000       4
    0.413793103448    0.062500000000    0.000000000000       4
    0.431034482759    0.062500000000    0.000000000000       4
    0.448275862069    0.062500000000    0.000000000000       4
    0.465517241379    0.062500000000    0.000000000000       4
    0.482758620690    0.062500000000    0.000000000000       4
    0.500000000000    0.062500000000    0.000000000000       2
    0.000000000000    0.093750000000    0.000000000000       2
    0.017241379310    0.093750000000    0.000000000000       4
    0.034482758621    0.093750000000    0.000000000000       4
    0.051724137931    0.093750000000    0.000000000000       4
    0.068965517241    0.093750000000    0.000000000000       4
    0.086206896552    0.093750000000    0.000000000000       4
    0.103448275862    0.093750000000    0.000000000000       4
    0.120689655172    0.093750000000    0.000000000000       4
    0.137931034483    0.093750000000    0.000000000000       4
    0.155172413793    0.093750000000    0.000000000000       4
    0.172413793103    0.093750000000    0.000000000000       4
    0.189655172414    0.093750000000    0.000000000000       4
    0.206896551724    0.093750000000    0.000000000000       4
    0.224137931034    0.093750000000    0.000000000000       4
    0.241379310345    0.093750000000    0.000000000000       4
    0.258620689655    0.093750000000    0.000000000000       4
    0.275862068966    0.093750000000    0.000000000000       4
    0.293103448276    0.093750000000    0.000000000000       4
    0.310344827586    0.093750000000    0.000000000000       4
    0.327586206897    0.093750000000    0.000000000000       4
    0.344827586207    0.093750000000    0.000000000000       4
    0.362068965517    0.093750000000    0.000000000000       4
    0.379310344828    0.093750000000    0.000000000000       4
    0.396551724138    0.093750000000    0.000000000000       4
    0.413793103448    0.093750000000    0.000000000000       4
    0.431034482759    0.093750000000    0.000000000000       4
    0.448275862069    0.093750000000    0.000000000000       4
    0.465517241379    0.093750000000    0.000000000000       4
    0.482758620690    0.093750000000    0.000000000000       4
    0.500000000000    0.093750000000    0.000000000000       2
    0.000000000000    0.125000000000    0.000000000000       2
    0.017241379310    0.125000000000    0.000000000000       4
    0.034482758621    0.125000000000    0.000000000000       4
    0.051724137931    0.125000000000    0.000000000000       4
    0.068965517241    0.125000000000    0.000000000000       4
    0.086206896552    0.125000000000    0.000000000000       4
    0.103448275862    0.125000000000    0.000000000000       4
    0.120689655172    0.125000000000    0.000000000000       4
    0.137931034483    0.125000000000    0.000000000000       4
    0.155172413793    0.125000000000    0.000000000000       4
    0.172413793103    0.125000000000    0.000000000000       4
    0.189655172414    0.125000000000    0.000000000000       4
    0.206896551724    0.125000000000    0.000000000000       4
    0.224137931034    0.125000000000    0.000000000000       4
    0.241379310345    0.125000000000    0.000000000000       4
    0.258620689655    0.125000000000    0.000000000000       4
    0.275862068966    0.125000000000    0.000000000000       4
    0.293103448276    0.125000000000    0.000000000000       4
    0.310344827586    0.125000000000    0.000000000000       4
    0.327586206897    0.125000000000    0.000000000000       4
    0.344827586207    0.125000000000    0.000000000000       4
    0.362068965517    0.125000000000    0.000000000000       4
    0.379310344828    0.125000000000    0.000000000000       4
    0.396551724138    0.125000000000    0.000000000000       4
    0.413793103448    0.125000000000    0.000000000000       4
    0.431034482759    0.125000000000    0.000000000000       4
    0.448275862069    0.125000000000    0.000000000000       4
    0.465517241379    0.125000000000    0.000000000000       4
    0.482758620690    0.125000000000    0.000000000000       4
    0.500000000000    0.125000000000    0.000000000000       2
    0.000000000000    0.156250000000    0.000000000000       2
    0.017241379310    0.156250000000    0.000000000000       4
    0.034482758621    0.156250000000    0.000000000000       4
    0.051724137931    0.156250000000    0.000000000000       4
    0.068965517241    0.156250000000    0.000000000000       4
    0.086206896552    0.156250000000    0.000000000000       4
    0.103448275862    0.156250000000    0.000000000000       4
    0.120689655172    0.156250000000    0.000000000000       4
    0.137931034483    0.156250000000    0.000000000000       4
    0.155172413793    0.156250000000    0.000000000000       4
    0.172413793103    0.156250000000    0.000000000000       4
    0.189655172414    0.156250000000    0.000000000000       4
    0.206896551724    0.156250000000    0.000000000000       4
    0.224137931034    0.156250000000    0.000000000000       4
    0.241379310345    0.156250000000    0.000000000000       4
    0.258620689655    0.156250000000    0.000000000000       4
    0.275862068966    0.156250000000    0.000000000000       4
    0.293103448276    0.156250000000    0.000000000000       4
    0.310344827586    0.156250000000    0.000000000000       4
    0.327586206897    0.156250000000    0.000000000000       4
    0.344827586207    0.156250000000    0.000000000000       4
    0.362068965517    0.156250000000    0.000000000000       4
    0.379310344828    0.156250000000    0.000000000000       4
    0.396551724138    0.156250000000    0.000000000000       4
    0.413793103448    0.156250000000    0.000000000000       4
    0.431034482759    0.156250000000    0.000000000000       4
    0.448275862069    0.156250000000    0.000000000000       4
    0.465517241379    0.156250000000    0.000000000000       4
    0.482758620690    0.156250000000    0.000000000000       4
    0.500000000000    0.156250000000    0.000000000000       2
    0.000000000000    0.187500000000    0.000000000000       2
    0.017241379310    0.187500000000    0.000000000000       4
    0.034482758621    0.187500000000    0.000000000000       4
    0.051724137931    0.187500000000    0.000000000000       4
    0.068965517241    0.187500000000    0.000000000000       4
    0.086206896552    0.187500000000    0.000000000000       4
    0.103448275862    0.187500000000    0.000000000000       4
    0.120689655172    0.187500000000    0.000000000000       4
    0.137931034483    0.187500000000    0.000000000000       4
    0.155172413793    0.187500000000    0.000000000000       4
    0.172413793103    0.187500000000    0.000000000000       4
    0.189655172414    0.187500000000    0.000000000000       4
    0.206896551724    0.187500000000    0.000000000000       4
    0.224137931034    0.187500000000    0.000000000000       4
    0.241379310345    0.187500000000    0.000000000000       4
    0.258620689655    0.187500000000    0.000000000000       4
    0.275862068966    0.187500000000    0.000000000000       4
    0.293103448276    0.187500000000    0.000000000000       4
    0.310344827586    0.187500000000    0.000000000000       4
    0.327586206897    0.187500000000    0.000000000000       4
    0.344827586207    0.187500000000    0.000000000000       4
    0.362068965517    0.187500000000    0.000000000000       4
    0.379310344828    0.187500000000    0.000000000000       4
    0.396551724138    0.187500000000    0.000000000000       4
    0.413793103448    0.187500000000    0.000000000000       4
    0.431034482759    0.187500000000    0.000000000000       4
    0.448275862069    0.187500000000    0.000000000000       4
    0.465517241379    0.187500000000    0.000000000000       4
    0.482758620690    0.187500000000    0.000000000000       4
    0.500000000000    0.187500000000    0.000000000000       2
    0.000000000000    0.218750000000    0.000000000000       2
    0.017241379310    0.218750000000    0.000000000000       4
    0.034482758621    0.218750000000    0.000000000000       4
    0.051724137931    0.218750000000    0.000000000000       4
    0.068965517241    0.218750000000    0.000000000000       4
    0.086206896552    0.218750000000    0.000000000000       4
    0.103448275862    0.218750000000    0.000000000000       4
    0.120689655172    0.218750000000    0.000000000000       4
    0.137931034483    0.218750000000    0.000000000000       4
    0.155172413793    0.218750000000    0.000000000000       4
    0.172413793103    0.218750000000    0.000000000000       4
    0.189655172414    0.218750000000    0.000000000000       4
    0.206896551724    0.218750000000    0.000000000000       4
    0.224137931034    0.218750000000    0.000000000000       4
    0.241379310345    0.218750000000    0.000000000000       4
    0.258620689655    0.218750000000    0.000000000000       4
    0.275862068966    0.218750000000    0.000000000000       4
    0.293103448276    0.218750000000    0.000000000000       4
    0.310344827586    0.218750000000    0.000000000000       4
    0.327586206897    0.218750000000    0.000000000000       4
    0.344827586207    0.218750000000    0.000000000000       4
    0.362068965517    0.218750000000    0.000000000000       4
    0.379310344828    0.218750000000    0.000000000000       4
    0.396551724138    0.218750000000    0.000000000000       4
    0.413793103448    0.218750000000    0.000000000000       4
    0.431034482759    0.218750000000    0.000000000000       4
    0.448275862069    0.218750000000    0.000000000000       4
    0.465517241379    0.218750000000    0.000000000000       4
    0.482758620690    0.218750000000    0.000000000000       4
    0.500000000000    0.218750000000    0.000000000000       2
    0.000000000000    0.250000000000    0.000000000000       2
    0.017241379310    0.250000000000    0.000000000000       4
    0.034482758621    0.250000000000    0.000000000000       4
    0.051724137931    0.250000000000    0.000000000000       4
    0.068965517241    0.250000000000    0.000000000000       4
    0.086206896552    0.250000000000    0.000000000000       4
    0.103448275862    0.250000000000    0.000000000000       4
    0.120689655172    0.250000000000    0.000000000000       4
    0.137931034483    0.250000000000    0.000000000000       4
    0.155172413793    0.250000000000    0.000000000000       4
    0.172413793103    0.250000000000    0.000000000000       4
    0.189655172414    0.250000000000    0.000000000000       4
    0.206896551724    0.250000000000    0.000000000000       4
    0.224137931034    0.250000000000    0.000000000000       4
    0.241379310345    0.250000000000    0.000000000000       4
    0.258620689655    0.250000000000    0.000000000000       4
    0.275862068966    0.250000000000    0.000000000000       4
    0.293103448276    0.250000000000    0.000000000000       4
    0.310344827586    0.250000000000    0.000000000000       4
    0.327586206897    0.250000000000    0.000000000000       4
    0.344827586207    0.250000000000    0.000000000000       4
    0.362068965517    0.250000000000    0.000000000000       4
    0.379310344828    0.250000000000    0.000000000000       4
    0.396551724138    0.250000000000    0.000000000000       4
    0.413793103448    0.250000000000    0.000000000000       4
    0.431034482759    0.250000000000    0.000000000000       4
    0.448275862069    0.250000000000    0.000000000000       4
    0.465517241379    0.250000000000    0.000000000000       4
    0.482758620690    0.250000000000    0.000000000000       4
    0.500000000000    0.250000000000    0.000000000000       2
    0.000000000000    0.281250000000    0.000000000000       2
    0.017241379310    0.281250000000    0.000000000000       4
    0.034482758621    0.281250000000    0.000000000000       4
    0.051724137931    0.281250000000    0.000000000000       4
    0.068965517241    0.281250000000    0.000000000000       4
    0.086206896552    0.281250000000    0.000000000000       4
    0.103448275862    0.281250000000    0.000000000000       4
    0.120689655172    0.281250000000    0.000000000000       4
    0.137931034483    0.281250000000    0.000000000000       4
    0.155172413793    0.281250000000    0.000000000000       4
    0.172413793103    0.281250000000    0.000000000000       4
    0.189655172414    0.281250000000    0.000000000000       4
    0.206896551724    0.281250000000    0.000000000000       4
    0.224137931034    0.281250000000    0.000000000000       4
    0.241379310345    0.281250000000    0.000000000000       4
    0.258620689655    0.281250000000    0.000000000000       4
    0.275862068966    0.281250000000    0.000000000000       4
    0.293103448276    0.281250000000    0.000000000000       4
    0.310344827586    0.281250000000    0.000000000000       4
    0.327586206897    0.281250000000    0.000000000000       4
    0.344827586207    0.281250000000    0.000000000000       4
    0.362068965517    0.281250000000    0.000000000000       4
    0.379310344828    0.281250000000    0.000000000000       4
    0.396551724138    0.281250000000    0.000000000000       4
    0.413793103448    0.281250000000    0.000000000000       4
    0.431034482759    0.281250000000    0.000000000000       4
    0.448275862069    0.281250000000    0.000000000000       4
    0.465517241379    0.281250000000    0.000000000000       4
    0.482758620690    0.281250000000    0.000000000000       4
    0.500000000000    0.281250000000    0.000000000000       2
    0.000000000000    0.312500000000    0.000000000000       2
    0.017241379310    0.312500000000    0.000000000000       4
    0.034482758621    0.312500000000    0.000000000000       4
    0.051724137931    0.312500000000    0.000000000000       4
    0.068965517241    0.312500000000    0.000000000000       4
    0.086206896552    0.312500000000    0.000000000000       4
    0.103448275862    0.312500000000    0.000000000000       4
    0.120689655172    0.312500000000    0.000000000000       4
    0.137931034483    0.312500000000    0.000000000000       4
    0.155172413793    0.312500000000    0.000000000000       4
    0.172413793103    0.312500000000    0.000000000000       4
    0.189655172414    0.312500000000    0.000000000000       4
    0.206896551724    0.312500000000    0.000000000000       4
    0.224137931034    0.312500000000    0.000000000000       4
    0.241379310345    0.312500000000    0.000000000000       4
    0.258620689655    0.312500000000    0.000000000000       4
    0.275862068966    0.312500000000    0.000000000000       4
    0.293103448276    0.312500000000    0.000000000000       4
    0.310344827586    0.312500000000    0.000000000000       4
    0.327586206897    0.312500000000    0.000000000000       4
    0.344827586207    0.312500000000    0.000000000000       4
    0.362068965517    0.312500000000    0.000000000000       4
    0.379310344828    0.312500000000    0.000000000000       4
    0.396551724138    0.312500000000    0.000000000000       4
    0.413793103448    0.312500000000    0.000000000000       4
    0.431034482759    0.312500000000    0.000000000000       4
    0.448275862069    0.312500000000    0.000000000000       4
    0.465517241379    0.312500000000    0.000000000000       4
    0.482758620690    0.312500000000    0.000000000000       4
    0.500000000000    0.312500000000    0.000000000000       2
    0.000000000000    0.343750000000    0.000000000000       2
    0.017241379310    0.343750000000    0.000000000000       4
    0.034482758621    0.343750000000    0.000000000000       4
    0.051724137931    0.343750000000    0.000000000000       4
    0.068965517241    0.343750000000    0.000000000000       4
    0.086206896552    0.343750000000    0.000000000000       4
    0.103448275862    0.343750000000    0.000000000000       4
    0.120689655172    0.343750000000    0.000000000000       4
    0.137931034483    0.343750000000    0.000000000000       4
    0.155172413793    0.343750000000    0.000000000000       4
    0.172413793103    0.343750000000    0.000000000000       4
    0.189655172414    0.343750000000    0.000000000000       4
    0.206896551724    0.343750000000    0.000000000000       4
    0.224137931034    0.343750000000    0.000000000000       4
    0.241379310345    0.343750000000    0.000000000000       4
    0.258620689655    0.343750000000    0.000000000000       4
    0.275862068966    0.343750000000    0.000000000000       4
    0.293103448276    0.343750000000    0.000000000000       4
    0.310344827586    0.343750000000    0.000000000000       4
    0.327586206897    0.343750000000    0.000000000000       4
    0.344827586207    0.343750000000    0.000000000000       4
    0.362068965517    0.343750000000    0.000000000000       4
    0.379310344828    0.343750000000    0.000000000000       4
    0.396551724138    0.343750000000    0.000000000000       4
    0.413793103448    0.343750000000    0.000000000000       4
    0.431034482759    0.343750000000    0.000000000000       4
    0.448275862069    0.343750000000    0.000000000000       4
    0.465517241379    0.343750000000    0.000000000000       4
    0.482758620690    0.343750000000    0.000000000000       4
    0.500000000000    0.343750000000    0.000000000000       2
    0.000000000000    0.375000000000    0.000000000000       2
    0.017241379310    0.375000000000    0.000000000000       4
    0.034482758621    0.375000000000    0.000000000000       4
    0.051724137931    0.375000000000    0.000000000000       4
    0.068965517241    0.375000000000    0.000000000000       4
    0.086206896552    0.375000000000    0.000000000000       4
    0.103448275862    0.375000000000    0.000000000000       4
    0.120689655172    0.375000000000    0.000000000000       4
    0.137931034483    0.375000000000    0.000000000000       4
    0.155172413793    0.375000000000    0.000000000000       4
    0.172413793103    0.375000000000    0.000000000000       4
    0.189655172414    0.375000000000    0.000000000000       4
    0.206896551724    0.375000000000    0.000000000000       4
    0.224137931034    0.375000000000    0.000000000000       4
    0.241379310345    0.375000000000    0.000000000000       4
    0.258620689655    0.375000000000    0.000000000000       4
    0.275862068966    0.375000000000    0.000000000000       4
    0.293103448276    0.375000000000    0.000000000000       4
    0.310344827586    0.375000000000    0.000000000000       4
    0.327586206897    0.375000000000    0.000000000000       4
    0.344827586207    0.375000000000    0.000000000000       4
    0.362068965517    0.375000000000    0.000000000000       4
    0.379310344828    0.375000000000    0.000000000000       4
    0.396551724138    0.375000000000    0.000000000000       4
    0.413793103448    0.375000000000    0.000000000000       4
    0.431034482759    0.375000000000    0.000000000000       4
    0.448275862069    0.375000000000    0.000000000000       4
    0.465517241379    0.375000000000    0.000000000000       4
    0.482758620690    0.375000000000    0.000000000000       4
    0.500000000000    0.375000000000    0.000000000000       2
    0.000000000000    0.406250000000    0.000000000000       2
    0.017241379310    0.406250000000    0.000000000000       4
    0.034482758621    0.406250000000    0.000000000000       4
    0.051724137931    0.406250000000    0.000000000000       4
    0.068965517241    0.406250000000    0.000000000000       4
    0.086206896552    0.406250000000    0.000000000000       4
    0.103448275862    0.406250000000    0.000000000000       4
    0.120689655172    0.406250000000    0.000000000000       4
    0.137931034483    0.406250000000    0.000000000000       4
    0.155172413793    0.406250000000    0.000000000000       4
    0.172413793103    0.406250000000    0.000000000000       4
    0.189655172414    0.406250000000    0.000000000000       4
    0.206896551724    0.406250000000    0.000000000000       4
    0.224137931034    0.406250000000    0.000000000000       4
    0.241379310345    0.406250000000    0.000000000000       4
    0.258620689655    0.406250000000    0.000000000000       4
    0.275862068966    0.406250000000    0.000000000000       4
    0.293103448276    0.406250000000    0.000000000000       4
    0.310344827586    0.406250000000    0.000000000000       4
    0.327586206897    0.406250000000    0.000000000000       4
    0.344827586207    0.406250000000    0.000000000000       4
    0.362068965517    0.406250000000    0.000000000000       4
    0.379310344828    0.406250000000    0.000000000000       4
    0.396551724138    0.406250000000    0.000000000000       4
    0.413793103448    0.406250000000    0.000000000000       4
    0.431034482759    0.406250000000    0.000000000000       4
    0.448275862069    0.406250000000    0.000000000000       4
    0.465517241379    0.406250000000    0.000000000000       4
    0.482758620690    0.406250000000    0.000000000000       4
    0.500000000000    0.406250000000    0.000000000000       2
    0.000000000000    0.437500000000    0.000000000000       2
    0.017241379310    0.437500000000    0.000000000000       4
    0.034482758621    0.437500000000    0.000000000000       4
    0.051724137931    0.437500000000    0.000000000000       4
    0.068965517241    0.437500000000    0.000000000000       4
    0.086206896552    0.437500000000    0.000000000000       4
    0.103448275862    0.437500000000    0.000000000000       4
    0.120689655172    0.437500000000    0.000000000000       4
    0.137931034483    0.437500000000    0.000000000000       4
    0.155172413793    0.437500000000    0.000000000000       4
    0.172413793103    0.437500000000    0.000000000000       4
    0.189655172414    0.437500000000    0.000000000000       4
    0.206896551724    0.437500000000    0.000000000000       4
    0.224137931034    0.437500000000    0.000000000000       4
    0.241379310345    0.437500000000    0.000000000000       4
    0.258620689655    0.437500000000    0.000000000000       4
    0.275862068966    0.437500000000    0.000000000000       4
    0.293103448276    0.437500000000    0.000000000000       4
    0.310344827586    0.437500000000    0.000000000000       4
    0.327586206897    0.437500000000    0.000000000000       4
    0.344827586207    0.437500000000    0.000000000000       4
    0.362068965517    0.437500000000    0.000000000000       4
    0.379310344828    0.437500000000    0.000000000000       4
    0.396551724138    0.437500000000    0.000000000000       4
    0.413793103448    0.437500000000    0.000000000000       4
    0.431034482759    0.437500000000    0.000000000000       4
    0.448275862069    0.437500000000    0.000000000000       4
    0.465517241379    0.437500000000    0.000000000000       4
    0.482758620690    0.437500000000    0.000000000000       4
    0.500000000000    0.437500000000    0.000000000000       2
    0.000000000000    0.468750000000    0.000000000000       2
    0.017241379310    0.468750000000    0.000000000000       4
    0.034482758621    0.468750000000    0.000000000000       4
    0.051724137931    0.468750000000    0.000000000000       4
    0.068965517241    0.468750000000    0.000000000000       4
    0.086206896552    0.468750000000    0.000000000000       4
    0.103448275862    0.468750000000    0.000000000000       4
    0.120689655172    0.468750000000    0.000000000000       4
    0.137931034483    0.468750000000    0.000000000000       4
    0.155172413793    0.468750000000    0.000000000000       4
    0.172413793103    0.468750000000    0.000000000000       4
    0.189655172414    0.468750000000    0.000000000000       4
    0.206896551724    0.468750000000    0.000000000000       4
    0.224137931034    0.468750000000    0.000000000000       4
    0.241379310345    0.468750000000    0.000000000000       4
    0.258620689655    0.468750000000    0.000000000000       4
    0.275862068966    0.468750000000    0.000000000000       4
    0.293103448276    0.468750000000    0.000000000000       4
    0.310344827586    0.468750000000    0.000000000000       4
    0.327586206897    0.468750000000    0.000000000000       4
    0.344827586207    0.468750000000    0.000000000000       4
    0.362068965517    0.468750000000    0.000000000000       4
    0.379310344828    0.468750000000    0.000000000000       4
    0.396551724138    0.468750000000    0.000000000000       4