CONTCAR                                 
   1.00000000000000     
    13.0951995849999996    0.0000000000000000    0.0000000000000000
     0.0000000000000000   17.1203994751000010    0.0000000000000000
     0.0000000000000000    0.0000000000000000   20.8015995025999985
   La   I    O 
    12    30     1
Direct
  0.2781341301291793  0.1444564709885615  0.5447552389029489
  0.0863941219387399  0.8445017743956267  0.4781333129922709
  0.2505936287695477  0.6100885321843311  0.5277028484014875
  0.0763679638809504  0.3437471175712413  0.4752524038305708
  0.5551958528708193  0.1444564709885615  0.5447552389029489
  0.4166699800000018  0.8389870247483304  0.4658780191225814
  0.5827363542304511  0.6100885321843311  0.5277028484014875
  0.4166699800000018  0.3286907703885754  0.4666752204771182
  0.9166700170000013  0.1169118106750969  0.5283517661377866
  0.7469358800612568  0.8445017743956267  0.4781333129922709
  0.9166700170000013  0.6170893002188707  0.5298725238564799
  0.7569620381190462  0.3437471175712413  0.4752524038305708
  0.2422686526116869  0.3509312656412856  0.3626579037424670
  0.0855602345021490  0.6022264261058015  0.6389073132579070
  0.2457370682536320  0.9522928375785922  0.4043939323902608
  0.0945904501911840  0.9988429001835871  0.5816489263679708
  0.0794327370145698  0.5349533343155674  0.4328315127754330
  0.2551432477791514  0.4122966736593254  0.5674397167216541
  0.0773977701825966  0.2296711813690718  0.6091294267801739
  0.2447470023281479  0.7250473446905723  0.4005709871451903
  0.0962366278673262  0.1622481303503844  0.4286772000461512
  0.2556295114116196  0.7918055194627756  0.5818540300629448
  0.5910613303883117  0.3509312656412856  0.3626579037424670
  0.4166699800000018  0.5993933047160953  0.6385395967476533
  0.5875929147463667  0.9522928375785922  0.4043939323902608
  0.4166699800000018  0.9873161703172793  0.5654050617356601
  0.4166699800000018  0.5332716723285872  0.4315136209012541
  0.5781867352208472  0.4122966736593254  0.5674397167216541
  0.4166699800000018  0.1548516799499872  0.6775248200499970
  0.5885829806718508  0.7250473446905723  0.4005709871451903
  0.4166699800000018  0.1452764214370776  0.4045443568404299
  0.5777004715883791  0.7918055194627756  0.5818540300629448
  0.9166700170000013  0.3486568666388113  0.3616204336624799
  0.7477697674978476  0.6022264261058015  0.6389073132579070
  0.9166700170000013  0.9673438619016359  0.4199088047505499
  0.7387395518088128  0.9988429001835871  0.5816489263679708
  0.7538972649854269  0.5349533343155674  0.4328315127754330
  0.9166700170000013  0.4247152184556685  0.5725675750692663
  0.7559322318174003  0.2296711813690718  0.6091294267801739
  0.9166700170000013  0.7360793254549092  0.4026528702109864
  0.7370933741326704  0.1622481303503844  0.4286772000461512
  0.9166700170000013  0.7973802908766134  0.5871317534541903
  0.4166400120000020  0.2259170058990364  0.5352542711487166
 
  0.00000000E+00  0.00000000E+00  0.00000000E+00
  0.00000000E+00  0.00000000E+00  0.00000000E+00
  0.00000000E+00  0.00000000E+00  0.00000000E+00
  0.00000000E+00  0.00000000E+00  0.00000000E+00
  0.00000000E+00  0.00000000E+00  0.00000000E+00
  0.00000000E+00  0.00000000E+00  0.00000000E+00
  0.00000000E+00  0.00000000E+00  0.00000000E+00
  0.00000000E+00  0.00000000E+00  0.00000000E+00
  0.00000000E+00  0.00000000E+00  0.00000000E+00
  0.00000000E+00  0.00000000E+00  0.00000000E+00
  0.00000000E+00  0.00000000E+00  0.00000000E+00
  0.00000000E+00  0.00000000E+00  0.00000000E+00
  0.00000000E+00  0.00000000E+00  0.00000000E+00
  0.00000000E+00  0.00000000E+00  0.00000000E+00
  0.00000000E+00  0.00000000E+00  0.00000000E+00
  0.00000000E+00  0.00000000E+00  0.00000000E+00
  0.00000000E+00  0.00000000E+00  0.00000000E+00
  0.00000000E+00  0.00000000E+00  0.00000000E+00
  0.00000000E+00  0.00000000E+00  0.00000000E+00
  0.00000000E+00  0.00000000E+00  0.00000000E+00
  0.00000000E+00  0.00000000E+00  0.00000000E+00
  0.00000000E+00  0.00000000E+00  0.00000000E+00
  0.00000000E+00  0.00000000E+00  0.00000000E+00
  0.00000000E+00  0.00000000E+00  0.00000000E+00
  0.00000000E+00  0.00000000E+00  0.00000000E+00
  0.00000000E+00  0.00000000E+00  0.00000000E+00
  0.00000000E+00  0.00000000E+00  0.00000000E+00
  0.00000000E+00  0.00000000E+00  0.00000000E+00
  0.00000000E+00  0.00000000E+00  0.00000000E+00
  0.00000000E+00  0.00000000E+00  0.00000000E+00
  0.00000000E+00  0.00000000E+00  0.00000000E+00
  0.00000000E+00  0.00000000E+00  0.00000000E+00
  0.00000000E+00  0.00000000E+00  0.00000000E+00
  0.00000000E+00  0.00000000E+00  0.00000000E+00
  0.00000000E+00  0.00000000E+00  0.00000000E+00
  0.00000000E+00  0.00000000E+00  0.00000000E+00
  0.00000000E+00  0.00000000E+00  0.00000000E+00
  0.00000000E+00  0.00000000E+00  0.00000000E+00
  0.00000000E+00  0.00000000E+00  0.00000000E+00
  0.00000000E+00  0.00000000E+00  0.00000000E+00
  0.00000000E+00  0.00000000E+00  0.00000000E+00
  0.00000000E+00  0.00000000E+00  0.00000000E+00
  0.00000000E+00  0.00000000E+00  0.00000000E+00
