CONTCAR\(4)                             
   1.00000000000000     
    11.8264999389999996    0.0000000000000000    0.0000000000000000
    -5.9132499694999998   10.2420493849999996    0.0000000000000000
     0.0000000000000000    0.0000000000000000   18.5140991210999992
   Hf   Te   O    H 
     9    18     2     1
Direct
  0.9980118851577998  0.9990181017295310  0.4941231536757806
  0.3313030445450572  0.9988993156350382  0.4942231451214699
  0.6646324649161219  0.9991936144041419  0.4942573118012131
  0.9982214311598097  0.3323352270457884  0.4947375439368877
  0.3317901464117576  0.3324839440713393  0.4943097848972561
  0.6648883035222328  0.3320871424659728  0.4946162031035743
 -0.0013932943660816  0.6663673265470494  0.4940334905958472
  0.3317508705759851  0.6669300843007149  0.4942045294512368
  0.6646069478253275  0.6659786888001650  0.4940586338042404
  0.1094636567917937  0.2217377735436163  0.3981200342151414
  0.2200404687875686  0.1100264206290341  0.5904682764258359
  0.4429028909471228  0.2216503620178727  0.3981021084096849
  0.5531791146381217  0.1098064954070936  0.5905651975258120
  0.7765838574976398  0.2217949122673834  0.3981054791228671
  0.8869802238486336  0.1101126992908807  0.5906170812075789
  0.1093256623292223  0.5543778964350625  0.3980153200542623
  0.2212823111139749  0.4448856952147233  0.5907538888251892
  0.4425143449053884  0.5545225481601784  0.3979015185700872
  0.5539130048720020  0.4437693326611957  0.5906039799070639
  0.7759471229695172  0.5546457047938514  0.3979771199223236
  0.8871458549283139  0.4439868306242279  0.5907088195424673
  0.1089640295555289  0.8882265594979575  0.3975575399968602
  0.2202594354730011  0.7770916750651858  0.5903560039708334
  0.4429608931405878  0.8886955866319247  0.3976319356028916
  0.5537422075860917  0.7776415943799382  0.5902075623746081
  0.7760485995728126  0.8881465019811715  0.3977217937517797
  0.8867070679067272  0.7767322848118667  0.5904197472168531
  0.3847999532762449  0.7318600851232987  0.7111245127690038
  0.3873903371204195  0.6682757300689871  0.7727319505214599
  0.3356972059912716  0.5748798143948382  0.7594963666798965
 
  0.00000000E+00  0.00000000E+00  0.00000000E+00
  0.00000000E+00  0.00000000E+00  0.00000000E+00
  0.00000000E+00  0.00000000E+00  0.00000000E+00
  0.00000000E+00  0.00000000E+00  0.00000000E+00
  0.00000000E+00  0.00000000E+00  0.00000000E+00
  0.00000000E+00  0.00000000E+00  0.00000000E+00
  0.00000000E+00  0.00000000E+00  0.00000000E+00
  0.00000000E+00  0.00000000E+00  0.00000000E+00
  0.00000000E+00  0.00000000E+00  0.00000000E+00
  0.00000000E+00  0.00000000E+00  0.00000000E+00
  0.00000000E+00  0.00000000E+00  0.00000000E+00
  0.00000000E+00  0.00000000E+00  0.00000000E+00
  0.00000000E+00  0.00000000E+00  0.00000000E+00
  0.00000000E+00  0.00000000E+00  0.00000000E+00
  0.00000000E+00  0.00000000E+00  0.00000000E+00
  0.00000000E+00  0.00000000E+00  0.00000000E+00
  0.00000000E+00  0.00000000E+00  0.00000000E+00
  0.00000000E+00  0.00000000E+00  0.00000000E+00
  0.00000000E+00  0.00000000E+00  0.00000000E+00
  0.00000000E+00  0.00000000E+00  0.00000000E+00
  0.00000000E+00  0.00000000E+00  0.00000000E+00
  0.00000000E+00  0.00000000E+00  0.00000000E+00
  0.00000000E+00  0.00000000E+00  0.00000000E+00
  0.00000000E+00  0.00000000E+00  0.00000000E+00
  0.00000000E+00  0.00000000E+00  0.00000000E+00
  0.00000000E+00  0.00000000E+00  0.00000000E+00
  0.00000000E+00  0.00000000E+00  0.00000000E+00
  0.00000000E+00  0.00000000E+00  0.00000000E+00
  0.00000000E+00  0.00000000E+00  0.00000000E+00
  0.00000000E+00  0.00000000E+00  0.00000000E+00
