CONTCAR\(13)                            
   1.00000000000000     
    11.2263002396000005    0.0000000000000000    0.0000000000000000
     0.0000000000000000   21.7961997986000000    0.0000000000000000
     0.0000000000000000    0.0000000000000000   19.3752994536999985
   Ta   Te   Pd   O    H 
     9    42     9     2     1
Direct
  0.1736179360001984  0.4767709924577659  0.4995883878784042
  0.1751622314091250  0.1216405396953846  0.4993524706712762
  0.1741555846181413  0.7745568244369636  0.5109155670724661
  0.5061959692289406  0.4765751834854939  0.4997977956210704
  0.5070638215659216  0.1212444369836021  0.4994533913461368
  0.5062147552345380  0.7746193344922290  0.5104687515424047
  0.8399906808835240  0.4758737711744416  0.5006321064321639
  0.8405101468559550  0.1216985114437534  0.5003436178177267
  0.8402637034179392  0.7746123760114756  0.5113647699180248
  0.0065150448412581  0.4072281137816489  0.4216757308806152
  0.1755759192660236  0.2402231878989838  0.4284341796710436
  0.1757120356219133  0.8887423405344350  0.5843014990797286
  0.0070847881859564  0.8413712263763031  0.4306704104190615
  0.0058829189396334  0.5489741030431361  0.4247579877374292
  0.0076192725223905  0.4820955004900185  0.6126762078051797
  0.1730185366363415  0.0030994886738327  0.4292707950271648
  0.0086130062681704  0.0530393082183878  0.5800731919822155
  0.1750169894364930  0.5940039659943892  0.5702983470741074
  0.0080371692276415  0.1949963195482880  0.5750916695782280
  0.1730303578686545  0.6962547999638815  0.4033210585406195
  0.0065318015688050  0.1203650309393112  0.3879781841989498
  0.0072618581156334  0.7397212538919291  0.6092557424272727
  0.1744986147034950  0.3606556663125389  0.5754930917555754
  0.3399012343031771  0.4103521675601414  0.4181749217789630
  0.5045733347956016  0.2400362148697894  0.4295637041680038
  0.5054916901331055  0.8887619419815138  0.5837978448156491
  0.3398796849921055  0.8397843569888366  0.4270537169112529
  0.3401192880053259  0.5477572711335625  0.4226298630371019
  0.3398168607984218  0.4816387651255170  0.6120299307994799
  0.5080413925217258  0.0027636806424951  0.4293621215866992
  0.3407877929505219  0.0478804359207103  0.5750902938778140
  0.5052136157048182  0.5939919554503703  0.5702056287641923
  0.3407193550377414  0.1960219222135322  0.5760628460894566
  0.5072228391443403  0.6961462774897242  0.4030602946023407
  0.3409400141152403  0.1206496784567648  0.3866341061852907
  0.3404619818419619  0.7420854272439215  0.6099202948442297
  0.5049446947613490  0.3602369258182563  0.5754811089043486
  0.6732847717047932  0.4071112596761921  0.4218585080669115
  0.8399705298981175  0.2391480675362558  0.4288095292506924
  0.8407335007900656  0.8892429765374814  0.5841801271493665
  0.6733834592512125  0.8412349178808682  0.4302430385318701
  0.6737805252677731  0.5487004532969806  0.4247812676611176
  0.6725454143615153  0.4818393244010082  0.6127102520368197
  0.8410076991565703  0.0030790430422698  0.4308471472082402
  0.6732073340407254  0.0527953987325986  0.5802849229701224
  0.8398632732211055  0.5932149579998693  0.5712170673455930
  0.6730907019323737  0.1944811404787501  0.5755920553280873
  0.8406195857841041  0.6975526990837864  0.4029165440087681
  0.6750618196253768  0.1202583221817619  0.3878216272647421
  0.6728185657766446  0.7401232068531556  0.6090976488086284
  0.8402879461612400  0.3592414477964923  0.5769415072538919
  0.0079816825418106  0.9451941570617635  0.5068323973353372
  0.0066950639044094  0.3006414769878702  0.5006685384744003
  0.0062432382946866  0.6601662734789500  0.4995313495381666
  0.3403375977200227  0.9434840677161702  0.5028929802665729
  0.3393658625721443  0.3030310922524606  0.4979804292527419
  0.3401932687034872  0.6630691943231497  0.5000748668245905
  0.6736450628178758  0.9450183454124073  0.5065908805204060
  0.6738549369802058  0.3004199291079175  0.5011803372531531
  0.6739491705887275  0.6602753904372136  0.4993117144888188
  0.3234049416496276  0.1412685847716659  0.6725781595330389
  0.4300167408084761  0.1483025316872215  0.7146335643988593
  0.4001200959247626  0.1755164965223841  0.7510124933873712
 
  0.00000000E+00  0.00000000E+00  0.00000000E+00
  0.00000000E+00  0.00000000E+00  0.00000000E+00
  0.00000000E+00  0.00000000E+00  0.00000000E+00
  0.00000000E+00  0.00000000E+00  0.00000000E+00
  0.00000000E+00  0.00000000E+00  0.00000000E+00
  0.00000000E+00  0.00000000E+00  0.00000000E+00
  0.00000000E+00  0.00000000E+00  0.00000000E+00
  0.00000000E+00  0.00000000E+00  0.00000000E+00
  0.00000000E+00  0.00000000E+00  0.00000000E+00
  0.00000000E+00  0.00000000E+00  0.00000000E+00
  0.00000000E+00  0.00000000E+00  0.00000000E+00
  0.00000000E+00  0.00000000E+00  0.00000000E+00
  0.00000000E+00  0.00000000E+00  0.00000000E+00
  0.00000000E+00  0.00000000E+00  0.00000000E+00
  0.00000000E+00  0.00000000E+00  0.00000000E+00
  0.00000000E+00  0.00000000E+00  0.00000000E+00
  0.00000000E+00  0.00000000E+00  0.00000000E+00
  0.00000000E+00  0.00000000E+00  0.00000000E+00
  0.00000000E+00  0.00000000E+00  0.00000000E+00
  0.00000000E+00  0.00000000E+00  0.00000000E+00
  0.00000000E+00  0.00000000E+00  0.00000000E+00
  0.00000000E+00  0.00000000E+00  0.00000000E+00
  0.00000000E+00  0.00000000E+00  0.00000000E+00
  0.00000000E+00  0.00000000E+00  0.00000000E+00
  0.00000000E+00  0.00000000E+00  0.00000000E+00
  0.00000000E+00  0.00000000E+00  0.00000000E+00
  0.00000000E+00  0.00000000E+00  0.00000000E+00
  0.00000000E+00  0.00000000E+00  0.00000000E+00
  0.00000000E+00  0.00000000E+00  0.00000000E+00
  0.00000000E+00  0.00000000E+00  0.00000000E+00
  0.00000000E+00  0.00000000E+00  0.00000000E+00
  0.00000000E+00  0.00000000E+00  0.00000000E+00
  0.00000000E+00  0.00000000E+00  0.00000000E+00
  0.00000000E+00  0.00000000E+00  0.00000000E+00
  0.00000000E+00  0.00000000E+00  0.00000000E+00
  0.00000000E+00  0.00000000E+00  0.00000000E+00
  0.00000000E+00  0.00000000E+00  0.00000000E+00
  0.00000000E+00  0.00000000E+00  0.00000000E+00
  0.00000000E+00  0.00000000E+00  0.00000000E+00
  0.00000000E+00  0.00000000E+00  0.00000000E+00
  0.00000000E+00  0.00000000E+00  0.00000000E+00
  0.00000000E+00  0.00000000E+00  0.00000000E+00
  0.00000000E+00  0.00000000E+00  0.00000000E+00
  0.00000000E+00  0.00000000E+00  0.00000000E+00
  0.00000000E+00  0.00000000E+00  0.00000000E+00
  0.00000000E+00  0.00000000E+00  0.00000000E+00
  0.00000000E+00  0.00000000E+00  0.00000000E+00
  0.00000000E+00  0.00000000E+00  0.00000000E+00
  0.00000000E+00  0.00000000E+00  0.00000000E+00
  0.00000000E+00  0.00000000E+00  0.00000000E+00
  0.00000000E+00  0.00000000E+00  0.00000000E+00
  0.00000000E+00  0.00000000E+00  0.00000000E+00
  0.00000000E+00  0.00000000E+00  0.00000000E+00
  0.00000000E+00  0.00000000E+00  0.00000000E+00
  0.00000000E+00  0.00000000E+00  0.00000000E+00
  0.00000000E+00  0.00000000E+00  0.00000000E+00
  0.00000000E+00  0.00000000E+00  0.00000000E+00
  0.00000000E+00  0.00000000E+00  0.00000000E+00
  0.00000000E+00  0.00000000E+00  0.00000000E+00
  0.00000000E+00  0.00000000E+00  0.00000000E+00
  0.00000000E+00  0.00000000E+00  0.00000000E+00
  0.00000000E+00  0.00000000E+00  0.00000000E+00
  0.00000000E+00  0.00000000E+00  0.00000000E+00
