CONTCAR\(2)                             
   1.00000000000000     
    14.3262996674000007    0.0000000000000000    0.0000000000000000
     0.0000000000000000   12.4329004288000000    0.0000000000000000
     0.0000000000000000    0.0000000000000000   21.7000007629000002
   Cu   I    O 
    12    24    73
Direct
  0.1684362879663303  0.2503872966939211  0.4987985393001518
  0.1684278637270388 -0.0003978947245660  0.4988019857364138
  0.5006292180896157  0.2514648131100121  0.5031715587295057
  0.5006288546742158  0.9985327840592684  0.5031709869404799
  0.8337912502875013  0.2501339617603027  0.5009915627429609
  0.8338040893985256 -0.0001317951566209  0.5009939876323389
  0.1660252407483109  0.7500828012662524  0.4981937088107232
  0.1660288549902232  0.4998959449957862  0.4981855464469932
  0.4979107146039637  0.7451968757465541  0.5026153774441499
  0.4979111422367481  0.5048081565515655  0.5026150800123538
  0.8345606651962738  0.7504099621249095  0.4999961124141199
  0.8345577785631809  0.4995966791745663  0.4999995710672444
  0.1863658002744835  0.3740287580162656  0.3666991807695694
  0.0149464006915556  0.1250100048392579  0.3950095483225868
  0.3186345926736182  0.3776011690390847  0.6052143115145426
  0.1530850596524229  0.1249893966352012  0.6296598363830510
  0.5180994951586555  0.3756956862166200  0.3711697175946853
  0.3501581808175759  0.1250025251642046  0.3971237996967455
  0.6530581520241378  0.3791627336614867  0.6054705111669521
  0.4826677506959966  0.1250033854803905  0.6342064614877760
  0.8503342934003305  0.3742491503063163  0.3687081019586054
  0.6804967017113066  0.1249946544348146  0.3974766971741068
  0.9886740310095672  0.3745741659440369  0.6032407838212920
  0.8165034048646402  0.1250159139367549  0.6330799374236747
  0.1863455229598174  0.8759563428643704  0.3667018252850496
  0.0142529141618191  0.6249828655904852  0.3938786981547479
  0.3186395165069291  0.8723848412791594  0.6052170440683289
  0.1519238977659320  0.6249984962943951  0.6297412626544134
  0.5180822029010884  0.8743072640400572  0.3711748918767183
  0.3482931911034120  0.6249903243912522  0.3939015136859763
  0.6530464355406994  0.8708454273728577  0.6054626223028997
  0.4733016530971283  0.6250032820605634  0.6448640348367909
  0.8503368968177677  0.8757480298318626  0.3687059581383291
  0.6817579043515537  0.6249929217619939  0.3957335463483656
  0.9886666245107927  0.8754279990609529  0.6032401428917531
  0.8211662681382256  0.6250012560522139  0.6313975673642790
  0.2426932175827946  0.4882107113939556  0.5728299551419842
  0.0916944406134784  0.0122013519845272  0.4236372588728319
  0.1141367623525258  0.1249918452127353  0.5447666627457849
  0.2222110513449871  0.3758346996908022  0.4520837277659097
  0.2641868632707362  0.1250037894417740  0.4581140223658466
  0.0784716916134674  0.2362680615857068  0.6554356028725707
  0.0917046677727092  0.2377877318409468  0.4236367000422763
  0.0784956096292014  0.0136963263315935  0.6554316347679909
  0.2622307369723371  0.2630866193061728  0.3424670273908450
  0.2598354403464412  0.4855367878125377  0.3404228206097828
  0.2453439528949097  0.2626596672137873  0.5728828287245478
  0.0705337907190819  0.3736139641412162  0.5397239514301232
  0.5762458572862116  0.4907117390492656  0.5780400851332882
  0.4237704179006995  0.0118355356672730  0.4281333976225340
  0.4476649996018459  0.1250036793744502  0.5483264956567718
  0.5536564894880912  0.3774166096695498  0.4563918558423131
  0.5985824798892272  0.1250015421541446  0.4606715645694193
  0.4077882154297509  0.2361676879355039  0.6587905845472432
  0.4237691078376848  0.2381416847157356  0.4281233901014469
  0.4077898381278316  0.0138229259687571  0.6587865611515777
  0.5927454914089600  0.2638560615912187  0.3460054833551636
  0.5926738628717487  0.4861500804561504  0.3442829567186568
  0.5776665773421841  0.2641041946900977  0.5774541714811550
  0.4043010599649650  0.3777609555346414  0.5438203690714321
  0.9140941456469497  0.4879292102932292  0.5733588662753090
  0.7571536720987918  0.0123200658808357  0.4264415419347554
  0.7800326615196900  0.1250102053451959  0.5472170917092443
  0.8883729753745182  0.3745945784238692  0.4537340525222274
  0.9336281140534227  0.1250022849695990  0.4584252953392492
  0.7433811978899583  0.2366193428907290  0.6586869930779560
  0.7571584737058820  0.2376538696864604  0.4264314989718417
  0.7433443559006973  0.0134339849077009  0.6586863166733949
  0.9247309205185464  0.2630575777028811  0.3427741539359901
  0.9240209116344821  0.4855605234914336  0.3421787677199872
  0.9115910056166632  0.2624096954352513  0.5748901425645589
  0.7351204498917364  0.3768683648526518  0.5419274196304821
  0.2453462591913520  0.9873231413030140  0.5728791599827227
  0.0904795903450873  0.5120178155336057  0.4226013729749306
  0.1127037049999755  0.6249937602932882  0.5444963398708553
  0.2221997937772913  0.8741528700554279  0.4520889535129288
  0.2634743284723213  0.6249846564480737  0.4555198301030977
  0.0772370874115257  0.7362229145939514  0.6554303101353389
  0.0904753135516508  0.7379789587212577  0.4226111376471134
  0.0772291905279799  0.5137721240996433  0.6554323856169600
  0.2598078282859294  0.7644225201098059  0.3404206786195798
  0.2622093086419784  0.9869012421625535  0.3424686276660813
  0.2427040695261844  0.7617717934848687  0.5728275298784329
  0.0705186750442589  0.8763755056474858  0.5397259289116026
  0.5776623324390225  0.9858960394379049  0.5774544792245760
  0.4233913492897063  0.5124520204969185  0.4241290781021213
  0.4400013293510947  0.6250070636183465  0.5391404811162589
  0.5536374839032219  0.8725694067027113  0.4563973991306650
  0.5998164464766144  0.6250006844937306  0.4588173699380186
  0.3901885444720392  0.7381487741039823  0.6594376281762098
  0.4233817366620851  0.7375559915140935  0.4241353458373613
  0.3901826090292367  0.5118527673937948  0.6594352053269293
  0.5926621673910759  0.7638432016702704  0.3442803168629013
  0.5927288450806663  0.9861503854918195  0.3460068694771674
  0.5762491870350854  0.7592978681949060  0.5780364181154420
  0.4043057673570735  0.8722300421056813  0.5438218167529579
  0.9116034493488963  0.9875896971111303  0.5748903380464033
  0.7579321273442163  0.5121685267987183  0.4250614503814718
  0.7822779759419601  0.6250063289920276  0.5459719750195671
  0.8883765516143106  0.8754070595736722  0.4537378667784814
  0.9329009787195515  0.6249910159404218  0.4573496864465073
  0.7491811745434718  0.7378477068208615  0.6567679901143211
  0.7579408600827232  0.7378190751602934  0.4250578558912432
  0.7491891652016889  0.5121607502393688  0.6567656057097857
  0.9240310650020960  0.7644387035078752  0.3421719929102423
  0.9247163810067636  0.9869563090201230  0.3427705300858338
  0.9140768669909143  0.7620947275335472  0.5733625421488028
  0.7351216322160472  0.8731470067578894  0.5419338012500052
  0.5390187873002894  0.6249911843480255  0.7153907007018140
 
  0.00000000E+00  0.00000000E+00  0.00000000E+00
  0.00000000E+00  0.00000000E+00  0.00000000E+00
  0.00000000E+00  0.00000000E+00  0.00000000E+00
  0.00000000E+00  0.00000000E+00  0.00000000E+00
  0.00000000E+00  0.00000000E+00  0.00000000E+00
  0.00000000E+00  0.00000000E+00  0.00000000E+00
  0.00000000E+00  0.00000000E+00  0.00000000E+00
  0.00000000E+00  0.00000000E+00  0.00000000E+00
  0.00000000E+00  0.00000000E+00  0.00000000E+00
  0.00000000E+00  0.00000000E+00  0.00000000E+00
  0.00000000E+00  0.00000000E+00  0.00000000E+00
  0.00000000E+00  0.00000000E+00  0.00000000E+00
  0.00000000E+00  0.00000000E+00  0.00000000E+00
  0.00000000E+00  0.00000000E+00  0.00000000E+00
  0.00000000E+00  0.00000000E+00  0.00000000E+00
  0.00000000E+00  0.00000000E+00  0.00000000E+00
  0.00000000E+00  0.00000000E+00  0.00000000E+00
  0.00000000E+00  0.00000000E+00  0.00000000E+00
  0.00000000E+00  0.00000000E+00  0.00000000E+00
  0.00000000E+00  0.00000000E+00  0.00000000E+00
  0.00000000E+00  0.00000000E+00  0.00000000E+00
  0.00000000E+00  0.00000000E+00  0.00000000E+00
  0.00000000E+00  0.00000000E+00  0.00000000E+00
  0.00000000E+00  0.00000000E+00  0.00000000E+00
  0.00000000E+00  0.00000000E+00  0.00000000E+00
  0.00000000E+00  0.00000000E+00  0.00000000E+00
  0.00000000E+00  0.00000000E+00  0.00000000E+00
  0.00000000E+00  0.00000000E+00  0.00000000E+00
  0.00000000E+00  0.00000000E+00  0.00000000E+00
  0.00000000E+00  0.00000000E+00  0.00000000E+00
  0.00000000E+00  0.00000000E+00  0.00000000E+00
  0.00000000E+00  0.00000000E+00  0.00000000E+00
  0.00000000E+00  0.00000000E+00  0.00000000E+00
  0.00000000E+00  0.00000000E+00  0.00000000E+00
  0.00000000E+00  0.00000000E+00  0.00000000E+00
  0.00000000E+00  0.00000000E+00  0.00000000E+00
  0.00000000E+00  0.00000000E+00  0.00000000E+00
  0.00000000E+00  0.00000000E+00  0.00000000E+00
  0.00000000E+00  0.00000000E+00  0.00000000E+00
  0.00000000E+00  0.00000000E+00  0.00000000E+00
  0.00000000E+00  0.00000000E+00  0.00000000E+00
  0.00000000E+00  0.00000000E+00  0.00000000E+00
  0.00000000E+00  0.00000000E+00  0.00000000E+00
  0.00000000E+00  0.00000000E+00  0.00000000E+00
  0.00000000E+00  0.00000000E+00  0.00000000E+00
  0.00000000E+00  0.00000000E+00  0.00000000E+00
  0.00000000E+00  0.00000000E+00  0.00000000E+00
  0.00000000E+00  0.00000000E+00  0.00000000E+00
  0.00000000E+00  0.00000000E+00  0.00000000E+00
  0.00000000E+00  0.00000000E+00  0.00000000E+00
  0.00000000E+00  0.00000000E+00  0.00000000E+00
  0.00000000E+00  0.00000000E+00  0.00000000E+00
  0.00000000E+00  0.00000000E+00  0.00000000E+00
  0.00000000E+00  0.00000000E+00  0.00000000E+00
  0.00000000E+00  0.00000000E+00  0.00000000E+00
  0.00000000E+00  0.00000000E+00  0.00000000E+00
  0.00000000E+00  0.00000000E+00  0.00000000E+00
  0.00000000E+00  0.00000000E+00  0.00000000E+00
  0.00000000E+00  0.00000000E+00  0.00000000E+00
  0.00000000E+00  0.00000000E+00  0.00000000E+00
  0.00000000E+00  0.00000000E+00  0.00000000E+00
  0.00000000E+00  0.00000000E+00  0.00000000E+00
  0.00000000E+00  0.00000000E+00  0.00000000E+00
  0.00000000E+00  0.00000000E+00  0.00000000E+00
  0.00000000E+00  0.00000000E+00  0.00000000E+00
  0.00000000E+00  0.00000000E+00  0.00000000E+00
  0.00000000E+00  0.00000000E+00  0.00000000E+00
  0.00000000E+00  0.00000000E+00  0.00000000E+00
  0.00000000E+00  0.00000000E+00  0.00000000E+00
  0.00000000E+00  0.00000000E+00  0.00000000E+00
  0.00000000E+00  0.00000000E+00  0.00000000E+00
  0.00000000E+00  0.00000000E+00  0.00000000E+00
  0.00000000E+00  0.00000000E+00  0.00000000E+00
  0.00000000E+00  0.00000000E+00  0.00000000E+00
  0.00000000E+00  0.00000000E+00  0.00000000E+00
  0.00000000E+00  0.00000000E+00  0.00000000E+00
  0.00000000E+00  0.00000000E+00  0.00000000E+00
  0.00000000E+00  0.00000000E+00  0.00000000E+00
  0.00000000E+00  0.00000000E+00  0.00000000E+00
  0.00000000E+00  0.00000000E+00  0.00000000E+00
  0.00000000E+00  0.00000000E+00  0.00000000E+00
  0.00000000E+00  0.00000000E+00  0.00000000E+00
  0.00000000E+00  0.00000000E+00  0.00000000E+00
  0.00000000E+00  0.00000000E+00  0.00000000E+00
  0.00000000E+00  0.00000000E+00  0.00000000E+00
  0.00000000E+00  0.00000000E+00  0.00000000E+00
  0.00000000E+00  0.00000000E+00  0.00000000E+00
  0.00000000E+00  0.00000000E+00  0.00000000E+00
  0.00000000E+00  0.00000000E+00  0.00000000E+00
  0.00000000E+00  0.00000000E+00  0.00000000E+00
  0.00000000E+00  0.00000000E+00  0.00000000E+00
  0.00000000E+00  0.00000000E+00  0.00000000E+00
  0.00000000E+00  0.00000000E+00  0.00000000E+00
  0.00000000E+00  0.00000000E+00  0.00000000E+00
  0.00000000E+00  0.00000000E+00  0.00000000E+00
  0.00000000E+00  0.00000000E+00  0.00000000E+00
  0.00000000E+00  0.00000000E+00  0.00000000E+00
  0.00000000E+00  0.00000000E+00  0.00000000E+00
  0.00000000E+00  0.00000000E+00  0.00000000E+00
  0.00000000E+00  0.00000000E+00  0.00000000E+00
  0.00000000E+00  0.00000000E+00  0.00000000E+00
  0.00000000E+00  0.00000000E+00  0.00000000E+00
  0.00000000E+00  0.00000000E+00  0.00000000E+00
  0.00000000E+00  0.00000000E+00  0.00000000E+00
  0.00000000E+00  0.00000000E+00  0.00000000E+00
  0.00000000E+00  0.00000000E+00  0.00000000E+00
  0.00000000E+00  0.00000000E+00  0.00000000E+00
  0.00000000E+00  0.00000000E+00  0.00000000E+00
  0.00000000E+00  0.00000000E+00  0.00000000E+00
