CONTCAR\(11)                            
   1.00000000000000     
    14.0628004073999993    0.0000000000000000    0.0000000000000000
     0.0000000000000000   14.0187997818000003    0.0000000000000000
     0.0000000000000000    0.0000000000000000   20.6536998748999991
   Cr   S    Br
    24    24    24
Direct
  0.1250000000000000  0.0000000000000000  0.4496799969999969
  0.0000000000000000  0.1666699940000029  0.5503200489999998
  0.3749999919999993  0.0000000000000000  0.4496799969999969
  0.2500000000000000  0.1666699940000029  0.5503200489999998
  0.6250000080000007  0.0000000000000000  0.4496799969999969
  0.5000000000000000  0.1666699940000029  0.5503200489999998
  0.8750000249999985  0.0000000000000000  0.4496799969999969
  0.7499999830000021  0.1666699940000029  0.5503200489999998
  0.1250000000000000  0.3333299889999992  0.4496799969999969
  0.0000000000000000  0.5000000000000000  0.5503200489999998
  0.3749999919999993  0.3333299889999992  0.4496799969999969
  0.2500000000000000  0.5000000000000000  0.5503200489999998
  0.6250000080000007  0.3333299889999992  0.4496799969999969
  0.5000000000000000  0.5000000000000000  0.5503200489999998
  0.8750000249999985  0.3333299889999992  0.4496799969999969
  0.7499999830000021  0.5000000000000000  0.5503200489999998
  0.1250000000000000  0.6666700450000036  0.4496799969999969
  0.0000000000000000  0.8333299889999992  0.5503200489999998
  0.3749999919999993  0.6666700450000036  0.4496799969999969
  0.2500000000000000  0.8333299889999992  0.5503200489999998
  0.6250000080000007  0.6666700450000036  0.4496799969999969
  0.5000000000000000  0.8333299889999992  0.5503200489999998
  0.8750000249999985  0.6666700450000036  0.4496799969999969
  0.7499999830000021  0.8333299889999992  0.5503200489999998
  0.1250000000000000  0.1666699940000029  0.4725199840000016
  0.0000000000000000  0.0000000000000000  0.5274800159999984
  0.3749999919999993  0.1666699940000029  0.4725199840000016
  0.2500000000000000  0.0000000000000000  0.5274800159999984
  0.6250000080000007  0.1666699940000029  0.4725199840000016
  0.5000000000000000  0.0000000000000000  0.5274800159999984
  0.8750000249999985  0.1666699940000029  0.4725199840000016
  0.7499999830000021  0.0000000000000000  0.5274800159999984
  0.1250000000000000  0.5000000000000000  0.4725199840000016
  0.0000000000000000  0.3333299889999992  0.5274800159999984
  0.3749999919999993  0.5000000000000000  0.4725199840000016
  0.2500000000000000  0.3333299889999992  0.5274800159999984
  0.6250000080000007  0.5000000000000000  0.4725199840000016
  0.5000000000000000  0.3333299889999992  0.5274800159999984
  0.8750000249999985  0.5000000000000000  0.4725199840000016
  0.7499999830000021  0.3333299889999992  0.5274800159999984
  0.1250000000000000  0.8333299889999992  0.4725199840000016
  0.0000000000000000  0.6666700450000036  0.5274800159999984
  0.3749999919999993  0.8333299889999992  0.4725199840000016
  0.2500000000000000  0.6666700450000036  0.5274800159999984
  0.6250000080000007  0.8333299889999992  0.4725199840000016
  0.5000000000000000  0.6666700450000036  0.5274800159999984
  0.8750000249999985  0.8333299889999992  0.4725199840000016
  0.7499999830000021  0.6666700450000036  0.5274800159999984
  0.0000000000000000  0.0000000000000000  0.3625899910000001
  0.1250000000000000  0.1666699940000029  0.6374099630000032
  0.2500000000000000  0.0000000000000000  0.3625899910000001
  0.3749999919999993  0.1666699940000029  0.6374099630000032
  0.5000000000000000  0.0000000000000000  0.3625899910000001
  0.6250000080000007  0.1666699940000029  0.6374099630000032
  0.7499999830000021  0.0000000000000000  0.3625899910000001
  0.8750000249999985  0.1666699940000029  0.6374099630000032
  0.0000000000000000  0.3333299889999992  0.3625899910000001
  0.1250000000000000  0.5000000000000000  0.6374099630000032
  0.2500000000000000  0.3333299889999992  0.3625899910000001
  0.3749999919999993  0.5000000000000000  0.6374099630000032
  0.5000000000000000  0.3333299889999992  0.3625899910000001
  0.6250000080000007  0.5000000000000000  0.6374099630000032
  0.7499999830000021  0.3333299889999992  0.3625899910000001
  0.8750000249999985  0.5000000000000000  0.6374099630000032
  0.0000000000000000  0.6666700450000036  0.3625899910000001
  0.1250000000000000  0.8333299889999992  0.6374099630000032
  0.2500000000000000  0.6666700450000036  0.3625899910000001
  0.3749999919999993  0.8333299889999992  0.6374099630000032
  0.5000000000000000  0.6666700450000036  0.3625899910000001
  0.6250000080000007  0.8333299889999992  0.6374099630000032
  0.7499999830000021  0.6666700450000036  0.3625899910000001
  0.8750000249999985  0.8333299889999992  0.6374099630000032
 
  0.00000000E+00  0.00000000E+00  0.00000000E+00
  0.00000000E+00  0.00000000E+00  0.00000000E+00
  0.00000000E+00  0.00000000E+00  0.00000000E+00
  0.00000000E+00  0.00000000E+00  0.00000000E+00
  0.00000000E+00  0.00000000E+00  0.00000000E+00
  0.00000000E+00  0.00000000E+00  0.00000000E+00
  0.00000000E+00  0.00000000E+00  0.00000000E+00
  0.00000000E+00  0.00000000E+00  0.00000000E+00
  0.00000000E+00  0.00000000E+00  0.00000000E+00
  0.00000000E+00  0.00000000E+00  0.00000000E+00
  0.00000000E+00  0.00000000E+00  0.00000000E+00
  0.00000000E+00  0.00000000E+00  0.00000000E+00
  0.00000000E+00  0.00000000E+00  0.00000000E+00
  0.00000000E+00  0.00000000E+00  0.00000000E+00
  0.00000000E+00  0.00000000E+00  0.00000000E+00
  0.00000000E+00  0.00000000E+00  0.00000000E+00
  0.00000000E+00  0.00000000E+00  0.00000000E+00
  0.00000000E+00  0.00000000E+00  0.00000000E+00
  0.00000000E+00  0.00000000E+00  0.00000000E+00
  0.00000000E+00  0.00000000E+00  0.00000000E+00
  0.00000000E+00  0.00000000E+00  0.00000000E+00
  0.00000000E+00  0.00000000E+00  0.00000000E+00
  0.00000000E+00  0.00000000E+00  0.00000000E+00
  0.00000000E+00  0.00000000E+00  0.00000000E+00
  0.00000000E+00  0.00000000E+00  0.00000000E+00
  0.00000000E+00  0.00000000E+00  0.00000000E+00
  0.00000000E+00  0.00000000E+00  0.00000000E+00
  0.00000000E+00  0.00000000E+00  0.00000000E+00
  0.00000000E+00  0.00000000E+00  0.00000000E+00
  0.00000000E+00  0.00000000E+00  0.00000000E+00
  0.00000000E+00  0.00000000E+00  0.00000000E+00
  0.00000000E+00  0.00000000E+00  0.00000000E+00
  0.00000000E+00  0.00000000E+00  0.00000000E+00
  0.00000000E+00  0.00000000E+00  0.00000000E+00
  0.00000000E+00  0.00000000E+00  0.00000000E+00
  0.00000000E+00  0.00000000E+00  0.00000000E+00
  0.00000000E+00  0.00000000E+00  0.00000000E+00
  0.00000000E+00  0.00000000E+00  0.00000000E+00
  0.00000000E+00  0.00000000E+00  0.00000000E+00
  0.00000000E+00  0.00000000E+00  0.00000000E+00
  0.00000000E+00  0.00000000E+00  0.00000000E+00
  0.00000000E+00  0.00000000E+00  0.00000000E+00
  0.00000000E+00  0.00000000E+00  0.00000000E+00
  0.00000000E+00  0.00000000E+00  0.00000000E+00
  0.00000000E+00  0.00000000E+00  0.00000000E+00
  0.00000000E+00  0.00000000E+00  0.00000000E+00
  0.00000000E+00  0.00000000E+00  0.00000000E+00
  0.00000000E+00  0.00000000E+00  0.00000000E+00
  0.00000000E+00  0.00000000E+00  0.00000000E+00
  0.00000000E+00  0.00000000E+00  0.00000000E+00
  0.00000000E+00  0.00000000E+00  0.00000000E+00
  0.00000000E+00  0.00000000E+00  0.00000000E+00
  0.00000000E+00  0.00000000E+00  0.00000000E+00
  0.00000000E+00  0.00000000E+00  0.00000000E+00
  0.00000000E+00  0.00000000E+00  0.00000000E+00
  0.00000000E+00  0.00000000E+00  0.00000000E+00
  0.00000000E+00  0.00000000E+00  0.00000000E+00
  0.00000000E+00  0.00000000E+00  0.00000000E+00
  0.00000000E+00  0.00000000E+00  0.00000000E+00
  0.00000000E+00  0.00000000E+00  0.00000000E+00
  0.00000000E+00  0.00000000E+00  0.00000000E+00
  0.00000000E+00  0.00000000E+00  0.00000000E+00
  0.00000000E+00  0.00000000E+00  0.00000000E+00
  0.00000000E+00  0.00000000E+00  0.00000000E+00
  0.00000000E+00  0.00000000E+00  0.00000000E+00
  0.00000000E+00  0.00000000E+00  0.00000000E+00
  0.00000000E+00  0.00000000E+00  0.00000000E+00
  0.00000000E+00  0.00000000E+00  0.00000000E+00
  0.00000000E+00  0.00000000E+00  0.00000000E+00
  0.00000000E+00  0.00000000E+00  0.00000000E+00
  0.00000000E+00  0.00000000E+00  0.00000000E+00
  0.00000000E+00  0.00000000E+00  0.00000000E+00
