CONTCAR                                 
   1.00000000000000     
    12.7006998061999994    0.0000000000000000    0.0000000000000000
    -6.3503999709999999   10.9992153982000005    0.0000000000000000
     0.0000000000000000    0.0000000000000000   18.1460990905999999
   W    S    H 
    16    32     1
Direct
  0.0834849826106262  0.1659226176260432  0.5011840987694561
  0.3332846635635172  0.1655884776185564  0.5007216306675834
  0.5831693000463112  0.1657571485080803  0.5003484691692738
  0.8332336970695587  0.1657755091722554  0.5005823174634580
  0.0841781184857996  0.4167718029665388  0.5005333869169593
  0.3341243986481321  0.4160365926899628  0.5029347927057042
  0.5835173126581119  0.4156553142398737  0.5012248099928406
  0.8333592242055755  0.4158890165599587  0.5003387807110087
  0.0827710836805969  0.6658112299386524  0.4995792294820295
  0.3316998751763390  0.6673783276048095  0.4970863112663659
  0.5831068649315102  0.6650991933284579  0.5029412256997837
  0.8335834477117794  0.6658216876140592  0.5006801787374610
  0.0831642503723375  0.9159890945246296  0.5003570513631629
  0.3332116857389388  0.9163332699457517  0.4995694558742940
  0.5822599048661090  0.9149487704741249  0.5004500346897180
  0.8331774338364645  0.9156470343745486  0.5011057897167909
  0.1667117643337194  0.0831749935556261  0.4139290224048126
  0.1665806247394687  0.0819430662348747  0.5876208681139057
  0.4167200000277561  0.0835563817367657  0.4132937683635278
  0.4166337160140203  0.0817206517194174  0.5870994911719901
  0.6665823845419067  0.0820731717858951  0.4137713351052089
  0.6660732144606363  0.0820487636606981  0.5870691174315872
  0.9168618520587983  0.0823191567123264  0.4142459366292860
  0.9163853303137872  0.0826575447953638  0.5876108033409293
  0.1679132998678886  0.3329329642302402  0.4148052898355312
  0.1653533493157198  0.3321782202594559  0.5882732907423329
  0.4164359476901179  0.3334791622991577  0.4147391506944523
  0.4171495905383891  0.3309903183171966  0.5882474487068529
  0.6663655159755831  0.3326695966043853  0.4137793802275856
  0.6671844237524978  0.3319953351346998  0.5874420072013021
  0.9170333668790651  0.3323847688412315  0.4138092643881871
  0.9170051967955417  0.3328798240115213  0.5870905628333672
  0.1649900274261996  0.5820494782046980  0.4120165608695616
  0.1681024379506329  0.5840898014635236  0.5861685294417628
  0.4172824334489804  0.5817710776524446  0.4156103501475781
  0.4217829456601478  0.5773867164148649  0.5955204062794762
  0.6656720188761088  0.5827689706965493  0.4147797603099370
  0.6682123960591287  0.5820704219897473  0.5882612484127950
  0.9155762255690947  0.5823025292197231  0.4132701084715735
  0.9173574595439671  0.5824651676058401  0.5870854038299439
  0.1660389350753984  0.8329373727375413  0.4129749584303442
  0.1667265430178504  0.8323645161003004  0.5864322803496476
  0.4168454078228410  0.8340886070668997  0.4119737738115367
  0.4150222482954757  0.8310095549525446  0.5861278703299967
  0.6660847759770173  0.8311861696118548  0.4147303592605689
  0.6670366142842387  0.8339945018233497  0.5882117657445047
  0.9160302224721238  0.8324561723766518  0.4139112248582192
  0.9170780325312673  0.8324433976669580  0.5875589609897043
  0.4688552480829581  0.5296760353313714  0.6495125320460773
 
  0.00000000E+00  0.00000000E+00  0.00000000E+00
  0.00000000E+00  0.00000000E+00  0.00000000E+00
  0.00000000E+00  0.00000000E+00  0.00000000E+00
  0.00000000E+00  0.00000000E+00  0.00000000E+00
  0.00000000E+00  0.00000000E+00  0.00000000E+00
  0.00000000E+00  0.00000000E+00  0.00000000E+00
  0.00000000E+00  0.00000000E+00  0.00000000E+00
  0.00000000E+00  0.00000000E+00  0.00000000E+00
  0.00000000E+00  0.00000000E+00  0.00000000E+00
  0.00000000E+00  0.00000000E+00  0.00000000E+00
  0.00000000E+00  0.00000000E+00  0.00000000E+00
  0.00000000E+00  0.00000000E+00  0.00000000E+00
  0.00000000E+00  0.00000000E+00  0.00000000E+00
  0.00000000E+00  0.00000000E+00  0.00000000E+00
  0.00000000E+00  0.00000000E+00  0.00000000E+00
  0.00000000E+00  0.00000000E+00  0.00000000E+00
  0.00000000E+00  0.00000000E+00  0.00000000E+00
  0.00000000E+00  0.00000000E+00  0.00000000E+00
  0.00000000E+00  0.00000000E+00  0.00000000E+00
  0.00000000E+00  0.00000000E+00  0.00000000E+00
  0.00000000E+00  0.00000000E+00  0.00000000E+00
  0.00000000E+00  0.00000000E+00  0.00000000E+00
  0.00000000E+00  0.00000000E+00  0.00000000E+00
  0.00000000E+00  0.00000000E+00  0.00000000E+00
  0.00000000E+00  0.00000000E+00  0.00000000E+00
  0.00000000E+00  0.00000000E+00  0.00000000E+00
  0.00000000E+00  0.00000000E+00  0.00000000E+00
  0.00000000E+00  0.00000000E+00  0.00000000E+00
  0.00000000E+00  0.00000000E+00  0.00000000E+00
  0.00000000E+00  0.00000000E+00  0.00000000E+00
  0.00000000E+00  0.00000000E+00  0.00000000E+00
  0.00000000E+00  0.00000000E+00  0.00000000E+00
  0.00000000E+00  0.00000000E+00  0.00000000E+00
  0.00000000E+00  0.00000000E+00  0.00000000E+00
  0.00000000E+00  0.00000000E+00  0.00000000E+00
  0.00000000E+00  0.00000000E+00  0.00000000E+00
  0.00000000E+00  0.00000000E+00  0.00000000E+00
  0.00000000E+00  0.00000000E+00  0.00000000E+00
  0.00000000E+00  0.00000000E+00  0.00000000E+00
  0.00000000E+00  0.00000000E+00  0.00000000E+00
  0.00000000E+00  0.00000000E+00  0.00000000E+00
  0.00000000E+00  0.00000000E+00  0.00000000E+00
  0.00000000E+00  0.00000000E+00  0.00000000E+00
  0.00000000E+00  0.00000000E+00  0.00000000E+00
  0.00000000E+00  0.00000000E+00  0.00000000E+00
  0.00000000E+00  0.00000000E+00  0.00000000E+00
  0.00000000E+00  0.00000000E+00  0.00000000E+00
  0.00000000E+00  0.00000000E+00  0.00000000E+00
  0.00000000E+00  0.00000000E+00  0.00000000E+00
