CONTCAR\(2)                             
   1.00000000000000     
    16.2672996521000002    0.0000000000000000    0.0000000000000000
     2.6171829271000000   16.2219330010999983    0.0000000000000000
     0.0000000000000000    0.0000000000000000   16.8505992888999998
   Ag   H    O 
    18    18    37
Direct
  0.1977394746305832  0.1310335555399444  0.5193416244856546
  0.0197695393408302  0.2869325966953079  0.5514267725124772
  0.5275456887244638  0.1350661306914029  0.5160438183769843
  0.3649466890041463  0.3126407298212074  0.5102423196650280
  0.8380942196660836  0.1313739076255048  0.5528049626037927
  0.6753189945766298  0.3030000927770747  0.6262784628666180
  0.1789252408199802  0.4668386755218110  0.5673525768826317
  0.0235597577462565  0.6264853768939040  0.5525192254983484
  0.5268691629399009  0.4593349747207620  0.5961436819284890
  0.3499332817183333  0.6158604831125806  0.5328718882495265
  0.8530813923790194  0.4640654708084851  0.5396039698700150
  0.6907648815783002  0.6383894590645555  0.5171708802038285
  0.1833277801129303  0.7939611453287433  0.5065283787706328
  0.0166953892779757  0.9725414636553481  0.4930684913699498
  0.5104100547765603  0.7946824574210744  0.5387099649838967
  0.3572255905828957  0.9615823443428879  0.5328512362141574
  0.8644261665769125  0.7929489405294671  0.5240833410549025
  0.6868495935513579  0.9524898259341396  0.5508484830091982
  0.1784654647717754  0.2827217429577090  0.5572946659175667
  0.2678183722556037  0.0261656950440794  0.4158897966111567
  0.5329390209944691  0.2918053181781149  0.5027030336030746
  0.5458628091127766  0.9804813009121301  0.4756153133092613
  0.8304765101033577  0.2807395014289263  0.5885040657906410
  0.8610612122061194  0.0145140633173295  0.4451685453579434
  0.1665399755068281  0.6162581071609184  0.6056952055866603
  0.2129239163019772  0.3520732493084556  0.4594490806123725
  0.5093837902573182  0.6012919091547603  0.5175294454507038
  0.6442645123890977  0.3567164797597854  0.4780616081472363
  0.8510287397554733  0.6192512308189319  0.5204150568868500
  0.8749587822335630  0.3159181968533374  0.4783298483105148
  0.1816765906914007  0.9534771260365330  0.4838582876913823
  0.1946814715654358  0.6348646077801766  0.4838925809643175
  0.5018264571956017  0.9440790424394385  0.5842842489453559
  0.5575182769183297  0.6814807128444330  0.4322482211675988
  0.8419587431238303  0.9462349873327585  0.5519110561604055
  0.9340940558033493  0.6758899265537081  0.4293028497719935
  0.1441988726223210  0.2400398094566304  0.5724229843281451
  0.0388176606475737  0.1064512225050772  0.4987625417160770
  0.2511331189054523  0.0166515161901092  0.4701411452437826
  0.3425082579598233  0.1807349979678508  0.4521090273680276
  0.4860548293644008  0.2574723442950861  0.4987182035779483
  0.4038481270348654  0.1208014008725482  0.4490952768262895
  0.5635069418808368  0.0059435393938618  0.5236608517537059
  0.6414972405675449  0.1400791965661644  0.5947210879290578
  0.7959250297703919  0.2414088141462661  0.6104719503223870
  0.7076736044336436  0.0855363280532422  0.5804546201595023
  0.8857188750099472  0.0180126641529715  0.4974589042670524
  0.9855814924892722  0.1580436918950121  0.5407367117391471
  0.1267719353909995  0.5790398924396551  0.6197806202991474
  0.0407192077047328  0.4185489374339465  0.5572135294040670
  0.2342861891560176  0.3547575619080545  0.5132297669248690
  0.3236876588438957  0.4925760792321570  0.5821028656121052
  0.4722928879733978  0.5606861224977163  0.5313788482278313
  0.3832956369314141  0.4287342873961602  0.5850978563555109
  0.6066682575124346  0.3373680836517178  0.5162735351759801
  0.6665377926669014  0.5094798886265460  0.5246188920910982
  0.8112095904852857  0.5890221004031144  0.5493956422400432
  0.7266471472647877  0.4540187882498942  0.4967059576337765
  0.8925148937580576  0.3352515366137621  0.5293604431575298
  0.9779541007250200  0.4697944830291798  0.5882391577343172
  0.1393618900324169  0.9173654707218973  0.4963999704953657
  0.0577028779982994  0.7782261547774688  0.4630807521810412
  0.2222450057340329  0.6655993338872284  0.5225201591515642
  0.3090637772994876  0.8052003792615172  0.5479347515201657
  0.4616099595932054  0.9058493710262638  0.5938278721096429
  0.3704170599925143  0.7500788636058501  0.5201322601722397
  0.5634156692046030  0.6791972443794625  0.4897962404815074
  0.6557947816709684  0.8280157716974190  0.5099810850130326
  0.8102449597019341  0.9039698766129374  0.5733878328499651
  0.7179711776302069  0.7662103340135431  0.4989525043579838
  0.9182021489283845  0.6733562687152178  0.4847962014715013
 -0.0056592310572929  0.8376909692174979  0.4739594270421121
  0.5773087469827740  0.3737268937412490  0.6739281222352403
 
  0.00000000E+00  0.00000000E+00  0.00000000E+00
  0.00000000E+00  0.00000000E+00  0.00000000E+00
  0.00000000E+00  0.00000000E+00  0.00000000E+00
  0.00000000E+00  0.00000000E+00  0.00000000E+00
  0.00000000E+00  0.00000000E+00  0.00000000E+00
  0.00000000E+00  0.00000000E+00  0.00000000E+00
  0.00000000E+00  0.00000000E+00  0.00000000E+00
  0.00000000E+00  0.00000000E+00  0.00000000E+00
  0.00000000E+00  0.00000000E+00  0.00000000E+00
  0.00000000E+00  0.00000000E+00  0.00000000E+00
  0.00000000E+00  0.00000000E+00  0.00000000E+00
  0.00000000E+00  0.00000000E+00  0.00000000E+00
  0.00000000E+00  0.00000000E+00  0.00000000E+00
  0.00000000E+00  0.00000000E+00  0.00000000E+00
  0.00000000E+00  0.00000000E+00  0.00000000E+00
  0.00000000E+00  0.00000000E+00  0.00000000E+00
  0.00000000E+00  0.00000000E+00  0.00000000E+00
  0.00000000E+00  0.00000000E+00  0.00000000E+00
  0.00000000E+00  0.00000000E+00  0.00000000E+00
  0.00000000E+00  0.00000000E+00  0.00000000E+00
  0.00000000E+00  0.00000000E+00  0.00000000E+00
  0.00000000E+00  0.00000000E+00  0.00000000E+00
  0.00000000E+00  0.00000000E+00  0.00000000E+00
  0.00000000E+00  0.00000000E+00  0.00000000E+00
  0.00000000E+00  0.00000000E+00  0.00000000E+00
  0.00000000E+00  0.00000000E+00  0.00000000E+00
  0.00000000E+00  0.00000000E+00  0.00000000E+00
  0.00000000E+00  0.00000000E+00  0.00000000E+00
  0.00000000E+00  0.00000000E+00  0.00000000E+00
  0.00000000E+00  0.00000000E+00  0.00000000E+00
  0.00000000E+00  0.00000000E+00  0.00000000E+00
  0.00000000E+00  0.00000000E+00  0.00000000E+00
  0.00000000E+00  0.00000000E+00  0.00000000E+00
  0.00000000E+00  0.00000000E+00  0.00000000E+00
  0.00000000E+00  0.00000000E+00  0.00000000E+00
  0.00000000E+00  0.00000000E+00  0.00000000E+00
  0.00000000E+00  0.00000000E+00  0.00000000E+00
  0.00000000E+00  0.00000000E+00  0.00000000E+00
  0.00000000E+00  0.00000000E+00  0.00000000E+00
  0.00000000E+00  0.00000000E+00  0.00000000E+00
  0.00000000E+00  0.00000000E+00  0.00000000E+00
  0.00000000E+00  0.00000000E+00  0.00000000E+00
  0.00000000E+00  0.00000000E+00  0.00000000E+00
  0.00000000E+00  0.00000000E+00  0.00000000E+00
  0.00000000E+00  0.00000000E+00  0.00000000E+00
  0.00000000E+00  0.00000000E+00  0.00000000E+00
  0.00000000E+00  0.00000000E+00  0.00000000E+00
  0.00000000E+00  0.00000000E+00  0.00000000E+00
  0.00000000E+00  0.00000000E+00  0.00000000E+00
  0.00000000E+00  0.00000000E+00  0.00000000E+00
  0.00000000E+00  0.00000000E+00  0.00000000E+00
  0.00000000E+00  0.00000000E+00  0.00000000E+00
  0.00000000E+00  0.00000000E+00  0.00000000E+00
  0.00000000E+00  0.00000000E+00  0.00000000E+00
  0.00000000E+00  0.00000000E+00  0.00000000E+00
  0.00000000E+00  0.00000000E+00  0.00000000E+00
  0.00000000E+00  0.00000000E+00  0.00000000E+00
  0.00000000E+00  0.00000000E+00  0.00000000E+00
  0.00000000E+00  0.00000000E+00  0.00000000E+00
  0.00000000E+00  0.00000000E+00  0.00000000E+00
  0.00000000E+00  0.00000000E+00  0.00000000E+00
  0.00000000E+00  0.00000000E+00  0.00000000E+00
  0.00000000E+00  0.00000000E+00  0.00000000E+00
  0.00000000E+00  0.00000000E+00  0.00000000E+00
  0.00000000E+00  0.00000000E+00  0.00000000E+00
  0.00000000E+00  0.00000000E+00  0.00000000E+00
  0.00000000E+00  0.00000000E+00  0.00000000E+00
  0.00000000E+00  0.00000000E+00  0.00000000E+00
  0.00000000E+00  0.00000000E+00  0.00000000E+00
  0.00000000E+00  0.00000000E+00  0.00000000E+00
  0.00000000E+00  0.00000000E+00  0.00000000E+00
  0.00000000E+00  0.00000000E+00  0.00000000E+00
  0.00000000E+00  0.00000000E+00  0.00000000E+00
