Layer                                   
   1.00000000000000     
     3.5202000140999998    0.0000000000000000    0.0000000000000000
     0.0000000000000000    3.5202000140999998    0.0000000000000000
     0.0000000000000000    0.0000000000000000   24.0000000000000000
   H    O    Zr   Si   Se
    10     7     2     2     2
Direct
  0.4061786357547855  0.4669676419043348  0.1547838909603860
  0.3370388659831545  0.6194721514804904  0.0913482760570167
  0.2014198464058106  0.4632149581743175  0.4160533692436022
  0.3475382502469478  0.5811054455089260  0.3550961587488080
  0.4285853527776030  0.5226827844528451  0.2613314428838245
  0.1975463480642919  0.1624403286261281  0.2280117144513444
  0.2438155533445213  0.4581967270350361  0.5375557854547202
  0.9287274903388418  0.2578761573154325  0.5003148115342491
  0.7786636676907530  0.9637351433555631  0.3255867583200454
  0.3821902877174292  0.0965847173400806  0.3539292666262454
  0.3586806223387697  0.3794752745945035  0.1141998872246685
  0.1600944095114906  0.3806760992874192  0.3785095598177426
  0.2782033179380951  0.4531669826980785  0.2283294733693808
  0.1087386261882342  0.4675127449967415  0.5012639767472946
  0.5141871288764890  0.8865857479817164  0.3253953527638305
  0.5153135797072771  0.6069966925075772  0.9751174414896477
  0.2835840529025705  0.3216274925957860  0.6124777911862386
  0.7478794623519948  0.7825037429980841  0.8887088730430731
  0.2544020278333366  0.3406795140443821  0.6960372777062858
  0.2794979674270708  0.7690301989785235  0.7932775527701066
  0.7816705276120079  0.3114428621563449  0.7988405226497721
  0.2881943608035931  0.2943823345459859  0.9295264453906599
  0.7347041096096332  0.8914454638978405  0.6435910802556595
 
  0.14051128E-01 -0.41108742E-02 -0.15554892E-01
  0.70813574E-02 -0.19185910E-01  0.19520009E-01
  0.44560719E-02  0.70013171E-02 -0.40019484E-02
 -0.70665449E-02  0.69134329E-02  0.86258692E-02
 -0.43544992E-02  0.68740624E-02  0.12231355E-01
 -0.82789020E-02  0.17811912E-01  0.10457392E-01
 -0.45297270E-02  0.15579309E-01 -0.11497722E-02
 -0.14346550E-01  0.74781275E-02 -0.19189971E-01
 -0.69074966E-02 -0.28369535E-01  0.62168490E-03
 -0.19441133E-02 -0.39272454E-01 -0.11983748E-01
 -0.20036091E-02 -0.79886934E-03  0.31924606E-02
  0.53373792E-03 -0.24934687E-02 -0.92524211E-03
 -0.62154447E-03 -0.76394999E-02 -0.62044003E-03
  0.13407057E-02 -0.44935869E-02 -0.47828163E-02
  0.35316348E-02 -0.10258614E-02 -0.31572037E-02
  0.70212831E-04  0.88010121E-03 -0.15988479E-02
  0.33279302E-02  0.13403715E-02  0.34857186E-03
  0.77890526E-03  0.43390791E-02  0.15941997E-02
 -0.50288189E-02 -0.21065172E-02 -0.25210714E-03
  0.33090670E-02 -0.13614419E-02 -0.22010657E-02
  0.44652241E-02  0.50841554E-02 -0.49928374E-03
  0.11231438E-02 -0.15163961E-02  0.18346166E-02
  0.46148868E-04  0.86743455E-03 -0.89073906E-03
 
           1
   1.00000000000000     
  0.76259371E+00  0.15010554E-02 -0.16305820E-17  0.00000000E+00
  0.41017021E+00  0.46579985E+00  0.15413577E+00
  0.33905050E+00  0.61402192E+00  0.92161610E-01
  0.20268570E+00  0.46520386E+00  0.41588662E+00
  0.34553082E+00  0.58306938E+00  0.35545557E+00
  0.42734835E+00  0.52463553E+00  0.26184108E+00
  0.19519452E+00  0.16750024E+00  0.22844744E+00
  0.24252877E+00  0.46262242E+00  0.53750788E+00
  0.92465200E+00  0.26000050E+00  0.49951523E+00
  0.77670142E+00  0.95567607E+00  0.32561266E+00
  0.38163801E+00  0.85428404E-01  0.35342994E+00
  0.35811145E+00  0.37924834E+00  0.11433291E+00
  0.16024603E+00  0.37996777E+00  0.37847101E+00
  0.27802675E+00  0.45099679E+00  0.22830362E+00
  0.10911949E+00  0.46623623E+00  0.50106469E+00
  0.51519038E+00  0.88629433E+00  0.32526380E+00
  0.51533353E+00  0.60724671E+00  0.97505082E+00
  0.28452943E+00  0.32200826E+00  0.61249232E+00
  0.74810073E+00  0.78373637E+00  0.88877530E+00
  0.25297347E+00  0.34008111E+00  0.69602677E+00
  0.28043799E+00  0.76864345E+00  0.79318584E+00
  0.78293899E+00  0.31288714E+00  0.79881972E+00
  0.28851342E+00  0.29395156E+00  0.92960289E+00
  0.73471722E+00  0.89169188E+00  0.64355397E+00
  0.45813040E-02 -0.63521838E-03 -0.36974263E-03
  0.18285001E-02 -0.39398553E-02  0.62298021E-03
  0.11492566E-02  0.20898762E-02 -0.43461352E-03
 -0.96528186E-03  0.25829176E-02  0.23239450E-03
 -0.95568820E-03  0.26542037E-02  0.54088889E-03
 -0.37743215E-02  0.11359606E-02  0.33636301E-03
 -0.58889023E-03  0.48348770E-02  0.43101481E-04
 -0.42817467E-02  0.21991610E-02 -0.85228201E-03
 -0.23522922E-02 -0.76984164E-02 -0.24244772E-05
 -0.59780326E-03 -0.10526196E-01 -0.42076204E-03
 -0.59182974E-03 -0.35546167E-03  0.12729954E-03
  0.68795218E-04 -0.75987605E-03 -0.14931005E-04
 -0.10343615E-03 -0.19787865E-02 -0.19484304E-04
  0.35868799E-03 -0.13061097E-02 -0.19964888E-03
  0.10496152E-02 -0.34019567E-03 -0.13654377E-03
 -0.48223817E-04  0.24699946E-03 -0.69015093E-04
  0.96224966E-03  0.34842228E-03  0.88729259E-06
  0.21230657E-03  0.12344480E-02  0.66786620E-04
 -0.14310369E-02 -0.60069383E-03 -0.95211554E-05
  0.94236015E-03 -0.45233675E-03 -0.94350469E-04
  0.12806432E-02  0.14853085E-02 -0.16192094E-04
  0.34365193E-03 -0.43203437E-03  0.77041898E-04
  0.54822693E-05  0.26483851E-03 -0.36924380E-04
  0.00000000E+00  0.00000000E+00  0.00000000E+00
  0.00000000E+00  0.00000000E+00  0.00000000E+00
  0.00000000E+00  0.00000000E+00  0.00000000E+00
  0.00000000E+00  0.00000000E+00  0.00000000E+00
  0.00000000E+00  0.00000000E+00  0.00000000E+00
  0.00000000E+00  0.00000000E+00  0.00000000E+00
  0.00000000E+00  0.00000000E+00  0.00000000E+00
  0.00000000E+00  0.00000000E+00  0.00000000E+00
  0.00000000E+00  0.00000000E+00  0.00000000E+00
  0.00000000E+00  0.00000000E+00  0.00000000E+00
  0.00000000E+00  0.00000000E+00  0.00000000E+00
  0.00000000E+00  0.00000000E+00  0.00000000E+00
  0.00000000E+00  0.00000000E+00  0.00000000E+00
  0.00000000E+00  0.00000000E+00  0.00000000E+00
  0.00000000E+00  0.00000000E+00  0.00000000E+00
  0.00000000E+00  0.00000000E+00  0.00000000E+00
  0.00000000E+00  0.00000000E+00  0.00000000E+00
  0.00000000E+00  0.00000000E+00  0.00000000E+00
  0.00000000E+00  0.00000000E+00  0.00000000E+00
  0.00000000E+00  0.00000000E+00  0.00000000E+00
  0.00000000E+00  0.00000000E+00  0.00000000E+00
  0.00000000E+00  0.00000000E+00  0.00000000E+00
  0.00000000E+00  0.00000000E+00  0.00000000E+00
