 Ti2 Cl2 O2                             
   1.00000000000000     
     3.1892779167624594    0.0000000000000000    0.0000000000000000
     0.0000000000000000    3.9615958604888242    0.0000000000000000
     0.0000000000000000    0.0000000000000000   20.2326486746080008
   Ti   Cl   O 
     2     2     2
Direct
  0.4999998610892700  0.0000000056240554  0.5368406782970900
  0.0000002159139259  0.4999999974023506  0.4631603348426552
  0.5000000237527098  0.5000000061184526  0.3742466255338471
 -0.0000000863992180 -0.0000000110324509  0.6257519224584187
 -0.0000000927545785 -0.0000000021210264  0.4696437155649902
  0.5000000783978914  0.5000000040086173  0.5303567233029984
 
  0.00000000E+00  0.00000000E+00  0.00000000E+00
  0.00000000E+00  0.00000000E+00  0.00000000E+00
  0.00000000E+00  0.00000000E+00  0.00000000E+00
  0.00000000E+00  0.00000000E+00  0.00000000E+00
  0.00000000E+00  0.00000000E+00  0.00000000E+00
  0.00000000E+00  0.00000000E+00  0.00000000E+00
