CONTCAR\(2)                             
   1.00000000000000     
    12.6478004455999997    0.0000000000000000    0.0000000000000000
    -6.3238812619999996   10.9533274348000003    0.0000000000000000
     0.0000000000000000    0.0000000000000000   18.1298007964999996
   Mo   S    H 
    16    32     1
Selective dynamics
Direct
  0.0835954754832784  0.1666994913907587  0.5012365703178432   F   F   F
  0.3333795930933903  0.1667634517730079  0.5010012999366893   F   F   F
  0.5831011123535887  0.1667003365906297  0.5012345428048235   F   F   F
  0.8333273150841407  0.1666696864474559  0.5012148399991787   F   F   F
  0.0835850396464792  0.4168851468317740  0.5012228752979269   F   F   F
  0.3333062804595741  0.4166724875205787  0.5005601592061311   F   F   F
  0.5833506608493053  0.4166702180540440  0.5005732298771974   F   F   F
  0.8332951111738609  0.4168927603821473  0.5012318102979876   F   F   F
  0.0833311958353917  0.6666566912464091  0.5014709630291421   F   F   F
  0.3333708660666801  0.6666308393748395  0.5009837852692840   F   F   F
  0.5833402081847865  0.6667012500862626  0.5005561790324577   F   F   F
  0.8332507103997742  0.6666286796903336  0.5009954381570623   F   F   F
  0.0833344237863898  0.9166688538582477  0.5014782417912969   F   F   F
  0.3333401889456198  0.9166673269382670  0.5014722340096398   F   F   F
  0.5831143548721869  0.9164134787346114  0.5012226112502276   F   F   F
  0.8333009563048961  0.9164061468905587  0.5012341538585687   F   F   F
  0.1670631235706566  0.0837574326682926  0.5878091736728450   F   F   F
  0.1668278664050860  0.0831074183144551  0.4147979733846725   F   F   F
  0.4166823756694598  0.0837485046727906  0.5878088543424127   F   F   F
  0.4162769385536649  0.0831038307171852  0.4147978040510196   F   F   F
  0.6665408026036914  0.0832704204514201  0.5876399730641992   F   F   F
  0.6664802868308399  0.0832493874846207  0.4148518105598100   F   F   F
  0.9167242244116736  0.0832730635011885  0.5876439619926472   F   F   F
  0.9167569264424671  0.0832447937177889  0.4148604357696613   F   F   F
  0.1668809015250616  0.3334438612424009  0.5874886467240330   F   F   F
  0.1657414074657169  0.3328616476278583  0.4143821189514938   F   F   F
  0.4196038675542155  0.3392269044709053  0.5886986194573609   F   F   F
  0.4164472718536913  0.3328859415113925  0.4142655139359164   F   F   F
  0.6665579839933145  0.3334413048173488  0.5874927337515743   F   F   F
  0.6671208569101168  0.3328690976994366  0.4143872929008268   F   F   F
  0.9167256234276877  0.3334577578512423  0.5876386881053719   F   F   F
  0.9167479583473721  0.3335156265054735  0.4148508215979874   F   F   F
  0.1670533196918953  0.5833012051941182  0.5877966501671992   F   F   F
  0.1667975547551777  0.5837030927602100  0.4147819693743884   F   F   F
  0.4194291412021585  0.5805852233623128  0.5885607276764730   F   F   F
  0.4164424535934472  0.5835531086762913  0.4142357337827676   F   F   F
  0.6609301388646571  0.5804826816974398  0.5886486627804217   F   F   F
  0.6671061417548501  0.5835469182496453  0.4142528115332667   F   F   F
  0.9162541807585569  0.5833143927294913  0.5878051161777265   F   F   F
  0.9168966197362280  0.5837134226765102  0.4147929382792483   F   F   F
  0.1666699986261833  0.8333265429644925  0.5879109136710312   F   F   F
  0.1666669768092106  0.8333334172856723  0.4150513299403116   F   F   F
  0.4167002452998290  0.8329471784980313  0.5877968726957050   F   F   F
  0.4162944536335615  0.8332022378061126  0.4147823627666014   F   F   F
  0.6665553302593494  0.8331152524685166  0.5874874870171141   F   F   F
  0.6671360962231248  0.8342574412190942  0.4143793688862800   F   F   F
  0.9162455679438537  0.8329389290298437  0.5878061060973607   F   F   F
  0.9169023424404230  0.8331844371046557  0.4147936887449788   F   F   F
  0.5000877033034641  0.4994600202138884  0.6380165059509131   T   T   T
 
  0.00000000E+00  0.00000000E+00  0.00000000E+00
  0.00000000E+00  0.00000000E+00  0.00000000E+00
  0.00000000E+00  0.00000000E+00  0.00000000E+00
  0.00000000E+00  0.00000000E+00  0.00000000E+00
  0.00000000E+00  0.00000000E+00  0.00000000E+00
  0.00000000E+00  0.00000000E+00  0.00000000E+00
  0.00000000E+00  0.00000000E+00  0.00000000E+00
  0.00000000E+00  0.00000000E+00  0.00000000E+00
  0.00000000E+00  0.00000000E+00  0.00000000E+00
  0.00000000E+00  0.00000000E+00  0.00000000E+00
  0.00000000E+00  0.00000000E+00  0.00000000E+00
  0.00000000E+00  0.00000000E+00  0.00000000E+00
  0.00000000E+00  0.00000000E+00  0.00000000E+00
  0.00000000E+00  0.00000000E+00  0.00000000E+00
  0.00000000E+00  0.00000000E+00  0.00000000E+00
  0.00000000E+00  0.00000000E+00  0.00000000E+00
  0.00000000E+00  0.00000000E+00  0.00000000E+00
  0.00000000E+00  0.00000000E+00  0.00000000E+00
  0.00000000E+00  0.00000000E+00  0.00000000E+00
  0.00000000E+00  0.00000000E+00  0.00000000E+00
  0.00000000E+00  0.00000000E+00  0.00000000E+00
  0.00000000E+00  0.00000000E+00  0.00000000E+00
  0.00000000E+00  0.00000000E+00  0.00000000E+00
  0.00000000E+00  0.00000000E+00  0.00000000E+00
  0.00000000E+00  0.00000000E+00  0.00000000E+00
  0.00000000E+00  0.00000000E+00  0.00000000E+00
  0.00000000E+00  0.00000000E+00  0.00000000E+00
  0.00000000E+00  0.00000000E+00  0.00000000E+00
  0.00000000E+00  0.00000000E+00  0.00000000E+00
  0.00000000E+00  0.00000000E+00  0.00000000E+00
  0.00000000E+00  0.00000000E+00  0.00000000E+00
  0.00000000E+00  0.00000000E+00  0.00000000E+00
  0.00000000E+00  0.00000000E+00  0.00000000E+00
  0.00000000E+00  0.00000000E+00  0.00000000E+00
  0.00000000E+00  0.00000000E+00  0.00000000E+00
  0.00000000E+00  0.00000000E+00  0.00000000E+00
  0.00000000E+00  0.00000000E+00  0.00000000E+00
  0.00000000E+00  0.00000000E+00  0.00000000E+00
  0.00000000E+00  0.00000000E+00  0.00000000E+00
  0.00000000E+00  0.00000000E+00  0.00000000E+00
  0.00000000E+00  0.00000000E+00  0.00000000E+00
  0.00000000E+00  0.00000000E+00  0.00000000E+00
  0.00000000E+00  0.00000000E+00  0.00000000E+00
  0.00000000E+00  0.00000000E+00  0.00000000E+00
  0.00000000E+00  0.00000000E+00  0.00000000E+00
  0.00000000E+00  0.00000000E+00  0.00000000E+00
  0.00000000E+00  0.00000000E+00  0.00000000E+00
  0.00000000E+00  0.00000000E+00  0.00000000E+00
  0.00000000E+00  0.00000000E+00  0.00000000E+00
