CONTCAR\(5)                             
   1.00000000000000     
    11.7227001190000006    0.0000000000000000    0.0000000000000000
     1.9537737858999999   10.6868737691000000    0.0000000000000000
     0.0000000000000000    0.0000000000000000   24.3673000335999994
   Y    C    I    O 
    18     6    21     1
Direct
  0.2863610676490327  0.2797447542437091  0.7040488487303184
  0.2558721395287922  0.4656550617333884  0.4400917429488161
  0.2046374594579034  0.7690595069577755  0.4736835912137233
  0.1349648340519004  0.2391633595234847  0.5228776472542916
  0.0812656854114282  0.5397086200584486  0.5527263190778950
  0.0519753594285017  0.6757738120249233  0.3617777541862220
  0.6118534329869919  0.3302315910562015  0.6354892703730154
  0.5924741306442953  0.4645216037128316  0.4433781608495401
  0.5401021373489419  0.7665885645690913  0.4747455276009098
  0.4518573804868041  0.2392592496410157  0.5228963271203314
  0.4053179486483418  0.5398157964795278  0.5526808418966261
  0.3899072968542627  0.6760379751898264  0.3618983156497535
  0.9442907632765248  0.3303376882492965  0.6354896733840303
  0.9195293003764582  0.4645035787855956  0.4433694559639465
  0.8720615557959872  0.7673050395800689  0.4746666611209879
  0.7933483193171336  0.2394914822303743  0.5229795622109209
  0.7432129665510120  0.5402279188569625  0.5543176914365920
  0.7212566596726954  0.6749384396087917  0.3626377457918258
  0.2692921315183200  0.3837051198953511  0.5296723467646727
  0.0625593006013900  0.6278635899291826  0.4556950394061881
  0.5965067021610018  0.3786734335408095  0.5417305674465228
  0.3950566619337427  0.6279373688239299  0.4557476362103662
  0.9438686313960855  0.3786929466706071  0.5417410342617199
  0.7297857316703172  0.6235355256971855  0.4566050185837692
  0.1847473565969447  0.8925968874065426  0.3546634033074113
  0.1441004149266563  0.1101939548852945  0.6397608877951164
  0.2082941454990046  0.7475445144385805  0.5968171598317461
  0.1230580785565734  0.2559629494885097  0.3994046482395547
  0.9996638851571693  0.0036882332833372  0.4979259405405488
  0.2498174895834225  0.5053000328621703  0.3041452687804949
  0.0817715680015679  0.5037745667043377  0.6888246777094642
  0.5187104849528054  0.8937580199722877  0.3560162584722280
  0.4851660718214864  0.1102150754239215  0.6397113254757315
  0.5410337508222347  0.7461391379307329  0.5969985211607889
  0.4585766618662192  0.2561621143672827  0.3995493339212555
  0.3332523581485805  0.0014374466930542  0.4981482545076183
  0.5842671968675643  0.5005082031194867  0.3067453696555583
  0.4165186677023877  0.5036526780790592  0.6888382529571399
  0.8507904757858282  0.8938291129394376  0.3556997903091402
  0.8144868193511632  0.1128313035028230  0.6410285662395433
  0.8758134726200867  0.7467536212402470  0.5970035351007815
  0.7905948410686447  0.2558705498419641  0.4004952042614591
  0.6661381783409382  0.0027712190649288  0.4986266654225560
  0.9163289347029161  0.5004453237556500  0.3065821518630133
  0.7490706751464291  0.5028273140230280  0.6911959494969244
  0.2949811737135580  0.2231149609189717  0.7747121584689131
 
  0.00000000E+00  0.00000000E+00  0.00000000E+00
  0.00000000E+00  0.00000000E+00  0.00000000E+00
  0.00000000E+00  0.00000000E+00  0.00000000E+00
  0.00000000E+00  0.00000000E+00  0.00000000E+00
  0.00000000E+00  0.00000000E+00  0.00000000E+00
  0.00000000E+00  0.00000000E+00  0.00000000E+00
  0.00000000E+00  0.00000000E+00  0.00000000E+00
  0.00000000E+00  0.00000000E+00  0.00000000E+00
  0.00000000E+00  0.00000000E+00  0.00000000E+00
  0.00000000E+00  0.00000000E+00  0.00000000E+00
  0.00000000E+00  0.00000000E+00  0.00000000E+00
  0.00000000E+00  0.00000000E+00  0.00000000E+00
  0.00000000E+00  0.00000000E+00  0.00000000E+00
  0.00000000E+00  0.00000000E+00  0.00000000E+00
  0.00000000E+00  0.00000000E+00  0.00000000E+00
  0.00000000E+00  0.00000000E+00  0.00000000E+00
  0.00000000E+00  0.00000000E+00  0.00000000E+00
  0.00000000E+00  0.00000000E+00  0.00000000E+00
  0.00000000E+00  0.00000000E+00  0.00000000E+00
  0.00000000E+00  0.00000000E+00  0.00000000E+00
  0.00000000E+00  0.00000000E+00  0.00000000E+00
  0.00000000E+00  0.00000000E+00  0.00000000E+00
  0.00000000E+00  0.00000000E+00  0.00000000E+00
  0.00000000E+00  0.00000000E+00  0.00000000E+00
  0.00000000E+00  0.00000000E+00  0.00000000E+00
  0.00000000E+00  0.00000000E+00  0.00000000E+00
  0.00000000E+00  0.00000000E+00  0.00000000E+00
  0.00000000E+00  0.00000000E+00  0.00000000E+00
  0.00000000E+00  0.00000000E+00  0.00000000E+00
  0.00000000E+00  0.00000000E+00  0.00000000E+00
  0.00000000E+00  0.00000000E+00  0.00000000E+00
  0.00000000E+00  0.00000000E+00  0.00000000E+00
  0.00000000E+00  0.00000000E+00  0.00000000E+00
  0.00000000E+00  0.00000000E+00  0.00000000E+00
  0.00000000E+00  0.00000000E+00  0.00000000E+00
  0.00000000E+00  0.00000000E+00  0.00000000E+00
  0.00000000E+00  0.00000000E+00  0.00000000E+00
  0.00000000E+00  0.00000000E+00  0.00000000E+00
  0.00000000E+00  0.00000000E+00  0.00000000E+00
  0.00000000E+00  0.00000000E+00  0.00000000E+00
  0.00000000E+00  0.00000000E+00  0.00000000E+00
  0.00000000E+00  0.00000000E+00  0.00000000E+00
  0.00000000E+00  0.00000000E+00  0.00000000E+00
  0.00000000E+00  0.00000000E+00  0.00000000E+00
  0.00000000E+00  0.00000000E+00  0.00000000E+00
  0.00000000E+00  0.00000000E+00  0.00000000E+00
