G   53    9    1    0.005     # Parameters to Generate KPOINTS (Don't Edit This Line)
     135
Reciprocal lattice
    0.000000000000    0.000000000000    0.000000000000       1
    0.018867924528    0.000000000000    0.000000000000       2
    0.037735849057    0.000000000000    0.000000000000       2
    0.056603773585    0.000000000000    0.000000000000       2
    0.075471698113    0.000000000000    0.000000000000       2
    0.094339622642    0.000000000000    0.000000000000       2
    0.113207547170    0.000000000000    0.000000000000       2
    0.132075471698    0.000000000000    0.000000000000       2
    0.150943396226    0.000000000000    0.000000000000       2
    0.169811320755    0.000000000000    0.000000000000       2
    0.188679245283    0.000000000000    0.000000000000       2
    0.207547169811    0.000000000000    0.000000000000       2
    0.226415094340    0.000000000000    0.000000000000       2
    0.245283018868    0.000000000000    0.000000000000       2
    0.264150943396    0.000000000000    0.000000000000       2
    0.283018867925    0.000000000000    0.000000000000       2
    0.301886792453    0.000000000000    0.000000000000       2
    0.320754716981    0.000000000000    0.000000000000       2
    0.339622641509    0.000000000000    0.000000000000       2
    0.358490566038    0.000000000000    0.000000000000       2
    0.377358490566    0.000000000000    0.000000000000       2
    0.396226415094    0.000000000000    0.000000000000       2
    0.415094339623    0.000000000000    0.000000000000       2
    0.433962264151    0.000000000000    0.000000000000       2
    0.452830188679    0.000000000000    0.000000000000       2
    0.471698113208    0.000000000000    0.000000000000       2
    0.490566037736    0.000000000000    0.000000000000       2
    0.000000000000    0.111111111111    0.000000000000       2
    0.018867924528    0.111111111111    0.000000000000       4
    0.037735849057    0.111111111111    0.000000000000       4
    0.056603773585    0.111111111111    0.000000000000       4
    0.075471698113    0.111111111111    0.000000000000       4
    0.094339622642    0.111111111111    0.000000000000       4
    0.113207547170    0.111111111111    0.000000000000       4
    0.132075471698    0.111111111111    0.000000000000       4
    0.150943396226    0.111111111111    0.000000000000       4
    0.169811320755    0.111111111111    0.000000000000       4
    0.188679245283    0.111111111111    0.000000000000       4
    0.207547169811    0.111111111111    0.000000000000       4
    0.226415094340    0.111111111111    0.000000000000       4
    0.245283018868    0.111111111111    0.000000000000       4
    0.264150943396    0.111111111111    0.000000000000       4
    0.283018867925    0.111111111111    0.000000000000       4
    0.301886792453    0.111111111111    0.000000000000       4
    0.320754716981    0.111111111111    0.000000000000       4
    0.339622641509    0.111111111111    0.000000000000       4
    0.358490566038    0.111111111111    0.000000000000       4
    0.377358490566    0.111111111111    0.000000000000       4
    0.396226415094    0.111111111111    0.000000000000       4
    0.415094339623    0.111111111111    0.000000000000       4
    0.433962264151    0.111111111111    0.000000000000       4
    0.452830188679    0.111111111111    0.000000000000       4
    0.471698113208    0.111111111111    0.000000000000       4
    0.490566037736    0.111111111111    0.000000000000       4
    0.000000000000    0.222222222222    0.000000000000       2
    0.018867924528    0.222222222222    0.000000000000       4
    0.037735849057    0.222222222222    0.000000000000       4
    0.056603773585    0.222222222222    0.000000000000       4
    0.075471698113    0.222222222222    0.000000000000       4
    0.094339622642    0.222222222222    0.000000000000       4
    0.113207547170    0.222222222222    0.000000000000       4
    0.132075471698    0.222222222222    0.000000000000       4
    0.150943396226    0.222222222222    0.000000000000       4
    0.169811320755    0.222222222222    0.000000000000       4
    0.188679245283    0.222222222222    0.000000000000       4
    0.207547169811    0.222222222222    0.000000000000       4
    0.226415094340    0.222222222222    0.000000000000       4
    0.245283018868    0.222222222222    0.000000000000       4
    0.264150943396    0.222222222222    0.000000000000       4
    0.283018867925    0.222222222222    0.000000000000       4
    0.301886792453    0.222222222222    0.000000000000       4
    0.320754716981    0.222222222222    0.000000000000       4
    0.339622641509    0.222222222222    0.000000000000       4
    0.358490566038    0.222222222222    0.000000000000       4
    0.377358490566    0.222222222222    0.000000000000       4
    0.396226415094    0.222222222222    0.000000000000       4
    0.415094339623    0.222222222222    0.000000000000       4
    0.433962264151    0.222222222222    0.000000000000       4
    0.452830188679    0.222222222222    0.000000000000       4
    0.471698113208    0.222222222222    0.000000000000       4
    0.490566037736    0.222222222222    0.000000000000       4
    0.000000000000    0.333333333333    0.000000000000       2
    0.018867924528    0.333333333333    0.000000000000       4
    0.037735849057    0.333333333333    0.000000000000       4
    0.056603773585    0.333333333333    0.000000000000       4
    0.075471698113    0.333333333333    0.000000000000       4
    0.094339622642    0.333333333333    0.000000000000       4
    0.113207547170    0.333333333333    0.000000000000       4
    0.132075471698    0.333333333333    0.000000000000       4
    0.150943396226    0.333333333333    0.000000000000       4
    0.169811320755    0.333333333333    0.000000000000       4
    0.188679245283    0.333333333333    0.000000000000       4
    0.207547169811    0.333333333333    0.000000000000       4
    0.226415094340    0.333333333333    0.000000000000       4
    0.245283018868    0.333333333333    0.000000000000       4
    0.264150943396    0.333333333333    0.000000000000       4
    0.283018867925    0.333333333333    0.000000000000       4
    0.301886792453    0.333333333333    0.000000000000       4
    0.320754716981    0.333333333333    0.000000000000       4
    0.339622641509    0.333333333333    0.000000000000       4
    0.358490566038    0.333333333333    0.000000000000       4
    0.377358490566    0.333333333333    0.000000000000       4
    0.396226415094    0.333333333333    0.000000000000       4
    0.415094339623    0.333333333333    0.000000000000       4
    0.433962264151    0.333333333333    0.000000000000       4
    0.452830188679    0.333333333333    0.000000000000       4
    0.471698113208    0.333333333333    0.000000000000       4
    0.490566037736    0.333333333333    0.000000000000       4
    0.000000000000    0.444444444444    0.000000000000       2
    0.018867924528    0.444444444444    0.000000000000       4
    0.037735849057    0.444444444444    0.000000000000       4
    0.056603773585    0.444444444444    0.000000000000       4
    0.075471698113    0.444444444444    0.000000000000       4
    0.094339622642    0.444444444444    0.000000000000       4
    0.113207547170    0.444444444444    0.000000000000       4
    0.132075471698    0.444444444444    0.000000000000       4
    0.150943396226    0.444444444444    0.000000000000       4
    0.169811320755    0.444444444444    0.000000000000       4
    0.188679245283    0.444444444444    0.000000000000       4
    0.207547169811    0.444444444444    0.000000000000       4
    0.226415094340    0.444444444444    0.000000000000       4
    0.245283018868    0.444444444444    0.000000000000       4
    0.264150943396    0.444444444444    0.000000000000       4
    0.283018867925    0.444444444444    0.000000000000       4
    0.301886792453    0.444444444444    0.000000000000       4
    0.320754716981    0.444444444444    0.000000000000       4
    0.339622641509    0.444444444444    0.000000000000       4
    0.358490566038    0.444444444444    0.000000000000       4
    0.377358490566    0.444444444444    0.000000000000       4
    0.396226415094    0.444444444444    0.000000000000       4
    0.415094339623    0.444444444444    0.000000000000       4
    0.433962264151    0.444444444444    0.000000000000       4
    0.452830188679    0.444444444444    0.000000000000       4
    0.471698113208    0.444444444444    0.000000000000       4
    0.490566037736    0.444444444444    0.000000000000       4
