 V1 Se2                                 
   1.00000000000000     
     3.3132377231244421    0.0000000000000000    0.0000000000000000
    -1.6566188615622210    2.8693435442193000    0.0000000000000000
     0.0000000000000000    0.0000000000000000   18.1430399097240027
   V    Se
     1     2
Direct
 -0.0000000120087900 -0.0000000077825246  0.5000000021758713
  0.6666666658208504  0.3333331471123208  0.5876409097169577
  0.3333333461879396  0.6666668606702038  0.4123590881071711
 
  0.00000000E+00  0.00000000E+00  0.00000000E+00
  0.00000000E+00  0.00000000E+00  0.00000000E+00
  0.00000000E+00  0.00000000E+00  0.00000000E+00
