CONTCAR\(3)                             
   1.00000000000000     
    10.4272003174000005    0.0000000000000000    0.0000000000000000
     0.0000000000000000   15.5413999556999993    0.0000000000000000
     0.0000000000000000    0.0000000000000000   22.9932003021000000
   Nb   Se   O 
    18    54     1
Direct
  0.0857500979728288  0.4934204466779489  0.4156160399632695
  0.2445690175871822  0.5079869404040238  0.5916020401191855
  0.0856295534241432  0.2461080627182737  0.5720396565787454
  0.2504891311198650  0.7546581596732910  0.4263476525122303
  0.0850685600454494  0.9162191841941443  0.5639679617311479
  0.2528578900844262  0.0851498685461083  0.4333602710549406
  0.4159455633238757  0.4931574442340134  0.4163207260077709
  0.5860572661085081  0.5059552645471193  0.5868927144527366
  0.4190014590503764  0.2469507494609394  0.5720465460443759
  0.5853974371937815  0.7523863823384952  0.4275862675572812
  0.4178225496696731  0.9154421462352543  0.5645136783942353
  0.5854235516937710  0.0842855935086146  0.4337274167524120
  0.7554493130375971  0.4932742574008854  0.4162690011897202
  0.9272272013022045  0.5078991126611240  0.5914454856199909
  0.7522568840122353  0.2469541255743262  0.5720639856037095
  0.9203300872513923  0.7546823227077030  0.4263229147897717
  0.7522731885914797  0.9154163768015583  0.5644677113599105
  0.9180692971822387  0.0850495906546965  0.4333815848121919
  0.0857851173721378  0.6299183380947115  0.6073670203233883
  0.2519503536787244  0.3667665338099997  0.3943636728366622
  0.0860993737749217  0.4174065165877310  0.5251419208449825
  0.2511792779192242  0.5815860796266111  0.4793649473244611
  0.0863466813532050  0.4905409354091916  0.6858592801462120
  0.2519992476429390  0.4874731619082506  0.3279715264268672
  0.2521344444078817  0.9208005797692475  0.4765522596048014
  0.0856653120983819  0.0810223637512778  0.5210102955851956
  0.2514971237320047  0.9893634270280492  0.6364935481000347
  0.0855330263556274  0.0113541178860709  0.3611264994902071
  0.2504729735447349  0.8255560809137719  0.6258199181830775
  0.0852213040382154  0.1745931201417908  0.3717169088269620
  0.2524166180772484  0.1598863284390531  0.6356889958862690
  0.0853710568243269  0.8401418277835708  0.3611331202860831
  0.2511113341921243  0.3411413831201158  0.6314348979552779
  0.0857080327398915  0.6555241485417456  0.3687743441063703
  0.2530930693038941  0.2437940072089140  0.4848855621438762
  0.0853610489072866  0.7599163145118447  0.5112621839537471
  0.4184597045172733  0.6312090344586017  0.6080729530761967
  0.5861523714621976  0.3681408118785517  0.3963210022879571
  0.4164601097900980  0.4186725457051659  0.5258299935115170
  0.5859962946566656  0.5817329296437980  0.4783661132118147
  0.4205360047605184  0.5120225931195992  0.6751692530117515
  0.5853068587209564  0.4880824722016519  0.3293763211900614
  0.5852586420089669  0.9193584777612126  0.4770791371450653
  0.4188727490736692  0.0803111265944767  0.5213081115600235
  0.5850478139365287  0.9890611678920342  0.6365787629667049
  0.4190534667126519  0.0099976633405080  0.3614238723697745
  0.5848063467811933  0.8263150623797099  0.6266556561943837
  0.4195907330287771  0.1734255441466007  0.3710031710617937
  0.5853806463547984  0.1603608088972024  0.6355130764441118
  0.4195042727565064  0.8388985740093660  0.3629118968801020
  0.5858138528137850  0.3439137529769197  0.6313893632181143
  0.4184019087535491  0.6543098238932848  0.3700754738124908
  0.5860158144313578  0.2439933551813376  0.4853217755723681
  0.4174646087422330  0.7561343818729805  0.5140673642556947
  0.7535481362070144  0.6312228251412176  0.6081064838287473
  0.9198937917714431  0.3669120839572724  0.3944356733741878
  0.7554794799925006  0.4186609414537462  0.5256765328743063
  0.9206071047811942  0.5816451848194795  0.4792984313624566
  0.7518153615442698  0.5119865548696929  0.6752217086886595
  0.9188478062996204  0.4874568487442406  0.3279396381542038
  0.9186105240019088  0.9207465019310926  0.4765418117974320
  0.7524454815697103  0.0803149792749656  0.5213046337642124
  0.9184934229243125  0.9893140489428812  0.6365080260785627
  0.7517650747603410  0.0099850483896934  0.3614571856467150
  0.9192029243489256  0.8256291664212533  0.6258038776024702
  0.7514606766973413  0.1734478800897049  0.3711579060215430
  0.9183917092799819  0.1598830041512889  0.6356912218694762
  0.7508648421655287  0.8388992864949658  0.3629465095889982
  0.9203139547322633  0.3413278003418508  0.6313632600148593
  0.7528773731045446  0.6543359485703203  0.3700375098738120
  0.9186831525121811  0.2437940365638736  0.4848853937037334
  0.7533788596460356  0.7560629221092694  0.5141365587742125
  0.0875743307453591  0.3932733059097645  0.7210358346433803
 
  0.00000000E+00  0.00000000E+00  0.00000000E+00
  0.00000000E+00  0.00000000E+00  0.00000000E+00
  0.00000000E+00  0.00000000E+00  0.00000000E+00
  0.00000000E+00  0.00000000E+00  0.00000000E+00
  0.00000000E+00  0.00000000E+00  0.00000000E+00
  0.00000000E+00  0.00000000E+00  0.00000000E+00
  0.00000000E+00  0.00000000E+00  0.00000000E+00
  0.00000000E+00  0.00000000E+00  0.00000000E+00
  0.00000000E+00  0.00000000E+00  0.00000000E+00
  0.00000000E+00  0.00000000E+00  0.00000000E+00
  0.00000000E+00  0.00000000E+00  0.00000000E+00
  0.00000000E+00  0.00000000E+00  0.00000000E+00
  0.00000000E+00  0.00000000E+00  0.00000000E+00
  0.00000000E+00  0.00000000E+00  0.00000000E+00
  0.00000000E+00  0.00000000E+00  0.00000000E+00
  0.00000000E+00  0.00000000E+00  0.00000000E+00
  0.00000000E+00  0.00000000E+00  0.00000000E+00
  0.00000000E+00  0.00000000E+00  0.00000000E+00
  0.00000000E+00  0.00000000E+00  0.00000000E+00
  0.00000000E+00  0.00000000E+00  0.00000000E+00
  0.00000000E+00  0.00000000E+00  0.00000000E+00
  0.00000000E+00  0.00000000E+00  0.00000000E+00
  0.00000000E+00  0.00000000E+00  0.00000000E+00
  0.00000000E+00  0.00000000E+00  0.00000000E+00
  0.00000000E+00  0.00000000E+00  0.00000000E+00
  0.00000000E+00  0.00000000E+00  0.00000000E+00
  0.00000000E+00  0.00000000E+00  0.00000000E+00
  0.00000000E+00  0.00000000E+00  0.00000000E+00
  0.00000000E+00  0.00000000E+00  0.00000000E+00
  0.00000000E+00  0.00000000E+00  0.00000000E+00
  0.00000000E+00  0.00000000E+00  0.00000000E+00
  0.00000000E+00  0.00000000E+00  0.00000000E+00
  0.00000000E+00  0.00000000E+00  0.00000000E+00
  0.00000000E+00  0.00000000E+00  0.00000000E+00
  0.00000000E+00  0.00000000E+00  0.00000000E+00
  0.00000000E+00  0.00000000E+00  0.00000000E+00
  0.00000000E+00  0.00000000E+00  0.00000000E+00
  0.00000000E+00  0.00000000E+00  0.00000000E+00
  0.00000000E+00  0.00000000E+00  0.00000000E+00
  0.00000000E+00  0.00000000E+00  0.00000000E+00
  0.00000000E+00  0.00000000E+00  0.00000000E+00
  0.00000000E+00  0.00000000E+00  0.00000000E+00
  0.00000000E+00  0.00000000E+00  0.00000000E+00
  0.00000000E+00  0.00000000E+00  0.00000000E+00
  0.00000000E+00  0.00000000E+00  0.00000000E+00
  0.00000000E+00  0.00000000E+00  0.00000000E+00
  0.00000000E+00  0.00000000E+00  0.00000000E+00
  0.00000000E+00  0.00000000E+00  0.00000000E+00
  0.00000000E+00  0.00000000E+00  0.00000000E+00
  0.00000000E+00  0.00000000E+00  0.00000000E+00
  0.00000000E+00  0.00000000E+00  0.00000000E+00
  0.00000000E+00  0.00000000E+00  0.00000000E+00
  0.00000000E+00  0.00000000E+00  0.00000000E+00
  0.00000000E+00  0.00000000E+00  0.00000000E+00
  0.00000000E+00  0.00000000E+00  0.00000000E+00
  0.00000000E+00  0.00000000E+00  0.00000000E+00
  0.00000000E+00  0.00000000E+00  0.00000000E+00
  0.00000000E+00  0.00000000E+00  0.00000000E+00
  0.00000000E+00  0.00000000E+00  0.00000000E+00
  0.00000000E+00  0.00000000E+00  0.00000000E+00
  0.00000000E+00  0.00000000E+00  0.00000000E+00
  0.00000000E+00  0.00000000E+00  0.00000000E+00
  0.00000000E+00  0.00000000E+00  0.00000000E+00
  0.00000000E+00  0.00000000E+00  0.00000000E+00
  0.00000000E+00  0.00000000E+00  0.00000000E+00
  0.00000000E+00  0.00000000E+00  0.00000000E+00
  0.00000000E+00  0.00000000E+00  0.00000000E+00
  0.00000000E+00  0.00000000E+00  0.00000000E+00
  0.00000000E+00  0.00000000E+00  0.00000000E+00
  0.00000000E+00  0.00000000E+00  0.00000000E+00
  0.00000000E+00  0.00000000E+00  0.00000000E+00
  0.00000000E+00  0.00000000E+00  0.00000000E+00
  0.00000000E+00  0.00000000E+00  0.00000000E+00
