 Hf2 Te6                                
   1.00000000000000     
     3.8822282023458792    0.0000000000000000    0.0000000000000000
     0.0000000000000000    5.8995933311145894    0.0000000000000000
     0.0000000000000000    0.0000000000000000   21.8140741601039991
   Hf   Te
     2     6
Direct
  0.7500000192243740  0.6683485072451868  0.4225564376216495
  0.2499999590936272  0.1689502390637161  0.5774358014050144
  0.7499999840447334  0.1697227172552557  0.4755170948372435
  0.2500000161376242  0.6677996389721512  0.5244944028276678
  0.7499999953510702  0.9231125073625726  0.6531725275160060
  0.2500000089854981  0.9141709876315791  0.3468135257673475
  0.7500000021530793  0.4086683746900397  0.6554978313856697
  0.2500000150099934  0.4284740277794893  0.3445123786394017
 
  0.00000000E+00  0.00000000E+00  0.00000000E+00
  0.00000000E+00  0.00000000E+00  0.00000000E+00
  0.00000000E+00  0.00000000E+00  0.00000000E+00
  0.00000000E+00  0.00000000E+00  0.00000000E+00
  0.00000000E+00  0.00000000E+00  0.00000000E+00
  0.00000000E+00  0.00000000E+00  0.00000000E+00
  0.00000000E+00  0.00000000E+00  0.00000000E+00
  0.00000000E+00  0.00000000E+00  0.00000000E+00
