CONTCAR                                 
   1.00000000000000     
    12.3274002075000002    0.0000000000000000    0.0000000000000000
     0.0000000000000000   15.7540998459000008    0.0000000000000000
     0.0000000000000000    0.0000000000000000   20.2700004577999984
   Pr   Br   O    H 
    12    30     2     1
Direct
  0.2486196585843993  0.6407217157214690  0.5121902781652348
  0.0835748578372400  0.3634800810285677  0.4777428697847420
  0.2491701516703920  0.1368960785304066  0.5255326590738649
  0.0834760853432480  0.8651774685626707  0.4655861610192454
  0.5833761939916463  0.6274401593954979  0.5569179905062732
  0.4144682769626350  0.3621806227638360  0.4815269853073658
  0.5833890672334548  0.1365254245367205  0.5257173503354139
  0.4062475241773750  0.8668914806621261  0.4664824913101345
  0.9180788402355140  0.6408562847290513  0.5122630893920150
  0.7525829430400310  0.3621787032564911  0.4817051902950111
  0.9177041606007428  0.1369756598428422  0.5256024353017886
  0.7606066180463981  0.8669883445410994  0.4666126984336419
  0.2489700961531646  0.8793260548863127  0.3614494240531095
  0.0835879235823308  0.1220875859330927  0.6283832740852544
  0.2509233262086693  0.4833137789118156  0.4177101215609597
  0.0832902741259937  0.5193198651196588  0.5713969369805494
  0.0835310031141700  0.0609251665821132  0.4332053657118676
  0.2459284566016378  0.9435894446641743  0.5586189651685504
  0.0834132439742547  0.7457682761151612  0.5850731721555226
  0.2502986522906450  0.2574916083775539  0.4061634773897984
  0.0832910645357806  0.6845145982480355  0.4098146266830620
  0.2458585818557750  0.3149338898357816  0.5813035801330110
  0.5834762996265931  0.8751841560277854  0.3698777634893700
  0.4170378173220591  0.1203215985817642  0.6273110246612705
  0.5836818554619431  0.4855147553868561  0.4360173779391030
  0.3924681260731466  0.5115019242825333  0.5790134272764613
  0.4160335544401196  0.0604236498636632  0.4340109532981056
  0.5832844409935246  0.9355711538756113  0.5555519664753559
  0.4010600754665153  0.7523106066921229  0.5898691152743673
  0.5836427348740774  0.2586260842856989  0.4077034595545808
  0.4307524466143198  0.6832065397056651  0.4242839125987235
  0.5834222675935526  0.3172202838187223  0.5828565491843626
  0.9179079166912093  0.8791232947692502  0.3614655749522869
  0.7498378860988968  0.1204207154543892  0.6273045030599605
  0.9159218484969492  0.4832603222962002  0.4178107464828951
  0.7741801166377925  0.5115049533188815  0.5792414124977777
  0.7509805395920116  0.0604245028821012  0.4341130730272438
  0.9212322045051791  0.9436180129942079  0.5586375192355856
  0.7656369044489689  0.7524777023858936  0.5900167686322129
  0.9167051278922133  0.2574751573977828  0.4062554255865689
  0.7358719333338867  0.6832596377295979  0.4244792300914411
  0.9214716382087296  0.3150353956616581  0.5814487969913963
  0.5836400302963063  0.6195985102422915  0.6593478052088680
  0.5835208507970940  0.6326085908964121  0.7289473199899718
  0.5892867413694607  0.5740197622063974  0.7450269006456605
 
  0.00000000E+00  0.00000000E+00  0.00000000E+00
  0.00000000E+00  0.00000000E+00  0.00000000E+00
  0.00000000E+00  0.00000000E+00  0.00000000E+00
  0.00000000E+00  0.00000000E+00  0.00000000E+00
  0.00000000E+00  0.00000000E+00  0.00000000E+00
  0.00000000E+00  0.00000000E+00  0.00000000E+00
  0.00000000E+00  0.00000000E+00  0.00000000E+00
  0.00000000E+00  0.00000000E+00  0.00000000E+00
  0.00000000E+00  0.00000000E+00  0.00000000E+00
  0.00000000E+00  0.00000000E+00  0.00000000E+00
  0.00000000E+00  0.00000000E+00  0.00000000E+00
  0.00000000E+00  0.00000000E+00  0.00000000E+00
  0.00000000E+00  0.00000000E+00  0.00000000E+00
  0.00000000E+00  0.00000000E+00  0.00000000E+00
  0.00000000E+00  0.00000000E+00  0.00000000E+00
  0.00000000E+00  0.00000000E+00  0.00000000E+00
  0.00000000E+00  0.00000000E+00  0.00000000E+00
  0.00000000E+00  0.00000000E+00  0.00000000E+00
  0.00000000E+00  0.00000000E+00  0.00000000E+00
  0.00000000E+00  0.00000000E+00  0.00000000E+00
  0.00000000E+00  0.00000000E+00  0.00000000E+00
  0.00000000E+00  0.00000000E+00  0.00000000E+00
  0.00000000E+00  0.00000000E+00  0.00000000E+00
  0.00000000E+00  0.00000000E+00  0.00000000E+00
  0.00000000E+00  0.00000000E+00  0.00000000E+00
  0.00000000E+00  0.00000000E+00  0.00000000E+00
  0.00000000E+00  0.00000000E+00  0.00000000E+00
  0.00000000E+00  0.00000000E+00  0.00000000E+00
  0.00000000E+00  0.00000000E+00  0.00000000E+00
  0.00000000E+00  0.00000000E+00  0.00000000E+00
  0.00000000E+00  0.00000000E+00  0.00000000E+00
  0.00000000E+00  0.00000000E+00  0.00000000E+00
  0.00000000E+00  0.00000000E+00  0.00000000E+00
  0.00000000E+00  0.00000000E+00  0.00000000E+00
  0.00000000E+00  0.00000000E+00  0.00000000E+00
  0.00000000E+00  0.00000000E+00  0.00000000E+00
  0.00000000E+00  0.00000000E+00  0.00000000E+00
  0.00000000E+00  0.00000000E+00  0.00000000E+00
  0.00000000E+00  0.00000000E+00  0.00000000E+00
  0.00000000E+00  0.00000000E+00  0.00000000E+00
  0.00000000E+00  0.00000000E+00  0.00000000E+00
  0.00000000E+00  0.00000000E+00  0.00000000E+00
  0.00000000E+00  0.00000000E+00  0.00000000E+00
  0.00000000E+00  0.00000000E+00  0.00000000E+00
  0.00000000E+00  0.00000000E+00  0.00000000E+00
