CONTCAR\(9)                             
   1.00000000000000     
    12.4687995910999998    0.0000000000000000    0.0000000000000000
     0.0000000000000000   15.4259996414000007    0.0000000000000000
     0.0000000000000000    0.0000000000000000   19.6597995758000010
   Ta   Co   Te   O    H 
    16    16    32     1     1
Direct
  0.4861654995715625  0.0524090603863030  0.5093907034563685
  0.2364237326956413  0.1062366923827014  0.4964889076959693
  0.0069380516904687  0.3558851191924148  0.4952798522598201
  0.2578392638949083  0.3030614374580622  0.5074441928443605
  0.9861078029442822  0.0523122054122069  0.5094640410224400
  0.7364504373455389  0.1062032385363452  0.4964455612353049
  0.5075542800465414  0.3567668568769946  0.4947803438054663
  0.7559887087683350  0.3036588329059455  0.5087614625661914
  0.4862843918413091  0.5522318744315768  0.4984679269532322
  0.2356642379066614  0.6057337320917782  0.4944997676938385
  0.0065635670659887  0.8556208631995901  0.4961810466948293
  0.2570195274790095  0.8024326974368421  0.5090237385818028
  0.9865665824762004  0.5533448049776624  0.5077411632648463
  0.7361207906978464  0.6047792965535663  0.4969543971172641
  0.5066710510172001  0.8551558717326984  0.4971760190903396
  0.7560848161301976  0.8018756744354079  0.5090453983143064
  0.4217954574484750  0.2089778521545185  0.4624515045476727
  0.0716870278793067  0.1999934718110126  0.5418011877009832
  0.3202957855063602  0.4587970618781512  0.4592196714184666
  0.1721244457986160  0.4493844606183117  0.5401398822221566
  0.9219263108145768  0.2085373637137877  0.4624052675960399
  0.5713117645823473  0.1999824403830388  0.5418213005274808
  0.8219750782281281  0.4580103168798502  0.4631970152406240
  0.6726372827037750  0.4554871119687931  0.5448300059342017
  0.4212501136809124  0.7084928677307261  0.4620025431043118
  0.0737910797854582  0.6995585120041099  0.5409822380505105
  0.3217411179609613  0.9587674103840982  0.4635538016210461
  0.1715941309970006  0.9491376664580713  0.5426614915186505
  0.9222910114416081  0.7085026419299325  0.4623097341855882
  0.5719200189106743  0.6931548144838828  0.5443450310538012
  0.8216032331385819  0.9584855595639397  0.4636684652497252
  0.6712602310578148  0.9493910930105258  0.5429488650782517
  0.1235092205161479  0.4752272278284480  0.4119440344209409
  0.1185945562348536  0.2245812661681512  0.4134398666429533
  0.3750399820336767  0.1849569857448117  0.5910628765975829
  0.3700469395616111  0.4383656225882078  0.5874721727067538
  0.1219212674394541  0.3240277418487167  0.6202559757256907
  0.3709824741263787  0.3340241726701620  0.3819015753285484
  0.3731813855397306  0.0845847708135068  0.3840121240269028
  0.1228734780646832  0.0736684992786607  0.6214734129568029
  0.6292234445446354  0.4701137443087902  0.4111946006978329
  0.6188341210311350  0.2234222350496751  0.4137576710109556
  0.8751006399810919  0.1850212078500633  0.5907235743776909
  0.8688821989566122  0.4342962553364345  0.5908979012395292
  0.6188548147843633  0.3248927646664015  0.6204826413270936
  0.8701219180752133  0.3342682357983406  0.3833587379247660
  0.8730304555265604  0.0842545063186080  0.3840614442442600
  0.6227916698740117  0.0738856100443783  0.6216093820684279
  0.1249753369961937  0.9749505060711314  0.4144228012530249
  0.1184518579972078  0.7253327192730836  0.4125032961417787
  0.3749685788155688  0.6817958847949370  0.5897736631650403
  0.3679938062641881  0.9340202839540623  0.5918262248301716
  0.1199892278903576  0.8225295829494357  0.6213728756312875
  0.3701621248658711  0.8359440135006508  0.3842039732780336
  0.3728777735776134  0.5865160622491246  0.3794890112955898
  0.1234002219149275  0.5728177719502767  0.6198913731848705
  0.6247308887390801  0.9736582499185076  0.4147680932032003
  0.6176950614859038  0.7243145807205451  0.4147109020674975
  0.8756376598444504  0.6843513397671970  0.5900959812006903
  0.8678989735105489  0.9333305153745712  0.5915970144263980
  0.6187839333105032  0.8219543085395387  0.6214183034859744
  0.8696395184717574  0.8354326560429044  0.3838564792283989
  0.8700833823870582  0.5854959698443096  0.3833706047133489
  0.6192538510589003  0.5718242892838319  0.6258317639137729
  0.7524961187413908  0.6038073654130827  0.6890988202762003
  0.7224163063320148  0.6242040530566371  0.7322390297621766
 
  0.00000000E+00  0.00000000E+00  0.00000000E+00
  0.00000000E+00  0.00000000E+00  0.00000000E+00
  0.00000000E+00  0.00000000E+00  0.00000000E+00
  0.00000000E+00  0.00000000E+00  0.00000000E+00
  0.00000000E+00  0.00000000E+00  0.00000000E+00
  0.00000000E+00  0.00000000E+00  0.00000000E+00
  0.00000000E+00  0.00000000E+00  0.00000000E+00
  0.00000000E+00  0.00000000E+00  0.00000000E+00
  0.00000000E+00  0.00000000E+00  0.00000000E+00
  0.00000000E+00  0.00000000E+00  0.00000000E+00
  0.00000000E+00  0.00000000E+00  0.00000000E+00
  0.00000000E+00  0.00000000E+00  0.00000000E+00
  0.00000000E+00  0.00000000E+00  0.00000000E+00
  0.00000000E+00  0.00000000E+00  0.00000000E+00
  0.00000000E+00  0.00000000E+00  0.00000000E+00
  0.00000000E+00  0.00000000E+00  0.00000000E+00
  0.00000000E+00  0.00000000E+00  0.00000000E+00
  0.00000000E+00  0.00000000E+00  0.00000000E+00
  0.00000000E+00  0.00000000E+00  0.00000000E+00
  0.00000000E+00  0.00000000E+00  0.00000000E+00
  0.00000000E+00  0.00000000E+00  0.00000000E+00
  0.00000000E+00  0.00000000E+00  0.00000000E+00
  0.00000000E+00  0.00000000E+00  0.00000000E+00
  0.00000000E+00  0.00000000E+00  0.00000000E+00
  0.00000000E+00  0.00000000E+00  0.00000000E+00
  0.00000000E+00  0.00000000E+00  0.00000000E+00
  0.00000000E+00  0.00000000E+00  0.00000000E+00
  0.00000000E+00  0.00000000E+00  0.00000000E+00
  0.00000000E+00  0.00000000E+00  0.00000000E+00
  0.00000000E+00  0.00000000E+00  0.00000000E+00
  0.00000000E+00  0.00000000E+00  0.00000000E+00
  0.00000000E+00  0.00000000E+00  0.00000000E+00
  0.00000000E+00  0.00000000E+00  0.00000000E+00
  0.00000000E+00  0.00000000E+00  0.00000000E+00
  0.00000000E+00  0.00000000E+00  0.00000000E+00
  0.00000000E+00  0.00000000E+00  0.00000000E+00
  0.00000000E+00  0.00000000E+00  0.00000000E+00
  0.00000000E+00  0.00000000E+00  0.00000000E+00
  0.00000000E+00  0.00000000E+00  0.00000000E+00
  0.00000000E+00  0.00000000E+00  0.00000000E+00
  0.00000000E+00  0.00000000E+00  0.00000000E+00
  0.00000000E+00  0.00000000E+00  0.00000000E+00
  0.00000000E+00  0.00000000E+00  0.00000000E+00
  0.00000000E+00  0.00000000E+00  0.00000000E+00
  0.00000000E+00  0.00000000E+00  0.00000000E+00
  0.00000000E+00  0.00000000E+00  0.00000000E+00
  0.00000000E+00  0.00000000E+00  0.00000000E+00
  0.00000000E+00  0.00000000E+00  0.00000000E+00
  0.00000000E+00  0.00000000E+00  0.00000000E+00
  0.00000000E+00  0.00000000E+00  0.00000000E+00
  0.00000000E+00  0.00000000E+00  0.00000000E+00
  0.00000000E+00  0.00000000E+00  0.00000000E+00
  0.00000000E+00  0.00000000E+00  0.00000000E+00
  0.00000000E+00  0.00000000E+00  0.00000000E+00
  0.00000000E+00  0.00000000E+00  0.00000000E+00
  0.00000000E+00  0.00000000E+00  0.00000000E+00
  0.00000000E+00  0.00000000E+00  0.00000000E+00
  0.00000000E+00  0.00000000E+00  0.00000000E+00
  0.00000000E+00  0.00000000E+00  0.00000000E+00
  0.00000000E+00  0.00000000E+00  0.00000000E+00
  0.00000000E+00  0.00000000E+00  0.00000000E+00
  0.00000000E+00  0.00000000E+00  0.00000000E+00
  0.00000000E+00  0.00000000E+00  0.00000000E+00
  0.00000000E+00  0.00000000E+00  0.00000000E+00
  0.00000000E+00  0.00000000E+00  0.00000000E+00
  0.00000000E+00  0.00000000E+00  0.00000000E+00
