CONTCAR\(8)                             
   1.00000000000000     
    13.7187995910999998    0.0000000000000000    0.0000000000000000
    -4.5729412920000003   17.9978325079000001    0.0000000000000000
     0.0000000000000000    0.0000000000000000   21.4340000153000005
   Ag   Te   Mo   O    H 
     6    36    36     2     1
Direct
 -0.0013489102719199  0.0019830006741204  0.5024108620100931
  0.3329375883119363  0.0019760667350905  0.5008826602347257
  0.6671888102124252  0.0019928412524017  0.5027005216353442
  0.0056690096096793  0.5016788099033640  0.4993166188029896
  0.3287586824872732  0.5017793779574925  0.4994630977484101
  0.6696842912503583  0.5040053608196723  0.4950666349508882
  0.2594665640867187  0.2757622427893297  0.6490800034480581
  0.1389840758252205  0.4166197090547838  0.5656651492295329
  0.1952207109464231  0.0872666154601274  0.4356050994084113
  0.0371966718010761  0.1105629906444982  0.5973793261172309
  0.2980602945386306  0.3944005529386987  0.4026631274111713
  0.0765141975050506  0.2290541131782168  0.3504313817586514
  0.5921381994758034  0.2761473909436916  0.6485231924983592
  0.4732910630947359  0.4175117750686806  0.5627096575429150
  0.5290229443896222  0.0869378712747161  0.4354564050048965
  0.3705247677482030  0.1102969596953767  0.5965843848040268
  0.6309197751711094  0.3926658217828894  0.4011028908507714
  0.4091107353465649  0.2284987312262980  0.3498975191711147
  0.9247853824761997  0.2757140069844425  0.6491172802488153
  0.8054895459169176  0.4175311192598722  0.5629081363432118
  0.8628108322275612  0.0871708458437318  0.4356183905535753
  0.7033463070463547  0.1107866459856467  0.5973471523725554
  0.9645290570919771  0.3942579333170076  0.4026823050199921
  0.7435277710118383  0.2281001084069157  0.3500694877433746
  0.2574385171176074  0.7719531398420726  0.6499813112032481
  0.1393958183153643  0.9155794703507067  0.5662337453101075
  0.1958601963283425  0.5873875316255824  0.4338525025599637
  0.0347387706854871  0.6086004142576902  0.5962262339510870
  0.2988765247012681  0.8942116342252969  0.4046432377677545
  0.0767448367829152  0.7297796517357482  0.3508458386500058
  0.5916337890840451  0.7748087194007963  0.6500464064940917
  0.4713441949241500  0.9154910896106607  0.5665497566470642
  0.5324065712562703  0.5882493489327768  0.4358456256217662
  0.3715758861661995  0.6084396432294819  0.5964150469575230
  0.6306507298882607  0.8958273287669294  0.4050444267218764
  0.4104279912513063  0.7296118171486673  0.3509719526230542
  0.9254192321087490  0.7752862339695132  0.6495848383146473
  0.8063605010701658  0.9172518811404817  0.5668456766466768
  0.8604316078419920  0.5883463042006628  0.4354341345098847
  0.7037327596158053  0.6103674604766499  0.5995929582442860
  0.9670225485325163  0.8958347353373489  0.4046426208097503
  0.7452829949811013  0.7353271703572992  0.3496504296805346
  0.1068917541603142  0.3203554999593517  0.4568285599532778
  0.2283508113388520  0.1842020595882922  0.5429789465615743
  0.0578931178390147  0.1732459055382672  0.4732461354961062
  0.2775207908114878  0.3313785976023546  0.5263388239242522
  0.0878717751420185  0.2630241918170614  0.5710067220289909
  0.2471963382245380  0.2413920346499295  0.4287059413009953
  0.4401373898704996  0.3201638239110075  0.4558855275828809
  0.5614879215833750  0.1842433759844206  0.5425826117442120
  0.3909866433948180  0.1730280614743430  0.4727059716209598
  0.6105571606650666  0.3313104902764134  0.5255437265212420
  0.4213741019057017  0.2632825564757082  0.5702396206685685
  0.5803888413835455  0.2407685551963294  0.4281354708270402
  0.7734406290435938  0.3199569967581584  0.4559647138031307
  0.8947755490452954  0.1841469249381761  0.5431398477173947
  0.7245574699050706  0.1728608273624876  0.4729590830346841
  0.9436385880491825  0.3312863487115563  0.5263860409074361
  0.7543366124851407  0.2632926304663100  0.5703923362033032
  0.9140855647616556  0.2412681409207143  0.4287909753810557
  0.1072873779986340  0.8200133491010368  0.4577883072374673
  0.2276397534686952  0.6822801951324670  0.5429090602747927
  0.0566605755475044  0.6724032443811769  0.4730816293012675
  0.2768014438884501  0.8297663203570285  0.5279677571613820
  0.0867830437892335  0.7612272974584734  0.5713442723517899
  0.2473470202790031  0.7410726955983146  0.4294131801873599
  0.4400937307840105  0.8199804332773659  0.4580575804944938
  0.5635581552809671  0.6833261469580298  0.5438747140275846
  0.3920661423798155  0.6724353922089317  0.4732282910687463
  0.6108979645123719  0.8313044899671043  0.5278897845141040
  0.4207540554223814  0.7610547249416290  0.5715505204342332
  0.5809887962294186  0.7431361095595024  0.4294991642588241
  0.7744023357261631  0.8228319883525930  0.4576549066838201
  0.8927557887785311  0.6830345584697184  0.5438685997033504
  0.7258761473242283  0.6765877892071104  0.4700885320877446
  0.9443420706496199  0.8313199297759568  0.5273745390756975
  0.7548591985638742  0.7632271521911271  0.5711088119403599
  0.9151415810182856  0.7431660221142389  0.4293105616076006
  0.7507255752910941  0.6700905982158923  0.7368095057088514
  0.6863909908262360  0.6116763955666805  0.7024189882938418
  0.7125960786809959  0.7088056217293283  0.7359721916871124
 
  0.00000000E+00  0.00000000E+00  0.00000000E+00
  0.00000000E+00  0.00000000E+00  0.00000000E+00
  0.00000000E+00  0.00000000E+00  0.00000000E+00
  0.00000000E+00  0.00000000E+00  0.00000000E+00
  0.00000000E+00  0.00000000E+00  0.00000000E+00
  0.00000000E+00  0.00000000E+00  0.00000000E+00
  0.00000000E+00  0.00000000E+00  0.00000000E+00
  0.00000000E+00  0.00000000E+00  0.00000000E+00
  0.00000000E+00  0.00000000E+00  0.00000000E+00
  0.00000000E+00  0.00000000E+00  0.00000000E+00
  0.00000000E+00  0.00000000E+00  0.00000000E+00
  0.00000000E+00  0.00000000E+00  0.00000000E+00
  0.00000000E+00  0.00000000E+00  0.00000000E+00
  0.00000000E+00  0.00000000E+00  0.00000000E+00
  0.00000000E+00  0.00000000E+00  0.00000000E+00
  0.00000000E+00  0.00000000E+00  0.00000000E+00
  0.00000000E+00  0.00000000E+00  0.00000000E+00
  0.00000000E+00  0.00000000E+00  0.00000000E+00
  0.00000000E+00  0.00000000E+00  0.00000000E+00
  0.00000000E+00  0.00000000E+00  0.00000000E+00
  0.00000000E+00  0.00000000E+00  0.00000000E+00
  0.00000000E+00  0.00000000E+00  0.00000000E+00
  0.00000000E+00  0.00000000E+00  0.00000000E+00
  0.00000000E+00  0.00000000E+00  0.00000000E+00
  0.00000000E+00  0.00000000E+00  0.00000000E+00
  0.00000000E+00  0.00000000E+00  0.00000000E+00
  0.00000000E+00  0.00000000E+00  0.00000000E+00
  0.00000000E+00  0.00000000E+00  0.00000000E+00
  0.00000000E+00  0.00000000E+00  0.00000000E+00
  0.00000000E+00  0.00000000E+00  0.00000000E+00
  0.00000000E+00  0.00000000E+00  0.00000000E+00
  0.00000000E+00  0.00000000E+00  0.00000000E+00
  0.00000000E+00  0.00000000E+00  0.00000000E+00
  0.00000000E+00  0.00000000E+00  0.00000000E+00
  0.00000000E+00  0.00000000E+00  0.00000000E+00
  0.00000000E+00  0.00000000E+00  0.00000000E+00
  0.00000000E+00  0.00000000E+00  0.00000000E+00
  0.00000000E+00  0.00000000E+00  0.00000000E+00
  0.00000000E+00  0.00000000E+00  0.00000000E+00
  0.00000000E+00  0.00000000E+00  0.00000000E+00
  0.00000000E+00  0.00000000E+00  0.00000000E+00
  0.00000000E+00  0.00000000E+00  0.00000000E+00
  0.00000000E+00  0.00000000E+00  0.00000000E+00
  0.00000000E+00  0.00000000E+00  0.00000000E+00
  0.00000000E+00  0.00000000E+00  0.00000000E+00
  0.00000000E+00  0.00000000E+00  0.00000000E+00
  0.00000000E+00  0.00000000E+00  0.00000000E+00
  0.00000000E+00  0.00000000E+00  0.00000000E+00
  0.00000000E+00  0.00000000E+00  0.00000000E+00
  0.00000000E+00  0.00000000E+00  0.00000000E+00
  0.00000000E+00  0.00000000E+00  0.00000000E+00
  0.00000000E+00  0.00000000E+00  0.00000000E+00
  0.00000000E+00  0.00000000E+00  0.00000000E+00
  0.00000000E+00  0.00000000E+00  0.00000000E+00
  0.00000000E+00  0.00000000E+00  0.00000000E+00
  0.00000000E+00  0.00000000E+00  0.00000000E+00
  0.00000000E+00  0.00000000E+00  0.00000000E+00
  0.00000000E+00  0.00000000E+00  0.00000000E+00
  0.00000000E+00  0.00000000E+00  0.00000000E+00
  0.00000000E+00  0.00000000E+00  0.00000000E+00
  0.00000000E+00  0.00000000E+00  0.00000000E+00
  0.00000000E+00  0.00000000E+00  0.00000000E+00
  0.00000000E+00  0.00000000E+00  0.00000000E+00
  0.00000000E+00  0.00000000E+00  0.00000000E+00
  0.00000000E+00  0.00000000E+00  0.00000000E+00
  0.00000000E+00  0.00000000E+00  0.00000000E+00
  0.00000000E+00  0.00000000E+00  0.00000000E+00
  0.00000000E+00  0.00000000E+00  0.00000000E+00
  0.00000000E+00  0.00000000E+00  0.00000000E+00
  0.00000000E+00  0.00000000E+00  0.00000000E+00
  0.00000000E+00  0.00000000E+00  0.00000000E+00
  0.00000000E+00  0.00000000E+00  0.00000000E+00
  0.00000000E+00  0.00000000E+00  0.00000000E+00
  0.00000000E+00  0.00000000E+00  0.00000000E+00
  0.00000000E+00  0.00000000E+00  0.00000000E+00
  0.00000000E+00  0.00000000E+00  0.00000000E+00
  0.00000000E+00  0.00000000E+00  0.00000000E+00
  0.00000000E+00  0.00000000E+00  0.00000000E+00
  0.00000000E+00  0.00000000E+00  0.00000000E+00
  0.00000000E+00  0.00000000E+00  0.00000000E+00
  0.00000000E+00  0.00000000E+00  0.00000000E+00
