CONTCAR\(10)                            
   1.00000000000000     
    12.5135002136000004    0.0000000000000000    0.0000000000000000
     0.0000000000000000   15.7480001450000007    0.0000000000000000
     0.0000000000000000    0.0000000000000000   19.7180004119999985
   Nb   Fe   Te   O    H 
    16    16    32     1     1
Direct
  0.2596788577779605  0.1550337795685096  0.5083766730949333
  0.9865400952022280  0.4055056602230137  0.5064210363370057
  0.0095439281109980  0.0970690346274647  0.4928389399141530
  0.2369037136994811  0.3471998227121382  0.4916884519506689
  0.7592160945669912  0.1561228469525464  0.5083237131819187
  0.4897122104141087  0.4043898518695455  0.5055911688497213
  0.5098998878464929  0.0966343869579902  0.4931854009326330
  0.7370926976038235  0.3476265943678684  0.4856039860198813
  0.2616962564787914  0.6549160756665435  0.5081838354894326
  0.9857019553279279  0.9055189481889725  0.5095014591418853
  0.0114907216219632  0.5969469770882919  0.4924039882019837
  0.2362603631557402  0.8467853027837376  0.4938545387204122
  0.7606510504279442  0.6542712751662840  0.5082301304032013
  0.4859199936146361  0.9052557079809395  0.5094685418049123
  0.5113735090798793  0.5966215234401716  0.4922869109358630
  0.7361043616967694  0.8466201821663126  0.4932920514204311
  0.0690688866342903  0.2556696974822899  0.5380319276308407
  0.3197994135105943  0.9971768897608984  0.4632681015114551
  0.4258397743458324  0.2462911083690556  0.4619821843440698
  0.1755372673905184  0.0052039888081072  0.5400244675616783
  0.5698871236920158  0.2574505504733782  0.5394265573753219
  0.8197112602457349  0.9972067806026275  0.4628363927987562
  0.9258974654120021  0.2473883297593512  0.4611943432366464
  0.6759239330744815  0.0049973365721651  0.5395228702637370
  0.0704869556754710  0.7547595590528631  0.5394957977388878
  0.3209278901623814  0.4967248726275411  0.4607447267603196
  0.4274323867645736  0.7471489338975320  0.4624622344614422
  0.1772677818304882  0.5046899856316533  0.5378089401987990
  0.5710337985192174  0.7540539330996722  0.5391702741614771
  0.8206916231488337  0.4972041099706736  0.4615369514183704
  0.9269186763683688  0.7472555376158950  0.4626824752175929
  0.6757840462003643  0.5002756754573523  0.5408035347081438
  0.3805674961377450  0.3712810522639189  0.3820909931577111
  0.1247490187894580  0.9787983032859922  0.4127727824793742
  0.3709380809749607  0.0233649551100066  0.5901433059378105
  0.1285825929427379  0.3804402922574416  0.6166385718782129
  0.3747230951905020  0.2736717738395227  0.5886817835496396
  0.1213882675608153  0.2291688027556753  0.4112150262717610
  0.1164522168743116  0.1318527059823834  0.6180548690055727
  0.3669302301342018  0.1208323935172814  0.3832909286816792
  0.8804308648075281  0.3728534943950068  0.3803507636743969
  0.6244831241497908  0.9784718775086083  0.4124467107341916
  0.8708161798449543  0.0243690101843169  0.5898623834001698
  0.6310125663696740  0.3790797977572999  0.6209919797350124
  0.8705664847307550  0.2771747786530904  0.5872039318797553
  0.6197561154654052  0.2270684006912757  0.4109717548815957
  0.6170985228777925  0.1312635960433883  0.6180721751481435
  0.8671662162716297  0.1212076340182663  0.3831055376620445
  0.3784126849408221  0.8720673442099185  0.3840263973216643
  0.1259828071518292  0.4798903226916760  0.4103314553661819
  0.3733080661359206  0.5203342263633404  0.5877385640757826
  0.1284431453971567  0.8801897536073130  0.6190160080469611
  0.3756939125896457  0.7721491554129819  0.5898695473442662
  0.1223890101705632  0.7293758832396913  0.4121105125960206
  0.1193994051860920  0.6295248703708067  0.6178063108411050
  0.3686223714665315  0.6223515778658962  0.3827453747969063
  0.8789436727642289  0.8720004589002662  0.3838011235689102
  0.6272045620906558  0.4816232101802398  0.4101202695549944
  0.8719067790787119  0.5223526689672684  0.5883422227121329
  0.6289952567564275  0.8798113193749436  0.6186401635253788
  0.8748454121286938  0.7723686272636303  0.5896705212006094
  0.6225827559446401  0.7291748982680102  0.4117139972535420
  0.6185170836221590  0.6282963948064979  0.6177133908093372
  0.8688742153412217  0.6223318324650168  0.3830633629862010
  0.5067316474111050  0.4125972651094321  0.6897658889624207
  0.5353618701003768  0.4006056636982264  0.7349487901739442
 
  0.00000000E+00  0.00000000E+00  0.00000000E+00
  0.00000000E+00  0.00000000E+00  0.00000000E+00
  0.00000000E+00  0.00000000E+00  0.00000000E+00
  0.00000000E+00  0.00000000E+00  0.00000000E+00
  0.00000000E+00  0.00000000E+00  0.00000000E+00
  0.00000000E+00  0.00000000E+00  0.00000000E+00
  0.00000000E+00  0.00000000E+00  0.00000000E+00
  0.00000000E+00  0.00000000E+00  0.00000000E+00
  0.00000000E+00  0.00000000E+00  0.00000000E+00
  0.00000000E+00  0.00000000E+00  0.00000000E+00
  0.00000000E+00  0.00000000E+00  0.00000000E+00
  0.00000000E+00  0.00000000E+00  0.00000000E+00
  0.00000000E+00  0.00000000E+00  0.00000000E+00
  0.00000000E+00  0.00000000E+00  0.00000000E+00
  0.00000000E+00  0.00000000E+00  0.00000000E+00
  0.00000000E+00  0.00000000E+00  0.00000000E+00
  0.00000000E+00  0.00000000E+00  0.00000000E+00
  0.00000000E+00  0.00000000E+00  0.00000000E+00
  0.00000000E+00  0.00000000E+00  0.00000000E+00
  0.00000000E+00  0.00000000E+00  0.00000000E+00
  0.00000000E+00  0.00000000E+00  0.00000000E+00
  0.00000000E+00  0.00000000E+00  0.00000000E+00
  0.00000000E+00  0.00000000E+00  0.00000000E+00
  0.00000000E+00  0.00000000E+00  0.00000000E+00
  0.00000000E+00  0.00000000E+00  0.00000000E+00
  0.00000000E+00  0.00000000E+00  0.00000000E+00
  0.00000000E+00  0.00000000E+00  0.00000000E+00
  0.00000000E+00  0.00000000E+00  0.00000000E+00
  0.00000000E+00  0.00000000E+00  0.00000000E+00
  0.00000000E+00  0.00000000E+00  0.00000000E+00
  0.00000000E+00  0.00000000E+00  0.00000000E+00
  0.00000000E+00  0.00000000E+00  0.00000000E+00
  0.00000000E+00  0.00000000E+00  0.00000000E+00
  0.00000000E+00  0.00000000E+00  0.00000000E+00
  0.00000000E+00  0.00000000E+00  0.00000000E+00
  0.00000000E+00  0.00000000E+00  0.00000000E+00
  0.00000000E+00  0.00000000E+00  0.00000000E+00
  0.00000000E+00  0.00000000E+00  0.00000000E+00
  0.00000000E+00  0.00000000E+00  0.00000000E+00
  0.00000000E+00  0.00000000E+00  0.00000000E+00
  0.00000000E+00  0.00000000E+00  0.00000000E+00
  0.00000000E+00  0.00000000E+00  0.00000000E+00
  0.00000000E+00  0.00000000E+00  0.00000000E+00
  0.00000000E+00  0.00000000E+00  0.00000000E+00
  0.00000000E+00  0.00000000E+00  0.00000000E+00
  0.00000000E+00  0.00000000E+00  0.00000000E+00
  0.00000000E+00  0.00000000E+00  0.00000000E+00
  0.00000000E+00  0.00000000E+00  0.00000000E+00
  0.00000000E+00  0.00000000E+00  0.00000000E+00
  0.00000000E+00  0.00000000E+00  0.00000000E+00
  0.00000000E+00  0.00000000E+00  0.00000000E+00
  0.00000000E+00  0.00000000E+00  0.00000000E+00
  0.00000000E+00  0.00000000E+00  0.00000000E+00
  0.00000000E+00  0.00000000E+00  0.00000000E+00
  0.00000000E+00  0.00000000E+00  0.00000000E+00
  0.00000000E+00  0.00000000E+00  0.00000000E+00
  0.00000000E+00  0.00000000E+00  0.00000000E+00
  0.00000000E+00  0.00000000E+00  0.00000000E+00
  0.00000000E+00  0.00000000E+00  0.00000000E+00
  0.00000000E+00  0.00000000E+00  0.00000000E+00
  0.00000000E+00  0.00000000E+00  0.00000000E+00
  0.00000000E+00  0.00000000E+00  0.00000000E+00
  0.00000000E+00  0.00000000E+00  0.00000000E+00
  0.00000000E+00  0.00000000E+00  0.00000000E+00
  0.00000000E+00  0.00000000E+00  0.00000000E+00
  0.00000000E+00  0.00000000E+00  0.00000000E+00
