 La2 Te4 Se2                            
   1.00000000000000     
     4.3105183884153515    0.0000000000000000    0.0000000000000000
     0.0000000000000000    4.3114415706024642    0.0000000000000000
     0.0000000000000000    0.0000000000000000   24.0856699630559987
   La   Te   Se
     2     4     2
Direct
  0.5000000246925750  0.0000000879591042  0.5770902134116240
 -0.0000000387600242  0.4999999211325200  0.4229098646979539
 -0.0000000037906057 -0.0000000038463240  0.6886305010948199
  0.5000000020778309  0.5000000055142445  0.3113694501801991
  0.5000000125070552  0.5000000052930065  0.6886153277617891
 -0.0000000092968402 -0.0000000159852209  0.3113846370573192
  0.0000000002408082  0.4999999830627095  0.5494935990517080
  0.5000000123292008  0.0000000168699603  0.4505064067445866
 
  0.00000000E+00  0.00000000E+00  0.00000000E+00
  0.00000000E+00  0.00000000E+00  0.00000000E+00
  0.00000000E+00  0.00000000E+00  0.00000000E+00
  0.00000000E+00  0.00000000E+00  0.00000000E+00
  0.00000000E+00  0.00000000E+00  0.00000000E+00
  0.00000000E+00  0.00000000E+00  0.00000000E+00
  0.00000000E+00  0.00000000E+00  0.00000000E+00
  0.00000000E+00  0.00000000E+00  0.00000000E+00
