CONTCAR\(2)                             
   1.00000000000000     
    11.1906995773000002    0.0000000000000000    0.0000000000000000
     0.0000000000000000   11.1906995773000002    0.0000000000000000
     0.0000000000000000    0.0000000000000000   22.0060005188000005
   Zr   Ge   Te   O    H 
    18    18    18     1     1
Direct
  0.1666733805064957  0.9999016378089510  0.4017352152604763
  0.9968158545758009  0.1640611755206844  0.5979675149469679
  0.4987862369204131  0.9998478861309812  0.4018876597608970
  0.3322710372261259  0.1673786900688446  0.5999021449734104
  0.8327145672708613  0.9998615446206613  0.4007943715030550
  0.6685845265118260  0.1641493750704170  0.5980931758347530
  0.1668594716905192  0.3339246826424285  0.4031494221379796
  0.0007644062637721  0.4998258752362576  0.6001620653481651
  0.4986761669265642  0.3338959602332643  0.4032009476130546
  0.3331596397637013  0.4998459684668532  0.6101763147272434
  0.8327040724951750  0.3338940718900490  0.4019059374534731
  0.6652151066389703  0.4995201768772380  0.6000364750566521
  0.1667866680137376  0.6658643465199600  0.4031395551072643
  0.9967988576771870  0.8356778211631123  0.5979974113709500
  0.4985803275983789  0.6658178090377639  0.4032647895963903
  0.3318210115800175  0.8324470978394160  0.5998976034682303
  0.8326716534008283  0.6658884208062978  0.4019487126420364
  0.6684500683353747  0.8355238654865808  0.5981038377881370
  0.1661799552025099  0.1662944993487157  0.5005813990296270
  0.9994385018388393  0.9998853160501994  0.4991879758644108
  0.4990001623677478  0.1663205637857441  0.5007785682879510
  0.3326654466534185  0.9998562643143870  0.5008024872892409
  0.8326761541823403  0.1667118632146472  0.4992838276183408
  0.6658877714585255  0.9998135335700394  0.4993799727998331
  0.1670648661703886  0.4998275395082286  0.5029660232109640
  0.9992833929775038  0.3336694393813419  0.5007401173441819
  0.4979677678775216  0.4998275334712265  0.5031785165090218
  0.3326378416636005  0.3338187281709235  0.5027892706225486
  0.8328104955361302  0.4998517018427205  0.5009909276151890
  0.6661169574876573  0.3336177742107540  0.5007678509418000
  0.1661124475383314  0.8335081718032074  0.5005832788870487
  0.9992356412836729  0.6660885033043952  0.5007873069996280
  0.4988759249199430  0.8334013304782586  0.5008066453085418
  0.3325721961172780  0.6658648370024303  0.5028582738092842
  0.8326335182859949  0.8330474211403586  0.4993212090881182
  0.6660429381533703  0.6660486728763720  0.5008069913209798
  0.1656259141714118  0.9999234657923630  0.6598803694191669
  0.0000997266487646  0.1674917925211575  0.3407674575377231
  0.4992438515642636  0.9997608562421716  0.6599754281726466
  0.3329443879946402  0.1673524778324207  0.3410470999022420
  0.8324650851492963  0.9997633645158382  0.6615878878283065
  0.6654829004244228  0.1672727147344366  0.3407247177213688
  0.1572853087416521  0.3239424929396787  0.6600932495735438
  0.0001347630641675  0.4999347755890503  0.3410784226917267
  0.5076777769530952  0.3241105494727443  0.6601581788466473
  0.3327640051066023  0.4998984537067862  0.3416576718427561
  0.8328128761556880  0.3332692659514508  0.6600264421038321
  0.6651364789733525  0.4999229842279802  0.3412954292186334
  0.1569947455783326  0.6757555921953574  0.6603028857624003
  0.0000843593310062  0.8323039872272725  0.3407780384065725
  0.5074036989031359  0.6752663834647855  0.6598780339870617
  0.3328882789591156  0.8323944118080376  0.3410512078354986
  0.8326853346050502  0.6664184789926710  0.6600003853225936
  0.6654010960849448  0.8324512290948275  0.3407135928266872
  0.3243840836865431  0.4968697100200395  0.7046661317082152
  0.3866803147939999  0.5149368267772171  0.7340739101565543
 
  0.00000000E+00  0.00000000E+00  0.00000000E+00
  0.00000000E+00  0.00000000E+00  0.00000000E+00
  0.00000000E+00  0.00000000E+00  0.00000000E+00
  0.00000000E+00  0.00000000E+00  0.00000000E+00
  0.00000000E+00  0.00000000E+00  0.00000000E+00
  0.00000000E+00  0.00000000E+00  0.00000000E+00
  0.00000000E+00  0.00000000E+00  0.00000000E+00
  0.00000000E+00  0.00000000E+00  0.00000000E+00
  0.00000000E+00  0.00000000E+00  0.00000000E+00
  0.00000000E+00  0.00000000E+00  0.00000000E+00
  0.00000000E+00  0.00000000E+00  0.00000000E+00
  0.00000000E+00  0.00000000E+00  0.00000000E+00
  0.00000000E+00  0.00000000E+00  0.00000000E+00
  0.00000000E+00  0.00000000E+00  0.00000000E+00
  0.00000000E+00  0.00000000E+00  0.00000000E+00
  0.00000000E+00  0.00000000E+00  0.00000000E+00
  0.00000000E+00  0.00000000E+00  0.00000000E+00
  0.00000000E+00  0.00000000E+00  0.00000000E+00
  0.00000000E+00  0.00000000E+00  0.00000000E+00
  0.00000000E+00  0.00000000E+00  0.00000000E+00
  0.00000000E+00  0.00000000E+00  0.00000000E+00
  0.00000000E+00  0.00000000E+00  0.00000000E+00
  0.00000000E+00  0.00000000E+00  0.00000000E+00
  0.00000000E+00  0.00000000E+00  0.00000000E+00
  0.00000000E+00  0.00000000E+00  0.00000000E+00
  0.00000000E+00  0.00000000E+00  0.00000000E+00
  0.00000000E+00  0.00000000E+00  0.00000000E+00
  0.00000000E+00  0.00000000E+00  0.00000000E+00
  0.00000000E+00  0.00000000E+00  0.00000000E+00
  0.00000000E+00  0.00000000E+00  0.00000000E+00
  0.00000000E+00  0.00000000E+00  0.00000000E+00
  0.00000000E+00  0.00000000E+00  0.00000000E+00
  0.00000000E+00  0.00000000E+00  0.00000000E+00
  0.00000000E+00  0.00000000E+00  0.00000000E+00
  0.00000000E+00  0.00000000E+00  0.00000000E+00
  0.00000000E+00  0.00000000E+00  0.00000000E+00
  0.00000000E+00  0.00000000E+00  0.00000000E+00
  0.00000000E+00  0.00000000E+00  0.00000000E+00
  0.00000000E+00  0.00000000E+00  0.00000000E+00
  0.00000000E+00  0.00000000E+00  0.00000000E+00
  0.00000000E+00  0.00000000E+00  0.00000000E+00
  0.00000000E+00  0.00000000E+00  0.00000000E+00
  0.00000000E+00  0.00000000E+00  0.00000000E+00
  0.00000000E+00  0.00000000E+00  0.00000000E+00
  0.00000000E+00  0.00000000E+00  0.00000000E+00
  0.00000000E+00  0.00000000E+00  0.00000000E+00
  0.00000000E+00  0.00000000E+00  0.00000000E+00
  0.00000000E+00  0.00000000E+00  0.00000000E+00
  0.00000000E+00  0.00000000E+00  0.00000000E+00
  0.00000000E+00  0.00000000E+00  0.00000000E+00
  0.00000000E+00  0.00000000E+00  0.00000000E+00
  0.00000000E+00  0.00000000E+00  0.00000000E+00
  0.00000000E+00  0.00000000E+00  0.00000000E+00
  0.00000000E+00  0.00000000E+00  0.00000000E+00
  0.00000000E+00  0.00000000E+00  0.00000000E+00
  0.00000000E+00  0.00000000E+00  0.00000000E+00
