CONTCAR\(9)                             
   1.00000000000000     
    10.8315000533999992    0.0000000000000000    0.0000000000000000
     5.4156999588000003    9.3802674871999994    0.0000000000000000
     0.0000000000000000    0.0000000000000000   21.2775001525999983
   Ti   Te   P    O 
    18    18     9     1
Direct
  0.1088555583528073  0.1159349290626564  0.4383681922084121
  0.2193985623067523  0.2267110164909600  0.5628001817872537
  0.4419855138117456  0.1162821499905989  0.4383676523114333
  0.5578071280998210  0.2178662651029410  0.5620027464988178
  0.7753595612581636  0.1163494113985224  0.4383967321944432
  0.8876994582007821  0.2265419382380856  0.5628373290966772
  0.1090114041278774  0.4490841899093509  0.4383578939293122
  0.2103825074649770  0.5649861266158622  0.5616939787948226
  0.4422167760310559  0.4492817832189085  0.4395746331144918
  0.5580221653883991  0.5650037232772861  0.5620556353550429
  0.7754346446476174  0.4490645054838222  0.4384627215983677
  0.8862591457771122  0.5611652591458792  0.5629547107634333
  0.1090353741988147  0.7824878418514231  0.4383066876371687
  0.2193926450204791  0.8948012524186902  0.5627799859229500
  0.4421430355523351  0.7824631243295440  0.4383904053423075
  0.5539354683088927  0.8935232633279792  0.5629410953278582
  0.7752671135464346  0.7828196687383062  0.4371023220294513
  0.8861873979685851  0.8934989446854598  0.5629089284329267
  0.2201592874631949  0.2266708017911938  0.3514732716877145
  0.1089832690047860  0.1158542037458126  0.6501678435033061
  0.5527978299830796  0.2280604824495763  0.3518644486287559
  0.4418489583905104  0.1159970966989648  0.6500127846971668
  0.8866889240072923  0.2267933720510538  0.3515181426121279
  0.7758137821106850  0.1158607370261197  0.6499999802809491
  0.2211237894603467  0.5592001704644016  0.3518396304859707
  0.1087822321870995  0.4492004018236968  0.6499511841931427
  0.5531827545350648  0.5592696927671693  0.3518771726533412
  0.4411094006249209  0.4497657063578182  0.6425271367324322
  0.8872403053012756  0.5588897215304064  0.3510991684347505
  0.7760177859080278  0.4488959442108519  0.6500715883349740
  0.2203083051436670  0.8930315758683736  0.3515195378157221
  0.1087292808668206  0.7828027197018137  0.6498920178296306
  0.5520270846500110  0.8943176655503934  0.3509420296320322
  0.4417191651720832  0.7832316677983707  0.6500112270107001
  0.8871095137331387  0.8943066026252905  0.3509618812651295
  0.7755500305930676  0.7826468945062584  0.6500102026738105
  0.9975979733959844  0.0048301050207201  0.5004430064489184
  0.3312425566917382  0.0047921335748741  0.5005005273096815
  0.6656598478219118  0.0022536637192861  0.4995492292185206
  0.9975767877784631  0.3383908560336938  0.5004942617928627
  0.3309988844160643  0.3381593796305604  0.5014990798945399
  0.6644329002393736  0.3381980653413281  0.5016693765237007
  0.9945812757375884  0.6730281161455421  0.4994094682177289
  0.3310717991437082  0.6715722209072639  0.5015539397019408
  0.6658128528391103  0.6730006554311849  0.4996011749557828
  0.4370207757383235  0.4495833069416742  0.7293086741195394
 
  0.00000000E+00  0.00000000E+00  0.00000000E+00
  0.00000000E+00  0.00000000E+00  0.00000000E+00
  0.00000000E+00  0.00000000E+00  0.00000000E+00
  0.00000000E+00  0.00000000E+00  0.00000000E+00
  0.00000000E+00  0.00000000E+00  0.00000000E+00
  0.00000000E+00  0.00000000E+00  0.00000000E+00
  0.00000000E+00  0.00000000E+00  0.00000000E+00
  0.00000000E+00  0.00000000E+00  0.00000000E+00
  0.00000000E+00  0.00000000E+00  0.00000000E+00
  0.00000000E+00  0.00000000E+00  0.00000000E+00
  0.00000000E+00  0.00000000E+00  0.00000000E+00
  0.00000000E+00  0.00000000E+00  0.00000000E+00
  0.00000000E+00  0.00000000E+00  0.00000000E+00
  0.00000000E+00  0.00000000E+00  0.00000000E+00
  0.00000000E+00  0.00000000E+00  0.00000000E+00
  0.00000000E+00  0.00000000E+00  0.00000000E+00
  0.00000000E+00  0.00000000E+00  0.00000000E+00
  0.00000000E+00  0.00000000E+00  0.00000000E+00
  0.00000000E+00  0.00000000E+00  0.00000000E+00
  0.00000000E+00  0.00000000E+00  0.00000000E+00
  0.00000000E+00  0.00000000E+00  0.00000000E+00
  0.00000000E+00  0.00000000E+00  0.00000000E+00
  0.00000000E+00  0.00000000E+00  0.00000000E+00
  0.00000000E+00  0.00000000E+00  0.00000000E+00
  0.00000000E+00  0.00000000E+00  0.00000000E+00
  0.00000000E+00  0.00000000E+00  0.00000000E+00
  0.00000000E+00  0.00000000E+00  0.00000000E+00
  0.00000000E+00  0.00000000E+00  0.00000000E+00
  0.00000000E+00  0.00000000E+00  0.00000000E+00
  0.00000000E+00  0.00000000E+00  0.00000000E+00
  0.00000000E+00  0.00000000E+00  0.00000000E+00
  0.00000000E+00  0.00000000E+00  0.00000000E+00
  0.00000000E+00  0.00000000E+00  0.00000000E+00
  0.00000000E+00  0.00000000E+00  0.00000000E+00
  0.00000000E+00  0.00000000E+00  0.00000000E+00
  0.00000000E+00  0.00000000E+00  0.00000000E+00
  0.00000000E+00  0.00000000E+00  0.00000000E+00
  0.00000000E+00  0.00000000E+00  0.00000000E+00
  0.00000000E+00  0.00000000E+00  0.00000000E+00
  0.00000000E+00  0.00000000E+00  0.00000000E+00
  0.00000000E+00  0.00000000E+00  0.00000000E+00
  0.00000000E+00  0.00000000E+00  0.00000000E+00
  0.00000000E+00  0.00000000E+00  0.00000000E+00
  0.00000000E+00  0.00000000E+00  0.00000000E+00
  0.00000000E+00  0.00000000E+00  0.00000000E+00
  0.00000000E+00  0.00000000E+00  0.00000000E+00
