SYSTEM =gra_geo_opt
PREC=Normal
ENCUT = 400
ISTART = 0 
ICHARG = 2        
EDIFF = 1E-05
LREAL = Auto     
EDIFFG = -2E-02   
NSW =1000
IBRION =1
ISIF = 2
ISMEAR = 0
#MAGMOM = 71*2 4 
SIGMA =0.2  
ISYM=0
#SYMPREC=1E-03
GGA = PE
ALGO=Normal
ISPIN = 2
NCORE=4
NELM=100
LWAVE=.FALSE.
LCHARG=.FALSE.
IVDW=11
