CONTCAR\(6)                             
   1.00000000000000     
    13.2600002288999992    0.0000000000000000    0.0000000000000000
    -6.6300199930000003   11.4834855754999996    0.0000000000000000
     0.0000000000000000    0.0000000000000000   20.2117004394999995
   Na   Zr   N    O 
    32    16    32     1
Direct
  0.1668486376690339  0.0836705019883084  0.3742582988964784
  0.0843574119298367  0.1680083037486568  0.6265003320239586
  0.4173931929940125  0.0837672425584017  0.3741729219798842
  0.3336516745943285  0.1679489065350808  0.6265467599073844
  0.6672375764937684  0.0843867147353521  0.3740136357500603
  0.5834859958339536  0.1667356513211686  0.6271173611478673
  0.9162432527341267  0.0837347358125697  0.3742148680460744
  0.8332356310096785  0.1667300212744109  0.6271661550388785
  0.1652837458763656  0.3320415868693019  0.3734882300611631
  0.0895554122196032  0.4198146916458541  0.6276591833765153
  0.4167099628855979  0.3319528424969747  0.3735116394205846
  0.3392091472110152  0.4282438094590475  0.6322715757420596
  0.6671541542349573  0.3328702710236513  0.3739949239827922
  0.5802638065870909  0.4197644106392886  0.6276578461133724
  0.9156266154516501  0.3327752893047844  0.3740004145365958
  0.8332443757094836  0.4165069395570242  0.6271223044996290
  0.1653044796888139  0.5832921000386548  0.3734665592593842
  0.0843126921860673  0.6663946994182268  0.6265386221447358
  0.4166966810924961  0.5833414855095711  0.3730483871096908
  0.3390767424001453  0.6609239946799264  0.6322099313332785
  0.6680844264029631  0.5833048169348487  0.3735079302028339
  0.5717755039493255  0.6608025070027139  0.6322575256096243
  0.9162286856229045  0.5826169456443040  0.3741925476263148
  0.8320807018886924  0.6663474570469745  0.6265476646776023
  0.1667723129885275  0.8331934827030238  0.3742964935287816
  0.0833034734299432  0.9166835783607823  0.6267582056971435
  0.4167165762838820  0.8346762827044998  0.3734597375470017
  0.3336007610383476  0.9156738742839750  0.6265329785425706
  0.6679669668257944  0.8347012868870820  0.3734786850666367
  0.5802065434657138  0.9104638955816995  0.6276505522901132
  0.9163125443455726  0.8331345585715439  0.3742631646166643
  0.8319965975819628  0.9156563995413407  0.6265048423783171
  0.9999334992146061  0.0000537602495783  0.5003513521144356
  0.2501647336811317  0.0000848922738683  0.5003739862847851
  0.4999355928288125  0.9994599203313896  0.5007463113129376
  0.7495427716593852  0.9994965612613385  0.5007740443545288
  0.0004947503507253  0.2504546508403394  0.5007788144380783
  0.2508054548737775  0.2515737029071374  0.5012153157926278
  0.4999657639088610  0.2504640476237370  0.5007699609364948
  0.7500459866305178  0.2500327907505522  0.5008525821722642
  0.0005197797874672  0.5000361474090838  0.5007568085705500
  0.2497922132934178  0.4998787255761599  0.4991763745898155
  0.5001148248229939  0.4998891004414006  0.4991397196294400
  0.7495454503239785  0.5000437399970323  0.5007620064466778
  0.9999166044990488  0.7498484258856806  0.5003734712903452
  0.2508116131880698  0.7492167466403075  0.5011995553285686
  0.5001286271911880  0.7502323206012846  0.4991854070350641
  0.7484254953654670  0.7492062184790171  0.5012182165351504
  0.1668272199455529  0.0836457233840591  0.5584761210001830
  0.0827781774617335  0.1662567155283199  0.4428474458023430
  0.4165661400078520  0.0832844457146678  0.5586955872309360
  0.3334724208762694  0.1662497988822551  0.4428494345419693
  0.6661484187218250  0.0822941518874600  0.5591129025959560
  0.5838634227532751  0.1669442823850602  0.4433399049483171
  0.9167110063816608  0.0832875625564924  0.5587059316768617
  0.8330739901579918  0.1669383349951516  0.4433627651836218
  0.1678000249068532  0.3344007430125799  0.5574318046372682
  0.0818583840593590  0.4159222251202479  0.4419482347039789
  0.4166077893033417  0.3343774803449051  0.5574252583914046
  0.3327118650095144  0.4154427563343646  0.4408538546611709
  0.6661393515173017  0.3338536404272290  0.5591195069820429
  0.5840724093674936  0.4159397931411064  0.4419381051572202
  0.9177076482995759  0.3338501579133180  0.5591289741776819
  0.8330679279907400  0.4161505116159177  0.4433352495125007
  0.1677835068302542  0.5834179945994080  0.5574243641650654
  0.0827536253784018  0.6665098412552553  0.4428440077330009
  0.4166822181055068  0.5833355998592751  0.5510902082338092
  0.3327131718810676  0.6672683369083074  0.4408451909808448
  0.6656336255218704  0.5834006447447777  0.5574265282281772
  0.5845731464487685  0.6672894565420862  0.4408475239380323
  0.9167255741185372  0.5834297687309160  0.5586977564543503
  0.8337489553285451  0.6665271623644244  0.4428574602309538
  0.1668161157187811  0.8331860557679036  0.5584719520934982
  0.0833137551276550  0.9166699161323066  0.4430776014137123
  0.4165907462837808  0.8322327843536073  0.5574236557037295
  0.3334862800999403  0.9172368959325183  0.4428340961924135
  0.6656104967793794  0.8322114908223170  0.5574307099987195
  0.5840798799842872  0.9181315660886540  0.4419432915208432
  0.9163524891812074  0.8331697503434654  0.5584743714794485
  0.8337460048631087  0.9172253575310023  0.4428457094408671
  0.4166332943434625  0.5834068616337476  0.6978414570033564
 
  0.00000000E+00  0.00000000E+00  0.00000000E+00
  0.00000000E+00  0.00000000E+00  0.00000000E+00
  0.00000000E+00  0.00000000E+00  0.00000000E+00
  0.00000000E+00  0.00000000E+00  0.00000000E+00
  0.00000000E+00  0.00000000E+00  0.00000000E+00
  0.00000000E+00  0.00000000E+00  0.00000000E+00
  0.00000000E+00  0.00000000E+00  0.00000000E+00
  0.00000000E+00  0.00000000E+00  0.00000000E+00
  0.00000000E+00  0.00000000E+00  0.00000000E+00
  0.00000000E+00  0.00000000E+00  0.00000000E+00
  0.00000000E+00  0.00000000E+00  0.00000000E+00
  0.00000000E+00  0.00000000E+00  0.00000000E+00
  0.00000000E+00  0.00000000E+00  0.00000000E+00
  0.00000000E+00  0.00000000E+00  0.00000000E+00
  0.00000000E+00  0.00000000E+00  0.00000000E+00
  0.00000000E+00  0.00000000E+00  0.00000000E+00
  0.00000000E+00  0.00000000E+00  0.00000000E+00
  0.00000000E+00  0.00000000E+00  0.00000000E+00
  0.00000000E+00  0.00000000E+00  0.00000000E+00
  0.00000000E+00  0.00000000E+00  0.00000000E+00
  0.00000000E+00  0.00000000E+00  0.00000000E+00
  0.00000000E+00  0.00000000E+00  0.00000000E+00
  0.00000000E+00  0.00000000E+00  0.00000000E+00
  0.00000000E+00  0.00000000E+00  0.00000000E+00
  0.00000000E+00  0.00000000E+00  0.00000000E+00
  0.00000000E+00  0.00000000E+00  0.00000000E+00
  0.00000000E+00  0.00000000E+00  0.00000000E+00
  0.00000000E+00  0.00000000E+00  0.00000000E+00
  0.00000000E+00  0.00000000E+00  0.00000000E+00
  0.00000000E+00  0.00000000E+00  0.00000000E+00
  0.00000000E+00  0.00000000E+00  0.00000000E+00
  0.00000000E+00  0.00000000E+00  0.00000000E+00
  0.00000000E+00  0.00000000E+00  0.00000000E+00
  0.00000000E+00  0.00000000E+00  0.00000000E+00
  0.00000000E+00  0.00000000E+00  0.00000000E+00
  0.00000000E+00  0.00000000E+00  0.00000000E+00
  0.00000000E+00  0.00000000E+00  0.00000000E+00
  0.00000000E+00  0.00000000E+00  0.00000000E+00
  0.00000000E+00  0.00000000E+00  0.00000000E+00
  0.00000000E+00  0.00000000E+00  0.00000000E+00
  0.00000000E+00  0.00000000E+00  0.00000000E+00
  0.00000000E+00  0.00000000E+00  0.00000000E+00
  0.00000000E+00  0.00000000E+00  0.00000000E+00
  0.00000000E+00  0.00000000E+00  0.00000000E+00
  0.00000000E+00  0.00000000E+00  0.00000000E+00
  0.00000000E+00  0.00000000E+00  0.00000000E+00
  0.00000000E+00  0.00000000E+00  0.00000000E+00
  0.00000000E+00  0.00000000E+00  0.00000000E+00
  0.00000000E+00  0.00000000E+00  0.00000000E+00
  0.00000000E+00  0.00000000E+00  0.00000000E+00
  0.00000000E+00  0.00000000E+00  0.00000000E+00
  0.00000000E+00  0.00000000E+00  0.00000000E+00
  0.00000000E+00  0.00000000E+00  0.00000000E+00
  0.00000000E+00  0.00000000E+00  0.00000000E+00
  0.00000000E+00  0.00000000E+00  0.00000000E+00
  0.00000000E+00  0.00000000E+00  0.00000000E+00
  0.00000000E+00  0.00000000E+00  0.00000000E+00
  0.00000000E+00  0.00000000E+00  0.00000000E+00
  0.00000000E+00  0.00000000E+00  0.00000000E+00
  0.00000000E+00  0.00000000E+00  0.00000000E+00
  0.00000000E+00  0.00000000E+00  0.00000000E+00
  0.00000000E+00  0.00000000E+00  0.00000000E+00
  0.00000000E+00  0.00000000E+00  0.00000000E+00
  0.00000000E+00  0.00000000E+00  0.00000000E+00
  0.00000000E+00  0.00000000E+00  0.00000000E+00
  0.00000000E+00  0.00000000E+00  0.00000000E+00
  0.00000000E+00  0.00000000E+00  0.00000000E+00
  0.00000000E+00  0.00000000E+00  0.00000000E+00
  0.00000000E+00  0.00000000E+00  0.00000000E+00
  0.00000000E+00  0.00000000E+00  0.00000000E+00
  0.00000000E+00  0.00000000E+00  0.00000000E+00
  0.00000000E+00  0.00000000E+00  0.00000000E+00
  0.00000000E+00  0.00000000E+00  0.00000000E+00
  0.00000000E+00  0.00000000E+00  0.00000000E+00
  0.00000000E+00  0.00000000E+00  0.00000000E+00
  0.00000000E+00  0.00000000E+00  0.00000000E+00
  0.00000000E+00  0.00000000E+00  0.00000000E+00
  0.00000000E+00  0.00000000E+00  0.00000000E+00
  0.00000000E+00  0.00000000E+00  0.00000000E+00
  0.00000000E+00  0.00000000E+00  0.00000000E+00
  0.00000000E+00  0.00000000E+00  0.00000000E+00
