 Fe1 I2                                 
   1.00000000000000     
     3.9925818760067409    0.0000000000000000    0.0000000000000000
    -1.9962904391667105    3.4576527623153481    0.0000000000000000
     0.0000000000000000    0.0000000000000000   18.2400874252920033
   Fe   I 
     1     2
Direct
 -0.0000000010336708 -0.0000000007523299  0.5000000006240737
  0.3333337977738931  0.6666662732238605  0.4110906324008299
  0.6666662032597777  0.3333337275284693  0.5889093669750964
 
  0.00000000E+00  0.00000000E+00  0.00000000E+00
  0.00000000E+00  0.00000000E+00  0.00000000E+00
  0.00000000E+00  0.00000000E+00  0.00000000E+00
