CONTCAR                                 
   1.00000000000000     
    14.0806999207000008    0.0000000000000000    0.0000000000000000
     0.0000000000000000   14.0806999207000008    0.0000000000000000
     0.0000000000000000    0.0000000000000000   21.7056999206999990
   Zr   Si   Se   O    H 
    32    32    32     2     1
Direct
  0.1250714330030586  0.0002181735964523  0.5991460976351601
  0.0000648247513651  0.1252326661528795  0.3996335320224638
  0.3750582063414891  0.0002000090070631  0.5992334943637412
  0.2501296556127365  0.1253046313078359  0.3997042314311752
  0.6250777208276703  0.0002059961845709  0.5991688644729734
  0.5000577648380776  0.1252199396033074  0.3997319861857486
  0.8750577274844151  0.0002453376412730  0.5991071015466265
  0.7500497145476950  0.1252396885156701  0.3996222978287549
  0.1250856478370794  0.2502938034327304  0.5991252963487358
  0.0000751095650931  0.3751965903014989  0.3996020033375281
  0.3750416822102250  0.2503031794614235  0.5992590525058833
  0.2501558036894537  0.3752820329068962  0.3997408658584012
  0.6250960892668461  0.2502527825387745  0.5991575707483586
  0.5000236434348643  0.3752514061841499  0.3997817868299393
  0.8750125561702695  0.2502450566232180  0.5990995162475499
  0.7500368026656483  0.3751701811901493  0.3996025445795963
  0.1248471998638424  0.5001639439969168  0.5989728802511227
  0.0000873603927932  0.6252179556199298  0.3995722343180518
  0.3750698157960085  0.5006325528948660  0.5996326379082596
  0.2501477546596808  0.6252780943515371  0.3997263792851788
  0.6252704124809157  0.5001655557985408  0.5990229594504527
  0.5000505535803380  0.6252309143810056  0.3997726273064769
  0.8750764926498229  0.5002330234326035  0.5990544329857814
  0.7500510842496220  0.6252066775012965  0.3995750097133293
  0.1248187992782677  0.7505141207190741  0.5989585137231667
  0.0000598843484118  0.8752987891453946  0.3996140811996099
  0.3750404795333265  0.7500502136164008  0.5995758836439716
  0.2501566006353926  0.8752267964232919  0.3997080037485865
  0.6253208988136386  0.7504172632088127  0.5990259559636203
  0.5000335850003874  0.8752102431202485  0.3997517660448707
  0.8750493574583029  0.7502613115116065  0.5990767510344158
  0.7500711376815169  0.8752328317948888  0.3996131557000957
  0.0000768514886010  0.0002733110259556  0.4993536320259417
  0.1250653780971905  0.1252844846663994  0.4994037414260756
  0.2501038717888840  0.0002623257297843  0.4994095890612699
  0.3750386046835726  0.1252596876530901  0.4994733964690897
  0.5000533636893792  0.0002128981449387  0.4994558614074328
  0.6250644781036524  0.1252255864243077  0.4994357753600265
  0.7500652147556103  0.0002066883206047  0.4993403644898645
  0.8750377858258783  0.1252227411966126  0.4993328388571779
  0.0000357663807016  0.2502085820249442  0.4993646800164923
  0.1250656942599493  0.3751864675221809  0.4993660160888010
  0.2501448505353662  0.2502986989066221  0.4994275882275238
  0.3750767810744600  0.3753256899506636  0.4995945195244528
  0.5000584149732175  0.2502200144076857  0.4994826905483005
  0.6250810912606936  0.3751741042385829  0.4993971209798320
  0.7500751434942815  0.2501840787235678  0.4993322162975554
  0.8750358196600632  0.3751495811281885  0.4993146414147260
  0.0000236580768825  0.5001753917900349  0.4992709815335174
  0.1250036402764590  0.6252647882151742  0.4992702306996689
  0.2501107101801666  0.5002908088667662  0.4994907119565728
  0.3750604772436587  0.6252711870196991  0.4995414173939993
  0.5000310201820003  0.5002499430208576  0.4995299015484388
  0.6251565928480876  0.6252421033918453  0.4993177050224518
  0.7501294739748064  0.5001701109469785  0.4992635901815017
  0.8750416695034551  0.6252289555385180  0.4992891415898340
 -0.0000012182239921  0.7502288709437174  0.4992582972458082
  0.1250808224526772  0.8753379890497521  0.4993366929306701
  0.2500988627066038  0.7502873636678545  0.4994362068538619
  0.3750687464838127  0.8752102330064967  0.4995222697397749
  0.5000334322636257  0.7501943593268610  0.4995163587072746
  0.6251229743812243  0.8752577916128963  0.4993535801435063
  0.7501525064029051  0.7502549396130670  0.4992667384569292
  0.8750768359863211  0.8753037006131392  0.4993458636231288
  0.0000814178048941  0.1252289194078112  0.6534249635380859
  0.1251301597988621  0.0002936874216070  0.3453180316143240
  0.2499554846809784  0.1252091722942546  0.6535545244647157
  0.3751161016604637  0.0002475079017554  0.3453675758108172
  0.5000710122614637  0.1252471108538507  0.6534502501513528
  0.6250097233573954  0.0002258277483406  0.3452928102740478
  0.7500800900818156  0.1251850434926969  0.6534988585714452
  0.8750556117188882  0.0001993955561482  0.3451140142163235
  0.9999372554683017  0.3751880652997283  0.6534161494993840
  0.1251333442594442  0.2502651034353290  0.3453036137611300
  0.2499260643388775  0.3753271069083593  0.6536108865133331
  0.3751671062798423  0.2502533250662139  0.3453480429500909
  0.5001450327059419  0.3752196333479710  0.6535566178855231
  0.6249283934618566  0.2502016948116093  0.3452931801427095
  0.7501490607780795  0.3752488903141986  0.6535401031501551
  0.8751694170906886  0.2502044955906697  0.3452059178036581
 -0.0000308681871756  0.6252487071785805  0.6533456056806604
  0.1251547759228834  0.5001990931944112  0.3452750277733820
  0.2486271498996148  0.6254221988679357  0.6521385158823966
  0.3751132465572103  0.5002439218409733  0.3453677689477838
  0.5013558099695301  0.6253708121708097  0.6522464396294724
  0.6249840227845344  0.5001444007655398  0.3452755531992172
  0.7501973277037890  0.6251562202198719  0.6534555626561825
  0.8750574992633214  0.5001147298370584  0.3451663708131161
  0.9999262815572003  0.8753451164370936  0.6534209491540848
  0.1251060933339412  0.7503054882199155  0.3452715993932499
  0.2499616508721308  0.8754447410374545  0.6535280105881749
  0.3751587414237121  0.7502212892465036  0.3452900331061345
  0.5001743042283697  0.8752963028445834  0.6534521017701392
  0.6249895656823444  0.7502186024260658  0.3452902041688840
  0.7501956588963022  0.8753717184345853  0.6535098352427823
  0.8751525483800922  0.7502275252461731  0.3452542001824603
  0.3740233926614523  0.6161686192452274  0.7562739587213209
  0.3723010396022123  0.6131733183830209  0.8196526306537925
  0.3734913582222891  0.5446370331015726  0.8291559110485182
 
  0.00000000E+00  0.00000000E+00  0.00000000E+00
  0.00000000E+00  0.00000000E+00  0.00000000E+00
  0.00000000E+00  0.00000000E+00  0.00000000E+00
  0.00000000E+00  0.00000000E+00  0.00000000E+00
  0.00000000E+00  0.00000000E+00  0.00000000E+00
  0.00000000E+00  0.00000000E+00  0.00000000E+00
  0.00000000E+00  0.00000000E+00  0.00000000E+00
  0.00000000E+00  0.00000000E+00  0.00000000E+00
  0.00000000E+00  0.00000000E+00  0.00000000E+00
  0.00000000E+00  0.00000000E+00  0.00000000E+00
  0.00000000E+00  0.00000000E+00  0.00000000E+00
  0.00000000E+00  0.00000000E+00  0.00000000E+00
  0.00000000E+00  0.00000000E+00  0.00000000E+00
  0.00000000E+00  0.00000000E+00  0.00000000E+00
  0.00000000E+00  0.00000000E+00  0.00000000E+00
  0.00000000E+00  0.00000000E+00  0.00000000E+00
  0.00000000E+00  0.00000000E+00  0.00000000E+00
  0.00000000E+00  0.00000000E+00  0.00000000E+00
  0.00000000E+00  0.00000000E+00  0.00000000E+00
  0.00000000E+00  0.00000000E+00  0.00000000E+00
  0.00000000E+00  0.00000000E+00  0.00000000E+00
  0.00000000E+00  0.00000000E+00  0.00000000E+00
  0.00000000E+00  0.00000000E+00  0.00000000E+00
  0.00000000E+00  0.00000000E+00  0.00000000E+00
  0.00000000E+00  0.00000000E+00  0.00000000E+00
  0.00000000E+00  0.00000000E+00  0.00000000E+00
  0.00000000E+00  0.00000000E+00  0.00000000E+00
  0.00000000E+00  0.00000000E+00  0.00000000E+00
  0.00000000E+00  0.00000000E+00  0.00000000E+00
  0.00000000E+00  0.00000000E+00  0.00000000E+00
  0.00000000E+00  0.00000000E+00  0.00000000E+00
  0.00000000E+00  0.00000000E+00  0.00000000E+00
  0.00000000E+00  0.00000000E+00  0.00000000E+00
  0.00000000E+00  0.00000000E+00  0.00000000E+00
  0.00000000E+00  0.00000000E+00  0.00000000E+00
  0.00000000E+00  0.00000000E+00  0.00000000E+00
  0.00000000E+00  0.00000000E+00  0.00000000E+00
  0.00000000E+00  0.00000000E+00  0.00000000E+00
  0.00000000E+00  0.00000000E+00  0.00000000E+00
  0.00000000E+00  0.00000000E+00  0.00000000E+00
  0.00000000E+00  0.00000000E+00  0.00000000E+00
  0.00000000E+00  0.00000000E+00  0.00000000E+00
  0.00000000E+00  0.00000000E+00  0.00000000E+00
  0.00000000E+00  0.00000000E+00  0.00000000E+00
  0.00000000E+00  0.00000000E+00  0.00000000E+00
  0.00000000E+00  0.00000000E+00  0.00000000E+00
  0.00000000E+00  0.00000000E+00  0.00000000E+00
  0.00000000E+00  0.00000000E+00  0.00000000E+00
  0.00000000E+00  0.00000000E+00  0.00000000E+00
  0.00000000E+00  0.00000000E+00  0.00000000E+00
  0.00000000E+00  0.00000000E+00  0.00000000E+00
  0.00000000E+00  0.00000000E+00  0.00000000E+00
  0.00000000E+00  0.00000000E+00  0.00000000E+00
  0.00000000E+00  0.00000000E+00  0.00000000E+00
  0.00000000E+00  0.00000000E+00  0.00000000E+00
  0.00000000E+00  0.00000000E+00  0.00000000E+00
  0.00000000E+00  0.00000000E+00  0.00000000E+00
  0.00000000E+00  0.00000000E+00  0.00000000E+00
  0.00000000E+00  0.00000000E+00  0.00000000E+00
  0.00000000E+00  0.00000000E+00  0.00000000E+00
  0.00000000E+00  0.00000000E+00  0.00000000E+00
  0.00000000E+00  0.00000000E+00  0.00000000E+00
  0.00000000E+00  0.00000000E+00  0.00000000E+00
  0.00000000E+00  0.00000000E+00  0.00000000E+00
  0.00000000E+00  0.00000000E+00  0.00000000E+00
  0.00000000E+00  0.00000000E+00  0.00000000E+00
  0.00000000E+00  0.00000000E+00  0.00000000E+00
  0.00000000E+00  0.00000000E+00  0.00000000E+00
  0.00000000E+00  0.00000000E+00  0.00000000E+00
  0.00000000E+00  0.00000000E+00  0.00000000E+00
  0.00000000E+00  0.00000000E+00  0.00000000E+00
  0.00000000E+00  0.00000000E+00  0.00000000E+00
  0.00000000E+00  0.00000000E+00  0.00000000E+00
  0.00000000E+00  0.00000000E+00  0.00000000E+00
  0.00000000E+00  0.00000000E+00  0.00000000E+00
  0.00000000E+00  0.00000000E+00  0.00000000E+00
  0.00000000E+00  0.00000000E+00  0.00000000E+00
  0.00000000E+00  0.00000000E+00  0.00000000E+00
  0.00000000E+00  0.00000000E+00  0.00000000E+00
  0.00000000E+00  0.00000000E+00  0.00000000E+00
  0.00000000E+00  0.00000000E+00  0.00000000E+00
  0.00000000E+00  0.00000000E+00  0.00000000E+00
  0.00000000E+00  0.00000000E+00  0.00000000E+00
  0.00000000E+00  0.00000000E+00  0.00000000E+00
  0.00000000E+00  0.00000000E+00  0.00000000E+00
  0.00000000E+00  0.00000000E+00  0.00000000E+00
  0.00000000E+00  0.00000000E+00  0.00000000E+00
  0.00000000E+00  0.00000000E+00  0.00000000E+00
  0.00000000E+00  0.00000000E+00  0.00000000E+00
  0.00000000E+00  0.00000000E+00  0.00000000E+00
  0.00000000E+00  0.00000000E+00  0.00000000E+00
  0.00000000E+00  0.00000000E+00  0.00000000E+00
  0.00000000E+00  0.00000000E+00  0.00000000E+00
  0.00000000E+00  0.00000000E+00  0.00000000E+00
  0.00000000E+00  0.00000000E+00  0.00000000E+00
  0.00000000E+00  0.00000000E+00  0.00000000E+00
  0.00000000E+00  0.00000000E+00  0.00000000E+00
  0.00000000E+00  0.00000000E+00  0.00000000E+00
  0.00000000E+00  0.00000000E+00  0.00000000E+00
