CONTCAR\(17)                            
   1.00000000000000     
    11.6057996750000001    0.0000000000000000    0.0000000000000000
     5.8029393748000002   10.0514726542999995    0.0000000000000000
     0.0000000000000000    0.0000000000000000   18.0372009276999989
   Ni   P    S 
     8     7    24
Direct
  0.1666446136232015  0.1666303091133791  0.4988486080289568
  0.3388349218743956  0.3378026887416221  0.4976095928293798
  0.6611706436216873  0.1766370983294938  0.4975620763835256
  0.8233907564138774  0.3389620272248705  0.4975589171771785
  0.1767119296658499  0.6622566921940825  0.4975886810259342
  0.3379203256039183  0.8234181136235964  0.4975922953714544
  0.6622533898379497  0.6612344357453487  0.4975838204396445
  0.8333703458850170  0.8333312041582832  0.4988226867639981
  0.4999976530514591  0.0102733792690340  0.5600357287292888
 -0.0096758480926228  0.0096331648836689  0.4378692408599846
  0.0103177290428843 -0.0103467751817879  0.5602817540042668
  0.4999858186228457 -0.0095267886098955  0.4376642874616589
  0.0096312342931351  0.5000190117257721  0.4379682953206987
 -0.0102661469199200  0.4999359322281471  0.5603610857634299
  0.5000376692685000  0.5000373980514942  0.4976118679320168
  0.3260906023790293  0.1904963469245930  0.5765904067509542
 -0.0153253359147947  0.1891234504155445  0.4204290962323477
  0.3261835677615796 -0.0153049155762550  0.4202998654555140
  0.1905315525286538 -0.0166266477739083  0.5766057063486704
  0.4999996879648146  0.3350129289354989  0.5621625802380171
  0.1890270753448915  0.3262687383813601  0.4204237687388296
  0.8558038411038288  0.1441082344761718  0.6063336790195244
  0.4999704793822425  0.1458990670969598  0.3922701415406093
  0.8108678180758317  0.0153415608438343  0.4204018564383524
  0.6738986300283664  0.0165925735045516  0.5765706025512698
  0.9833345357622507  0.3260207915840909  0.5766867223440806
  0.6654441398826084  0.3346031509419878  0.4332136898107964
  0.3350938785799687  0.6650330291064256  0.5622032256090329
  0.0153401617263206  0.6737292028986557  0.4204700853180791
  0.3346159656940534  0.5000505958275656  0.4332397419087744
  0.1441851214923910  0.4998788777444046  0.6064923144423807
  0.5000204153440031  0.8554594567609290  0.6057986388452375
  0.1458657819775641  0.8541435241854675  0.3925473568971871
  0.8094418275422703  0.6739549876854538  0.5766737843201510
  0.5000371922840627  0.6654002077818447  0.4331765655348931
  0.8538749420188828  0.5001290886679862  0.3928429910869094
  0.6650078691237146  0.5000650540135946  0.5622178364359351
  0.0166840760545724  0.8093810391005374  0.5766372103472457
  0.6738011100707089  0.8109416329756292  0.4203133746938104
 
  0.00000000E+00  0.00000000E+00  0.00000000E+00
  0.00000000E+00  0.00000000E+00  0.00000000E+00
  0.00000000E+00  0.00000000E+00  0.00000000E+00
  0.00000000E+00  0.00000000E+00  0.00000000E+00
  0.00000000E+00  0.00000000E+00  0.00000000E+00
  0.00000000E+00  0.00000000E+00  0.00000000E+00
  0.00000000E+00  0.00000000E+00  0.00000000E+00
  0.00000000E+00  0.00000000E+00  0.00000000E+00
  0.00000000E+00  0.00000000E+00  0.00000000E+00
  0.00000000E+00  0.00000000E+00  0.00000000E+00
  0.00000000E+00  0.00000000E+00  0.00000000E+00
  0.00000000E+00  0.00000000E+00  0.00000000E+00
  0.00000000E+00  0.00000000E+00  0.00000000E+00
  0.00000000E+00  0.00000000E+00  0.00000000E+00
  0.00000000E+00  0.00000000E+00  0.00000000E+00
  0.00000000E+00  0.00000000E+00  0.00000000E+00
  0.00000000E+00  0.00000000E+00  0.00000000E+00
  0.00000000E+00  0.00000000E+00  0.00000000E+00
  0.00000000E+00  0.00000000E+00  0.00000000E+00
  0.00000000E+00  0.00000000E+00  0.00000000E+00
  0.00000000E+00  0.00000000E+00  0.00000000E+00
  0.00000000E+00  0.00000000E+00  0.00000000E+00
  0.00000000E+00  0.00000000E+00  0.00000000E+00
  0.00000000E+00  0.00000000E+00  0.00000000E+00
  0.00000000E+00  0.00000000E+00  0.00000000E+00
  0.00000000E+00  0.00000000E+00  0.00000000E+00
  0.00000000E+00  0.00000000E+00  0.00000000E+00
  0.00000000E+00  0.00000000E+00  0.00000000E+00
  0.00000000E+00  0.00000000E+00  0.00000000E+00
  0.00000000E+00  0.00000000E+00  0.00000000E+00
  0.00000000E+00  0.00000000E+00  0.00000000E+00
  0.00000000E+00  0.00000000E+00  0.00000000E+00
  0.00000000E+00  0.00000000E+00  0.00000000E+00
  0.00000000E+00  0.00000000E+00  0.00000000E+00
  0.00000000E+00  0.00000000E+00  0.00000000E+00
  0.00000000E+00  0.00000000E+00  0.00000000E+00
  0.00000000E+00  0.00000000E+00  0.00000000E+00
  0.00000000E+00  0.00000000E+00  0.00000000E+00
  0.00000000E+00  0.00000000E+00  0.00000000E+00
