 Ta1 S2                                 
   1.00000000000000     
     3.3303326773594790    0.0000000000000000    0.0000000000000000
    -1.6651658408645744    2.8841524567703254    0.0000000000000000
     0.0000000000000000    0.0000000000000000   18.1304856478160019
   Ta   S 
     1     2
Direct
  0.6666667615659256  0.3333332197950579  0.5000000000488611
  0.0000001161862604 -0.0000001181928019  0.5863253812663551
  0.0000001222478108 -0.0000001016022527  0.4136746186847837
 
  0.00000000E+00  0.00000000E+00  0.00000000E+00
  0.00000000E+00  0.00000000E+00  0.00000000E+00
  0.00000000E+00  0.00000000E+00  0.00000000E+00
