Zr6 Te6 P3                              
   1.00000000000000     
     3.8537212450400209    0.0000000000000085   -0.0000000000000003
    -1.9268606224699942    3.3374204972690764    0.0000000000000001
    -0.0000000000000009    0.0000000000000000   29.7493129816187967
   Zr   Te   P 
     6     6     3
Direct
  0.3333333579999973  0.6666667149999981  0.0486069252498564
  0.3333333579999973  0.6666667149999981  0.2847264257501438
  0.0000000000000000 -0.0000000000000000  0.3819402612498520
 -0.0000000000000000  0.0000000000000000  0.6180597387501482
  0.6666666790000022  0.3333333579999973  0.7152736362498541
  0.6666666790000022  0.3333333579999973  0.9513930507501488
  0.6666666790000022  0.3333333579999973  0.1122866227032972
 -0.0000000000000000  0.0000000000000000  0.2210467132967053
  0.3333333579999973  0.6666667149999981  0.4456199587033000
  0.6666666790000022  0.3333333579999973  0.5543800102967013
  0.0000000000000000 -0.0000000000000000  0.7789533017032994
  0.3333333579999973  0.6666667149999981  0.8877133852967035
  0.0000000000000000 -0.0000000000000000  0.0000000000000000
  0.6666666790000022  0.3333333579999973  0.3333333440000033
  0.3333333579999973  0.6666667149999981  0.6666666879999994
 
  0.00000000E+00  0.00000000E+00  0.00000000E+00
  0.00000000E+00  0.00000000E+00  0.00000000E+00
  0.00000000E+00  0.00000000E+00  0.00000000E+00
  0.00000000E+00  0.00000000E+00  0.00000000E+00
  0.00000000E+00  0.00000000E+00  0.00000000E+00
  0.00000000E+00  0.00000000E+00  0.00000000E+00
  0.00000000E+00  0.00000000E+00  0.00000000E+00
  0.00000000E+00  0.00000000E+00  0.00000000E+00
  0.00000000E+00  0.00000000E+00  0.00000000E+00
  0.00000000E+00  0.00000000E+00  0.00000000E+00
  0.00000000E+00  0.00000000E+00  0.00000000E+00
  0.00000000E+00  0.00000000E+00  0.00000000E+00
  0.00000000E+00  0.00000000E+00  0.00000000E+00
  0.00000000E+00  0.00000000E+00  0.00000000E+00
  0.00000000E+00  0.00000000E+00  0.00000000E+00
