CONTCAR\(2)                             
   1.00000000000000     
    11.7119998931999998    0.0000000000000000    0.0000000000000000
    -5.1174287261000000   10.4860139793999991    0.0000000000000000
     0.0000000000000000    0.0000000000000000   18.3064994811999995
   Mo   Cl   O    H 
     8    24     1     1
Direct
  0.0607746836244770  0.4381757059971265  0.4971239205938429
  0.4289357301130505  0.0700955684628487  0.4971543570441040
  0.5608678621146798  0.4386024287571255  0.4985721067572151
  0.9283011697231396  0.0693972055099192  0.4976017737365794
  0.0600942782979960  0.9380574949361628  0.4975604018113230
  0.4293106838744654  0.5698044094907010  0.4986083784263325
  0.5600425102474392  0.9380310696170414  0.4968946383142137
  0.9288455326161905  0.5694732101532523  0.4971453049356680
  0.0767171737217169  0.0866253704957524  0.5904073537271060
  0.4093982384129243  0.4181278222252587  0.4068384026611998
  0.0704902172187039  0.2525382278779136  0.4257782899017822
  0.2445425447742473  0.4270941581281542  0.5685595849204049
  0.4184117984159539  0.2540598450447281  0.5687805905568803
  0.2434923808153193  0.0806857301335244  0.4259313611072862
  0.5781768645944885  0.0875591641390765  0.5894403671722163
  0.9118713788372907  0.4205665377778384  0.4044242059306432
  0.5723437701560696  0.2538915625237143  0.4259756906883513
  0.7453661380681634  0.4283331269624546  0.5694484912728148
  0.9179364973215824  0.2545299858235119  0.5689721166948939
  0.7438527595309701  0.0804578278382913  0.4257715197938469
  0.0782991678265791  0.5878857302398927  0.5894439678655319
  0.4113974968303856  0.9210959117914311  0.4041928636419301
  0.0711144823947540  0.7532529375816263  0.4257973880575787
  0.2452027420824798  0.9276244558430300  0.5688069580613059
  0.4188495628597649  0.7547372301494452  0.5692582663287141
  0.2443698278285115  0.5810365050833570  0.4259065353336478
  0.5760323227993813  0.5857336706471442  0.5883949047524316
  0.9107646222426314  0.9197094913395994  0.4050918914583960
  0.5690309089066211  0.7517739527090366  0.4249820661714369
  0.7439170934404523  0.9256727281060138  0.5684681182408567
  0.9169896331265046  0.7537582684241961  0.5688999977637664
  0.7428892860357005  0.5787871430860300  0.4252594727198056
  0.4855096161131368  0.4881637148313727  0.6963525276762473
  0.5467414020342291  0.5549624622734058  0.7279063878816238
 
  0.00000000E+00  0.00000000E+00  0.00000000E+00
  0.00000000E+00  0.00000000E+00  0.00000000E+00
  0.00000000E+00  0.00000000E+00  0.00000000E+00
  0.00000000E+00  0.00000000E+00  0.00000000E+00
  0.00000000E+00  0.00000000E+00  0.00000000E+00
  0.00000000E+00  0.00000000E+00  0.00000000E+00
  0.00000000E+00  0.00000000E+00  0.00000000E+00
  0.00000000E+00  0.00000000E+00  0.00000000E+00
  0.00000000E+00  0.00000000E+00  0.00000000E+00
  0.00000000E+00  0.00000000E+00  0.00000000E+00
  0.00000000E+00  0.00000000E+00  0.00000000E+00
  0.00000000E+00  0.00000000E+00  0.00000000E+00
  0.00000000E+00  0.00000000E+00  0.00000000E+00
  0.00000000E+00  0.00000000E+00  0.00000000E+00
  0.00000000E+00  0.00000000E+00  0.00000000E+00
  0.00000000E+00  0.00000000E+00  0.00000000E+00
  0.00000000E+00  0.00000000E+00  0.00000000E+00
  0.00000000E+00  0.00000000E+00  0.00000000E+00
  0.00000000E+00  0.00000000E+00  0.00000000E+00
  0.00000000E+00  0.00000000E+00  0.00000000E+00
  0.00000000E+00  0.00000000E+00  0.00000000E+00
  0.00000000E+00  0.00000000E+00  0.00000000E+00
  0.00000000E+00  0.00000000E+00  0.00000000E+00
  0.00000000E+00  0.00000000E+00  0.00000000E+00
  0.00000000E+00  0.00000000E+00  0.00000000E+00
  0.00000000E+00  0.00000000E+00  0.00000000E+00
  0.00000000E+00  0.00000000E+00  0.00000000E+00
  0.00000000E+00  0.00000000E+00  0.00000000E+00
  0.00000000E+00  0.00000000E+00  0.00000000E+00
  0.00000000E+00  0.00000000E+00  0.00000000E+00
  0.00000000E+00  0.00000000E+00  0.00000000E+00
  0.00000000E+00  0.00000000E+00  0.00000000E+00
  0.00000000E+00  0.00000000E+00  0.00000000E+00
  0.00000000E+00  0.00000000E+00  0.00000000E+00
