CONTCAR                                 
   1.00000000000000     
    10.7850999832000003    0.0000000000000000    0.0000000000000000
     0.0000000000000000   11.5594997405999997    0.0000000000000000
     0.0000000000000000    0.0000000000000000   23.1807994842999996
   V    O    H 
    36    79     1
Direct
  0.0004340290650475  0.3526934003035720  0.6568405827488846
  0.1690702553114818  0.8509204715291219  0.3414290179509862
  0.1663712578882510  0.8527222653721722  0.6565681915022736
  0.0012442371103347  0.6477897670483372  0.3430238400147942
  0.1669221059054991  0.1477088141292597  0.3425964205243091
  0.1667867834730075  0.1467106964010085  0.6564340879396298
  0.9997181479070960  0.3524487822344042  0.3426863166350387
  0.9993352601752363  0.6480387236461524  0.6573720375893757
  0.1683524680431390  0.8503191768580507  0.4964789830226337
  0.0021598792909003  0.6496720546020924  0.5002988337171885
  0.0005276126296963  0.3518318690727895  0.4996629011783753
  0.1681684811477169  0.1488188202074028  0.4997302626575930
  0.3334410261658860  0.3528340913229044  0.6569864994681609
  0.4979147542103775  0.8509731106162590  0.3414772358944020
  0.5005972013591631  0.8528423586161082  0.6567681104260146
  0.3334909992029651  0.6435357933183425  0.3369371472198210
  0.4999093596808990  0.1476782028272510  0.3426155507579622
  0.5001909638738340  0.1468635886080278  0.6564486297019911
  0.3334152899729972  0.3530316428076361  0.3418740572739409
  0.3334666814040759  0.6499631117189608  0.6915225002604757
  0.4989187757422613  0.8503441756521539  0.4965575476520740
  0.3337369585328744  0.6518410905056342  0.5270232113691833
  0.3334448412368047  0.3597077300556464  0.4994859939421374
  0.4988331920508102  0.1488478111338551  0.4997564221425961
  0.6665171157751857  0.3527940835969048  0.6568574276982844
  0.8335278289982995  0.8525938289871888  0.3433819683096004
  0.8335345843609545  0.8541774055614297  0.6568455867859200
  0.6658293306877638  0.6478303687267513  0.3430944979980524
  0.8334094814525841  0.1470827364983194  0.3424284034432716
  0.8334724670967404  0.1487167257040056  0.6563013475738586
  0.6671164297682708  0.3524921533258691  0.3427209571335297
  0.6674908067501519  0.6482678634748353  0.6575449849952548
  0.8336355521791390  0.8506148234133803  0.5009241013656549
  0.6650990031901856  0.6496990773127393  0.5004447773314240
  0.6664014158937235  0.3518528317597998  0.4996957514815250
  0.8335193140557706  0.1487330479447095  0.4991224510164116
  0.1753866780439566  0.8505331964894509  0.4132853328632251
  0.1636631596167106  0.8580546411553129  0.5859328069136680
  0.9993552439030182  0.3548542065335596  0.4139254878109782
  0.0005291162168177  0.3549529156357139  0.5856510475174659
  0.9985578303977505  0.6464144506041620  0.5860574696225882
  0.0051596144685107  0.6453577996243354  0.4143345758982306
  0.1670366942702657  0.1437260403157552  0.5851163289664001
  0.1679251076291948  0.1463393992849689  0.4137641631882616
  0.0012974132049024  0.1760811283912034  0.4996084098342806
  0.0022311204701069  0.8247790874490022  0.4980245576899023
  0.1712089072051057  0.6762357483150083  0.5033505260883402
  0.1674043059064019  0.3262973341597046  0.4992422485415275
  0.0001123400918175  0.1812696033547780  0.3224037366922090
  0.1650197803878370  0.6805690398579785  0.3189183697843276
  0.1663467254842317  0.3183182397590301  0.3228916251175491
  0.0007641666762765  0.8188519589166177  0.3240496920851967
  0.9989035866721210  0.8204609387514594  0.6767372135110890
  0.0001323749468511  0.1819969626488174  0.6764535424889218
  0.1667391626483550  0.3166135792303919  0.6769808335633911
  0.1629184275990028  0.6843363065359895  0.6786876869810783
  0.1675394310114697  0.9991584056872895  0.3201511639142609
  0.1661635251416484  0.0007911402092589  0.6806370584656776
  0.0006753372159736  0.5001996322974591  0.6802562425494827
  0.9995261187665818  0.4997786047320858  0.3198402510259655
  0.1736560655320361  0.9999120445748844  0.4978613117199586
  0.9996400556605849  0.5002848076208863  0.5001755880781786
  0.4915970765901179  0.8507258517360086  0.4133322609117442
  0.5034876711415848  0.8577845794642016  0.5861115809073212
  0.3334111576534156  0.3624238657058498  0.4132157563144290
  0.3334530409499479  0.3598277073988640  0.5854578271256301
  0.3341134511798103  0.6417821791236875  0.5975410293549075
  0.3333963036296694  0.6358995179166769  0.4055490327103968
  0.4999775569577665  0.1438371030884582  0.5851399662406322
  0.4989408300782472  0.1462409784530436  0.4137876640185780
  0.3334987398548748  0.1844334812931834  0.4999153028038918
  0.3336149623955365  0.8183895901309057  0.5068131937908618
  0.4959861868100148  0.6761998715940010  0.5031040553452542
  0.4995392374091239  0.3263760345630118  0.4992690826528516
  0.3334158837846459  0.1826480190757138  0.3219548664998442
  0.5020048449030341  0.6806319889371650  0.3190009564835066
  0.5005060255472955  0.3182830808223400  0.3229252831869402
  0.3334917341911066  0.8163486714598136  0.3188095773613426
  0.3334060051112644  0.8217414873858004  0.6777106319941382
  0.3334461500594514  0.1809125932980962  0.6759329150470776
  0.5002010184289105  0.3166601413220747  0.6769100600319149
  0.5039118132784211  0.6846420290950022  0.6795080016343675
  0.4993500709814214  0.9991744160449798  0.3201161863150546
  0.5006966286649686  0.0008663955707888  0.6807182095680488
  0.3332066830496672  0.4944236582813701  0.6849582692951373
  0.3334682293538904  0.4950228188539825  0.3123028072375149
  0.4935087163349223  0.9999138668503704  0.4980136040122218
  0.3334489843464468  0.5079628546980928  0.5018458564057866
  0.8336233897666361  0.8558607078358307  0.4143237443126679
  0.8335397551274184  0.8548293265491864  0.5853807276547869
  0.6675201121237606  0.3549455873522191  0.4139622048233704
  0.6664995980284019  0.3549090867408964  0.5856546592450869
  0.6678603844177502  0.6467325460552615  0.5861964334513203
  0.6621271139508096  0.6453018674319893  0.4143872260663457
  0.8334857226056371  0.1462525494817513  0.5851673264534654
  0.8334631275666808  0.1449223472246146  0.4137457550621022
  0.6656940928473603  0.1760982959911246  0.4996080743102596
  0.6649890163182164  0.8247948131458216  0.4980361206893420
  0.8336059910371389  0.6755522297547003  0.4995861341859751
  0.8334864677016043  0.3239937223930767  0.4996893408994794
  0.6667168888558805  0.1812486593598592  0.3224466747102639
  0.8335107509970143  0.6820909120305032  0.3240284531341757
  0.8333959394288897  0.3176800842346807  0.3221852714533426
  0.6662386189957488  0.8189096328137708  0.3241581517183434
  0.6681518944611824  0.8205890123385942  0.6768075303584027
  0.6668594574201023  0.1819937168903891  0.6764796311867229
  0.8334829749309876  0.3185918141873145  0.6770358935700713
  0.8334591102789233  0.6825651038599219  0.6778520069971847
  0.8334601079175528  0.9998505399196631  0.3191796024809648
  0.8335451990307021  0.0012767865772432  0.6797362581863240
  0.6663135065000176  0.5002507290680072  0.6801758417221322
  0.6673342759379892  0.4998031170367838  0.3198818131073367
  0.8335836707058206  0.0002173312040341  0.4999962436521486
  0.6675354721466817  0.5003158886232626  0.5003001948317802
  0.3312896259775044  0.6535586767580881  0.7685776930112667
  0.3176521404814210  0.5813026199497102  0.7893827868412799
 
  0.00000000E+00  0.00000000E+00  0.00000000E+00
  0.00000000E+00  0.00000000E+00  0.00000000E+00
  0.00000000E+00  0.00000000E+00  0.00000000E+00
  0.00000000E+00  0.00000000E+00  0.00000000E+00
  0.00000000E+00  0.00000000E+00  0.00000000E+00
  0.00000000E+00  0.00000000E+00  0.00000000E+00
  0.00000000E+00  0.00000000E+00  0.00000000E+00
  0.00000000E+00  0.00000000E+00  0.00000000E+00
  0.00000000E+00  0.00000000E+00  0.00000000E+00
  0.00000000E+00  0.00000000E+00  0.00000000E+00
  0.00000000E+00  0.00000000E+00  0.00000000E+00
  0.00000000E+00  0.00000000E+00  0.00000000E+00
  0.00000000E+00  0.00000000E+00  0.00000000E+00
  0.00000000E+00  0.00000000E+00  0.00000000E+00
  0.00000000E+00  0.00000000E+00  0.00000000E+00
  0.00000000E+00  0.00000000E+00  0.00000000E+00
  0.00000000E+00  0.00000000E+00  0.00000000E+00
  0.00000000E+00  0.00000000E+00  0.00000000E+00
  0.00000000E+00  0.00000000E+00  0.00000000E+00
  0.00000000E+00  0.00000000E+00  0.00000000E+00
  0.00000000E+00  0.00000000E+00  0.00000000E+00
  0.00000000E+00  0.00000000E+00  0.00000000E+00
  0.00000000E+00  0.00000000E+00  0.00000000E+00
  0.00000000E+00  0.00000000E+00  0.00000000E+00
  0.00000000E+00  0.00000000E+00  0.00000000E+00
  0.00000000E+00  0.00000000E+00  0.00000000E+00
  0.00000000E+00  0.00000000E+00  0.00000000E+00
  0.00000000E+00  0.00000000E+00  0.00000000E+00
  0.00000000E+00  0.00000000E+00  0.00000000E+00
  0.00000000E+00  0.00000000E+00  0.00000000E+00
  0.00000000E+00  0.00000000E+00  0.00000000E+00
  0.00000000E+00  0.00000000E+00  0.00000000E+00
  0.00000000E+00  0.00000000E+00  0.00000000E+00
  0.00000000E+00  0.00000000E+00  0.00000000E+00
  0.00000000E+00  0.00000000E+00  0.00000000E+00
  0.00000000E+00  0.00000000E+00  0.00000000E+00
  0.00000000E+00  0.00000000E+00  0.00000000E+00
  0.00000000E+00  0.00000000E+00  0.00000000E+00
  0.00000000E+00  0.00000000E+00  0.00000000E+00
  0.00000000E+00  0.00000000E+00  0.00000000E+00
  0.00000000E+00  0.00000000E+00  0.00000000E+00
  0.00000000E+00  0.00000000E+00  0.00000000E+00
  0.00000000E+00  0.00000000E+00  0.00000000E+00
  0.00000000E+00  0.00000000E+00  0.00000000E+00
  0.00000000E+00  0.00000000E+00  0.00000000E+00
  0.00000000E+00  0.00000000E+00  0.00000000E+00
  0.00000000E+00  0.00000000E+00  0.00000000E+00
  0.00000000E+00  0.00000000E+00  0.00000000E+00
  0.00000000E+00  0.00000000E+00  0.00000000E+00
  0.00000000E+00  0.00000000E+00  0.00000000E+00
  0.00000000E+00  0.00000000E+00  0.00000000E+00
  0.00000000E+00  0.00000000E+00  0.00000000E+00
  0.00000000E+00  0.00000000E+00  0.00000000E+00
  0.00000000E+00  0.00000000E+00  0.00000000E+00
  0.00000000E+00  0.00000000E+00  0.00000000E+00
  0.00000000E+00  0.00000000E+00  0.00000000E+00
  0.00000000E+00  0.00000000E+00  0.00000000E+00
  0.00000000E+00  0.00000000E+00  0.00000000E+00
  0.00000000E+00  0.00000000E+00  0.00000000E+00
  0.00000000E+00  0.00000000E+00  0.00000000E+00
  0.00000000E+00  0.00000000E+00  0.00000000E+00
  0.00000000E+00  0.00000000E+00  0.00000000E+00
  0.00000000E+00  0.00000000E+00  0.00000000E+00
  0.00000000E+00  0.00000000E+00  0.00000000E+00
  0.00000000E+00  0.00000000E+00  0.00000000E+00
  0.00000000E+00  0.00000000E+00  0.00000000E+00
  0.00000000E+00  0.00000000E+00  0.00000000E+00
  0.00000000E+00  0.00000000E+00  0.00000000E+00
  0.00000000E+00  0.00000000E+00  0.00000000E+00
  0.00000000E+00  0.00000000E+00  0.00000000E+00
  0.00000000E+00  0.00000000E+00  0.00000000E+00
  0.00000000E+00  0.00000000E+00  0.00000000E+00
  0.00000000E+00  0.00000000E+00  0.00000000E+00
  0.00000000E+00  0.00000000E+00  0.00000000E+00
  0.00000000E+00  0.00000000E+00  0.00000000E+00
  0.00000000E+00  0.00000000E+00  0.00000000E+00
  0.00000000E+00  0.00000000E+00  0.00000000E+00
  0.00000000E+00  0.00000000E+00  0.00000000E+00
  0.00000000E+00  0.00000000E+00  0.00000000E+00
  0.00000000E+00  0.00000000E+00  0.00000000E+00
  0.00000000E+00  0.00000000E+00  0.00000000E+00
  0.00000000E+00  0.00000000E+00  0.00000000E+00
  0.00000000E+00  0.00000000E+00  0.00000000E+00
  0.00000000E+00  0.00000000E+00  0.00000000E+00
  0.00000000E+00  0.00000000E+00  0.00000000E+00
  0.00000000E+00  0.00000000E+00  0.00000000E+00
  0.00000000E+00  0.00000000E+00  0.00000000E+00
  0.00000000E+00  0.00000000E+00  0.00000000E+00
  0.00000000E+00  0.00000000E+00  0.00000000E+00
  0.00000000E+00  0.00000000E+00  0.00000000E+00
  0.00000000E+00  0.00000000E+00  0.00000000E+00
  0.00000000E+00  0.00000000E+00  0.00000000E+00
  0.00000000E+00  0.00000000E+00  0.00000000E+00
  0.00000000E+00  0.00000000E+00  0.00000000E+00
  0.00000000E+00  0.00000000E+00  0.00000000E+00
  0.00000000E+00  0.00000000E+00  0.00000000E+00
  0.00000000E+00  0.00000000E+00  0.00000000E+00
  0.00000000E+00  0.00000000E+00  0.00000000E+00
  0.00000000E+00  0.00000000E+00  0.00000000E+00
  0.00000000E+00  0.00000000E+00  0.00000000E+00
  0.00000000E+00  0.00000000E+00  0.00000000E+00
  0.00000000E+00  0.00000000E+00  0.00000000E+00
  0.00000000E+00  0.00000000E+00  0.00000000E+00
  0.00000000E+00  0.00000000E+00  0.00000000E+00
  0.00000000E+00  0.00000000E+00  0.00000000E+00
  0.00000000E+00  0.00000000E+00  0.00000000E+00
  0.00000000E+00  0.00000000E+00  0.00000000E+00
  0.00000000E+00  0.00000000E+00  0.00000000E+00
  0.00000000E+00  0.00000000E+00  0.00000000E+00
  0.00000000E+00  0.00000000E+00  0.00000000E+00
  0.00000000E+00  0.00000000E+00  0.00000000E+00
  0.00000000E+00  0.00000000E+00  0.00000000E+00
  0.00000000E+00  0.00000000E+00  0.00000000E+00
  0.00000000E+00  0.00000000E+00  0.00000000E+00
  0.00000000E+00  0.00000000E+00  0.00000000E+00
  0.00000000E+00  0.00000000E+00  0.00000000E+00
