 Cu3 Te2 Br2 O6                         
   1.00000000000000     
     5.5464713889291044    0.0000000000000000    0.0000000000000000
     2.1398278815217613    5.1911232105040517    0.0000000000000000
     0.0000000000000000    0.0000000000000000   20.8804516414560020
   Cu   Te   Br   O 
     3     2     2     6
Direct
  0.4352553302633064  0.4297528757272304  0.5525937936419082
  0.0603439295051577  0.0533879884380600  0.5000005222853304
  0.6855406865383047  0.6770053783900100  0.4474080177055024
  0.2957128984662126  0.2855646274141628  0.3985509934923984
  0.8252367451264577  0.8210345674613794  0.6014748200241810
  0.2705568357720608  0.2693762067172909  0.6442243677075028
  0.8495373213692560  0.8375794519260161  0.3556756177628906
  0.6686702762591276  0.6594154910968302  0.5473352825184684
  0.3696127395946460  0.9723834522909298  0.4481612292763123
  0.7511279310613437  0.1343802998093220  0.5518866914907549
  0.9780495276759941  0.3590997166711574  0.4477727822697125
  0.1428441469598716  0.7476629759195628  0.5522521223183280
  0.4521420044462611  0.4473773589185914  0.4526637595067097
 
  0.00000000E+00  0.00000000E+00  0.00000000E+00
  0.00000000E+00  0.00000000E+00  0.00000000E+00
  0.00000000E+00  0.00000000E+00  0.00000000E+00
  0.00000000E+00  0.00000000E+00  0.00000000E+00
  0.00000000E+00  0.00000000E+00  0.00000000E+00
  0.00000000E+00  0.00000000E+00  0.00000000E+00
  0.00000000E+00  0.00000000E+00  0.00000000E+00
  0.00000000E+00  0.00000000E+00  0.00000000E+00
  0.00000000E+00  0.00000000E+00  0.00000000E+00
  0.00000000E+00  0.00000000E+00  0.00000000E+00
  0.00000000E+00  0.00000000E+00  0.00000000E+00
  0.00000000E+00  0.00000000E+00  0.00000000E+00
  0.00000000E+00  0.00000000E+00  0.00000000E+00
