CONTCAR\(2)                             
   1.00000000000000     
     3.4475998878000000    0.0000000000000000    0.0000000000000000
     1.7237499951999999    2.9856225713000000    0.0000000000000000
     0.0000000000000000    0.0000000000000000   18.3700008391999994
   Nb   Se   O 
     1     2     2
Selective dynamics
Direct
  0.3083074245046333  0.3105526986427094  0.4999447670196062   F   F   F
  0.6579591794573005  0.6583675955653447  0.5931748436851976   F   F   F
  0.6569210159261516  0.6586519170390233  0.4067349590060942   F   F   F
  0.3824797769263455  0.3739334534388448  0.6291630129636232   T   T   T
  0.3875227551855786  0.3668144263140788  0.3702159136420286   T   T   T
 
  0.00000000E+00  0.00000000E+00  0.00000000E+00
  0.00000000E+00  0.00000000E+00  0.00000000E+00
  0.00000000E+00  0.00000000E+00  0.00000000E+00
  0.00000000E+00  0.00000000E+00  0.00000000E+00
  0.00000000E+00  0.00000000E+00  0.00000000E+00
