CONTCAR\(6)                             
   1.00000000000000     
    13.8704996108999996    0.0000000000000000    0.0000000000000000
     6.9352498054999998   12.0122050262000002    0.0000000000000000
     0.0000000000000000    0.0000000000000000   20.7413005828999992
   Sc   H    Cl   O 
    32    33    32     2
Direct
  0.0833840787144199  0.0833301200231172  0.4391986685312229
  0.1667207125587529  0.1664998972307276  0.5607808077496559
  0.3333312743043473  0.0832324377235244  0.4392977191527500
  0.4167519208918402  0.1666221272629268  0.5606173298204993
  0.5833155226635393  0.0833545188394020  0.4390118629846732
  0.6666757209312224  0.1666466916004133  0.5604554737986204
  0.8333550199447517  0.0833859204463780  0.4389564769327364
  0.9165162799098883  0.1667385731479152  0.5605720282579596
  0.0832525341449639  0.3333837047119694  0.4394087028311695
  0.1667471083767287  0.4167847489491041  0.5607632483062042
  0.3333513081551115  0.3334256983869951  0.4392987909640899
  0.4169769162110035  0.4169099714975596  0.5609099426090054
  0.5833164389066580  0.3333767208450745  0.4390984617216416
  0.6659026018356473  0.4169655470871935  0.5609877645977216
  0.8330934941587261  0.3335399124967851  0.4393420903943161
  0.9162596600252898  0.4168761826560167  0.5608200328848065
  0.0833851464381625  0.5833042629032884  0.4391922686986529
  0.1666576665834048  0.6669524755081668  0.5606148220411304
  0.3334521173016743  0.5834070026212750  0.4393706085445747
  0.4163520413197297  0.6668256553906000  0.5620001823533781
  0.5830200739338982  0.5835052103986016  0.4395470312478583
  0.6659068845178522  0.6671496358613038  0.5609878597663233
  0.8330881857924776  0.5833958203818630  0.4393364989164508
  0.9165080068694879  0.6667673422663277  0.5605519312850961
  0.0834087880834135  0.8332837484427384  0.4388933098061287
  0.1666662304744088  0.9163687726849303  0.5606042037935376
  0.3334527367588943  0.8331224194233393  0.4393502480563754
  0.4169385890071815  0.9161144191646572  0.5608792203506053
  0.5833011164880559  0.8333201261137017  0.4390889526112197
  0.6666612440899347  0.9166819391399296  0.5604555286818553
  0.8333688241674633  0.8332767854723294  0.4389440349008353
  0.9165928389404595  0.9167005634315347  0.5603430345891964
  0.0831798718432815  0.0834776758495189  0.5354810524523095
  0.1666692013815648  0.1666494378034877  0.4644028890931591
  0.3333673836323792  0.0832876075690846  0.5355855076324920
  0.4167033987243933  0.1666451957258402  0.4642423906966576
  0.5833765402427128  0.0833045077625144  0.5352994718030027
  0.6667195280245599  0.1666165047241732  0.4640692437698979
  0.8332965296555951  0.0833540358849960  0.5352362926779464
  0.9166282378342626  0.1667257047587455  0.4641928846166656
  0.0831946266365008  0.3334236940169643  0.5357249287774272
  0.1666771411011891  0.4166921571660349  0.4643902136440796
  0.3334081589614495  0.3333221613076247  0.5355883741431867
  0.4167626410302397  0.4167190509030438  0.4643980227032599
  0.5834226537659543  0.3330642237279277  0.5352863919521184
  0.6664182972876931  0.4167924995691895  0.4644886826273608
  0.8330708485216327  0.3334510447598142  0.5356217160227270
  0.9164950824418919  0.4167691367836127  0.4644540019940760
  0.0831739796168944  0.5833456140312787  0.5354696775958178
  0.1666962465409402  0.6667149814581961  0.4641763630690711
  0.3332693276587006  0.5833916809356914  0.5355348066817196
  0.4165690934972200  0.6667053565688660  0.4650534683117571
  0.5830030517577370  0.5834915557426837  0.5357272880080201
  0.6664176804588501  0.6668160169510560  0.4644907713955373
  0.8330599624729569  0.5834927051487221  0.5356217052680424
  0.9166164449396741  0.6666712676546390  0.4641821128883717
  0.0829261431714668  0.8335263236827920  0.5350331328852098
  0.1666932202674308  0.9165804305198578  0.4641658557400037
  0.3332466289642368  0.8333187726941371  0.5355163245942236
  0.4167425810839742  0.9165286885911111  0.4643774929448328
  0.5833924480098668  0.8335285788020005  0.5352740951380518
  0.6667121011996286  0.9166771566055312  0.4640669783988398
  0.8332694215036870  0.8333768957348762  0.5352271254364245
  0.9166726938312378  0.9166732001612513  0.4639516423619851
  0.4023244549101505  0.6736632707459589  0.8429999587153917
  0.9997040280956588  0.0000790193296202  0.6383807676759702
  0.0000862478871559  0.0001002967529605  0.3609309757829666
  0.2498926719554100  0.9998746356569105  0.6385140998931368
  0.2500771545280133  0.9999303712116351  0.3611730669606770
  0.5001583704177566  0.0000504027317022  0.6385106451433696
  0.4998632771460635  0.0000384369512428  0.3610461563815799
  0.7500494042667983 -0.0000199395428474  0.6383719193007104
  0.7499738638199460  0.0000470064214149  0.3608673515779554
  0.9998303268107498  0.2500122574629909  0.6386699382987457
 -0.0001146809857804  0.2502103542170251  0.3612549055446396
  0.2500912540053595  0.2499822761265236  0.6386858934326006
  0.2499019430024505  0.2500411672436459  0.3612765799207161
  0.5002474131120677  0.2496969878886040  0.6385210994979478
  0.4998621071075304  0.2501119977710428  0.3610430335689327
  0.7499800278014167  0.2496988855420892  0.6385270378467620
  0.7500139461761965  0.2502020925523946  0.3610289022719881
  0.9998845022508618  0.5001544709799345  0.6386461453075358
 -0.0000862150215445  0.4999375892667531  0.3612432461354332
  0.2498764402642791  0.5002333872850104  0.6385286148773799
  0.2500978579761282  0.4999777757729312  0.3611799181884877
  0.5001079072421949  0.4993046833769871  0.6382458711684990
  0.4999561518032953  0.5001840577576834  0.3612298226588353
  0.7497268754852059  0.5001587794585436  0.6386766459119663
  0.7496871404864139  0.5001799980417082  0.3613180878418880
  0.9996282172854577  0.7502573900409878  0.6383601967076100
  0.0001321878425546  0.7497680210880888  0.3608998000112399
  0.2482203360650938  0.7508798057665056  0.6376173212399074
  0.2503309565507782  0.7498145003496006  0.3610804500301562
  0.5001210683103195  0.7506416623073704  0.6382135936227757
  0.4999536833826412  0.7498367096866587  0.3612077444848215
  0.7500241214321847  0.7503135632612494  0.6385286299556154
  0.7499840330087303  0.7498328463368369  0.3610280952561002
  0.4582035495545460  0.6449278539981724  0.8082967511862610
  0.3931971244647239  0.6787946814570035  0.7523478410968000
 
  0.00000000E+00  0.00000000E+00  0.00000000E+00
  0.00000000E+00  0.00000000E+00  0.00000000E+00
  0.00000000E+00  0.00000000E+00  0.00000000E+00
  0.00000000E+00  0.00000000E+00  0.00000000E+00
  0.00000000E+00  0.00000000E+00  0.00000000E+00
  0.00000000E+00  0.00000000E+00  0.00000000E+00
  0.00000000E+00  0.00000000E+00  0.00000000E+00
  0.00000000E+00  0.00000000E+00  0.00000000E+00
  0.00000000E+00  0.00000000E+00  0.00000000E+00
  0.00000000E+00  0.00000000E+00  0.00000000E+00
  0.00000000E+00  0.00000000E+00  0.00000000E+00
  0.00000000E+00  0.00000000E+00  0.00000000E+00
  0.00000000E+00  0.00000000E+00  0.00000000E+00
  0.00000000E+00  0.00000000E+00  0.00000000E+00
  0.00000000E+00  0.00000000E+00  0.00000000E+00
  0.00000000E+00  0.00000000E+00  0.00000000E+00
  0.00000000E+00  0.00000000E+00  0.00000000E+00
  0.00000000E+00  0.00000000E+00  0.00000000E+00
  0.00000000E+00  0.00000000E+00  0.00000000E+00
  0.00000000E+00  0.00000000E+00  0.00000000E+00
  0.00000000E+00  0.00000000E+00  0.00000000E+00
  0.00000000E+00  0.00000000E+00  0.00000000E+00
  0.00000000E+00  0.00000000E+00  0.00000000E+00
  0.00000000E+00  0.00000000E+00  0.00000000E+00
  0.00000000E+00  0.00000000E+00  0.00000000E+00
  0.00000000E+00  0.00000000E+00  0.00000000E+00
  0.00000000E+00  0.00000000E+00  0.00000000E+00
  0.00000000E+00  0.00000000E+00  0.00000000E+00
  0.00000000E+00  0.00000000E+00  0.00000000E+00
  0.00000000E+00  0.00000000E+00  0.00000000E+00
  0.00000000E+00  0.00000000E+00  0.00000000E+00
  0.00000000E+00  0.00000000E+00  0.00000000E+00
  0.00000000E+00  0.00000000E+00  0.00000000E+00
  0.00000000E+00  0.00000000E+00  0.00000000E+00
  0.00000000E+00  0.00000000E+00  0.00000000E+00
  0.00000000E+00  0.00000000E+00  0.00000000E+00
  0.00000000E+00  0.00000000E+00  0.00000000E+00
  0.00000000E+00  0.00000000E+00  0.00000000E+00
  0.00000000E+00  0.00000000E+00  0.00000000E+00
  0.00000000E+00  0.00000000E+00  0.00000000E+00
  0.00000000E+00  0.00000000E+00  0.00000000E+00
  0.00000000E+00  0.00000000E+00  0.00000000E+00
  0.00000000E+00  0.00000000E+00  0.00000000E+00
  0.00000000E+00  0.00000000E+00  0.00000000E+00
  0.00000000E+00  0.00000000E+00  0.00000000E+00
  0.00000000E+00  0.00000000E+00  0.00000000E+00
  0.00000000E+00  0.00000000E+00  0.00000000E+00
  0.00000000E+00  0.00000000E+00  0.00000000E+00
  0.00000000E+00  0.00000000E+00  0.00000000E+00
  0.00000000E+00  0.00000000E+00  0.00000000E+00
  0.00000000E+00  0.00000000E+00  0.00000000E+00
  0.00000000E+00  0.00000000E+00  0.00000000E+00
  0.00000000E+00  0.00000000E+00  0.00000000E+00
  0.00000000E+00  0.00000000E+00  0.00000000E+00
  0.00000000E+00  0.00000000E+00  0.00000000E+00
  0.00000000E+00  0.00000000E+00  0.00000000E+00
  0.00000000E+00  0.00000000E+00  0.00000000E+00
  0.00000000E+00  0.00000000E+00  0.00000000E+00
  0.00000000E+00  0.00000000E+00  0.00000000E+00
  0.00000000E+00  0.00000000E+00  0.00000000E+00
  0.00000000E+00  0.00000000E+00  0.00000000E+00
  0.00000000E+00  0.00000000E+00  0.00000000E+00
  0.00000000E+00  0.00000000E+00  0.00000000E+00
  0.00000000E+00  0.00000000E+00  0.00000000E+00
  0.00000000E+00  0.00000000E+00  0.00000000E+00
  0.00000000E+00  0.00000000E+00  0.00000000E+00
  0.00000000E+00  0.00000000E+00  0.00000000E+00
  0.00000000E+00  0.00000000E+00  0.00000000E+00
  0.00000000E+00  0.00000000E+00  0.00000000E+00
  0.00000000E+00  0.00000000E+00  0.00000000E+00
  0.00000000E+00  0.00000000E+00  0.00000000E+00
  0.00000000E+00  0.00000000E+00  0.00000000E+00
  0.00000000E+00  0.00000000E+00  0.00000000E+00
  0.00000000E+00  0.00000000E+00  0.00000000E+00
  0.00000000E+00  0.00000000E+00  0.00000000E+00
  0.00000000E+00  0.00000000E+00  0.00000000E+00
  0.00000000E+00  0.00000000E+00  0.00000000E+00
  0.00000000E+00  0.00000000E+00  0.00000000E+00
  0.00000000E+00  0.00000000E+00  0.00000000E+00
  0.00000000E+00  0.00000000E+00  0.00000000E+00
  0.00000000E+00  0.00000000E+00  0.00000000E+00
  0.00000000E+00  0.00000000E+00  0.00000000E+00
  0.00000000E+00  0.00000000E+00  0.00000000E+00
  0.00000000E+00  0.00000000E+00  0.00000000E+00
  0.00000000E+00  0.00000000E+00  0.00000000E+00
  0.00000000E+00  0.00000000E+00  0.00000000E+00
  0.00000000E+00  0.00000000E+00  0.00000000E+00
  0.00000000E+00  0.00000000E+00  0.00000000E+00
  0.00000000E+00  0.00000000E+00  0.00000000E+00
  0.00000000E+00  0.00000000E+00  0.00000000E+00
  0.00000000E+00  0.00000000E+00  0.00000000E+00
  0.00000000E+00  0.00000000E+00  0.00000000E+00
  0.00000000E+00  0.00000000E+00  0.00000000E+00
  0.00000000E+00  0.00000000E+00  0.00000000E+00
  0.00000000E+00  0.00000000E+00  0.00000000E+00
  0.00000000E+00  0.00000000E+00  0.00000000E+00
  0.00000000E+00  0.00000000E+00  0.00000000E+00
  0.00000000E+00  0.00000000E+00  0.00000000E+00
  0.00000000E+00  0.00000000E+00  0.00000000E+00
