CONTCAR\(7)                             
   1.00000000000000     
    11.5652999877999996    0.0000000000000000    0.0000000000000000
     0.0000000000000000   13.3549995421999999    0.0000000000000000
     0.0000000000000000    0.0000000000000000   25.4929008484000015
   Ta   Ag   S    O    H 
    32     8    64     1     1
Direct
  0.2455214597094368  0.4977493818113814  0.3625095781773240
  0.2455483377599208  0.2519570127988970  0.3624997203778193
  0.0005147585153011  0.3748394269184914  0.3644778652792340
  0.0869022274678457  0.2483654133724400  0.6398619702748150
  0.0012941280886309  0.1248481980513674  0.3620826187509891
  0.0881548412388682  0.0001176916612309  0.6402965738944886
  0.3333600323324859  0.1241501984483406  0.6375121836396147
  0.3237532291995251  0.3737503469083521  0.6388051672393971
  0.7453654177950639  0.4979912477356550  0.3627243428303615
  0.7454325968920088  0.2517633510192496  0.3627132190050162
  0.5004939868998122  0.3748813241003788  0.3644039919866202
  0.5910331566333937  0.2408219781437282  0.6388447198724592
  0.5015424219594635  0.1248653905286545  0.3622199577646938
  0.5886370361063058  0.0017333190085651  0.6397091970889193
  0.8314812993520491  0.1238129527050944  0.6380180901163968
  0.8318826720187715  0.3737414539563275  0.6398836749289174
  0.2454220698723333  0.9977432829601796  0.3623042366047926
  0.2454599417936834  0.7519369342245028  0.3623799312974398
  0.0004677061458125  0.8748285446979196  0.3643762521116543
  0.0881427589458568  0.7475237294339792  0.6403391097079094
  0.0013448986585445  0.6248977639948166  0.3621142932547272
  0.0869135337139824  0.4993329383023735  0.6399755039447044
  0.3330763642442562  0.6235397780716170  0.6374427876086202
  0.3319448333742514  0.8738459797891878  0.6405495049655343
  0.7454280792644283  0.9979623713504822  0.3625300075597835
  0.7454923874466033  0.7517650232602335  0.3625920458845400
  0.5004749657789631  0.8748497067093268  0.3644498434532011
  0.5885998545237427  0.7460424382080078  0.6398083001799222
  0.5015687586161732  0.6248274848445519  0.3622822521454765
  0.5912012562249629  0.5068933904528379  0.6382521022386101
  0.8315912117380719  0.6240044520609942  0.6380833754406581
  0.8322728275674436  0.8737968149210076  0.6405071134431850
  0.4968862496677389  0.3747157709259454  0.4898011757033061
  0.3337702764623884  0.1220595221271594  0.5134834335889522
  0.9977752133445819  0.3747275062514959  0.4881267573025099
  0.8377462585880977  0.1227834529221496  0.5139058488878661
  0.4967807324614881  0.8747327566627945  0.4887432131025164
  0.3338278229561382  0.6257177915737131  0.5135681732747059
  0.9975786327429930  0.8748571340278772  0.4885976595919743
  0.8382351418317455  0.6253982913455971  0.5139323973170065
  0.2473715218283630  0.4955276092318428  0.5761410032644676
  0.2538013544840183  0.0009015896875439  0.7006069996576514
  0.2474443326066620  0.2519807756818935  0.5760920975532073
  0.2525193106132519  0.2470455532305991  0.7003999963370546
  0.0802011702771424  0.2512885693008471  0.3018683358844640
  0.0838668584796238  0.2450027809458177  0.4253904905829771
  0.5003341467189983  0.3736849038139169  0.5829437520576306
  0.0004205759973459  0.3738305083523130  0.6996932162690044
  0.0801507177482179  0.4983968269675429  0.3018612543452548
  0.0837227204682662  0.0044779269954489  0.4253061038271895
  0.0066672622400503  0.1234296460192041  0.5782663871602338
  0.4984481540094663  0.1235135894910258  0.6998346349797657
  0.3312067388032887  0.1249222116154201  0.3030407910459587
  0.3323710775686948  0.1247324363964779  0.4214443865356756
  0.3342479940663736  0.3747895848055620  0.3027474020526597
  0.3267131486792394  0.3748928986380378  0.4248958224565271
  0.7510651195342177  0.4940354561112414  0.5759980033458945
  0.7532680354758341  0.9999741228728141  0.7006756523223174
  0.7504927286175516  0.2536217503762614  0.5761602154377883
  0.7527646848316323  0.2480419567708338  0.7006803577545426
  0.5803029251017122  0.2512423452217831  0.3019534574247373
  0.5833114154702059  0.2455935302375281  0.4256242849164167
  0.0000418052326978  0.3739297475966836  0.5803125839582961
  0.5020782202909260  0.3740678721748338  0.6926586545918170
  0.5802668914382920  0.4984571187297249  0.3019362837817994
  0.5835852888943407  0.0044374475786455  0.4254701040858464
  0.5063080246462803  0.1223315801094174  0.5764630666418213
  0.9987038213087231  0.1241048825107711  0.6994362796275411
  0.8308963093415187  0.1249611244134314  0.3030992757410331
  0.8325898856215161  0.1247988902809780  0.4217259866045282
  0.8340192174666257  0.3748440266976019  0.3029384685524334
  0.8262777916251309  0.3748885870407221  0.4248642440289103
  0.2491812806459563  0.9936933971930415  0.5771828885788679
  0.2527464729249687  0.5006096837214145  0.7005708426329491
  0.2491619014918172  0.7540180718536220  0.5772573649523665
  0.2538236404888821  0.7467795349690789  0.7006544729753443
  0.0800851567974377  0.7512179755526702  0.3017729665364328
  0.0837707842932858  0.7453062007486579  0.4253445538096798
  0.5011643466688653  0.8738208693681884  0.5810669956013541
  0.0019594182194851  0.8738096485145235  0.6998487208537014
  0.0800149142239661  0.9984847677963842  0.3017389115154359
  0.0838160056942456  0.5046798866061621  0.4253644328862336
  0.0067541672860330  0.6241021252704755  0.5783682024003625
  0.4983660504083502  0.6236273331279563  0.6998989829832993
  0.3312449665913348  0.6247727825166578  0.3030947730452525
  0.3323239831692177  0.6249623126653532  0.4214895383343560
  0.3343307965837070  0.8747733485850162  0.3026358720374631
  0.3262901034179180  0.8749426773342535  0.4246807528986949
  0.7502455400352730  0.9935906452820262  0.5769363443156834
  0.7524403521531440  0.4996731997046879  0.7004462052933889
  0.7501525070977024  0.7540534093842410  0.5770806693893960
  0.7531678816583209  0.7478845018089402  0.7008300363614666
  0.5802165509749173  0.7512157229603247  0.3019330634075459
  0.5836230195777787  0.7453550118600845  0.4254835815792433
  0.0008227667659924  0.8737679012146984  0.5809583248272290
  0.5031648330043339  0.8738640624729470  0.6990139274602925
  0.5801390186724902  0.9984811950906263  0.3018583072593799
  0.5833057048412016  0.5041381256144604  0.4256637792832620
  0.5061920334057959  0.6257655719573378  0.5764560096451916
  0.9986939345264076  0.6236574043702774  0.6995322751053834
  0.8308992823620400  0.6247506151418918  0.3031524784913771
  0.8326346887957072  0.6249315101450819  0.4217310677097785
  0.8340454929765926  0.8748221210910003  0.3027901967384139
  0.8264475069291066  0.8749453405239151  0.4247725737075143
  0.5057748769809933  0.3713908964205075  0.7573101340605604
  0.4822216829173200  0.4381624379498206  0.7696538936609940
 
  0.00000000E+00  0.00000000E+00  0.00000000E+00
  0.00000000E+00  0.00000000E+00  0.00000000E+00
  0.00000000E+00  0.00000000E+00  0.00000000E+00
  0.00000000E+00  0.00000000E+00  0.00000000E+00
  0.00000000E+00  0.00000000E+00  0.00000000E+00
  0.00000000E+00  0.00000000E+00  0.00000000E+00
  0.00000000E+00  0.00000000E+00  0.00000000E+00
  0.00000000E+00  0.00000000E+00  0.00000000E+00
  0.00000000E+00  0.00000000E+00  0.00000000E+00
  0.00000000E+00  0.00000000E+00  0.00000000E+00
  0.00000000E+00  0.00000000E+00  0.00000000E+00
  0.00000000E+00  0.00000000E+00  0.00000000E+00
  0.00000000E+00  0.00000000E+00  0.00000000E+00
  0.00000000E+00  0.00000000E+00  0.00000000E+00
  0.00000000E+00  0.00000000E+00  0.00000000E+00
  0.00000000E+00  0.00000000E+00  0.00000000E+00
  0.00000000E+00  0.00000000E+00  0.00000000E+00
  0.00000000E+00  0.00000000E+00  0.00000000E+00
  0.00000000E+00  0.00000000E+00  0.00000000E+00
  0.00000000E+00  0.00000000E+00  0.00000000E+00
  0.00000000E+00  0.00000000E+00  0.00000000E+00
  0.00000000E+00  0.00000000E+00  0.00000000E+00
  0.00000000E+00  0.00000000E+00  0.00000000E+00
  0.00000000E+00  0.00000000E+00  0.00000000E+00
  0.00000000E+00  0.00000000E+00  0.00000000E+00
  0.00000000E+00  0.00000000E+00  0.00000000E+00
  0.00000000E+00  0.00000000E+00  0.00000000E+00
  0.00000000E+00  0.00000000E+00  0.00000000E+00
  0.00000000E+00  0.00000000E+00  0.00000000E+00
  0.00000000E+00  0.00000000E+00  0.00000000E+00
  0.00000000E+00  0.00000000E+00  0.00000000E+00
  0.00000000E+00  0.00000000E+00  0.00000000E+00
  0.00000000E+00  0.00000000E+00  0.00000000E+00
  0.00000000E+00  0.00000000E+00  0.00000000E+00
  0.00000000E+00  0.00000000E+00  0.00000000E+00
  0.00000000E+00  0.00000000E+00  0.00000000E+00
  0.00000000E+00  0.00000000E+00  0.00000000E+00
  0.00000000E+00  0.00000000E+00  0.00000000E+00
  0.00000000E+00  0.00000000E+00  0.00000000E+00
  0.00000000E+00  0.00000000E+00  0.00000000E+00
  0.00000000E+00  0.00000000E+00  0.00000000E+00
  0.00000000E+00  0.00000000E+00  0.00000000E+00
  0.00000000E+00  0.00000000E+00  0.00000000E+00
  0.00000000E+00  0.00000000E+00  0.00000000E+00
  0.00000000E+00  0.00000000E+00  0.00000000E+00
  0.00000000E+00  0.00000000E+00  0.00000000E+00
  0.00000000E+00  0.00000000E+00  0.00000000E+00
  0.00000000E+00  0.00000000E+00  0.00000000E+00
  0.00000000E+00  0.00000000E+00  0.00000000E+00
  0.00000000E+00  0.00000000E+00  0.00000000E+00
  0.00000000E+00  0.00000000E+00  0.00000000E+00
  0.00000000E+00  0.00000000E+00  0.00000000E+00
  0.00000000E+00  0.00000000E+00  0.00000000E+00
  0.00000000E+00  0.00000000E+00  0.00000000E+00
  0.00000000E+00  0.00000000E+00  0.00000000E+00
  0.00000000E+00  0.00000000E+00  0.00000000E+00
  0.00000000E+00  0.00000000E+00  0.00000000E+00
  0.00000000E+00  0.00000000E+00  0.00000000E+00
  0.00000000E+00  0.00000000E+00  0.00000000E+00
  0.00000000E+00  0.00000000E+00  0.00000000E+00
  0.00000000E+00  0.00000000E+00  0.00000000E+00
  0.00000000E+00  0.00000000E+00  0.00000000E+00
  0.00000000E+00  0.00000000E+00  0.00000000E+00
  0.00000000E+00  0.00000000E+00  0.00000000E+00
  0.00000000E+00  0.00000000E+00  0.00000000E+00
  0.00000000E+00  0.00000000E+00  0.00000000E+00
  0.00000000E+00  0.00000000E+00  0.00000000E+00
  0.00000000E+00  0.00000000E+00  0.00000000E+00
  0.00000000E+00  0.00000000E+00  0.00000000E+00
  0.00000000E+00  0.00000000E+00  0.00000000E+00
  0.00000000E+00  0.00000000E+00  0.00000000E+00
  0.00000000E+00  0.00000000E+00  0.00000000E+00
  0.00000000E+00  0.00000000E+00  0.00000000E+00
  0.00000000E+00  0.00000000E+00  0.00000000E+00
  0.00000000E+00  0.00000000E+00  0.00000000E+00
  0.00000000E+00  0.00000000E+00  0.00000000E+00
  0.00000000E+00  0.00000000E+00  0.00000000E+00
  0.00000000E+00  0.00000000E+00  0.00000000E+00
  0.00000000E+00  0.00000000E+00  0.00000000E+00
  0.00000000E+00  0.00000000E+00  0.00000000E+00
  0.00000000E+00  0.00000000E+00  0.00000000E+00
  0.00000000E+00  0.00000000E+00  0.00000000E+00
  0.00000000E+00  0.00000000E+00  0.00000000E+00
  0.00000000E+00  0.00000000E+00  0.00000000E+00
  0.00000000E+00  0.00000000E+00  0.00000000E+00
  0.00000000E+00  0.00000000E+00  0.00000000E+00
  0.00000000E+00  0.00000000E+00  0.00000000E+00
  0.00000000E+00  0.00000000E+00  0.00000000E+00
  0.00000000E+00  0.00000000E+00  0.00000000E+00
  0.00000000E+00  0.00000000E+00  0.00000000E+00
  0.00000000E+00  0.00000000E+00  0.00000000E+00
  0.00000000E+00  0.00000000E+00  0.00000000E+00
  0.00000000E+00  0.00000000E+00  0.00000000E+00
  0.00000000E+00  0.00000000E+00  0.00000000E+00
  0.00000000E+00  0.00000000E+00  0.00000000E+00
  0.00000000E+00  0.00000000E+00  0.00000000E+00
  0.00000000E+00  0.00000000E+00  0.00000000E+00
  0.00000000E+00  0.00000000E+00  0.00000000E+00
  0.00000000E+00  0.00000000E+00  0.00000000E+00
  0.00000000E+00  0.00000000E+00  0.00000000E+00
  0.00000000E+00  0.00000000E+00  0.00000000E+00
  0.00000000E+00  0.00000000E+00  0.00000000E+00
  0.00000000E+00  0.00000000E+00  0.00000000E+00
  0.00000000E+00  0.00000000E+00  0.00000000E+00
  0.00000000E+00  0.00000000E+00  0.00000000E+00
  0.00000000E+00  0.00000000E+00  0.00000000E+00
