CONTCAR                                 
   1.00000000000000     
    11.6526002884000004    0.0000000000000000    0.0000000000000000
     0.0000000000000000   17.2355995178000008    0.0000000000000000
     0.0000000000000000    0.0000000000000000   19.4160995483000001
   Te   Pd   Pb   O    H 
    16    24    16     2     1
Direct
  0.2490309411621758  0.1440433147219911  0.6132975338963155
  0.9974553701255845  0.3944743484139239  0.3876258905524292
  0.2461320787044068  0.3560049423021784  0.6137486792117801
  0.9992432099634959  0.1061276814128040  0.3876657525075772
  0.7493079087340874  0.1440944739904435  0.6133299294344883
  0.4983169779417796  0.3949550775390647  0.3889714118589798
  0.7494449071147938  0.3563203442665493  0.6143766283758717
  0.4991719276567645  0.1060993835764228  0.3878482611477905
  0.2393724099582032  0.6427803327826567  0.6129826494168565
  0.9981827636006694  0.8943652407559163  0.3866254740897381
  0.2518826800416576  0.8555238557946139  0.6107320595522028
  0.9992977355564613  0.6069378105776160  0.3837594447265532
  0.7594780098520654  0.6444134835615200  0.6124918128925004
  0.4988745645521241  0.8923379796850385  0.3844683106996391
  0.7448804388235947  0.8557392867290183  0.6109481731097705
  0.4987778162205250  0.6067351655012154  0.3910819829447727
  0.1239850678406274  0.1256201398472762  0.5003435067626811
  0.9982832972815895  0.2502693351943619  0.4335460460644108
  0.1233609020918755  0.3750717614316423  0.4997797168446058
  0.3736955115040175  0.1251695879607794  0.5002572965499726
  0.3731348808734287  0.3735799851377744  0.5020085053818572
  0.2486175170265759  0.0002936121292928  0.5669510080517576
  0.6237570915578742  0.1257120668578786  0.5007217983032649
  0.4984535066550363  0.2504448994607619  0.4337506339839569
  0.6238572331498440  0.3745295654283138  0.5019614760213783
  0.8736141402953627  0.1253691214747919  0.5000823960475103
  0.8736757654008610  0.3747822381854200  0.5009936958299546
  0.7491802048291571  0.0004007687262660  0.5669939011377519
  0.1227948250871099  0.6242766569344248  0.4975021355033631
  0.9983652714912444  0.7502820719117526  0.4324014851816660
  0.1235435131621881  0.8755388216117012  0.4994224434546103
  0.3743791831805357  0.6261888191948242  0.5046696245153108
  0.3736308643952957  0.8780395426600657  0.4969825869786560
  0.2473849298699943  0.4994054710837456  0.5662275261128279
  0.6230784353454518  0.6265424469169656  0.5048884208863135
  0.4985844868899540  0.7507541108836248  0.4357911746427081
  0.6241626688588336  0.8780834468679467  0.4968193391281218
  0.8742954394405746  0.6235419620314191  0.4966491745642668
  0.8739192815927894  0.8754026448010854  0.4999635109767385
  0.7496299135079233  0.4999548640339697  0.5677343518338045
  0.2496313409292703  0.0002244977817915  0.4156711834188810
  0.9990582552778599  0.2499485662185850  0.5845771871621297
  0.2489650026740720  0.2504164767678408  0.4290558286765011
  0.9989852937786570  0.0002453590807791  0.5711859576294844
  0.7489502759319017  0.0002941281016276  0.4156142910598133
  0.4987574417984181  0.2496459640280984  0.5848719082282288
  0.7480315787539121  0.2510194157403733  0.4295186350446393
  0.4987925638713693  0.9992444027134781  0.5711841874517816
  0.2496655233386031  0.4999367858623616  0.4157171671213874
  0.0000453707238480  0.7518770583841839  0.5839425407999661
  0.2494678253855422  0.7497069331006420  0.4319819285617619
  0.9989040576291012  0.5002633503416578  0.5710686157671737
  0.7481417375615980  0.4996528806174343  0.4166347973529098
  0.4990746042822345  0.7323746378774931  0.6024221900595385
  0.7474196601779810  0.7499405828953808  0.4315159877423587
  0.4980963312881398  0.5023489406512669  0.5732156753805501
  0.4925315148600600  0.6539634987822012  0.7016028609768410
  0.5058589913151194  0.5696439382957378  0.6968487969731584
  0.5873089600858540  0.5633959253819887  0.7090247984181232
 
  0.00000000E+00  0.00000000E+00  0.00000000E+00
  0.00000000E+00  0.00000000E+00  0.00000000E+00
  0.00000000E+00  0.00000000E+00  0.00000000E+00
  0.00000000E+00  0.00000000E+00  0.00000000E+00
  0.00000000E+00  0.00000000E+00  0.00000000E+00
  0.00000000E+00  0.00000000E+00  0.00000000E+00
  0.00000000E+00  0.00000000E+00  0.00000000E+00
  0.00000000E+00  0.00000000E+00  0.00000000E+00
  0.00000000E+00  0.00000000E+00  0.00000000E+00
  0.00000000E+00  0.00000000E+00  0.00000000E+00
  0.00000000E+00  0.00000000E+00  0.00000000E+00
  0.00000000E+00  0.00000000E+00  0.00000000E+00
  0.00000000E+00  0.00000000E+00  0.00000000E+00
  0.00000000E+00  0.00000000E+00  0.00000000E+00
  0.00000000E+00  0.00000000E+00  0.00000000E+00
  0.00000000E+00  0.00000000E+00  0.00000000E+00
  0.00000000E+00  0.00000000E+00  0.00000000E+00
  0.00000000E+00  0.00000000E+00  0.00000000E+00
  0.00000000E+00  0.00000000E+00  0.00000000E+00
  0.00000000E+00  0.00000000E+00  0.00000000E+00
  0.00000000E+00  0.00000000E+00  0.00000000E+00
  0.00000000E+00  0.00000000E+00  0.00000000E+00
  0.00000000E+00  0.00000000E+00  0.00000000E+00
  0.00000000E+00  0.00000000E+00  0.00000000E+00
  0.00000000E+00  0.00000000E+00  0.00000000E+00
  0.00000000E+00  0.00000000E+00  0.00000000E+00
  0.00000000E+00  0.00000000E+00  0.00000000E+00
  0.00000000E+00  0.00000000E+00  0.00000000E+00
  0.00000000E+00  0.00000000E+00  0.00000000E+00
  0.00000000E+00  0.00000000E+00  0.00000000E+00
  0.00000000E+00  0.00000000E+00  0.00000000E+00
  0.00000000E+00  0.00000000E+00  0.00000000E+00
  0.00000000E+00  0.00000000E+00  0.00000000E+00
  0.00000000E+00  0.00000000E+00  0.00000000E+00
  0.00000000E+00  0.00000000E+00  0.00000000E+00
  0.00000000E+00  0.00000000E+00  0.00000000E+00
  0.00000000E+00  0.00000000E+00  0.00000000E+00
  0.00000000E+00  0.00000000E+00  0.00000000E+00
  0.00000000E+00  0.00000000E+00  0.00000000E+00
  0.00000000E+00  0.00000000E+00  0.00000000E+00
  0.00000000E+00  0.00000000E+00  0.00000000E+00
  0.00000000E+00  0.00000000E+00  0.00000000E+00
  0.00000000E+00  0.00000000E+00  0.00000000E+00
  0.00000000E+00  0.00000000E+00  0.00000000E+00
  0.00000000E+00  0.00000000E+00  0.00000000E+00
  0.00000000E+00  0.00000000E+00  0.00000000E+00
  0.00000000E+00  0.00000000E+00  0.00000000E+00
  0.00000000E+00  0.00000000E+00  0.00000000E+00
  0.00000000E+00  0.00000000E+00  0.00000000E+00
  0.00000000E+00  0.00000000E+00  0.00000000E+00
  0.00000000E+00  0.00000000E+00  0.00000000E+00
  0.00000000E+00  0.00000000E+00  0.00000000E+00
  0.00000000E+00  0.00000000E+00  0.00000000E+00
  0.00000000E+00  0.00000000E+00  0.00000000E+00
  0.00000000E+00  0.00000000E+00  0.00000000E+00
  0.00000000E+00  0.00000000E+00  0.00000000E+00
  0.00000000E+00  0.00000000E+00  0.00000000E+00
  0.00000000E+00  0.00000000E+00  0.00000000E+00
  0.00000000E+00  0.00000000E+00  0.00000000E+00
