 Ni2 P2 Se6                             
   1.00000000000000     
     6.1278984657717892    0.0000000000000000    0.0000000000000000
     3.0639492328858946    5.3073024689189889    0.0000000000000000
     0.0000000000000000    0.0000000000000000   18.0618253285880002
   Ni   P    Se
     2     2     6
Direct
  0.3333531402725853  0.3332960042112063  0.4999996794872317
  0.6666488871375336  0.6667028730833735  0.4999996831918523
  0.0000817824122450  0.9999987817297651  0.4381507911434710
  0.9999208578578660  0.9999988851285906  0.5618485724422939
  0.6419570277683206  0.0000082538577999  0.4137234881874221
  0.3580363053232531  0.0000080308848069  0.5862758705474462
  0.3582765065640174  0.6418898724878872  0.4137711801581219
  0.0001778888755908  0.3581085026921187  0.4137704605369450
  0.6417124227535425  0.3580992036954669  0.5862324742899361
  0.9998351810350528  0.6418895922289778  0.5862278000152870
 
  0.00000000E+00  0.00000000E+00  0.00000000E+00
  0.00000000E+00  0.00000000E+00  0.00000000E+00
  0.00000000E+00  0.00000000E+00  0.00000000E+00
  0.00000000E+00  0.00000000E+00  0.00000000E+00
  0.00000000E+00  0.00000000E+00  0.00000000E+00
  0.00000000E+00  0.00000000E+00  0.00000000E+00
  0.00000000E+00  0.00000000E+00  0.00000000E+00
  0.00000000E+00  0.00000000E+00  0.00000000E+00
  0.00000000E+00  0.00000000E+00  0.00000000E+00
  0.00000000E+00  0.00000000E+00  0.00000000E+00
