CONTCAR\(14)                            
   1.00000000000000     
    10.8957996367999996    0.0000000000000000    0.0000000000000000
     0.0000000000000000   12.8001003265000008    0.0000000000000000
     0.0000000000000000    0.0000000000000000   21.8099994658999989
   Cu   Si   P    O 
    12    24    36     1
Direct
  0.0010134777952118  0.1063840655601993  0.4629499857851869
  0.0073361454940652  0.2894282610989265  0.3609582962872508
  0.3329805189199178  0.1062007785021919  0.4622372294624881
  0.3335214059441469  0.2840795147191102  0.3619922601776011
  0.6649324488056010  0.1063529873312206  0.4629496515176754
  0.6600389654713013  0.2893941756594032  0.3610291976431128
  0.9916220709195116  0.6074672353082917  0.4656513227049999
  0.0008639129663806  0.7867911379538199  0.3636044207781381
  0.3334333036896453  0.6091919515843216  0.4591361905490032
  0.3334405684566164  0.7713185203334021  0.3524445906698475
  0.6745825892974153  0.6074208607198415  0.4656120390073824
  0.6660881640908158  0.7866032324452235  0.3636949102831295
  0.1682661850165559  0.0408481233891393  0.3864797229240438
  0.1669305748617802  0.1938946603311393  0.6083579558381444
  0.1684162628672468  0.3571587661396833  0.4805664364330937
  0.9997314479696087  0.4428192895591678  0.6150777651864914
  0.4990728171790408  0.0407372952885510  0.3865040252695024
  0.4991200801237667  0.1938566645122108  0.6084244777602166
  0.4980265833520647  0.3570293408948544  0.4807728781484144
  0.3330935881000272  0.4425044709837636  0.6159934972737915
  0.8336232748773185  0.0457543115768928  0.3872852235907160
  0.8330406149381986  0.1924044676850727  0.6094242710387618
  0.8332201619855795  0.3511158474038822  0.4817364963514663
  0.6666436377733191  0.4427964287893005  0.6150936845595396
  0.2001994552026147  0.5560118037651804  0.3756410138463977
  0.1672146152996987  0.6929719188558465  0.6091852522212164
  0.1676465598433765  0.8497510183790382  0.4812282646908770
  0.0009877183075773  0.9426909185130867  0.6151900670163286
  0.4680145355365113  0.5557545773924986  0.3759642584188683
  0.4988702451314850  0.6930066846330689  0.6092883704365946
  0.4986887855668627  0.8497999813059138  0.4812221480074470
  0.3331032730955172  0.9427947801032985  0.6150200689042222
  0.8339677300477604  0.5431463592772303  0.3874113125364076
  0.8330666949445558  0.6954564091796698  0.6132094523168305
  0.8331455123889953  0.8535303547670807  0.4835511057472885
  0.6651992326880034  0.9426378752031042  0.6151690156154856
  0.0017639797516367  0.1194704230366952  0.3472287962356901
  0.1671975713803846  0.1892455419056205  0.5053927013109671
  0.1719034865393425  0.3821257448354700  0.3792474670895203
  0.0000549369766460  0.2742984850536558  0.6548308439040156
  0.9989542330789476  0.4472293633078550  0.5118938205639552
  0.1669896993005082  0.0302946846363596  0.6557759099230225
  0.3337168415335228  0.1161894289369343  0.3454406040998634
  0.4987241987700060  0.1890776461265204  0.5055027533121930
  0.4953211780188411  0.3818204660574338  0.3794209283203429
  0.3329264697667824  0.2741103172728003  0.6553981800194038
  0.3332177748023781  0.4509091665182510  0.5134677698829435
  0.4992116609512394  0.0302269767776409  0.6557986701402569
  0.6654671724500361  0.1194884768121014  0.3472288848975964
  0.8329364322009170  0.1842574463283100  0.5068339380132230
  0.8336492808384506  0.3703776695568024  0.3800044259090640
  0.6660459376045011  0.2742687804319530  0.6548176398155974
  0.6675294403351657  0.4472215615471242  0.5118969041193466
  0.8330498241759514  0.0283549745576792  0.6559069303905574
  0.0069315631897169  0.6175797380471764  0.3536068515050630
  0.1655897559729596  0.6826537719588899  0.5061904565434290
  0.1732905383645544  0.8685899923682072  0.3796556359271719
  0.0028726520494118  0.7761478348052790  0.6570126484959360
  0.0021247969065072  0.9465941156272066  0.5118880253465150
  0.1661844566419362  0.5290684167999018  0.6568702799495156
  0.3345683695973776  0.6174369663317947  0.3024549877586367
  0.5007873675862768  0.6828353362501076  0.5063254036564899
  0.4936690280523734  0.8684436426761550  0.3796619751414596
  0.3329304176946337  0.7749872288256725  0.6555558417365361
  0.3331294765131858  0.9461505532529202  0.5117339321950638
  0.5001327227990160  0.5290165092501198  0.6568374199398974
  0.6609514892690598  0.6174123230741202  0.3534274584269426
  0.8331006044464289  0.6898368445541792  0.5120470589469264
  0.8334384461861575  0.8734430966086677  0.3818802830578889
  0.6632964154918497  0.7761600680660408  0.6570590304992763
  0.6642497753375807  0.9466111745242642  0.5118775507750399
  0.8331647374647488  0.5283931763525374  0.6571736679835851
  0.3352646310128904  0.5923973347829659  0.2350077661690406
 
  0.00000000E+00  0.00000000E+00  0.00000000E+00
  0.00000000E+00  0.00000000E+00  0.00000000E+00
  0.00000000E+00  0.00000000E+00  0.00000000E+00
  0.00000000E+00  0.00000000E+00  0.00000000E+00
  0.00000000E+00  0.00000000E+00  0.00000000E+00
  0.00000000E+00  0.00000000E+00  0.00000000E+00
  0.00000000E+00  0.00000000E+00  0.00000000E+00
  0.00000000E+00  0.00000000E+00  0.00000000E+00
  0.00000000E+00  0.00000000E+00  0.00000000E+00
  0.00000000E+00  0.00000000E+00  0.00000000E+00
  0.00000000E+00  0.00000000E+00  0.00000000E+00
  0.00000000E+00  0.00000000E+00  0.00000000E+00
  0.00000000E+00  0.00000000E+00  0.00000000E+00
  0.00000000E+00  0.00000000E+00  0.00000000E+00
  0.00000000E+00  0.00000000E+00  0.00000000E+00
  0.00000000E+00  0.00000000E+00  0.00000000E+00
  0.00000000E+00  0.00000000E+00  0.00000000E+00
  0.00000000E+00  0.00000000E+00  0.00000000E+00
  0.00000000E+00  0.00000000E+00  0.00000000E+00
  0.00000000E+00  0.00000000E+00  0.00000000E+00
  0.00000000E+00  0.00000000E+00  0.00000000E+00
  0.00000000E+00  0.00000000E+00  0.00000000E+00
  0.00000000E+00  0.00000000E+00  0.00000000E+00
  0.00000000E+00  0.00000000E+00  0.00000000E+00
  0.00000000E+00  0.00000000E+00  0.00000000E+00
  0.00000000E+00  0.00000000E+00  0.00000000E+00
  0.00000000E+00  0.00000000E+00  0.00000000E+00
  0.00000000E+00  0.00000000E+00  0.00000000E+00
  0.00000000E+00  0.00000000E+00  0.00000000E+00
  0.00000000E+00  0.00000000E+00  0.00000000E+00
  0.00000000E+00  0.00000000E+00  0.00000000E+00
  0.00000000E+00  0.00000000E+00  0.00000000E+00
  0.00000000E+00  0.00000000E+00  0.00000000E+00
  0.00000000E+00  0.00000000E+00  0.00000000E+00
  0.00000000E+00  0.00000000E+00  0.00000000E+00
  0.00000000E+00  0.00000000E+00  0.00000000E+00
  0.00000000E+00  0.00000000E+00  0.00000000E+00
  0.00000000E+00  0.00000000E+00  0.00000000E+00
  0.00000000E+00  0.00000000E+00  0.00000000E+00
  0.00000000E+00  0.00000000E+00  0.00000000E+00
  0.00000000E+00  0.00000000E+00  0.00000000E+00
  0.00000000E+00  0.00000000E+00  0.00000000E+00
  0.00000000E+00  0.00000000E+00  0.00000000E+00
  0.00000000E+00  0.00000000E+00  0.00000000E+00
  0.00000000E+00  0.00000000E+00  0.00000000E+00
  0.00000000E+00  0.00000000E+00  0.00000000E+00
  0.00000000E+00  0.00000000E+00  0.00000000E+00
  0.00000000E+00  0.00000000E+00  0.00000000E+00
  0.00000000E+00  0.00000000E+00  0.00000000E+00
  0.00000000E+00  0.00000000E+00  0.00000000E+00
  0.00000000E+00  0.00000000E+00  0.00000000E+00
  0.00000000E+00  0.00000000E+00  0.00000000E+00
  0.00000000E+00  0.00000000E+00  0.00000000E+00
  0.00000000E+00  0.00000000E+00  0.00000000E+00
  0.00000000E+00  0.00000000E+00  0.00000000E+00
  0.00000000E+00  0.00000000E+00  0.00000000E+00
  0.00000000E+00  0.00000000E+00  0.00000000E+00
  0.00000000E+00  0.00000000E+00  0.00000000E+00
  0.00000000E+00  0.00000000E+00  0.00000000E+00
  0.00000000E+00  0.00000000E+00  0.00000000E+00
  0.00000000E+00  0.00000000E+00  0.00000000E+00
  0.00000000E+00  0.00000000E+00  0.00000000E+00
  0.00000000E+00  0.00000000E+00  0.00000000E+00
  0.00000000E+00  0.00000000E+00  0.00000000E+00
  0.00000000E+00  0.00000000E+00  0.00000000E+00
  0.00000000E+00  0.00000000E+00  0.00000000E+00
  0.00000000E+00  0.00000000E+00  0.00000000E+00
  0.00000000E+00  0.00000000E+00  0.00000000E+00
  0.00000000E+00  0.00000000E+00  0.00000000E+00
  0.00000000E+00  0.00000000E+00  0.00000000E+00
  0.00000000E+00  0.00000000E+00  0.00000000E+00
  0.00000000E+00  0.00000000E+00  0.00000000E+00
  0.00000000E+00  0.00000000E+00  0.00000000E+00
