 Hf2 Si2 Te2                            
   1.00000000000000     
     3.6250861260071274    0.0000000000000000    0.0000000000000000
     0.0000000000000000    3.6250859526205361    0.0000000000000000
     0.0000000000000000    0.0000000000000000   21.9908757117599976
   Hf   Si   Te
     2     2     2
Direct
  0.4999999719189562 -0.0000000062871173  0.5952740810354044
  0.0000000274967231  0.5000000046760216  0.4047240976450378
  0.0000000097239172  0.0000000103836139  0.5000008421184985
  0.4999999891364517  0.4999999850359995  0.5000008392029979
 -0.0000000084873451  0.5000000055256993  0.6595797514104249
  0.5000000102112971  0.0000000006657827  0.3404203885876366
 
  0.00000000E+00  0.00000000E+00  0.00000000E+00
  0.00000000E+00  0.00000000E+00  0.00000000E+00
  0.00000000E+00  0.00000000E+00  0.00000000E+00
  0.00000000E+00  0.00000000E+00  0.00000000E+00
  0.00000000E+00  0.00000000E+00  0.00000000E+00
  0.00000000E+00  0.00000000E+00  0.00000000E+00
