CONTCAR                                 
   1.00000000000000     
    14.4987001419000006    0.0000000000000000    0.0000000000000000
    -0.3851722429000000   15.7714976485000005    0.0000000000000000
     0.0000000000000000    0.0000000000000000   25.2446994780999994
   Cr   P    O 
    24    24   121
Direct
  0.9947335658040137  0.3595097853754131  0.3513192421014494
  0.2467702932495466  0.3697818531790313  0.5241603134868231
  0.0870134777587847  0.1254600903521594  0.4771915036964804
  0.3466235114888849  0.1375904303146243  0.6487511551762509
  0.3395683985015941  0.3434092359197406  0.3401603286849294
  0.5686039849756960  0.3733410460895686  0.5076838946464777
  0.4216283477907677  0.1235203761944523  0.4708741538092912
  0.6618381552976884  0.1576158843343249  0.6500271245255765
  0.6578215434443986  0.3521191527941444  0.3471226681013450
  0.9079116417621096  0.3716003828043143  0.5214996972120739
  0.7533263210673643  0.1280323210615169  0.4819525799497641
  0.0157542002802556  0.1309689277346695  0.6519475031369251
  0.9904070717494153  0.8427405114214460  0.3453623158771746
  0.2445604334779680  0.8710506044042324  0.5180104746114180
  0.0888844075072133  0.6230754972240362  0.4859480037810116
  0.3439355040155096  0.6523510304309853  0.6584276882876459
  0.3301106692382669  0.8379267214859706  0.3475548142786112
  0.5799010550938800  0.8762076203175296  0.5231461142473334
  0.4265651892769619  0.6207839230441996  0.4892824734100417
  0.6673432142397839  0.6926587011763754  0.6657300781644274
  0.6576646666914669  0.8489144237980130  0.3481483864915088
  0.9143852919983720  0.8741548785295923  0.5142650491661440
  0.7546650637759743  0.6253004157073547  0.4901143379078816
  0.0072973022519533  0.6531640671061005  0.6568718538464123
  0.0755687549605890  0.4382010357098813  0.4519677902420214
  0.2484085659348437  0.2228123393190721  0.4290323218973808
  0.0790845627752809  0.2759928134520070  0.5696819995314060
  0.2611118751140182  0.0584222309688199  0.5465832140494140
  0.4002631320453648  0.4389505624856407  0.4419391819528081
  0.5932595633439744  0.2122685515682212  0.4220787156570238
  0.4194275113360436  0.2683580436178379  0.5617793437422024
  0.5886288376361288  0.0634484215420247  0.5511686197791084
  0.7415687565316524  0.4414911351006028  0.4461394661696295
  0.9174345341141841  0.2202084208675027  0.4319497912298069
  0.7327912089270094  0.2888969382020993  0.5656481432133151
  0.9242496198108904  0.0609533000854020  0.5513473918116306
  0.0753813825498620  0.9377124905047356  0.4423314914817670
  0.2565148295096186  0.7094543989014924  0.4359087647366750
  0.0783592360160685  0.7850481711026231  0.5696456460380690
  0.2610519957144108  0.5567951202178552  0.5608132192434482
  0.4081478006418456  0.9336263240467698  0.4443512516208124
  0.5879329537061915  0.7169675256535586  0.4389361550055924
  0.4131469521583958  0.7850985265391404  0.5722686885883047
  0.5989505502689519  0.5749437464849196  0.5732030799826890
  0.7417675501099090  0.9394001869677411  0.4468143319022323
  0.9212023758138768  0.7134731757338908  0.4333454348276633
  0.7538155108730838  0.7894045778299109  0.5731963516123387
  0.9264551178910877  0.5584179310141700  0.5591883647540570
  0.0836248377830654  0.3932836717057773  0.3953336537625688
  0.3089339610459888  0.4381150952722717  0.4728156991101574
  0.2897111461796157  0.3767240630869496  0.2888920127612347
  0.1336333587878878  0.3861677553166194  0.4890373221502002
  0.2271188332024542  0.4650559292234953  0.5688291904456630
  0.2620547569259322  0.2795657523577231  0.3777754458058131
  0.0381935344459894  0.3402616125884634  0.2954687692577068
  0.1803924124815508  0.3041723031269168  0.5762715257364771
  0.2610867926489033  0.2791874790764121  0.4776909407642933
  0.3164297324567801  0.1502052014828592  0.4287879562519854
  0.0116960653275603  0.3490927258943207  0.5651463731463077
  0.0679966072623579  0.2173487264458847  0.5219172903244079
  0.1475181638714277  0.1923875499461761  0.4242377529914876
  0.2981612481477752  0.1696473485874816  0.7007500425243319
  0.0533449446612509  0.2284117608533837  0.6230071220355105
  0.1135087432990771  0.0282059567937920  0.4351659642269474
  0.2004309361466613  0.1137800055733688  0.5129047042304333
  0.0958075449035363  0.0649911232970844  0.6545203715626492
  0.0240926909149969  0.0605443296212352  0.5312813634843839
  0.2614912494390940  0.1039516505025243  0.6031571074702915
  0.3704150825366138  0.4310464040429424  0.3813269678759049
  0.6397612707393808  0.4444524987169274  0.4629369890623449
  0.5700721135265125  0.4093075635010994  0.3484662566237601
  0.4643681353710716  0.3656392654973789  0.4546758610944000
  0.5123487336501168  0.4442322014890303  0.5353367111038161
  0.6269144051103279  0.2446953540364701  0.3652258855411810
  0.4265208377757386  0.2911790602870221  0.3237138215697236
  0.5222454822132198  0.2886386862940737  0.5561298169728830
  0.6108288852688279  0.2842006860133948  0.4605585918694891
  0.6519426875276353  0.1348398042075312  0.4356172308677712
  0.3572497662033444  0.3452364576284594  0.5612802629789780
  0.3912027313730713  0.2100992193300100  0.5158907732139689
  0.4908710626467536  0.1849855355714434  0.4186466319752053
  0.6148552031333718  0.1741511128941745  0.7053125919428822
  0.4085909825976288  0.2221140334661107  0.6167034186368847
  0.4414604538879566  0.0242120885620294  0.4312405493945691
  0.5303595052563541  0.1107877993200832  0.5116385837930563
  0.4132532043656345  0.0632911164543261  0.6629989600683507
  0.3594987509806175  0.0547915401486171  0.5251932980587006
  0.5790555252019809  0.1125307175148224  0.6059502502199745
  0.7442992014459593  0.4007686797382362  0.3882147045907109
  0.9743618442863102  0.4382394129985373  0.4691989978201958
  0.9220413715258698  0.4317165119460336  0.3453291826235116
  0.7998721119160589  0.3824737598047889  0.4792999682162757
  0.8842776733924280  0.4689856451020219  0.5631740204402180
  0.9423894993669801  0.2650217417766026  0.3777356028811825
  0.6969425191336424  0.3499740851391872  0.2889033461683103
  0.8360033425481097  0.3104594536753015  0.5722423154400114
  0.9349659069344618  0.2807201620802908  0.4781574304564459
  0.9789339878794563  0.1430160207992870  0.4374444842779645
  0.6736815309288373  0.3655896838106264  0.5530028984012595
  0.7195769058574351  0.2192496570098152  0.5241567876942564
  0.8151793986333348  0.1947488517991748  0.4285847364914849
  0.9776832627855040  0.1468770953351879  0.7095197804928781
  0.6996797063578216  0.2558050119104902  0.6220173547610883
  0.7862357975535356  0.0283265577922856  0.4453306993835260
  0.8642925664005717  0.1249298265630960  0.5231431749067270
  0.7446003268752691  0.0955543786512431  0.6574402565864400
  0.6905719788763346  0.0622849040707540  0.5349659037414702
  0.9245544548058646  0.0912343498562564  0.6116337405817021
  0.0761674957998780  0.8921417939032296  0.3857904000079614
  0.3068538015124070  0.9316989526204098  0.4618069827195812
  0.2528351283199520  0.9043488308397659  0.3362858934565102
  0.1350215409594402  0.8815053628046143  0.4765038983666126
  0.2182893735834714  0.9701539236096127  0.5559436566551220
  0.2838505349772992  0.7458457510926146  0.3796582552866532
  0.0358723629785501  0.8189759697030790  0.2907570963144526
  0.1810817827724033  0.8087746678270923  0.5734617829763958
  0.2711325583067460  0.7759576836294003  0.4790875651654742
  0.3188885008136639  0.6346978542853914  0.4467548810661601
  0.0206001480979310  0.8628816929203006  0.5576604172343079
  0.0630980687567490  0.7160402575100954  0.5279672292645922
  0.1537602040647222  0.6858936478730865  0.4322284139648832
  0.2979853929799603  0.6726714749259137  0.7134879060457894
  0.0458464039849769  0.7491786497136292  0.6252927473936122
  0.1154749996759061  0.5277791017575933  0.4440368974282156
  0.1985724812600545  0.6099798408922215  0.5264862896195649
  0.0909592111081389  0.5932190045234682  0.6670661871630312
  0.0266813210341190  0.5571628784034905  0.5400025696707464
  0.2597921720313485  0.6017179653996944  0.6172708717028820
  0.4155568784020134  0.8822876241930901  0.3899810534334585
  0.6423996959718745  0.9388603330587958  0.4675528026565883
  0.5762343179400378  0.9086122420310084  0.3325265402374054
  0.4701330008335084  0.8872100775272045  0.4823564595365004
  0.5520320901200122  0.9734375133757718  0.5623710128423464
  0.6158326729435513  0.7591133459913623  0.3845160062459125
  0.3767473390333501  0.8118505701011342  0.2936882707594483
  0.5140270260242943  0.8147223848303204  0.5773854649469623
  0.6022444957460927  0.7802840134591859  0.4838544570504775
  0.6503388153887281  0.6412848912246784  0.4478953899493889
  0.3498966279790599  0.8594222361179658  0.5605539707636527
  0.4016394128474124  0.7167898702045424  0.5300246569310596
  0.4868918372512708  0.6884112119950135  0.4349438363905737
  0.6036719643856302  0.7391199957705001  0.7069229145393072
  0.3820085574689138  0.7490953590909677  0.6280583820903869
  0.4501318392943938  0.5254528824770262  0.4472722579010551
  0.5320887537389483  0.6065585633239394  0.5297739160024632
  0.4280867106934528  0.5926814112863916  0.6674912661670591
  0.3611145587177775  0.5580812280700638  0.5411232337381093
  0.6048862809292396  0.6581013408087704  0.6107743647206203
  0.7394870139794791  0.9056816160281714  0.3872503437292369
  0.9746901916876732  0.9406293047127360  0.4612955492264308
  0.9099362595550686  0.9063076560716458  0.3351595506329077
  0.8016612362762334  0.8755462858026088  0.4754099163873101
  0.8806168166698911  0.9718427670307562  0.5514918160892376
  0.9464722213531600  0.7477873097879069  0.3760504042147498
  0.7072268661118007  0.8187024333021041  0.2960623319412713
  0.8569577836235390  0.8118602962766611  0.5679449612036336
  0.9467014830581023  0.7834419746684502  0.4732420968998540
  0.9821864752353493  0.6372147993703809  0.4436669708862689
  0.6885689711175050  0.8630679178049164  0.5636645035869199
  0.7301331212715079  0.7174824554825858  0.5348673355365973
  0.8182116425838226  0.6927187017920147  0.4349765616994374
  0.9616599216522942  0.6758979670159769  0.7115684353642650
  0.7479506221452241  0.7637307596019844  0.6333271880032123
  0.7830938186678020  0.5312971095462941  0.4449176213244413
  0.8677001829299331  0.6176560012638163  0.5263428505357549
  0.7209050301372113  0.6187192591581939  0.6934201030257430
  0.6911135660428804  0.5612897822831916  0.5425338569907210
  0.9235393883353131  0.5990668051006398  0.6170835391438511
  0.5729286065159562  0.5049058344228933  0.6101875456441095
 
  0.00000000E+00  0.00000000E+00  0.00000000E+00
  0.00000000E+00  0.00000000E+00  0.00000000E+00
  0.00000000E+00  0.00000000E+00  0.00000000E+00
  0.00000000E+00  0.00000000E+00  0.00000000E+00
  0.00000000E+00  0.00000000E+00  0.00000000E+00
  0.00000000E+00  0.00000000E+00  0.00000000E+00
  0.00000000E+00  0.00000000E+00  0.00000000E+00
  0.00000000E+00  0.00000000E+00  0.00000000E+00
  0.00000000E+00  0.00000000E+00  0.00000000E+00
  0.00000000E+00  0.00000000E+00  0.00000000E+00
  0.00000000E+00  0.00000000E+00  0.00000000E+00
  0.00000000E+00  0.00000000E+00  0.00000000E+00
  0.00000000E+00  0.00000000E+00  0.00000000E+00
  0.00000000E+00  0.00000000E+00  0.00000000E+00
  0.00000000E+00  0.00000000E+00  0.00000000E+00
  0.00000000E+00  0.00000000E+00  0.00000000E+00
  0.00000000E+00  0.00000000E+00  0.00000000E+00
  0.00000000E+00  0.00000000E+00  0.00000000E+00
  0.00000000E+00  0.00000000E+00  0.00000000E+00
  0.00000000E+00  0.00000000E+00  0.00000000E+00
  0.00000000E+00  0.00000000E+00  0.00000000E+00
  0.00000000E+00  0.00000000E+00  0.00000000E+00
  0.00000000E+00  0.00000000E+00  0.00000000E+00
  0.00000000E+00  0.00000000E+00  0.00000000E+00
  0.00000000E+00  0.00000000E+00  0.00000000E+00
  0.00000000E+00  0.00000000E+00  0.00000000E+00
  0.00000000E+00  0.00000000E+00  0.00000000E+00
  0.00000000E+00  0.00000000E+00  0.00000000E+00
  0.00000000E+00  0.00000000E+00  0.00000000E+00
  0.00000000E+00  0.00000000E+00  0.00000000E+00
  0.00000000E+00  0.00000000E+00  0.00000000E+00
  0.00000000E+00  0.00000000E+00  0.00000000E+00
  0.00000000E+00  0.00000000E+00  0.00000000E+00
  0.00000000E+00  0.00000000E+00  0.00000000E+00
  0.00000000E+00  0.00000000E+00  0.00000000E+00
  0.00000000E+00  0.00000000E+00  0.00000000E+00
  0.00000000E+00  0.00000000E+00  0.00000000E+00
  0.00000000E+00  0.00000000E+00  0.00000000E+00
  0.00000000E+00  0.00000000E+00  0.00000000E+00
  0.00000000E+00  0.00000000E+00  0.00000000E+00
  0.00000000E+00  0.00000000E+00  0.00000000E+00
  0.00000000E+00  0.00000000E+00  0.00000000E+00
  0.00000000E+00  0.00000000E+00  0.00000000E+00
  0.00000000E+00  0.00000000E+00  0.00000000E+00
  0.00000000E+00  0.00000000E+00  0.00000000E+00
  0.00000000E+00  0.00000000E+00  0.00000000E+00
  0.00000000E+00  0.00000000E+00  0.00000000E+00
  0.00000000E+00  0.00000000E+00  0.00000000E+00
  0.00000000E+00  0.00000000E+00  0.00000000E+00
  0.00000000E+00  0.00000000E+00  0.00000000E+00
  0.00000000E+00  0.00000000E+00  0.00000000E+00
  0.00000000E+00  0.00000000E+00  0.00000000E+00
  0.00000000E+00  0.00000000E+00  0.00000000E+00
  0.00000000E+00  0.00000000E+00  0.00000000E+00
  0.00000000E+00  0.00000000E+00  0.00000000E+00
  0.00000000E+00  0.00000000E+00  0.00000000E+00
  0.00000000E+00  0.00000000E+00  0.00000000E+00
  0.00000000E+00  0.00000000E+00  0.00000000E+00
  0.00000000E+00  0.00000000E+00  0.00000000E+00
  0.00000000E+00  0.00000000E+00  0.00000000E+00
  0.00000000E+00  0.00000000E+00  0.00000000E+00
  0.00000000E+00  0.00000000E+00  0.00000000E+00
  0.00000000E+00  0.00000000E+00  0.00000000E+00
  0.00000000E+00  0.00000000E+00  0.00000000E+00
  0.00000000E+00  0.00000000E+00  0.00000000E+00
  0.00000000E+00  0.00000000E+00  0.00000000E+00
  0.00000000E+00  0.00000000E+00  0.00000000E+00
  0.00000000E+00  0.00000000E+00  0.00000000E+00
  0.00000000E+00  0.00000000E+00  0.00000000E+00
  0.00000000E+00  0.00000000E+00  0.00000000E+00
  0.00000000E+00  0.00000000E+00  0.00000000E+00
  0.00000000E+00  0.00000000E+00  0.00000000E+00
  0.00000000E+00  0.00000000E+00  0.00000000E+00
  0.00000000E+00  0.00000000E+00  0.00000000E+00
  0.00000000E+00  0.00000000E+00  0.00000000E+00
  0.00000000E+00  0.00000000E+00  0.00000000E+00
  0.00000000E+00  0.00000000E+00  0.00000000E+00
  0.00000000E+00  0.00000000E+00  0.00000000E+00
  0.00000000E+00  0.00000000E+00  0.00000000E+00
  0.00000000E+00  0.00000000E+00  0.00000000E+00
  0.00000000E+00  0.00000000E+00  0.00000000E+00
  0.00000000E+00  0.00000000E+00  0.00000000E+00
  0.00000000E+00  0.00000000E+00  0.00000000E+00
  0.00000000E+00  0.00000000E+00  0.00000000E+00
  0.00000000E+00  0.00000000E+00  0.00000000E+00
  0.00000000E+00  0.00000000E+00  0.00000000E+00
  0.00000000E+00  0.00000000E+00  0.00000000E+00
  0.00000000E+00  0.00000000E+00  0.00000000E+00
  0.00000000E+00  0.00000000E+00  0.00000000E+00
  0.00000000E+00  0.00000000E+00  0.00000000E+00
  0.00000000E+00  0.00000000E+00  0.00000000E+00
  0.00000000E+00  0.00000000E+00  0.00000000E+00
  0.00000000E+00  0.00000000E+00  0.00000000E+00
  0.00000000E+00  0.00000000E+00  0.00000000E+00
  0.00000000E+00  0.00000000E+00  0.00000000E+00
  0.00000000E+00  0.00000000E+00  0.00000000E+00
  0.00000000E+00  0.00000000E+00  0.00000000E+00
  0.00000000E+00  0.00000000E+00  0.00000000E+00
  0.00000000E+00  0.00000000E+00  0.00000000E+00
  0.00000000E+00  0.00000000E+00  0.00000000E+00
  0.00000000E+00  0.00000000E+00  0.00000000E+00
  0.00000000E+00  0.00000000E+00  0.00000000E+00
  0.00000000E+00  0.00000000E+00  0.00000000E+00
  0.00000000E+00  0.00000000E+00  0.00000000E+00
  0.00000000E+00  0.00000000E+00  0.00000000E+00
  0.00000000E+00  0.00000000E+00  0.00000000E+00
  0.00000000E+00  0.00000000E+00  0.00000000E+00
  0.00000000E+00  0.00000000E+00  0.00000000E+00
  0.00000000E+00  0.00000000E+00  0.00000000E+00
  0.00000000E+00  0.00000000E+00  0.00000000E+00
  0.00000000E+00  0.00000000E+00  0.00000000E+00
  0.00000000E+00  0.00000000E+00  0.00000000E+00
  0.00000000E+00  0.00000000E+00  0.00000000E+00
  0.00000000E+00  0.00000000E+00  0.00000000E+00
  0.00000000E+00  0.00000000E+00  0.00000000E+00
  0.00000000E+00  0.00000000E+00  0.00000000E+00
  0.00000000E+00  0.00000000E+00  0.00000000E+00
  0.00000000E+00  0.00000000E+00  0.00000000E+00
  0.00000000E+00  0.00000000E+00  0.00000000E+00
  0.00000000E+00  0.00000000E+00  0.00000000E+00
  0.00000000E+00  0.00000000E+00  0.00000000E+00
  0.00000000E+00  0.00000000E+00  0.00000000E+00
  0.00000000E+00  0.00000000E+00  0.00000000E+00
  0.00000000E+00  0.00000000E+00  0.00000000E+00
  0.00000000E+00  0.00000000E+00  0.00000000E+00
  0.00000000E+00  0.00000000E+00  0.00000000E+00
  0.00000000E+00  0.00000000E+00  0.00000000E+00
  0.00000000E+00  0.00000000E+00  0.00000000E+00
  0.00000000E+00  0.00000000E+00  0.00000000E+00
  0.00000000E+00  0.00000000E+00  0.00000000E+00
  0.00000000E+00  0.00000000E+00  0.00000000E+00
  0.00000000E+00  0.00000000E+00  0.00000000E+00
  0.00000000E+00  0.00000000E+00  0.00000000E+00
  0.00000000E+00  0.00000000E+00  0.00000000E+00
  0.00000000E+00  0.00000000E+00  0.00000000E+00
  0.00000000E+00  0.00000000E+00  0.00000000E+00
  0.00000000E+00  0.00000000E+00  0.00000000E+00
  0.00000000E+00  0.00000000E+00  0.00000000E+00
  0.00000000E+00  0.00000000E+00  0.00000000E+00
  0.00000000E+00  0.00000000E+00  0.00000000E+00
  0.00000000E+00  0.00000000E+00  0.00000000E+00
  0.00000000E+00  0.00000000E+00  0.00000000E+00
  0.00000000E+00  0.00000000E+00  0.00000000E+00
  0.00000000E+00  0.00000000E+00  0.00000000E+00
  0.00000000E+00  0.00000000E+00  0.00000000E+00
  0.00000000E+00  0.00000000E+00  0.00000000E+00
  0.00000000E+00  0.00000000E+00  0.00000000E+00
  0.00000000E+00  0.00000000E+00  0.00000000E+00
  0.00000000E+00  0.00000000E+00  0.00000000E+00
  0.00000000E+00  0.00000000E+00  0.00000000E+00
  0.00000000E+00  0.00000000E+00  0.00000000E+00
  0.00000000E+00  0.00000000E+00  0.00000000E+00
  0.00000000E+00  0.00000000E+00  0.00000000E+00
  0.00000000E+00  0.00000000E+00  0.00000000E+00
  0.00000000E+00  0.00000000E+00  0.00000000E+00
  0.00000000E+00  0.00000000E+00  0.00000000E+00
  0.00000000E+00  0.00000000E+00  0.00000000E+00
  0.00000000E+00  0.00000000E+00  0.00000000E+00
  0.00000000E+00  0.00000000E+00  0.00000000E+00
  0.00000000E+00  0.00000000E+00  0.00000000E+00
  0.00000000E+00  0.00000000E+00  0.00000000E+00
  0.00000000E+00  0.00000000E+00  0.00000000E+00
  0.00000000E+00  0.00000000E+00  0.00000000E+00
  0.00000000E+00  0.00000000E+00  0.00000000E+00
  0.00000000E+00  0.00000000E+00  0.00000000E+00
  0.00000000E+00  0.00000000E+00  0.00000000E+00
  0.00000000E+00  0.00000000E+00  0.00000000E+00
  0.00000000E+00  0.00000000E+00  0.00000000E+00
  0.00000000E+00  0.00000000E+00  0.00000000E+00
