CONTCAR\(15)                            
   1.00000000000000     
    11.7923002242999999    0.0000000000000000    0.0000000000000000
     0.0000000000000000   21.3097991942999982    0.0000000000000000
     0.0000000000000000    0.0000000000000000   18.7763004303000010
   V    Ag   P    S    O    H 
     8     8    16    48     2     1
Selective dynamics
Direct
  0.1174861645781746  0.4639210119697736  0.5057856646593990   F   F   F
  0.3680281827975094  0.0382916934407405  0.5013848246063972   F   F   F
  0.6115615646966432  0.4620725055398367  0.5055949388549124   F   F   F
  0.8659138855566226  0.0393205921768711  0.5001809114290765   F   F   F
  0.1358279901392692  0.9637770174636202  0.4979900696561330   F   F   F
  0.3795487319690665  0.5382066620040789  0.5057045269984641   F   F   F
  0.6342059007058580  0.9640866715669816  0.4981522365465949   F   F   F
  0.8836093697626168  0.5396828116881025  0.5042238576370792   F   F   F
  0.3680573727439977  0.2147057685357794  0.5054758969743531   F   F   F
  0.1168608473623038  0.2865956531781322  0.5068618079646754   F   F   F
  0.8689478224743112  0.2149805926239452  0.5101633665087562   F   F   F
  0.6196641694322764  0.2870965584641212  0.5090903477963948   F   F   F
  0.4101980049126155  0.7228089319241491  0.4891285570782458   F   F   F
  0.1466486994673915  0.7835512732280208  0.5072216869535922   F   F   F
  0.8766236153177331  0.7072084874946043  0.4966458113287047   F   F   F
  0.6477968618511767  0.7834466461066185  0.4713864979000491   F   F   F
  0.1168382883085570  0.1258104595262282  0.5625015371248097   F   F   F
  0.3645302773444357  0.3755012745200403  0.5652068532613228   F   F   F
  0.3715715294803417  0.3758460269214936  0.4459541244976180   F   F   F
  0.1236792437140082  0.1272219542375055  0.4435195772178204   F   F   F
  0.6161271511376469  0.1250139173173181  0.5639602454482215   F   F   F
  0.8651068144852445  0.3751584987985908  0.5663835734400067   F   F   F
  0.8719879385154883  0.3751543849807391  0.4475319586058006   F   F   F
  0.6234269843779856  0.1276424012067849  0.4448415569284165   F   F   F
  0.1253672022703896  0.6249210870895325  0.5672119429186537   F   F   F
  0.3785020491069133  0.8757766301179259  0.5582482520793519   F   F   F
  0.3846274836370469  0.8764510737957139  0.4392461299708827   F   F   F
  0.1321573771091025  0.6265561928638519  0.4480762009643371   F   F   F
  0.6253463909200221  0.6288960259336278  0.5838092623720499   F   F   F
  0.8783426454716974  0.8750367304786764  0.5514961488509726   F   F   F
  0.8885275637021124  0.8786686077048387  0.4325381538967505   F   F   F
  0.6317217936778405  0.6246127000928965  0.4525385859135227   F   F   F
  0.4541924083535562  0.4609651672332120  0.5871420667365612   F   F   F
  0.2965890920100520  0.3011962712235388  0.4057762636564703   F   F   F
  0.4491351773766183  0.1138822870370930  0.5875067390638478   F   F   F
  0.2915922733355174  0.1173965699149591  0.4197455658177205   F   F   F
  0.0491822131130064  0.2026689389328880  0.4051087485343388   F   F   F
  0.1977776861249794  0.3855283538395611  0.5896095463169928   F   F   F
  0.0396788904876288  0.3850412590122971  0.4235466408592004   F   F   F
  0.2865072207493640  0.4614918120351064  0.4267488671458466   F   F   F
  0.0383133353046219  0.0425044510493038  0.4233344403349761   F   F   F
  0.2075419310570368  0.0404882971072169  0.5815886008289866   F   F   F
  0.1904413464191350  0.2000212575526064  0.6050678632977764   F   F   F
  0.4394701750033008  0.3009514349078231  0.6060762816477663   F   F   F
  0.9561085376951795  0.4598958714688806  0.5857541943531999   F   F   F
  0.7979621364610026  0.2995611980532402  0.4085540711770719   F   F   F
  0.9501371392849123  0.1142072245757433  0.5871770818649367   F   F   F
  0.7911763453100846  0.1199445080806285  0.4205578130114205   F   F   F
  0.5478651014933362  0.2031718953996133  0.4070327329834242   F   F   F
  0.6978736938202204  0.3860710880375890  0.5908647984647573   F   F   F
  0.5392568801830819  0.3847745315267943  0.4220317245503509   F   F   F
  0.7860990170713222  0.4598814052772582  0.4294831589824142   F   F   F
  0.5382893362409007  0.0425714787130573  0.4232049735065146   F   F   F
  0.7077769348858354  0.0395895136834810  0.5820198590036370   F   F   F
  0.6887002952389736  0.1987463009526067  0.6079870378799157   F   F   F
  0.9384764037485880  0.3007190068991150  0.6086755166331201   F   F   F
  0.4639742211869304  0.9607661714819216  0.5776822803888990   F   F   F
  0.3076066639048065  0.8018706080640712  0.3990058426433407   F   F   F
  0.4480052592575561  0.6233292539587509  0.5717712140847055   F   F   F
  0.2961445352215364  0.6161512446550717  0.4197714896140283   F   F   F
  0.0553914402662343  0.7028312286070602  0.4102557669085982   F   F   F
  0.2091541132912411  0.8863234565138214  0.5803182661113198   F   F   F
  0.0548317884353082  0.8916838571799204  0.4097912512345090   F   F   F
  0.2962461053477483  0.9618961330876203  0.4178025597913191   F   F   F
  0.0429814962412678  0.5417237380296456  0.4243336114645970   F   F   F
  0.2105950842977506  0.5390591021680677  0.5846193699432050   F   F   F
  0.1972848810466701  0.6987415988235384  0.6098211294733531   F   F   F
  0.4492823716920356  0.8004934241304582  0.5985619303752756   F   F   F
  0.9627757158215360  0.9603647521810146  0.5734680487202510   F   F   F
  0.8198270096511351  0.8061567313414884  0.3839605524958358   F   F   F
  0.9566396417598781  0.6125835321841393  0.5903807782995898   F   F   F
  0.7978099978970477  0.6089021644057979  0.4195085331218991   F   F   F
  0.5652295577158881  0.6929275058868996  0.3916909542637796   F   F   F
  0.7104179673069595  0.8823350619327783  0.5751551118784803   F   F   F
  0.5509879542713918  0.8869568135079575  0.4132010479736721   F   F   F
  0.7930509616691950  0.9639234124406855  0.4167218889208826   F   F   F
  0.5401844689571718  0.5399424804544068  0.4266484263904786   F   F   F
  0.7120598696837632  0.5392115123460783  0.5754902991211139   F   F   F
  0.7054482449415502  0.7128867359116526  0.5853366755229388   F   F   F
  0.9545385877190569  0.8001087767557422  0.5901908014668962   F   F   F
  0.6269662910148455  0.6283707830268241  0.6746029552858133   T   T   T
  0.5664562575600982  0.5728065212309872  0.7032707930101623   T   T   T
  0.6318460200467015  0.5462220471888770  0.7147500500402637   T   T   T
 
  0.00000000E+00  0.00000000E+00  0.00000000E+00
  0.00000000E+00  0.00000000E+00  0.00000000E+00
  0.00000000E+00  0.00000000E+00  0.00000000E+00
  0.00000000E+00  0.00000000E+00  0.00000000E+00
  0.00000000E+00  0.00000000E+00  0.00000000E+00
  0.00000000E+00  0.00000000E+00  0.00000000E+00
  0.00000000E+00  0.00000000E+00  0.00000000E+00
  0.00000000E+00  0.00000000E+00  0.00000000E+00
  0.00000000E+00  0.00000000E+00  0.00000000E+00
  0.00000000E+00  0.00000000E+00  0.00000000E+00
  0.00000000E+00  0.00000000E+00  0.00000000E+00
  0.00000000E+00  0.00000000E+00  0.00000000E+00
  0.00000000E+00  0.00000000E+00  0.00000000E+00
  0.00000000E+00  0.00000000E+00  0.00000000E+00
  0.00000000E+00  0.00000000E+00  0.00000000E+00
  0.00000000E+00  0.00000000E+00  0.00000000E+00
  0.00000000E+00  0.00000000E+00  0.00000000E+00
  0.00000000E+00  0.00000000E+00  0.00000000E+00
  0.00000000E+00  0.00000000E+00  0.00000000E+00
  0.00000000E+00  0.00000000E+00  0.00000000E+00
  0.00000000E+00  0.00000000E+00  0.00000000E+00
  0.00000000E+00  0.00000000E+00  0.00000000E+00
  0.00000000E+00  0.00000000E+00  0.00000000E+00
  0.00000000E+00  0.00000000E+00  0.00000000E+00
  0.00000000E+00  0.00000000E+00  0.00000000E+00
  0.00000000E+00  0.00000000E+00  0.00000000E+00
  0.00000000E+00  0.00000000E+00  0.00000000E+00
  0.00000000E+00  0.00000000E+00  0.00000000E+00
  0.00000000E+00  0.00000000E+00  0.00000000E+00
  0.00000000E+00  0.00000000E+00  0.00000000E+00
  0.00000000E+00  0.00000000E+00  0.00000000E+00
  0.00000000E+00  0.00000000E+00  0.00000000E+00
  0.00000000E+00  0.00000000E+00  0.00000000E+00
  0.00000000E+00  0.00000000E+00  0.00000000E+00
  0.00000000E+00  0.00000000E+00  0.00000000E+00
  0.00000000E+00  0.00000000E+00  0.00000000E+00
  0.00000000E+00  0.00000000E+00  0.00000000E+00
  0.00000000E+00  0.00000000E+00  0.00000000E+00
  0.00000000E+00  0.00000000E+00  0.00000000E+00
  0.00000000E+00  0.00000000E+00  0.00000000E+00
  0.00000000E+00  0.00000000E+00  0.00000000E+00
  0.00000000E+00  0.00000000E+00  0.00000000E+00
  0.00000000E+00  0.00000000E+00  0.00000000E+00
  0.00000000E+00  0.00000000E+00  0.00000000E+00
  0.00000000E+00  0.00000000E+00  0.00000000E+00
  0.00000000E+00  0.00000000E+00  0.00000000E+00
  0.00000000E+00  0.00000000E+00  0.00000000E+00
  0.00000000E+00  0.00000000E+00  0.00000000E+00
  0.00000000E+00  0.00000000E+00  0.00000000E+00
  0.00000000E+00  0.00000000E+00  0.00000000E+00
  0.00000000E+00  0.00000000E+00  0.00000000E+00
  0.00000000E+00  0.00000000E+00  0.00000000E+00
  0.00000000E+00  0.00000000E+00  0.00000000E+00
  0.00000000E+00  0.00000000E+00  0.00000000E+00
  0.00000000E+00  0.00000000E+00  0.00000000E+00
  0.00000000E+00  0.00000000E+00  0.00000000E+00
  0.00000000E+00  0.00000000E+00  0.00000000E+00
  0.00000000E+00  0.00000000E+00  0.00000000E+00
  0.00000000E+00  0.00000000E+00  0.00000000E+00
  0.00000000E+00  0.00000000E+00  0.00000000E+00
  0.00000000E+00  0.00000000E+00  0.00000000E+00
  0.00000000E+00  0.00000000E+00  0.00000000E+00
  0.00000000E+00  0.00000000E+00  0.00000000E+00
  0.00000000E+00  0.00000000E+00  0.00000000E+00
  0.00000000E+00  0.00000000E+00  0.00000000E+00
  0.00000000E+00  0.00000000E+00  0.00000000E+00
  0.00000000E+00  0.00000000E+00  0.00000000E+00
  0.00000000E+00  0.00000000E+00  0.00000000E+00
  0.00000000E+00  0.00000000E+00  0.00000000E+00
  0.00000000E+00  0.00000000E+00  0.00000000E+00
  0.00000000E+00  0.00000000E+00  0.00000000E+00
  0.00000000E+00  0.00000000E+00  0.00000000E+00
  0.00000000E+00  0.00000000E+00  0.00000000E+00
  0.00000000E+00  0.00000000E+00  0.00000000E+00
  0.00000000E+00  0.00000000E+00  0.00000000E+00
  0.00000000E+00  0.00000000E+00  0.00000000E+00
  0.00000000E+00  0.00000000E+00  0.00000000E+00
  0.00000000E+00  0.00000000E+00  0.00000000E+00
  0.00000000E+00  0.00000000E+00  0.00000000E+00
  0.00000000E+00  0.00000000E+00  0.00000000E+00
  0.00000000E+00  0.00000000E+00  0.00000000E+00
  0.00000000E+00  0.00000000E+00  0.00000000E+00
  0.00000000E+00  0.00000000E+00  0.00000000E+00
