CONTCAR\(13)                            
   1.00000000000000     
    10.9738998412999997    0.0000000000000000    0.0000000000000000
     0.0000000000000000   10.9738998412999997    0.0000000000000000
     0.0000000000000000    0.0000000000000000   19.0231990814000014
   Li   Co   As   O 
    18    18    18     1
Direct
  0.1663852177351144  0.9999834150055869  0.6074669206447568
  0.9993261045141689  0.1662877039299049  0.3957483145346868
  0.4986676195999877 -0.0000004566721053  0.6072980697957396
  0.3320261102392114  0.1647779836965421  0.3954090345637814
  0.8322049216549054 -0.0000354799552196  0.6087472929225084
  0.6660893542175547  0.1642146175842358  0.3949404464236683
  0.1676536811398367  0.3348689340656195  0.6066796731843006
  0.0004455527126630  0.4999843306671957  0.3956597755009481
  0.4896724704882069  0.3557059024930707  0.6278927397444666
  0.3297306846672371  0.4999965811729093  0.3929217990359339
  0.8311769448590381  0.3347562280588867  0.6060716177897295
  0.6687924837799222  0.5000012762637260  0.3934747871773622
  0.1676732634775868  0.6651235831520138  0.6066810397489667
  0.9993294080859249  0.8337077004132001  0.3957345414225030
  0.4896615287062389  0.6443601063176506  0.6278831746707666
  0.3320329431174249  0.8352457247784126  0.3953995655996111
  0.8311846208372541  0.6652336501042787  0.6060727272623464
  0.6661064300191302  0.8357772368354393  0.3949285948676709
  0.1658108503328238  0.1666966069550994  0.5016197580015247
  0.9988079899715904 -0.0000092305096176  0.5013765725182120
  0.5000056395810418  0.1677828597094113  0.5027254672822680
  0.3324065823861520 -0.0000020332365305  0.5030112687218898
  0.8318027240678220  0.1662708918412446  0.5019459614515810
  0.6667121084071416 -0.0000012670099671  0.5033285016867991
  0.1640235429272160  0.4999871896106632  0.5017038288633529
  0.9986545130377977  0.3329036713737938  0.5018381470640538
  0.5018648391022634  0.5000046502948000  0.4918313471847159
  0.3337473647602692  0.3311046720413888  0.4981434519917560
  0.8332499202674695  0.5000101714753599  0.4999571819831629
  0.6645278498723847  0.3314733635700166  0.4997363849977376
  0.1657651234334971  0.8332921118461172  0.5016108558593343
  0.9986721516848197  0.6670561526321835  0.5018192973311667
  0.5000039754934740  0.8321802093072787  0.5026930634591437
  0.3337917685070209  0.6688319686845764  0.4981367460419887
  0.8317962866761981  0.8337257600362278  0.5019727324170226
  0.6644992171727055  0.6685020015036770  0.4997615526091102
 -0.0009208197074320  0.1665742468141275  0.5784014902278581
  0.1661322964583900  0.0000182543644456  0.4253747452578942
  0.3333845959016563  0.1690293528787922  0.5783103279698663
  0.4996241737769160  0.0000350807455383  0.4274468603439305
  0.6648268046654979  0.1687440606365007  0.5793536194531066
  0.8322464601275880 -0.0000069905229861  0.4253056991716448
  0.9979624770531862  0.4999960820564684  0.5785907476731437
  0.1639657577276357  0.3328214845303026  0.4235322092192774
  0.3384896605126332  0.4999951958612002  0.5661099019514468
  0.5000784340995740  0.3287906837230726  0.4200318438177878
  0.6640966069979973  0.5000062159539377  0.5726549416432853
  0.8325892792625338  0.3321075436621504  0.4244644751136366
 -0.0008909806593534  0.8333763105397693  0.5783775624371211
  0.1639946731703816  0.6671598675345872  0.4235179657345483
  0.3333997114988455  0.8309433334204710  0.5782822684490714
  0.5000703578023230  0.6711855752416050  0.4200247166740472
  0.6647593972847546  0.8312782114917907  0.5793693639059422
  0.8325913133544376  0.6679028636303931  0.4244894013166910
  0.3919876231393312  0.5000334404007653  0.6559096152851309
 
  0.00000000E+00  0.00000000E+00  0.00000000E+00
  0.00000000E+00  0.00000000E+00  0.00000000E+00
  0.00000000E+00  0.00000000E+00  0.00000000E+00
  0.00000000E+00  0.00000000E+00  0.00000000E+00
  0.00000000E+00  0.00000000E+00  0.00000000E+00
  0.00000000E+00  0.00000000E+00  0.00000000E+00
  0.00000000E+00  0.00000000E+00  0.00000000E+00
  0.00000000E+00  0.00000000E+00  0.00000000E+00
  0.00000000E+00  0.00000000E+00  0.00000000E+00
  0.00000000E+00  0.00000000E+00  0.00000000E+00
  0.00000000E+00  0.00000000E+00  0.00000000E+00
  0.00000000E+00  0.00000000E+00  0.00000000E+00
  0.00000000E+00  0.00000000E+00  0.00000000E+00
  0.00000000E+00  0.00000000E+00  0.00000000E+00
  0.00000000E+00  0.00000000E+00  0.00000000E+00
  0.00000000E+00  0.00000000E+00  0.00000000E+00
  0.00000000E+00  0.00000000E+00  0.00000000E+00
  0.00000000E+00  0.00000000E+00  0.00000000E+00
  0.00000000E+00  0.00000000E+00  0.00000000E+00
  0.00000000E+00  0.00000000E+00  0.00000000E+00
  0.00000000E+00  0.00000000E+00  0.00000000E+00
  0.00000000E+00  0.00000000E+00  0.00000000E+00
  0.00000000E+00  0.00000000E+00  0.00000000E+00
  0.00000000E+00  0.00000000E+00  0.00000000E+00
  0.00000000E+00  0.00000000E+00  0.00000000E+00
  0.00000000E+00  0.00000000E+00  0.00000000E+00
  0.00000000E+00  0.00000000E+00  0.00000000E+00
  0.00000000E+00  0.00000000E+00  0.00000000E+00
  0.00000000E+00  0.00000000E+00  0.00000000E+00
  0.00000000E+00  0.00000000E+00  0.00000000E+00
  0.00000000E+00  0.00000000E+00  0.00000000E+00
  0.00000000E+00  0.00000000E+00  0.00000000E+00
  0.00000000E+00  0.00000000E+00  0.00000000E+00
  0.00000000E+00  0.00000000E+00  0.00000000E+00
  0.00000000E+00  0.00000000E+00  0.00000000E+00
  0.00000000E+00  0.00000000E+00  0.00000000E+00
  0.00000000E+00  0.00000000E+00  0.00000000E+00
  0.00000000E+00  0.00000000E+00  0.00000000E+00
  0.00000000E+00  0.00000000E+00  0.00000000E+00
  0.00000000E+00  0.00000000E+00  0.00000000E+00
  0.00000000E+00  0.00000000E+00  0.00000000E+00
  0.00000000E+00  0.00000000E+00  0.00000000E+00
  0.00000000E+00  0.00000000E+00  0.00000000E+00
  0.00000000E+00  0.00000000E+00  0.00000000E+00
  0.00000000E+00  0.00000000E+00  0.00000000E+00
  0.00000000E+00  0.00000000E+00  0.00000000E+00
  0.00000000E+00  0.00000000E+00  0.00000000E+00
  0.00000000E+00  0.00000000E+00  0.00000000E+00
  0.00000000E+00  0.00000000E+00  0.00000000E+00
  0.00000000E+00  0.00000000E+00  0.00000000E+00
  0.00000000E+00  0.00000000E+00  0.00000000E+00
  0.00000000E+00  0.00000000E+00  0.00000000E+00
  0.00000000E+00  0.00000000E+00  0.00000000E+00
  0.00000000E+00  0.00000000E+00  0.00000000E+00
  0.00000000E+00  0.00000000E+00  0.00000000E+00
