CONTCAR\(5)                             
   1.00000000000000     
    10.1990995407000007    0.0000000000000000    0.0000000000000000
     0.0000000000000000   15.1191997528000002    0.0000000000000000
     0.0000000000000000    0.0000000000000000   19.1068992615000006
   Ta   Ni   S    O    H 
    12     6    30     1     1
Direct
  0.0003332637664428  0.3505885941220086  0.5226861869699064
  0.1660268700486895  0.1378826731338378  0.4829685385964169
  0.1661944255707795  0.8514482148841367  0.4841169436682407
  0.9997519304314935  0.6352848525923775  0.5211125349932146
  0.3325505007546852  0.3506230762233500  0.5225270666497011
  0.4989821102675620  0.1372836961440953  0.4819537960906288
  0.4924081174221726  0.8562218781946953  0.4774857152906407
  0.3329133259403889  0.6355175401863988  0.5210671538785050
  0.6663209068283820  0.3491253398496426  0.5234321074823143
  0.8327859758907223  0.1373055566698014  0.4820852439857717
  0.8397606510530409  0.8558680342627909  0.4772089604082694
  0.6665017971478022  0.6278353791059672  0.5231277554913802
  0.0006153949454344  0.9954490661372546  0.4666739347007933
  0.1666431179569727  0.4937272596370121  0.5377953376222635
  0.3306194427977474  0.9953664744653707  0.4660162320587560
  0.4985108368360542  0.4920412377762631  0.5378998970203739
  0.6656007782119104  0.9949349235541192  0.4670281032487296
  0.8338884435376741  0.4918734765716053  0.5376549204939494
  0.1662912566498278  0.9947597577682004  0.5445171402705782
  0.0000743310695626  0.4929629589173175  0.4599623729226181
  0.9993130317211083  0.1924347014011687  0.5683369134329368
  0.1662384295393764  0.2954303023253289  0.4368579942212705
  0.1663598282496963  0.6932080750558711  0.4365148132795582
  0.9975722671751086  0.7953354604044662  0.5664293458315228
  0.1664456173635713  0.6094336346736782  0.6099303948909878
  0.0047692100450547  0.8823892463394571  0.3914863512266464
  0.9998921042738118  0.1095165282013681  0.3939539612983438
  0.1664568413901506  0.3797367024372420  0.6111790692968242
  0.4982434142531034  0.9931903890576947  0.5445471226291332
  0.3327070847715490  0.4932073498277703  0.4599339350186042
  0.3331611806791202  0.1925717768466129  0.5682117156515858
  0.4996469234877736  0.2947473758354420  0.4371915817439600
  0.5031576722805227  0.6944860553735666  0.4395092115252837
  0.3350131825392850  0.7954932242236126  0.5664604740219019
  0.4991076688748919  0.6068552407995895  0.6109132733480180
  0.3278778475326192  0.8818542693113542  0.3913912396036068
  0.3321882404829779  0.1096927192888728  0.3936425658987517
  0.4991445661800711  0.3785922386704783  0.6113313726003398
  0.8328628735536583  0.9927869642770801  0.5448168391907018
  0.6663110329865702  0.4906476549266898  0.4592668977324834
  0.6661270309189717  0.1914491260745166  0.5683972287734065
  0.8329207280700643  0.2945131023217371  0.4373342020610664
  0.8302852372698553  0.6941225621264309  0.4392083318807707
  0.6665513921579063  0.7908977819969323  0.5584837555061242
  0.8337165591042606  0.6066547195839078  0.6109457421007605
  0.6661622470461950  0.8823354711493181  0.3923302069540426
  0.6661495725142004  0.1089499180449351  0.3939051565772544
  0.8334247545879307  0.3786965008172842  0.6113577026983705
  0.6680171129399142  0.8166988021522528  0.6430133221372998
  0.6882024088833703  0.8801421912590968  0.6464096350253996
 
  0.00000000E+00  0.00000000E+00  0.00000000E+00
  0.00000000E+00  0.00000000E+00  0.00000000E+00
  0.00000000E+00  0.00000000E+00  0.00000000E+00
  0.00000000E+00  0.00000000E+00  0.00000000E+00
  0.00000000E+00  0.00000000E+00  0.00000000E+00
  0.00000000E+00  0.00000000E+00  0.00000000E+00
  0.00000000E+00  0.00000000E+00  0.00000000E+00
  0.00000000E+00  0.00000000E+00  0.00000000E+00
  0.00000000E+00  0.00000000E+00  0.00000000E+00
  0.00000000E+00  0.00000000E+00  0.00000000E+00
  0.00000000E+00  0.00000000E+00  0.00000000E+00
  0.00000000E+00  0.00000000E+00  0.00000000E+00
  0.00000000E+00  0.00000000E+00  0.00000000E+00
  0.00000000E+00  0.00000000E+00  0.00000000E+00
  0.00000000E+00  0.00000000E+00  0.00000000E+00
  0.00000000E+00  0.00000000E+00  0.00000000E+00
  0.00000000E+00  0.00000000E+00  0.00000000E+00
  0.00000000E+00  0.00000000E+00  0.00000000E+00
  0.00000000E+00  0.00000000E+00  0.00000000E+00
  0.00000000E+00  0.00000000E+00  0.00000000E+00
  0.00000000E+00  0.00000000E+00  0.00000000E+00
  0.00000000E+00  0.00000000E+00  0.00000000E+00
  0.00000000E+00  0.00000000E+00  0.00000000E+00
  0.00000000E+00  0.00000000E+00  0.00000000E+00
  0.00000000E+00  0.00000000E+00  0.00000000E+00
  0.00000000E+00  0.00000000E+00  0.00000000E+00
  0.00000000E+00  0.00000000E+00  0.00000000E+00
  0.00000000E+00  0.00000000E+00  0.00000000E+00
  0.00000000E+00  0.00000000E+00  0.00000000E+00
  0.00000000E+00  0.00000000E+00  0.00000000E+00
  0.00000000E+00  0.00000000E+00  0.00000000E+00
  0.00000000E+00  0.00000000E+00  0.00000000E+00
  0.00000000E+00  0.00000000E+00  0.00000000E+00
  0.00000000E+00  0.00000000E+00  0.00000000E+00
  0.00000000E+00  0.00000000E+00  0.00000000E+00
  0.00000000E+00  0.00000000E+00  0.00000000E+00
  0.00000000E+00  0.00000000E+00  0.00000000E+00
  0.00000000E+00  0.00000000E+00  0.00000000E+00
  0.00000000E+00  0.00000000E+00  0.00000000E+00
  0.00000000E+00  0.00000000E+00  0.00000000E+00
  0.00000000E+00  0.00000000E+00  0.00000000E+00
  0.00000000E+00  0.00000000E+00  0.00000000E+00
  0.00000000E+00  0.00000000E+00  0.00000000E+00
  0.00000000E+00  0.00000000E+00  0.00000000E+00
  0.00000000E+00  0.00000000E+00  0.00000000E+00
  0.00000000E+00  0.00000000E+00  0.00000000E+00
  0.00000000E+00  0.00000000E+00  0.00000000E+00
  0.00000000E+00  0.00000000E+00  0.00000000E+00
  0.00000000E+00  0.00000000E+00  0.00000000E+00
  0.00000000E+00  0.00000000E+00  0.00000000E+00
