CONTCAR                                 
   1.00000000000000     
    13.1028995514000002    0.0000000000000000    0.0000000000000000
     0.0000000000000000   13.0989999771000001    0.0000000000000000
     0.0000000000000000    0.0000000000000000   24.4346008300999991
   Nd   Te   O    H 
    18    54     2     1
Direct
  0.1374815002910330  0.0033022094183714  0.5882598007612133
  0.3052373404711738  0.1686504828861541  0.4127894889692012
  0.4722800998064031  0.0027409543759253  0.5875991478562931
  0.6395806779925868  0.1681225320340538  0.4127919524901709
  0.8067092456116736  0.0032480222917704  0.5884403968742663
  0.9725709749631396  0.1692917498302500  0.4138103782565030
  0.1389843000965858  0.3365541246928644  0.5889685936410531
  0.3061971283557838  0.5023435724167641  0.4132379343571367
  0.4731832259659906  0.3283627200023663  0.5842885455345325
  0.6392445446144681  0.5020034493721780  0.4132026178684016
  0.8062936938584573  0.3368900915425374  0.5887940957806541
  0.9727680923226248  0.5022544072050327  0.4139311937795197
  0.1386493947299389  0.6694954753426987  0.5886100758387252
  0.3054970063155654  0.8360553734804437  0.4128535005480398
  0.4737668209662610  0.6764405230887515  0.5848418602249824
  0.6392299901335822  0.8359084703795520  0.4129558169846817
  0.8061953700834910  0.6693944569398267  0.5884777586438963
  0.9723741390889650  0.8353446288022602  0.4137626064383080
  0.1389572930655353  0.1682590777004307  0.3088529516014357
  0.3040881354971213  0.0043075760926223  0.6927375020249998
  0.3041265655411179  0.1679117762949270  0.5477461918506658
  0.1386337634472691  0.0022677937743871  0.4529802831889028
  0.3064049119805929  0.0022550667319737  0.3082184149749012
  0.1397522424849010  0.1704416920869398  0.6934173092796565
  0.4726030318322130  0.1687424017328473  0.3083112190269996
  0.6388565928585520  0.0041941794544604  0.6927273975846623
  0.6410570422371277  0.1678342076225855  0.5477596329004634
  0.4722379886681976  0.0022531865257442  0.4526136072504628
  0.6401655419962513  0.0011770075226995  0.3082759089216432
  0.4734872254823481  0.1689891438408123  0.6915350738155529
  0.8063782885613833  0.1688721803495191  0.3088174179320983
  0.9703897011930916  0.0025377127284463  0.6936822182258935
  0.9723863143990322  0.1703326272899934  0.5489493644624914
  0.8063860400016689  0.0022949865445054  0.4532014077992641
  0.9730139943779993  0.0022486679427981  0.3090535716173606
  0.8066704060828892  0.1711024839293500  0.6936044097163406
  0.1399496871078728  0.5012142266408849  0.3088799038698414
  0.3058586182449639  0.3361732548408616  0.6932044443365519
  0.3086649350094899  0.5027592361160054  0.5503305322072275
  0.1401436207790884  0.3362920438127669  0.4538903926908511
  0.3054074076186288  0.3357142010413127  0.3084886739940737
  0.1379748335939319  0.5035499752386825  0.6935619368209064
  0.4729866362632034  0.5022671415598267  0.3087686183844389
  0.6389646324642668  0.3376896024713704  0.6924215277211312
  0.6370373145516581  0.5025336034368718  0.5496203203154578
  0.4725429107081527  0.3347757849214228  0.4516023981530194
  0.6391622195852151  0.3345925434812801  0.3085450702937163
  0.4685513759535179  0.5022666864277926  0.6834076994548323
  0.8066693251281932  0.5020400088011926  0.3091024975023932
  0.9728485296180204  0.3358841000098956  0.6939388168318609
  0.9725208503450378  0.5026839417296035  0.5490972823753966
  0.8050309294065041  0.3360629294596116  0.4537724335250218
  0.9725951981396985  0.3357894903970469  0.3093642550434291
  0.8037679585112478  0.5041743877646906  0.6934077031718594
  0.1388636543043854  0.8344853115755442  0.3088215084377821
  0.3061126123439106  0.6728493682572008  0.6918505415301319
  0.3042676568939964  0.8375133397668811  0.5480020518296423
  0.1400499462210817  0.6682702966654889  0.4536093989932898
  0.3060764826083761  0.6688275118386019  0.3085371931937831
  0.1385406133251188  0.8387975043375721  0.6933676932004806
  0.4725051029563103  0.8358241827826836  0.3083169380624596
  0.6398481647349118  0.6711507108313876  0.6920826389508261
  0.6409412735215670  0.8380193305580559  0.5478005251985120
  0.4725125554452184  0.6697360098532033  0.4517878595803687
  0.6392803479022626  0.6682322973321453  0.3086699382147661
  0.4736694069947198  0.8367032722889387  0.6916590647179536
  0.8058698538391112  0.8355490520653817  0.3089804988686947
  0.9730574194779588  0.6693030426030135  0.6934277534739413
  0.9725322090333641  0.8356995905396722  0.5488447083437371
  0.8051458080885041  0.6684082764558106  0.4534549994106095
  0.9724989836651496  0.6688415672086259  0.3093236073747387
  0.8064947160539623  0.8377546416019140  0.6934054005250104
  0.3883987216831634  0.5065232496359023  0.8005334812552078
  0.4823351055543460  0.5185454594561100  0.7716642845390195
  0.3590545229488437  0.5758482249279414  0.7985252475857217
 
  0.00000000E+00  0.00000000E+00  0.00000000E+00
  0.00000000E+00  0.00000000E+00  0.00000000E+00
  0.00000000E+00  0.00000000E+00  0.00000000E+00
  0.00000000E+00  0.00000000E+00  0.00000000E+00
  0.00000000E+00  0.00000000E+00  0.00000000E+00
  0.00000000E+00  0.00000000E+00  0.00000000E+00
  0.00000000E+00  0.00000000E+00  0.00000000E+00
  0.00000000E+00  0.00000000E+00  0.00000000E+00
  0.00000000E+00  0.00000000E+00  0.00000000E+00
  0.00000000E+00  0.00000000E+00  0.00000000E+00
  0.00000000E+00  0.00000000E+00  0.00000000E+00
  0.00000000E+00  0.00000000E+00  0.00000000E+00
  0.00000000E+00  0.00000000E+00  0.00000000E+00
  0.00000000E+00  0.00000000E+00  0.00000000E+00
  0.00000000E+00  0.00000000E+00  0.00000000E+00
  0.00000000E+00  0.00000000E+00  0.00000000E+00
  0.00000000E+00  0.00000000E+00  0.00000000E+00
  0.00000000E+00  0.00000000E+00  0.00000000E+00
  0.00000000E+00  0.00000000E+00  0.00000000E+00
  0.00000000E+00  0.00000000E+00  0.00000000E+00
  0.00000000E+00  0.00000000E+00  0.00000000E+00
  0.00000000E+00  0.00000000E+00  0.00000000E+00
  0.00000000E+00  0.00000000E+00  0.00000000E+00
  0.00000000E+00  0.00000000E+00  0.00000000E+00
  0.00000000E+00  0.00000000E+00  0.00000000E+00
  0.00000000E+00  0.00000000E+00  0.00000000E+00
  0.00000000E+00  0.00000000E+00  0.00000000E+00
  0.00000000E+00  0.00000000E+00  0.00000000E+00
  0.00000000E+00  0.00000000E+00  0.00000000E+00
  0.00000000E+00  0.00000000E+00  0.00000000E+00
  0.00000000E+00  0.00000000E+00  0.00000000E+00
  0.00000000E+00  0.00000000E+00  0.00000000E+00
  0.00000000E+00  0.00000000E+00  0.00000000E+00
  0.00000000E+00  0.00000000E+00  0.00000000E+00
  0.00000000E+00  0.00000000E+00  0.00000000E+00
  0.00000000E+00  0.00000000E+00  0.00000000E+00
  0.00000000E+00  0.00000000E+00  0.00000000E+00
  0.00000000E+00  0.00000000E+00  0.00000000E+00
  0.00000000E+00  0.00000000E+00  0.00000000E+00
  0.00000000E+00  0.00000000E+00  0.00000000E+00
  0.00000000E+00  0.00000000E+00  0.00000000E+00
  0.00000000E+00  0.00000000E+00  0.00000000E+00
  0.00000000E+00  0.00000000E+00  0.00000000E+00
  0.00000000E+00  0.00000000E+00  0.00000000E+00
  0.00000000E+00  0.00000000E+00  0.00000000E+00
  0.00000000E+00  0.00000000E+00  0.00000000E+00
  0.00000000E+00  0.00000000E+00  0.00000000E+00
  0.00000000E+00  0.00000000E+00  0.00000000E+00
  0.00000000E+00  0.00000000E+00  0.00000000E+00
  0.00000000E+00  0.00000000E+00  0.00000000E+00
  0.00000000E+00  0.00000000E+00  0.00000000E+00
  0.00000000E+00  0.00000000E+00  0.00000000E+00
  0.00000000E+00  0.00000000E+00  0.00000000E+00
  0.00000000E+00  0.00000000E+00  0.00000000E+00
  0.00000000E+00  0.00000000E+00  0.00000000E+00
  0.00000000E+00  0.00000000E+00  0.00000000E+00
  0.00000000E+00  0.00000000E+00  0.00000000E+00
  0.00000000E+00  0.00000000E+00  0.00000000E+00
  0.00000000E+00  0.00000000E+00  0.00000000E+00
  0.00000000E+00  0.00000000E+00  0.00000000E+00
  0.00000000E+00  0.00000000E+00  0.00000000E+00
  0.00000000E+00  0.00000000E+00  0.00000000E+00
  0.00000000E+00  0.00000000E+00  0.00000000E+00
  0.00000000E+00  0.00000000E+00  0.00000000E+00
  0.00000000E+00  0.00000000E+00  0.00000000E+00
  0.00000000E+00  0.00000000E+00  0.00000000E+00
  0.00000000E+00  0.00000000E+00  0.00000000E+00
  0.00000000E+00  0.00000000E+00  0.00000000E+00
  0.00000000E+00  0.00000000E+00  0.00000000E+00
  0.00000000E+00  0.00000000E+00  0.00000000E+00
  0.00000000E+00  0.00000000E+00  0.00000000E+00
  0.00000000E+00  0.00000000E+00  0.00000000E+00
  0.00000000E+00  0.00000000E+00  0.00000000E+00
  0.00000000E+00  0.00000000E+00  0.00000000E+00
  0.00000000E+00  0.00000000E+00  0.00000000E+00
