CONTCAR\(2)                             
   1.00000000000000     
    13.7474002837999993    0.0000000000000000    0.0000000000000000
     6.8496988029999999   13.0331533396000001    0.0000000000000000
     0.0000000000000000    0.0000000000000000   18.5631008147999985
   Li   Cu   C    O 
     9    18    18    55
Selective dynamics
Direct
  0.1916167031952511  0.0684627303970160  0.4598323448437611   F   F   F
  0.5713627410597368  0.0315133017651945  0.5250554070865405   F   F   F
  0.8781171267647352  0.0520463161798475  0.5128641703092995   F   F   F
  0.2220905412704255  0.4009390393397823  0.4109274379291747   F   F   F
  0.5687074888779122  0.3755124955750446  0.5336843660808057   F   F   F
  0.8899061460370135  0.3985151680432892  0.4736727059232280   F   F   F
  0.1825108751646241  0.7367081399176456  0.4388505050680322   F   F   F
  0.5439733228015200  0.7062545994105136  0.5367296662490872   F   F   F
  0.8798165014042567  0.7030738399873542  0.5205289717906680   F   F   F
  0.1441175029860275  0.2607195785839878  0.5756631103895415   F   F   F
  0.3542107653826392  0.1724549955520303  0.4110281713566053   F   F   F
  0.4427842139892633  0.2640508220830782  0.5869173469439914   F   F   F
  0.6336001717904765  0.1778290127811104  0.4103966244582864   F   F   F
  0.7910146359976693  0.2802405830777701  0.5995176824684805   F   F   F
  0.9684809991347976  0.1699289596754170  0.3947490250978518   F   F   F
  0.1374472426568687  0.5921621403116575  0.5475441281024729   F   F   F
  0.3321961013214860  0.5055940725406529  0.4255619762084848   F   F   F
  0.3892040094061286  0.6064915431738385  0.5958233335603893   F   F   F
  0.6318145572483331  0.5127585957412606  0.4305553021547937   F   F   F
  0.7752199555044541  0.5811754687959763  0.5918915954445652   F   F   F
  0.9798818394881152  0.5087058993897386  0.3933913508289635   F   F   F
  0.1295563490933063  0.9310188021918506  0.5696631216301071   F   F   F
  0.3382094737699646  0.8377886753312467  0.4216914630805846   F   F   F
  0.4165228354242387  0.9347175645592216  0.5898717416696613   F   F   F
  0.6354995522121172  0.8468943095981984  0.4226687992776945   F   F   F
  0.7883511457315535  0.9337603075409504  0.5909716030184171   F   F   F
  0.9648341443132580  0.8355404903145853  0.3818688803502113   F   F   F
  0.3400834037216285  0.1305834136818191  0.5808832200778795   F   F   F
  0.1050918095872362  0.2806174648504864  0.4049688761760706   F   F   F
  0.6680292521858249  0.1558471668747288  0.5870787251070269   F   F   F
  0.4506486359674540  0.3018389930081824  0.3700929630591716   F   F   F
  0.0058002364789544  0.1557174451298735  0.5611418572931868   F   F   F
  0.7595483631877897  0.2896142905609906  0.4362937597775129   F   F   F
  0.3295868239678441  0.4536809285571053  0.5493820113414429   F   F   F
  0.1078754866017846  0.6142001105913764  0.3685553402683510   F   F   F
  0.6357131905033810  0.5010092941810385  0.6050797865214790   F   F   F
  0.4279921807280687  0.6366878853097546  0.4257590309349411   F   F   F
  0.0085156803279745  0.4851839579685020  0.5625581375318944   F   F   F
  0.7632723426190253  0.6247638366025043  0.4305045393766207   F   F   F
  0.3190012098967259  0.8011403436372291  0.5966182888806273   F   F   F
  0.0991703258169849  0.9482604189993893  0.3890838497508256   F   F   F
  0.6619342034001718  0.8140243927448125  0.5836992836983157   F   F   F
  0.4308962086127366  0.9744417109497405  0.4249758009135292   F   F   F
  0.0027008978257044  0.8199892132562141  0.5463135232923761   F   F   F
  0.7652048716507451  0.9591551696388834  0.4270663268594106   F   F   F
  0.2549257082114593  0.1149566995115876  0.5857117849287619   F   F   F
  0.3195586823784708  0.2254132218704470  0.5740598713588838   F   F   F
  0.0907713319824950  0.0716961497644988  0.5410261561539684   F   F   F
  0.0136127966647095  0.0318284808779268  0.3720086651625039   F   F   F
  0.1018484483368169  0.1942531827858645  0.4063978453583061   F   F   F
  0.1980346841698051  0.2832211575735926  0.4048529777049197   F   F   F
  0.5797037693253202  0.1445006123157881  0.5805585450687474   F   F   F
  0.6598254632598852  0.2469847272587273  0.5891634928993170   F   F   F
  0.4378549754658536  0.0554008847268292  0.5817957512586602   F   F   F
  0.3339347034114155  0.0509143948265347  0.4269589564890381   F   F   F
  0.4646595123303143  0.2140662371724176  0.4003885648701768   F   F   F
  0.5421144153349857  0.3043190751299107  0.3592179602507173   F   F   F
  0.9133092997142427  0.1529364654104199  0.5710459475970850   F   F   F
  0.0093651274113924  0.2412537023232559  0.5690715344963451   F   F   F
  0.7624851277810265  0.0750254970786557  0.5903661387529624   F   F   F
  0.6773842775657286  0.0400185901601944  0.4471127148972585   F   F   F
  0.7641905705678340  0.1999614972417803  0.4305831008360244   F   F   F
  0.8488134302353032  0.2980843721631885  0.4259517983762748   F   F   F
  0.2436754886478809  0.4655479056749385  0.4992759284793493   F   F   F
  0.2905899656197448  0.5574721096844470  0.5734189821728037   F   F   F
  0.1001590824394256  0.4041129538051962  0.5689337926790969   F   F   F
  0.0139205130327369  0.3661709874788031  0.4048610561677890   F   F   F
  0.1082034743723526  0.5258221871225928  0.3677238872748561   F   F   F
  0.1984265483379062  0.6187653323223827  0.3821533848516623   F   F   F
  0.5479392345393919  0.4906295493051971  0.5983573564493980   F   F   F
  0.6315603532786795  0.5909126491932994  0.6006348510450294   F   F   F
  0.4223155448180407  0.4193526239767138  0.5073235103869038   F   F   F
  0.3560541721475161  0.3738787815799540  0.3568435167471833   F   F   F
  0.4498833568507052  0.5452105273693277  0.4067064959360565   F   F   F
  0.5107487250011218  0.6535124339384240  0.4408778922529564   F   F   F
  0.9163512798032016  0.4800580678626716  0.5602293816903554   F   F   F
  0.0050202950875970  0.5753401100567856  0.5567057529045982   F   F   F
  0.7314084234247531  0.4226184839260725  0.6145527160857753   F   F   F
  0.6698616670821522  0.3704581775035081  0.4537345973269780   F   F   F
  0.7665609437402949  0.5342282815203703  0.4299366904797637   F   F   F
  0.8536929449871451  0.6318468303973717  0.4261151257937001   F   F   F
  0.2322342920580738  0.7886778758546313  0.5999382498703199   F   F   F
  0.3025723060489867  0.8951384334678139  0.5872646278597600   F   F   F
  0.0891662390841859  0.7416466717827959  0.5224688664536785   F   F   F
  0.0177022732101690  0.6965516461407120  0.3565723367693749   F   F   F
  0.0978784623445605  0.8610208496705454  0.3851472490554215   F   F   F
  0.1878962493523062  0.9513651941550876  0.4109596433997211   F   F   F
  0.5675007124600100  0.8140370200232425  0.5829969007848703   F   F   F
  0.6649795292642295  0.9009104879972156  0.5812296959053072   F   F   F
  0.4157105944519728  0.7251128804020439  0.5993873260416720   F   F   F
  0.3293364244872308  0.7111324153150704  0.4301902077486091   F   F   F
  0.4488894813699957  0.8803541749565298  0.4216354599059997   F   F   F
  0.5168023657081093  0.9897657721436417  0.4262764498039004   F   F   F
  0.9170801902405117  0.8088765330727838  0.5631359750489935   F   F   F
  0.9980148927574248  0.9103269821320197  0.5522383926783334   F   F   F
  0.7524629456183618  0.7280941177708300  0.5848585920606055   F   F   F
  0.6711333776210608  0.7064672261853602  0.4372686708245652   F   F   F
  0.7665989655957119  0.8715815487196110  0.4159933422868178   F   F   F
  0.8563922055309163  0.9645653379336423  0.4195365079223095   F   F   F
  0.3395924753323030  0.3953089909658800  0.6059904495594156   T   T   T
 
  0.00000000E+00  0.00000000E+00  0.00000000E+00
  0.00000000E+00  0.00000000E+00  0.00000000E+00
  0.00000000E+00  0.00000000E+00  0.00000000E+00
  0.00000000E+00  0.00000000E+00  0.00000000E+00
  0.00000000E+00  0.00000000E+00  0.00000000E+00
  0.00000000E+00  0.00000000E+00  0.00000000E+00
  0.00000000E+00  0.00000000E+00  0.00000000E+00
  0.00000000E+00  0.00000000E+00  0.00000000E+00
  0.00000000E+00  0.00000000E+00  0.00000000E+00
  0.00000000E+00  0.00000000E+00  0.00000000E+00
  0.00000000E+00  0.00000000E+00  0.00000000E+00
  0.00000000E+00  0.00000000E+00  0.00000000E+00
  0.00000000E+00  0.00000000E+00  0.00000000E+00
  0.00000000E+00  0.00000000E+00  0.00000000E+00
  0.00000000E+00  0.00000000E+00  0.00000000E+00
  0.00000000E+00  0.00000000E+00  0.00000000E+00
  0.00000000E+00  0.00000000E+00  0.00000000E+00
  0.00000000E+00  0.00000000E+00  0.00000000E+00
  0.00000000E+00  0.00000000E+00  0.00000000E+00
  0.00000000E+00  0.00000000E+00  0.00000000E+00
  0.00000000E+00  0.00000000E+00  0.00000000E+00
  0.00000000E+00  0.00000000E+00  0.00000000E+00
  0.00000000E+00  0.00000000E+00  0.00000000E+00
  0.00000000E+00  0.00000000E+00  0.00000000E+00
  0.00000000E+00  0.00000000E+00  0.00000000E+00
  0.00000000E+00  0.00000000E+00  0.00000000E+00
  0.00000000E+00  0.00000000E+00  0.00000000E+00
  0.00000000E+00  0.00000000E+00  0.00000000E+00
  0.00000000E+00  0.00000000E+00  0.00000000E+00
  0.00000000E+00  0.00000000E+00  0.00000000E+00
  0.00000000E+00  0.00000000E+00  0.00000000E+00
  0.00000000E+00  0.00000000E+00  0.00000000E+00
  0.00000000E+00  0.00000000E+00  0.00000000E+00
  0.00000000E+00  0.00000000E+00  0.00000000E+00
  0.00000000E+00  0.00000000E+00  0.00000000E+00
  0.00000000E+00  0.00000000E+00  0.00000000E+00
  0.00000000E+00  0.00000000E+00  0.00000000E+00
  0.00000000E+00  0.00000000E+00  0.00000000E+00
  0.00000000E+00  0.00000000E+00  0.00000000E+00
  0.00000000E+00  0.00000000E+00  0.00000000E+00
  0.00000000E+00  0.00000000E+00  0.00000000E+00
  0.00000000E+00  0.00000000E+00  0.00000000E+00
  0.00000000E+00  0.00000000E+00  0.00000000E+00
  0.00000000E+00  0.00000000E+00  0.00000000E+00
  0.00000000E+00  0.00000000E+00  0.00000000E+00
  0.00000000E+00  0.00000000E+00  0.00000000E+00
  0.00000000E+00  0.00000000E+00  0.00000000E+00
  0.00000000E+00  0.00000000E+00  0.00000000E+00
  0.00000000E+00  0.00000000E+00  0.00000000E+00
  0.00000000E+00  0.00000000E+00  0.00000000E+00
  0.00000000E+00  0.00000000E+00  0.00000000E+00
  0.00000000E+00  0.00000000E+00  0.00000000E+00
  0.00000000E+00  0.00000000E+00  0.00000000E+00
  0.00000000E+00  0.00000000E+00  0.00000000E+00
  0.00000000E+00  0.00000000E+00  0.00000000E+00
  0.00000000E+00  0.00000000E+00  0.00000000E+00
  0.00000000E+00  0.00000000E+00  0.00000000E+00
  0.00000000E+00  0.00000000E+00  0.00000000E+00
  0.00000000E+00  0.00000000E+00  0.00000000E+00
  0.00000000E+00  0.00000000E+00  0.00000000E+00
  0.00000000E+00  0.00000000E+00  0.00000000E+00
  0.00000000E+00  0.00000000E+00  0.00000000E+00
  0.00000000E+00  0.00000000E+00  0.00000000E+00
  0.00000000E+00  0.00000000E+00  0.00000000E+00
  0.00000000E+00  0.00000000E+00  0.00000000E+00
  0.00000000E+00  0.00000000E+00  0.00000000E+00
  0.00000000E+00  0.00000000E+00  0.00000000E+00
  0.00000000E+00  0.00000000E+00  0.00000000E+00
  0.00000000E+00  0.00000000E+00  0.00000000E+00
  0.00000000E+00  0.00000000E+00  0.00000000E+00
  0.00000000E+00  0.00000000E+00  0.00000000E+00
  0.00000000E+00  0.00000000E+00  0.00000000E+00
  0.00000000E+00  0.00000000E+00  0.00000000E+00
  0.00000000E+00  0.00000000E+00  0.00000000E+00
  0.00000000E+00  0.00000000E+00  0.00000000E+00
  0.00000000E+00  0.00000000E+00  0.00000000E+00
  0.00000000E+00  0.00000000E+00  0.00000000E+00
  0.00000000E+00  0.00000000E+00  0.00000000E+00
  0.00000000E+00  0.00000000E+00  0.00000000E+00
  0.00000000E+00  0.00000000E+00  0.00000000E+00
  0.00000000E+00  0.00000000E+00  0.00000000E+00
  0.00000000E+00  0.00000000E+00  0.00000000E+00
  0.00000000E+00  0.00000000E+00  0.00000000E+00
  0.00000000E+00  0.00000000E+00  0.00000000E+00
  0.00000000E+00  0.00000000E+00  0.00000000E+00
  0.00000000E+00  0.00000000E+00  0.00000000E+00
  0.00000000E+00  0.00000000E+00  0.00000000E+00
  0.00000000E+00  0.00000000E+00  0.00000000E+00
  0.00000000E+00  0.00000000E+00  0.00000000E+00
  0.00000000E+00  0.00000000E+00  0.00000000E+00
  0.00000000E+00  0.00000000E+00  0.00000000E+00
  0.00000000E+00  0.00000000E+00  0.00000000E+00
  0.00000000E+00  0.00000000E+00  0.00000000E+00
  0.00000000E+00  0.00000000E+00  0.00000000E+00
  0.00000000E+00  0.00000000E+00  0.00000000E+00
  0.00000000E+00  0.00000000E+00  0.00000000E+00
  0.00000000E+00  0.00000000E+00  0.00000000E+00
  0.00000000E+00  0.00000000E+00  0.00000000E+00
  0.00000000E+00  0.00000000E+00  0.00000000E+00
  0.00000000E+00  0.00000000E+00  0.00000000E+00
