CONTCAR\(2)                             
   1.00000000000000     
    14.0088996886999997    0.0000000000000000    0.0000000000000000
     5.5188320969999998   13.5818590718000003    0.0000000000000000
     0.0000000000000000    0.0000000000000000   20.1937999724999990
   Cu   H    S    O 
    12    24    12    61
Direct
  0.1667272988169181  0.2498836597529510  0.4998511065932480
 -0.0003884898014636  0.0003132098889670  0.4996958135015165
  0.4998397621160811  0.2504347418600990  0.4997791416734003
  0.3333183689724729 -0.0001688999338342  0.4997738390196107
  0.8326534326989288  0.2506053340217421  0.5002675883066908
  0.6662036867851104  0.0004687704175429  0.4998989957681345
  0.1661423738081292  0.7500624497394479  0.4998569404453209
 -0.0005012970416651  0.4999481916826604  0.4995011330875991
  0.4999523034210550  0.7503243014707723  0.5002074060828690
  0.3329208686991120  0.4998212305734833  0.4982832523840265
  0.8333209361168328  0.7502805511675625  0.4999773542871850
  0.6662668617270359  0.5001350935032164  0.4991245273561883
  0.2606274644421961  0.2159389404000087  0.3930913402818693
  0.0728326318552919  0.2826618401337536  0.6065568893874640
  0.0007454639825439  0.1658749390781810  0.4523555869011930
  0.3320113079245903  0.3349442715561943  0.5479806041274407
  0.5943223641644384  0.2160155115782883  0.3930118561363302
  0.4059747126750394  0.2840715619412051  0.6066400680383747
  0.3346367577061825  0.1654831427628678  0.4518887015692322
  0.6646672844436975  0.3355926969026506  0.5485761696088155
  0.9270223305042476  0.2163643160998260  0.3934905806581107
  0.7384035939237263  0.2838167733584904  0.6070747136458965
  0.6678310051120141  0.1657386892536946  0.4520200406936158
  0.9989990830443832  0.3346157706068590  0.5480961497758081
  0.2600340114603280  0.7161095419223250  0.3928983983649851
  0.0727929917079078  0.7818747082545829  0.6065665134593614
  0.0006771386333595  0.6655147573907561  0.4513956473806166
  0.3319423051861506  0.8343237923386898  0.5484610268591227
  0.5940545806981453  0.7161674881929155  0.3933514546298365
  0.4059647161506288  0.7842838145305807  0.6073698957101238
  0.3339520609329399  0.6660328508408645  0.4517218631591973
  0.6658497467002467  0.8348193274553170  0.5483632693888109
  0.9265640691864674  0.7173157406427986  0.3930012883785641
  0.7396318529030457  0.7826928675355527  0.6067840102202898
  0.6678602727710654  0.6658114953887085  0.4522223930134832
  0.9987923860302773  0.8348561079920889  0.5483918790517325
  0.1283864465218473  0.0983388793299427  0.5697124102329679
  0.2042486690100801  0.4010127798158415  0.4293696033921617
  0.4613643893875371  0.0990488691625196  0.5696729102888970
  0.5384267119139656  0.4011574244972663  0.4293095439182689
  0.7948538449661851  0.0988463434307917  0.5698832663030875
  0.8713860611875394  0.4012256241457096  0.4299229886123423
  0.1285303287578887  0.5981003343303730  0.5691196316745638
  0.2047927750896039  0.9011292263048345  0.4300595711012616
  0.4612560434270220  0.5979641626017441  0.5688998416091481
  0.5384858942272889  0.9011395116853391  0.4301909394568909
  0.7948335623698757  0.5985801612331824  0.5695868513621124
  0.8712409653199844  0.9016608974394285  0.4300195318392094
  0.2268893775591730  0.4911465211427541  0.4380680354946724
  0.1054444252415085  0.0085167021974004  0.5603757364242922
  0.0894366188328977  0.4296225499719201  0.4269137190394070
  0.2431919029009859  0.0694043938425420  0.5724975453832737
  0.2394756688791400  0.3400080094472956  0.4934730422976751
  0.0937831585143768  0.1599232563894382  0.5057702826195833
  0.2513246073896737  0.3423036611420910  0.3717145292109775
  0.0811200339239963  0.1567129104261957  0.6274458719324926
  0.0658820580405595  0.3292058654497126  0.5691467116826119
  0.2679596665418377  0.1699823764366646  0.4308962627349472
  0.5603103621453999  0.4916416673805780  0.4385118120003618
  0.4389374274315267  0.0089514283745765  0.5602800341306291
  0.4236755501463538  0.4292757243693384  0.4261002912495842
  0.5761464330884384  0.0704431136178171  0.5725068536766901
  0.5729707978178494  0.3402269960737475  0.4934808852619833
  0.4267376772892808  0.1605715068117744  0.5057062247434083
  0.5865677882251695  0.3425758166941149  0.3718410424693808
  0.4137971098672065  0.1573073610136046  0.6273672283446247
  0.3987906256060198  0.3300181961139538  0.5688811487966405
  0.6012161259641829  0.1703446793858318  0.4308998397449211
  0.8935317428001823  0.4915495701838231  0.4389961682892280
  0.7721146679045670  0.0089223780962682  0.5604563912400042
  0.7566084581819102  0.4294960857631671  0.4269564300034253
  0.9096798251565223  0.0700761775079085  0.5724407036308164
  0.9059953251234385  0.3402728157819777  0.4941181398639736
  0.7598666102438940  0.1606016774150201  0.5060479159187691
  0.9191147369398192  0.3426013892282326  0.3723788152113738
  0.7477448183969554  0.1569792676640193  0.6277217564808943
  0.7316109623497508  0.3300578375266128  0.5695269527802627
  0.9340260650332138  0.1705712196057290  0.4313339417238869
  0.2275513271957491  0.9910765590348465  0.4392367991347722
  0.1055188266720424  0.5083135779842800  0.5598806756475218
  0.0899593598048569  0.9298793029487575  0.4273018690206852
  0.2433458943104866  0.5692338765153305  0.5713690918158635
  0.2394983332648176  0.8397363940180473  0.4940688721840893
  0.0931575927975839  0.6600656849950801  0.5054144744483768
  0.2520799962207343  0.8426907246432730  0.3723536181633216
  0.0818836564401625  0.6561177364493929  0.6271184340769068
  0.0657835056309127  0.8289829603104572  0.5694737473283953
  0.2673828118698116  0.6702537888477038  0.4307516892396855
  0.5605233808798072  0.9914889332501414  0.4393090879800068
  0.4388038649679185  0.5082620054628867  0.5586931625800222
  0.4237401885499662  0.9292322251674401  0.4274349071813661
  0.5759742352311146  0.5702655216229597  0.5715362547403523
  0.5733819737835379  0.8399649800207339  0.4942817871312326
  0.4259383871047303  0.6610944451981662  0.5057733409845538
  0.5861639557430776  0.8427003065497842  0.3725738873136016
  0.4142084330390340  0.6551735531710425  0.6273261205023120
  0.3986409048214743  0.8297536263770650  0.5694153517001915
  0.6011515541703248  0.6703717706695729  0.4312066196217679
  0.8937843564092585  0.9917448404824660  0.4391309608988652
  0.7716997426673967  0.5089140656712446  0.5600946931740858
  0.7564536291076872  0.9301511479037682  0.4274395290576951
  0.9096705131839807  0.5695224810925625  0.5723671815613904
  0.9063486040724800  0.8402233575652596  0.4939604929388161
  0.7603321893629520  0.6603563645147602  0.5057373703445417
  0.9184043459514986  0.8433306150944218  0.3722383510245492
  0.7475657901052323  0.6567936664122559  0.6273739895250279
  0.7327016430724742  0.8293895116991902  0.5694709200920839
  0.9337123645053519  0.6708514799614252  0.4304831375948341
  0.5489171988914449  0.5030778430328209  0.7010043918752932
 
  0.00000000E+00  0.00000000E+00  0.00000000E+00
  0.00000000E+00  0.00000000E+00  0.00000000E+00
  0.00000000E+00  0.00000000E+00  0.00000000E+00
  0.00000000E+00  0.00000000E+00  0.00000000E+00
  0.00000000E+00  0.00000000E+00  0.00000000E+00
  0.00000000E+00  0.00000000E+00  0.00000000E+00
  0.00000000E+00  0.00000000E+00  0.00000000E+00
  0.00000000E+00  0.00000000E+00  0.00000000E+00
  0.00000000E+00  0.00000000E+00  0.00000000E+00
  0.00000000E+00  0.00000000E+00  0.00000000E+00
  0.00000000E+00  0.00000000E+00  0.00000000E+00
  0.00000000E+00  0.00000000E+00  0.00000000E+00
  0.00000000E+00  0.00000000E+00  0.00000000E+00
  0.00000000E+00  0.00000000E+00  0.00000000E+00
  0.00000000E+00  0.00000000E+00  0.00000000E+00
  0.00000000E+00  0.00000000E+00  0.00000000E+00
  0.00000000E+00  0.00000000E+00  0.00000000E+00
  0.00000000E+00  0.00000000E+00  0.00000000E+00
  0.00000000E+00  0.00000000E+00  0.00000000E+00
  0.00000000E+00  0.00000000E+00  0.00000000E+00
  0.00000000E+00  0.00000000E+00  0.00000000E+00
  0.00000000E+00  0.00000000E+00  0.00000000E+00
  0.00000000E+00  0.00000000E+00  0.00000000E+00
  0.00000000E+00  0.00000000E+00  0.00000000E+00
  0.00000000E+00  0.00000000E+00  0.00000000E+00
  0.00000000E+00  0.00000000E+00  0.00000000E+00
  0.00000000E+00  0.00000000E+00  0.00000000E+00
  0.00000000E+00  0.00000000E+00  0.00000000E+00
  0.00000000E+00  0.00000000E+00  0.00000000E+00
  0.00000000E+00  0.00000000E+00  0.00000000E+00
  0.00000000E+00  0.00000000E+00  0.00000000E+00
  0.00000000E+00  0.00000000E+00  0.00000000E+00
  0.00000000E+00  0.00000000E+00  0.00000000E+00
  0.00000000E+00  0.00000000E+00  0.00000000E+00
  0.00000000E+00  0.00000000E+00  0.00000000E+00
  0.00000000E+00  0.00000000E+00  0.00000000E+00
  0.00000000E+00  0.00000000E+00  0.00000000E+00
  0.00000000E+00  0.00000000E+00  0.00000000E+00
  0.00000000E+00  0.00000000E+00  0.00000000E+00
  0.00000000E+00  0.00000000E+00  0.00000000E+00
  0.00000000E+00  0.00000000E+00  0.00000000E+00
  0.00000000E+00  0.00000000E+00  0.00000000E+00
  0.00000000E+00  0.00000000E+00  0.00000000E+00
  0.00000000E+00  0.00000000E+00  0.00000000E+00
  0.00000000E+00  0.00000000E+00  0.00000000E+00
  0.00000000E+00  0.00000000E+00  0.00000000E+00
  0.00000000E+00  0.00000000E+00  0.00000000E+00
  0.00000000E+00  0.00000000E+00  0.00000000E+00
  0.00000000E+00  0.00000000E+00  0.00000000E+00
  0.00000000E+00  0.00000000E+00  0.00000000E+00
  0.00000000E+00  0.00000000E+00  0.00000000E+00
  0.00000000E+00  0.00000000E+00  0.00000000E+00
  0.00000000E+00  0.00000000E+00  0.00000000E+00
  0.00000000E+00  0.00000000E+00  0.00000000E+00
  0.00000000E+00  0.00000000E+00  0.00000000E+00
  0.00000000E+00  0.00000000E+00  0.00000000E+00
  0.00000000E+00  0.00000000E+00  0.00000000E+00
  0.00000000E+00  0.00000000E+00  0.00000000E+00
  0.00000000E+00  0.00000000E+00  0.00000000E+00
  0.00000000E+00  0.00000000E+00  0.00000000E+00
  0.00000000E+00  0.00000000E+00  0.00000000E+00
  0.00000000E+00  0.00000000E+00  0.00000000E+00
  0.00000000E+00  0.00000000E+00  0.00000000E+00
  0.00000000E+00  0.00000000E+00  0.00000000E+00
  0.00000000E+00  0.00000000E+00  0.00000000E+00
  0.00000000E+00  0.00000000E+00  0.00000000E+00
  0.00000000E+00  0.00000000E+00  0.00000000E+00
  0.00000000E+00  0.00000000E+00  0.00000000E+00
  0.00000000E+00  0.00000000E+00  0.00000000E+00
  0.00000000E+00  0.00000000E+00  0.00000000E+00
  0.00000000E+00  0.00000000E+00  0.00000000E+00
  0.00000000E+00  0.00000000E+00  0.00000000E+00
  0.00000000E+00  0.00000000E+00  0.00000000E+00
  0.00000000E+00  0.00000000E+00  0.00000000E+00
  0.00000000E+00  0.00000000E+00  0.00000000E+00
  0.00000000E+00  0.00000000E+00  0.00000000E+00
  0.00000000E+00  0.00000000E+00  0.00000000E+00
  0.00000000E+00  0.00000000E+00  0.00000000E+00
  0.00000000E+00  0.00000000E+00  0.00000000E+00
  0.00000000E+00  0.00000000E+00  0.00000000E+00
  0.00000000E+00  0.00000000E+00  0.00000000E+00
  0.00000000E+00  0.00000000E+00  0.00000000E+00
  0.00000000E+00  0.00000000E+00  0.00000000E+00
  0.00000000E+00  0.00000000E+00  0.00000000E+00
  0.00000000E+00  0.00000000E+00  0.00000000E+00
  0.00000000E+00  0.00000000E+00  0.00000000E+00
  0.00000000E+00  0.00000000E+00  0.00000000E+00
  0.00000000E+00  0.00000000E+00  0.00000000E+00
  0.00000000E+00  0.00000000E+00  0.00000000E+00
  0.00000000E+00  0.00000000E+00  0.00000000E+00
  0.00000000E+00  0.00000000E+00  0.00000000E+00
  0.00000000E+00  0.00000000E+00  0.00000000E+00
  0.00000000E+00  0.00000000E+00  0.00000000E+00
  0.00000000E+00  0.00000000E+00  0.00000000E+00
  0.00000000E+00  0.00000000E+00  0.00000000E+00
  0.00000000E+00  0.00000000E+00  0.00000000E+00
  0.00000000E+00  0.00000000E+00  0.00000000E+00
  0.00000000E+00  0.00000000E+00  0.00000000E+00
  0.00000000E+00  0.00000000E+00  0.00000000E+00
  0.00000000E+00  0.00000000E+00  0.00000000E+00
  0.00000000E+00  0.00000000E+00  0.00000000E+00
  0.00000000E+00  0.00000000E+00  0.00000000E+00
  0.00000000E+00  0.00000000E+00  0.00000000E+00
  0.00000000E+00  0.00000000E+00  0.00000000E+00
  0.00000000E+00  0.00000000E+00  0.00000000E+00
  0.00000000E+00  0.00000000E+00  0.00000000E+00
  0.00000000E+00  0.00000000E+00  0.00000000E+00
  0.00000000E+00  0.00000000E+00  0.00000000E+00
  0.00000000E+00  0.00000000E+00  0.00000000E+00
