Repeated-UnitCell:     3    1    1      
   1.00000000000000     
    10.1275920868000000    0.0000000000000000    0.0000000000000000
     0.0000000000000000    9.8050117493000002    0.0000000000000000
     0.0000000000000000    0.0000000000000000   18.7678718567000011
   Nb   Se
    12    17
Direct
  0.0744527201722979  0.8714952426983198  0.4980221607433750
  0.4255472798277022  0.8714952426983198  0.4980221607433750
  0.7500000000000000  0.8743934951380143  0.4999656220253478
  0.2500000000000000  0.1264441845363016  0.4970509270607557
  0.5840424088733375  0.1240136611425140  0.5009767711349151
  0.9159576381266629  0.1240136611425140  0.5009767711349151
  0.0832848180765926  0.5588036730777249  0.4484795297206333
  0.4167151759234068  0.5588036730777249  0.4484795297206333
  0.7500000000000000  0.5593802143697697  0.4509071235745623
  0.2500000000000000  0.4425480310287122  0.5500543034751144
  0.5830541743858529  0.4423297538594462  0.5520619290938494
  0.9169458726141474  0.4423297538594462  0.5520619290938494
  0.0808417465092292  0.0565546079535397  0.4009781228978274
  0.4191582534907708  0.0565546079535397  0.4009781228978274
  0.7500000000000000  0.0590346169692287  0.4021090067419975
  0.5769146164167647  0.9400659383214184  0.5995034462060700
  0.9230854305832357  0.9400659383214184  0.5995034462060700
  0.0868506713028786  0.2470123005416329  0.5915115336908032
  0.4131493286971215  0.2470123005416329  0.5915115336908032
  0.7500000000000000  0.2510860334082177  0.5945155460513072
  0.2500000000000000  0.7508318784160689  0.4087478770259243
  0.5837270361942061  0.7533490921953190  0.4061738255268477
  0.9162730108057943  0.7533490921953190  0.4061738255268477
  0.2500000000000000  0.3659190022355877  0.4187570275066839
  0.5843940246655170  0.3674976878323173  0.4192637635716622
  0.9156060223344833  0.3674976878323173  0.4192637635716622
  0.0863679673824826  0.6362904599570941  0.5811929771232428
  0.4136320326175173  0.6362904599570941  0.5811929771232428
  0.7500000000000000  0.6329931427394524  0.5839602861198547
 
  0.00000000E+00  0.00000000E+00  0.00000000E+00
  0.00000000E+00  0.00000000E+00  0.00000000E+00
  0.00000000E+00  0.00000000E+00  0.00000000E+00
  0.00000000E+00  0.00000000E+00  0.00000000E+00
  0.00000000E+00  0.00000000E+00  0.00000000E+00
  0.00000000E+00  0.00000000E+00  0.00000000E+00
  0.00000000E+00  0.00000000E+00  0.00000000E+00
  0.00000000E+00  0.00000000E+00  0.00000000E+00
  0.00000000E+00  0.00000000E+00  0.00000000E+00
  0.00000000E+00  0.00000000E+00  0.00000000E+00
  0.00000000E+00  0.00000000E+00  0.00000000E+00
  0.00000000E+00  0.00000000E+00  0.00000000E+00
  0.00000000E+00  0.00000000E+00  0.00000000E+00
  0.00000000E+00  0.00000000E+00  0.00000000E+00
  0.00000000E+00  0.00000000E+00  0.00000000E+00
  0.00000000E+00  0.00000000E+00  0.00000000E+00
  0.00000000E+00  0.00000000E+00  0.00000000E+00
  0.00000000E+00  0.00000000E+00  0.00000000E+00
  0.00000000E+00  0.00000000E+00  0.00000000E+00
  0.00000000E+00  0.00000000E+00  0.00000000E+00
  0.00000000E+00  0.00000000E+00  0.00000000E+00
  0.00000000E+00  0.00000000E+00  0.00000000E+00
  0.00000000E+00  0.00000000E+00  0.00000000E+00
  0.00000000E+00  0.00000000E+00  0.00000000E+00
  0.00000000E+00  0.00000000E+00  0.00000000E+00
  0.00000000E+00  0.00000000E+00  0.00000000E+00
  0.00000000E+00  0.00000000E+00  0.00000000E+00
  0.00000000E+00  0.00000000E+00  0.00000000E+00
  0.00000000E+00  0.00000000E+00  0.00000000E+00
