CONTCAR\(6)                             
   1.00000000000000     
    13.4492998122999996    0.0000000000000000    0.0000000000000000
     0.0000000000000000   13.4492998122999996    0.0000000000000000
     0.0000000000000000    0.0000000000000000   22.2562007904000012
   Ta   Se   O 
    64    32     1
Direct
  0.1240251026862532 -0.0000000000000000  0.6068807020605261
  0.0004789177284834  0.1255511399338886  0.3927335759079773
  0.9995420242661042  0.1245545538526672  0.5335965964566649
  0.1249360289845393 -0.0000000000000000  0.4654015159448234
  0.3749836311474241 -0.0000000000000000  0.6068712110219111
  0.2500930975319405  0.1252511678721486  0.3930710384086253
  0.2501242129513798  0.1249271892814577  0.5342224174708659
  0.3749528181086365 -0.0000000000000000  0.4658004163119527
  0.6259101196041176 -0.0000000000000000  0.6068752648280991
  0.4998480590001186  0.1252659270490335  0.3930780568957270
  0.4998141505586136  0.1249103580653998  0.5342114974919184
  0.6249733501185344 -0.0000000000000000  0.4654084792053993
  0.8751284975430668 -0.0000000000000000  0.6068595829416369
  0.7494590186981596  0.1255230648508745  0.3927426558020208
  0.7504830186344301  0.1245245231067467  0.5335880965282440
  0.8750021995543280 -0.0000000000000000  0.4654148972080238
  0.1214975553489930  0.2465477376350366  0.6064374424450381
  0.0002947729343005  0.3751633626405777  0.3930757237930891
 -0.0000701969834865  0.3751944850922352  0.5342314937991061
  0.1247186917630975  0.2497533492298912  0.4658030932601672
  0.3750570089477886  0.2511096539081223  0.6084453480987010
  0.2496088214692081  0.3746109928428666  0.3945990985195478
  0.2504057404289866  0.3754400528812676  0.5358841780805166
  0.3749606008503781  0.2506673605351897  0.4666192349299092
  0.6285738714400150  0.2464867287477968  0.6063837834342969
  0.5003406391440159  0.3746224256848437  0.3946237223766000
  0.4995472117119624  0.3754420465575580  0.5358814331588772
  0.6252515167195395  0.2497399870792051  0.4658032509368826
  0.8750757671567196  0.2491277527294275  0.6068914159742229
  0.7496665179329423  0.3751655458929271  0.3930760118009989
  0.7500870677753596  0.3751677131030802  0.5342269132226445
  0.8749931219600953  0.2500188832931871  0.4654077833656333
  0.1261582288598644  0.5000000000000000  0.6085038689096617
  0.0002947729343005  0.6248366373594223  0.3930757237930891
 -0.0000701969834865  0.6248055149077646  0.5342314937991061
  0.1256654042262279  0.5000000000000000  0.4666088016161198
  0.3750564602572190  0.5000000000000000  0.6226213985305765
  0.2496088214692081  0.6253890071571334  0.3945990985195478
  0.2504057404289866  0.6245599471187393  0.5358841780805166
  0.3749635734787473  0.5000000000000000  0.4676774183862513
  0.6239859683983936  0.5000000000000000  0.6084605334617846
  0.5003406391440159  0.6253775743151564  0.3946237223766000
  0.4995472117119624  0.6245579534424421  0.5358814331588772
  0.6242886169190761  0.5000000000000000  0.4666283472624265
  0.8750381253253572  0.5000000000000000  0.6069054832013022
  0.7496665179329423  0.6248344541070729  0.3930760118009989
  0.7500870677753596  0.6248322868969196  0.5342269132226445
  0.8750007419928624  0.5000000000000000  0.4658084003588741
  0.1214975553489930  0.7534522803649650  0.6064374424450381
  0.0004789177284834  0.8744488330661128  0.3927335759079773
  0.9995420242661042  0.8754454191473341  0.5335965964566649
  0.1247186917630975  0.7502466687701104  0.4658030932601672
  0.3750570089477886  0.7488903640918790  0.6084453480987010
  0.2500930975319405  0.8747488051278526  0.3930710384086253
  0.2501242129513798  0.8750727837185439  0.5342224174708659
  0.3749606008503781  0.7493326574648115  0.4666192349299092
  0.6285738714400150  0.7535132892522047  0.6063837834342969
  0.4998480590001186  0.8747340459509677  0.3930780568957270
  0.4998141505586136  0.8750896149346017  0.5342114974919184
  0.6252515167195395  0.7502600309207964  0.4658032509368826
  0.8750757671567196  0.7508722652705740  0.6068914159742229
  0.7494590186981596  0.8744769081491267  0.3927426558020208
  0.7504830186344301  0.8754754498932547  0.5335880965282440
  0.8749931219600953  0.7499811347068144  0.4654077833656333
  0.9989598890038763  0.1239821538172111  0.6642123012976626
  0.1254647954346472 -0.0000000000000000  0.3363695349438112
  0.2496429569649881  0.1237485221340607  0.6631898137107075
  0.3749369331100602 -0.0000000000000000  0.3365534422019160
  0.5003384196841105  0.1237712614494090  0.6632809978382259
  0.6244716529731099 -0.0000000000000000  0.3363806166402846
  0.7512346990411245  0.1238987675236306  0.6640531872290845
  0.8749580298173113 -0.0000000000000000  0.3365741349413092
  0.9987154163348646  0.3746706934291213  0.6633271819723734
  0.1250701443642202  0.2500384057078802  0.3364100836456398
  0.2395705961333176  0.3644085798804784  0.6641857393992674
  0.3750000888698255  0.2501850104950242  0.3371147564370305
  0.5107912739447588  0.3644325084353943  0.6641414913794288
  0.6249522095425082  0.2500522435468798  0.3364071085800740
  0.7513807365431669  0.3746036998335109  0.6632775377112843
  0.8749457728702303  0.2505946148925708  0.3364461819104919
  0.9987154163348646  0.6253293065708785  0.6633271819723734
  0.1251954135664072  0.5000000000000000  0.3370363577736755
  0.2395705961333176  0.6355914201195217  0.6641857393992674
  0.3749589984425186  0.5000000000000000  0.3387010260592386
  0.5107912739447588  0.6355674915646057  0.6641414913794288
  0.6247240602056987  0.5000000000000000  0.3370492836360192
  0.7513807365431669  0.6253963001664889  0.6632775377112843
  0.8749477619803858  0.5000000000000000  0.3365609562997871
  0.9989598890038763  0.8760178191827902  0.6642123012976626
  0.1250701443642202  0.7499616122921213  0.3364100836456398
  0.2496429569649881  0.8762514508659407  0.6631898137107075
  0.3750000888698255  0.7498150075049771  0.3371147564370305
  0.5003384196841105  0.8762287115505922  0.6632809978382259
  0.6249522095425082  0.7499477744531219  0.3364071085800740
  0.7512346990411245  0.8761012054763707  0.6640531872290845
  0.8749457728702303  0.7494054031074305  0.3364461819104919
  0.3751865557329322  0.5000000000000000  0.7046260967155739
 
  0.00000000E+00  0.00000000E+00  0.00000000E+00
  0.00000000E+00  0.00000000E+00  0.00000000E+00
  0.00000000E+00  0.00000000E+00  0.00000000E+00
  0.00000000E+00  0.00000000E+00  0.00000000E+00
  0.00000000E+00  0.00000000E+00  0.00000000E+00
  0.00000000E+00  0.00000000E+00  0.00000000E+00
  0.00000000E+00  0.00000000E+00  0.00000000E+00
  0.00000000E+00  0.00000000E+00  0.00000000E+00
  0.00000000E+00  0.00000000E+00  0.00000000E+00
  0.00000000E+00  0.00000000E+00  0.00000000E+00
  0.00000000E+00  0.00000000E+00  0.00000000E+00
  0.00000000E+00  0.00000000E+00  0.00000000E+00
  0.00000000E+00  0.00000000E+00  0.00000000E+00
  0.00000000E+00  0.00000000E+00  0.00000000E+00
  0.00000000E+00  0.00000000E+00  0.00000000E+00
  0.00000000E+00  0.00000000E+00  0.00000000E+00
  0.00000000E+00  0.00000000E+00  0.00000000E+00
  0.00000000E+00  0.00000000E+00  0.00000000E+00
  0.00000000E+00  0.00000000E+00  0.00000000E+00
  0.00000000E+00  0.00000000E+00  0.00000000E+00
  0.00000000E+00  0.00000000E+00  0.00000000E+00
  0.00000000E+00  0.00000000E+00  0.00000000E+00
  0.00000000E+00  0.00000000E+00  0.00000000E+00
  0.00000000E+00  0.00000000E+00  0.00000000E+00
  0.00000000E+00  0.00000000E+00  0.00000000E+00
  0.00000000E+00  0.00000000E+00  0.00000000E+00
  0.00000000E+00  0.00000000E+00  0.00000000E+00
  0.00000000E+00  0.00000000E+00  0.00000000E+00
  0.00000000E+00  0.00000000E+00  0.00000000E+00
  0.00000000E+00  0.00000000E+00  0.00000000E+00
  0.00000000E+00  0.00000000E+00  0.00000000E+00
  0.00000000E+00  0.00000000E+00  0.00000000E+00
  0.00000000E+00  0.00000000E+00  0.00000000E+00
  0.00000000E+00  0.00000000E+00  0.00000000E+00
  0.00000000E+00  0.00000000E+00  0.00000000E+00
  0.00000000E+00  0.00000000E+00  0.00000000E+00
  0.00000000E+00  0.00000000E+00  0.00000000E+00
  0.00000000E+00  0.00000000E+00  0.00000000E+00
  0.00000000E+00  0.00000000E+00  0.00000000E+00
  0.00000000E+00  0.00000000E+00  0.00000000E+00
  0.00000000E+00  0.00000000E+00  0.00000000E+00
  0.00000000E+00  0.00000000E+00  0.00000000E+00
  0.00000000E+00  0.00000000E+00  0.00000000E+00
  0.00000000E+00  0.00000000E+00  0.00000000E+00
  0.00000000E+00  0.00000000E+00  0.00000000E+00
  0.00000000E+00  0.00000000E+00  0.00000000E+00
  0.00000000E+00  0.00000000E+00  0.00000000E+00
  0.00000000E+00  0.00000000E+00  0.00000000E+00
  0.00000000E+00  0.00000000E+00  0.00000000E+00
  0.00000000E+00  0.00000000E+00  0.00000000E+00
  0.00000000E+00  0.00000000E+00  0.00000000E+00
  0.00000000E+00  0.00000000E+00  0.00000000E+00
  0.00000000E+00  0.00000000E+00  0.00000000E+00
  0.00000000E+00  0.00000000E+00  0.00000000E+00
  0.00000000E+00  0.00000000E+00  0.00000000E+00
  0.00000000E+00  0.00000000E+00  0.00000000E+00
  0.00000000E+00  0.00000000E+00  0.00000000E+00
  0.00000000E+00  0.00000000E+00  0.00000000E+00
  0.00000000E+00  0.00000000E+00  0.00000000E+00
  0.00000000E+00  0.00000000E+00  0.00000000E+00
  0.00000000E+00  0.00000000E+00  0.00000000E+00
  0.00000000E+00  0.00000000E+00  0.00000000E+00
  0.00000000E+00  0.00000000E+00  0.00000000E+00
  0.00000000E+00  0.00000000E+00  0.00000000E+00
  0.00000000E+00  0.00000000E+00  0.00000000E+00
  0.00000000E+00  0.00000000E+00  0.00000000E+00
  0.00000000E+00  0.00000000E+00  0.00000000E+00
  0.00000000E+00  0.00000000E+00  0.00000000E+00
  0.00000000E+00  0.00000000E+00  0.00000000E+00
  0.00000000E+00  0.00000000E+00  0.00000000E+00
  0.00000000E+00  0.00000000E+00  0.00000000E+00
  0.00000000E+00  0.00000000E+00  0.00000000E+00
  0.00000000E+00  0.00000000E+00  0.00000000E+00
  0.00000000E+00  0.00000000E+00  0.00000000E+00
  0.00000000E+00  0.00000000E+00  0.00000000E+00
  0.00000000E+00  0.00000000E+00  0.00000000E+00
  0.00000000E+00  0.00000000E+00  0.00000000E+00
  0.00000000E+00  0.00000000E+00  0.00000000E+00
  0.00000000E+00  0.00000000E+00  0.00000000E+00
  0.00000000E+00  0.00000000E+00  0.00000000E+00
  0.00000000E+00  0.00000000E+00  0.00000000E+00
  0.00000000E+00  0.00000000E+00  0.00000000E+00
  0.00000000E+00  0.00000000E+00  0.00000000E+00
  0.00000000E+00  0.00000000E+00  0.00000000E+00
  0.00000000E+00  0.00000000E+00  0.00000000E+00
  0.00000000E+00  0.00000000E+00  0.00000000E+00
  0.00000000E+00  0.00000000E+00  0.00000000E+00
  0.00000000E+00  0.00000000E+00  0.00000000E+00
  0.00000000E+00  0.00000000E+00  0.00000000E+00
  0.00000000E+00  0.00000000E+00  0.00000000E+00
  0.00000000E+00  0.00000000E+00  0.00000000E+00
  0.00000000E+00  0.00000000E+00  0.00000000E+00
  0.00000000E+00  0.00000000E+00  0.00000000E+00
  0.00000000E+00  0.00000000E+00  0.00000000E+00
  0.00000000E+00  0.00000000E+00  0.00000000E+00
  0.00000000E+00  0.00000000E+00  0.00000000E+00
  0.00000000E+00  0.00000000E+00  0.00000000E+00
