CONTCAR\(4)                             
   1.00000000000000     
    11.8037004471000007    0.0000000000000000    0.0000000000000000
     0.0000000000000000   11.8037004471000007    0.0000000000000000
     0.0000000000000000    0.0000000000000000   21.3113002776999991
   Sr   Cu   Br   O 
    18     9    18    19
Direct
 -0.0023607193193800  0.0000397208825738  0.4219657646221518
 -0.0026992909515125  0.0000143352244790  0.5820265808295636
  0.3306774878777833  0.0000338178452740  0.4230522576922113
  0.3308359897121546  0.0000194554808082  0.5829784898188712
  0.6633953827350174  0.0000435751368102  0.4219659002050541
  0.6645999085421179  0.0000241385519718  0.5820264819350398
 -0.0019638815579009  0.3326907592048842  0.4206424068807217
 -0.0075950478737236  0.3382174191604203  0.5812341461921040
  0.3306121396462721  0.3329716350468903  0.4219616161946563
  0.3307869675591071  0.3335619163957740  0.5819561650491604
  0.6632431430410261  0.3326951930032835  0.4206275828305103
  0.6689844276736951  0.3382638898595415  0.5813192231756805
 -0.0019473914686417  0.6674011139743738  0.4206449154853208
 -0.0075711168027270  0.6618459368725129  0.5812404042212762
  0.3306061972410304  0.6670938186114593  0.4219742012608718
  0.3307755181227320  0.6665163231197232  0.5819652155280256
  0.6632252949158347  0.6674035904600985  0.4206182963762254
  0.6689793559977124  0.6617991314341918  0.5813086724574116
  0.1636062929546384  0.1671888064151943  0.5027730190124845
  0.4978037087714437  0.1671268431983027  0.5027292967946578
  0.8307015505429667  0.1666030993910682  0.5011194059396586
  0.1640810925999512  0.5000317568754047  0.5010843288329728
  0.4972778996984696  0.5000276159752849  0.5011903772171782
  0.8305602809994747  0.5000167349353555  0.4999672059675367
  0.1636475512027375  0.8329108848324829  0.5027684824948093
  0.4977906110639523  0.8329305750002934  0.5027234808418223
  0.8306919581061654  0.8334292567210453  0.5011040496321180
  0.1629040895554416  0.1685987940053331  0.6519966523925718
  0.1647965081370288  0.1658596613248499  0.3513775613438360
  0.4991937772261877  0.1683405417106708  0.6520802197924385
  0.4959593650899772  0.1659870124729482  0.3511981227277521
  0.8309789293356201  0.1696090713582890  0.6526423198277334
  0.8301682034279352  0.1654123193336386  0.3506517174193450
  0.1616007268093073  0.5000325951504320  0.6523274416091764
  0.1654208025926260  0.5000013645632886  0.3505032421960510
  0.5012338660150674  0.5000075577709976  0.6527768288915646
  0.4959497021294370  0.5000181503067571  0.3507917282410932
  0.8328978124401168  0.5000006600985913  0.6980691157683591
  0.8304807201256124  0.5000972307313354  0.3504882314124664
  0.1629606288499141  0.8314942811882960  0.6521000043508115
  0.1647865475312563  0.8342242017514797  0.3513596286966946
  0.4991926429348177  0.8316841295218801  0.6520714281551717
  0.4958837021406096  0.8341163088004107  0.3512140093606914
  0.8309686565032518  0.8304070184301718  0.6526473552700398
  0.8301831536345623  0.8347089814105032  0.3506298266255339
 -0.0029103422355205  0.1672213860594335  0.5019260460714245
  0.1639220748810215  0.0000315045685849  0.5027784783716654
  0.3306988010165098  0.1670084290445353  0.5027584950671568
  0.4976529045411969  0.0000291818407231  0.5027596448391131
  0.6643144728608583  0.1671510286923648  0.5018035309297284
  0.8308644314602477  0.0000502722166219  0.5021782018634864
 -0.0019448602201395  0.5000311500055747  0.4989940169530223
  0.1635584313007692  0.3336749983267795  0.5018076077430397
  0.3307035941691197  0.5000368568529556  0.5021004448937166
  0.4978058315386737  0.3336545681881304  0.5018680957170699
  0.6631524999002968  0.5000335636142138  0.4990299582496611
  0.8306809799890527  0.3326213099365024  0.4989608290922400
 -0.0029176235859645  0.8328420465804669  0.5019371069728329
  0.1635471098017647  0.6663706299417388  0.5018326392774421
  0.3307111900045284  0.8330743434752984  0.5027827089282872
  0.4978249002339048  0.6664158992010314  0.5018626759657653
  0.6643113612548797  0.8329248763593590  0.5017895765860326
  0.8306880524305486  0.6674521379877102  0.4989595950419385
  0.8304705911491134  0.5000341625686283  0.6072071638669400
 
  0.00000000E+00  0.00000000E+00  0.00000000E+00
  0.00000000E+00  0.00000000E+00  0.00000000E+00
  0.00000000E+00  0.00000000E+00  0.00000000E+00
  0.00000000E+00  0.00000000E+00  0.00000000E+00
  0.00000000E+00  0.00000000E+00  0.00000000E+00
  0.00000000E+00  0.00000000E+00  0.00000000E+00
  0.00000000E+00  0.00000000E+00  0.00000000E+00
  0.00000000E+00  0.00000000E+00  0.00000000E+00
  0.00000000E+00  0.00000000E+00  0.00000000E+00
  0.00000000E+00  0.00000000E+00  0.00000000E+00
  0.00000000E+00  0.00000000E+00  0.00000000E+00
  0.00000000E+00  0.00000000E+00  0.00000000E+00
  0.00000000E+00  0.00000000E+00  0.00000000E+00
  0.00000000E+00  0.00000000E+00  0.00000000E+00
  0.00000000E+00  0.00000000E+00  0.00000000E+00
  0.00000000E+00  0.00000000E+00  0.00000000E+00
  0.00000000E+00  0.00000000E+00  0.00000000E+00
  0.00000000E+00  0.00000000E+00  0.00000000E+00
  0.00000000E+00  0.00000000E+00  0.00000000E+00
  0.00000000E+00  0.00000000E+00  0.00000000E+00
  0.00000000E+00  0.00000000E+00  0.00000000E+00
  0.00000000E+00  0.00000000E+00  0.00000000E+00
  0.00000000E+00  0.00000000E+00  0.00000000E+00
  0.00000000E+00  0.00000000E+00  0.00000000E+00
  0.00000000E+00  0.00000000E+00  0.00000000E+00
  0.00000000E+00  0.00000000E+00  0.00000000E+00
  0.00000000E+00  0.00000000E+00  0.00000000E+00
  0.00000000E+00  0.00000000E+00  0.00000000E+00
  0.00000000E+00  0.00000000E+00  0.00000000E+00
  0.00000000E+00  0.00000000E+00  0.00000000E+00
  0.00000000E+00  0.00000000E+00  0.00000000E+00
  0.00000000E+00  0.00000000E+00  0.00000000E+00
  0.00000000E+00  0.00000000E+00  0.00000000E+00
  0.00000000E+00  0.00000000E+00  0.00000000E+00
  0.00000000E+00  0.00000000E+00  0.00000000E+00
  0.00000000E+00  0.00000000E+00  0.00000000E+00
  0.00000000E+00  0.00000000E+00  0.00000000E+00
  0.00000000E+00  0.00000000E+00  0.00000000E+00
  0.00000000E+00  0.00000000E+00  0.00000000E+00
  0.00000000E+00  0.00000000E+00  0.00000000E+00
  0.00000000E+00  0.00000000E+00  0.00000000E+00
  0.00000000E+00  0.00000000E+00  0.00000000E+00
  0.00000000E+00  0.00000000E+00  0.00000000E+00
  0.00000000E+00  0.00000000E+00  0.00000000E+00
  0.00000000E+00  0.00000000E+00  0.00000000E+00
  0.00000000E+00  0.00000000E+00  0.00000000E+00
  0.00000000E+00  0.00000000E+00  0.00000000E+00
  0.00000000E+00  0.00000000E+00  0.00000000E+00
  0.00000000E+00  0.00000000E+00  0.00000000E+00
  0.00000000E+00  0.00000000E+00  0.00000000E+00
  0.00000000E+00  0.00000000E+00  0.00000000E+00
  0.00000000E+00  0.00000000E+00  0.00000000E+00
  0.00000000E+00  0.00000000E+00  0.00000000E+00
  0.00000000E+00  0.00000000E+00  0.00000000E+00
  0.00000000E+00  0.00000000E+00  0.00000000E+00
  0.00000000E+00  0.00000000E+00  0.00000000E+00
  0.00000000E+00  0.00000000E+00  0.00000000E+00
  0.00000000E+00  0.00000000E+00  0.00000000E+00
  0.00000000E+00  0.00000000E+00  0.00000000E+00
  0.00000000E+00  0.00000000E+00  0.00000000E+00
  0.00000000E+00  0.00000000E+00  0.00000000E+00
  0.00000000E+00  0.00000000E+00  0.00000000E+00
  0.00000000E+00  0.00000000E+00  0.00000000E+00
  0.00000000E+00  0.00000000E+00  0.00000000E+00
