G   28   23    1    0.005     # Parameters to Generate KPOINTS (Don't Edit This Line)
     323
Reciprocal lattice
    0.000000000000    0.000000000000    0.000000000000       1
    0.035714285714    0.000000000000    0.000000000000       2
    0.071428571429    0.000000000000    0.000000000000       2
    0.107142857143    0.000000000000    0.000000000000       2
    0.142857142857    0.000000000000    0.000000000000       2
    0.178571428571    0.000000000000    0.000000000000       2
    0.214285714286    0.000000000000    0.000000000000       2
    0.250000000000    0.000000000000    0.000000000000       2
    0.285714285714    0.000000000000    0.000000000000       2
    0.321428571429    0.000000000000    0.000000000000       2
    0.357142857143    0.000000000000    0.000000000000       2
    0.392857142857    0.000000000000    0.000000000000       2
    0.428571428571    0.000000000000    0.000000000000       2
    0.464285714286    0.000000000000    0.000000000000       2
    0.500000000000    0.000000000000    0.000000000000       1
    0.000000000000    0.043478260870    0.000000000000       2
    0.035714285714    0.043478260870    0.000000000000       2
    0.071428571429    0.043478260870    0.000000000000       2
    0.107142857143    0.043478260870    0.000000000000       2
    0.142857142857    0.043478260870    0.000000000000       2
    0.178571428571    0.043478260870    0.000000000000       2
    0.214285714286    0.043478260870    0.000000000000       2
    0.250000000000    0.043478260870    0.000000000000       2
    0.285714285714    0.043478260870    0.000000000000       2
    0.321428571429    0.043478260870    0.000000000000       2
    0.357142857143    0.043478260870    0.000000000000       2
    0.392857142857    0.043478260870    0.000000000000       2
    0.428571428571    0.043478260870    0.000000000000       2
    0.464285714286    0.043478260870    0.000000000000       2
    0.500000000000    0.043478260870    0.000000000000       2
   -0.464285714286    0.043478260870    0.000000000000       2
   -0.428571428571    0.043478260870    0.000000000000       2
   -0.392857142857    0.043478260870    0.000000000000       2
   -0.357142857143    0.043478260870    0.000000000000       2
   -0.321428571429    0.043478260870    0.000000000000       2
   -0.285714285714    0.043478260870    0.000000000000       2
   -0.250000000000    0.043478260870    0.000000000000       2
   -0.214285714286    0.043478260870    0.000000000000       2
   -0.178571428571    0.043478260870    0.000000000000       2
   -0.142857142857    0.043478260870    0.000000000000       2
   -0.107142857143    0.043478260870    0.000000000000       2
   -0.071428571429    0.043478260870    0.000000000000       2
   -0.035714285714    0.043478260870    0.000000000000       2
    0.000000000000    0.086956521739    0.000000000000       2
    0.035714285714    0.086956521739    0.000000000000       2
    0.071428571429    0.086956521739    0.000000000000       2
    0.107142857143    0.086956521739    0.000000000000       2
    0.142857142857    0.086956521739    0.000000000000       2
    0.178571428571    0.086956521739    0.000000000000       2
    0.214285714286    0.086956521739    0.000000000000       2
    0.250000000000    0.086956521739    0.000000000000       2
    0.285714285714    0.086956521739    0.000000000000       2
    0.321428571429    0.086956521739    0.000000000000       2
    0.357142857143    0.086956521739    0.000000000000       2
    0.392857142857    0.086956521739    0.000000000000       2
    0.428571428571    0.086956521739    0.000000000000       2
    0.464285714286    0.086956521739    0.000000000000       2
    0.500000000000    0.086956521739    0.000000000000       2
   -0.464285714286    0.086956521739    0.000000000000       2
   -0.428571428571    0.086956521739    0.000000000000       2
   -0.392857142857    0.086956521739    0.000000000000       2
   -0.357142857143    0.086956521739    0.000000000000       2
   -0.321428571429    0.086956521739    0.000000000000       2
   -0.285714285714    0.086956521739    0.000000000000       2
   -0.250000000000    0.086956521739    0.000000000000       2
   -0.214285714286    0.086956521739    0.000000000000       2
   -0.178571428571    0.086956521739    0.000000000000       2
   -0.142857142857    0.086956521739    0.000000000000       2
   -0.107142857143    0.086956521739    0.000000000000       2
   -0.071428571429    0.086956521739    0.000000000000       2
   -0.035714285714    0.086956521739    0.000000000000       2
    0.000000000000    0.130434782609    0.000000000000       2
    0.035714285714    0.130434782609    0.000000000000       2
    0.071428571429    0.130434782609    0.000000000000       2
    0.107142857143    0.130434782609    0.000000000000       2
    0.142857142857    0.130434782609    0.000000000000       2
    0.178571428571    0.130434782609    0.000000000000       2
    0.214285714286    0.130434782609    0.000000000000       2
    0.250000000000    0.130434782609    0.000000000000       2
    0.285714285714    0.130434782609    0.000000000000       2
    0.321428571429    0.130434782609    0.000000000000       2
    0.357142857143    0.130434782609    0.000000000000       2
    0.392857142857    0.130434782609    0.000000000000       2
    0.428571428571    0.130434782609    0.000000000000       2
    0.464285714286    0.130434782609    0.000000000000       2
    0.500000000000    0.130434782609    0.000000000000       2
   -0.464285714286    0.130434782609    0.000000000000       2
   -0.428571428571    0.130434782609    0.000000000000       2
   -0.392857142857    0.130434782609    0.000000000000       2
   -0.357142857143    0.130434782609    0.000000000000       2
   -0.321428571429    0.130434782609    0.000000000000       2
   -0.285714285714    0.130434782609    0.000000000000       2
   -0.250000000000    0.130434782609    0.000000000000       2
   -0.214285714286    0.130434782609    0.000000000000       2
   -0.178571428571    0.130434782609    0.000000000000       2
   -0.142857142857    0.130434782609    0.000000000000       2
   -0.107142857143    0.130434782609    0.000000000000       2
   -0.071428571429    0.130434782609    0.000000000000       2
   -0.035714285714    0.130434782609    0.000000000000       2
    0.000000000000    0.173913043478    0.000000000000       2
    0.035714285714    0.173913043478    0.000000000000       2
    0.071428571429    0.173913043478    0.000000000000       2
    0.107142857143    0.173913043478    0.000000000000       2
    0.142857142857    0.173913043478    0.000000000000       2
    0.178571428571    0.173913043478    0.000000000000       2
    0.214285714286    0.173913043478    0.000000000000       2
    0.250000000000    0.173913043478    0.000000000000       2
    0.285714285714    0.173913043478    0.000000000000       2
    0.321428571429    0.173913043478    0.000000000000       2
    0.357142857143    0.173913043478    0.000000000000       2
    0.392857142857    0.173913043478    0.000000000000       2
    0.428571428571    0.173913043478    0.000000000000       2
    0.464285714286    0.173913043478    0.000000000000       2
    0.500000000000    0.173913043478    0.000000000000       2
   -0.464285714286    0.173913043478    0.000000000000       2
   -0.428571428571    0.173913043478    0.000000000000       2
   -0.392857142857    0.173913043478    0.000000000000       2
   -0.357142857143    0.173913043478    0.000000000000       2
   -0.321428571429    0.173913043478    0.000000000000       2
   -0.285714285714    0.173913043478    0.000000000000       2
   -0.250000000000    0.173913043478    0.000000000000       2
   -0.214285714286    0.173913043478    0.000000000000       2
   -0.178571428571    0.173913043478    0.000000000000       2
   -0.142857142857    0.173913043478    0.000000000000       2
   -0.107142857143    0.173913043478    0.000000000000       2
   -0.071428571429    0.173913043478    0.000000000000       2
   -0.035714285714    0.173913043478    0.000000000000       2
    0.000000000000    0.217391304348    0.000000000000       2
    0.035714285714    0.217391304348    0.000000000000       2
    0.071428571429    0.217391304348    0.000000000000       2
    0.107142857143    0.217391304348    0.000000000000       2
    0.142857142857    0.217391304348    0.000000000000       2
    0.178571428571    0.217391304348    0.000000000000       2
    0.214285714286    0.217391304348    0.000000000000       2
    0.250000000000    0.217391304348    0.000000000000       2
    0.285714285714    0.217391304348    0.000000000000       2
    0.321428571429    0.217391304348    0.000000000000       2
    0.357142857143    0.217391304348    0.000000000000       2
    0.392857142857    0.217391304348    0.000000000000       2
    0.428571428571    0.217391304348    0.000000000000       2
    0.464285714286    0.217391304348    0.000000000000       2
    0.500000000000    0.217391304348    0.000000000000       2
   -0.464285714286    0.217391304348    0.000000000000       2
   -0.428571428571    0.217391304348    0.000000000000       2
   -0.392857142857    0.217391304348    0.000000000000       2
   -0.357142857143    0.217391304348    0.000000000000       2
   -0.321428571429    0.217391304348    0.000000000000       2
   -0.285714285714    0.217391304348    0.000000000000       2
   -0.250000000000    0.217391304348    0.000000000000       2
   -0.214285714286    0.217391304348    0.000000000000       2
   -0.178571428571    0.217391304348    0.000000000000       2
   -0.142857142857    0.217391304348    0.000000000000       2
   -0.107142857143    0.217391304348    0.000000000000       2
   -0.071428571429    0.217391304348    0.000000000000       2
   -0.035714285714    0.217391304348    0.000000000000       2
    0.000000000000    0.260869565217    0.000000000000       2
    0.035714285714    0.260869565217    0.000000000000       2
    0.071428571429    0.260869565217    0.000000000000       2
    0.107142857143    0.260869565217    0.000000000000       2
    0.142857142857    0.260869565217    0.000000000000       2
    0.178571428571    0.260869565217    0.000000000000       2
    0.214285714286    0.260869565217    0.000000000000       2
    0.250000000000    0.260869565217    0.000000000000       2
    0.285714285714    0.260869565217    0.000000000000       2
    0.321428571429    0.260869565217    0.000000000000       2
    0.357142857143    0.260869565217    0.000000000000       2
    0.392857142857    0.260869565217    0.000000000000       2
    0.428571428571    0.260869565217    0.000000000000       2
    0.464285714286    0.260869565217    0.000000000000       2
    0.500000000000    0.260869565217    0.000000000000       2
   -0.464285714286    0.260869565217    0.000000000000       2
   -0.428571428571    0.260869565217    0.000000000000       2
   -0.392857142857    0.260869565217    0.000000000000       2
   -0.357142857143    0.260869565217    0.000000000000       2
   -0.321428571429    0.260869565217    0.000000000000       2
   -0.285714285714    0.260869565217    0.000000000000       2
   -0.250000000000    0.260869565217    0.000000000000       2
   -0.214285714286    0.260869565217    0.000000000000       2
   -0.178571428571    0.260869565217    0.000000000000       2
   -0.142857142857    0.260869565217    0.000000000000       2
   -0.107142857143    0.260869565217    0.000000000000       2
   -0.071428571429    0.260869565217    0.000000000000       2
   -0.035714285714    0.260869565217    0.000000000000       2
    0.000000000000    0.304347826087    0.000000000000       2
    0.035714285714    0.304347826087    0.000000000000       2
    0.071428571429    0.304347826087    0.000000000000       2
    0.107142857143    0.304347826087    0.000000000000       2
    0.142857142857    0.304347826087    0.000000000000       2
    0.178571428571    0.304347826087    0.000000000000       2
    0.214285714286    0.304347826087    0.000000000000       2
    0.250000000000    0.304347826087    0.000000000000       2
    0.285714285714    0.304347826087    0.000000000000       2
    0.321428571429    0.304347826087    0.000000000000       2
    0.357142857143    0.304347826087    0.000000000000       2
    0.392857142857    0.304347826087    0.000000000000       2
    0.428571428571    0.304347826087    0.000000000000       2
    0.464285714286    0.304347826087    0.000000000000       2
    0.500000000000    0.304347826087    0.000000000000       2
   -0.464285714286    0.304347826087    0.000000000000       2
   -0.428571428571    0.304347826087    0.000000000000       2
   -0.392857142857    0.304347826087    0.000000000000       2
   -0.357142857143    0.304347826087    0.000000000000       2
   -0.321428571429    0.304347826087    0.000000000000       2
   -0.285714285714    0.304347826087    0.000000000000       2
   -0.250000000000    0.304347826087    0.000000000000       2
   -0.214285714286    0.304347826087    0.000000000000       2
   -0.178571428571    0.304347826087    0.000000000000       2
   -0.142857142857    0.304347826087    0.000000000000       2
   -0.107142857143    0.304347826087    0.000000000000       2
   -0.071428571429    0.304347826087    0.000000000000       2
   -0.035714285714    0.304347826087    0.000000000000       2
    0.000000000000    0.347826086957    0.000000000000       2
    0.035714285714    0.347826086957    0.000000000000       2
    0.071428571429    0.347826086957    0.000000000000       2
    0.107142857143    0.347826086957    0.000000000000       2
    0.142857142857    0.347826086957    0.000000000000       2
    0.178571428571    0.347826086957    0.000000000000       2
    0.214285714286    0.347826086957    0.000000000000       2
    0.250000000000    0.347826086957    0.000000000000       2
    0.285714285714    0.347826086957    0.000000000000       2
    0.321428571429    0.347826086957    0.000000000000       2
    0.357142857143    0.347826086957    0.000000000000       2
    0.392857142857    0.347826086957    0.000000000000       2
    0.428571428571    0.347826086957    0.000000000000       2
    0.464285714286    0.347826086957    0.000000000000       2
    0.500000000000    0.347826086957    0.000000000000       2
   -0.464285714286    0.347826086957    0.000000000000       2
   -0.428571428571    0.347826086957    0.000000000000       2
   -0.392857142857    0.347826086957    0.000000000000       2
   -0.357142857143    0.347826086957    0.000000000000       2
   -0.321428571429    0.347826086957    0.000000000000       2
   -0.285714285714    0.347826086957    0.000000000000       2
   -0.250000000000    0.347826086957    0.000000000000       2
   -0.214285714286    0.347826086957    0.000000000000       2
   -0.178571428571    0.347826086957    0.000000000000       2
   -0.142857142857    0.347826086957    0.000000000000       2
   -0.107142857143    0.347826086957    0.000000000000       2
   -0.071428571429    0.347826086957    0.000000000000       2
   -0.035714285714    0.347826086957    0.000000000000       2
    0.000000000000    0.391304347826    0.000000000000       2
    0.035714285714    0.391304347826    0.000000000000       2
    0.071428571429    0.391304347826    0.000000000000       2
    0.107142857143    0.391304347826    0.000000000000       2
    0.142857142857    0.391304347826    0.000000000000       2
    0.178571428571    0.391304347826    0.000000000000       2
    0.214285714286    0.391304347826    0.000000000000       2
    0.250000000000    0.391304347826    0.000000000000       2
    0.285714285714    0.391304347826    0.000000000000       2
    0.321428571429    0.391304347826    0.000000000000       2
    0.357142857143    0.391304347826    0.000000000000       2
    0.392857142857    0.391304347826    0.000000000000       2
    0.428571428571    0.391304347826    0.000000000000       2
    0.464285714286    0.391304347826    0.000000000000       2
    0.500000000000    0.391304347826    0.000000000000       2
   -0.464285714286    0.391304347826    0.000000000000       2
   -0.428571428571    0.391304347826    0.000000000000       2
   -0.392857142857    0.391304347826    0.000000000000       2
   -0.357142857143    0.391304347826    0.000000000000       2
   -0.321428571429    0.391304347826    0.000000000000       2
   -0.285714285714    0.391304347826    0.000000000000       2
   -0.250000000000    0.391304347826    0.000000000000       2
   -0.214285714286    0.391304347826    0.000000000000       2
   -0.178571428571    0.391304347826    0.000000000000       2
   -0.142857142857    0.391304347826    0.000000000000       2
   -0.107142857143    0.391304347826    0.000000000000       2
   -0.071428571429    0.391304347826    0.000000000000       2
   -0.035714285714    0.391304347826    0.000000000000       2
    0.000000000000    0.434782608696    0.000000000000       2
    0.035714285714    0.434782608696    0.000000000000       2
    0.071428571429    0.434782608696    0.000000000000       2
    0.107142857143    0.434782608696    0.000000000000       2
    0.142857142857    0.434782608696    0.000000000000       2
    0.178571428571    0.434782608696    0.000000000000       2
    0.214285714286    0.434782608696    0.000000000000       2
    0.250000000000    0.434782608696    0.000000000000       2
    0.285714285714    0.434782608696    0.000000000000       2
    0.321428571429    0.434782608696    0.000000000000       2
    0.357142857143    0.434782608696    0.000000000000       2
    0.392857142857    0.434782608696    0.000000000000       2
    0.428571428571    0.434782608696    0.000000000000       2
    0.464285714286    0.434782608696    0.000000000000       2
    0.500000000000    0.434782608696    0.000000000000       2
   -0.464285714286    0.434782608696    0.000000000000       2
   -0.428571428571    0.434782608696    0.000000000000       2
   -0.392857142857    0.434782608696    0.000000000000       2
   -0.357142857143    0.434782608696    0.000000000000       2
   -0.321428571429    0.434782608696    0.000000000000       2
   -0.285714285714    0.434782608696    0.000000000000       2
   -0.250000000000    0.434782608696    0.000000000000       2
   -0.214285714286    0.434782608696    0.000000000000       2
   -0.178571428571    0.434782608696    0.000000000000       2
   -0.142857142857    0.434782608696    0.000000000000       2
   -0.107142857143    0.434782608696    0.000000000000       2
   -0.071428571429    0.434782608696    0.000000000000       2
   -0.035714285714    0.434782608696    0.000000000000       2
    0.000000000000    0.478260869565    0.000000000000       2
    0.035714285714    0.478260869565    0.000000000000       2
    0.071428571429    0.478260869565    0.000000000000       2
    0.107142857143    0.478260869565    0.000000000000       2
    0.142857142857    0.478260869565    0.000000000000       2
    0.178571428571    0.478260869565    0.000000000000       2
    0.214285714286    0.478260869565    0.000000000000       2
    0.250000000000    0.478260869565    0.000000000000       2
    0.285714285714    0.478260869565    0.000000000000       2
    0.321428571429    0.478260869565    0.000000000000       2
    0.357142857143    0.478260869565    0.000000000000       2
    0.392857142857    0.478260869565    0.000000000000       2
    0.428571428571    0.478260869565    0.000000000000       2
    0.464285714286    0.478260869565    0.000000000000       2
    0.500000000000    0.478260869565    0.000000000000       2
   -0.464285714286    0.478260869565    0.000000000000       2
   -0.428571428571    0.478260869565    0.000000000000       2
   -0.392857142857    0.478260869565    0.000000000000       2
   -0.357142857143    0.478260869565    0.000000000000       2
   -0.321428571429    0.478260869565    0.000000000000       2
   -0.285714285714    0.478260869565    0.000000000000       2
   -0.250000000000    0.478260869565    0.000000000000       2
   -0.214285714286    0.478260869565    0.000000000000       2
   -0.178571428571    0.478260869565    0.000000000000       2
   -0.142857142857    0.478260869565    0.000000000000       2
   -0.107142857143    0.478260869565    0.000000000000       2
   -0.071428571429    0.478260869565    0.000000000000       2
   -0.035714285714    0.478260869565    0.000000000000       2
