CONTCAR\(6)                             
   1.00000000000000     
    11.7119998931999998    0.0000000000000000    0.0000000000000000
    -5.1174287261000000   10.4860139793999991    0.0000000000000000
     0.0000000000000000    0.0000000000000000   18.3064994811999995
   Mo   Cl   O 
     8    24     1
Direct
  0.0486414896724541  0.4358679624307680  0.4795621471759227
  0.4398256769681546  0.0682643930911362  0.5101344336068330
  0.6174857413247693  0.4447260533172187  0.5128060173097584
  0.9304939898844102  0.0696182020373473  0.4938275486231424
  0.0682277903582364  0.9439981967433343  0.4953892394648691
  0.4436803485701649  0.5513577646496328  0.5534024497918919
  0.5611514642672463  0.9261299185761431  0.5088406555686790
  0.9063716772520127  0.5709228507324998  0.4928527528632995
  0.0853575206348983  0.0983569834755017  0.5849805435930570
  0.4257322027065481  0.4219183002663634  0.4492280989141486
  0.0538571417866515  0.2448558046094584  0.4113645263543582
  0.2074251876432395  0.4173884399046194  0.5543964255067553
  0.4552317377614747  0.2590184992884274  0.5856413445042772
  0.2612743508292265  0.0914450910175842  0.4332365898481528
  0.5865637470816742  0.0776085481985571  0.6019345585778452
  0.8832967934168211  0.4182494006722485  0.3989981863902576
  0.5899314734883628  0.2504999298530012  0.4396164046120760
  0.7751796503130857  0.4234261032035922  0.5852688463485387
  0.9106338632651397  0.2494175853909730  0.5586051826592818
  0.7320594550130934  0.0580114843605555  0.4267420726651496
  0.0793760572895027  0.5930116026376409  0.5684831444517231
  0.4078276281609992  0.9113817110568805  0.4195864853840749
  0.0673645553207415  0.7556458572595123  0.4238482889201278
  0.2482177284082164  0.9306877096408764  0.5752801048986926
  0.4293645538431872  0.7497139904902850  0.5940559238367163
  0.2066640580806714  0.5661126986189610  0.4010943018904640
  0.6599721414510750  0.6271125098006405  0.5885341810723627
  0.9179800452698692  0.9208681757874572  0.4025953028782075
  0.5459192413456574  0.7320166225084151  0.4461503249475501
  0.7573920658998939  0.9296402000784871  0.5730430069620562
  0.9344334433609238  0.7654274080209212  0.5705749006597742
  0.7414253219754766  0.5941130987414361  0.4206352597732171
  0.4120922423561361  0.4827775695394968  0.6359309849467213
 
  0.00000000E+00  0.00000000E+00  0.00000000E+00
  0.00000000E+00  0.00000000E+00  0.00000000E+00
  0.00000000E+00  0.00000000E+00  0.00000000E+00
  0.00000000E+00  0.00000000E+00  0.00000000E+00
  0.00000000E+00  0.00000000E+00  0.00000000E+00
  0.00000000E+00  0.00000000E+00  0.00000000E+00
  0.00000000E+00  0.00000000E+00  0.00000000E+00
  0.00000000E+00  0.00000000E+00  0.00000000E+00
  0.00000000E+00  0.00000000E+00  0.00000000E+00
  0.00000000E+00  0.00000000E+00  0.00000000E+00
  0.00000000E+00  0.00000000E+00  0.00000000E+00
  0.00000000E+00  0.00000000E+00  0.00000000E+00
  0.00000000E+00  0.00000000E+00  0.00000000E+00
  0.00000000E+00  0.00000000E+00  0.00000000E+00
  0.00000000E+00  0.00000000E+00  0.00000000E+00
  0.00000000E+00  0.00000000E+00  0.00000000E+00
  0.00000000E+00  0.00000000E+00  0.00000000E+00
  0.00000000E+00  0.00000000E+00  0.00000000E+00
  0.00000000E+00  0.00000000E+00  0.00000000E+00
  0.00000000E+00  0.00000000E+00  0.00000000E+00
  0.00000000E+00  0.00000000E+00  0.00000000E+00
  0.00000000E+00  0.00000000E+00  0.00000000E+00
  0.00000000E+00  0.00000000E+00  0.00000000E+00
  0.00000000E+00  0.00000000E+00  0.00000000E+00
  0.00000000E+00  0.00000000E+00  0.00000000E+00
  0.00000000E+00  0.00000000E+00  0.00000000E+00
  0.00000000E+00  0.00000000E+00  0.00000000E+00
  0.00000000E+00  0.00000000E+00  0.00000000E+00
  0.00000000E+00  0.00000000E+00  0.00000000E+00
  0.00000000E+00  0.00000000E+00  0.00000000E+00
  0.00000000E+00  0.00000000E+00  0.00000000E+00
  0.00000000E+00  0.00000000E+00  0.00000000E+00
  0.00000000E+00  0.00000000E+00  0.00000000E+00
