This file is generated by VASPKIT code  
   1.00000000000000     
    11.6057996750000001    0.0000000000000000    0.0000000000000000
     5.8028893088000002   10.0513859330000006    0.0000000000000000
     0.0000000000000000    0.0000000000000000   18.0372009276999989
   Ni   P    S    O 
     8     8    24     8
Direct
  0.1664975869188581  0.1667212962412208  0.5000061874849493
  0.1664975869188581  0.6667212962412208  0.5000061874849493
  0.6664975869188581  0.1667212962412208  0.5000061874849493
  0.6664975869188581  0.6667212962412208  0.5000061874849493
  0.3331954704035738  0.3334901085266679  0.5000100995331422
  0.3331954704035738  0.8334901085266679  0.5000100995331422
  0.8331954704035738  0.3334901085266679  0.5000100995331422
  0.8331954704035738  0.8334901085266679  0.5000100995331422
  0.9995529987860081  0.0002162700765211  0.6096698688730626
  0.9995529987860081  0.5002162700765211  0.6096698688730626
  0.4995529987860081  0.0002162700765211  0.6096698688730626
  0.4995529987860081  0.5002162700765211  0.6096698688730626
  0.0001386472106120  0.9999336403197674  0.3903072809334915
  0.0001386472106120  0.4999336403197674  0.3903072809334915
  0.5001386472106120  0.9999336403197674  0.3903072809334915
  0.5001386472106120  0.4999336403197674  0.3903072809334915
  0.3201029072877688  0.1798317731810144  0.5761208969851594
  0.3201029072877688  0.6798317731810215  0.5761208969851594
  0.8201029072877688  0.1798317731810144  0.5761208969851594
  0.8201029072877688  0.6798317731810215  0.5761208969851594
  0.9999578022812443  0.1796568333748993  0.4238036099928877
  0.9999578022812443  0.6796568333748993  0.4238036099928877
  0.4999578022812443  0.1796568333748993  0.4238036099928877
  0.4999578022812443  0.6796568333748993  0.4238036099928877
  0.3203863263968429  0.0000019197684509  0.4237908085118960
  0.3203863263968429  0.5000019197684509  0.4237908085118960
  0.8203863263968429  0.0000019197684509  0.4237908085118960
  0.8203863263968429  0.5000019197684509  0.4237908085118960
  0.1793586883841769  0.0001023029056739  0.5762506104946254
  0.1793586883841769  0.5001023029056739  0.5762506104946254
  0.6793586883841769  0.0001023029056739  0.5762506104946254
  0.6793586883841769  0.5001023029056739  0.5762506104946254
  0.9998527888792097  0.3204414011480807  0.5761966093957795
  0.9998527888792097  0.8204414011480807  0.5761966093957795
  0.4998527888792097  0.3204414011480807  0.5761966093957795
  0.4998527888792097  0.8204414011480807  0.5761966093957795
  0.1796477967104906  0.3202962756389240  0.4238478635607379
  0.1796477967104906  0.8202962756389240  0.4238478635607379
  0.6796477967104906  0.3202962756389240  0.4238478635607379
  0.6796477967104906  0.8202962756389240  0.4238478635607379
  0.4994455369755570  0.0002346089766121  0.6920178678329663
  0.4994455369755570  0.5002346089766121  0.6920178678329663
  0.9994455369755570  0.0002346089766121  0.6920178678329663
  0.9994455369755570  0.5002346089766121  0.6920178678329663
  0.0002335117656500  0.4998885278421596  0.3079683824012847
  0.0002335117656500  0.9998885278421596  0.3079683824012847
  0.5002335117656500  0.4998885278421596  0.3079683824012847
  0.5002335117656500  0.9998885278421596  0.3079683824012847
 
  0.00000000E+00  0.00000000E+00  0.00000000E+00
  0.00000000E+00  0.00000000E+00  0.00000000E+00
  0.00000000E+00  0.00000000E+00  0.00000000E+00
  0.00000000E+00  0.00000000E+00  0.00000000E+00
  0.00000000E+00  0.00000000E+00  0.00000000E+00
  0.00000000E+00  0.00000000E+00  0.00000000E+00
  0.00000000E+00  0.00000000E+00  0.00000000E+00
  0.00000000E+00  0.00000000E+00  0.00000000E+00
  0.00000000E+00  0.00000000E+00  0.00000000E+00
  0.00000000E+00  0.00000000E+00  0.00000000E+00
  0.00000000E+00  0.00000000E+00  0.00000000E+00
  0.00000000E+00  0.00000000E+00  0.00000000E+00
  0.00000000E+00  0.00000000E+00  0.00000000E+00
  0.00000000E+00  0.00000000E+00  0.00000000E+00
  0.00000000E+00  0.00000000E+00  0.00000000E+00
  0.00000000E+00  0.00000000E+00  0.00000000E+00
  0.00000000E+00  0.00000000E+00  0.00000000E+00
  0.00000000E+00  0.00000000E+00  0.00000000E+00
  0.00000000E+00  0.00000000E+00  0.00000000E+00
  0.00000000E+00  0.00000000E+00  0.00000000E+00
  0.00000000E+00  0.00000000E+00  0.00000000E+00
  0.00000000E+00  0.00000000E+00  0.00000000E+00
  0.00000000E+00  0.00000000E+00  0.00000000E+00
  0.00000000E+00  0.00000000E+00  0.00000000E+00
  0.00000000E+00  0.00000000E+00  0.00000000E+00
  0.00000000E+00  0.00000000E+00  0.00000000E+00
  0.00000000E+00  0.00000000E+00  0.00000000E+00
  0.00000000E+00  0.00000000E+00  0.00000000E+00
  0.00000000E+00  0.00000000E+00  0.00000000E+00
  0.00000000E+00  0.00000000E+00  0.00000000E+00
  0.00000000E+00  0.00000000E+00  0.00000000E+00
  0.00000000E+00  0.00000000E+00  0.00000000E+00
  0.00000000E+00  0.00000000E+00  0.00000000E+00
  0.00000000E+00  0.00000000E+00  0.00000000E+00
  0.00000000E+00  0.00000000E+00  0.00000000E+00
  0.00000000E+00  0.00000000E+00  0.00000000E+00
  0.00000000E+00  0.00000000E+00  0.00000000E+00
  0.00000000E+00  0.00000000E+00  0.00000000E+00
  0.00000000E+00  0.00000000E+00  0.00000000E+00
  0.00000000E+00  0.00000000E+00  0.00000000E+00
  0.00000000E+00  0.00000000E+00  0.00000000E+00
  0.00000000E+00  0.00000000E+00  0.00000000E+00
  0.00000000E+00  0.00000000E+00  0.00000000E+00
  0.00000000E+00  0.00000000E+00  0.00000000E+00
  0.00000000E+00  0.00000000E+00  0.00000000E+00
  0.00000000E+00  0.00000000E+00  0.00000000E+00
  0.00000000E+00  0.00000000E+00  0.00000000E+00
  0.00000000E+00  0.00000000E+00  0.00000000E+00
