CONTCAR                                 
   1.00000000000000     
    10.4815998077000003    0.0000000000000000    0.0000000000000000
     0.0000000000000000   10.4815998077000003    0.0000000000000000
     0.0000000000000000    0.0000000000000000   21.6266002654999987
   Hf   Si   Se   O    H 
    18    18    18     1     1
Direct
  0.1652815132383196  0.9996773097096607  0.6006474699651747
  0.9996634967131541  0.1665303541690477  0.4019247672707067
  0.5011290020692059  0.0018588898485490  0.5991180288156528
  0.3319841847095333  0.1665115501890071  0.4019929489688607
  0.8302610517191695  0.0019552917668477  0.5990201649035569
  0.6657748529365506  0.1665216165435410  0.4011973676081766
  0.1654665037946472  0.3334822994813180  0.6006505750471689
  0.9997706278343088  0.5005362999921985  0.4032044419617620
  0.5012271354083495  0.3311570128783217  0.5990876408160091
  0.3317644847924441  0.5004375179912728  0.4032856500849888
  0.8303156828923548  0.3312404112450338  0.5990243024741631
  0.6658228098132071  0.5003863949889933  0.4019825875740040
  0.1661338410063138  0.6665088877617293  0.6129736772777648
  0.9997447725794615  0.8325550453862789  0.4032026449006878
  0.4990075785976273  0.6663613357583742  0.6006608216897149
  0.3317444249712835  0.8325663960425231  0.4033202996759258
  0.8330267174371144  0.6665949507502447  0.6007611730138578
  0.6658008962226134  0.8326798618051257  0.4020008957960002
  0.9994380966773591  0.9999308164799530  0.5010636072930836
  0.1658306596375212  0.1665344288238089  0.5012213210361622
  0.3321549668001040  0.9998231551054246  0.5011907040700336
  0.4990711707741085  0.1665279948193188  0.5001098756593834
  0.6658388930490844  0.9996965222198213  0.5000609835266800
  0.8326820995331161  0.1665930936345887  0.5000239230829138
  0.9994829828328378  0.3332219138448025  0.5010664956915676
  0.1657053585777533  0.5007415913462623  0.5032417337122652
  0.3321772733541195  0.3331881398847898  0.5011593212540788
  0.4991095617523413  0.5002671561196337  0.5011692453787404
  0.6658724325449512  0.3334335629927025  0.5000477071941702
  0.8325980654647012  0.5003116654198720  0.5011235926653370
  0.0003443343458187  0.6665610663558823  0.5033662518790578
  0.1656491995626297  0.8323355698625861  0.5032838192158167
  0.3309805586160124  0.6665238845172041  0.5036107925782076
  0.4990972720548541  0.8327973610408463  0.5012015130832168
  0.6658436181621497  0.6665346400481198  0.5012892952071013
  0.8325634470744987  0.8328378035971298  0.5011290758634104
  0.9989656358563721  0.1666208704927001  0.6544256650703204
  0.1658852329532365  0.9991384072675160  0.3472467293634764
  0.3323601205032674  0.1664680184502600  0.6545197052198546
  0.4986311816200271  0.9992175242619652  0.3470578699580074
  0.6657315850382162  0.1665610004047835  0.6561123745731905
  0.8330817515351470  0.9994003512083225  0.3470180776248597
  0.9899546698632307  0.4905709497091308  0.6543904301727963
  0.1658752880546501  0.3339002955491779  0.3472411949378085
  0.3410926299456776  0.4907802903795400  0.6546135703067790
  0.4986817161296528  0.3337857001217799  0.3470566716641201
  0.6657622707821247  0.4999569850829815  0.6545569416332953
  0.8330812620780321  0.3337277222679376  0.3470193685093861
  0.9898469956265572  0.8426817971779172  0.6544228463532278
  0.1659754403057576  0.6665475188529513  0.3476961380660697
  0.3408379540870499  0.8419823548757961  0.6546902483225736
  0.4984901087451519  0.6665409426925351  0.3473516026947436
  0.6655331080889013  0.8331885114172124  0.6544881754892415
  0.8331396455363205  0.6665635551336351  0.3472456199806260
  0.1582097159609077  0.6648959098379876  0.7070131464087126
  0.2285640077401183  0.6758294053950493  0.7356697064154432
 
  0.00000000E+00  0.00000000E+00  0.00000000E+00
  0.00000000E+00  0.00000000E+00  0.00000000E+00
  0.00000000E+00  0.00000000E+00  0.00000000E+00
  0.00000000E+00  0.00000000E+00  0.00000000E+00
  0.00000000E+00  0.00000000E+00  0.00000000E+00
  0.00000000E+00  0.00000000E+00  0.00000000E+00
  0.00000000E+00  0.00000000E+00  0.00000000E+00
  0.00000000E+00  0.00000000E+00  0.00000000E+00
  0.00000000E+00  0.00000000E+00  0.00000000E+00
  0.00000000E+00  0.00000000E+00  0.00000000E+00
  0.00000000E+00  0.00000000E+00  0.00000000E+00
  0.00000000E+00  0.00000000E+00  0.00000000E+00
  0.00000000E+00  0.00000000E+00  0.00000000E+00
  0.00000000E+00  0.00000000E+00  0.00000000E+00
  0.00000000E+00  0.00000000E+00  0.00000000E+00
  0.00000000E+00  0.00000000E+00  0.00000000E+00
  0.00000000E+00  0.00000000E+00  0.00000000E+00
  0.00000000E+00  0.00000000E+00  0.00000000E+00
  0.00000000E+00  0.00000000E+00  0.00000000E+00
  0.00000000E+00  0.00000000E+00  0.00000000E+00
  0.00000000E+00  0.00000000E+00  0.00000000E+00
  0.00000000E+00  0.00000000E+00  0.00000000E+00
  0.00000000E+00  0.00000000E+00  0.00000000E+00
  0.00000000E+00  0.00000000E+00  0.00000000E+00
  0.00000000E+00  0.00000000E+00  0.00000000E+00
  0.00000000E+00  0.00000000E+00  0.00000000E+00
  0.00000000E+00  0.00000000E+00  0.00000000E+00
  0.00000000E+00  0.00000000E+00  0.00000000E+00
  0.00000000E+00  0.00000000E+00  0.00000000E+00
  0.00000000E+00  0.00000000E+00  0.00000000E+00
  0.00000000E+00  0.00000000E+00  0.00000000E+00
  0.00000000E+00  0.00000000E+00  0.00000000E+00
  0.00000000E+00  0.00000000E+00  0.00000000E+00
  0.00000000E+00  0.00000000E+00  0.00000000E+00
  0.00000000E+00  0.00000000E+00  0.00000000E+00
  0.00000000E+00  0.00000000E+00  0.00000000E+00
  0.00000000E+00  0.00000000E+00  0.00000000E+00
  0.00000000E+00  0.00000000E+00  0.00000000E+00
  0.00000000E+00  0.00000000E+00  0.00000000E+00
  0.00000000E+00  0.00000000E+00  0.00000000E+00
  0.00000000E+00  0.00000000E+00  0.00000000E+00
  0.00000000E+00  0.00000000E+00  0.00000000E+00
  0.00000000E+00  0.00000000E+00  0.00000000E+00
  0.00000000E+00  0.00000000E+00  0.00000000E+00
  0.00000000E+00  0.00000000E+00  0.00000000E+00
  0.00000000E+00  0.00000000E+00  0.00000000E+00
  0.00000000E+00  0.00000000E+00  0.00000000E+00
  0.00000000E+00  0.00000000E+00  0.00000000E+00
  0.00000000E+00  0.00000000E+00  0.00000000E+00
  0.00000000E+00  0.00000000E+00  0.00000000E+00
  0.00000000E+00  0.00000000E+00  0.00000000E+00
  0.00000000E+00  0.00000000E+00  0.00000000E+00
  0.00000000E+00  0.00000000E+00  0.00000000E+00
  0.00000000E+00  0.00000000E+00  0.00000000E+00
  0.00000000E+00  0.00000000E+00  0.00000000E+00
  0.00000000E+00  0.00000000E+00  0.00000000E+00
