Ge9 Bi6 Te18                            
   1.00000000000000     
     4.3111335888774178   -0.0000000000000001   -0.0000000000000001
    -2.1555667944387089    3.7335512070747670    0.0000000000000002
    -0.0000000000000002   -0.0000000000000012   64.8154525804782367
   Ge   Bi   Te
     9     6    18
Direct
  0.3333333400000029  0.6666666810000024  0.2119311733212919
  0.3333333400000029  0.6666666810000024  0.1242607694995586
 -0.0000000000000000 -0.0000000000000000  0.2685141472462605
  0.0000000000000000  0.0000000000000000  0.5452644823212958
  0.0000000000000000  0.0000000000000000  0.4575940784995625
  0.6666666699999979  0.3333333400000029  0.6018474712462621
  0.6666666699999979  0.3333333400000029  0.8785978353212962
  0.6666666699999979  0.3333333400000029  0.7909274024995642
  0.3333333400000029  0.6666666810000024  0.9351808232462590
  0.6666666699999979  0.3333333400000029  0.3302428192195725
  0.6666666699999979  0.3333333400000029  0.0620658692206680
  0.3333333400000029  0.6666666810000024  0.6635761722195730
  0.3333333400000029  0.6666666810000024  0.3953992072206708
 -0.0000000000000000 -0.0000000000000000  0.9969094672195757
 -0.0000000000000000 -0.0000000000000000  0.7287325302206685
  0.6666666699999979  0.3333333400000029  0.2467329499711290
  0.6666666699999979  0.3333333400000029  0.1458338696115792
  0.3333333400000029  0.6666666810000024  0.3021792539839125
  0.3333333400000029  0.6666666810000024  0.0290736575688220
 -0.0000000000000000 -0.0000000000000000  0.1904257964036850
  0.0000000000000000  0.0000000000000000  0.0897396329535100
  0.3333333400000029  0.6666666810000024  0.5800663029711295
  0.3333333400000029  0.6666666810000024  0.4791672366115807
 -0.0000000000000000 -0.0000000000000000  0.6355125779839139
 -0.0000000000000000 -0.0000000000000000  0.3624069975688249
  0.6666666699999979  0.3333333400000029  0.5237591344036807
  0.6666666699999979  0.3333333400000029  0.4230729709535130
 -0.0000000000000000 -0.0000000000000000  0.9133995979711251
  0.0000000000000000  0.0000000000000000  0.8125005606115826
  0.6666666699999979  0.3333333400000029  0.9688459299839107
  0.6666666699999979  0.3333333400000029  0.6957403215688264
  0.3333333400000029  0.6666666810000024  0.8570924874036812
  0.3333333400000029  0.6666666810000024  0.7564062949535071
 
  0.00000000E+00  0.00000000E+00  0.00000000E+00
  0.00000000E+00  0.00000000E+00  0.00000000E+00
  0.00000000E+00  0.00000000E+00  0.00000000E+00
  0.00000000E+00  0.00000000E+00  0.00000000E+00
  0.00000000E+00  0.00000000E+00  0.00000000E+00
  0.00000000E+00  0.00000000E+00  0.00000000E+00
  0.00000000E+00  0.00000000E+00  0.00000000E+00
  0.00000000E+00  0.00000000E+00  0.00000000E+00
  0.00000000E+00  0.00000000E+00  0.00000000E+00
  0.00000000E+00  0.00000000E+00  0.00000000E+00
  0.00000000E+00  0.00000000E+00  0.00000000E+00
  0.00000000E+00  0.00000000E+00  0.00000000E+00
  0.00000000E+00  0.00000000E+00  0.00000000E+00
  0.00000000E+00  0.00000000E+00  0.00000000E+00
  0.00000000E+00  0.00000000E+00  0.00000000E+00
  0.00000000E+00  0.00000000E+00  0.00000000E+00
  0.00000000E+00  0.00000000E+00  0.00000000E+00
  0.00000000E+00  0.00000000E+00  0.00000000E+00
  0.00000000E+00  0.00000000E+00  0.00000000E+00
  0.00000000E+00  0.00000000E+00  0.00000000E+00
  0.00000000E+00  0.00000000E+00  0.00000000E+00
  0.00000000E+00  0.00000000E+00  0.00000000E+00
  0.00000000E+00  0.00000000E+00  0.00000000E+00
  0.00000000E+00  0.00000000E+00  0.00000000E+00
  0.00000000E+00  0.00000000E+00  0.00000000E+00
  0.00000000E+00  0.00000000E+00  0.00000000E+00
  0.00000000E+00  0.00000000E+00  0.00000000E+00
  0.00000000E+00  0.00000000E+00  0.00000000E+00
  0.00000000E+00  0.00000000E+00  0.00000000E+00
  0.00000000E+00  0.00000000E+00  0.00000000E+00
  0.00000000E+00  0.00000000E+00  0.00000000E+00
  0.00000000E+00  0.00000000E+00  0.00000000E+00
  0.00000000E+00  0.00000000E+00  0.00000000E+00
