CONTCAR\(10)                            
   1.00000000000000     
    14.5429000853999995    0.0000000000000000    0.0000000000000000
     0.0000000000000000   10.6486997603999995    0.0000000000000000
     0.0000000000000000    0.0000000000000000   18.9185009002999998
   Ta   Ni   Te   O 
     8    16    24     1
Direct
  0.0640770915932650  0.7963381983291646  0.5077932390690096
  0.1887240870210947  0.2075364229992990  0.4946127765711717
  0.3140650853984238  0.7959156835734773  0.5082516980874324
  0.4374099012078903  0.2070404109607672  0.4947092484125132
  0.5607416648887225  0.7959668617113599  0.5082042883620830
  0.6861428361048122  0.2075306337075058  0.4945925232620008
  0.8109646381709631  0.7962570829984902  0.5078789612360257
  0.9375203175039378  0.2068268117173021  0.4946078151126711
  0.0663557872945185  0.4092802861625396  0.5019511977017689
  0.1839776869313523  0.5970769477912000  0.4947985715704595
  0.1889015146294782  0.9668825591384520  0.4621987784962788
  0.0631725607734455  0.0383586339975342  0.5402109988733237
  0.3138226929570530  0.4147282620505421  0.5048501909718758
  0.4375089310609184  0.5978704388549431  0.4933612537699282
  0.4373369491148397  0.9660409328526361  0.4616140285887665
  0.3138684373279355  0.0383327249383591  0.5409452769001611
  0.5611395943643285  0.4147042524822446  0.5048032509617243
  0.6913669832609625  0.5966736095256144  0.4948875422270870
  0.6859726637561894  0.9668087238787421  0.4622600629240725
  0.5608723020751446  0.0384770644760508  0.5408306997107861
  0.8088259152221844  0.4091612919407432  0.5020421020189354
  0.9377010287500710  0.5951024271182488  0.5011134582877735
  0.9374603751391108  0.9666091436606620  0.4619661864731208
  0.8117589230700273  0.0383121437847589  0.5401838687274861
  0.1894781064375526  0.7568792388491298  0.3970094892154806
  0.0626231762895297  0.2514596681177522  0.6035761428591576
  0.1922107229266179  0.4138736569604066  0.4081419459935481
  0.0650908736478014  0.5897213959689989  0.5936005293676633
  0.0629907289878804  0.0861693405480655  0.3968773122384992
  0.1885226112444620  0.9172483929225868  0.6058302655162910
  0.4373939977328903  0.7579941437529160  0.3962770165575576
  0.3131653225513537  0.2525129672522944  0.6043682683253154
  0.4374924409696734  0.4145220551469048  0.4092594007155375
  0.3134729838035368  0.5904903895897803  0.5971865388056331
  0.3130158852359731  0.0884723536477150  0.3962151464181643
  0.4374523796038828  0.9141848382980731  0.6069328634253903
  0.6854677334077269  0.7567123747070431  0.3971807133576968
  0.5617300227759972  0.2525565141458127  0.6043798809513664
  0.6829269912572087  0.4138280256583342  0.4081632163991040
  0.5619959984166149  0.5905709029690218  0.5970474120818254
  0.5618109158210157  0.0882166301091850  0.3962274302361080
  0.6862813749459717  0.9174651174538740  0.6057381694098428
  0.9374612945528579  0.7527423707848968  0.3992832524574708
  0.8122880195512275  0.2512692291925470  0.6035705936195557
  0.9375481734002010  0.4143727628341652  0.4108728010844543
  0.8105842262988103  0.5896138035342338  0.5936457947035799
  0.8118613917526526  0.0861997923003545  0.3969232894889176
  0.9374552669640834  0.9169811920795723  0.6051196261100097
  0.4377314038078154  0.5637314085257642  0.6483849723453519
 
  0.00000000E+00  0.00000000E+00  0.00000000E+00
  0.00000000E+00  0.00000000E+00  0.00000000E+00
  0.00000000E+00  0.00000000E+00  0.00000000E+00
  0.00000000E+00  0.00000000E+00  0.00000000E+00
  0.00000000E+00  0.00000000E+00  0.00000000E+00
  0.00000000E+00  0.00000000E+00  0.00000000E+00
  0.00000000E+00  0.00000000E+00  0.00000000E+00
  0.00000000E+00  0.00000000E+00  0.00000000E+00
  0.00000000E+00  0.00000000E+00  0.00000000E+00
  0.00000000E+00  0.00000000E+00  0.00000000E+00
  0.00000000E+00  0.00000000E+00  0.00000000E+00
  0.00000000E+00  0.00000000E+00  0.00000000E+00
  0.00000000E+00  0.00000000E+00  0.00000000E+00
  0.00000000E+00  0.00000000E+00  0.00000000E+00
  0.00000000E+00  0.00000000E+00  0.00000000E+00
  0.00000000E+00  0.00000000E+00  0.00000000E+00
  0.00000000E+00  0.00000000E+00  0.00000000E+00
  0.00000000E+00  0.00000000E+00  0.00000000E+00
  0.00000000E+00  0.00000000E+00  0.00000000E+00
  0.00000000E+00  0.00000000E+00  0.00000000E+00
  0.00000000E+00  0.00000000E+00  0.00000000E+00
  0.00000000E+00  0.00000000E+00  0.00000000E+00
  0.00000000E+00  0.00000000E+00  0.00000000E+00
  0.00000000E+00  0.00000000E+00  0.00000000E+00
  0.00000000E+00  0.00000000E+00  0.00000000E+00
  0.00000000E+00  0.00000000E+00  0.00000000E+00
  0.00000000E+00  0.00000000E+00  0.00000000E+00
  0.00000000E+00  0.00000000E+00  0.00000000E+00
  0.00000000E+00  0.00000000E+00  0.00000000E+00
  0.00000000E+00  0.00000000E+00  0.00000000E+00
  0.00000000E+00  0.00000000E+00  0.00000000E+00
  0.00000000E+00  0.00000000E+00  0.00000000E+00
  0.00000000E+00  0.00000000E+00  0.00000000E+00
  0.00000000E+00  0.00000000E+00  0.00000000E+00
  0.00000000E+00  0.00000000E+00  0.00000000E+00
  0.00000000E+00  0.00000000E+00  0.00000000E+00
  0.00000000E+00  0.00000000E+00  0.00000000E+00
  0.00000000E+00  0.00000000E+00  0.00000000E+00
  0.00000000E+00  0.00000000E+00  0.00000000E+00
  0.00000000E+00  0.00000000E+00  0.00000000E+00
  0.00000000E+00  0.00000000E+00  0.00000000E+00
  0.00000000E+00  0.00000000E+00  0.00000000E+00
  0.00000000E+00  0.00000000E+00  0.00000000E+00
  0.00000000E+00  0.00000000E+00  0.00000000E+00
  0.00000000E+00  0.00000000E+00  0.00000000E+00
  0.00000000E+00  0.00000000E+00  0.00000000E+00
  0.00000000E+00  0.00000000E+00  0.00000000E+00
  0.00000000E+00  0.00000000E+00  0.00000000E+00
  0.00000000E+00  0.00000000E+00  0.00000000E+00
