CONTCAR\(3)                             
   1.00000000000000     
    13.8964004516999999    0.0000000000000000    0.0000000000000000
     0.0991868080000000   15.6682861384999992    0.0000000000000000
     0.0000000000000000    0.0000000000000000   19.4270992279000012
   Ta   Ni   Se   O    H 
    16     8    40     2     1
Direct
  0.0641962729173500  0.1106022749869203  0.4790623982046025
  0.0621100800300471  0.3916305498444713  0.4791651861913834
  0.1869811297058803  0.8914595251664452  0.5166411277088482
  0.1894411887746000  0.6104710690846953  0.5169668318319678
  0.3140666559599696  0.1104879104373301  0.4790924318488943
  0.3121400126474621  0.3918191540109741  0.4791311842636863
  0.4368839868198172  0.8915876025451576  0.5165494360310334
  0.4386402079526963  0.6101476708094198  0.5163364986718084
  0.5640722667472966  0.1104471966121839  0.4790025693666058
  0.5615785257346168  0.3915460988630513  0.4788877136808290
  0.6869123576907654  0.8913395860619358  0.5168414651783042
  0.6887243611856766  0.6104132090648674  0.5169849347574845
  0.8140816433042161  0.1103621453276694  0.4792767935226691
  0.8119520180805099  0.3914447705977256  0.4793537131728444
  0.9370578373946921  0.8914417607198607  0.5167597597367831
  0.9392779669520891  0.6103529126073850  0.5168143134815949
  0.1880390291330130  0.2511204198851059  0.4662797434925982
  0.0631192661182676  0.7509420814575877  0.5295301682210296
  0.4377897597491440  0.2509754247839820  0.4658706101576736
  0.3132709235525274  0.7510121789652702  0.5292322618572394
  0.6881266950089058  0.2510020314546441  0.4663586680577198
  0.5630292996367124  0.7508369149529612  0.5295643755411544
  0.9378999710453145  0.2511429366397652  0.4663649111223342
  0.8133036344121386  0.7507806789523428  0.5296178043775847
  0.1873499658622090  0.1412629015939764  0.3846844557871626
  0.1888819293011225  0.3610674660199623  0.3847134402129413
  0.0638964061217207  0.8610172312198821  0.6110841970020365
  0.0625489461535144  0.6409370459985325  0.6111596257869729
  0.0636124662019358  0.9516802949910907  0.4272142260296347
  0.0627266400173093  0.5503844829539761  0.4272647843583629
  0.1875651554142712  0.0503712415349169  0.5685293773536821
  0.1888387659584902  0.4517899872191176  0.5685956684039076
  0.0631500929562628  0.2510028627556707  0.5499986081018097
  0.1879501753792390  0.7509847594579628  0.4457354812145436
  0.4372648700286560  0.1406437462373482  0.3846218310635758
  0.4386115718109554  0.3610667873932737  0.3843793578720942
  0.3136819196046932  0.8607981615940445  0.6109545051411733
  0.3127546459388015  0.6414069920664750  0.6110300066416476
  0.3135015180749592  0.9518327061207783  0.4270829527606766
  0.3120356368583313  0.5504537881776832  0.4268461924941195
  0.4375642867092377  0.0503141703407790  0.5685844835715850
  0.4387128435807724  0.4516878665380924  0.5681836156353595
  0.3132315893893068  0.2510736912664081  0.5497862645792192
  0.4381566376128651  0.7510776400738816  0.4456756196185632
  0.6874216786705321  0.1410663789698506  0.3847766268851238
  0.6891128869020039  0.3609585397998015  0.3847857285244929
  0.5635370389984780  0.8608750044152292  0.6110987080299604
  0.5613554722710309  0.6405192698205251  0.6110201398042459
  0.5638547277043175  0.9515786120811530  0.4272143262982976
  0.5628726616225680  0.5502926684807904  0.4270570702465777
  0.6874243854495572  0.0502070333649433  0.5686133514431320
  0.6883124612218704  0.4515218189763825  0.5685821735048919
  0.5627938979632827  0.2509004629096237  0.5497509544963873
  0.6880106091586352  0.7507609841207851  0.4459641408778929
  0.9372027157575933  0.1409900400764538  0.3848543616464634
  0.9388215059412768  0.3611548655084715  0.3848739016559424
  0.8137720080247475  0.8608536709074107  0.6111169290101078
  0.8122729838107289  0.6407874982375711  0.6111521923035270
  0.8136772688080836  0.9516400972613475  0.4274139404650584
  0.8123660102775790  0.5502130639106511  0.4275880428434860
  0.9378025171619389  0.0502727444734715  0.5686178020394710
  0.9387978970190507  0.4516904816819149  0.5687237733869359
  0.8130893429145030  0.2507799192525957  0.5501246651931255
  0.9379804715500102  0.7509004336302928  0.4458610701906976
  0.4055822438952902  0.5222224636806212  0.7160884617204455
  0.4411639704162250  0.5236507527258727  0.7812978165933213
  0.5034444749323201  0.5534941783285923  0.7770034177346817
 
  0.00000000E+00  0.00000000E+00  0.00000000E+00
  0.00000000E+00  0.00000000E+00  0.00000000E+00
  0.00000000E+00  0.00000000E+00  0.00000000E+00
  0.00000000E+00  0.00000000E+00  0.00000000E+00
  0.00000000E+00  0.00000000E+00  0.00000000E+00
  0.00000000E+00  0.00000000E+00  0.00000000E+00
  0.00000000E+00  0.00000000E+00  0.00000000E+00
  0.00000000E+00  0.00000000E+00  0.00000000E+00
  0.00000000E+00  0.00000000E+00  0.00000000E+00
  0.00000000E+00  0.00000000E+00  0.00000000E+00
  0.00000000E+00  0.00000000E+00  0.00000000E+00
  0.00000000E+00  0.00000000E+00  0.00000000E+00
  0.00000000E+00  0.00000000E+00  0.00000000E+00
  0.00000000E+00  0.00000000E+00  0.00000000E+00
  0.00000000E+00  0.00000000E+00  0.00000000E+00
  0.00000000E+00  0.00000000E+00  0.00000000E+00
  0.00000000E+00  0.00000000E+00  0.00000000E+00
  0.00000000E+00  0.00000000E+00  0.00000000E+00
  0.00000000E+00  0.00000000E+00  0.00000000E+00
  0.00000000E+00  0.00000000E+00  0.00000000E+00
  0.00000000E+00  0.00000000E+00  0.00000000E+00
  0.00000000E+00  0.00000000E+00  0.00000000E+00
  0.00000000E+00  0.00000000E+00  0.00000000E+00
  0.00000000E+00  0.00000000E+00  0.00000000E+00
  0.00000000E+00  0.00000000E+00  0.00000000E+00
  0.00000000E+00  0.00000000E+00  0.00000000E+00
  0.00000000E+00  0.00000000E+00  0.00000000E+00
  0.00000000E+00  0.00000000E+00  0.00000000E+00
  0.00000000E+00  0.00000000E+00  0.00000000E+00
  0.00000000E+00  0.00000000E+00  0.00000000E+00
  0.00000000E+00  0.00000000E+00  0.00000000E+00
  0.00000000E+00  0.00000000E+00  0.00000000E+00
  0.00000000E+00  0.00000000E+00  0.00000000E+00
  0.00000000E+00  0.00000000E+00  0.00000000E+00
  0.00000000E+00  0.00000000E+00  0.00000000E+00
  0.00000000E+00  0.00000000E+00  0.00000000E+00
  0.00000000E+00  0.00000000E+00  0.00000000E+00
  0.00000000E+00  0.00000000E+00  0.00000000E+00
  0.00000000E+00  0.00000000E+00  0.00000000E+00
  0.00000000E+00  0.00000000E+00  0.00000000E+00
  0.00000000E+00  0.00000000E+00  0.00000000E+00
  0.00000000E+00  0.00000000E+00  0.00000000E+00
  0.00000000E+00  0.00000000E+00  0.00000000E+00
  0.00000000E+00  0.00000000E+00  0.00000000E+00
  0.00000000E+00  0.00000000E+00  0.00000000E+00
  0.00000000E+00  0.00000000E+00  0.00000000E+00
  0.00000000E+00  0.00000000E+00  0.00000000E+00
  0.00000000E+00  0.00000000E+00  0.00000000E+00
  0.00000000E+00  0.00000000E+00  0.00000000E+00
  0.00000000E+00  0.00000000E+00  0.00000000E+00
  0.00000000E+00  0.00000000E+00  0.00000000E+00
  0.00000000E+00  0.00000000E+00  0.00000000E+00
  0.00000000E+00  0.00000000E+00  0.00000000E+00
  0.00000000E+00  0.00000000E+00  0.00000000E+00
  0.00000000E+00  0.00000000E+00  0.00000000E+00
  0.00000000E+00  0.00000000E+00  0.00000000E+00
  0.00000000E+00  0.00000000E+00  0.00000000E+00
  0.00000000E+00  0.00000000E+00  0.00000000E+00
  0.00000000E+00  0.00000000E+00  0.00000000E+00
  0.00000000E+00  0.00000000E+00  0.00000000E+00
  0.00000000E+00  0.00000000E+00  0.00000000E+00
  0.00000000E+00  0.00000000E+00  0.00000000E+00
  0.00000000E+00  0.00000000E+00  0.00000000E+00
  0.00000000E+00  0.00000000E+00  0.00000000E+00
  0.00000000E+00  0.00000000E+00  0.00000000E+00
  0.00000000E+00  0.00000000E+00  0.00000000E+00
  0.00000000E+00  0.00000000E+00  0.00000000E+00
