CONTCAR\(4)                             
   1.00000000000000     
    11.6593999863000004    0.0000000000000000    0.0000000000000000
    -5.8296999931000002   10.0973365810000004    0.0000000000000000
     0.0000000000000000    0.0000000000000000   24.5373001098999985
   Zn   In   S    O    H 
     9    18    36     1     1
Direct
  0.1105506895604183  0.2222580813293542  0.3328087209413220
  0.4430681250553311  0.2224622124548972  0.3327935644430198
  0.7769326010221587  0.2222185964990390  0.3303011337831492
  0.1100043472888932  0.5552785734909332  0.3296751936933343
  0.4431088337455563  0.5541332573600348  0.3324272534158668
  0.7773105468284043  0.5554622084061612  0.3296945499595765
  0.1100428848810220  0.8883177074467461  0.3295812463224936
  0.4430067931322973  0.8882382943132073  0.3302003768926346
  0.7770103085219093  0.8883674631265646  0.3302629648488385
  0.0024047802326008 -0.0000373937356023  0.4872713894042784
  0.2231326815198955  0.1136989044016178  0.6530133738497338
  0.3334370855263900  0.0010348559065334  0.4867495806222492
  0.5548470049516246  0.1109847557077873  0.6496850668398044
  0.6672429978002743 -0.0005564447494868  0.4864005112408272
  0.8886136601031572  0.1110437892112136  0.6498202169180548
  0.0019411161479190  0.3336487954113709  0.4869349324887769
  0.2232465020133755  0.4430413204691108  0.6529584714486939
  0.3345269625270511  0.3336205261238804  0.4945561369482677
  0.5526878796455935  0.4429967258727976  0.6534175459610850
  0.6678956251103967  0.3352557714707238  0.4872729694306435
  0.8886731891090858  0.4446005854975392  0.6502780870597180
  0.0019464023533520  0.6668614141193244  0.4870056452383130
  0.2215041463965013  0.7774260030379454  0.6502555551247925
  0.3329916852348900  0.6647647834869438  0.4869431719349425
  0.5549929081686601  0.7773425625039916  0.6497737202196909
  0.6674022149359532  0.6650338145627801  0.4870682631851732
  0.8887481180312921  0.7776278599867028  0.6502400489585726
  0.2214879932341612  0.1114183980164464  0.3117938950328208
  0.2187646485579730  0.1027450853668914  0.5524939595837385
  0.1158911169870348  0.2237895328762646  0.4382510043132492
  0.0925094966150581  0.2130366608354396  0.7038709909273650
  0.5540197070148913  0.1112410476729348  0.3123452368821334
  0.5563591619766481  0.1112439650884602  0.5510850059408771
  0.4437543915106271  0.2251253309555219  0.4382383873581869
  0.4531389578498015  0.2129233672116573  0.7040942931847479
  0.8886992516127583  0.1111838845306312  0.3119520426838003
  0.8889769121011187  0.1106416137853428  0.5511568481648980
  0.7785354942769918  0.2230043416075146  0.4365407753521106
  0.7771099266967961  0.2220160766628407  0.6952749745755857
  0.2214633727877146  0.4437676824495360  0.3115275010480999
  0.2183154696430405  0.4486844947130318  0.5524490166121523
  0.1112368060964367  0.5555349812718563  0.4355981858226026
  0.1095403378733748  0.5565515459238569  0.6973848481224888
  0.5544900130852324  0.4439138551845739  0.3114337702747656
  0.5647222420439155  0.4487902908691508  0.5528726807418118
  0.4433151150393034  0.5513133275202053  0.4380942339000933
  0.4529188857988579  0.5735603680726353  0.7040895749912230
  0.8879420221288745  0.4439364668603222  0.3100337313317000
  0.8901085074466560  0.4450739195165567  0.5515209539898959
  0.7801140693179954  0.5563872660550323  0.4357079551342555
  0.7800853630819025  0.5568529144684394  0.6974478652226145
  0.2213501575227517  0.7773950294962604  0.3098828576140384
  0.2227891968966587  0.7777672108601691  0.5514650998982806
  0.1113984715898326  0.8878569834597440  0.4356590953261897
  0.1095981342734190  0.8865359883671983  0.6972299103221197
  0.5541671547225978  0.7763866012519580  0.3121873985340867
  0.5560516732677898  0.7775620773630822  0.5511711148122864
  0.4438331188255761  0.8880741933816055  0.4364295232705867
  0.4441060242941990  0.8888005402936895  0.6952561304347730
  0.8879332036473025  0.7775585435549418  0.3099399509051260
  0.8897500045660904  0.7774014508617649  0.5514353884997142
  0.7790743754120939  0.8882277143296960  0.4365202435157384
  0.7772496245429332  0.8886235920339980  0.6953315325278256
  0.3330198627441395  0.3332491873846413  0.6414757828625605
  0.3326902680734896  0.3330303341339609  0.6816184521117091
 
  0.00000000E+00  0.00000000E+00  0.00000000E+00
  0.00000000E+00  0.00000000E+00  0.00000000E+00
  0.00000000E+00  0.00000000E+00  0.00000000E+00
  0.00000000E+00  0.00000000E+00  0.00000000E+00
  0.00000000E+00  0.00000000E+00  0.00000000E+00
  0.00000000E+00  0.00000000E+00  0.00000000E+00
  0.00000000E+00  0.00000000E+00  0.00000000E+00
  0.00000000E+00  0.00000000E+00  0.00000000E+00
  0.00000000E+00  0.00000000E+00  0.00000000E+00
  0.00000000E+00  0.00000000E+00  0.00000000E+00
  0.00000000E+00  0.00000000E+00  0.00000000E+00
  0.00000000E+00  0.00000000E+00  0.00000000E+00
  0.00000000E+00  0.00000000E+00  0.00000000E+00
  0.00000000E+00  0.00000000E+00  0.00000000E+00
  0.00000000E+00  0.00000000E+00  0.00000000E+00
  0.00000000E+00  0.00000000E+00  0.00000000E+00
  0.00000000E+00  0.00000000E+00  0.00000000E+00
  0.00000000E+00  0.00000000E+00  0.00000000E+00
  0.00000000E+00  0.00000000E+00  0.00000000E+00
  0.00000000E+00  0.00000000E+00  0.00000000E+00
  0.00000000E+00  0.00000000E+00  0.00000000E+00
  0.00000000E+00  0.00000000E+00  0.00000000E+00
  0.00000000E+00  0.00000000E+00  0.00000000E+00
  0.00000000E+00  0.00000000E+00  0.00000000E+00
  0.00000000E+00  0.00000000E+00  0.00000000E+00
  0.00000000E+00  0.00000000E+00  0.00000000E+00
  0.00000000E+00  0.00000000E+00  0.00000000E+00
  0.00000000E+00  0.00000000E+00  0.00000000E+00
  0.00000000E+00  0.00000000E+00  0.00000000E+00
  0.00000000E+00  0.00000000E+00  0.00000000E+00
  0.00000000E+00  0.00000000E+00  0.00000000E+00
  0.00000000E+00  0.00000000E+00  0.00000000E+00
  0.00000000E+00  0.00000000E+00  0.00000000E+00
  0.00000000E+00  0.00000000E+00  0.00000000E+00
  0.00000000E+00  0.00000000E+00  0.00000000E+00
  0.00000000E+00  0.00000000E+00  0.00000000E+00
  0.00000000E+00  0.00000000E+00  0.00000000E+00
  0.00000000E+00  0.00000000E+00  0.00000000E+00
  0.00000000E+00  0.00000000E+00  0.00000000E+00
  0.00000000E+00  0.00000000E+00  0.00000000E+00
  0.00000000E+00  0.00000000E+00  0.00000000E+00
  0.00000000E+00  0.00000000E+00  0.00000000E+00
  0.00000000E+00  0.00000000E+00  0.00000000E+00
  0.00000000E+00  0.00000000E+00  0.00000000E+00
  0.00000000E+00  0.00000000E+00  0.00000000E+00
  0.00000000E+00  0.00000000E+00  0.00000000E+00
  0.00000000E+00  0.00000000E+00  0.00000000E+00
  0.00000000E+00  0.00000000E+00  0.00000000E+00
  0.00000000E+00  0.00000000E+00  0.00000000E+00
  0.00000000E+00  0.00000000E+00  0.00000000E+00
  0.00000000E+00  0.00000000E+00  0.00000000E+00
  0.00000000E+00  0.00000000E+00  0.00000000E+00
  0.00000000E+00  0.00000000E+00  0.00000000E+00
  0.00000000E+00  0.00000000E+00  0.00000000E+00
  0.00000000E+00  0.00000000E+00  0.00000000E+00
  0.00000000E+00  0.00000000E+00  0.00000000E+00
  0.00000000E+00  0.00000000E+00  0.00000000E+00
  0.00000000E+00  0.00000000E+00  0.00000000E+00
  0.00000000E+00  0.00000000E+00  0.00000000E+00
  0.00000000E+00  0.00000000E+00  0.00000000E+00
  0.00000000E+00  0.00000000E+00  0.00000000E+00
  0.00000000E+00  0.00000000E+00  0.00000000E+00
  0.00000000E+00  0.00000000E+00  0.00000000E+00
  0.00000000E+00  0.00000000E+00  0.00000000E+00
  0.00000000E+00  0.00000000E+00  0.00000000E+00
