CONTCAR                                 
   1.00000000000000     
    11.5721998214999999    0.0000000000000000    0.0000000000000000
     0.0000000000000000   11.5721998214999999    0.0000000000000000
     0.0000000000000000    0.0000000000000000   18.7880992888999998
   Nd   I 
     9    18
Direct
  0.0000000000000000  0.0000000000000000  0.5000000000000000
  0.3333299960000033  0.0000000000000000  0.5000000000000000
  0.6666700039999967  0.0000000000000000  0.5000000000000000
  0.0000000000000000  0.3333299960000033  0.5000000000000000
  0.3333299960000033  0.3333299960000033  0.5000000000000000
  0.6666700039999967  0.3333299960000033  0.5000000000000000
  0.0000000000000000  0.6666700039999967  0.5000000000000000
  0.3333299960000033  0.6666700039999967  0.5000000000000000
  0.6666700039999967  0.6666700039999967  0.5000000000000000
  0.1666699940000029  0.1666699940000029  0.3992600030000020
  0.1666699940000029  0.1666699940000029  0.6007400230000002
  0.5000000000000000  0.1666699940000029  0.3992600030000020
  0.5000000000000000  0.1666699940000029  0.6007400230000002
  0.8333299960000033  0.1666699940000029  0.3992600030000020
  0.8333299960000033  0.1666699940000029  0.6007400230000002
  0.1666699940000029  0.5000000000000000  0.3992600030000020
  0.1666699940000029  0.5000000000000000  0.6007400230000002
  0.5000000000000000  0.5000000000000000  0.3992600030000020
  0.5000000000000000  0.5000000000000000  0.6007400230000002
  0.8333299960000033  0.5000000000000000  0.3992600030000020
  0.8333299960000033  0.5000000000000000  0.6007400230000002
  0.1666699940000029  0.8333299960000033  0.3992600030000020
  0.1666699940000029  0.8333299960000033  0.6007400230000002
  0.5000000000000000  0.8333299960000033  0.3992600030000020
  0.5000000000000000  0.8333299960000033  0.6007400230000002
  0.8333299960000033  0.8333299960000033  0.3992600030000020
  0.8333299960000033  0.8333299960000033  0.6007400230000002
 
  0.00000000E+00  0.00000000E+00  0.00000000E+00
  0.00000000E+00  0.00000000E+00  0.00000000E+00
  0.00000000E+00  0.00000000E+00  0.00000000E+00
  0.00000000E+00  0.00000000E+00  0.00000000E+00
  0.00000000E+00  0.00000000E+00  0.00000000E+00
  0.00000000E+00  0.00000000E+00  0.00000000E+00
  0.00000000E+00  0.00000000E+00  0.00000000E+00
  0.00000000E+00  0.00000000E+00  0.00000000E+00
  0.00000000E+00  0.00000000E+00  0.00000000E+00
  0.00000000E+00  0.00000000E+00  0.00000000E+00
  0.00000000E+00  0.00000000E+00  0.00000000E+00
  0.00000000E+00  0.00000000E+00  0.00000000E+00
  0.00000000E+00  0.00000000E+00  0.00000000E+00
  0.00000000E+00  0.00000000E+00  0.00000000E+00
  0.00000000E+00  0.00000000E+00  0.00000000E+00
  0.00000000E+00  0.00000000E+00  0.00000000E+00
  0.00000000E+00  0.00000000E+00  0.00000000E+00
  0.00000000E+00  0.00000000E+00  0.00000000E+00
  0.00000000E+00  0.00000000E+00  0.00000000E+00
  0.00000000E+00  0.00000000E+00  0.00000000E+00
  0.00000000E+00  0.00000000E+00  0.00000000E+00
  0.00000000E+00  0.00000000E+00  0.00000000E+00
  0.00000000E+00  0.00000000E+00  0.00000000E+00
  0.00000000E+00  0.00000000E+00  0.00000000E+00
  0.00000000E+00  0.00000000E+00  0.00000000E+00
  0.00000000E+00  0.00000000E+00  0.00000000E+00
  0.00000000E+00  0.00000000E+00  0.00000000E+00
