CONTCAR\(3)                             
   1.00000000000000     
    13.1708002089999994    0.0000000000000000    0.0000000000000000
     0.0000000000000000   13.1618003844999993    0.0000000000000000
     0.0000000000000000    0.0000000000000000   24.0960006713999988
   Ce   Te   O    H 
    18    54     2     1
Selective dynamics
Direct
  0.3043794149551502  0.1680778645454524  0.4120088659630667   F   F   F
  0.1378643099204169  0.0010842289942872  0.5863576651604632   F   F   F
  0.6377584985064786  0.1681570640086747  0.4117591539552379   F   F   F
  0.4714168999130024  0.0007529516286908  0.5864471795415085   F   F   F
  0.9710757300730108  0.1680247691244148  0.4119082605198940   F   F   F
  0.8046625548827393  0.0010215789418524  0.5863994144017539   F   F   F
  0.3042122737289006  0.5013211513677334  0.4118524561968187   F   F   F
  0.1380414557758414  0.3347460928590564  0.5865045441797747   F   F   F
  0.6376200881858765  0.5016760289486584  0.4119732045114262   F   F   F
  0.4712336560627222  0.3340055058317120  0.5859000795516565   F   F   F
  0.9710494682027289  0.5016665521230692  0.4119584906144240   F   F   F
  0.8045033792146796  0.3347228893917205  0.5864890395979145   F   F   F
  0.3043904991572575  0.8349146034867587  0.4117606025904692   F   F   F
  0.1381233988129438  0.6678762905658360  0.5863187391259217   F   F   F
  0.6375870371013050  0.8345975725275210  0.4118144983837979   F   F   F
  0.4711609185291721  0.6681829231177687  0.5861704075924408   F   F   F
  0.9710367387347532  0.8346370098402645  0.4118574689384431   F   F   F
  0.8045366229172473  0.6679168327187099  0.5865328956314073   F   F   F
  0.3040950521293198  0.0017296817347869  0.3091882298087967   F   F   F
  0.1376786562638017  0.1684532987650869  0.3095635294236843   F   F   F
  0.1376608906245238  0.0015805845335635  0.4501978198254974   F   F   F
  0.1381970634469241  0.1681838501884698  0.6889901119522293   F   F   F
  0.3049655015431725  0.0010311052514709  0.6887256180053001   F   F   F
  0.3045159199294716  0.1675958791041978  0.5480184793067266   F   F   F
  0.6377389196101788  0.0016035921218034  0.3093055069284105   F   F   F
  0.4709902238887267  0.1683194185838204  0.3094763168876611   F   F   F
  0.4712072833286811  0.0016001811490227  0.4502080736203595   F   F   F
  0.4712764842519164  0.1679282617980959  0.6890662732208810   F   F   F
  0.6375764260021910  0.0008641104741969  0.6890921174991433   F   F   F
  0.6381530899062327  0.1678040358712067  0.5476988755113084   F   F   F
  0.9708200494515538  0.0015694108253399  0.3094143955365851   F   F   F
  0.8043617291737490  0.1682042731294189  0.3096923206248903   F   F   F
  0.8042577012722560  0.0019316919585179  0.4501218289382010   F   F   F
  0.8041626798725190  0.1679116407763388  0.6889056491622085   F   F   F
  0.9712621415326055  0.0012577644371206  0.6891673745136870   F   F   F
  0.9711324707129094  0.1680837245295805  0.5478171908928573   F   F   F
  0.3043021625753966  0.3349492994919245  0.3093527556013598   F   F   F
  0.1376005191638043  0.5014304473817290  0.3092662450993586   F   F   F
  0.1373421054708430  0.3344510486327010  0.4503014320301162   F   F   F
  0.1382479815550326  0.5017927270355997  0.6892660079042372   F   F   F
  0.3048458640887972  0.3351302577418238  0.6891853314178746   F   F   F
  0.3047220553066907  0.5011208204883602  0.5478908878934377   F   F   F
  0.6376209322423634  0.3348757793634363  0.3094717558692466   F   F   F
  0.4706374311059704  0.5013258543438610  0.3092136832041703   F   F   F
  0.4713922757940523  0.3342219600164711  0.4500744032726729   F   F   F
  0.4714603239180022  0.5018568707283819  0.6882702266191387   F   F   F
  0.6372472127210358  0.3348892419347465  0.6890242086269254   F   F   F
  0.6378718475075615  0.5011863429324492  0.5480584648861679   F   F   F
  0.9710011456208747  0.3346340449167471  0.3095901135463350   F   F   F
  0.8039602826098786  0.5017478735482257  0.3093946603559061   F   F   F
  0.8045247841964169  0.3344861113109587  0.4503592410304691   F   F   F
  0.8043690391775442  0.5015301810376300  0.6890621315674750   F   F   F
  0.9711987433823452  0.3344569188989581  0.6890338904744269   F   F   F
  0.9712159291076219  0.5013120513212925  0.5481024148309359   F   F   F
  0.3042902215075358  0.6679686752048823  0.3091853201863941   F   F   F
  0.1376414805212676  0.8348744125097980  0.3091998618092546   F   F   F
  0.1378935293821897  0.6681028453019167  0.4501502626287106   F   F   F
  0.1380801170658685  0.8343902201742637  0.6888719524884692   F   F   F
  0.3045294924821889  0.6677031562728857  0.6888854021020734   F   F   F
  0.3045768147505754  0.8348339019320434  0.5477036091086447   F   F   F
  0.6374142327121675  0.6681723099386758  0.3090869632892037   F   F   F
  0.4709948797194556  0.8345341057139990  0.3091933153422417   F   F   F
  0.4708055075111162  0.6680887483430595  0.4500943164511853   F   F   F
  0.4711014993678759  0.8331846395507867  0.6892853156725423   F   F   F
  0.6380923401107452  0.6680065177827217  0.6890702229171168   F   F   F
  0.6381506160393116  0.8345090816968863  0.5478878787960539   F   F   F
  0.9708589870790689  0.6682371461228129  0.3093270749575794   F   F   F
  0.8043280301740197  0.8350184432696963  0.3092759883979639   F   F   F
  0.8043041742200074  0.6680710759853810  0.4503016768554104   F   F   F
  0.8046315351518700  0.8346709999623769  0.6890802853132456   F   F   F
  0.9714043219506863  0.6680071573518589  0.6892593276531969   F   F   F
  0.9711802888379282  0.8344397168755435  0.5478753742928504   F   F   F
  0.3999026853097760  0.5799469274503153  0.8279211867639660   T   T   T
  0.4848151022038252  0.5912511987202222  0.7948082223727724   T   T   T
  0.4175477047432921  0.5223162364604264  0.8515933773131374   T   T   T
 
  0.00000000E+00  0.00000000E+00  0.00000000E+00
  0.00000000E+00  0.00000000E+00  0.00000000E+00
  0.00000000E+00  0.00000000E+00  0.00000000E+00
  0.00000000E+00  0.00000000E+00  0.00000000E+00
  0.00000000E+00  0.00000000E+00  0.00000000E+00
  0.00000000E+00  0.00000000E+00  0.00000000E+00
  0.00000000E+00  0.00000000E+00  0.00000000E+00
  0.00000000E+00  0.00000000E+00  0.00000000E+00
  0.00000000E+00  0.00000000E+00  0.00000000E+00
  0.00000000E+00  0.00000000E+00  0.00000000E+00
  0.00000000E+00  0.00000000E+00  0.00000000E+00
  0.00000000E+00  0.00000000E+00  0.00000000E+00
  0.00000000E+00  0.00000000E+00  0.00000000E+00
  0.00000000E+00  0.00000000E+00  0.00000000E+00
  0.00000000E+00  0.00000000E+00  0.00000000E+00
  0.00000000E+00  0.00000000E+00  0.00000000E+00
  0.00000000E+00  0.00000000E+00  0.00000000E+00
  0.00000000E+00  0.00000000E+00  0.00000000E+00
  0.00000000E+00  0.00000000E+00  0.00000000E+00
  0.00000000E+00  0.00000000E+00  0.00000000E+00
  0.00000000E+00  0.00000000E+00  0.00000000E+00
  0.00000000E+00  0.00000000E+00  0.00000000E+00
  0.00000000E+00  0.00000000E+00  0.00000000E+00
  0.00000000E+00  0.00000000E+00  0.00000000E+00
  0.00000000E+00  0.00000000E+00  0.00000000E+00
  0.00000000E+00  0.00000000E+00  0.00000000E+00
  0.00000000E+00  0.00000000E+00  0.00000000E+00
  0.00000000E+00  0.00000000E+00  0.00000000E+00
  0.00000000E+00  0.00000000E+00  0.00000000E+00
  0.00000000E+00  0.00000000E+00  0.00000000E+00
  0.00000000E+00  0.00000000E+00  0.00000000E+00
  0.00000000E+00  0.00000000E+00  0.00000000E+00
  0.00000000E+00  0.00000000E+00  0.00000000E+00
  0.00000000E+00  0.00000000E+00  0.00000000E+00
  0.00000000E+00  0.00000000E+00  0.00000000E+00
  0.00000000E+00  0.00000000E+00  0.00000000E+00
  0.00000000E+00  0.00000000E+00  0.00000000E+00
  0.00000000E+00  0.00000000E+00  0.00000000E+00
  0.00000000E+00  0.00000000E+00  0.00000000E+00
  0.00000000E+00  0.00000000E+00  0.00000000E+00
  0.00000000E+00  0.00000000E+00  0.00000000E+00
  0.00000000E+00  0.00000000E+00  0.00000000E+00
  0.00000000E+00  0.00000000E+00  0.00000000E+00
  0.00000000E+00  0.00000000E+00  0.00000000E+00
  0.00000000E+00  0.00000000E+00  0.00000000E+00
  0.00000000E+00  0.00000000E+00  0.00000000E+00
  0.00000000E+00  0.00000000E+00  0.00000000E+00
  0.00000000E+00  0.00000000E+00  0.00000000E+00
  0.00000000E+00  0.00000000E+00  0.00000000E+00
  0.00000000E+00  0.00000000E+00  0.00000000E+00
  0.00000000E+00  0.00000000E+00  0.00000000E+00
  0.00000000E+00  0.00000000E+00  0.00000000E+00
  0.00000000E+00  0.00000000E+00  0.00000000E+00
  0.00000000E+00  0.00000000E+00  0.00000000E+00
  0.00000000E+00  0.00000000E+00  0.00000000E+00
  0.00000000E+00  0.00000000E+00  0.00000000E+00
  0.00000000E+00  0.00000000E+00  0.00000000E+00
  0.00000000E+00  0.00000000E+00  0.00000000E+00
  0.00000000E+00  0.00000000E+00  0.00000000E+00
  0.00000000E+00  0.00000000E+00  0.00000000E+00
  0.00000000E+00  0.00000000E+00  0.00000000E+00
  0.00000000E+00  0.00000000E+00  0.00000000E+00
  0.00000000E+00  0.00000000E+00  0.00000000E+00
  0.00000000E+00  0.00000000E+00  0.00000000E+00
  0.00000000E+00  0.00000000E+00  0.00000000E+00
  0.00000000E+00  0.00000000E+00  0.00000000E+00
  0.00000000E+00  0.00000000E+00  0.00000000E+00
  0.00000000E+00  0.00000000E+00  0.00000000E+00
  0.00000000E+00  0.00000000E+00  0.00000000E+00
  0.00000000E+00  0.00000000E+00  0.00000000E+00
  0.00000000E+00  0.00000000E+00  0.00000000E+00
  0.00000000E+00  0.00000000E+00  0.00000000E+00
  0.00000000E+00  0.00000000E+00  0.00000000E+00
  0.00000000E+00  0.00000000E+00  0.00000000E+00
  0.00000000E+00  0.00000000E+00  0.00000000E+00
