CONTCAR\(2)                             
   1.00000000000000     
    13.5039997101000004    0.0000000000000000    0.0000000000000000
    -1.6652898762999999    9.0626697148000002    0.0000000000000000
     0.0000000000000000    0.0000000000000000   22.9836997986000000
   Tl   Cu   Se   O 
     6     9    18    55
Direct
  0.3072822292624121  0.9310543612052340  0.6747540711692426
  0.2378981516651272  0.5693266822510782  0.3658816676904908
  0.6305270545772822  0.9097934702079047  0.6362893167084513
  0.5718712150285159  0.5722124657027999  0.3658125330590198
  0.9667555730585313  0.9225973388395537  0.6353622942528905
  0.9048141735693398  0.5762727215711521  0.3628394976828488
  0.0304380579913934  0.2957982183828807  0.4463152881357249
  0.1626426158049715  0.1862128116625260  0.5441510672439941
  0.0998561061577082  0.7475950749954919  0.4999052770490762
  0.3669673379273864  0.2925816411227943  0.4508787140499586
  0.4901671231496326  0.1827178410988778  0.5542836556115867
  0.4302985714156869  0.7422937101811133  0.5003695300056977
  0.7038835461313463  0.2964947951528797  0.4462127889661328
  0.8250810122123716  0.1946462390391387  0.5537657261614188
  0.7657022176802365  0.7433322469521108  0.4992386825320088
  0.2343759216078090  0.5153266317128790  0.5108695173964221
  0.1181604097762186  0.8397210401855335  0.3557187173548783
  0.0919550948520730  0.6644483789020560  0.6434427634274764
  0.3303196390867399  0.2681437743210026  0.6503020999718067
  0.2018983032720543  0.2371211484624268  0.3423252942036925
  0.2913900043364390  0.9646503701052916  0.4915441383537752
  0.5703847868912670  0.5154101188144293  0.5114633758447318
  0.4501553760372641  0.8384017206635966  0.3572939586989070
  0.4162996460895077  0.6451055640384473  0.6434341648772310
  0.6591179683394863  0.2436543691296547  0.6601794287582115
  0.5307674070556916  0.2395074340484346  0.3431507987723144
  0.6237118704738104  0.9699960010470983  0.4920584198285544
  0.9072081322014566  0.5188849521035948  0.5073958991486666
  0.7821521303951805  0.8428725567635245  0.3559332939468877
  0.7559310407636949  0.6479363895617785  0.6429641783806128
 -0.0001567321139499  0.2563360972064359  0.6554559371130858
  0.8625324067211751  0.2424101850174893  0.3398411067634384
  0.9552002735443496  0.9702083826190859  0.4893311360377214
  0.1318052759919998  0.3679295193112636  0.5088146473957993
  0.2514934330023995  0.1675936011142561  0.6978867050208845
  0.0036751085663565  0.8468936961272222  0.5342588065240830
  0.0893044624839919  0.8565700342762924  0.4283219316978707
  0.0578101210986740  0.1166092886936730  0.4855844878092590
  0.2778634863604844  0.3784085448910134  0.3072919869271610
  0.1299717227735848  0.3537248601945810  0.3765258128274476
  0.3101534739444499  0.4734430298366011  0.4529699549832750
  0.1899821842547487  0.6396370666437091  0.4641662650649035
  0.2663550700713178  0.3081109922095697  0.5883755408379239
  0.2941051176778339  0.6619850241255789  0.6506356443067939
  0.2687869443088528  0.1760770140983792  0.3987079230009073
  0.1350186864730951  0.8512485875852177  0.6526471941360175
  0.2418073358839868  0.8127131034596803  0.3524388624679359
  0.0697512578510388  0.6562065483205486  0.3388116518150759
  0.1071898153880615  0.6316883592735149  0.5695397082407239
  0.0674298093450936  0.1412605811616611  0.6175332550964063
  0.2133626093519816  0.0056617561157383  0.5461538574782042
  0.4713872587024694  0.3649929161434147  0.5111698614166061
  0.5874874855551732  0.0996943280696570  0.6955989051944533
  0.3383453756604490  0.8415988048205059  0.5364992306730705
  0.4267513520954799  0.8585225286621806  0.4307434225182414
  0.3934893024100584  0.1153781094864204  0.4918203270355495
  0.6038881735046313  0.3798769075147516  0.3059880610230052
  0.4645915900900610  0.3573524251879323  0.3809869923064256
  0.6455580729878274  0.4788197753972405  0.4526928739969892
  0.5231707976616032  0.6398332701217900  0.4656993052739251
  0.5879574396052891  0.3014349961460185  0.6050823988851588
  0.6309665773150845  0.6655316959094718  0.6483589720278923
  0.6034074459826740  0.1773059373200387  0.3966112378492096
  0.4674874101439531  0.8286065507915252  0.6593053201658454
  0.5742111269582528  0.8154886915347445  0.3516778817424521
  0.4035339577907786  0.6534175060344912  0.3425434159636546
  0.4405068781985257  0.6280919049258241  0.5686402326379939
  0.3895267235193518  0.1213775622418974  0.6260825496783478
  0.5493945286410414  0.0041021989825266  0.5510753180638693
  0.8075059291505802  0.3693628412370075  0.5066192059035093
  0.9288094336594707  0.1140329755588442  0.6928943035899326
  0.6731039446567313  0.8448772664208873  0.5358591471918868
  0.7560031226160576  0.8599418581361085  0.4291435830169911
  0.7219161157746338  0.1213059242876832  0.4932871436534165
  0.9389595286226974  0.3828023312985123  0.3045316562395273
  0.7944245934396380  0.3621890898106964  0.3757737435718685
  0.9797464583232598  0.4797620223162806  0.4477404532135661
  0.8592269080013315  0.6433363499978754  0.4626788231293891
  0.9245081208722997  0.3153960716027828  0.6025051210968184
  0.9661490228212178  0.6815844832980076  0.6501569171452579
  0.9296918625403876  0.1788794085921722  0.3953789912193390
  0.7995364629514836  0.8346030920989005  0.6569671618694141
  0.9064095132485679  0.8201639033362197  0.3508336858014733
  0.7361096947050223  0.6573385072909482  0.3405363493053767
  0.7780648299085847  0.6278122759946941  0.5692024277584212
  0.7321148831548717  0.1304737673821998  0.6238719473591237
  0.8853087423889292  0.0149060811735162  0.5483863890740295
  0.2910747015513827  0.8269795763694415  0.7564079485803321
 
  0.00000000E+00  0.00000000E+00  0.00000000E+00
  0.00000000E+00  0.00000000E+00  0.00000000E+00
  0.00000000E+00  0.00000000E+00  0.00000000E+00
  0.00000000E+00  0.00000000E+00  0.00000000E+00
  0.00000000E+00  0.00000000E+00  0.00000000E+00
  0.00000000E+00  0.00000000E+00  0.00000000E+00
  0.00000000E+00  0.00000000E+00  0.00000000E+00
  0.00000000E+00  0.00000000E+00  0.00000000E+00
  0.00000000E+00  0.00000000E+00  0.00000000E+00
  0.00000000E+00  0.00000000E+00  0.00000000E+00
  0.00000000E+00  0.00000000E+00  0.00000000E+00
  0.00000000E+00  0.00000000E+00  0.00000000E+00
  0.00000000E+00  0.00000000E+00  0.00000000E+00
  0.00000000E+00  0.00000000E+00  0.00000000E+00
  0.00000000E+00  0.00000000E+00  0.00000000E+00
  0.00000000E+00  0.00000000E+00  0.00000000E+00
  0.00000000E+00  0.00000000E+00  0.00000000E+00
  0.00000000E+00  0.00000000E+00  0.00000000E+00
  0.00000000E+00  0.00000000E+00  0.00000000E+00
  0.00000000E+00  0.00000000E+00  0.00000000E+00
  0.00000000E+00  0.00000000E+00  0.00000000E+00
  0.00000000E+00  0.00000000E+00  0.00000000E+00
  0.00000000E+00  0.00000000E+00  0.00000000E+00
  0.00000000E+00  0.00000000E+00  0.00000000E+00
  0.00000000E+00  0.00000000E+00  0.00000000E+00
  0.00000000E+00  0.00000000E+00  0.00000000E+00
  0.00000000E+00  0.00000000E+00  0.00000000E+00
  0.00000000E+00  0.00000000E+00  0.00000000E+00
  0.00000000E+00  0.00000000E+00  0.00000000E+00
  0.00000000E+00  0.00000000E+00  0.00000000E+00
  0.00000000E+00  0.00000000E+00  0.00000000E+00
  0.00000000E+00  0.00000000E+00  0.00000000E+00
  0.00000000E+00  0.00000000E+00  0.00000000E+00
  0.00000000E+00  0.00000000E+00  0.00000000E+00
  0.00000000E+00  0.00000000E+00  0.00000000E+00
  0.00000000E+00  0.00000000E+00  0.00000000E+00
  0.00000000E+00  0.00000000E+00  0.00000000E+00
  0.00000000E+00  0.00000000E+00  0.00000000E+00
  0.00000000E+00  0.00000000E+00  0.00000000E+00
  0.00000000E+00  0.00000000E+00  0.00000000E+00
  0.00000000E+00  0.00000000E+00  0.00000000E+00
  0.00000000E+00  0.00000000E+00  0.00000000E+00
  0.00000000E+00  0.00000000E+00  0.00000000E+00
  0.00000000E+00  0.00000000E+00  0.00000000E+00
  0.00000000E+00  0.00000000E+00  0.00000000E+00
  0.00000000E+00  0.00000000E+00  0.00000000E+00
  0.00000000E+00  0.00000000E+00  0.00000000E+00
  0.00000000E+00  0.00000000E+00  0.00000000E+00
  0.00000000E+00  0.00000000E+00  0.00000000E+00
  0.00000000E+00  0.00000000E+00  0.00000000E+00
  0.00000000E+00  0.00000000E+00  0.00000000E+00
  0.00000000E+00  0.00000000E+00  0.00000000E+00
  0.00000000E+00  0.00000000E+00  0.00000000E+00
  0.00000000E+00  0.00000000E+00  0.00000000E+00
  0.00000000E+00  0.00000000E+00  0.00000000E+00
  0.00000000E+00  0.00000000E+00  0.00000000E+00
  0.00000000E+00  0.00000000E+00  0.00000000E+00
  0.00000000E+00  0.00000000E+00  0.00000000E+00
  0.00000000E+00  0.00000000E+00  0.00000000E+00
  0.00000000E+00  0.00000000E+00  0.00000000E+00
  0.00000000E+00  0.00000000E+00  0.00000000E+00
  0.00000000E+00  0.00000000E+00  0.00000000E+00
  0.00000000E+00  0.00000000E+00  0.00000000E+00
  0.00000000E+00  0.00000000E+00  0.00000000E+00
  0.00000000E+00  0.00000000E+00  0.00000000E+00
  0.00000000E+00  0.00000000E+00  0.00000000E+00
  0.00000000E+00  0.00000000E+00  0.00000000E+00
  0.00000000E+00  0.00000000E+00  0.00000000E+00
  0.00000000E+00  0.00000000E+00  0.00000000E+00
  0.00000000E+00  0.00000000E+00  0.00000000E+00
  0.00000000E+00  0.00000000E+00  0.00000000E+00
  0.00000000E+00  0.00000000E+00  0.00000000E+00
  0.00000000E+00  0.00000000E+00  0.00000000E+00
  0.00000000E+00  0.00000000E+00  0.00000000E+00
  0.00000000E+00  0.00000000E+00  0.00000000E+00
  0.00000000E+00  0.00000000E+00  0.00000000E+00
  0.00000000E+00  0.00000000E+00  0.00000000E+00
  0.00000000E+00  0.00000000E+00  0.00000000E+00
  0.00000000E+00  0.00000000E+00  0.00000000E+00
  0.00000000E+00  0.00000000E+00  0.00000000E+00
  0.00000000E+00  0.00000000E+00  0.00000000E+00
  0.00000000E+00  0.00000000E+00  0.00000000E+00
  0.00000000E+00  0.00000000E+00  0.00000000E+00
  0.00000000E+00  0.00000000E+00  0.00000000E+00
  0.00000000E+00  0.00000000E+00  0.00000000E+00
  0.00000000E+00  0.00000000E+00  0.00000000E+00
  0.00000000E+00  0.00000000E+00  0.00000000E+00
  0.00000000E+00  0.00000000E+00  0.00000000E+00
