CONTCAR                                 
   1.00000000000000     
    13.7902002335000002    0.0000000000000000    0.0000000000000000
     6.8951001167000001   11.9426637253999992    0.0000000000000000
     0.0000000000000000    0.0000000000000000   18.3686008453000014
   Nb   Se   H 
    16    32     1
Direct
  0.0820370747850115  0.0862733330213538  0.5004655733698619
  0.3269355859507601  0.0903147855968816  0.5004283376361300
  0.5823932511564303  0.0855133854926318  0.5003674171972256
  0.8327784121371927  0.0902866088081128  0.5004593211817018
  0.0861031171130614  0.3312651804772094  0.5008021189309591
  0.3244936223305481  0.3287735294873312  0.5004173585689254
  0.5971138458152992  0.3287149723270797  0.5002393689120829
  0.8325165625708546  0.3312646283021052  0.5007386359678505
  0.0816938368582116  0.5864839566838874  0.4997982147747649
  0.3245153699057172  0.6016430690906925  0.4994910090674626
  0.5822844040342416  0.5864790921319661  0.4996891212310268
  0.8308234033026068  0.5878073248791215  0.5005030272198492
  0.0861324499900458  0.8373066029949032  0.4999428653758798
  0.3267142274167423  0.8374389825963025  0.4997349899750534
  0.5837086655055984  0.8354194596798646  0.5002702558166490
  0.8307786615379028  0.8354660799519076  0.5004377884223127
  0.1644205874876219  0.1686924822528827  0.5940185175885381
  0.1642935963578978  0.1690485060873332  0.4071892577929062
  0.4159129595981031  0.1669541095926730  0.5932316646593956
  0.4163027521024455  0.1669614789483999  0.4081104527941430
  0.6672773013685622  0.1670142653244688  0.5932042382431292
  0.6669975838753688  0.1668007044854311  0.4079937394084169
  0.9171911042840459  0.1685527825382626  0.5940011392989633
  0.9169937972818406  0.1687726969838588  0.4072625388946842
  0.1626028119698000  0.4207613395915900  0.5931795366101814
  0.1627564793591607  0.4200693563804982  0.4079043082146298
  0.4151583152470906  0.4202553835512553  0.5810434850397990
  0.4154127712289556  0.4193680339108264  0.4191111909802316
  0.6667210814174506  0.4206754217134562  0.5931382432131335
  0.6672756947816941  0.4201592947922920  0.4076840504910814
  0.9154142855119580  0.4191123644924353  0.5904974211696202
  0.9155140312344798  0.4188977112199831  0.4108788712228950
  0.1629454722419886  0.6716451302662677  0.5925286000085509
  0.1624312269632184  0.6715187541048732  0.4072757555776065
  0.4158260292961691  0.6718953788344751  0.5924124535916118
  0.4164056341191955  0.6715976773097728  0.4071351152238338
  0.6647217581645020  0.6694882811058918  0.5924079807702126
  0.6655483722760192  0.6696996030680389  0.4079058401035543
  0.9158575697628341  0.6692560459180745  0.5922813319185445
  0.9150290816801078  0.6693973699671166  0.4082346103749278
  0.1646498953258760  0.9211018665435146  0.5935960130733535
  0.1639062396608572  0.9219421096690440  0.4065233926525941
  0.4147895939654836  0.9194294938286609  0.5899660345453891
  0.4151031858798150  0.9198358751473530  0.4103060715804747
  0.6650883111570439  0.9197194167164450  0.5927240165516517
  0.6653538641244151  0.9195011842853238  0.4080819798370459
  0.9158558992133427  0.9194346696137875  0.5901063310476845
  0.9151932179642280  0.9195544701273608  0.4105179390893049
  0.4150757716882035  0.4211168951070412  0.6626428707842120
 
  0.00000000E+00  0.00000000E+00  0.00000000E+00
  0.00000000E+00  0.00000000E+00  0.00000000E+00
  0.00000000E+00  0.00000000E+00  0.00000000E+00
  0.00000000E+00  0.00000000E+00  0.00000000E+00
  0.00000000E+00  0.00000000E+00  0.00000000E+00
  0.00000000E+00  0.00000000E+00  0.00000000E+00
  0.00000000E+00  0.00000000E+00  0.00000000E+00
  0.00000000E+00  0.00000000E+00  0.00000000E+00
  0.00000000E+00  0.00000000E+00  0.00000000E+00
  0.00000000E+00  0.00000000E+00  0.00000000E+00
  0.00000000E+00  0.00000000E+00  0.00000000E+00
  0.00000000E+00  0.00000000E+00  0.00000000E+00
  0.00000000E+00  0.00000000E+00  0.00000000E+00
  0.00000000E+00  0.00000000E+00  0.00000000E+00
  0.00000000E+00  0.00000000E+00  0.00000000E+00
  0.00000000E+00  0.00000000E+00  0.00000000E+00
  0.00000000E+00  0.00000000E+00  0.00000000E+00
  0.00000000E+00  0.00000000E+00  0.00000000E+00
  0.00000000E+00  0.00000000E+00  0.00000000E+00
  0.00000000E+00  0.00000000E+00  0.00000000E+00
  0.00000000E+00  0.00000000E+00  0.00000000E+00
  0.00000000E+00  0.00000000E+00  0.00000000E+00
  0.00000000E+00  0.00000000E+00  0.00000000E+00
  0.00000000E+00  0.00000000E+00  0.00000000E+00
  0.00000000E+00  0.00000000E+00  0.00000000E+00
  0.00000000E+00  0.00000000E+00  0.00000000E+00
  0.00000000E+00  0.00000000E+00  0.00000000E+00
  0.00000000E+00  0.00000000E+00  0.00000000E+00
  0.00000000E+00  0.00000000E+00  0.00000000E+00
  0.00000000E+00  0.00000000E+00  0.00000000E+00
  0.00000000E+00  0.00000000E+00  0.00000000E+00
  0.00000000E+00  0.00000000E+00  0.00000000E+00
  0.00000000E+00  0.00000000E+00  0.00000000E+00
  0.00000000E+00  0.00000000E+00  0.00000000E+00
  0.00000000E+00  0.00000000E+00  0.00000000E+00
  0.00000000E+00  0.00000000E+00  0.00000000E+00
  0.00000000E+00  0.00000000E+00  0.00000000E+00
  0.00000000E+00  0.00000000E+00  0.00000000E+00
  0.00000000E+00  0.00000000E+00  0.00000000E+00
  0.00000000E+00  0.00000000E+00  0.00000000E+00
  0.00000000E+00  0.00000000E+00  0.00000000E+00
  0.00000000E+00  0.00000000E+00  0.00000000E+00
  0.00000000E+00  0.00000000E+00  0.00000000E+00
  0.00000000E+00  0.00000000E+00  0.00000000E+00
  0.00000000E+00  0.00000000E+00  0.00000000E+00
  0.00000000E+00  0.00000000E+00  0.00000000E+00
  0.00000000E+00  0.00000000E+00  0.00000000E+00
  0.00000000E+00  0.00000000E+00  0.00000000E+00
  0.00000000E+00  0.00000000E+00  0.00000000E+00
