CONTCAR\(3)                             
   1.00000000000000     
    12.6408004761000008    0.0000000000000000    0.0000000000000000
    -6.3204002380000004   10.9472543365000003    0.0000000000000000
     0.0000000000000000    0.0000000000000000   17.9799003601000003
   V    S    H 
    16    32     1
Direct
  0.0824552140128408  0.1662832614124486  0.5011206407118072
  0.3334313088070560  0.1669059808565976  0.5005503678880510
  0.5837885932603517  0.1662850090081295  0.5011304672325995
  0.8333143464221080  0.1666855825778895  0.5011498506157557
  0.0824472004261804  0.4162037999439138  0.5011231663496630
  0.3242779182097520  0.4121677813980214  0.5008688421769516
  0.5878350530412694  0.4121649089587350  0.5008866916886379
  0.8337149179918679  0.4162113707396526  0.5011304672325995
  0.0831238525315150  0.6662786705207061  0.5008258854277583
  0.3334338035079599  0.6665662184920417  0.5005435560582722
  0.5878321626019813  0.6757221217902444  0.5008688421769516
  0.8330939281433988  0.6665687321929437  0.5005503678880510
  0.0831153824653144  0.9168845955346837  0.5008244550735566
  0.3337213494792960  0.9168761464684814  0.5008258854277583
  0.5837961420560885  0.9175528165738175  0.5011231663496630
  0.8337166465875508  0.9175448039871609  0.5011206407118072
 -0.0001681997101770  0.0001681997101770  0.4180554271085710
 -0.0000390966819732  0.0000390966819732  0.5840199239164954
  0.2499604089835925 -0.0000188383137207  0.4179786326374570
  0.2500777441282851  0.0002089375662053  0.5835082438219780
  0.5002927667058534  0.0001699543429853  0.4180746617141034
  0.5000198031839441  0.0000106563101841  0.5840340932731913
  0.7502310714894602  0.0005193656209233  0.4182121732400345
  0.7502308511598381  0.0005031449557256  0.5840244203396576
 -0.0005193676209234  0.2497689245105397  0.4182121732400345
  0.9994968530442739  0.2497691448401618  0.5840244203396576
  0.2482448355545513  0.2486516505470563  0.4176871892209990
  0.2483818688477704  0.2484095595921106  0.5842791193562636
  0.5003847876141495  0.2486409093326309  0.4177030361581850
  0.4999771966262155  0.2484027712271410  0.5842940459619255
  0.7502216763114664  0.2497783176885329  0.4182345098033693
  0.7502393629750086  0.2497606310249910  0.5840402471748288
  0.9998300416570143  0.4997072262941494  0.4180746617141034
 -0.0000106603101845  0.4999801898160587  0.5840340932731913
  0.2482322959242542  0.4996132713286909  0.4176756326505854
  0.2483925244593901  0.5000206054344613  0.5842804428372825
  0.5000015372335462  0.4999984517664565  0.4246303968095820
  0.4999664269715654  0.5000335620284372  0.5762227959640478
  0.7513590826673682  0.4996152033858537  0.4177030361581850
  0.7515972207728584  0.5000227943737873  0.5842940459619255
  0.0000188333137239  0.7500395800164100  0.4179786326374570
 -0.0002089425662021  0.7499222448717178  0.5835082438219780
  0.2499709269557642  0.7500290570442415  0.4179696038647379
  0.2500928565574583  0.7499071274425474  0.5834869902230442
  0.5003867166713147  0.7517676890757484  0.4176756326505854
  0.4999793825655451  0.7516074605406124  0.5842804428372825
  0.7513483404529471  0.7517551514454511  0.4176871892209990
  0.7515904314078922  0.7516181181522321  0.5842791193562636
  0.4999320551099067  0.4999979138900928  0.6520630347020853
 
  0.00000000E+00  0.00000000E+00  0.00000000E+00
  0.00000000E+00  0.00000000E+00  0.00000000E+00
  0.00000000E+00  0.00000000E+00  0.00000000E+00
  0.00000000E+00  0.00000000E+00  0.00000000E+00
  0.00000000E+00  0.00000000E+00  0.00000000E+00
  0.00000000E+00  0.00000000E+00  0.00000000E+00
  0.00000000E+00  0.00000000E+00  0.00000000E+00
  0.00000000E+00  0.00000000E+00  0.00000000E+00
  0.00000000E+00  0.00000000E+00  0.00000000E+00
  0.00000000E+00  0.00000000E+00  0.00000000E+00
  0.00000000E+00  0.00000000E+00  0.00000000E+00
  0.00000000E+00  0.00000000E+00  0.00000000E+00
  0.00000000E+00  0.00000000E+00  0.00000000E+00
  0.00000000E+00  0.00000000E+00  0.00000000E+00
  0.00000000E+00  0.00000000E+00  0.00000000E+00
  0.00000000E+00  0.00000000E+00  0.00000000E+00
  0.00000000E+00  0.00000000E+00  0.00000000E+00
  0.00000000E+00  0.00000000E+00  0.00000000E+00
  0.00000000E+00  0.00000000E+00  0.00000000E+00
  0.00000000E+00  0.00000000E+00  0.00000000E+00
  0.00000000E+00  0.00000000E+00  0.00000000E+00
  0.00000000E+00  0.00000000E+00  0.00000000E+00
  0.00000000E+00  0.00000000E+00  0.00000000E+00
  0.00000000E+00  0.00000000E+00  0.00000000E+00
  0.00000000E+00  0.00000000E+00  0.00000000E+00
  0.00000000E+00  0.00000000E+00  0.00000000E+00
  0.00000000E+00  0.00000000E+00  0.00000000E+00
  0.00000000E+00  0.00000000E+00  0.00000000E+00
  0.00000000E+00  0.00000000E+00  0.00000000E+00
  0.00000000E+00  0.00000000E+00  0.00000000E+00
  0.00000000E+00  0.00000000E+00  0.00000000E+00
  0.00000000E+00  0.00000000E+00  0.00000000E+00
  0.00000000E+00  0.00000000E+00  0.00000000E+00
  0.00000000E+00  0.00000000E+00  0.00000000E+00
  0.00000000E+00  0.00000000E+00  0.00000000E+00
  0.00000000E+00  0.00000000E+00  0.00000000E+00
  0.00000000E+00  0.00000000E+00  0.00000000E+00
  0.00000000E+00  0.00000000E+00  0.00000000E+00
  0.00000000E+00  0.00000000E+00  0.00000000E+00
  0.00000000E+00  0.00000000E+00  0.00000000E+00
  0.00000000E+00  0.00000000E+00  0.00000000E+00
  0.00000000E+00  0.00000000E+00  0.00000000E+00
  0.00000000E+00  0.00000000E+00  0.00000000E+00
  0.00000000E+00  0.00000000E+00  0.00000000E+00
  0.00000000E+00  0.00000000E+00  0.00000000E+00
  0.00000000E+00  0.00000000E+00  0.00000000E+00
  0.00000000E+00  0.00000000E+00  0.00000000E+00
  0.00000000E+00  0.00000000E+00  0.00000000E+00
  0.00000000E+00  0.00000000E+00  0.00000000E+00
