 Cr3 Te4                                
   1.00000000000000     
     3.9345007994648444    0.0000000000000000    0.0000000000000000
    -1.9675985856438793    3.4073180263284981    0.0000000000000000
     0.0000000000000000    0.0000000000000000   24.2696437327740036
   Cr   Te
     3     4
Direct
  0.9999999761879081  0.0000000136544713  0.4999994324110730
  0.0001929375664744  0.9998097068311154  0.6327223871266909
  0.9998070969568502  0.0001902636167728  0.3672796354891332
  0.3334784711046197  0.6665058118337512  0.6918295774102745
  0.3332057738141145  0.6667783738213018  0.4350522570514883
  0.6665215221599752  0.3334941974595225  0.3081706149650572
  0.6667942222100507  0.3332216327830722  0.5649460955462828
 
  0.00000000E+00  0.00000000E+00  0.00000000E+00
  0.00000000E+00  0.00000000E+00  0.00000000E+00
  0.00000000E+00  0.00000000E+00  0.00000000E+00
  0.00000000E+00  0.00000000E+00  0.00000000E+00
  0.00000000E+00  0.00000000E+00  0.00000000E+00
  0.00000000E+00  0.00000000E+00  0.00000000E+00
  0.00000000E+00  0.00000000E+00  0.00000000E+00
