CONTCAR\(12)                            
   1.00000000000000     
    13.6462001800999992    0.0000000000000000    0.0000000000000000
     1.7063387634000000   10.2396006658999994    0.0000000000000000
     0.0000000000000000    0.0000000000000000   19.9377994536999985
   Ta   Te
    16    24
Direct
  0.1435691357355065  0.8522302419525897  0.4915180662448732
  0.1064308602644931  0.1477697920474060  0.5084819337551267
  0.2012886252249909  0.3910849129073672  0.5221067909332995
  0.0487113697750123  0.6089151330926296  0.4778932090667005
  0.3935691697355093  0.8522302419525897  0.4915180662448732
  0.3564308342644910  0.1477697920474060  0.5084819337551267
  0.4512886422249887  0.3910849129073672  0.5221067909332995
  0.2987113607750080  0.6089151330926296  0.4778932090667005
  0.6435691357355064  0.8522302419525897  0.4915180662448732
  0.6064309042644898  0.1477697920474060  0.5084819337551267
  0.7012886072249894  0.3910849129073672  0.5221067909332995
  0.5487114307750066  0.6089151330926296  0.4778932090667005
  0.8935691007355071  0.8522302419525897  0.4915180662448732
  0.8564308692644904  0.1477697920474060  0.5084819337551267
  0.9512886422249888  0.3910849129073672  0.5221067909332995
  0.7987113957750073  0.6089151330926296  0.4778932090667005
  0.1689318558176743  0.6480928950971733  0.5873833863663712
  0.0810681331823283  0.3519171859028260  0.4126165656336320
  0.1627409976428720  0.6983568775957743  0.3749209561665818
  0.0872589873571303  0.3016431684042225  0.6250790198334163
  0.0024007333816549  0.9805666760700443  0.5874323898511605
  0.2475992816183428  0.0194433339299526  0.4125676581488364
  0.4189318378176728  0.6480928950971733  0.5873833863663712
  0.3310681331823283  0.3519171859028260  0.4126165656336320
  0.4127409806428671  0.6983568775957743  0.3749209561665818
  0.3372589873571303  0.3016431684042225  0.6250790198334163
  0.2524007153816606  0.9805666760700443  0.5874323898511605
  0.4975992646183449  0.0194433339299526  0.4125676581488364
  0.6689318028176735  0.6480928950971733  0.5873833863663712
  0.5810681681823276  0.3519171859028260  0.4126165656336320
  0.6627410156428664  0.6983568775957743  0.3749209561665818
  0.5872589533571346  0.3016431684042225  0.6250790198334163
  0.5024007153816605  0.9805666760700443  0.5874323898511605
  0.7475992646183449  0.0194433339299526  0.4125676581488364
  0.9189318378176728  0.6480928950971733  0.5873833863663712
  0.8310682031823270  0.3519171859028260  0.4126165656336320
  0.9127410496428692  0.6983568775957743  0.3749209561665818
  0.8372589873571303  0.3016431684042225  0.6250790198334163
  0.7524006803816541  0.9805666760700443  0.5874323898511605
  0.9975992296183456  0.0194433339299526  0.4125676581488364
 
  0.00000000E+00  0.00000000E+00  0.00000000E+00
  0.00000000E+00  0.00000000E+00  0.00000000E+00
  0.00000000E+00  0.00000000E+00  0.00000000E+00
  0.00000000E+00  0.00000000E+00  0.00000000E+00
  0.00000000E+00  0.00000000E+00  0.00000000E+00
  0.00000000E+00  0.00000000E+00  0.00000000E+00
  0.00000000E+00  0.00000000E+00  0.00000000E+00
  0.00000000E+00  0.00000000E+00  0.00000000E+00
  0.00000000E+00  0.00000000E+00  0.00000000E+00
  0.00000000E+00  0.00000000E+00  0.00000000E+00
  0.00000000E+00  0.00000000E+00  0.00000000E+00
  0.00000000E+00  0.00000000E+00  0.00000000E+00
  0.00000000E+00  0.00000000E+00  0.00000000E+00
  0.00000000E+00  0.00000000E+00  0.00000000E+00
  0.00000000E+00  0.00000000E+00  0.00000000E+00
  0.00000000E+00  0.00000000E+00  0.00000000E+00
  0.00000000E+00  0.00000000E+00  0.00000000E+00
  0.00000000E+00  0.00000000E+00  0.00000000E+00
  0.00000000E+00  0.00000000E+00  0.00000000E+00
  0.00000000E+00  0.00000000E+00  0.00000000E+00
  0.00000000E+00  0.00000000E+00  0.00000000E+00
  0.00000000E+00  0.00000000E+00  0.00000000E+00
  0.00000000E+00  0.00000000E+00  0.00000000E+00
  0.00000000E+00  0.00000000E+00  0.00000000E+00
  0.00000000E+00  0.00000000E+00  0.00000000E+00
  0.00000000E+00  0.00000000E+00  0.00000000E+00
  0.00000000E+00  0.00000000E+00  0.00000000E+00
  0.00000000E+00  0.00000000E+00  0.00000000E+00
  0.00000000E+00  0.00000000E+00  0.00000000E+00
  0.00000000E+00  0.00000000E+00  0.00000000E+00
  0.00000000E+00  0.00000000E+00  0.00000000E+00
  0.00000000E+00  0.00000000E+00  0.00000000E+00
  0.00000000E+00  0.00000000E+00  0.00000000E+00
  0.00000000E+00  0.00000000E+00  0.00000000E+00
  0.00000000E+00  0.00000000E+00  0.00000000E+00
  0.00000000E+00  0.00000000E+00  0.00000000E+00
  0.00000000E+00  0.00000000E+00  0.00000000E+00
  0.00000000E+00  0.00000000E+00  0.00000000E+00
  0.00000000E+00  0.00000000E+00  0.00000000E+00
  0.00000000E+00  0.00000000E+00  0.00000000E+00
