CONTCAR\(10)                            
   1.00000000000000     
    11.1955995559999995    0.0000000000000000    0.0000000000000000
    -5.5977997779999997    9.6956736260999996    0.0000000000000000
     0.0000000000000000    0.0000000000000000   18.4459991455000001
   Ti   Te   O    H 
     9    18     1     1
Direct
  0.0000240826735033  0.9999573742497126  0.4990323952995343
  0.3318565046875721  0.9963813124986090  0.4985924911523036
  0.6646540783166560  0.9964237708577928  0.4985507191346948
  0.0035429941733396  0.3353741661647001  0.4985679756034820
  0.3318933109725742  0.3354050098417660  0.4985417706486472
  0.6666960661953759  0.3333228189842237  0.4969169208826982
  0.0036116872022278  0.6681174530071202  0.4985962245888608
  0.3333347775117959  0.6666588631128704  0.4952060746852119
  0.6645920641564077  0.6680847880935237  0.4985386496541409
  0.2233885842473192  0.1116758047367268  0.5933888838032914
  0.1103343281976752  0.2206031672281299  0.4026127220046892
  0.5563480883922047  0.1125301682181057  0.5927118658184112
  0.4420750142088900  0.2209979070209315  0.4033495391070120
  0.8883393570369678  0.1116576693384431  0.5933834578923182
  0.7789782735929220  0.2210275529759873  0.4033408490468370
  0.2244887623521072  0.4489851364862541  0.5931102484758919
  0.1092738985987452  0.5546184191904729  0.4014434096805839
  0.5562612152380155  0.4437639139003637  0.5927253810225892
  0.4453786583226927  0.5546138423113789  0.4014219220297159
  0.8875634474899263  0.4436947477833761  0.5927278929568400
  0.7790087151189541  0.5578978147872310  0.4033550724216896
  0.2245892262803296  0.7754173608020237  0.5931726665956842
  0.1103523910314236  0.8896490130891156  0.4026045090002466
  0.5510061473240701  0.7754952988163902  0.5931107387824321
  0.4453799412042260  0.8907241890526039  0.4014466791962004
  0.8883322763482157  0.7766051204290582  0.5933836277480097
  0.7793937643067436  0.8896599334012033  0.4026154833696214
  0.3329412018051602  0.6670606801560078  0.6860184278571966
  0.3326814420139510  0.6673374594658543  0.7392138525411925
 
  0.00000000E+00  0.00000000E+00  0.00000000E+00
  0.00000000E+00  0.00000000E+00  0.00000000E+00
  0.00000000E+00  0.00000000E+00  0.00000000E+00
  0.00000000E+00  0.00000000E+00  0.00000000E+00
  0.00000000E+00  0.00000000E+00  0.00000000E+00
  0.00000000E+00  0.00000000E+00  0.00000000E+00
  0.00000000E+00  0.00000000E+00  0.00000000E+00
  0.00000000E+00  0.00000000E+00  0.00000000E+00
  0.00000000E+00  0.00000000E+00  0.00000000E+00
  0.00000000E+00  0.00000000E+00  0.00000000E+00
  0.00000000E+00  0.00000000E+00  0.00000000E+00
  0.00000000E+00  0.00000000E+00  0.00000000E+00
  0.00000000E+00  0.00000000E+00  0.00000000E+00
  0.00000000E+00  0.00000000E+00  0.00000000E+00
  0.00000000E+00  0.00000000E+00  0.00000000E+00
  0.00000000E+00  0.00000000E+00  0.00000000E+00
  0.00000000E+00  0.00000000E+00  0.00000000E+00
  0.00000000E+00  0.00000000E+00  0.00000000E+00
  0.00000000E+00  0.00000000E+00  0.00000000E+00
  0.00000000E+00  0.00000000E+00  0.00000000E+00
  0.00000000E+00  0.00000000E+00  0.00000000E+00
  0.00000000E+00  0.00000000E+00  0.00000000E+00
  0.00000000E+00  0.00000000E+00  0.00000000E+00
  0.00000000E+00  0.00000000E+00  0.00000000E+00
  0.00000000E+00  0.00000000E+00  0.00000000E+00
  0.00000000E+00  0.00000000E+00  0.00000000E+00
  0.00000000E+00  0.00000000E+00  0.00000000E+00
  0.00000000E+00  0.00000000E+00  0.00000000E+00
  0.00000000E+00  0.00000000E+00  0.00000000E+00
