CONTCAR\(9)                             
   1.00000000000000     
    11.9372997283999993    0.0000000000000000    0.0000000000000000
    -5.9686498641999997   10.3380048173999999    0.0000000000000000
     0.0000000000000000    0.0000000000000000   21.4568004608000003
   In   Se   O    H 
    18    27     1     1
Direct
  0.2208839524379854  0.1091386172442658  0.4105523875347930
  0.1104204747575726  0.2251942887455388  0.5891377067124997
  0.5579702223192876  0.1218901825869135  0.4035735239432499
  0.4463235079035672  0.2229564493218366  0.5893751678278943
  0.8975157879552069  0.1192166426539237  0.4048756602382339
  0.7737136954086872  0.2159089216727310  0.5883317897050943
  0.2250647184818627  0.4458155293274831  0.4086174336546907
  0.1110558228421409  0.5569334177959758  0.5907700742884286
  0.5598240395255183  0.4485575069704674  0.4062816743160179
  0.4333600410464619  0.5344674009963232  0.5792823264314717
  0.8934340579028545  0.4471112643343463  0.4074459351083762
  0.7791666109776986  0.5562792856084013  0.5900244607606461
  0.2246542333053865  0.7740928642621013  0.4131740751201495
  0.1130197970515870  0.8959148682842482  0.5925517572187277
  0.5609978568126162  0.7765497906273796  0.4159842798425084
  0.4288346300888147  0.8997325909048065  0.5916664232386505
  0.8920571148958569  0.7716822794233635  0.4136248464283568
  0.8003905319811340  0.9002941913562452  0.5889615281271121
  0.9892320100816731  0.9672323886178689  0.5017317926031564
  0.2241255437480566  0.1153584282714985  0.6541505764634264
  0.1180402427923055  0.2262197644110180  0.3440146855034404
  0.3061542631478080  0.9653376935428001  0.5031237632085890
  0.5552849371328198  0.1112401445524835  0.6573082694406448
  0.4406945912381817  0.2268478253392691  0.3440929266167460
  0.6334279807786224  0.9391618441156481  0.5149139779991683
  0.8893316373900657  0.1108894218795226  0.6559759399672010
  0.7810652859549509  0.2266058648028723  0.3435429068247771
  0.9703336391570531  0.2862307855155611  0.4993085126548572
  0.2224751363936320  0.4439183774904151  0.6527762666757557
  0.1139981672304834  0.5572961683391757  0.3447594469342891
  0.3130160252306536  0.3043258300070521  0.4999365745089614
  0.5551868993411817  0.4434163199286025  0.6515566909089182
  0.4483152496508945  0.5639074560832301  0.3466655723000830
  0.6390767832179848  0.2845226230379814  0.4996417635466509
  0.8851394036645346  0.4363403319285326  0.6513885935776065
  0.7808404082176413  0.5566967875011727  0.3438476702303903
  0.9727796801450045  0.6245835163079410  0.4999798073288162
  0.2131503962848949  0.7723361298360589  0.6570251926072931
  0.1133871137013634  0.8861158747940072  0.3491364133828940
  0.3018729686811926  0.6284057927623025  0.4993796026193532
  0.5517700086493226  0.7717416138635236  0.6405889198545959
  0.4515052891233403  0.8921203586372195  0.3533652008691242
  0.6489930423051181  0.6275956564673409  0.4979608226325561
  0.8884701608190188  0.7730187188329769  0.6553391274946808
  0.7818036522903012  0.8906600129569803  0.3526516838557104
  0.5153111276626610  0.6962990316511829  0.7191045667419720
  0.5559515262750069  0.7682594654093912  0.7486518391513788
 
  0.00000000E+00  0.00000000E+00  0.00000000E+00
  0.00000000E+00  0.00000000E+00  0.00000000E+00
  0.00000000E+00  0.00000000E+00  0.00000000E+00
  0.00000000E+00  0.00000000E+00  0.00000000E+00
  0.00000000E+00  0.00000000E+00  0.00000000E+00
  0.00000000E+00  0.00000000E+00  0.00000000E+00
  0.00000000E+00  0.00000000E+00  0.00000000E+00
  0.00000000E+00  0.00000000E+00  0.00000000E+00
  0.00000000E+00  0.00000000E+00  0.00000000E+00
  0.00000000E+00  0.00000000E+00  0.00000000E+00
  0.00000000E+00  0.00000000E+00  0.00000000E+00
  0.00000000E+00  0.00000000E+00  0.00000000E+00
  0.00000000E+00  0.00000000E+00  0.00000000E+00
  0.00000000E+00  0.00000000E+00  0.00000000E+00
  0.00000000E+00  0.00000000E+00  0.00000000E+00
  0.00000000E+00  0.00000000E+00  0.00000000E+00
  0.00000000E+00  0.00000000E+00  0.00000000E+00
  0.00000000E+00  0.00000000E+00  0.00000000E+00
  0.00000000E+00  0.00000000E+00  0.00000000E+00
  0.00000000E+00  0.00000000E+00  0.00000000E+00
  0.00000000E+00  0.00000000E+00  0.00000000E+00
  0.00000000E+00  0.00000000E+00  0.00000000E+00
  0.00000000E+00  0.00000000E+00  0.00000000E+00
  0.00000000E+00  0.00000000E+00  0.00000000E+00
  0.00000000E+00  0.00000000E+00  0.00000000E+00
  0.00000000E+00  0.00000000E+00  0.00000000E+00
  0.00000000E+00  0.00000000E+00  0.00000000E+00
  0.00000000E+00  0.00000000E+00  0.00000000E+00
  0.00000000E+00  0.00000000E+00  0.00000000E+00
  0.00000000E+00  0.00000000E+00  0.00000000E+00
  0.00000000E+00  0.00000000E+00  0.00000000E+00
  0.00000000E+00  0.00000000E+00  0.00000000E+00
  0.00000000E+00  0.00000000E+00  0.00000000E+00
  0.00000000E+00  0.00000000E+00  0.00000000E+00
  0.00000000E+00  0.00000000E+00  0.00000000E+00
  0.00000000E+00  0.00000000E+00  0.00000000E+00
  0.00000000E+00  0.00000000E+00  0.00000000E+00
  0.00000000E+00  0.00000000E+00  0.00000000E+00
  0.00000000E+00  0.00000000E+00  0.00000000E+00
  0.00000000E+00  0.00000000E+00  0.00000000E+00
  0.00000000E+00  0.00000000E+00  0.00000000E+00
  0.00000000E+00  0.00000000E+00  0.00000000E+00
  0.00000000E+00  0.00000000E+00  0.00000000E+00
  0.00000000E+00  0.00000000E+00  0.00000000E+00
  0.00000000E+00  0.00000000E+00  0.00000000E+00
  0.00000000E+00  0.00000000E+00  0.00000000E+00
  0.00000000E+00  0.00000000E+00  0.00000000E+00
