 Li4 Cr2 P8 O26                         
   1.00000000000000     
     4.9245697796186478    0.0000000000000000    0.0000000000000000
     1.0109470553789170    7.7147656285044430   -0.1031410000000000
     0.0000000000000000    0.0000000000000000   26.8457239033740009
   Li   Cr   P    O 
     4     2     8    26
Direct
  0.6008613579427620  0.5557839822616066  0.2789278551278377
  0.1057643852635985  0.3300934208907284  0.5141420306365229
  0.3992285739297889  0.4442823016687293  0.7210753766441145
  0.8940956640938407  0.6699099706396801  0.4858335266340791
  0.4416600488870377  0.1317862096972205  0.6211262348889598
  0.5583014619147273  0.8682209510879189  0.3788696860379955
  0.9680049265438011  0.9429369503694817  0.5694226830713353
  0.2979597408940563  0.7605434497288336  0.6449538408607360
  0.6451223619849058  0.4890152408982136  0.5846361370357719
  0.0320659957451266  0.0571224874548765  0.4306100926022028
  0.9047865794101634  0.3174472422319263  0.6744843796288149
  0.7020325403062589  0.2394522962330770  0.3550432089602495
  0.3548952465513169  0.5109747140841718  0.4153809948029028
  0.0952047792783916  0.6824956161322970  0.3254974132956365
  0.7566463393774503  0.1635063910149725  0.6572751022063245
  0.0119021759909913  0.8178345503240667  0.6183691923621419
  0.2737692041889915  0.6407638077746253  0.6863683009394073
  0.8563518631314062  0.4568704105664955  0.6295110665368063
  0.3386490171338867  0.9852478809243077  0.4287658942276112
  0.7825683080747492  0.7351750019000275  0.3253360900258195
  0.4770353088369036  0.6719597490669784  0.5986745183643892
  0.0514207042462107  0.8375352882193916  0.5242768714312855
  0.2174792910375607  0.2648087624702877  0.6746640259838579
  0.2102234159350903  0.6021164507742855  0.2778735168980303
  0.7898308373676016  0.3978809187724203  0.7221460812757755
  0.5229015747314758  0.3280137223312847  0.4013278748026394
  0.5807585619178754  0.0732513280228970  0.3420639896646236
  0.8673745203214202  0.9019998010027752  0.4187343335516023
  0.4485308569096302  0.3519238693500757  0.5850028329665600
  0.2026698779681151  0.4938001718539549  0.4625581560245993
  0.9485119857673878  0.1624122364895002  0.4757019335164254
  0.6612340302907950  0.0147871438893185  0.5712370944114865
  0.7973586346094724  0.5061843784436281  0.5374258384524084
  0.5515086023659099  0.6480361186622714  0.4149942238926633
  0.1436720568290545  0.5431259659973454  0.3704881541918220
  0.1325945957734150  0.0979368594005178  0.5812549746323715
  0.4193140188638472  0.9267973967600942  0.6579383267216687
  0.2433835946419753  0.8365327799261414  0.3427268399790825
  0.9880855323035781  0.1821769044294198  0.3816339649708774
  0.7262414286393873  0.3592572782541205  0.3136473417425393
 
  0.00000000E+00  0.00000000E+00  0.00000000E+00
  0.00000000E+00  0.00000000E+00  0.00000000E+00
  0.00000000E+00  0.00000000E+00  0.00000000E+00
  0.00000000E+00  0.00000000E+00  0.00000000E+00
  0.00000000E+00  0.00000000E+00  0.00000000E+00
  0.00000000E+00  0.00000000E+00  0.00000000E+00
  0.00000000E+00  0.00000000E+00  0.00000000E+00
  0.00000000E+00  0.00000000E+00  0.00000000E+00
  0.00000000E+00  0.00000000E+00  0.00000000E+00
  0.00000000E+00  0.00000000E+00  0.00000000E+00
  0.00000000E+00  0.00000000E+00  0.00000000E+00
  0.00000000E+00  0.00000000E+00  0.00000000E+00
  0.00000000E+00  0.00000000E+00  0.00000000E+00
  0.00000000E+00  0.00000000E+00  0.00000000E+00
  0.00000000E+00  0.00000000E+00  0.00000000E+00
  0.00000000E+00  0.00000000E+00  0.00000000E+00
  0.00000000E+00  0.00000000E+00  0.00000000E+00
  0.00000000E+00  0.00000000E+00  0.00000000E+00
  0.00000000E+00  0.00000000E+00  0.00000000E+00
  0.00000000E+00  0.00000000E+00  0.00000000E+00
  0.00000000E+00  0.00000000E+00  0.00000000E+00
  0.00000000E+00  0.00000000E+00  0.00000000E+00
  0.00000000E+00  0.00000000E+00  0.00000000E+00
  0.00000000E+00  0.00000000E+00  0.00000000E+00
  0.00000000E+00  0.00000000E+00  0.00000000E+00
  0.00000000E+00  0.00000000E+00  0.00000000E+00
  0.00000000E+00  0.00000000E+00  0.00000000E+00
  0.00000000E+00  0.00000000E+00  0.00000000E+00
  0.00000000E+00  0.00000000E+00  0.00000000E+00
  0.00000000E+00  0.00000000E+00  0.00000000E+00
  0.00000000E+00  0.00000000E+00  0.00000000E+00
  0.00000000E+00  0.00000000E+00  0.00000000E+00
  0.00000000E+00  0.00000000E+00  0.00000000E+00
  0.00000000E+00  0.00000000E+00  0.00000000E+00
  0.00000000E+00  0.00000000E+00  0.00000000E+00
  0.00000000E+00  0.00000000E+00  0.00000000E+00
  0.00000000E+00  0.00000000E+00  0.00000000E+00
  0.00000000E+00  0.00000000E+00  0.00000000E+00
  0.00000000E+00  0.00000000E+00  0.00000000E+00
  0.00000000E+00  0.00000000E+00  0.00000000E+00
