CONTCAR\(13)                            
   1.00000000000000     
    12.6978998183999998    0.0000000000000000    0.0000000000000000
     0.0000000000000000   11.4748001099000003    0.0000000000000000
     0.0000000000000000    0.0000000000000000   18.8323001862000012
   Ta   Si   Te   O 
    12     4    24     1
Direct
  0.3284400487664292  0.5871824949654142  0.5123573770639952
  0.0805656962428148  0.4107636447106591  0.5029030532059768
  0.4894918653637645  0.9412211222075930  0.4996652251833455
  0.2365318907306593  0.0618044553766160  0.5026338361949448
  0.3526615742641616  0.2868921182836812  0.5034832126890776
  0.0959679209236157  0.7169478116861301  0.5051927840184109
  0.8340613503855989  0.5833352556427324  0.5011672829595066
  0.5911180616142293  0.4130062928339739  0.5008011890171880
  0.9865036756305986  0.9377094682188142  0.5013897963382093
  0.7385975083530397  0.0621369651028991  0.4986369367189046
  0.8510344624409824  0.2840008145460479  0.4998107231052060
  0.6013282605682115  0.7171893518055821  0.5014177407035323
  0.2892219587316699  0.8265957892547613  0.5056969081117476
  0.0405852104582500  0.1736694919506304  0.5016548345629208
  0.7899407134867923  0.8255657708512919  0.4989634606766590
  0.5416766239752145  0.1757435239536781  0.4987818694100102
  0.4029453240214596  0.0943328439350931  0.6007420194183930
  0.1516785361428445  0.9033046286811753  0.4030526786952867
  0.1490429020561564  0.9067014968761062  0.6044104519991117
  0.3991484993535132  0.0956109023503006  0.4005453610383138
  0.4377654110683575  0.7605707619925197  0.5991641379072820
  0.1806903372568384  0.2548430944413351  0.4057055710246849
  0.1795424825795071  0.2523587101625372  0.5998841261356636
  0.4268487455993895  0.7463727926562099  0.4080792913296571
  0.4384486431477465  0.4221984157299387  0.6059198100381610
  0.1761423846988802  0.5663039694626552  0.4049598085998403
  0.1320622558139851  0.5597194187161429  0.6164544105167227
  0.4258979697834107  0.4380890387031122  0.4032407892687498
  0.9011306253209150  0.0945043480085005  0.6008091324602794
  0.6515539347012872  0.9052284291423225  0.3987025150274121
  0.6549055378134070  0.9093479898156857  0.6000981731300368
  0.9039770166763551  0.0946902099424333  0.3995945632825534
  0.9216867315343178  0.7518043369247202  0.5995990590181230
  0.6807545466973177  0.2526261131876516  0.4012961107982420
  0.6812253285313499  0.2490628782430522  0.5974565849723109
  0.9302310583089801  0.7447274165374362  0.4042669070321951
  0.9173325699104997  0.4297242657668400  0.6061858205785811
  0.6753341813705258  0.5675644041777985  0.3981528321721993
  0.6758495755952159  0.5682746900849839  0.6045487171005179
  0.9256434518292304  0.4338929529004936  0.3975836643955180
  0.2884751012524762  0.5904514181704468  0.6144213971005228
 
  0.00000000E+00  0.00000000E+00  0.00000000E+00
  0.00000000E+00  0.00000000E+00  0.00000000E+00
  0.00000000E+00  0.00000000E+00  0.00000000E+00
  0.00000000E+00  0.00000000E+00  0.00000000E+00
  0.00000000E+00  0.00000000E+00  0.00000000E+00
  0.00000000E+00  0.00000000E+00  0.00000000E+00
  0.00000000E+00  0.00000000E+00  0.00000000E+00
  0.00000000E+00  0.00000000E+00  0.00000000E+00
  0.00000000E+00  0.00000000E+00  0.00000000E+00
  0.00000000E+00  0.00000000E+00  0.00000000E+00
  0.00000000E+00  0.00000000E+00  0.00000000E+00
  0.00000000E+00  0.00000000E+00  0.00000000E+00
  0.00000000E+00  0.00000000E+00  0.00000000E+00
  0.00000000E+00  0.00000000E+00  0.00000000E+00
  0.00000000E+00  0.00000000E+00  0.00000000E+00
  0.00000000E+00  0.00000000E+00  0.00000000E+00
  0.00000000E+00  0.00000000E+00  0.00000000E+00
  0.00000000E+00  0.00000000E+00  0.00000000E+00
  0.00000000E+00  0.00000000E+00  0.00000000E+00
  0.00000000E+00  0.00000000E+00  0.00000000E+00
  0.00000000E+00  0.00000000E+00  0.00000000E+00
  0.00000000E+00  0.00000000E+00  0.00000000E+00
  0.00000000E+00  0.00000000E+00  0.00000000E+00
  0.00000000E+00  0.00000000E+00  0.00000000E+00
  0.00000000E+00  0.00000000E+00  0.00000000E+00
  0.00000000E+00  0.00000000E+00  0.00000000E+00
  0.00000000E+00  0.00000000E+00  0.00000000E+00
  0.00000000E+00  0.00000000E+00  0.00000000E+00
  0.00000000E+00  0.00000000E+00  0.00000000E+00
  0.00000000E+00  0.00000000E+00  0.00000000E+00
  0.00000000E+00  0.00000000E+00  0.00000000E+00
  0.00000000E+00  0.00000000E+00  0.00000000E+00
  0.00000000E+00  0.00000000E+00  0.00000000E+00
  0.00000000E+00  0.00000000E+00  0.00000000E+00
  0.00000000E+00  0.00000000E+00  0.00000000E+00
  0.00000000E+00  0.00000000E+00  0.00000000E+00
  0.00000000E+00  0.00000000E+00  0.00000000E+00
  0.00000000E+00  0.00000000E+00  0.00000000E+00
  0.00000000E+00  0.00000000E+00  0.00000000E+00
  0.00000000E+00  0.00000000E+00  0.00000000E+00
  0.00000000E+00  0.00000000E+00  0.00000000E+00
