CONTCAR\(3)                             
   1.00000000000000     
    11.5825996398999997    0.0000000000000000    0.0000000000000000
     0.0000000000000000   12.9533996582000004    0.0000000000000000
     0.0000000000000000    0.0000000000000000   20.9237995147999989
   K    As   Pd   O    H 
    16    16     8     1     1
Direct
  0.1249657922660958  0.9983084581662069  0.4441243233053811
  0.3732963876462847  0.9867567194180964  0.5506594654392174
  0.1249916208059645  0.2496268004240534  0.3541027700553627
  0.3761863677745794  0.2497170506221806  0.6395802392979562
  0.6248783097060269  0.0022343347326483  0.4401701120577997
  0.8763441821478040  0.9868792039906253  0.5506409137758510
  0.6251143690663099  0.2520325735323468  0.3535962054285520
  0.8740666545160067  0.2495898205185014  0.6395720748644891
  0.1249222352223711  0.5002223196177553  0.4448132705859038
  0.3731649536968717  0.5146644567904488  0.5524827210171068
  0.1248412059813546  0.7486925489625733  0.3491725710984213
  0.4556543149814303  0.7577659288095475  0.6853289094023509
  0.6248116950424034  0.4988595526446176  0.4425897438090090
  0.8763534053764275  0.5141294231550120  0.5520795040049649
  0.6248223616396729  0.7482525757546981  0.3487407339614634
  0.7974942875471385  0.7576528095748429  0.6844021548384163
  0.3743208095112749  0.3449466924024733  0.4163877817358568
  0.1251716169890713  0.1550631735903849  0.5785536510223181
  0.1251208562191977  0.3439315040598103  0.5786457263390261
  0.3747760739707786  0.1553946083131663  0.4160232920492106
  0.8757441258041183  0.3448901728126117  0.4163868792208021
  0.6249920536105620  0.1553087747463309  0.5776084089665758
  0.6249633112549873  0.3446872170527016  0.5777459206486668
  0.8752972260024094  0.1553225212416010  0.4161561248461396
  0.3713620990867099  0.8442936539257389  0.4099160123326229
  0.1247714014657220  0.6580193473914662  0.5766628609497317
  0.1248493048531572  0.8426931285404535  0.5768202140327432
  0.3704386780281652  0.6541817383016877  0.4104263695886061
  0.8781895343078716  0.8441567942632773  0.4098502311431815
  0.6248016882971612  0.6570766992246959  0.5694103310176715
  0.6249240752855485  0.8457210560956554  0.5668360978046536
  0.8793439465980484  0.6540704661972967  0.4103928822316902
  0.0001445222280836  0.2495383765004533  0.4974326505501381
  0.2500375714570495  0.2496056448066142  0.4973903866468987
  0.5001511904712359  0.2500930804353274  0.4966919059055428
  0.7499540602641943  0.2501120018457854  0.4967469333722434
  0.0003347030736691  0.7502388370356385  0.4943891677843837
  0.2492904571473389  0.7501924819113341  0.4944127425629432
  0.4981865283162108  0.7492666319998946  0.4895516748449964
  0.7514385116732996  0.7490501357078827  0.4894770958523011
  0.6271323128768600  0.7688078993289480  0.7566873365585423
  0.6276354567905074  0.7794028395546064  0.8026419550502979
 
  0.00000000E+00  0.00000000E+00  0.00000000E+00
  0.00000000E+00  0.00000000E+00  0.00000000E+00
  0.00000000E+00  0.00000000E+00  0.00000000E+00
  0.00000000E+00  0.00000000E+00  0.00000000E+00
  0.00000000E+00  0.00000000E+00  0.00000000E+00
  0.00000000E+00  0.00000000E+00  0.00000000E+00
  0.00000000E+00  0.00000000E+00  0.00000000E+00
  0.00000000E+00  0.00000000E+00  0.00000000E+00
  0.00000000E+00  0.00000000E+00  0.00000000E+00
  0.00000000E+00  0.00000000E+00  0.00000000E+00
  0.00000000E+00  0.00000000E+00  0.00000000E+00
  0.00000000E+00  0.00000000E+00  0.00000000E+00
  0.00000000E+00  0.00000000E+00  0.00000000E+00
  0.00000000E+00  0.00000000E+00  0.00000000E+00
  0.00000000E+00  0.00000000E+00  0.00000000E+00
  0.00000000E+00  0.00000000E+00  0.00000000E+00
  0.00000000E+00  0.00000000E+00  0.00000000E+00
  0.00000000E+00  0.00000000E+00  0.00000000E+00
  0.00000000E+00  0.00000000E+00  0.00000000E+00
  0.00000000E+00  0.00000000E+00  0.00000000E+00
  0.00000000E+00  0.00000000E+00  0.00000000E+00
  0.00000000E+00  0.00000000E+00  0.00000000E+00
  0.00000000E+00  0.00000000E+00  0.00000000E+00
  0.00000000E+00  0.00000000E+00  0.00000000E+00
  0.00000000E+00  0.00000000E+00  0.00000000E+00
  0.00000000E+00  0.00000000E+00  0.00000000E+00
  0.00000000E+00  0.00000000E+00  0.00000000E+00
  0.00000000E+00  0.00000000E+00  0.00000000E+00
  0.00000000E+00  0.00000000E+00  0.00000000E+00
  0.00000000E+00  0.00000000E+00  0.00000000E+00
  0.00000000E+00  0.00000000E+00  0.00000000E+00
  0.00000000E+00  0.00000000E+00  0.00000000E+00
  0.00000000E+00  0.00000000E+00  0.00000000E+00
  0.00000000E+00  0.00000000E+00  0.00000000E+00
  0.00000000E+00  0.00000000E+00  0.00000000E+00
  0.00000000E+00  0.00000000E+00  0.00000000E+00
  0.00000000E+00  0.00000000E+00  0.00000000E+00
  0.00000000E+00  0.00000000E+00  0.00000000E+00
  0.00000000E+00  0.00000000E+00  0.00000000E+00
  0.00000000E+00  0.00000000E+00  0.00000000E+00
  0.00000000E+00  0.00000000E+00  0.00000000E+00
  0.00000000E+00  0.00000000E+00  0.00000000E+00
