CONTCAR                                 
   1.00000000000000     
    12.3274002075000002    0.0000000000000000    0.0000000000000000
     0.0000000000000000   15.7540998459000008    0.0000000000000000
     0.0000000000000000    0.0000000000000000   20.2700004577999984
   Pr   Br   O    H 
    12    30     1     1
Direct
  0.2509771289534308  0.6438301232403099  0.5226943867749774
  0.0833553483355557  0.3615208366940652  0.4738828590859215
  0.2298437871609127  0.1301835852571679  0.5133690649965653
  0.0833630231805330  0.8588427493057131  0.4580668913508991
  0.5827367962455500  0.6441032826798511  0.5232261245698911
  0.4173465228402168  0.3730616235147521  0.5736751658856671
  0.6035075808154823  0.1301169069828912  0.5136779725159790
  0.4167250131161448  0.8659891076539520  0.4582336577095885
  0.9169166924397684  0.6391120420492833  0.5133951043461443
  0.7501625984219927  0.3614361449709830  0.4743667433752131
  0.9166966798908679  0.1332020650700062  0.5126575360017940
  0.7501653046866678  0.8589076922996988  0.4583017508205328
  0.2506147335575396  0.8721966765497422  0.3559206213991871
  0.0741263105990092  0.1063733047285767  0.6193697053590080
  0.2750610731389563  0.4743489304415409  0.4533917222845483
  0.0766709462244499  0.5216501038794042  0.5769026836564769
  0.0768468327754931  0.0528439693194594  0.4182258870955565
  0.2479648693746395  0.9432614726085335  0.5487527044873086
  0.0793583966829567  0.7507317967361076  0.5852332922450241
  0.2476369389347407  0.2576344969525673  0.4080390897593576
  0.0909812055666356  0.6743651174613956  0.4134203083327940
  0.2000980538011820  0.3034365592417158  0.5903781897178656
  0.5830574261651055  0.8722228483408042  0.3561081187420279
  0.4166903823726604  0.1589007221376917  0.6024534357666569
  0.5585542500276979  0.4744122206601945  0.4541759192428246
  0.4165423514252659  0.5543603882282533  0.6103432205884246
  0.4167332423710614  0.0616016884597928  0.4276078371681652
  0.5853051647115923  0.9430880492502466  0.5490069742239039
  0.4165033906938025  0.7641951751733955  0.5843538643305980
  0.5846982283061075  0.2581910548077401  0.4088715476992364
  0.4172080028456889  0.6792770137259718  0.4179753608483643
  0.6342734789786058  0.3032217080504468  0.5911385890131005
  0.9165386915381802  0.8623741912244175  0.3553853017835119
  0.7595959956691991  0.1057636066388287  0.6194529144728607
  0.9164236962556059  0.4838726563792445  0.4174263839535322
  0.7574109254365893  0.5217867294371066  0.5773108529577513
  0.7561531576171818  0.0529515702889200  0.4183656204139636
  0.9170055635858639  0.9379654641535313  0.5453421310385874
  0.7547998102883022  0.7508171716015026  0.5854639331774536
  0.9163602376103724  0.2595484166470265  0.3970158910337254
  0.7423453803212030  0.6743700646469251  0.4137462340428881
  0.9171057873388966  0.3127140393032797  0.5727800960866876
  0.4172922068980354  0.3681742331191448  0.6760740459806638
  0.4187270638003200  0.3690420110878263  0.7237800636647916
 
  0.00000000E+00  0.00000000E+00  0.00000000E+00
  0.00000000E+00  0.00000000E+00  0.00000000E+00
  0.00000000E+00  0.00000000E+00  0.00000000E+00
  0.00000000E+00  0.00000000E+00  0.00000000E+00
  0.00000000E+00  0.00000000E+00  0.00000000E+00
  0.00000000E+00  0.00000000E+00  0.00000000E+00
  0.00000000E+00  0.00000000E+00  0.00000000E+00
  0.00000000E+00  0.00000000E+00  0.00000000E+00
  0.00000000E+00  0.00000000E+00  0.00000000E+00
  0.00000000E+00  0.00000000E+00  0.00000000E+00
  0.00000000E+00  0.00000000E+00  0.00000000E+00
  0.00000000E+00  0.00000000E+00  0.00000000E+00
  0.00000000E+00  0.00000000E+00  0.00000000E+00
  0.00000000E+00  0.00000000E+00  0.00000000E+00
  0.00000000E+00  0.00000000E+00  0.00000000E+00
  0.00000000E+00  0.00000000E+00  0.00000000E+00
  0.00000000E+00  0.00000000E+00  0.00000000E+00
  0.00000000E+00  0.00000000E+00  0.00000000E+00
  0.00000000E+00  0.00000000E+00  0.00000000E+00
  0.00000000E+00  0.00000000E+00  0.00000000E+00
  0.00000000E+00  0.00000000E+00  0.00000000E+00
  0.00000000E+00  0.00000000E+00  0.00000000E+00
  0.00000000E+00  0.00000000E+00  0.00000000E+00
  0.00000000E+00  0.00000000E+00  0.00000000E+00
  0.00000000E+00  0.00000000E+00  0.00000000E+00
  0.00000000E+00  0.00000000E+00  0.00000000E+00
  0.00000000E+00  0.00000000E+00  0.00000000E+00
  0.00000000E+00  0.00000000E+00  0.00000000E+00
  0.00000000E+00  0.00000000E+00  0.00000000E+00
  0.00000000E+00  0.00000000E+00  0.00000000E+00
  0.00000000E+00  0.00000000E+00  0.00000000E+00
  0.00000000E+00  0.00000000E+00  0.00000000E+00
  0.00000000E+00  0.00000000E+00  0.00000000E+00
  0.00000000E+00  0.00000000E+00  0.00000000E+00
  0.00000000E+00  0.00000000E+00  0.00000000E+00
  0.00000000E+00  0.00000000E+00  0.00000000E+00
  0.00000000E+00  0.00000000E+00  0.00000000E+00
  0.00000000E+00  0.00000000E+00  0.00000000E+00
  0.00000000E+00  0.00000000E+00  0.00000000E+00
  0.00000000E+00  0.00000000E+00  0.00000000E+00
  0.00000000E+00  0.00000000E+00  0.00000000E+00
  0.00000000E+00  0.00000000E+00  0.00000000E+00
  0.00000000E+00  0.00000000E+00  0.00000000E+00
  0.00000000E+00  0.00000000E+00  0.00000000E+00
