CONTCAR\(7)                             
   1.00000000000000     
    15.1381998061999994    0.0000000000000000    0.0000000000000000
     0.0000000000000000   18.7124004363999994    0.0000000000000000
     0.0000000000000000    0.0000000000000000   17.8572998046999984
   Cu   Te   O 
    16    16    49
Direct
  0.3447617817698916  0.2552173169384359  0.5232812804841301
  0.0959288944232977  0.4936974817966028  0.5304102832333564
  0.1532056779683863  0.2444690815869911  0.4728911213849879
  0.4034206165976308  0.0042992241557387  0.4713261345897944
  0.8448050146379051  0.2550843842191129  0.5264401998953625
  0.5923378315490133  0.4925524232779647  0.5272634806646380
  0.6539949448707213  0.2444827910293841  0.4728122758025032
  0.9052333926324495  0.0050946050689585  0.4715512327764144
  0.3483765428380053  0.7542918360305213  0.5295238208091335
  0.0961064787909269  0.9941153510624421  0.5242333110465627
  0.1551584548486739  0.7428058018474480  0.4813131347449296
  0.4019599779502832  0.5041932362286913  0.4758725150715251
  0.8469821834467792  0.7567813542667110  0.5304361747488026
  0.5945229825583267  0.9944185604266901  0.5224216641203583
  0.6557570041355271  0.7470809292478597  0.4782269111948475
  0.9031759584316382  0.5053625831179970  0.4816842962676670
  0.2763742601090626  0.1028606955006742  0.5724771375887617
  0.2217571460922257  0.3968538999984539  0.4247697186614627
  0.4730496628365556  0.3537977358091103  0.4227192703787004
  0.0256816591572104  0.1457378286524037  0.5742775874085977
  0.7759255817431899  0.1023401089615650  0.5726355481987390
  0.7232300414260453  0.3972922030901849  0.4264532009392406
  0.9722412712555142  0.3550409729102977  0.4270343483089933
  0.5258608853357306  0.1459393057897306  0.5724681941780291
  0.2768810710541778  0.6019784011461833  0.5796549471546820
  0.2238788645420763  0.8926356258196179  0.4246894251256682
  0.4739979008404350  0.8516622207043847  0.4249018465315460
  0.0249449141252621  0.6441741734646285  0.5838802291978489
  0.7727584618191373  0.6077196720117337  0.5816158771920804
  0.7253292351451923  0.8958675633878362  0.4224267767620918
  0.9745103656733606  0.8511352924640606  0.4276962850382556
  0.5274106743841301  0.6423561595539574  0.5762505251222968
  0.3041352334183789  0.0660581634612995  0.4776665585641263
  0.2592730308597926  0.3015566731782152  0.4547008364360986
  0.3997015833227593  0.1751428714336458  0.5737228705077736
  0.4883837513906188  0.0512562199023517  0.5403794835288082
  0.3481486777844333  0.4255657955955935  0.4224021164358681
  0.1500524581116957  0.0740057668772819  0.5758584170846714
  0.4441055564850245  0.3166765233441478  0.5170458343413686
  0.1950043734929472  0.4324037533877927  0.5203733496909235
  0.0096807256557867  0.4488935410858932  0.4618405179009281
  0.2388901269702459  0.1977636130327055  0.5404953028079010
  0.0535191353876868  0.1836696833637072  0.4799797185345687
  0.0983085850741427  0.3253095802478400  0.4231869967319716
  0.8062632560639531  0.0674049707762970  0.4775741124751767
  0.7603081188685511  0.3020749946998113  0.4573164658430078
  0.8991845619164307  0.1745105886762986  0.5770880599318390
  0.9895278918604589  0.0511595074061055  0.5407731304601261
  0.8489162434235791  0.4273695832619455  0.4267902363976110
  0.6492478454378207  0.0742786703549132  0.5728415638518585
  0.9441436180619495  0.3165102899740331  0.5210215985462016
  0.6927221078899147  0.4325530256627409  0.5212552398043170
  0.5091608468655399  0.4486891127293380  0.4549734303946406
  0.7388275204071924  0.1977065679425414  0.5421871136859616
  0.5544901488499310  0.1831969942202390  0.4780098131706164
  0.5992422257499663  0.3250799393056083  0.4221875878113069
  0.3028885231898073  0.5658421284224188  0.4841656666698452
  0.2612962057570370  0.7991265720225816  0.4606363466775624
  0.4035241309333705  0.6719515379231256  0.5771467251028130
  0.4857669313398771  0.5467159837031664  0.5495224891984305
  0.3493145991740385  0.9230759981131558  0.4214701763407716
  0.1503017031830196  0.5735463613055681  0.5829957710380868
  0.4455470102545422  0.8173538328029950  0.5204289689927089
  0.1958349572319821  0.9331588410507470  0.5177633932016229
  0.0118041071701855  0.9471198776676238  0.4557661399068290
  0.2414477598292021  0.6976643519106303  0.5496791465421368
  0.0541652576387329  0.6831450950502012  0.4905005165371392
  0.1002995457153603  0.8208941983896509  0.4270671138554029
  0.8041970276427476  0.5667272242516993  0.4898794093022225
  0.7624211934586121  0.8024366941818003  0.4584514319562473
  0.8980831447828214  0.6741735090641005  0.5837638130949530
  0.9890137127264441  0.5497058306051295  0.5506038542043322
  0.8511873496374928  0.9248352193534808  0.4209326888627850
  0.6438586955970368  0.5781060261509962  0.5716690296064401
  0.9457509573687015  0.8182964225420185  0.5238993130873777
  0.6958985334441089  0.9355727312334386  0.5155032193536795
  0.5100485879140685  0.9475688129735004  0.4541382159628369
  0.7400510252052457  0.7013037241294493  0.5455660537709860
  0.5561233684073842  0.6865702362752876  0.4852626028929268
  0.6010050285744698  0.8239658110207171  0.4232856302153203
  0.5609636284861019  0.6768279863698063  0.6666229460669135
 
  0.00000000E+00  0.00000000E+00  0.00000000E+00
  0.00000000E+00  0.00000000E+00  0.00000000E+00
  0.00000000E+00  0.00000000E+00  0.00000000E+00
  0.00000000E+00  0.00000000E+00  0.00000000E+00
  0.00000000E+00  0.00000000E+00  0.00000000E+00
  0.00000000E+00  0.00000000E+00  0.00000000E+00
  0.00000000E+00  0.00000000E+00  0.00000000E+00
  0.00000000E+00  0.00000000E+00  0.00000000E+00
  0.00000000E+00  0.00000000E+00  0.00000000E+00
  0.00000000E+00  0.00000000E+00  0.00000000E+00
  0.00000000E+00  0.00000000E+00  0.00000000E+00
  0.00000000E+00  0.00000000E+00  0.00000000E+00
  0.00000000E+00  0.00000000E+00  0.00000000E+00
  0.00000000E+00  0.00000000E+00  0.00000000E+00
  0.00000000E+00  0.00000000E+00  0.00000000E+00
  0.00000000E+00  0.00000000E+00  0.00000000E+00
  0.00000000E+00  0.00000000E+00  0.00000000E+00
  0.00000000E+00  0.00000000E+00  0.00000000E+00
  0.00000000E+00  0.00000000E+00  0.00000000E+00
  0.00000000E+00  0.00000000E+00  0.00000000E+00
  0.00000000E+00  0.00000000E+00  0.00000000E+00
  0.00000000E+00  0.00000000E+00  0.00000000E+00
  0.00000000E+00  0.00000000E+00  0.00000000E+00
  0.00000000E+00  0.00000000E+00  0.00000000E+00
  0.00000000E+00  0.00000000E+00  0.00000000E+00
  0.00000000E+00  0.00000000E+00  0.00000000E+00
  0.00000000E+00  0.00000000E+00  0.00000000E+00
  0.00000000E+00  0.00000000E+00  0.00000000E+00
  0.00000000E+00  0.00000000E+00  0.00000000E+00
  0.00000000E+00  0.00000000E+00  0.00000000E+00
  0.00000000E+00  0.00000000E+00  0.00000000E+00
  0.00000000E+00  0.00000000E+00  0.00000000E+00
  0.00000000E+00  0.00000000E+00  0.00000000E+00
  0.00000000E+00  0.00000000E+00  0.00000000E+00
  0.00000000E+00  0.00000000E+00  0.00000000E+00
  0.00000000E+00  0.00000000E+00  0.00000000E+00
  0.00000000E+00  0.00000000E+00  0.00000000E+00
  0.00000000E+00  0.00000000E+00  0.00000000E+00
  0.00000000E+00  0.00000000E+00  0.00000000E+00
  0.00000000E+00  0.00000000E+00  0.00000000E+00
  0.00000000E+00  0.00000000E+00  0.00000000E+00
  0.00000000E+00  0.00000000E+00  0.00000000E+00
  0.00000000E+00  0.00000000E+00  0.00000000E+00
  0.00000000E+00  0.00000000E+00  0.00000000E+00
  0.00000000E+00  0.00000000E+00  0.00000000E+00
  0.00000000E+00  0.00000000E+00  0.00000000E+00
  0.00000000E+00  0.00000000E+00  0.00000000E+00
  0.00000000E+00  0.00000000E+00  0.00000000E+00
  0.00000000E+00  0.00000000E+00  0.00000000E+00
  0.00000000E+00  0.00000000E+00  0.00000000E+00
  0.00000000E+00  0.00000000E+00  0.00000000E+00
  0.00000000E+00  0.00000000E+00  0.00000000E+00
  0.00000000E+00  0.00000000E+00  0.00000000E+00
  0.00000000E+00  0.00000000E+00  0.00000000E+00
  0.00000000E+00  0.00000000E+00  0.00000000E+00
  0.00000000E+00  0.00000000E+00  0.00000000E+00
  0.00000000E+00  0.00000000E+00  0.00000000E+00
  0.00000000E+00  0.00000000E+00  0.00000000E+00
  0.00000000E+00  0.00000000E+00  0.00000000E+00
  0.00000000E+00  0.00000000E+00  0.00000000E+00
  0.00000000E+00  0.00000000E+00  0.00000000E+00
  0.00000000E+00  0.00000000E+00  0.00000000E+00
  0.00000000E+00  0.00000000E+00  0.00000000E+00
  0.00000000E+00  0.00000000E+00  0.00000000E+00
  0.00000000E+00  0.00000000E+00  0.00000000E+00
  0.00000000E+00  0.00000000E+00  0.00000000E+00
  0.00000000E+00  0.00000000E+00  0.00000000E+00
  0.00000000E+00  0.00000000E+00  0.00000000E+00
  0.00000000E+00  0.00000000E+00  0.00000000E+00
  0.00000000E+00  0.00000000E+00  0.00000000E+00
  0.00000000E+00  0.00000000E+00  0.00000000E+00
  0.00000000E+00  0.00000000E+00  0.00000000E+00
  0.00000000E+00  0.00000000E+00  0.00000000E+00
  0.00000000E+00  0.00000000E+00  0.00000000E+00
  0.00000000E+00  0.00000000E+00  0.00000000E+00
  0.00000000E+00  0.00000000E+00  0.00000000E+00
  0.00000000E+00  0.00000000E+00  0.00000000E+00
  0.00000000E+00  0.00000000E+00  0.00000000E+00
  0.00000000E+00  0.00000000E+00  0.00000000E+00
  0.00000000E+00  0.00000000E+00  0.00000000E+00
  0.00000000E+00  0.00000000E+00  0.00000000E+00
