CONTCAR\(14)                            
   1.00000000000000     
    15.7967996596999996    0.0000000000000000    0.0000000000000000
    -7.8983998298999998   13.6804298037999992    0.0000000000000000
     0.0000000000000000    0.0000000000000000   18.1074008942000013
   Co   I 
    16    32
Direct
  0.0000000000000000  0.0000000000000000  0.5000000000000000
  0.2500000000000000  0.0000000000000000  0.5000000000000000
  0.5000000000000000  0.0000000000000000  0.5000000000000000
  0.7500000149999977  0.0000000000000000  0.5000000000000000
  0.9999999970000033  0.2499999939999995  0.5000000000000000
  0.2499999970000033  0.2499999939999995  0.5000000000000000
  0.5000000040000003  0.2499999939999995  0.5000000000000000
  0.7500000189999980  0.2499999939999995  0.5000000000000000
  0.9999999939999995  0.4999999870000025  0.5000000000000000
  0.2499999939999995  0.4999999870000025  0.5000000000000000
  0.4999999939999995  0.4999999870000025  0.5000000000000000
  0.7500000240000020  0.4999999870000025  0.5000000000000000
  0.0000000000000000  0.7500000160000013  0.5000000000000000
  0.2500000000000000  0.7500000160000013  0.5000000000000000
  0.5000000000000000  0.7500000160000013  0.5000000000000000
  0.7500000160000013  0.7500000160000013  0.5000000000000000
  0.0833299889999992  0.1666699849999986  0.4137100009999983
  0.1666700030000001  0.0833299999999966  0.5862899990000017
  0.3333299969999999  0.1666699849999986  0.4137100009999983
  0.4166699880000024  0.0833299999999966  0.5862899990000017
  0.5833299519999997  0.1666699849999986  0.4137100009999983
  0.6666700330000026  0.0833299999999966  0.5862899990000017
  0.8333299969999999  0.1666699849999986  0.4137100009999983
  0.9166700179999978  0.0833299999999966  0.5862899990000017
  0.0833299940000032  0.4166699789999981  0.4137100009999983
  0.1666699969999996  0.3333300019999967  0.5862899990000017
  0.3333300010000002  0.4166699789999981  0.4137100009999983
  0.4166699820000019  0.3333300019999967  0.5862899990000017
  0.5833299560000000  0.4166699789999981  0.4137100009999983
  0.6666700419999998  0.3333300019999967  0.5862899990000017
  0.8333300010000002  0.4166699789999981  0.4137100009999983
  0.9166700270000021  0.3333300019999967  0.5862899990000017
  0.0833299600000004  0.6666699729999976  0.4137100009999983
  0.1666699989999998  0.5833299609999969  0.5862899990000017
  0.3333299760000017  0.6666699729999976  0.4137100009999983
  0.4166699840000021  0.5833299609999969  0.5862899990000017
  0.5833299299999979  0.6666699729999976  0.4137100009999983
  0.6666700290000023  0.5833299609999969  0.5862899990000017
  0.8333299760000017  0.6666699729999976  0.4137100009999983
  0.9166700139999975  0.5833299609999969  0.5862899990000017
  0.0833299820000022  0.9166700010000000  0.4137100009999983
  0.1666699900000026  0.8333299889999992  0.5862899990000017
  0.3333299969999999  0.9166700010000000  0.4137100009999983
  0.4166699749999978  0.8333299889999992  0.5862899990000017
  0.5833299519999997  0.9166700010000000  0.4137100009999983
  0.6666700210000016  0.8333299889999992  0.5862899990000017
  0.8333299969999999  0.9166700010000000  0.4137100009999983
  0.9166700059999968  0.8333299889999992  0.5862899990000017
 
  0.00000000E+00  0.00000000E+00  0.00000000E+00
  0.00000000E+00  0.00000000E+00  0.00000000E+00
  0.00000000E+00  0.00000000E+00  0.00000000E+00
  0.00000000E+00  0.00000000E+00  0.00000000E+00
  0.00000000E+00  0.00000000E+00  0.00000000E+00
  0.00000000E+00  0.00000000E+00  0.00000000E+00
  0.00000000E+00  0.00000000E+00  0.00000000E+00
  0.00000000E+00  0.00000000E+00  0.00000000E+00
  0.00000000E+00  0.00000000E+00  0.00000000E+00
  0.00000000E+00  0.00000000E+00  0.00000000E+00
  0.00000000E+00  0.00000000E+00  0.00000000E+00
  0.00000000E+00  0.00000000E+00  0.00000000E+00
  0.00000000E+00  0.00000000E+00  0.00000000E+00
  0.00000000E+00  0.00000000E+00  0.00000000E+00
  0.00000000E+00  0.00000000E+00  0.00000000E+00
  0.00000000E+00  0.00000000E+00  0.00000000E+00
  0.00000000E+00  0.00000000E+00  0.00000000E+00
  0.00000000E+00  0.00000000E+00  0.00000000E+00
  0.00000000E+00  0.00000000E+00  0.00000000E+00
  0.00000000E+00  0.00000000E+00  0.00000000E+00
  0.00000000E+00  0.00000000E+00  0.00000000E+00
  0.00000000E+00  0.00000000E+00  0.00000000E+00
  0.00000000E+00  0.00000000E+00  0.00000000E+00
  0.00000000E+00  0.00000000E+00  0.00000000E+00
  0.00000000E+00  0.00000000E+00  0.00000000E+00
  0.00000000E+00  0.00000000E+00  0.00000000E+00
  0.00000000E+00  0.00000000E+00  0.00000000E+00
  0.00000000E+00  0.00000000E+00  0.00000000E+00
  0.00000000E+00  0.00000000E+00  0.00000000E+00
  0.00000000E+00  0.00000000E+00  0.00000000E+00
  0.00000000E+00  0.00000000E+00  0.00000000E+00
  0.00000000E+00  0.00000000E+00  0.00000000E+00
  0.00000000E+00  0.00000000E+00  0.00000000E+00
  0.00000000E+00  0.00000000E+00  0.00000000E+00
  0.00000000E+00  0.00000000E+00  0.00000000E+00
  0.00000000E+00  0.00000000E+00  0.00000000E+00
  0.00000000E+00  0.00000000E+00  0.00000000E+00
  0.00000000E+00  0.00000000E+00  0.00000000E+00
  0.00000000E+00  0.00000000E+00  0.00000000E+00
  0.00000000E+00  0.00000000E+00  0.00000000E+00
  0.00000000E+00  0.00000000E+00  0.00000000E+00
  0.00000000E+00  0.00000000E+00  0.00000000E+00
  0.00000000E+00  0.00000000E+00  0.00000000E+00
  0.00000000E+00  0.00000000E+00  0.00000000E+00
  0.00000000E+00  0.00000000E+00  0.00000000E+00
  0.00000000E+00  0.00000000E+00  0.00000000E+00
  0.00000000E+00  0.00000000E+00  0.00000000E+00
  0.00000000E+00  0.00000000E+00  0.00000000E+00
