CONTCAR\(6)                             
   1.00000000000000     
    11.7709999084000003    0.0000000000000000    0.0000000000000000
    -5.8855350711999996   11.1688637170000007    0.0000000000000000
     0.0000000000000000    0.0000000000000000   18.2658004761000008
   Cr   I 
     9    18
Direct
  0.0000000000000000  0.0000000000000000  0.5000000000000000
  0.3333299980000035  0.0000000000000000  0.5000000000000000
  0.6666700419999998  0.0000000000000000  0.5000000000000000
  0.9999999919999993  0.3333299980000035  0.5000000000000000
  0.3333299900000029  0.3333299980000035  0.5000000000000000
  0.6666700440000000  0.3333299980000035  0.5000000000000000
  0.9999999759999980  0.6666699860000023  0.5000000000000000
  0.3333299740000015  0.6666699860000023  0.5000000000000000
  0.6666700179999978  0.6666699860000023  0.5000000000000000
  0.1239859012037385  0.2479418224074834  0.5913820997235391
  0.2093440857962605  0.0853881695925196  0.4086178742764588
  0.4573259152037394  0.2479418224074834  0.5913820997235391
  0.5426740837962569  0.0853881695925196  0.4086178742764588
  0.7906559132037430  0.2479418224074834  0.5913820997235391
  0.8760141687962602  0.0853881695925196  0.4086178742764588
  0.1239858952037380  0.5812817894074769  0.5913820997235391
  0.2093440697962592  0.4187181725925200  0.4086178742764588
  0.4573258992037381  0.5812817894074769  0.5913820997235391
  0.5426740677962627  0.4187181725925200  0.4086178742764588
  0.7906559172037433  0.5812817894074769  0.5913820997235391
  0.8760140917962573  0.4187181725925200  0.4086178742764588
  0.1239859082037427  0.9146118514074786  0.5913820997235391
  0.2093440537962579  0.7520581395925205  0.4086178742764588
  0.4573259122037427  0.9146118514074786  0.5913820997235391
  0.5426740517962614  0.7520581395925205  0.4086178742764588
  0.7906559102037392  0.9146118514074786  0.5913820997235391
  0.8760140957962577  0.7520581395925205  0.4086178742764588
 
  0.00000000E+00  0.00000000E+00  0.00000000E+00
  0.00000000E+00  0.00000000E+00  0.00000000E+00
  0.00000000E+00  0.00000000E+00  0.00000000E+00
  0.00000000E+00  0.00000000E+00  0.00000000E+00
  0.00000000E+00  0.00000000E+00  0.00000000E+00
  0.00000000E+00  0.00000000E+00  0.00000000E+00
  0.00000000E+00  0.00000000E+00  0.00000000E+00
  0.00000000E+00  0.00000000E+00  0.00000000E+00
  0.00000000E+00  0.00000000E+00  0.00000000E+00
  0.00000000E+00  0.00000000E+00  0.00000000E+00
  0.00000000E+00  0.00000000E+00  0.00000000E+00
  0.00000000E+00  0.00000000E+00  0.00000000E+00
  0.00000000E+00  0.00000000E+00  0.00000000E+00
  0.00000000E+00  0.00000000E+00  0.00000000E+00
  0.00000000E+00  0.00000000E+00  0.00000000E+00
  0.00000000E+00  0.00000000E+00  0.00000000E+00
  0.00000000E+00  0.00000000E+00  0.00000000E+00
  0.00000000E+00  0.00000000E+00  0.00000000E+00
  0.00000000E+00  0.00000000E+00  0.00000000E+00
  0.00000000E+00  0.00000000E+00  0.00000000E+00
  0.00000000E+00  0.00000000E+00  0.00000000E+00
  0.00000000E+00  0.00000000E+00  0.00000000E+00
  0.00000000E+00  0.00000000E+00  0.00000000E+00
  0.00000000E+00  0.00000000E+00  0.00000000E+00
  0.00000000E+00  0.00000000E+00  0.00000000E+00
  0.00000000E+00  0.00000000E+00  0.00000000E+00
  0.00000000E+00  0.00000000E+00  0.00000000E+00
