Nb3 Se6                                 
   1.00000000000000     
     3.4785907369003799    0.0000000000000001    0.0000000000000000
    -1.7392953684501899    3.0125479475072656    0.0000000000000000
     0.0000000000000000    0.0000000000000000   19.4572789087977931
   Nb   Se
     3     6
Direct
  0.6666667049999973  0.3333333420000031  0.0009189649862033
  0.3333333420000031  0.6666666839999991  0.3342522889862049
  0.0000000000000000  0.0000000000000000  0.6675856069862061
  0.3333333420000031  0.6666666839999991  0.0871103403609670
 -0.0000000000000000 -0.0000000000000000  0.2476376956528341
  0.0000000000000000  0.0000000000000000  0.4204436933609604
  0.6666667049999973  0.3333333420000031  0.5809710136528351
  0.6666667049999973  0.3333333420000031  0.7537770113609613
  0.3333333420000031  0.6666666839999991  0.9143044226528331
 
  0.00000000E+00  0.00000000E+00  0.00000000E+00
  0.00000000E+00  0.00000000E+00  0.00000000E+00
  0.00000000E+00  0.00000000E+00  0.00000000E+00
  0.00000000E+00  0.00000000E+00  0.00000000E+00
  0.00000000E+00  0.00000000E+00  0.00000000E+00
  0.00000000E+00  0.00000000E+00  0.00000000E+00
  0.00000000E+00  0.00000000E+00  0.00000000E+00
  0.00000000E+00  0.00000000E+00  0.00000000E+00
  0.00000000E+00  0.00000000E+00  0.00000000E+00
