CONTCAR\(18)                            
   1.00000000000000     
    13.2923002242999999    0.0000000000000000    0.0000000000000000
     6.5701190447000002   11.5675693128999999    0.0000000000000000
     0.0000000000000000    0.0000000000000000   18.3850994109999988
   Nb   Ir   S    O 
    12     4    32     1
Direct
  0.2650184776642359  0.0149265175849125  0.5018155190941258
  0.5014081017334224  0.0214045449600539  0.5006962628380532
  0.4774176175907805  0.2670065326973948  0.5015476735686928
  0.7383865216465506  0.0260925597009774  0.5002617516647450
  0.9821479562949653  0.0012600833014580  0.5016840739855917
  0.9890537718225455  0.2382576898849384  0.4997618942356706
  0.2465174390543301  0.5212559187559095  0.4969639526428710
  0.4825992175614086  0.5027269273431454  0.5006533132027191
  0.4879453741706839  0.7402173895556639  0.5001751948398551
  0.7641136024770602  0.5148740542565871  0.5031739336403062
  0.0034669646347794  0.5214583276609387  0.4999885606030568
  0.9809143561337009  0.7625138507872435  0.5023872292249040
  0.2729649737594755  0.2313517741751695  0.5021905592432530
  0.7721234276884975  0.2307266854230546  0.4992793080533056
  0.2730256391440106  0.7309023991685362  0.4979754996779298
  0.7738271650581786  0.7306748814596623  0.5033429543913072
  0.3437992259319598  0.0831784776980412  0.4095090764347802
  0.0841494657222198  0.0831094774960745  0.4196831689134466
  0.0955245078934479  0.3272678015335995  0.4332650560134244
  0.3236664262689363  0.3374052016399987  0.4162919058451365
  0.1674941772597960  0.1742773766099601  0.5831655532578850
  0.4234799609790801  0.1665917170271135  0.5939386896455338
  0.4107683008247749  0.4198571780134573  0.5880022097339082
  0.1781548415304837  0.4069622369805186  0.5741029019535212
  0.8375844129539495  0.0803833235038078  0.4077554806255592
  0.5798718391286680  0.0986413696640179  0.4118249381251647
  0.5972013884430913  0.3267082661100731  0.4263078259986285
  0.8292307273869342  0.3367032974378062  0.4190202507535157
  0.6650719395080628  0.1797857906845944  0.5840108748792827
  0.9204115219061769  0.1599339682013113  0.5922370668161063
  0.9205628854338083  0.4194936157354796  0.5820684473421831
  0.6761076892506316  0.4076534288080496  0.5688441604800736
  0.3396266208987457  0.5817852674587431  0.4051140286421344
  0.0809101297265160  0.5984107091127924  0.4116504142059255
  0.0967969621102590  0.8269798743582587  0.4265560301340365
  0.3302239812830781  0.8372875062023065  0.4178708533840081
  0.1695477170254979  0.6755206396754913  0.5821542578931804
  0.4202464090981634  0.6599407193404516  0.5917687723231968
  0.4202753329410124  0.9197081041250674  0.5824917917409738
  0.1769317480228735  0.9070824018721270  0.5679903559035999
  0.8438415848734030  0.5820715674004027  0.4106595169034481
  0.5844636871430672  0.5841208301168885  0.4195628503459797
  0.5965509297274426  0.8269874307864165  0.4338883704333610
  0.8249473198419818  0.8381611724315234  0.4194653564384843
  0.6667645631402463  0.6745726541555122  0.5838743678232425
  0.9249490290509069  0.6645070207121411  0.5946999002504400
  0.9057499738331877  0.9225934120477773  0.5900256941215029
  0.6771940629216785  0.9068668726915582  0.5751123228634628
  0.3972691625053230  0.4257819496530325  0.6683398748684780
 
  0.00000000E+00  0.00000000E+00  0.00000000E+00
  0.00000000E+00  0.00000000E+00  0.00000000E+00
  0.00000000E+00  0.00000000E+00  0.00000000E+00
  0.00000000E+00  0.00000000E+00  0.00000000E+00
  0.00000000E+00  0.00000000E+00  0.00000000E+00
  0.00000000E+00  0.00000000E+00  0.00000000E+00
  0.00000000E+00  0.00000000E+00  0.00000000E+00
  0.00000000E+00  0.00000000E+00  0.00000000E+00
  0.00000000E+00  0.00000000E+00  0.00000000E+00
  0.00000000E+00  0.00000000E+00  0.00000000E+00
  0.00000000E+00  0.00000000E+00  0.00000000E+00
  0.00000000E+00  0.00000000E+00  0.00000000E+00
  0.00000000E+00  0.00000000E+00  0.00000000E+00
  0.00000000E+00  0.00000000E+00  0.00000000E+00
  0.00000000E+00  0.00000000E+00  0.00000000E+00
  0.00000000E+00  0.00000000E+00  0.00000000E+00
  0.00000000E+00  0.00000000E+00  0.00000000E+00
  0.00000000E+00  0.00000000E+00  0.00000000E+00
  0.00000000E+00  0.00000000E+00  0.00000000E+00
  0.00000000E+00  0.00000000E+00  0.00000000E+00
  0.00000000E+00  0.00000000E+00  0.00000000E+00
  0.00000000E+00  0.00000000E+00  0.00000000E+00
  0.00000000E+00  0.00000000E+00  0.00000000E+00
  0.00000000E+00  0.00000000E+00  0.00000000E+00
  0.00000000E+00  0.00000000E+00  0.00000000E+00
  0.00000000E+00  0.00000000E+00  0.00000000E+00
  0.00000000E+00  0.00000000E+00  0.00000000E+00
  0.00000000E+00  0.00000000E+00  0.00000000E+00
  0.00000000E+00  0.00000000E+00  0.00000000E+00
  0.00000000E+00  0.00000000E+00  0.00000000E+00
  0.00000000E+00  0.00000000E+00  0.00000000E+00
  0.00000000E+00  0.00000000E+00  0.00000000E+00
  0.00000000E+00  0.00000000E+00  0.00000000E+00
  0.00000000E+00  0.00000000E+00  0.00000000E+00
  0.00000000E+00  0.00000000E+00  0.00000000E+00
  0.00000000E+00  0.00000000E+00  0.00000000E+00
  0.00000000E+00  0.00000000E+00  0.00000000E+00
  0.00000000E+00  0.00000000E+00  0.00000000E+00
  0.00000000E+00  0.00000000E+00  0.00000000E+00
  0.00000000E+00  0.00000000E+00  0.00000000E+00
  0.00000000E+00  0.00000000E+00  0.00000000E+00
  0.00000000E+00  0.00000000E+00  0.00000000E+00
  0.00000000E+00  0.00000000E+00  0.00000000E+00
  0.00000000E+00  0.00000000E+00  0.00000000E+00
  0.00000000E+00  0.00000000E+00  0.00000000E+00
  0.00000000E+00  0.00000000E+00  0.00000000E+00
  0.00000000E+00  0.00000000E+00  0.00000000E+00
  0.00000000E+00  0.00000000E+00  0.00000000E+00
  0.00000000E+00  0.00000000E+00  0.00000000E+00
