CONTCAR\(6)                             
   1.00000000000000     
    15.4596004485999998    0.0000000000000000    0.0000000000000000
     0.0000000000000000   16.2420005797999991    0.0000000000000000
     0.0000000000000000    0.0000000000000000   21.0251998901000015
   Ce   C    Br   O 
    32    16    40     1
Direct
  0.1248746926303258  0.2500365443395621  0.6391231762602019
  0.1249721189446894  0.2500339764476174  0.3610093327070029
  0.2498914181040504  0.1485707737379257  0.5000912080433135
  0.2499753979511540  0.3513805974851763  0.5000875292394996
  0.3749773832603488  0.2499968792058097  0.6391583708419655
  0.3750269897407443  0.2500096140759387  0.3610222245784520
  0.5000579739650883  0.1485721479581227  0.5000616624597050
  0.5000605838669727  0.3514333944357502  0.5000592660343739
  0.6250505704884489  0.2500269763016441  0.6390694411820531
  0.6250176330121967  0.2500162429896230  0.3609657150214778
  0.7500095257292471  0.1485465935706485  0.5000129425449888
  0.7499273131217447  0.3514387299833618  0.5000000499572279
  0.8749181856911453  0.2500639112794182  0.6390497824035588
  0.8749466736065191  0.2500370071990792  0.3609648416482307
  0.9999631247794456  0.1485864532386543  0.5000264860165438
 -0.0000374523019217  0.3514533259177154  0.5000217592553798
  0.1228455347556706  0.7499205551526382  0.6404358869015494
  0.1255636256519366  0.7499266260378536  0.3621418449741730
  0.2510192954306269  0.6489662066582764  0.5013829457879946
  0.2508545155896775  0.8509667492683181  0.5014016589493095
  0.3749227676047678  0.7499925357811431  0.6552279873650633
  0.3749157940784998  0.7500623054136635  0.3633808963598696
  0.4989541060581795  0.6490719735089776  0.5014422835387300
  0.4989817430177189  0.8510184209649593  0.5014521782667154
  0.6270928945760870  0.7500100354145653  0.6405407088485806
  0.6243695165443857  0.7500257642335051  0.3622493443194040
  0.7498084566997335  0.6485660063386478  0.5004596557368982
  0.7499753276644465  0.8513124560065255  0.5004603927223960
  0.8750416715063191  0.7499084943505311  0.6392625538406440
  0.8750408400106210  0.7499019170926816  0.3611480938554698
  0.0001180150151306  0.6484938787346172  0.5004214484905291
  0.0000972604809019  0.8513062860516857  0.5004203933566213
  0.1249284184788050  0.2500250578668101  0.4666113797252562
  0.1248974597103326  0.2500259832837311  0.5335092164432909
  0.3750018893406891  0.2499894247135719  0.4666269970934260
  0.3750018518526697  0.2499879868709280  0.5335238566786102
  0.6250463205828568  0.2499956401967017  0.4665621059019622
  0.6250617967127652  0.2499988121752731  0.5334582816478370
  0.8749626307093196  0.2500286224811029  0.4665610641526780
  0.8749565149433289  0.2500352072804731  0.5334561149728609
  0.1252133129216560  0.7498231606745103  0.4677543320683876
  0.1249396450132218  0.7497941868818708  0.5346549913193170
  0.3749231794421060  0.7500686724304618  0.4692645543012139
  0.3749245802049749  0.7500814238063871  0.5363689349056409
  0.6247394509782430  0.7500267166949131  0.4678516594356267
  0.6250072768453071  0.7500236755862426  0.5347556722442920
  0.8750293270941529  0.7498043530166727  0.4667305874724667
  0.8750422832112960  0.7498020129053489  0.5336120067810923
  0.9998789737815479  0.3877542341844947  0.6451375820356363
  0.1247038041869581  0.0001215566073203  0.4996586671810623
  0.2498684965685420  0.1124695377921080  0.6451083669935129
  0.2500035117247833  0.3877783443589206  0.3548065006326580
  0.2499771252752488  0.1122926861211763  0.3547936055287210
  0.2498949642452087  0.3875584168306413  0.6450881816430903
  0.3749151751025884  0.0006626347283500  0.4999762733569848
  0.5000467471585478  0.1124577892199505  0.6450476739500531
  0.5000433099101336  0.3878104637694104  0.3547854888018790
  0.5000723197824813  0.1122259390335494  0.3548283917253114
  0.4999995497132923  0.3875734839178199  0.6450549900381020
  0.6252018921837732  0.0002327743148946  0.4996037358602918
  0.7500036541176163  0.1122839171047574  0.6451708325951876
  0.7499845173095833  0.3878729635612641  0.3547769242815419
  0.7499946443712484  0.1121643764219184  0.3547733789107833
  0.7499620965338418  0.3878149900982631  0.6451185315395256
  0.8750848056712111 -0.0000787667387946  0.4998983436307832
  0.9998345145168204  0.1123302262257281  0.6451480804319885
  0.9999268807368432  0.3878019285997520  0.3547825001385251
  0.9999121772122245  0.1122551295750469  0.3547873177870914
  0.9988168073477628  0.8883455524080047  0.6451734162123789
  0.1249146869420154  0.4996892156630524  0.4996423416364220
  0.2458387284398163  0.6112594444748898  0.6428468118952426
  0.2501032159683831  0.8876350374266081  0.3555838682275146
  0.2502124368961680  0.6123798198259034  0.3555612416658814
  0.2458071848762602  0.8887013782488906  0.6428807551027224
  0.3750090637334970  0.4994542873636216  0.4999748235303593
  0.5040730861075533  0.6113024398025844  0.6428935743924507
  0.4997578024568955  0.8876322883687989  0.3555978677590000
  0.4997003055738198  0.6124716819866793  0.3555879896336208
  0.5040420588851312  0.8887393073936110  0.6429378505619485
  0.6250963371220660  0.4999099781120774  0.4996697427205516
  0.7512090421822906  0.6116198573980006  0.6452575868627738
  0.7497934230210580  0.8874777257287839  0.3550446408786863
  0.7497009856708504  0.6124886392089324  0.3550250090224263
  0.7512624759069556  0.8883443062239516  0.6452288068007488
  0.8748570212662031  0.4999254395294710  0.4998737543939262
  0.9987884431093127  0.6114895358847542  0.6452562502819454
  0.0002482991808991  0.8875104061192037  0.3550466227063181
  0.0002805985444705  0.6123338542529601  0.3549910462465461
  0.3749088883493871  0.7498232358129989  0.7429666257539477
 
  0.00000000E+00  0.00000000E+00  0.00000000E+00
  0.00000000E+00  0.00000000E+00  0.00000000E+00
  0.00000000E+00  0.00000000E+00  0.00000000E+00
  0.00000000E+00  0.00000000E+00  0.00000000E+00
  0.00000000E+00  0.00000000E+00  0.00000000E+00
  0.00000000E+00  0.00000000E+00  0.00000000E+00
  0.00000000E+00  0.00000000E+00  0.00000000E+00
  0.00000000E+00  0.00000000E+00  0.00000000E+00
  0.00000000E+00  0.00000000E+00  0.00000000E+00
  0.00000000E+00  0.00000000E+00  0.00000000E+00
  0.00000000E+00  0.00000000E+00  0.00000000E+00
  0.00000000E+00  0.00000000E+00  0.00000000E+00
  0.00000000E+00  0.00000000E+00  0.00000000E+00
  0.00000000E+00  0.00000000E+00  0.00000000E+00
  0.00000000E+00  0.00000000E+00  0.00000000E+00
  0.00000000E+00  0.00000000E+00  0.00000000E+00
  0.00000000E+00  0.00000000E+00  0.00000000E+00
  0.00000000E+00  0.00000000E+00  0.00000000E+00
  0.00000000E+00  0.00000000E+00  0.00000000E+00
  0.00000000E+00  0.00000000E+00  0.00000000E+00
  0.00000000E+00  0.00000000E+00  0.00000000E+00
  0.00000000E+00  0.00000000E+00  0.00000000E+00
  0.00000000E+00  0.00000000E+00  0.00000000E+00
  0.00000000E+00  0.00000000E+00  0.00000000E+00
  0.00000000E+00  0.00000000E+00  0.00000000E+00
  0.00000000E+00  0.00000000E+00  0.00000000E+00
  0.00000000E+00  0.00000000E+00  0.00000000E+00
  0.00000000E+00  0.00000000E+00  0.00000000E+00
  0.00000000E+00  0.00000000E+00  0.00000000E+00
  0.00000000E+00  0.00000000E+00  0.00000000E+00
  0.00000000E+00  0.00000000E+00  0.00000000E+00
  0.00000000E+00  0.00000000E+00  0.00000000E+00
  0.00000000E+00  0.00000000E+00  0.00000000E+00
  0.00000000E+00  0.00000000E+00  0.00000000E+00
  0.00000000E+00  0.00000000E+00  0.00000000E+00
  0.00000000E+00  0.00000000E+00  0.00000000E+00
  0.00000000E+00  0.00000000E+00  0.00000000E+00
  0.00000000E+00  0.00000000E+00  0.00000000E+00
  0.00000000E+00  0.00000000E+00  0.00000000E+00
  0.00000000E+00  0.00000000E+00  0.00000000E+00
  0.00000000E+00  0.00000000E+00  0.00000000E+00
  0.00000000E+00  0.00000000E+00  0.00000000E+00
  0.00000000E+00  0.00000000E+00  0.00000000E+00
  0.00000000E+00  0.00000000E+00  0.00000000E+00
  0.00000000E+00  0.00000000E+00  0.00000000E+00
  0.00000000E+00  0.00000000E+00  0.00000000E+00
  0.00000000E+00  0.00000000E+00  0.00000000E+00
  0.00000000E+00  0.00000000E+00  0.00000000E+00
  0.00000000E+00  0.00000000E+00  0.00000000E+00
  0.00000000E+00  0.00000000E+00  0.00000000E+00
  0.00000000E+00  0.00000000E+00  0.00000000E+00
  0.00000000E+00  0.00000000E+00  0.00000000E+00
  0.00000000E+00  0.00000000E+00  0.00000000E+00
  0.00000000E+00  0.00000000E+00  0.00000000E+00
  0.00000000E+00  0.00000000E+00  0.00000000E+00
  0.00000000E+00  0.00000000E+00  0.00000000E+00
  0.00000000E+00  0.00000000E+00  0.00000000E+00
  0.00000000E+00  0.00000000E+00  0.00000000E+00
  0.00000000E+00  0.00000000E+00  0.00000000E+00
  0.00000000E+00  0.00000000E+00  0.00000000E+00
  0.00000000E+00  0.00000000E+00  0.00000000E+00
  0.00000000E+00  0.00000000E+00  0.00000000E+00
  0.00000000E+00  0.00000000E+00  0.00000000E+00
  0.00000000E+00  0.00000000E+00  0.00000000E+00
  0.00000000E+00  0.00000000E+00  0.00000000E+00
  0.00000000E+00  0.00000000E+00  0.00000000E+00
  0.00000000E+00  0.00000000E+00  0.00000000E+00
  0.00000000E+00  0.00000000E+00  0.00000000E+00
  0.00000000E+00  0.00000000E+00  0.00000000E+00
  0.00000000E+00  0.00000000E+00  0.00000000E+00
  0.00000000E+00  0.00000000E+00  0.00000000E+00
  0.00000000E+00  0.00000000E+00  0.00000000E+00
  0.00000000E+00  0.00000000E+00  0.00000000E+00
  0.00000000E+00  0.00000000E+00  0.00000000E+00
  0.00000000E+00  0.00000000E+00  0.00000000E+00
  0.00000000E+00  0.00000000E+00  0.00000000E+00
  0.00000000E+00  0.00000000E+00  0.00000000E+00
  0.00000000E+00  0.00000000E+00  0.00000000E+00
  0.00000000E+00  0.00000000E+00  0.00000000E+00
  0.00000000E+00  0.00000000E+00  0.00000000E+00
  0.00000000E+00  0.00000000E+00  0.00000000E+00
  0.00000000E+00  0.00000000E+00  0.00000000E+00
  0.00000000E+00  0.00000000E+00  0.00000000E+00
  0.00000000E+00  0.00000000E+00  0.00000000E+00
  0.00000000E+00  0.00000000E+00  0.00000000E+00
  0.00000000E+00  0.00000000E+00  0.00000000E+00
  0.00000000E+00  0.00000000E+00  0.00000000E+00
  0.00000000E+00  0.00000000E+00  0.00000000E+00
  0.00000000E+00  0.00000000E+00  0.00000000E+00
