CONTCAR                                 
   1.00000000000000     
    14.0796003342000002    0.0000000000000000    0.0000000000000000
    -7.0398001671000001   12.1932915645000008    0.0000000000000000
     0.0000000000000000    0.0000000000000000   18.0872001647999987
   Ti   Se   O 
    16    32     1
Selective dynamics
Direct
  0.9962465363122490  0.9976807090702096  0.5003222391299289   F   F   F
  0.2501641690170828  0.9992259530406571  0.4977823443418430   F   F   F
  0.4956567937521257  0.0007212277483930  0.4953817000374841   F   F   F
  0.7527318575204305  0.0015959889558772  0.5025603719098584   F   F   F
  0.0050547995925783  0.2512716563979112  0.5022666445492234   F   F   F
  0.2517777073906444  0.2450333053024494  0.5047019479437012   F   F   F
  0.5070155019656610  0.2530780667323143  0.5011806863776656   F   F   F
  0.7506714103808818  0.2440708585807130  0.5000068179554944   F   F   F
  0.9929411852703396  0.4969785242380240  0.4965332626287946   F   F   F
  0.2415204183769646  0.4968211572702330  0.4977954143331402   F   F   F
  0.4981209238772450  0.4988730566310764  0.5272478773649709   F   F   F
  0.7514577416004826  0.4985496436849530  0.5003716402690017   F   F   F
  0.0067685450859329  0.7530358868056695  0.4971954852241112   F   F   F
  0.2508721718452875  0.7455669041159965  0.4948862914153480   F   F   F
  0.5074706536069797  0.7616182167318968  0.5007637197080967   F   F   F
  0.7522613426422566  0.7454063413141441  0.5053915734905559   F   F   F
  0.0864375457162083  0.1664241994645579  0.4162743539307954   F   F   F
  0.1682675681818395  0.0794595881066797  0.5876806452799670   F   F   F
  0.3332257681490560  0.1689284843928220  0.4148741450851716   F   F   F
  0.4158300998087228  0.0759392921051898  0.5851241003625773   F   F   F
  0.5860114420690223  0.1686493740110322  0.4121812298458849   F   F   F
  0.6676262129035138  0.0833771440146620  0.5860242630632087   F   F   F
  0.8328119736247572  0.1628185339697410  0.4143510700894808   F   F   F
  0.9176184947942332  0.0798669299773422  0.5884071940726585   F   F   F
  0.0811470319264842  0.4098246673778903  0.4123915213002292   F   F   F
  0.1644771685282507  0.3326539578826484  0.5888986540541552   F   F   F
  0.3463746000388568  0.4236158346501995  0.4281022441973477   F   F   F
  0.4143415533152321  0.3137918806500650  0.5942784863708184   F   F   F
  0.5820436399209115  0.4176069267798326  0.4212148347937941   F   F   F
  0.6682785681342978  0.3301896632217023  0.5872112681123554   F   F   F
  0.8341400083026329  0.4155784590746237  0.4116710047376699   F   F   F
  0.9176940338990462  0.3341633261206240  0.5854135317586255   F   F   F
  0.0827374861269661  0.6656387663420560  0.4100303602230824   F   F   F
  0.1667543222900818  0.5876842800658721  0.5845814679197048   F   F   F
  0.3333093090577606  0.6639834358923693  0.4123254377112318   F   F   F
  0.3884545670509922  0.6012710206940852  0.6007055279989757   F   F   F
  0.5772682608578492  0.6562027226395486  0.4281989133701742   F   F   F
  0.6896865242195886  0.5863689369015859  0.5943885333360299   F   F   F
  0.8292983723785525  0.6648314662557766  0.4149681235327591   F   F   F
  0.9232441100720195  0.5821432646183311  0.5855347580240817   F   F   F
  0.0837415421258498  0.9154169267897529  0.4117981571021971   F   F   F
  0.1661812772357791  0.8321407394314377  0.5836202609716281   F   F   F
  0.3354211184368836  0.9186948981663789  0.4094476102825197   F   F   F
  0.4143018100737166  0.8382462564687074  0.5845231034582028   F   F   F
  0.5863210633388718  0.9154567474635229  0.4129665980070243   F   F   F
  0.6634776685328276  0.8317719403892099  0.5895608992094239   F   F   F
  0.8334223126333811  0.9131123589365870  0.4163253544666503   F   F   F
  0.9219382705267165  0.8334424101128519  0.5875120556140487   F   F   F
  0.4774448414919590  0.5418485784118161  0.6184460862866643   T   T   T
 
  0.00000000E+00  0.00000000E+00  0.00000000E+00
  0.00000000E+00  0.00000000E+00  0.00000000E+00
  0.00000000E+00  0.00000000E+00  0.00000000E+00
  0.00000000E+00  0.00000000E+00  0.00000000E+00
  0.00000000E+00  0.00000000E+00  0.00000000E+00
  0.00000000E+00  0.00000000E+00  0.00000000E+00
  0.00000000E+00  0.00000000E+00  0.00000000E+00
  0.00000000E+00  0.00000000E+00  0.00000000E+00
  0.00000000E+00  0.00000000E+00  0.00000000E+00
  0.00000000E+00  0.00000000E+00  0.00000000E+00
  0.00000000E+00  0.00000000E+00  0.00000000E+00
  0.00000000E+00  0.00000000E+00  0.00000000E+00
  0.00000000E+00  0.00000000E+00  0.00000000E+00
  0.00000000E+00  0.00000000E+00  0.00000000E+00
  0.00000000E+00  0.00000000E+00  0.00000000E+00
  0.00000000E+00  0.00000000E+00  0.00000000E+00
  0.00000000E+00  0.00000000E+00  0.00000000E+00
  0.00000000E+00  0.00000000E+00  0.00000000E+00
  0.00000000E+00  0.00000000E+00  0.00000000E+00
  0.00000000E+00  0.00000000E+00  0.00000000E+00
  0.00000000E+00  0.00000000E+00  0.00000000E+00
  0.00000000E+00  0.00000000E+00  0.00000000E+00
  0.00000000E+00  0.00000000E+00  0.00000000E+00
  0.00000000E+00  0.00000000E+00  0.00000000E+00
  0.00000000E+00  0.00000000E+00  0.00000000E+00
  0.00000000E+00  0.00000000E+00  0.00000000E+00
  0.00000000E+00  0.00000000E+00  0.00000000E+00
  0.00000000E+00  0.00000000E+00  0.00000000E+00
  0.00000000E+00  0.00000000E+00  0.00000000E+00
  0.00000000E+00  0.00000000E+00  0.00000000E+00
  0.00000000E+00  0.00000000E+00  0.00000000E+00
  0.00000000E+00  0.00000000E+00  0.00000000E+00
  0.00000000E+00  0.00000000E+00  0.00000000E+00
  0.00000000E+00  0.00000000E+00  0.00000000E+00
  0.00000000E+00  0.00000000E+00  0.00000000E+00
  0.00000000E+00  0.00000000E+00  0.00000000E+00
  0.00000000E+00  0.00000000E+00  0.00000000E+00
  0.00000000E+00  0.00000000E+00  0.00000000E+00
  0.00000000E+00  0.00000000E+00  0.00000000E+00
  0.00000000E+00  0.00000000E+00  0.00000000E+00
  0.00000000E+00  0.00000000E+00  0.00000000E+00
  0.00000000E+00  0.00000000E+00  0.00000000E+00
  0.00000000E+00  0.00000000E+00  0.00000000E+00
  0.00000000E+00  0.00000000E+00  0.00000000E+00
  0.00000000E+00  0.00000000E+00  0.00000000E+00
  0.00000000E+00  0.00000000E+00  0.00000000E+00
  0.00000000E+00  0.00000000E+00  0.00000000E+00
  0.00000000E+00  0.00000000E+00  0.00000000E+00
  0.00000000E+00  0.00000000E+00  0.00000000E+00
