CONTCAR\(13)                            
   1.00000000000000     
    13.3449001311999993    0.0000000000000000    0.0000000000000000
     0.0000000000000000   15.5698995589999996    0.0000000000000000
     0.0000000000000000    0.0000000000000000   18.1107006073000001
   Mn   F 
    18    72
Direct
  0.1666499920000035 -0.0000000000000000  0.5000000000000000
  0.0000000000000000  0.1666699949999995  0.5000100050000000
  0.4999899950000000 -0.0000000000000000  0.5000000000000000
  0.3333400030000035  0.1666699949999995  0.5000100050000000
  0.8333199930000035  0.0000000000000000  0.5000000000000000
  0.6666700020000036  0.1666699949999995  0.5000100050000000
  0.1666499920000035  0.3333300050000005  0.5000000000000000
  0.0000000000000000  0.5000000000000000  0.5000100050000000
  0.4999899950000000  0.3333300050000005  0.5000000000000000
  0.3333400030000035  0.5000000000000000  0.5000100050000000
  0.8333199930000035  0.3333300050000005  0.5000000000000000
  0.6666700020000036  0.5000000000000000  0.5000100050000000
  0.1666499920000035  0.6666600109999976  0.5000000000000000
 -0.0000000000000000  0.8333399589999999  0.5000100050000000
  0.4999899950000000  0.6666600109999976  0.5000000000000000
  0.3333400030000035  0.8333399589999999  0.5000100050000000
  0.8333199930000035  0.6666600109999976  0.5000000000000000
  0.6666700020000036  0.8333399589999999  0.5000100050000000
  0.2491366450596513  0.0839157571823952  0.4569923525979974
  0.2508533679403502  0.2505857521823946  0.4570024095979946
  0.0958382720313535  0.3328073867064198  0.4184587744678745
  0.0708317289686464  0.1661374077064217  0.4184487694678745
  0.2624982780313544  0.1671925972935789  0.5815411995321302
  0.2375017219686457  0.0005225972935825  0.5815512045321303
  0.0824766390596506  0.0827442378176010  0.5429975904020052
  0.0841933539403487  0.2494142328176005  0.5429975904020052
  0.5824766660596491  0.0839157571823952  0.4569923525979974
  0.5841933359403474  0.2505857521823946  0.4570024095979946
  0.4291782660313600  0.3328073867064198  0.4184587744678745
  0.4041617369686435  0.1661374077064217  0.4184487694678745
  0.5958282940313594  0.1671925972935789  0.5815411995321302
  0.5708417429686435  0.0005225972935825  0.5815512045321303
  0.4158066640596527  0.0827442378176010  0.5429975904020052
  0.4175233699403467  0.2494142328176005  0.5429975904020052
  0.9158066280596496  0.0839157571823952  0.4569923525979974
  0.9175232989403516  0.2505857521823946  0.4570024095979946
  0.7625083010313559  0.3328073867064198  0.4184587744678745
  0.7374916989686441  0.1661374077064217  0.4184487694678745
  0.9291682970313558  0.1671925972935789  0.5815411995321302
  0.9041717059686406  0.0005225972935825  0.5815512045321303
  0.7491466320596497  0.0827442378176010  0.5429975904020052
  0.7508633729403503  0.2494142328176005  0.5429975904020052
  0.2491366450596513  0.4172457621823957  0.4569923525979974
  0.2508533679403502  0.5839257411823970  0.4570024095979946
  0.0958382720313535  0.6661374227064196  0.4184587744678745
  0.0708317289686464  0.4994773817064193  0.4184487694678745
  0.2624982780313544  0.5005226182935805  0.5815411995321302
  0.2375017219686457  0.3338626072935831  0.5815512045321303
  0.0824766390596506  0.4160842428176048  0.5429975904020052
  0.0841933539403487  0.5827442228176034  0.5429975904020052
  0.5824766660596491  0.4172457621823957  0.4569923525979974
  0.5841933359403474  0.5839257411823970  0.4570024095979946
  0.4291782660313600  0.6661374227064196  0.4184587744678745
  0.4041617369686435  0.4994773817064193  0.4184487694678745
  0.5958282940313594  0.5005226182935805  0.5815411995321302
  0.5708417429686435  0.3338626072935831  0.5815512045321303
  0.4158066640596527  0.4160842428176048  0.5429975904020052
  0.4175233699403467  0.5827442228176034  0.5429975904020052
  0.9158066280596496  0.4172457621823957  0.4569923525979974
  0.9175232989403516  0.5839257411823970  0.4570024095979946
  0.7625083010313559  0.6661374227064196  0.4184587744678745
  0.7374916989686441  0.4994773817064193  0.4184487694678745
  0.9291682970313558  0.5005226182935805  0.5815411995321302
  0.9041717059686406  0.3338626072935831  0.5815512045321303
  0.7491466320596497  0.4160842428176048  0.5429975904020052
  0.7508633729403503  0.5827442228176034  0.5429975904020052
  0.2491366450596513  0.7505857211823956  0.4569923525979974
  0.2508533679403502  0.9172557461823976  0.4570024095979946
  0.0958382720313535  0.9994774127064185  0.4184587744678745
  0.0708317289686464  0.8328074487064181  0.4184487694678745
  0.2624982780313544  0.8338626072935829  0.5815411995321302
  0.2375017219686457  0.6671925822935809  0.5815512045321303
  0.0824766390596506  0.7494142478176054  0.5429975904020052
  0.0841933539403487  0.9160842118176058  0.5429975904020052
  0.5824766660596491  0.7505857211823956  0.4569923525979974
  0.5841933359403474  0.9172557461823976  0.4570024095979946
  0.4291782660313600  0.9994774127064185  0.4184587744678745
  0.4041617369686435  0.8328074487064181  0.4184487694678745
  0.5958282940313594  0.8338626072935829  0.5815411995321302
  0.5708417429686435  0.6671925822935809  0.5815512045321303
  0.4158066640596527  0.7494142478176054  0.5429975904020052
  0.4175233699403467  0.9160842118176058  0.5429975904020052
  0.9158066280596496  0.7505857211823956  0.4569923525979974
  0.9175232989403516  0.9172557461823976  0.4570024095979946
  0.7625083010313559  0.9994774127064185  0.4184587744678745
  0.7374916989686441  0.8328074487064181  0.4184487694678745
  0.9291682970313558  0.8338626072935829  0.5815411995321302
  0.9041717059686406  0.6671925822935809  0.5815512045321303
  0.7491466320596497  0.7494142478176054  0.5429975904020052
  0.7508633729403503  0.9160842118176058  0.5429975904020052
 
  0.00000000E+00  0.00000000E+00  0.00000000E+00
  0.00000000E+00  0.00000000E+00  0.00000000E+00
  0.00000000E+00  0.00000000E+00  0.00000000E+00
  0.00000000E+00  0.00000000E+00  0.00000000E+00
  0.00000000E+00  0.00000000E+00  0.00000000E+00
  0.00000000E+00  0.00000000E+00  0.00000000E+00
  0.00000000E+00  0.00000000E+00  0.00000000E+00
  0.00000000E+00  0.00000000E+00  0.00000000E+00
  0.00000000E+00  0.00000000E+00  0.00000000E+00
  0.00000000E+00  0.00000000E+00  0.00000000E+00
  0.00000000E+00  0.00000000E+00  0.00000000E+00
  0.00000000E+00  0.00000000E+00  0.00000000E+00
  0.00000000E+00  0.00000000E+00  0.00000000E+00
  0.00000000E+00  0.00000000E+00  0.00000000E+00
  0.00000000E+00  0.00000000E+00  0.00000000E+00
  0.00000000E+00  0.00000000E+00  0.00000000E+00
  0.00000000E+00  0.00000000E+00  0.00000000E+00
  0.00000000E+00  0.00000000E+00  0.00000000E+00
  0.00000000E+00  0.00000000E+00  0.00000000E+00
  0.00000000E+00  0.00000000E+00  0.00000000E+00
  0.00000000E+00  0.00000000E+00  0.00000000E+00
  0.00000000E+00  0.00000000E+00  0.00000000E+00
  0.00000000E+00  0.00000000E+00  0.00000000E+00
  0.00000000E+00  0.00000000E+00  0.00000000E+00
  0.00000000E+00  0.00000000E+00  0.00000000E+00
  0.00000000E+00  0.00000000E+00  0.00000000E+00
  0.00000000E+00  0.00000000E+00  0.00000000E+00
  0.00000000E+00  0.00000000E+00  0.00000000E+00
  0.00000000E+00  0.00000000E+00  0.00000000E+00
  0.00000000E+00  0.00000000E+00  0.00000000E+00
  0.00000000E+00  0.00000000E+00  0.00000000E+00
  0.00000000E+00  0.00000000E+00  0.00000000E+00
  0.00000000E+00  0.00000000E+00  0.00000000E+00
  0.00000000E+00  0.00000000E+00  0.00000000E+00
  0.00000000E+00  0.00000000E+00  0.00000000E+00
  0.00000000E+00  0.00000000E+00  0.00000000E+00
  0.00000000E+00  0.00000000E+00  0.00000000E+00
  0.00000000E+00  0.00000000E+00  0.00000000E+00
  0.00000000E+00  0.00000000E+00  0.00000000E+00
  0.00000000E+00  0.00000000E+00  0.00000000E+00
  0.00000000E+00  0.00000000E+00  0.00000000E+00
  0.00000000E+00  0.00000000E+00  0.00000000E+00
  0.00000000E+00  0.00000000E+00  0.00000000E+00
  0.00000000E+00  0.00000000E+00  0.00000000E+00
  0.00000000E+00  0.00000000E+00  0.00000000E+00
  0.00000000E+00  0.00000000E+00  0.00000000E+00
  0.00000000E+00  0.00000000E+00  0.00000000E+00
  0.00000000E+00  0.00000000E+00  0.00000000E+00
  0.00000000E+00  0.00000000E+00  0.00000000E+00
  0.00000000E+00  0.00000000E+00  0.00000000E+00
  0.00000000E+00  0.00000000E+00  0.00000000E+00
  0.00000000E+00  0.00000000E+00  0.00000000E+00
  0.00000000E+00  0.00000000E+00  0.00000000E+00
  0.00000000E+00  0.00000000E+00  0.00000000E+00
  0.00000000E+00  0.00000000E+00  0.00000000E+00
  0.00000000E+00  0.00000000E+00  0.00000000E+00
  0.00000000E+00  0.00000000E+00  0.00000000E+00
  0.00000000E+00  0.00000000E+00  0.00000000E+00
  0.00000000E+00  0.00000000E+00  0.00000000E+00
  0.00000000E+00  0.00000000E+00  0.00000000E+00
  0.00000000E+00  0.00000000E+00  0.00000000E+00
  0.00000000E+00  0.00000000E+00  0.00000000E+00
  0.00000000E+00  0.00000000E+00  0.00000000E+00
  0.00000000E+00  0.00000000E+00  0.00000000E+00
  0.00000000E+00  0.00000000E+00  0.00000000E+00
  0.00000000E+00  0.00000000E+00  0.00000000E+00
  0.00000000E+00  0.00000000E+00  0.00000000E+00
  0.00000000E+00  0.00000000E+00  0.00000000E+00
  0.00000000E+00  0.00000000E+00  0.00000000E+00
  0.00000000E+00  0.00000000E+00  0.00000000E+00
  0.00000000E+00  0.00000000E+00  0.00000000E+00
  0.00000000E+00  0.00000000E+00  0.00000000E+00
  0.00000000E+00  0.00000000E+00  0.00000000E+00
  0.00000000E+00  0.00000000E+00  0.00000000E+00
  0.00000000E+00  0.00000000E+00  0.00000000E+00
  0.00000000E+00  0.00000000E+00  0.00000000E+00
  0.00000000E+00  0.00000000E+00  0.00000000E+00
  0.00000000E+00  0.00000000E+00  0.00000000E+00
  0.00000000E+00  0.00000000E+00  0.00000000E+00
  0.00000000E+00  0.00000000E+00  0.00000000E+00
  0.00000000E+00  0.00000000E+00  0.00000000E+00
  0.00000000E+00  0.00000000E+00  0.00000000E+00
  0.00000000E+00  0.00000000E+00  0.00000000E+00
  0.00000000E+00  0.00000000E+00  0.00000000E+00
  0.00000000E+00  0.00000000E+00  0.00000000E+00
  0.00000000E+00  0.00000000E+00  0.00000000E+00
  0.00000000E+00  0.00000000E+00  0.00000000E+00
  0.00000000E+00  0.00000000E+00  0.00000000E+00
  0.00000000E+00  0.00000000E+00  0.00000000E+00
  0.00000000E+00  0.00000000E+00  0.00000000E+00
