CONTCAR\(8)                             
   1.00000000000000     
    13.5958003997999999    0.0000000000000000    0.0000000000000000
     0.0000000000000000   14.8882999419999997    0.0000000000000000
     0.0000000000000000    0.0000000000000000   20.6940002440999997
   Ti   S 
    24    72
Direct
  0.0625000000000000  0.0434000030000021  0.5648699919999984
  0.1874999910000028  0.2101200110000008  0.4351200079999984
  0.3125000089999972  0.0434000030000021  0.5648699919999984
  0.4374999910000028  0.2101200110000008  0.4351200079999984
  0.5625000089999972  0.0434000030000021  0.5648699919999984
  0.6874999910000028  0.2101200110000008  0.4351200079999984
  0.8125000089999972  0.0434000030000021  0.5648699919999984
  0.9375000260000022  0.2101200110000008  0.4351200079999984
  0.0625000000000000  0.3767299889999975  0.5648699919999984
  0.1874999910000028  0.5434600390000028  0.4351200079999984
  0.3125000089999972  0.3767299889999975  0.5648699919999984
  0.4374999910000028  0.5434600390000028  0.4351200079999984
  0.5625000089999972  0.3767299889999975  0.5648699919999984
  0.6874999910000028  0.5434600390000028  0.4351200079999984
  0.8125000089999972  0.3767299889999975  0.5648699919999984
  0.9375000260000022  0.5434600390000028  0.4351200079999984
  0.0625000000000000  0.7100600240000006  0.5648699919999984
  0.1874999910000028  0.8767899770000014  0.4351200079999984
  0.3125000089999972  0.7100600240000006  0.5648699919999984
  0.4374999910000028  0.8767899770000014  0.4351200079999984
  0.5625000089999972  0.7100600240000006  0.5648699919999984
  0.6874999910000028  0.8767899770000014  0.4351200079999984
  0.8125000089999972  0.7100600240000006  0.5648699919999984
  0.9375000260000022  0.8767899770000014  0.4351200079999984
  0.0625000000000000  0.1415500120000033  0.3623900150000026
  0.1874999910000028  0.1119700019999996  0.6376199859999971
  0.1874999910000028  0.0434399970000001  0.4787599860000000
  0.0625000000000000  0.2100999939999966  0.5212400140000000
  0.1874999910000028  0.3081999930000023  0.6376699879999990
  0.0625000000000000  0.2786600009999987  0.3623299890000027
  0.3125000089999972  0.1415500120000033  0.3623900150000026
  0.4374999910000028  0.1119700019999996  0.6376199859999971
  0.4374999910000028  0.0434399970000001  0.4787599860000000
  0.3125000089999972  0.2100999939999966  0.5212400140000000
  0.4374999910000028  0.3081999930000023  0.6376699879999990
  0.3125000089999972  0.2786600009999987  0.3623299890000027
  0.5625000089999972  0.1415500120000033  0.3623900150000026
  0.6874999910000028  0.1119700019999996  0.6376199859999971
  0.6874999910000028  0.0434399970000001  0.4787599860000000
  0.5625000089999972  0.2100999939999966  0.5212400140000000
  0.6874999910000028  0.3081999930000023  0.6376699879999990
  0.5625000089999972  0.2786600009999987  0.3623299890000027
  0.8125000089999972  0.1415500120000033  0.3623900150000026
  0.9375000260000022  0.1119700019999996  0.6376199859999971
  0.9375000260000022  0.0434399970000001  0.4787599860000000
  0.8125000089999972  0.2100999939999966  0.5212400140000000
  0.9375000260000022  0.3081999930000023  0.6376699879999990
  0.8125000089999972  0.2786600009999987  0.3623299890000027
  0.0625000000000000  0.4748800149999965  0.3623900150000026
  0.1874999910000028  0.4453099810000012  0.6376199859999971
  0.1874999910000028  0.3767699919999998  0.4787599860000000
  0.0625000000000000  0.5434399889999995  0.5212400140000000
  0.1874999910000028  0.6415299629999964  0.6376699879999990
  0.0625000000000000  0.6119899709999999  0.3623299890000027
  0.3125000089999972  0.4748800149999965  0.3623900150000026
  0.4374999910000028  0.4453099810000012  0.6376199859999971
  0.4374999910000028  0.3767699919999998  0.4787599860000000
  0.3125000089999972  0.5434399889999995  0.5212400140000000
  0.4374999910000028  0.6415299629999964  0.6376699879999990
  0.3125000089999972  0.6119899709999999  0.3623299890000027
  0.5625000089999972  0.4748800149999965  0.3623900150000026
  0.6874999910000028  0.4453099810000012  0.6376199859999971
  0.6874999910000028  0.3767699919999998  0.4787599860000000
  0.5625000089999972  0.5434399889999995  0.5212400140000000
  0.6874999910000028  0.6415299629999964  0.6376699879999990
  0.5625000089999972  0.6119899709999999  0.3623299890000027
  0.8125000089999972  0.4748800149999965  0.3623900150000026
  0.9375000260000022  0.4453099810000012  0.6376199859999971
  0.9375000260000022  0.3767699919999998  0.4787599860000000
  0.8125000089999972  0.5434399889999995  0.5212400140000000
  0.9375000260000022  0.6415299629999964  0.6376699879999990
  0.8125000089999972  0.6119899709999999  0.3623299890000027
  0.0625000000000000  0.8082100170000004  0.3623900150000026
  0.1874999910000028  0.7786399829999979  0.6376199859999971
  0.1874999910000028  0.7101099870000027  0.4787599860000000
  0.0625000000000000  0.8767699919999998  0.5212400140000000
  0.1874999910000028  0.9748700219999975  0.6376699879999990
  0.0625000000000000  0.9453300300000009  0.3623299890000027
  0.3125000089999972  0.8082100170000004  0.3623900150000026
  0.4374999910000028  0.7786399829999979  0.6376199859999971
  0.4374999910000028  0.7101099870000027  0.4787599860000000
  0.3125000089999972  0.8767699919999998  0.5212400140000000
  0.4374999910000028  0.9748700219999975  0.6376699879999990
  0.3125000089999972  0.9453300300000009  0.3623299890000027
  0.5625000089999972  0.8082100170000004  0.3623900150000026
  0.6874999910000028  0.7786399829999979  0.6376199859999971
  0.6874999910000028  0.7101099870000027  0.4787599860000000
  0.5625000089999972  0.8767699919999998  0.5212400140000000
  0.6874999910000028  0.9748700219999975  0.6376699879999990
  0.5625000089999972  0.9453300300000009  0.3623299890000027
  0.8125000089999972  0.8082100170000004  0.3623900150000026
  0.9375000260000022  0.7786399829999979  0.6376199859999971
  0.9375000260000022  0.7101099870000027  0.4787599860000000
  0.8125000089999972  0.8767699919999998  0.5212400140000000
  0.9375000260000022  0.9748700219999975  0.6376699879999990
  0.8125000089999972  0.9453300300000009  0.3623299890000027
 
  0.00000000E+00  0.00000000E+00  0.00000000E+00
  0.00000000E+00  0.00000000E+00  0.00000000E+00
  0.00000000E+00  0.00000000E+00  0.00000000E+00
  0.00000000E+00  0.00000000E+00  0.00000000E+00
  0.00000000E+00  0.00000000E+00  0.00000000E+00
  0.00000000E+00  0.00000000E+00  0.00000000E+00
  0.00000000E+00  0.00000000E+00  0.00000000E+00
  0.00000000E+00  0.00000000E+00  0.00000000E+00
  0.00000000E+00  0.00000000E+00  0.00000000E+00
  0.00000000E+00  0.00000000E+00  0.00000000E+00
  0.00000000E+00  0.00000000E+00  0.00000000E+00
  0.00000000E+00  0.00000000E+00  0.00000000E+00
  0.00000000E+00  0.00000000E+00  0.00000000E+00
  0.00000000E+00  0.00000000E+00  0.00000000E+00
  0.00000000E+00  0.00000000E+00  0.00000000E+00
  0.00000000E+00  0.00000000E+00  0.00000000E+00
  0.00000000E+00  0.00000000E+00  0.00000000E+00
  0.00000000E+00  0.00000000E+00  0.00000000E+00
  0.00000000E+00  0.00000000E+00  0.00000000E+00
  0.00000000E+00  0.00000000E+00  0.00000000E+00
  0.00000000E+00  0.00000000E+00  0.00000000E+00
  0.00000000E+00  0.00000000E+00  0.00000000E+00
  0.00000000E+00  0.00000000E+00  0.00000000E+00
  0.00000000E+00  0.00000000E+00  0.00000000E+00
  0.00000000E+00  0.00000000E+00  0.00000000E+00
  0.00000000E+00  0.00000000E+00  0.00000000E+00
  0.00000000E+00  0.00000000E+00  0.00000000E+00
  0.00000000E+00  0.00000000E+00  0.00000000E+00
  0.00000000E+00  0.00000000E+00  0.00000000E+00
  0.00000000E+00  0.00000000E+00  0.00000000E+00
  0.00000000E+00  0.00000000E+00  0.00000000E+00
  0.00000000E+00  0.00000000E+00  0.00000000E+00
  0.00000000E+00  0.00000000E+00  0.00000000E+00
  0.00000000E+00  0.00000000E+00  0.00000000E+00
  0.00000000E+00  0.00000000E+00  0.00000000E+00
  0.00000000E+00  0.00000000E+00  0.00000000E+00
  0.00000000E+00  0.00000000E+00  0.00000000E+00
  0.00000000E+00  0.00000000E+00  0.00000000E+00
  0.00000000E+00  0.00000000E+00  0.00000000E+00
  0.00000000E+00  0.00000000E+00  0.00000000E+00
  0.00000000E+00  0.00000000E+00  0.00000000E+00
  0.00000000E+00  0.00000000E+00  0.00000000E+00
  0.00000000E+00  0.00000000E+00  0.00000000E+00
  0.00000000E+00  0.00000000E+00  0.00000000E+00
  0.00000000E+00  0.00000000E+00  0.00000000E+00
  0.00000000E+00  0.00000000E+00  0.00000000E+00
  0.00000000E+00  0.00000000E+00  0.00000000E+00
  0.00000000E+00  0.00000000E+00  0.00000000E+00
  0.00000000E+00  0.00000000E+00  0.00000000E+00
  0.00000000E+00  0.00000000E+00  0.00000000E+00
  0.00000000E+00  0.00000000E+00  0.00000000E+00
  0.00000000E+00  0.00000000E+00  0.00000000E+00
  0.00000000E+00  0.00000000E+00  0.00000000E+00
  0.00000000E+00  0.00000000E+00  0.00000000E+00
  0.00000000E+00  0.00000000E+00  0.00000000E+00
  0.00000000E+00  0.00000000E+00  0.00000000E+00
  0.00000000E+00  0.00000000E+00  0.00000000E+00
  0.00000000E+00  0.00000000E+00  0.00000000E+00
  0.00000000E+00  0.00000000E+00  0.00000000E+00
  0.00000000E+00  0.00000000E+00  0.00000000E+00
  0.00000000E+00  0.00000000E+00  0.00000000E+00
  0.00000000E+00  0.00000000E+00  0.00000000E+00
  0.00000000E+00  0.00000000E+00  0.00000000E+00
  0.00000000E+00  0.00000000E+00  0.00000000E+00
  0.00000000E+00  0.00000000E+00  0.00000000E+00
  0.00000000E+00  0.00000000E+00  0.00000000E+00
  0.00000000E+00  0.00000000E+00  0.00000000E+00
  0.00000000E+00  0.00000000E+00  0.00000000E+00
  0.00000000E+00  0.00000000E+00  0.00000000E+00
  0.00000000E+00  0.00000000E+00  0.00000000E+00
  0.00000000E+00  0.00000000E+00  0.00000000E+00
  0.00000000E+00  0.00000000E+00  0.00000000E+00
  0.00000000E+00  0.00000000E+00  0.00000000E+00
  0.00000000E+00  0.00000000E+00  0.00000000E+00
  0.00000000E+00  0.00000000E+00  0.00000000E+00
  0.00000000E+00  0.00000000E+00  0.00000000E+00
  0.00000000E+00  0.00000000E+00  0.00000000E+00
  0.00000000E+00  0.00000000E+00  0.00000000E+00
  0.00000000E+00  0.00000000E+00  0.00000000E+00
  0.00000000E+00  0.00000000E+00  0.00000000E+00
  0.00000000E+00  0.00000000E+00  0.00000000E+00
  0.00000000E+00  0.00000000E+00  0.00000000E+00
  0.00000000E+00  0.00000000E+00  0.00000000E+00
  0.00000000E+00  0.00000000E+00  0.00000000E+00
  0.00000000E+00  0.00000000E+00  0.00000000E+00
  0.00000000E+00  0.00000000E+00  0.00000000E+00
  0.00000000E+00  0.00000000E+00  0.00000000E+00
  0.00000000E+00  0.00000000E+00  0.00000000E+00
  0.00000000E+00  0.00000000E+00  0.00000000E+00
  0.00000000E+00  0.00000000E+00  0.00000000E+00
  0.00000000E+00  0.00000000E+00  0.00000000E+00
  0.00000000E+00  0.00000000E+00  0.00000000E+00
  0.00000000E+00  0.00000000E+00  0.00000000E+00
  0.00000000E+00  0.00000000E+00  0.00000000E+00
  0.00000000E+00  0.00000000E+00  0.00000000E+00
  0.00000000E+00  0.00000000E+00  0.00000000E+00
