CONTCAR\(13)                            
   1.00000000000000     
    12.5135002136000004    0.0000000000000000    0.0000000000000000
     0.0000000000000000   15.7480001450000007    0.0000000000000000
     0.0000000000000000    0.0000000000000000   19.7180004119999985
   Nb   Fe   Te   O    H 
    16    16    32     1     1
Direct
  0.2364759973161810  0.1529025503523473  0.4939801612123010
  0.0114259775125565  0.4027126451135424  0.4926146570130513
  0.9859757680723238  0.0941762666366908  0.5095871677923762
  0.2616832270794187  0.3447290126430120  0.5083412871789412
  0.7362309614141590  0.1529731166188265  0.4935620111115432
  0.5114408769676027  0.4029769137928464  0.4927722760411255
  0.4861210233488465  0.0943049763801989  0.5098076079987878
  0.7606331776095923  0.3454921845503794  0.5084935496134657
  0.2372466574118974  0.6523124770548733  0.4920854435417230
  0.0097912027014917  0.9026084549721251  0.4929896431717702
  0.9868457160674751  0.5942124931169621  0.5065982777765008
  0.2598918117036166  0.8444055830588374  0.5088171268079075
  0.7373826731605413  0.6520801254298576  0.4858176192778135
  0.5100180583807554  0.9029784101838774  0.4935157035301738
  0.4900315022062222  0.5951980551073128  0.5061336081055485
  0.7594305493629103  0.8435845768900573  0.5084879824716152
  0.0704820079836108  0.2449322589174805  0.5396072927268273
  0.3199621959201878  0.0024112127304442  0.4635615177522449
  0.4275445896199557  0.2524759845269194  0.4627431199431997
  0.1756219671819315  0.9944652085669399  0.5402164989772819
  0.5711218151920358  0.2455310628064865  0.5395826684882223
  0.8198883245391325  0.0023737054656999  0.4630190108029838
  0.9268926464409595  0.2524272952153302  0.4627806088955609
  0.6761612433244992  0.9946738140276827  0.5397960022290972
  0.0692770202058027  0.7439964118946050  0.5383532957569604
  0.3211373244673790  0.5027995737794596  0.4611630577922097
  0.4261283252684688  0.7532932479596485  0.4623814713224442
  0.1773928718383584  0.4949353600405511  0.5381530188753101
  0.5702025324304747  0.7422357055587269  0.5397115267710769
  0.8208156062838574  0.5025364815602213  0.4617801838229579
  0.9261695550147377  0.7522739842948858  0.4613701488325260
  0.6759227514836466  0.4994681559788811  0.5412887386201445
  0.3689926432902937  0.3773691452705024  0.3829988556732714
  0.1250151144807861  0.0208912366874163  0.4128631983106257
  0.3709192695515224  0.9762151351595948  0.5904566862496615
  0.1194309780375820  0.3701504213784427  0.6179871884822297
  0.3757177775175874  0.2275863290643531  0.5900773926545484
  0.1224589624105584  0.2702447243918094  0.4122649002857681
  0.1286329687425387  0.1196114256126790  0.6191067067961038
  0.3789756462950614  0.1273472239160502  0.3843460083510153
  0.8687711690678366  0.3773781523438269  0.3832837685067178
  0.6246587714472916  0.0210484230522149  0.4127655859815321
  0.8711693351508125  0.9754359613064486  0.5899945846306212
  0.6188860937742351  0.3713190173391112  0.6181764269015082
  0.8749127564147141  0.2274284577981518  0.5898122937736803
  0.6225993159403774  0.2703228429066927  0.4120735740358752
  0.6290783536071274  0.1197503607158334  0.6189596057024641
  0.8790472902799916  0.1274966118387458  0.3840206485102057
  0.3669722579208968  0.8786734527324737  0.3837165196810194
  0.1263414089418205  0.5196559802156371  0.4106721817742228
  0.3734054693113097  0.4792890464897900  0.5881826636648106
  0.1165028710610851  0.8679443340793344  0.6183286769291886
  0.3750761511811969  0.7255932674777089  0.5891685115188627
  0.1217658038567583  0.7702623840134210  0.4115850098382630
  0.1286227799844907  0.6192067938879436  0.6169809691003759
  0.3810273778349189  0.6280823240867236  0.3826244107187111
  0.8675028061051298  0.8783588124451323  0.3832809727077072
  0.6273763907228966  0.5179604389185980  0.4106376323009981
  0.8721190510918593  0.4774763868512356  0.5885588455302353
  0.6174277846129255  0.8684818219101977  0.6183328509973807
  0.8707741199075529  0.7226308159209857  0.5873730658353434
  0.6200053949607824  0.7726540819383716  0.4112222190557593
  0.6316343098091193  0.6209427865949609  0.6214082918776036
  0.8806794089723543  0.6267622021271085  0.3805928482920162
  0.5073431822168016  0.5882593574241175  0.6903284969413835
  0.5367107679891221  0.5995224928787033  0.7354361531365738
 
  0.00000000E+00  0.00000000E+00  0.00000000E+00
  0.00000000E+00  0.00000000E+00  0.00000000E+00
  0.00000000E+00  0.00000000E+00  0.00000000E+00
  0.00000000E+00  0.00000000E+00  0.00000000E+00
  0.00000000E+00  0.00000000E+00  0.00000000E+00
  0.00000000E+00  0.00000000E+00  0.00000000E+00
  0.00000000E+00  0.00000000E+00  0.00000000E+00
  0.00000000E+00  0.00000000E+00  0.00000000E+00
  0.00000000E+00  0.00000000E+00  0.00000000E+00
  0.00000000E+00  0.00000000E+00  0.00000000E+00
  0.00000000E+00  0.00000000E+00  0.00000000E+00
  0.00000000E+00  0.00000000E+00  0.00000000E+00
  0.00000000E+00  0.00000000E+00  0.00000000E+00
  0.00000000E+00  0.00000000E+00  0.00000000E+00
  0.00000000E+00  0.00000000E+00  0.00000000E+00
  0.00000000E+00  0.00000000E+00  0.00000000E+00
  0.00000000E+00  0.00000000E+00  0.00000000E+00
  0.00000000E+00  0.00000000E+00  0.00000000E+00
  0.00000000E+00  0.00000000E+00  0.00000000E+00
  0.00000000E+00  0.00000000E+00  0.00000000E+00
  0.00000000E+00  0.00000000E+00  0.00000000E+00
  0.00000000E+00  0.00000000E+00  0.00000000E+00
  0.00000000E+00  0.00000000E+00  0.00000000E+00
  0.00000000E+00  0.00000000E+00  0.00000000E+00
  0.00000000E+00  0.00000000E+00  0.00000000E+00
  0.00000000E+00  0.00000000E+00  0.00000000E+00
  0.00000000E+00  0.00000000E+00  0.00000000E+00
  0.00000000E+00  0.00000000E+00  0.00000000E+00
  0.00000000E+00  0.00000000E+00  0.00000000E+00
  0.00000000E+00  0.00000000E+00  0.00000000E+00
  0.00000000E+00  0.00000000E+00  0.00000000E+00
  0.00000000E+00  0.00000000E+00  0.00000000E+00
  0.00000000E+00  0.00000000E+00  0.00000000E+00
  0.00000000E+00  0.00000000E+00  0.00000000E+00
  0.00000000E+00  0.00000000E+00  0.00000000E+00
  0.00000000E+00  0.00000000E+00  0.00000000E+00
  0.00000000E+00  0.00000000E+00  0.00000000E+00
  0.00000000E+00  0.00000000E+00  0.00000000E+00
  0.00000000E+00  0.00000000E+00  0.00000000E+00
  0.00000000E+00  0.00000000E+00  0.00000000E+00
  0.00000000E+00  0.00000000E+00  0.00000000E+00
  0.00000000E+00  0.00000000E+00  0.00000000E+00
  0.00000000E+00  0.00000000E+00  0.00000000E+00
  0.00000000E+00  0.00000000E+00  0.00000000E+00
  0.00000000E+00  0.00000000E+00  0.00000000E+00
  0.00000000E+00  0.00000000E+00  0.00000000E+00
  0.00000000E+00  0.00000000E+00  0.00000000E+00
  0.00000000E+00  0.00000000E+00  0.00000000E+00
  0.00000000E+00  0.00000000E+00  0.00000000E+00
  0.00000000E+00  0.00000000E+00  0.00000000E+00
  0.00000000E+00  0.00000000E+00  0.00000000E+00
  0.00000000E+00  0.00000000E+00  0.00000000E+00
  0.00000000E+00  0.00000000E+00  0.00000000E+00
  0.00000000E+00  0.00000000E+00  0.00000000E+00
  0.00000000E+00  0.00000000E+00  0.00000000E+00
  0.00000000E+00  0.00000000E+00  0.00000000E+00
  0.00000000E+00  0.00000000E+00  0.00000000E+00
  0.00000000E+00  0.00000000E+00  0.00000000E+00
  0.00000000E+00  0.00000000E+00  0.00000000E+00
  0.00000000E+00  0.00000000E+00  0.00000000E+00
  0.00000000E+00  0.00000000E+00  0.00000000E+00
  0.00000000E+00  0.00000000E+00  0.00000000E+00
  0.00000000E+00  0.00000000E+00  0.00000000E+00
  0.00000000E+00  0.00000000E+00  0.00000000E+00
  0.00000000E+00  0.00000000E+00  0.00000000E+00
  0.00000000E+00  0.00000000E+00  0.00000000E+00
