CONTCAR\(13)                            
   1.00000000000000     
    12.8629999160999997    0.0000000000000000    0.0000000000000000
     0.0000000000000000   14.3196001052999993    0.0000000000000000
     0.0000000000000000    0.0000000000000000   19.5569992064999987
   Ag   Au   S    O 
    12    24    24     1
Direct
  0.0913855714555866  0.3449516082270577  0.6063907207035315
  0.2363526308580882  0.0942043267087094  0.6058402765626393
  0.4335272148779318  0.3397687093203860  0.5991348035201259
  0.5700126835810480  0.0716625965291764  0.5924914760599059
  0.7647258017861718  0.3180673524342055  0.5915325710560587
  0.8981944408126115  0.0867872229361617  0.6038538829417053
  0.0929023803441496  0.8405272460655467  0.6034179125466124
  0.2432784588150787  0.5958949636766429  0.6020607086903281
  0.4368935471311363  0.8445858406636717  0.6006936635783602
  0.5726166335199289  0.5724185635846848  0.5899314386667762
  0.7620968050446044  0.8202679256642424  0.5954656236721699
  0.9003684224992852  0.5848429478686914  0.6046265220590789
  0.0368287430870070  0.4961453804396208  0.5062904561956473
  0.2994564563663121  0.2531127072312621  0.5004068055929630
  0.1549335597807116  0.3586504521732923  0.3647739973311604
  0.1739272530819094  0.1141337178780196  0.4256711302204262
  0.3495471608633646  0.4950900141503893  0.4647630335530724
  0.6359704102078740  0.2379052120004576  0.4902881202741745
  0.4953445318907968  0.3711621620632617  0.4059294937096453
  0.4975440980582183  0.1239076708156327  0.4065674438333632
  0.7009128411996906  0.4879393362825134  0.4878232205417700
  0.9929658591851821  0.2363457837424823  0.4725477681735761
  0.8452280642233464  0.3612842186759342  0.4113379518744139
  0.8369724744260405  0.1105075078553512  0.4078182541397176
  0.0282053310542680  0.9931344079680722  0.5056844880877402
  0.3100936600741892  0.7535869630713417  0.4998190110268029
  0.1680432417904967  0.8612149229709559  0.3751648921970225
  0.1888179233448512  0.6168170574199285  0.4325698814536695
  0.3415000718720841  0.9971205623084270  0.4697567836900355
  0.6361664543491836  0.7385688417952412  0.4920620833429830
  0.4950958093481518  0.8730927952354123  0.4073694891918170
  0.5042380281469485  0.6204747748843091  0.4026215170917776
  0.6984311081259306  0.9902854507511744  0.4892546965040583
  0.9901797181075433  0.7403090149159102  0.4783971724920064
  0.8394235857884008  0.8602521037258047  0.4103156716762984
  0.8419318561202214  0.6102852497182366  0.4112951611087416
  0.2522927743138479  0.4916403220064646  0.3636688076720376
  0.2544480135430727  0.2624372986598175  0.6153936210157759
  0.0818954274378171  0.5134890326682255  0.6208398319867537
  0.0660011539980704  0.2189963062966034  0.3644255431999067
  0.6110923602219320  0.4916426266598021  0.3842994789216558
  0.5850302187116477  0.2429524466032071  0.6050232911144262
  0.3997657954069461  0.5039546972790985  0.5808340722451077
  0.3804677328141076  0.2471319957679578  0.3945148251099628
  0.9591285771766503  0.4860294216812874  0.4001204057583604
  0.9380264991236538  0.2499878146158062  0.5860480385127165
  0.7468626320270554  0.4895531837172606  0.6037987069816432
  0.7307309811820042  0.2394836831367761  0.3888957660064738
  0.2628379732456002  0.9961526631824349  0.3629106011239387
  0.2590727947889784  0.7646183542491761  0.6138786029735475
  0.0768288728485526  0.0091580767265533  0.6198055022534659
  0.0764243736845305  0.7227345609891386  0.3745444095801930
  0.6064586800695472  0.9967609494977924  0.3867227626520198
  0.5845101362424086  0.7434692483421403  0.6068580373317456
  0.3960066252075620  0.0071105443623717  0.5838123707897115
  0.3882857604456901  0.7438125447971324  0.3927064728752586
  0.9517249924487530  0.9850025518334750  0.3987584657994430
  0.9330381452560902  0.7505512518368513  0.5917469978367990
  0.7451547579860128  0.9913006878267014  0.6050760807945132
  0.7297941882061135  0.7349288077801825  0.3901757650619143
  0.2998879753949916  0.5214757287315557  0.2981940080424373
 
  0.00000000E+00  0.00000000E+00  0.00000000E+00
  0.00000000E+00  0.00000000E+00  0.00000000E+00
  0.00000000E+00  0.00000000E+00  0.00000000E+00
  0.00000000E+00  0.00000000E+00  0.00000000E+00
  0.00000000E+00  0.00000000E+00  0.00000000E+00
  0.00000000E+00  0.00000000E+00  0.00000000E+00
  0.00000000E+00  0.00000000E+00  0.00000000E+00
  0.00000000E+00  0.00000000E+00  0.00000000E+00
  0.00000000E+00  0.00000000E+00  0.00000000E+00
  0.00000000E+00  0.00000000E+00  0.00000000E+00
  0.00000000E+00  0.00000000E+00  0.00000000E+00
  0.00000000E+00  0.00000000E+00  0.00000000E+00
  0.00000000E+00  0.00000000E+00  0.00000000E+00
  0.00000000E+00  0.00000000E+00  0.00000000E+00
  0.00000000E+00  0.00000000E+00  0.00000000E+00
  0.00000000E+00  0.00000000E+00  0.00000000E+00
  0.00000000E+00  0.00000000E+00  0.00000000E+00
  0.00000000E+00  0.00000000E+00  0.00000000E+00
  0.00000000E+00  0.00000000E+00  0.00000000E+00
  0.00000000E+00  0.00000000E+00  0.00000000E+00
  0.00000000E+00  0.00000000E+00  0.00000000E+00
  0.00000000E+00  0.00000000E+00  0.00000000E+00
  0.00000000E+00  0.00000000E+00  0.00000000E+00
  0.00000000E+00  0.00000000E+00  0.00000000E+00
  0.00000000E+00  0.00000000E+00  0.00000000E+00
  0.00000000E+00  0.00000000E+00  0.00000000E+00
  0.00000000E+00  0.00000000E+00  0.00000000E+00
  0.00000000E+00  0.00000000E+00  0.00000000E+00
  0.00000000E+00  0.00000000E+00  0.00000000E+00
  0.00000000E+00  0.00000000E+00  0.00000000E+00
  0.00000000E+00  0.00000000E+00  0.00000000E+00
  0.00000000E+00  0.00000000E+00  0.00000000E+00
  0.00000000E+00  0.00000000E+00  0.00000000E+00
  0.00000000E+00  0.00000000E+00  0.00000000E+00
  0.00000000E+00  0.00000000E+00  0.00000000E+00
  0.00000000E+00  0.00000000E+00  0.00000000E+00
  0.00000000E+00  0.00000000E+00  0.00000000E+00
  0.00000000E+00  0.00000000E+00  0.00000000E+00
  0.00000000E+00  0.00000000E+00  0.00000000E+00
  0.00000000E+00  0.00000000E+00  0.00000000E+00
  0.00000000E+00  0.00000000E+00  0.00000000E+00
  0.00000000E+00  0.00000000E+00  0.00000000E+00
  0.00000000E+00  0.00000000E+00  0.00000000E+00
  0.00000000E+00  0.00000000E+00  0.00000000E+00
  0.00000000E+00  0.00000000E+00  0.00000000E+00
  0.00000000E+00  0.00000000E+00  0.00000000E+00
  0.00000000E+00  0.00000000E+00  0.00000000E+00
  0.00000000E+00  0.00000000E+00  0.00000000E+00
  0.00000000E+00  0.00000000E+00  0.00000000E+00
  0.00000000E+00  0.00000000E+00  0.00000000E+00
  0.00000000E+00  0.00000000E+00  0.00000000E+00
  0.00000000E+00  0.00000000E+00  0.00000000E+00
  0.00000000E+00  0.00000000E+00  0.00000000E+00
  0.00000000E+00  0.00000000E+00  0.00000000E+00
  0.00000000E+00  0.00000000E+00  0.00000000E+00
  0.00000000E+00  0.00000000E+00  0.00000000E+00
  0.00000000E+00  0.00000000E+00  0.00000000E+00
  0.00000000E+00  0.00000000E+00  0.00000000E+00
  0.00000000E+00  0.00000000E+00  0.00000000E+00
  0.00000000E+00  0.00000000E+00  0.00000000E+00
  0.00000000E+00  0.00000000E+00  0.00000000E+00
