CONTCAR                                 
   1.00000000000000     
    13.3522996902000006    0.0000000000000000    0.0000000000000000
    -6.6761498451000003   11.5634307307000004    0.0000000000000000
     0.0000000000000000    0.0000000000000000   22.4906005859000011
   La   Ge   I 
    18     9    18
Direct
  0.2222200069999971  0.1111100019999967  0.4249999919999965
  0.1111100019999967  0.2222200029999968  0.5750000080000035
  0.5555600010000035  0.1111100019999967  0.4249999919999965
  0.4444400140000013  0.2222200029999968  0.5750000080000035
  0.8888900130000010  0.1111100019999967  0.4249999919999965
  0.7777800249999984  0.2222200029999968  0.5750000080000035
  0.2222200029999968  0.4444400069999972  0.4249999919999965
  0.1111100110000010  0.5555599979999997  0.5750000080000035
  0.5555599790000016  0.4444400069999972  0.4249999919999965
  0.4444400049999970  0.5555599979999997  0.5750000080000035
  0.8888900270000022  0.4444400069999972  0.4249999919999965
  0.7777800349999993  0.5555599979999997  0.5750000080000035
  0.2222199850000024  0.7777799810000019  0.4249999919999965
  0.1111099849999988  0.8888899929999994  0.5750000080000035
  0.5555599779999980  0.7777799810000019  0.4249999919999965
  0.4444399970000035  0.8888899929999994  0.5750000080000035
  0.8888899900000027  0.7777799810000019  0.4249999919999965
  0.7777800080000006  0.8888899929999994  0.5750000080000035
  0.0000000000000000  0.0000000000000000  0.5000000000000000
  0.3333300119999976  0.0000000000000000  0.5000000000000000
  0.6666700239999983  0.0000000000000000  0.5000000000000000
  0.0000000020000002  0.3333300150000014  0.5000000000000000
  0.3333300139999977  0.3333300150000014  0.5000000000000000
  0.6666700430000034  0.3333300150000014  0.5000000000000000
  0.9999999930000030  0.6666700099999971  0.5000000000000000
  0.3333300050000005  0.6666700099999971  0.5000000000000000
  0.6666700170000013  0.6666700099999971  0.5000000000000000
  0.1111100019999967  0.2222200029999968  0.3336600009999984
  0.2222200069999971  0.1111100019999967  0.6663399780000034
  0.4444400140000013  0.2222200029999968  0.3336600009999984
  0.5555600010000035  0.1111100019999967  0.6663399780000034
  0.7777800249999984  0.2222200029999968  0.3336600009999984
  0.8888900130000010  0.1111100019999967  0.6663399780000034
  0.1111100110000010  0.5555599979999997  0.3336600009999984
  0.2222200029999968  0.4444400069999972  0.6663399780000034
  0.4444400049999970  0.5555599979999997  0.3336600009999984
  0.5555599790000016  0.4444400069999972  0.6663399780000034
  0.7777800349999993  0.5555599979999997  0.3336600009999984
  0.8888900270000022  0.4444400069999972  0.6663399780000034
  0.1111099849999988  0.8888899929999994  0.3336600009999984
  0.2222199850000024  0.7777799810000019  0.6663399780000034
  0.4444399970000035  0.8888899929999994  0.3336600009999984
  0.5555599779999980  0.7777799810000019  0.6663399780000034
  0.7777800080000006  0.8888899929999994  0.3336600009999984
  0.8888899900000027  0.7777799810000019  0.6663399780000034
 
  0.00000000E+00  0.00000000E+00  0.00000000E+00
  0.00000000E+00  0.00000000E+00  0.00000000E+00
  0.00000000E+00  0.00000000E+00  0.00000000E+00
  0.00000000E+00  0.00000000E+00  0.00000000E+00
  0.00000000E+00  0.00000000E+00  0.00000000E+00
  0.00000000E+00  0.00000000E+00  0.00000000E+00
  0.00000000E+00  0.00000000E+00  0.00000000E+00
  0.00000000E+00  0.00000000E+00  0.00000000E+00
  0.00000000E+00  0.00000000E+00  0.00000000E+00
  0.00000000E+00  0.00000000E+00  0.00000000E+00
  0.00000000E+00  0.00000000E+00  0.00000000E+00
  0.00000000E+00  0.00000000E+00  0.00000000E+00
  0.00000000E+00  0.00000000E+00  0.00000000E+00
  0.00000000E+00  0.00000000E+00  0.00000000E+00
  0.00000000E+00  0.00000000E+00  0.00000000E+00
  0.00000000E+00  0.00000000E+00  0.00000000E+00
  0.00000000E+00  0.00000000E+00  0.00000000E+00
  0.00000000E+00  0.00000000E+00  0.00000000E+00
  0.00000000E+00  0.00000000E+00  0.00000000E+00
  0.00000000E+00  0.00000000E+00  0.00000000E+00
  0.00000000E+00  0.00000000E+00  0.00000000E+00
  0.00000000E+00  0.00000000E+00  0.00000000E+00
  0.00000000E+00  0.00000000E+00  0.00000000E+00
  0.00000000E+00  0.00000000E+00  0.00000000E+00
  0.00000000E+00  0.00000000E+00  0.00000000E+00
  0.00000000E+00  0.00000000E+00  0.00000000E+00
  0.00000000E+00  0.00000000E+00  0.00000000E+00
  0.00000000E+00  0.00000000E+00  0.00000000E+00
  0.00000000E+00  0.00000000E+00  0.00000000E+00
  0.00000000E+00  0.00000000E+00  0.00000000E+00
  0.00000000E+00  0.00000000E+00  0.00000000E+00
  0.00000000E+00  0.00000000E+00  0.00000000E+00
  0.00000000E+00  0.00000000E+00  0.00000000E+00
  0.00000000E+00  0.00000000E+00  0.00000000E+00
  0.00000000E+00  0.00000000E+00  0.00000000E+00
  0.00000000E+00  0.00000000E+00  0.00000000E+00
  0.00000000E+00  0.00000000E+00  0.00000000E+00
  0.00000000E+00  0.00000000E+00  0.00000000E+00
  0.00000000E+00  0.00000000E+00  0.00000000E+00
  0.00000000E+00  0.00000000E+00  0.00000000E+00
  0.00000000E+00  0.00000000E+00  0.00000000E+00
  0.00000000E+00  0.00000000E+00  0.00000000E+00
  0.00000000E+00  0.00000000E+00  0.00000000E+00
  0.00000000E+00  0.00000000E+00  0.00000000E+00
  0.00000000E+00  0.00000000E+00  0.00000000E+00
