CONTCAR\(3)                             
   1.00000000000000     
    13.3114004134999995    0.0000000000000000    0.0000000000000000
     0.0000000000000000   13.2841997146999997    0.0000000000000000
     0.0000000000000000    0.0000000000000000   29.9494991301999995
   Bi   I    O    H 
    54    12     2     1
Direct
  0.2500822775041343  0.6600783854963694  0.6504682091687286
  0.0827544011456141  0.3438673966523353  0.3478861728136664
  0.2486523378399497  0.3013932056736834  0.4167080954788958
  0.0828506697432942  0.7067990119174326  0.5829290454114400
  0.2503513754121940  0.0806264905899639  0.3862855160450920
  0.0846363212297234  0.9255286055320369  0.6141940515831337
  0.2518237911201879  0.9792503965038435  0.5486181536000458
  0.0830757941646709  0.0247791924417555  0.4516819327801258
  0.2499740681658906  0.2027570331109629  0.5759773925023453
  0.0831656926942372  0.8018935210405687  0.4242899002853946
  0.2495530100646874  0.7536225137124575  0.4916787346063458
  0.0832784957544206  0.2499308633034261  0.5087973879089915
  0.2482982843362507  0.5279517253594932  0.4685730189580823
  0.0828582867163945  0.4731199626971900  0.5374099606595024
  0.0837637931369386  0.5668765945408580  0.3723082130739783
  0.2492598189772863  0.4375369729446845  0.6260528827076897
  0.0828337003247483  0.3897559727454976  0.6942297084791420
  0.2500842518985493  0.6173344075643783  0.3038497996667004
  0.5837459122135158  0.6634719522042900  0.6528109042500958
  0.4168088410554773  0.3440515369633275  0.3490069127363569
  0.5829567502931425  0.3016558579107880  0.4176135499814535
  0.4188191685174090  0.7060980388894862  0.5835582317220513
  0.5847921166127250  0.0811810855989634  0.3865207561738444
  0.4176780576178771  0.9254845205760915  0.6148872389647693
  0.5840762662878021  0.9815679876412702  0.5494058799076598
  0.4173999953911647  0.0269757302394780  0.4520281573638911
  0.5838056895730617  0.2045543581056464  0.5779914608707770
  0.4167015865452726  0.8035994607061667  0.4247055453857271
  0.5827873717323442  0.7553173370194060  0.4921452976583041
  0.4185593689254361  0.2515376041817987  0.5099368177619183
  0.5819270446088893  0.5305402054974309  0.4672816691217250
  0.4157248494427463  0.4770051072172521  0.5337461289553005
  0.4150849675568864  0.5673591062940844  0.3733261714762861
  0.5821573604829595  0.4404908513065351  0.6288110551427053
  0.4213738789098187  0.3877468709180860  0.7007209001452068
  0.5832538862311694  0.6188776453372071  0.3056327300644455
  0.9170289625555483  0.6605689321106212  0.6510774301753202
  0.7501845653763084  0.3469373481210596  0.3500054892828075
  0.9185756570138395  0.3017217326003916  0.4172471828133624
  0.7491476236231946  0.7060212007017697  0.5836875492350444
  0.9159053996135356  0.0809912117728189  0.3863895057166857
  0.7505313739671493  0.9255481413668605  0.6148851140665812
  0.9170393828245551  0.9796072376681551  0.5489140552756524
  0.7504454649695589  0.0275326942683378  0.4527496102399340
  0.9174816019626988  0.2030381396686423  0.5763120714701699
  0.7499928243966423  0.8039546125124630  0.4251902133776468
  0.9175253781584232  0.7538101909885526  0.4918150210139558
  0.7491582655118023  0.2516538046636967  0.5100706794333689
  0.9177618439415980  0.5284673871409140  0.4686782709076240
  0.7496130671312073  0.4773986551788880  0.5334126396640784
  0.7519032586474950  0.5708393081879564  0.3734430712443029
  0.9154401282628513  0.4380998756439496  0.6263108067554199
  0.7433734301756587  0.3896939284089243  0.7007043027296973
  0.9176942574528013  0.6187634521398238  0.3040097925667453
  0.0836895964227011  0.6001250063555688  0.7375164340600975
  0.2524626111168331  0.4067053819284325  0.2612304296588874
  0.0831348794692204  0.1621973836989312  0.6685229601192191
  0.2508747869690069  0.8437465466123655  0.3315061059693747
  0.4168906153124752  0.6022813263737916  0.7392838897191254
  0.5842437245836081  0.4079881900348710  0.2627960188536633
  0.4156603118215898  0.1622742758104110  0.6711749776611242
  0.5830820803664878  0.8452883325652252  0.3323564769568108
  0.7496167272162708  0.6038501231809832  0.7396786386042606
  0.9139601127354524  0.4073683480706052  0.2618606666097705
  0.7499771969148057  0.1635668190870234  0.6715853895079675
  0.9157886434510232  0.8451547962581643  0.3313913412185343
  0.5822588912147211  0.3507117270221372  0.7313375278357341
  0.5824594118293120  0.2911438358527363  0.7724882696223077
  0.5835081707647873  0.2224023535706436  0.7602006532229098
 
  0.00000000E+00  0.00000000E+00  0.00000000E+00
  0.00000000E+00  0.00000000E+00  0.00000000E+00
  0.00000000E+00  0.00000000E+00  0.00000000E+00
  0.00000000E+00  0.00000000E+00  0.00000000E+00
  0.00000000E+00  0.00000000E+00  0.00000000E+00
  0.00000000E+00  0.00000000E+00  0.00000000E+00
  0.00000000E+00  0.00000000E+00  0.00000000E+00
  0.00000000E+00  0.00000000E+00  0.00000000E+00
  0.00000000E+00  0.00000000E+00  0.00000000E+00
  0.00000000E+00  0.00000000E+00  0.00000000E+00
  0.00000000E+00  0.00000000E+00  0.00000000E+00
  0.00000000E+00  0.00000000E+00  0.00000000E+00
  0.00000000E+00  0.00000000E+00  0.00000000E+00
  0.00000000E+00  0.00000000E+00  0.00000000E+00
  0.00000000E+00  0.00000000E+00  0.00000000E+00
  0.00000000E+00  0.00000000E+00  0.00000000E+00
  0.00000000E+00  0.00000000E+00  0.00000000E+00
  0.00000000E+00  0.00000000E+00  0.00000000E+00
  0.00000000E+00  0.00000000E+00  0.00000000E+00
  0.00000000E+00  0.00000000E+00  0.00000000E+00
  0.00000000E+00  0.00000000E+00  0.00000000E+00
  0.00000000E+00  0.00000000E+00  0.00000000E+00
  0.00000000E+00  0.00000000E+00  0.00000000E+00
  0.00000000E+00  0.00000000E+00  0.00000000E+00
  0.00000000E+00  0.00000000E+00  0.00000000E+00
  0.00000000E+00  0.00000000E+00  0.00000000E+00
  0.00000000E+00  0.00000000E+00  0.00000000E+00
  0.00000000E+00  0.00000000E+00  0.00000000E+00
  0.00000000E+00  0.00000000E+00  0.00000000E+00
  0.00000000E+00  0.00000000E+00  0.00000000E+00
  0.00000000E+00  0.00000000E+00  0.00000000E+00
  0.00000000E+00  0.00000000E+00  0.00000000E+00
  0.00000000E+00  0.00000000E+00  0.00000000E+00
  0.00000000E+00  0.00000000E+00  0.00000000E+00
  0.00000000E+00  0.00000000E+00  0.00000000E+00
  0.00000000E+00  0.00000000E+00  0.00000000E+00
  0.00000000E+00  0.00000000E+00  0.00000000E+00
  0.00000000E+00  0.00000000E+00  0.00000000E+00
  0.00000000E+00  0.00000000E+00  0.00000000E+00
  0.00000000E+00  0.00000000E+00  0.00000000E+00
  0.00000000E+00  0.00000000E+00  0.00000000E+00
  0.00000000E+00  0.00000000E+00  0.00000000E+00
  0.00000000E+00  0.00000000E+00  0.00000000E+00
  0.00000000E+00  0.00000000E+00  0.00000000E+00
  0.00000000E+00  0.00000000E+00  0.00000000E+00
  0.00000000E+00  0.00000000E+00  0.00000000E+00
  0.00000000E+00  0.00000000E+00  0.00000000E+00
  0.00000000E+00  0.00000000E+00  0.00000000E+00
  0.00000000E+00  0.00000000E+00  0.00000000E+00
  0.00000000E+00  0.00000000E+00  0.00000000E+00
  0.00000000E+00  0.00000000E+00  0.00000000E+00
  0.00000000E+00  0.00000000E+00  0.00000000E+00
  0.00000000E+00  0.00000000E+00  0.00000000E+00
  0.00000000E+00  0.00000000E+00  0.00000000E+00
  0.00000000E+00  0.00000000E+00  0.00000000E+00
  0.00000000E+00  0.00000000E+00  0.00000000E+00
  0.00000000E+00  0.00000000E+00  0.00000000E+00
  0.00000000E+00  0.00000000E+00  0.00000000E+00
  0.00000000E+00  0.00000000E+00  0.00000000E+00
  0.00000000E+00  0.00000000E+00  0.00000000E+00
  0.00000000E+00  0.00000000E+00  0.00000000E+00
  0.00000000E+00  0.00000000E+00  0.00000000E+00
  0.00000000E+00  0.00000000E+00  0.00000000E+00
  0.00000000E+00  0.00000000E+00  0.00000000E+00
  0.00000000E+00  0.00000000E+00  0.00000000E+00
  0.00000000E+00  0.00000000E+00  0.00000000E+00
  0.00000000E+00  0.00000000E+00  0.00000000E+00
  0.00000000E+00  0.00000000E+00  0.00000000E+00
  0.00000000E+00  0.00000000E+00  0.00000000E+00
