 Zn1 In2 S4                             
   1.00000000000000     
     3.8864681569211919    0.0000000000000000    0.0000000000000000
    -1.9432345737152308    3.3657801754384042    0.0000000000000000
     0.0000000000000000    0.0000000000000000   24.5372907247499938
   Zn   In   S 
     1     2     4
Direct
  0.3333332921758227  0.6666667508836639  0.3249598812987600
  0.9999999755789588  0.0000000794651953  0.4848361527890006
  0.6666667131775696  0.3333332820096402  0.6488862189652096
  0.6666668214215505  0.3333332063761389  0.3085747428211789
  0.6666666201207221  0.3333333842448809  0.5504468885311837
  0.3333333032045402  0.6666667161810480  0.4346555560820207
  0.3333332743208288  0.6666665808394399  0.6956846064053579
 
  0.00000000E+00  0.00000000E+00  0.00000000E+00
  0.00000000E+00  0.00000000E+00  0.00000000E+00
  0.00000000E+00  0.00000000E+00  0.00000000E+00
  0.00000000E+00  0.00000000E+00  0.00000000E+00
  0.00000000E+00  0.00000000E+00  0.00000000E+00
  0.00000000E+00  0.00000000E+00  0.00000000E+00
  0.00000000E+00  0.00000000E+00  0.00000000E+00
