Layer                                   
   1.00000000000000     
     3.5202000140999998    0.0000000000000000    0.0000000000000000
     0.0000000000000000    3.5202000140999998    0.0000000000000000
     0.0000000000000000    0.0000000000000000   24.0000000000000000
   H    O    Zr   Si   Se
    10     7     2     2     2
Direct
  0.2607461689639314  0.3561760289525815  0.1580903225818761
  0.4128573727399552  0.6222096664616654  0.1098870653072255
  0.2215558404251270  0.3620420887152417  0.4196730703310126
  0.3124717146318897  0.5686217492049919  0.3606147456927671
  0.4214821190869621  0.5609841304213810  0.2534689856060162
  0.1323337893307375  0.2208306445458924  0.2469565930754166
  0.2219407774584557  0.3865441094824156  0.5286433829327448
  0.8670754714927646  0.2884252330090345  0.4926703028128008
  0.7893190493437041  0.7872247143425964  0.3401245852480436
  0.4307310582893123  0.0839737559370948  0.3462880851004344
  0.3517553236750287  0.3611219512491249  0.1169583353143182
  0.1694763053776247  0.3537640958553324  0.3789014294750750
  0.2689505550685263  0.3966802717472427  0.2272482924017308
  0.1061245542365551  0.4277673963003380  0.4917671168506106
  0.5482253621439035  0.8504966045841832  0.3212897120190266
  0.5829538787441662  0.5968026595083509  0.9730606553430843
  0.2442232401910644  0.3876818562011867  0.6152421840133359
  0.7648740562935381  0.8095170180509698  0.8892350724504375
  0.2178697424653412  0.3329455926697213  0.6954844843017191
  0.3094331169999370  0.8414963418181400  0.7948655534114829
  0.7996382339975096  0.3169361823820592  0.7964423520194632
  0.2765887736236006  0.3005572404234147  0.9320041356827981
  0.7434174299605426  0.8644325691170868  0.6432155484272560
 
  0.72577806E-02  0.22714714E-02 -0.17715931E-01
  0.13176656E-01  0.15539710E-01  0.54369707E-02
  0.38758571E-02  0.35828117E-01  0.12057895E-01
  0.82608107E-02 -0.32744910E-01  0.20985799E-02
 -0.11233278E-01 -0.10632557E-01 -0.34189686E-01
 -0.24094730E-01 -0.15415070E-01  0.16832417E-01
  0.98811599E-02  0.44189896E-02 -0.19400332E-01
  0.11309183E-03  0.43146386E-02 -0.16369113E-01
  0.20733827E-01 -0.75513988E-02 -0.17628376E-01
 -0.11176675E-01 -0.14432856E-01 -0.90755620E-02
 -0.13106436E-02 -0.25343239E-02  0.17739353E-02
  0.31819410E-03 -0.33491280E-02 -0.15288117E-02
  0.57770402E-04 -0.11852217E-02  0.67882155E-03
 -0.18757812E-02 -0.45268791E-02 -0.22530168E-02
  0.28377155E-02 -0.21605068E-02  0.27061192E-02
  0.57287565E-02 -0.31482836E-02 -0.31687731E-02
 -0.92749036E-02  0.48886570E-02 -0.55574782E-02
  0.12852308E-02 -0.65698090E-03 -0.97202235E-03
 -0.37908704E-04  0.13431344E-02  0.72008102E-03
  0.26482213E-03  0.77808633E-02  0.30436610E-02
 -0.13484895E-02  0.26696721E-03 -0.40353234E-03
 -0.98566999E-03  0.35210333E-02  0.12792236E-02
  0.43041231E-03 -0.45083957E-02  0.54923993E-03
 
           1
   1.00000000000000     
  0.95810440E+00  0.10668564E-02 -0.16305820E-17  0.00000000E+00
  0.26280792E+00  0.35682130E+00  0.15735216E+00
  0.41660053E+00  0.62662411E+00  0.11011361E+00
  0.22265687E+00  0.37221995E+00  0.42017548E+00
  0.31481840E+00  0.55931975E+00  0.36070219E+00
  0.41829103E+00  0.55796369E+00  0.25204442E+00
  0.12548908E+00  0.21645161E+00  0.24765794E+00
  0.22474777E+00  0.38779943E+00  0.52783504E+00
  0.86710760E+00  0.28965091E+00  0.49198826E+00
  0.79520901E+00  0.78507955E+00  0.33939007E+00
  0.42755605E+00  0.79873746E-01  0.34590994E+00
  0.35138300E+00  0.36040201E+00  0.11703225E+00
  0.16956670E+00  0.35281269E+00  0.37883773E+00
  0.26896697E+00  0.39634358E+00  0.22727658E+00
  0.10559169E+00  0.42648142E+00  0.49167324E+00
  0.54903149E+00  0.84988286E+00  0.32140247E+00
  0.58458127E+00  0.59590831E+00  0.97292862E+00
  0.24158847E+00  0.38907060E+00  0.61501062E+00
  0.76523916E+00  0.80933039E+00  0.88919457E+00
  0.21785897E+00  0.33332714E+00  0.69551449E+00
  0.30950835E+00  0.84370669E+00  0.79499237E+00
  0.79925516E+00  0.31701202E+00  0.79642554E+00
  0.27630877E+00  0.30155748E+00  0.93205744E+00
  0.74353970E+00  0.86315185E+00  0.64323843E+00
  0.99183888E-03  0.27746857E-03 -0.47996216E-03
  0.35155510E-02  0.34718293E-02  0.24413129E-03
  0.12660669E-02  0.10030745E-01  0.53250834E-03
  0.21465778E-02 -0.95063734E-02  0.99023403E-04
 -0.21593856E-02 -0.19514416E-02 -0.13071873E-02
 -0.46937857E-02 -0.15741293E-02  0.33965151E-03
  0.31785919E-02  0.11933582E-02 -0.77858679E-03
 -0.19257265E-03  0.12827737E-02 -0.69654209E-03
  0.63134790E-02 -0.23404924E-02 -0.67862868E-03
 -0.36054050E-02 -0.24844679E-02 -0.23436576E-03
 -0.30758838E-03 -0.64656120E-03  0.57840199E-04
  0.68488530E-04 -0.92791489E-03 -0.63091803E-04
 -0.16316056E-03 -0.57945192E-03  0.42604326E-04
 -0.53961234E-03 -0.12851896E-02 -0.95562066E-04
  0.82755354E-03 -0.70132955E-03  0.95677544E-04
  0.16503652E-02 -0.89907059E-03 -0.13185332E-03
 -0.26171245E-02  0.14342482E-02 -0.23306663E-03
  0.36956265E-03 -0.16863203E-03 -0.39445858E-04
 -0.33107504E-04  0.36684789E-03  0.30308882E-04
  0.99780970E-04  0.22418638E-02  0.12633741E-03
 -0.37077891E-03  0.41178417E-04 -0.18220951E-04
 -0.28986906E-03  0.98379271E-03  0.53761231E-04
  0.13098473E-03 -0.12740187E-02  0.22179080E-04
  0.00000000E+00  0.00000000E+00  0.00000000E+00
  0.00000000E+00  0.00000000E+00  0.00000000E+00
  0.00000000E+00  0.00000000E+00  0.00000000E+00
  0.00000000E+00  0.00000000E+00  0.00000000E+00
  0.00000000E+00  0.00000000E+00  0.00000000E+00
  0.00000000E+00  0.00000000E+00  0.00000000E+00
  0.00000000E+00  0.00000000E+00  0.00000000E+00
  0.00000000E+00  0.00000000E+00  0.00000000E+00
  0.00000000E+00  0.00000000E+00  0.00000000E+00
  0.00000000E+00  0.00000000E+00  0.00000000E+00
  0.00000000E+00  0.00000000E+00  0.00000000E+00
  0.00000000E+00  0.00000000E+00  0.00000000E+00
  0.00000000E+00  0.00000000E+00  0.00000000E+00
  0.00000000E+00  0.00000000E+00  0.00000000E+00
  0.00000000E+00  0.00000000E+00  0.00000000E+00
  0.00000000E+00  0.00000000E+00  0.00000000E+00
  0.00000000E+00  0.00000000E+00  0.00000000E+00
  0.00000000E+00  0.00000000E+00  0.00000000E+00
  0.00000000E+00  0.00000000E+00  0.00000000E+00
  0.00000000E+00  0.00000000E+00  0.00000000E+00
  0.00000000E+00  0.00000000E+00  0.00000000E+00
  0.00000000E+00  0.00000000E+00  0.00000000E+00
  0.00000000E+00  0.00000000E+00  0.00000000E+00
