CONTCAR\(3)                             
   1.00000000000000     
    12.1801004410000004    0.0000000000000000    0.0000000000000000
    -1.4509505809000001   16.7930344431000016    0.0000000000000000
     0.0000000000000000    0.0000000000000000   21.1623001098999985
   Cu   Se   Cl   O 
    24    16    16    49
Direct
  0.4129885370760260  0.2703505624838087  0.3752698530402843
  0.2598360072079389  0.1664234307010679  0.4637538897306823
  0.5010700768156222  0.1855325247513567  0.6235041096988412
  0.3506644205830284  0.0099905424143489  0.5378727943352163
  0.1537572248320504  0.2952059609683840  0.5358896119027303
  0.0601696726200841  0.4478742025066245  0.4576624541713380
  0.9134024509760477  0.2726897162637890  0.3758664465984460
  0.7607438891576028  0.1668098766519536  0.4643609688982235
  0.0007502007340492  0.1887501021073127  0.6233809001083335
  0.8540702758604926  0.0101853956501136  0.5380284254216648
  0.6533383929521135  0.2925796688764805  0.5346902574167020
  0.5551755193291169  0.4478401061197504  0.4597945086618066
  0.4154987281796340  0.7786560835701348  0.3808492573531286
  0.2610618054012137  0.6692973633206849  0.4647778074361804
  0.4946281903448643  0.6835116912507345  0.6284683404988963
  0.3586984624793135  0.5116765940968684  0.5374681553442838
  0.1491970123342743  0.7915043754060211  0.5376718012528733
  0.0565249303935344  0.9473051736888305  0.4674353613772643
  0.9159269597827311  0.7784626522049025  0.3748986497586372
  0.7695215604260602  0.6695011851654065  0.4622364801795294
  0.9931535479233515  0.6845437993349339  0.6226676706834288
  0.8572612472390110  0.5142100422345779  0.5241368346328962
  0.6472172476124876  0.7820615378166174  0.5424081933986121
  0.5629826274103117  0.9483998526997136  0.4755560350802090
  0.1635713701859519  0.3215245328045549  0.3745624049414140
  0.2502212049799155  0.1366793205460644  0.6237717595025679
  0.0227191743920598  0.1200123339993347  0.4250753984048474
  0.3916849891144719  0.3381183304918856  0.5749755052379968
  0.6620304637389994  0.3222499830597529  0.3750572825351253
  0.7526571464132363  0.1367225185469769  0.6242732848340603
  0.5227416685760928  0.1183250831477178  0.4260080920642885
  0.8911556812942227  0.3426836208282770  0.5744601120997332
  0.1650305297639007  0.8276354583726778  0.3782957279401772
  0.2437332671722607  0.6297734596853186  0.6222033158844735
  0.0274218803179146  0.6228174793966494  0.4173349650243485
  0.3849123605927348  0.8369314385618045  0.5811803324716874
  0.6638583223616532  0.8281186104444973  0.3847813403313436
  0.7421829578255216  0.6388938122853364  0.6531709330479020
  0.5245769192509476  0.6237323687946650  0.4240244056968927
  0.8850157261815602  0.8351201223271547  0.5796107671093088
  0.2110394175924740  0.4411635693372927  0.5840214428444565
  0.2013570106723853  0.0144232983330837  0.4174122040785020
  0.4160823095842318  0.3935992716570961  0.3428876500578490
  0.4943715740811831  0.0630015373059411  0.6573022858120776
  0.7154244298203833  0.4523958760815573  0.5759056302355992
  0.7022806952751697  0.0130291619023330  0.4204022631470605
  0.9208617188377786  0.3964572187555555  0.3442357966607346
  0.9941715083931969  0.0643926184890697  0.6542594457770844
  0.2079144409104531  0.9443308926115538  0.5890286995536721
  0.2017071579529152  0.5164527244050860  0.4071664021697948
  0.4207060590542392  0.9013766606375746  0.3472618025991498
  0.4788454722827528  0.5546615284859867  0.6448180999350317
  0.7129541751959469  0.9461040404639508  0.5911018713191888
  0.6839632268077878  0.5107757922516515  0.3973669156623302
  0.9215275138615335  0.9039240270565981  0.3480194313837555
  0.9865413558123574  0.5630939281642354  0.6568217615997699
  0.0588389568489838  0.2513136822326738  0.3524289038926888
  0.4459753020648183  0.4198101442761914  0.5291053117007479
  0.1052672503777476  0.1716741199459686  0.4798726415352642
  0.3551338800238134  0.2066271823253020  0.6464045000444821
  0.2928997748272676  0.1128385721612627  0.5461692644645090
  0.1560589205782415  0.2074041428214952  0.6077924242560696
  0.4717878049782573  0.0391406881709901  0.4756205648235809
  0.4050839024360406  0.1729223548477879  0.4273929714606179
  0.3083789244911768  0.2886780007453481  0.5192931014298870
  0.1216987193024016  0.3463753892187660  0.4520466664920206
  0.0086944693560962  0.2873768221285137  0.5727842521379418
  0.2579227362572041  0.2510767065155878  0.3909152458579417
  0.5591803332360392  0.2506517446794155  0.3527288917251944
  0.9450434704816770  0.4226110560938162  0.5264367888050540
  0.6058734481205704  0.1710420547165648  0.4799234337409862
  0.8550845248145962  0.2085478343115977  0.6468736143870013
  0.7965116814834302  0.1136298484857655  0.5466957458009939
  0.6561515099702708  0.2057289751855976  0.6077154096896571
  0.9706612782812768  0.0394950069552725  0.4731688173357183
  0.9052530303542579  0.1747972447758742  0.4272746401753639
  0.8089119207534439  0.2907456911634381  0.5197848545044014
  0.6178282761366447  0.3462148274970285  0.4525546453814526
  0.5084506105292467  0.2823792436296335  0.5713223235321401
  0.7582922148016796  0.2534341740310057  0.3920587532196279
  0.0627798374510111  0.7587317771480325  0.3510416426623045
  0.4410943380503028  0.9196254757275157  0.5367146744246251
  0.1037819951377417  0.6689173515449613  0.4770190908249004
  0.3458398960710804  0.6997437784845266  0.6483846154514664
  0.2895148114752030  0.6104884166305752  0.5441691627189842
  0.1485602803523866  0.7001046820776554  0.6063844516787078
  0.4686492500768412  0.5403109161559890  0.4671834706361202
  0.4104049632654626  0.6823804005123199  0.4335097358889063
  0.3045198271443886  0.7895704759858706  0.5233997234252632
  0.1159290210648455  0.8456903773453933  0.4559574456190983
  0.0036303445618739  0.7806793997323606  0.5728326931360826
  0.2598898792127118  0.7570110081567452  0.3939363718294739
  0.5614900243749313  0.7592288990078488  0.3577886684836303
  0.9387307278699569  0.9168190474074238  0.5319778453363847
  0.6129300019689883  0.6678462909438201  0.4801264621126994
  0.8563723084232040  0.7136718407171481  0.6493856175472055
  0.8015553999736343  0.6087480462886036  0.5294996409228429
  0.6469456390312501  0.7054263852269935  0.6150418903301799
  0.9690765471317727  0.5373581696462638  0.4584795397844951
  0.9072284399283924  0.6754036113243902  0.4187837998610821
  0.8017530348272199  0.7853408300584493  0.5244028025389528
  0.6170339782791464  0.8439769744884504  0.4631959060432776
  0.5016661280268915  0.7818497123503801  0.5789143258676654
  0.7606452672893582  0.7576000668230802  0.3956672806373385
  0.7019840435390102  0.6432950367846942  0.7268832129025768
 
  0.00000000E+00  0.00000000E+00  0.00000000E+00
  0.00000000E+00  0.00000000E+00  0.00000000E+00
  0.00000000E+00  0.00000000E+00  0.00000000E+00
  0.00000000E+00  0.00000000E+00  0.00000000E+00
  0.00000000E+00  0.00000000E+00  0.00000000E+00
  0.00000000E+00  0.00000000E+00  0.00000000E+00
  0.00000000E+00  0.00000000E+00  0.00000000E+00
  0.00000000E+00  0.00000000E+00  0.00000000E+00
  0.00000000E+00  0.00000000E+00  0.00000000E+00
  0.00000000E+00  0.00000000E+00  0.00000000E+00
  0.00000000E+00  0.00000000E+00  0.00000000E+00
  0.00000000E+00  0.00000000E+00  0.00000000E+00
  0.00000000E+00  0.00000000E+00  0.00000000E+00
  0.00000000E+00  0.00000000E+00  0.00000000E+00
  0.00000000E+00  0.00000000E+00  0.00000000E+00
  0.00000000E+00  0.00000000E+00  0.00000000E+00
  0.00000000E+00  0.00000000E+00  0.00000000E+00
  0.00000000E+00  0.00000000E+00  0.00000000E+00
  0.00000000E+00  0.00000000E+00  0.00000000E+00
  0.00000000E+00  0.00000000E+00  0.00000000E+00
  0.00000000E+00  0.00000000E+00  0.00000000E+00
  0.00000000E+00  0.00000000E+00  0.00000000E+00
  0.00000000E+00  0.00000000E+00  0.00000000E+00
  0.00000000E+00  0.00000000E+00  0.00000000E+00
  0.00000000E+00  0.00000000E+00  0.00000000E+00
  0.00000000E+00  0.00000000E+00  0.00000000E+00
  0.00000000E+00  0.00000000E+00  0.00000000E+00
  0.00000000E+00  0.00000000E+00  0.00000000E+00
  0.00000000E+00  0.00000000E+00  0.00000000E+00
  0.00000000E+00  0.00000000E+00  0.00000000E+00
  0.00000000E+00  0.00000000E+00  0.00000000E+00
  0.00000000E+00  0.00000000E+00  0.00000000E+00
  0.00000000E+00  0.00000000E+00  0.00000000E+00
  0.00000000E+00  0.00000000E+00  0.00000000E+00
  0.00000000E+00  0.00000000E+00  0.00000000E+00
  0.00000000E+00  0.00000000E+00  0.00000000E+00
  0.00000000E+00  0.00000000E+00  0.00000000E+00
  0.00000000E+00  0.00000000E+00  0.00000000E+00
  0.00000000E+00  0.00000000E+00  0.00000000E+00
  0.00000000E+00  0.00000000E+00  0.00000000E+00
  0.00000000E+00  0.00000000E+00  0.00000000E+00
  0.00000000E+00  0.00000000E+00  0.00000000E+00
  0.00000000E+00  0.00000000E+00  0.00000000E+00
  0.00000000E+00  0.00000000E+00  0.00000000E+00
  0.00000000E+00  0.00000000E+00  0.00000000E+00
  0.00000000E+00  0.00000000E+00  0.00000000E+00
  0.00000000E+00  0.00000000E+00  0.00000000E+00
  0.00000000E+00  0.00000000E+00  0.00000000E+00
  0.00000000E+00  0.00000000E+00  0.00000000E+00
  0.00000000E+00  0.00000000E+00  0.00000000E+00
  0.00000000E+00  0.00000000E+00  0.00000000E+00
  0.00000000E+00  0.00000000E+00  0.00000000E+00
  0.00000000E+00  0.00000000E+00  0.00000000E+00
  0.00000000E+00  0.00000000E+00  0.00000000E+00
  0.00000000E+00  0.00000000E+00  0.00000000E+00
  0.00000000E+00  0.00000000E+00  0.00000000E+00
  0.00000000E+00  0.00000000E+00  0.00000000E+00
  0.00000000E+00  0.00000000E+00  0.00000000E+00
  0.00000000E+00  0.00000000E+00  0.00000000E+00
  0.00000000E+00  0.00000000E+00  0.00000000E+00
  0.00000000E+00  0.00000000E+00  0.00000000E+00
  0.00000000E+00  0.00000000E+00  0.00000000E+00
  0.00000000E+00  0.00000000E+00  0.00000000E+00
  0.00000000E+00  0.00000000E+00  0.00000000E+00
  0.00000000E+00  0.00000000E+00  0.00000000E+00
  0.00000000E+00  0.00000000E+00  0.00000000E+00
  0.00000000E+00  0.00000000E+00  0.00000000E+00
  0.00000000E+00  0.00000000E+00  0.00000000E+00
  0.00000000E+00  0.00000000E+00  0.00000000E+00
  0.00000000E+00  0.00000000E+00  0.00000000E+00
  0.00000000E+00  0.00000000E+00  0.00000000E+00
  0.00000000E+00  0.00000000E+00  0.00000000E+00
  0.00000000E+00  0.00000000E+00  0.00000000E+00
  0.00000000E+00  0.00000000E+00  0.00000000E+00
  0.00000000E+00  0.00000000E+00  0.00000000E+00
  0.00000000E+00  0.00000000E+00  0.00000000E+00
  0.00000000E+00  0.00000000E+00  0.00000000E+00
  0.00000000E+00  0.00000000E+00  0.00000000E+00
  0.00000000E+00  0.00000000E+00  0.00000000E+00
  0.00000000E+00  0.00000000E+00  0.00000000E+00
  0.00000000E+00  0.00000000E+00  0.00000000E+00
  0.00000000E+00  0.00000000E+00  0.00000000E+00
  0.00000000E+00  0.00000000E+00  0.00000000E+00
  0.00000000E+00  0.00000000E+00  0.00000000E+00
  0.00000000E+00  0.00000000E+00  0.00000000E+00
  0.00000000E+00  0.00000000E+00  0.00000000E+00
  0.00000000E+00  0.00000000E+00  0.00000000E+00
  0.00000000E+00  0.00000000E+00  0.00000000E+00
  0.00000000E+00  0.00000000E+00  0.00000000E+00
  0.00000000E+00  0.00000000E+00  0.00000000E+00
  0.00000000E+00  0.00000000E+00  0.00000000E+00
  0.00000000E+00  0.00000000E+00  0.00000000E+00
  0.00000000E+00  0.00000000E+00  0.00000000E+00
  0.00000000E+00  0.00000000E+00  0.00000000E+00
  0.00000000E+00  0.00000000E+00  0.00000000E+00
  0.00000000E+00  0.00000000E+00  0.00000000E+00
  0.00000000E+00  0.00000000E+00  0.00000000E+00
  0.00000000E+00  0.00000000E+00  0.00000000E+00
  0.00000000E+00  0.00000000E+00  0.00000000E+00
  0.00000000E+00  0.00000000E+00  0.00000000E+00
  0.00000000E+00  0.00000000E+00  0.00000000E+00
  0.00000000E+00  0.00000000E+00  0.00000000E+00
  0.00000000E+00  0.00000000E+00  0.00000000E+00
  0.00000000E+00  0.00000000E+00  0.00000000E+00
  0.00000000E+00  0.00000000E+00  0.00000000E+00
