CONTCAR                                 
   1.00000000000000     
    14.0611000061000002    0.0000000000000000    0.0000000000000000
     0.0000000000000000   17.2483997345000013    0.0000000000000000
     0.0000000000000000    0.0000000000000000   18.5618991852000015
   Cu   H    Se   O 
     8    17    16    49
Direct
  0.0003593236646900  0.9987324234848819  0.5047081104622310
  0.2547407075428792  0.2512884203581162  0.4973767044751201
  0.5000483185071480  0.9969570747061995  0.5020460212019594
  0.7501884992068304  0.2487227721575101  0.4995145437692455
 -0.0001233303392513  0.4985838171342413  0.4975044480180226
  0.2533309520176367  0.7442278787094576  0.5092389094746772
  0.5073610050246830  0.4985662177577525  0.4998250188164708
  0.7473754889368619  0.7474430754980461  0.5056083757870963
  0.3123665865768563  0.0147836935742790  0.4432254137852929
  0.0643730681014291  0.2291145798472676  0.5612455149625296
  0.4409345446678402  0.2686083825914660  0.4337012156234650
  0.1911085723718824  0.4785626909813230  0.5548554858490249
  0.8129702659004199  0.0179954779625011  0.4373881591371427
  0.5627843698548770  0.2283809085892401  0.5657972758338913
  0.9402409359578254  0.2659070463486627  0.4336233763986782
  0.6894198300338856  0.4785502397663947  0.5667673740927789
  0.3181846528319055  0.5326525471975511  0.4341199504932234
  0.0596843635905131  0.7251915542847531  0.5762626581141720
  0.4408216996143093  0.7587306337856341  0.4340988198863291
  0.1914457105518374  0.9745607288158217  0.5722131578664773
  0.8037398353655911  0.5310131303529569  0.4365623560815964
  0.5617953372448296  0.7202946669623681  0.5628275286401784
  0.9414785474110491  0.7673294578643302  0.4446541025106083
  0.6864763152068146  0.9777197832809728  0.5645163353275992
  0.3881325487397490  0.7479464361669368  0.6624898500302941
  0.3293839669614694  0.4096980835118860  0.5542024897202362
  0.0731537481658866  0.3404684527390569  0.4363688761484698
  0.4280125482052838  0.1565984009752725  0.5592219299524729
  0.1792271653916406  0.0889617745371643  0.4453745919792555
  0.8239643476418537  0.4070142879461968  0.5585839015676534
  0.5743024770089046  0.3414808985228529  0.4394415797469892
  0.9284934291584320  0.1574176186029323  0.5588514864444569
  0.6776925174738015  0.0894205004190733  0.4407352416487166
  0.3274947526403152  0.9034814103951164  0.5669945007189777
  0.0769372212770349  0.8395513255935593  0.4522350192448325
  0.4209906513066713  0.6561115297964470  0.5719427319342922
  0.1756281220468102  0.5949726096682025  0.4418515743039892
  0.8216282430560995  0.9061253774749031  0.5623281721062329
  0.5693154847148313  0.8389243167844298  0.4395433827317271
  0.9254198614466618  0.6525188020173015  0.5646664583235756
  0.6626181318719645  0.5987435659567453  0.4474432593736070
  0.1197831127940272  0.2628265822455903  0.4843959576471612
  0.3892205139903842  0.2375970686825411  0.5118640765968767
  0.3743607410001180  0.4924313473807905  0.5101212716706032
  0.2357107258913881  0.1406520903328886  0.5119695626242321
  0.1364414230442526  0.0114434585573555  0.4955193246962143
  0.4835210045392861  0.1076915585439052  0.4906064364658569
  0.2774869840631879  0.3620447803674803  0.4834251140626364
  0.0156595677715799  0.3876616600973936  0.5050933750282371
  0.2759383913062707  0.0409368438283394  0.4031069524081778
  0.0274564941323933  0.2025430520322863  0.6008506521775957
  0.2298622144385013  0.4543348686779224  0.5949721061037179
  0.4774025649281924  0.2969565061040990  0.3948245615234734
  0.6149079252769489  0.2609246001434447  0.4856200458367176
  0.8854054888783544  0.2372864666608612  0.5121698868165693
  0.8645784105681342  0.4883043634764326  0.5132142020969689
  0.7314971959311615  0.1378491618545218  0.5106041149129639
  0.6349467175909753  0.0083777427451742  0.4861005431150519
  0.9815935986135750  0.1086524450502114  0.4890310623419437
  0.7667037921723483  0.3596840547040345  0.4895664100053770
  0.5171071951774208  0.3888440970827407  0.5095485507867074
  0.7763308563198881  0.0449288161780046  0.3978141939067678
  0.5255586765906690  0.2007910984819547  0.6043176542582522
  0.7269763945256835  0.4507304574239095  0.6048554420249370
  0.9777438326830529  0.2913512897346816  0.3936861450897491
  0.1176575059129467  0.7616024698593452  0.5022204201910787
  0.3869430887313688  0.7200036123316099  0.5038119485935159
  0.3660851642926262  0.9863689870558938  0.5220500361875482
  0.2237602567349355  0.6346275577891531  0.5180799385478924
  0.1346258984797065  0.5079383559925655  0.4782153216208339
  0.5067650752376432  0.6033993342509012  0.4915918795040529
  0.2758879668358165  0.8544294457487479  0.4969753123556501
  0.0183227430600686  0.8890173242791704  0.5192747921682065
  0.2778831005838665  0.5588534209246772  0.3965781468632215
  0.0192358578695117  0.6971201651705317  0.6129013851219290
  0.2279659233200531  0.9460225292225691  0.6106986405114326
  0.4736408278365615  0.7917922858114649  0.3960648902612254
  0.6140171117236851  0.7590298922992468  0.4850221624644047
  0.8819102637646806  0.7336071954610334  0.5200404856106948
  0.8646363990621970  0.9864958019933777  0.5160202802435589
  0.7192484448947805  0.6385653880534774  0.5209992886664837
  0.6360617978303638  0.5054319514110464  0.4838732380000813
  0.9852195733022455  0.6096214779557703  0.4942658221409620
  0.7683393049152422  0.8574422242351278  0.4925584941688640
  0.5144861468811777  0.8859359004344883  0.5100596449916914
  0.7656220317682152  0.5609936731600980  0.4006880710703038
  0.5237834879590852  0.7041907072245384  0.6060270866964975
  0.7227076018413445  0.9512767565839987  0.6045580174684815
  0.9813910377409721  0.7935418647748425  0.4065593242396973
  0.3466989312423458  0.7076344904699637  0.6425815915313402
 
  0.00000000E+00  0.00000000E+00  0.00000000E+00
  0.00000000E+00  0.00000000E+00  0.00000000E+00
  0.00000000E+00  0.00000000E+00  0.00000000E+00
  0.00000000E+00  0.00000000E+00  0.00000000E+00
  0.00000000E+00  0.00000000E+00  0.00000000E+00
  0.00000000E+00  0.00000000E+00  0.00000000E+00
  0.00000000E+00  0.00000000E+00  0.00000000E+00
  0.00000000E+00  0.00000000E+00  0.00000000E+00
  0.00000000E+00  0.00000000E+00  0.00000000E+00
  0.00000000E+00  0.00000000E+00  0.00000000E+00
  0.00000000E+00  0.00000000E+00  0.00000000E+00
  0.00000000E+00  0.00000000E+00  0.00000000E+00
  0.00000000E+00  0.00000000E+00  0.00000000E+00
  0.00000000E+00  0.00000000E+00  0.00000000E+00
  0.00000000E+00  0.00000000E+00  0.00000000E+00
  0.00000000E+00  0.00000000E+00  0.00000000E+00
  0.00000000E+00  0.00000000E+00  0.00000000E+00
  0.00000000E+00  0.00000000E+00  0.00000000E+00
  0.00000000E+00  0.00000000E+00  0.00000000E+00
  0.00000000E+00  0.00000000E+00  0.00000000E+00
  0.00000000E+00  0.00000000E+00  0.00000000E+00
  0.00000000E+00  0.00000000E+00  0.00000000E+00
  0.00000000E+00  0.00000000E+00  0.00000000E+00
  0.00000000E+00  0.00000000E+00  0.00000000E+00
  0.00000000E+00  0.00000000E+00  0.00000000E+00
  0.00000000E+00  0.00000000E+00  0.00000000E+00
  0.00000000E+00  0.00000000E+00  0.00000000E+00
  0.00000000E+00  0.00000000E+00  0.00000000E+00
  0.00000000E+00  0.00000000E+00  0.00000000E+00
  0.00000000E+00  0.00000000E+00  0.00000000E+00
  0.00000000E+00  0.00000000E+00  0.00000000E+00
  0.00000000E+00  0.00000000E+00  0.00000000E+00
  0.00000000E+00  0.00000000E+00  0.00000000E+00
  0.00000000E+00  0.00000000E+00  0.00000000E+00
  0.00000000E+00  0.00000000E+00  0.00000000E+00
  0.00000000E+00  0.00000000E+00  0.00000000E+00
  0.00000000E+00  0.00000000E+00  0.00000000E+00
  0.00000000E+00  0.00000000E+00  0.00000000E+00
  0.00000000E+00  0.00000000E+00  0.00000000E+00
  0.00000000E+00  0.00000000E+00  0.00000000E+00
  0.00000000E+00  0.00000000E+00  0.00000000E+00
  0.00000000E+00  0.00000000E+00  0.00000000E+00
  0.00000000E+00  0.00000000E+00  0.00000000E+00
  0.00000000E+00  0.00000000E+00  0.00000000E+00
  0.00000000E+00  0.00000000E+00  0.00000000E+00
  0.00000000E+00  0.00000000E+00  0.00000000E+00
  0.00000000E+00  0.00000000E+00  0.00000000E+00
  0.00000000E+00  0.00000000E+00  0.00000000E+00
  0.00000000E+00  0.00000000E+00  0.00000000E+00
  0.00000000E+00  0.00000000E+00  0.00000000E+00
  0.00000000E+00  0.00000000E+00  0.00000000E+00
  0.00000000E+00  0.00000000E+00  0.00000000E+00
  0.00000000E+00  0.00000000E+00  0.00000000E+00
  0.00000000E+00  0.00000000E+00  0.00000000E+00
  0.00000000E+00  0.00000000E+00  0.00000000E+00
  0.00000000E+00  0.00000000E+00  0.00000000E+00
  0.00000000E+00  0.00000000E+00  0.00000000E+00
  0.00000000E+00  0.00000000E+00  0.00000000E+00
  0.00000000E+00  0.00000000E+00  0.00000000E+00
  0.00000000E+00  0.00000000E+00  0.00000000E+00
  0.00000000E+00  0.00000000E+00  0.00000000E+00
  0.00000000E+00  0.00000000E+00  0.00000000E+00
  0.00000000E+00  0.00000000E+00  0.00000000E+00
  0.00000000E+00  0.00000000E+00  0.00000000E+00
  0.00000000E+00  0.00000000E+00  0.00000000E+00
  0.00000000E+00  0.00000000E+00  0.00000000E+00
  0.00000000E+00  0.00000000E+00  0.00000000E+00
  0.00000000E+00  0.00000000E+00  0.00000000E+00
  0.00000000E+00  0.00000000E+00  0.00000000E+00
  0.00000000E+00  0.00000000E+00  0.00000000E+00
  0.00000000E+00  0.00000000E+00  0.00000000E+00
  0.00000000E+00  0.00000000E+00  0.00000000E+00
  0.00000000E+00  0.00000000E+00  0.00000000E+00
  0.00000000E+00  0.00000000E+00  0.00000000E+00
  0.00000000E+00  0.00000000E+00  0.00000000E+00
  0.00000000E+00  0.00000000E+00  0.00000000E+00
  0.00000000E+00  0.00000000E+00  0.00000000E+00
  0.00000000E+00  0.00000000E+00  0.00000000E+00
  0.00000000E+00  0.00000000E+00  0.00000000E+00
  0.00000000E+00  0.00000000E+00  0.00000000E+00
  0.00000000E+00  0.00000000E+00  0.00000000E+00
  0.00000000E+00  0.00000000E+00  0.00000000E+00
  0.00000000E+00  0.00000000E+00  0.00000000E+00
  0.00000000E+00  0.00000000E+00  0.00000000E+00
  0.00000000E+00  0.00000000E+00  0.00000000E+00
  0.00000000E+00  0.00000000E+00  0.00000000E+00
  0.00000000E+00  0.00000000E+00  0.00000000E+00
  0.00000000E+00  0.00000000E+00  0.00000000E+00
  0.00000000E+00  0.00000000E+00  0.00000000E+00
  0.00000000E+00  0.00000000E+00  0.00000000E+00
