CONTCAR\(18)                            
   1.00000000000000     
    13.2923002242999999    0.0000000000000000    0.0000000000000000
     6.5701190447000002   11.5675693128999999    0.0000000000000000
     0.0000000000000000    0.0000000000000000   18.3850994109999988
   Nb   Ir   S    O 
    12     4    32     1
Direct
  0.2660152704205333  0.0121979100861140  0.5017384848416494
  0.5025428366388788  0.0183755527214950  0.5007383893154246
  0.4786823724826604  0.2641512017100587  0.5018298240532424
  0.7395184629019109  0.0233197139989365  0.5004636331039466
  0.9832519406115565  0.9986803553805343  0.5016418393801733
  0.9902288872466020  0.2357769715831544  0.4996109096331836
  0.2478295690646161  0.5184338438353374  0.4968329885627141
  0.4837840663467429  0.5000964185703204  0.5006023793882552
  0.4890325116470469  0.7377618193307245  0.5001272106617739
  0.7650637783238572  0.5123627360742202  0.5030028553133544
  0.0045499031213346  0.5187844381195629  0.5001086058997050
  0.9822285849128147  0.7597478582373857  0.5024491713498155
  0.2742131169351709  0.2285438402572472  0.5021410126437054
  0.7733038284761929  0.2281005265405280  0.4992977445608646
  0.2741104380234818  0.7283011756818215  0.4979178380876987
  0.7750146307016663  0.7280871774620993  0.5033321452700670
  0.3450824759352867  0.0801773476295326  0.4094889737785137
  0.0851441169032443  0.0806367079761578  0.4196090779766401
  0.0968357897176626  0.3246564632937200  0.4332741995672066
  0.3251692553747228  0.3344944712162262  0.4163588927257529
  0.1685952930118167  0.1715816106146177  0.5830901053652618
  0.4247006482728850  0.1635917835273593  0.5940412177107590
  0.4121223437188953  0.4172983027473450  0.5880077774310074
  0.1794866499407752  0.4042155116374127  0.5740195579074628
  0.8384276642477646  0.0777993926447002  0.4078564809098492
  0.5810821291093256  0.0956328014707808  0.4120526995615902
  0.5982904244549256  0.3238287686676910  0.4264141459278104
  0.8302926251417637  0.3341873756038886  0.4189161819150111
  0.6663344670859380  0.1771546036784706  0.5841631291579531
  0.9218088936808723  0.1572954464691663  0.5920915114698430
  0.9215135299523135  0.4170694608370460  0.5820395863646546
  0.6772383976517926  0.4051168082684776  0.5688226072014729
  0.3407501916093955  0.5792142821098263  0.4050673472741754
  0.0821875099003402  0.5956533474619822  0.4117373562767122
  0.0978794899581241  0.8243153511349030  0.4265482984620015
  0.3311734937443747  0.8347591538689013  0.4178599111854815
  0.1709723089976322  0.6725726810458009  0.5821509789363958
  0.4214325530190026  0.6573673637607776  0.5916575450400877
  0.4212008012421543  0.9169617272868700  0.5825792642367837
  0.1778720859856408  0.9045090621607722  0.5679422904269426
  0.8451802963208039  0.5794488682573318  0.4106671964745608
  0.5854617994004107  0.5816690485701447  0.4194404955296880
  0.5979267261584510  0.8242006502103736  0.4337895766661599
  0.8263270041333317  0.8355200026233501  0.4195300271456606
  0.6678542395467664  0.6719904302374725  0.5837912287753372
  0.9260149032321457  0.6621168955992666  0.5947544768569193
  0.9069424109616756  0.9200023661054314  0.5900455809559745
  0.6782312864657689  0.9041382049310868  0.5751988858221890
  0.3981670942689514  0.4239929627635988  0.6683084088985579
 
  0.00000000E+00  0.00000000E+00  0.00000000E+00
  0.00000000E+00  0.00000000E+00  0.00000000E+00
  0.00000000E+00  0.00000000E+00  0.00000000E+00
  0.00000000E+00  0.00000000E+00  0.00000000E+00
  0.00000000E+00  0.00000000E+00  0.00000000E+00
  0.00000000E+00  0.00000000E+00  0.00000000E+00
  0.00000000E+00  0.00000000E+00  0.00000000E+00
  0.00000000E+00  0.00000000E+00  0.00000000E+00
  0.00000000E+00  0.00000000E+00  0.00000000E+00
  0.00000000E+00  0.00000000E+00  0.00000000E+00
  0.00000000E+00  0.00000000E+00  0.00000000E+00
  0.00000000E+00  0.00000000E+00  0.00000000E+00
  0.00000000E+00  0.00000000E+00  0.00000000E+00
  0.00000000E+00  0.00000000E+00  0.00000000E+00
  0.00000000E+00  0.00000000E+00  0.00000000E+00
  0.00000000E+00  0.00000000E+00  0.00000000E+00
  0.00000000E+00  0.00000000E+00  0.00000000E+00
  0.00000000E+00  0.00000000E+00  0.00000000E+00
  0.00000000E+00  0.00000000E+00  0.00000000E+00
  0.00000000E+00  0.00000000E+00  0.00000000E+00
  0.00000000E+00  0.00000000E+00  0.00000000E+00
  0.00000000E+00  0.00000000E+00  0.00000000E+00
  0.00000000E+00  0.00000000E+00  0.00000000E+00
  0.00000000E+00  0.00000000E+00  0.00000000E+00
  0.00000000E+00  0.00000000E+00  0.00000000E+00
  0.00000000E+00  0.00000000E+00  0.00000000E+00
  0.00000000E+00  0.00000000E+00  0.00000000E+00
  0.00000000E+00  0.00000000E+00  0.00000000E+00
  0.00000000E+00  0.00000000E+00  0.00000000E+00
  0.00000000E+00  0.00000000E+00  0.00000000E+00
  0.00000000E+00  0.00000000E+00  0.00000000E+00
  0.00000000E+00  0.00000000E+00  0.00000000E+00
  0.00000000E+00  0.00000000E+00  0.00000000E+00
  0.00000000E+00  0.00000000E+00  0.00000000E+00
  0.00000000E+00  0.00000000E+00  0.00000000E+00
  0.00000000E+00  0.00000000E+00  0.00000000E+00
  0.00000000E+00  0.00000000E+00  0.00000000E+00
  0.00000000E+00  0.00000000E+00  0.00000000E+00
  0.00000000E+00  0.00000000E+00  0.00000000E+00
  0.00000000E+00  0.00000000E+00  0.00000000E+00
  0.00000000E+00  0.00000000E+00  0.00000000E+00
  0.00000000E+00  0.00000000E+00  0.00000000E+00
  0.00000000E+00  0.00000000E+00  0.00000000E+00
  0.00000000E+00  0.00000000E+00  0.00000000E+00
  0.00000000E+00  0.00000000E+00  0.00000000E+00
  0.00000000E+00  0.00000000E+00  0.00000000E+00
  0.00000000E+00  0.00000000E+00  0.00000000E+00
  0.00000000E+00  0.00000000E+00  0.00000000E+00
  0.00000000E+00  0.00000000E+00  0.00000000E+00
