 Cr8 Te24                               
   1.00000000000000     
    11.2504105634413243    0.0000000000000000    0.0000000000000000
     0.0000000000000000   11.4901498490651619    0.0000000000000000
     0.0000000000000000    0.0000000000000000   19.3135100328279989
   Cr   Te
     8    24
Direct
  0.0001747676516906  0.6738879193352635  0.5003360368129102
  0.5001747368230992  0.8261120894793541  0.4996639862903848
  0.9998252317315000  0.3261120857728211  0.4996639925912779
  0.4998252137983413  0.1738878688307002  0.5003360100937684
  0.2831020861386661  0.5005199127274270  0.5070987172688338
  0.7831020469176629  0.9994800515284815  0.4929013104137645
  0.7168979514673591  0.4994800877637975  0.4929012837051882
  0.2168978401014661  0.0005199223214673  0.5070987313281813
  0.9069286480498079  0.4998034718050208  0.5802231964621142
  0.4069286206862730  0.0001965714816279  0.4197767702730653
  0.0930713783359102  0.5001965816437696  0.4197767862959072
  0.5930714065686953  0.9998034119935703  0.5802232169765237
  0.3266657688186077  0.1516679602843208  0.5971355923713637
  0.8266657744729007  0.3483320614472891  0.4028644111729634
  0.6733342254256880  0.8483320371363198  0.4028644199310403
  0.1733342872971274  0.6516679481100354  0.5971356452849625
  0.1723373914401159  0.3492684462487697  0.5967004187134398
  0.6723374280339333  0.1507315352375306  0.4032995867039240
  0.8276626910701553  0.6507315868539404  0.4032996646640370
  0.3276625967162045  0.8492684561345265  0.5967004206914042
  0.6199245138569826  0.3323243313689920  0.5771981741297856
  0.1199244913263917  0.1676756714499049  0.4228017639603396
  0.3800754769009581  0.6676756779765551  0.4228018021484048
  0.8800755045282791  0.8323242870242934  0.5771981523002269
  0.4422161532233661  0.5003380834626382  0.6115383759409966
  0.9422160744213171  0.9996619281216876  0.3884616331941997
  0.5577838786929321  0.4996619457515158  0.3884616311352281
  0.0577837990907786  0.0003380684137690  0.6115383857019293
  0.6201548359833511  0.6675071349981775  0.5765322373339724
  0.1201548567590283  0.8324928826384980  0.4234676748103559
  0.3798451950580384  0.3324928514060146  0.4234677212044049
  0.8798451286133731  0.1675071312519228  0.5765322500951017
 
  0.00000000E+00  0.00000000E+00  0.00000000E+00
  0.00000000E+00  0.00000000E+00  0.00000000E+00
  0.00000000E+00  0.00000000E+00  0.00000000E+00
  0.00000000E+00  0.00000000E+00  0.00000000E+00
  0.00000000E+00  0.00000000E+00  0.00000000E+00
  0.00000000E+00  0.00000000E+00  0.00000000E+00
  0.00000000E+00  0.00000000E+00  0.00000000E+00
  0.00000000E+00  0.00000000E+00  0.00000000E+00
  0.00000000E+00  0.00000000E+00  0.00000000E+00
  0.00000000E+00  0.00000000E+00  0.00000000E+00
  0.00000000E+00  0.00000000E+00  0.00000000E+00
  0.00000000E+00  0.00000000E+00  0.00000000E+00
  0.00000000E+00  0.00000000E+00  0.00000000E+00
  0.00000000E+00  0.00000000E+00  0.00000000E+00
  0.00000000E+00  0.00000000E+00  0.00000000E+00
  0.00000000E+00  0.00000000E+00  0.00000000E+00
  0.00000000E+00  0.00000000E+00  0.00000000E+00
  0.00000000E+00  0.00000000E+00  0.00000000E+00
  0.00000000E+00  0.00000000E+00  0.00000000E+00
  0.00000000E+00  0.00000000E+00  0.00000000E+00
  0.00000000E+00  0.00000000E+00  0.00000000E+00
  0.00000000E+00  0.00000000E+00  0.00000000E+00
  0.00000000E+00  0.00000000E+00  0.00000000E+00
  0.00000000E+00  0.00000000E+00  0.00000000E+00
  0.00000000E+00  0.00000000E+00  0.00000000E+00
  0.00000000E+00  0.00000000E+00  0.00000000E+00
  0.00000000E+00  0.00000000E+00  0.00000000E+00
  0.00000000E+00  0.00000000E+00  0.00000000E+00
  0.00000000E+00  0.00000000E+00  0.00000000E+00
  0.00000000E+00  0.00000000E+00  0.00000000E+00
  0.00000000E+00  0.00000000E+00  0.00000000E+00
  0.00000000E+00  0.00000000E+00  0.00000000E+00
