CONTCAR\(5)                             
   1.00000000000000     
    11.4826002120999995    0.0000000000000000    0.0000000000000000
     0.0000000000000000   22.3225002289000010    0.0000000000000000
     0.0000000000000000    0.0000000000000000   23.4783000946000016
   Y    C    I    O 
    42    18    36     7
Direct
  0.1685526594917708  0.9701895726580287  0.4336204669931042
  0.0024915915068881  0.6638483384626755  0.3978286739309877
  0.1684384456556123  0.7417653800255648  0.4966775560188518
  0.0153543046093800  0.6096665528446448  0.5344704240531751
  0.0017797459203965  0.1648096625745712  0.5995649286652112
  0.1682675321479850  0.2498738349912745  0.5084737596424033
  0.1680030771667705  0.4690380705659838  0.5697406628325117
  0.0027611093758866  0.8938561360798596  0.5314975310933889
  0.0015550449218139  0.1063210516792579  0.4700015116596668
  0.0043868192466851  0.8338271211164056  0.4031704842951891
  0.1680358890407605  0.5286982105141136  0.4313317020512505
  0.1685087989963548  0.0308717151650589  0.5672730969392163
  0.0018781080671528  0.3339405290979101  0.6008903837429563
  0.0009743186825458  0.3946052808744746  0.4723308323365341
  0.5015549661056290  0.9699561639212985  0.4336161446639265
  0.3340909546159007  0.6638244592873983  0.3978129776963581
  0.5004329355965033  0.7498611280565832  0.4931458592760162
  0.3209357308948887  0.6096595151867681  0.5344267082027887
  0.3349277799320135  0.1648193074194997  0.5995985596913652
  0.5021050823996875  0.2500642456436130  0.5090569746708591
  0.4990067065760400  0.4707173190813769  0.5701614652458298
  0.3343306967094418  0.8938609347794518  0.5315200565337502
  0.3356071035320460  0.1063207715546403  0.4700269552404815
  0.3326526817770211  0.8338195924818015  0.4031888789483967
  0.4997450747347684  0.5310922158121657  0.4368595558450320
  0.5015703360611808  0.0307434324218964  0.5672225714828936
  0.3344810284383876  0.3339888535194986  0.6009708892714135
  0.3347268825294495  0.3945719649709896  0.4723494364509683
  0.8356943907329036  0.9699658429676898  0.4336399881513381
  0.6683750995063000  0.6650566595857337  0.4027840626768638
  0.8364388447691012  0.7498543059488902  0.4932093708654020
  0.6682257593308430  0.6081486658358722  0.5323461312401839
  0.6684073321502628  0.1651004439662902  0.5997226114300088
  0.8343991521275950  0.2500631464811841  0.5089727862340833
  0.8367257028783691  0.4707266411477761  0.5702018439186255
  0.6685770302882926  0.8947496621512651  0.5309830743542041
  0.6685049731687461  0.1063882620561409  0.4700209781014980
  0.6685460248788104  0.8351566687892287  0.4020348025300891
  0.8364474739136766  0.5311190766123440  0.4368747942717205
  0.8353686730257769  0.0307691408017549  0.5671671459897915
  0.6681516785261641  0.3352188759117360  0.6017523350904844
  0.6678220804686256  0.3955722012263820  0.4733233915406940
  0.1684611587904298  0.1373021718964361  0.5377680306187728
  0.1683326859545563  0.6309304660245690  0.4449707772268512
  0.0013869240695176  0.0013819283772224  0.5006092106615808
  0.1685147066908697  0.8667376907260365  0.4637485671660500
  0.0029801399137573  0.4986000207466765  0.5031290699646255
  0.1681660435098569  0.3623447359509855  0.5393384203684118
  0.5023159074795096  0.1374665579136084  0.5376155569984683
  0.5031632018243685  0.6367788743629914  0.4639832434872318
  0.3356546723869645  0.0013381059432506  0.5006191961031066
  0.5009793353328394  0.8635557590835835  0.4633477463165321
  0.3329011904826221  0.4985916666520915  0.5031633435012342
  0.5016389980508713  0.3639513988533036  0.5400311421779964
  0.8343954082494086  0.1374857128912667  0.5375828544456713
  0.8333617099610865  0.6368103368787296  0.4640160092220704
  0.6685075909646081  0.0003656108758955  0.5002522657575271
  0.8360532809096712  0.8635455884678432  0.4633776516445963
  0.6679908108469679  0.5010636354137850  0.5035325080967054
  0.8345269946185362  0.3639751402367960  0.5400225265555850
  0.1679238735798858  0.2481151686976449  0.6821158399831843
  0.0007556880860094  0.2490871941455069  0.4068256081792292
  0.0011207278155880  0.0582913545011835  0.6758900774960328
  0.1681894539735871  0.9108141868525065  0.6342517018874981
  0.1676691712346091  0.4028857304855432  0.3691053049159437
  0.0017180790132986  0.9414891377458966  0.3262603681664250
  0.9974008980225948  0.4368873113151751  0.6798110348709753
  0.1688664276697870  0.0938662267308058  0.3676099715634805
  0.9980885742742042  0.5525598272559249  0.3251643723250886
  0.9943235036555486  0.7648750066283213  0.5972548098814916
  0.1681801960626100  0.5772043196542480  0.6478400213105907
  0.1680260316856693  0.7521112791230047  0.3184747545725541
  0.5014891913915335  0.2487468523593604  0.6823926623746713
  0.3355880602519183  0.2490468894658883  0.4069281325026362
  0.3353694427282475  0.0584094157114065  0.6760829576313383
  0.5043279092510028  0.9104657358588729  0.6336264004544601
  0.5021987193164589  0.4060577667472966  0.3708011995181050
  0.3356595667407042  0.9414962824391275  0.3262749538626286
  0.3385115713679276  0.4370227000037735  0.6798684387606205
  0.5017370178900378  0.0934989987323150  0.3675329732177597
  0.3383291029101326  0.5525610099961171  0.3251469703713556
  0.3425150665402184  0.7647431871925955  0.5971818338851669
  0.4980409130525911  0.5955445180007682  0.6334694176542776
  0.5017682009623639  0.7511846206235936  0.3195736737804575
  0.8348350276473754  0.2486650080824127  0.6822214612904277
  0.6679495648733246  0.2493930151131007  0.4070830090184691
  0.6685694460587256  0.0591475680469188  0.6763568198492954
  0.8327725483755352  0.9105694122707989  0.6336573254319150
  0.8330697164769505  0.4059483160216475  0.3708595366145668
  0.6690368138003423  0.9428848775235622  0.3258333347506908
  0.6676625167817178  0.4445218941394269  0.6768609891037404
  0.8353376238633807  0.0934819909840022  0.3676383232853588
  0.6683327531374731  0.5561133277835772  0.3286830995005917
  0.6682644021201077  0.7505808670023872  0.5947686167124359
  0.8382825156970342  0.5956418946784812  0.6335392979783899
  0.8345585647109753  0.7514220847588439  0.3195686043188943
  0.0037550989810915  0.7477299180422012  0.4470949013126388
  0.0013880083518151  0.2497875587103878  0.5553282281362198
  0.3331156881882021  0.7477507726483456  0.4470527081001002
  0.3350893036638584  0.2498277497613987  0.5554260555878755
  0.6684789845775589  0.7504876730721148  0.4463871406202312
  0.6683187003095216  0.2508717371226274  0.5562337517588489
  0.1682155203736722  0.6635231614067343  0.5492821572808469
 
  0.00000000E+00  0.00000000E+00  0.00000000E+00
  0.00000000E+00  0.00000000E+00  0.00000000E+00
  0.00000000E+00  0.00000000E+00  0.00000000E+00
  0.00000000E+00  0.00000000E+00  0.00000000E+00
  0.00000000E+00  0.00000000E+00  0.00000000E+00
  0.00000000E+00  0.00000000E+00  0.00000000E+00
  0.00000000E+00  0.00000000E+00  0.00000000E+00
  0.00000000E+00  0.00000000E+00  0.00000000E+00
  0.00000000E+00  0.00000000E+00  0.00000000E+00
  0.00000000E+00  0.00000000E+00  0.00000000E+00
  0.00000000E+00  0.00000000E+00  0.00000000E+00
  0.00000000E+00  0.00000000E+00  0.00000000E+00
  0.00000000E+00  0.00000000E+00  0.00000000E+00
  0.00000000E+00  0.00000000E+00  0.00000000E+00
  0.00000000E+00  0.00000000E+00  0.00000000E+00
  0.00000000E+00  0.00000000E+00  0.00000000E+00
  0.00000000E+00  0.00000000E+00  0.00000000E+00
  0.00000000E+00  0.00000000E+00  0.00000000E+00
  0.00000000E+00  0.00000000E+00  0.00000000E+00
  0.00000000E+00  0.00000000E+00  0.00000000E+00
  0.00000000E+00  0.00000000E+00  0.00000000E+00
  0.00000000E+00  0.00000000E+00  0.00000000E+00
  0.00000000E+00  0.00000000E+00  0.00000000E+00
  0.00000000E+00  0.00000000E+00  0.00000000E+00
  0.00000000E+00  0.00000000E+00  0.00000000E+00
  0.00000000E+00  0.00000000E+00  0.00000000E+00
  0.00000000E+00  0.00000000E+00  0.00000000E+00
  0.00000000E+00  0.00000000E+00  0.00000000E+00
  0.00000000E+00  0.00000000E+00  0.00000000E+00
  0.00000000E+00  0.00000000E+00  0.00000000E+00
  0.00000000E+00  0.00000000E+00  0.00000000E+00
  0.00000000E+00  0.00000000E+00  0.00000000E+00
  0.00000000E+00  0.00000000E+00  0.00000000E+00
  0.00000000E+00  0.00000000E+00  0.00000000E+00
  0.00000000E+00  0.00000000E+00  0.00000000E+00
  0.00000000E+00  0.00000000E+00  0.00000000E+00
  0.00000000E+00  0.00000000E+00  0.00000000E+00
  0.00000000E+00  0.00000000E+00  0.00000000E+00
  0.00000000E+00  0.00000000E+00  0.00000000E+00
  0.00000000E+00  0.00000000E+00  0.00000000E+00
  0.00000000E+00  0.00000000E+00  0.00000000E+00
  0.00000000E+00  0.00000000E+00  0.00000000E+00
  0.00000000E+00  0.00000000E+00  0.00000000E+00
  0.00000000E+00  0.00000000E+00  0.00000000E+00
  0.00000000E+00  0.00000000E+00  0.00000000E+00
  0.00000000E+00  0.00000000E+00  0.00000000E+00
  0.00000000E+00  0.00000000E+00  0.00000000E+00
  0.00000000E+00  0.00000000E+00  0.00000000E+00
  0.00000000E+00  0.00000000E+00  0.00000000E+00
  0.00000000E+00  0.00000000E+00  0.00000000E+00
  0.00000000E+00  0.00000000E+00  0.00000000E+00
  0.00000000E+00  0.00000000E+00  0.00000000E+00
  0.00000000E+00  0.00000000E+00  0.00000000E+00
  0.00000000E+00  0.00000000E+00  0.00000000E+00
  0.00000000E+00  0.00000000E+00  0.00000000E+00
  0.00000000E+00  0.00000000E+00  0.00000000E+00
  0.00000000E+00  0.00000000E+00  0.00000000E+00
  0.00000000E+00  0.00000000E+00  0.00000000E+00
  0.00000000E+00  0.00000000E+00  0.00000000E+00
  0.00000000E+00  0.00000000E+00  0.00000000E+00
  0.00000000E+00  0.00000000E+00  0.00000000E+00
  0.00000000E+00  0.00000000E+00  0.00000000E+00
  0.00000000E+00  0.00000000E+00  0.00000000E+00
  0.00000000E+00  0.00000000E+00  0.00000000E+00
  0.00000000E+00  0.00000000E+00  0.00000000E+00
  0.00000000E+00  0.00000000E+00  0.00000000E+00
  0.00000000E+00  0.00000000E+00  0.00000000E+00
  0.00000000E+00  0.00000000E+00  0.00000000E+00
  0.00000000E+00  0.00000000E+00  0.00000000E+00
  0.00000000E+00  0.00000000E+00  0.00000000E+00
  0.00000000E+00  0.00000000E+00  0.00000000E+00
  0.00000000E+00  0.00000000E+00  0.00000000E+00
  0.00000000E+00  0.00000000E+00  0.00000000E+00
  0.00000000E+00  0.00000000E+00  0.00000000E+00
  0.00000000E+00  0.00000000E+00  0.00000000E+00
  0.00000000E+00  0.00000000E+00  0.00000000E+00
  0.00000000E+00  0.00000000E+00  0.00000000E+00
  0.00000000E+00  0.00000000E+00  0.00000000E+00
  0.00000000E+00  0.00000000E+00  0.00000000E+00
  0.00000000E+00  0.00000000E+00  0.00000000E+00
  0.00000000E+00  0.00000000E+00  0.00000000E+00
  0.00000000E+00  0.00000000E+00  0.00000000E+00
  0.00000000E+00  0.00000000E+00  0.00000000E+00
  0.00000000E+00  0.00000000E+00  0.00000000E+00
  0.00000000E+00  0.00000000E+00  0.00000000E+00
  0.00000000E+00  0.00000000E+00  0.00000000E+00
  0.00000000E+00  0.00000000E+00  0.00000000E+00
  0.00000000E+00  0.00000000E+00  0.00000000E+00
  0.00000000E+00  0.00000000E+00  0.00000000E+00
  0.00000000E+00  0.00000000E+00  0.00000000E+00
  0.00000000E+00  0.00000000E+00  0.00000000E+00
  0.00000000E+00  0.00000000E+00  0.00000000E+00
  0.00000000E+00  0.00000000E+00  0.00000000E+00
  0.00000000E+00  0.00000000E+00  0.00000000E+00
  0.00000000E+00  0.00000000E+00  0.00000000E+00
  0.00000000E+00  0.00000000E+00  0.00000000E+00
  0.00000000E+00  0.00000000E+00  0.00000000E+00
  0.00000000E+00  0.00000000E+00  0.00000000E+00
  0.00000000E+00  0.00000000E+00  0.00000000E+00
  0.00000000E+00  0.00000000E+00  0.00000000E+00
  0.00000000E+00  0.00000000E+00  0.00000000E+00
  0.00000000E+00  0.00000000E+00  0.00000000E+00
  0.00000000E+00  0.00000000E+00  0.00000000E+00
