CONTCAR                                 
   1.00000000000000     
     9.7571001052999993    0.0000000000000000    0.0000000000000000
    -3.0063686365000000   15.8319856181999992    0.0000000000000000
     0.0000000000000000    0.0000000000000000   18.2793006897000012
   V    P    S    O    H 
     4     8    26     1     1
Direct
  0.6302360879231799  0.6104133236910485  0.5000617949491968
  0.6151558756574360  0.1065340927861627  0.4972593804976881
  0.3855465539981680  0.3953975228424653  0.5015947647846772
  0.3856241668866787  0.8946791718524167  0.4944658766885652
  0.8293119131466540  0.2624087518364604  0.4926175667506314
  0.6949822406972217  0.4328356289519775  0.5380395200513490
  0.1721518624997103  0.7390595028987903  0.5050786777252796
  0.1717272352019208  0.2388838057281646  0.4925485181080589
  0.3032863595853641  0.0651112938551606  0.5340817494872567
  0.6984758882141406  0.9380937436173866  0.4576923773676000
  0.3085498049855602  0.5646112153884957  0.4641746001270803
  0.8337587194127707  0.7889338921680249  0.5443303930524266
  0.1115115812322003  0.1083032626650535  0.5214797547579835
  0.8857176082140654  0.8947070425733017  0.4635789965463744
  0.0256879399555388  0.7563981244223967  0.5858782030725322
  0.3904920510891969  0.0392412779140159  0.4355282040064310
  0.5413886631068294  0.3491546878353660  0.5866800242182393
  0.2460809842932932  0.4543846348333531  0.4113146772419398
  0.1974149618638492  0.3181956425758301  0.5780199674910804
  0.6462570573489970  0.7176872210667398  0.5835906661850885
  0.4668591920688669  0.6461644023324453  0.4148648411425384
  0.6134113907245577  0.4632849965520407  0.4398490687679342
  0.6631411442968371  0.2364957674260779  0.4256918359945132
  0.8885311159886271  0.3915284372520063  0.5262944677685368
  0.0006432952875883  0.2515337645350542  0.4227418087212769
  0.6086304551470221  0.9643146564277174  0.5558136730154857
  0.8071082626292210  0.6894841266357190  0.4474150567713480
  0.3882683603023196  0.5356566937147846  0.5630833150677432
  0.1924450058986977  0.8190811943101579  0.4201050602253460
  0.7507487297651494  0.5428295284759059  0.5926339812332202
  0.5413039171912644  0.8573812699251349  0.4067726334348549
  0.2425659842651555  0.9531559221177517  0.5841172084860062
  0.3475984795971527  0.7668829702965141  0.5663759562565787
  0.8005548193000962  0.1803341632996620  0.5762261646808611
  0.7500384487605416  0.0504180400003236  0.4052893436612308
  0.4569059635186008  0.1467717556058119  0.5849972725717976
  0.1168643134986738  0.6092325154130336  0.4720640262145608
  0.3389520205566967  0.2681152914836034  0.4266091177961044
  0.8445590001548950  0.8618368489509365  0.6110523723082153
  0.7839524617352609  0.8400238827427273  0.6520271747723640
 
  0.00000000E+00  0.00000000E+00  0.00000000E+00
  0.00000000E+00  0.00000000E+00  0.00000000E+00
  0.00000000E+00  0.00000000E+00  0.00000000E+00
  0.00000000E+00  0.00000000E+00  0.00000000E+00
  0.00000000E+00  0.00000000E+00  0.00000000E+00
  0.00000000E+00  0.00000000E+00  0.00000000E+00
  0.00000000E+00  0.00000000E+00  0.00000000E+00
  0.00000000E+00  0.00000000E+00  0.00000000E+00
  0.00000000E+00  0.00000000E+00  0.00000000E+00
  0.00000000E+00  0.00000000E+00  0.00000000E+00
  0.00000000E+00  0.00000000E+00  0.00000000E+00
  0.00000000E+00  0.00000000E+00  0.00000000E+00
  0.00000000E+00  0.00000000E+00  0.00000000E+00
  0.00000000E+00  0.00000000E+00  0.00000000E+00
  0.00000000E+00  0.00000000E+00  0.00000000E+00
  0.00000000E+00  0.00000000E+00  0.00000000E+00
  0.00000000E+00  0.00000000E+00  0.00000000E+00
  0.00000000E+00  0.00000000E+00  0.00000000E+00
  0.00000000E+00  0.00000000E+00  0.00000000E+00
  0.00000000E+00  0.00000000E+00  0.00000000E+00
  0.00000000E+00  0.00000000E+00  0.00000000E+00
  0.00000000E+00  0.00000000E+00  0.00000000E+00
  0.00000000E+00  0.00000000E+00  0.00000000E+00
  0.00000000E+00  0.00000000E+00  0.00000000E+00
  0.00000000E+00  0.00000000E+00  0.00000000E+00
  0.00000000E+00  0.00000000E+00  0.00000000E+00
  0.00000000E+00  0.00000000E+00  0.00000000E+00
  0.00000000E+00  0.00000000E+00  0.00000000E+00
  0.00000000E+00  0.00000000E+00  0.00000000E+00
  0.00000000E+00  0.00000000E+00  0.00000000E+00
  0.00000000E+00  0.00000000E+00  0.00000000E+00
  0.00000000E+00  0.00000000E+00  0.00000000E+00
  0.00000000E+00  0.00000000E+00  0.00000000E+00
  0.00000000E+00  0.00000000E+00  0.00000000E+00
  0.00000000E+00  0.00000000E+00  0.00000000E+00
  0.00000000E+00  0.00000000E+00  0.00000000E+00
  0.00000000E+00  0.00000000E+00  0.00000000E+00
  0.00000000E+00  0.00000000E+00  0.00000000E+00
  0.00000000E+00  0.00000000E+00  0.00000000E+00
  0.00000000E+00  0.00000000E+00  0.00000000E+00
