CONTCAR\(8)                             
   1.00000000000000     
    13.6164999007999992    0.0000000000000000    0.0000000000000000
     0.0000000000000000   12.7049999237000009    0.0000000000000000
     0.0000000000000000    0.0000000000000000   19.1487998961999999
   Te   Mo   O 
    32    16     1
Direct
  0.1870993173013389  0.2130042113142849  0.4229511243145936
  0.0619738618368402  0.2807975870735646  0.5802165846647256
  0.0624984987532002  0.4586307664342897  0.3930850401018446
  0.1868997211386443  0.0335784476309229  0.6091638888379620
  0.4378616730467826  0.2129449148028257  0.4229096953334874
  0.3124703140855445  0.2799171992980192  0.5799995078893332
  0.3126352815876814  0.4563030178581613  0.3931035355966586
  0.4382031951576977  0.0337340115447162  0.6091534447424678
  0.6878250179443768  0.2137891332293620  0.4227473519060609
  0.5630423585170234  0.2807534797800386  0.5802500577808445
  0.5626796647167964  0.4584159688284259  0.3930275055863106
  0.6876164648460232  0.0353557370612165  0.6093136244837325
  0.9370704366801021  0.2138590709332746  0.4228130711615989
  0.8124602891375119  0.2812241298348752  0.5800657449872446
  0.8124536963060791  0.4593040311184922  0.3931694867753208
  0.9373206969056938  0.0355504957329487  0.6093610878253415
  0.1869627749027956  0.7119425815791232  0.4223827636381756
  0.0625104006706252  0.7823181737823646  0.5794737858697374
  0.0608141263404463  0.9600421312425027  0.3915222131877840
  0.1871579486725778  0.5344857549019579  0.6098557889878080
  0.4380588629837732  0.7120428531804777  0.4224124913470320
  0.3125433945025193  0.7790686103532067  0.5689372264702826
  0.3125274670453351  0.9602388977930758  0.3921825182180214
  0.4380181618467844  0.5343457346344636  0.6098463422367146
  0.6877711939405629  0.7130693311868868  0.4226469855543940
  0.5622570000915914  0.7820614621428632  0.5793661723315537
  0.5641616233226969  0.9601518245760232  0.3914025491180411
  0.6874758456038279  0.5359195912177839  0.6099063345525053
  0.9371366205391638  0.7131948235371794  0.4227207605524796
  0.8123560780132451  0.7818303087163088  0.5796447820297601
  0.8125035033974157  0.9593873476745358  0.3924840875401046
  0.9375431468828523  0.5359661593788729  0.6099470401433322
  0.1868140141075401  0.4051100448205389  0.4969689512600226
  0.0618597918105479  0.0885398047617159  0.5055396501782070
  0.4383315460658679  0.4050079285739159  0.4969601692716168
  0.3125169056093782  0.0877326105561878  0.5057737181163091
  0.6875936084816630  0.4062456747527818  0.4969409579087412
  0.5631665246906863  0.0884913512443930  0.5054982272732289
  0.9373435977311573  0.4063457687123986  0.4969269716443776
  0.8124383617485833  0.0884752777134636  0.5056403040566551
  0.1847229423940959  0.9076524724502448  0.4948537063430507
  0.0624602541609889  0.5882344023940220  0.5059800862161552
  0.4403554745872427  0.9076887903627338  0.4948256607588064
  0.3125962060634890  0.5848647320424902  0.5060613895155441
  0.6875212897956189  0.9061808495965096  0.4961159026836555
  0.5625853802287111  0.5881018165428173  0.5059220024745841
  0.9373386930240173  0.9062702429197813  0.4961934059587847
  0.8124802919263843  0.5886189552312544  0.5061081701223102
  0.3126361488565053  0.7995213389517204  0.6649279374527097
 
  0.00000000E+00  0.00000000E+00  0.00000000E+00
  0.00000000E+00  0.00000000E+00  0.00000000E+00
  0.00000000E+00  0.00000000E+00  0.00000000E+00
  0.00000000E+00  0.00000000E+00  0.00000000E+00
  0.00000000E+00  0.00000000E+00  0.00000000E+00
  0.00000000E+00  0.00000000E+00  0.00000000E+00
  0.00000000E+00  0.00000000E+00  0.00000000E+00
  0.00000000E+00  0.00000000E+00  0.00000000E+00
  0.00000000E+00  0.00000000E+00  0.00000000E+00
  0.00000000E+00  0.00000000E+00  0.00000000E+00
  0.00000000E+00  0.00000000E+00  0.00000000E+00
  0.00000000E+00  0.00000000E+00  0.00000000E+00
  0.00000000E+00  0.00000000E+00  0.00000000E+00
  0.00000000E+00  0.00000000E+00  0.00000000E+00
  0.00000000E+00  0.00000000E+00  0.00000000E+00
  0.00000000E+00  0.00000000E+00  0.00000000E+00
  0.00000000E+00  0.00000000E+00  0.00000000E+00
  0.00000000E+00  0.00000000E+00  0.00000000E+00
  0.00000000E+00  0.00000000E+00  0.00000000E+00
  0.00000000E+00  0.00000000E+00  0.00000000E+00
  0.00000000E+00  0.00000000E+00  0.00000000E+00
  0.00000000E+00  0.00000000E+00  0.00000000E+00
  0.00000000E+00  0.00000000E+00  0.00000000E+00
  0.00000000E+00  0.00000000E+00  0.00000000E+00
  0.00000000E+00  0.00000000E+00  0.00000000E+00
  0.00000000E+00  0.00000000E+00  0.00000000E+00
  0.00000000E+00  0.00000000E+00  0.00000000E+00
  0.00000000E+00  0.00000000E+00  0.00000000E+00
  0.00000000E+00  0.00000000E+00  0.00000000E+00
  0.00000000E+00  0.00000000E+00  0.00000000E+00
  0.00000000E+00  0.00000000E+00  0.00000000E+00
  0.00000000E+00  0.00000000E+00  0.00000000E+00
  0.00000000E+00  0.00000000E+00  0.00000000E+00
  0.00000000E+00  0.00000000E+00  0.00000000E+00
  0.00000000E+00  0.00000000E+00  0.00000000E+00
  0.00000000E+00  0.00000000E+00  0.00000000E+00
  0.00000000E+00  0.00000000E+00  0.00000000E+00
  0.00000000E+00  0.00000000E+00  0.00000000E+00
  0.00000000E+00  0.00000000E+00  0.00000000E+00
  0.00000000E+00  0.00000000E+00  0.00000000E+00
  0.00000000E+00  0.00000000E+00  0.00000000E+00
  0.00000000E+00  0.00000000E+00  0.00000000E+00
  0.00000000E+00  0.00000000E+00  0.00000000E+00
  0.00000000E+00  0.00000000E+00  0.00000000E+00
  0.00000000E+00  0.00000000E+00  0.00000000E+00
  0.00000000E+00  0.00000000E+00  0.00000000E+00
  0.00000000E+00  0.00000000E+00  0.00000000E+00
  0.00000000E+00  0.00000000E+00  0.00000000E+00
  0.00000000E+00  0.00000000E+00  0.00000000E+00
