CONTCAR\(2)                             
   1.00000000000000     
    11.1906995773000002    0.0000000000000000    0.0000000000000000
     0.0000000000000000   11.1906995773000002    0.0000000000000000
     0.0000000000000000    0.0000000000000000   22.0060005188000005
   Zr   Ge   Te   O    H 
    18    18    18     2     1
Direct
  0.1670400453470791  0.0012743533683661  0.4020096167059037
  0.9977923058602940  0.1662245237385633  0.5981103560007668
  0.4991624162427755  0.0011285352742476  0.4019904805557957
  0.3328490123089196  0.1682205128446839  0.5999479081870689
  0.8330964346938785  0.0013207359865248  0.4010679465832752
  0.6689545623795823  0.1653987022586065  0.5983068759725896
  0.1670267889682435  0.3354282554166446  0.4034448685908529
  0.0003848949006198  0.5019391547328453  0.6000007734871886
  0.4990559875952059  0.3352639385334868  0.4032781051488854
  0.3320489568109721  0.4988505340368761  0.6099130749272916
  0.8330717700992807  0.3351840379848099  0.4019614684053394
  0.6660119014932988  0.5019177336070726  0.5998938790167045
  0.1671488259552874  0.6674059224873190  0.4033539825501933
  0.9973518542806019  0.8371346242541691  0.5983666342433835
  0.4988789722558664  0.6672362159639462  0.4033475859690014
  0.3328889129580048  0.8335849791653800  0.6001748480160387
  0.8328504463687665  0.6676120965160237  0.4019893098147236
  0.6685695941091581  0.8368995944832136  0.5982461124111396
  0.1666197188466754  0.1678157586712388  0.5008152380103184
  0.9999644442594757  0.0013736632428589  0.4995679109039486
  0.4994223969053877  0.1677205826642378  0.5009330016272813
  0.3330643009567353  0.0012098348825873  0.5009935819224580
  0.8331214519685233  0.1679654711660987  0.4995760228252379
  0.6661223887671497  0.0013595381505027  0.4995801503224229
  0.1667544180431335  0.5014755876406483  0.5028994568696348
  0.9994689470698148  0.3350121218287399  0.5007917925333629
  0.4990588197027037  0.5011679707884369  0.5028806058042576
  0.3331148430771833  0.3355551653748776  0.5031025666637063
  0.8330774203451412  0.5014887431111958  0.5008758055436360
  0.6666087959847431  0.3348114935455655  0.5008442909293009
  0.1666131072916741  0.8347857543364228  0.5009377328822495
  0.9994226478700199  0.6679242723671663  0.5008841731651970
  0.4992860766202156  0.8346454889512174  0.5009390215884508
  0.3329575261659699  0.6667727574838125  0.5031212637595601
  0.8330720729657202  0.8346103384070105  0.4996410183324755
  0.6664294496237986  0.6677229935054854  0.5008220327788280
  0.1664379754845200  0.0016515616364785  0.6602890858464647
  0.0005830177779984  0.1687237488586746  0.3410169321383307
  0.4997044067173633  0.0009524463435113  0.6603385843963423
  0.3330451507105394  0.1687111971046917  0.3412857777822254
  0.8331317929820585  0.0016351782161834  0.6616077253355215
  0.6657285424301804  0.1684116838662888  0.3408107842973180
  0.1585166224795316  0.3274730586701367  0.6593436097336820
  0.0004704911971771  0.5015492828678560  0.3413793818867603
  0.5089517149052583  0.3263085580726539  0.6601249445144148
  0.3328377143657946  0.5011552532119481  0.3418001899857757
  0.8332303221927475  0.3348675698650752  0.6601858434348671
  0.6653333554105103  0.5012385183369119  0.3412483869670311
  0.1580666521203469  0.6765176234759593  0.6604060179770599
  0.0004508990960161  0.8340933061886417  0.3409803348554163
  0.5071373120400722  0.6748547152929945  0.6597957103934036
  0.3331716630782822  0.8338032315005677  0.3410652509039025
  0.8328255731732312  0.6683112039646630  0.6604437063086053
  0.6657777085604764  0.8339412286596044  0.3407641385440101
  0.3438190858187582  0.5153287810814291  0.7071672024818483
  0.3030148518271858  0.4372085025429087  0.7562627082736597
  0.3747126285400668  0.3872413034718676  0.7621745208948880
 
  0.00000000E+00  0.00000000E+00  0.00000000E+00
  0.00000000E+00  0.00000000E+00  0.00000000E+00
  0.00000000E+00  0.00000000E+00  0.00000000E+00
  0.00000000E+00  0.00000000E+00  0.00000000E+00
  0.00000000E+00  0.00000000E+00  0.00000000E+00
  0.00000000E+00  0.00000000E+00  0.00000000E+00
  0.00000000E+00  0.00000000E+00  0.00000000E+00
  0.00000000E+00  0.00000000E+00  0.00000000E+00
  0.00000000E+00  0.00000000E+00  0.00000000E+00
  0.00000000E+00  0.00000000E+00  0.00000000E+00
  0.00000000E+00  0.00000000E+00  0.00000000E+00
  0.00000000E+00  0.00000000E+00  0.00000000E+00
  0.00000000E+00  0.00000000E+00  0.00000000E+00
  0.00000000E+00  0.00000000E+00  0.00000000E+00
  0.00000000E+00  0.00000000E+00  0.00000000E+00
  0.00000000E+00  0.00000000E+00  0.00000000E+00
  0.00000000E+00  0.00000000E+00  0.00000000E+00
  0.00000000E+00  0.00000000E+00  0.00000000E+00
  0.00000000E+00  0.00000000E+00  0.00000000E+00
  0.00000000E+00  0.00000000E+00  0.00000000E+00
  0.00000000E+00  0.00000000E+00  0.00000000E+00
  0.00000000E+00  0.00000000E+00  0.00000000E+00
  0.00000000E+00  0.00000000E+00  0.00000000E+00
  0.00000000E+00  0.00000000E+00  0.00000000E+00
  0.00000000E+00  0.00000000E+00  0.00000000E+00
  0.00000000E+00  0.00000000E+00  0.00000000E+00
  0.00000000E+00  0.00000000E+00  0.00000000E+00
  0.00000000E+00  0.00000000E+00  0.00000000E+00
  0.00000000E+00  0.00000000E+00  0.00000000E+00
  0.00000000E+00  0.00000000E+00  0.00000000E+00
  0.00000000E+00  0.00000000E+00  0.00000000E+00
  0.00000000E+00  0.00000000E+00  0.00000000E+00
  0.00000000E+00  0.00000000E+00  0.00000000E+00
  0.00000000E+00  0.00000000E+00  0.00000000E+00
  0.00000000E+00  0.00000000E+00  0.00000000E+00
  0.00000000E+00  0.00000000E+00  0.00000000E+00
  0.00000000E+00  0.00000000E+00  0.00000000E+00
  0.00000000E+00  0.00000000E+00  0.00000000E+00
  0.00000000E+00  0.00000000E+00  0.00000000E+00
  0.00000000E+00  0.00000000E+00  0.00000000E+00
  0.00000000E+00  0.00000000E+00  0.00000000E+00
  0.00000000E+00  0.00000000E+00  0.00000000E+00
  0.00000000E+00  0.00000000E+00  0.00000000E+00
  0.00000000E+00  0.00000000E+00  0.00000000E+00
  0.00000000E+00  0.00000000E+00  0.00000000E+00
  0.00000000E+00  0.00000000E+00  0.00000000E+00
  0.00000000E+00  0.00000000E+00  0.00000000E+00
  0.00000000E+00  0.00000000E+00  0.00000000E+00
  0.00000000E+00  0.00000000E+00  0.00000000E+00
  0.00000000E+00  0.00000000E+00  0.00000000E+00
  0.00000000E+00  0.00000000E+00  0.00000000E+00
  0.00000000E+00  0.00000000E+00  0.00000000E+00
  0.00000000E+00  0.00000000E+00  0.00000000E+00
  0.00000000E+00  0.00000000E+00  0.00000000E+00
  0.00000000E+00  0.00000000E+00  0.00000000E+00
  0.00000000E+00  0.00000000E+00  0.00000000E+00
  0.00000000E+00  0.00000000E+00  0.00000000E+00
