CONTCAR\(10)                            
   1.00000000000000     
     9.7571001052999993    0.0000000000000000    0.0000000000000000
    -3.0063686365000000   15.8319856181999992    0.0000000000000000
     0.0000000000000000    0.0000000000000000   18.2793006897000012
   V    P    S    O 
     4     8    26     1
Direct
  0.6047556280919256  0.6067614821833465  0.4936522840427734
  0.6260669309997574  0.1085687724388732  0.5029649958229118
  0.3821207996992075  0.3963030318936881  0.4948595313535004
  0.3966548584795778  0.8964147116636467  0.5173423775588751
  0.8318340560335851  0.2654045497694505  0.4902898084330268
  0.6940150959735014  0.4372666622997443  0.5304205593133532
  0.1768283130964819  0.7148414678274475  0.5142739469977847
  0.1739929618473305  0.2393585655602687  0.4905906815906616
  0.3128054679207341  0.0699421593489284  0.5403086597240130
  0.7134102464952987  0.9398064255602935  0.4706074912022680
  0.2906698329244057  0.5615622437940138  0.4500543796160743
  0.8302582559015697  0.7577284987654124  0.5075815802790014
  0.1186631457638072  0.1091406480507212  0.5233480104401529
  0.8996134599798086  0.8900150569277313  0.4859953478605516
  0.9994311661103020  0.7353811174159292  0.5748982145737354
  0.4014617647034719  0.0311196822028493  0.4462510878947596
  0.5424822225382588  0.3550534222759206  0.5815421896690032
  0.2474612726658648  0.4480290365591419  0.3998223676902893
  0.1989073768192286  0.3211450482898736  0.5743071403808797
  0.6601005774671090  0.7288807769103665  0.5728576051412181
  0.4499996657679514  0.6461669023921994  0.4049153029642057
  0.6043312882753337  0.4647408512478362  0.4328606966614981
  0.6643991483491796  0.2333828922473817  0.4250037066099113
  0.8881731929494295  0.3970692228673194  0.5153881119566436
  0.0021965368122252  0.2497291869218474  0.4209896515988574
  0.6325598949750344  0.9742525363042434  0.5685164354212011
  0.7956326826065440  0.6844473604954374  0.4183490704586635
  0.3753665993326383  0.5386570936991086  0.5512659281036061
  0.2353126361157064  0.8152577359384617  0.4409759838637182
  0.7498055864896462  0.5483216385228571  0.5821326101675375
  0.5559396625393194  0.8562107933859360  0.4261522951906773
  0.2577008533486432  0.9608046669287259  0.5977737367805901
  0.3871043397837343  0.8071296282682855  0.6004012717268713
  0.8096428505049663  0.1909111498348813  0.5787583882960987
  0.7759297901277895  0.0494753278797039  0.4170793431527775
  0.4647768146900557  0.1551489356751596  0.5870862534739623
  0.0969543700886325  0.6029871805475160  0.4500873686765119
  0.3404796481657967  0.2651784994025889  0.4242213723758452
  0.3670608635661676  0.7869051407028222  0.6792443379359802
 
  0.00000000E+00  0.00000000E+00  0.00000000E+00
  0.00000000E+00  0.00000000E+00  0.00000000E+00
  0.00000000E+00  0.00000000E+00  0.00000000E+00
  0.00000000E+00  0.00000000E+00  0.00000000E+00
  0.00000000E+00  0.00000000E+00  0.00000000E+00
  0.00000000E+00  0.00000000E+00  0.00000000E+00
  0.00000000E+00  0.00000000E+00  0.00000000E+00
  0.00000000E+00  0.00000000E+00  0.00000000E+00
  0.00000000E+00  0.00000000E+00  0.00000000E+00
  0.00000000E+00  0.00000000E+00  0.00000000E+00
  0.00000000E+00  0.00000000E+00  0.00000000E+00
  0.00000000E+00  0.00000000E+00  0.00000000E+00
  0.00000000E+00  0.00000000E+00  0.00000000E+00
  0.00000000E+00  0.00000000E+00  0.00000000E+00
  0.00000000E+00  0.00000000E+00  0.00000000E+00
  0.00000000E+00  0.00000000E+00  0.00000000E+00
  0.00000000E+00  0.00000000E+00  0.00000000E+00
  0.00000000E+00  0.00000000E+00  0.00000000E+00
  0.00000000E+00  0.00000000E+00  0.00000000E+00
  0.00000000E+00  0.00000000E+00  0.00000000E+00
  0.00000000E+00  0.00000000E+00  0.00000000E+00
  0.00000000E+00  0.00000000E+00  0.00000000E+00
  0.00000000E+00  0.00000000E+00  0.00000000E+00
  0.00000000E+00  0.00000000E+00  0.00000000E+00
  0.00000000E+00  0.00000000E+00  0.00000000E+00
  0.00000000E+00  0.00000000E+00  0.00000000E+00
  0.00000000E+00  0.00000000E+00  0.00000000E+00
  0.00000000E+00  0.00000000E+00  0.00000000E+00
  0.00000000E+00  0.00000000E+00  0.00000000E+00
  0.00000000E+00  0.00000000E+00  0.00000000E+00
  0.00000000E+00  0.00000000E+00  0.00000000E+00
  0.00000000E+00  0.00000000E+00  0.00000000E+00
  0.00000000E+00  0.00000000E+00  0.00000000E+00
  0.00000000E+00  0.00000000E+00  0.00000000E+00
  0.00000000E+00  0.00000000E+00  0.00000000E+00
  0.00000000E+00  0.00000000E+00  0.00000000E+00
  0.00000000E+00  0.00000000E+00  0.00000000E+00
  0.00000000E+00  0.00000000E+00  0.00000000E+00
  0.00000000E+00  0.00000000E+00  0.00000000E+00
