CONTCAR                                 
   1.00000000000000     
    11.2035999297999993    0.0000000000000000    0.0000000000000000
     0.0000000000000000   12.2031002045000001    0.0000000000000000
     0.0000000000000000    0.0000000000000000   20.4333000182999989
   Cu   Sb   S    O 
    12    12    24     1
Direct
  0.9984791209645120  0.1390301486124198  0.5537491723571967
  0.0043196851851665  0.3854695546766067  0.4418805017984202
  0.3348648401339238  0.1390135512363454  0.5537462444662572
  0.3290023827744474  0.3854623913913742  0.4418764401558921
  0.6666663197590523  0.1326529369326163  0.5575158445383490
  0.6666691392175323  0.3851620605080743  0.4541446376510057
  0.0013463993250522  0.6282480758045864  0.5495744967925719
  0.9993297024387569  0.8835151609174263  0.4458199160821950
  0.3319959565771373  0.6282484222606272  0.5495663222020527
  0.3340218789338399  0.8835272557321903  0.4458221868096872
  0.6666527403761506  0.6280719781014452  0.5540318953732929
  0.6666527354793175  0.8817464689914355  0.4458577035802473
  0.1666619214678633  0.1321813034265612  0.3709612197193061
  0.1666711960008485  0.3929459813844232  0.6180919925653117
  0.5035043623986282  0.1346420520878077  0.3727003012157737
  0.5165808607888360  0.3722484226638570  0.6472754525816314
  0.8297986180611774  0.1346265098037328  0.3726955699588799
  0.8167379711376048  0.3722556153191106  0.6472780474376166
  0.1666652945979976  0.6351515986871340  0.3677293491645696
  0.1666632391764082  0.8830176783739194  0.6259134718540906
  0.5020824575596065  0.6302722457172441  0.3703638993148780
  0.4993128481880873  0.8798582398031818  0.6270404081773140
  0.8312136101377193  0.6303094532458293  0.3703793036593304
  0.8340235635065723  0.8798627930923479  0.6270353608027708
  0.1666626759574541  0.4412341005480854  0.3833247082408950
  0.1666749120225148  0.1939887282960227  0.6044845639674098
  0.9979738627852506  0.4431699753128532  0.5465113483382501
  0.0004905773284586  0.1978553192015251  0.4481164867890255
  0.5035529403770170  0.4388029035607910  0.3935373397657945
  0.4993893052858759  0.1818964035275290  0.6112249738317780
  0.3353605945886435  0.4431751148812188  0.5465035319713044
  0.3328287507527014  0.1978575999167258  0.4481278640667623
  0.8297685636638007  0.4388322777663230  0.3935388454702552
  0.8339444840094552  0.1818996730331623  0.6112281930808942
  0.6666562578963848  0.4412181212231515  0.5596592799142768
  0.6666644482586079  0.1969483816993054  0.4533789583189565
  0.1666738492751705  0.9396943111803019  0.3915614052288252
  0.1666741598404755  0.6912388195235820  0.6034695458253145
  0.9992107872724606  0.9483110693759910  0.5493851884194938
  0.9998547512256669  0.6965130181071928  0.4462815276859499
  0.5006616820558230  0.9413327569001232  0.3915162414245690
  0.4975034802506801  0.6878361889113701  0.6044317335446917
  0.3341179704126416  0.9483058879154255  0.5493864228101173
  0.3334752302146270  0.6965181523106054  0.4462816914637696
  0.8326692605059782  0.9413159671021908  0.3915311381338716
  0.8358146562498290  0.6878358555994747  0.6044208626411615
  0.6666680250274410  0.9429929130215995  0.5503014172317843
  0.6666451844778507  0.6942563554015139  0.4494157039763971
  0.6666671790789422  0.3470200909136405  0.6989615895997838
 
  0.00000000E+00  0.00000000E+00  0.00000000E+00
  0.00000000E+00  0.00000000E+00  0.00000000E+00
  0.00000000E+00  0.00000000E+00  0.00000000E+00
  0.00000000E+00  0.00000000E+00  0.00000000E+00
  0.00000000E+00  0.00000000E+00  0.00000000E+00
  0.00000000E+00  0.00000000E+00  0.00000000E+00
  0.00000000E+00  0.00000000E+00  0.00000000E+00
  0.00000000E+00  0.00000000E+00  0.00000000E+00
  0.00000000E+00  0.00000000E+00  0.00000000E+00
  0.00000000E+00  0.00000000E+00  0.00000000E+00
  0.00000000E+00  0.00000000E+00  0.00000000E+00
  0.00000000E+00  0.00000000E+00  0.00000000E+00
  0.00000000E+00  0.00000000E+00  0.00000000E+00
  0.00000000E+00  0.00000000E+00  0.00000000E+00
  0.00000000E+00  0.00000000E+00  0.00000000E+00
  0.00000000E+00  0.00000000E+00  0.00000000E+00
  0.00000000E+00  0.00000000E+00  0.00000000E+00
  0.00000000E+00  0.00000000E+00  0.00000000E+00
  0.00000000E+00  0.00000000E+00  0.00000000E+00
  0.00000000E+00  0.00000000E+00  0.00000000E+00
  0.00000000E+00  0.00000000E+00  0.00000000E+00
  0.00000000E+00  0.00000000E+00  0.00000000E+00
  0.00000000E+00  0.00000000E+00  0.00000000E+00
  0.00000000E+00  0.00000000E+00  0.00000000E+00
  0.00000000E+00  0.00000000E+00  0.00000000E+00
  0.00000000E+00  0.00000000E+00  0.00000000E+00
  0.00000000E+00  0.00000000E+00  0.00000000E+00
  0.00000000E+00  0.00000000E+00  0.00000000E+00
  0.00000000E+00  0.00000000E+00  0.00000000E+00
  0.00000000E+00  0.00000000E+00  0.00000000E+00
  0.00000000E+00  0.00000000E+00  0.00000000E+00
  0.00000000E+00  0.00000000E+00  0.00000000E+00
  0.00000000E+00  0.00000000E+00  0.00000000E+00
  0.00000000E+00  0.00000000E+00  0.00000000E+00
  0.00000000E+00  0.00000000E+00  0.00000000E+00
  0.00000000E+00  0.00000000E+00  0.00000000E+00
  0.00000000E+00  0.00000000E+00  0.00000000E+00
  0.00000000E+00  0.00000000E+00  0.00000000E+00
  0.00000000E+00  0.00000000E+00  0.00000000E+00
  0.00000000E+00  0.00000000E+00  0.00000000E+00
  0.00000000E+00  0.00000000E+00  0.00000000E+00
  0.00000000E+00  0.00000000E+00  0.00000000E+00
  0.00000000E+00  0.00000000E+00  0.00000000E+00
  0.00000000E+00  0.00000000E+00  0.00000000E+00
  0.00000000E+00  0.00000000E+00  0.00000000E+00
  0.00000000E+00  0.00000000E+00  0.00000000E+00
  0.00000000E+00  0.00000000E+00  0.00000000E+00
  0.00000000E+00  0.00000000E+00  0.00000000E+00
  0.00000000E+00  0.00000000E+00  0.00000000E+00
