CONTCAR\(4)                             
   1.00000000000000     
    12.9610004424999996    0.0000000000000000    0.0000000000000000
     0.0000000000000000   15.8519001007000000    0.0000000000000000
     0.0000000000000000    0.0000000000000000   18.7994003296000010
   Nb   Ge   Te   O    H 
    16     8    32     2     1
Direct
  0.1786469358344291  0.0173861884087856  0.5000211544018498
  0.3217665936052327  0.2674703906539406  0.5000556619839287
  0.4286758396291859  0.1069301901581952  0.5000291374348507
  0.0718829496971694  0.3569630497692629  0.5000727490656303
  0.6786545660124332  0.0173969988429050  0.5000245344314109
  0.8218129055869099  0.2674361818889253  0.5000998137926587
  0.9287046527604517  0.1069445057273484  0.5000612653818450
  0.5718676116255423  0.3569590486618210  0.5000377244445886
  0.1787953293357205  0.5175771167767564  0.5000088579305455
  0.3217745377939352  0.7674183936685210  0.4999552450168991
  0.4286019179988756  0.6069276386495730  0.5000099477291897
  0.0718175447408029  0.8569188644873691  0.4999756551884929
  0.6787376788283126  0.5174573830899973  0.5000801000926174
  0.8218925125936494  0.7674520945190721  0.5000090826965007
  0.9287068662571443  0.6069595166618882  0.5000134733151924
  0.5717672658226860  0.8569170992982436  0.5000428167054025
  0.1252666642981737  0.1871269151107242  0.5001009104523177
  0.3753059959059684  0.4372610308619613  0.5000042926329940
  0.6252607248445088  0.1871541262028700  0.5000586801700280
  0.8754511898633979  0.4372315149618160  0.5001774809182393
  0.1254151373298740  0.6871445653299446  0.4999489340268752
  0.3750261158651043  0.9371240919759742  0.5001808951600424
  0.6251150104387193  0.6872114425690583  0.5002421783484650
  0.8752474619795123  0.9370974185224696  0.5000472984175701
  0.0193103244156987  0.4943767770426675  0.3987088124343643
  0.4811619880737013  0.2443967781650045  0.6013241815744976
  0.2312538249169265  0.3801452894379622  0.6013879003978175
  0.2692606467522438  0.1300474895462216  0.3987300771323277
  0.4812209323965249  0.2443884681199364  0.3987235779539802
  0.0193740919384879  0.4944784865933087  0.6014246385244419
  0.2692876744072450  0.1300230303402756  0.6013873406121633
  0.2312634420685384  0.3800207258837460  0.3987391455046279
  0.5193724811152833  0.4943629270003314  0.3987022116553405
  0.9812031667561030  0.2443912187638801  0.6013752035187139
  0.7312085598586009  0.3800957300739398  0.6014296734399167
  0.7692810867801043  0.1300834787957328  0.3987402114592626
  0.9812123056596960  0.2444104008449770  0.3987984767247923
  0.5192061888339339  0.4942986578384492  0.6014151140576374
  0.7693028407827924  0.1299701338169825  0.6013820572038782
  0.7313376286159823  0.3800834492998462  0.3987566764161841
  0.0192085893293523  0.9943577183191721  0.3986903733811786
  0.4809891749947468  0.7443117409040596  0.6014101922883484
  0.2311732413153322  0.8799528944515913  0.6014706430979615
  0.2694487390884390  0.6300370700988580  0.3985039678745892
  0.4812528512564143  0.7443798105891375  0.3987322163282059
  0.0192852226582119  0.9942254289247714  0.6013334192149031
  0.2688641339891689  0.6304949214540940  0.6010676545427458
  0.2311854345220397  0.8800839002876586  0.3986465562994468
  0.5191869382283230  0.9942838364937145  0.3987570381754040
  0.9814216330338255  0.7442960726651080  0.6013693100024184
  0.7312315468793216  0.8800159152337272  0.6013724299365819
  0.7692167189338690  0.6300963828493806  0.3987603482156032
  0.9811990723454755  0.7443285422678514  0.3986740545045322
  0.5192176628422089  0.9943128207561074  0.6013595486766405
  0.7694173283705936  0.6301144601421385  0.6013737848083593
  0.7311940121310343  0.8800561950183905  0.3987036845079075
  0.2975337107450287  0.6136214046079758  0.8004803223211852
  0.2294982596989286  0.6506939316497764  0.7536158373726494
  0.2684346346180533  0.5568681349258000  0.8083750931032796
 
  0.00000000E+00  0.00000000E+00  0.00000000E+00
  0.00000000E+00  0.00000000E+00  0.00000000E+00
  0.00000000E+00  0.00000000E+00  0.00000000E+00
  0.00000000E+00  0.00000000E+00  0.00000000E+00
  0.00000000E+00  0.00000000E+00  0.00000000E+00
  0.00000000E+00  0.00000000E+00  0.00000000E+00
  0.00000000E+00  0.00000000E+00  0.00000000E+00
  0.00000000E+00  0.00000000E+00  0.00000000E+00
  0.00000000E+00  0.00000000E+00  0.00000000E+00
  0.00000000E+00  0.00000000E+00  0.00000000E+00
  0.00000000E+00  0.00000000E+00  0.00000000E+00
  0.00000000E+00  0.00000000E+00  0.00000000E+00
  0.00000000E+00  0.00000000E+00  0.00000000E+00
  0.00000000E+00  0.00000000E+00  0.00000000E+00
  0.00000000E+00  0.00000000E+00  0.00000000E+00
  0.00000000E+00  0.00000000E+00  0.00000000E+00
  0.00000000E+00  0.00000000E+00  0.00000000E+00
  0.00000000E+00  0.00000000E+00  0.00000000E+00
  0.00000000E+00  0.00000000E+00  0.00000000E+00
  0.00000000E+00  0.00000000E+00  0.00000000E+00
  0.00000000E+00  0.00000000E+00  0.00000000E+00
  0.00000000E+00  0.00000000E+00  0.00000000E+00
  0.00000000E+00  0.00000000E+00  0.00000000E+00
  0.00000000E+00  0.00000000E+00  0.00000000E+00
  0.00000000E+00  0.00000000E+00  0.00000000E+00
  0.00000000E+00  0.00000000E+00  0.00000000E+00
  0.00000000E+00  0.00000000E+00  0.00000000E+00
  0.00000000E+00  0.00000000E+00  0.00000000E+00
  0.00000000E+00  0.00000000E+00  0.00000000E+00
  0.00000000E+00  0.00000000E+00  0.00000000E+00
  0.00000000E+00  0.00000000E+00  0.00000000E+00
  0.00000000E+00  0.00000000E+00  0.00000000E+00
  0.00000000E+00  0.00000000E+00  0.00000000E+00
  0.00000000E+00  0.00000000E+00  0.00000000E+00
  0.00000000E+00  0.00000000E+00  0.00000000E+00
  0.00000000E+00  0.00000000E+00  0.00000000E+00
  0.00000000E+00  0.00000000E+00  0.00000000E+00
  0.00000000E+00  0.00000000E+00  0.00000000E+00
  0.00000000E+00  0.00000000E+00  0.00000000E+00
  0.00000000E+00  0.00000000E+00  0.00000000E+00
  0.00000000E+00  0.00000000E+00  0.00000000E+00
  0.00000000E+00  0.00000000E+00  0.00000000E+00
  0.00000000E+00  0.00000000E+00  0.00000000E+00
  0.00000000E+00  0.00000000E+00  0.00000000E+00
  0.00000000E+00  0.00000000E+00  0.00000000E+00
  0.00000000E+00  0.00000000E+00  0.00000000E+00
  0.00000000E+00  0.00000000E+00  0.00000000E+00
  0.00000000E+00  0.00000000E+00  0.00000000E+00
  0.00000000E+00  0.00000000E+00  0.00000000E+00
  0.00000000E+00  0.00000000E+00  0.00000000E+00
  0.00000000E+00  0.00000000E+00  0.00000000E+00
  0.00000000E+00  0.00000000E+00  0.00000000E+00
  0.00000000E+00  0.00000000E+00  0.00000000E+00
  0.00000000E+00  0.00000000E+00  0.00000000E+00
  0.00000000E+00  0.00000000E+00  0.00000000E+00
  0.00000000E+00  0.00000000E+00  0.00000000E+00
  0.00000000E+00  0.00000000E+00  0.00000000E+00
  0.00000000E+00  0.00000000E+00  0.00000000E+00
  0.00000000E+00  0.00000000E+00  0.00000000E+00
