CONTCAR\(5)                             
   1.00000000000000     
    13.2014999389999996    0.0000000000000000    0.0000000000000000
     0.0000000000000000   13.2058000564999993    0.0000000000000000
     0.0000000000000000    0.0000000000000000   24.5515995025999985
   La   Te
    18    54
Direct
  0.1666700019999965  0.1666700010000000  0.5878187586514788
 -0.0000000000000000  0.0000000000000000  0.4121812413485212
  0.5000000000000000  0.1666700010000000  0.5878187586514788
  0.3333299980000035  0.0000000000000000  0.4121812413485212
  0.8333299620000005  0.1666700010000000  0.5878187586514788
  0.6666700379999995  0.0000000000000000  0.4121812413485212
  0.1666700019999965  0.5000000000000000  0.5878187586514788
 -0.0000000000000000  0.3333299990000000  0.4121812413485212
  0.5000000000000000  0.5000000000000000  0.5878187586514788
  0.3333299980000035  0.3333299990000000  0.4121812413485212
  0.8333299620000005  0.5000000000000000  0.5878187586514788
  0.6666700379999995  0.3333299990000000  0.4121812413485212
  0.1666700019999965  0.8333299990000000  0.5878187586514788
 -0.0000000000000000  0.6666700370000029  0.4121812413485212
  0.5000000000000000  0.8333299990000000  0.5878187586514788
  0.3333299980000035  0.6666700370000029  0.4121812413485212
  0.8333299620000005  0.8333299990000000  0.5878187586514788
  0.6666700379999995  0.6666700370000029  0.4121812413485212
  0.1666700019999965 -0.0000000000000000  0.3058201110932947
 -0.0000000000000000  0.1666700010000000  0.6941799279067050
  0.1666700019999965 -0.0000000000000000  0.6940470988919494
 -0.0000000000000000  0.1666700010000000  0.3059529601080519
  0.1666700019999965  0.1666700010000000  0.4506000166090287
 -0.0000000000000000 -0.0000000000000000  0.5493999833909714
  0.5000000000000000  0.0000000000000000  0.3058201110932947
  0.3333299980000035  0.1666700010000000  0.6941799279067050
  0.5000000000000000 -0.0000000000000000  0.6940470988919494
  0.3333299980000035  0.1666700010000000  0.3059529601080519
  0.5000000000000000  0.1666700010000000  0.4506000166090287
  0.3333299980000035 -0.0000000000000000  0.5493999833909714
  0.8333299620000005 -0.0000000000000000  0.3058201110932947
  0.6666700379999995  0.1666700010000000  0.6941799279067050
  0.8333299620000005  0.0000000000000000  0.6940470988919494
  0.6666700379999995  0.1666700010000000  0.3059529601080519
  0.8333299620000005  0.1666700010000000  0.4506000166090287
  0.6666700379999995  0.0000000000000000  0.5493999833909714
  0.1666700019999965  0.3333299990000000  0.3058201110932947
 -0.0000000000000000  0.5000000000000000  0.6941799279067050
  0.1666700019999965  0.3333299990000000  0.6940470988919494
 -0.0000000000000000  0.5000000000000000  0.3059529601080519
  0.1666700019999965  0.5000000000000000  0.4506000166090287
 -0.0000000000000000  0.3333299990000000  0.5493999833909714
  0.5000000000000000  0.3333299990000000  0.3058201110932947
  0.3333299980000035  0.5000000000000000  0.6941799279067050
  0.5000000000000000  0.3333299990000000  0.6940470988919494
  0.3333299980000035  0.5000000000000000  0.3059529601080519
  0.5000000000000000  0.5000000000000000  0.4506000166090287
  0.3333299980000035  0.3333299990000000  0.5493999833909714
  0.8333299620000005  0.3333299990000000  0.3058201110932947
  0.6666700379999995  0.5000000000000000  0.6941799279067050
  0.8333299620000005  0.3333299990000000  0.6940470988919494
  0.6666700379999995  0.5000000000000000  0.3059529601080519
  0.8333299620000005  0.5000000000000000  0.4506000166090287
  0.6666700379999995  0.3333299990000000  0.5493999833909714
  0.1666700019999965  0.6666700370000029  0.3058201110932947
 -0.0000000000000000  0.8333299990000000  0.6941799279067050
  0.1666700019999965  0.6666700370000029  0.6940470988919494
 -0.0000000000000000  0.8333299990000000  0.3059529601080519
  0.1666700019999965  0.8333299990000000  0.4506000166090287
 -0.0000000000000000  0.6666700370000029  0.5493999833909714
  0.5000000000000000  0.6666700370000029  0.3058201110932947
  0.3333299980000035  0.8333299990000000  0.6941799279067050
  0.5000000000000000  0.6666700370000029  0.6940470988919494
  0.3333299980000035  0.8333299990000000  0.3059529601080519
  0.5000000000000000  0.8333299990000000  0.4506000166090287
  0.3333299980000035  0.6666700370000029  0.5493999833909714
  0.8333299620000005  0.6666700370000029  0.3058201110932947
  0.6666700379999995  0.8333299990000000  0.6941799279067050
  0.8333299620000005  0.6666700370000029  0.6940470988919494
  0.6666700379999995  0.8333299990000000  0.3059529601080519
  0.8333299620000005  0.8333299990000000  0.4506000166090287
  0.6666700379999995  0.6666700370000029  0.5493999833909714
 
  0.00000000E+00  0.00000000E+00  0.00000000E+00
  0.00000000E+00  0.00000000E+00  0.00000000E+00
  0.00000000E+00  0.00000000E+00  0.00000000E+00
  0.00000000E+00  0.00000000E+00  0.00000000E+00
  0.00000000E+00  0.00000000E+00  0.00000000E+00
  0.00000000E+00  0.00000000E+00  0.00000000E+00
  0.00000000E+00  0.00000000E+00  0.00000000E+00
  0.00000000E+00  0.00000000E+00  0.00000000E+00
  0.00000000E+00  0.00000000E+00  0.00000000E+00
  0.00000000E+00  0.00000000E+00  0.00000000E+00
  0.00000000E+00  0.00000000E+00  0.00000000E+00
  0.00000000E+00  0.00000000E+00  0.00000000E+00
  0.00000000E+00  0.00000000E+00  0.00000000E+00
  0.00000000E+00  0.00000000E+00  0.00000000E+00
  0.00000000E+00  0.00000000E+00  0.00000000E+00
  0.00000000E+00  0.00000000E+00  0.00000000E+00
  0.00000000E+00  0.00000000E+00  0.00000000E+00
  0.00000000E+00  0.00000000E+00  0.00000000E+00
  0.00000000E+00  0.00000000E+00  0.00000000E+00
  0.00000000E+00  0.00000000E+00  0.00000000E+00
  0.00000000E+00  0.00000000E+00  0.00000000E+00
  0.00000000E+00  0.00000000E+00  0.00000000E+00
  0.00000000E+00  0.00000000E+00  0.00000000E+00
  0.00000000E+00  0.00000000E+00  0.00000000E+00
  0.00000000E+00  0.00000000E+00  0.00000000E+00
  0.00000000E+00  0.00000000E+00  0.00000000E+00
  0.00000000E+00  0.00000000E+00  0.00000000E+00
  0.00000000E+00  0.00000000E+00  0.00000000E+00
  0.00000000E+00  0.00000000E+00  0.00000000E+00
  0.00000000E+00  0.00000000E+00  0.00000000E+00
  0.00000000E+00  0.00000000E+00  0.00000000E+00
  0.00000000E+00  0.00000000E+00  0.00000000E+00
  0.00000000E+00  0.00000000E+00  0.00000000E+00
  0.00000000E+00  0.00000000E+00  0.00000000E+00
  0.00000000E+00  0.00000000E+00  0.00000000E+00
  0.00000000E+00  0.00000000E+00  0.00000000E+00
  0.00000000E+00  0.00000000E+00  0.00000000E+00
  0.00000000E+00  0.00000000E+00  0.00000000E+00
  0.00000000E+00  0.00000000E+00  0.00000000E+00
  0.00000000E+00  0.00000000E+00  0.00000000E+00
  0.00000000E+00  0.00000000E+00  0.00000000E+00
  0.00000000E+00  0.00000000E+00  0.00000000E+00
  0.00000000E+00  0.00000000E+00  0.00000000E+00
  0.00000000E+00  0.00000000E+00  0.00000000E+00
  0.00000000E+00  0.00000000E+00  0.00000000E+00
  0.00000000E+00  0.00000000E+00  0.00000000E+00
  0.00000000E+00  0.00000000E+00  0.00000000E+00
  0.00000000E+00  0.00000000E+00  0.00000000E+00
  0.00000000E+00  0.00000000E+00  0.00000000E+00
  0.00000000E+00  0.00000000E+00  0.00000000E+00
  0.00000000E+00  0.00000000E+00  0.00000000E+00
  0.00000000E+00  0.00000000E+00  0.00000000E+00
  0.00000000E+00  0.00000000E+00  0.00000000E+00
  0.00000000E+00  0.00000000E+00  0.00000000E+00
  0.00000000E+00  0.00000000E+00  0.00000000E+00
  0.00000000E+00  0.00000000E+00  0.00000000E+00
  0.00000000E+00  0.00000000E+00  0.00000000E+00
  0.00000000E+00  0.00000000E+00  0.00000000E+00
  0.00000000E+00  0.00000000E+00  0.00000000E+00
  0.00000000E+00  0.00000000E+00  0.00000000E+00
  0.00000000E+00  0.00000000E+00  0.00000000E+00
  0.00000000E+00  0.00000000E+00  0.00000000E+00
  0.00000000E+00  0.00000000E+00  0.00000000E+00
  0.00000000E+00  0.00000000E+00  0.00000000E+00
  0.00000000E+00  0.00000000E+00  0.00000000E+00
  0.00000000E+00  0.00000000E+00  0.00000000E+00
  0.00000000E+00  0.00000000E+00  0.00000000E+00
  0.00000000E+00  0.00000000E+00  0.00000000E+00
  0.00000000E+00  0.00000000E+00  0.00000000E+00
  0.00000000E+00  0.00000000E+00  0.00000000E+00
  0.00000000E+00  0.00000000E+00  0.00000000E+00
  0.00000000E+00  0.00000000E+00  0.00000000E+00
