 Cu2 Br2 O4                             
   1.00000000000000     
     3.6263340996858617    0.0000000000000000    0.0000000000000000
     0.0000000000000000    7.0383055742909244    0.0000000000000000
     0.0000000000000000    0.0000000000000000   17.9612698431680009
   Cu   Br   O 
     2     2     4
Direct
  0.4999915592016535  0.7329903820153021  0.5000003270189524
  0.0000042737065584  0.2670088893160454  0.5000004457638809
  0.7500069992098801  0.5000030274694538  0.5855223370648091
  0.2499979993794241  0.4999981212667777  0.4144749687642957
  0.2137189961960360  0.9086164240058068  0.4431753089532009
  0.2862820010374918  0.0913819492277312  0.4431760356038339
  0.7862790651025193  0.9086184024063044  0.5568250984103997
  0.7137191061664296  0.0913828042925786  0.5568254784206275
 
  0.00000000E+00  0.00000000E+00  0.00000000E+00
  0.00000000E+00  0.00000000E+00  0.00000000E+00
  0.00000000E+00  0.00000000E+00  0.00000000E+00
  0.00000000E+00  0.00000000E+00  0.00000000E+00
  0.00000000E+00  0.00000000E+00  0.00000000E+00
  0.00000000E+00  0.00000000E+00  0.00000000E+00
  0.00000000E+00  0.00000000E+00  0.00000000E+00
  0.00000000E+00  0.00000000E+00  0.00000000E+00
