CONTCAR\(5)                             
   1.00000000000000     
    14.1208000183000006    0.0000000000000000    0.0000000000000000
    -7.0462440071000003   12.2285942740000007    0.0000000000000000
     0.0000000000000000    0.0000000000000000   18.4216003418000014
   V    Te   O    H 
    16    32     1     1
Selective dynamics
Direct
  0.2247312039345957  0.2490940405978677  0.5011867443954188   F   F   F
  0.5087703177371168  0.2474756945580410  0.5021581745179446   F   F   F
  0.7551059638640538  0.2494347880209276  0.5017584464791156   F   F   F
  0.9880390013401410  0.2495223477469253  0.5013569526654109   F   F   F
  0.2220490413308696  0.4786301228969094  0.5018366182863474   F   F   F
  0.4555762979231801  0.4780623687479064  0.5018886852952420   F   F   F
  0.7587699700273518  0.4740228813192076  0.5021178054995374   F   F   F
  0.9891815323429114  0.4824420364703883  0.5017708052911942   F   F   F
  0.2285514769197903  0.7166755266811791  0.5004738085133553   F   F   F
  0.4940949238112680  0.7481808941552401  0.5028181368219933   F   F   F
  0.7589671613029552  0.7809545410071763  0.5026629185243223   F   F   F
  0.9847124170143431  0.7186015032598121  0.5005136931181653   F   F   F
  0.2520875882241143  0.0283267693579887  0.5029989698976394   F   F   F
  0.5160375898607796  0.0115233994561166  0.5018911307923446   F   F   F
  0.7549430916922049  0.0118507388224316  0.5018444582208943   F   F   F
  0.9938519202715099  0.0157007464198529  0.5020069485683862   F   F   F
  0.0730928957870276  0.1651109598958485  0.4001939507199879   F   F   F
  0.1568854752231914  0.0861620856539460  0.6016189859442136   F   F   F
  0.3312087548212190  0.1746386933557247  0.4052328614512959   F   F   F
  0.4135011385619336  0.0811218563296592  0.5978210242175948   F   F   F
  0.5817982856290911  0.1648237919269135  0.4026757729524348   F   F   F
  0.6662047043339214  0.0826593353163929  0.6024767232046599   F   F   F
  0.8278181496249175  0.1649018735815204  0.4005915702802127   F   F   F
  0.9105874183619775  0.0845523881564745  0.6026819763763740   F   F   F
  0.0710528206373127  0.4087816170654222  0.3999842573821795   F   F   F
  0.1517233038812549  0.3263530966497186  0.6032313806653065   F   F   F
  0.3124459523714265  0.4083957693374458  0.3989906376027008   F   F   F
  0.4034868385682273  0.3236900173514741  0.5950544743255719   F   F   F
  0.5789450884944571  0.4157084309401995  0.4127919672480189   F   F   F
  0.6627349280263175  0.3256152722395100  0.6030499449856777   F   F   F
  0.8306192979830627  0.4063756359438884  0.3977741022692314   F   F   F
  0.9095869274082418  0.3262548133646206  0.6034765005569795   F   F   F
  0.0738580158143378  0.6549300148435364  0.4011382510049302   F   F   F
  0.1534906997628482  0.5701114431861782  0.6027280283087748   F   F   F
  0.3244784292143379  0.6574580583694143  0.4055299443978413   F   F   F
  0.4013698169791056  0.5771576866747523  0.5975108014198725   F   F   F
  0.5772142588305940  0.6640829480539026  0.4127712254679992   F   F   F
  0.6569824817059242  0.5773555744158188  0.5589726504967132   F   F   F
  0.8210124587723300  0.6580947845272291  0.4119846472654061   F   F   F
  0.9096018221179563  0.5711358108949440  0.6033205551359160   F   F   F
  0.0763719089602972  0.9100434681030194  0.4185634618526919   F   F   F
  0.1639571222702685  0.8349147972093647  0.5846520555343702   F   F   F
  0.3245734427584708  0.9115915131957735  0.4229259738541060   F   F   F
  0.4041942076862526  0.8322107188698453  0.5917430806953021   F   F   F
  0.5795701900445849  0.9161955739836287  0.4063921668264925   F   F   F
  0.6618029752518595  0.8360057363792350  0.5993963540566938   F   F   F
  0.8331373815670489  0.9246431105750830  0.4003809369954467   F   F   F
  0.9198485977959905  0.8342966930034663  0.5933517823501546   F   F   F
  0.6428863819455941  0.5708323901907448  0.6686912341060278   T   T   T
  0.7158672182114501  0.6175150688973048  0.6882519446576059   T   T   T
 
  0.00000000E+00  0.00000000E+00  0.00000000E+00
  0.00000000E+00  0.00000000E+00  0.00000000E+00
  0.00000000E+00  0.00000000E+00  0.00000000E+00
  0.00000000E+00  0.00000000E+00  0.00000000E+00
  0.00000000E+00  0.00000000E+00  0.00000000E+00
  0.00000000E+00  0.00000000E+00  0.00000000E+00
  0.00000000E+00  0.00000000E+00  0.00000000E+00
  0.00000000E+00  0.00000000E+00  0.00000000E+00
  0.00000000E+00  0.00000000E+00  0.00000000E+00
  0.00000000E+00  0.00000000E+00  0.00000000E+00
  0.00000000E+00  0.00000000E+00  0.00000000E+00
  0.00000000E+00  0.00000000E+00  0.00000000E+00
  0.00000000E+00  0.00000000E+00  0.00000000E+00
  0.00000000E+00  0.00000000E+00  0.00000000E+00
  0.00000000E+00  0.00000000E+00  0.00000000E+00
  0.00000000E+00  0.00000000E+00  0.00000000E+00
  0.00000000E+00  0.00000000E+00  0.00000000E+00
  0.00000000E+00  0.00000000E+00  0.00000000E+00
  0.00000000E+00  0.00000000E+00  0.00000000E+00
  0.00000000E+00  0.00000000E+00  0.00000000E+00
  0.00000000E+00  0.00000000E+00  0.00000000E+00
  0.00000000E+00  0.00000000E+00  0.00000000E+00
  0.00000000E+00  0.00000000E+00  0.00000000E+00
  0.00000000E+00  0.00000000E+00  0.00000000E+00
  0.00000000E+00  0.00000000E+00  0.00000000E+00
  0.00000000E+00  0.00000000E+00  0.00000000E+00
  0.00000000E+00  0.00000000E+00  0.00000000E+00
  0.00000000E+00  0.00000000E+00  0.00000000E+00
  0.00000000E+00  0.00000000E+00  0.00000000E+00
  0.00000000E+00  0.00000000E+00  0.00000000E+00
  0.00000000E+00  0.00000000E+00  0.00000000E+00
  0.00000000E+00  0.00000000E+00  0.00000000E+00
  0.00000000E+00  0.00000000E+00  0.00000000E+00
  0.00000000E+00  0.00000000E+00  0.00000000E+00
  0.00000000E+00  0.00000000E+00  0.00000000E+00
  0.00000000E+00  0.00000000E+00  0.00000000E+00
  0.00000000E+00  0.00000000E+00  0.00000000E+00
  0.00000000E+00  0.00000000E+00  0.00000000E+00
  0.00000000E+00  0.00000000E+00  0.00000000E+00
  0.00000000E+00  0.00000000E+00  0.00000000E+00
  0.00000000E+00  0.00000000E+00  0.00000000E+00
  0.00000000E+00  0.00000000E+00  0.00000000E+00
  0.00000000E+00  0.00000000E+00  0.00000000E+00
  0.00000000E+00  0.00000000E+00  0.00000000E+00
  0.00000000E+00  0.00000000E+00  0.00000000E+00
  0.00000000E+00  0.00000000E+00  0.00000000E+00
  0.00000000E+00  0.00000000E+00  0.00000000E+00
  0.00000000E+00  0.00000000E+00  0.00000000E+00
  0.00000000E+00  0.00000000E+00  0.00000000E+00
  0.00000000E+00  0.00000000E+00  0.00000000E+00
