CONTCAR\(26)                            
   1.00000000000000     
    14.0806999207000008    0.0000000000000000    0.0000000000000000
     0.0000000000000000   14.0806999207000008    0.0000000000000000
     0.0000000000000000    0.0000000000000000   21.7056999206999990
   Zr   Si   Se   O 
    32    32    32     1
Direct
  0.1263199345716297  0.9995129689454709  0.6005069715838750
  0.0014326654273028  0.1250073516465307  0.4009795610408316
  0.3759295145077766  0.9990118306132324  0.6011175970102703
  0.2513387187871563  0.1250086835776330  0.4016825143226491
  0.6261095799368691  0.0002113204898742  0.6002226938872767
  0.5006727654640917  0.1250052311659786  0.4015104483638630
  0.8757050318469876  0.0007690892852345  0.5998536777477337
  0.7508162246654995  0.1250094801194379  0.4007428114400200
  0.1263195132335080  0.2505072431632660  0.6005054225064362
  0.0012988821440039  0.3745032179053981  0.4005915893600664
  0.3759239359562963  0.2510206504524413  0.6011152752439747
  0.2515332846600412  0.3754410983422048  0.4021473399716417
  0.6261143037280691  0.2498189535974481  0.6002191568328797
  0.5006516316617738  0.3751260089914718  0.4016132583978307
  0.8757095464891943  0.2492563012926546  0.5998535148569910
  0.7509503415165243  0.3745332494855021  0.4003931993238147
  0.1190375664923359  0.4975651374825598  0.5999516291266668
  0.0007033308750510  0.6250200192467616  0.4004996182615061
  0.3795933477503679  0.5053859258252058  0.6035418285232366
  0.2510376254073211  0.6250088412177348  0.4024539452098666
  0.6294938924306215  0.4991730659410972  0.5996261488316954
  0.5015388803193135  0.6250105785539191  0.4016622399540112
  0.8757458204517451  0.4985988947282119  0.5992475860862235
  0.7511569982391674  0.6250103625521888  0.4003952927255151
  0.1190264099665136  0.7524496377662692  0.5999520812196432
  0.0013097605441153  0.8755093426339838  0.4005878662807638
  0.3795989855077151  0.7446505296692041  0.6035339737122554
  0.2515417812328873  0.8745829135447095  0.4021496953620702
  0.6295001010854171  0.7508585395190539  0.5996227990685192
  0.5006528547751107  0.8748881893219935  0.4016164982584274
  0.8757449814965287  0.7514136847555113  0.5992463697626697
  0.7509533225941668  0.8754758392347526  0.4003939553317572
  0.0011541197517087  0.0003073466190255  0.5005872970057621
  0.1265096105649061  0.1250092694862559  0.5010260213647864
  0.2514793657264541  0.9997579542436836  0.5012742596051651
  0.3759700131975243  0.1250125722170097  0.5015201911080474
  0.5007130140676528  0.9998508313600916  0.5011861756410220
  0.6255373752367925  0.1250126438465671  0.5006893624451880
  0.7508903724596114  0.0004611718463836  0.5004103127207911
  0.8762395039561282  0.1250127283715656  0.5000878070075134
  0.0011570087881676  0.2497148173797459  0.5005867482726143
  0.1260648318065571  0.3745512169112793  0.5003329962475142
  0.2514735699234059  0.2502664717574065  0.5012710454120579
  0.3760931983810304  0.3761178383800629  0.5018159867864724
  0.5007132261025793  0.2501711363271121  0.5011842489311512
  0.6263865171145662  0.3745273947914982  0.5004065439026441
  0.7508868055413946  0.2495618080494622  0.5004094254937810
  0.8757652980979440  0.3739908887021781  0.4999574938289774
  0.9998283866696799  0.4995716260323878  0.4996415238570066
  0.1246876392771038  0.6250125648297384  0.5017056698631467
  0.2508637665148023  0.5011081670320198  0.5032090369993130
  0.3771914304868230  0.6250146162156440  0.5012835528491331
  0.5019208697874725  0.5000279260096930  0.5014173685846830
  0.6271052349777098  0.6250152625622576  0.5003503398651743
  0.7516266107954725  0.4995796939435387  0.4996162504867090
  0.8761133203799796  0.6250106353347817  0.5000748747216387
  0.9998366148084546  0.7504507091408181  0.4996437089084211
  0.1260632685500107  0.8754740274673828  0.5003318764732604
  0.2508609767316707  0.7489218448033154  0.5032119955244356
  0.3760966552389415  0.8739064474873698  0.5018207216788013
  0.5019190329595099  0.7499971564958160  0.5014226354271616
  0.6263924267807235  0.8755026643539109  0.5004019327281689
  0.7516367598373923  0.7504385759929938  0.4996172874682532
  0.8757636033685312  0.8760277275764737  0.4999570312585013
  0.0012906465116266  0.1250084730941836  0.6540206155054683
  0.1269799652745041  0.9999045924294508  0.3472575682782940
  0.2510957611453662  0.1250097193881814  0.6545520958041691
  0.3758910318335826  0.9997270687875147  0.3475908381192811
  0.5008103012262303  0.1250160445220203  0.6545478341222777
  0.6252545810798061  0.0001219545651229  0.3471749680073707
  0.7508315284880647  0.1250104078748961  0.6545805292388167
  0.8762592124045108  0.0003493975366354  0.3467298693180278
  0.9990020583066528  0.3732993325437085  0.6550222554650531
  0.1269819337613532  0.2501098533471560  0.3472592362540532
  0.2509064607432572  0.3787265416471960  0.6539409476000410
  0.3758893349801089  0.2502865922952961  0.3475930822026287
  0.5018509716216059  0.3758526783115174  0.6543392811635462
  0.6252512269095668  0.2498899564386018  0.3471733579595246
  0.7516016726788144  0.3739660645238112  0.6546503280738408
  0.8762574076503904  0.2496556963058893  0.3467286100887487
  0.9955667801117805  0.6250026117089078  0.6570064852029600
  0.1267039572746312  0.5001708024822769  0.3478626131431179
  0.1923025500996760  0.6250078465065059  0.6773564202810142
  0.3759480936806854  0.5004627359207966  0.3479979007971721
  0.5143275148248955  0.6250342192685423  0.6548872558927062
  0.6256768628458490  0.4997964408217333  0.3470303691666904
  0.7539121478823438  0.6250092799453313  0.6534811502344589
  0.8762574177155409  0.4996828121071902  0.3466493911742158
  0.9990031063693170  0.8767126624597744  0.6550206851442126
  0.1267522424950612  0.7498554636847423  0.3478522328168305
  0.2509081024693865  0.8712794773048751  0.6539292513157585
  0.3759535111947601  0.7495483777914437  0.3480000812730182
  0.5018455244943553  0.8741608933731511  0.6543314439257435
  0.6256790962005413  0.7502195433516188  0.3470096731789473
  0.7516023369942082  0.8760513390613218  0.6546542060757107
  0.8762639671438757  0.7503324742163270  0.3466436324157324
  0.3216907139419092  0.6250087177498642  0.6541171286883493
 
  0.00000000E+00  0.00000000E+00  0.00000000E+00
  0.00000000E+00  0.00000000E+00  0.00000000E+00
  0.00000000E+00  0.00000000E+00  0.00000000E+00
  0.00000000E+00  0.00000000E+00  0.00000000E+00
  0.00000000E+00  0.00000000E+00  0.00000000E+00
  0.00000000E+00  0.00000000E+00  0.00000000E+00
  0.00000000E+00  0.00000000E+00  0.00000000E+00
  0.00000000E+00  0.00000000E+00  0.00000000E+00
  0.00000000E+00  0.00000000E+00  0.00000000E+00
  0.00000000E+00  0.00000000E+00  0.00000000E+00
  0.00000000E+00  0.00000000E+00  0.00000000E+00
  0.00000000E+00  0.00000000E+00  0.00000000E+00
  0.00000000E+00  0.00000000E+00  0.00000000E+00
  0.00000000E+00  0.00000000E+00  0.00000000E+00
  0.00000000E+00  0.00000000E+00  0.00000000E+00
  0.00000000E+00  0.00000000E+00  0.00000000E+00
  0.00000000E+00  0.00000000E+00  0.00000000E+00
  0.00000000E+00  0.00000000E+00  0.00000000E+00
  0.00000000E+00  0.00000000E+00  0.00000000E+00
  0.00000000E+00  0.00000000E+00  0.00000000E+00
  0.00000000E+00  0.00000000E+00  0.00000000E+00
  0.00000000E+00  0.00000000E+00  0.00000000E+00
  0.00000000E+00  0.00000000E+00  0.00000000E+00
  0.00000000E+00  0.00000000E+00  0.00000000E+00
  0.00000000E+00  0.00000000E+00  0.00000000E+00
  0.00000000E+00  0.00000000E+00  0.00000000E+00
  0.00000000E+00  0.00000000E+00  0.00000000E+00
  0.00000000E+00  0.00000000E+00  0.00000000E+00
  0.00000000E+00  0.00000000E+00  0.00000000E+00
  0.00000000E+00  0.00000000E+00  0.00000000E+00
  0.00000000E+00  0.00000000E+00  0.00000000E+00
  0.00000000E+00  0.00000000E+00  0.00000000E+00
  0.00000000E+00  0.00000000E+00  0.00000000E+00
  0.00000000E+00  0.00000000E+00  0.00000000E+00
  0.00000000E+00  0.00000000E+00  0.00000000E+00
  0.00000000E+00  0.00000000E+00  0.00000000E+00
  0.00000000E+00  0.00000000E+00  0.00000000E+00
  0.00000000E+00  0.00000000E+00  0.00000000E+00
  0.00000000E+00  0.00000000E+00  0.00000000E+00
  0.00000000E+00  0.00000000E+00  0.00000000E+00
  0.00000000E+00  0.00000000E+00  0.00000000E+00
  0.00000000E+00  0.00000000E+00  0.00000000E+00
  0.00000000E+00  0.00000000E+00  0.00000000E+00
  0.00000000E+00  0.00000000E+00  0.00000000E+00
  0.00000000E+00  0.00000000E+00  0.00000000E+00
  0.00000000E+00  0.00000000E+00  0.00000000E+00
  0.00000000E+00  0.00000000E+00  0.00000000E+00
  0.00000000E+00  0.00000000E+00  0.00000000E+00
  0.00000000E+00  0.00000000E+00  0.00000000E+00
  0.00000000E+00  0.00000000E+00  0.00000000E+00
  0.00000000E+00  0.00000000E+00  0.00000000E+00
  0.00000000E+00  0.00000000E+00  0.00000000E+00
  0.00000000E+00  0.00000000E+00  0.00000000E+00
  0.00000000E+00  0.00000000E+00  0.00000000E+00
  0.00000000E+00  0.00000000E+00  0.00000000E+00
  0.00000000E+00  0.00000000E+00  0.00000000E+00
  0.00000000E+00  0.00000000E+00  0.00000000E+00
  0.00000000E+00  0.00000000E+00  0.00000000E+00
  0.00000000E+00  0.00000000E+00  0.00000000E+00
  0.00000000E+00  0.00000000E+00  0.00000000E+00
  0.00000000E+00  0.00000000E+00  0.00000000E+00
  0.00000000E+00  0.00000000E+00  0.00000000E+00
  0.00000000E+00  0.00000000E+00  0.00000000E+00
  0.00000000E+00  0.00000000E+00  0.00000000E+00
  0.00000000E+00  0.00000000E+00  0.00000000E+00
  0.00000000E+00  0.00000000E+00  0.00000000E+00
  0.00000000E+00  0.00000000E+00  0.00000000E+00
  0.00000000E+00  0.00000000E+00  0.00000000E+00
  0.00000000E+00  0.00000000E+00  0.00000000E+00
  0.00000000E+00  0.00000000E+00  0.00000000E+00
  0.00000000E+00  0.00000000E+00  0.00000000E+00
  0.00000000E+00  0.00000000E+00  0.00000000E+00
  0.00000000E+00  0.00000000E+00  0.00000000E+00
  0.00000000E+00  0.00000000E+00  0.00000000E+00
  0.00000000E+00  0.00000000E+00  0.00000000E+00
  0.00000000E+00  0.00000000E+00  0.00000000E+00
  0.00000000E+00  0.00000000E+00  0.00000000E+00
  0.00000000E+00  0.00000000E+00  0.00000000E+00
  0.00000000E+00  0.00000000E+00  0.00000000E+00
  0.00000000E+00  0.00000000E+00  0.00000000E+00
  0.00000000E+00  0.00000000E+00  0.00000000E+00
  0.00000000E+00  0.00000000E+00  0.00000000E+00
  0.00000000E+00  0.00000000E+00  0.00000000E+00
  0.00000000E+00  0.00000000E+00  0.00000000E+00
  0.00000000E+00  0.00000000E+00  0.00000000E+00
  0.00000000E+00  0.00000000E+00  0.00000000E+00
  0.00000000E+00  0.00000000E+00  0.00000000E+00
  0.00000000E+00  0.00000000E+00  0.00000000E+00
  0.00000000E+00  0.00000000E+00  0.00000000E+00
  0.00000000E+00  0.00000000E+00  0.00000000E+00
  0.00000000E+00  0.00000000E+00  0.00000000E+00
  0.00000000E+00  0.00000000E+00  0.00000000E+00
  0.00000000E+00  0.00000000E+00  0.00000000E+00
  0.00000000E+00  0.00000000E+00  0.00000000E+00
  0.00000000E+00  0.00000000E+00  0.00000000E+00
  0.00000000E+00  0.00000000E+00  0.00000000E+00
  0.00000000E+00  0.00000000E+00  0.00000000E+00
