CONTCAR                                 
   1.00000000000000     
     9.7571001052999993    0.0000000000000000    0.0000000000000000
    -3.0063686365000000   15.8319856181999992    0.0000000000000000
     0.0000000000000000    0.0000000000000000   18.2793006897000012
   V    P    S    O    H 
     4     8    26     1     1
Direct
  0.6049866506482360  0.5846994405252985  0.4919309787724018
  0.6214042632168884  0.1064387413987902  0.5014574295769592
  0.4116572259442748  0.4115732545020592  0.4917787662499222
  0.3832560525204585  0.8953528350334992  0.4970809337419695
  0.8366231345762145  0.2641264623486919  0.4932727301161890
  0.7376612650399963  0.4216389759666015  0.5935365975899813
  0.1668704705621380  0.7403030668161890  0.5075358142819155
  0.1891469202860421  0.2487833228801364  0.4896601604620656
  0.3086304560538835  0.0687752163817237  0.5334955239607382
  0.6949967361964084  0.9322075159561010  0.4618725901610077
  0.2994099557570706  0.5685392330927215  0.4638491681258898
  0.8199865581835937  0.7519951645258729  0.5036940726214354
  0.1238664844670794  0.1182024084597657  0.5176629516913849
  0.8799071899672199  0.8822431354820282  0.4718986685141644
  0.9938980203391168  0.7495793158925323  0.5757404005623101
  0.3996415437788627  0.0401043825201839  0.4368597905818774
  0.5438213954604478  0.3525335879497007  0.5879237791578902
  0.2381684265320487  0.4564992771382066  0.4139236865088165
  0.2202456017803556  0.3270751913115646  0.5746997146489932
  0.6541220679118140  0.7231935906051206  0.5686596823359480
  0.4523718198652347  0.6498574047202084  0.4144035711349900
  0.6049777570354209  0.4656411202377981  0.4276907837430386
  0.6704008590534087  0.2296124234911829  0.4262872172425531
  0.8872946882393720  0.3959734795523175  0.5158453434333907
  0.0095438814566435  0.2579771344013011  0.4226768831132048
  0.6075734320588069  0.9601135394067128  0.5600283820378849
  0.8007919067473637  0.6704920963448373  0.4198739979176409
  0.3948668259679806  0.5373814747027694  0.5610545663746578
  0.1938567957858197  0.8171610309150239  0.4205999225521140
  0.7544806900714960  0.5479599854872177  0.5925683846717931
  0.5368907732044690  0.8554854913637442  0.4091106273428693
  0.2356871949189383  0.9573511575719067  0.5822348526541035
  0.3348205622352722  0.7708513640580179  0.5733247998285620
  0.8104081451982879  0.1848515725568447  0.5785979825511660
  0.7672050083237565  0.0446240024801199  0.4146151502230708
  0.4646595316021518  0.1456530471297413  0.5876347805173623
  0.1083892923134897  0.6090037031686464  0.4809173545607948
  0.3526239875427422  0.2752730557157221  0.4216117380261011
  0.8091410615911698  0.3942261709147274  0.6673963658887487
  0.7464152675660358  0.3923167099943825  0.7093939965240921
 
  0.00000000E+00  0.00000000E+00  0.00000000E+00
  0.00000000E+00  0.00000000E+00  0.00000000E+00
  0.00000000E+00  0.00000000E+00  0.00000000E+00
  0.00000000E+00  0.00000000E+00  0.00000000E+00
  0.00000000E+00  0.00000000E+00  0.00000000E+00
  0.00000000E+00  0.00000000E+00  0.00000000E+00
  0.00000000E+00  0.00000000E+00  0.00000000E+00
  0.00000000E+00  0.00000000E+00  0.00000000E+00
  0.00000000E+00  0.00000000E+00  0.00000000E+00
  0.00000000E+00  0.00000000E+00  0.00000000E+00
  0.00000000E+00  0.00000000E+00  0.00000000E+00
  0.00000000E+00  0.00000000E+00  0.00000000E+00
  0.00000000E+00  0.00000000E+00  0.00000000E+00
  0.00000000E+00  0.00000000E+00  0.00000000E+00
  0.00000000E+00  0.00000000E+00  0.00000000E+00
  0.00000000E+00  0.00000000E+00  0.00000000E+00
  0.00000000E+00  0.00000000E+00  0.00000000E+00
  0.00000000E+00  0.00000000E+00  0.00000000E+00
  0.00000000E+00  0.00000000E+00  0.00000000E+00
  0.00000000E+00  0.00000000E+00  0.00000000E+00
  0.00000000E+00  0.00000000E+00  0.00000000E+00
  0.00000000E+00  0.00000000E+00  0.00000000E+00
  0.00000000E+00  0.00000000E+00  0.00000000E+00
  0.00000000E+00  0.00000000E+00  0.00000000E+00
  0.00000000E+00  0.00000000E+00  0.00000000E+00
  0.00000000E+00  0.00000000E+00  0.00000000E+00
  0.00000000E+00  0.00000000E+00  0.00000000E+00
  0.00000000E+00  0.00000000E+00  0.00000000E+00
  0.00000000E+00  0.00000000E+00  0.00000000E+00
  0.00000000E+00  0.00000000E+00  0.00000000E+00
  0.00000000E+00  0.00000000E+00  0.00000000E+00
  0.00000000E+00  0.00000000E+00  0.00000000E+00
  0.00000000E+00  0.00000000E+00  0.00000000E+00
  0.00000000E+00  0.00000000E+00  0.00000000E+00
  0.00000000E+00  0.00000000E+00  0.00000000E+00
  0.00000000E+00  0.00000000E+00  0.00000000E+00
  0.00000000E+00  0.00000000E+00  0.00000000E+00
  0.00000000E+00  0.00000000E+00  0.00000000E+00
  0.00000000E+00  0.00000000E+00  0.00000000E+00
  0.00000000E+00  0.00000000E+00  0.00000000E+00
