CONTCAR                                 
   1.00000000000000     
    10.8359003066999993    0.0000000000000000    0.0000000000000000
    -5.4179501533999996    9.3841649384999997    0.0000000000000000
     0.0000000000000000    0.0000000000000000   23.8684997559000003
   Ga   Ni   S    O    H 
    18     9    36     2     1
Direct
  0.1126120875362755  0.2265501487690194  0.6403533800879577
  0.2231007391355632  0.1127340535952641  0.3582896743221003
  0.4467649722221613  0.2263875629317749  0.6403442331675064
  0.5565068173938305  0.1127067786126676  0.3583625673932778
  0.7794904124602773  0.2259978785871566  0.6408228903663340
  0.8897301826427981  0.1127266218075833  0.3583376885587269
  0.1126348233193875  0.5592110550113416  0.6410393892057118
  0.2231264518636674  0.4461722827995913  0.3585164685102657
  0.4466102017655136  0.5605401038715636  0.6420112114602415
  0.5563909147731694  0.4461288202054311  0.3585093903322966
  0.7795319290061972  0.5592910373183375  0.6410613318133221
  0.8896719642457489  0.4460288926964293  0.3585542344683693
  0.1126197919318417  0.8920976850533487  0.6408142386011736
  0.2230907016317850  0.7793906177876202  0.3584920493658228
  0.4466585427955491  0.8926819104184297  0.6404982091817283
  0.5563862392459741  0.7792670150194522  0.3584868785049504
  0.7791137736165397  0.8926937106576175  0.6404713917126766
  0.8897771572325937  0.7794016853344001  0.3584907196421134
  0.0006189888614100  0.0009277860662799  0.4995360654185373
  0.3337633757896297  0.0009223979756050  0.4995473258627098
  0.6671401241936463  0.0007733793402615  0.4995870502879382
  0.0003432654117095  0.3340149024023061  0.4996920195719598
  0.3339432230925592  0.3345026134190131  0.4996625360633932
  0.6670481299187957  0.3340558499102430  0.4996980952597366
  0.0002267773946232  0.6671491565321011  0.4998806738695625
  0.3336293124191691  0.6671883615244953  0.4999045980791583
  0.6669030319046584  0.6673130938098960  0.4998705715410992
  0.2227614138513425  0.1120555046999650  0.4513057047070125
  0.1117452378326145  0.2233037200704798  0.5473319157819265
  0.2242041034916448  0.1155178630477849  0.6847237714851003
  0.1120179171783301  0.2239573546574629  0.3139414402637168
  0.5561933289782109  0.1120082572128896  0.4513488630819792
  0.4448640833213758  0.2233279849645212  0.5473367228377420
  0.5569370682753165  0.1149318256743968  0.6848919384712617
  0.4454089520881567  0.2238904010314101  0.3139435419226680
  0.8892989912839881  0.1120195230486894  0.4513207819109712
  0.7783270875736031  0.2234018666467499  0.5477530348436401
  0.8909161810693438  0.1149032931840604  0.6848898639924641
  0.7786665157323311  0.2239030202477162  0.3138904554977891
  0.2228929500668679  0.4455954604985645  0.4515607997788600
  0.1116413915935879  0.5567081801541849  0.5479364076254740
  0.2230310950473227  0.4471985631929275  0.6852026174299163
  0.1118471507110448  0.5570307993417216  0.3140202177772398
  0.5561346821175933  0.4456099473247482  0.4515556542407075
  0.4451303764662073  0.5569132725729564  0.5484950305930613
  0.5568247993181442  0.4470779203564565  0.6852166053869431
  0.4452392612090235  0.5570713654079630  0.3139501434526476
  0.8892657109014741  0.4451975292599002  0.4515629139891034
  0.7781743265879323  0.5566614074901163  0.5479605894494574
  0.8903612491437527  0.4478908342677075  0.6853958379879425
  0.7785558569940262  0.5570292523828807  0.3140122018350420
  0.2224676774693710  0.7783817815550917  0.4514915118302666
  0.1118265374366924  0.8904062494386298  0.5476995398583251
  0.2243176239883043  0.7816786157319443  0.6851073806477910
  0.1119166894392811  0.8903700822627442  0.3139406745814410
  0.5557972222310593  0.7782936023657150  0.4515187163305645
  0.4448488626938067  0.8903645157325973  0.5474494229523020
  0.5584346119666531  0.7836865874891183  0.6849431465768919
  0.4452491267126901  0.8902825405630381  0.3139464347603491
  0.8893639978969322  0.7784471935638428  0.4514766022519548
  0.7789865869069281  0.8904512175828798  0.5474246587554501
  0.8904731414393313  0.7817277098345905  0.6851131567789037
  0.7785035731797906  0.8902788481741657  0.3139313729929019
  0.4566806851897401  0.5850984617123819  0.7883891915820034
  0.3958394117154573  0.4589392679042510  0.8168085689473806
  0.3665205220956981  0.3851928108956010  0.7872373011621987
 
  0.00000000E+00  0.00000000E+00  0.00000000E+00
  0.00000000E+00  0.00000000E+00  0.00000000E+00
  0.00000000E+00  0.00000000E+00  0.00000000E+00
  0.00000000E+00  0.00000000E+00  0.00000000E+00
  0.00000000E+00  0.00000000E+00  0.00000000E+00
  0.00000000E+00  0.00000000E+00  0.00000000E+00
  0.00000000E+00  0.00000000E+00  0.00000000E+00
  0.00000000E+00  0.00000000E+00  0.00000000E+00
  0.00000000E+00  0.00000000E+00  0.00000000E+00
  0.00000000E+00  0.00000000E+00  0.00000000E+00
  0.00000000E+00  0.00000000E+00  0.00000000E+00
  0.00000000E+00  0.00000000E+00  0.00000000E+00
  0.00000000E+00  0.00000000E+00  0.00000000E+00
  0.00000000E+00  0.00000000E+00  0.00000000E+00
  0.00000000E+00  0.00000000E+00  0.00000000E+00
  0.00000000E+00  0.00000000E+00  0.00000000E+00
  0.00000000E+00  0.00000000E+00  0.00000000E+00
  0.00000000E+00  0.00000000E+00  0.00000000E+00
  0.00000000E+00  0.00000000E+00  0.00000000E+00
  0.00000000E+00  0.00000000E+00  0.00000000E+00
  0.00000000E+00  0.00000000E+00  0.00000000E+00
  0.00000000E+00  0.00000000E+00  0.00000000E+00
  0.00000000E+00  0.00000000E+00  0.00000000E+00
  0.00000000E+00  0.00000000E+00  0.00000000E+00
  0.00000000E+00  0.00000000E+00  0.00000000E+00
  0.00000000E+00  0.00000000E+00  0.00000000E+00
  0.00000000E+00  0.00000000E+00  0.00000000E+00
  0.00000000E+00  0.00000000E+00  0.00000000E+00
  0.00000000E+00  0.00000000E+00  0.00000000E+00
  0.00000000E+00  0.00000000E+00  0.00000000E+00
  0.00000000E+00  0.00000000E+00  0.00000000E+00
  0.00000000E+00  0.00000000E+00  0.00000000E+00
  0.00000000E+00  0.00000000E+00  0.00000000E+00
  0.00000000E+00  0.00000000E+00  0.00000000E+00
  0.00000000E+00  0.00000000E+00  0.00000000E+00
  0.00000000E+00  0.00000000E+00  0.00000000E+00
  0.00000000E+00  0.00000000E+00  0.00000000E+00
  0.00000000E+00  0.00000000E+00  0.00000000E+00
  0.00000000E+00  0.00000000E+00  0.00000000E+00
  0.00000000E+00  0.00000000E+00  0.00000000E+00
  0.00000000E+00  0.00000000E+00  0.00000000E+00
  0.00000000E+00  0.00000000E+00  0.00000000E+00
  0.00000000E+00  0.00000000E+00  0.00000000E+00
  0.00000000E+00  0.00000000E+00  0.00000000E+00
  0.00000000E+00  0.00000000E+00  0.00000000E+00
  0.00000000E+00  0.00000000E+00  0.00000000E+00
  0.00000000E+00  0.00000000E+00  0.00000000E+00
  0.00000000E+00  0.00000000E+00  0.00000000E+00
  0.00000000E+00  0.00000000E+00  0.00000000E+00
  0.00000000E+00  0.00000000E+00  0.00000000E+00
  0.00000000E+00  0.00000000E+00  0.00000000E+00
  0.00000000E+00  0.00000000E+00  0.00000000E+00
  0.00000000E+00  0.00000000E+00  0.00000000E+00
  0.00000000E+00  0.00000000E+00  0.00000000E+00
  0.00000000E+00  0.00000000E+00  0.00000000E+00
  0.00000000E+00  0.00000000E+00  0.00000000E+00
  0.00000000E+00  0.00000000E+00  0.00000000E+00
  0.00000000E+00  0.00000000E+00  0.00000000E+00
  0.00000000E+00  0.00000000E+00  0.00000000E+00
  0.00000000E+00  0.00000000E+00  0.00000000E+00
  0.00000000E+00  0.00000000E+00  0.00000000E+00
  0.00000000E+00  0.00000000E+00  0.00000000E+00
  0.00000000E+00  0.00000000E+00  0.00000000E+00
  0.00000000E+00  0.00000000E+00  0.00000000E+00
  0.00000000E+00  0.00000000E+00  0.00000000E+00
  0.00000000E+00  0.00000000E+00  0.00000000E+00
