CONTCAR\(5)                             
   1.00000000000000     
    13.8191995620999997    0.0000000000000000    0.0000000000000000
     0.0000000000000000   12.6052999496000009    0.0000000000000000
     0.0000000000000000    0.0000000000000000   19.1947002411000014
   Te   W    O 
    32    16     1
Selective dynamics
Direct
  0.1245211228189760  0.3921895559741415  0.4231981953452575   F   F   F
  0.0000000000000000  0.1471833194275973  0.3920960227594961   F   F   F
  0.1248677312542554  0.0680270465928245  0.6108921956859490   F   F   F
  0.0000000000000000  0.3234338913027059  0.5790766133609253   F   F   F
  0.3746840870580215  0.3927122004684094  0.4235615476334615   F   F   F
  0.2499004167582228  0.1478981115287255  0.3921976222937644   F   F   F
  0.3745185845428409  0.0692291840319115  0.6112069687616497   F   F   F
  0.2495475788572747  0.3235766664037101  0.5794880510005740   F   F   F
  0.6253159479419779  0.3927122004684094  0.4235615476334615   F   F   F
  0.5000000000000000  0.1491759019497962  0.3926053394952973   F   F   F
  0.6254814504571584  0.0692291840319115  0.6112069687616497   F   F   F
  0.5000000000000000  0.3241323833423948  0.5791393873871087   F   F   F
  0.8754788861810212  0.3921895559741415  0.4231981953452575   F   F   F
  0.7500996002417750  0.1478981115287255  0.3921976222937644   F   F   F
  0.8751322777457418  0.0680270465928245  0.6108921956859490   F   F   F
  0.7504524381427231  0.3235766664037101  0.5794880510005740   F   F   F
  0.1248497306992320  0.8933013301214459  0.4231408558531768   F   F   F
  0.0000000000000000  0.6476251853418020  0.3913546045219647   F   F   F
  0.1248062516519823  0.5685985862465870  0.6101331932698955   F   F   F
  0.0000000000000000  0.8227115415279869  0.5784800993050823   F   F   F
  0.3747015908451061  0.8938902457780955  0.4233568600238513   F   F   F
  0.2479983517114164  0.6458657583786405  0.3899607932817517   F   F   F
  0.3745805473782085  0.5707646555163635  0.6098404813125242   F   F   F
  0.2502809228774794  0.8222055300521447  0.5786075627104026   F   F   F
  0.6252984441548932  0.8938902457780955  0.4233568600238513   F   F   F
  0.5000000000000000  0.6452670769059168  0.3909319309048911   F   F   F
  0.6254194876217909  0.5707646555163635  0.6098404813125242   F   F   F
  0.5000000000000000  0.8232147361348225  0.5686937457348549   F   F   F
  0.8751502783007652  0.8933013301214459  0.4231408558531768   F   F   F
  0.7520016652885815  0.6458657583786405  0.3899607932817517   F   F   F
  0.8751937573480149  0.5685985862465870  0.6101331932698955   F   F   F
  0.7497190941225185  0.8222055300521447  0.5786075627104026   F   F   F
  0.0000000000000000  0.0184664584250882  0.5063260225375004   F   F   F
  0.1248797494478140  0.1971705091868827  0.4964811896152526   F   F   F
  0.2498440070967689  0.0187620881110391  0.5064451059394131   F   F   F
  0.3740962456111063  0.1979874566266560  0.4967453644932931   F   F   F
  0.5000000000000000  0.0216374494616147  0.5070725256833342   F   F   F
  0.6259037893888930  0.1979874566266560  0.4967453644932931   F   F   F
  0.7501560099032289  0.0187620881110391  0.5064451059394131   F   F   F
  0.8751202595521832  0.1971705091868827  0.4964811896152526   F   F   F
  0.0000000000000000  0.5188026466189584  0.5057681790029491   F   F   F
  0.1252411860604212  0.6973480830894943  0.4955052828620907   F   F   F
  0.2491742056509594  0.5181885131665993  0.5056715928729147   F   F   F
  0.3718784286289534  0.6954264665086427  0.4939328728076617   F   F   F
  0.5000000000000000  0.5190078257927340  0.5060678785891284   F   F   F
  0.6281216063710460  0.6954264665086427  0.4939328728076617   F   F   F
  0.7508258113490385  0.5181885131665993  0.5056715928729147   F   F   F
  0.8747588229395760  0.6973480830894943  0.4955052828620907   F   F   F
  0.4999000030000004  0.7978275802039789  0.6632748444844703   T   T   T
 
  0.00000000E+00  0.00000000E+00  0.00000000E+00
  0.00000000E+00  0.00000000E+00  0.00000000E+00
  0.00000000E+00  0.00000000E+00  0.00000000E+00
  0.00000000E+00  0.00000000E+00  0.00000000E+00
  0.00000000E+00  0.00000000E+00  0.00000000E+00
  0.00000000E+00  0.00000000E+00  0.00000000E+00
  0.00000000E+00  0.00000000E+00  0.00000000E+00
  0.00000000E+00  0.00000000E+00  0.00000000E+00
  0.00000000E+00  0.00000000E+00  0.00000000E+00
  0.00000000E+00  0.00000000E+00  0.00000000E+00
  0.00000000E+00  0.00000000E+00  0.00000000E+00
  0.00000000E+00  0.00000000E+00  0.00000000E+00
  0.00000000E+00  0.00000000E+00  0.00000000E+00
  0.00000000E+00  0.00000000E+00  0.00000000E+00
  0.00000000E+00  0.00000000E+00  0.00000000E+00
  0.00000000E+00  0.00000000E+00  0.00000000E+00
  0.00000000E+00  0.00000000E+00  0.00000000E+00
  0.00000000E+00  0.00000000E+00  0.00000000E+00
  0.00000000E+00  0.00000000E+00  0.00000000E+00
  0.00000000E+00  0.00000000E+00  0.00000000E+00
  0.00000000E+00  0.00000000E+00  0.00000000E+00
  0.00000000E+00  0.00000000E+00  0.00000000E+00
  0.00000000E+00  0.00000000E+00  0.00000000E+00
  0.00000000E+00  0.00000000E+00  0.00000000E+00
  0.00000000E+00  0.00000000E+00  0.00000000E+00
  0.00000000E+00  0.00000000E+00  0.00000000E+00
  0.00000000E+00  0.00000000E+00  0.00000000E+00
  0.00000000E+00  0.00000000E+00  0.00000000E+00
  0.00000000E+00  0.00000000E+00  0.00000000E+00
  0.00000000E+00  0.00000000E+00  0.00000000E+00
  0.00000000E+00  0.00000000E+00  0.00000000E+00
  0.00000000E+00  0.00000000E+00  0.00000000E+00
  0.00000000E+00  0.00000000E+00  0.00000000E+00
  0.00000000E+00  0.00000000E+00  0.00000000E+00
  0.00000000E+00  0.00000000E+00  0.00000000E+00
  0.00000000E+00  0.00000000E+00  0.00000000E+00
  0.00000000E+00  0.00000000E+00  0.00000000E+00
  0.00000000E+00  0.00000000E+00  0.00000000E+00
  0.00000000E+00  0.00000000E+00  0.00000000E+00
  0.00000000E+00  0.00000000E+00  0.00000000E+00
  0.00000000E+00  0.00000000E+00  0.00000000E+00
  0.00000000E+00  0.00000000E+00  0.00000000E+00
  0.00000000E+00  0.00000000E+00  0.00000000E+00
  0.00000000E+00  0.00000000E+00  0.00000000E+00
  0.00000000E+00  0.00000000E+00  0.00000000E+00
  0.00000000E+00  0.00000000E+00  0.00000000E+00
  0.00000000E+00  0.00000000E+00  0.00000000E+00
  0.00000000E+00  0.00000000E+00  0.00000000E+00
  0.00000000E+00  0.00000000E+00  0.00000000E+00
