CONTCAR\(5)                             
   1.00000000000000     
    10.6030998230000009    0.0000000000000000    0.0000000000000000
     0.0000000000000000   13.3226995467999991    0.0000000000000000
     0.0000000000000000    0.0000000000000000   20.2077999115000004
   Sc   Cl   O 
    15    24     1
Direct
  0.0047273000251961  0.9940207255755872  0.5056609931799972
  0.1896774754483204  0.3068310832009619  0.4840479404966523
  0.1706186748324260  0.6641791564286627  0.5236283793955007
  0.0032786092564322  0.4735796769508508  0.5778103642474203
  0.0023881676999763  0.5108076822192511  0.4329032561110375
  0.3333095685747606  0.0784940706678039  0.4953829075413853
  0.4767481062735232  0.3065550170867451  0.4837878905335865
  0.4962782216385583  0.6642575704759347  0.5237362121653649
  0.3335351139307084  0.4744650545382068  0.5778640017141176
  0.3334972578087097  0.5108870293138875  0.4324492496564605
  0.6616546689907964  0.9940786185549479  0.5056392489128896
  0.8334121555774908  0.3246274903670616  0.4877753646356027
  0.8334177266732850  0.6611531796461757  0.5238656117282785
  0.6635389539072148  0.4734471500065185  0.5778511960320835
  0.6643644702691154  0.5108230369449356  0.4330109825987020
  0.1645123698858480  0.3413481150237830  0.6114296721386034
  0.1669191568152786  0.6506068294225960  0.3999261144733403
  0.1735193855441666  0.9724101775103396  0.4249597860277094
  0.1701846276364382  0.0371468349177977  0.5860913180239818
  0.1674828604878576  0.5900892171354928  0.6381615553713835
  0.1639927087811298  0.4021942938912688  0.3724913185560760
  0.9998493582648491  0.8041764976455125  0.5388813343475938
  0.9988731417019323  0.1836513432488182  0.4683658253318367
  0.5023914739251147  0.3410191670679381  0.6111585227561017
  0.4999228239447435  0.6506246025949073  0.3999615369508657
  0.4929576013760564  0.9720902382086841  0.4250898539271868
  0.4961477268698790  0.0374258112657870  0.5862343743320422
  0.4994115497937673  0.5900069858050001  0.6382224464137516
  0.5030261871617011  0.4023064370491196  0.3723999912936191
  0.3334685379178035  0.7962976226009264  0.5442153564547537
  0.3341050232062230  0.1938785594276051  0.3900055335127909
  0.8334785964194682  0.3365462628623753  0.6109930666481918
  0.8333509372667978  0.6468854923259761  0.3997962491710358
  0.8331971128947101  0.9588105510220367  0.4230244765103254
  0.8332326770223261  0.0315590029083684  0.5878401406547533
  0.8333767970536615  0.5869247923781258  0.6380968282494337
  0.8331825046059196  0.3960169396140431  0.3732427064044563
  0.6670247681011542  0.8042078442354404  0.5389826765162959
  0.6677599131510551  0.1835946786567759  0.4684202906187324
  0.3331154852656038  0.2185450142037161  0.5231753723660487
 
  0.00000000E+00  0.00000000E+00  0.00000000E+00
  0.00000000E+00  0.00000000E+00  0.00000000E+00
  0.00000000E+00  0.00000000E+00  0.00000000E+00
  0.00000000E+00  0.00000000E+00  0.00000000E+00
  0.00000000E+00  0.00000000E+00  0.00000000E+00
  0.00000000E+00  0.00000000E+00  0.00000000E+00
  0.00000000E+00  0.00000000E+00  0.00000000E+00
  0.00000000E+00  0.00000000E+00  0.00000000E+00
  0.00000000E+00  0.00000000E+00  0.00000000E+00
  0.00000000E+00  0.00000000E+00  0.00000000E+00
  0.00000000E+00  0.00000000E+00  0.00000000E+00
  0.00000000E+00  0.00000000E+00  0.00000000E+00
  0.00000000E+00  0.00000000E+00  0.00000000E+00
  0.00000000E+00  0.00000000E+00  0.00000000E+00
  0.00000000E+00  0.00000000E+00  0.00000000E+00
  0.00000000E+00  0.00000000E+00  0.00000000E+00
  0.00000000E+00  0.00000000E+00  0.00000000E+00
  0.00000000E+00  0.00000000E+00  0.00000000E+00
  0.00000000E+00  0.00000000E+00  0.00000000E+00
  0.00000000E+00  0.00000000E+00  0.00000000E+00
  0.00000000E+00  0.00000000E+00  0.00000000E+00
  0.00000000E+00  0.00000000E+00  0.00000000E+00
  0.00000000E+00  0.00000000E+00  0.00000000E+00
  0.00000000E+00  0.00000000E+00  0.00000000E+00
  0.00000000E+00  0.00000000E+00  0.00000000E+00
  0.00000000E+00  0.00000000E+00  0.00000000E+00
  0.00000000E+00  0.00000000E+00  0.00000000E+00
  0.00000000E+00  0.00000000E+00  0.00000000E+00
  0.00000000E+00  0.00000000E+00  0.00000000E+00
  0.00000000E+00  0.00000000E+00  0.00000000E+00
  0.00000000E+00  0.00000000E+00  0.00000000E+00
  0.00000000E+00  0.00000000E+00  0.00000000E+00
  0.00000000E+00  0.00000000E+00  0.00000000E+00
  0.00000000E+00  0.00000000E+00  0.00000000E+00
  0.00000000E+00  0.00000000E+00  0.00000000E+00
  0.00000000E+00  0.00000000E+00  0.00000000E+00
  0.00000000E+00  0.00000000E+00  0.00000000E+00
  0.00000000E+00  0.00000000E+00  0.00000000E+00
  0.00000000E+00  0.00000000E+00  0.00000000E+00
  0.00000000E+00  0.00000000E+00  0.00000000E+00
