CONTCAR\(3)                             
   1.00000000000000     
    12.9047002792000001    0.0000000000000000    0.0000000000000000
     0.0000000000000000   17.0116996765000010    0.0000000000000000
     0.0000000000000000    0.0000000000000000   20.7707004546999983
   Pr   I    O 
    12    30     1
Direct
  0.2502603194070447  0.1391292902212023  0.5181140016314659
  0.0849641902564638  0.8631087855249261  0.4837617101440057
  0.2456440392993196  0.6392271188196039  0.5264546630385568
  0.0838195396101241  0.3647577620102627  0.4708317398965643
  0.5829459493483625  0.1389438482082007  0.5177602318809212
  0.4171550936995172  0.8639130483602837  0.4822457635891398
  0.5876063396015792  0.6390860792451235  0.5265298907225664
  0.4163809650993998  0.3645705926764833  0.4706680687741461
  0.9168267239876478  0.1386492726572384  0.5181075002020791
  0.7487832185579708  0.8631158924184145  0.4830243943089979
  0.9163356936779965  0.6384268156843516  0.5293234603427178
  0.7490970373574989  0.3645491690083263  0.4712734339846520
  0.2499449724940078  0.3805283163265817  0.3597832382956301
  0.0837810438522380  0.6232540836141566  0.6392053819215915
  0.2498730096349396  0.9847370111408833  0.4179980177909319
  0.0844578119543518  0.0182735660424153  0.5834609193485207
  0.0807231795498448  0.5596443013921228  0.4316968001705115
  0.2516375200886909  0.4449392234042401  0.5675508291607173
  0.0835659982892643  0.2458492927819897  0.5958487013803694
  0.2500781897583759  0.7586094608610831  0.4026648206117661
  0.0834991932519349  0.1870586200077234  0.4106316779659369
  0.2530367565307529  0.8135271079678905  0.5895615702092931
  0.5832426478905783  0.3806154165641182  0.3605405579920968
  0.4166445595282739  0.6249186400690843  0.6413557124216184
  0.5835851219122086  0.9844088804621358  0.4172888012691101
  0.4164461514189058  0.0182158447453320  0.5828257906929195
  0.4166386392500582  0.5609379841964494  0.4329919176232163
  0.5813031479479477  0.4447852974460983  0.5678958879053907
  0.4167081328535441  0.2458365652249982  0.5958774932335568
  0.5832491529484429  0.7580470198248170  0.4026285381476720
  0.4165101026461724  0.1872375210318347  0.4103522063591757
  0.5816033458007278  0.8137528317066047  0.5894220140654040
  0.9161782984666496  0.3780254008372416  0.3608088987632148
  0.7496365759337290  0.6227837099535498  0.6394014364410439
  0.9170437389988074  0.9839926690146696  0.4187963357864127
  0.7491932086801201  0.0182153949697051  0.5827593208870131
  0.7513149021728182  0.5595117253990437  0.4316819627524569
  0.9165663470613177  0.4424389398344534  0.5668029996346410
  0.7495671815354642  0.2454303294408282  0.5957919215592484
  0.9169751310549852  0.7577549183223664  0.4050053858782198
  0.7499479182837360  0.1870720956662527  0.4104599185123181
  0.9163204275533940  0.8157649488409620  0.5906011446351384
  0.4177584927548115  0.7227154360759794  0.6842150740690384
 
  0.00000000E+00  0.00000000E+00  0.00000000E+00
  0.00000000E+00  0.00000000E+00  0.00000000E+00
  0.00000000E+00  0.00000000E+00  0.00000000E+00
  0.00000000E+00  0.00000000E+00  0.00000000E+00
  0.00000000E+00  0.00000000E+00  0.00000000E+00
  0.00000000E+00  0.00000000E+00  0.00000000E+00
  0.00000000E+00  0.00000000E+00  0.00000000E+00
  0.00000000E+00  0.00000000E+00  0.00000000E+00
  0.00000000E+00  0.00000000E+00  0.00000000E+00
  0.00000000E+00  0.00000000E+00  0.00000000E+00
  0.00000000E+00  0.00000000E+00  0.00000000E+00
  0.00000000E+00  0.00000000E+00  0.00000000E+00
  0.00000000E+00  0.00000000E+00  0.00000000E+00
  0.00000000E+00  0.00000000E+00  0.00000000E+00
  0.00000000E+00  0.00000000E+00  0.00000000E+00
  0.00000000E+00  0.00000000E+00  0.00000000E+00
  0.00000000E+00  0.00000000E+00  0.00000000E+00
  0.00000000E+00  0.00000000E+00  0.00000000E+00
  0.00000000E+00  0.00000000E+00  0.00000000E+00
  0.00000000E+00  0.00000000E+00  0.00000000E+00
  0.00000000E+00  0.00000000E+00  0.00000000E+00
  0.00000000E+00  0.00000000E+00  0.00000000E+00
  0.00000000E+00  0.00000000E+00  0.00000000E+00
  0.00000000E+00  0.00000000E+00  0.00000000E+00
  0.00000000E+00  0.00000000E+00  0.00000000E+00
  0.00000000E+00  0.00000000E+00  0.00000000E+00
  0.00000000E+00  0.00000000E+00  0.00000000E+00
  0.00000000E+00  0.00000000E+00  0.00000000E+00
  0.00000000E+00  0.00000000E+00  0.00000000E+00
  0.00000000E+00  0.00000000E+00  0.00000000E+00
  0.00000000E+00  0.00000000E+00  0.00000000E+00
  0.00000000E+00  0.00000000E+00  0.00000000E+00
  0.00000000E+00  0.00000000E+00  0.00000000E+00
  0.00000000E+00  0.00000000E+00  0.00000000E+00
  0.00000000E+00  0.00000000E+00  0.00000000E+00
  0.00000000E+00  0.00000000E+00  0.00000000E+00
  0.00000000E+00  0.00000000E+00  0.00000000E+00
  0.00000000E+00  0.00000000E+00  0.00000000E+00
  0.00000000E+00  0.00000000E+00  0.00000000E+00
  0.00000000E+00  0.00000000E+00  0.00000000E+00
  0.00000000E+00  0.00000000E+00  0.00000000E+00
  0.00000000E+00  0.00000000E+00  0.00000000E+00
  0.00000000E+00  0.00000000E+00  0.00000000E+00
