CONTCAR\(6)                             
   1.00000000000000     
    12.8154001235999999    0.0000000000000000    0.0000000000000000
     6.4077083683999998   11.0983416437999995    0.0000000000000000
     0.0000000000000000    0.0000000000000000   33.6823997497999983
   Ge   Bi   Te   O 
    27    18    54     1
Direct
  0.1082673707370577  0.1016279151174751  0.2650738659630952
  0.2228989269865075  0.2226847054817206  0.7377308747151925
  0.2252095475754386  0.2228724734613089  0.3735102211648209
  0.4438248592452403  0.1099566198189115  0.2654824176634956
  0.5561827219106807  0.2226412175813556  0.7378510890607975
  0.5551001179083662  0.2217519258817423  0.3740191518393480
  0.7750705148298197  0.1094331713174575  0.2648415939215242
  0.8895099591219758  0.2224184536865207  0.7377400034432586
  0.8860191234263440  0.2197160606927687  0.3747449065786428
  0.0938389257862011  0.4272931668987114  0.2685837831776318
  0.2227334319417829  0.5561441716172080  0.7377328803019079
  0.2239410228136216  0.5562866046482806  0.3740966411706070
  0.4507609363560542  0.4428601508692476  0.2655244568188914
  0.5558146351350288  0.5557892560093767  0.7376805913224990
  0.5564561655872586  0.5561953911166948  0.3745152545003518
  0.7687526692416771  0.4415405379312082  0.2650760376276866
  0.8894289438625813  0.5559254558050130  0.7377270105379446
  0.8899895426708739  0.5576937153456800  0.3736800608066553
  0.1084141372397680  0.7844940613779444  0.2659545341193016
  0.2226226839939680  0.8895370604486813  0.7376374320580390
  0.2234882215387226  0.8898717379742509  0.3745666612757930
  0.4429413006439072  0.7763799123821530  0.2638103635476746
  0.5560513012418816  0.8894994570384798  0.7377707602115391
  0.5550269007113757  0.8886185532592693  0.3739605189864531
  0.7766841938729676  0.7765301010096847  0.2657197842546241
  0.8892701994302200  0.8895333326148619  0.7377824061404533
  0.8886257712715616  0.8885056015098718  0.3741729357700301
  0.0009601713696693  0.0011263146649679  0.4935708942193026
  0.1123610825884017  0.1117936257330271  0.6183166670849155
  0.3329235418754714  0.0010808659521959  0.4935879271750529
  0.4451265225887999  0.1119071201420404  0.6179542353938856
  0.6667944709671891  0.0007515737905554  0.4935778154194344
  0.7787239834855103  0.1110332996200353  0.6181573628154138
  0.0006809053229485  0.3336894279885159  0.4935351512119829
  0.1114773929939177  0.4452283686893508  0.6182313914134477
  0.3337029229640788  0.3336357147191975  0.4932258358713368
  0.4451052842871671  0.4450836978572201  0.6179142130952860
  0.6680921318333614  0.3345189324784103  0.4934438705116566
  0.7783346716454678  0.4444128894884372  0.6182376220991380
  0.0005913671138519  0.6663928726438885  0.4935691173246672
  0.1110992132509738  0.7787776437365050  0.6181880205868659
  0.3339211024930621  0.6670131912875237  0.4936729595696697
  0.4449330978286823  0.7786585857575341  0.6181221401829504
  0.6675813874324517  0.6663545193297150  0.4932230732720119
  0.7779432762023603  0.7780219616141733  0.6181648073543690
  0.0002881397387970  0.0012544327203148  0.3322309619942644
  0.1115948650515507  0.1115127795215186  0.7795022409922061
  0.1116642622862080  0.1127290939686781  0.4392233771861323
  0.2230600499271857  0.2230564192046822  0.5556042115741933
  0.2161504566134070  0.2190940073048309  0.2250645478377362
  0.0007052471858379  0.0006567456058214  0.6716865038331448
  0.3338836453328720  0.0002607873147595  0.3314480865970926
  0.4449330067513755  0.1116797871774764  0.7796145425899998
  0.4454113720342075  0.1115420692897969  0.4394993002830629
  0.5566134051552394  0.2230874823570733  0.5552085847524231
  0.5536084899147712  0.2226332972765328  0.2235566497622210
  0.3343891381309770  0.0006642065786145  0.6716516938684517
  0.6665340627214994  0.9997841538730226  0.3318818943047153
  0.7785585479880185  0.1113395965328229  0.7796864654229043
  0.7793406576838282  0.1129850924769102  0.4392892982685428
  0.8899016732641299  0.2228886015274932  0.5555077041813420
  0.8859133155720180  0.2194665129977598  0.2235745038187549
  0.6671520401743267  0.0005424605122283  0.6715012368947287
  0.0030926833546364  0.3358388081682677  0.3305858800281247
  0.1116117067024954  0.4450043798324019  0.7795025124182952
  0.1118839911791238  0.4447478671670115  0.4393616312465918
  0.2229315906446430  0.5561806683959768  0.5554405253997144
  0.2405350225359475  0.5750392521584714  0.2184914920411102
  0.0006305415769272  0.3338967433510774  0.6716589726350685
  0.3357003189137229  0.3346436284636132  0.3312973553702407
  0.4447654021596348  0.4448575555544288  0.7796214984569891
  0.4455715339754000  0.4450644438387865  0.4396997738668278
  0.5564392076266039  0.5564248667099693  0.5556794139102653
  0.5530202524855335  0.5543478457492701  0.2217927224945110
  0.3341151212796091  0.3338940146129703  0.6714994227835195
  0.6678551570569237  0.3332576368649984  0.3319800079170224
  0.7782112014049143  0.4447086898775724  0.7794398372788862
  0.7798637915811547  0.4449324099813263  0.4391270311039451
  0.8894550075088667  0.5561327737089923  0.5555995585540563
  0.8859864958842156  0.5493432274724847  0.2249148120451956
  0.6670464538493716  0.3334100619827676  0.6715008310505587
  0.0016344041900097  0.6686201481078426  0.3316525209299658
  0.1114358029353613  0.7786589942186911  0.7795105348534999
  0.1115788130602004  0.7788159197029492  0.4398959377960269
  0.2228526224114969  0.8896177707709110  0.5554957341702444
  0.2204483816560835  0.8857529694317194  0.2217855262270686
  0.0001389336807759  0.6673409168015936  0.6715608499501784
  0.3350226938813867  0.6681139785653633  0.3323110301428036
  0.4447933683357248  0.7782057655206274  0.7794215822886842
  0.4449668290482814  0.7785348378857037  0.4398283961595075
  0.5561053535437318  0.8895142186999252  0.5552593700484246
  0.5555588835645009  0.8881161826501750  0.2234319312276436
  0.3337951969497338  0.6671450440574396  0.6714142118066829
  0.6671876151150629  0.6670941303614747  0.3317157373986741
  0.7782277126929630  0.7780422960722789  0.7795653835087994
  0.7784887413930126  0.7788298569497900  0.4396003257647341
  0.8893427844959969  0.8892492728789884  0.5551270307701858
  0.8886809689215961  0.8871360773881842  0.2239291230041079
  0.6670723066906330  0.6669726416028252  0.6715789882822915
  0.3098024748631404  0.6487277148136765  0.1878709423280512
 
  0.00000000E+00  0.00000000E+00  0.00000000E+00
  0.00000000E+00  0.00000000E+00  0.00000000E+00
  0.00000000E+00  0.00000000E+00  0.00000000E+00
  0.00000000E+00  0.00000000E+00  0.00000000E+00
  0.00000000E+00  0.00000000E+00  0.00000000E+00
  0.00000000E+00  0.00000000E+00  0.00000000E+00
  0.00000000E+00  0.00000000E+00  0.00000000E+00
  0.00000000E+00  0.00000000E+00  0.00000000E+00
  0.00000000E+00  0.00000000E+00  0.00000000E+00
  0.00000000E+00  0.00000000E+00  0.00000000E+00
  0.00000000E+00  0.00000000E+00  0.00000000E+00
  0.00000000E+00  0.00000000E+00  0.00000000E+00
  0.00000000E+00  0.00000000E+00  0.00000000E+00
  0.00000000E+00  0.00000000E+00  0.00000000E+00
  0.00000000E+00  0.00000000E+00  0.00000000E+00
  0.00000000E+00  0.00000000E+00  0.00000000E+00
  0.00000000E+00  0.00000000E+00  0.00000000E+00
  0.00000000E+00  0.00000000E+00  0.00000000E+00
  0.00000000E+00  0.00000000E+00  0.00000000E+00
  0.00000000E+00  0.00000000E+00  0.00000000E+00
  0.00000000E+00  0.00000000E+00  0.00000000E+00
  0.00000000E+00  0.00000000E+00  0.00000000E+00
  0.00000000E+00  0.00000000E+00  0.00000000E+00
  0.00000000E+00  0.00000000E+00  0.00000000E+00
  0.00000000E+00  0.00000000E+00  0.00000000E+00
  0.00000000E+00  0.00000000E+00  0.00000000E+00
  0.00000000E+00  0.00000000E+00  0.00000000E+00
  0.00000000E+00  0.00000000E+00  0.00000000E+00
  0.00000000E+00  0.00000000E+00  0.00000000E+00
  0.00000000E+00  0.00000000E+00  0.00000000E+00
  0.00000000E+00  0.00000000E+00  0.00000000E+00
  0.00000000E+00  0.00000000E+00  0.00000000E+00
  0.00000000E+00  0.00000000E+00  0.00000000E+00
  0.00000000E+00  0.00000000E+00  0.00000000E+00
  0.00000000E+00  0.00000000E+00  0.00000000E+00
  0.00000000E+00  0.00000000E+00  0.00000000E+00
  0.00000000E+00  0.00000000E+00  0.00000000E+00
  0.00000000E+00  0.00000000E+00  0.00000000E+00
  0.00000000E+00  0.00000000E+00  0.00000000E+00
  0.00000000E+00  0.00000000E+00  0.00000000E+00
  0.00000000E+00  0.00000000E+00  0.00000000E+00
  0.00000000E+00  0.00000000E+00  0.00000000E+00
  0.00000000E+00  0.00000000E+00  0.00000000E+00
  0.00000000E+00  0.00000000E+00  0.00000000E+00
  0.00000000E+00  0.00000000E+00  0.00000000E+00
  0.00000000E+00  0.00000000E+00  0.00000000E+00
  0.00000000E+00  0.00000000E+00  0.00000000E+00
  0.00000000E+00  0.00000000E+00  0.00000000E+00
  0.00000000E+00  0.00000000E+00  0.00000000E+00
  0.00000000E+00  0.00000000E+00  0.00000000E+00
  0.00000000E+00  0.00000000E+00  0.00000000E+00
  0.00000000E+00  0.00000000E+00  0.00000000E+00
  0.00000000E+00  0.00000000E+00  0.00000000E+00
  0.00000000E+00  0.00000000E+00  0.00000000E+00
  0.00000000E+00  0.00000000E+00  0.00000000E+00
  0.00000000E+00  0.00000000E+00  0.00000000E+00
  0.00000000E+00  0.00000000E+00  0.00000000E+00
  0.00000000E+00  0.00000000E+00  0.00000000E+00
  0.00000000E+00  0.00000000E+00  0.00000000E+00
  0.00000000E+00  0.00000000E+00  0.00000000E+00
  0.00000000E+00  0.00000000E+00  0.00000000E+00
  0.00000000E+00  0.00000000E+00  0.00000000E+00
  0.00000000E+00  0.00000000E+00  0.00000000E+00
  0.00000000E+00  0.00000000E+00  0.00000000E+00
  0.00000000E+00  0.00000000E+00  0.00000000E+00
  0.00000000E+00  0.00000000E+00  0.00000000E+00
  0.00000000E+00  0.00000000E+00  0.00000000E+00
  0.00000000E+00  0.00000000E+00  0.00000000E+00
  0.00000000E+00  0.00000000E+00  0.00000000E+00
  0.00000000E+00  0.00000000E+00  0.00000000E+00
  0.00000000E+00  0.00000000E+00  0.00000000E+00
  0.00000000E+00  0.00000000E+00  0.00000000E+00
  0.00000000E+00  0.00000000E+00  0.00000000E+00
  0.00000000E+00  0.00000000E+00  0.00000000E+00
  0.00000000E+00  0.00000000E+00  0.00000000E+00
  0.00000000E+00  0.00000000E+00  0.00000000E+00
  0.00000000E+00  0.00000000E+00  0.00000000E+00
  0.00000000E+00  0.00000000E+00  0.00000000E+00
  0.00000000E+00  0.00000000E+00  0.00000000E+00
  0.00000000E+00  0.00000000E+00  0.00000000E+00
  0.00000000E+00  0.00000000E+00  0.00000000E+00
  0.00000000E+00  0.00000000E+00  0.00000000E+00
  0.00000000E+00  0.00000000E+00  0.00000000E+00
  0.00000000E+00  0.00000000E+00  0.00000000E+00
  0.00000000E+00  0.00000000E+00  0.00000000E+00
  0.00000000E+00  0.00000000E+00  0.00000000E+00
  0.00000000E+00  0.00000000E+00  0.00000000E+00
  0.00000000E+00  0.00000000E+00  0.00000000E+00
  0.00000000E+00  0.00000000E+00  0.00000000E+00
  0.00000000E+00  0.00000000E+00  0.00000000E+00
  0.00000000E+00  0.00000000E+00  0.00000000E+00
  0.00000000E+00  0.00000000E+00  0.00000000E+00
  0.00000000E+00  0.00000000E+00  0.00000000E+00
  0.00000000E+00  0.00000000E+00  0.00000000E+00
  0.00000000E+00  0.00000000E+00  0.00000000E+00
  0.00000000E+00  0.00000000E+00  0.00000000E+00
  0.00000000E+00  0.00000000E+00  0.00000000E+00
  0.00000000E+00  0.00000000E+00  0.00000000E+00
  0.00000000E+00  0.00000000E+00  0.00000000E+00
  0.00000000E+00  0.00000000E+00  0.00000000E+00
