CONTCAR\(6)                             
   1.00000000000000     
    13.7772998809999994    0.0000000000000000    0.0000000000000000
    -0.9002177756999999   20.5238668944999993    0.0000000000000000
     0.0000000000000000    0.0000000000000000   22.2061004639000004
   Cu   Se   O 
    36    36   109
Direct
  0.1662890253463328  0.0443193666623288  0.5113298479326382
  0.3087963684297588  0.0241103500828793  0.6381309701410006
  0.3178839078107489  0.4176368623863640  0.5010463317166138
  0.1352466961262271  0.2898641012048795  0.4894809260316592
  0.3177346361942223  0.1676877512598048  0.5001815832159933
  0.3265710708417959  0.3120088650189589  0.3623379313005893
  0.4995231781624663  0.0449156731687761  0.5103912987316432
  0.6419935518913095  0.0233633498333268  0.6387622581737716
  0.6476639581229917  0.4192287070452690  0.5023501360369299
  0.4686869865492794  0.2902746271352029  0.4906426413362799
  0.6508830798910863  0.1678527313251898  0.5002609467377803
  0.6587651653011664  0.3115817856117211  0.3616703994424855
  0.8325064473550219  0.0450188782253599  0.5109779173725278
  0.9752108840223574  0.0236177259444700  0.6382820840952084
  0.9817691693570862  0.4173652802760424  0.4981920805701804
  0.8006409437154518  0.2911674312204578  0.4886407888013194
  0.9840916665503803  0.1681499658868062  0.4997444314862015
  0.9934895056721178  0.3119096881398040  0.3617379273650367
  0.1626835603803324  0.5440513053677682  0.5081278957188116
  0.3038985627552362  0.5235171439528423  0.6354799415500402
  0.3183829072668178  0.9173010474771047  0.5001369918889211
  0.1371397286913825  0.7896438439290906  0.4888576015908696
  0.3222470521035088  0.6653840904565725  0.4962060965394310
  0.3281073449516864  0.8114745416099317  0.3624908891138121
  0.4963740493650557  0.5545276170592073  0.5149331475296300
  0.6417077738837682  0.5255799933979470  0.6399730186459163
  0.6517924635313188  0.9177903181092940  0.5005111228695188
  0.4702617213947777  0.7895981596805645  0.4905924095122798
  0.6479889113025821  0.6680339733453358  0.5030351343307983
  0.6601299991739435  0.8125602220569313  0.3609747961324715
  0.8315539380297792  0.5443392690002039  0.5091484643889543
  0.9764881314253206  0.5236556414172937  0.6364202089570340
  0.9843039336807243  0.9182797850000857  0.5000055345753689
  0.8025389925797067  0.7915159070886613  0.4895377882817807
  0.9841488313379926  0.6683655181458050  0.4987584149501528
  0.9937414048964435  0.8119163026149157  0.3619891440308781
  0.1209401578007401  0.4220038918439059  0.6166465629909311
  0.1308977627595389  0.1350397863895145  0.6101161953305032
  0.1795855984448310  0.4127879152615317  0.3821322009204290
  0.3343554073827920  0.0418230521121587  0.4109436513566431
  0.1708191368291914  0.2008377036163372  0.3894580411311054
  0.2999299227637859  0.2931459969616255  0.5898801358214779
  0.4544381684691853  0.4243585306049691  0.6199073898617056
  0.4659663273243745  0.1343864965561401  0.6104577129500711
  0.5122900132999803  0.4132163949485216  0.3818760345812031
  0.6676400996942163  0.0419950516521510  0.4109577186033614
  0.5028349865293853  0.2010331896977266  0.3904298046216064
  0.6341988129233844  0.2936631951794466  0.5896064369136828
  0.7883863364943230  0.4230855170609300  0.6200244588496182
  0.7979703336555675  0.1344646249690588  0.6104386857754726
  0.8444780240552859  0.4130349970271985  0.3798932457523084
  0.0015775461591567  0.0425245239138597  0.4112434676759816
  0.8369395707937460  0.2008349126292461  0.3895317275401071
  0.9662981589348186  0.2937005885162583  0.5882860863476296
  0.1234172128438786  0.9227225255004625  0.6190372190456953
  0.1327565918771887  0.6344043618678209  0.6079196450673154
  0.1805087416912819  0.9129463610636803  0.3815433040497599
  0.3369947549502180  0.5401046342224733  0.4116443498818271
  0.1710960842334041  0.7007820996509585  0.3889911596442118
  0.3016682799950164  0.7898304574772890  0.5871170698344655
  0.4554701663470223  0.9222465551823188  0.6195154479640601
  0.4834268992005239  0.6289626601531998  0.6487009426482804
  0.5132042964270442  0.9132711414278526  0.3818272161819499
  0.6608440326740405  0.5417234619490514  0.4145981056302163
  0.5080612410116109  0.7017728632074619  0.3912287098502705
  0.6339629329939831  0.7933801513919836  0.5908181362382763
  0.7896033497955498  0.9223001393711285  0.6190443614925574
  0.8031781630080863  0.6348393764225078  0.6077409075395022
  0.8464098806895370  0.9138011755529577  0.3811068181399596
  0.9994855888411136  0.5424884394634354  0.4085333886952249
  0.8359061088276198  0.7018283768407096  0.3894490076557971
  0.9701716104728351  0.7940260331672137  0.5881908462533910
  0.2876535032272707  0.0067756800465128  0.4792317034653813
  0.0844888240571616  0.1173919429960304  0.5363259963211723
  0.0845403933516377  0.4780050291477230  0.6685623872459202
  0.1788976976177997  0.2964041158917989  0.5740409137291964
  0.3228612682775060  0.2128398703941052  0.5771397009979246
  0.2121840342876428  0.0711110614591069  0.5939464340878747
  0.1227533165490804  0.0394000939834421  0.4266669151214866
  0.2453899771566939  0.4385711759204415  0.6141152259255079
  0.2168409283784645  0.2180075786084842  0.4631067844928707
  0.0864977395583661  0.4568517586122764  0.5472190260268310
  0.0449614692501595  0.1041132078806990  0.6581262044957902
  0.2570797822209285  0.2316773922051507  0.3416010634193773
  0.0552605886051321  0.3964841121718163  0.3816117789271694
  0.2115015115484825  0.3778837907136599  0.4520809924406726
  0.0900140968153283  0.2654865629866628  0.4060015123682566
  0.0147038339859687  0.3284947498292597  0.5201022509909703
  0.2184561963582608  0.3573042718588801  0.3304095780479567
  0.3117758819876278  0.1223497041626500  0.4233751062062980
  0.6197550078379083  0.0067067423712672  0.4792294762533103
  0.4194575163190953  0.1176746635594656  0.5368221656913293
  0.4078651022340850  0.4788669802916267  0.6701852997274412
  0.5128886544115300  0.2972039075614319  0.5752058189170098
  0.6564893199969148  0.2130572730622539  0.5768001550880125
  0.5455689132290555  0.0692993323545033  0.5939364928626978
  0.4557268279167684  0.0389153312289443  0.4258040606085273
  0.5782429964835069  0.4414300891167617  0.6238571906552129
  0.5504056386375431  0.2186081676336609  0.4636190846858385
  0.4253898509588412  0.4575537410687039  0.5492823926500293
  0.3793546659112620  0.1041918925024578  0.6583982277809307
  0.5882404463442041  0.2313962122189089  0.3417999209745816
  0.3880405176102035  0.3971474854066112  0.3812421770639437
  0.5440869372262666  0.3793673865423986  0.4520565786052250
  0.4227056451934000  0.2659358797012462  0.4072199645456448
  0.3492416811877438  0.3288597097840692  0.5223292143217558
  0.5500608305757947  0.3567076564473479  0.3306674116675751
  0.6457709885863174  0.1227201403863279  0.4233876162634825
  0.9540475444570046  0.0079014958212228  0.4793807692838923
  0.7510145717495905  0.1168685803813126  0.5366376034830157
  0.7496433774351972  0.4795846259990212  0.6708174316326849
  0.8451565563627395  0.2969126137105694  0.5729799435801711
  0.9880163085315750  0.2127714671686597  0.5765544891042426
  0.8783969554091146  0.0698577767123100  0.5936436779457475
  0.7888695338403076  0.0391696739932945  0.4262539718226446
  0.9126272745691341  0.4388486126165953  0.6201211738034066
  0.8830367204236075  0.2185170174251832  0.4633799711817213
  0.7566403225647002  0.4567215518106116  0.5496474058422148
  0.7120641192409328  0.1040014984875221  0.6585501375177106
  0.9226421676899705  0.2318023975845271  0.3414798371333311
  0.7205655945205884  0.3961910670715402  0.3781340130500581
  0.8752077745713487  0.3785879341704245  0.4503961791993096
  0.7556828694838111  0.2649307290680851  0.4057348887217155
  0.6808048668721718  0.3295574667447953  0.5215701269300730
  0.8860311564732870  0.3575950522525526  0.3291148152984983
  0.9799274769803831  0.1234988776375226  0.4229733592003072
  0.2848412697706233  0.5059505100614891  0.4783083697319742
  0.0854614617042669  0.6181180487221982  0.5339982341542887
  0.0832527205190077  0.9783032750990196  0.6702874362483359
  0.1806628758528938  0.7978587183522187  0.5727266725403943
  0.3206482903397702  0.7099297402647669  0.5724503147576754
  0.2083763327800228  0.5674204382977376  0.5903200077381200
  0.1208720438058241  0.5394746530178681  0.4234409412374001
  0.2474313925028419  0.9395815522372696  0.6195877442640675
  0.2192430753839051  0.7173501658109076  0.4624078771095373
  0.0912658184295887  0.9570713383320262  0.5489972592461486
  0.0463767069303607  0.6042540347593672  0.6559820028649062
  0.2572818884457153  0.7314491420372062  0.3411769303608431
  0.0562654594020360  0.8965439403721459  0.3808748253496542
  0.2116002947255132  0.8785910621583334  0.4519038498422332
  0.0908543550155198  0.7653069082461790  0.4063502658002185
  0.0174163190258959  0.8292022359316893  0.5198951110682434
  0.2201454643446226  0.8571527623581368  0.3304338161981571
  0.3110445323074920  0.6206932102228216  0.4208153530638014
  0.6163762501204975  0.5094660292329907  0.4847714004878358
  0.4267307654020792  0.6262829714690373  0.5275094548726694
  0.4164359407975908  0.9789309038367953  0.6702571502915616
  0.5133157799163979  0.7973580543908638  0.5748298105999231
  0.6582236046374708  0.7131557911978365  0.5787730551593173
  0.5435413746491740  0.5710690758230148  0.5961823117809166
  0.4570675049652729  0.5382541004602098  0.4306050641862221
  0.5796766089098928  0.9384283716599073  0.6208341359215064
  0.5605228525863489  0.7251793115849439  0.4616554940089510
  0.4246190583779167  0.9563299933594510  0.5490380873332628
  0.3615882025588631  0.6038099770180920  0.6554840305797625
  0.5898089116131934  0.7319866484411902  0.3402524459397876
  0.3890452248955473  0.8962328949757116  0.3825168155009094
  0.5468969244360340  0.8784517255186906  0.4513477964194377
  0.4239907281567182  0.7648420493747060  0.4073282994300882
  0.3510190792191015  0.8281936252032422  0.5202840491287065
  0.5512903347994631  0.8578386880848907  0.3298508022702460
  0.6435635844837032  0.6234300415561173  0.4258546540552018
  0.9521079067963896  0.5067824185348390  0.4763654242060166
  0.7516360277887881  0.6171373858396613  0.5351394701188702
  0.7508079838929836  0.9782248605977484  0.6702812120985726
  0.8489712350866760  0.7975748118967694  0.5736962225577857
  0.9924373421716063  0.7134126736610223  0.5755073375105735
  0.8827054072845388  0.5699350470530518  0.5894634992426722
  0.7828790872354007  0.5368243380779090  0.4262509729666460
  0.9138086231572441  0.9388758918552584  0.6189298426758221
  0.8825180973137384  0.7186800412664585  0.4630344050033123
  0.7574218312164275  0.9570630125191955  0.5489471074777201
  0.7202120499629604  0.6040479897557908  0.6567268039529363
  0.9228311593592484  0.7320289813464798  0.3416499542089113
  0.7223583177073556  0.8974803240807755  0.3796214966776725
  0.8773460417646980  0.8795159810719999  0.4515949853144134
  0.7568902424550510  0.7670383217186568  0.4057848191143956
  0.6828733067705166  0.8291409359013500  0.5232403833841723
  0.8866320098688638  0.8579454873267972  0.3300957438377791
  0.9771139462387021  0.6229238255797295  0.4218327827751204
  0.5390107777638184  0.6039168286947267  0.7098437689992427
 
  0.00000000E+00  0.00000000E+00  0.00000000E+00
  0.00000000E+00  0.00000000E+00  0.00000000E+00
  0.00000000E+00  0.00000000E+00  0.00000000E+00
  0.00000000E+00  0.00000000E+00  0.00000000E+00
  0.00000000E+00  0.00000000E+00  0.00000000E+00
  0.00000000E+00  0.00000000E+00  0.00000000E+00
  0.00000000E+00  0.00000000E+00  0.00000000E+00
  0.00000000E+00  0.00000000E+00  0.00000000E+00
  0.00000000E+00  0.00000000E+00  0.00000000E+00
  0.00000000E+00  0.00000000E+00  0.00000000E+00
  0.00000000E+00  0.00000000E+00  0.00000000E+00
  0.00000000E+00  0.00000000E+00  0.00000000E+00
  0.00000000E+00  0.00000000E+00  0.00000000E+00
  0.00000000E+00  0.00000000E+00  0.00000000E+00
  0.00000000E+00  0.00000000E+00  0.00000000E+00
  0.00000000E+00  0.00000000E+00  0.00000000E+00
  0.00000000E+00  0.00000000E+00  0.00000000E+00
  0.00000000E+00  0.00000000E+00  0.00000000E+00
  0.00000000E+00  0.00000000E+00  0.00000000E+00
  0.00000000E+00  0.00000000E+00  0.00000000E+00
  0.00000000E+00  0.00000000E+00  0.00000000E+00
  0.00000000E+00  0.00000000E+00  0.00000000E+00
  0.00000000E+00  0.00000000E+00  0.00000000E+00
  0.00000000E+00  0.00000000E+00  0.00000000E+00
  0.00000000E+00  0.00000000E+00  0.00000000E+00
  0.00000000E+00  0.00000000E+00  0.00000000E+00
  0.00000000E+00  0.00000000E+00  0.00000000E+00
  0.00000000E+00  0.00000000E+00  0.00000000E+00
  0.00000000E+00  0.00000000E+00  0.00000000E+00
  0.00000000E+00  0.00000000E+00  0.00000000E+00
  0.00000000E+00  0.00000000E+00  0.00000000E+00
  0.00000000E+00  0.00000000E+00  0.00000000E+00
  0.00000000E+00  0.00000000E+00  0.00000000E+00
  0.00000000E+00  0.00000000E+00  0.00000000E+00
  0.00000000E+00  0.00000000E+00  0.00000000E+00
  0.00000000E+00  0.00000000E+00  0.00000000E+00
  0.00000000E+00  0.00000000E+00  0.00000000E+00
  0.00000000E+00  0.00000000E+00  0.00000000E+00
  0.00000000E+00  0.00000000E+00  0.00000000E+00
  0.00000000E+00  0.00000000E+00  0.00000000E+00
  0.00000000E+00  0.00000000E+00  0.00000000E+00
  0.00000000E+00  0.00000000E+00  0.00000000E+00
  0.00000000E+00  0.00000000E+00  0.00000000E+00
  0.00000000E+00  0.00000000E+00  0.00000000E+00
  0.00000000E+00  0.00000000E+00  0.00000000E+00
  0.00000000E+00  0.00000000E+00  0.00000000E+00
  0.00000000E+00  0.00000000E+00  0.00000000E+00
  0.00000000E+00  0.00000000E+00  0.00000000E+00
  0.00000000E+00  0.00000000E+00  0.00000000E+00
  0.00000000E+00  0.00000000E+00  0.00000000E+00
  0.00000000E+00  0.00000000E+00  0.00000000E+00
  0.00000000E+00  0.00000000E+00  0.00000000E+00
  0.00000000E+00  0.00000000E+00  0.00000000E+00
  0.00000000E+00  0.00000000E+00  0.00000000E+00
  0.00000000E+00  0.00000000E+00  0.00000000E+00
  0.00000000E+00  0.00000000E+00  0.00000000E+00
  0.00000000E+00  0.00000000E+00  0.00000000E+00
  0.00000000E+00  0.00000000E+00  0.00000000E+00
  0.00000000E+00  0.00000000E+00  0.00000000E+00
  0.00000000E+00  0.00000000E+00  0.00000000E+00
  0.00000000E+00  0.00000000E+00  0.00000000E+00
  0.00000000E+00  0.00000000E+00  0.00000000E+00
  0.00000000E+00  0.00000000E+00  0.00000000E+00
  0.00000000E+00  0.00000000E+00  0.00000000E+00
  0.00000000E+00  0.00000000E+00  0.00000000E+00
  0.00000000E+00  0.00000000E+00  0.00000000E+00
  0.00000000E+00  0.00000000E+00  0.00000000E+00
  0.00000000E+00  0.00000000E+00  0.00000000E+00
  0.00000000E+00  0.00000000E+00  0.00000000E+00
  0.00000000E+00  0.00000000E+00  0.00000000E+00
  0.00000000E+00  0.00000000E+00  0.00000000E+00
  0.00000000E+00  0.00000000E+00  0.00000000E+00
  0.00000000E+00  0.00000000E+00  0.00000000E+00
  0.00000000E+00  0.00000000E+00  0.00000000E+00
  0.00000000E+00  0.00000000E+00  0.00000000E+00
  0.00000000E+00  0.00000000E+00  0.00000000E+00
  0.00000000E+00  0.00000000E+00  0.00000000E+00
  0.00000000E+00  0.00000000E+00  0.00000000E+00
  0.00000000E+00  0.00000000E+00  0.00000000E+00
  0.00000000E+00  0.00000000E+00  0.00000000E+00
  0.00000000E+00  0.00000000E+00  0.00000000E+00
  0.00000000E+00  0.00000000E+00  0.00000000E+00
  0.00000000E+00  0.00000000E+00  0.00000000E+00
  0.00000000E+00  0.00000000E+00  0.00000000E+00
  0.00000000E+00  0.00000000E+00  0.00000000E+00
  0.00000000E+00  0.00000000E+00  0.00000000E+00
  0.00000000E+00  0.00000000E+00  0.00000000E+00
  0.00000000E+00  0.00000000E+00  0.00000000E+00
  0.00000000E+00  0.00000000E+00  0.00000000E+00
  0.00000000E+00  0.00000000E+00  0.00000000E+00
  0.00000000E+00  0.00000000E+00  0.00000000E+00
  0.00000000E+00  0.00000000E+00  0.00000000E+00
  0.00000000E+00  0.00000000E+00  0.00000000E+00
  0.00000000E+00  0.00000000E+00  0.00000000E+00
  0.00000000E+00  0.00000000E+00  0.00000000E+00
  0.00000000E+00  0.00000000E+00  0.00000000E+00
  0.00000000E+00  0.00000000E+00  0.00000000E+00
  0.00000000E+00  0.00000000E+00  0.00000000E+00
  0.00000000E+00  0.00000000E+00  0.00000000E+00
  0.00000000E+00  0.00000000E+00  0.00000000E+00
  0.00000000E+00  0.00000000E+00  0.00000000E+00
  0.00000000E+00  0.00000000E+00  0.00000000E+00
  0.00000000E+00  0.00000000E+00  0.00000000E+00
  0.00000000E+00  0.00000000E+00  0.00000000E+00
  0.00000000E+00  0.00000000E+00  0.00000000E+00
  0.00000000E+00  0.00000000E+00  0.00000000E+00
  0.00000000E+00  0.00000000E+00  0.00000000E+00
  0.00000000E+00  0.00000000E+00  0.00000000E+00
  0.00000000E+00  0.00000000E+00  0.00000000E+00
  0.00000000E+00  0.00000000E+00  0.00000000E+00
  0.00000000E+00  0.00000000E+00  0.00000000E+00
  0.00000000E+00  0.00000000E+00  0.00000000E+00
  0.00000000E+00  0.00000000E+00  0.00000000E+00
  0.00000000E+00  0.00000000E+00  0.00000000E+00
  0.00000000E+00  0.00000000E+00  0.00000000E+00
  0.00000000E+00  0.00000000E+00  0.00000000E+00
  0.00000000E+00  0.00000000E+00  0.00000000E+00
  0.00000000E+00  0.00000000E+00  0.00000000E+00
  0.00000000E+00  0.00000000E+00  0.00000000E+00
  0.00000000E+00  0.00000000E+00  0.00000000E+00
  0.00000000E+00  0.00000000E+00  0.00000000E+00
  0.00000000E+00  0.00000000E+00  0.00000000E+00
  0.00000000E+00  0.00000000E+00  0.00000000E+00
  0.00000000E+00  0.00000000E+00  0.00000000E+00
  0.00000000E+00  0.00000000E+00  0.00000000E+00
  0.00000000E+00  0.00000000E+00  0.00000000E+00
  0.00000000E+00  0.00000000E+00  0.00000000E+00
  0.00000000E+00  0.00000000E+00  0.00000000E+00
  0.00000000E+00  0.00000000E+00  0.00000000E+00
  0.00000000E+00  0.00000000E+00  0.00000000E+00
  0.00000000E+00  0.00000000E+00  0.00000000E+00
  0.00000000E+00  0.00000000E+00  0.00000000E+00
  0.00000000E+00  0.00000000E+00  0.00000000E+00
  0.00000000E+00  0.00000000E+00  0.00000000E+00
  0.00000000E+00  0.00000000E+00  0.00000000E+00
  0.00000000E+00  0.00000000E+00  0.00000000E+00
  0.00000000E+00  0.00000000E+00  0.00000000E+00
  0.00000000E+00  0.00000000E+00  0.00000000E+00
  0.00000000E+00  0.00000000E+00  0.00000000E+00
  0.00000000E+00  0.00000000E+00  0.00000000E+00
  0.00000000E+00  0.00000000E+00  0.00000000E+00
  0.00000000E+00  0.00000000E+00  0.00000000E+00
  0.00000000E+00  0.00000000E+00  0.00000000E+00
  0.00000000E+00  0.00000000E+00  0.00000000E+00
  0.00000000E+00  0.00000000E+00  0.00000000E+00
  0.00000000E+00  0.00000000E+00  0.00000000E+00
  0.00000000E+00  0.00000000E+00  0.00000000E+00
  0.00000000E+00  0.00000000E+00  0.00000000E+00
  0.00000000E+00  0.00000000E+00  0.00000000E+00
  0.00000000E+00  0.00000000E+00  0.00000000E+00
  0.00000000E+00  0.00000000E+00  0.00000000E+00
  0.00000000E+00  0.00000000E+00  0.00000000E+00
  0.00000000E+00  0.00000000E+00  0.00000000E+00
  0.00000000E+00  0.00000000E+00  0.00000000E+00
  0.00000000E+00  0.00000000E+00  0.00000000E+00
  0.00000000E+00  0.00000000E+00  0.00000000E+00
  0.00000000E+00  0.00000000E+00  0.00000000E+00
  0.00000000E+00  0.00000000E+00  0.00000000E+00
  0.00000000E+00  0.00000000E+00  0.00000000E+00
  0.00000000E+00  0.00000000E+00  0.00000000E+00
  0.00000000E+00  0.00000000E+00  0.00000000E+00
  0.00000000E+00  0.00000000E+00  0.00000000E+00
  0.00000000E+00  0.00000000E+00  0.00000000E+00
  0.00000000E+00  0.00000000E+00  0.00000000E+00
  0.00000000E+00  0.00000000E+00  0.00000000E+00
  0.00000000E+00  0.00000000E+00  0.00000000E+00
  0.00000000E+00  0.00000000E+00  0.00000000E+00
  0.00000000E+00  0.00000000E+00  0.00000000E+00
  0.00000000E+00  0.00000000E+00  0.00000000E+00
  0.00000000E+00  0.00000000E+00  0.00000000E+00
  0.00000000E+00  0.00000000E+00  0.00000000E+00
  0.00000000E+00  0.00000000E+00  0.00000000E+00
  0.00000000E+00  0.00000000E+00  0.00000000E+00
  0.00000000E+00  0.00000000E+00  0.00000000E+00
  0.00000000E+00  0.00000000E+00  0.00000000E+00
  0.00000000E+00  0.00000000E+00  0.00000000E+00
  0.00000000E+00  0.00000000E+00  0.00000000E+00
  0.00000000E+00  0.00000000E+00  0.00000000E+00
  0.00000000E+00  0.00000000E+00  0.00000000E+00
  0.00000000E+00  0.00000000E+00  0.00000000E+00
  0.00000000E+00  0.00000000E+00  0.00000000E+00
