CONTCAR\(8)                             
   1.00000000000000     
    11.2263002396000005    0.0000000000000000    0.0000000000000000
     0.0000000000000000   21.7961997986000000    0.0000000000000000
     0.0000000000000000    0.0000000000000000   19.3752994536999985
   Ta   Te   Pd   O    H 
     9    42     9     2     1
Selective dynamics
Direct
  0.1649116894193980  0.4748163108883645  0.5019430595517989   F   F   F
  0.1651538481286678  0.1238190287224086  0.5004222362610733   F   F   F
  0.1648181595498741  0.7729649241930332  0.5150764423799359   F   F   F
  0.4974277144048997  0.4749236943207578  0.5019163602015695   F   F   F
  0.4977553008665154  0.1233735185944980  0.5022056995027100   F   F   F
  0.4975349752054967  0.7712365666578478  0.5138027204657476   F   F   F
  0.8306314094850080  0.4748303432361709  0.5023432287691421   F   F   F
  0.8306027381585963  0.1229915231356244  0.5005393148654917   F   F   F
  0.8310438783255165  0.7735951589323165  0.5150225958321926   F   F   F
  0.9976933931947300  0.4070021431545428  0.4222407635146865   F   F   F
  0.1642356472853663  0.2408419820475984  0.4271583119527165   F   F   F
  0.1586616068416262  0.8875392841479979  0.5882637097790209   F   F   F
  0.9990109340829392  0.8393779149415224  0.4332743205677048   F   F   F
  0.9974372432705465  0.5480182603111743  0.4275279530439278   F   F   F
  0.9978135085660540  0.4804822328647376  0.6146929214404580   F   F   F
  0.1614953251031892  0.0062452133798701  0.4288969771823190   F   F   F
  0.9984347692277922  0.0539836854224447  0.5792015966803064   F   F   F
  0.1650981918270205  0.5917581732149770  0.5733686801587012   F   F   F
  0.9975913945033597  0.1958303164353339  0.5755278314124155   F   F   F
  0.1634001983104199  0.6960337571854467  0.4064497457528233   F   F   F
  0.9976580388071739  0.1196489510355150  0.3878805901814886   F   F   F
  0.9979949240427217  0.7379994814982993  0.6129512339317031   F   F   F
  0.1648680414553994  0.3585261058420244  0.5773419144248919   F   F   F
  0.3314397706816266  0.4073641659553076  0.4212089307391977   F   F   F
  0.4976023306025752  0.2405858651129691  0.4275942544247116   F   F   F
  0.4971754003446591  0.8877659425953084  0.5780790657438644   F   F   F
  0.3313494902572387  0.8417244765866059  0.4363299584539106   F   F   F
  0.3308742033685235  0.5475643678887323  0.4264823631783230   F   F   F
  0.3311306271542094  0.4799888169628304  0.6145988323784977   F   F   F
  0.4963125723064366  0.0028687129086507  0.4362750521832481   F   F   F
  0.3290428352255574  0.0554223692963589  0.5822669224738348   F   F   F
  0.4974771258782908  0.5920219196933303  0.5734466417965791   F   F   F
  0.3309273627335472  0.1963379068257893  0.5770357698623485   F   F   F
  0.4988919753576866  0.6938153594916443  0.4061748624237254   F   F   F
  0.3330444312100198  0.1220422796489586  0.3890347821473341   F   F   F
  0.3321700762033828  0.7378045254047549  0.6129314587030095   F   F   F
  0.4979092991095726  0.3579300837891992  0.5767641725758850   F   F   F
  0.6639852421524211  0.4075561992342998  0.4214665155715451   F   F   F
  0.8306757813364314  0.2400599975204472  0.4270297393067395   F   F   F
  0.8397913488018318  0.8886864726862740  0.5870187971950713   F   F   F
  0.6655464690747550  0.8408410064952676  0.4352242240303283   F   F   F
  0.6642461434957454  0.5479372306293087  0.4274824583964616   F   F   F
  0.6638289221251270  0.4798215273820148  0.6147226266248822   F   F   F
  0.8322428086960159  0.0037308243309653  0.4320657411051343   F   F   F
  0.6658157357725685  0.0552659316715491  0.5826924273720451   F   F   F
  0.8304555276599572  0.5917180745213670  0.5738851921698540   F   F   F
  0.6650061603983417  0.1961305942581646  0.5766573875661436   F   F   F
  0.8311094132108181  0.6962005731225460  0.4068428149343575   F   F   F
  0.6626191033163877  0.1202869170029146  0.3892298480217420   F   F   F
  0.6639533153168600  0.7397628015934927  0.6134793771849090   F   F   F
  0.8304767089442322  0.3585784129164225  0.5778210584194596   F   F   F
  0.0003588212918544  0.9453933708994455  0.5064597056724267   F   F   F
  0.9972718667758542  0.3009055523888051  0.5010263431268598   F   F   F
  0.9976735425975818  0.6587421859448526  0.5029615943256047   F   F   F
  0.3216018594886023  0.9471329184030424  0.5106798398168024   F   F   F
  0.3303145776581573  0.3008261459322767  0.5003741209173569   F   F   F
  0.3308199325092147  0.6593397885734475  0.5020390466261020   F   F   F
  0.6701585006184274  0.9456004415047872  0.5115347880898113   F   F   F
  0.6653996573973373  0.3008647948848093  0.5005172996520386   F   F   F
  0.6647304982382352  0.6598771688846838  0.5035862500165891   F   F   F
  0.5364781365014863  0.8801538168397087  0.6861255755474716   T   T   T
  0.4657860503554332  0.8326160062980819  0.7193062404749142   T   T   T
  0.4010731527706852  0.8569958697580516  0.7387859693151692   T   T   T
 
  0.00000000E+00  0.00000000E+00  0.00000000E+00
  0.00000000E+00  0.00000000E+00  0.00000000E+00
  0.00000000E+00  0.00000000E+00  0.00000000E+00
  0.00000000E+00  0.00000000E+00  0.00000000E+00
  0.00000000E+00  0.00000000E+00  0.00000000E+00
  0.00000000E+00  0.00000000E+00  0.00000000E+00
  0.00000000E+00  0.00000000E+00  0.00000000E+00
  0.00000000E+00  0.00000000E+00  0.00000000E+00
  0.00000000E+00  0.00000000E+00  0.00000000E+00
  0.00000000E+00  0.00000000E+00  0.00000000E+00
  0.00000000E+00  0.00000000E+00  0.00000000E+00
  0.00000000E+00  0.00000000E+00  0.00000000E+00
  0.00000000E+00  0.00000000E+00  0.00000000E+00
  0.00000000E+00  0.00000000E+00  0.00000000E+00
  0.00000000E+00  0.00000000E+00  0.00000000E+00
  0.00000000E+00  0.00000000E+00  0.00000000E+00
  0.00000000E+00  0.00000000E+00  0.00000000E+00
  0.00000000E+00  0.00000000E+00  0.00000000E+00
  0.00000000E+00  0.00000000E+00  0.00000000E+00
  0.00000000E+00  0.00000000E+00  0.00000000E+00
  0.00000000E+00  0.00000000E+00  0.00000000E+00
  0.00000000E+00  0.00000000E+00  0.00000000E+00
  0.00000000E+00  0.00000000E+00  0.00000000E+00
  0.00000000E+00  0.00000000E+00  0.00000000E+00
  0.00000000E+00  0.00000000E+00  0.00000000E+00
  0.00000000E+00  0.00000000E+00  0.00000000E+00
  0.00000000E+00  0.00000000E+00  0.00000000E+00
  0.00000000E+00  0.00000000E+00  0.00000000E+00
  0.00000000E+00  0.00000000E+00  0.00000000E+00
  0.00000000E+00  0.00000000E+00  0.00000000E+00
  0.00000000E+00  0.00000000E+00  0.00000000E+00
  0.00000000E+00  0.00000000E+00  0.00000000E+00
  0.00000000E+00  0.00000000E+00  0.00000000E+00
  0.00000000E+00  0.00000000E+00  0.00000000E+00
  0.00000000E+00  0.00000000E+00  0.00000000E+00
  0.00000000E+00  0.00000000E+00  0.00000000E+00
  0.00000000E+00  0.00000000E+00  0.00000000E+00
  0.00000000E+00  0.00000000E+00  0.00000000E+00
  0.00000000E+00  0.00000000E+00  0.00000000E+00
  0.00000000E+00  0.00000000E+00  0.00000000E+00
  0.00000000E+00  0.00000000E+00  0.00000000E+00
  0.00000000E+00  0.00000000E+00  0.00000000E+00
  0.00000000E+00  0.00000000E+00  0.00000000E+00
  0.00000000E+00  0.00000000E+00  0.00000000E+00
  0.00000000E+00  0.00000000E+00  0.00000000E+00
  0.00000000E+00  0.00000000E+00  0.00000000E+00
  0.00000000E+00  0.00000000E+00  0.00000000E+00
  0.00000000E+00  0.00000000E+00  0.00000000E+00
  0.00000000E+00  0.00000000E+00  0.00000000E+00
  0.00000000E+00  0.00000000E+00  0.00000000E+00
  0.00000000E+00  0.00000000E+00  0.00000000E+00
  0.00000000E+00  0.00000000E+00  0.00000000E+00
  0.00000000E+00  0.00000000E+00  0.00000000E+00
  0.00000000E+00  0.00000000E+00  0.00000000E+00
  0.00000000E+00  0.00000000E+00  0.00000000E+00
  0.00000000E+00  0.00000000E+00  0.00000000E+00
  0.00000000E+00  0.00000000E+00  0.00000000E+00
  0.00000000E+00  0.00000000E+00  0.00000000E+00
  0.00000000E+00  0.00000000E+00  0.00000000E+00
  0.00000000E+00  0.00000000E+00  0.00000000E+00
  0.00000000E+00  0.00000000E+00  0.00000000E+00
  0.00000000E+00  0.00000000E+00  0.00000000E+00
  0.00000000E+00  0.00000000E+00  0.00000000E+00
