CONTCAR\(5)                             
   1.00000000000000     
    13.8191995620999997    0.0000000000000000    0.0000000000000000
     0.0000000000000000   12.6052999496000009    0.0000000000000000
     0.0000000000000000    0.0000000000000000   19.1947002411000014
   Te   W    O 
    32    16     1
Direct
  0.1250874524779555  0.3928088031073932  0.4222724132721741
  0.0005491471728604  0.1462811927008383  0.3919373769541869
  0.1248918628786453  0.0713767532220049  0.6113490373287888
  0.9991195294027757  0.3239652796516210  0.5774058880283263
  0.3750668791937335  0.3941885103182663  0.4208381409314679
  0.2503228920307901  0.1481127792512880  0.3919883231265148
  0.3750458616927925  0.0769148800713942  0.6123521342354341
  0.2500627055594194  0.3256561351551050  0.5777529066365786
  0.6248427025013039  0.3927552521324675  0.4222491361105986
  0.4995173307028773  0.1478859181647260  0.3919046418235028
  0.6251079284150444  0.0714170618148942  0.6113552248402225
  0.4999813656331384  0.3254813220031172  0.5777858307278360
  0.8749298125913513  0.3909509467233964  0.4203082748244165
  0.7494218246210896  0.1460180951770713  0.3920362140205464
  0.8750316489669455  0.0677108670413064  0.6108827100651900
  0.7507935357043899  0.3237908718713455  0.5772905020496870
  0.1277121252706581  0.8929318091806516  0.4262010439369009
  0.9982496054336774  0.6476492355217994  0.3895540393927998
  0.1237324441747923  0.5667438681212937  0.6084665305109463
  0.0032090706903736  0.8202005860697474  0.5792145535469305
  0.3750522968376984  0.8936687896816238  0.4241925921103333
  0.2504197833669263  0.6478274098623887  0.3906286102315085
  0.3750552385031902  0.5699521040052195  0.6099463433029615
  0.2576216263320446  0.8287206595311384  0.5837104773309905
  0.6223480713967084  0.8927817011016469  0.4263941375586655
  0.4997746808592984  0.6482463638836610  0.3907261704086692
  0.6262888735497596  0.5666108125748420  0.6085984528648826
  0.4925393125240807  0.8285984214694893  0.5838901177887682
  0.8750336993219909  0.8939998384503237  0.4243600006938336
  0.7514532756870692  0.6476989299699599  0.3896414265508996
  0.8749889437135605  0.5680363028146115  0.6090761581816124
  0.7468741046250964  0.8201221392057649  0.5793689775120011
  0.0009424273914621  0.0188209229625588  0.5071286171172857
  0.1253471986320940  0.1981898690781575  0.4959056927569029
  0.2525356934170233  0.0218444161794274  0.5083571251585087
  0.3750035657677809  0.2000012302500301  0.4956876364564404
  0.4974374393733759  0.0217406856460457  0.5083876497398579
  0.6245069632457485  0.1980510034375531  0.4958509983640133
  0.7491085223179109  0.0187417033406844  0.5072270550569336
  0.8750272841250242  0.1963293916941089  0.4954960463058441
  0.9976540451907813  0.5181508770498968  0.5036927515118803
  0.1214623335730570  0.6932553400033814  0.4937180385205642
  0.2519982043396208  0.5202886942184337  0.5050100490755198
  0.3750053590947056  0.6990164808037818  0.4955668403929300
  0.4981458938379409  0.5203102953980024  0.5050393594234361
  0.6285610480105513  0.6932993931166050  0.4939389842725024
  0.7522194292034726  0.5181009070701063  0.5037390664316460
  0.8749329346522391  0.6983163680547224  0.4953350902858965
  0.3749563809951403  0.8418587158461214  0.6500906802316444
 
  0.00000000E+00  0.00000000E+00  0.00000000E+00
  0.00000000E+00  0.00000000E+00  0.00000000E+00
  0.00000000E+00  0.00000000E+00  0.00000000E+00
  0.00000000E+00  0.00000000E+00  0.00000000E+00
  0.00000000E+00  0.00000000E+00  0.00000000E+00
  0.00000000E+00  0.00000000E+00  0.00000000E+00
  0.00000000E+00  0.00000000E+00  0.00000000E+00
  0.00000000E+00  0.00000000E+00  0.00000000E+00
  0.00000000E+00  0.00000000E+00  0.00000000E+00
  0.00000000E+00  0.00000000E+00  0.00000000E+00
  0.00000000E+00  0.00000000E+00  0.00000000E+00
  0.00000000E+00  0.00000000E+00  0.00000000E+00
  0.00000000E+00  0.00000000E+00  0.00000000E+00
  0.00000000E+00  0.00000000E+00  0.00000000E+00
  0.00000000E+00  0.00000000E+00  0.00000000E+00
  0.00000000E+00  0.00000000E+00  0.00000000E+00
  0.00000000E+00  0.00000000E+00  0.00000000E+00
  0.00000000E+00  0.00000000E+00  0.00000000E+00
  0.00000000E+00  0.00000000E+00  0.00000000E+00
  0.00000000E+00  0.00000000E+00  0.00000000E+00
  0.00000000E+00  0.00000000E+00  0.00000000E+00
  0.00000000E+00  0.00000000E+00  0.00000000E+00
  0.00000000E+00  0.00000000E+00  0.00000000E+00
  0.00000000E+00  0.00000000E+00  0.00000000E+00
  0.00000000E+00  0.00000000E+00  0.00000000E+00
  0.00000000E+00  0.00000000E+00  0.00000000E+00
  0.00000000E+00  0.00000000E+00  0.00000000E+00
  0.00000000E+00  0.00000000E+00  0.00000000E+00
  0.00000000E+00  0.00000000E+00  0.00000000E+00
  0.00000000E+00  0.00000000E+00  0.00000000E+00
  0.00000000E+00  0.00000000E+00  0.00000000E+00
  0.00000000E+00  0.00000000E+00  0.00000000E+00
  0.00000000E+00  0.00000000E+00  0.00000000E+00
  0.00000000E+00  0.00000000E+00  0.00000000E+00
  0.00000000E+00  0.00000000E+00  0.00000000E+00
  0.00000000E+00  0.00000000E+00  0.00000000E+00
  0.00000000E+00  0.00000000E+00  0.00000000E+00
  0.00000000E+00  0.00000000E+00  0.00000000E+00
  0.00000000E+00  0.00000000E+00  0.00000000E+00
  0.00000000E+00  0.00000000E+00  0.00000000E+00
  0.00000000E+00  0.00000000E+00  0.00000000E+00
  0.00000000E+00  0.00000000E+00  0.00000000E+00
  0.00000000E+00  0.00000000E+00  0.00000000E+00
  0.00000000E+00  0.00000000E+00  0.00000000E+00
  0.00000000E+00  0.00000000E+00  0.00000000E+00
  0.00000000E+00  0.00000000E+00  0.00000000E+00
  0.00000000E+00  0.00000000E+00  0.00000000E+00
  0.00000000E+00  0.00000000E+00  0.00000000E+00
  0.00000000E+00  0.00000000E+00  0.00000000E+00
