CONTCAR\(5)                             
   1.00000000000000     
    13.2600002288999992    0.0000000000000000    0.0000000000000000
    -6.6300199930000003   11.4834855754999996    0.0000000000000000
     0.0000000000000000    0.0000000000000000   20.2117004394999995
   Na   Zr   N    O    H 
    32    16    32     2     1
Direct
  0.1669495089404069  0.0832171425323775  0.3743535408180366
  0.0849764697960465  0.1690992212507100  0.6271798635004854
  0.4180026680830051  0.0840891526791075  0.3744587269739074
  0.3333313525968296  0.1671099851677865  0.6273918726406594
  0.6670418507706138  0.0842283077648485  0.3745940972583045
  0.5831853703507087  0.1665758129299824  0.6284016910975210
  0.9159719790390208  0.0835444846144941  0.3747512116801542
  0.8345859921668446  0.1678883094638625  0.6282357205266528
  0.1653680061335430  0.3319404764580255  0.3737664131789291
  0.1024406021487317  0.4262533316271386  0.6316000151361264
  0.4175779959647019  0.3325560005826390  0.3739876907344543
  0.3318437946212839  0.4224076238158572  0.6300972556421048
  0.6669772331823516  0.3328514743322241  0.3745982536664532
  0.5826100539740406  0.4168579125597358  0.6278065890177810
  0.9150735226691287  0.3325238261799798  0.3746188788145425
  0.8346258902470656  0.4168117219021349  0.6282018965258038
  0.1654168257223043  0.5834796143700793  0.3737387023905210
  0.0849582411545315  0.6659257876283520  0.6271762812966525
  0.4178655894463063  0.5839644207414030  0.3733546224367418
  0.3317691790426247  0.6593067657535830  0.6301163847380393
  0.6674844976849358  0.5830877850729650  0.3743873813368204
  0.5730293751619083  0.6615481996061467  0.6293823616169837
  0.9159626207126911  0.5825463417415767  0.3747355221494508
  0.8327128577453784  0.6667941289761604  0.6280243186724263
  0.1669237987198105  0.8337704654453918  0.3743682096708506
  0.0832178612962988  0.9166465310218820  0.6277091468156769
  0.4176118856448437  0.8350566835756970  0.3739763903183832
  0.3333211182892577  0.9162410364650498  0.6273631813578133
  0.6674418361727110  0.8344177537290084  0.3744270494142798
  0.5825419114137586  0.9158046159175441  0.6278018351421825
  0.9160269729885667  0.8330320314545698  0.3747868668378783
  0.8327186620601364  0.9159750738483312  0.6279949877034023
  0.0000185205301874  0.0002800368866075  0.5010980537370634
  0.2502437223698319  0.0001381101148378  0.5008356043328537
  0.5000203791481340  0.9997322382190116  0.5012944110542698
  0.7500432641950184  0.0001985547743462  0.5014358140578642
  0.0012655666175091  0.2513653687738484  0.5017394296924431
  0.2502311579096673  0.2509446582555145  0.5009153220268582
  0.5000269783932866  0.2503329845837081  0.5013024472899198
  0.7503118864970387  0.2501776268127375  0.5017911296967005
  0.0013035535168364  0.4999420231128517  0.5016959021433147
  0.2509116329889301  0.5004615811624794  0.4990177659157073
  0.4992564203964840  0.5002315833667480  0.5006534816040279
  0.7500517419279167  0.4998932649342594  0.5014154314260184
  0.0000286684073489  0.7498090648247379  0.5010634865740303
  0.2502338765613656  0.7492950967658839  0.5008983107996281
  0.4992737146925375  0.7491005091390562  0.5006558081515876
  0.7491293797004988  0.7495717490160156  0.5017249081627477
  0.1668474674075698  0.0837510446386395  0.5588957836925708
  0.0827224110754022  0.1656071735116445  0.4428649966185530
  0.4166428126333996  0.0833487070992633  0.5591786808887553
  0.3339787699953296  0.1663143946109804  0.4431773678611605
  0.6668346504857403  0.0833201315852518  0.5596561802142291
  0.5840542238129972  0.1670399696272953  0.4441268442445200
  0.9170485010775690  0.0835487391406151  0.5593717836057236
  0.8327533581888783  0.1665400650411754  0.4439789244874477
  0.1676889392181482  0.3338630307653639  0.5561211680713061
  0.0818054128925550  0.4159131198836233  0.4417792915399820
  0.4162750336248358  0.3341805036096850  0.5587947357821860
  0.3335128625101981  0.4156299347356653  0.4409589583403505
  0.6668388631371341  0.3335589315702108  0.5596562802521203
  0.5841068523922021  0.4162128771408154  0.4431179837151893
  0.9195411669710666  0.3348001608027055  0.5599401933800844
  0.8327568103056112  0.4162534633095107  0.4439687570784515
  0.1677163341781203  0.5838692627665496  0.5561133368884220
  0.0827166647782906  0.6671636773220677  0.4428501459847467
  0.4160289288746254  0.5830225451778847  0.5534840125798914
  0.3335110259686433  0.6679198427454183  0.4409527415987341
  0.6653047306696283  0.5833288177413634  0.5593118045742858
  0.5850532943865915  0.6675501799086827  0.4421326042249021
  0.9170549348660162  0.5835665852535242  0.5593404342243966
  0.8332265267225891  0.6663764922041849  0.4438936466632209
  0.1668388220667035  0.8331465468165360  0.5588690808578083
  0.0833180733750744  0.9166965680215016  0.4434899183260086
  0.4162877477397270  0.8321225654767891  0.5587888642836396
  0.3339848381054232  0.9177089828796655  0.4431632553355643
  0.6652984968547478  0.8320176473612287  0.5593179805033921
  0.5841243121077763  0.9179422282383255  0.4431162193922379
  0.9165866629910735  0.8333085447900523  0.5589712338213768
  0.8332415561628099  0.9169190071386262  0.4439175048661098
  0.4007271995299547  0.5755198202516708  0.7176008417300096
  0.2692621763289063  0.5094549783793241  0.7085311261073385
  0.4043620567716960  0.5776458765028507  0.7658241904902290
 
  0.00000000E+00  0.00000000E+00  0.00000000E+00
  0.00000000E+00  0.00000000E+00  0.00000000E+00
  0.00000000E+00  0.00000000E+00  0.00000000E+00
  0.00000000E+00  0.00000000E+00  0.00000000E+00
  0.00000000E+00  0.00000000E+00  0.00000000E+00
  0.00000000E+00  0.00000000E+00  0.00000000E+00
  0.00000000E+00  0.00000000E+00  0.00000000E+00
  0.00000000E+00  0.00000000E+00  0.00000000E+00
  0.00000000E+00  0.00000000E+00  0.00000000E+00
  0.00000000E+00  0.00000000E+00  0.00000000E+00
  0.00000000E+00  0.00000000E+00  0.00000000E+00
  0.00000000E+00  0.00000000E+00  0.00000000E+00
  0.00000000E+00  0.00000000E+00  0.00000000E+00
  0.00000000E+00  0.00000000E+00  0.00000000E+00
  0.00000000E+00  0.00000000E+00  0.00000000E+00
  0.00000000E+00  0.00000000E+00  0.00000000E+00
  0.00000000E+00  0.00000000E+00  0.00000000E+00
  0.00000000E+00  0.00000000E+00  0.00000000E+00
  0.00000000E+00  0.00000000E+00  0.00000000E+00
  0.00000000E+00  0.00000000E+00  0.00000000E+00
  0.00000000E+00  0.00000000E+00  0.00000000E+00
  0.00000000E+00  0.00000000E+00  0.00000000E+00
  0.00000000E+00  0.00000000E+00  0.00000000E+00
  0.00000000E+00  0.00000000E+00  0.00000000E+00
  0.00000000E+00  0.00000000E+00  0.00000000E+00
  0.00000000E+00  0.00000000E+00  0.00000000E+00
  0.00000000E+00  0.00000000E+00  0.00000000E+00
  0.00000000E+00  0.00000000E+00  0.00000000E+00
  0.00000000E+00  0.00000000E+00  0.00000000E+00
  0.00000000E+00  0.00000000E+00  0.00000000E+00
  0.00000000E+00  0.00000000E+00  0.00000000E+00
  0.00000000E+00  0.00000000E+00  0.00000000E+00
  0.00000000E+00  0.00000000E+00  0.00000000E+00
  0.00000000E+00  0.00000000E+00  0.00000000E+00
  0.00000000E+00  0.00000000E+00  0.00000000E+00
  0.00000000E+00  0.00000000E+00  0.00000000E+00
  0.00000000E+00  0.00000000E+00  0.00000000E+00
  0.00000000E+00  0.00000000E+00  0.00000000E+00
  0.00000000E+00  0.00000000E+00  0.00000000E+00
  0.00000000E+00  0.00000000E+00  0.00000000E+00
  0.00000000E+00  0.00000000E+00  0.00000000E+00
  0.00000000E+00  0.00000000E+00  0.00000000E+00
  0.00000000E+00  0.00000000E+00  0.00000000E+00
  0.00000000E+00  0.00000000E+00  0.00000000E+00
  0.00000000E+00  0.00000000E+00  0.00000000E+00
  0.00000000E+00  0.00000000E+00  0.00000000E+00
  0.00000000E+00  0.00000000E+00  0.00000000E+00
  0.00000000E+00  0.00000000E+00  0.00000000E+00
  0.00000000E+00  0.00000000E+00  0.00000000E+00
  0.00000000E+00  0.00000000E+00  0.00000000E+00
  0.00000000E+00  0.00000000E+00  0.00000000E+00
  0.00000000E+00  0.00000000E+00  0.00000000E+00
  0.00000000E+00  0.00000000E+00  0.00000000E+00
  0.00000000E+00  0.00000000E+00  0.00000000E+00
  0.00000000E+00  0.00000000E+00  0.00000000E+00
  0.00000000E+00  0.00000000E+00  0.00000000E+00
  0.00000000E+00  0.00000000E+00  0.00000000E+00
  0.00000000E+00  0.00000000E+00  0.00000000E+00
  0.00000000E+00  0.00000000E+00  0.00000000E+00
  0.00000000E+00  0.00000000E+00  0.00000000E+00
  0.00000000E+00  0.00000000E+00  0.00000000E+00
  0.00000000E+00  0.00000000E+00  0.00000000E+00
  0.00000000E+00  0.00000000E+00  0.00000000E+00
  0.00000000E+00  0.00000000E+00  0.00000000E+00
  0.00000000E+00  0.00000000E+00  0.00000000E+00
  0.00000000E+00  0.00000000E+00  0.00000000E+00
  0.00000000E+00  0.00000000E+00  0.00000000E+00
  0.00000000E+00  0.00000000E+00  0.00000000E+00
  0.00000000E+00  0.00000000E+00  0.00000000E+00
  0.00000000E+00  0.00000000E+00  0.00000000E+00
  0.00000000E+00  0.00000000E+00  0.00000000E+00
  0.00000000E+00  0.00000000E+00  0.00000000E+00
  0.00000000E+00  0.00000000E+00  0.00000000E+00
  0.00000000E+00  0.00000000E+00  0.00000000E+00
  0.00000000E+00  0.00000000E+00  0.00000000E+00
  0.00000000E+00  0.00000000E+00  0.00000000E+00
  0.00000000E+00  0.00000000E+00  0.00000000E+00
  0.00000000E+00  0.00000000E+00  0.00000000E+00
  0.00000000E+00  0.00000000E+00  0.00000000E+00
  0.00000000E+00  0.00000000E+00  0.00000000E+00
  0.00000000E+00  0.00000000E+00  0.00000000E+00
  0.00000000E+00  0.00000000E+00  0.00000000E+00
  0.00000000E+00  0.00000000E+00  0.00000000E+00
