CONTCAR                                 
   1.00000000000000     
    14.3262996674000007    0.0000000000000000    0.0000000000000000
     0.0000000000000000   12.4329004288000000    0.0000000000000000
     0.0000000000000000    0.0000000000000000   21.7000007629000002
   Cu   I    O 
    12    24    72
Direct
  0.1666699900000026  0.2500000000000000  0.5000000000000000
  0.1666699900000026  0.0000000000000000  0.5000000000000000
  0.5000000000000000  0.2500000000000000  0.5000000000000000
  0.5000000000000000  0.0000000000000000  0.5000000000000000
  0.8333299609999969  0.2500000000000000  0.5000000000000000
  0.8333299609999969  0.0000000000000000  0.5000000000000000
  0.1666699900000026  0.7500000189999980  0.5000000000000000
  0.1666699900000026  0.5000000000000000  0.5000000000000000
  0.5000000000000000  0.7500000189999980  0.5000000000000000
  0.5000000000000000  0.5000000000000000  0.5000000000000000
  0.8333299609999969  0.7500000189999980  0.5000000000000000
  0.8333299609999969  0.5000000000000000  0.5000000000000000
  0.1853826942278676  0.3749899990000003  0.3685548958787378
  0.0154568840506071  0.1250000000000000  0.3953028403121831
  0.3178730999493952  0.3750000100000008  0.6046971596878171
  0.1479472997721285  0.1250100009999997  0.6314451041212623
  0.5187127042278720  0.3749899990000003  0.3685548958787378
  0.3487968730506095  0.1250000000000000  0.3953028403121831
  0.6512031609493933  0.3750000100000008  0.6046971596878171
  0.4812872957721278  0.1250100009999997  0.6314451041212623
  0.8520526842278701  0.3749899990000003  0.3685548958787378
  0.6821268660506090  0.1250000000000000  0.3953028403121831
  0.9845431069493957  0.3750000100000008  0.6046971596878171
  0.8146172887721276  0.1250100009999997  0.6314451041212623
  0.1853826942278676  0.8749899609999972  0.3685548958787378
  0.0154568840506071  0.6249999899999992  0.3953028403121831
  0.3178730999493952  0.8750000100000008  0.6046971596878171
  0.1479472997721285  0.6250100009999997  0.6314451041212623
  0.5187127042278720  0.8749899609999972  0.3685548958787378
  0.3487968730506095  0.6249999899999992  0.3953028403121831
  0.6512031609493933  0.8750000100000008  0.6046971596878171
  0.4812872957721278  0.6250100009999997  0.6314451041212623
  0.8520526842278701  0.8749899609999972  0.3685548958787378
  0.6821268660506090  0.6249999899999992  0.3953028403121831
  0.9845431069493957  0.8750000100000008  0.6046971596878171
  0.8146172887721276  0.6250100009999997  0.6314451041212623
  0.2412221128976568  0.4876049462870451  0.5756783023185017
  0.0921078731023457  0.0123950267129563  0.4243216976814982
  0.1115233892952717  0.1250000000000000  0.5461182786339216
  0.2218066127047322  0.3750000100000008  0.4538817213660785
  0.2674086235531400  0.1250100009999997  0.4585701068270131
  0.0732827121400327  0.2361909537676972  0.6571458662958435
  0.0921078731023457  0.2376049652870501  0.4243216976814982
  0.0732827121400327  0.0138090402323024  0.6571458662958435
  0.2600472818599704  0.2638090462323029  0.3428541777041604
  0.2600572998599680  0.4861909727676951  0.3428541777041604
  0.2412221128976568  0.2623950347129498  0.5756783023185017
  0.0659313714468629  0.3749899990000003  0.5414298931729871
  0.5745621248976577  0.4876049462870451  0.5756783023185017
  0.4254378751023424  0.0123950267129563  0.4243216976814982
  0.4448533752952742  0.1250000000000000  0.5461182786339216
  0.5551465917047268  0.3750000100000008  0.4538817213660785
  0.6007386505531424  0.1250100009999997  0.4585701068270131
  0.4066127061400288  0.2361909537676972  0.6571458662958435
  0.4254478601023408  0.2376049652870501  0.4243216976814982
  0.4066127061400288  0.0138090402323024  0.6571458662958435
  0.5933872608599720  0.2638090462323029  0.3428541777041604
  0.5933872608599720  0.4861909727676951  0.3428541777041604
  0.5745521398976593  0.2623950347129498  0.5756783023185017
  0.3992613824468568  0.3749899990000003  0.5414298931729871
  0.9078921518976600  0.4876049462870451  0.5756783023185017
  0.7587778871023431  0.0123950267129563  0.4243216976814982
  0.7781934212952705  0.1250000000000000  0.5461182786339216
  0.8884766187047292  0.3750000100000008  0.4538817213660785
  0.9340686115531392  0.1250100009999997  0.4585701068270131
  0.7399527521400324  0.2361909537676972  0.6571458662958435
  0.7587778871023431  0.2376049652870501  0.4243216976814982
  0.7399427001400321  0.0138090402323024  0.6571458662958435
  0.9267172878599672  0.2638090462323029  0.3428541777041604
  0.9267172878599672  0.4861909727676951  0.3428541777041604
  0.9078921518976600  0.2623950347129498  0.5756783023185017
  0.7325913764468600  0.3749899990000003  0.5414298931729871
  0.2412221128976568  0.9876049842870483  0.5756783023185017
  0.0921078731023457  0.5123950537129548  0.4243216976814982
  0.1115233892952717  0.6249999899999992  0.5461182786339216
  0.2218066127047322  0.8750000100000008  0.4538817213660785
  0.2674086235531400  0.6250100009999997  0.4585701068270131
  0.0732827121400327  0.7361909537676969  0.6571458662958435
  0.0921078731023457  0.7376049272870472  0.4243216976814982
  0.0732827121400327  0.5138090272323050  0.6571458662958435
  0.2600472818599704  0.7638090082323070  0.3428541777041604
  0.2600572998599680  0.9861909347676918  0.3428541777041604
  0.2412221128976568  0.7623950347129497  0.5756783023185017
  0.0659313714468629  0.8749899609999972  0.5414298931729871
  0.5745621248976577  0.9876049842870483  0.5756783023185017
  0.4254378751023424  0.5123950537129548  0.4243216976814982
  0.4448533752952742  0.6249999899999992  0.5461182786339216
  0.5551465917047268  0.8750000100000008  0.4538817213660785
  0.6007386505531424  0.6250100009999997  0.4585701068270131
  0.4066127061400288  0.7361909537676969  0.6571458662958435
  0.4254478601023408  0.7376049272870472  0.4243216976814982
  0.4066127061400288  0.5138090272323050  0.6571458662958435
  0.5933872608599720  0.7638090082323070  0.3428541777041604
  0.5933872608599720  0.9861909347676918  0.3428541777041604
  0.5745521398976593  0.7623950347129497  0.5756783023185017
  0.3992613824468568  0.8749899609999972  0.5414298931729871
  0.9078921518976600  0.9876049842870483  0.5756783023185017
  0.7587778871023431  0.5123950537129548  0.4243216976814982
  0.7781934212952705  0.6249999899999992  0.5461182786339216
  0.8884766187047292  0.8750000100000008  0.4538817213660785
  0.9340686115531392  0.6250100009999997  0.4585701068270131
  0.7399527521400324  0.7361909537676969  0.6571458662958435
  0.7587778871023431  0.7376049272870472  0.4243216976814982
  0.7399427001400321  0.5138090272323050  0.6571458662958435
  0.9267172878599672  0.7638090082323070  0.3428541777041604
  0.9267172878599672  0.9861909347676918  0.3428541777041604
  0.9078921518976600  0.7623950347129497  0.5756783023185017
  0.7325913764468600  0.8749899609999972  0.5414298931729871
 
  0.00000000E+00  0.00000000E+00  0.00000000E+00
  0.00000000E+00  0.00000000E+00  0.00000000E+00
  0.00000000E+00  0.00000000E+00  0.00000000E+00
  0.00000000E+00  0.00000000E+00  0.00000000E+00
  0.00000000E+00  0.00000000E+00  0.00000000E+00
  0.00000000E+00  0.00000000E+00  0.00000000E+00
  0.00000000E+00  0.00000000E+00  0.00000000E+00
  0.00000000E+00  0.00000000E+00  0.00000000E+00
  0.00000000E+00  0.00000000E+00  0.00000000E+00
  0.00000000E+00  0.00000000E+00  0.00000000E+00
  0.00000000E+00  0.00000000E+00  0.00000000E+00
  0.00000000E+00  0.00000000E+00  0.00000000E+00
  0.00000000E+00  0.00000000E+00  0.00000000E+00
  0.00000000E+00  0.00000000E+00  0.00000000E+00
  0.00000000E+00  0.00000000E+00  0.00000000E+00
  0.00000000E+00  0.00000000E+00  0.00000000E+00
  0.00000000E+00  0.00000000E+00  0.00000000E+00
  0.00000000E+00  0.00000000E+00  0.00000000E+00
  0.00000000E+00  0.00000000E+00  0.00000000E+00
  0.00000000E+00  0.00000000E+00  0.00000000E+00
  0.00000000E+00  0.00000000E+00  0.00000000E+00
  0.00000000E+00  0.00000000E+00  0.00000000E+00
  0.00000000E+00  0.00000000E+00  0.00000000E+00
  0.00000000E+00  0.00000000E+00  0.00000000E+00
  0.00000000E+00  0.00000000E+00  0.00000000E+00
  0.00000000E+00  0.00000000E+00  0.00000000E+00
  0.00000000E+00  0.00000000E+00  0.00000000E+00
  0.00000000E+00  0.00000000E+00  0.00000000E+00
  0.00000000E+00  0.00000000E+00  0.00000000E+00
  0.00000000E+00  0.00000000E+00  0.00000000E+00
  0.00000000E+00  0.00000000E+00  0.00000000E+00
  0.00000000E+00  0.00000000E+00  0.00000000E+00
  0.00000000E+00  0.00000000E+00  0.00000000E+00
  0.00000000E+00  0.00000000E+00  0.00000000E+00
  0.00000000E+00  0.00000000E+00  0.00000000E+00
  0.00000000E+00  0.00000000E+00  0.00000000E+00
  0.00000000E+00  0.00000000E+00  0.00000000E+00
  0.00000000E+00  0.00000000E+00  0.00000000E+00
  0.00000000E+00  0.00000000E+00  0.00000000E+00
  0.00000000E+00  0.00000000E+00  0.00000000E+00
  0.00000000E+00  0.00000000E+00  0.00000000E+00
  0.00000000E+00  0.00000000E+00  0.00000000E+00
  0.00000000E+00  0.00000000E+00  0.00000000E+00
  0.00000000E+00  0.00000000E+00  0.00000000E+00
  0.00000000E+00  0.00000000E+00  0.00000000E+00
  0.00000000E+00  0.00000000E+00  0.00000000E+00
  0.00000000E+00  0.00000000E+00  0.00000000E+00
  0.00000000E+00  0.00000000E+00  0.00000000E+00
  0.00000000E+00  0.00000000E+00  0.00000000E+00
  0.00000000E+00  0.00000000E+00  0.00000000E+00
  0.00000000E+00  0.00000000E+00  0.00000000E+00
  0.00000000E+00  0.00000000E+00  0.00000000E+00
  0.00000000E+00  0.00000000E+00  0.00000000E+00
  0.00000000E+00  0.00000000E+00  0.00000000E+00
  0.00000000E+00  0.00000000E+00  0.00000000E+00
  0.00000000E+00  0.00000000E+00  0.00000000E+00
  0.00000000E+00  0.00000000E+00  0.00000000E+00
  0.00000000E+00  0.00000000E+00  0.00000000E+00
  0.00000000E+00  0.00000000E+00  0.00000000E+00
  0.00000000E+00  0.00000000E+00  0.00000000E+00
  0.00000000E+00  0.00000000E+00  0.00000000E+00
  0.00000000E+00  0.00000000E+00  0.00000000E+00
  0.00000000E+00  0.00000000E+00  0.00000000E+00
  0.00000000E+00  0.00000000E+00  0.00000000E+00
  0.00000000E+00  0.00000000E+00  0.00000000E+00
  0.00000000E+00  0.00000000E+00  0.00000000E+00
  0.00000000E+00  0.00000000E+00  0.00000000E+00
  0.00000000E+00  0.00000000E+00  0.00000000E+00
  0.00000000E+00  0.00000000E+00  0.00000000E+00
  0.00000000E+00  0.00000000E+00  0.00000000E+00
  0.00000000E+00  0.00000000E+00  0.00000000E+00
  0.00000000E+00  0.00000000E+00  0.00000000E+00
  0.00000000E+00  0.00000000E+00  0.00000000E+00
  0.00000000E+00  0.00000000E+00  0.00000000E+00
  0.00000000E+00  0.00000000E+00  0.00000000E+00
  0.00000000E+00  0.00000000E+00  0.00000000E+00
  0.00000000E+00  0.00000000E+00  0.00000000E+00
  0.00000000E+00  0.00000000E+00  0.00000000E+00
  0.00000000E+00  0.00000000E+00  0.00000000E+00
  0.00000000E+00  0.00000000E+00  0.00000000E+00
  0.00000000E+00  0.00000000E+00  0.00000000E+00
  0.00000000E+00  0.00000000E+00  0.00000000E+00
  0.00000000E+00  0.00000000E+00  0.00000000E+00
  0.00000000E+00  0.00000000E+00  0.00000000E+00
  0.00000000E+00  0.00000000E+00  0.00000000E+00
  0.00000000E+00  0.00000000E+00  0.00000000E+00
  0.00000000E+00  0.00000000E+00  0.00000000E+00
  0.00000000E+00  0.00000000E+00  0.00000000E+00
  0.00000000E+00  0.00000000E+00  0.00000000E+00
  0.00000000E+00  0.00000000E+00  0.00000000E+00
  0.00000000E+00  0.00000000E+00  0.00000000E+00
  0.00000000E+00  0.00000000E+00  0.00000000E+00
  0.00000000E+00  0.00000000E+00  0.00000000E+00
  0.00000000E+00  0.00000000E+00  0.00000000E+00
  0.00000000E+00  0.00000000E+00  0.00000000E+00
  0.00000000E+00  0.00000000E+00  0.00000000E+00
  0.00000000E+00  0.00000000E+00  0.00000000E+00
  0.00000000E+00  0.00000000E+00  0.00000000E+00
  0.00000000E+00  0.00000000E+00  0.00000000E+00
  0.00000000E+00  0.00000000E+00  0.00000000E+00
  0.00000000E+00  0.00000000E+00  0.00000000E+00
  0.00000000E+00  0.00000000E+00  0.00000000E+00
  0.00000000E+00  0.00000000E+00  0.00000000E+00
  0.00000000E+00  0.00000000E+00  0.00000000E+00
  0.00000000E+00  0.00000000E+00  0.00000000E+00
  0.00000000E+00  0.00000000E+00  0.00000000E+00
  0.00000000E+00  0.00000000E+00  0.00000000E+00
  0.00000000E+00  0.00000000E+00  0.00000000E+00
