 La4 I10                                
   1.00000000000000     
     4.3650642753505151    0.0000000000000000    0.0000000000000000
     0.0000000000000000   17.1204229675625506    0.0000000000000000
     0.0000000000000000    0.0000000000000000   20.8015945403779980
   La   I 
     4    10
Direct
  0.7499996290045559  0.1102936123473910  0.5208905051047594
  0.2500002771114112  0.8352435570234817  0.4791192942246170
  0.7500000358170169  0.6090938234568739  0.5287649832242067
  0.2500000038735237  0.3364417134544198  0.4712369993823202
  0.7499999511654707  0.3489295347668957  0.3604929163259243
  0.2500000275172667  0.5965043840811148  0.6394945660520506
  0.7500000793217367  0.9570940157008678  0.4164902306307923
  0.2499998295005597  0.9884278296778817  0.5835100395120207
  0.2500000121059500  0.5311257561830871  0.4321966367487065
  0.7499999586085693  0.4144363577688921  0.5677774297309668
  0.2499998369367802  0.2175872537232095  0.5984857650685242
  0.7500001995609722  0.7279412456725183  0.4015177260950438
  0.2499999968656113  0.1572706572721501  0.4129046268927894
  0.7500001626105828  0.7882492588712253  0.5871182810072852
 
  0.00000000E+00  0.00000000E+00  0.00000000E+00
  0.00000000E+00  0.00000000E+00  0.00000000E+00
  0.00000000E+00  0.00000000E+00  0.00000000E+00
  0.00000000E+00  0.00000000E+00  0.00000000E+00
  0.00000000E+00  0.00000000E+00  0.00000000E+00
  0.00000000E+00  0.00000000E+00  0.00000000E+00
  0.00000000E+00  0.00000000E+00  0.00000000E+00
  0.00000000E+00  0.00000000E+00  0.00000000E+00
  0.00000000E+00  0.00000000E+00  0.00000000E+00
  0.00000000E+00  0.00000000E+00  0.00000000E+00
  0.00000000E+00  0.00000000E+00  0.00000000E+00
  0.00000000E+00  0.00000000E+00  0.00000000E+00
  0.00000000E+00  0.00000000E+00  0.00000000E+00
  0.00000000E+00  0.00000000E+00  0.00000000E+00
