 Zr2 Cl6                                
   1.00000000000000     
     6.0549459243126549    0.0000000000000000    0.0000000000000000
     3.0228503477652215    5.4346751700446090    0.0000000000000000
     0.0000000000000000    0.0000000000000000   18.1751860204959996
   Zr   Cl
     2     6
Direct
  0.3190527642445673  0.3610757419504225  0.5000123447678817
  0.6809472456942132  0.6389242346009780  0.4999876544359978
  0.3367226352279715  0.9997965923711618  0.5750057378343172
  0.9977321379412203  0.3376453146781984  0.4119852060029885
  0.6644849083169504  0.3375549343738342  0.5878546125306130
  0.3355150790639811  0.6624450827933615  0.4121453973072207
  0.0022678544740415  0.6623546986746689  0.5880147834646365
  0.6632773750370617  0.0002034005573748  0.4249942636563446
 
  0.00000000E+00  0.00000000E+00  0.00000000E+00
  0.00000000E+00  0.00000000E+00  0.00000000E+00
  0.00000000E+00  0.00000000E+00  0.00000000E+00
  0.00000000E+00  0.00000000E+00  0.00000000E+00
  0.00000000E+00  0.00000000E+00  0.00000000E+00
  0.00000000E+00  0.00000000E+00  0.00000000E+00
  0.00000000E+00  0.00000000E+00  0.00000000E+00
  0.00000000E+00  0.00000000E+00  0.00000000E+00
