G   39   38    1    0.005     # Parameters to Generate KPOINTS (Don't Edit This Line)
     742
Reciprocal lattice
    0.000000000000    0.000000000000    0.000000000000       1
    0.025641025641    0.000000000000    0.000000000000       2
    0.051282051282    0.000000000000    0.000000000000       2
    0.076923076923    0.000000000000    0.000000000000       2
    0.102564102564    0.000000000000    0.000000000000       2
    0.128205128205    0.000000000000    0.000000000000       2
    0.153846153846    0.000000000000    0.000000000000       2
    0.179487179487    0.000000000000    0.000000000000       2
    0.205128205128    0.000000000000    0.000000000000       2
    0.230769230769    0.000000000000    0.000000000000       2
    0.256410256410    0.000000000000    0.000000000000       2
    0.282051282051    0.000000000000    0.000000000000       2
    0.307692307692    0.000000000000    0.000000000000       2
    0.333333333333    0.000000000000    0.000000000000       2
    0.358974358974    0.000000000000    0.000000000000       2
    0.384615384615    0.000000000000    0.000000000000       2
    0.410256410256    0.000000000000    0.000000000000       2
    0.435897435897    0.000000000000    0.000000000000       2
    0.461538461538    0.000000000000    0.000000000000       2
    0.487179487179    0.000000000000    0.000000000000       2
    0.000000000000    0.026315789474    0.000000000000       2
    0.025641025641    0.026315789474    0.000000000000       2
    0.051282051282    0.026315789474    0.000000000000       2
    0.076923076923    0.026315789474    0.000000000000       2
    0.102564102564    0.026315789474    0.000000000000       2
    0.128205128205    0.026315789474    0.000000000000       2
    0.153846153846    0.026315789474    0.000000000000       2
    0.179487179487    0.026315789474    0.000000000000       2
    0.205128205128    0.026315789474    0.000000000000       2
    0.230769230769    0.026315789474    0.000000000000       2
    0.256410256410    0.026315789474    0.000000000000       2
    0.282051282051    0.026315789474    0.000000000000       2
    0.307692307692    0.026315789474    0.000000000000       2
    0.333333333333    0.026315789474    0.000000000000       2
    0.358974358974    0.026315789474    0.000000000000       2
    0.384615384615    0.026315789474    0.000000000000       2
    0.410256410256    0.026315789474    0.000000000000       2
    0.435897435897    0.026315789474    0.000000000000       2
    0.461538461538    0.026315789474    0.000000000000       2
    0.487179487179    0.026315789474    0.000000000000       2
   -0.487179487179    0.026315789474    0.000000000000       2
   -0.461538461538    0.026315789474    0.000000000000       2
   -0.435897435897    0.026315789474    0.000000000000       2
   -0.410256410256    0.026315789474    0.000000000000       2
   -0.384615384615    0.026315789474    0.000000000000       2
   -0.358974358974    0.026315789474    0.000000000000       2
   -0.333333333333    0.026315789474    0.000000000000       2
   -0.307692307692    0.026315789474    0.000000000000       2
   -0.282051282051    0.026315789474    0.000000000000       2
   -0.256410256410    0.026315789474    0.000000000000       2
   -0.230769230769    0.026315789474    0.000000000000       2
   -0.205128205128    0.026315789474    0.000000000000       2
   -0.179487179487    0.026315789474    0.000000000000       2
   -0.153846153846    0.026315789474    0.000000000000       2
   -0.128205128205    0.026315789474    0.000000000000       2
   -0.102564102564    0.026315789474    0.000000000000       2
   -0.076923076923    0.026315789474    0.000000000000       2
   -0.051282051282    0.026315789474    0.000000000000       2
   -0.025641025641    0.026315789474    0.000000000000       2
    0.000000000000    0.052631578947    0.000000000000       2
    0.025641025641    0.052631578947    0.000000000000       2
    0.051282051282    0.052631578947    0.000000000000       2
    0.076923076923    0.052631578947    0.000000000000       2
    0.102564102564    0.052631578947    0.000000000000       2
    0.128205128205    0.052631578947    0.000000000000       2
    0.153846153846    0.052631578947    0.000000000000       2
    0.179487179487    0.052631578947    0.000000000000       2
    0.205128205128    0.052631578947    0.000000000000       2
    0.230769230769    0.052631578947    0.000000000000       2
    0.256410256410    0.052631578947    0.000000000000       2
    0.282051282051    0.052631578947    0.000000000000       2
    0.307692307692    0.052631578947    0.000000000000       2
    0.333333333333    0.052631578947    0.000000000000       2
    0.358974358974    0.052631578947    0.000000000000       2
    0.384615384615    0.052631578947    0.000000000000       2
    0.410256410256    0.052631578947    0.000000000000       2
    0.435897435897    0.052631578947    0.000000000000       2
    0.461538461538    0.052631578947    0.000000000000       2
    0.487179487179    0.052631578947    0.000000000000       2
   -0.487179487179    0.052631578947    0.000000000000       2
   -0.461538461538    0.052631578947    0.000000000000       2
   -0.435897435897    0.052631578947    0.000000000000       2
   -0.410256410256    0.052631578947    0.000000000000       2
   -0.384615384615    0.052631578947    0.000000000000       2
   -0.358974358974    0.052631578947    0.000000000000       2
   -0.333333333333    0.052631578947    0.000000000000       2
   -0.307692307692    0.052631578947    0.000000000000       2
   -0.282051282051    0.052631578947    0.000000000000       2
   -0.256410256410    0.052631578947    0.000000000000       2
   -0.230769230769    0.052631578947    0.000000000000       2
   -0.205128205128    0.052631578947    0.000000000000       2
   -0.179487179487    0.052631578947    0.000000000000       2
   -0.153846153846    0.052631578947    0.000000000000       2
   -0.128205128205    0.052631578947    0.000000000000       2
   -0.102564102564    0.052631578947    0.000000000000       2
   -0.076923076923    0.052631578947    0.000000000000       2
   -0.051282051282    0.052631578947    0.000000000000       2
   -0.025641025641    0.052631578947    0.000000000000       2
    0.000000000000    0.078947368421    0.000000000000       2
    0.025641025641    0.078947368421    0.000000000000       2
    0.051282051282    0.078947368421    0.000000000000       2
    0.076923076923    0.078947368421    0.000000000000       2
    0.102564102564    0.078947368421    0.000000000000       2
    0.128205128205    0.078947368421    0.000000000000       2
    0.153846153846    0.078947368421    0.000000000000       2
    0.179487179487    0.078947368421    0.000000000000       2
    0.205128205128    0.078947368421    0.000000000000       2
    0.230769230769    0.078947368421    0.000000000000       2
    0.256410256410    0.078947368421    0.000000000000       2
    0.282051282051    0.078947368421    0.000000000000       2
    0.307692307692    0.078947368421    0.000000000000       2
    0.333333333333    0.078947368421    0.000000000000       2
    0.358974358974    0.078947368421    0.000000000000       2
    0.384615384615    0.078947368421    0.000000000000       2
    0.410256410256    0.078947368421    0.000000000000       2
    0.435897435897    0.078947368421    0.000000000000       2
    0.461538461538    0.078947368421    0.000000000000       2
    0.487179487179    0.078947368421    0.000000000000       2
   -0.487179487179    0.078947368421    0.000000000000       2
   -0.461538461538    0.078947368421    0.000000000000       2
   -0.435897435897    0.078947368421    0.000000000000       2
   -0.410256410256    0.078947368421    0.000000000000       2
   -0.384615384615    0.078947368421    0.000000000000       2
   -0.358974358974    0.078947368421    0.000000000000       2
   -0.333333333333    0.078947368421    0.000000000000       2
   -0.307692307692    0.078947368421    0.000000000000       2
   -0.282051282051    0.078947368421    0.000000000000       2
   -0.256410256410    0.078947368421    0.000000000000       2
   -0.230769230769    0.078947368421    0.000000000000       2
   -0.205128205128    0.078947368421    0.000000000000       2
   -0.179487179487    0.078947368421    0.000000000000       2
   -0.153846153846    0.078947368421    0.000000000000       2
   -0.128205128205    0.078947368421    0.000000000000       2
   -0.102564102564    0.078947368421    0.000000000000       2
   -0.076923076923    0.078947368421    0.000000000000       2
   -0.051282051282    0.078947368421    0.000000000000       2
   -0.025641025641    0.078947368421    0.000000000000       2
    0.000000000000    0.105263157895    0.000000000000       2
    0.025641025641    0.105263157895    0.000000000000       2
    0.051282051282    0.105263157895    0.000000000000       2
    0.076923076923    0.105263157895    0.000000000000       2
    0.102564102564    0.105263157895    0.000000000000       2
    0.128205128205    0.105263157895    0.000000000000       2
    0.153846153846    0.105263157895    0.000000000000       2
    0.179487179487    0.105263157895    0.000000000000       2
    0.205128205128    0.105263157895    0.000000000000       2
    0.230769230769    0.105263157895    0.000000000000       2
    0.256410256410    0.105263157895    0.000000000000       2
    0.282051282051    0.105263157895    0.000000000000       2
    0.307692307692    0.105263157895    0.000000000000       2
    0.333333333333    0.105263157895    0.000000000000       2
    0.358974358974    0.105263157895    0.000000000000       2
    0.384615384615    0.105263157895    0.000000000000       2
    0.410256410256    0.105263157895    0.000000000000       2
    0.435897435897    0.105263157895    0.000000000000       2
    0.461538461538    0.105263157895    0.000000000000       2
    0.487179487179    0.105263157895    0.000000000000       2
   -0.487179487179    0.105263157895    0.000000000000       2
   -0.461538461538    0.105263157895    0.000000000000       2
   -0.435897435897    0.105263157895    0.000000000000       2
   -0.410256410256    0.105263157895    0.000000000000       2
   -0.384615384615    0.105263157895    0.000000000000       2
   -0.358974358974    0.105263157895    0.000000000000       2
   -0.333333333333    0.105263157895    0.000000000000       2
   -0.307692307692    0.105263157895    0.000000000000       2
   -0.282051282051    0.105263157895    0.000000000000       2
   -0.256410256410    0.105263157895    0.000000000000       2
   -0.230769230769    0.105263157895    0.000000000000       2
   -0.205128205128    0.105263157895    0.000000000000       2
   -0.179487179487    0.105263157895    0.000000000000       2
   -0.153846153846    0.105263157895    0.000000000000       2
   -0.128205128205    0.105263157895    0.000000000000       2
   -0.102564102564    0.105263157895    0.000000000000       2
   -0.076923076923    0.105263157895    0.000000000000       2
   -0.051282051282    0.105263157895    0.000000000000       2
   -0.025641025641    0.105263157895    0.000000000000       2
    0.000000000000    0.131578947368    0.000000000000       2
    0.025641025641    0.131578947368    0.000000000000       2
    0.051282051282    0.131578947368    0.000000000000       2
    0.076923076923    0.131578947368    0.000000000000       2
    0.102564102564    0.131578947368    0.000000000000       2
    0.128205128205    0.131578947368    0.000000000000       2
    0.153846153846    0.131578947368    0.000000000000       2
    0.179487179487    0.131578947368    0.000000000000       2
    0.205128205128    0.131578947368    0.000000000000       2
    0.230769230769    0.131578947368    0.000000000000       2
    0.256410256410    0.131578947368    0.000000000000       2
    0.282051282051    0.131578947368    0.000000000000       2
    0.307692307692    0.131578947368    0.000000000000       2
    0.333333333333    0.131578947368    0.000000000000       2
    0.358974358974    0.131578947368    0.000000000000       2
    0.384615384615    0.131578947368    0.000000000000       2
    0.410256410256    0.131578947368    0.000000000000       2
    0.435897435897    0.131578947368    0.000000000000       2
    0.461538461538    0.131578947368    0.000000000000       2
    0.487179487179    0.131578947368    0.000000000000       2
   -0.487179487179    0.131578947368    0.000000000000       2
   -0.461538461538    0.131578947368    0.000000000000       2
   -0.435897435897    0.131578947368    0.000000000000       2
   -0.410256410256    0.131578947368    0.000000000000       2
   -0.384615384615    0.131578947368    0.000000000000       2
   -0.358974358974    0.131578947368    0.000000000000       2
   -0.333333333333    0.131578947368    0.000000000000       2
   -0.307692307692    0.131578947368    0.000000000000       2
   -0.282051282051    0.131578947368    0.000000000000       2
   -0.256410256410    0.131578947368    0.000000000000       2
   -0.230769230769    0.131578947368    0.000000000000       2
   -0.205128205128    0.131578947368    0.000000000000       2
   -0.179487179487    0.131578947368    0.000000000000       2
   -0.153846153846    0.131578947368    0.000000000000       2
   -0.128205128205    0.131578947368    0.000000000000       2
   -0.102564102564    0.131578947368    0.000000000000       2
   -0.076923076923    0.131578947368    0.000000000000       2
   -0.051282051282    0.131578947368    0.000000000000       2
   -0.025641025641    0.131578947368    0.000000000000       2
    0.000000000000    0.157894736842    0.000000000000       2
    0.025641025641    0.157894736842    0.000000000000       2
    0.051282051282    0.157894736842    0.000000000000       2
    0.076923076923    0.157894736842    0.000000000000       2
    0.102564102564    0.157894736842    0.000000000000       2
    0.128205128205    0.157894736842    0.000000000000       2
    0.153846153846    0.157894736842    0.000000000000       2
    0.179487179487    0.157894736842    0.000000000000       2
    0.205128205128    0.157894736842    0.000000000000       2
    0.230769230769    0.157894736842    0.000000000000       2
    0.256410256410    0.157894736842    0.000000000000       2
    0.282051282051    0.157894736842    0.000000000000       2
    0.307692307692    0.157894736842    0.000000000000       2
    0.333333333333    0.157894736842    0.000000000000       2
    0.358974358974    0.157894736842    0.000000000000       2
    0.384615384615    0.157894736842    0.000000000000       2
    0.410256410256    0.157894736842    0.000000000000       2
    0.435897435897    0.157894736842    0.000000000000       2
    0.461538461538    0.157894736842    0.000000000000       2
    0.487179487179    0.157894736842    0.000000000000       2
   -0.487179487179    0.157894736842    0.000000000000       2
   -0.461538461538    0.157894736842    0.000000000000       2
   -0.435897435897    0.157894736842    0.000000000000       2
   -0.410256410256    0.157894736842    0.000000000000       2
   -0.384615384615    0.157894736842    0.000000000000       2
   -0.358974358974    0.157894736842    0.000000000000       2
   -0.333333333333    0.157894736842    0.000000000000       2
   -0.307692307692    0.157894736842    0.000000000000       2
   -0.282051282051    0.157894736842    0.000000000000       2
   -0.256410256410    0.157894736842    0.000000000000       2
   -0.230769230769    0.157894736842    0.000000000000       2
   -0.205128205128    0.157894736842    0.000000000000       2
   -0.179487179487    0.157894736842    0.000000000000       2
   -0.153846153846    0.157894736842    0.000000000000       2
   -0.128205128205    0.157894736842    0.000000000000       2
   -0.102564102564    0.157894736842    0.000000000000       2
   -0.076923076923    0.157894736842    0.000000000000       2
   -0.051282051282    0.157894736842    0.000000000000       2
   -0.025641025641    0.157894736842    0.000000000000       2
    0.000000000000    0.184210526316    0.000000000000       2
    0.025641025641    0.184210526316    0.000000000000       2
    0.051282051282    0.184210526316    0.000000000000       2
    0.076923076923    0.184210526316    0.000000000000       2
    0.102564102564    0.184210526316    0.000000000000       2
    0.128205128205    0.184210526316    0.000000000000       2
    0.153846153846    0.184210526316    0.000000000000       2
    0.179487179487    0.184210526316    0.000000000000       2
    0.205128205128    0.184210526316    0.000000000000       2
    0.230769230769    0.184210526316    0.000000000000       2
    0.256410256410    0.184210526316    0.000000000000       2
    0.282051282051    0.184210526316    0.000000000000       2
    0.307692307692    0.184210526316    0.000000000000       2
    0.333333333333    0.184210526316    0.000000000000       2
    0.358974358974    0.184210526316    0.000000000000       2
    0.384615384615    0.184210526316    0.000000000000       2
    0.410256410256    0.184210526316    0.000000000000       2
    0.435897435897    0.184210526316    0.000000000000       2
    0.461538461538    0.184210526316    0.000000000000       2
    0.487179487179    0.184210526316    0.000000000000       2
   -0.487179487179    0.184210526316    0.000000000000       2
   -0.461538461538    0.184210526316    0.000000000000       2
   -0.435897435897    0.184210526316    0.000000000000       2
   -0.410256410256    0.184210526316    0.000000000000       2
   -0.384615384615    0.184210526316    0.000000000000       2
   -0.358974358974    0.184210526316    0.000000000000       2
   -0.333333333333    0.184210526316    0.000000000000       2
   -0.307692307692    0.184210526316    0.000000000000       2
   -0.282051282051    0.184210526316    0.000000000000       2
   -0.256410256410    0.184210526316    0.000000000000       2
   -0.230769230769    0.184210526316    0.000000000000       2
   -0.205128205128    0.184210526316    0.000000000000       2
   -0.179487179487    0.184210526316    0.000000000000       2
   -0.153846153846    0.184210526316    0.000000000000       2
   -0.128205128205    0.184210526316    0.000000000000       2
   -0.102564102564    0.184210526316    0.000000000000       2
   -0.076923076923    0.184210526316    0.000000000000       2
   -0.051282051282    0.184210526316    0.000000000000       2
   -0.025641025641    0.184210526316    0.000000000000       2
    0.000000000000    0.210526315789    0.000000000000       2
    0.025641025641    0.210526315789    0.000000000000       2
    0.051282051282    0.210526315789    0.000000000000       2
    0.076923076923    0.210526315789    0.000000000000       2
    0.102564102564    0.210526315789    0.000000000000       2
    0.128205128205    0.210526315789    0.000000000000       2
    0.153846153846    0.210526315789    0.000000000000       2
    0.179487179487    0.210526315789    0.000000000000       2
    0.205128205128    0.210526315789    0.000000000000       2
    0.230769230769    0.210526315789    0.000000000000       2
    0.256410256410    0.210526315789    0.000000000000       2
    0.282051282051    0.210526315789    0.000000000000       2
    0.307692307692    0.210526315789    0.000000000000       2
    0.333333333333    0.210526315789    0.000000000000       2
    0.358974358974    0.210526315789    0.000000000000       2
    0.384615384615    0.210526315789    0.000000000000       2
    0.410256410256    0.210526315789    0.000000000000       2
    0.435897435897    0.210526315789    0.000000000000       2
    0.461538461538    0.210526315789    0.000000000000       2
    0.487179487179    0.210526315789    0.000000000000       2
   -0.487179487179    0.210526315789    0.000000000000       2
   -0.461538461538    0.210526315789    0.000000000000       2
   -0.435897435897    0.210526315789    0.000000000000       2
   -0.410256410256    0.210526315789    0.000000000000       2
   -0.384615384615    0.210526315789    0.000000000000       2
   -0.358974358974    0.210526315789    0.000000000000       2
   -0.333333333333    0.210526315789    0.000000000000       2
   -0.307692307692    0.210526315789    0.000000000000       2
   -0.282051282051    0.210526315789    0.000000000000       2
   -0.256410256410    0.210526315789    0.000000000000       2
   -0.230769230769    0.210526315789    0.000000000000       2
   -0.205128205128    0.210526315789    0.000000000000       2
   -0.179487179487    0.210526315789    0.000000000000       2
   -0.153846153846    0.210526315789    0.000000000000       2
   -0.128205128205    0.210526315789    0.000000000000       2
   -0.102564102564    0.210526315789    0.000000000000       2
   -0.076923076923    0.210526315789    0.000000000000       2
   -0.051282051282    0.210526315789    0.000000000000       2
   -0.025641025641    0.210526315789    0.000000000000       2
    0.000000000000    0.236842105263    0.000000000000       2
    0.025641025641    0.236842105263    0.000000000000       2
    0.051282051282    0.236842105263    0.000000000000       2
    0.076923076923    0.236842105263    0.000000000000       2
    0.102564102564    0.236842105263    0.000000000000       2
    0.128205128205    0.236842105263    0.000000000000       2
    0.153846153846    0.236842105263    0.000000000000       2
    0.179487179487    0.236842105263    0.000000000000       2
    0.205128205128    0.236842105263    0.000000000000       2
    0.230769230769    0.236842105263    0.000000000000       2
    0.256410256410    0.236842105263    0.000000000000       2
    0.282051282051    0.236842105263    0.000000000000       2
    0.307692307692    0.236842105263    0.000000000000       2
    0.333333333333    0.236842105263    0.000000000000       2
    0.358974358974    0.236842105263    0.000000000000       2
    0.384615384615    0.236842105263    0.000000000000       2
    0.410256410256    0.236842105263    0.000000000000       2
    0.435897435897    0.236842105263    0.000000000000       2
    0.461538461538    0.236842105263    0.000000000000       2
    0.487179487179    0.236842105263    0.000000000000       2
   -0.487179487179    0.236842105263    0.000000000000       2
   -0.461538461538    0.236842105263    0.000000000000       2
   -0.435897435897    0.236842105263    0.000000000000       2
   -0.410256410256    0.236842105263    0.000000000000       2
   -0.384615384615    0.236842105263    0.000000000000       2
   -0.358974358974    0.236842105263    0.000000000000       2
   -0.333333333333    0.236842105263    0.000000000000       2
   -0.307692307692    0.236842105263    0.000000000000       2
   -0.282051282051    0.236842105263    0.000000000000       2
   -0.256410256410    0.236842105263    0.000000000000       2
   -0.230769230769    0.236842105263    0.000000000000       2
   -0.205128205128    0.236842105263    0.000000000000       2
   -0.179487179487    0.236842105263    0.000000000000       2
   -0.153846153846    0.236842105263    0.000000000000       2
   -0.128205128205    0.236842105263    0.000000000000       2
   -0.102564102564    0.236842105263    0.000000000000       2
   -0.076923076923    0.236842105263    0.000000000000       2
   -0.051282051282    0.236842105263    0.000000000000       2
   -0.025641025641    0.236842105263    0.000000000000       2
    0.000000000000    0.263157894737    0.000000000000       2
    0.025641025641    0.263157894737    0.000000000000       2
    0.051282051282    0.263157894737    0.000000000000       2
    0.076923076923    0.263157894737    0.000000000000       2
    0.102564102564    0.263157894737    0.000000000000       2
    0.128205128205    0.263157894737    0.000000000000       2
    0.153846153846    0.263157894737    0.000000000000       2
    0.179487179487    0.263157894737    0.000000000000       2
    0.205128205128    0.263157894737    0.000000000000       2
    0.230769230769    0.263157894737    0.000000000000       2
    0.256410256410    0.263157894737    0.000000000000       2
    0.282051282051    0.263157894737    0.000000000000       2
    0.307692307692    0.263157894737    0.000000000000       2
    0.333333333333    0.263157894737    0.000000000000       2
    0.358974358974    0.263157894737    0.000000000000       2
    0.384615384615    0.263157894737    0.000000000000       2
    0.410256410256    0.263157894737    0.000000000000       2
    0.435897435897    0.263157894737    0.000000000000       2
    0.461538461538    0.263157894737    0.000000000000       2
    0.487179487179    0.263157894737    0.000000000000       2
   -0.487179487179    0.263157894737    0.000000000000       2
   -0.461538461538    0.263157894737    0.000000000000       2
   -0.435897435897    0.263157894737    0.000000000000       2
   -0.410256410256    0.263157894737    0.000000000000       2
   -0.384615384615    0.263157894737    0.000000000000       2
   -0.358974358974    0.263157894737    0.000000000000       2
   -0.333333333333    0.263157894737    0.000000000000       2
   -0.307692307692    0.263157894737    0.000000000000       2
   -0.282051282051    0.263157894737    0.000000000000       2
   -0.256410256410    0.263157894737    0.000000000000       2
   -0.230769230769    0.263157894737    0.000000000000       2
   -0.205128205128    0.263157894737    0.000000000000       2
   -0.179487179487    0.263157894737    0.000000000000       2
   -0.153846153846    0.263157894737    0.000000000000       2
   -0.128205128205    0.263157894737    0.000000000000       2
   -0.102564102564    0.263157894737    0.000000000000       2
   -0.076923076923    0.263157894737    0.000000000000       2
   -0.051282051282    0.263157894737    0.000000000000       2
   -0.025641025641    0.263157894737    0.000000000000       2
    0.000000000000    0.289473684211    0.000000000000       2
    0.025641025641    0.289473684211    0.000000000000       2
    0.051282051282    0.289473684211    0.000000000000       2
    0.076923076923    0.289473684211    0.000000000000       2
    0.102564102564    0.289473684211    0.000000000000       2
    0.128205128205    0.289473684211    0.000000000000       2
    0.153846153846    0.289473684211    0.000000000000       2
    0.179487179487    0.289473684211    0.000000000000       2
    0.205128205128    0.289473684211    0.000000000000       2
    0.230769230769    0.289473684211    0.000000000000       2
    0.256410256410    0.289473684211    0.000000000000       2
    0.282051282051    0.289473684211    0.000000000000       2
    0.307692307692    0.289473684211    0.000000000000       2
    0.333333333333    0.289473684211    0.000000000000       2
    0.358974358974    0.289473684211    0.000000000000       2
    0.384615384615    0.289473684211    0.000000000000       2
    0.410256410256    0.289473684211    0.000000000000       2
    0.435897435897    0.289473684211    0.000000000000       2
    0.461538461538    0.289473684211    0.000000000000       2
    0.487179487179    0.289473684211    0.000000000000       2
   -0.487179487179    0.289473684211    0.000000000000       2
   -0.461538461538    0.289473684211    0.000000000000       2
   -0.435897435897    0.289473684211    0.000000000000       2
   -0.410256410256    0.289473684211    0.000000000000       2
   -0.384615384615    0.289473684211    0.000000000000       2
   -0.358974358974    0.289473684211    0.000000000000       2
   -0.333333333333    0.289473684211    0.000000000000       2
   -0.307692307692    0.289473684211    0.000000000000       2
   -0.282051282051    0.289473684211    0.000000000000       2
   -0.256410256410    0.289473684211    0.000000000000       2
   -0.230769230769    0.289473684211    0.000000000000       2
   -0.205128205128    0.289473684211    0.000000000000       2
   -0.179487179487    0.289473684211    0.000000000000       2
   -0.153846153846    0.289473684211    0.000000000000       2
   -0.128205128205    0.289473684211    0.000000000000       2
   -0.102564102564    0.289473684211    0.000000000000       2
   -0.076923076923    0.289473684211    0.000000000000       2
   -0.051282051282    0.289473684211    0.000000000000       2
   -0.025641025641    0.289473684211    0.000000000000       2
    0.000000000000    0.315789473684    0.000000000000       2
    0.025641025641    0.315789473684    0.000000000000       2
    0.051282051282    0.315789473684    0.000000000000       2
    0.076923076923    0.315789473684    0.000000000000       2
    0.102564102564    0.315789473684    0.000000000000       2
    0.128205128205    0.315789473684    0.000000000000       2
    0.153846153846    0.315789473684    0.000000000000       2
    0.179487179487    0.315789473684    0.000000000000       2
    0.205128205128    0.315789473684    0.000000000000       2
    0.230769230769    0.315789473684    0.000000000000       2
    0.256410256410    0.315789473684    0.000000000000       2
    0.282051282051    0.315789473684    0.000000000000       2
    0.307692307692    0.315789473684    0.000000000000       2
    0.333333333333    0.315789473684    0.000000000000       2
    0.358974358974    0.315789473684    0.000000000000       2
    0.384615384615    0.315789473684    0.000000000000       2
    0.410256410256    0.315789473684    0.000000000000       2
    0.435897435897    0.315789473684    0.000000000000       2
    0.461538461538    0.315789473684    0.000000000000       2
    0.487179487179    0.315789473684    0.000000000000       2
   -0.487179487179    0.315789473684    0.000000000000       2
   -0.461538461538    0.315789473684    0.000000000000       2
   -0.435897435897    0.315789473684    0.000000000000       2
   -0.410256410256    0.315789473684    0.000000000000       2
   -0.384615384615    0.315789473684    0.000000000000       2