CONTCAR\(10)                            
   1.00000000000000     
    13.8427000045999993    0.0000000000000000    0.0000000000000000
    -6.9212999344000004   11.9880431408000003    0.0000000000000000
     0.0000000000000000    0.0000000000000000   18.3542995453000017
   Ta   Se
    16    31
Direct
  0.0049427115899771 -0.0011609324844917  0.4992011564046767
  0.2438963559255312 -0.0011609324844917  0.4992011564046767
  0.4995958788706285 -0.0002020605646859  0.4998468466257182
  0.7502020435646880 -0.0002020605646859  0.4998468466257183
  0.0002955736288057  0.2501477823144007  0.4989575092380861
  0.2329431127748756  0.2158862255497440  0.4971383156787236
  0.4998521916855971  0.2501477823144007  0.4989575092380861
  0.7502020575646892  0.2504041151293712  0.4998468466257182
  0.0049427055899765  0.5061036310744709  0.4992011564046767
  0.2329431097748718  0.5170568712251304  0.4971383156787236
  0.5341137624502548  0.5170568712251304  0.4971383156787236
  0.7511609084844897  0.5061036310744709  0.4992011564046767
  0.9999999879999990  0.7499999409999987  0.4987899252315461
  0.2438962919255330  0.7450572294100217  0.4992011564046767
  0.4998521306855956  0.7497043643711964  0.4989575092380861
  0.7511608344844907  0.7450572294100217  0.4992011564046767
  0.0785061685158193  0.1642158870831057  0.4041116230103090
  0.0827406039553693  0.1680923799043817  0.5928003167075544
  0.3356997205672905  0.1642158870831057  0.4041116230103090
  0.3353417779490165  0.1680923799043817  0.5928003167075544
  0.5834041249431221  0.1665957940568748  0.4084319137170588
  0.5827855068642042  0.1672144121357926  0.5909059322401903
  0.8331815931137508  0.1665957940568748  0.4084319137170588
  0.8344188292715861  0.1672144121357926  0.5909059322401903
  0.0785061735158233  0.4143002444327102  0.4041116230103090
  0.0827406089553732  0.4146581870509841  0.5928003167075544
  0.3333299729999979  0.4166699709999975  0.4563261411998528
  0.5857840459168925  0.4143002444327102  0.4041116230103090
  0.5819075530956164  0.4146581870509841  0.5928003167075544
  0.8338938549525222  0.4177977349050461  0.4096924120591894
  0.8342749835989233  0.4185599921978496  0.5892528401622000
  0.0822023027254648  0.6677976912745349  0.4055880547540416
  0.0822672736044539  0.6677327203955452  0.5924314238025888
  0.3356997335672880  0.6714938204841763  0.4041116230103090
  0.3353417909490141  0.6672593850446268  0.5928003167075544
  0.5857840449168888  0.6714938204841763  0.4041116230103090
  0.5819075520956127  0.6672593850446268  0.5928003167075544
  0.8355853475490737  0.6677976912745349  0.4055880547540416
  0.8354554057910958  0.6677327203955452  0.5924314238025888
  0.0822022817254596  0.9144146224509239  0.4055880547540416
  0.0822672526044487  0.9145445642089017  0.5924314238025888
  0.3322021880949511  0.9161061150474753  0.4096924120591894
  0.3314399308021476  0.9157249864010742  0.5892528401622000
  0.5834040489431229  0.9168183628862455  0.4084319137170588
  0.5827854308642050  0.9155811267284103  0.5909059322401903
  0.8338938339525240  0.9161061150474753  0.4096924120591894
  0.8342749625989251  0.9157249864010742  0.5892528401622000
 
  0.00000000E+00  0.00000000E+00  0.00000000E+00
  0.00000000E+00  0.00000000E+00  0.00000000E+00
  0.00000000E+00  0.00000000E+00  0.00000000E+00
  0.00000000E+00  0.00000000E+00  0.00000000E+00
  0.00000000E+00  0.00000000E+00  0.00000000E+00
  0.00000000E+00  0.00000000E+00  0.00000000E+00
  0.00000000E+00  0.00000000E+00  0.00000000E+00
  0.00000000E+00  0.00000000E+00  0.00000000E+00
  0.00000000E+00  0.00000000E+00  0.00000000E+00
  0.00000000E+00  0.00000000E+00  0.00000000E+00
  0.00000000E+00  0.00000000E+00  0.00000000E+00
  0.00000000E+00  0.00000000E+00  0.00000000E+00
  0.00000000E+00  0.00000000E+00  0.00000000E+00
  0.00000000E+00  0.00000000E+00  0.00000000E+00
  0.00000000E+00  0.00000000E+00  0.00000000E+00
  0.00000000E+00  0.00000000E+00  0.00000000E+00
  0.00000000E+00  0.00000000E+00  0.00000000E+00
  0.00000000E+00  0.00000000E+00  0.00000000E+00
  0.00000000E+00  0.00000000E+00  0.00000000E+00
  0.00000000E+00  0.00000000E+00  0.00000000E+00
  0.00000000E+00  0.00000000E+00  0.00000000E+00
  0.00000000E+00  0.00000000E+00  0.00000000E+00
  0.00000000E+00  0.00000000E+00  0.00000000E+00
  0.00000000E+00  0.00000000E+00  0.00000000E+00
  0.00000000E+00  0.00000000E+00  0.00000000E+00
  0.00000000E+00  0.00000000E+00  0.00000000E+00
  0.00000000E+00  0.00000000E+00  0.00000000E+00
  0.00000000E+00  0.00000000E+00  0.00000000E+00
  0.00000000E+00  0.00000000E+00  0.00000000E+00
  0.00000000E+00  0.00000000E+00  0.00000000E+00
  0.00000000E+00  0.00000000E+00  0.00000000E+00
  0.00000000E+00  0.00000000E+00  0.00000000E+00
  0.00000000E+00  0.00000000E+00  0.00000000E+00
  0.00000000E+00  0.00000000E+00  0.00000000E+00
  0.00000000E+00  0.00000000E+00  0.00000000E+00
  0.00000000E+00  0.00000000E+00  0.00000000E+00
  0.00000000E+00  0.00000000E+00  0.00000000E+00
  0.00000000E+00  0.00000000E+00  0.00000000E+00
  0.00000000E+00  0.00000000E+00  0.00000000E+00
  0.00000000E+00  0.00000000E+00  0.00000000E+00
  0.00000000E+00  0.00000000E+00  0.00000000E+00
  0.00000000E+00  0.00000000E+00  0.00000000E+00
  0.00000000E+00  0.00000000E+00  0.00000000E+00
  0.00000000E+00  0.00000000E+00  0.00000000E+00
  0.00000000E+00  0.00000000E+00  0.00000000E+00
  0.00000000E+00  0.00000000E+00  0.00000000E+00
  0.00000000E+00  0.00000000E+00  0.00000000E+00
