CONTCAR\(8)                             
   1.00000000000000     
    10.2665004730000007    0.0000000000000000    0.0000000000000000
     0.0000000000000000   17.1711997986000000    0.0000000000000000
     0.0000000000000000    0.0000000000000000   18.9181995391999997
   K    Fe   S    O 
     8    16    24     1
Direct
  0.1245820979196410  0.2515274816905710  0.4115070393954063
  0.3730203957078687  0.2473390516697826  0.5925540560413153
  0.6245812404946258  0.2499735081871867  0.4114232684848203
  0.8765499325170969  0.2471745342085525  0.5919679830060739
  0.1245820979196410  0.7484324743094265  0.4115070393954063
  0.3730203957078687  0.7526209043302151  0.5925540560413153
  0.6245812404946258  0.7499864478128111  0.4114232684848203
  0.8765499325170969  0.7527854217914453  0.5919679830060739
  0.9998580880188265  0.0733719384201624  0.4999723546938614
  0.2501829996222213  0.9266638304085423  0.4999450869277751
  0.9998580880188265  0.9266480555798365  0.4999723546938614
  0.2501829996222213  0.0733361695914579  0.4999450869277751
  0.4999288549436065  0.0732160535383113  0.4999408372509682
  0.7500589157614466  0.9268194527730332  0.4999764027055712
  0.4999288549436065  0.9268039404616873  0.4999408372509682
  0.7500589157614466  0.0731805472269662  0.4999764027055712
  0.0002596278254807  0.5740789499989926  0.4999626941756665
  0.2500137745479322  0.4259291683149443  0.4999527863077490
  0.0002596278254807  0.4259410990010071  0.4999626941756665
  0.2500137745479322  0.5740708596850582  0.4999527863077490
  0.5040043181851541  0.5715312924926669  0.5107137472441174
  0.7461259077838729  0.4285261163180003  0.5109268815004770
  0.5040043181851541  0.4284887565073326  0.5107137472441174
  0.7461259077838729  0.5714739116820020  0.5109268815004770
  0.3748319575919210  0.8571261014581549  0.4362233731487479
  0.1251346847194600  0.1405138997738445  0.5654791351149069
  0.1251346847194600  0.8595060532261543  0.5654691041149047
  0.3749892547179248  0.0000000000000000  0.5649397675533038
  0.1250822481924962  0.0000000000000000  0.4351321281074804
  0.3748319575919210  0.1428938515418439  0.4362133411487492
  0.8749695508968266  0.8571269420812853  0.4362023163619060
  0.6250296563448727  0.1394099634548880  0.5654832743770041
  0.6250296563448727  0.8606099895451108  0.5654732433770019
  0.8749198996393300  0.0000000000000000  0.5649900568177708
  0.6250596293290220  0.0000000000000000  0.4347964775797351
  0.8749695508968266  0.1428930109187139  0.4361922843619073
  0.3844901528628877  0.3605065616057091  0.4383961950233884
  0.1250904908078359  0.6456471144389956  0.5623956198966272
  0.1250904908078359  0.3543728795610031  0.5623855888966250
  0.3629629978063865  0.5000000000000000  0.5702028493287399
  0.1250896077209228  0.5000000000000000  0.4358112338787645
  0.3844901528628877  0.6395134323942893  0.4383861630233897
  0.8655184414187287  0.3605480188968929  0.4384988255460132
  0.6248909610084323  0.6598420581760481  0.5617418266128380
  0.6248909610084323  0.3401779358239508  0.5617317956128358
  0.8874092289961122  0.5000000000000000  0.5701650047202979
  0.6254469098707397  0.5000000000000000  0.4381146527575460
  0.8655184414187287  0.6394719751031060  0.4384887935460144
  0.6255560467695934  0.4999500150000031  0.5705910416258795
 
  0.00000000E+00  0.00000000E+00  0.00000000E+00
  0.00000000E+00  0.00000000E+00  0.00000000E+00
  0.00000000E+00  0.00000000E+00  0.00000000E+00
  0.00000000E+00  0.00000000E+00  0.00000000E+00
  0.00000000E+00  0.00000000E+00  0.00000000E+00
  0.00000000E+00  0.00000000E+00  0.00000000E+00
  0.00000000E+00  0.00000000E+00  0.00000000E+00
  0.00000000E+00  0.00000000E+00  0.00000000E+00
  0.00000000E+00  0.00000000E+00  0.00000000E+00
  0.00000000E+00  0.00000000E+00  0.00000000E+00
  0.00000000E+00  0.00000000E+00  0.00000000E+00
  0.00000000E+00  0.00000000E+00  0.00000000E+00
  0.00000000E+00  0.00000000E+00  0.00000000E+00
  0.00000000E+00  0.00000000E+00  0.00000000E+00
  0.00000000E+00  0.00000000E+00  0.00000000E+00
  0.00000000E+00  0.00000000E+00  0.00000000E+00
  0.00000000E+00  0.00000000E+00  0.00000000E+00
  0.00000000E+00  0.00000000E+00  0.00000000E+00
  0.00000000E+00  0.00000000E+00  0.00000000E+00
  0.00000000E+00  0.00000000E+00  0.00000000E+00
  0.00000000E+00  0.00000000E+00  0.00000000E+00
  0.00000000E+00  0.00000000E+00  0.00000000E+00
  0.00000000E+00  0.00000000E+00  0.00000000E+00
  0.00000000E+00  0.00000000E+00  0.00000000E+00
  0.00000000E+00  0.00000000E+00  0.00000000E+00
  0.00000000E+00  0.00000000E+00  0.00000000E+00
  0.00000000E+00  0.00000000E+00  0.00000000E+00
  0.00000000E+00  0.00000000E+00  0.00000000E+00
  0.00000000E+00  0.00000000E+00  0.00000000E+00
  0.00000000E+00  0.00000000E+00  0.00000000E+00
  0.00000000E+00  0.00000000E+00  0.00000000E+00
  0.00000000E+00  0.00000000E+00  0.00000000E+00
  0.00000000E+00  0.00000000E+00  0.00000000E+00
  0.00000000E+00  0.00000000E+00  0.00000000E+00
  0.00000000E+00  0.00000000E+00  0.00000000E+00
  0.00000000E+00  0.00000000E+00  0.00000000E+00
  0.00000000E+00  0.00000000E+00  0.00000000E+00
  0.00000000E+00  0.00000000E+00  0.00000000E+00
  0.00000000E+00  0.00000000E+00  0.00000000E+00
  0.00000000E+00  0.00000000E+00  0.00000000E+00
  0.00000000E+00  0.00000000E+00  0.00000000E+00
  0.00000000E+00  0.00000000E+00  0.00000000E+00
  0.00000000E+00  0.00000000E+00  0.00000000E+00
  0.00000000E+00  0.00000000E+00  0.00000000E+00
  0.00000000E+00  0.00000000E+00  0.00000000E+00
  0.00000000E+00  0.00000000E+00  0.00000000E+00
  0.00000000E+00  0.00000000E+00  0.00000000E+00
  0.00000000E+00  0.00000000E+00  0.00000000E+00
  0.00000000E+00  0.00000000E+00  0.00000000E+00
