 Nb4 Co4 Te8                            
   1.00000000000000     
     6.2390339094501508    0.0000000000000000    0.0000000000000000
     0.0000000000000000    7.7217231948120748    0.0000000000000000
     0.0000000000000000    0.0000000000000000   19.6901375504819995
   Nb   Co   Te
     4     4     8
Direct
  0.4835100892994399  0.2528782665741812  0.4942076718538463
  0.5164683085244157  0.6517798496714232  0.5057817359948394
  0.9835273101346130  0.1517744833936072  0.5057826532144032
  0.0164815119739142  0.7528995274969238  0.4942122500878334
  0.8547952778859671  0.4576499571667739  0.4587422595761660
  0.3548784990416960  0.9470464783127805  0.5412661903672858
  0.6452045982731798  0.9576604419026217  0.4587370340301644
  0.1451445395934100  0.4470370595304783  0.5412724617178380
  0.2549936864297876  0.9845096341049921  0.4124363497992333
  0.7461912879450777  0.7096816199969962  0.3811713918464486
  0.2461902505353964  0.6950185483965854  0.6188233929775799
  0.7549676607107348  0.4200419881564028  0.5875669950095957
  0.7538022962396719  0.2096735025918376  0.3811721775022069
  0.2538082417319109  0.1950043780771070  0.6188217213401387
  0.2450126327530465  0.4845036027880967  0.4124369581576307
  0.7450238089277380  0.9200526618392079  0.5875687565247908
 
  0.00000000E+00  0.00000000E+00  0.00000000E+00
  0.00000000E+00  0.00000000E+00  0.00000000E+00
  0.00000000E+00  0.00000000E+00  0.00000000E+00
  0.00000000E+00  0.00000000E+00  0.00000000E+00
  0.00000000E+00  0.00000000E+00  0.00000000E+00
  0.00000000E+00  0.00000000E+00  0.00000000E+00
  0.00000000E+00  0.00000000E+00  0.00000000E+00
  0.00000000E+00  0.00000000E+00  0.00000000E+00
  0.00000000E+00  0.00000000E+00  0.00000000E+00
  0.00000000E+00  0.00000000E+00  0.00000000E+00
  0.00000000E+00  0.00000000E+00  0.00000000E+00
  0.00000000E+00  0.00000000E+00  0.00000000E+00
  0.00000000E+00  0.00000000E+00  0.00000000E+00
  0.00000000E+00  0.00000000E+00  0.00000000E+00
  0.00000000E+00  0.00000000E+00  0.00000000E+00
  0.00000000E+00  0.00000000E+00  0.00000000E+00
