CONTCAR\(2)                             
   1.00000000000000     
    12.6478004455999997    0.0000000000000000    0.0000000000000000
    -6.3238812619999996   10.9533274348000003    0.0000000000000000
     0.0000000000000000    0.0000000000000000   18.1298007964999996
   Mo   S 
    16    32
Direct
  0.0833299949999997  0.1666699889999990  0.5000000000000000
  0.3333299949999997  0.1666699889999990  0.5000000000000000
  0.5833299569999966  0.1666699889999990  0.5000000000000000
  0.8333299949999997  0.1666699889999990  0.5000000000000000
  0.0833299900000029  0.4166699949999995  0.5000000000000000
  0.3333299990000000  0.4166699949999995  0.5000000000000000
  0.5833299620000005  0.4166699949999995  0.5000000000000000
  0.8333299620000005  0.4166699949999995  0.5000000000000000
  0.0833299990000000  0.6666699889999990  0.5000000000000000
  0.3333299990000000  0.6666699889999990  0.5000000000000000
  0.5833299609999969  0.6666699889999990  0.5000000000000000
  0.8333299609999969  0.6666699889999990  0.5000000000000000
  0.0833299980000035  0.9166699829999985  0.5000000000000000
  0.3333299980000035  0.9166699829999985  0.5000000000000000
  0.5833299600000004  0.9166699829999985  0.5000000000000000
  0.8333299600000004  0.9166699829999985  0.5000000000000000
  0.1666699989999998  0.0833299940000032  0.5865099939999965
  0.1666699989999998  0.0833299940000032  0.4134900060000035
  0.4166699989999998  0.0833299940000032  0.5865099939999965
  0.4166699989999998  0.0833299940000032  0.4134900060000035
  0.6666700370000029  0.0833299940000032  0.5865099939999965
  0.6666700370000029  0.0833299940000032  0.4134900060000035
  0.9166700370000029  0.0833299940000032  0.5865099939999965
  0.9166700370000029  0.0833299940000032  0.4134900060000035
  0.1666699989999998  0.3333299880000027  0.5865099939999965
  0.1666699989999998  0.3333299880000027  0.4134900060000035
  0.4166699989999998  0.3333299880000027  0.5865099939999965
  0.4166699989999998  0.3333299880000027  0.4134900060000035
  0.6666700359999993  0.3333299880000027  0.5865099939999965
  0.6666700359999993  0.3333299880000027  0.4134900060000035
  0.9166699989999998  0.3333299880000027  0.5865099939999965
  0.9166699989999998  0.3333299880000027  0.4134900060000035
  0.1666699980000033  0.5833299820000022  0.5865099939999965
  0.1666699980000033  0.5833299820000022  0.4134900060000035
  0.4166699980000033  0.5833299820000022  0.5865099939999965
  0.4166699980000033  0.5833299820000022  0.4134900060000035
  0.6666700359999993  0.5833299820000022  0.5865099939999965
  0.6666700359999993  0.5833299820000022  0.4134900060000035
  0.9166700359999993  0.5833299820000022  0.5865099939999965
  0.9166700359999993  0.5833299820000022  0.4134900060000035
  0.1666699969999996  0.8333299760000017  0.5865099939999965
  0.1666699969999996  0.8333299760000017  0.4134900060000035
  0.4166699969999996  0.8333299760000017  0.5865099939999965
  0.4166699969999996  0.8333299760000017  0.4134900060000035
  0.6666700350000028  0.8333299760000017  0.5865099939999965
  0.6666700350000028  0.8333299760000017  0.4134900060000035
  0.9166700350000028  0.8333299760000017  0.5865099939999965
  0.9166700350000028  0.8333299760000017  0.4134900060000035
 
  0.00000000E+00  0.00000000E+00  0.00000000E+00
  0.00000000E+00  0.00000000E+00  0.00000000E+00
  0.00000000E+00  0.00000000E+00  0.00000000E+00
  0.00000000E+00  0.00000000E+00  0.00000000E+00
  0.00000000E+00  0.00000000E+00  0.00000000E+00
  0.00000000E+00  0.00000000E+00  0.00000000E+00
  0.00000000E+00  0.00000000E+00  0.00000000E+00
  0.00000000E+00  0.00000000E+00  0.00000000E+00
  0.00000000E+00  0.00000000E+00  0.00000000E+00
  0.00000000E+00  0.00000000E+00  0.00000000E+00
  0.00000000E+00  0.00000000E+00  0.00000000E+00
  0.00000000E+00  0.00000000E+00  0.00000000E+00
  0.00000000E+00  0.00000000E+00  0.00000000E+00
  0.00000000E+00  0.00000000E+00  0.00000000E+00
  0.00000000E+00  0.00000000E+00  0.00000000E+00
  0.00000000E+00  0.00000000E+00  0.00000000E+00
  0.00000000E+00  0.00000000E+00  0.00000000E+00
  0.00000000E+00  0.00000000E+00  0.00000000E+00
  0.00000000E+00  0.00000000E+00  0.00000000E+00
  0.00000000E+00  0.00000000E+00  0.00000000E+00
  0.00000000E+00  0.00000000E+00  0.00000000E+00
  0.00000000E+00  0.00000000E+00  0.00000000E+00
  0.00000000E+00  0.00000000E+00  0.00000000E+00
  0.00000000E+00  0.00000000E+00  0.00000000E+00
  0.00000000E+00  0.00000000E+00  0.00000000E+00
  0.00000000E+00  0.00000000E+00  0.00000000E+00
  0.00000000E+00  0.00000000E+00  0.00000000E+00
  0.00000000E+00  0.00000000E+00  0.00000000E+00
  0.00000000E+00  0.00000000E+00  0.00000000E+00
  0.00000000E+00  0.00000000E+00  0.00000000E+00
  0.00000000E+00  0.00000000E+00  0.00000000E+00
  0.00000000E+00  0.00000000E+00  0.00000000E+00
  0.00000000E+00  0.00000000E+00  0.00000000E+00
  0.00000000E+00  0.00000000E+00  0.00000000E+00
  0.00000000E+00  0.00000000E+00  0.00000000E+00
  0.00000000E+00  0.00000000E+00  0.00000000E+00
  0.00000000E+00  0.00000000E+00  0.00000000E+00
  0.00000000E+00  0.00000000E+00  0.00000000E+00
  0.00000000E+00  0.00000000E+00  0.00000000E+00
  0.00000000E+00  0.00000000E+00  0.00000000E+00
  0.00000000E+00  0.00000000E+00  0.00000000E+00
  0.00000000E+00  0.00000000E+00  0.00000000E+00
  0.00000000E+00  0.00000000E+00  0.00000000E+00
  0.00000000E+00  0.00000000E+00  0.00000000E+00
  0.00000000E+00  0.00000000E+00  0.00000000E+00
  0.00000000E+00  0.00000000E+00  0.00000000E+00
  0.00000000E+00  0.00000000E+00  0.00000000E+00
  0.00000000E+00  0.00000000E+00  0.00000000E+00
