CONTCAR                                 
   1.00000000000000     
    11.2875003814999992    0.0000000000000000    0.0000000000000000
    -5.6437736758000003   10.4440391513000002    0.0000000000000000
     0.0000000000000000    0.0000000000000000   21.6142997741999991
   Y    C    Br   O 
    18    18    18     1
Direct
  0.2004664167672482  0.0676816353297875  0.5675813025074310
  0.1170308828655181  0.2340439709422335  0.4323908948988601
  0.5338441439594249  0.0677278129763017  0.5675197081732303
  0.4503698372072713  0.2341004625381695  0.4325141265679899
  0.8669734604568640  0.0673552987803577  0.5675133774411775
  0.7838098530340046  0.2340044546609446  0.4323371963208738
  0.2008679154609646  0.4013118111431093  0.5676029999622257
  0.1170546968053106  0.5673442067828437  0.4324127804484404
  0.5343138243192102  0.4019043349630667  0.5677629752333400
  0.4502972625696672  0.5674612993667837  0.4324688385053484
  0.8671204249736215  0.4013384805379205  0.5675127249084216
  0.7839347934787788  0.5675272401946283  0.4324095896113479
  0.2005604806761096  0.7346307179290686  0.5676354448788589
  0.1173662667975627  0.9010332177009243  0.4323481874685944
  0.5343596411451582  0.7345956924686464  0.5678959457918005
  0.4502854967090970  0.9009117617086317  0.4323514642894825
  0.8667559689016394  0.7345574673055106  0.5678741265605067
  0.7839097488370976  0.9010554021893559  0.4322996718360680
  0.2988332809024307  0.2645701883135898  0.5172250016412127
  0.0185492488285908  0.0367698638633879  0.4823792056758266
  0.6324131912670977  0.2645794711897220  0.5171076171274633
  0.3517569304905994  0.0368859922647509  0.4825082818770431
  0.9656549253639758  0.2645466983442384  0.5172097050002402
  0.6849028465493529  0.0367376803730174  0.4823307248638115
  0.2989140178131096  0.5981942999886298  0.5172599801459042
  0.0184874643856706  0.3701774429548324  0.4825059315951539
  0.6324908781755746  0.5982972380938862  0.5170179230538574
  0.3516605988317048  0.3701511038351248  0.4825165748119606
  0.9659025675157434  0.5982303615827234  0.5171665908708621
  0.6852397696829170  0.3701863660135734  0.4824233886599164
  0.2989843631762764  0.9314245475649129  0.5173557093756339
  0.0186175282694903  0.7037972753581841  0.4824867727867566
  0.6321547433143331  0.9313784918107294  0.5172101046563914
  0.3517761422502660  0.7037199610612921  0.4825458977574928
  0.9658989534087571  0.9314024072807375  0.5172524884181035
  0.6852958962939736  0.7038818237345880  0.4823344102307733
  0.0865049921426787  0.1732611907027330  0.6542414398785663
  0.2309692852875016  0.1286601645454464  0.3454312005185460
  0.4199319648443225  0.1732657200836362  0.6541800580646715
  0.5642925724064352  0.1287488081435592  0.3454620496555690
  0.7534666819789201  0.1736042093627470  0.6541443024771664
  0.8979608169640946  0.1288884382988731  0.3453669072978681
  0.0863498319963305  0.5062771193532332  0.6541734876463149
  0.2308198145876610  0.4618558664809935  0.3454664495504419
  0.4202550544751704  0.5069185819683226  0.6533403565140643
  0.5643389771423342  0.4619361381053050  0.3455827621442180
  0.7534255529556217  0.5068858228514851  0.6533338132116397
  0.8979964570437209  0.4621700341224634  0.3454310754388555
  0.0865101303973477  0.8398211649152255  0.6542285009825363
  0.2308606368188950  0.7952490412533578  0.3454137049993319
  0.4198102471318313  0.8400932240425072  0.6542343911526819
  0.5642902459120751  0.7952623899916318  0.3454654899714769
  0.7542014630621938  0.8416666089034415  0.6532669500914581
  0.8979756465122508  0.7954500034199700  0.3454387308690712
  0.6473457958562275  0.6281394763089164  0.7525604255830837
 
  0.00000000E+00  0.00000000E+00  0.00000000E+00
  0.00000000E+00  0.00000000E+00  0.00000000E+00
  0.00000000E+00  0.00000000E+00  0.00000000E+00
  0.00000000E+00  0.00000000E+00  0.00000000E+00
  0.00000000E+00  0.00000000E+00  0.00000000E+00
  0.00000000E+00  0.00000000E+00  0.00000000E+00
  0.00000000E+00  0.00000000E+00  0.00000000E+00
  0.00000000E+00  0.00000000E+00  0.00000000E+00
  0.00000000E+00  0.00000000E+00  0.00000000E+00
  0.00000000E+00  0.00000000E+00  0.00000000E+00
  0.00000000E+00  0.00000000E+00  0.00000000E+00
  0.00000000E+00  0.00000000E+00  0.00000000E+00
  0.00000000E+00  0.00000000E+00  0.00000000E+00
  0.00000000E+00  0.00000000E+00  0.00000000E+00
  0.00000000E+00  0.00000000E+00  0.00000000E+00
  0.00000000E+00  0.00000000E+00  0.00000000E+00
  0.00000000E+00  0.00000000E+00  0.00000000E+00
  0.00000000E+00  0.00000000E+00  0.00000000E+00
  0.00000000E+00  0.00000000E+00  0.00000000E+00
  0.00000000E+00  0.00000000E+00  0.00000000E+00
  0.00000000E+00  0.00000000E+00  0.00000000E+00
  0.00000000E+00  0.00000000E+00  0.00000000E+00
  0.00000000E+00  0.00000000E+00  0.00000000E+00
  0.00000000E+00  0.00000000E+00  0.00000000E+00
  0.00000000E+00  0.00000000E+00  0.00000000E+00
  0.00000000E+00  0.00000000E+00  0.00000000E+00
  0.00000000E+00  0.00000000E+00  0.00000000E+00
  0.00000000E+00  0.00000000E+00  0.00000000E+00
  0.00000000E+00  0.00000000E+00  0.00000000E+00
  0.00000000E+00  0.00000000E+00  0.00000000E+00
  0.00000000E+00  0.00000000E+00  0.00000000E+00
  0.00000000E+00  0.00000000E+00  0.00000000E+00
  0.00000000E+00  0.00000000E+00  0.00000000E+00
  0.00000000E+00  0.00000000E+00  0.00000000E+00
  0.00000000E+00  0.00000000E+00  0.00000000E+00
  0.00000000E+00  0.00000000E+00  0.00000000E+00
  0.00000000E+00  0.00000000E+00  0.00000000E+00
  0.00000000E+00  0.00000000E+00  0.00000000E+00
  0.00000000E+00  0.00000000E+00  0.00000000E+00
  0.00000000E+00  0.00000000E+00  0.00000000E+00
  0.00000000E+00  0.00000000E+00  0.00000000E+00
  0.00000000E+00  0.00000000E+00  0.00000000E+00
  0.00000000E+00  0.00000000E+00  0.00000000E+00
  0.00000000E+00  0.00000000E+00  0.00000000E+00
  0.00000000E+00  0.00000000E+00  0.00000000E+00
  0.00000000E+00  0.00000000E+00  0.00000000E+00
  0.00000000E+00  0.00000000E+00  0.00000000E+00
  0.00000000E+00  0.00000000E+00  0.00000000E+00
  0.00000000E+00  0.00000000E+00  0.00000000E+00
  0.00000000E+00  0.00000000E+00  0.00000000E+00
  0.00000000E+00  0.00000000E+00  0.00000000E+00
  0.00000000E+00  0.00000000E+00  0.00000000E+00
  0.00000000E+00  0.00000000E+00  0.00000000E+00
  0.00000000E+00  0.00000000E+00  0.00000000E+00
  0.00000000E+00  0.00000000E+00  0.00000000E+00
