CONTCAR\(2)                             
   1.00000000000000     
    13.5958003997999999    0.0000000000000000    0.0000000000000000
     0.0000000000000000   14.8882999419999997    0.0000000000000000
     0.0000000000000000    0.0000000000000000   20.6940002440999997
   Ti   S    O    H 
    24    72     1     1
Direct
  0.0639488762201879  0.0430974735889507  0.5665261550870042
  0.1891541426236785  0.2097554846567320  0.4364783997590749
  0.3137110616594967  0.0439050257871898  0.5670215796993290
  0.4388551007343793  0.2096334409484157  0.4366361759807589
  0.5644865839997877  0.0438661388683315  0.5669988664562666
  0.6889250514059242  0.2092711674059657  0.4363142257860488
  0.8143188927534197  0.0429366590491682  0.5664849243408909
  0.9389465812475777  0.2093601650275048  0.4361687018806535
  0.0639991295216049  0.3763820460669294  0.5660209745528846
  0.1893724655542570  0.5427253372117775  0.4355662066418589
  0.3139648190860456  0.3775937262823774  0.5664842594564448
  0.4383342005861053  0.5435966016551674  0.4351393428930805
  0.5640353508552423  0.3766402193822387  0.5663555843137900
  0.6902925561856392  0.5406452227957743  0.4335430328523273
  0.8141238209928119  0.3761676645933889  0.5658662214820467
  0.9399251383840763  0.5413707377054777  0.4343288568762347
  0.0620802018956184  0.7090491722222367  0.5644623911570577
  0.1886776449431906  0.8766272757818498  0.4365330715936153
  0.3091822437087615  0.7124883261424486  0.5667855966247757
  0.4381711872882406  0.8762276941528171  0.4358966679817726
  0.5797299980317376  0.7072733550313473  0.5533469499432400
  0.6891867788057340  0.8769008407970986  0.4356183031514718
  0.8178569551298409  0.7095853031258983  0.5641707231060309
  0.9390143403659863  0.8771168440359531  0.4352050833273609
  0.0641637032634321  0.1406646101070663  0.3636880927829083
  0.1874908261375197  0.1129997871707005  0.6389174981780599
  0.1891089666018502  0.0429869362907525  0.4805762720714810
  0.0639223627488406  0.2097128785396549  0.5224984931278982
  0.1898355889164307  0.3096250868599526  0.6400111548428242
  0.0640292260156556  0.2777366421198408  0.3633175516628384
  0.3140158336079466  0.1406404456783932  0.3639823802349866
  0.4378495529071600  0.1142375083526517  0.6389371273606628
  0.4390352837979634  0.0427261115731099  0.4809371153070998
  0.3139566058172889  0.2102439208789377  0.5228672717514513
  0.4398516699543364  0.3111987851130777  0.6406323990199709
  0.3142353642253681  0.2777555700397087  0.3632458912038885
  0.5635780570476214  0.1408802147088153  0.3634532781103985
  0.6887473291470982  0.1111274286340915  0.6401817627563560
  0.6885140564188390  0.0425213499905084  0.4805273628256543
  0.5640359624561242  0.2099330395300782  0.5227577434746991
  0.6899513445445820  0.3075386838198710  0.6385098646293059
  0.5640007580737176  0.2779478294947424  0.3638264567820215
  0.8136668886717899  0.1406472002718928  0.3632641980891833
  0.9382245924542829  0.1113738153752877  0.6394946366974068
  0.9389967033733626  0.0429968637339613  0.4801242954506577
  0.8139578596451145  0.2094166734349017  0.5224783275121823
  0.9395763056229356  0.3079571778659371  0.6389207104216794
  0.8137939213590144  0.2776774646327667  0.3633560417329491
  0.0653228602392488  0.4733579459337420  0.3620286112393885
  0.1876377886868710  0.4467421464885035  0.6382433756326549
  0.1893094951846734  0.3764535796811685  0.4800032808526211
  0.0637042312102878  0.5426663333246111  0.5213790466503667
  0.1896502009321779  0.6434542614963235  0.6403309277521387
  0.0649764297144770  0.6105150702668425  0.3618736611655677
  0.3139946064137362  0.4738346701874931  0.3632005290706459
  0.4382023011497509  0.4483286423006945  0.6381483940093062
  0.4389186050660143  0.3769019924710832  0.4801427096979083
  0.3141577748780975  0.5447640740035737  0.5223664938120223
  0.4443140609252652  0.6538770458776781  0.6364553309971797
  0.3141873459238198  0.6110066465300932  0.3617582024308703
  0.5627854960426291  0.4736768620286398  0.3617443320784020
  0.6881731640236168  0.4446270238647401  0.6396690330215762
  0.6888664645177087  0.3758796048929867  0.4796584787322900
  0.5643046372316576  0.5425272023510885  0.5208338299535882
  0.6926672138162218  0.6394316379898797  0.6342064637955147
  0.5643818247548964  0.6107372216350129  0.3618336645019937
  0.8146537722332212  0.4716871138823038  0.3613062080230378
  0.9380386517476751  0.4451030710932145  0.6387911723980224
  0.9392288818227001  0.3757715046528602  0.4795925144665603
  0.8145637802159911  0.5420352096071710  0.5204272389059099
  0.9409951189192896  0.6404534719366808  0.6378929931723860
  0.8154095188121246  0.6087809014735726  0.3602716332348876
  0.0639189849410258  0.8081865877313419  0.3630483296611615
  0.1790629046403538  0.7801569511901789  0.6367094000574696
  0.1887232756493589  0.7089287490205365  0.4793572701358357
  0.0628618268786099  0.8764150094705059  0.5219798696367448
  0.1901507700357499  0.9758668635788368  0.6407554327143856
  0.0646852774412849  0.9453475049381197  0.3627518074435301
  0.3130481556612992  0.8079219017395474  0.3637265461262302
  0.4168500719236192  0.7838302631239458  0.6603865766941155
  0.4379556785237071  0.7110030195452239  0.4796382557918193
  0.3139961635639708  0.8766710539349347  0.5234877439444077
  0.4408590028536139  0.9773382190844444  0.6408585507422941
  0.3137794233156868  0.9451419240219394  0.3633593723576141
  0.5632624654902543  0.8083657481622240  0.3629749315975772
  0.6794557021776555  0.7758452312611865  0.6355046802652993
  0.6975914619892265  0.7082359019346356  0.4732470216667224
  0.5619014464065657  0.8743627652162687  0.5236495204540645
  0.6904662556925913  0.9739684723617827  0.6394472545584122
  0.5636890693841465  0.9454864730973043  0.3636690561572351
  0.8132765824994550  0.8094043384056278  0.3618099553469136
  0.9342815315326760  0.7776117551898878  0.6388692417534898
  0.9391667873056662  0.7092188427672070  0.4774782231941685
  0.8138423633447900  0.8761534726444395  0.5217370980616138
  0.9398872659832307  0.9742262043612513  0.6393455823243528
  0.8136872495600258  0.9464292245550467  0.3627818366075672
  0.3503974622061605  0.7846115583602753  0.7279017443610059
  0.3965870177495532  0.7934568098016399  0.7637580637805215
 
  0.00000000E+00  0.00000000E+00  0.00000000E+00
  0.00000000E+00  0.00000000E+00  0.00000000E+00
  0.00000000E+00  0.00000000E+00  0.00000000E+00
  0.00000000E+00  0.00000000E+00  0.00000000E+00
  0.00000000E+00  0.00000000E+00  0.00000000E+00
  0.00000000E+00  0.00000000E+00  0.00000000E+00
  0.00000000E+00  0.00000000E+00  0.00000000E+00
  0.00000000E+00  0.00000000E+00  0.00000000E+00
  0.00000000E+00  0.00000000E+00  0.00000000E+00
  0.00000000E+00  0.00000000E+00  0.00000000E+00
  0.00000000E+00  0.00000000E+00  0.00000000E+00
  0.00000000E+00  0.00000000E+00  0.00000000E+00
  0.00000000E+00  0.00000000E+00  0.00000000E+00
  0.00000000E+00  0.00000000E+00  0.00000000E+00
  0.00000000E+00  0.00000000E+00  0.00000000E+00
  0.00000000E+00  0.00000000E+00  0.00000000E+00
  0.00000000E+00  0.00000000E+00  0.00000000E+00
  0.00000000E+00  0.00000000E+00  0.00000000E+00
  0.00000000E+00  0.00000000E+00  0.00000000E+00
  0.00000000E+00  0.00000000E+00  0.00000000E+00
  0.00000000E+00  0.00000000E+00  0.00000000E+00
  0.00000000E+00  0.00000000E+00  0.00000000E+00
  0.00000000E+00  0.00000000E+00  0.00000000E+00
  0.00000000E+00  0.00000000E+00  0.00000000E+00
  0.00000000E+00  0.00000000E+00  0.00000000E+00
  0.00000000E+00  0.00000000E+00  0.00000000E+00
  0.00000000E+00  0.00000000E+00  0.00000000E+00
  0.00000000E+00  0.00000000E+00  0.00000000E+00
  0.00000000E+00  0.00000000E+00  0.00000000E+00
  0.00000000E+00  0.00000000E+00  0.00000000E+00
  0.00000000E+00  0.00000000E+00  0.00000000E+00
  0.00000000E+00  0.00000000E+00  0.00000000E+00
  0.00000000E+00  0.00000000E+00  0.00000000E+00
  0.00000000E+00  0.00000000E+00  0.00000000E+00
  0.00000000E+00  0.00000000E+00  0.00000000E+00
  0.00000000E+00  0.00000000E+00  0.00000000E+00
  0.00000000E+00  0.00000000E+00  0.00000000E+00
  0.00000000E+00  0.00000000E+00  0.00000000E+00
  0.00000000E+00  0.00000000E+00  0.00000000E+00
  0.00000000E+00  0.00000000E+00  0.00000000E+00
  0.00000000E+00  0.00000000E+00  0.00000000E+00
  0.00000000E+00  0.00000000E+00  0.00000000E+00
  0.00000000E+00  0.00000000E+00  0.00000000E+00
  0.00000000E+00  0.00000000E+00  0.00000000E+00
  0.00000000E+00  0.00000000E+00  0.00000000E+00
  0.00000000E+00  0.00000000E+00  0.00000000E+00
  0.00000000E+00  0.00000000E+00  0.00000000E+00
  0.00000000E+00  0.00000000E+00  0.00000000E+00
  0.00000000E+00  0.00000000E+00  0.00000000E+00
  0.00000000E+00  0.00000000E+00  0.00000000E+00
  0.00000000E+00  0.00000000E+00  0.00000000E+00
  0.00000000E+00  0.00000000E+00  0.00000000E+00
  0.00000000E+00  0.00000000E+00  0.00000000E+00
  0.00000000E+00  0.00000000E+00  0.00000000E+00
  0.00000000E+00  0.00000000E+00  0.00000000E+00
  0.00000000E+00  0.00000000E+00  0.00000000E+00
  0.00000000E+00  0.00000000E+00  0.00000000E+00
  0.00000000E+00  0.00000000E+00  0.00000000E+00
  0.00000000E+00  0.00000000E+00  0.00000000E+00
  0.00000000E+00  0.00000000E+00  0.00000000E+00
  0.00000000E+00  0.00000000E+00  0.00000000E+00
  0.00000000E+00  0.00000000E+00  0.00000000E+00
  0.00000000E+00  0.00000000E+00  0.00000000E+00
  0.00000000E+00  0.00000000E+00  0.00000000E+00
  0.00000000E+00  0.00000000E+00  0.00000000E+00
  0.00000000E+00  0.00000000E+00  0.00000000E+00
  0.00000000E+00  0.00000000E+00  0.00000000E+00
  0.00000000E+00  0.00000000E+00  0.00000000E+00
  0.00000000E+00  0.00000000E+00  0.00000000E+00
  0.00000000E+00  0.00000000E+00  0.00000000E+00
  0.00000000E+00  0.00000000E+00  0.00000000E+00
  0.00000000E+00  0.00000000E+00  0.00000000E+00
  0.00000000E+00  0.00000000E+00  0.00000000E+00
  0.00000000E+00  0.00000000E+00  0.00000000E+00
  0.00000000E+00  0.00000000E+00  0.00000000E+00
  0.00000000E+00  0.00000000E+00  0.00000000E+00
  0.00000000E+00  0.00000000E+00  0.00000000E+00
  0.00000000E+00  0.00000000E+00  0.00000000E+00
  0.00000000E+00  0.00000000E+00  0.00000000E+00
  0.00000000E+00  0.00000000E+00  0.00000000E+00
  0.00000000E+00  0.00000000E+00  0.00000000E+00
  0.00000000E+00  0.00000000E+00  0.00000000E+00
  0.00000000E+00  0.00000000E+00  0.00000000E+00
  0.00000000E+00  0.00000000E+00  0.00000000E+00
  0.00000000E+00  0.00000000E+00  0.00000000E+00
  0.00000000E+00  0.00000000E+00  0.00000000E+00
  0.00000000E+00  0.00000000E+00  0.00000000E+00
  0.00000000E+00  0.00000000E+00  0.00000000E+00
  0.00000000E+00  0.00000000E+00  0.00000000E+00
  0.00000000E+00  0.00000000E+00  0.00000000E+00
  0.00000000E+00  0.00000000E+00  0.00000000E+00
  0.00000000E+00  0.00000000E+00  0.00000000E+00
  0.00000000E+00  0.00000000E+00  0.00000000E+00
  0.00000000E+00  0.00000000E+00  0.00000000E+00
  0.00000000E+00  0.00000000E+00  0.00000000E+00
  0.00000000E+00  0.00000000E+00  0.00000000E+00
  0.00000000E+00  0.00000000E+00  0.00000000E+00
  0.00000000E+00  0.00000000E+00  0.00000000E+00
