 Nb2 Te8 Ir2                            
   1.00000000000000     
     3.7581635557899649    0.0000000000000000    0.0000000000000000
     0.0000000000000000   12.4884944713201023    0.0000000000000000
     0.0000000000000000    0.0000000000000000   19.0001520007680007
   Nb   Te   Ir
     2     8     2
Direct
 -0.0000000006057503  0.0516989449231288  0.5045800057398316
  0.5000000005490914  0.7327192406061978  0.4949639524321688
  0.4999999988972174  0.9351010776311839  0.4196623535718094
 -0.0000000002571765  0.1947093576212837  0.4002193895497817
 -0.0000000001311281  0.3484495453011111  0.5710090081630966
  0.5000000003749142  0.5882830300485357  0.5984047344574298
  0.5000000000027135  0.4357965093458745  0.4271367421697581
  0.0000000007537067  0.6771436460268723  0.3934303788623124
  0.0000000010008805  0.8492846295795559  0.5801047435013988
  0.4999999993831967  0.1085058562120853  0.6058211116654252
  0.0000000002239967  0.5370580483784088  0.5011958551212011
  0.4999999998083368  0.2470621143257611  0.4971521584577296
 
  0.00000000E+00  0.00000000E+00  0.00000000E+00
  0.00000000E+00  0.00000000E+00  0.00000000E+00
  0.00000000E+00  0.00000000E+00  0.00000000E+00
  0.00000000E+00  0.00000000E+00  0.00000000E+00
  0.00000000E+00  0.00000000E+00  0.00000000E+00
  0.00000000E+00  0.00000000E+00  0.00000000E+00
  0.00000000E+00  0.00000000E+00  0.00000000E+00
  0.00000000E+00  0.00000000E+00  0.00000000E+00
  0.00000000E+00  0.00000000E+00  0.00000000E+00
  0.00000000E+00  0.00000000E+00  0.00000000E+00
  0.00000000E+00  0.00000000E+00  0.00000000E+00
  0.00000000E+00  0.00000000E+00  0.00000000E+00
