Repeated-UnitCell:     2    1    1      
   1.00000000000000     
    11.6526079711460167    0.0000000000000000    0.0000000000000000
     0.0000000000000000    8.6177807499981629    0.0000000000000000
     0.0000000000000000    0.0000000000000000   19.4160603609599960
   Te   Pd   Pb
     8    12     8
Direct
  0.2500000018899726  0.2876651605455506  0.6129087489713259
  0.7500000018899726  0.2876651605455506  0.6129087489713259
  0.0000000002558593  0.7876655614954655  0.3870906949401797
  0.5000000002558593  0.7876655614954655  0.3870906949401797
  0.2499999985587920  0.7123348176351032  0.6129087625462093
  0.7499999985587920  0.7123348176351032  0.6129087625462093
  0.9999999991770494  0.2123344887037250  0.3870907126145040
  0.4999999991770494  0.2123344887037250  0.3870907126145040
  0.1250005104838579  0.2499999651411784  0.5000002427423595
  0.6250005104838579  0.2499999651411784  0.5000002427423595
  0.0000000010505232  0.4999999354403641  0.4331736495312652
  0.5000000010505232  0.4999999354403641  0.4331736495312652
  0.1250005183514560  0.7500000383055010  0.5000002585478711
  0.6250005183514560  0.7500000383055010  0.5000002585478711
  0.3749994897165294  0.2499999640150108  0.5000002436872677
  0.8749994897165294  0.2499999640150108  0.5000002436872677
  0.3749994814558946  0.7500000371161235  0.5000002578731468
  0.8749994814558946  0.7500000371161235  0.5000002578731468
  0.2499999987877999  0.0000000398376088  0.5668263084524171
  0.7499999987877999  0.0000000398376088  0.5668263084524171
  0.2500000020404656  0.9999999822225121  0.4157892886174724
  0.7500000020404656  0.9999999822225121  0.4157892886174724
  0.9999999987258121  0.4999999862387625  0.5842107044767060
  0.4999999987258121  0.4999999862387625  0.5842107044767060
  0.2500000007800054  0.4999999987125889  0.4286415316470684
  0.7500000007800054  0.4999999987125889  0.4286415316470684
  0.9999999987259898  0.0000000245905198  0.5713585953521996
  0.4999999987259898  0.0000000245905198  0.5713585953521996
 
  0.00000000E+00  0.00000000E+00  0.00000000E+00
  0.00000000E+00  0.00000000E+00  0.00000000E+00
  0.00000000E+00  0.00000000E+00  0.00000000E+00
  0.00000000E+00  0.00000000E+00  0.00000000E+00
  0.00000000E+00  0.00000000E+00  0.00000000E+00
  0.00000000E+00  0.00000000E+00  0.00000000E+00
  0.00000000E+00  0.00000000E+00  0.00000000E+00
  0.00000000E+00  0.00000000E+00  0.00000000E+00
  0.00000000E+00  0.00000000E+00  0.00000000E+00
  0.00000000E+00  0.00000000E+00  0.00000000E+00
  0.00000000E+00  0.00000000E+00  0.00000000E+00
  0.00000000E+00  0.00000000E+00  0.00000000E+00
  0.00000000E+00  0.00000000E+00  0.00000000E+00
  0.00000000E+00  0.00000000E+00  0.00000000E+00
  0.00000000E+00  0.00000000E+00  0.00000000E+00
  0.00000000E+00  0.00000000E+00  0.00000000E+00
  0.00000000E+00  0.00000000E+00  0.00000000E+00
  0.00000000E+00  0.00000000E+00  0.00000000E+00
  0.00000000E+00  0.00000000E+00  0.00000000E+00
  0.00000000E+00  0.00000000E+00  0.00000000E+00
  0.00000000E+00  0.00000000E+00  0.00000000E+00
  0.00000000E+00  0.00000000E+00  0.00000000E+00
  0.00000000E+00  0.00000000E+00  0.00000000E+00
  0.00000000E+00  0.00000000E+00  0.00000000E+00
  0.00000000E+00  0.00000000E+00  0.00000000E+00
  0.00000000E+00  0.00000000E+00  0.00000000E+00
  0.00000000E+00  0.00000000E+00  0.00000000E+00
  0.00000000E+00  0.00000000E+00  0.00000000E+00
