 Nb9 Ir1 Se20                           
   1.00000000000000     
     6.9972406261064428    0.0000000000000000    0.0000000000000000
     1.7290453555813192   15.1398845865918066    0.0000000000000000
     0.0000000000000000    0.0000000000000000   18.4675706551199994
   Nb   Ir   Se
     9     1    20
Direct
  0.1724880624405998  0.1836346439970553  0.5033109467126267
  0.0143213953081620  0.9776411439878813  0.4958263718328008
  0.8024855985562441  0.8018683240112564  0.4991018572676403
  0.5844087217272735  0.6241838039260377  0.5011424205049206
  0.5054999245528310  0.9831293256518330  0.4977684130389686
  0.3738072604660497  0.4244656100401260  0.5072751441792492
  0.2992333718234239  0.8047509999166896  0.4995193832758891
  0.0872418448153185  0.6215703354357118  0.5005204107661708
  0.8837944097156549  0.3819701307159922  0.4980310069778779
  0.7367511406651959  0.2099320980782425  0.4987390190422451
  0.9406062947947621  0.2661512896233116  0.5974955125477079
  0.1692152521704733  0.3360574476028940  0.4176215257270624
  0.7383446244766406  0.0703537845932297  0.5741693495833914
  0.9690796265466400  0.1283098531985609  0.4079301756503372
  0.5370524639044886  0.8660168373621951  0.5944907254328032
  0.4433880628795307  0.2671841951802176  0.5728214754409222
  0.7647475953617369  0.9328773461778936  0.4028658988561701
  0.6559946983231344  0.3354919285150118  0.4091945383906747
  0.3267314971859281  0.6735742265992771  0.5955373982195411
  0.2299177481869220  0.0576308803399167  0.5899033919026754
  0.4817442182836054  0.1397830429821084  0.4242856491010682
  0.5630494415301488  0.7404159489803168  0.4045521646967216
  0.1172180570045646  0.4742585695939598  0.5914825547734750
  0.0328244148523679  0.8637273575062846  0.5952145076543282
  0.3592404099196475  0.5428149566684802  0.4113183848222554
  0.2711079107004490  0.9339641721816527  0.4004949460991591
  0.8271619903208903  0.6726163761916030  0.5954935429568424
  0.0625531083523808  0.7392861616305442  0.4045689144948514
  0.6376082537247987  0.4729223271885825  0.5863291262369462
  0.8593376014101390  0.5350368821231818  0.4229952438146289
 
  0.00000000E+00  0.00000000E+00  0.00000000E+00
  0.00000000E+00  0.00000000E+00  0.00000000E+00
  0.00000000E+00  0.00000000E+00  0.00000000E+00
  0.00000000E+00  0.00000000E+00  0.00000000E+00
  0.00000000E+00  0.00000000E+00  0.00000000E+00
  0.00000000E+00  0.00000000E+00  0.00000000E+00
  0.00000000E+00  0.00000000E+00  0.00000000E+00
  0.00000000E+00  0.00000000E+00  0.00000000E+00
  0.00000000E+00  0.00000000E+00  0.00000000E+00
  0.00000000E+00  0.00000000E+00  0.00000000E+00
  0.00000000E+00  0.00000000E+00  0.00000000E+00
  0.00000000E+00  0.00000000E+00  0.00000000E+00
  0.00000000E+00  0.00000000E+00  0.00000000E+00
  0.00000000E+00  0.00000000E+00  0.00000000E+00
  0.00000000E+00  0.00000000E+00  0.00000000E+00
  0.00000000E+00  0.00000000E+00  0.00000000E+00
  0.00000000E+00  0.00000000E+00  0.00000000E+00
  0.00000000E+00  0.00000000E+00  0.00000000E+00
  0.00000000E+00  0.00000000E+00  0.00000000E+00
  0.00000000E+00  0.00000000E+00  0.00000000E+00
  0.00000000E+00  0.00000000E+00  0.00000000E+00
  0.00000000E+00  0.00000000E+00  0.00000000E+00
  0.00000000E+00  0.00000000E+00  0.00000000E+00
  0.00000000E+00  0.00000000E+00  0.00000000E+00
  0.00000000E+00  0.00000000E+00  0.00000000E+00
  0.00000000E+00  0.00000000E+00  0.00000000E+00
  0.00000000E+00  0.00000000E+00  0.00000000E+00
  0.00000000E+00  0.00000000E+00  0.00000000E+00
  0.00000000E+00  0.00000000E+00  0.00000000E+00
  0.00000000E+00  0.00000000E+00  0.00000000E+00
