CONTCAR\(8)                             
   1.00000000000000     
    11.2503995895000006    0.0000000000000000    0.0000000000000000
     0.0000000000000000   11.4900999068999994    0.0000000000000000
     0.0000000000000000    0.0000000000000000   19.3134994507000002
   Cr   Te   O 
     8    24     1
Direct
  0.0181678489052407  0.6520317669733989  0.4978322864569257
  0.4912555976362667  0.8299113907389625  0.5078981451052546
  0.0098388547787258  0.3494140520640927  0.5003556045868921
  0.4801300896616862  0.1690733283102775  0.5034327004992193
  0.2449735782757194  0.4998239904229384  0.5090810388643274
  0.7821164518552625  0.0082772494097434  0.4811058766141196
  0.7133684264966755  0.5038351870260117  0.4968925449468296
  0.2444358693181772  0.0044363880365913  0.5159847879444275
  0.9034925779172533  0.5049049889214967  0.5834591101004893
  0.4049487123898995 -0.0029783728632373  0.4185677256920319
  0.0899525422105063  0.4988270161642309  0.4067123878617655
  0.6050970773294835  0.0043873750704019  0.5770962844235104
  0.3264366034699578  0.1544740915035173  0.6070958002429887
  0.8271087729246607  0.3504130351324539  0.4099514063540000
  0.6615677891307599  0.8456028037135452  0.4081484984889261
  0.1627105215663149  0.6521411815267700  0.6028460416909789
  0.1566089015454180  0.3509752633686439  0.6038377885758156
  0.6563905969668739  0.1604631668217269  0.4065695667548236
  0.8302980979771889  0.6518529861651559  0.4087858997868196
  0.3266993573148787  0.8521169497956694  0.6070555506427399
  0.6028017751683974  0.3350565759586209  0.5742442455787726
  0.1296650469478475  0.1748366669590624  0.4454931160295163
  0.3670553496397227  0.6644692627224350  0.4337323670315305
  0.8945208937296187  0.8286454411639449  0.5478739304385636
  0.4196608136110910  0.4986960564207270  0.6064499843212663
  0.9541244638578951  0.0049977407742586  0.3873365131061239
  0.5498836346134494  0.5025908508478805  0.3958673350006216
  0.0629390035810851  0.0042230725423001  0.6065713558234873
  0.6168374392005510  0.6697899937427008  0.5855773243903518
  0.1310934881199911  0.8302239198303653  0.4406161071339797
  0.3599711069487467  0.3354392620669781  0.4286520726260216
  0.8875887842181663  0.1768513699758204  0.5648362120693389
  0.7799099986924827  0.7713659216925152  0.6139502928175165
 
  0.00000000E+00  0.00000000E+00  0.00000000E+00
  0.00000000E+00  0.00000000E+00  0.00000000E+00
  0.00000000E+00  0.00000000E+00  0.00000000E+00
  0.00000000E+00  0.00000000E+00  0.00000000E+00
  0.00000000E+00  0.00000000E+00  0.00000000E+00
  0.00000000E+00  0.00000000E+00  0.00000000E+00
  0.00000000E+00  0.00000000E+00  0.00000000E+00
  0.00000000E+00  0.00000000E+00  0.00000000E+00
  0.00000000E+00  0.00000000E+00  0.00000000E+00
  0.00000000E+00  0.00000000E+00  0.00000000E+00
  0.00000000E+00  0.00000000E+00  0.00000000E+00
  0.00000000E+00  0.00000000E+00  0.00000000E+00
  0.00000000E+00  0.00000000E+00  0.00000000E+00
  0.00000000E+00  0.00000000E+00  0.00000000E+00
  0.00000000E+00  0.00000000E+00  0.00000000E+00
  0.00000000E+00  0.00000000E+00  0.00000000E+00
  0.00000000E+00  0.00000000E+00  0.00000000E+00
  0.00000000E+00  0.00000000E+00  0.00000000E+00
  0.00000000E+00  0.00000000E+00  0.00000000E+00
  0.00000000E+00  0.00000000E+00  0.00000000E+00
  0.00000000E+00  0.00000000E+00  0.00000000E+00
  0.00000000E+00  0.00000000E+00  0.00000000E+00
  0.00000000E+00  0.00000000E+00  0.00000000E+00
  0.00000000E+00  0.00000000E+00  0.00000000E+00
  0.00000000E+00  0.00000000E+00  0.00000000E+00
  0.00000000E+00  0.00000000E+00  0.00000000E+00
  0.00000000E+00  0.00000000E+00  0.00000000E+00
  0.00000000E+00  0.00000000E+00  0.00000000E+00
  0.00000000E+00  0.00000000E+00  0.00000000E+00
  0.00000000E+00  0.00000000E+00  0.00000000E+00
  0.00000000E+00  0.00000000E+00  0.00000000E+00
  0.00000000E+00  0.00000000E+00  0.00000000E+00
  0.00000000E+00  0.00000000E+00  0.00000000E+00
