 Ti1 Nb1 S4                             
   1.00000000000000     
     3.3673189603600044    0.0000000000000000    0.0000000000000000
     0.0000000000000000    5.8666093658494720    0.0000000000000000
     0.0000000000000000    0.0000000000000000   18.0196152197280028
   Ti   Nb   S 
     1     1     4
Direct
  0.5000000096856070  0.4999999991010498  0.4999999987712869
  0.9999999884239514  0.0000000039443151  0.5000000015330670
  0.4999999905996333  0.1722186051434065  0.4163856734621803
  0.0000000069170198  0.3366961009098546  0.5816349382165740
  0.0000000016673809  0.6633038991442177  0.4183650616133079
  0.5000000027064075  0.8277813917571635  0.5836143264035911
 
  0.00000000E+00  0.00000000E+00  0.00000000E+00
  0.00000000E+00  0.00000000E+00  0.00000000E+00
  0.00000000E+00  0.00000000E+00  0.00000000E+00
  0.00000000E+00  0.00000000E+00  0.00000000E+00
  0.00000000E+00  0.00000000E+00  0.00000000E+00
  0.00000000E+00  0.00000000E+00  0.00000000E+00
