G   59   34    1    0.005     # Parameters to Generate KPOINTS (Don't Edit This Line)
     540
Reciprocal lattice
    0.000000000000    0.000000000000    0.000000000000       1
    0.016949152542    0.000000000000    0.000000000000       2
    0.033898305085    0.000000000000    0.000000000000       2
    0.050847457627    0.000000000000    0.000000000000       2
    0.067796610169    0.000000000000    0.000000000000       2
    0.084745762712    0.000000000000    0.000000000000       2
    0.101694915254    0.000000000000    0.000000000000       2
    0.118644067797    0.000000000000    0.000000000000       2
    0.135593220339    0.000000000000    0.000000000000       2
    0.152542372881    0.000000000000    0.000000000000       2
    0.169491525424    0.000000000000    0.000000000000       2
    0.186440677966    0.000000000000    0.000000000000       2
    0.203389830508    0.000000000000    0.000000000000       2
    0.220338983051    0.000000000000    0.000000000000       2
    0.237288135593    0.000000000000    0.000000000000       2
    0.254237288136    0.000000000000    0.000000000000       2
    0.271186440678    0.000000000000    0.000000000000       2
    0.288135593220    0.000000000000    0.000000000000       2
    0.305084745763    0.000000000000    0.000000000000       2
    0.322033898305    0.000000000000    0.000000000000       2
    0.338983050847    0.000000000000    0.000000000000       2
    0.355932203390    0.000000000000    0.000000000000       2
    0.372881355932    0.000000000000    0.000000000000       2
    0.389830508475    0.000000000000    0.000000000000       2
    0.406779661017    0.000000000000    0.000000000000       2
    0.423728813559    0.000000000000    0.000000000000       2
    0.440677966102    0.000000000000    0.000000000000       2
    0.457627118644    0.000000000000    0.000000000000       2
    0.474576271186    0.000000000000    0.000000000000       2
    0.491525423729    0.000000000000    0.000000000000       2
    0.000000000000    0.029411764706    0.000000000000       2
    0.016949152542    0.029411764706    0.000000000000       4
    0.033898305085    0.029411764706    0.000000000000       4
    0.050847457627    0.029411764706    0.000000000000       4
    0.067796610169    0.029411764706    0.000000000000       4
    0.084745762712    0.029411764706    0.000000000000       4
    0.101694915254    0.029411764706    0.000000000000       4
    0.118644067797    0.029411764706    0.000000000000       4
    0.135593220339    0.029411764706    0.000000000000       4
    0.152542372881    0.029411764706    0.000000000000       4
    0.169491525424    0.029411764706    0.000000000000       4
    0.186440677966    0.029411764706    0.000000000000       4
    0.203389830508    0.029411764706    0.000000000000       4
    0.220338983051    0.029411764706    0.000000000000       4
    0.237288135593    0.029411764706    0.000000000000       4
    0.254237288136    0.029411764706    0.000000000000       4
    0.271186440678    0.029411764706    0.000000000000       4
    0.288135593220    0.029411764706    0.000000000000       4
    0.305084745763    0.029411764706    0.000000000000       4
    0.322033898305    0.029411764706    0.000000000000       4
    0.338983050847    0.029411764706    0.000000000000       4
    0.355932203390    0.029411764706    0.000000000000       4
    0.372881355932    0.029411764706    0.000000000000       4
    0.389830508475    0.029411764706    0.000000000000       4
    0.406779661017    0.029411764706    0.000000000000       4
    0.423728813559    0.029411764706    0.000000000000       4
    0.440677966102    0.029411764706    0.000000000000       4
    0.457627118644    0.029411764706    0.000000000000       4
    0.474576271186    0.029411764706    0.000000000000       4
    0.491525423729    0.029411764706    0.000000000000       4
    0.000000000000    0.058823529412    0.000000000000       2
    0.016949152542    0.058823529412    0.000000000000       4
    0.033898305085    0.058823529412    0.000000000000       4
    0.050847457627    0.058823529412    0.000000000000       4
    0.067796610169    0.058823529412    0.000000000000       4
    0.084745762712    0.058823529412    0.000000000000       4
    0.101694915254    0.058823529412    0.000000000000       4
    0.118644067797    0.058823529412    0.000000000000       4
    0.135593220339    0.058823529412    0.000000000000       4
    0.152542372881    0.058823529412    0.000000000000       4
    0.169491525424    0.058823529412    0.000000000000       4
    0.186440677966    0.058823529412    0.000000000000       4
    0.203389830508    0.058823529412    0.000000000000       4
    0.220338983051    0.058823529412    0.000000000000       4
    0.237288135593    0.058823529412    0.000000000000       4
    0.254237288136    0.058823529412    0.000000000000       4
    0.271186440678    0.058823529412    0.000000000000       4
    0.288135593220    0.058823529412    0.000000000000       4
    0.305084745763    0.058823529412    0.000000000000       4
    0.322033898305    0.058823529412    0.000000000000       4
    0.338983050847    0.058823529412    0.000000000000       4
    0.355932203390    0.058823529412    0.000000000000       4
    0.372881355932    0.058823529412    0.000000000000       4
    0.389830508475    0.058823529412    0.000000000000       4
    0.406779661017    0.058823529412    0.000000000000       4
    0.423728813559    0.058823529412    0.000000000000       4
    0.440677966102    0.058823529412    0.000000000000       4
    0.457627118644    0.058823529412    0.000000000000       4
    0.474576271186    0.058823529412    0.000000000000       4
    0.491525423729    0.058823529412    0.000000000000       4
    0.000000000000    0.088235294118    0.000000000000       2
    0.016949152542    0.088235294118    0.000000000000       4
    0.033898305085    0.088235294118    0.000000000000       4
    0.050847457627    0.088235294118    0.000000000000       4
    0.067796610169    0.088235294118    0.000000000000       4
    0.084745762712    0.088235294118    0.000000000000       4
    0.101694915254    0.088235294118    0.000000000000       4
    0.118644067797    0.088235294118    0.000000000000       4
    0.135593220339    0.088235294118    0.000000000000       4
    0.152542372881    0.088235294118    0.000000000000       4
    0.169491525424    0.088235294118    0.000000000000       4
    0.186440677966    0.088235294118    0.000000000000       4
    0.203389830508    0.088235294118    0.000000000000       4
    0.220338983051    0.088235294118    0.000000000000       4
    0.237288135593    0.088235294118    0.000000000000       4
    0.254237288136    0.088235294118    0.000000000000       4
    0.271186440678    0.088235294118    0.000000000000       4
    0.288135593220    0.088235294118    0.000000000000       4
    0.305084745763    0.088235294118    0.000000000000       4
    0.322033898305    0.088235294118    0.000000000000       4
    0.338983050847    0.088235294118    0.000000000000       4
    0.355932203390    0.088235294118    0.000000000000       4
    0.372881355932    0.088235294118    0.000000000000       4
    0.389830508475    0.088235294118    0.000000000000       4
    0.406779661017    0.088235294118    0.000000000000       4
    0.423728813559    0.088235294118    0.000000000000       4
    0.440677966102    0.088235294118    0.000000000000       4
    0.457627118644    0.088235294118    0.000000000000       4
    0.474576271186    0.088235294118    0.000000000000       4
    0.491525423729    0.088235294118    0.000000000000       4
    0.000000000000    0.117647058824    0.000000000000       2
    0.016949152542    0.117647058824    0.000000000000       4
    0.033898305085    0.117647058824    0.000000000000       4
    0.050847457627    0.117647058824    0.000000000000       4
    0.067796610169    0.117647058824    0.000000000000       4
    0.084745762712    0.117647058824    0.000000000000       4
    0.101694915254    0.117647058824    0.000000000000       4
    0.118644067797    0.117647058824    0.000000000000       4
    0.135593220339    0.117647058824    0.000000000000       4
    0.152542372881    0.117647058824    0.000000000000       4
    0.169491525424    0.117647058824    0.000000000000       4
    0.186440677966    0.117647058824    0.000000000000       4
    0.203389830508    0.117647058824    0.000000000000       4
    0.220338983051    0.117647058824    0.000000000000       4
    0.237288135593    0.117647058824    0.000000000000       4
    0.254237288136    0.117647058824    0.000000000000       4
    0.271186440678    0.117647058824    0.000000000000       4
    0.288135593220    0.117647058824    0.000000000000       4
    0.305084745763    0.117647058824    0.000000000000       4
    0.322033898305    0.117647058824    0.000000000000       4
    0.338983050847    0.117647058824    0.000000000000       4
    0.355932203390    0.117647058824    0.000000000000       4
    0.372881355932    0.117647058824    0.000000000000       4
    0.389830508475    0.117647058824    0.000000000000       4
    0.406779661017    0.117647058824    0.000000000000       4
    0.423728813559    0.117647058824    0.000000000000       4
    0.440677966102    0.117647058824    0.000000000000       4
    0.457627118644    0.117647058824    0.000000000000       4
    0.474576271186    0.117647058824    0.000000000000       4
    0.491525423729    0.117647058824    0.000000000000       4
    0.000000000000    0.147058823529    0.000000000000       2
    0.016949152542    0.147058823529    0.000000000000       4
    0.033898305085    0.147058823529    0.000000000000       4
    0.050847457627    0.147058823529    0.000000000000       4
    0.067796610169    0.147058823529    0.000000000000       4
    0.084745762712    0.147058823529    0.000000000000       4
    0.101694915254    0.147058823529    0.000000000000       4
    0.118644067797    0.147058823529    0.000000000000       4
    0.135593220339    0.147058823529    0.000000000000       4
    0.152542372881    0.147058823529    0.000000000000       4
    0.169491525424    0.147058823529    0.000000000000       4
    0.186440677966    0.147058823529    0.000000000000       4
    0.203389830508    0.147058823529    0.000000000000       4
    0.220338983051    0.147058823529    0.000000000000       4
    0.237288135593    0.147058823529    0.000000000000       4
    0.254237288136    0.147058823529    0.000000000000       4
    0.271186440678    0.147058823529    0.000000000000       4
    0.288135593220    0.147058823529    0.000000000000       4
    0.305084745763    0.147058823529    0.000000000000       4
    0.322033898305    0.147058823529    0.000000000000       4
    0.338983050847    0.147058823529    0.000000000000       4
    0.355932203390    0.147058823529    0.000000000000       4
    0.372881355932    0.147058823529    0.000000000000       4
    0.389830508475    0.147058823529    0.000000000000       4
    0.406779661017    0.147058823529    0.000000000000       4
    0.423728813559    0.147058823529    0.000000000000       4
    0.440677966102    0.147058823529    0.000000000000       4
    0.457627118644    0.147058823529    0.000000000000       4
    0.474576271186    0.147058823529    0.000000000000       4
    0.491525423729    0.147058823529    0.000000000000       4
    0.000000000000    0.176470588235    0.000000000000       2
    0.016949152542    0.176470588235    0.000000000000       4
    0.033898305085    0.176470588235    0.000000000000       4
    0.050847457627    0.176470588235    0.000000000000       4
    0.067796610169    0.176470588235    0.000000000000       4
    0.084745762712    0.176470588235    0.000000000000       4
    0.101694915254    0.176470588235    0.000000000000       4
    0.118644067797    0.176470588235    0.000000000000       4
    0.135593220339    0.176470588235    0.000000000000       4
    0.152542372881    0.176470588235    0.000000000000       4
    0.169491525424    0.176470588235    0.000000000000       4
    0.186440677966    0.176470588235    0.000000000000       4
    0.203389830508    0.176470588235    0.000000000000       4
    0.220338983051    0.176470588235    0.000000000000       4
    0.237288135593    0.176470588235    0.000000000000       4
    0.254237288136    0.176470588235    0.000000000000       4
    0.271186440678    0.176470588235    0.000000000000       4
    0.288135593220    0.176470588235    0.000000000000       4
    0.305084745763    0.176470588235    0.000000000000       4
    0.322033898305    0.176470588235    0.000000000000       4
    0.338983050847    0.176470588235    0.000000000000       4
    0.355932203390    0.176470588235    0.000000000000       4
    0.372881355932    0.176470588235    0.000000000000       4
    0.389830508475    0.176470588235    0.000000000000       4
    0.406779661017    0.176470588235    0.000000000000       4
    0.423728813559    0.176470588235    0.000000000000       4
    0.440677966102    0.176470588235    0.000000000000       4
    0.457627118644    0.176470588235    0.000000000000       4
    0.474576271186    0.176470588235    0.000000000000       4
    0.491525423729    0.176470588235    0.000000000000       4
    0.000000000000    0.205882352941    0.000000000000       2
    0.016949152542    0.205882352941    0.000000000000       4
    0.033898305085    0.205882352941    0.000000000000       4
    0.050847457627    0.205882352941    0.000000000000       4
    0.067796610169    0.205882352941    0.000000000000       4
    0.084745762712    0.205882352941    0.000000000000       4
    0.101694915254    0.205882352941    0.000000000000       4
    0.118644067797    0.205882352941    0.000000000000       4
    0.135593220339    0.205882352941    0.000000000000       4
    0.152542372881    0.205882352941    0.000000000000       4
    0.169491525424    0.205882352941    0.000000000000       4
    0.186440677966    0.205882352941    0.000000000000       4
    0.203389830508    0.205882352941    0.000000000000       4
    0.220338983051    0.205882352941    0.000000000000       4
    0.237288135593    0.205882352941    0.000000000000       4
    0.254237288136    0.205882352941    0.000000000000       4
    0.271186440678    0.205882352941    0.000000000000       4
    0.288135593220    0.205882352941    0.000000000000       4
    0.305084745763    0.205882352941    0.000000000000       4
    0.322033898305    0.205882352941    0.000000000000       4
    0.338983050847    0.205882352941    0.000000000000       4
    0.355932203390    0.205882352941    0.000000000000       4
    0.372881355932    0.205882352941    0.000000000000       4
    0.389830508475    0.205882352941    0.000000000000       4
    0.406779661017    0.205882352941    0.000000000000       4
    0.423728813559    0.205882352941    0.000000000000       4
    0.440677966102    0.205882352941    0.000000000000       4
    0.457627118644    0.205882352941    0.000000000000       4
    0.474576271186    0.205882352941    0.000000000000       4
    0.491525423729    0.205882352941    0.000000000000       4
    0.000000000000    0.235294117647    0.000000000000       2
    0.016949152542    0.235294117647    0.000000000000       4
    0.033898305085    0.235294117647    0.000000000000       4
    0.050847457627    0.235294117647    0.000000000000       4
    0.067796610169    0.235294117647    0.000000000000       4
    0.084745762712    0.235294117647    0.000000000000       4
    0.101694915254    0.235294117647    0.000000000000       4
    0.118644067797    0.235294117647    0.000000000000       4
    0.135593220339    0.235294117647    0.000000000000       4
    0.152542372881    0.235294117647    0.000000000000       4
    0.169491525424    0.235294117647    0.000000000000       4
    0.186440677966    0.235294117647    0.000000000000       4
    0.203389830508    0.235294117647    0.000000000000       4
    0.220338983051    0.235294117647    0.000000000000       4
    0.237288135593    0.235294117647    0.000000000000       4
    0.254237288136    0.235294117647    0.000000000000       4
    0.271186440678    0.235294117647    0.000000000000       4
    0.288135593220    0.235294117647    0.000000000000       4
    0.305084745763    0.235294117647    0.000000000000       4
    0.322033898305    0.235294117647    0.000000000000       4
    0.338983050847    0.235294117647    0.000000000000       4
    0.355932203390    0.235294117647    0.000000000000       4
    0.372881355932    0.235294117647    0.000000000000       4
    0.389830508475    0.235294117647    0.000000000000       4
    0.406779661017    0.235294117647    0.000000000000       4
    0.423728813559    0.235294117647    0.000000000000       4
    0.440677966102    0.235294117647    0.000000000000       4
    0.457627118644    0.235294117647    0.000000000000       4
    0.474576271186    0.235294117647    0.000000000000       4
    0.491525423729    0.235294117647    0.000000000000       4
    0.000000000000    0.264705882353    0.000000000000       2
    0.016949152542    0.264705882353    0.000000000000       4
    0.033898305085    0.264705882353    0.000000000000       4
    0.050847457627    0.264705882353    0.000000000000       4
    0.067796610169    0.264705882353    0.000000000000       4
    0.084745762712    0.264705882353    0.000000000000       4
    0.101694915254    0.264705882353    0.000000000000       4
    0.118644067797    0.264705882353    0.000000000000       4
    0.135593220339    0.264705882353    0.000000000000       4
    0.152542372881    0.264705882353    0.000000000000       4
    0.169491525424    0.264705882353    0.000000000000       4
    0.186440677966    0.264705882353    0.000000000000       4
    0.203389830508    0.264705882353    0.000000000000       4
    0.220338983051    0.264705882353    0.000000000000       4
    0.237288135593    0.264705882353    0.000000000000       4
    0.254237288136    0.264705882353    0.000000000000       4
    0.271186440678    0.264705882353    0.000000000000       4
    0.288135593220    0.264705882353    0.000000000000       4
    0.305084745763    0.264705882353    0.000000000000       4
    0.322033898305    0.264705882353    0.000000000000       4
    0.338983050847    0.264705882353    0.000000000000       4
    0.355932203390    0.264705882353    0.000000000000       4
    0.372881355932    0.264705882353    0.000000000000       4
    0.389830508475    0.264705882353    0.000000000000       4
    0.406779661017    0.264705882353    0.000000000000       4
    0.423728813559    0.264705882353    0.000000000000       4
    0.440677966102    0.264705882353    0.000000000000       4
    0.457627118644    0.264705882353    0.000000000000       4
    0.474576271186    0.264705882353    0.000000000000       4
    0.491525423729    0.264705882353    0.000000000000       4
    0.000000000000    0.294117647059    0.000000000000       2
    0.016949152542    0.294117647059    0.000000000000       4
    0.033898305085    0.294117647059    0.000000000000       4
    0.050847457627    0.294117647059    0.000000000000       4
    0.067796610169    0.294117647059    0.000000000000       4
    0.084745762712    0.294117647059    0.000000000000       4
    0.101694915254    0.294117647059    0.000000000000       4
    0.118644067797    0.294117647059    0.000000000000       4
    0.135593220339    0.294117647059    0.000000000000       4
    0.152542372881    0.294117647059    0.000000000000       4
    0.169491525424    0.294117647059    0.000000000000       4
    0.186440677966    0.294117647059    0.000000000000       4
    0.203389830508    0.294117647059    0.000000000000       4
    0.220338983051    0.294117647059    0.000000000000       4
    0.237288135593    0.294117647059    0.000000000000       4
    0.254237288136    0.294117647059    0.000000000000       4
    0.271186440678    0.294117647059    0.000000000000       4
    0.288135593220    0.294117647059    0.000000000000       4
    0.305084745763    0.294117647059    0.000000000000       4
    0.322033898305    0.294117647059    0.000000000000       4
    0.338983050847    0.294117647059    0.000000000000       4
    0.355932203390    0.294117647059    0.000000000000       4
    0.372881355932    0.294117647059    0.000000000000       4
    0.389830508475    0.294117647059    0.000000000000       4
    0.406779661017    0.294117647059    0.000000000000       4
    0.423728813559    0.294117647059    0.000000000000       4
    0.440677966102    0.294117647059    0.000000000000       4
    0.457627118644    0.294117647059    0.000000000000       4
    0.474576271186    0.294117647059    0.000000000000       4
    0.491525423729    0.294117647059    0.000000000000       4
    0.000000000000    0.323529411765    0.000000000000       2
    0.016949152542    0.323529411765    0.000000000000       4
    0.033898305085    0.323529411765    0.000000000000       4
    0.050847457627    0.323529411765    0.000000000000       4
    0.067796610169    0.323529411765    0.000000000000       4
    0.084745762712    0.323529411765    0.000000000000       4
    0.101694915254    0.323529411765    0.000000000000       4
    0.118644067797    0.323529411765    0.000000000000       4
    0.135593220339    0.323529411765    0.000000000000       4
    0.152542372881    0.323529411765    0.000000000000       4
    0.169491525424    0.323529411765    0.000000000000       4
    0.186440677966    0.323529411765    0.000000000000       4
    0.203389830508    0.323529411765    0.000000000000       4
    0.220338983051    0.323529411765    0.000000000000       4
    0.237288135593    0.323529411765    0.000000000000       4
    0.254237288136    0.323529411765    0.000000000000       4
    0.271186440678    0.323529411765    0.000000000000       4
    0.288135593220    0.323529411765    0.000000000000       4
    0.305084745763    0.323529411765    0.000000000000       4
    0.322033898305    0.323529411765    0.000000000000       4
    0.338983050847    0.323529411765    0.000000000000       4
    0.355932203390    0.323529411765    0.000000000000       4
    0.372881355932    0.323529411765    0.000000000000       4
    0.389830508475    0.323529411765    0.000000000000       4
    0.406779661017    0.323529411765    0.000000000000       4
    0.423728813559    0.323529411765    0.000000000000       4
    0.440677966102    0.323529411765    0.000000000000       4
    0.457627118644    0.323529411765    0.000000000000       4
    0.474576271186    0.323529411765    0.000000000000       4
    0.491525423729    0.323529411765    0.000000000000       4
    0.000000000000    0.352941176471    0.000000000000       2
    0.016949152542    0.352941176471    0.000000000000       4
    0.033898305085    0.352941176471    0.000000000000       4
    0.050847457627    0.352941176471    0.000000000000       4
    0.067796610169    0.352941176471    0.000000000000       4
    0.084745762712    0.352941176471    0.000000000000       4
    0.101694915254    0.352941176471    0.000000000000       4
    0.118644067797    0.352941176471    0.000000000000       4
    0.135593220339    0.352941176471    0.000000000000       4
    0.152542372881    0.352941176471    0.000000000000       4
    0.169491525424    0.352941176471    0.000000000000       4
    0.186440677966    0.352941176471    0.000000000000       4
    0.203389830508    0.352941176471    0.000000000000       4
    0.220338983051    0.352941176471    0.000000000000       4
    0.237288135593    0.352941176471    0.000000000000       4
    0.254237288136    0.352941176471    0.000000000000       4
    0.271186440678    0.352941176471    0.000000000000       4
    0.288135593220    0.352941176471    0.000000000000       4
    0.305084745763    0.352941176471    0.000000000000       4
    0.322033898305    0.352941176471    0.000000000000       4
    0.338983050847    0.352941176471    0.000000000000       4
    0.355932203390    0.352941176471    0.000000000000       4
    0.372881355932    0.352941176471    0.000000000000       4
    0.389830508475    0.352941176471    0.000000000000       4
    0.406779661017    0.352941176471    0.000000000000       4
    0.423728813559    0.352941176471    0.000000000000       4
    0.440677966102    0.352941176471    0.000000000000       4
    0.457627118644    0.352941176471    0.000000000000       4
    0.474576271186    0.352941176471    0.000000000000       4
    0.491525423729    0.352941176471    0.000000000000       4
    0.000000000000    0.382352941176    0.000000000000       2
    0.016949152542    0.382352941176    0.000000000000       4
    0.033898305085    0.382352941176    0.000000000000       4
    0.050847457627    0.382352941176    0.000000000000       4
    0.067796610169    0.382352941176    0.000000000000       4
    0.084745762712    0.382352941176    0.000000000000       4
    0.101694915254    0.382352941176    0.000000000000       4
    0.118644067797    0.382352941176    0.000000000000       4
    0.135593220339    0.382352941176    0.000000000000       4
    0.152542372881    0.382352941176    0.000000000000       4
    0.169491525424    0.382352941176    0.000000000000       4
    0.186440677966    0.382352941176    0.000000000000       4
    0.203389830508    0.382352941176    0.000000000000       4
    0.220338983051    0.382352941176    0.000000000000       4
    0.237288135593    0.382352941176    0.000000000000       4
    0.254237288136    0.382352941176    0.000000000000       4
    0.271186440678    0.382352941176    0.000000000000       4
    0.288135593220    0.382352941176    0.000000000000       4
    0.305084745763    0.382352941176    0.000000000000       4
    0.322033898305    0.382352941176    0.000000000000       4
    0.338983050847    0.382352941176    0.000000000000       4
    0.355932203390    0.382352941176    0.000000000000       4
    0.372881355932    0.382352941176    0.000000000000       4
    0.389830508475    0.382352941176    0.000000000000       4
    0.406779661017    0.382352941176    0.000000000000       4
    0.423728813559    0.382352941176    0.000000000000       4
    0.440677966102    0.382352941176    0.000000000000       4
    0.457627118644    0.382352941176    0.000000000000       4
    0.474576271186    0.382352941176    0.000000000000       4
    0.491525423729    0.382352941176    0.000000000000       4
    0.000000000000    0.411764705882    0.000000000000       2
    0.016949152542    0.411764705882    0.000000000000       4
    0.033898305085    0.411764705882    0.000000000000       4
    0.050847457627    0.411764705882    0.000000000000       4
    0.067796610169    0.411764705882    0.000000000000       4
    0.084745762712    0.411764705882    0.000000000000       4
    0.101694915254    0.411764705882    0.000000000000       4
    0.118644067797    0.411764705882    0.000000000000       4
    0.135593220339    0.411764705882    0.000000000000       4
    0.152542372881    0.411764705882    0.000000000000       4
    0.169491525424    0.411764705882    0.000000000000       4
    0.186440677966    0.411764705882    0.000000000000       4
    0.203389830508    0.411764705882    0.000000000000       4
    0.220338983051    0.411764705882    0.000000000000       4
    0.237288135593    0.411764705882    0.000000000000       4
    0.254237288136    0.411764705882    0.000000000000       4
    0.271186440678    0.411764705882    0.000000000000       4
    0.288135593220    0.411764705882    0.000000000000       4
    0.305084745763    0.411764705882    0.000000000000       4
    0.322033898305    0.411764705882    0.000000000000       4
    0.338983050847    0.411764705882    0.000000000000       4
    0.355932203390    0.411764705882    0.000000000000       4
    0.372881355932    0.411764705882    0.000000000000       4
    0.389830508475    0.411764705882    0.000000000000       4
    0.406779661017    0.411764705882    0.000000000000       4
    0.423728813559    0.411764705882    0.000000000000       4
    0.440677966102    0.411764705882    0.000000000000       4
    0.457627118644    0.411764705882    0.000000000000       4
    0.474576271186    0.411764705882    0.000000000000       4
    0.491525423729    0.411764705882    0.000000000000       4
    0.000000000000    0.441176470588    0.000000000000       2
    0.016949152542    0.441176470588    0.000000000000       4
    0.033898305085    0.441176470588    0.000000000000       4
    0.050847457627    0.441176470588    0.000000000000       4
    0.067796610169    0.441176470588    0.000000000000       4
    0.084745762712    0.441176470588    0.000000000000       4
    0.101694915254    0.441176470588    0.000000000000       4
    0.118644067797    0.441176470588    0.000000000000       4
    0.135593220339    0.441176470588    0.000000000000       4
    0.152542372881    0.441176470588    0.000000000000       4
    0.169491525424    0.441176470588    0.000000000000       4
    0.186440677966    0.441176470588    0.000000000000       4
    0.203389830508    0.441176470588    0.000000000000       4
    0.220338983051    0.441176470588    0.000000000000       4
    0.237288135593    0.441176470588    0.000000000000       4
    0.254237288136    0.441176470588    0.000000000000       4
    0.271186440678    0.441176470588    0.000000000000       4
    0.288135593220    0.441176470588    0.000000000000       4
    0.305084745763    0.441176470588    0.000000000000       4
    0.322033898305    0.441176470588    0.000000000000       4
    0.338983050847    0.441176470588    0.000000000000       4
    0.355932203390    0.441176470588    0.000000000000       4
    0.372881355932    0.441176470588    0.000000000000       4
    0.389830508475    0.441176470588    0.000000000000       4