 Li1 Ni1 P2 S6                          
   1.00000000000000     
     5.8194224926794256    0.0000000000000000    0.0000000000000000
     2.9097112463397128    5.0679015599382158    0.0000000000000000
     0.0000000000000000    0.0000000000000000   18.1698677257400050
   Li   Ni   P    S 
     1     1     2     6
Direct
  0.6664496528204592  0.6671011657222179  0.4999999176874943
  0.3346630411104638  0.3306740962333941  0.5000000644159226
  0.9986941549957405  0.9989111208722908  0.5599984638262967
  0.0023944842328041  0.9989109587495133  0.4400015218192713
  0.0274114350256232  0.6472249698562609  0.5872175213803337
  0.6428139006518953  0.3246935582047318  0.5854226413046451
  0.0324928429727467  0.3246931950615615  0.4145772234313496
  0.3253633382998171  0.6472248812405256  0.4127823973370026
  0.6477712935839198  0.0302832683654651  0.4125191131807520
  0.3219448563065329  0.0302837856940301  0.5874811356169323
 
  0.00000000E+00  0.00000000E+00  0.00000000E+00
  0.00000000E+00  0.00000000E+00  0.00000000E+00
  0.00000000E+00  0.00000000E+00  0.00000000E+00
  0.00000000E+00  0.00000000E+00  0.00000000E+00
  0.00000000E+00  0.00000000E+00  0.00000000E+00
  0.00000000E+00  0.00000000E+00  0.00000000E+00
  0.00000000E+00  0.00000000E+00  0.00000000E+00
  0.00000000E+00  0.00000000E+00  0.00000000E+00
  0.00000000E+00  0.00000000E+00  0.00000000E+00
  0.00000000E+00  0.00000000E+00  0.00000000E+00
