 Cr1 Se2                                
   1.00000000000000     
     3.1894511222049582    0.0000000000000000    0.0000000000000000
    -1.5947255611024791    2.7621458856289682    0.0000000000000000
     0.0000000000000000    0.0000000000000000   17.9787269752199990
   Cr   Se
     1     2
Direct
  0.9999999976269862  0.0000000062028391  0.4999999999742499
  0.6666667483487387  0.3333335318838735  0.4114693785119883
  0.3333332540242822  0.6666664619132874  0.5885306215137689
 
  0.00000000E+00  0.00000000E+00  0.00000000E+00
  0.00000000E+00  0.00000000E+00  0.00000000E+00
  0.00000000E+00  0.00000000E+00  0.00000000E+00
