G   75   75    1    0.005     # Parameters to Generate KPOINTS (Don't Edit This Line)
     507
Reciprocal lattice
    0.000000000000    0.000000000000    0.000000000000       1
    0.013333333333    0.000000000000    0.000000000000       6
    0.026666666667    0.000000000000    0.000000000000       6
    0.040000000000    0.000000000000    0.000000000000       6
    0.053333333333    0.000000000000    0.000000000000       6
    0.066666666667    0.000000000000    0.000000000000       6
    0.080000000000    0.000000000000    0.000000000000       6
    0.093333333333    0.000000000000    0.000000000000       6
    0.106666666667    0.000000000000    0.000000000000       6
    0.120000000000    0.000000000000    0.000000000000       6
    0.133333333333    0.000000000000    0.000000000000       6
    0.146666666667    0.000000000000    0.000000000000       6
    0.160000000000    0.000000000000    0.000000000000       6
    0.173333333333    0.000000000000    0.000000000000       6
    0.186666666667    0.000000000000    0.000000000000       6
    0.200000000000    0.000000000000    0.000000000000       6
    0.213333333333    0.000000000000    0.000000000000       6
    0.226666666667    0.000000000000    0.000000000000       6
    0.240000000000    0.000000000000    0.000000000000       6
    0.253333333333    0.000000000000    0.000000000000       6
    0.266666666667    0.000000000000    0.000000000000       6
    0.280000000000    0.000000000000    0.000000000000       6
    0.293333333333    0.000000000000    0.000000000000       6
    0.306666666667    0.000000000000    0.000000000000       6
    0.320000000000    0.000000000000    0.000000000000       6
    0.333333333333    0.000000000000    0.000000000000       6
    0.346666666667    0.000000000000    0.000000000000       6
    0.360000000000    0.000000000000    0.000000000000       6
    0.373333333333    0.000000000000    0.000000000000       6
    0.386666666667    0.000000000000    0.000000000000       6
    0.400000000000    0.000000000000    0.000000000000       6
    0.413333333333    0.000000000000    0.000000000000       6
    0.426666666667    0.000000000000    0.000000000000       6
    0.440000000000    0.000000000000    0.000000000000       6
    0.453333333333    0.000000000000    0.000000000000       6
    0.466666666667    0.000000000000    0.000000000000       6
    0.480000000000    0.000000000000    0.000000000000       6
    0.493333333333    0.000000000000    0.000000000000       6
    0.013333333333    0.013333333333    0.000000000000       6
    0.026666666667    0.013333333333    0.000000000000      12
    0.040000000000    0.013333333333    0.000000000000      12
    0.053333333333    0.013333333333    0.000000000000      12
    0.066666666667    0.013333333333    0.000000000000      12
    0.080000000000    0.013333333333    0.000000000000      12
    0.093333333333    0.013333333333    0.000000000000      12
    0.106666666667    0.013333333333    0.000000000000      12
    0.120000000000    0.013333333333    0.000000000000      12
    0.133333333333    0.013333333333    0.000000000000      12
    0.146666666667    0.013333333333    0.000000000000      12
    0.160000000000    0.013333333333    0.000000000000      12
    0.173333333333    0.013333333333    0.000000000000      12
    0.186666666667    0.013333333333    0.000000000000      12
    0.200000000000    0.013333333333    0.000000000000      12
    0.213333333333    0.013333333333    0.000000000000      12
    0.226666666667    0.013333333333    0.000000000000      12
    0.240000000000    0.013333333333    0.000000000000      12
    0.253333333333    0.013333333333    0.000000000000      12
    0.266666666667    0.013333333333    0.000000000000      12
    0.280000000000    0.013333333333    0.000000000000      12
    0.293333333333    0.013333333333    0.000000000000      12
    0.306666666667    0.013333333333    0.000000000000      12
    0.320000000000    0.013333333333    0.000000000000      12
    0.333333333333    0.013333333333    0.000000000000      12
    0.346666666667    0.013333333333    0.000000000000      12
    0.360000000000    0.013333333333    0.000000000000      12
    0.373333333333    0.013333333333    0.000000000000      12
    0.386666666667    0.013333333333    0.000000000000      12
    0.400000000000    0.013333333333    0.000000000000      12
    0.413333333333    0.013333333333    0.000000000000      12
    0.426666666667    0.013333333333    0.000000000000      12
    0.440000000000    0.013333333333    0.000000000000      12
    0.453333333333    0.013333333333    0.000000000000      12
    0.466666666667    0.013333333333    0.000000000000      12
    0.480000000000    0.013333333333    0.000000000000      12
    0.493333333333    0.013333333333    0.000000000000       6
    0.026666666667    0.026666666667    0.000000000000       6
    0.040000000000    0.026666666667    0.000000000000      12
    0.053333333333    0.026666666667    0.000000000000      12
    0.066666666667    0.026666666667    0.000000000000      12
    0.080000000000    0.026666666667    0.000000000000      12
    0.093333333333    0.026666666667    0.000000000000      12
    0.106666666667    0.026666666667    0.000000000000      12
    0.120000000000    0.026666666667    0.000000000000      12
    0.133333333333    0.026666666667    0.000000000000      12
    0.146666666667    0.026666666667    0.000000000000      12
    0.160000000000    0.026666666667    0.000000000000      12
    0.173333333333    0.026666666667    0.000000000000      12
    0.186666666667    0.026666666667    0.000000000000      12
    0.200000000000    0.026666666667    0.000000000000      12
    0.213333333333    0.026666666667    0.000000000000      12
    0.226666666667    0.026666666667    0.000000000000      12
    0.240000000000    0.026666666667    0.000000000000      12
    0.253333333333    0.026666666667    0.000000000000      12
    0.266666666667    0.026666666667    0.000000000000      12
    0.280000000000    0.026666666667    0.000000000000      12
    0.293333333333    0.026666666667    0.000000000000      12
    0.306666666667    0.026666666667    0.000000000000      12
    0.320000000000    0.026666666667    0.000000000000      12
    0.333333333333    0.026666666667    0.000000000000      12
    0.346666666667    0.026666666667    0.000000000000      12
    0.360000000000    0.026666666667    0.000000000000      12
    0.373333333333    0.026666666667    0.000000000000      12
    0.386666666667    0.026666666667    0.000000000000      12
    0.400000000000    0.026666666667    0.000000000000      12
    0.413333333333    0.026666666667    0.000000000000      12
    0.426666666667    0.026666666667    0.000000000000      12
    0.440000000000    0.026666666667    0.000000000000      12
    0.453333333333    0.026666666667    0.000000000000      12
    0.466666666667    0.026666666667    0.000000000000      12
    0.480000000000    0.026666666667    0.000000000000      12
    0.040000000000    0.040000000000    0.000000000000       6
    0.053333333333    0.040000000000    0.000000000000      12
    0.066666666667    0.040000000000    0.000000000000      12
    0.080000000000    0.040000000000    0.000000000000      12
    0.093333333333    0.040000000000    0.000000000000      12
    0.106666666667    0.040000000000    0.000000000000      12
    0.120000000000    0.040000000000    0.000000000000      12
    0.133333333333    0.040000000000    0.000000000000      12
    0.146666666667    0.040000000000    0.000000000000      12
    0.160000000000    0.040000000000    0.000000000000      12
    0.173333333333    0.040000000000    0.000000000000      12
    0.186666666667    0.040000000000    0.000000000000      12
    0.200000000000    0.040000000000    0.000000000000      12
    0.213333333333    0.040000000000    0.000000000000      12
    0.226666666667    0.040000000000    0.000000000000      12
    0.240000000000    0.040000000000    0.000000000000      12
    0.253333333333    0.040000000000    0.000000000000      12
    0.266666666667    0.040000000000    0.000000000000      12
    0.280000000000    0.040000000000    0.000000000000      12
    0.293333333333    0.040000000000    0.000000000000      12
    0.306666666667    0.040000000000    0.000000000000      12
    0.320000000000    0.040000000000    0.000000000000      12
    0.333333333333    0.040000000000    0.000000000000      12
    0.346666666667    0.040000000000    0.000000000000      12
    0.360000000000    0.040000000000    0.000000000000      12
    0.373333333333    0.040000000000    0.000000000000      12
    0.386666666667    0.040000000000    0.000000000000      12
    0.400000000000    0.040000000000    0.000000000000      12
    0.413333333333    0.040000000000    0.000000000000      12
    0.426666666667    0.040000000000    0.000000000000      12
    0.440000000000    0.040000000000    0.000000000000      12
    0.453333333333    0.040000000000    0.000000000000      12
    0.466666666667    0.040000000000    0.000000000000      12
    0.480000000000    0.040000000000    0.000000000000       6
    0.053333333333    0.053333333333    0.000000000000       6
    0.066666666667    0.053333333333    0.000000000000      12
    0.080000000000    0.053333333333    0.000000000000      12
    0.093333333333    0.053333333333    0.000000000000      12
    0.106666666667    0.053333333333    0.000000000000      12
    0.120000000000    0.053333333333    0.000000000000      12
    0.133333333333    0.053333333333    0.000000000000      12
    0.146666666667    0.053333333333    0.000000000000      12
    0.160000000000    0.053333333333    0.000000000000      12
    0.173333333333    0.053333333333    0.000000000000      12
    0.186666666667    0.053333333333    0.000000000000      12
    0.200000000000    0.053333333333    0.000000000000      12
    0.213333333333    0.053333333333    0.000000000000      12
    0.226666666667    0.053333333333    0.000000000000      12
    0.240000000000    0.053333333333    0.000000000000      12
    0.253333333333    0.053333333333    0.000000000000      12
    0.266666666667    0.053333333333    0.000000000000      12
    0.280000000000    0.053333333333    0.000000000000      12
    0.293333333333    0.053333333333    0.000000000000      12
    0.306666666667    0.053333333333    0.000000000000      12
    0.320000000000    0.053333333333    0.000000000000      12
    0.333333333333    0.053333333333    0.000000000000      12
    0.346666666667    0.053333333333    0.000000000000      12
    0.360000000000    0.053333333333    0.000000000000      12
    0.373333333333    0.053333333333    0.000000000000      12
    0.386666666667    0.053333333333    0.000000000000      12
    0.400000000000    0.053333333333    0.000000000000      12
    0.413333333333    0.053333333333    0.000000000000      12
    0.426666666667    0.053333333333    0.000000000000      12
    0.440000000000    0.053333333333    0.000000000000      12
    0.453333333333    0.053333333333    0.000000000000      12
    0.466666666667    0.053333333333    0.000000000000      12
    0.066666666667    0.066666666667    0.000000000000       6
    0.080000000000    0.066666666667    0.000000000000      12
    0.093333333333    0.066666666667    0.000000000000      12
    0.106666666667    0.066666666667    0.000000000000      12
    0.120000000000    0.066666666667    0.000000000000      12
    0.133333333333    0.066666666667    0.000000000000      12
    0.146666666667    0.066666666667    0.000000000000      12
    0.160000000000    0.066666666667    0.000000000000      12
    0.173333333333    0.066666666667    0.000000000000      12
    0.186666666667    0.066666666667    0.000000000000      12
    0.200000000000    0.066666666667    0.000000000000      12
    0.213333333333    0.066666666667    0.000000000000      12
    0.226666666667    0.066666666667    0.000000000000      12
    0.240000000000    0.066666666667    0.000000000000      12
    0.253333333333    0.066666666667    0.000000000000      12
    0.266666666667    0.066666666667    0.000000000000      12
    0.280000000000    0.066666666667    0.000000000000      12
    0.293333333333    0.066666666667    0.000000000000      12
    0.306666666667    0.066666666667    0.000000000000      12
    0.320000000000    0.066666666667    0.000000000000      12
    0.333333333333    0.066666666667    0.000000000000      12
    0.346666666667    0.066666666667    0.000000000000      12
    0.360000000000    0.066666666667    0.000000000000      12
    0.373333333333    0.066666666667    0.000000000000      12
    0.386666666667    0.066666666667    0.000000000000      12
    0.400000000000    0.066666666667    0.000000000000      12
    0.413333333333    0.066666666667    0.000000000000      12
    0.426666666667    0.066666666667    0.000000000000      12
    0.440000000000    0.066666666667    0.000000000000      12
    0.453333333333    0.066666666667    0.000000000000      12
    0.466666666667    0.066666666667    0.000000000000       6
    0.080000000000    0.080000000000    0.000000000000       6
    0.093333333333    0.080000000000    0.000000000000      12
    0.106666666667    0.080000000000    0.000000000000      12
    0.120000000000    0.080000000000    0.000000000000      12
    0.133333333333    0.080000000000    0.000000000000      12
    0.146666666667    0.080000000000    0.000000000000      12
    0.160000000000    0.080000000000    0.000000000000      12
    0.173333333333    0.080000000000    0.000000000000      12
    0.186666666667    0.080000000000    0.000000000000      12
    0.200000000000    0.080000000000    0.000000000000      12
    0.213333333333    0.080000000000    0.000000000000      12
    0.226666666667    0.080000000000    0.000000000000      12
    0.240000000000    0.080000000000    0.000000000000      12
    0.253333333333    0.080000000000    0.000000000000      12
    0.266666666667    0.080000000000    0.000000000000      12
    0.280000000000    0.080000000000    0.000000000000      12
    0.293333333333    0.080000000000    0.000000000000      12
    0.306666666667    0.080000000000    0.000000000000      12
    0.320000000000    0.080000000000    0.000000000000      12
    0.333333333333    0.080000000000    0.000000000000      12
    0.346666666667    0.080000000000    0.000000000000      12
    0.360000000000    0.080000000000    0.000000000000      12
    0.373333333333    0.080000000000    0.000000000000      12
    0.386666666667    0.080000000000    0.000000000000      12
    0.400000000000    0.080000000000    0.000000000000      12
    0.413333333333    0.080000000000    0.000000000000      12
    0.426666666667    0.080000000000    0.000000000000      12
    0.440000000000    0.080000000000    0.000000000000      12
    0.453333333333    0.080000000000    0.000000000000      12
    0.093333333333    0.093333333333    0.000000000000       6
    0.106666666667    0.093333333333    0.000000000000      12
    0.120000000000    0.093333333333    0.000000000000      12
    0.133333333333    0.093333333333    0.000000000000      12
    0.146666666667    0.093333333333    0.000000000000      12
    0.160000000000    0.093333333333    0.000000000000      12
    0.173333333333    0.093333333333    0.000000000000      12
    0.186666666667    0.093333333333    0.000000000000      12
    0.200000000000    0.093333333333    0.000000000000      12
    0.213333333333    0.093333333333    0.000000000000      12
    0.226666666667    0.093333333333    0.000000000000      12
    0.240000000000    0.093333333333    0.000000000000      12
    0.253333333333    0.093333333333    0.000000000000      12
    0.266666666667    0.093333333333    0.000000000000      12
    0.280000000000    0.093333333333    0.000000000000      12
    0.293333333333    0.093333333333    0.000000000000      12
    0.306666666667    0.093333333333    0.000000000000      12
    0.320000000000    0.093333333333    0.000000000000      12
    0.333333333333    0.093333333333    0.000000000000      12
    0.346666666667    0.093333333333    0.000000000000      12
    0.360000000000    0.093333333333    0.000000000000      12
    0.373333333333    0.093333333333    0.000000000000      12
    0.386666666667    0.093333333333    0.000000000000      12
    0.400000000000    0.093333333333    0.000000000000      12
    0.413333333333    0.093333333333    0.000000000000      12
    0.426666666667    0.093333333333    0.000000000000      12
    0.440000000000    0.093333333333    0.000000000000      12
    0.453333333333    0.093333333333    0.000000000000       6
    0.106666666667    0.106666666667    0.000000000000       6
    0.120000000000    0.106666666667    0.000000000000      12
    0.133333333333    0.106666666667    0.000000000000      12
    0.146666666667    0.106666666667    0.000000000000      12
    0.160000000000    0.106666666667    0.000000000000      12
    0.173333333333    0.106666666667    0.000000000000      12
    0.186666666667    0.106666666667    0.000000000000      12
    0.200000000000    0.106666666667    0.000000000000      12
    0.213333333333    0.106666666667    0.000000000000      12
    0.226666666667    0.106666666667    0.000000000000      12
    0.240000000000    0.106666666667    0.000000000000      12
    0.253333333333    0.106666666667    0.000000000000      12
    0.266666666667    0.106666666667    0.000000000000      12
    0.280000000000    0.106666666667    0.000000000000      12
    0.293333333333    0.106666666667    0.000000000000      12
    0.306666666667    0.106666666667    0.000000000000      12
    0.320000000000    0.106666666667    0.000000000000      12
    0.333333333333    0.106666666667    0.000000000000      12
    0.346666666667    0.106666666667    0.000000000000      12
    0.360000000000    0.106666666667    0.000000000000      12
    0.373333333333    0.106666666667    0.000000000000      12
    0.386666666667    0.106666666667    0.000000000000      12
    0.400000000000    0.106666666667    0.000000000000      12
    0.413333333333    0.106666666667    0.000000000000      12
    0.426666666667    0.106666666667    0.000000000000      12
    0.440000000000    0.106666666667    0.000000000000      12
    0.120000000000    0.120000000000    0.000000000000       6
    0.133333333333    0.120000000000    0.000000000000      12
    0.146666666667    0.120000000000    0.000000000000      12
    0.160000000000    0.120000000000    0.000000000000      12
    0.173333333333    0.120000000000    0.000000000000      12
    0.186666666667    0.120000000000    0.000000000000      12
    0.200000000000    0.120000000000    0.000000000000      12
    0.213333333333    0.120000000000    0.000000000000      12
    0.226666666667    0.120000000000    0.000000000000      12
    0.240000000000    0.120000000000    0.000000000000      12
    0.253333333333    0.120000000000    0.000000000000      12
    0.266666666667    0.120000000000    0.000000000000      12
    0.280000000000    0.120000000000    0.000000000000      12
    0.293333333333    0.120000000000    0.000000000000      12
    0.306666666667    0.120000000000    0.000000000000      12
    0.320000000000    0.120000000000    0.000000000000      12
    0.333333333333    0.120000000000    0.000000000000      12
    0.346666666667    0.120000000000    0.000000000000      12
    0.360000000000    0.120000000000    0.000000000000      12
    0.373333333333    0.120000000000    0.000000000000      12
    0.386666666667    0.120000000000    0.000000000000      12
    0.400000000000    0.120000000000    0.000000000000      12
    0.413333333333    0.120000000000    0.000000000000      12
    0.426666666667    0.120000000000    0.000000000000      12
    0.440000000000    0.120000000000    0.000000000000       6
    0.133333333333    0.133333333333    0.000000000000       6
    0.146666666667    0.133333333333    0.000000000000      12
    0.160000000000    0.133333333333    0.000000000000      12
    0.173333333333    0.133333333333    0.000000000000      12
    0.186666666667    0.133333333333    0.000000000000      12
    0.200000000000    0.133333333333    0.000000000000      12
    0.213333333333    0.133333333333    0.000000000000      12
    0.226666666667    0.133333333333    0.000000000000      12
    0.240000000000    0.133333333333    0.000000000000      12
    0.253333333333    0.133333333333    0.000000000000      12
    0.266666666667    0.133333333333    0.000000000000      12
    0.280000000000    0.133333333333    0.000000000000      12
    0.293333333333    0.133333333333    0.000000000000      12
    0.306666666667    0.133333333333    0.000000000000      12
    0.320000000000    0.133333333333    0.000000000000      12
    0.333333333333    0.133333333333    0.000000000000      12
    0.346666666667    0.133333333333    0.000000000000      12
    0.360000000000    0.133333333333    0.000000000000      12
    0.373333333333    0.133333333333    0.000000000000      12
    0.386666666667    0.133333333333    0.000000000000      12
    0.400000000000    0.133333333333    0.000000000000      12
    0.413333333333    0.133333333333    0.000000000000      12
    0.426666666667    0.133333333333    0.000000000000      12
    0.146666666667    0.146666666667    0.000000000000       6
    0.160000000000    0.146666666667    0.000000000000      12
    0.173333333333    0.146666666667    0.000000000000      12
    0.186666666667    0.146666666667    0.000000000000      12
    0.200000000000    0.146666666667    0.000000000000      12
    0.213333333333    0.146666666667    0.000000000000      12
    0.226666666667    0.146666666667    0.000000000000      12
    0.240000000000    0.146666666667    0.000000000000      12
    0.253333333333    0.146666666667    0.000000000000      12
    0.266666666667    0.146666666667    0.000000000000      12
    0.280000000000    0.146666666667    0.000000000000      12
    0.293333333333    0.146666666667    0.000000000000      12
    0.306666666667    0.146666666667    0.000000000000      12
    0.320000000000    0.146666666667    0.000000000000      12
    0.333333333333    0.146666666667    0.000000000000      12
    0.346666666667    0.146666666667    0.000000000000      12
    0.360000000000    0.146666666667    0.000000000000      12
    0.373333333333    0.146666666667    0.000000000000      12
    0.386666666667    0.146666666667    0.000000000000      12
    0.400000000000    0.146666666667    0.000000000000      12
    0.413333333333    0.146666666667    0.000000000000      12
    0.426666666667    0.146666666667    0.000000000000       6
    0.160000000000    0.160000000000    0.000000000000       6
    0.173333333333    0.160000000000    0.000000000000      12
    0.186666666667    0.160000000000    0.000000000000      12
    0.200000000000    0.160000000000    0.000000000000      12
    0.213333333333    0.160000000000    0.000000000000      12
    0.226666666667    0.160000000000    0.000000000000      12
    0.240000000000    0.160000000000    0.000000000000      12
    0.253333333333    0.160000000000    0.000000000000      12
    0.266666666667    0.160000000000    0.000000000000      12
    0.280000000000    0.160000000000    0.000000000000      12
    0.293333333333    0.160000000000    0.000000000000      12
    0.306666666667    0.160000000000    0.000000000000      12
    0.320000000000    0.160000000000    0.000000000000      12
    0.333333333333    0.160000000000    0.000000000000      12
    0.346666666667    0.160000000000    0.000000000000      12
    0.360000000000    0.160000000000    0.000000000000      12
    0.373333333333    0.160000000000    0.000000000000      12
    0.386666666667    0.160000000000    0.000000000000      12
    0.400000000000    0.160000000000    0.000000000000      12
    0.413333333333    0.160000000000    0.000000000000      12
    0.173333333333    0.173333333333    0.000000000000       6
    0.186666666667    0.173333333333    0.000000000000      12
    0.200000000000    0.173333333333    0.000000000000      12
    0.213333333333    0.173333333333    0.000000000000      12
    0.226666666667    0.173333333333    0.000000000000      12
    0.240000000000    0.173333333333    0.000000000000      12
    0.253333333333    0.173333333333    0.000000000000      12
    0.266666666667    0.173333333333    0.000000000000      12
    0.280000000000    0.173333333333    0.000000000000      12
    0.293333333333    0.173333333333    0.000000000000      12
    0.306666666667    0.173333333333    0.000000000000      12
    0.320000000000    0.173333333333    0.000000000000      12
    0.333333333333    0.173333333333    0.000000000000      12
    0.346666666667    0.173333333333    0.000000000000      12
    0.360000000000    0.173333333333    0.000000000000      12
    0.373333333333    0.173333333333    0.000000000000      12
    0.386666666667    0.173333333333    0.000000000000      12
    0.400000000000    0.173333333333    0.000000000000      12
    0.413333333333    0.173333333333    0.000000000000       6
    0.186666666667    0.186666666667    0.000000000000       6
    0.200000000000    0.186666666667    0.000000000000      12
    0.213333333333    0.186666666667    0.000000000000      12
    0.226666666667    0.186666666667    0.000000000000      12
    0.240000000000    0.186666666667    0.000000000000      12
    0.253333333333    0.186666666667    0.000000000000      12
    0.266666666667    0.186666666667    0.000000000000      12
    0.280000000000    0.186666666667    0.000000000000      12
    0.293333333333    0.186666666667    0.000000000000      12
    0.306666666667    0.186666666667    0.000000000000      12
    0.320000000000    0.186666666667    0.000000000000      12
    0.333333333333    0.186666666667    0.000000000000      12
    0.346666666667    0.186666666667    0.000000000000      12
    0.360000000000    0.186666666667    0.000000000000      12
    0.373333333333    0.186666666667    0.000000000000      12
    0.386666666667    0.186666666667    0.000000000000      12
    0.400000000000    0.186666666667    0.000000000000      12
    0.200000000000    0.200000000000    0.000000000000       6
    0.213333333333    0.200000000000    0.000000000000      12
    0.226666666667    0.200000000000    0.000000000000      12
    0.240000000000    0.200000000000    0.000000000000      12
    0.253333333333    0.200000000000    0.000000000000      12
    0.266666666667    0.200000000000    0.000000000000      12
    0.280000000000    0.200000000000    0.000000000000      12
    0.293333333333    0.200000000000    0.000000000000      12
    0.306666666667    0.200000000000    0.000000000000      12
    0.320000000000    0.200000000000    0.000000000000      12
    0.333333333333    0.200000000000    0.000000000000      12
    0.346666666667    0.200000000000    0.000000000000      12
    0.360000000000    0.200000000000    0.000000000000      12
    0.373333333333    0.200000000000    0.000000000000      12
    0.386666666667    0.200000000000    0.000000000000      12
    0.400000000000    0.200000000000    0.000000000000       6
    0.213333333333    0.213333333333    0.000000000000       6
    0.226666666667    0.213333333333    0.000000000000      12
    0.240000000000    0.213333333333    0.000000000000      12
    0.253333333333    0.213333333333    0.000000000000      12
    0.266666666667    0.213333333333    0.000000000000      12
    0.280000000000    0.213333333333    0.000000000000      12
    0.293333333333    0.213333333333    0.000000000000      12
    0.306666666667    0.213333333333    0.000000000000      12
    0.320000000000    0.213333333333    0.000000000000      12
    0.333333333333    0.213333333333    0.000000000000      12
    0.346666666667    0.213333333333    0.000000000000      12
    0.360000000000    0.213333333333    0.000000000000      12
    0.373333333333    0.213333333333    0.000000000000      12
    0.386666666667    0.213333333333    0.000000000000      12
    0.226666666667    0.226666666667    0.000000000000       6
    0.240000000000    0.226666666667    0.000000000000      12
    0.253333333333    0.226666666667    0.000000000000      12
    0.266666666667    0.226666666667    0.000000000000      12
    0.280000000000    0.226666666667    0.000000000000      12
    0.293333333333    0.226666666667    0.000000000000      12
    0.306666666667    0.226666666667    0.000000000000      12
    0.320000000000    0.226666666667    0.000000000000      12
    0.333333333333    0.226666666667    0.000000000000      12
    0.346666666667    0.226666666667    0.000000000000      12
    0.360000000000    0.226666666667    0.000000000000      12
    0.373333333333    0.226666666667    0.000000000000      12
    0.386666666667    0.226666666667    0.000000000000       6
    0.240000000000    0.240000000000    0.000000000000       6
    0.253333333333    0.240000000000    0.000000000000      12
    0.266666666667    0.240000000000    0.000000000000      12
    0.280000000000    0.240000000000    0.000000000000      12
    0.293333333333    0.240000000000    0.000000000000      12
    0.306666666667    0.240000000000    0.000000000000      12
    0.320000000000    0.240000000000    0.000000000000      12
    0.333333333333    0.240000000000    0.000000000000      12
    0.346666666667    0.240000000000    0.000000000000      12
    0.360000000000    0.240000000000    0.000000000000      12
    0.373333333333    0.240000000000    0.000000000000      12
    0.253333333333    0.253333333333    0.000000000000       6
    0.266666666667    0.253333333333    0.000000000000      12
    0.280000000000    0.253333333333    0.000000000000      12
    0.293333333333    0.253333333333    0.000000000000      12