CONTCAR                                 
   1.00000000000000     
    13.9573001861999995    0.0000000000000000    0.0000000000000000
     0.0000000000000000   20.3449993133999989    0.0000000000000000
     0.0000000000000000    0.0000000000000000   22.8059997559000003
   Nb   Cr   Se   O    H 
    16    16    80     2     1
Direct
  0.1880471563323923  0.2286498242394708  0.5853794402238304
  0.0628374206834263  0.2702986246834859  0.4150141743614388
  0.4378439364769762  0.2287844121204926  0.5854187111920656
  0.3130427967698498  0.2706997245468494  0.4148024647240620
  0.6876275449720451  0.2291585135210201  0.5856381854423653
  0.5634758800306170  0.2708388781983245  0.4150687970904846
  0.9377624932277141  0.2288474143918268  0.5855119778999555
  0.8130969193851190  0.2708497148354149  0.4152668741220677
  0.1885255017364853  0.7298015129047679  0.5856333443423528
  0.0627569516770649  0.7691467699388103  0.4144287165667498
  0.4381379928072765  0.7300966186980727  0.5852275904300613
  0.3125794500716064  0.7692718606660740  0.4142383568978071
  0.6878788683466701  0.7302026660303772  0.5851305399505758
  0.5628741685921604  0.7692840312068538  0.4141746929076225
  0.9378943412158952  0.7300771974594453  0.5854001510810786
  0.8128763441583980  0.7694482301891498  0.4142704767229277
  0.0628402795574703  0.0655435956690993  0.5275878986263141
  0.1875639941307028  0.4338393834897431  0.4724717183831169
  0.3124570801994189  0.0655013616100198  0.5270657866738305
  0.4390235561682839  0.4334678023690692  0.4725391375636412
  0.5629683463334877  0.0659340705768145  0.5272327248697735
  0.6878037768780990  0.4341434291657915  0.4732296002707777
  0.8118787198427425  0.0660605565066071  0.5275872868491798
  0.9395189056108659  0.4336263848031814  0.4731898438257952
  0.0631619094399355  0.5659445482380712  0.5292624929675290
  0.1875067036661130  0.9330737892540077  0.4707290951336800
  0.3140621022056887  0.5654797083249994  0.5290039917209459
  0.4377536787705202  0.9331425240100161  0.4705815873981737
  0.5628242132926409  0.5660914778244915  0.5288811158399347
  0.6879272685783057  0.9335251738024074  0.4705328315421406
  0.8128135433417880  0.5661533775954661  0.5289986486241928
  0.9379825641640523  0.9332634603033461  0.4707747735110811
  0.1880235062362387  0.3137463972723724  0.4929731816307664
  0.0641206153456960  0.4476844302598110  0.5517706369261626
  0.0627057171480772  0.1857763353391758  0.5074856620221132
  0.1880698960041585  0.1807125879344793  0.3738981611620759
  0.0630734360005037  0.3182753457951279  0.6267468255328383
  0.0630951695300207  0.2122250596868873  0.6713247421039373
  0.0632389838558784  0.4045582358568769  0.3973897673074628
  0.1876794159495971  0.2868223062263711  0.3289559203177057
  0.1878097914657382  0.0946186725104465  0.6022941830923154
  0.1871136613739777  0.0515100759334597  0.4488864871372997
  0.4378426793817626  0.3136057131472842  0.4928161842605467
  0.3135599648908870  0.4471936919857786  0.5502898824964436
  0.3129766619328102  0.1857688133435370  0.5073051136382276
  0.4384929676830086  0.1810464860211999  0.3737990157203748
  0.3130323864013451  0.3180601119154310  0.6267915796242631
  0.3128434351004364  0.2122612203759312  0.6714204980517294
  0.3132452722478306  0.4045930563546671  0.3979846409478411
  0.4384157320377662  0.2870203326683691  0.3288676616766908
  0.4373932326546960  0.0947877429652886  0.6019838990713891
  0.4376246638139504  0.0514637108472226  0.4487987914069071
  0.6877616526082391  0.3140558807306266  0.4933637189145337
  0.5628074667692359  0.4479047242644874  0.5514317974394243
  0.5630360983981358  0.1860695920362523  0.5072418518117892
  0.6881573978263353  0.1814209746782749  0.3735388894577994
  0.5624882528808834  0.3186742611841773  0.6268396019493766
  0.5624965416093577  0.2128102868037267  0.6716850880692471
  0.5640454412572584  0.4045630487687752  0.3976952681085955
  0.6885620488364037  0.2874875774608986  0.3290543303513331
  0.6871362233218570  0.0951479663576951  0.6025302666763823
  0.6876057903837107  0.0516583564045377  0.4486051238878793
  0.9383849264977630  0.3137331630857922  0.4932713883592532
  0.8135436538575530  0.4479324918841800  0.5512854590923900
  0.8124985322928899  0.1862025727100476  0.5075440077859855
  0.9378352617191115  0.1807212456301849  0.3741190461029226
  0.8128859211839897  0.3184771638602710  0.6269806903756874
  0.8128688329322363  0.2125214793501007  0.6716320351739758
  0.8136276178606346  0.4052104995384646  0.3985468539326992
  0.9378917790859423  0.2867461559132395  0.3289851160797913
  0.9373608639455729  0.0949275715119083  0.6023643891132375
  0.9371622225757074  0.0516695467188422  0.4494897685211947
  0.1877747488864981  0.8131104874000414  0.4920226480140144
  0.0628274843939739  0.9472941265799305  0.5492223310683378
  0.0629977673183710  0.6857180490862312  0.5081072275901742
  0.1875369182261723  0.6788756259039163  0.3741483473956078
  0.0631855336817252  0.8200569710950620  0.6256445638088582
  0.0631872681400541  0.7145911663591479  0.6716834582055664
  0.0630320719130191  0.9029764561952898  0.3960988779277558
  0.1875801593817009  0.7841849906124875  0.3279504889627138
  0.1884736676578175  0.5954375980392075  0.6040552117663592
  0.1879421506695111  0.5519229189868571  0.4508922721980963
  0.4379719170428670  0.8133388550877245  0.4916820131143477
  0.3129653233000311  0.9470885468587067  0.5486482600777687
  0.3132263063886677  0.6857109578503962  0.5077916518667349
  0.4374164519070716  0.6792858863072501  0.3739842406619416
  0.3130484030603299  0.8202974956622801  0.6255750791274373
  0.3136101189607369  0.7148217939077135  0.6718682351456043
  0.3126972634733958  0.9028044969965620  0.3960669422314652
  0.4376712497804334  0.7847230900188525  0.3279785882250257
  0.4382134249082679  0.5961471911719936  0.6035587065837381
  0.4381050867846737  0.5517545860473083  0.4502917224586240
  0.6876362858658662  0.8134990484129198  0.4916943021640729
  0.5630130812651566  0.9475948974561643  0.5486182449006136
  0.5630693292109192  0.6860466154720855  0.5076105606423148
  0.6880080372294860  0.6791756031012662  0.3739696688686909
  0.5631455131725741  0.8205214874430404  0.6251916496361352
  0.5629930986407148  0.7150899380819385  0.6715211078822834
  0.5628642007129649  0.9034188885950243  0.3960401160570446
  0.6878052991137172  0.7845934140675076  0.3279610955756416
  0.6874607638962064  0.5962568672098909  0.6036458976149756
  0.6879709035667234  0.5523272250385995  0.4507554605073482
  0.9379457487931512  0.8132821200696118  0.4918954334779881
  0.8128650814104134  0.9475446982135868  0.5488393892843312
  0.8130846194814211  0.6860217966059009  0.5076565176154512
  0.9379004495456870  0.6790065439027217  0.3741076150939702
  0.8129170337068170  0.8203473837812003  0.6253176748608732
  0.8125043810864072  0.7148070299038058  0.6714822351705831
  0.8129698780613455  0.9032328127222012  0.3960273504567258
  0.9377020969503429  0.7843528879524524  0.3280513925500141
  0.9375710801753787  0.5960955828117117  0.6035977465118360
  0.9386934307409558  0.5518653808416034  0.4509860156456222
  0.3377948795467921  0.4612571355821730  0.6893594170248655
  0.2450134668554466  0.4562015887476743  0.7070314326722916
  0.2146894965351510  0.4980684623142518  0.6952777452699289
 
  0.00000000E+00  0.00000000E+00  0.00000000E+00
  0.00000000E+00  0.00000000E+00  0.00000000E+00
  0.00000000E+00  0.00000000E+00  0.00000000E+00
  0.00000000E+00  0.00000000E+00  0.00000000E+00
  0.00000000E+00  0.00000000E+00  0.00000000E+00
  0.00000000E+00  0.00000000E+00  0.00000000E+00
  0.00000000E+00  0.00000000E+00  0.00000000E+00
  0.00000000E+00  0.00000000E+00  0.00000000E+00
  0.00000000E+00  0.00000000E+00  0.00000000E+00
  0.00000000E+00  0.00000000E+00  0.00000000E+00
  0.00000000E+00  0.00000000E+00  0.00000000E+00
  0.00000000E+00  0.00000000E+00  0.00000000E+00
  0.00000000E+00  0.00000000E+00  0.00000000E+00
  0.00000000E+00  0.00000000E+00  0.00000000E+00
  0.00000000E+00  0.00000000E+00  0.00000000E+00
  0.00000000E+00  0.00000000E+00  0.00000000E+00
  0.00000000E+00  0.00000000E+00  0.00000000E+00
  0.00000000E+00  0.00000000E+00  0.00000000E+00
  0.00000000E+00  0.00000000E+00  0.00000000E+00
  0.00000000E+00  0.00000000E+00  0.00000000E+00
  0.00000000E+00  0.00000000E+00  0.00000000E+00
  0.00000000E+00  0.00000000E+00  0.00000000E+00
  0.00000000E+00  0.00000000E+00  0.00000000E+00
  0.00000000E+00  0.00000000E+00  0.00000000E+00
  0.00000000E+00  0.00000000E+00  0.00000000E+00
  0.00000000E+00  0.00000000E+00  0.00000000E+00
  0.00000000E+00  0.00000000E+00  0.00000000E+00
  0.00000000E+00  0.00000000E+00  0.00000000E+00
  0.00000000E+00  0.00000000E+00  0.00000000E+00
  0.00000000E+00  0.00000000E+00  0.00000000E+00
  0.00000000E+00  0.00000000E+00  0.00000000E+00
  0.00000000E+00  0.00000000E+00  0.00000000E+00
  0.00000000E+00  0.00000000E+00  0.00000000E+00
  0.00000000E+00  0.00000000E+00  0.00000000E+00
  0.00000000E+00  0.00000000E+00  0.00000000E+00
  0.00000000E+00  0.00000000E+00  0.00000000E+00
  0.00000000E+00  0.00000000E+00  0.00000000E+00
  0.00000000E+00  0.00000000E+00  0.00000000E+00
  0.00000000E+00  0.00000000E+00  0.00000000E+00
  0.00000000E+00  0.00000000E+00  0.00000000E+00
  0.00000000E+00  0.00000000E+00  0.00000000E+00
  0.00000000E+00  0.00000000E+00  0.00000000E+00
  0.00000000E+00  0.00000000E+00  0.00000000E+00
  0.00000000E+00  0.00000000E+00  0.00000000E+00
  0.00000000E+00  0.00000000E+00  0.00000000E+00
  0.00000000E+00  0.00000000E+00  0.00000000E+00
  0.00000000E+00  0.00000000E+00  0.00000000E+00
  0.00000000E+00  0.00000000E+00  0.00000000E+00
  0.00000000E+00  0.00000000E+00  0.00000000E+00
  0.00000000E+00  0.00000000E+00  0.00000000E+00
  0.00000000E+00  0.00000000E+00  0.00000000E+00
  0.00000000E+00  0.00000000E+00  0.00000000E+00
  0.00000000E+00  0.00000000E+00  0.00000000E+00
  0.00000000E+00  0.00000000E+00  0.00000000E+00
  0.00000000E+00  0.00000000E+00  0.00000000E+00
  0.00000000E+00  0.00000000E+00  0.00000000E+00
  0.00000000E+00  0.00000000E+00  0.00000000E+00
  0.00000000E+00  0.00000000E+00  0.00000000E+00
  0.00000000E+00  0.00000000E+00  0.00000000E+00
  0.00000000E+00  0.00000000E+00  0.00000000E+00
  0.00000000E+00  0.00000000E+00  0.00000000E+00
  0.00000000E+00  0.00000000E+00  0.00000000E+00
  0.00000000E+00  0.00000000E+00  0.00000000E+00
  0.00000000E+00  0.00000000E+00  0.00000000E+00
  0.00000000E+00  0.00000000E+00  0.00000000E+00
  0.00000000E+00  0.00000000E+00  0.00000000E+00
  0.00000000E+00  0.00000000E+00  0.00000000E+00
  0.00000000E+00  0.00000000E+00  0.00000000E+00
  0.00000000E+00  0.00000000E+00  0.00000000E+00
  0.00000000E+00  0.00000000E+00  0.00000000E+00
  0.00000000E+00  0.00000000E+00  0.00000000E+00
  0.00000000E+00  0.00000000E+00  0.00000000E+00
  0.00000000E+00  0.00000000E+00  0.00000000E+00
  0.00000000E+00  0.00000000E+00  0.00000000E+00
  0.00000000E+00  0.00000000E+00  0.00000000E+00
  0.00000000E+00  0.00000000E+00  0.00000000E+00
  0.00000000E+00  0.00000000E+00  0.00000000E+00
  0.00000000E+00  0.00000000E+00  0.00000000E+00
  0.00000000E+00  0.00000000E+00  0.00000000E+00
  0.00000000E+00  0.00000000E+00  0.00000000E+00
  0.00000000E+00  0.00000000E+00  0.00000000E+00
  0.00000000E+00  0.00000000E+00  0.00000000E+00
  0.00000000E+00  0.00000000E+00  0.00000000E+00
  0.00000000E+00  0.00000000E+00  0.00000000E+00
  0.00000000E+00  0.00000000E+00  0.00000000E+00
  0.00000000E+00  0.00000000E+00  0.00000000E+00
  0.00000000E+00  0.00000000E+00  0.00000000E+00
  0.00000000E+00  0.00000000E+00  0.00000000E+00
  0.00000000E+00  0.00000000E+00  0.00000000E+00
  0.00000000E+00  0.00000000E+00  0.00000000E+00
  0.00000000E+00  0.00000000E+00  0.00000000E+00
  0.00000000E+00  0.00000000E+00  0.00000000E+00
  0.00000000E+00  0.00000000E+00  0.00000000E+00
  0.00000000E+00  0.00000000E+00  0.00000000E+00
  0.00000000E+00  0.00000000E+00  0.00000000E+00
  0.00000000E+00  0.00000000E+00  0.00000000E+00
  0.00000000E+00  0.00000000E+00  0.00000000E+00
  0.00000000E+00  0.00000000E+00  0.00000000E+00
  0.00000000E+00  0.00000000E+00  0.00000000E+00
  0.00000000E+00  0.00000000E+00  0.00000000E+00
  0.00000000E+00  0.00000000E+00  0.00000000E+00
  0.00000000E+00  0.00000000E+00  0.00000000E+00
  0.00000000E+00  0.00000000E+00  0.00000000E+00
  0.00000000E+00  0.00000000E+00  0.00000000E+00
  0.00000000E+00  0.00000000E+00  0.00000000E+00
  0.00000000E+00  0.00000000E+00  0.00000000E+00
  0.00000000E+00  0.00000000E+00  0.00000000E+00
  0.00000000E+00  0.00000000E+00  0.00000000E+00
  0.00000000E+00  0.00000000E+00  0.00000000E+00
  0.00000000E+00  0.00000000E+00  0.00000000E+00
  0.00000000E+00  0.00000000E+00  0.00000000E+00
  0.00000000E+00  0.00000000E+00  0.00000000E+00
  0.00000000E+00  0.00000000E+00  0.00000000E+00
  0.00000000E+00  0.00000000E+00  0.00000000E+00
  0.00000000E+00  0.00000000E+00  0.00000000E+00
