 Ti2 Cl6                                
   1.00000000000000     
     6.0151756492875590    0.0000000000000000    0.0000000000000000
    -3.0075873240125253    5.1819626751640326    0.0000000000000000
     0.0000000000000000    0.0000000000000000   17.8997126008620029
   Ti   Cl
     2     6
Direct
  0.8953875067630293  0.7907751646927181  0.5000000356942920
  0.2156834734565862  0.4313667822328640  0.5000000114114940
  0.2134298064385334  0.1110894933515709  0.5812108696906577
  0.8976600662639669  0.1110893905797354  0.4187890793918285
  0.5546799430964171  0.4559392496653700  0.4222716524034595
  0.2098448097820338  0.7662863299007086  0.4222836955373310
  0.9012592557988128  0.4559390482870427  0.5777283745230548
  0.5564411384006291  0.7662865412900004  0.5777162813478824
 
  0.00000000E+00  0.00000000E+00  0.00000000E+00
  0.00000000E+00  0.00000000E+00  0.00000000E+00
  0.00000000E+00  0.00000000E+00  0.00000000E+00
  0.00000000E+00  0.00000000E+00  0.00000000E+00
  0.00000000E+00  0.00000000E+00  0.00000000E+00
  0.00000000E+00  0.00000000E+00  0.00000000E+00
  0.00000000E+00  0.00000000E+00  0.00000000E+00
  0.00000000E+00  0.00000000E+00  0.00000000E+00
