 Cr1 Se2                                
   1.00000000000000     
     3.1894511222049582    0.0000000000000000    0.0000000000000000
    -1.5947255611024791    2.7621458856289682    0.0000000000000000
     0.0000000000000000    0.0000000000000000   17.9787269752199990
   Cr   Se
     1     2
Direct
 -0.0000000023730163  0.0000000062028411  0.4999999999742470
  0.6666667483487371  0.3333335318838707  0.4114693785119848
  0.3333332540242794  0.6666664619132880  0.5885306215137687
 
  0.00000000E+00  0.00000000E+00  0.00000000E+00
  0.00000000E+00  0.00000000E+00  0.00000000E+00
  0.00000000E+00  0.00000000E+00  0.00000000E+00
