 Cu2 Te2                                
   1.00000000000000     
     3.1887856806503838    0.0000000000000000    0.0000000000000000
     0.0000000000000000    3.9455603959550984    0.0000000000000000
     0.0000000000000000    0.0000000000000000   18.9376436714800001
   Cu   Te
     2     2
Direct
  0.0000000217333404  0.4999999686648673  0.4855252520545509
  0.4999999925949580  0.0000000304931707  0.5144745559964226
  0.0000000332641674  0.0000000032039335  0.3964113919699616
  0.4999999524075343  0.4999999976380284  0.6035887999790649
 
  0.00000000E+00  0.00000000E+00  0.00000000E+00
  0.00000000E+00  0.00000000E+00  0.00000000E+00
  0.00000000E+00  0.00000000E+00  0.00000000E+00
  0.00000000E+00  0.00000000E+00  0.00000000E+00
