CONTCAR                                 
   1.00000000000000     
    13.2834997176999998    0.0000000000000000    0.0000000000000000
     0.0000000000000000   13.2517004013000008    0.0000000000000000
     0.0000000000000000    0.0000000000000000   28.4766006470000015
   Bi   I    O    H 
    48    12     1     1
Selective dynamics
Direct
  0.0000800371171081  0.9391254429563176  0.5990207537713488   F   F   F
  0.9999876317822896  0.0568337073049463  0.3999181481479397   F   F   F
  0.1659435850215019  0.7935581646592311  0.3600570789821589   F   F   F
  0.1661944574215681  0.3364915046660002  0.4414925533510754   F   F   F
  0.0003533701437775  0.1626753867543727  0.5700783597048513   F   F   F
  0.9998808832700874  0.6112876451241291  0.4885834840965302   F   F   F
  0.9998232151599566  0.8355435807195093  0.4322012548986649   F   F   F
  0.0000455378718343  0.5194341509586025  0.3129898409671767   F   F   F
  0.1658148817353506  0.1110760554980743  0.4698359852390084   F   F   F
  0.1659304822592063  0.6615922929612594  0.5588382074365938   F   F   F
  0.9999751447585794  0.3843212002046670  0.5120371935850230   F   F   F
  0.1677805943065707  0.8865745495001391  0.5303729422637815   F   F   F
  0.1674670577879382  0.2064668215680996  0.6415747394311992   F   F   F
  0.1659214619476685  0.4303175659839553  0.6155558833801109   F   F   F
  0.1660249067862409  0.5694027733161846  0.3847605087525139   F   F   F
  0.9999439642336085  0.4799809636156596  0.6873388831713712   F   F   F
  0.3343968035284988  0.9415317387674236  0.6013158355074211   F   F   F
  0.3331624079786479  0.0561831145909935  0.4012125902238566   F   F   F
  0.4999792188742447  0.7935625782139155  0.3591149254126265   F   F   F
  0.4999893493715959  0.3361177307400496  0.4422689924927568   F   F   F
  0.3313716886545208  0.1634829476268678  0.5686300329463521   F   F   F
  0.3333108684255208  0.6104469225813745  0.4894410335604178   F   F   F
  0.3336561051159066  0.8332005367443713  0.4317731017988038   F   F   F
  0.3342975322568833  0.5196337959052073  0.3140150059921396   F   F   F
  0.4999780174163746  0.1086748061546032  0.4709078345925519   F   F   F
  0.4999884485353192  0.6555851084561937  0.5609176774437614   F   F   F
  0.3330256002944907  0.3827778373015036  0.5121316927842230   F   F   F
  0.4999618006059379  0.8901361852238594  0.5321061421442153   F   F   F
  0.4999318872751957  0.1954906905016287  0.6414673560812219   F   F   F
  0.4999576117718689  0.4418896292770285  0.6128148366419097   F   F   F
  0.4999866492995508  0.5701433580718458  0.3860302701085772   F   F   F
  0.3346898056009451  0.4856622369456076  0.6853435778748107   F   F   F
  0.6654669071633563  0.9414123545741404  0.6013324488904743   F   F   F
  0.6668378441141414  0.0561707215151372  0.4012237743756444   F   F   F
  0.8338495039508445  0.7935686176330705  0.3600208205990683   F   F   F
  0.8338186581150424  0.3364938942477949  0.4414581091641452   F   F   F
  0.6683181704606085  0.1632785323210300  0.5684787106346931   F   F   F
  0.6669168303513189  0.6104430012992523  0.4895600609749309   F   F   F
  0.6662961371555980  0.8331757004354259  0.4317830991736287   F   F   F
  0.6656931252573344  0.5196341816234522  0.3140348126848949   F   F   F
  0.8341885200754433  0.1111092079318468  0.4698468782418317   F   F   F
  0.8341236633679330  0.6619972878938114  0.5590339868240832   F   F   F
  0.6669549165428208  0.3827846605454326  0.5121291077704768   F   F   F
  0.8322301038166273  0.8868536986589888  0.5304009608144327   F   F   F
  0.8325911249273972  0.2060686650876207  0.6411985378478633   F   F   F
  0.8340829945491137  0.4302365408543594  0.6154927304430728   F   F   F
  0.8339957743335376  0.5693838971717966  0.3847413368628594   F   F   F
  0.6653847194806275  0.4854359607011034  0.6853516651447578   F   F   F
  0.9999728450498040  0.2678198238899796  0.7326671014130355   F   F   F
  0.9999831105141652  0.7301430469363410  0.2677292864494234   F   F   F
  0.9999835536463380  0.2919403255168760  0.3428636404472343   F   F   F
  0.0000884412409903  0.7065031820397607  0.6576619413719840   F   F   F
  0.3368888886906234  0.2714995855101208  0.7314033459227431   F   F   F
  0.3350303549741156  0.7292705526450476  0.2675513475485971   F   F   F
  0.3332500183802765  0.2918735081231745  0.3433639705753251   F   F   F
  0.3291166422046246  0.7138966949624788  0.6597530602546513   F   F   F
  0.6629806410099448  0.2715310705749161  0.7313506989609877   F   F   F
  0.6649177231869174  0.7292613663952565  0.2675455522618648   F   F   F
  0.6667091369067251  0.2918778258127048  0.3433626710461297   F   F   F
  0.6708622323402906  0.7138512387587355  0.6597515595670984   F   F   F
  0.4999140352834459  0.0304893027186068  0.6577832202508347   T   T   T
  0.4998223983012835  0.0192145787280893  0.6917490836982267   T   T   T
 
  0.00000000E+00  0.00000000E+00  0.00000000E+00
  0.00000000E+00  0.00000000E+00  0.00000000E+00
  0.00000000E+00  0.00000000E+00  0.00000000E+00
  0.00000000E+00  0.00000000E+00  0.00000000E+00
  0.00000000E+00  0.00000000E+00  0.00000000E+00
  0.00000000E+00  0.00000000E+00  0.00000000E+00
  0.00000000E+00  0.00000000E+00  0.00000000E+00
  0.00000000E+00  0.00000000E+00  0.00000000E+00
  0.00000000E+00  0.00000000E+00  0.00000000E+00
  0.00000000E+00  0.00000000E+00  0.00000000E+00
  0.00000000E+00  0.00000000E+00  0.00000000E+00
  0.00000000E+00  0.00000000E+00  0.00000000E+00
  0.00000000E+00  0.00000000E+00  0.00000000E+00
  0.00000000E+00  0.00000000E+00  0.00000000E+00
  0.00000000E+00  0.00000000E+00  0.00000000E+00
  0.00000000E+00  0.00000000E+00  0.00000000E+00
  0.00000000E+00  0.00000000E+00  0.00000000E+00
  0.00000000E+00  0.00000000E+00  0.00000000E+00
  0.00000000E+00  0.00000000E+00  0.00000000E+00
  0.00000000E+00  0.00000000E+00  0.00000000E+00
  0.00000000E+00  0.00000000E+00  0.00000000E+00
  0.00000000E+00  0.00000000E+00  0.00000000E+00
  0.00000000E+00  0.00000000E+00  0.00000000E+00
  0.00000000E+00  0.00000000E+00  0.00000000E+00
  0.00000000E+00  0.00000000E+00  0.00000000E+00
  0.00000000E+00  0.00000000E+00  0.00000000E+00
  0.00000000E+00  0.00000000E+00  0.00000000E+00
  0.00000000E+00  0.00000000E+00  0.00000000E+00
  0.00000000E+00  0.00000000E+00  0.00000000E+00
  0.00000000E+00  0.00000000E+00  0.00000000E+00
  0.00000000E+00  0.00000000E+00  0.00000000E+00
  0.00000000E+00  0.00000000E+00  0.00000000E+00
  0.00000000E+00  0.00000000E+00  0.00000000E+00
  0.00000000E+00  0.00000000E+00  0.00000000E+00
  0.00000000E+00  0.00000000E+00  0.00000000E+00
  0.00000000E+00  0.00000000E+00  0.00000000E+00
  0.00000000E+00  0.00000000E+00  0.00000000E+00
  0.00000000E+00  0.00000000E+00  0.00000000E+00
  0.00000000E+00  0.00000000E+00  0.00000000E+00
  0.00000000E+00  0.00000000E+00  0.00000000E+00
  0.00000000E+00  0.00000000E+00  0.00000000E+00
  0.00000000E+00  0.00000000E+00  0.00000000E+00
  0.00000000E+00  0.00000000E+00  0.00000000E+00
  0.00000000E+00  0.00000000E+00  0.00000000E+00
  0.00000000E+00  0.00000000E+00  0.00000000E+00
  0.00000000E+00  0.00000000E+00  0.00000000E+00
  0.00000000E+00  0.00000000E+00  0.00000000E+00
  0.00000000E+00  0.00000000E+00  0.00000000E+00
  0.00000000E+00  0.00000000E+00  0.00000000E+00
  0.00000000E+00  0.00000000E+00  0.00000000E+00
  0.00000000E+00  0.00000000E+00  0.00000000E+00
  0.00000000E+00  0.00000000E+00  0.00000000E+00
  0.00000000E+00  0.00000000E+00  0.00000000E+00
  0.00000000E+00  0.00000000E+00  0.00000000E+00
  0.00000000E+00  0.00000000E+00  0.00000000E+00
  0.00000000E+00  0.00000000E+00  0.00000000E+00
  0.00000000E+00  0.00000000E+00  0.00000000E+00
  0.00000000E+00  0.00000000E+00  0.00000000E+00
  0.00000000E+00  0.00000000E+00  0.00000000E+00
  0.00000000E+00  0.00000000E+00  0.00000000E+00
  0.00000000E+00  0.00000000E+00  0.00000000E+00
  0.00000000E+00  0.00000000E+00  0.00000000E+00
