CONTCAR\(6)                             
   1.00000000000000     
    10.8789997101000004    0.0000000000000000    0.0000000000000000
     0.0000000000000000   14.0766000748000000    0.0000000000000000
     0.0000000000000000    0.0000000000000000   17.9612998961999999
   Cu   Br   O 
    12    12    24
Direct
  0.1666599930000032  0.3664601448709381  0.5000000000000000
 -0.0000000000000000  0.1335398461290576  0.5000000000000000
  0.5000000000000000  0.3664601448709381  0.5000000000000000
  0.3333300019999967  0.1335398461290576  0.5000000000000000
  0.8333300019999967  0.3664601448709381  0.5000000000000000
  0.6666700419999998  0.1335398461290576  0.5000000000000000
  0.1666599930000032  0.8664601788709410  0.5000000000000000
  0.0000000000000000  0.6335398551290619  0.5000000000000000
  0.5000000000000000  0.8664601788709410  0.5000000000000000
  0.3333300019999967  0.6335398551290619  0.5000000000000000
  0.8333300019999967  0.8664601788709410  0.5000000000000000
  0.6666700419999998  0.6335398551290619  0.5000000000000000
  0.2500000000000000  0.2500000000000000  0.5854287986841563
  0.0833299969999999  0.2500000000000000  0.4145712283158424
  0.5833399959999994  0.2500000000000000  0.5854287986841563
  0.4166699980000033  0.2500000000000000  0.4145712283158424
  0.9166700419999998  0.2500000000000000  0.5854287986841563
  0.7500000439999965  0.2500000000000000  0.4145712283158424
  0.2500000000000000  0.7500000169999979  0.5854287986841563
  0.0833299969999999  0.7500000169999979  0.4145712283158424
  0.5833399959999994  0.7500000169999979  0.5854287986841563
  0.4166699980000033  0.7500000169999979  0.4145712283158424
  0.9166700419999998  0.7500000169999979  0.5854287986841563
  0.7500000439999965  0.7500000169999979  0.4145712283158424
  0.0712695963880451  0.4542813368514198  0.4431753006318879
  0.0954004066119550  0.0457186631485802  0.4431753006318879
  0.2620604106119556  0.4542813368514198  0.5568346813681139
  0.2379395893880444  0.0457186631485802  0.5568346813681139
  0.4045996153880397  0.4542813368514198  0.4431753006318879
  0.4287303866119570  0.0457186631485802  0.4431753006318879
  0.5954004286119567  0.4542813368514198  0.5568346813681139
  0.5712696133880431  0.0457186631485802  0.5568346813681139
  0.7379395673880427  0.4542813368514198  0.4431753006318879
  0.7620604326119573  0.0457186631485802  0.4431753006318879
  0.9287304306119606  0.4542813368514198  0.5568346813681139
  0.9045995713880433  0.0457186631485802  0.5568346813681139
  0.0712695963880451  0.9542813368514198  0.4431753006318879
  0.0954004066119550  0.5457186631485802  0.4431753006318879
  0.2620604106119556  0.9542813368514198  0.5568346813681139
  0.2379395893880444  0.5457186631485802  0.5568346813681139
  0.4045996153880397  0.9542813368514198  0.4431753006318879
  0.4287303866119570  0.5457186631485802  0.4431753006318879
  0.5954004286119567  0.9542813368514198  0.5568346813681139
  0.5712696133880431  0.5457186631485802  0.5568346813681138
  0.7379395673880427  0.9542813368514198  0.4431753006318879
  0.7620604326119573  0.5457186631485802  0.4431753006318879
  0.9287304306119606  0.9542813368514198  0.5568346813681139
  0.9045995713880433  0.5457186631485802  0.5568346813681139
 
  0.00000000E+00  0.00000000E+00  0.00000000E+00
  0.00000000E+00  0.00000000E+00  0.00000000E+00
  0.00000000E+00  0.00000000E+00  0.00000000E+00
  0.00000000E+00  0.00000000E+00  0.00000000E+00
  0.00000000E+00  0.00000000E+00  0.00000000E+00
  0.00000000E+00  0.00000000E+00  0.00000000E+00
  0.00000000E+00  0.00000000E+00  0.00000000E+00
  0.00000000E+00  0.00000000E+00  0.00000000E+00
  0.00000000E+00  0.00000000E+00  0.00000000E+00
  0.00000000E+00  0.00000000E+00  0.00000000E+00
  0.00000000E+00  0.00000000E+00  0.00000000E+00
  0.00000000E+00  0.00000000E+00  0.00000000E+00
  0.00000000E+00  0.00000000E+00  0.00000000E+00
  0.00000000E+00  0.00000000E+00  0.00000000E+00
  0.00000000E+00  0.00000000E+00  0.00000000E+00
  0.00000000E+00  0.00000000E+00  0.00000000E+00
  0.00000000E+00  0.00000000E+00  0.00000000E+00
  0.00000000E+00  0.00000000E+00  0.00000000E+00
  0.00000000E+00  0.00000000E+00  0.00000000E+00
  0.00000000E+00  0.00000000E+00  0.00000000E+00
  0.00000000E+00  0.00000000E+00  0.00000000E+00
  0.00000000E+00  0.00000000E+00  0.00000000E+00
  0.00000000E+00  0.00000000E+00  0.00000000E+00
  0.00000000E+00  0.00000000E+00  0.00000000E+00
  0.00000000E+00  0.00000000E+00  0.00000000E+00
  0.00000000E+00  0.00000000E+00  0.00000000E+00
  0.00000000E+00  0.00000000E+00  0.00000000E+00
  0.00000000E+00  0.00000000E+00  0.00000000E+00
  0.00000000E+00  0.00000000E+00  0.00000000E+00
  0.00000000E+00  0.00000000E+00  0.00000000E+00
  0.00000000E+00  0.00000000E+00  0.00000000E+00
  0.00000000E+00  0.00000000E+00  0.00000000E+00
  0.00000000E+00  0.00000000E+00  0.00000000E+00
  0.00000000E+00  0.00000000E+00  0.00000000E+00
  0.00000000E+00  0.00000000E+00  0.00000000E+00
  0.00000000E+00  0.00000000E+00  0.00000000E+00
  0.00000000E+00  0.00000000E+00  0.00000000E+00
  0.00000000E+00  0.00000000E+00  0.00000000E+00
  0.00000000E+00  0.00000000E+00  0.00000000E+00
  0.00000000E+00  0.00000000E+00  0.00000000E+00
  0.00000000E+00  0.00000000E+00  0.00000000E+00
  0.00000000E+00  0.00000000E+00  0.00000000E+00
  0.00000000E+00  0.00000000E+00  0.00000000E+00
  0.00000000E+00  0.00000000E+00  0.00000000E+00
  0.00000000E+00  0.00000000E+00  0.00000000E+00
  0.00000000E+00  0.00000000E+00  0.00000000E+00
  0.00000000E+00  0.00000000E+00  0.00000000E+00
  0.00000000E+00  0.00000000E+00  0.00000000E+00
