CONTCAR\(4)                             
   1.00000000000000     
    11.1367998122999996    0.0000000000000000    0.0000000000000000
    -5.5683999061999998    9.6447515543000009    0.0000000000000000
     0.0000000000000000    0.0000000000000000   17.5949001311999993
   Ni   Te   O    H 
     9    18     1     1
Selective dynamics
Direct
  0.0023145995504947  0.0099541653685407  0.5026710931588454   F   F   F
  0.3332136358508535  0.0082819083868557  0.5014257585930153   F   F   F
  0.6673748927497201  0.0118695466090415  0.4973795371732450   F   F   F
  0.9815749233723778  0.3331948697613640  0.4869620111922046   F   F   F
  0.3348595312416549  0.3438425982727296  0.5068418223788598   F   F   F
  0.6671868633332991  0.3403875246088006  0.4982964155823311   F   F   F
  0.0019472694871396  0.6765681379074522  0.5025180789376478   F   F   F
  0.3340020975897673  0.6741869007448713  0.5076232426044314   F   F   F
  0.6698926787998261  0.6774406268254580  0.5045466490939177   F   F   F
  0.1156693016154193  0.2359178813962259  0.4239142347952765   F   F   F
  0.2234418162653142  0.1187955586205618  0.5832903490198049   F   F   F
  0.4419077987747428  0.2311897118910409  0.4222896936611065   F   F   F
  0.5572022613415939  0.1204005417287988  0.5804292881585269   F   F   F
  0.7520940659771682  0.2195186137318217  0.4070387817914352   F   F   F
  0.8907868147303972  0.1289268101814258  0.5764072584411082   F   F   F
  0.1150532888449263  0.5641194936052045  0.4235387730554407   F   F   F
  0.2298042577327735  0.4567442055443394  0.5896586924997393   F   F   F
  0.4451727603506015  0.5647599363612201  0.4267597745494669   F   F   F
  0.5631294406759082  0.4512979603702760  0.5814120906248377   F   F   F
  0.7803005185435197  0.5677125983343601  0.4230462711722467   F   F   F
  0.8914477703660211  0.4468927526709123  0.5768233301414725   F   F   F
  0.1099080181203007  0.8971515141005924  0.4218958214204775   F   F   F
  0.2223371721194738  0.7883552482009577  0.5833920812071369   F   F   F
  0.4408161578240311  0.8923938818040824  0.4232281239731677   F   F   F
  0.5634249052115763  0.7972557661013440  0.5812305146987100   F   F   F
  0.7807305678773702  0.8971451999505859  0.4233315913914026   F   F   F
  0.8924131490961997  0.7884320928904529  0.5839145414500635   F   F   F
  0.3742400953723006  0.5423097811260860  0.6770528190475673   T   T   T
  0.3646335231852335  0.4673344829046329  0.7093185754286456   T   T   T
 
  0.00000000E+00  0.00000000E+00  0.00000000E+00
  0.00000000E+00  0.00000000E+00  0.00000000E+00
  0.00000000E+00  0.00000000E+00  0.00000000E+00
  0.00000000E+00  0.00000000E+00  0.00000000E+00
  0.00000000E+00  0.00000000E+00  0.00000000E+00
  0.00000000E+00  0.00000000E+00  0.00000000E+00
  0.00000000E+00  0.00000000E+00  0.00000000E+00
  0.00000000E+00  0.00000000E+00  0.00000000E+00
  0.00000000E+00  0.00000000E+00  0.00000000E+00
  0.00000000E+00  0.00000000E+00  0.00000000E+00
  0.00000000E+00  0.00000000E+00  0.00000000E+00
  0.00000000E+00  0.00000000E+00  0.00000000E+00
  0.00000000E+00  0.00000000E+00  0.00000000E+00
  0.00000000E+00  0.00000000E+00  0.00000000E+00
  0.00000000E+00  0.00000000E+00  0.00000000E+00
  0.00000000E+00  0.00000000E+00  0.00000000E+00
  0.00000000E+00  0.00000000E+00  0.00000000E+00
  0.00000000E+00  0.00000000E+00  0.00000000E+00
  0.00000000E+00  0.00000000E+00  0.00000000E+00
  0.00000000E+00  0.00000000E+00  0.00000000E+00
  0.00000000E+00  0.00000000E+00  0.00000000E+00
  0.00000000E+00  0.00000000E+00  0.00000000E+00
  0.00000000E+00  0.00000000E+00  0.00000000E+00
  0.00000000E+00  0.00000000E+00  0.00000000E+00
  0.00000000E+00  0.00000000E+00  0.00000000E+00
  0.00000000E+00  0.00000000E+00  0.00000000E+00
  0.00000000E+00  0.00000000E+00  0.00000000E+00
  0.00000000E+00  0.00000000E+00  0.00000000E+00
  0.00000000E+00  0.00000000E+00  0.00000000E+00
