CONTCAR\(8)                             
   1.00000000000000     
    12.3756999968999999    0.0000000000000000    0.0000000000000000
     0.0000000000000000   15.7599000931000006    0.0000000000000000
     0.0000000000000000    0.0000000000000000   19.7080001831000011
   Ta   Ni   Te   O    H 
    16    16    32     2     1
Direct
  0.3715583601108742  0.4768704968192247  0.5061439524082793
  0.1185558729550125  0.0233113603115948  0.4967042903593114
  0.1295017616705130  0.2252830238876028  0.5035856577884323
  0.3803473015702054  0.2730927431757913  0.4973669773892139
  0.8680649727588942  0.4755200918510545  0.5033236465383707
  0.6178363686887652  0.0226150426886339  0.4959779657920310
  0.6292688499856753  0.2264610540352374  0.5041525533605585
  0.8798499603809647  0.2724267659208915  0.4955321306020500
  0.3674212991017797  0.9761485109074219  0.5041158383685772
  0.1176204849831030  0.5234184307984127  0.4956172631211890
  0.1284624454515165  0.7263978911313164  0.5036788159896046
  0.3784302941881187  0.7734384677852421  0.4961029571708673
  0.8672796154763142  0.9750081489810124  0.5042413920159935
  0.6151301117026100  0.5235944698476687  0.4897935053821290
  0.6284261043933147  0.7244966099222212  0.5040454685528327
  0.8793334343114377  0.7729018550448090  0.4949819346528202
  0.0506203232238498  0.3739262227559422  0.5425511942368575
  0.4472815747913210  0.1240105878114667  0.5429894896379891
  0.3018510093317622  0.1256681355989652  0.4573376609218773
  0.1967155557528001  0.3756118140206091  0.4578879080480318
  0.5532577360380033  0.3768447309323375  0.5442624409041714
  0.9461489559190425  0.1231900574275126  0.5427624667322573
  0.8003001345257009  0.1243978997548510  0.4572176212100191
  0.6969187443175131  0.3748323394976775  0.4568806187001362
  0.0500274162701112  0.8737930784651493  0.5426617447948709
  0.4466230150565626  0.6233317527073698  0.5428789202209150
  0.3003768823421595  0.6255504948755820  0.4574433183479502
  0.1960306843665831  0.8754318995181556  0.4571581991033868
  0.5500982482502083  0.8733154788637716  0.5425078787911617
  0.9451807476025502  0.6232396278114642  0.5427828629003764
  0.8000414008994892  0.6244973792720857  0.4564903570408674
  0.6958193555744056  0.8747669438454145  0.4571413434993327
  0.2493900701392892  0.3654857543543150  0.5858078945139196
  0.9987580872485367  0.2478874566314497  0.6184778236159681
  0.9991560126130112  0.1335646632674140  0.4138857038886178
  0.4986570404857176  0.3833730793582621  0.4142702654251743
  0.2482446704135108  0.2514315042390306  0.3815817438292557
  0.2495719710001305  0.0013691876479805  0.3813358845919808
  0.9995036987019005  0.9979681503492793  0.6190651558305432
  0.2490283171976727  0.1159526782225664  0.5864604986066261
  0.7508768113981046  0.3639288051050638  0.5862043799135020
  0.4992113309059617  0.2487748193664565  0.6193304805611513
  0.4998942031261934  0.1338743073218360  0.4138720844726583
  0.9984929307193140  0.3838187192795168  0.4135479372876888
  0.7481360896081318  0.2499175656484044  0.3810081671645600
  0.7500465874437074  0.9998890827850343  0.3810854881804035
  0.4998246463947504  0.9977622602783449  0.6188079015218998
  0.7479539104568682  0.1145849242397373  0.5861346260649662
  0.2479876586811157  0.8653517430454508  0.5863651616354516
  0.9951430931486566  0.7479537380108833  0.6183925840684705
  0.9981304062179788  0.6337829633931895  0.4135796625784346
  0.4973768249965362  0.8846042151161502  0.4138113080572124
  0.2456301627804183  0.7508539308549849  0.3810908593633707
  0.2517366817315559  0.5001535377977442  0.3821696970046717
  0.9993132867185186  0.4979616074752037  0.6185391364450356
  0.2472832334560021  0.6152248094686636  0.5860861288063270
  0.7483469640442412  0.8629047880906765  0.5859166700838156
  0.4964187505336669  0.7482980019205318  0.6188143934414774
  0.4962788122965031  0.6370063184108623  0.4116403824348620
  0.9979738219341550  0.8843076606859376  0.4135626460545629
  0.7457561970727856  0.7506530406473445  0.3808449085526147
  0.7501962332058962  0.4997200510751246  0.3794896705851661
  0.5014555056235594  0.4990535055286348  0.6217413652275097
  0.7443507874734777  0.6100861374844819  0.5845345511365476
  0.3375016641871840  0.3982420055144099  0.7290567060054736
  0.4350040619219265  0.4477581975425366  0.7219756094187075
  0.2859003371318396  0.4412072105760051  0.7449742120488841
 
  0.00000000E+00  0.00000000E+00  0.00000000E+00
  0.00000000E+00  0.00000000E+00  0.00000000E+00
  0.00000000E+00  0.00000000E+00  0.00000000E+00
  0.00000000E+00  0.00000000E+00  0.00000000E+00
  0.00000000E+00  0.00000000E+00  0.00000000E+00
  0.00000000E+00  0.00000000E+00  0.00000000E+00
  0.00000000E+00  0.00000000E+00  0.00000000E+00
  0.00000000E+00  0.00000000E+00  0.00000000E+00
  0.00000000E+00  0.00000000E+00  0.00000000E+00
  0.00000000E+00  0.00000000E+00  0.00000000E+00
  0.00000000E+00  0.00000000E+00  0.00000000E+00
  0.00000000E+00  0.00000000E+00  0.00000000E+00
  0.00000000E+00  0.00000000E+00  0.00000000E+00
  0.00000000E+00  0.00000000E+00  0.00000000E+00
  0.00000000E+00  0.00000000E+00  0.00000000E+00
  0.00000000E+00  0.00000000E+00  0.00000000E+00
  0.00000000E+00  0.00000000E+00  0.00000000E+00
  0.00000000E+00  0.00000000E+00  0.00000000E+00
  0.00000000E+00  0.00000000E+00  0.00000000E+00
  0.00000000E+00  0.00000000E+00  0.00000000E+00
  0.00000000E+00  0.00000000E+00  0.00000000E+00
  0.00000000E+00  0.00000000E+00  0.00000000E+00
  0.00000000E+00  0.00000000E+00  0.00000000E+00
  0.00000000E+00  0.00000000E+00  0.00000000E+00
  0.00000000E+00  0.00000000E+00  0.00000000E+00
  0.00000000E+00  0.00000000E+00  0.00000000E+00
  0.00000000E+00  0.00000000E+00  0.00000000E+00
  0.00000000E+00  0.00000000E+00  0.00000000E+00
  0.00000000E+00  0.00000000E+00  0.00000000E+00
  0.00000000E+00  0.00000000E+00  0.00000000E+00
  0.00000000E+00  0.00000000E+00  0.00000000E+00
  0.00000000E+00  0.00000000E+00  0.00000000E+00
  0.00000000E+00  0.00000000E+00  0.00000000E+00
  0.00000000E+00  0.00000000E+00  0.00000000E+00
  0.00000000E+00  0.00000000E+00  0.00000000E+00
  0.00000000E+00  0.00000000E+00  0.00000000E+00
  0.00000000E+00  0.00000000E+00  0.00000000E+00
  0.00000000E+00  0.00000000E+00  0.00000000E+00
  0.00000000E+00  0.00000000E+00  0.00000000E+00
  0.00000000E+00  0.00000000E+00  0.00000000E+00
  0.00000000E+00  0.00000000E+00  0.00000000E+00
  0.00000000E+00  0.00000000E+00  0.00000000E+00
  0.00000000E+00  0.00000000E+00  0.00000000E+00
  0.00000000E+00  0.00000000E+00  0.00000000E+00
  0.00000000E+00  0.00000000E+00  0.00000000E+00
  0.00000000E+00  0.00000000E+00  0.00000000E+00
  0.00000000E+00  0.00000000E+00  0.00000000E+00
  0.00000000E+00  0.00000000E+00  0.00000000E+00
  0.00000000E+00  0.00000000E+00  0.00000000E+00
  0.00000000E+00  0.00000000E+00  0.00000000E+00
  0.00000000E+00  0.00000000E+00  0.00000000E+00
  0.00000000E+00  0.00000000E+00  0.00000000E+00
  0.00000000E+00  0.00000000E+00  0.00000000E+00
  0.00000000E+00  0.00000000E+00  0.00000000E+00
  0.00000000E+00  0.00000000E+00  0.00000000E+00
  0.00000000E+00  0.00000000E+00  0.00000000E+00
  0.00000000E+00  0.00000000E+00  0.00000000E+00
  0.00000000E+00  0.00000000E+00  0.00000000E+00
  0.00000000E+00  0.00000000E+00  0.00000000E+00
  0.00000000E+00  0.00000000E+00  0.00000000E+00
  0.00000000E+00  0.00000000E+00  0.00000000E+00
  0.00000000E+00  0.00000000E+00  0.00000000E+00
  0.00000000E+00  0.00000000E+00  0.00000000E+00
  0.00000000E+00  0.00000000E+00  0.00000000E+00
  0.00000000E+00  0.00000000E+00  0.00000000E+00
  0.00000000E+00  0.00000000E+00  0.00000000E+00
  0.00000000E+00  0.00000000E+00  0.00000000E+00
