CONTCAR\(5)                             
   1.00000000000000     
    13.8191995620999997    0.0000000000000000    0.0000000000000000
     0.0000000000000000   12.6052999496000009    0.0000000000000000
     0.0000000000000000    0.0000000000000000   19.1947002411000014
   Te   W    O 
    32    16     1
Direct
  0.1279214288957284  0.3949059608841007  0.4264315872353290
  0.9985638967511137  0.1499860080917866  0.3895402622332725
  0.1235314760154376  0.0688308407944496  0.6086392313049743
  0.0031918588857833  0.3223569895545587  0.5792173211957988
  0.3750004564846492  0.3957875993376986  0.4247718351357157
  0.2508303759156396  0.1508024394322375  0.3912256433199594
  0.3749931391052570  0.0717512250774572  0.6104831795352343
  0.2575369764070015  0.3314626498536380  0.5848899687494452
  0.6220764053020426  0.3949130407839671  0.4264245892151746
  0.4991710863815593  0.1507945124345907  0.3912272098582043
  0.6264689474096689  0.0688502699905576  0.6086410629180506
  0.4924518131730284  0.3314506966328817  0.5848768663441476
  0.8749980332959879  0.3962462443355921  0.4241959908840379
  0.7514450342259393  0.1499769681009933  0.3895348839588849
  0.8750042639124516  0.0703994306917035  0.6089536101416230
  0.7468271386397249  0.3223635961309504  0.5792262464047014
  0.1253371755222906  0.8951012949694985  0.4223561971652011
  0.0008996652285453  0.6483591343177675  0.3916493850695634
  0.1246685040852569  0.5735943566328450  0.6112757378270898
  0.9988979123808747  0.8260113585648843  0.5769940182597069
  0.3750031775024425  0.8965964419407253  0.4209126488040852
  0.2503740450514260  0.6499910837445178  0.3919144868738995
  0.3749850104967649  0.5800140481495210  0.6123732774072299
  0.2498906237954239  0.8277292778102993  0.5776892430530024
  0.6246449178465306  0.8951132029224795  0.4223659840009412
  0.4996104766510610  0.6500199740557242  0.3919158519714882
  0.6253187918924111  0.5736070326548974  0.6112712196829234
  0.5000900827463602  0.8277310224539182  0.5776939658118264
  0.8750080791556059  0.8934016817619522  0.4199635839766392
  0.7490863988332203  0.6483531945458008  0.3916472885694237
  0.8749963985887277  0.5701213440656233  0.6104793941835207
  0.7510667406713637  0.8260160881072740  0.5769851485883948
  0.9976482412965453  0.0203532221621025  0.5036030027768181
  0.1214207645374824  0.1954318921500045  0.4939479639274256
  0.2520256847527826  0.0226578168997227  0.5053206494089102
  0.3749955773886953  0.2016374353946861  0.4964922904450724
  0.4979608833326643  0.0226640162327944  0.5053299757774374
  0.6285934435622239  0.1954267298975692  0.4939385078861849
  0.7523510349930973  0.0203672911748022  0.5036013278115707
  0.8750075980796836  0.2006148205737701  0.4951892825476837
  0.0009630806229509  0.5209737065813947  0.5069316501402822
  0.1253409570506199  0.7003526263572042  0.4957816642346573
  0.2525058733134332  0.5241060417110168  0.5085890453162399
  0.3749913188309080  0.7023380209458905  0.4955827640199335
  0.4974953527265297  0.5241056308010832  0.5085981069853794
  0.6246497719452770  0.7003478439196897  0.4957752260952277
  0.7490061307457709  0.5209702308715841  0.5069323159362552
  0.8749876785660291  0.6984180452193480  0.4949461540177889
  0.3750166570059505  0.3471755892824755  0.6508933039936169
 
  0.00000000E+00  0.00000000E+00  0.00000000E+00
  0.00000000E+00  0.00000000E+00  0.00000000E+00
  0.00000000E+00  0.00000000E+00  0.00000000E+00
  0.00000000E+00  0.00000000E+00  0.00000000E+00
  0.00000000E+00  0.00000000E+00  0.00000000E+00
  0.00000000E+00  0.00000000E+00  0.00000000E+00
  0.00000000E+00  0.00000000E+00  0.00000000E+00
  0.00000000E+00  0.00000000E+00  0.00000000E+00
  0.00000000E+00  0.00000000E+00  0.00000000E+00
  0.00000000E+00  0.00000000E+00  0.00000000E+00
  0.00000000E+00  0.00000000E+00  0.00000000E+00
  0.00000000E+00  0.00000000E+00  0.00000000E+00
  0.00000000E+00  0.00000000E+00  0.00000000E+00
  0.00000000E+00  0.00000000E+00  0.00000000E+00
  0.00000000E+00  0.00000000E+00  0.00000000E+00
  0.00000000E+00  0.00000000E+00  0.00000000E+00
  0.00000000E+00  0.00000000E+00  0.00000000E+00
  0.00000000E+00  0.00000000E+00  0.00000000E+00
  0.00000000E+00  0.00000000E+00  0.00000000E+00
  0.00000000E+00  0.00000000E+00  0.00000000E+00
  0.00000000E+00  0.00000000E+00  0.00000000E+00
  0.00000000E+00  0.00000000E+00  0.00000000E+00
  0.00000000E+00  0.00000000E+00  0.00000000E+00
  0.00000000E+00  0.00000000E+00  0.00000000E+00
  0.00000000E+00  0.00000000E+00  0.00000000E+00
  0.00000000E+00  0.00000000E+00  0.00000000E+00
  0.00000000E+00  0.00000000E+00  0.00000000E+00
  0.00000000E+00  0.00000000E+00  0.00000000E+00
  0.00000000E+00  0.00000000E+00  0.00000000E+00
  0.00000000E+00  0.00000000E+00  0.00000000E+00
  0.00000000E+00  0.00000000E+00  0.00000000E+00
  0.00000000E+00  0.00000000E+00  0.00000000E+00
  0.00000000E+00  0.00000000E+00  0.00000000E+00
  0.00000000E+00  0.00000000E+00  0.00000000E+00
  0.00000000E+00  0.00000000E+00  0.00000000E+00
  0.00000000E+00  0.00000000E+00  0.00000000E+00
  0.00000000E+00  0.00000000E+00  0.00000000E+00
  0.00000000E+00  0.00000000E+00  0.00000000E+00
  0.00000000E+00  0.00000000E+00  0.00000000E+00
  0.00000000E+00  0.00000000E+00  0.00000000E+00
  0.00000000E+00  0.00000000E+00  0.00000000E+00
  0.00000000E+00  0.00000000E+00  0.00000000E+00
  0.00000000E+00  0.00000000E+00  0.00000000E+00
  0.00000000E+00  0.00000000E+00  0.00000000E+00
  0.00000000E+00  0.00000000E+00  0.00000000E+00
  0.00000000E+00  0.00000000E+00  0.00000000E+00
  0.00000000E+00  0.00000000E+00  0.00000000E+00
  0.00000000E+00  0.00000000E+00  0.00000000E+00
  0.00000000E+00  0.00000000E+00  0.00000000E+00
