CONTCAR\(6)                             
   1.00000000000000     
    11.7135000228999999    0.0000000000000000    0.0000000000000000
     0.0000000000000000   10.5269002914000005    0.0000000000000000
     0.0000000000000000    0.0000000000000000   20.5844001769999991
   Mn   Sb   Se   I    O 
     6     6    12     6     1
Direct
  0.3333165557896005 -0.0002773051340490  0.4967328295239415
  0.0007247855596656  0.4956889868904351  0.5033456601575995
  0.6697144434150970  0.0122492601583317  0.4970864784290607
  0.3332893639430926  0.4972171072989758  0.5023900503628342
 -0.0028840633072017  0.0121683720314823  0.4971132379092229
  0.6659433984698759  0.4957112252762060  0.5032975725485542
  0.1886408987092850  0.2960296066667928  0.6291486653593737
  0.1606371743288603  0.7215511334886525  0.3860721963419215
  0.4779659728790718  0.2960961019043077  0.6291606139773237
  0.5060362918350835  0.7217851407679439  0.3860101778969114
  0.8333552282867578  0.2808895928404702  0.6058563658741690
  0.8332790924909382  0.7144605972031779  0.3882491322270342
  0.0000030142126768  0.2509817159439552  0.5229458250288715
  0.1743854640374278  0.4822079985982786  0.4169756245612824
 -0.0005223880777060  0.7603825700144684  0.4754524852218125
  0.1736362237131824  0.5322862556134069  0.5843062571621381
  0.3333129855255876  0.2371615268971805  0.5298285308024506
  0.4921737307887300  0.4824005578195809  0.4169214167766636
  0.3334291316774379  0.7841229973214565  0.4720415287997493
  0.4930161300806684  0.5323595589526816  0.5842791671142505
  0.6666903604361345  0.2510305828644604  0.5229527593177464
  0.8333112252467592  0.4748733941241793  0.4157430314020292
  0.6671196027317672  0.7604824495089811  0.4754510276812329
  0.8333635925132876  0.5287729770378670  0.5879357021695691
  0.1730804225400162  0.9525324608197828  0.5883444317351796
  0.1750823682328592  0.0556105716066329  0.4060507053166318
  0.4936459473218081  0.9526085685253564  0.5883008613252289
  0.4915935982803297  0.0555768970584108  0.4060903782593718
  0.8334408543126495  0.9501759942499528  0.5957834262173396
  0.8333984282643213  0.0455359906101794  0.3951776905954212
  0.3332301207619363  0.3199469470404439  0.6802961529051020
 
  0.00000000E+00  0.00000000E+00  0.00000000E+00
  0.00000000E+00  0.00000000E+00  0.00000000E+00
  0.00000000E+00  0.00000000E+00  0.00000000E+00
  0.00000000E+00  0.00000000E+00  0.00000000E+00
  0.00000000E+00  0.00000000E+00  0.00000000E+00
  0.00000000E+00  0.00000000E+00  0.00000000E+00
  0.00000000E+00  0.00000000E+00  0.00000000E+00
  0.00000000E+00  0.00000000E+00  0.00000000E+00
  0.00000000E+00  0.00000000E+00  0.00000000E+00
  0.00000000E+00  0.00000000E+00  0.00000000E+00
  0.00000000E+00  0.00000000E+00  0.00000000E+00
  0.00000000E+00  0.00000000E+00  0.00000000E+00
  0.00000000E+00  0.00000000E+00  0.00000000E+00
  0.00000000E+00  0.00000000E+00  0.00000000E+00
  0.00000000E+00  0.00000000E+00  0.00000000E+00
  0.00000000E+00  0.00000000E+00  0.00000000E+00
  0.00000000E+00  0.00000000E+00  0.00000000E+00
  0.00000000E+00  0.00000000E+00  0.00000000E+00
  0.00000000E+00  0.00000000E+00  0.00000000E+00
  0.00000000E+00  0.00000000E+00  0.00000000E+00
  0.00000000E+00  0.00000000E+00  0.00000000E+00
  0.00000000E+00  0.00000000E+00  0.00000000E+00
  0.00000000E+00  0.00000000E+00  0.00000000E+00
  0.00000000E+00  0.00000000E+00  0.00000000E+00
  0.00000000E+00  0.00000000E+00  0.00000000E+00
  0.00000000E+00  0.00000000E+00  0.00000000E+00
  0.00000000E+00  0.00000000E+00  0.00000000E+00
  0.00000000E+00  0.00000000E+00  0.00000000E+00
  0.00000000E+00  0.00000000E+00  0.00000000E+00
  0.00000000E+00  0.00000000E+00  0.00000000E+00
  0.00000000E+00  0.00000000E+00  0.00000000E+00
