 Eu1 Re2 O8                             
   1.00000000000000     
     5.4255825284819279    0.0000000000000000    0.0000000000000000
     2.7130394570511629    4.6992877279797662    0.0000000000000000
     0.0000000000000000    0.0000000000000000   22.4130733179429953
   Eu   Re   O 
     1     2     8
Direct
  0.9999830562279044  0.0000203136648906  0.5000121002845717
  0.6667006605575594  0.6666095773879022  0.4043176061935796
  0.3332775010098317  0.3334283340773609  0.5956905123233369
  0.3567220815264562  0.6769446498362797  0.4318003719124306
  0.6770371319242159  0.9662155624606470  0.4317797159120502
  0.6666539337901796  0.6665953180534316  0.3274646871289590
  0.0336095854122505  0.6433836378455737  0.5682190662185391
  0.9663431390274724  0.3566744997125042  0.4317832569399940
  0.3332938097066460  0.3334431249686887  0.6725469750407527
  0.3229271568406560  0.0338046560748779  0.5682238506944799
  0.6432509439768168  0.3230823259178450  0.5682089461052868
 
  0.00000000E+00  0.00000000E+00  0.00000000E+00
  0.00000000E+00  0.00000000E+00  0.00000000E+00
  0.00000000E+00  0.00000000E+00  0.00000000E+00
  0.00000000E+00  0.00000000E+00  0.00000000E+00
  0.00000000E+00  0.00000000E+00  0.00000000E+00
  0.00000000E+00  0.00000000E+00  0.00000000E+00
  0.00000000E+00  0.00000000E+00  0.00000000E+00
  0.00000000E+00  0.00000000E+00  0.00000000E+00
  0.00000000E+00  0.00000000E+00  0.00000000E+00
  0.00000000E+00  0.00000000E+00  0.00000000E+00
  0.00000000E+00  0.00000000E+00  0.00000000E+00
