CONTCAR\(10)                            
   1.00000000000000     
    11.1955995559999995    0.0000000000000000    0.0000000000000000
    -5.5977997779999997    9.6956736260999996    0.0000000000000000
     0.0000000000000000    0.0000000000000000   18.4459991455000001
   Ti   Te   O    H 
     9    18     2     1
Selective dynamics
Direct
  0.9718751599094517  0.9859778010037417  0.4998949025907820   F   F   F
  0.3034447925166077  0.9852884601363741  0.4995988673426339   F   F   F
  0.6497164840017149  0.0089730305584794  0.4997209098137532   F   F   F
  0.9701391923055596  0.3189732168271888  0.4994425287670978   F   F   F
  0.3030992990130557  0.3166603474533289  0.4994639521905953   F   F   F
  0.6388297914569705  0.3185243702115272  0.4999436224570601   F   F   F
  0.9702326021026479  0.6494848158363951  0.4995169585570736   F   F   F
  0.2802433498758319  0.6390213641252203  0.4990012666032584   F   F   F
  0.6485836034402652  0.6393369351073375  0.4992629842267604   F   F   F
  0.1930069586203018  0.0958634913011451  0.5957600376117966   F   F   F
  0.0820745730420498  0.2066218441284491  0.4042591371171369   F   F   F
  0.5254511162790507  0.0977359895020271  0.5963538593186115   F   F   F
  0.4148343838913817  0.2067112247175444  0.4044883780144986   F   F   F
  0.8630922502873020  0.0987005056154118  0.5962669099840170   F   F   F
  0.7516340592762774  0.2138137992777942  0.4009341488061366   F   F   F
  0.1905246680649739  0.4259645241425432  0.5960535430166303   F   F   F
  0.0745237343047762  0.5365306043180240  0.4004828204494686   F   F   F
  0.5251513679993138  0.4261429310377522  0.5961347079210668   F   F   F
  0.4160384071800252  0.5418647114429476  0.4087118448351532   F   F   F
  0.8601211728686522  0.4290777210617733  0.5951889265066939   F   F   F
  0.7517886600302361  0.5367121314722425  0.4009982509820134   F   F   F
  0.1907775864680090  0.7630334201046480  0.5959828836890679   F   F   F
  0.0819307311493773  0.8744037112970204  0.4046332004723681   F   F   F
  0.5244106418789443  0.7619370535446706  0.5726179454133487   F   F   F
  0.4165637236300768  0.8726826468313504  0.4092580381375228   F   F   F
  0.8632329657146727  0.7633650690097156  0.5959383418079369   F   F   F
  0.7457424095674838  0.8724324894349209  0.4097422146834901   F   F   F
  0.5024428111653876  0.7478343108915411  0.6850769435099551   T   T   T
  0.6352935017624119  0.8239807335708136  0.7208486411985291   T   T   T
  0.6584102921972033  0.7509815210380353  0.7279904855076774   T   T   T
 
  0.00000000E+00  0.00000000E+00  0.00000000E+00
  0.00000000E+00  0.00000000E+00  0.00000000E+00
  0.00000000E+00  0.00000000E+00  0.00000000E+00
  0.00000000E+00  0.00000000E+00  0.00000000E+00
  0.00000000E+00  0.00000000E+00  0.00000000E+00
  0.00000000E+00  0.00000000E+00  0.00000000E+00
  0.00000000E+00  0.00000000E+00  0.00000000E+00
  0.00000000E+00  0.00000000E+00  0.00000000E+00
  0.00000000E+00  0.00000000E+00  0.00000000E+00
  0.00000000E+00  0.00000000E+00  0.00000000E+00
  0.00000000E+00  0.00000000E+00  0.00000000E+00
  0.00000000E+00  0.00000000E+00  0.00000000E+00
  0.00000000E+00  0.00000000E+00  0.00000000E+00
  0.00000000E+00  0.00000000E+00  0.00000000E+00
  0.00000000E+00  0.00000000E+00  0.00000000E+00
  0.00000000E+00  0.00000000E+00  0.00000000E+00
  0.00000000E+00  0.00000000E+00  0.00000000E+00
  0.00000000E+00  0.00000000E+00  0.00000000E+00
  0.00000000E+00  0.00000000E+00  0.00000000E+00
  0.00000000E+00  0.00000000E+00  0.00000000E+00
  0.00000000E+00  0.00000000E+00  0.00000000E+00
  0.00000000E+00  0.00000000E+00  0.00000000E+00
  0.00000000E+00  0.00000000E+00  0.00000000E+00
  0.00000000E+00  0.00000000E+00  0.00000000E+00
  0.00000000E+00  0.00000000E+00  0.00000000E+00
  0.00000000E+00  0.00000000E+00  0.00000000E+00
  0.00000000E+00  0.00000000E+00  0.00000000E+00
  0.00000000E+00  0.00000000E+00  0.00000000E+00
  0.00000000E+00  0.00000000E+00  0.00000000E+00
  0.00000000E+00  0.00000000E+00  0.00000000E+00
