CONTCAR                                 
   1.00000000000000     
    11.7489004134999995    0.0000000000000000    0.0000000000000000
     1.9581532238999999    9.8089568154000002    0.0000000000000000
     0.0000000000000000    0.0000000000000000   20.7150001525999983
   Gd   Br   O 
    12    18     1
Direct
  0.0802084361299384  0.5318957866123522  0.5054882345719363
  0.3006287124887432  0.2404739870910390  0.4289467224001180
  0.2880293357180563  0.2483336518267513  0.5902715401961186
  0.1621702022283727  0.9715205799005724  0.5142061884169621
  0.4079831524750707  0.5453221674074311  0.5123600086438520
  0.6182869926106868  0.2341043846812110  0.4175649365006665
  0.6185157446412690  0.2437706872608876  0.5817539132056566
  0.5082856783553826  0.8878027202796518  0.5262829775417809
  0.7203713830965173  0.5742710007924295  0.4898885517082593
  0.9568732274101612  0.2509762137794480  0.4250854012787561
  0.9467251105185543  0.2670358757887112  0.5841928351433235
  0.8355590335772671  0.9631158954115082  0.5038472746075076
  0.1063464691479059  0.4255628640708305  0.3726388593319347
  0.1377502286040420  0.0839364213307243  0.6462239195994162
  0.1575316979609804  0.0524535009812805  0.3804212463956484
  0.0884478464385011  0.4529496193272985  0.6384277842388024
  0.0272806153392309  0.7940096691422280  0.5802467302149095
  0.2224421289042591  0.7186756504612711  0.4386756071973704
  0.4322328271852025  0.4553087115066338  0.3810073644779469
  0.4883363015313362  0.0598245606984709  0.6447217912500440
  0.4653596347830023  0.1125742179633826  0.3372975891572124
  0.4269470524328936  0.4343395683856979  0.6431073385640681
  0.3305093542673508  0.7870793001010431  0.5996217577715830
  0.6289566036343307  0.8324323864876763  0.4100179404650311
  0.7534748238697452  0.4316848560164662  0.3665062552652165
  0.8188419854761926  0.0771878101052220  0.6386538038474499
  0.8298961762134210  0.0571083844886985  0.3700085317737400
  0.7394295540178482  0.4530524774820754  0.6249173156838093
  0.7292856712497455  0.7872657672534085  0.5875703566344328
  0.9085078420127514  0.7066721410889240  0.4295418119759418
  0.5412462336812459  0.6612295212766819  0.5114052079404967
 
  0.00000000E+00  0.00000000E+00  0.00000000E+00
  0.00000000E+00  0.00000000E+00  0.00000000E+00
  0.00000000E+00  0.00000000E+00  0.00000000E+00
  0.00000000E+00  0.00000000E+00  0.00000000E+00
  0.00000000E+00  0.00000000E+00  0.00000000E+00
  0.00000000E+00  0.00000000E+00  0.00000000E+00
  0.00000000E+00  0.00000000E+00  0.00000000E+00
  0.00000000E+00  0.00000000E+00  0.00000000E+00
  0.00000000E+00  0.00000000E+00  0.00000000E+00
  0.00000000E+00  0.00000000E+00  0.00000000E+00
  0.00000000E+00  0.00000000E+00  0.00000000E+00
  0.00000000E+00  0.00000000E+00  0.00000000E+00
  0.00000000E+00  0.00000000E+00  0.00000000E+00
  0.00000000E+00  0.00000000E+00  0.00000000E+00
  0.00000000E+00  0.00000000E+00  0.00000000E+00
  0.00000000E+00  0.00000000E+00  0.00000000E+00
  0.00000000E+00  0.00000000E+00  0.00000000E+00
  0.00000000E+00  0.00000000E+00  0.00000000E+00
  0.00000000E+00  0.00000000E+00  0.00000000E+00
  0.00000000E+00  0.00000000E+00  0.00000000E+00
  0.00000000E+00  0.00000000E+00  0.00000000E+00
  0.00000000E+00  0.00000000E+00  0.00000000E+00
  0.00000000E+00  0.00000000E+00  0.00000000E+00
  0.00000000E+00  0.00000000E+00  0.00000000E+00
  0.00000000E+00  0.00000000E+00  0.00000000E+00
  0.00000000E+00  0.00000000E+00  0.00000000E+00
  0.00000000E+00  0.00000000E+00  0.00000000E+00
  0.00000000E+00  0.00000000E+00  0.00000000E+00
  0.00000000E+00  0.00000000E+00  0.00000000E+00
  0.00000000E+00  0.00000000E+00  0.00000000E+00
  0.00000000E+00  0.00000000E+00  0.00000000E+00
