CONTCAR\(5)                             
   1.00000000000000     
    13.3212995528999993    0.0000000000000000    0.0000000000000000
    -6.6606497764999997   11.5365838241999992    0.0000000000000000
     0.0000000000000000    0.0000000000000000   18.1305007935000013
   Ta   S    O 
    16    32     1
Direct
  0.1660774114242870  0.0829876694782846  0.4996409970577565
  0.4130818483634711  0.0845345008971037  0.4996345307789697
  0.6659263910752548  0.0849527442258940  0.5013738212213206
  0.9170573638150759  0.0829486125433401  0.5008955311086437
  0.1680551346765740  0.3319285276834995  0.5037398228324457
  0.4142153775923142  0.3299519902529955  0.5010682933876205
  0.6632673320352469  0.3367820687592069  0.5016384992968707
  0.9151003047666343  0.3341193501870910  0.5014451102850186
  0.1654218296316635  0.5870925435484070  0.5015486308883396
  0.4211297818460918  0.5788410841629587  0.5146108767812650
  0.6700296438340877  0.5857860750014903  0.5010049861965677
  0.9154816863577313  0.5869551697331382  0.4996180756407441
  0.1639066695007019  0.8361106641021115  0.4988861157374297
  0.4129160570286477  0.8345931730504557  0.5015238686008291
  0.6680846433349156  0.8319744608094726  0.5036238824211113
  0.9169748254572018  0.8339153448981484  0.4995856244586289
  0.9997060261825016  0.0002552813952974  0.5865547271487030
  0.9988604765995502  0.0011659116491225  0.4134126991664360
  0.2481936592575851  0.9998266391877362  0.5866140629244736
  0.2486916360125793  0.0008578474829428  0.4120386629658197
  0.4985360147452885  0.0031063699502942  0.5865107263843626
  0.4994820501449339  0.0007001960993988  0.4146379424218571
  0.7504055551840648  0.0028899328807873  0.5875239494843756
  0.7474906659995192  0.9996071335589810  0.4160124749853271
  0.9970740485669889  0.2495486497997534  0.5875881438192085
  0.0005140714137303  0.2525910880236305  0.4160928935493648
  0.2490502151757356  0.2485196882527946  0.5885974177709634
  0.2495074137807337  0.2524779267996916  0.4142843810318083
  0.4985972916193936  0.2463713272038192  0.5880119666115491
  0.4999522219018368  0.2510618126652296  0.4134412510963442
  0.7482461854023870  0.2517661550344827  0.5873403350412031
  0.7481740633014176  0.2519225340028297  0.4156987716134660
  0.9969043562805613  0.5015679634218514  0.5865346462580572
  0.9993164907679478  0.5005253116107122  0.4146691554326504
  0.2350249484225854  0.4966611806835232  0.5891877539103149
  0.2557811028293378  0.5040875342020925  0.4221676081067020
  0.5141945377997411  0.4858156982403669  0.5949200361190821
  0.4979878366996051  0.5019684436474426  0.4189546945104475
  0.7535975214856440  0.5014610847430970  0.5879984411802298
  0.7489614385495998  0.5000348146865241  0.4134157933712946
  0.0001904125816679  0.7518672657811810  0.5865824310243833
  0.9991707859241781  0.7513468200784824  0.4120093293851604
  0.2473207954319896  0.7527057746886163  0.5875109070938642
  0.2496322301653599  0.7503461343219083  0.4135475130214182
  0.5033855877106165  0.7649810356763600  0.5891369746969649
  0.4958965891459846  0.7442423948152516  0.4221167676843999
  0.7514409548153070  0.7509418345648116  0.5885108308612251
  0.7474936428262899  0.7504534168921521  0.4142011901911291
  0.4483829735354614  0.5514908816252053  0.6265564614438970
 
  0.00000000E+00  0.00000000E+00  0.00000000E+00
  0.00000000E+00  0.00000000E+00  0.00000000E+00
  0.00000000E+00  0.00000000E+00  0.00000000E+00
  0.00000000E+00  0.00000000E+00  0.00000000E+00
  0.00000000E+00  0.00000000E+00  0.00000000E+00
  0.00000000E+00  0.00000000E+00  0.00000000E+00
  0.00000000E+00  0.00000000E+00  0.00000000E+00
  0.00000000E+00  0.00000000E+00  0.00000000E+00
  0.00000000E+00  0.00000000E+00  0.00000000E+00
  0.00000000E+00  0.00000000E+00  0.00000000E+00
  0.00000000E+00  0.00000000E+00  0.00000000E+00
  0.00000000E+00  0.00000000E+00  0.00000000E+00
  0.00000000E+00  0.00000000E+00  0.00000000E+00
  0.00000000E+00  0.00000000E+00  0.00000000E+00
  0.00000000E+00  0.00000000E+00  0.00000000E+00
  0.00000000E+00  0.00000000E+00  0.00000000E+00
  0.00000000E+00  0.00000000E+00  0.00000000E+00
  0.00000000E+00  0.00000000E+00  0.00000000E+00
  0.00000000E+00  0.00000000E+00  0.00000000E+00
  0.00000000E+00  0.00000000E+00  0.00000000E+00
  0.00000000E+00  0.00000000E+00  0.00000000E+00
  0.00000000E+00  0.00000000E+00  0.00000000E+00
  0.00000000E+00  0.00000000E+00  0.00000000E+00
  0.00000000E+00  0.00000000E+00  0.00000000E+00
  0.00000000E+00  0.00000000E+00  0.00000000E+00
  0.00000000E+00  0.00000000E+00  0.00000000E+00
  0.00000000E+00  0.00000000E+00  0.00000000E+00
  0.00000000E+00  0.00000000E+00  0.00000000E+00
  0.00000000E+00  0.00000000E+00  0.00000000E+00
  0.00000000E+00  0.00000000E+00  0.00000000E+00
  0.00000000E+00  0.00000000E+00  0.00000000E+00
  0.00000000E+00  0.00000000E+00  0.00000000E+00
  0.00000000E+00  0.00000000E+00  0.00000000E+00
  0.00000000E+00  0.00000000E+00  0.00000000E+00
  0.00000000E+00  0.00000000E+00  0.00000000E+00
  0.00000000E+00  0.00000000E+00  0.00000000E+00
  0.00000000E+00  0.00000000E+00  0.00000000E+00
  0.00000000E+00  0.00000000E+00  0.00000000E+00
  0.00000000E+00  0.00000000E+00  0.00000000E+00
  0.00000000E+00  0.00000000E+00  0.00000000E+00
  0.00000000E+00  0.00000000E+00  0.00000000E+00
  0.00000000E+00  0.00000000E+00  0.00000000E+00
  0.00000000E+00  0.00000000E+00  0.00000000E+00
  0.00000000E+00  0.00000000E+00  0.00000000E+00
  0.00000000E+00  0.00000000E+00  0.00000000E+00
  0.00000000E+00  0.00000000E+00  0.00000000E+00
  0.00000000E+00  0.00000000E+00  0.00000000E+00
  0.00000000E+00  0.00000000E+00  0.00000000E+00
  0.00000000E+00  0.00000000E+00  0.00000000E+00
