CONTCAR\(11)                            
   1.00000000000000     
    12.0352001190000006    0.0000000000000000    0.0000000000000000
     0.0000000000000000   12.2138004302999992    0.0000000000000000
     0.0000000000000000    0.0000000000000000   16.9626007080000001
   Cu   Se   O 
     8     8    24
Direct
  0.0842024089171493  0.9077286090585819  0.4866059038651214
  0.3342120695862010  0.5922382958163258  0.5134733364371622
  0.4157975770828496  0.0922714199414167  0.5134041031348787
  0.1657879104137973  0.4077617431836745  0.4865166555628341
  0.5842024229171503  0.9077286090585819  0.4866059038651214
  0.8342120695862012  0.5922382958163258  0.5134733364371622
  0.9157975770828497  0.0922714199414167  0.5134041031348787
  0.6657879304137988  0.4077617431836745  0.4865166555628341
  0.1915440446339082  0.1495244307101101  0.4791573606631195
  0.4414308495593728  0.3505359381957176  0.5209067184656785
  0.3084459513660952  0.8504755502898919  0.5208426393368804
  0.0585791594406276  0.6494740568042816  0.4790832175343201
  0.6915440446339081  0.1495244307101101  0.4791573606631195
  0.9414308095593766  0.3505359381957176  0.5209067184656785
  0.8084459713660972  0.8504755502898919  0.5208426393368804
  0.5585791744406252  0.6494740568042816  0.4790832175343201
  0.4833120073116070  0.5892407619922532  0.5543256838997590
  0.2331487429588120  0.9107327792694352  0.4456150635631847
  0.0166979816883918  0.4107492430077480  0.4456643091002408
  0.2668412530411914  0.0892572357305664  0.5543949164368169
  0.1818761119694153  0.5664554299729999  0.4838737999768359
  0.4317689956544610  0.9336336366046827  0.5159958857816114
  0.3181238880305847  0.4335445700270003  0.5161262000231642
  0.0682309993455421  0.0663663583953134  0.4840041142183886
  0.1407711387982639  0.2628898608455276  0.5275345877101625
  0.3906452343268590  0.2371712600536738  0.4724950999153715
  0.3592288612017364  0.7371101391544721  0.4724653562898400
  0.1093447516731436  0.7628387149463310  0.5275249150846258
  0.9833120473116101  0.5892407619922532  0.5543256838997590
  0.7331487629588065  0.9107327792694352  0.4456150635631847
  0.5166979766883950  0.4107492430077480  0.4456643091002408
  0.7668412530411917  0.0892572357305664  0.5543949164368169
  0.6818761119694153  0.5664554299729999  0.4838737999768359
  0.9317690356544573  0.9336336366046827  0.5159958857816114
  0.8181238880305847  0.4335445700270003  0.5161262000231642
  0.5682309643455427  0.0663663583953134  0.4840041142183886
  0.6407711387982644  0.2628898608455276  0.5275345877101625
  0.8906451953268595  0.2371712600536738  0.4724950999153715
  0.8592288612017356  0.7371101391544721  0.4724653562898400
  0.6093447416731428  0.7628387149463310  0.5275249150846258
 
  0.00000000E+00  0.00000000E+00  0.00000000E+00
  0.00000000E+00  0.00000000E+00  0.00000000E+00
  0.00000000E+00  0.00000000E+00  0.00000000E+00
  0.00000000E+00  0.00000000E+00  0.00000000E+00
  0.00000000E+00  0.00000000E+00  0.00000000E+00
  0.00000000E+00  0.00000000E+00  0.00000000E+00
  0.00000000E+00  0.00000000E+00  0.00000000E+00
  0.00000000E+00  0.00000000E+00  0.00000000E+00
  0.00000000E+00  0.00000000E+00  0.00000000E+00
  0.00000000E+00  0.00000000E+00  0.00000000E+00
  0.00000000E+00  0.00000000E+00  0.00000000E+00
  0.00000000E+00  0.00000000E+00  0.00000000E+00
  0.00000000E+00  0.00000000E+00  0.00000000E+00
  0.00000000E+00  0.00000000E+00  0.00000000E+00
  0.00000000E+00  0.00000000E+00  0.00000000E+00
  0.00000000E+00  0.00000000E+00  0.00000000E+00
  0.00000000E+00  0.00000000E+00  0.00000000E+00
  0.00000000E+00  0.00000000E+00  0.00000000E+00
  0.00000000E+00  0.00000000E+00  0.00000000E+00
  0.00000000E+00  0.00000000E+00  0.00000000E+00
  0.00000000E+00  0.00000000E+00  0.00000000E+00
  0.00000000E+00  0.00000000E+00  0.00000000E+00
  0.00000000E+00  0.00000000E+00  0.00000000E+00
  0.00000000E+00  0.00000000E+00  0.00000000E+00
  0.00000000E+00  0.00000000E+00  0.00000000E+00
  0.00000000E+00  0.00000000E+00  0.00000000E+00
  0.00000000E+00  0.00000000E+00  0.00000000E+00
  0.00000000E+00  0.00000000E+00  0.00000000E+00
  0.00000000E+00  0.00000000E+00  0.00000000E+00
  0.00000000E+00  0.00000000E+00  0.00000000E+00
  0.00000000E+00  0.00000000E+00  0.00000000E+00
  0.00000000E+00  0.00000000E+00  0.00000000E+00
  0.00000000E+00  0.00000000E+00  0.00000000E+00
  0.00000000E+00  0.00000000E+00  0.00000000E+00
  0.00000000E+00  0.00000000E+00  0.00000000E+00
  0.00000000E+00  0.00000000E+00  0.00000000E+00
  0.00000000E+00  0.00000000E+00  0.00000000E+00
  0.00000000E+00  0.00000000E+00  0.00000000E+00
  0.00000000E+00  0.00000000E+00  0.00000000E+00
  0.00000000E+00  0.00000000E+00  0.00000000E+00
