CONTCAR\(4)                             
   1.00000000000000     
    11.1955995559999995    0.0000000000000000    0.0000000000000000
    -5.5977997779999997    9.6956736260999996    0.0000000000000000
     0.0000000000000000    0.0000000000000000   18.4459991455000001
   Ti   Te   O    H 
     9    18     2     1
Direct
  0.9941045950006371  0.9947443337995260  0.5002897645903772
  0.3273241591457846  0.9946944948029596  0.4997101379611701
  0.6610075232285527  0.9950345494473307  0.5003979592662119
  0.9954694994474987  0.3291247117039651  0.5002798125117883
  0.3269898448467206  0.3287138783431796  0.4999291124474082
  0.6610800782588901  0.3281724790603441  0.4999590554487214
  0.9948800899888547  0.6615316003476800  0.4998444643319798
  0.3277867644865989  0.6621805704543607  0.5003915550735715
  0.6603454464813112  0.6611142176188305  0.5003274841023502
  0.2170849343701315  0.1062985669415100  0.5949620647369762
  0.1047571005923431  0.2168931806388986  0.4046814782734628
  0.5493425434325394  0.1061098412466057  0.5951180011896351
  0.4386126207844424  0.2174634947047883  0.4047313472179419
  0.8832548116586201  0.1064674156863392  0.5952963257100033
  0.7728001615084361  0.2172865640214785  0.4049861924387157
  0.2170241177880487  0.4402147635018682  0.5950747620855998
  0.1054046725942107  0.5502215010933982  0.4046273183892166
  0.5496285058218753  0.4386276848180501  0.5951467808195504
  0.4387406002525125  0.5508222512867775  0.4048313766963870
  0.8829301667207909  0.4394850632451572  0.5951945400000306
  0.7723415439459558  0.5509183109204173  0.4048474668219273
  0.2166378644357487  0.7732638202562073  0.5949059420340538
  0.1050468948302447  0.8840428899991073  0.4045693904394461
  0.5492223797556881  0.7725749648043788  0.5951582398028203
  0.4394610548921219  0.8843365767236506  0.4047554323946959
  0.8831640556487782  0.7723080787751119  0.5950590751777070
  0.7718118662971752  0.8837970850705732  0.4051800164861851
  0.3668928568494501  0.7072393783158550  0.7144913809863723
  0.3741600540652570  0.6702331766288290  0.7851772984861214
  0.4127035758707834  0.7580155277427759  0.8119666740796092
 
  0.00000000E+00  0.00000000E+00  0.00000000E+00
  0.00000000E+00  0.00000000E+00  0.00000000E+00
  0.00000000E+00  0.00000000E+00  0.00000000E+00
  0.00000000E+00  0.00000000E+00  0.00000000E+00
  0.00000000E+00  0.00000000E+00  0.00000000E+00
  0.00000000E+00  0.00000000E+00  0.00000000E+00
  0.00000000E+00  0.00000000E+00  0.00000000E+00
  0.00000000E+00  0.00000000E+00  0.00000000E+00
  0.00000000E+00  0.00000000E+00  0.00000000E+00
  0.00000000E+00  0.00000000E+00  0.00000000E+00
  0.00000000E+00  0.00000000E+00  0.00000000E+00
  0.00000000E+00  0.00000000E+00  0.00000000E+00
  0.00000000E+00  0.00000000E+00  0.00000000E+00
  0.00000000E+00  0.00000000E+00  0.00000000E+00
  0.00000000E+00  0.00000000E+00  0.00000000E+00
  0.00000000E+00  0.00000000E+00  0.00000000E+00
  0.00000000E+00  0.00000000E+00  0.00000000E+00
  0.00000000E+00  0.00000000E+00  0.00000000E+00
  0.00000000E+00  0.00000000E+00  0.00000000E+00
  0.00000000E+00  0.00000000E+00  0.00000000E+00
  0.00000000E+00  0.00000000E+00  0.00000000E+00
  0.00000000E+00  0.00000000E+00  0.00000000E+00
  0.00000000E+00  0.00000000E+00  0.00000000E+00
  0.00000000E+00  0.00000000E+00  0.00000000E+00
  0.00000000E+00  0.00000000E+00  0.00000000E+00
  0.00000000E+00  0.00000000E+00  0.00000000E+00
  0.00000000E+00  0.00000000E+00  0.00000000E+00
  0.00000000E+00  0.00000000E+00  0.00000000E+00
  0.00000000E+00  0.00000000E+00  0.00000000E+00
  0.00000000E+00  0.00000000E+00  0.00000000E+00
