CONTCAR\(30)                            
   1.00000000000000     
    15.2456998825000003    0.0000000000000000    0.0000000000000000
     7.6228095670000000   13.2074592144000000    0.0000000000000000
     0.0000000000000000    0.0000000000000000   19.0911998748999991
   Nb   I 
    12    32
Direct
  0.2020000019999983  0.3990200100000010  0.4935399989999993
  0.3989900139999989  0.3990200100000010  0.4935399989999993
  0.3989899990000012  0.2020100009999979  0.4935399989999993
  0.7020000019999983  0.3990200100000010  0.4935399989999993
  0.8989899829999999  0.3990200100000010  0.4935399989999993
  0.8989899669999986  0.2020100009999979  0.4935399989999993
  0.2019999749999997  0.8990200550000012  0.4935399989999993
  0.3989899549999976  0.8990200550000012  0.4935399989999993
  0.3989899580000014  0.7020100100000022  0.4935399989999993
  0.7020000059999987  0.8990200550000012  0.4935399989999993
  0.8989899859999966  0.8990200550000012  0.4935399989999993
  0.8989899890000004  0.7020100100000022  0.4935399989999993
  0.4991799519999987  0.2504200159999996  0.3933300140000000
  0.2503999830000012  0.2504200159999996  0.3933300140000000
  0.2504199839999970  0.4991599860000022  0.3933399800000004
  0.3303599839999976  0.0847999960000010  0.5739799950000020
  0.0848399990000033  0.0847999960000010  0.5739799950000020
  0.0848199770000022  0.3303600130000035  0.5739700040000031
  0.0000099909999989  0.4999800080000014  0.4167199919999973
  0.3333299729999979  0.3333400060000002  0.6058599879999989
  0.9991800450000028  0.2504200159999996  0.3933300140000000
  0.7504000140000002  0.2504200159999996  0.3933300140000000
  0.7504199529999980  0.4991599860000022  0.3933399800000004
  0.8303599529999985  0.0847999960000010  0.5739799950000020
  0.5848399679999972  0.0847999960000010  0.5739799950000020
  0.5848199770000022  0.3303600130000035  0.5739700040000031
  0.5000099909999989  0.4999800080000014  0.4167199919999973
  0.8333299410000023  0.3333400060000002  0.6058599879999989
  0.4991799290000003  0.7504199890000010  0.3933300140000000
  0.2503999600000029  0.7504199890000010  0.3933300140000000
  0.2504199879999973  0.9991600310000024  0.3933399800000004
  0.3303599970000022  0.5848000229999997  0.5739799950000020
  0.0848399810000018  0.5848000229999997  0.5739799950000020
  0.0848200169999984  0.8303599859999977  0.5739700040000031
  0.0000099809999980  0.9999800160000021  0.4167199919999973
  0.3333299499999995  0.8333399790000016  0.6058599879999989
  0.9991799599999993  0.7504199890000010  0.3933300140000000
  0.7504000539999964  0.7504199890000010  0.3933300140000000
  0.7504198939999966  0.9991600310000024  0.3933399800000004
  0.8303599030000015  0.5848000229999997  0.5739799950000020
  0.5848399810000018  0.5848000229999997  0.5739799950000020
  0.5848200169999984  0.8303599859999977  0.5739700040000031
  0.5000099499999990  0.9999800160000021  0.4167199919999973
  0.8333299809999986  0.8333399790000016  0.6058599879999989
 
  0.00000000E+00  0.00000000E+00  0.00000000E+00
  0.00000000E+00  0.00000000E+00  0.00000000E+00
  0.00000000E+00  0.00000000E+00  0.00000000E+00
  0.00000000E+00  0.00000000E+00  0.00000000E+00
  0.00000000E+00  0.00000000E+00  0.00000000E+00
  0.00000000E+00  0.00000000E+00  0.00000000E+00
  0.00000000E+00  0.00000000E+00  0.00000000E+00
  0.00000000E+00  0.00000000E+00  0.00000000E+00
  0.00000000E+00  0.00000000E+00  0.00000000E+00
  0.00000000E+00  0.00000000E+00  0.00000000E+00
  0.00000000E+00  0.00000000E+00  0.00000000E+00
  0.00000000E+00  0.00000000E+00  0.00000000E+00
  0.00000000E+00  0.00000000E+00  0.00000000E+00
  0.00000000E+00  0.00000000E+00  0.00000000E+00
  0.00000000E+00  0.00000000E+00  0.00000000E+00
  0.00000000E+00  0.00000000E+00  0.00000000E+00
  0.00000000E+00  0.00000000E+00  0.00000000E+00
  0.00000000E+00  0.00000000E+00  0.00000000E+00
  0.00000000E+00  0.00000000E+00  0.00000000E+00
  0.00000000E+00  0.00000000E+00  0.00000000E+00
  0.00000000E+00  0.00000000E+00  0.00000000E+00
  0.00000000E+00  0.00000000E+00  0.00000000E+00
  0.00000000E+00  0.00000000E+00  0.00000000E+00
  0.00000000E+00  0.00000000E+00  0.00000000E+00
  0.00000000E+00  0.00000000E+00  0.00000000E+00
  0.00000000E+00  0.00000000E+00  0.00000000E+00
  0.00000000E+00  0.00000000E+00  0.00000000E+00
  0.00000000E+00  0.00000000E+00  0.00000000E+00
  0.00000000E+00  0.00000000E+00  0.00000000E+00
  0.00000000E+00  0.00000000E+00  0.00000000E+00
  0.00000000E+00  0.00000000E+00  0.00000000E+00
  0.00000000E+00  0.00000000E+00  0.00000000E+00
  0.00000000E+00  0.00000000E+00  0.00000000E+00
  0.00000000E+00  0.00000000E+00  0.00000000E+00
  0.00000000E+00  0.00000000E+00  0.00000000E+00
  0.00000000E+00  0.00000000E+00  0.00000000E+00
  0.00000000E+00  0.00000000E+00  0.00000000E+00
  0.00000000E+00  0.00000000E+00  0.00000000E+00
  0.00000000E+00  0.00000000E+00  0.00000000E+00
  0.00000000E+00  0.00000000E+00  0.00000000E+00
  0.00000000E+00  0.00000000E+00  0.00000000E+00
  0.00000000E+00  0.00000000E+00  0.00000000E+00
  0.00000000E+00  0.00000000E+00  0.00000000E+00
  0.00000000E+00  0.00000000E+00  0.00000000E+00
