CONTCAR\(4)                             
   1.00000000000000     
    13.8191995620999997    0.0000000000000000    0.0000000000000000
     0.0000000000000000   12.6052999496000009    0.0000000000000000
     0.0000000000000000    0.0000000000000000   19.1947002411000014
   Te   W    O    H 
    32    16     2     1
Direct
  0.1287584673097157  0.3902462999824436  0.4222867386929039
  0.0050161724934057  0.1455007259203569  0.3926512757920051
  0.1292990220882047  0.0687981629215244  0.6120500434669509
  0.0049488889748304  0.3223417024001236  0.5791448062556981
  0.3803108938222692  0.3936609722089486  0.4255194115826200
  0.2553302461178362  0.1478364739182041  0.3929589741667314
  0.3799449416709635  0.0682039407375825  0.6113680094689329
  0.2537703850424364  0.3219844469750797  0.5800928076548146
  0.6303261340790840  0.3933920931399939  0.4249665749801963
  0.5049926108855374  0.1485199132054760  0.3930534006974113
  0.6307289431938230  0.0684431358235571  0.6114593443306120
  0.5056221038534829  0.3232146172585075  0.5800024247825775
  0.8810768340841122  0.3901860746154000  0.4226341699467966
  0.7548281524109370  0.1474221831472562  0.3927644191199633
  0.8808928929235549  0.0684680319589503  0.6119322719002156
  0.7561853382178896  0.3218865699121594  0.5802217860981642
  0.1295608956619390  0.8919815591082596  0.4242281739366192
  0.0051151506252296  0.6465624053193650  0.3918815370177740
  0.1281675089470937  0.5668473538959020  0.6113863465693683
  0.0048968904707394  0.8223842014448550  0.5805576886959898
  0.3758383199718054  0.8925117301020222  0.4245573257291682
  0.2504117868379083  0.6421143890476415  0.3902861911067887
  0.3764241608438255  0.5655610876708792  0.6107430735527046
  0.2507453587090822  0.8233388758827971  0.5825905566363616
  0.6345590133041412  0.8923764154404452  0.4243254192188317
  0.5050645544641768  0.6495815627829629  0.3992589280370709
  0.6343280421441406  0.5681123148950604  0.6117258516512010
  0.5053349260275297  0.8188810255291230  0.5594575524221597
  0.8808609035558774  0.8917309963593567  0.4242540459440534
  0.7597845078207754  0.6419180804033999  0.3902001816128546
  0.8817552445982102  0.5668162826539174  0.6113871844375893
  0.7595051278500122  0.8230452859260069  0.5827423527373981
  0.0051881969003560  0.0174666729183812  0.5072856079260220
  0.1298019319120556  0.1961861985635736  0.4968644456212985
  0.2538758187174608  0.0190435653031997  0.5077435325938495
  0.3795860107858786  0.1975462672447605  0.4974288734775882
  0.5053357846079365  0.0202829709161136  0.5068038512228483
  0.6308574392535604  0.1973370972762964  0.4972153622983697
  0.7562152913536622  0.0186671554948958  0.5076586988226950
  0.8801985748215699  0.1960657729341406  0.4969001234004864
  0.0050465052148709  0.5173576923120962  0.5060608829601776
  0.1285529411941368  0.6967437977430535  0.4967767101628269
  0.2504568243354797  0.5158230169722415  0.5063106260682844
  0.3641775964070320  0.6956471334319403  0.4978528504465842
  0.5066739192151744  0.5199760006992307  0.5094785204700898
  0.6460831615883649  0.6956645609745280  0.4976298451483316
  0.7588512332049504  0.5158644544101421  0.5065982606418444
  0.8816463181229608  0.6965114458934281  0.4967045521106428
  0.4975735611245256  0.7396140217921214  0.7078239599921048
  0.5082579611823022  0.8370731784567056  0.6682084526844108
  0.4276068730571154  0.7399400820755844  0.7171960437090092
 
  0.00000000E+00  0.00000000E+00  0.00000000E+00
  0.00000000E+00  0.00000000E+00  0.00000000E+00
  0.00000000E+00  0.00000000E+00  0.00000000E+00
  0.00000000E+00  0.00000000E+00  0.00000000E+00
  0.00000000E+00  0.00000000E+00  0.00000000E+00
  0.00000000E+00  0.00000000E+00  0.00000000E+00
  0.00000000E+00  0.00000000E+00  0.00000000E+00
  0.00000000E+00  0.00000000E+00  0.00000000E+00
  0.00000000E+00  0.00000000E+00  0.00000000E+00
  0.00000000E+00  0.00000000E+00  0.00000000E+00
  0.00000000E+00  0.00000000E+00  0.00000000E+00
  0.00000000E+00  0.00000000E+00  0.00000000E+00
  0.00000000E+00  0.00000000E+00  0.00000000E+00
  0.00000000E+00  0.00000000E+00  0.00000000E+00
  0.00000000E+00  0.00000000E+00  0.00000000E+00
  0.00000000E+00  0.00000000E+00  0.00000000E+00
  0.00000000E+00  0.00000000E+00  0.00000000E+00
  0.00000000E+00  0.00000000E+00  0.00000000E+00
  0.00000000E+00  0.00000000E+00  0.00000000E+00
  0.00000000E+00  0.00000000E+00  0.00000000E+00
  0.00000000E+00  0.00000000E+00  0.00000000E+00
  0.00000000E+00  0.00000000E+00  0.00000000E+00
  0.00000000E+00  0.00000000E+00  0.00000000E+00
  0.00000000E+00  0.00000000E+00  0.00000000E+00
  0.00000000E+00  0.00000000E+00  0.00000000E+00
  0.00000000E+00  0.00000000E+00  0.00000000E+00
  0.00000000E+00  0.00000000E+00  0.00000000E+00
  0.00000000E+00  0.00000000E+00  0.00000000E+00
  0.00000000E+00  0.00000000E+00  0.00000000E+00
  0.00000000E+00  0.00000000E+00  0.00000000E+00
  0.00000000E+00  0.00000000E+00  0.00000000E+00
  0.00000000E+00  0.00000000E+00  0.00000000E+00
  0.00000000E+00  0.00000000E+00  0.00000000E+00
  0.00000000E+00  0.00000000E+00  0.00000000E+00
  0.00000000E+00  0.00000000E+00  0.00000000E+00
  0.00000000E+00  0.00000000E+00  0.00000000E+00
  0.00000000E+00  0.00000000E+00  0.00000000E+00
  0.00000000E+00  0.00000000E+00  0.00000000E+00
  0.00000000E+00  0.00000000E+00  0.00000000E+00
  0.00000000E+00  0.00000000E+00  0.00000000E+00
  0.00000000E+00  0.00000000E+00  0.00000000E+00
  0.00000000E+00  0.00000000E+00  0.00000000E+00
  0.00000000E+00  0.00000000E+00  0.00000000E+00
  0.00000000E+00  0.00000000E+00  0.00000000E+00
  0.00000000E+00  0.00000000E+00  0.00000000E+00
  0.00000000E+00  0.00000000E+00  0.00000000E+00
  0.00000000E+00  0.00000000E+00  0.00000000E+00
  0.00000000E+00  0.00000000E+00  0.00000000E+00
  0.00000000E+00  0.00000000E+00  0.00000000E+00
  0.00000000E+00  0.00000000E+00  0.00000000E+00
  0.00000000E+00  0.00000000E+00  0.00000000E+00
