CONTCAR                                 
   1.00000000000000     
    13.0608997344999995    0.0000000000000000    0.0000000000000000
    -3.2652307411999999   18.2355734656999999    0.0000000000000000
     0.0000000000000000    0.0000000000000000   18.6539993286000012
   Ta   Pd   S    O 
    16     8    48     1
Direct
  0.0872103452511510  0.3480858883581490  0.5245303260009777
  0.1619799276734710  0.1489572392563332  0.4763807011016468
  0.3372055620395500  0.3480890269400092  0.5246093855586693
  0.4124267965534258  0.1491141456800520  0.4762632081268308
  0.5872861171613550  0.3483108646613076  0.5246116156448508
  0.6619648931145150  0.1492435590754724  0.4762733041847795
  0.8373651606504424  0.3485208376853066  0.5244221946467675
  0.9121003447041858  0.1490748781957478  0.4763220235017798
  0.0871835583485492  0.8486999606682701  0.5263447179731742
  0.1622993454518706  0.6489166190077427  0.4768922768963932
  0.3357708808553568  0.8504312313312283  0.5239930653595621
  0.4110917953286730  0.6447236793654909  0.4750470604749353
  0.5894444732042032  0.8504550917010079  0.5239200495086678
  0.6619709340599442  0.6490448286508652  0.4768552640798305
  0.8372350735247736  0.8487551426034585  0.5263590782641145
  0.9121196124502688  0.6490658414091399  0.4775182822041941
  0.9996115515445467  0.9990704696877728  0.5012122578595708
  0.2485887065134591  0.9987326269501224  0.5011168779011044
  0.4998707821976609  0.9996698447226819  0.4999626328213651
  0.7507182086661501  0.9988617831842816  0.5010932069794194
  0.9999115789232107  0.4988747764085559  0.5003116987052394
  0.2487143358844790  0.4977986092552129  0.4999601972451373
  0.5000974734995083  0.4980058743298130  0.4999433286144495
  0.7496561535700081  0.4990217358872471  0.5003252217575849
  0.1891138412129862  0.2559461965825207  0.5698716270634563
  0.0266424635777369  0.1075702017771505  0.5689672626126523
  0.2226058472565811  0.3897706779378538  0.4319900879976970
  0.0602016967266934  0.2411298077238015  0.4308907046099009
  0.2296875599035957  0.4178960274645718  0.5985512942636646
  0.0194443592843356  0.0790685939363627  0.4024800530412875
  0.4391277702759453  0.2560920046243282  0.5699311873740029
  0.2766743793501405  0.1068014466991798  0.5688145765961750
  0.4726767472256128  0.3899226209858853  0.4320397856703906
  0.3102187273207875  0.2410553418183810  0.4310737226142862
  0.4797422197943888  0.4180813781493384  0.5985220785987551
  0.2693843271064722  0.0786192531461865  0.4028064790506747
  0.6893505366214114  0.2563204828421064  0.5697765356678275
  0.5267112931446718  0.1076855992991881  0.5687390628725311
  0.7229416328123577  0.3908743429806805  0.4321386524572475
  0.5603639583694147  0.2415327464693675  0.4310088778921326
  0.7299166956810836  0.4184388851140213  0.5983666773651564
  0.5199392884672775  0.0802288033449301  0.4015792377982450
  0.9389086395534179  0.2561835746066663  0.5698023601976985
  0.7764482193209901  0.1068912595162601  0.5687940252084616
  0.9730120532694357  0.3907286372640399  0.4320900875765545
  0.8103101327245099  0.2412320590591861  0.4309841707064663
  0.9799550820781349  0.4182771919566335  0.5983721714590260
  0.7693576124383839  0.0787290026219054  0.4027469901530907
  0.1922596447879243  0.7567414984625316  0.5709918497861395
  0.0270840563996941  0.6066403165737526  0.5693211628438135
  0.2214866430420983  0.8904872178309375  0.4326392019250278
  0.0608609834151252  0.7413917617609513  0.4330109672720823
  0.2288206353059437  0.9184418551607791  0.6000973079557994
  0.0193172655748626  0.5801171372526923  0.4025216545148353
  0.4384368372693075  0.7538144732369787  0.5643975450630592
  0.2767257356015449  0.6057538718409532  0.5683892593783639
  0.4729942067155761  0.8915984250760403  0.4325111264718302
  0.3125942981086709  0.7407951710516443  0.4322155097240454
  0.4799314594127964  0.9193850341240335  0.5984284521615422
  0.2669731083544207  0.5778078291036124  0.4014622082130401
  0.6860855306648759  0.7568370711151360  0.5710104950221719
  0.5260518027626446  0.6059338899265185  0.5684000710399815
  0.7240687000328947  0.8905964762508845  0.4326289311724096
  0.5578171374691436  0.7408446691280020  0.4321369380483588
  0.7305538864110446  0.9185328707587885  0.6000169176394579
  0.5216835142436764  0.5780027890930839  0.4013580631354472
  0.9391068815432249  0.7564076044651245  0.5713673763231526
  0.7760736074585566  0.6067276160722130  0.5693177335962076
  0.9727585975730051  0.8907034077206930  0.4338178357758764
  0.8098302606725696  0.7415059680887737  0.4330186513310181
  0.9799037443878760  0.9191801323554571  0.5998084001247577
  0.7703544623681893  0.5802391109816654  0.4024631045457383
  0.4371684557371793  0.7481420306328346  0.6451535326774618
 
  0.00000000E+00  0.00000000E+00  0.00000000E+00
  0.00000000E+00  0.00000000E+00  0.00000000E+00
  0.00000000E+00  0.00000000E+00  0.00000000E+00
  0.00000000E+00  0.00000000E+00  0.00000000E+00
  0.00000000E+00  0.00000000E+00  0.00000000E+00
  0.00000000E+00  0.00000000E+00  0.00000000E+00
  0.00000000E+00  0.00000000E+00  0.00000000E+00
  0.00000000E+00  0.00000000E+00  0.00000000E+00
  0.00000000E+00  0.00000000E+00  0.00000000E+00
  0.00000000E+00  0.00000000E+00  0.00000000E+00
  0.00000000E+00  0.00000000E+00  0.00000000E+00
  0.00000000E+00  0.00000000E+00  0.00000000E+00
  0.00000000E+00  0.00000000E+00  0.00000000E+00
  0.00000000E+00  0.00000000E+00  0.00000000E+00
  0.00000000E+00  0.00000000E+00  0.00000000E+00
  0.00000000E+00  0.00000000E+00  0.00000000E+00
  0.00000000E+00  0.00000000E+00  0.00000000E+00
  0.00000000E+00  0.00000000E+00  0.00000000E+00
  0.00000000E+00  0.00000000E+00  0.00000000E+00
  0.00000000E+00  0.00000000E+00  0.00000000E+00
  0.00000000E+00  0.00000000E+00  0.00000000E+00
  0.00000000E+00  0.00000000E+00  0.00000000E+00
  0.00000000E+00  0.00000000E+00  0.00000000E+00
  0.00000000E+00  0.00000000E+00  0.00000000E+00
  0.00000000E+00  0.00000000E+00  0.00000000E+00
  0.00000000E+00  0.00000000E+00  0.00000000E+00
  0.00000000E+00  0.00000000E+00  0.00000000E+00
  0.00000000E+00  0.00000000E+00  0.00000000E+00
  0.00000000E+00  0.00000000E+00  0.00000000E+00
  0.00000000E+00  0.00000000E+00  0.00000000E+00
  0.00000000E+00  0.00000000E+00  0.00000000E+00
  0.00000000E+00  0.00000000E+00  0.00000000E+00
  0.00000000E+00  0.00000000E+00  0.00000000E+00
  0.00000000E+00  0.00000000E+00  0.00000000E+00
  0.00000000E+00  0.00000000E+00  0.00000000E+00
  0.00000000E+00  0.00000000E+00  0.00000000E+00
  0.00000000E+00  0.00000000E+00  0.00000000E+00
  0.00000000E+00  0.00000000E+00  0.00000000E+00
  0.00000000E+00  0.00000000E+00  0.00000000E+00
  0.00000000E+00  0.00000000E+00  0.00000000E+00
  0.00000000E+00  0.00000000E+00  0.00000000E+00
  0.00000000E+00  0.00000000E+00  0.00000000E+00
  0.00000000E+00  0.00000000E+00  0.00000000E+00
  0.00000000E+00  0.00000000E+00  0.00000000E+00
  0.00000000E+00  0.00000000E+00  0.00000000E+00
  0.00000000E+00  0.00000000E+00  0.00000000E+00
  0.00000000E+00  0.00000000E+00  0.00000000E+00
  0.00000000E+00  0.00000000E+00  0.00000000E+00
  0.00000000E+00  0.00000000E+00  0.00000000E+00
  0.00000000E+00  0.00000000E+00  0.00000000E+00
  0.00000000E+00  0.00000000E+00  0.00000000E+00
  0.00000000E+00  0.00000000E+00  0.00000000E+00
  0.00000000E+00  0.00000000E+00  0.00000000E+00
  0.00000000E+00  0.00000000E+00  0.00000000E+00
  0.00000000E+00  0.00000000E+00  0.00000000E+00
  0.00000000E+00  0.00000000E+00  0.00000000E+00
  0.00000000E+00  0.00000000E+00  0.00000000E+00
  0.00000000E+00  0.00000000E+00  0.00000000E+00
  0.00000000E+00  0.00000000E+00  0.00000000E+00
  0.00000000E+00  0.00000000E+00  0.00000000E+00
  0.00000000E+00  0.00000000E+00  0.00000000E+00
  0.00000000E+00  0.00000000E+00  0.00000000E+00
  0.00000000E+00  0.00000000E+00  0.00000000E+00
  0.00000000E+00  0.00000000E+00  0.00000000E+00
  0.00000000E+00  0.00000000E+00  0.00000000E+00
  0.00000000E+00  0.00000000E+00  0.00000000E+00
  0.00000000E+00  0.00000000E+00  0.00000000E+00
  0.00000000E+00  0.00000000E+00  0.00000000E+00
  0.00000000E+00  0.00000000E+00  0.00000000E+00
  0.00000000E+00  0.00000000E+00  0.00000000E+00
  0.00000000E+00  0.00000000E+00  0.00000000E+00
  0.00000000E+00  0.00000000E+00  0.00000000E+00
  0.00000000E+00  0.00000000E+00  0.00000000E+00
