CONTCAR\(6)                             
   1.00000000000000     
    13.8203001021999992    0.0000000000000000    0.0000000000000000
     1.7075399424000000   15.0073707208999991    0.0000000000000000
     0.0000000000000000    0.0000000000000000   18.4675998688000007
   Nb   Ir   Se   O    H 
    18     2    40     1     1
Direct
  0.0933720632789963  0.1797016128063854  0.5010772904450873
  0.9779659484760758  0.0005789102364487  0.4948590166332756
  0.4155790575636711  0.7981888841034732  0.4982899463458501
  0.3082296008007340  0.6179822797835913  0.5031342456118627
  0.2671465483737415  0.9801028733898279  0.4939329575174770
  0.2029903223239144  0.4221657739170401  0.5054833069967435
  0.1653070790123662  0.7969481093803944  0.4982450074570901
  0.0533671186370249  0.6205883580375999  0.5005174588610628
  0.4576361361115858  0.3780052611867634  0.4977063939996855
  0.5913888180276228  0.1792838545757315  0.5027920722566412
  0.5164883014295325  0.9766523726052648  0.4961611610877665
  0.8916671290500515  0.8050228841642491  0.4980476342863671
  0.7950663375921452  0.6207367213051762  0.5001235432518913
  0.7431809854069290  0.9827620049397562  0.4983680034234276
  0.7018782248343081  0.4221096668146094  0.5043739340342868
  0.6486934783350934  0.8018700504713959  0.4983188433351001
  0.5533066013136030  0.6182652120382601  0.4994970781040703
  0.9571163249896116  0.3795609260348945  0.4967314512632181
  0.3752649649584971  0.2083933651816519  0.4975054322742240
  0.8767197750254772  0.1986373858714382  0.4968231908652575
  0.4763177231112662  0.2631311538689839  0.5980046729755005
  0.0882828457960681  0.3319512523330900  0.4122805974104884
  0.3733995504097062  0.0696467264704532  0.5745177464200398
  0.4894773397071150  0.1254392988472501  0.4062749527874639
  0.2768176173651586  0.8656747543646858  0.5926738392784824
  0.2268071438225923  0.2641972370907185  0.5714384599859736
  0.3930672852230212  0.9272933951555167  0.3999127334194659
  0.3308921806355879  0.3355015836416792  0.4107773960114632
  0.1724422930788664  0.6707696515472513  0.5908326187554123
  0.1174078395206231  0.0561609859912765  0.5864975279142580
  0.2490550876340906  0.1377266789263832  0.4215248548736809
  0.2929366189890117  0.7345690489634631  0.4038387363690135
  0.0624228770216105  0.4708900158465723  0.5868534069323876
  0.0190664492499978  0.8702815856422109  0.5828155274303800
  0.1883573765947412  0.5404313001496687  0.4101591554939116
  0.1347707162591287  0.9340510703538230  0.4097179238842112
  0.4254962186475408  0.6706119277225215  0.5974081660363509
  0.0362697818575034  0.7414295760762308  0.4066570993303280
  0.3235054576208963  0.4708090792930653  0.5900719313599542
  0.4381808505616248  0.5310935702834821  0.4200207942612354
  0.9763063828320617  0.2624868340362219  0.5953239858849175
  0.5876810796371059  0.3291296546922388  0.4125177536422387
  0.8602390959457735  0.0708582677539168  0.5853938513544086
  0.9910641234891908  0.1294069058154175  0.3996732408023863
  0.7677061758803446  0.8643964433598357  0.5959969835852799
  0.7287492286580444  0.2629169654082436  0.5704702220300741
  0.8770561412653790  0.9331225413322354  0.3998749809149648
  0.8304725324455305  0.3300240367988521  0.4127230150325155
  0.6690205906964242  0.6720572174537699  0.5964843125449101
  0.6155811646083280  0.0562742798128892  0.5948340695043909
  0.7433463418450502  0.1365348300378671  0.4217771954986669
  0.7846985335324932  0.7366784350206210  0.4018786484856853
  0.5640352233516616  0.4694707092915321  0.5877077885315576
  0.5218383469393533  0.8629134251905783  0.5975562671526626
  0.6870206842123266  0.5389027270611253  0.4072602559468441
  0.6389229499357756  0.9274264468865202  0.3964070724775157
  0.9180596776647897  0.6729972159622044  0.5930674765038996
  0.5384967419305142  0.7339074329125141  0.3997345336422061
  0.8214993640591208  0.4726521209577581  0.5882599365527739
  0.9371109238695633  0.5340381347461021  0.4218354249981514
  0.1708078227640281  0.6662714210754723  0.6939471882730045
  0.1039186987900085  0.6554479719817915  0.7058298706605552
 
  0.00000000E+00  0.00000000E+00  0.00000000E+00
  0.00000000E+00  0.00000000E+00  0.00000000E+00
  0.00000000E+00  0.00000000E+00  0.00000000E+00
  0.00000000E+00  0.00000000E+00  0.00000000E+00
  0.00000000E+00  0.00000000E+00  0.00000000E+00
  0.00000000E+00  0.00000000E+00  0.00000000E+00
  0.00000000E+00  0.00000000E+00  0.00000000E+00
  0.00000000E+00  0.00000000E+00  0.00000000E+00
  0.00000000E+00  0.00000000E+00  0.00000000E+00
  0.00000000E+00  0.00000000E+00  0.00000000E+00
  0.00000000E+00  0.00000000E+00  0.00000000E+00
  0.00000000E+00  0.00000000E+00  0.00000000E+00
  0.00000000E+00  0.00000000E+00  0.00000000E+00
  0.00000000E+00  0.00000000E+00  0.00000000E+00
  0.00000000E+00  0.00000000E+00  0.00000000E+00
  0.00000000E+00  0.00000000E+00  0.00000000E+00
  0.00000000E+00  0.00000000E+00  0.00000000E+00
  0.00000000E+00  0.00000000E+00  0.00000000E+00
  0.00000000E+00  0.00000000E+00  0.00000000E+00
  0.00000000E+00  0.00000000E+00  0.00000000E+00
  0.00000000E+00  0.00000000E+00  0.00000000E+00
  0.00000000E+00  0.00000000E+00  0.00000000E+00
  0.00000000E+00  0.00000000E+00  0.00000000E+00
  0.00000000E+00  0.00000000E+00  0.00000000E+00
  0.00000000E+00  0.00000000E+00  0.00000000E+00
  0.00000000E+00  0.00000000E+00  0.00000000E+00
  0.00000000E+00  0.00000000E+00  0.00000000E+00
  0.00000000E+00  0.00000000E+00  0.00000000E+00
  0.00000000E+00  0.00000000E+00  0.00000000E+00
  0.00000000E+00  0.00000000E+00  0.00000000E+00
  0.00000000E+00  0.00000000E+00  0.00000000E+00
  0.00000000E+00  0.00000000E+00  0.00000000E+00
  0.00000000E+00  0.00000000E+00  0.00000000E+00
  0.00000000E+00  0.00000000E+00  0.00000000E+00
  0.00000000E+00  0.00000000E+00  0.00000000E+00
  0.00000000E+00  0.00000000E+00  0.00000000E+00
  0.00000000E+00  0.00000000E+00  0.00000000E+00
  0.00000000E+00  0.00000000E+00  0.00000000E+00
  0.00000000E+00  0.00000000E+00  0.00000000E+00
  0.00000000E+00  0.00000000E+00  0.00000000E+00
  0.00000000E+00  0.00000000E+00  0.00000000E+00
  0.00000000E+00  0.00000000E+00  0.00000000E+00
  0.00000000E+00  0.00000000E+00  0.00000000E+00
  0.00000000E+00  0.00000000E+00  0.00000000E+00
  0.00000000E+00  0.00000000E+00  0.00000000E+00
  0.00000000E+00  0.00000000E+00  0.00000000E+00
  0.00000000E+00  0.00000000E+00  0.00000000E+00
  0.00000000E+00  0.00000000E+00  0.00000000E+00
  0.00000000E+00  0.00000000E+00  0.00000000E+00
  0.00000000E+00  0.00000000E+00  0.00000000E+00
  0.00000000E+00  0.00000000E+00  0.00000000E+00
  0.00000000E+00  0.00000000E+00  0.00000000E+00
  0.00000000E+00  0.00000000E+00  0.00000000E+00
  0.00000000E+00  0.00000000E+00  0.00000000E+00
  0.00000000E+00  0.00000000E+00  0.00000000E+00
  0.00000000E+00  0.00000000E+00  0.00000000E+00
  0.00000000E+00  0.00000000E+00  0.00000000E+00
  0.00000000E+00  0.00000000E+00  0.00000000E+00
  0.00000000E+00  0.00000000E+00  0.00000000E+00
  0.00000000E+00  0.00000000E+00  0.00000000E+00
  0.00000000E+00  0.00000000E+00  0.00000000E+00
  0.00000000E+00  0.00000000E+00  0.00000000E+00
