CONTCAR\(3)                             
   1.00000000000000     
    13.6564998627000005    0.0000000000000000    0.0000000000000000
     0.0000000000000000   10.3198995589999996    0.0000000000000000
     0.0000000000000000    0.0000000000000000   19.5949993133999989
   Ta   Fe   Te   O 
     8     8    24     1
Direct
  0.0585385974659417  0.2523735835150519  0.4886414189407983
  0.1844146008796847  0.6426674126200955  0.5148926228691777
  0.3054350597043939  0.2465165999303658  0.4840274978225582
  0.4344968155375100  0.6525692968015413  0.5153646327837171
  0.5635534604910402  0.2464331160399425  0.4841826464618942
  0.6847139743650051  0.6427876791008674  0.5150823859911013
  0.8103755619236894  0.2523089256012205  0.4888554428405089
  0.9345062442669098  0.6412879680298551  0.5148711413279682
  0.1821482848608294  0.0413875942889509  0.4903425222544750
  0.0592341854937429  0.8512298442854552  0.5121527853783696
  0.4341386556664991  0.0432083589234660  0.4911753419384931
  0.3073954432954009  0.8554623231600018  0.5116743099863741
  0.6869871605651590  0.0412838495256133  0.4906323067852488
  0.5612658434403487  0.8556174576070188  0.5116603121206731
  0.9342898020489766  0.0416586297067875  0.4914630672114189
  0.8098544361790044  0.8512969044961299  0.5122846008164710
  0.1870780948279938  0.3851910018713184  0.5796930964986898
  0.0597700947329600  0.5071639613890947  0.4222187561936482
  0.1833322005140978  0.8356244334103519  0.4132050729923742
  0.0592153921622035  0.0567598238587692  0.5894658082051438
  0.0596511891579457  0.7079207972421141  0.6201643311453487
  0.1804526074848456  0.1818413442271623  0.3809602981602633
  0.4343588997359174  0.3930229168945999  0.5690023732690778
  0.3107961030916375  0.5068805829375966  0.4234296609776098
  0.4342940700919755  0.8394041877611618  0.4132093833940586
  0.3084365897527114  0.0626449036187897  0.5890611373996516
  0.3089059969051523  0.7128179402208709  0.6202465374639480
  0.4346442402531878  0.1811719267746280  0.3806933273582214
  0.6817971121800734  0.3852414527377607  0.5798759878711287
  0.5584912335796646  0.5069139493118281  0.4235765546366811
  0.6854561904569664  0.8356301807182221  0.4133819039793216
  0.5598652303112343  0.0625763462868789  0.5890511894117466
  0.5602302641632412  0.7130483379242948  0.6202552683943353
  0.6883928798026859  0.1816520749827880  0.3811791775360105
  0.9344410804093182  0.3864070482165644  0.5817354013001038
  0.8092297019077769  0.5071530288498181  0.4223251480121840
  0.9344694047442229  0.8365136324273058  0.4139607831630823
  0.8098514085939826  0.0565421407020228  0.5898146906286801
  0.8097004290367703  0.7080015810755971  0.6203009373527755
  0.9342985059913262  0.1839621108281750  0.3832648311616026
  0.4342631019280060  0.3391247890999133  0.6595152829650500
 
  0.00000000E+00  0.00000000E+00  0.00000000E+00
  0.00000000E+00  0.00000000E+00  0.00000000E+00
  0.00000000E+00  0.00000000E+00  0.00000000E+00
  0.00000000E+00  0.00000000E+00  0.00000000E+00
  0.00000000E+00  0.00000000E+00  0.00000000E+00
  0.00000000E+00  0.00000000E+00  0.00000000E+00
  0.00000000E+00  0.00000000E+00  0.00000000E+00
  0.00000000E+00  0.00000000E+00  0.00000000E+00
  0.00000000E+00  0.00000000E+00  0.00000000E+00
  0.00000000E+00  0.00000000E+00  0.00000000E+00
  0.00000000E+00  0.00000000E+00  0.00000000E+00
  0.00000000E+00  0.00000000E+00  0.00000000E+00
  0.00000000E+00  0.00000000E+00  0.00000000E+00
  0.00000000E+00  0.00000000E+00  0.00000000E+00
  0.00000000E+00  0.00000000E+00  0.00000000E+00
  0.00000000E+00  0.00000000E+00  0.00000000E+00
  0.00000000E+00  0.00000000E+00  0.00000000E+00
  0.00000000E+00  0.00000000E+00  0.00000000E+00
  0.00000000E+00  0.00000000E+00  0.00000000E+00
  0.00000000E+00  0.00000000E+00  0.00000000E+00
  0.00000000E+00  0.00000000E+00  0.00000000E+00
  0.00000000E+00  0.00000000E+00  0.00000000E+00
  0.00000000E+00  0.00000000E+00  0.00000000E+00
  0.00000000E+00  0.00000000E+00  0.00000000E+00
  0.00000000E+00  0.00000000E+00  0.00000000E+00
  0.00000000E+00  0.00000000E+00  0.00000000E+00
  0.00000000E+00  0.00000000E+00  0.00000000E+00
  0.00000000E+00  0.00000000E+00  0.00000000E+00
  0.00000000E+00  0.00000000E+00  0.00000000E+00
  0.00000000E+00  0.00000000E+00  0.00000000E+00
  0.00000000E+00  0.00000000E+00  0.00000000E+00
  0.00000000E+00  0.00000000E+00  0.00000000E+00
  0.00000000E+00  0.00000000E+00  0.00000000E+00
  0.00000000E+00  0.00000000E+00  0.00000000E+00
  0.00000000E+00  0.00000000E+00  0.00000000E+00
  0.00000000E+00  0.00000000E+00  0.00000000E+00
  0.00000000E+00  0.00000000E+00  0.00000000E+00
  0.00000000E+00  0.00000000E+00  0.00000000E+00
  0.00000000E+00  0.00000000E+00  0.00000000E+00
  0.00000000E+00  0.00000000E+00  0.00000000E+00
  0.00000000E+00  0.00000000E+00  0.00000000E+00
