 La2 Te6                                
   1.00000000000000     
     4.4005093746004276    0.0000000000000000    0.0000000000000000
     0.0000000000000000    4.4019365756045081    0.0000000000000000
     0.0000000000000000    0.0000000000000000   24.5515540113680082
   La   Te
     2     6
Direct
  0.4999998661789243  0.5000004811726664  0.5874703261786977
  0.0000001564124261 -0.0000001461897581  0.4125279950438696
  0.4999999963621914 -0.0000000531937597  0.3055652413473041
 -0.0000000216234001  0.4999999137451413  0.6944354592384435
  0.5000000090984331 -0.0000000471068603  0.6941866607146714
 -0.0000000026740565  0.4999999083059494  0.3058143535168369
  0.5000000188349878  0.4999998998964744  0.4505441879469939
 -0.0000000225895064  0.0000000433701467  0.5494557760131830
 
  0.00000000E+00  0.00000000E+00  0.00000000E+00
  0.00000000E+00  0.00000000E+00  0.00000000E+00
  0.00000000E+00  0.00000000E+00  0.00000000E+00
  0.00000000E+00  0.00000000E+00  0.00000000E+00
  0.00000000E+00  0.00000000E+00  0.00000000E+00
  0.00000000E+00  0.00000000E+00  0.00000000E+00
  0.00000000E+00  0.00000000E+00  0.00000000E+00
  0.00000000E+00  0.00000000E+00  0.00000000E+00
