CONTCAR\(2)                             
   1.00000000000000     
    11.7685003281000000    0.0000000000000000    0.0000000000000000
     0.0000000000000000   11.7685003281000000    0.0000000000000000
     0.0000000000000000    0.0000000000000000   18.8055992126000007
   La   I 
     9    18
Direct
  0.0000000000000000  0.0000000000000000  0.5000000000000000
  0.3333300110000010  0.0000000000000000  0.5000000000000000
  0.6666700299999988  0.0000000000000000  0.5000000000000000
  0.0000000000000000  0.3333300110000010  0.5000000000000000
  0.3333300110000010  0.3333300110000010  0.5000000000000000
  0.6666700299999988  0.3333300110000010  0.5000000000000000
  0.0000000000000000  0.6666700299999988  0.5000000000000000
  0.3333300110000010  0.6666700299999988  0.5000000000000000
  0.6666700299999988  0.6666700299999988  0.5000000000000000
  0.1666699989999998  0.1666699989999998  0.3988499980000029
  0.1666699989999998  0.1666699989999998  0.6011499509999965
  0.5000000000000000  0.1666699989999998  0.3988499980000029
  0.5000000000000000  0.1666699989999998  0.6011499509999965
  0.8333299700000012  0.1666699989999998  0.3988499980000029
  0.8333299700000012  0.1666699989999998  0.6011499509999965
  0.1666699989999998  0.5000000000000000  0.3988499980000029
  0.1666699989999998  0.5000000000000000  0.6011499509999965
  0.5000000000000000  0.5000000000000000  0.3988499980000029
  0.5000000000000000  0.5000000000000000  0.6011499509999965
  0.8333299700000012  0.5000000000000000  0.3988499980000029
  0.8333299700000012  0.5000000000000000  0.6011499509999965
  0.1666699989999998  0.8333299700000012  0.3988499980000029
  0.1666699989999998  0.8333299700000012  0.6011499509999965
  0.5000000000000000  0.8333299700000012  0.3988499980000029
  0.5000000000000000  0.8333299700000012  0.6011499509999965
  0.8333299700000012  0.8333299700000012  0.3988499980000029
  0.8333299700000012  0.8333299700000012  0.6011499509999965
 
  0.00000000E+00  0.00000000E+00  0.00000000E+00
  0.00000000E+00  0.00000000E+00  0.00000000E+00
  0.00000000E+00  0.00000000E+00  0.00000000E+00
  0.00000000E+00  0.00000000E+00  0.00000000E+00
  0.00000000E+00  0.00000000E+00  0.00000000E+00
  0.00000000E+00  0.00000000E+00  0.00000000E+00
  0.00000000E+00  0.00000000E+00  0.00000000E+00
  0.00000000E+00  0.00000000E+00  0.00000000E+00
  0.00000000E+00  0.00000000E+00  0.00000000E+00
  0.00000000E+00  0.00000000E+00  0.00000000E+00
  0.00000000E+00  0.00000000E+00  0.00000000E+00
  0.00000000E+00  0.00000000E+00  0.00000000E+00
  0.00000000E+00  0.00000000E+00  0.00000000E+00
  0.00000000E+00  0.00000000E+00  0.00000000E+00
  0.00000000E+00  0.00000000E+00  0.00000000E+00
  0.00000000E+00  0.00000000E+00  0.00000000E+00
  0.00000000E+00  0.00000000E+00  0.00000000E+00
  0.00000000E+00  0.00000000E+00  0.00000000E+00
  0.00000000E+00  0.00000000E+00  0.00000000E+00
  0.00000000E+00  0.00000000E+00  0.00000000E+00
  0.00000000E+00  0.00000000E+00  0.00000000E+00
  0.00000000E+00  0.00000000E+00  0.00000000E+00
  0.00000000E+00  0.00000000E+00  0.00000000E+00
  0.00000000E+00  0.00000000E+00  0.00000000E+00
  0.00000000E+00  0.00000000E+00  0.00000000E+00
  0.00000000E+00  0.00000000E+00  0.00000000E+00
  0.00000000E+00  0.00000000E+00  0.00000000E+00
