CONTCAR\(5)                             
   1.00000000000000     
    10.2070999146000005    0.0000000000000000    0.0000000000000000
    -1.7011927660999999   18.1179073708000011    0.0000000000000000
     0.0000000000000000    0.0000000000000000   20.2910003661999987
   Ta   Co   Pd   Se   O    H 
    12     6     3    36     1     1
Selective dynamics
Direct
  0.0254082183862891  0.1531843190996440  0.4654184898807614   F   F   F
  0.3089013895921013  0.8528840160374926  0.5288124229359639   F   F   F
  0.0685358371089393  0.4096923524451910  0.4719445813099199   F   F   F
  0.2653646490238941  0.5949059254614255  0.5305125385241354   F   F   F
  0.3585892731525036  0.1531760494057437  0.4656356299654618   F   F   F
  0.6422430292250354  0.8502227406406959  0.5299603447595658   F   F   F
  0.4016494383741289  0.4098401451946145  0.4716713000109820   F   F   F
  0.5985084758272023  0.5946544278173889  0.5275000426988044   F   F   F
  0.6921877172888600  0.1531093619542503  0.4652711090301764   F   F   F
  0.9749563632951421  0.8501899385141058  0.5298134533498526   F   F   F
  0.7351775100988860  0.4095069820684500  0.4711569503945512   F   F   F
  0.9323613067363539  0.5945434588957497  0.5276115364653435   F   F   F
  0.2147158898042392  0.2871773570766081  0.4404558835912766   F   F   F
  0.1115828445453602  0.7162497750832344  0.5588123290709106   F   F   F
  0.5480906504957659  0.2872137746652896  0.4401967871323507   F   F   F
  0.4606636185615685  0.7164664950656174  0.5589158076801155   F   F   F
  0.8816300697735500  0.2871594899402652  0.4403361663101322   F   F   F
  0.7861240873116273  0.7170217841730064  0.5562043532692229   F   F   F
  0.1666599115412879  0.0015446479898316  0.4969704125768430   F   F   F
  0.5007498175596936  0.0015535361341676  0.4972139051441147   F   F   F
  0.8336329746939342  0.0020267548745352  0.4969265813188954   F   F   F
  0.1861130326679756  0.1187683332200820  0.5581606002455715   F   F   F
  0.1468820499651429  0.8838933086823957  0.4362130171502656   F   F   F
  0.0984389515076458  0.6060290252381009  0.6227028391013647   F   F   F
  0.2324715669747377  0.3983972853361948  0.3783714061486592   F   F   F
  0.2411644765287093  0.4497742757611931  0.5633184738816297   F   F   F
  0.0939945022019089  0.5539637385670915  0.4380055533678444   F   F   F
  0.0404532231685337  0.2412484852349834  0.3693212418211331   F   F   F
  0.2938139877297701  0.7641255766982908  0.6270248275564612   F   F   F
  0.1794677438261161  0.0772559048446695  0.3956201758054974   F   F   F
  0.1546120722027524  0.9273367149279821  0.5989846099596647   F   F   F
  0.0473340003629943  0.2819722727314584  0.5246729570670041   F   F   F
  0.2869340484549525  0.7219880870024795  0.4779035012765007   F   F   F
  0.5197729454716296  0.1189760249183607  0.5580953289514099   F   F   F
  0.4817631081196083  0.8838542897715556  0.4364234177488555   F   F   F
  0.4366066591217930  0.6061543718123090  0.6225114784691073   F   F   F
  0.5656376017800895  0.3987012595018271  0.3780695984375413   F   F   F
  0.5750979264869258  0.4500945403517846  0.5624011609027733   F   F   F
  0.4237502947241083  0.5542215401189523  0.4379120294107892   F   F   F
  0.3735032486870011  0.2412466035778280  0.3694356109504753   F   F   F
  0.6327523529676427  0.7650095742365934  0.6284250654002861   F   F   F
  0.5122410959916905  0.0771075807869934  0.3957865448858726   F   F   F
  0.4882839921141908  0.9271992464317975  0.5991470750280570   F   F   F
  0.3808051268780872  0.2822478474274206  0.5245514459559217   F   F   F
  0.6218640859302269  0.7210127019152850  0.4712649321341402   F   F   F
  0.8529735084062224  0.1193407988077198  0.5580571404473886   F   F   F
  0.8142898342057308  0.8840040017967041  0.4368462338168086   F   F   F
  0.7677011397192288  0.6070227537740749  0.6206134624953137   F   F   F
  0.9000540000266639  0.3985861145882765  0.3781812945988037   F   F   F
  0.9070551687259112  0.4498988316289498  0.5626291366606182   F   F   F
  0.7590670855269863  0.5539408075075656  0.4366452348559662   F   F   F
  0.7071990260995094  0.2412487783187700  0.3692554038426223   F   F   F
  0.9556452236662949  0.7649573685477478  0.6282246810034025   F   F   F
  0.8463641900067458  0.0773816158648870  0.3952869527450744   F   F   F
  0.8217999457578031  0.9274969654115992  0.5986614658325138   F   F   F
  0.7138609407638938  0.2819509443242794  0.5244537543668528   F   F   F
  0.9514789066769893  0.7207835703765895  0.4712646524078750   F   F   F
  0.3027956786562456  0.8251102148437823  0.7041179115536949   T   T   T
  0.2985240285011486  0.7901539585760701  0.7402303173103464   T   T   T
 
  0.00000000E+00  0.00000000E+00  0.00000000E+00
  0.00000000E+00  0.00000000E+00  0.00000000E+00
  0.00000000E+00  0.00000000E+00  0.00000000E+00
  0.00000000E+00  0.00000000E+00  0.00000000E+00
  0.00000000E+00  0.00000000E+00  0.00000000E+00
  0.00000000E+00  0.00000000E+00  0.00000000E+00
  0.00000000E+00  0.00000000E+00  0.00000000E+00
  0.00000000E+00  0.00000000E+00  0.00000000E+00
  0.00000000E+00  0.00000000E+00  0.00000000E+00
  0.00000000E+00  0.00000000E+00  0.00000000E+00
  0.00000000E+00  0.00000000E+00  0.00000000E+00
  0.00000000E+00  0.00000000E+00  0.00000000E+00
  0.00000000E+00  0.00000000E+00  0.00000000E+00
  0.00000000E+00  0.00000000E+00  0.00000000E+00
  0.00000000E+00  0.00000000E+00  0.00000000E+00
  0.00000000E+00  0.00000000E+00  0.00000000E+00
  0.00000000E+00  0.00000000E+00  0.00000000E+00
  0.00000000E+00  0.00000000E+00  0.00000000E+00
  0.00000000E+00  0.00000000E+00  0.00000000E+00
  0.00000000E+00  0.00000000E+00  0.00000000E+00
  0.00000000E+00  0.00000000E+00  0.00000000E+00
  0.00000000E+00  0.00000000E+00  0.00000000E+00
  0.00000000E+00  0.00000000E+00  0.00000000E+00
  0.00000000E+00  0.00000000E+00  0.00000000E+00
  0.00000000E+00  0.00000000E+00  0.00000000E+00
  0.00000000E+00  0.00000000E+00  0.00000000E+00
  0.00000000E+00  0.00000000E+00  0.00000000E+00
  0.00000000E+00  0.00000000E+00  0.00000000E+00
  0.00000000E+00  0.00000000E+00  0.00000000E+00
  0.00000000E+00  0.00000000E+00  0.00000000E+00
  0.00000000E+00  0.00000000E+00  0.00000000E+00
  0.00000000E+00  0.00000000E+00  0.00000000E+00
  0.00000000E+00  0.00000000E+00  0.00000000E+00
  0.00000000E+00  0.00000000E+00  0.00000000E+00
  0.00000000E+00  0.00000000E+00  0.00000000E+00
  0.00000000E+00  0.00000000E+00  0.00000000E+00
  0.00000000E+00  0.00000000E+00  0.00000000E+00
  0.00000000E+00  0.00000000E+00  0.00000000E+00
  0.00000000E+00  0.00000000E+00  0.00000000E+00
  0.00000000E+00  0.00000000E+00  0.00000000E+00
  0.00000000E+00  0.00000000E+00  0.00000000E+00
  0.00000000E+00  0.00000000E+00  0.00000000E+00
  0.00000000E+00  0.00000000E+00  0.00000000E+00
  0.00000000E+00  0.00000000E+00  0.00000000E+00
  0.00000000E+00  0.00000000E+00  0.00000000E+00
  0.00000000E+00  0.00000000E+00  0.00000000E+00
  0.00000000E+00  0.00000000E+00  0.00000000E+00
  0.00000000E+00  0.00000000E+00  0.00000000E+00
  0.00000000E+00  0.00000000E+00  0.00000000E+00
  0.00000000E+00  0.00000000E+00  0.00000000E+00
  0.00000000E+00  0.00000000E+00  0.00000000E+00
  0.00000000E+00  0.00000000E+00  0.00000000E+00
  0.00000000E+00  0.00000000E+00  0.00000000E+00
  0.00000000E+00  0.00000000E+00  0.00000000E+00
  0.00000000E+00  0.00000000E+00  0.00000000E+00
  0.00000000E+00  0.00000000E+00  0.00000000E+00
  0.00000000E+00  0.00000000E+00  0.00000000E+00
  0.00000000E+00  0.00000000E+00  0.00000000E+00
  0.00000000E+00  0.00000000E+00  0.00000000E+00
