 Ta2 Te8 Ir2                            
   1.00000000000000     
     3.7719636316732870    0.0000000000000000    0.0000000000000000
     0.0000000000000000   12.4995190938305942    0.0000000000000000
     0.0000000000000000    0.0000000000000000   18.9973895697919986
   Ta   Te   Ir
     2     8     2
Direct
  0.0000000002030589  0.0508889403627819  0.5044939399798238
  0.5000000000152767  0.7305222377101686  0.4950912743094733
  0.5000000002002878  0.1058661381238792  0.6057514693053392
  0.9999999995755857  0.8477059531699425  0.5787940971584007
  0.9999999999353619  0.6761998449575088  0.3937095370706132
  0.4999999998711999  0.4344338232817293  0.4277719737208230
  0.5000000000101537  0.9336976791576319  0.4208591090080702
  0.9999999999500702  0.1936943872751442  0.3999849749307529
  0.0000000001807052  0.3468262886219122  0.5709784496109336
  0.5000000000338218  0.5868132374202872  0.5990664449765362
  0.9999999999114237  0.5352323990104608  0.5015604613314011
  0.5000000001130545  0.2459530709085556  0.4973288730234415
 
  0.00000000E+00  0.00000000E+00  0.00000000E+00
  0.00000000E+00  0.00000000E+00  0.00000000E+00
  0.00000000E+00  0.00000000E+00  0.00000000E+00
  0.00000000E+00  0.00000000E+00  0.00000000E+00
  0.00000000E+00  0.00000000E+00  0.00000000E+00
  0.00000000E+00  0.00000000E+00  0.00000000E+00
  0.00000000E+00  0.00000000E+00  0.00000000E+00
  0.00000000E+00  0.00000000E+00  0.00000000E+00
  0.00000000E+00  0.00000000E+00  0.00000000E+00
  0.00000000E+00  0.00000000E+00  0.00000000E+00
  0.00000000E+00  0.00000000E+00  0.00000000E+00
  0.00000000E+00  0.00000000E+00  0.00000000E+00
