G   53   16    1    0.005     # Parameters to Generate KPOINTS (Don't Edit This Line)
     243
Reciprocal lattice
    0.000000000000    0.000000000000    0.000000000000       1
    0.018867924528    0.000000000000    0.000000000000       2
    0.037735849057    0.000000000000    0.000000000000       2
    0.056603773585    0.000000000000    0.000000000000       2
    0.075471698113    0.000000000000    0.000000000000       2
    0.094339622642    0.000000000000    0.000000000000       2
    0.113207547170    0.000000000000    0.000000000000       2
    0.132075471698    0.000000000000    0.000000000000       2
    0.150943396226    0.000000000000    0.000000000000       2
    0.169811320755    0.000000000000    0.000000000000       2
    0.188679245283    0.000000000000    0.000000000000       2
    0.207547169811    0.000000000000    0.000000000000       2
    0.226415094340    0.000000000000    0.000000000000       2
    0.245283018868    0.000000000000    0.000000000000       2
    0.264150943396    0.000000000000    0.000000000000       2
    0.283018867925    0.000000000000    0.000000000000       2
    0.301886792453    0.000000000000    0.000000000000       2
    0.320754716981    0.000000000000    0.000000000000       2
    0.339622641509    0.000000000000    0.000000000000       2
    0.358490566038    0.000000000000    0.000000000000       2
    0.377358490566    0.000000000000    0.000000000000       2
    0.396226415094    0.000000000000    0.000000000000       2
    0.415094339623    0.000000000000    0.000000000000       2
    0.433962264151    0.000000000000    0.000000000000       2
    0.452830188679    0.000000000000    0.000000000000       2
    0.471698113208    0.000000000000    0.000000000000       2
    0.490566037736    0.000000000000    0.000000000000       2
    0.000000000000    0.062500000000    0.000000000000       2
    0.018867924528    0.062500000000    0.000000000000       4
    0.037735849057    0.062500000000    0.000000000000       4
    0.056603773585    0.062500000000    0.000000000000       4
    0.075471698113    0.062500000000    0.000000000000       4
    0.094339622642    0.062500000000    0.000000000000       4
    0.113207547170    0.062500000000    0.000000000000       4
    0.132075471698    0.062500000000    0.000000000000       4
    0.150943396226    0.062500000000    0.000000000000       4
    0.169811320755    0.062500000000    0.000000000000       4
    0.188679245283    0.062500000000    0.000000000000       4
    0.207547169811    0.062500000000    0.000000000000       4
    0.226415094340    0.062500000000    0.000000000000       4
    0.245283018868    0.062500000000    0.000000000000       4
    0.264150943396    0.062500000000    0.000000000000       4
    0.283018867925    0.062500000000    0.000000000000       4
    0.301886792453    0.062500000000    0.000000000000       4
    0.320754716981    0.062500000000    0.000000000000       4
    0.339622641509    0.062500000000    0.000000000000       4
    0.358490566038    0.062500000000    0.000000000000       4
    0.377358490566    0.062500000000    0.000000000000       4
    0.396226415094    0.062500000000    0.000000000000       4
    0.415094339623    0.062500000000    0.000000000000       4
    0.433962264151    0.062500000000    0.000000000000       4
    0.452830188679    0.062500000000    0.000000000000       4
    0.471698113208    0.062500000000    0.000000000000       4
    0.490566037736    0.062500000000    0.000000000000       4
    0.000000000000    0.125000000000    0.000000000000       2
    0.018867924528    0.125000000000    0.000000000000       4
    0.037735849057    0.125000000000    0.000000000000       4
    0.056603773585    0.125000000000    0.000000000000       4
    0.075471698113    0.125000000000    0.000000000000       4
    0.094339622642    0.125000000000    0.000000000000       4
    0.113207547170    0.125000000000    0.000000000000       4
    0.132075471698    0.125000000000    0.000000000000       4
    0.150943396226    0.125000000000    0.000000000000       4
    0.169811320755    0.125000000000    0.000000000000       4
    0.188679245283    0.125000000000    0.000000000000       4
    0.207547169811    0.125000000000    0.000000000000       4
    0.226415094340    0.125000000000    0.000000000000       4
    0.245283018868    0.125000000000    0.000000000000       4
    0.264150943396    0.125000000000    0.000000000000       4
    0.283018867925    0.125000000000    0.000000000000       4
    0.301886792453    0.125000000000    0.000000000000       4
    0.320754716981    0.125000000000    0.000000000000       4
    0.339622641509    0.125000000000    0.000000000000       4
    0.358490566038    0.125000000000    0.000000000000       4
    0.377358490566    0.125000000000    0.000000000000       4
    0.396226415094    0.125000000000    0.000000000000       4
    0.415094339623    0.125000000000    0.000000000000       4
    0.433962264151    0.125000000000    0.000000000000       4
    0.452830188679    0.125000000000    0.000000000000       4
    0.471698113208    0.125000000000    0.000000000000       4
    0.490566037736    0.125000000000    0.000000000000       4
    0.000000000000    0.187500000000    0.000000000000       2
    0.018867924528    0.187500000000    0.000000000000       4
    0.037735849057    0.187500000000    0.000000000000       4
    0.056603773585    0.187500000000    0.000000000000       4
    0.075471698113    0.187500000000    0.000000000000       4
    0.094339622642    0.187500000000    0.000000000000       4
    0.113207547170    0.187500000000    0.000000000000       4
    0.132075471698    0.187500000000    0.000000000000       4
    0.150943396226    0.187500000000    0.000000000000       4
    0.169811320755    0.187500000000    0.000000000000       4
    0.188679245283    0.187500000000    0.000000000000       4
    0.207547169811    0.187500000000    0.000000000000       4
    0.226415094340    0.187500000000    0.000000000000       4
    0.245283018868    0.187500000000    0.000000000000       4
    0.264150943396    0.187500000000    0.000000000000       4
    0.283018867925    0.187500000000    0.000000000000       4
    0.301886792453    0.187500000000    0.000000000000       4
    0.320754716981    0.187500000000    0.000000000000       4
    0.339622641509    0.187500000000    0.000000000000       4
    0.358490566038    0.187500000000    0.000000000000       4
    0.377358490566    0.187500000000    0.000000000000       4
    0.396226415094    0.187500000000    0.000000000000       4
    0.415094339623    0.187500000000    0.000000000000       4
    0.433962264151    0.187500000000    0.000000000000       4
    0.452830188679    0.187500000000    0.000000000000       4
    0.471698113208    0.187500000000    0.000000000000       4
    0.490566037736    0.187500000000    0.000000000000       4
    0.000000000000    0.250000000000    0.000000000000       2
    0.018867924528    0.250000000000    0.000000000000       4
    0.037735849057    0.250000000000    0.000000000000       4
    0.056603773585    0.250000000000    0.000000000000       4
    0.075471698113    0.250000000000    0.000000000000       4
    0.094339622642    0.250000000000    0.000000000000       4
    0.113207547170    0.250000000000    0.000000000000       4
    0.132075471698    0.250000000000    0.000000000000       4
    0.150943396226    0.250000000000    0.000000000000       4
    0.169811320755    0.250000000000    0.000000000000       4
    0.188679245283    0.250000000000    0.000000000000       4
    0.207547169811    0.250000000000    0.000000000000       4
    0.226415094340    0.250000000000    0.000000000000       4
    0.245283018868    0.250000000000    0.000000000000       4
    0.264150943396    0.250000000000    0.000000000000       4
    0.283018867925    0.250000000000    0.000000000000       4
    0.301886792453    0.250000000000    0.000000000000       4
    0.320754716981    0.250000000000    0.000000000000       4
    0.339622641509    0.250000000000    0.000000000000       4
    0.358490566038    0.250000000000    0.000000000000       4
    0.377358490566    0.250000000000    0.000000000000       4
    0.396226415094    0.250000000000    0.000000000000       4
    0.415094339623    0.250000000000    0.000000000000       4
    0.433962264151    0.250000000000    0.000000000000       4
    0.452830188679    0.250000000000    0.000000000000       4
    0.471698113208    0.250000000000    0.000000000000       4
    0.490566037736    0.250000000000    0.000000000000       4
    0.000000000000    0.312500000000    0.000000000000       2
    0.018867924528    0.312500000000    0.000000000000       4
    0.037735849057    0.312500000000    0.000000000000       4
    0.056603773585    0.312500000000    0.000000000000       4
    0.075471698113    0.312500000000    0.000000000000       4
    0.094339622642    0.312500000000    0.000000000000       4
    0.113207547170    0.312500000000    0.000000000000       4
    0.132075471698    0.312500000000    0.000000000000       4
    0.150943396226    0.312500000000    0.000000000000       4
    0.169811320755    0.312500000000    0.000000000000       4
    0.188679245283    0.312500000000    0.000000000000       4
    0.207547169811    0.312500000000    0.000000000000       4
    0.226415094340    0.312500000000    0.000000000000       4
    0.245283018868    0.312500000000    0.000000000000       4
    0.264150943396    0.312500000000    0.000000000000       4
    0.283018867925    0.312500000000    0.000000000000       4
    0.301886792453    0.312500000000    0.000000000000       4
    0.320754716981    0.312500000000    0.000000000000       4
    0.339622641509    0.312500000000    0.000000000000       4
    0.358490566038    0.312500000000    0.000000000000       4
    0.377358490566    0.312500000000    0.000000000000       4
    0.396226415094    0.312500000000    0.000000000000       4
    0.415094339623    0.312500000000    0.000000000000       4
    0.433962264151    0.312500000000    0.000000000000       4
    0.452830188679    0.312500000000    0.000000000000       4
    0.471698113208    0.312500000000    0.000000000000       4
    0.490566037736    0.312500000000    0.000000000000       4
    0.000000000000    0.375000000000    0.000000000000       2
    0.018867924528    0.375000000000    0.000000000000       4
    0.037735849057    0.375000000000    0.000000000000       4
    0.056603773585    0.375000000000    0.000000000000       4
    0.075471698113    0.375000000000    0.000000000000       4
    0.094339622642    0.375000000000    0.000000000000       4
    0.113207547170    0.375000000000    0.000000000000       4
    0.132075471698    0.375000000000    0.000000000000       4
    0.150943396226    0.375000000000    0.000000000000       4
    0.169811320755    0.375000000000    0.000000000000       4
    0.188679245283    0.375000000000    0.000000000000       4
    0.207547169811    0.375000000000    0.000000000000       4
    0.226415094340    0.375000000000    0.000000000000       4
    0.245283018868    0.375000000000    0.000000000000       4
    0.264150943396    0.375000000000    0.000000000000       4
    0.283018867925    0.375000000000    0.000000000000       4
    0.301886792453    0.375000000000    0.000000000000       4
    0.320754716981    0.375000000000    0.000000000000       4
    0.339622641509    0.375000000000    0.000000000000       4
    0.358490566038    0.375000000000    0.000000000000       4
    0.377358490566    0.375000000000    0.000000000000       4
    0.396226415094    0.375000000000    0.000000000000       4
    0.415094339623    0.375000000000    0.000000000000       4
    0.433962264151    0.375000000000    0.000000000000       4
    0.452830188679    0.375000000000    0.000000000000       4
    0.471698113208    0.375000000000    0.000000000000       4
    0.490566037736    0.375000000000    0.000000000000       4
    0.000000000000    0.437500000000    0.000000000000       2
    0.018867924528    0.437500000000    0.000000000000       4
    0.037735849057    0.437500000000    0.000000000000       4
    0.056603773585    0.437500000000    0.000000000000       4
    0.075471698113    0.437500000000    0.000000000000       4
    0.094339622642    0.437500000000    0.000000000000       4
    0.113207547170    0.437500000000    0.000000000000       4
    0.132075471698    0.437500000000    0.000000000000       4
    0.150943396226    0.437500000000    0.000000000000       4
    0.169811320755    0.437500000000    0.000000000000       4
    0.188679245283    0.437500000000    0.000000000000       4
    0.207547169811    0.437500000000    0.000000000000       4
    0.226415094340    0.437500000000    0.000000000000       4
    0.245283018868    0.437500000000    0.000000000000       4
    0.264150943396    0.437500000000    0.000000000000       4
    0.283018867925    0.437500000000    0.000000000000       4
    0.301886792453    0.437500000000    0.000000000000       4
    0.320754716981    0.437500000000    0.000000000000       4
    0.339622641509    0.437500000000    0.000000000000       4
    0.358490566038    0.437500000000    0.000000000000       4
    0.377358490566    0.437500000000    0.000000000000       4
    0.396226415094    0.437500000000    0.000000000000       4
    0.415094339623    0.437500000000    0.000000000000       4
    0.433962264151    0.437500000000    0.000000000000       4
    0.452830188679    0.437500000000    0.000000000000       4
    0.471698113208    0.437500000000    0.000000000000       4
    0.490566037736    0.437500000000    0.000000000000       4
    0.000000000000    0.500000000000    0.000000000000       1
    0.018867924528    0.500000000000    0.000000000000       2
    0.037735849057    0.500000000000    0.000000000000       2
    0.056603773585    0.500000000000    0.000000000000       2
    0.075471698113    0.500000000000    0.000000000000       2
    0.094339622642    0.500000000000    0.000000000000       2
    0.113207547170    0.500000000000    0.000000000000       2
    0.132075471698    0.500000000000    0.000000000000       2
    0.150943396226    0.500000000000    0.000000000000       2
    0.169811320755    0.500000000000    0.000000000000       2
    0.188679245283    0.500000000000    0.000000000000       2
    0.207547169811    0.500000000000    0.000000000000       2
    0.226415094340    0.500000000000    0.000000000000       2
    0.245283018868    0.500000000000    0.000000000000       2
    0.264150943396    0.500000000000    0.000000000000       2
    0.283018867925    0.500000000000    0.000000000000       2
    0.301886792453    0.500000000000    0.000000000000       2
    0.320754716981    0.500000000000    0.000000000000       2
    0.339622641509    0.500000000000    0.000000000000       2
    0.358490566038    0.500000000000    0.000000000000       2
    0.377358490566    0.500000000000    0.000000000000       2
    0.396226415094    0.500000000000    0.000000000000       2
    0.415094339623    0.500000000000    0.000000000000       2
    0.433962264151    0.500000000000    0.000000000000       2
    0.452830188679    0.500000000000    0.000000000000       2
    0.471698113208    0.500000000000    0.000000000000       2
    0.490566037736    0.500000000000    0.000000000000       2
