CONTCAR\(9)                             
   1.00000000000000     
    11.9372997283999993    0.0000000000000000    0.0000000000000000
    -5.9686498641999997   10.3380048173999999    0.0000000000000000
     0.0000000000000000    0.0000000000000000   21.4568004608000003
   In   Se   O 
    18    27     1
Direct
  0.2284632182718056  0.0924258541399468  0.3949268646185047
  0.1183405967928408  0.2123246538966370  0.5917874025626304
  0.5654179917968136  0.1146949932450099  0.4117576035364507
  0.4606553033012517  0.2276513195376637  0.5940523819006955
  0.9030301577539106  0.1189047370323593  0.4165322701281298
  0.7924914793797484  0.2406424965537326  0.6022892568030542
  0.2449353600866573  0.4578134143348578  0.4177402050859484
  0.1083331223179940  0.5450506297852584  0.5905837665739853
  0.5646681959325761  0.4457187489022019  0.4152044759540985
  0.4667291615748681  0.5540328812904178  0.5880928436599575
  0.8995030891930824  0.4429454830082449  0.4101620882730899
  0.7820958586172040  0.5779008228874503  0.5860370056717983
  0.2332537753806889  0.7819834864187953  0.4118279138057162
  0.1253858983736222  0.8842340133518292  0.5884296964083120
  0.5724036894328250  0.7923248925110542  0.4102320625141616
  0.4589214782977891  0.8744264486731979  0.5931503529006363
  0.8979674866703462  0.7639844640539479  0.4005746877694634
  0.8044755061542475  0.9175419642516758  0.6015973736406934
  0.9739869345012977  0.0139569623097202  0.5085998268388892
  0.2371221696623493  0.1087597734180648  0.6525472516388788
  0.1254523656108759  0.2283040390220137  0.3558840508330618
  0.2914923184302793  0.9919709708221873  0.4920733467534433
  0.5628027967682243  0.1048988982607995  0.6522814806591199
  0.4559069008954353  0.2266814547584062  0.3443787673432368
  0.6283691737542654  0.9785873816452408  0.4987392676553384
  0.9044689951215474  0.1345591173096068  0.6665930260459305
  0.7856186740320084  0.2149128869978227  0.3486541004728636
  0.9573204092902827  0.3292998808403240  0.5044185761796385
  0.1777904369272036  0.4155030819880636  0.6673465628304314
  0.1217289949255118  0.5521686617934520  0.3509031311070245
  0.3146099665968265  0.3502385935955914  0.5110681888827742
  0.5716607349644534  0.4472816432670541  0.6568747395335564
  0.4591254992043403  0.5641195128978396  0.3513636275719350
  0.6285168529456442  0.3124127996967516  0.4994717056311799
  0.8910233464901225  0.4703079508381975  0.6535944337830557
  0.7766298692597360  0.5369393123751607  0.3442468124060909
  0.9720047359571353  0.6694313530997817  0.4959766417899800
  0.2351362623880533  0.7753528190446914  0.6517188808109680
  0.1134691572400541  0.8714159881771977  0.3347081302087602
  0.2998679520051439  0.6577097269811674  0.5045720170873267
  0.5825862782092273  0.7812777824171278  0.6547107700096646
  0.4495625250706681  0.8911976496127920  0.3459730599712287
  0.6516178925261755  0.6538871533238009  0.4991708638713845
  0.9107744081681730  0.7928455776176051  0.6548671930528016
  0.7964444071168799  0.8940922538729765  0.3512425066188527
  0.3420388596098078  0.5429757511422508  0.6604630316052393
 
  0.00000000E+00  0.00000000E+00  0.00000000E+00
  0.00000000E+00  0.00000000E+00  0.00000000E+00
  0.00000000E+00  0.00000000E+00  0.00000000E+00
  0.00000000E+00  0.00000000E+00  0.00000000E+00
  0.00000000E+00  0.00000000E+00  0.00000000E+00
  0.00000000E+00  0.00000000E+00  0.00000000E+00
  0.00000000E+00  0.00000000E+00  0.00000000E+00
  0.00000000E+00  0.00000000E+00  0.00000000E+00
  0.00000000E+00  0.00000000E+00  0.00000000E+00
  0.00000000E+00  0.00000000E+00  0.00000000E+00
  0.00000000E+00  0.00000000E+00  0.00000000E+00
  0.00000000E+00  0.00000000E+00  0.00000000E+00
  0.00000000E+00  0.00000000E+00  0.00000000E+00
  0.00000000E+00  0.00000000E+00  0.00000000E+00
  0.00000000E+00  0.00000000E+00  0.00000000E+00
  0.00000000E+00  0.00000000E+00  0.00000000E+00
  0.00000000E+00  0.00000000E+00  0.00000000E+00
  0.00000000E+00  0.00000000E+00  0.00000000E+00
  0.00000000E+00  0.00000000E+00  0.00000000E+00
  0.00000000E+00  0.00000000E+00  0.00000000E+00
  0.00000000E+00  0.00000000E+00  0.00000000E+00
  0.00000000E+00  0.00000000E+00  0.00000000E+00
  0.00000000E+00  0.00000000E+00  0.00000000E+00
  0.00000000E+00  0.00000000E+00  0.00000000E+00
  0.00000000E+00  0.00000000E+00  0.00000000E+00
  0.00000000E+00  0.00000000E+00  0.00000000E+00
  0.00000000E+00  0.00000000E+00  0.00000000E+00
  0.00000000E+00  0.00000000E+00  0.00000000E+00
  0.00000000E+00  0.00000000E+00  0.00000000E+00
  0.00000000E+00  0.00000000E+00  0.00000000E+00
  0.00000000E+00  0.00000000E+00  0.00000000E+00
  0.00000000E+00  0.00000000E+00  0.00000000E+00
  0.00000000E+00  0.00000000E+00  0.00000000E+00
  0.00000000E+00  0.00000000E+00  0.00000000E+00
  0.00000000E+00  0.00000000E+00  0.00000000E+00
  0.00000000E+00  0.00000000E+00  0.00000000E+00
  0.00000000E+00  0.00000000E+00  0.00000000E+00
  0.00000000E+00  0.00000000E+00  0.00000000E+00
  0.00000000E+00  0.00000000E+00  0.00000000E+00
  0.00000000E+00  0.00000000E+00  0.00000000E+00
  0.00000000E+00  0.00000000E+00  0.00000000E+00
  0.00000000E+00  0.00000000E+00  0.00000000E+00
  0.00000000E+00  0.00000000E+00  0.00000000E+00
  0.00000000E+00  0.00000000E+00  0.00000000E+00
  0.00000000E+00  0.00000000E+00  0.00000000E+00
  0.00000000E+00  0.00000000E+00  0.00000000E+00
