CONTCAR\(5)                             
   1.00000000000000     
    10.9293003082000002    0.0000000000000000    0.0000000000000000
     0.0000000000000000   10.9293003082000002    0.0000000000000000
     0.0000000000000000    0.0000000000000000   18.0813007355000011
   Cu   Se   O 
    18    18     1
Direct
  0.0011624209743412 -0.0003948052333990  0.4992501051391320
  0.1685827073146575  0.1670909908957147  0.4989219352861830
  0.3358915336656851  0.0019850446797796  0.5009058895100491
  0.5061168978406555  0.1649624359338067  0.5001385880402635
  0.6733193451941143 -0.0027530023869354  0.5076001651091311
  0.8365963606101430  0.1646414363376149  0.5057951532796772
  0.0026149016463298  0.3306994751391739  0.5060005104426516
  0.1708899663995419  0.4917015025490691  0.5060090695907123
  0.3372151428189366  0.3290612979820965  0.4767038675994180
  0.5043184170014684  0.4924247393916693  0.5021261739873315
  0.6713134381771102  0.3297044811376115  0.5035804241802719
  0.8374683179536589  0.4952641499872929  0.5051503921660898
  0.0035480018071872  0.6596693666871557  0.5013580056844317
  0.1649426513059909  0.8306448415535601  0.4993024260786485
  0.3348738731454514  0.6582295291128769  0.5079635554528198
  0.5087439781340176  0.8311824883948996  0.5112539287311021
  0.6729766536008356  0.6603097392054497  0.5043821401447480
  0.8374931215238319  0.8293573371137427  0.4870872892703073
  0.0069703115568241  0.1610548182707340  0.5927640453264015
  0.1688440266761053 -0.0001996690198473  0.4108422756449138
  0.3367233308959106  0.1921340738894804  0.5869719805639246
  0.5047211182671780 -0.0142711637144325  0.4188042157637712
  0.6687388932229320  0.1668049460452189  0.5944448982194123
  0.8332918902239170  0.0077967906541731  0.4098185830852130
  0.0022907391892133  0.4974349166717826  0.5948975301281569
  0.1526164793966652  0.3331772694860522  0.4067296146267860
  0.3399336490068265  0.4564062457417411  0.5900041827212631
  0.5201946823634666  0.3309087796513733  0.4056039044663561
  0.6699104866797142  0.4943670469557329  0.5938708761508182
  0.8385139318053410  0.3295118880947233  0.4142029997491495
 -0.0107197044208262  0.8306589481281215  0.5880791277263543
  0.1792192680467966  0.6608722164397351  0.4171646602720650
  0.2847043590543104  0.8800688825310956  0.6075927016873255
  0.5029356852768485  0.6652988361734272  0.4188412074346787
  0.6983599032872757  0.8270640597499334  0.5926038832384448
  0.8356189576120644  0.6514775298979957  0.4094412361015791
  0.3989942377454819  0.7622225488717770  0.5933724824004259
 
  0.00000000E+00  0.00000000E+00  0.00000000E+00
  0.00000000E+00  0.00000000E+00  0.00000000E+00
  0.00000000E+00  0.00000000E+00  0.00000000E+00
  0.00000000E+00  0.00000000E+00  0.00000000E+00
  0.00000000E+00  0.00000000E+00  0.00000000E+00
  0.00000000E+00  0.00000000E+00  0.00000000E+00
  0.00000000E+00  0.00000000E+00  0.00000000E+00
  0.00000000E+00  0.00000000E+00  0.00000000E+00
  0.00000000E+00  0.00000000E+00  0.00000000E+00
  0.00000000E+00  0.00000000E+00  0.00000000E+00
  0.00000000E+00  0.00000000E+00  0.00000000E+00
  0.00000000E+00  0.00000000E+00  0.00000000E+00
  0.00000000E+00  0.00000000E+00  0.00000000E+00
  0.00000000E+00  0.00000000E+00  0.00000000E+00
  0.00000000E+00  0.00000000E+00  0.00000000E+00
  0.00000000E+00  0.00000000E+00  0.00000000E+00
  0.00000000E+00  0.00000000E+00  0.00000000E+00
  0.00000000E+00  0.00000000E+00  0.00000000E+00
  0.00000000E+00  0.00000000E+00  0.00000000E+00
  0.00000000E+00  0.00000000E+00  0.00000000E+00
  0.00000000E+00  0.00000000E+00  0.00000000E+00
  0.00000000E+00  0.00000000E+00  0.00000000E+00
  0.00000000E+00  0.00000000E+00  0.00000000E+00
  0.00000000E+00  0.00000000E+00  0.00000000E+00
  0.00000000E+00  0.00000000E+00  0.00000000E+00
  0.00000000E+00  0.00000000E+00  0.00000000E+00
  0.00000000E+00  0.00000000E+00  0.00000000E+00
  0.00000000E+00  0.00000000E+00  0.00000000E+00
  0.00000000E+00  0.00000000E+00  0.00000000E+00
  0.00000000E+00  0.00000000E+00  0.00000000E+00
  0.00000000E+00  0.00000000E+00  0.00000000E+00
  0.00000000E+00  0.00000000E+00  0.00000000E+00
  0.00000000E+00  0.00000000E+00  0.00000000E+00
  0.00000000E+00  0.00000000E+00  0.00000000E+00
  0.00000000E+00  0.00000000E+00  0.00000000E+00
  0.00000000E+00  0.00000000E+00  0.00000000E+00
  0.00000000E+00  0.00000000E+00  0.00000000E+00
