CONTCAR\(2)                             
   1.00000000000000     
    13.8704996108999996    0.0000000000000000    0.0000000000000000
     6.9352498054999998   12.0122050262000002    0.0000000000000000
     0.0000000000000000    0.0000000000000000   20.7413005828999992
   Sc   H    Cl   O 
    32    32    32     1
Direct
  0.0834397131466972  0.0831633969724353  0.4394459817922465
  0.1667322583357499  0.1665762901493468  0.5607546008130501
  0.3332892823087730  0.0833033941413772  0.4393408813259178
  0.4167445467762061  0.1666935782162495  0.5607356421921984
  0.5833490366966554  0.0833405682502534  0.4393059320547273
  0.6665827030492434  0.1667178167189449  0.5607390677841055
  0.8333776501376443  0.0832907387531291  0.4393292746732759
  0.9166658886312425  0.1666364378654521  0.5607395837898670
  0.0834214466499072  0.3333035039306929  0.4393988490265646
  0.1670161547806478  0.4169432154694125  0.5606565427881154
  0.3334373942865245  0.3333592382006057  0.4391607917543719
  0.4164192662370755  0.4170558572213622  0.5610297723243269
  0.5832071184782455  0.3333564555482297  0.4392411634735757
  0.6658951275049120  0.4169674711387873  0.5608077724137051
  0.8332383748088722  0.3333474811515442  0.4393859490300518
  0.9166281281892992  0.4166333574351979  0.5607156700748201
  0.0834111444310639  0.5833791833702365  0.4392238709606525
  0.1671964227261139  0.6662786150431966  0.5611357328173672
  0.3333519764909843  0.5833139208825019  0.4392025090679577
  0.4164120060660007  0.6663093011191131  0.5612542346808554
  0.5831721701321220  0.5834011469524989  0.4393164860066076
  0.6665402938039277  0.6666184083100559  0.5607682750674374
  0.8333285891280190  0.5833241824419421  0.4393243176920566
  0.9167931345622454  0.6666214455411662  0.5607291557382470
  0.0834546222300471  0.8331128450292591  0.4392889706978303
  0.1669966024745274  0.9159257697833575  0.5607828891047021
  0.3334405018820401  0.8330977237281669  0.4392967249720198
  0.4167657153580061  0.9163950939651604  0.5608125521173608
  0.5833403060521111  0.8332839625141103  0.4393251736802544
  0.6666684550425600  0.9166546419967792  0.5607669203925313
  0.8333928689803841  0.8332893389479673  0.4393059195972010
  0.9168143550859545  0.9164644895784851  0.5607741861592924
  0.0834143484674107  0.0831620970641568  0.5356843973721084
  0.1666858014833610  0.1666105805878464  0.4644321344380343
  0.3334639021113720  0.0831836033887433  0.5355844077476011
  0.4166722930543664  0.1666347406086978  0.4643546331199072
  0.5833933867307084  0.0832566938694203  0.5355641933667147
  0.6667080728344184  0.1666508021050766  0.4643553769750601
  0.8333487253393955  0.0832188606123663  0.5355529339168955
  0.9166917228374786  0.1666304867110975  0.4643983052043830
  0.0833712722754846  0.3332559289029257  0.5356211967525678
  0.1668123829715020  0.4167595530494770  0.4642172667819652
  0.3336047833862420  0.3331021547566635  0.5353207856016043
  0.4166512453442822  0.4167270827905801  0.4643735272582984
  0.5832291981605593  0.3331525114289627  0.5353689664339016
  0.6664135291194951  0.4167611113604771  0.4643369663609543
  0.8331693398116768  0.3333523363304909  0.5356436746590103
  0.9166603465108393  0.4166392464041938  0.4643596583863433
  0.0832173654371632  0.5834931658292302  0.5353658920418306
  0.1668498404592968  0.6665365432566270  0.4644591320954575
  0.3333725180918085  0.5832457093155936  0.5352475152721533
  0.4166286823709315  0.6665433358719665  0.4645201466006964
  0.5831890239868356  0.5834954797314732  0.5354477375704794
  0.6666677215652760  0.6666213746260458  0.4643861217168304
  0.8332806855287247  0.5833956589115981  0.5355243185175802
  0.9166958727518298  0.6666406180604560  0.4643544910434014
  0.0832503042247022  0.8331247789415329  0.5354412850227429
  0.1668327604106814  0.9163221230028068  0.4643418896188110
  0.3336000272638165  0.8330954509542794  0.5354679599167474
  0.4166802794292077  0.9166200767477427  0.4644222397554490
  0.5833864318668533  0.8333050008522784  0.5355811788874469
  0.6666645693656499  0.9166637789095818  0.4644117961235782
  0.8332966178970873  0.8333387508154332  0.5355639673859650
  0.9167100071594382  0.9166136862922527  0.4644009095420616
 -0.0001116172186359  0.0000514425034450  0.6385602441476816
  0.0000285105588420 -0.0000159299612937  0.3613057001537887
  0.2501189348131614 -0.0000933083213256  0.6385956864871934
  0.2500569321906441 -0.0001544829049200  0.3612999746497437
  0.5000565402345414 -0.0000504841433322  0.6386646160719287
  0.4999666434112667 -0.0000098079572514  0.3613215419558700
  0.7500007173693830  0.9999412752758610  0.6386728559108714
  0.7500542586024956 -0.0000632872923948  0.3612440606464511
  0.0000252754158412  0.2499632127505945  0.6386740930325792
  0.0000110459300724  0.2499300910258293  0.3614048465576406
  0.2501526647296394  0.2498518810138004  0.6385164587001178
  0.2500249898491912  0.2499754084054262  0.3612322263497330
  0.5000651103749665  0.2499293803677847  0.6385190996308269
  0.5000910012053349  0.2498871418084552  0.3611738646956733
  0.7500060458194909  0.2498015550066368  0.6385721107575851
  0.7499910338591895  0.2500318858004665  0.3612576645778798
 -0.0000933007737429  0.4999616907278127  0.6384698232082224
 -0.0000120283693503  0.4999516553328983  0.3612625494630051
  0.2499917859201560  0.4997352873318299  0.6378562493389770
  0.2500149977363038  0.4999975993252979  0.3610749278146275
  0.4999571980468487  0.4998422204865732  0.6378718201700424
  0.5000325291305807  0.4999924209686007  0.3611181702665578
  0.7500491091763708  0.4999782777061141  0.6385178147542327
  0.7499471238432989  0.4999749444544259  0.3612742628429960
  0.0000564600862892  0.7498609234538496  0.6385364582528194
 -0.0000334252187236  0.7500177397639775  0.3612012890290892
  0.2499031667948439  0.7500203542392346  0.6379972621454522
  0.2500263519437005  0.7499793796472203  0.3611472909891966
  0.5001259512315548  0.7498443832281881  0.6385913942702028
  0.5000456441102302  0.7499891447352940  0.3612443926146155
  0.7500049694263646  0.7499912028435998  0.6386509587957040
  0.7500092977828021  0.7499907677774424  0.3612364757319321
  0.3309798112753724  0.5896638711426663  0.7499644854368785
 
  0.00000000E+00  0.00000000E+00  0.00000000E+00
  0.00000000E+00  0.00000000E+00  0.00000000E+00
  0.00000000E+00  0.00000000E+00  0.00000000E+00
  0.00000000E+00  0.00000000E+00  0.00000000E+00
  0.00000000E+00  0.00000000E+00  0.00000000E+00
  0.00000000E+00  0.00000000E+00  0.00000000E+00
  0.00000000E+00  0.00000000E+00  0.00000000E+00
  0.00000000E+00  0.00000000E+00  0.00000000E+00
  0.00000000E+00  0.00000000E+00  0.00000000E+00
  0.00000000E+00  0.00000000E+00  0.00000000E+00
  0.00000000E+00  0.00000000E+00  0.00000000E+00
  0.00000000E+00  0.00000000E+00  0.00000000E+00
  0.00000000E+00  0.00000000E+00  0.00000000E+00
  0.00000000E+00  0.00000000E+00  0.00000000E+00
  0.00000000E+00  0.00000000E+00  0.00000000E+00
  0.00000000E+00  0.00000000E+00  0.00000000E+00
  0.00000000E+00  0.00000000E+00  0.00000000E+00
  0.00000000E+00  0.00000000E+00  0.00000000E+00
  0.00000000E+00  0.00000000E+00  0.00000000E+00
  0.00000000E+00  0.00000000E+00  0.00000000E+00
  0.00000000E+00  0.00000000E+00  0.00000000E+00
  0.00000000E+00  0.00000000E+00  0.00000000E+00
  0.00000000E+00  0.00000000E+00  0.00000000E+00
  0.00000000E+00  0.00000000E+00  0.00000000E+00
  0.00000000E+00  0.00000000E+00  0.00000000E+00
  0.00000000E+00  0.00000000E+00  0.00000000E+00
  0.00000000E+00  0.00000000E+00  0.00000000E+00
  0.00000000E+00  0.00000000E+00  0.00000000E+00
  0.00000000E+00  0.00000000E+00  0.00000000E+00
  0.00000000E+00  0.00000000E+00  0.00000000E+00
  0.00000000E+00  0.00000000E+00  0.00000000E+00
  0.00000000E+00  0.00000000E+00  0.00000000E+00
  0.00000000E+00  0.00000000E+00  0.00000000E+00
  0.00000000E+00  0.00000000E+00  0.00000000E+00
  0.00000000E+00  0.00000000E+00  0.00000000E+00
  0.00000000E+00  0.00000000E+00  0.00000000E+00
  0.00000000E+00  0.00000000E+00  0.00000000E+00
  0.00000000E+00  0.00000000E+00  0.00000000E+00
  0.00000000E+00  0.00000000E+00  0.00000000E+00
  0.00000000E+00  0.00000000E+00  0.00000000E+00
  0.00000000E+00  0.00000000E+00  0.00000000E+00
  0.00000000E+00  0.00000000E+00  0.00000000E+00
  0.00000000E+00  0.00000000E+00  0.00000000E+00
  0.00000000E+00  0.00000000E+00  0.00000000E+00
  0.00000000E+00  0.00000000E+00  0.00000000E+00
  0.00000000E+00  0.00000000E+00  0.00000000E+00
  0.00000000E+00  0.00000000E+00  0.00000000E+00
  0.00000000E+00  0.00000000E+00  0.00000000E+00
  0.00000000E+00  0.00000000E+00  0.00000000E+00
  0.00000000E+00  0.00000000E+00  0.00000000E+00
  0.00000000E+00  0.00000000E+00  0.00000000E+00
  0.00000000E+00  0.00000000E+00  0.00000000E+00
  0.00000000E+00  0.00000000E+00  0.00000000E+00
  0.00000000E+00  0.00000000E+00  0.00000000E+00
  0.00000000E+00  0.00000000E+00  0.00000000E+00
  0.00000000E+00  0.00000000E+00  0.00000000E+00
  0.00000000E+00  0.00000000E+00  0.00000000E+00
  0.00000000E+00  0.00000000E+00  0.00000000E+00
  0.00000000E+00  0.00000000E+00  0.00000000E+00
  0.00000000E+00  0.00000000E+00  0.00000000E+00
  0.00000000E+00  0.00000000E+00  0.00000000E+00
  0.00000000E+00  0.00000000E+00  0.00000000E+00
  0.00000000E+00  0.00000000E+00  0.00000000E+00
  0.00000000E+00  0.00000000E+00  0.00000000E+00
  0.00000000E+00  0.00000000E+00  0.00000000E+00
  0.00000000E+00  0.00000000E+00  0.00000000E+00
  0.00000000E+00  0.00000000E+00  0.00000000E+00
  0.00000000E+00  0.00000000E+00  0.00000000E+00
  0.00000000E+00  0.00000000E+00  0.00000000E+00
  0.00000000E+00  0.00000000E+00  0.00000000E+00
  0.00000000E+00  0.00000000E+00  0.00000000E+00
  0.00000000E+00  0.00000000E+00  0.00000000E+00
  0.00000000E+00  0.00000000E+00  0.00000000E+00
  0.00000000E+00  0.00000000E+00  0.00000000E+00
  0.00000000E+00  0.00000000E+00  0.00000000E+00
  0.00000000E+00  0.00000000E+00  0.00000000E+00
  0.00000000E+00  0.00000000E+00  0.00000000E+00
  0.00000000E+00  0.00000000E+00  0.00000000E+00
  0.00000000E+00  0.00000000E+00  0.00000000E+00
  0.00000000E+00  0.00000000E+00  0.00000000E+00
  0.00000000E+00  0.00000000E+00  0.00000000E+00
  0.00000000E+00  0.00000000E+00  0.00000000E+00
  0.00000000E+00  0.00000000E+00  0.00000000E+00
  0.00000000E+00  0.00000000E+00  0.00000000E+00
  0.00000000E+00  0.00000000E+00  0.00000000E+00
  0.00000000E+00  0.00000000E+00  0.00000000E+00
  0.00000000E+00  0.00000000E+00  0.00000000E+00
  0.00000000E+00  0.00000000E+00  0.00000000E+00
  0.00000000E+00  0.00000000E+00  0.00000000E+00
  0.00000000E+00  0.00000000E+00  0.00000000E+00
  0.00000000E+00  0.00000000E+00  0.00000000E+00
  0.00000000E+00  0.00000000E+00  0.00000000E+00
  0.00000000E+00  0.00000000E+00  0.00000000E+00
  0.00000000E+00  0.00000000E+00  0.00000000E+00
  0.00000000E+00  0.00000000E+00  0.00000000E+00
  0.00000000E+00  0.00000000E+00  0.00000000E+00
  0.00000000E+00  0.00000000E+00  0.00000000E+00
