CONTCAR\(3)                             
   1.00000000000000     
    15.6891002655000005    0.0000000000000000    0.0000000000000000
     7.8445501328000002   13.5871593924000003    0.0000000000000000
     0.0000000000000000    0.0000000000000000   18.9503002167000005
   Te   Pt   O    H 
    32    32     1     1
Direct
  0.1664782006461958  0.1675304226011714  0.6112505822748133
  0.1668346052173914  0.1670863711304685  0.3913988637043780
  0.4167581966417326  0.1666354202926421  0.6121968214581811
  0.4181175217649616  0.1659291532376390  0.3935367727599470
  0.6669894721419217  0.1663979766003117  0.6125672522615213
  0.6671622502488502  0.1661631857665896  0.3932275810394933
  0.9169256464206258  0.1666286393773783  0.6121243997652283
  0.9164829380701390  0.1660624483479820  0.3932584822394520
  0.1664607817133935  0.4160126854966217  0.6112124524443070
  0.1668261071884494  0.4161017136201433  0.3913791844175903
  0.4172971084847603  0.4141848423621820  0.6129236311074669
  0.4172522680292598  0.4155449986946077  0.3932923563490869
  0.6693168093977151  0.4144607892233181  0.6126299687034132
  0.6676978971879260  0.4157077787534563  0.3931694845586174
  0.9179479472300142  0.4160154150888509  0.6110187512798447
  0.9190452130726859  0.4154120870641727  0.3907077092367391
  0.1649201485293136  0.6668106454345686  0.6126879761648732
  0.1662168738243404  0.6668282213163929  0.3934760159633118
  0.4189930363940531  0.6655117625452539  0.5962313109495941
  0.4168266409754680  0.6666127241201143  0.3943623825068321
  0.6693226479207283  0.6661894883176480  0.6125954350902260
  0.6676330013808351  0.6665447443561652  0.3931813859985652
  0.9169617274052331  0.6663885225726823  0.6120627869422902
  0.9164550558318142  0.6674782890392854  0.3932652866218684
  0.1648183803389917  0.9182443321036815  0.6127522940183689
  0.1662186216644697  0.9169582391241023  0.3935249047387375
  0.4172377464531444  0.9185486898931409  0.6129051165683513
  0.4172352513402236  0.9172140017696175  0.3932906653705369
  0.6670203186778313  0.9165918297093660  0.6125742973228263
  0.6671562261966463  0.9166466635881276  0.3932236288695291
  0.9165912317940910  0.9166793700701689  0.6123849352015113
  0.9165198328647232  0.9167613088867419  0.3931490108503333
  0.0828807491309397  0.0841771186829258  0.5431158453787036
  0.9997371128971104 -0.0001402986620374  0.4621435385531344
  0.3334011409676768  0.0841513195249111  0.5430666212194278
  0.2494218870159738  0.0017424695019918  0.4608350527615521
  0.5836950247672886  0.0831451690301279  0.5441920357428085
  0.5009418656374092  0.9996544616590642  0.4623589136895893
  0.8334525383921800  0.0832907838706782  0.5440756577566704
  0.7503111533380973 -0.0001709611991900  0.4622377108031823
  0.0837365933736776  0.3331263068441825  0.5419754103741611
  0.0005068059800413  0.2495060647641432  0.4603374641306435
  0.3334024653572391  0.3324870235191992  0.5430625613590168
  0.2505502023325570  0.2497412247815324  0.4603574513117549
  0.5836965936884670  0.3334568805559688  0.5443629068434978
  0.5009513500754154  0.2493791482140977  0.4623483881747704
  0.8347989788550606  0.3323102625624068  0.5428645485876561
  0.7502219683783835  0.2494649659016677  0.4620961298730361
  0.0828882538133734  0.5829209338566500  0.5430435329870031
  0.0004673414326648  0.4999649085285229  0.4602753867445522
  0.3308793630446165  0.5799077294240071  0.5431644025472374
  0.2494340678299000  0.4988352926701624  0.4608075207421316
  0.5908263250798159  0.5795678827417865  0.5421554625950230
  0.5008417449232683  0.4988468607051614  0.4610818559064961
  0.8347859534297239  0.5828411139866864  0.5428268818275057
  0.7533218107896744  0.4983111540399635  0.4600760762971139
  0.0834553869958497  0.8332530211771846  0.5440647889445329
  0.9997371035973853  0.7504302340260205  0.4621145288058929
  0.3307823684108769  0.8392579146435215  0.5431878723734502
  0.2495836312659683  0.7501766475138872  0.4616092526793941
  0.5836893295049207  0.8328508962145714  0.5443905323236655
  0.5008012325557498  0.7503434539880582  0.4611377552227080
  0.8334448237668916  0.8332114141918877  0.5440254993919749
  0.7501864942070217  0.7502689855520636  0.4620859251275978
  0.4365248014595908  0.6567411450466898  0.7026817134913586
  0.3714032016572338  0.6896957976368978  0.7247782566548122
 
  0.00000000E+00  0.00000000E+00  0.00000000E+00
  0.00000000E+00  0.00000000E+00  0.00000000E+00
  0.00000000E+00  0.00000000E+00  0.00000000E+00
  0.00000000E+00  0.00000000E+00  0.00000000E+00
  0.00000000E+00  0.00000000E+00  0.00000000E+00
  0.00000000E+00  0.00000000E+00  0.00000000E+00
  0.00000000E+00  0.00000000E+00  0.00000000E+00
  0.00000000E+00  0.00000000E+00  0.00000000E+00
  0.00000000E+00  0.00000000E+00  0.00000000E+00
  0.00000000E+00  0.00000000E+00  0.00000000E+00
  0.00000000E+00  0.00000000E+00  0.00000000E+00
  0.00000000E+00  0.00000000E+00  0.00000000E+00
  0.00000000E+00  0.00000000E+00  0.00000000E+00
  0.00000000E+00  0.00000000E+00  0.00000000E+00
  0.00000000E+00  0.00000000E+00  0.00000000E+00
  0.00000000E+00  0.00000000E+00  0.00000000E+00
  0.00000000E+00  0.00000000E+00  0.00000000E+00
  0.00000000E+00  0.00000000E+00  0.00000000E+00
  0.00000000E+00  0.00000000E+00  0.00000000E+00
  0.00000000E+00  0.00000000E+00  0.00000000E+00
  0.00000000E+00  0.00000000E+00  0.00000000E+00
  0.00000000E+00  0.00000000E+00  0.00000000E+00
  0.00000000E+00  0.00000000E+00  0.00000000E+00
  0.00000000E+00  0.00000000E+00  0.00000000E+00
  0.00000000E+00  0.00000000E+00  0.00000000E+00
  0.00000000E+00  0.00000000E+00  0.00000000E+00
  0.00000000E+00  0.00000000E+00  0.00000000E+00
  0.00000000E+00  0.00000000E+00  0.00000000E+00
  0.00000000E+00  0.00000000E+00  0.00000000E+00
  0.00000000E+00  0.00000000E+00  0.00000000E+00
  0.00000000E+00  0.00000000E+00  0.00000000E+00
  0.00000000E+00  0.00000000E+00  0.00000000E+00
  0.00000000E+00  0.00000000E+00  0.00000000E+00
  0.00000000E+00  0.00000000E+00  0.00000000E+00
  0.00000000E+00  0.00000000E+00  0.00000000E+00
  0.00000000E+00  0.00000000E+00  0.00000000E+00
  0.00000000E+00  0.00000000E+00  0.00000000E+00
  0.00000000E+00  0.00000000E+00  0.00000000E+00
  0.00000000E+00  0.00000000E+00  0.00000000E+00
  0.00000000E+00  0.00000000E+00  0.00000000E+00
  0.00000000E+00  0.00000000E+00  0.00000000E+00
  0.00000000E+00  0.00000000E+00  0.00000000E+00
  0.00000000E+00  0.00000000E+00  0.00000000E+00
  0.00000000E+00  0.00000000E+00  0.00000000E+00
  0.00000000E+00  0.00000000E+00  0.00000000E+00
  0.00000000E+00  0.00000000E+00  0.00000000E+00
  0.00000000E+00  0.00000000E+00  0.00000000E+00
  0.00000000E+00  0.00000000E+00  0.00000000E+00
  0.00000000E+00  0.00000000E+00  0.00000000E+00
  0.00000000E+00  0.00000000E+00  0.00000000E+00
  0.00000000E+00  0.00000000E+00  0.00000000E+00
  0.00000000E+00  0.00000000E+00  0.00000000E+00
  0.00000000E+00  0.00000000E+00  0.00000000E+00
  0.00000000E+00  0.00000000E+00  0.00000000E+00
  0.00000000E+00  0.00000000E+00  0.00000000E+00
  0.00000000E+00  0.00000000E+00  0.00000000E+00
  0.00000000E+00  0.00000000E+00  0.00000000E+00
  0.00000000E+00  0.00000000E+00  0.00000000E+00
  0.00000000E+00  0.00000000E+00  0.00000000E+00
  0.00000000E+00  0.00000000E+00  0.00000000E+00
  0.00000000E+00  0.00000000E+00  0.00000000E+00
  0.00000000E+00  0.00000000E+00  0.00000000E+00
  0.00000000E+00  0.00000000E+00  0.00000000E+00
  0.00000000E+00  0.00000000E+00  0.00000000E+00
  0.00000000E+00  0.00000000E+00  0.00000000E+00
  0.00000000E+00  0.00000000E+00  0.00000000E+00
