 Tb2 Ga2 I2                             
   1.00000000000000     
     4.1780451997978370    0.0000000000000000    0.0000000000000000
    -2.0890230985750420    3.6182958742483335    0.0000000000000000
     0.0000000000000000    0.0000000000000000   23.0693124054480023
   Tb   Ga   I 
     2     2     2
Direct
  0.0000000352597661  0.0000000117519806  0.5876493929595954
 -0.0000000899807029 -0.0000000249811341  0.4123510210082243
  0.6666666852206198  0.3333332937622157  0.5149008685944128
  0.3333333219261457  0.6666667073057569  0.4850995648004148
  0.6666667558319094  0.3333332823236060  0.3258147683824775
  0.3333332917422622  0.6666667298375749  0.6741856011204093
 
  0.00000000E+00  0.00000000E+00  0.00000000E+00
  0.00000000E+00  0.00000000E+00  0.00000000E+00
  0.00000000E+00  0.00000000E+00  0.00000000E+00
  0.00000000E+00  0.00000000E+00  0.00000000E+00
  0.00000000E+00  0.00000000E+00  0.00000000E+00
  0.00000000E+00  0.00000000E+00  0.00000000E+00
