CONTCAR\(11)                            
   1.00000000000000     
    12.8708000183000006    0.0000000000000000    0.0000000000000000
     0.0000000000000000   12.8761997223000009    0.0000000000000000
     0.0000000000000000    0.0000000000000000   24.0524005890000012
   Pr   Te   Se   O    H 
    18    36    18     2     1
Selective dynamics
Direct
  0.1659633611455291  0.0013202527397169  0.5762684347217970   F   F   F
  0.0020117781002114  0.1679155263866718  0.4210003796391533   F   F   F
  0.5007694402807488  0.0016506538723675  0.5767841043580546   F   F   F
  0.3352701327576497  0.1672152764138630  0.4211064678750773   F   F   F
  0.8347821926564549  0.0010724575551961  0.5758995922354515   F   F   F
  0.6689212932164281  0.1673335546119290  0.4206149278187041   F   F   F
  0.1687872030596012  0.3348989288935087  0.5762690144975764   F   F   F
  0.0019345924066556  0.5011252962132957  0.4211476051422167   F   F   F
  0.5039029705857061  0.3291833332452114  0.5743169083820021   F   F   F
  0.3355981145927061  0.5008430345832764  0.4221933443294787   F   F   F
  0.8364503074943173  0.3343204350534137  0.5759968673035374   F   F   F
  0.6685897162062204  0.5011299454147107  0.4215608675465106   F   F   F
  0.1680635792418457  0.6671605225489756  0.5760432691039910   F   F   F
  0.0017696062743084  0.8342870107783540  0.4210450114927511   F   F   F
  0.5036812024604771  0.6736651518810888  0.5741159510190244   F   F   F
  0.3353448169564928  0.8350040979205176  0.4210005279696887   F   F   F
  0.8360171414379636  0.6679138907416942  0.5760457019856773   F   F   F
  0.6687891084715076  0.8347652551686835  0.4206006145691248   F   F   F
  0.1722236274549829  0.1693797179152270  0.6853227448226136   F   F   F
  0.0014093543983833  0.0007661779286749  0.3112130412933496   F   F   F
  0.1682590041804062  0.1674161054226389  0.3112931342355907   F   F   F
  0.9962427171003085  0.0028492735379047  0.6859625266024310   F   F   F
  0.5049242111344441  0.1693327084915524  0.6879764566303166   F   F   F
  0.3350864690065833  0.0010672792526307  0.3112950041973761   F   F   F
  0.5019038479572373  0.1673955254699209  0.3110165492947914   F   F   F
  0.3304232912066709  0.0028873213964715  0.6862411257529786   F   F   F
  0.8385297372673008  0.1680106072800740  0.6863050594137832   F   F   F
  0.6687547938816891  0.0008228616539512  0.3108594119236656   F   F   F
  0.8352812899794486  0.1678253854322307  0.3110312917677263   F   F   F
  0.6666108960903756  0.0001162098066132  0.6860244903018113   F   F   F
  0.1661339475952772  0.5001235985887718  0.6859519071412379   F   F   F
  0.0019179893881400  0.3345649613491659  0.3113632558351682   F   F   F
  0.1691033904788739  0.5008368484741723  0.3118377754215089   F   F   F
  0.0045121136462853  0.3364492415218834  0.6865196334769053   F   F   F
  0.4896294729042481  0.5040171337876629  0.7312151019194815   F   F   F
  0.3347812115923006  0.3340101992065101  0.3116811914840838   F   F   F
  0.5012655492989211  0.5007585515549664  0.3122881849665191   F   F   F
  0.3456883807577285  0.3374878025613555  0.6911231417331081   F   F   F
  0.8280642252316355  0.5022482793866772  0.6868306093529597   F   F   F
  0.6680950834982937  0.3342483089859485  0.3112880155576789   F   F   F
  0.8350918037788446  0.5011028773173578  0.3114682039624483   F   F   F
  0.6658234769158113  0.3389096716609785  0.6838021783014909   F   F   F
  0.1738416036072863  0.8321695704685936  0.6855409007401931   F   F   F
  0.0020613446070925  0.6672397145980966  0.3113180544165957   F   F   F
  0.1680619967744903  0.8340840590610199  0.3114214274812781   F   F   F
  0.0026014107581958  0.6690640403823238  0.6865963815424649   F   F   F
  0.5060997010738078  0.8365053754688816  0.6872512776843678   F   F   F
  0.3351770508249743  0.6677001081599059  0.3118374149474832   F   F   F
  0.5018342823717319  0.8343743688720551  0.3110611538946557   F   F   F
  0.3416082109704419  0.6676197269719140  0.6888610594623756   F   F   F
  0.8382344281771310  0.8335717552705901  0.6864099005055593   F   F   F
  0.6682400869166401  0.6673569969993096  0.3112236745475840   F   F   F
  0.8349604136741462  0.8339976197319601  0.3110152155526222   F   F   F
  0.6643033262606011  0.6621156688821728  0.6856660902455971   F   F   F
  0.1686798662016713  0.0013287850257626  0.4507509603582776   F   F   F
  0.0018967123565119  0.1685338087435611  0.5469192205949440   F   F   F
  0.5020547903084989  0.0012983752934659  0.4509313310349512   F   F   F
  0.3352618637363349  0.1686013652962259  0.5478055671266588   F   F   F
  0.8357176751956032  0.0009958286395957  0.4502355190639733   F   F   F
  0.6692436314324368  0.1667030375534040  0.5468067600334976   F   F   F
  0.1688947565199470  0.3349887827235634  0.4508898670033048   F   F   F
  0.0013904276021250  0.5012490340126590  0.5472511352449274   F   F   F
  0.5021464617059905  0.3332533679873535  0.4499864057832070   F   F   F
  0.3406143589706687  0.5010727908364245  0.5494340891457057   F   F   F
  0.8347955565529617  0.3347392678312815  0.4505017971649039   F   F   F
  0.6643886009878273  0.5013728682348528  0.5481469799243399   F   F   F
  0.1690240801780192  0.6672584091758864  0.4509065142409980   F   F   F
  0.0020795601653916  0.8337931928411564  0.5470756620065700   F   F   F
  0.5019964916199271  0.6688828797906510  0.4499640199223620   F   F   F
  0.3352540192047186  0.8345042007086647  0.5475078138894673   F   F   F
  0.8349822751241476  0.6676516702394579  0.4506039369326587   F   F   F
  0.6692971984256673  0.8350089683758597  0.5469671517764283   F   F   F
  0.3164684285832564  0.5530759955323390  0.8156051312902832   T   T   T
  0.4244315968033519  0.5218406704145622  0.8114091729060746   T   T   T
  0.3231955422193594  0.6282763808706376  0.8210661867826432   T   T   T
 
  0.00000000E+00  0.00000000E+00  0.00000000E+00
  0.00000000E+00  0.00000000E+00  0.00000000E+00
  0.00000000E+00  0.00000000E+00  0.00000000E+00
  0.00000000E+00  0.00000000E+00  0.00000000E+00
  0.00000000E+00  0.00000000E+00  0.00000000E+00
  0.00000000E+00  0.00000000E+00  0.00000000E+00
  0.00000000E+00  0.00000000E+00  0.00000000E+00
  0.00000000E+00  0.00000000E+00  0.00000000E+00
  0.00000000E+00  0.00000000E+00  0.00000000E+00
  0.00000000E+00  0.00000000E+00  0.00000000E+00
  0.00000000E+00  0.00000000E+00  0.00000000E+00
  0.00000000E+00  0.00000000E+00  0.00000000E+00
  0.00000000E+00  0.00000000E+00  0.00000000E+00
  0.00000000E+00  0.00000000E+00  0.00000000E+00
  0.00000000E+00  0.00000000E+00  0.00000000E+00
  0.00000000E+00  0.00000000E+00  0.00000000E+00
  0.00000000E+00  0.00000000E+00  0.00000000E+00
  0.00000000E+00  0.00000000E+00  0.00000000E+00
  0.00000000E+00  0.00000000E+00  0.00000000E+00
  0.00000000E+00  0.00000000E+00  0.00000000E+00
  0.00000000E+00  0.00000000E+00  0.00000000E+00
  0.00000000E+00  0.00000000E+00  0.00000000E+00
  0.00000000E+00  0.00000000E+00  0.00000000E+00
  0.00000000E+00  0.00000000E+00  0.00000000E+00
  0.00000000E+00  0.00000000E+00  0.00000000E+00
  0.00000000E+00  0.00000000E+00  0.00000000E+00
  0.00000000E+00  0.00000000E+00  0.00000000E+00
  0.00000000E+00  0.00000000E+00  0.00000000E+00
  0.00000000E+00  0.00000000E+00  0.00000000E+00
  0.00000000E+00  0.00000000E+00  0.00000000E+00
  0.00000000E+00  0.00000000E+00  0.00000000E+00
  0.00000000E+00  0.00000000E+00  0.00000000E+00
  0.00000000E+00  0.00000000E+00  0.00000000E+00
  0.00000000E+00  0.00000000E+00  0.00000000E+00
  0.00000000E+00  0.00000000E+00  0.00000000E+00
  0.00000000E+00  0.00000000E+00  0.00000000E+00
  0.00000000E+00  0.00000000E+00  0.00000000E+00
  0.00000000E+00  0.00000000E+00  0.00000000E+00
  0.00000000E+00  0.00000000E+00  0.00000000E+00
  0.00000000E+00  0.00000000E+00  0.00000000E+00
  0.00000000E+00  0.00000000E+00  0.00000000E+00
  0.00000000E+00  0.00000000E+00  0.00000000E+00
  0.00000000E+00  0.00000000E+00  0.00000000E+00
  0.00000000E+00  0.00000000E+00  0.00000000E+00
  0.00000000E+00  0.00000000E+00  0.00000000E+00
  0.00000000E+00  0.00000000E+00  0.00000000E+00
  0.00000000E+00  0.00000000E+00  0.00000000E+00
  0.00000000E+00  0.00000000E+00  0.00000000E+00
  0.00000000E+00  0.00000000E+00  0.00000000E+00
  0.00000000E+00  0.00000000E+00  0.00000000E+00
  0.00000000E+00  0.00000000E+00  0.00000000E+00
  0.00000000E+00  0.00000000E+00  0.00000000E+00
  0.00000000E+00  0.00000000E+00  0.00000000E+00
  0.00000000E+00  0.00000000E+00  0.00000000E+00
  0.00000000E+00  0.00000000E+00  0.00000000E+00
  0.00000000E+00  0.00000000E+00  0.00000000E+00
  0.00000000E+00  0.00000000E+00  0.00000000E+00
  0.00000000E+00  0.00000000E+00  0.00000000E+00
  0.00000000E+00  0.00000000E+00  0.00000000E+00
  0.00000000E+00  0.00000000E+00  0.00000000E+00
  0.00000000E+00  0.00000000E+00  0.00000000E+00
  0.00000000E+00  0.00000000E+00  0.00000000E+00
  0.00000000E+00  0.00000000E+00  0.00000000E+00
  0.00000000E+00  0.00000000E+00  0.00000000E+00
  0.00000000E+00  0.00000000E+00  0.00000000E+00
  0.00000000E+00  0.00000000E+00  0.00000000E+00
  0.00000000E+00  0.00000000E+00  0.00000000E+00
  0.00000000E+00  0.00000000E+00  0.00000000E+00
  0.00000000E+00  0.00000000E+00  0.00000000E+00
  0.00000000E+00  0.00000000E+00  0.00000000E+00
  0.00000000E+00  0.00000000E+00  0.00000000E+00
  0.00000000E+00  0.00000000E+00  0.00000000E+00
  0.00000000E+00  0.00000000E+00  0.00000000E+00
  0.00000000E+00  0.00000000E+00  0.00000000E+00
  0.00000000E+00  0.00000000E+00  0.00000000E+00
