CONTCAR\(10)                            
   1.00000000000000     
    12.8632001877000004    0.0000000000000000    0.0000000000000000
     0.0000000000000000   12.8638000487999999    0.0000000000000000
     0.0000000000000000    0.0000000000000000   23.9482994080000005
   Lu   Te   O 
    18    54     1
Direct
  0.1686645760225145  0.0015296670325799  0.5845788988051044
  0.0015695313258187  0.1682610667944300  0.4167426699907280
  0.5026297226973802  0.9978952644364625  0.5828400093222355
  0.3346183433218278  0.1688966483854528  0.4170002015862971
  0.8349367558590959  0.0017632900838998  0.5832285922902554
  0.6686249626220240  0.1683195437481935  0.4156730607149171
  0.1664518775815580  0.3340850676910471  0.5862887955672115
  0.0020933118896535  0.5012377145658250  0.4169773886695505
  0.5064617228466619  0.3347783782973037  0.5819963367887142
  0.3345284723586600  0.5014244643452102  0.4174088330828336
  0.8345127282618948  0.3356116316511866  0.5845618820013946
  0.6686930722655786  0.5016574864417229  0.4158902813991598
  0.1678344581926242  0.6726558213138891  0.5825678393962000
  0.0015306952905704  0.8353068024448432  0.4156219542738732
  0.5002838095763819  0.6664971278315683  0.5838564985360823
  0.3349802276784140  0.8354062041224214  0.4159913253360039
  0.8320118899958198  0.6697480373481357  0.5825981844715779
  0.6681251113431601  0.8347249263768788  0.4155987380254975
  0.0012406251643097  0.0011562839765843  0.3136809563271983
  0.1666525323462866  0.1658209671220894  0.6893734899207329
 -0.0005554495559644 -0.0003875932787133  0.6865786605207728
  0.1677589016209566  0.1679367169347017  0.3145155515213471
  0.1685379214389893  0.0023256193525653  0.4548827326799045
  0.0020290729538943  0.1688888092228781  0.5466580982059763
  0.3348811634475115  0.0018773207766024  0.3139769302818671
  0.5049483418351830  0.1638909642666262  0.6814734032422629
  0.3338811101050331 -0.0007857623434941  0.6869146716805820
  0.5017988708858481  0.1682233585222241  0.3138332999643491
  0.5013466436034496  0.0023632539467090  0.4540174265145429
  0.3348849333221272  0.1694612519574009  0.5473058150941766
  0.6685127253024640  0.0016483000895929  0.3132579190156711
  0.8332958039962538  0.1670886838076364  0.6864059118483441
  0.6691438916027338  0.9962297326240237  0.6855207889782307
  0.8352850814998818  0.1682905041379187  0.3138002861171538
  0.8347836096274823  0.0016623173885278  0.4540710455641238
  0.6693991190306477  0.1678258951610693  0.5449739241329006
  0.0017475890004598  0.3348004212954660  0.3145831381103374
  0.1556460522814824  0.5066240368316051  0.6984636567670963
 -0.0002842332598253  0.3335698311896977  0.6892128088957269
  0.1686057257990437  0.5013648581588982  0.3147514287979033
  0.1678794213979930  0.3347430851538314  0.4560791459663689
  0.0026864013476832  0.5015890477238135  0.5472101064081292
  0.3345190734423820  0.3344316750539861  0.3146347282397114
  0.4982535834261177  0.4954623463715044  0.6863643912626457
  0.3377019760015940  0.3217051616804026  0.6944901624996515
  0.5009880191593876  0.5010341009385447  0.3141098714031636
  0.5023504436407707  0.3353000752543766  0.4540794796097137
  0.3328654301367385  0.5000070476276338  0.5475856500861925
  0.6684260118057905  0.3349496316490842  0.3133341148939584
  0.8323057657700009  0.5011063824704856  0.6865818894844351
  0.6686960581308800  0.3354897060747892  0.6871353526404964
  0.8351893404688647  0.5015450106383015  0.3137730754779357
  0.8352848209933668  0.3349509658839687  0.4549504267201129
  0.6688280970670337  0.5019193159471239  0.5455459120784659
  0.0019910535920736  0.6679660898766976  0.3137877676921736
  0.1672936942771590  0.8369118794205509  0.6872355877125462
  0.9980351794131923  0.6712701391907092  0.6811102260115350
  0.1684697646623082  0.8349431550820159  0.3134061974177348
  0.1683812103557664  0.6688851450004059  0.4542199047588509
  0.0014778539978844  0.8365661558971246  0.5449336383028457
  0.3350761941449713  0.6681071751906024  0.3141502230500203
  0.4989137844605459  0.8316731063819423  0.6862569958354626
  0.3292491129657818  0.6655096601993860  0.6866733587347436
  0.5015467612695736  0.8348223722321916  0.3136437915836725
  0.5013066427575691  0.6678311752434201  0.4545611350643035
  0.3348691180708778  0.8349922530546946  0.5457118209910627
  0.6678187169740094  0.6675839217494042  0.3135180824544572
  0.8290062726505748  0.8357700583109855  0.6857939397592744
  0.6659832619999305  0.6659195104717736  0.6862926582863338
  0.8345744925155126  0.8343737955688527  0.3132053066831485
  0.8357736398863338  0.6678851384773272  0.4539471861085954
  0.6671472219543617  0.8338558596062472  0.5446775238803169
  0.2582407470850889  0.4210549485261367  0.7438265584631233
 
  0.00000000E+00  0.00000000E+00  0.00000000E+00
  0.00000000E+00  0.00000000E+00  0.00000000E+00
  0.00000000E+00  0.00000000E+00  0.00000000E+00
  0.00000000E+00  0.00000000E+00  0.00000000E+00
  0.00000000E+00  0.00000000E+00  0.00000000E+00
  0.00000000E+00  0.00000000E+00  0.00000000E+00
  0.00000000E+00  0.00000000E+00  0.00000000E+00
  0.00000000E+00  0.00000000E+00  0.00000000E+00
  0.00000000E+00  0.00000000E+00  0.00000000E+00
  0.00000000E+00  0.00000000E+00  0.00000000E+00
  0.00000000E+00  0.00000000E+00  0.00000000E+00
  0.00000000E+00  0.00000000E+00  0.00000000E+00
  0.00000000E+00  0.00000000E+00  0.00000000E+00
  0.00000000E+00  0.00000000E+00  0.00000000E+00
  0.00000000E+00  0.00000000E+00  0.00000000E+00
  0.00000000E+00  0.00000000E+00  0.00000000E+00
  0.00000000E+00  0.00000000E+00  0.00000000E+00
  0.00000000E+00  0.00000000E+00  0.00000000E+00
  0.00000000E+00  0.00000000E+00  0.00000000E+00
  0.00000000E+00  0.00000000E+00  0.00000000E+00
  0.00000000E+00  0.00000000E+00  0.00000000E+00
  0.00000000E+00  0.00000000E+00  0.00000000E+00
  0.00000000E+00  0.00000000E+00  0.00000000E+00
  0.00000000E+00  0.00000000E+00  0.00000000E+00
  0.00000000E+00  0.00000000E+00  0.00000000E+00
  0.00000000E+00  0.00000000E+00  0.00000000E+00
  0.00000000E+00  0.00000000E+00  0.00000000E+00
  0.00000000E+00  0.00000000E+00  0.00000000E+00
  0.00000000E+00  0.00000000E+00  0.00000000E+00
  0.00000000E+00  0.00000000E+00  0.00000000E+00
  0.00000000E+00  0.00000000E+00  0.00000000E+00
  0.00000000E+00  0.00000000E+00  0.00000000E+00
  0.00000000E+00  0.00000000E+00  0.00000000E+00
  0.00000000E+00  0.00000000E+00  0.00000000E+00
  0.00000000E+00  0.00000000E+00  0.00000000E+00
  0.00000000E+00  0.00000000E+00  0.00000000E+00
  0.00000000E+00  0.00000000E+00  0.00000000E+00
  0.00000000E+00  0.00000000E+00  0.00000000E+00
  0.00000000E+00  0.00000000E+00  0.00000000E+00
  0.00000000E+00  0.00000000E+00  0.00000000E+00
  0.00000000E+00  0.00000000E+00  0.00000000E+00
  0.00000000E+00  0.00000000E+00  0.00000000E+00
  0.00000000E+00  0.00000000E+00  0.00000000E+00
  0.00000000E+00  0.00000000E+00  0.00000000E+00
  0.00000000E+00  0.00000000E+00  0.00000000E+00
  0.00000000E+00  0.00000000E+00  0.00000000E+00
  0.00000000E+00  0.00000000E+00  0.00000000E+00
  0.00000000E+00  0.00000000E+00  0.00000000E+00
  0.00000000E+00  0.00000000E+00  0.00000000E+00
  0.00000000E+00  0.00000000E+00  0.00000000E+00
  0.00000000E+00  0.00000000E+00  0.00000000E+00
  0.00000000E+00  0.00000000E+00  0.00000000E+00
  0.00000000E+00  0.00000000E+00  0.00000000E+00
  0.00000000E+00  0.00000000E+00  0.00000000E+00
  0.00000000E+00  0.00000000E+00  0.00000000E+00
  0.00000000E+00  0.00000000E+00  0.00000000E+00
  0.00000000E+00  0.00000000E+00  0.00000000E+00
  0.00000000E+00  0.00000000E+00  0.00000000E+00
  0.00000000E+00  0.00000000E+00  0.00000000E+00
  0.00000000E+00  0.00000000E+00  0.00000000E+00
  0.00000000E+00  0.00000000E+00  0.00000000E+00
  0.00000000E+00  0.00000000E+00  0.00000000E+00
  0.00000000E+00  0.00000000E+00  0.00000000E+00
  0.00000000E+00  0.00000000E+00  0.00000000E+00
  0.00000000E+00  0.00000000E+00  0.00000000E+00
  0.00000000E+00  0.00000000E+00  0.00000000E+00
  0.00000000E+00  0.00000000E+00  0.00000000E+00
  0.00000000E+00  0.00000000E+00  0.00000000E+00
  0.00000000E+00  0.00000000E+00  0.00000000E+00
  0.00000000E+00  0.00000000E+00  0.00000000E+00
  0.00000000E+00  0.00000000E+00  0.00000000E+00
  0.00000000E+00  0.00000000E+00  0.00000000E+00
  0.00000000E+00  0.00000000E+00  0.00000000E+00
