CONTCAR\(10)                            
   1.00000000000000     
    13.7902002335000002    0.0000000000000000    0.0000000000000000
     6.8951001167000001   11.9426637253999992    0.0000000000000000
     0.0000000000000000    0.0000000000000000   18.3700008391999994
   Nb   Se   O    H 
    16    32     1     1
Direct
  0.0882368468549181  0.0846882606894523  0.5028075148665658
  0.3291080214450592  0.0843316909309835  0.5030479772661279
  0.5861406754961017  0.0819852420099558  0.5037192470640918
  0.8339587756849381  0.0820827761340196  0.5035920248804627
  0.0842965987137405  0.3327646507480531  0.5028919444487266
  0.3289390572584843  0.3368153532820190  0.5031639942601044
  0.5842273431093171  0.3332492143221896  0.5031559568509809
  0.8356649946124248  0.3369869626299852  0.5032485082550254
  0.0880953095950446  0.5773617867064778  0.5030240437371231
  0.3250088391288006  0.5743091679324369  0.5023856239043768
  0.6017467640815970  0.5743245643138961  0.5027885959444052
  0.8358215247938058  0.5773322883051959  0.5032231457420839
  0.0844498903468748  0.8329858088478126  0.5025579257636106
  0.3253475758143131  0.8509579018786708  0.5023619245784881
  0.5843595792970058  0.8327976494833593  0.5031289471152228
  0.8338919549755952  0.8341469170031569  0.5037017552582095
  0.1668357032370766  0.1680423296158254  0.5963982207450154
  0.1670833983543888  0.1680268472809653  0.4094330187731792
  0.4171640307772231  0.1664561912115386  0.5930922519331974
  0.4179829823375474  0.1662497531607963  0.4134888451468327
  0.6676432859625814  0.1669215489720775  0.5953268040219527
  0.6678611678793912  0.1661276118369588  0.4118257565577228
  0.9183111801512844  0.1665567311819608  0.5930782065004300
  0.9174136244863703  0.1666923377398939  0.4133498425634858
  0.1666296698898875  0.4150954349273384  0.5964161747816961
  0.1668851580482764  0.4152833552942731  0.4096284133352444
  0.4179857997125910  0.4138961397754112  0.5956896037962640
  0.4186655462274355  0.4128415137198984  0.4104096544526431
  0.6697152064549435  0.4137136003979396  0.5960074524177339
  0.6698265007519240  0.4131581667797256  0.4104882382040592
  0.9197959858058739  0.4150697325720654  0.5965943659289207
  0.9191348376297614  0.4153663970095496  0.4096381516114218
  0.1647282127691134  0.6668525629046940  0.5954644947684723
  0.1637225537300651  0.6673903266325055  0.4101163635558624
  0.4187405493525767  0.6657107779823601  0.5787117764708768
  0.4172493503894786  0.6665600654698325  0.4241961887541028
  0.6699227182831404  0.6666886180282573  0.5959266356752696
  0.6699557880178818  0.6674876784492182  0.4105168427520300
  0.9182088782720192  0.6652804154999509  0.5931746063556705
  0.9174907612559399  0.6661545166220471  0.4134142985752476
  0.1649151322550800  0.9186622375688507  0.5953103001259137
  0.1641410025730141  0.9189024922854029  0.4099709220546422
  0.4181344518889716  0.9183737085404038  0.5957338395885812
  0.4190232404672921  0.9186530286282626  0.4102729809138109
  0.6675636874624660  0.9155755890708587  0.5953680830522405
  0.6680612789299469  0.9162583155239480  0.4117363707830980
  0.9188548522989605  0.9156735284667650  0.5951739930572747
  0.9171742334505177  0.9163627179004606  0.4113999906748496
  0.4325176916990117  0.6587299006939699  0.6778686612518776
  0.3569265109899604  0.6929467550383784  0.6990202158846966
 
  0.00000000E+00  0.00000000E+00  0.00000000E+00
  0.00000000E+00  0.00000000E+00  0.00000000E+00
  0.00000000E+00  0.00000000E+00  0.00000000E+00
  0.00000000E+00  0.00000000E+00  0.00000000E+00
  0.00000000E+00  0.00000000E+00  0.00000000E+00
  0.00000000E+00  0.00000000E+00  0.00000000E+00
  0.00000000E+00  0.00000000E+00  0.00000000E+00
  0.00000000E+00  0.00000000E+00  0.00000000E+00
  0.00000000E+00  0.00000000E+00  0.00000000E+00
  0.00000000E+00  0.00000000E+00  0.00000000E+00
  0.00000000E+00  0.00000000E+00  0.00000000E+00
  0.00000000E+00  0.00000000E+00  0.00000000E+00
  0.00000000E+00  0.00000000E+00  0.00000000E+00
  0.00000000E+00  0.00000000E+00  0.00000000E+00
  0.00000000E+00  0.00000000E+00  0.00000000E+00
  0.00000000E+00  0.00000000E+00  0.00000000E+00
  0.00000000E+00  0.00000000E+00  0.00000000E+00
  0.00000000E+00  0.00000000E+00  0.00000000E+00
  0.00000000E+00  0.00000000E+00  0.00000000E+00
  0.00000000E+00  0.00000000E+00  0.00000000E+00
  0.00000000E+00  0.00000000E+00  0.00000000E+00
  0.00000000E+00  0.00000000E+00  0.00000000E+00
  0.00000000E+00  0.00000000E+00  0.00000000E+00
  0.00000000E+00  0.00000000E+00  0.00000000E+00
  0.00000000E+00  0.00000000E+00  0.00000000E+00
  0.00000000E+00  0.00000000E+00  0.00000000E+00
  0.00000000E+00  0.00000000E+00  0.00000000E+00
  0.00000000E+00  0.00000000E+00  0.00000000E+00
  0.00000000E+00  0.00000000E+00  0.00000000E+00
  0.00000000E+00  0.00000000E+00  0.00000000E+00
  0.00000000E+00  0.00000000E+00  0.00000000E+00
  0.00000000E+00  0.00000000E+00  0.00000000E+00
  0.00000000E+00  0.00000000E+00  0.00000000E+00
  0.00000000E+00  0.00000000E+00  0.00000000E+00
  0.00000000E+00  0.00000000E+00  0.00000000E+00
  0.00000000E+00  0.00000000E+00  0.00000000E+00
  0.00000000E+00  0.00000000E+00  0.00000000E+00
  0.00000000E+00  0.00000000E+00  0.00000000E+00
  0.00000000E+00  0.00000000E+00  0.00000000E+00
  0.00000000E+00  0.00000000E+00  0.00000000E+00
  0.00000000E+00  0.00000000E+00  0.00000000E+00
  0.00000000E+00  0.00000000E+00  0.00000000E+00
  0.00000000E+00  0.00000000E+00  0.00000000E+00
  0.00000000E+00  0.00000000E+00  0.00000000E+00
  0.00000000E+00  0.00000000E+00  0.00000000E+00
  0.00000000E+00  0.00000000E+00  0.00000000E+00
  0.00000000E+00  0.00000000E+00  0.00000000E+00
  0.00000000E+00  0.00000000E+00  0.00000000E+00
  0.00000000E+00  0.00000000E+00  0.00000000E+00
  0.00000000E+00  0.00000000E+00  0.00000000E+00
