CONTCAR\(9)                             
   1.00000000000000     
    12.6978998183999998    0.0000000000000000    0.0000000000000000
     0.0000000000000000   11.4748001099000003    0.0000000000000000
     0.0000000000000000    0.0000000000000000   18.8323001862000012
   Ta   Si   Te   O    H 
    12     4    24     1     1
Direct
  0.3292094722991763  0.5888631580174675  0.5030437123949909
  0.0829294124825850  0.4145155540842467  0.5032970901491396
  0.4854076212141152  0.9386680014593338  0.5026483886528013
  0.2353268380695184  0.0614716228062235  0.5024122723262039
  0.3467299101609171  0.2814502657596236  0.5026591013552988
  0.0984549311083001  0.7158289160624989  0.5027930657608408
  0.8308127481990084  0.5831972145133477  0.5034827701594295
  0.5915638641410439  0.4159104807073390  0.5036088111799089
  0.9839602131204757  0.9381306670178802  0.5025355541396337
  0.7351090579176756  0.0618742187225578  0.5027435488882475
  0.8471481843692246  0.2857141694249421  0.5031677740790528
  0.5987827983938914  0.7156435441663618  0.5034757860914212
  0.2879859538824547  0.8261479051056355  0.5023760696472621
  0.0379884656965146  0.1755581215478301  0.5024275957025708
  0.7884276979648277  0.8243799030122645  0.5029175263738423
  0.5390902163706670  0.1746228577894016  0.5023668727054798
  0.3992265230811185  0.0944825236332605  0.6031533472587185
  0.1480802044803653  0.9053574347416031  0.4022597508360803
  0.1482612518297728  0.9061621834286555  0.6026420145760198
  0.3998036760285686  0.0947670724026253  0.4018781979024340
  0.4272323759310197  0.7496809788853014  0.6002098688164139
  0.1769974758262123  0.2529148132991708  0.4049284124838337
  0.1774781435967157  0.2520632098129241  0.6005209623923307
  0.4277065829152349  0.7472892508690023  0.4057944148758565
  0.4237486249576179  0.4342244600368375  0.5952154531738501
  0.1729627592705469  0.5666987048904204  0.3998646604376006
  0.1712327490411809  0.5675705703046745  0.6064031843694764
  0.4260652369259645  0.4354181864302618  0.4022665533682925
  0.8995006886598489  0.0945273139440630  0.6028160229513730
  0.6493047674425085  0.9051422391485815  0.4026103100178204
  0.6493230936253767  0.9062838515156599  0.6031015230153471
  0.8991962158121609  0.0954023197349017  0.4025446421581762
  0.9271124813175149  0.7463533068431119  0.5998304714730338
  0.6770885303715843  0.2526046845526082  0.4047750371716390
  0.6776276928916758  0.2510469400156907  0.6011974235455995
  0.9267100818647904  0.7454863966621446  0.4059908161334391
  0.9240923562479182  0.4319894028222535  0.6062009601657721
  0.6744432556998561  0.5683643600046011  0.3994941635807407
  0.6753182907896331  0.5698118749189973  0.6081319047361191
  0.9238719383198202  0.4327235209775040  0.4004826177621723
  0.4061849855099950  0.4082145883321786  0.7018673719914119
  0.4475026081725773  0.4681030595959825  0.7263140872003007
 
  0.00000000E+00  0.00000000E+00  0.00000000E+00
  0.00000000E+00  0.00000000E+00  0.00000000E+00
  0.00000000E+00  0.00000000E+00  0.00000000E+00
  0.00000000E+00  0.00000000E+00  0.00000000E+00
  0.00000000E+00  0.00000000E+00  0.00000000E+00
  0.00000000E+00  0.00000000E+00  0.00000000E+00
  0.00000000E+00  0.00000000E+00  0.00000000E+00
  0.00000000E+00  0.00000000E+00  0.00000000E+00
  0.00000000E+00  0.00000000E+00  0.00000000E+00
  0.00000000E+00  0.00000000E+00  0.00000000E+00
  0.00000000E+00  0.00000000E+00  0.00000000E+00
  0.00000000E+00  0.00000000E+00  0.00000000E+00
  0.00000000E+00  0.00000000E+00  0.00000000E+00
  0.00000000E+00  0.00000000E+00  0.00000000E+00
  0.00000000E+00  0.00000000E+00  0.00000000E+00
  0.00000000E+00  0.00000000E+00  0.00000000E+00
  0.00000000E+00  0.00000000E+00  0.00000000E+00
  0.00000000E+00  0.00000000E+00  0.00000000E+00
  0.00000000E+00  0.00000000E+00  0.00000000E+00
  0.00000000E+00  0.00000000E+00  0.00000000E+00
  0.00000000E+00  0.00000000E+00  0.00000000E+00
  0.00000000E+00  0.00000000E+00  0.00000000E+00
  0.00000000E+00  0.00000000E+00  0.00000000E+00
  0.00000000E+00  0.00000000E+00  0.00000000E+00
  0.00000000E+00  0.00000000E+00  0.00000000E+00
  0.00000000E+00  0.00000000E+00  0.00000000E+00
  0.00000000E+00  0.00000000E+00  0.00000000E+00
  0.00000000E+00  0.00000000E+00  0.00000000E+00
  0.00000000E+00  0.00000000E+00  0.00000000E+00
  0.00000000E+00  0.00000000E+00  0.00000000E+00
  0.00000000E+00  0.00000000E+00  0.00000000E+00
  0.00000000E+00  0.00000000E+00  0.00000000E+00
  0.00000000E+00  0.00000000E+00  0.00000000E+00
  0.00000000E+00  0.00000000E+00  0.00000000E+00
  0.00000000E+00  0.00000000E+00  0.00000000E+00
  0.00000000E+00  0.00000000E+00  0.00000000E+00
  0.00000000E+00  0.00000000E+00  0.00000000E+00
  0.00000000E+00  0.00000000E+00  0.00000000E+00
  0.00000000E+00  0.00000000E+00  0.00000000E+00
  0.00000000E+00  0.00000000E+00  0.00000000E+00
  0.00000000E+00  0.00000000E+00  0.00000000E+00
  0.00000000E+00  0.00000000E+00  0.00000000E+00
