CONTCAR\(10)                            
   1.00000000000000     
    12.0853004455999997    0.0000000000000000    0.0000000000000000
     0.0000000000000000   13.7131004332999993    0.0000000000000000
     0.0000000000000000    0.0000000000000000   20.3784999846999995
   Zr   Te   O    H 
     6    30     1     1
Direct
  0.9938966835776171  0.5000678968166170  0.4593338036556176
  0.1674864660413675  0.0000971984874525  0.5475895801409152
  0.3344938964154309  0.5000801598021880  0.4224358005052977
  0.5013799371887231  0.0001486375002315  0.5479491525476661
  0.6757858361835360  0.5000998406751975  0.4599945383380302
  0.8342121077597398  0.0000971427634298  0.5530349695762311
  0.1796386387740441  0.5001479493897421  0.5533920892558655
  0.9965488724214921  0.0001831819310425  0.4401944166106944
  0.1352480667740039  0.6025161084349762  0.3663182005930707
  0.0035000918845327  0.8984927457720246  0.6324657713740294
  0.0035511859445236  0.1015705255127770  0.6325717543655927
  0.1353072071716781  0.3975992947968336  0.3663484580419833
  0.0019837718230278  0.3141305659507552  0.5333329857248543
  0.1653820580103513  0.1842851723305898  0.4686958696293786
  0.1654284223850055  0.8160442105984771  0.4684748153200715
  0.0022150626281245  0.6861087085239603  0.5332113028871746
  0.4902942696365784  0.5002821816313627  0.5543305264479841
  0.3344683581884240  0.0001339421547684  0.4372715960948668
  0.5357512927724386  0.6013553214849665  0.3657924446226559
  0.3341877047514359  0.8988947098802385  0.6295075637522132
  0.3342241958109824  0.1011255692570785  0.6296164993879643
  0.5356913673985773  0.3986773147348543  0.3658645443199475
  0.3351532615836419  0.3243590706089918  0.5159306694304178
  0.5036412667653565  0.1838578604078549  0.4688237332598533
  0.5036591393137044  0.8166513796945338  0.4685986007103651
  0.3351727865801095  0.6759477038081414  0.5158063097026613
  0.8357025148839412  0.5000511140774577  0.5711879759885008
  0.6720404566245080  0.0003625623130787  0.4402932540194016
  0.8341696072346210  0.6006271588261924  0.3728531042895611
  0.6653017910315882  0.8984146627800556  0.6327125706915879
  0.6654122551435009  0.1016136203220626  0.6328727691757905
  0.8341667296109918  0.3994508246399135  0.3728981987487714
  0.6666192403159314  0.3138417604059427  0.5336994946222831
  0.8341596135674791  0.1829873366514505  0.4751850556304404
  0.8341264552109351  0.8172257339118403  0.4751173710265064
  0.6665473618230493  0.6865189074215721  0.5335425933807585
  0.3445614905482373  0.5001125723904281  0.3196782307037580
  0.2797705602207898  0.5000793323109107  0.2912235234272771
 
  0.00000000E+00  0.00000000E+00  0.00000000E+00
  0.00000000E+00  0.00000000E+00  0.00000000E+00
  0.00000000E+00  0.00000000E+00  0.00000000E+00
  0.00000000E+00  0.00000000E+00  0.00000000E+00
  0.00000000E+00  0.00000000E+00  0.00000000E+00
  0.00000000E+00  0.00000000E+00  0.00000000E+00
  0.00000000E+00  0.00000000E+00  0.00000000E+00
  0.00000000E+00  0.00000000E+00  0.00000000E+00
  0.00000000E+00  0.00000000E+00  0.00000000E+00
  0.00000000E+00  0.00000000E+00  0.00000000E+00
  0.00000000E+00  0.00000000E+00  0.00000000E+00
  0.00000000E+00  0.00000000E+00  0.00000000E+00
  0.00000000E+00  0.00000000E+00  0.00000000E+00
  0.00000000E+00  0.00000000E+00  0.00000000E+00
  0.00000000E+00  0.00000000E+00  0.00000000E+00
  0.00000000E+00  0.00000000E+00  0.00000000E+00
  0.00000000E+00  0.00000000E+00  0.00000000E+00
  0.00000000E+00  0.00000000E+00  0.00000000E+00
  0.00000000E+00  0.00000000E+00  0.00000000E+00
  0.00000000E+00  0.00000000E+00  0.00000000E+00
  0.00000000E+00  0.00000000E+00  0.00000000E+00
  0.00000000E+00  0.00000000E+00  0.00000000E+00
  0.00000000E+00  0.00000000E+00  0.00000000E+00
  0.00000000E+00  0.00000000E+00  0.00000000E+00
  0.00000000E+00  0.00000000E+00  0.00000000E+00
  0.00000000E+00  0.00000000E+00  0.00000000E+00
  0.00000000E+00  0.00000000E+00  0.00000000E+00
  0.00000000E+00  0.00000000E+00  0.00000000E+00
  0.00000000E+00  0.00000000E+00  0.00000000E+00
  0.00000000E+00  0.00000000E+00  0.00000000E+00
  0.00000000E+00  0.00000000E+00  0.00000000E+00
  0.00000000E+00  0.00000000E+00  0.00000000E+00
  0.00000000E+00  0.00000000E+00  0.00000000E+00
  0.00000000E+00  0.00000000E+00  0.00000000E+00
  0.00000000E+00  0.00000000E+00  0.00000000E+00
  0.00000000E+00  0.00000000E+00  0.00000000E+00
  0.00000000E+00  0.00000000E+00  0.00000000E+00
  0.00000000E+00  0.00000000E+00  0.00000000E+00
