CONTCAR\(2)                             
   1.00000000000000     
    12.0102996825999995    0.0000000000000000    0.0000000000000000
     6.0051318362000004   10.4012350274000003    0.0000000000000000
     0.0000000000000000    0.0000000000000000   17.7192001342999994
   V    Cl   O    H 
     8    24     1     1
Direct
  0.1677072126425330  0.1678202446276202  0.4966190662024133
  0.9988811502312771  0.9974490796256816  0.4962939811162386
  0.6675066277232986  0.1675259852641560  0.4962883638496152
  0.5008447027116105  0.9998756082916174  0.4963214994007998
  0.1677797445672340  0.6657857652841628  0.4967151311382949
  0.9986404945346337  0.5005178493534501  0.4966204922261852
  0.6649726616162823  0.6659949117584389  0.4970389144613421
  0.5001933362438464  0.5000121192781464  0.4975772044841449
  0.0110573290749088  0.1574675350115839  0.5717565238299755
  0.3313341306726159  0.0137743840499951  0.5744217023548117
  0.0130521224295919  0.3309512869431757  0.4185407622149668
  0.3312174465601103  0.1576474478871859  0.4192345103229087
  0.1585314743953461  0.0106357646914077  0.4210968334465477
  0.1563297495014098  0.3315892778978622  0.5740270827327905
  0.5097662227833837  0.1577314714044817  0.5729154466464053
  0.8331376035120712  0.0101606261660763  0.5740913345692888
  0.5099968204915797  0.3335174005151913  0.4191014862532398
  0.8342539945790932  0.1555684932186594  0.4182589844310485
  0.6567254884838434  0.0099998649021842  0.4190892971654634
  0.6579555946886444  0.3323750857963148  0.5722323238917397
  0.0100659518887340  0.6561199115406424  0.5736219352915626
  0.3330686167535077  0.5098644445314662  0.5729698240594701
  0.0106091869053699  0.8321604759776235  0.4185259497968872
  0.3335978139604592  0.6563514390254994  0.4190957601518264
  0.1568067271908120  0.5091966199426707  0.4196840425593393
  0.1569964147310046  0.8328863254311187  0.5738418699850811
  0.5090630171416848  0.6575640656801554  0.5728689269749623
  0.8326290368461073  0.5087372953829927  0.5733451780542111
  0.5091796327556821  0.8337196035846901  0.4194209995416003
  0.8325523855110433  0.6562210154938271  0.4194482179650834
  0.6562943370058036  0.5097781669847095  0.4188166486093223
  0.6557509832514228  0.8332622297095540  0.5737938911495490
  0.5085098924183669  0.4988405916019403  0.7066164524471930
  0.4942822401966751  0.5088572691457145  0.7613696606756619
 
  0.00000000E+00  0.00000000E+00  0.00000000E+00
  0.00000000E+00  0.00000000E+00  0.00000000E+00
  0.00000000E+00  0.00000000E+00  0.00000000E+00
  0.00000000E+00  0.00000000E+00  0.00000000E+00
  0.00000000E+00  0.00000000E+00  0.00000000E+00
  0.00000000E+00  0.00000000E+00  0.00000000E+00
  0.00000000E+00  0.00000000E+00  0.00000000E+00
  0.00000000E+00  0.00000000E+00  0.00000000E+00
  0.00000000E+00  0.00000000E+00  0.00000000E+00
  0.00000000E+00  0.00000000E+00  0.00000000E+00
  0.00000000E+00  0.00000000E+00  0.00000000E+00
  0.00000000E+00  0.00000000E+00  0.00000000E+00
  0.00000000E+00  0.00000000E+00  0.00000000E+00
  0.00000000E+00  0.00000000E+00  0.00000000E+00
  0.00000000E+00  0.00000000E+00  0.00000000E+00
  0.00000000E+00  0.00000000E+00  0.00000000E+00
  0.00000000E+00  0.00000000E+00  0.00000000E+00
  0.00000000E+00  0.00000000E+00  0.00000000E+00
  0.00000000E+00  0.00000000E+00  0.00000000E+00
  0.00000000E+00  0.00000000E+00  0.00000000E+00
  0.00000000E+00  0.00000000E+00  0.00000000E+00
  0.00000000E+00  0.00000000E+00  0.00000000E+00
  0.00000000E+00  0.00000000E+00  0.00000000E+00
  0.00000000E+00  0.00000000E+00  0.00000000E+00
  0.00000000E+00  0.00000000E+00  0.00000000E+00
  0.00000000E+00  0.00000000E+00  0.00000000E+00
  0.00000000E+00  0.00000000E+00  0.00000000E+00
  0.00000000E+00  0.00000000E+00  0.00000000E+00
  0.00000000E+00  0.00000000E+00  0.00000000E+00
  0.00000000E+00  0.00000000E+00  0.00000000E+00
  0.00000000E+00  0.00000000E+00  0.00000000E+00
  0.00000000E+00  0.00000000E+00  0.00000000E+00
  0.00000000E+00  0.00000000E+00  0.00000000E+00
  0.00000000E+00  0.00000000E+00  0.00000000E+00
