CONTCAR                                 
   1.00000000000000     
    11.7709999084000003    0.0000000000000000    0.0000000000000000
    -5.8855350711999996   11.1688637170000007    0.0000000000000000
     0.0000000000000000    0.0000000000000000   18.2658004761000008
   Cr   I    O    H 
     9    18     1     1
Direct
  0.0121657545074731 -0.0005334156550351  0.4998158596715969
  0.3438817848227910 -0.0025305079563441  0.5001196530721649
  0.6766805711645424 -0.0013203116700648  0.5006209570795630
  0.0144122126024909  0.3363014357833081  0.4974101631090470
  0.3453342653697298  0.3305517805519484  0.4970294143324342
  0.6783415590076848  0.3306959006867746  0.4975390307764405
  0.0146490207807025  0.6677704866914693  0.5028417906201837
  0.3450088522731610  0.6649497834313836  0.5018899708359188
  0.6790203285636444  0.6651335975217382  0.5008910374002082
  0.1361081135989604  0.2440252310881071  0.5886030570998473
  0.2224053886051109  0.0853311303812797  0.4083353466026531
  0.4676439484727877  0.2428527102327151  0.5887047780347417
  0.5538790037481325  0.0849477997850631  0.4087683644107027
  0.8011738062029055  0.2446751078762267  0.5892049076341871
  0.8936416733963899  0.0982502529166152  0.4126502127963538
  0.1224466695003298  0.5523404049584303  0.5825157332301962
  0.2239605731145747  0.4185051409963092  0.4053966834852113
  0.4674450419281210  0.5756027775715284  0.5908273983789736
  0.5570950900433372  0.4205381571342360  0.4073528317836219
  0.8017357334683509  0.5768347353783241  0.5911270503707908
  0.8870223574846994  0.4190139102914090  0.4056973719763034
  0.1307482421870885  0.9066634814605836  0.5880368860976298
  0.2212070342852882  0.7495287245700486  0.4095821509517497
  0.4647664848570758  0.9057108637280766  0.5888419753294352
  0.5579269719826641  0.7554145911397856  0.4106521072189353
  0.8015671929067099  0.9127124051687492  0.5913767046741217
  0.8908464971464330  0.7574616747021783  0.4110622665027835
  0.2049793888615865  0.7318571172637597  0.6626288078521153
  0.1683263731172309  0.7045347619714212  0.7113573136721014
 
  0.00000000E+00  0.00000000E+00  0.00000000E+00
  0.00000000E+00  0.00000000E+00  0.00000000E+00
  0.00000000E+00  0.00000000E+00  0.00000000E+00
  0.00000000E+00  0.00000000E+00  0.00000000E+00
  0.00000000E+00  0.00000000E+00  0.00000000E+00
  0.00000000E+00  0.00000000E+00  0.00000000E+00
  0.00000000E+00  0.00000000E+00  0.00000000E+00
  0.00000000E+00  0.00000000E+00  0.00000000E+00
  0.00000000E+00  0.00000000E+00  0.00000000E+00
  0.00000000E+00  0.00000000E+00  0.00000000E+00
  0.00000000E+00  0.00000000E+00  0.00000000E+00
  0.00000000E+00  0.00000000E+00  0.00000000E+00
  0.00000000E+00  0.00000000E+00  0.00000000E+00
  0.00000000E+00  0.00000000E+00  0.00000000E+00
  0.00000000E+00  0.00000000E+00  0.00000000E+00
  0.00000000E+00  0.00000000E+00  0.00000000E+00
  0.00000000E+00  0.00000000E+00  0.00000000E+00
  0.00000000E+00  0.00000000E+00  0.00000000E+00
  0.00000000E+00  0.00000000E+00  0.00000000E+00
  0.00000000E+00  0.00000000E+00  0.00000000E+00
  0.00000000E+00  0.00000000E+00  0.00000000E+00
  0.00000000E+00  0.00000000E+00  0.00000000E+00
  0.00000000E+00  0.00000000E+00  0.00000000E+00
  0.00000000E+00  0.00000000E+00  0.00000000E+00
  0.00000000E+00  0.00000000E+00  0.00000000E+00
  0.00000000E+00  0.00000000E+00  0.00000000E+00
  0.00000000E+00  0.00000000E+00  0.00000000E+00
  0.00000000E+00  0.00000000E+00  0.00000000E+00
  0.00000000E+00  0.00000000E+00  0.00000000E+00
