 Ti1 Br2                                
   1.00000000000000     
     3.7070056280408439    0.0000000000000000    0.0000000000000000
    -1.8535033101143907    3.2103583940239684    0.0000000000000000
     0.0000000000000000    0.0000000000000000   18.1966320376600024
   Ti   Br
     1     2
Direct
  0.0000000064823240  0.0000000035857894  0.4999999944094924
  0.3333333127570697  0.6666667988241244  0.4120133336528582
  0.6666666807606063  0.3333331975900862  0.5879866719376494
 
  0.00000000E+00  0.00000000E+00  0.00000000E+00
  0.00000000E+00  0.00000000E+00  0.00000000E+00
  0.00000000E+00  0.00000000E+00  0.00000000E+00
