G   63   63    1    0.005     # Parameters to Generate KPOINTS (Don't Edit This Line)
     363
Reciprocal lattice
    0.000000000000    0.000000000000    0.000000000000       1
    0.015873015873    0.000000000000    0.000000000000       6
    0.031746031746    0.000000000000    0.000000000000       6
    0.047619047619    0.000000000000    0.000000000000       6
    0.063492063492    0.000000000000    0.000000000000       6
    0.079365079365    0.000000000000    0.000000000000       6
    0.095238095238    0.000000000000    0.000000000000       6
    0.111111111111    0.000000000000    0.000000000000       6
    0.126984126984    0.000000000000    0.000000000000       6
    0.142857142857    0.000000000000    0.000000000000       6
    0.158730158730    0.000000000000    0.000000000000       6
    0.174603174603    0.000000000000    0.000000000000       6
    0.190476190476    0.000000000000    0.000000000000       6
    0.206349206349    0.000000000000    0.000000000000       6
    0.222222222222    0.000000000000    0.000000000000       6
    0.238095238095    0.000000000000    0.000000000000       6
    0.253968253968    0.000000000000    0.000000000000       6
    0.269841269841    0.000000000000    0.000000000000       6
    0.285714285714    0.000000000000    0.000000000000       6
    0.301587301587    0.000000000000    0.000000000000       6
    0.317460317460    0.000000000000    0.000000000000       6
    0.333333333333    0.000000000000    0.000000000000       6
    0.349206349206    0.000000000000    0.000000000000       6
    0.365079365079    0.000000000000    0.000000000000       6
    0.380952380952    0.000000000000    0.000000000000       6
    0.396825396825    0.000000000000    0.000000000000       6
    0.412698412698    0.000000000000    0.000000000000       6
    0.428571428571    0.000000000000    0.000000000000       6
    0.444444444444    0.000000000000    0.000000000000       6
    0.460317460317    0.000000000000    0.000000000000       6
    0.476190476190    0.000000000000    0.000000000000       6
    0.492063492063    0.000000000000    0.000000000000       6
    0.015873015873    0.015873015873    0.000000000000       6
    0.031746031746    0.015873015873    0.000000000000      12
    0.047619047619    0.015873015873    0.000000000000      12
    0.063492063492    0.015873015873    0.000000000000      12
    0.079365079365    0.015873015873    0.000000000000      12
    0.095238095238    0.015873015873    0.000000000000      12
    0.111111111111    0.015873015873    0.000000000000      12
    0.126984126984    0.015873015873    0.000000000000      12
    0.142857142857    0.015873015873    0.000000000000      12
    0.158730158730    0.015873015873    0.000000000000      12
    0.174603174603    0.015873015873    0.000000000000      12
    0.190476190476    0.015873015873    0.000000000000      12
    0.206349206349    0.015873015873    0.000000000000      12
    0.222222222222    0.015873015873    0.000000000000      12
    0.238095238095    0.015873015873    0.000000000000      12
    0.253968253968    0.015873015873    0.000000000000      12
    0.269841269841    0.015873015873    0.000000000000      12
    0.285714285714    0.015873015873    0.000000000000      12
    0.301587301587    0.015873015873    0.000000000000      12
    0.317460317460    0.015873015873    0.000000000000      12
    0.333333333333    0.015873015873    0.000000000000      12
    0.349206349206    0.015873015873    0.000000000000      12
    0.365079365079    0.015873015873    0.000000000000      12
    0.380952380952    0.015873015873    0.000000000000      12
    0.396825396825    0.015873015873    0.000000000000      12
    0.412698412698    0.015873015873    0.000000000000      12
    0.428571428571    0.015873015873    0.000000000000      12
    0.444444444444    0.015873015873    0.000000000000      12
    0.460317460317    0.015873015873    0.000000000000      12
    0.476190476190    0.015873015873    0.000000000000      12
    0.492063492063    0.015873015873    0.000000000000       6
    0.031746031746    0.031746031746    0.000000000000       6
    0.047619047619    0.031746031746    0.000000000000      12
    0.063492063492    0.031746031746    0.000000000000      12
    0.079365079365    0.031746031746    0.000000000000      12
    0.095238095238    0.031746031746    0.000000000000      12
    0.111111111111    0.031746031746    0.000000000000      12
    0.126984126984    0.031746031746    0.000000000000      12
    0.142857142857    0.031746031746    0.000000000000      12
    0.158730158730    0.031746031746    0.000000000000      12
    0.174603174603    0.031746031746    0.000000000000      12
    0.190476190476    0.031746031746    0.000000000000      12
    0.206349206349    0.031746031746    0.000000000000      12
    0.222222222222    0.031746031746    0.000000000000      12
    0.238095238095    0.031746031746    0.000000000000      12
    0.253968253968    0.031746031746    0.000000000000      12
    0.269841269841    0.031746031746    0.000000000000      12
    0.285714285714    0.031746031746    0.000000000000      12
    0.301587301587    0.031746031746    0.000000000000      12
    0.317460317460    0.031746031746    0.000000000000      12
    0.333333333333    0.031746031746    0.000000000000      12
    0.349206349206    0.031746031746    0.000000000000      12
    0.365079365079    0.031746031746    0.000000000000      12
    0.380952380952    0.031746031746    0.000000000000      12
    0.396825396825    0.031746031746    0.000000000000      12
    0.412698412698    0.031746031746    0.000000000000      12
    0.428571428571    0.031746031746    0.000000000000      12
    0.444444444444    0.031746031746    0.000000000000      12
    0.460317460317    0.031746031746    0.000000000000      12
    0.476190476190    0.031746031746    0.000000000000      12
    0.047619047619    0.047619047619    0.000000000000       6
    0.063492063492    0.047619047619    0.000000000000      12
    0.079365079365    0.047619047619    0.000000000000      12
    0.095238095238    0.047619047619    0.000000000000      12
    0.111111111111    0.047619047619    0.000000000000      12
    0.126984126984    0.047619047619    0.000000000000      12
    0.142857142857    0.047619047619    0.000000000000      12
    0.158730158730    0.047619047619    0.000000000000      12
    0.174603174603    0.047619047619    0.000000000000      12
    0.190476190476    0.047619047619    0.000000000000      12
    0.206349206349    0.047619047619    0.000000000000      12
    0.222222222222    0.047619047619    0.000000000000      12
    0.238095238095    0.047619047619    0.000000000000      12
    0.253968253968    0.047619047619    0.000000000000      12
    0.269841269841    0.047619047619    0.000000000000      12
    0.285714285714    0.047619047619    0.000000000000      12
    0.301587301587    0.047619047619    0.000000000000      12
    0.317460317460    0.047619047619    0.000000000000      12
    0.333333333333    0.047619047619    0.000000000000      12
    0.349206349206    0.047619047619    0.000000000000      12
    0.365079365079    0.047619047619    0.000000000000      12
    0.380952380952    0.047619047619    0.000000000000      12
    0.396825396825    0.047619047619    0.000000000000      12
    0.412698412698    0.047619047619    0.000000000000      12
    0.428571428571    0.047619047619    0.000000000000      12
    0.444444444444    0.047619047619    0.000000000000      12
    0.460317460317    0.047619047619    0.000000000000      12
    0.476190476190    0.047619047619    0.000000000000       6
    0.063492063492    0.063492063492    0.000000000000       6
    0.079365079365    0.063492063492    0.000000000000      12
    0.095238095238    0.063492063492    0.000000000000      12
    0.111111111111    0.063492063492    0.000000000000      12
    0.126984126984    0.063492063492    0.000000000000      12
    0.142857142857    0.063492063492    0.000000000000      12
    0.158730158730    0.063492063492    0.000000000000      12
    0.174603174603    0.063492063492    0.000000000000      12
    0.190476190476    0.063492063492    0.000000000000      12
    0.206349206349    0.063492063492    0.000000000000      12
    0.222222222222    0.063492063492    0.000000000000      12
    0.238095238095    0.063492063492    0.000000000000      12
    0.253968253968    0.063492063492    0.000000000000      12
    0.269841269841    0.063492063492    0.000000000000      12
    0.285714285714    0.063492063492    0.000000000000      12
    0.301587301587    0.063492063492    0.000000000000      12
    0.317460317460    0.063492063492    0.000000000000      12
    0.333333333333    0.063492063492    0.000000000000      12
    0.349206349206    0.063492063492    0.000000000000      12
    0.365079365079    0.063492063492    0.000000000000      12
    0.380952380952    0.063492063492    0.000000000000      12
    0.396825396825    0.063492063492    0.000000000000      12
    0.412698412698    0.063492063492    0.000000000000      12
    0.428571428571    0.063492063492    0.000000000000      12
    0.444444444444    0.063492063492    0.000000000000      12
    0.460317460317    0.063492063492    0.000000000000      12
    0.079365079365    0.079365079365    0.000000000000       6
    0.095238095238    0.079365079365    0.000000000000      12
    0.111111111111    0.079365079365    0.000000000000      12
    0.126984126984    0.079365079365    0.000000000000      12
    0.142857142857    0.079365079365    0.000000000000      12
    0.158730158730    0.079365079365    0.000000000000      12
    0.174603174603    0.079365079365    0.000000000000      12
    0.190476190476    0.079365079365    0.000000000000      12
    0.206349206349    0.079365079365    0.000000000000      12
    0.222222222222    0.079365079365    0.000000000000      12
    0.238095238095    0.079365079365    0.000000000000      12
    0.253968253968    0.079365079365    0.000000000000      12
    0.269841269841    0.079365079365    0.000000000000      12
    0.285714285714    0.079365079365    0.000000000000      12
    0.301587301587    0.079365079365    0.000000000000      12
    0.317460317460    0.079365079365    0.000000000000      12
    0.333333333333    0.079365079365    0.000000000000      12
    0.349206349206    0.079365079365    0.000000000000      12
    0.365079365079    0.079365079365    0.000000000000      12
    0.380952380952    0.079365079365    0.000000000000      12
    0.396825396825    0.079365079365    0.000000000000      12
    0.412698412698    0.079365079365    0.000000000000      12
    0.428571428571    0.079365079365    0.000000000000      12
    0.444444444444    0.079365079365    0.000000000000      12
    0.460317460317    0.079365079365    0.000000000000       6
    0.095238095238    0.095238095238    0.000000000000       6
    0.111111111111    0.095238095238    0.000000000000      12
    0.126984126984    0.095238095238    0.000000000000      12
    0.142857142857    0.095238095238    0.000000000000      12
    0.158730158730    0.095238095238    0.000000000000      12
    0.174603174603    0.095238095238    0.000000000000      12
    0.190476190476    0.095238095238    0.000000000000      12
    0.206349206349    0.095238095238    0.000000000000      12
    0.222222222222    0.095238095238    0.000000000000      12
    0.238095238095    0.095238095238    0.000000000000      12
    0.253968253968    0.095238095238    0.000000000000      12
    0.269841269841    0.095238095238    0.000000000000      12
    0.285714285714    0.095238095238    0.000000000000      12
    0.301587301587    0.095238095238    0.000000000000      12
    0.317460317460    0.095238095238    0.000000000000      12
    0.333333333333    0.095238095238    0.000000000000      12
    0.349206349206    0.095238095238    0.000000000000      12
    0.365079365079    0.095238095238    0.000000000000      12
    0.380952380952    0.095238095238    0.000000000000      12
    0.396825396825    0.095238095238    0.000000000000      12
    0.412698412698    0.095238095238    0.000000000000      12
    0.428571428571    0.095238095238    0.000000000000      12
    0.444444444444    0.095238095238    0.000000000000      12
    0.111111111111    0.111111111111    0.000000000000       6
    0.126984126984    0.111111111111    0.000000000000      12
    0.142857142857    0.111111111111    0.000000000000      12
    0.158730158730    0.111111111111    0.000000000000      12
    0.174603174603    0.111111111111    0.000000000000      12
    0.190476190476    0.111111111111    0.000000000000      12
    0.206349206349    0.111111111111    0.000000000000      12
    0.222222222222    0.111111111111    0.000000000000      12
    0.238095238095    0.111111111111    0.000000000000      12
    0.253968253968    0.111111111111    0.000000000000      12
    0.269841269841    0.111111111111    0.000000000000      12
    0.285714285714    0.111111111111    0.000000000000      12
    0.301587301587    0.111111111111    0.000000000000      12
    0.317460317460    0.111111111111    0.000000000000      12
    0.333333333333    0.111111111111    0.000000000000      12
    0.349206349206    0.111111111111    0.000000000000      12
    0.365079365079    0.111111111111    0.000000000000      12
    0.380952380952    0.111111111111    0.000000000000      12
    0.396825396825    0.111111111111    0.000000000000      12
    0.412698412698    0.111111111111    0.000000000000      12
    0.428571428571    0.111111111111    0.000000000000      12
    0.444444444444    0.111111111111    0.000000000000       6
    0.126984126984    0.126984126984    0.000000000000       6
    0.142857142857    0.126984126984    0.000000000000      12
    0.158730158730    0.126984126984    0.000000000000      12
    0.174603174603    0.126984126984    0.000000000000      12
    0.190476190476    0.126984126984    0.000000000000      12
    0.206349206349    0.126984126984    0.000000000000      12
    0.222222222222    0.126984126984    0.000000000000      12
    0.238095238095    0.126984126984    0.000000000000      12
    0.253968253968    0.126984126984    0.000000000000      12
    0.269841269841    0.126984126984    0.000000000000      12
    0.285714285714    0.126984126984    0.000000000000      12
    0.301587301587    0.126984126984    0.000000000000      12
    0.317460317460    0.126984126984    0.000000000000      12
    0.333333333333    0.126984126984    0.000000000000      12
    0.349206349206    0.126984126984    0.000000000000      12
    0.365079365079    0.126984126984    0.000000000000      12
    0.380952380952    0.126984126984    0.000000000000      12
    0.396825396825    0.126984126984    0.000000000000      12
    0.412698412698    0.126984126984    0.000000000000      12
    0.428571428571    0.126984126984    0.000000000000      12
    0.142857142857    0.142857142857    0.000000000000       6
    0.158730158730    0.142857142857    0.000000000000      12
    0.174603174603    0.142857142857    0.000000000000      12
    0.190476190476    0.142857142857    0.000000000000      12
    0.206349206349    0.142857142857    0.000000000000      12
    0.222222222222    0.142857142857    0.000000000000      12
    0.238095238095    0.142857142857    0.000000000000      12
    0.253968253968    0.142857142857    0.000000000000      12
    0.269841269841    0.142857142857    0.000000000000      12
    0.285714285714    0.142857142857    0.000000000000      12
    0.301587301587    0.142857142857    0.000000000000      12
    0.317460317460    0.142857142857    0.000000000000      12
    0.333333333333    0.142857142857    0.000000000000      12
    0.349206349206    0.142857142857    0.000000000000      12
    0.365079365079    0.142857142857    0.000000000000      12
    0.380952380952    0.142857142857    0.000000000000      12
    0.396825396825    0.142857142857    0.000000000000      12
    0.412698412698    0.142857142857    0.000000000000      12
    0.428571428571    0.142857142857    0.000000000000       6
    0.158730158730    0.158730158730    0.000000000000       6
    0.174603174603    0.158730158730    0.000000000000      12
    0.190476190476    0.158730158730    0.000000000000      12
    0.206349206349    0.158730158730    0.000000000000      12
    0.222222222222    0.158730158730    0.000000000000      12
    0.238095238095    0.158730158730    0.000000000000      12
    0.253968253968    0.158730158730    0.000000000000      12
    0.269841269841    0.158730158730    0.000000000000      12
    0.285714285714    0.158730158730    0.000000000000      12
    0.301587301587    0.158730158730    0.000000000000      12
    0.317460317460    0.158730158730    0.000000000000      12
    0.333333333333    0.158730158730    0.000000000000      12
    0.349206349206    0.158730158730    0.000000000000      12
    0.365079365079    0.158730158730    0.000000000000      12
    0.380952380952    0.158730158730    0.000000000000      12
    0.396825396825    0.158730158730    0.000000000000      12
    0.412698412698    0.158730158730    0.000000000000      12
    0.174603174603    0.174603174603    0.000000000000       6
    0.190476190476    0.174603174603    0.000000000000      12
    0.206349206349    0.174603174603    0.000000000000      12
    0.222222222222    0.174603174603    0.000000000000      12
    0.238095238095    0.174603174603    0.000000000000      12
    0.253968253968    0.174603174603    0.000000000000      12
    0.269841269841    0.174603174603    0.000000000000      12
    0.285714285714    0.174603174603    0.000000000000      12
    0.301587301587    0.174603174603    0.000000000000      12
    0.317460317460    0.174603174603    0.000000000000      12
    0.333333333333    0.174603174603    0.000000000000      12
    0.349206349206    0.174603174603    0.000000000000      12
    0.365079365079    0.174603174603    0.000000000000      12
    0.380952380952    0.174603174603    0.000000000000      12
    0.396825396825    0.174603174603    0.000000000000      12
    0.412698412698    0.174603174603    0.000000000000       6
    0.190476190476    0.190476190476    0.000000000000       6
    0.206349206349    0.190476190476    0.000000000000      12
    0.222222222222    0.190476190476    0.000000000000      12
    0.238095238095    0.190476190476    0.000000000000      12
    0.253968253968    0.190476190476    0.000000000000      12
    0.269841269841    0.190476190476    0.000000000000      12
    0.285714285714    0.190476190476    0.000000000000      12
    0.301587301587    0.190476190476    0.000000000000      12
    0.317460317460    0.190476190476    0.000000000000      12
    0.333333333333    0.190476190476    0.000000000000      12
    0.349206349206    0.190476190476    0.000000000000      12
    0.365079365079    0.190476190476    0.000000000000      12
    0.380952380952    0.190476190476    0.000000000000      12
    0.396825396825    0.190476190476    0.000000000000      12
    0.206349206349    0.206349206349    0.000000000000       6
    0.222222222222    0.206349206349    0.000000000000      12
    0.238095238095    0.206349206349    0.000000000000      12
    0.253968253968    0.206349206349    0.000000000000      12
    0.269841269841    0.206349206349    0.000000000000      12
    0.285714285714    0.206349206349    0.000000000000      12
    0.301587301587    0.206349206349    0.000000000000      12
    0.317460317460    0.206349206349    0.000000000000      12
    0.333333333333    0.206349206349    0.000000000000      12
    0.349206349206    0.206349206349    0.000000000000      12
    0.365079365079    0.206349206349    0.000000000000      12
    0.380952380952    0.206349206349    0.000000000000      12
    0.396825396825    0.206349206349    0.000000000000       6
    0.222222222222    0.222222222222    0.000000000000       6
    0.238095238095    0.222222222222    0.000000000000      12
    0.253968253968    0.222222222222    0.000000000000      12
    0.269841269841    0.222222222222    0.000000000000      12
    0.285714285714    0.222222222222    0.000000000000      12
    0.301587301587    0.222222222222    0.000000000000      12
    0.317460317460    0.222222222222    0.000000000000      12
    0.333333333333    0.222222222222    0.000000000000      12
    0.349206349206    0.222222222222    0.000000000000      12
    0.365079365079    0.222222222222    0.000000000000      12
    0.380952380952    0.222222222222    0.000000000000      12
    0.238095238095    0.238095238095    0.000000000000       6
    0.253968253968    0.238095238095    0.000000000000      12
    0.269841269841    0.238095238095    0.000000000000      12
    0.285714285714    0.238095238095    0.000000000000      12
    0.301587301587    0.238095238095    0.000000000000      12
    0.317460317460    0.238095238095    0.000000000000      12
    0.333333333333    0.238095238095    0.000000000000      12
    0.349206349206    0.238095238095    0.000000000000      12
    0.365079365079    0.238095238095    0.000000000000      12
    0.380952380952    0.238095238095    0.000000000000       6
    0.253968253968    0.253968253968    0.000000000000       6
    0.269841269841    0.253968253968    0.000000000000      12
    0.285714285714    0.253968253968    0.000000000000      12
    0.301587301587    0.253968253968    0.000000000000      12
    0.317460317460    0.253968253968    0.000000000000      12
    0.333333333333    0.253968253968    0.000000000000      12
    0.349206349206    0.253968253968    0.000000000000      12
    0.365079365079    0.253968253968    0.000000000000      12
    0.269841269841    0.269841269841    0.000000000000       6
    0.285714285714    0.269841269841    0.000000000000      12
    0.301587301587    0.269841269841    0.000000000000      12
    0.317460317460    0.269841269841    0.000000000000      12
    0.333333333333    0.269841269841    0.000000000000      12
    0.349206349206    0.269841269841    0.000000000000      12
    0.365079365079    0.269841269841    0.000000000000       6
    0.285714285714    0.285714285714    0.000000000000       6
    0.301587301587    0.285714285714    0.000000000000      12
    0.317460317460    0.285714285714    0.000000000000      12
    0.333333333333    0.285714285714    0.000000000000      12
    0.349206349206    0.285714285714    0.000000000000      12
    0.301587301587    0.301587301587    0.000000000000       6
    0.317460317460    0.301587301587    0.000000000000      12
    0.333333333333    0.301587301587    0.000000000000      12
    0.349206349206    0.301587301587    0.000000000000       6
    0.317460317460    0.317460317460    0.000000000000       6
    0.333333333333    0.317460317460    0.000000000000      12
    0.333333333333    0.333333333333    0.000000000000       2
