CONTCAR\(15)                            
   1.00000000000000     
    12.6485004424999996    0.0000000000000000    0.0000000000000000
    -1.2670761195000000   12.5961316350000008    0.0000000000000000
     0.0000000000000000    0.0000000000000000   18.5200004577999984
   Cr   P    S 
     4     8    28
Direct
  0.2534199819999969  0.2464900000000014  0.5000000000000000
  0.7534200200000001  0.2464900000000014  0.5000000000000000
  0.2534199870000009  0.7464900069999985  0.5000000000000000
  0.7534200059999989  0.7464900069999985  0.5000000000000000
  0.4809699799999976  0.3307699929999970  0.4729999979999988
  0.1692899999999966  0.0190199999999976  0.5270299720000011
  0.9809700559999968  0.3307699929999970  0.4729999979999988
  0.6692900560000012  0.0190199999999976  0.5270299720000011
  0.4809699640000034  0.8307699799999995  0.4729999979999988
  0.1692900050000006  0.5190200119999986  0.5270299720000011
  0.9809700400000025  0.8307699799999995  0.4729999979999988
  0.6692900050000006  0.5190200119999986  0.5270299720000011
  0.4198400160000020  0.2459699930000028  0.5595399660000027
  0.2255000170000017  0.3938199939999976  0.5772499859999982
  0.3542700030000034  0.3284499969999999  0.4048399899999993
  0.0051100009999985  0.4948199840000029  0.4999900099999977
  0.1715400020000004  0.1456799899999979  0.5951499689999977
  0.1062200020000006  0.2745099850000017  0.4227300080000020
  0.2540900039999983  0.0802299950000034  0.4404800129999984
  0.9198400160000020  0.2459699930000028  0.5595399660000027
  0.7255000170000017  0.3938199939999976  0.5772499859999982
  0.8542699650000003  0.3284499969999999  0.4048399899999993
  0.5051100390000016  0.4948199840000029  0.4999900099999977
  0.6715400679999988  0.1456799899999979  0.5951499689999977
  0.6062200200000021  0.2745099850000017  0.4227300080000020
  0.7540899850000002  0.0802299950000034  0.4404800129999984
  0.4198400040000010  0.7459700189999978  0.5595399660000027
  0.2255000059999972  0.8938199440000005  0.5772499859999982
  0.3542699899999988  0.8284500230000020  0.4048399899999993
  0.0051099980000018  0.9948200090000014  0.4999900099999977
  0.1715399950000034  0.6456799779999969  0.5951499689999977
  0.1062199969999966  0.7745099919999987  0.4227300080000020
  0.2540900079999986  0.5802299919999996  0.4404800129999984
  0.9198400040000010  0.7459700189999978  0.5595399660000027
  0.7254999970000000  0.8938199440000005  0.5772499859999982
  0.8542699529999993  0.8284500230000020  0.4048399899999993
  0.5051100259999970  0.9948200090000014  0.4999900099999977
  0.6715400519999974  0.6456799779999969  0.5951499689999977
  0.6062200060000009  0.7745099919999987  0.4227300080000020
  0.7540900460000017  0.5802299919999996  0.4404800129999984
 
  0.00000000E+00  0.00000000E+00  0.00000000E+00
  0.00000000E+00  0.00000000E+00  0.00000000E+00
  0.00000000E+00  0.00000000E+00  0.00000000E+00
  0.00000000E+00  0.00000000E+00  0.00000000E+00
  0.00000000E+00  0.00000000E+00  0.00000000E+00
  0.00000000E+00  0.00000000E+00  0.00000000E+00
  0.00000000E+00  0.00000000E+00  0.00000000E+00
  0.00000000E+00  0.00000000E+00  0.00000000E+00
  0.00000000E+00  0.00000000E+00  0.00000000E+00
  0.00000000E+00  0.00000000E+00  0.00000000E+00
  0.00000000E+00  0.00000000E+00  0.00000000E+00
  0.00000000E+00  0.00000000E+00  0.00000000E+00
  0.00000000E+00  0.00000000E+00  0.00000000E+00
  0.00000000E+00  0.00000000E+00  0.00000000E+00
  0.00000000E+00  0.00000000E+00  0.00000000E+00
  0.00000000E+00  0.00000000E+00  0.00000000E+00
  0.00000000E+00  0.00000000E+00  0.00000000E+00
  0.00000000E+00  0.00000000E+00  0.00000000E+00
  0.00000000E+00  0.00000000E+00  0.00000000E+00
  0.00000000E+00  0.00000000E+00  0.00000000E+00
  0.00000000E+00  0.00000000E+00  0.00000000E+00
  0.00000000E+00  0.00000000E+00  0.00000000E+00
  0.00000000E+00  0.00000000E+00  0.00000000E+00
  0.00000000E+00  0.00000000E+00  0.00000000E+00
  0.00000000E+00  0.00000000E+00  0.00000000E+00
  0.00000000E+00  0.00000000E+00  0.00000000E+00
  0.00000000E+00  0.00000000E+00  0.00000000E+00
  0.00000000E+00  0.00000000E+00  0.00000000E+00
  0.00000000E+00  0.00000000E+00  0.00000000E+00
  0.00000000E+00  0.00000000E+00  0.00000000E+00
  0.00000000E+00  0.00000000E+00  0.00000000E+00
  0.00000000E+00  0.00000000E+00  0.00000000E+00
  0.00000000E+00  0.00000000E+00  0.00000000E+00
  0.00000000E+00  0.00000000E+00  0.00000000E+00
  0.00000000E+00  0.00000000E+00  0.00000000E+00
  0.00000000E+00  0.00000000E+00  0.00000000E+00
  0.00000000E+00  0.00000000E+00  0.00000000E+00
  0.00000000E+00  0.00000000E+00  0.00000000E+00
  0.00000000E+00  0.00000000E+00  0.00000000E+00
  0.00000000E+00  0.00000000E+00  0.00000000E+00
