CONTCAR\(4)                             
   1.00000000000000     
     3.3303000926999999    0.0000000000000000    0.0000000000000000
    -1.6651500463000000    2.8841244824999999    0.0000000000000000
     0.0000000000000000    0.0000000000000000   18.1305007935000013
   Ta   S    O 
     1     2     2
Direct
  0.6670895220124955  0.3378742505806366  0.5000240319346111
 -0.0002139626552162  0.0046953795118032  0.5868287041849493
  0.0010507424332791  0.0046436569935376  0.4131924466464654
  0.0000459213524105  0.0036327980576505  0.6686170520524621
  0.0004478158570284  0.0038439348563719  0.3313877101815196
 
  0.00000000E+00  0.00000000E+00  0.00000000E+00
  0.00000000E+00  0.00000000E+00  0.00000000E+00
  0.00000000E+00  0.00000000E+00  0.00000000E+00
  0.00000000E+00  0.00000000E+00  0.00000000E+00
  0.00000000E+00  0.00000000E+00  0.00000000E+00
