CONTCAR\(19)                            
   1.00000000000000     
    13.9937000274999992    0.0000000000000000    0.0000000000000000
     0.0000000000000000   12.1743001938000006    0.0000000000000000
     0.0000000000000000    0.0000000000000000   22.0200004577999984
   Ta   Se
    16    48
Direct
  0.0625000000000000  0.9937167476679889  0.4171778061885547
  0.1875000089999972  0.8551280726738142  0.5829345373543617
  0.0625000000000000  0.5870976733141049  0.4761406459401059
  0.1875000089999972  0.2617333237966903  0.5239240751910614
  0.3124999910000028  0.9937167476679889  0.4171778061885547
  0.4375000089999972  0.8551280726738142  0.5829345373543617
  0.3124999910000028  0.5870976733141049  0.4761406459401059
  0.4375000089999972  0.2617333237966903  0.5239240751910614
  0.5624999910000028  0.9937167476679889  0.4171778061885547
  0.6874999739999978  0.8551280726738142  0.5829345373543617
  0.5624999910000028  0.5870976733141049  0.4761406459401059
  0.6874999739999978  0.2617333237966903  0.5239240751910614
  0.8125000260000022  0.9937167476679889  0.4171778061885547
  0.9375000089999972  0.8551280726738142  0.5829345373543617
  0.8125000260000022  0.5870976733141049  0.4761406459401059
  0.9375000089999972  0.2617333237966903  0.5239240751910614
  0.0625000000000000  0.8147764141292413  0.4940865945622335
  0.1875000089999972  0.0341288062483827  0.5059963363702948
  0.0625000000000000  0.9852710499874249  0.6389499993487817
  0.1875000089999972  0.8635345666828442  0.3611594974931265
  0.1875000089999972  0.4361955892025478  0.4405304118827758
  0.0625000000000000  0.4125538822583863  0.5595280761919099
  0.1875000089999972  0.6316373176584307  0.5645808596280375
  0.0625000000000000  0.2172506576270052  0.4354686253454503
  0.1875000089999972  0.0760832867812340  0.3411022555468648
  0.0625000000000000  0.7726993407180913  0.6589806420554467
  0.1875000089999972  0.6553878511042512  0.3942915906404920
  0.0625000000000000  0.1934354921495540  0.6057880062604966
  0.3124999910000028  0.8147764141292413  0.4940865945622335
  0.4375000089999972  0.0341288062483827  0.5059963363702948
  0.3124999910000028  0.9852710499874249  0.6389499993487817
  0.4375000089999972  0.8635345666828442  0.3611594974931265
  0.4375000089999972  0.4361955892025478  0.4405304118827758
  0.3124999910000028  0.4125538822583863  0.5595280761919099
  0.4375000089999972  0.6316373176584307  0.5645808596280375
  0.3124999910000028  0.2172506576270052  0.4354686253454503
  0.4375000089999972  0.0760832867812340  0.3411022555468648
  0.3124999910000028  0.7726993407180913  0.6589806420554467
  0.4375000089999972  0.6553878511042512  0.3942915906404920
  0.3124999910000028  0.1934354921495540  0.6057880062604966
  0.5624999910000028  0.8147764141292413  0.4940865945622335
  0.6874999739999978  0.0341288062483827  0.5059963363702948
  0.5624999910000028  0.9852710499874249  0.6389499993487817
  0.6874999739999978  0.8635345666828442  0.3611594974931265
  0.6874999739999978  0.4361955892025478  0.4405304118827758
  0.5624999910000028  0.4125538822583863  0.5595280761919099
  0.6874999739999978  0.6316373176584307  0.5645808596280375
  0.5624999910000028  0.2172506576270052  0.4354686253454503
  0.6874999739999978  0.0760832867812340  0.3411022555468648
  0.5624999910000028  0.7726993407180913  0.6589806420554467
  0.6874999739999978  0.6553878511042512  0.3942915906404920
  0.5624999910000028  0.1934354921495540  0.6057880062604966
  0.8125000260000022  0.8147764141292413  0.4940865945622335
  0.9375000089999972  0.0341288062483827  0.5059963363702948
  0.8125000260000022  0.9852710499874249  0.6389499993487817
  0.9375000089999972  0.8635345666828442  0.3611594974931265
  0.9375000089999972  0.4361955892025478  0.4405304118827758
  0.8125000260000022  0.4125538822583863  0.5595280761919099
  0.9375000089999972  0.6316373176584307  0.5645808596280375
  0.8125000260000022  0.2172506576270052  0.4354686253454503
  0.9375000089999972  0.0760832867812340  0.3411022555468648
  0.8125000260000022  0.7726993407180913  0.6589806420554467
  0.9375000089999972  0.6553878511042512  0.3942915906404920
  0.8125000260000022  0.1934354921495540  0.6057880062604966
 
  0.00000000E+00  0.00000000E+00  0.00000000E+00
  0.00000000E+00  0.00000000E+00  0.00000000E+00
  0.00000000E+00  0.00000000E+00  0.00000000E+00
  0.00000000E+00  0.00000000E+00  0.00000000E+00
  0.00000000E+00  0.00000000E+00  0.00000000E+00
  0.00000000E+00  0.00000000E+00  0.00000000E+00
  0.00000000E+00  0.00000000E+00  0.00000000E+00
  0.00000000E+00  0.00000000E+00  0.00000000E+00
  0.00000000E+00  0.00000000E+00  0.00000000E+00
  0.00000000E+00  0.00000000E+00  0.00000000E+00
  0.00000000E+00  0.00000000E+00  0.00000000E+00
  0.00000000E+00  0.00000000E+00  0.00000000E+00
  0.00000000E+00  0.00000000E+00  0.00000000E+00
  0.00000000E+00  0.00000000E+00  0.00000000E+00
  0.00000000E+00  0.00000000E+00  0.00000000E+00
  0.00000000E+00  0.00000000E+00  0.00000000E+00
  0.00000000E+00  0.00000000E+00  0.00000000E+00
  0.00000000E+00  0.00000000E+00  0.00000000E+00
  0.00000000E+00  0.00000000E+00  0.00000000E+00
  0.00000000E+00  0.00000000E+00  0.00000000E+00
  0.00000000E+00  0.00000000E+00  0.00000000E+00
  0.00000000E+00  0.00000000E+00  0.00000000E+00
  0.00000000E+00  0.00000000E+00  0.00000000E+00
  0.00000000E+00  0.00000000E+00  0.00000000E+00
  0.00000000E+00  0.00000000E+00  0.00000000E+00
  0.00000000E+00  0.00000000E+00  0.00000000E+00
  0.00000000E+00  0.00000000E+00  0.00000000E+00
  0.00000000E+00  0.00000000E+00  0.00000000E+00
  0.00000000E+00  0.00000000E+00  0.00000000E+00
  0.00000000E+00  0.00000000E+00  0.00000000E+00
  0.00000000E+00  0.00000000E+00  0.00000000E+00
  0.00000000E+00  0.00000000E+00  0.00000000E+00
  0.00000000E+00  0.00000000E+00  0.00000000E+00
  0.00000000E+00  0.00000000E+00  0.00000000E+00
  0.00000000E+00  0.00000000E+00  0.00000000E+00
  0.00000000E+00  0.00000000E+00  0.00000000E+00
  0.00000000E+00  0.00000000E+00  0.00000000E+00
  0.00000000E+00  0.00000000E+00  0.00000000E+00
  0.00000000E+00  0.00000000E+00  0.00000000E+00
  0.00000000E+00  0.00000000E+00  0.00000000E+00
  0.00000000E+00  0.00000000E+00  0.00000000E+00
  0.00000000E+00  0.00000000E+00  0.00000000E+00
  0.00000000E+00  0.00000000E+00  0.00000000E+00
  0.00000000E+00  0.00000000E+00  0.00000000E+00
  0.00000000E+00  0.00000000E+00  0.00000000E+00
  0.00000000E+00  0.00000000E+00  0.00000000E+00
  0.00000000E+00  0.00000000E+00  0.00000000E+00
  0.00000000E+00  0.00000000E+00  0.00000000E+00
  0.00000000E+00  0.00000000E+00  0.00000000E+00
  0.00000000E+00  0.00000000E+00  0.00000000E+00
  0.00000000E+00  0.00000000E+00  0.00000000E+00
  0.00000000E+00  0.00000000E+00  0.00000000E+00
  0.00000000E+00  0.00000000E+00  0.00000000E+00
  0.00000000E+00  0.00000000E+00  0.00000000E+00
  0.00000000E+00  0.00000000E+00  0.00000000E+00
  0.00000000E+00  0.00000000E+00  0.00000000E+00
  0.00000000E+00  0.00000000E+00  0.00000000E+00
  0.00000000E+00  0.00000000E+00  0.00000000E+00
  0.00000000E+00  0.00000000E+00  0.00000000E+00
  0.00000000E+00  0.00000000E+00  0.00000000E+00
  0.00000000E+00  0.00000000E+00  0.00000000E+00
  0.00000000E+00  0.00000000E+00  0.00000000E+00
  0.00000000E+00  0.00000000E+00  0.00000000E+00
  0.00000000E+00  0.00000000E+00  0.00000000E+00
