CONTCAR\(7)                             
   1.00000000000000     
    13.4693002700999998    0.0000000000000000    0.0000000000000000
     0.0000000000000000   11.7332000732000008    0.0000000000000000
     0.0000000000000000    0.0000000000000000   18.0195999146000005
   Ti   Nb   S    O    H 
     8     8    32     1     1
Direct
  0.1310996019675142  0.2569960765058735  0.5002667653868541
  0.3765020249784611  0.2570332297741581  0.4983943789687371
  0.6288028014007274  0.2481458817816094  0.4979174765151859
  0.8820745382594509  0.2603328347553182  0.5024731039095757
  0.1317917252061734  0.7526117505202587  0.5010481856254867
  0.3763286518678152  0.7571447447543320  0.5023989972320094
  0.6265881057312263  0.7641272471826853  0.5037890141959693
  0.8818902699370600  0.7483792074171427  0.5006796246601578
  0.0133891411011928  0.0048118552727513  0.5011750583756601
  0.2467339750495850  0.0070518649366494  0.5016258152680763
  0.4889434291124998  0.0082697497788025  0.5016134094079473
  0.7715502996626045  0.0044519184161049  0.5017934029332379
  0.0133005185980134  0.5032452764282298  0.5011163099260857
  0.2619397688184113  0.5047851726143577  0.5023676137692249
  0.4969968077493113  0.5067785446826941  0.5009683502160833
  0.7402260362396007  0.5056646938058780  0.5001426182659877
  0.1291390591299938  0.0933865218770308  0.4144723590490142
  0.0060636459436402  0.1745342339649808  0.5819309993572748
  0.0044758596590574  0.3378080920933207  0.4183930694089555
  0.1304110006376001  0.4199759639111905  0.5861562967166200
  0.3763018353289524  0.0912016238036396  0.4145905732758756
  0.2536817543341962  0.1753045921358336  0.5828794503249995
  0.2533231716294178  0.3379530259284726  0.4174903440983504
  0.3802875113935665  0.4151033512179629  0.5826114499912383
  0.6298001070076893  0.0877268537902797  0.4218122629933040
  0.5028023059437609  0.1745697180393160  0.5826983810796043
  0.5045314544597811  0.3370451282522005  0.4195048005405143
  0.6275426430607622  0.4192838109354030  0.5848200130259184
  0.8827451575662304  0.0924398975606216  0.4165540918527448
  0.7547324855375293  0.1736547885068540  0.5815370497891553
  0.7544708062221709  0.3376230064472032  0.4198454287932123
  0.8783997186688481  0.4213893917422259  0.5812937011634097
  0.1320139202402405  0.5907459543894629  0.4169016810982173
  0.0053950894376714  0.6723068849329387  0.5830890355793459
  0.0056775651137701  0.8361638618710373  0.4204426567627328
  0.1294319213402886  0.9175136659697470  0.5877446325177151
  0.3788079315173226  0.5951109851212192  0.4152574994549588
  0.2543665546144755  0.6735656922505930  0.5845133730424928
  0.2536453403117761  0.8374463353543535  0.4198689856286087
  0.3761570114244392  0.9195436722627536  0.5870096422896648
  0.6261178112144962  0.5939897310787527  0.4164836509533097
  0.5029310382702030  0.6738548726218427  0.5829711229985639
  0.5026852938116214  0.8390199258657500  0.4207308835158982
  0.6296636835276649  0.9229456818613919  0.5813302324313271
  0.8787216864750534  0.5900997082955910  0.4202415560515145
  0.7535282021867418  0.6723834006804488  0.5817585927265962
  0.7550548141536312  0.8381690672592685  0.4211738514449945
  0.8831253001986628  0.9175794214530363  0.5865911290068518
  0.3817477395622833  0.4044383563208045  0.6749713251837833
  0.4084432653967856  0.3283727275775966  0.6865898141969712
 
  0.00000000E+00  0.00000000E+00  0.00000000E+00
  0.00000000E+00  0.00000000E+00  0.00000000E+00
  0.00000000E+00  0.00000000E+00  0.00000000E+00
  0.00000000E+00  0.00000000E+00  0.00000000E+00
  0.00000000E+00  0.00000000E+00  0.00000000E+00
  0.00000000E+00  0.00000000E+00  0.00000000E+00
  0.00000000E+00  0.00000000E+00  0.00000000E+00
  0.00000000E+00  0.00000000E+00  0.00000000E+00
  0.00000000E+00  0.00000000E+00  0.00000000E+00
  0.00000000E+00  0.00000000E+00  0.00000000E+00
  0.00000000E+00  0.00000000E+00  0.00000000E+00
  0.00000000E+00  0.00000000E+00  0.00000000E+00
  0.00000000E+00  0.00000000E+00  0.00000000E+00
  0.00000000E+00  0.00000000E+00  0.00000000E+00
  0.00000000E+00  0.00000000E+00  0.00000000E+00
  0.00000000E+00  0.00000000E+00  0.00000000E+00
  0.00000000E+00  0.00000000E+00  0.00000000E+00
  0.00000000E+00  0.00000000E+00  0.00000000E+00
  0.00000000E+00  0.00000000E+00  0.00000000E+00
  0.00000000E+00  0.00000000E+00  0.00000000E+00
  0.00000000E+00  0.00000000E+00  0.00000000E+00
  0.00000000E+00  0.00000000E+00  0.00000000E+00
  0.00000000E+00  0.00000000E+00  0.00000000E+00
  0.00000000E+00  0.00000000E+00  0.00000000E+00
  0.00000000E+00  0.00000000E+00  0.00000000E+00
  0.00000000E+00  0.00000000E+00  0.00000000E+00
  0.00000000E+00  0.00000000E+00  0.00000000E+00
  0.00000000E+00  0.00000000E+00  0.00000000E+00
  0.00000000E+00  0.00000000E+00  0.00000000E+00
  0.00000000E+00  0.00000000E+00  0.00000000E+00
  0.00000000E+00  0.00000000E+00  0.00000000E+00
  0.00000000E+00  0.00000000E+00  0.00000000E+00
  0.00000000E+00  0.00000000E+00  0.00000000E+00
  0.00000000E+00  0.00000000E+00  0.00000000E+00
  0.00000000E+00  0.00000000E+00  0.00000000E+00
  0.00000000E+00  0.00000000E+00  0.00000000E+00
  0.00000000E+00  0.00000000E+00  0.00000000E+00
  0.00000000E+00  0.00000000E+00  0.00000000E+00
  0.00000000E+00  0.00000000E+00  0.00000000E+00
  0.00000000E+00  0.00000000E+00  0.00000000E+00
  0.00000000E+00  0.00000000E+00  0.00000000E+00
  0.00000000E+00  0.00000000E+00  0.00000000E+00
  0.00000000E+00  0.00000000E+00  0.00000000E+00
  0.00000000E+00  0.00000000E+00  0.00000000E+00
  0.00000000E+00  0.00000000E+00  0.00000000E+00
  0.00000000E+00  0.00000000E+00  0.00000000E+00
  0.00000000E+00  0.00000000E+00  0.00000000E+00
  0.00000000E+00  0.00000000E+00  0.00000000E+00
  0.00000000E+00  0.00000000E+00  0.00000000E+00
  0.00000000E+00  0.00000000E+00  0.00000000E+00
