CONTCAR\(5)                             
   1.00000000000000     
    13.4884004592999993    0.0000000000000000    0.0000000000000000
    -6.7442190033999996   11.6815167672999998    0.0000000000000000
     0.0000000000000000    0.0000000000000000   18.4951992035000004
   Nb   Cl   O 
    12    32     1
Direct
  0.0842920977643131  0.1914524306987363  0.5124114561800456
  0.0842821007643137  0.3928396730655703  0.5124114561800456
  0.3233064764691127  0.4116482302345540  0.5261731393204175
  0.6014933010954273  0.1967334087641591  0.4877335393077286
  0.6041425442365598  0.4060864662887982  0.4866307694621590
  0.8084907211031395  0.4065381743714388  0.4884169743452417
  0.1023673687053181  0.6959730932954583  0.4984363087677402
  0.1023573877053200  0.9063943044098663  0.4984363087677402
  0.3100040209870660  0.9049969554935335  0.4951445962863359
  0.6041526002365605  0.6980661329477582  0.4866307694621590
  0.6014832640954317  0.9047598493312674  0.4877335393077286
  0.8084907041031345  0.9019425017316974  0.4884169743452417
  0.0810364467269702  0.2905182243634850  0.6251744742496466
  0.0088825960733816  0.0065025626954786  0.4250038105033875
  0.4229359151420561  0.0865100758334926  0.5650000685861776
  0.1617270937909271  0.0792810895789583  0.5808147313114629
  0.4375263971381973  0.3235900377292293  0.5664005454027295
  0.2529361986747714  0.2513098017950268  0.4353220306135481
  0.0086845094719959  0.2543372542360016  0.4157244909909075
  0.2529362176747694  0.5016264258797430  0.4353220306135481
  0.6707680464696915  0.3364806736243724  0.5863828825540452
  0.5016818495729607  0.0008409247864802  0.4161492046451491
  0.8973877337051422  0.0681672392552075  0.5693928259595272
  0.6697344223140895  0.0848672331570429  0.5613707927760417
  0.8973877657051449  0.3292205504499398  0.5693928259595272
  0.7553038728276802  0.2536993687201587  0.4000706202386068
  0.5067204935503459  0.2531659085658078  0.3983359914862140
  0.7564248794257336  0.5025160515573300  0.3966838108850710
  0.1734380419952050  0.8367189914976089  0.5961935151813763
  0.0088826000733819  0.5023800283779061  0.4250038105033875
  0.4375264091381983  0.6139363884089744  0.5664005454027295
  0.1617271027909243  0.5824460002119618  0.5808147313114629
  0.4229358961420581  0.8364258143085648  0.5650000685861776
  0.2517243065607765  0.7508053023716240  0.4083604917041229
  0.0074251983870554  0.7537075916935196  0.4095206782632397
  0.2517242905607752  0.0009189661891495  0.4083604917041229
  0.6707680754696903  0.8342873678453226  0.5863828825540452
  0.5026613351632040  0.5013306605816048  0.4194834382365822
  0.9155316873556884  0.5858799075347739  0.5657877349725492
  0.6733995869945223  0.5866997984972649  0.5606118445085869
  0.9155316233556831  0.8296517148209189  0.5657877349725492
  0.7564248584257354  0.7539088378684052  0.3966838108850710
  0.5067204975503462  0.7535445789845348  0.3983359914862140
  0.7553038818276774  0.0016044381075156  0.4000706202386068
  0.3010678276795287  0.4005389038397687  0.6179449469810361
 
  0.00000000E+00  0.00000000E+00  0.00000000E+00
  0.00000000E+00  0.00000000E+00  0.00000000E+00
  0.00000000E+00  0.00000000E+00  0.00000000E+00
  0.00000000E+00  0.00000000E+00  0.00000000E+00
  0.00000000E+00  0.00000000E+00  0.00000000E+00
  0.00000000E+00  0.00000000E+00  0.00000000E+00
  0.00000000E+00  0.00000000E+00  0.00000000E+00
  0.00000000E+00  0.00000000E+00  0.00000000E+00
  0.00000000E+00  0.00000000E+00  0.00000000E+00
  0.00000000E+00  0.00000000E+00  0.00000000E+00
  0.00000000E+00  0.00000000E+00  0.00000000E+00
  0.00000000E+00  0.00000000E+00  0.00000000E+00
  0.00000000E+00  0.00000000E+00  0.00000000E+00
  0.00000000E+00  0.00000000E+00  0.00000000E+00
  0.00000000E+00  0.00000000E+00  0.00000000E+00
  0.00000000E+00  0.00000000E+00  0.00000000E+00
  0.00000000E+00  0.00000000E+00  0.00000000E+00
  0.00000000E+00  0.00000000E+00  0.00000000E+00
  0.00000000E+00  0.00000000E+00  0.00000000E+00
  0.00000000E+00  0.00000000E+00  0.00000000E+00
  0.00000000E+00  0.00000000E+00  0.00000000E+00
  0.00000000E+00  0.00000000E+00  0.00000000E+00
  0.00000000E+00  0.00000000E+00  0.00000000E+00
  0.00000000E+00  0.00000000E+00  0.00000000E+00
  0.00000000E+00  0.00000000E+00  0.00000000E+00
  0.00000000E+00  0.00000000E+00  0.00000000E+00
  0.00000000E+00  0.00000000E+00  0.00000000E+00
  0.00000000E+00  0.00000000E+00  0.00000000E+00
  0.00000000E+00  0.00000000E+00  0.00000000E+00
  0.00000000E+00  0.00000000E+00  0.00000000E+00
  0.00000000E+00  0.00000000E+00  0.00000000E+00
  0.00000000E+00  0.00000000E+00  0.00000000E+00
  0.00000000E+00  0.00000000E+00  0.00000000E+00
  0.00000000E+00  0.00000000E+00  0.00000000E+00
  0.00000000E+00  0.00000000E+00  0.00000000E+00
  0.00000000E+00  0.00000000E+00  0.00000000E+00
  0.00000000E+00  0.00000000E+00  0.00000000E+00
  0.00000000E+00  0.00000000E+00  0.00000000E+00
  0.00000000E+00  0.00000000E+00  0.00000000E+00
  0.00000000E+00  0.00000000E+00  0.00000000E+00
  0.00000000E+00  0.00000000E+00  0.00000000E+00
  0.00000000E+00  0.00000000E+00  0.00000000E+00
  0.00000000E+00  0.00000000E+00  0.00000000E+00
  0.00000000E+00  0.00000000E+00  0.00000000E+00
  0.00000000E+00  0.00000000E+00  0.00000000E+00
