CONTCAR\(2)                             
   1.00000000000000     
    10.5118999480999999    0.0000000000000000    0.0000000000000000
     5.2559499741000000    9.1035723971000007    0.0000000000000000
     0.0000000000000000    0.0000000000000000   21.1504993439000017
   Zr   Br   O 
    18    18     1
Direct
  0.2232641515895166  0.2232780953055366  0.4437949785201014
  0.1111241293113884  0.1111302528478041  0.5531841478425049
  0.5510200362687679  0.2313497212210787  0.4477918116259327
  0.4437401961538953  0.1114440271247917  0.5554639465309376
  0.8868352207271842  0.2232738253198358  0.4437850898661348
  0.7782023208394494  0.1114574243492419  0.5554619965831551
  0.2313407067284455  0.5510299225081791  0.4477965586481427
  0.1114294823397318  0.4437368946358959  0.5554660643682422
  0.5510107370415106  0.5510170610043396  0.4478008218693140
  0.4444439707859464  0.4444660372743305  0.5978610394345377
  0.8881008939109548  0.5571821148257482  0.4450885962713994
  0.7781997923425595  0.4437610627671099  0.5554600869926002
  0.2232721510281047  0.8868379317583633  0.4437908736772395
  0.1114269547521849  0.7782230269753913  0.5554654786204198
  0.5571827301575621  0.8880916785389160  0.4450931094769527
  0.4437397212491100  0.7782086178119104  0.5554666722191083
  0.8880958974320060  0.8881062616407257  0.4450894693795465
  0.7777931123503138  0.7777970936671722  0.5570267583029567
  0.9996696551061200  0.9996937518502188  0.6427627835365651
  0.9993937504317796  0.9993879854386034  0.3549374093200379
  0.3339985177868416  0.9996797546160801  0.6427570622246851
  0.3345945531659499  0.9994032493525581  0.3549432126921411
  0.6660818214438806  0.0012467979520201  0.6457556266156006
  0.6645629306669660  0.0042475578351597  0.3572461291870557
  0.9996609296928136  0.3340122616665186  0.6427511021657498
  0.9993916708232832  0.3345996844359153  0.3549383209448743
  0.3086968533173822  0.3087058243111008  0.6470231690419483
  0.3349021419048400  0.3349027288722640  0.3561513927137765
  0.7159603822076143  0.3087115834880153  0.6470083128738837
  0.6635525451952671  0.3349028072378549  0.3561435534436855
  0.0012382019755242  0.6660791037633431  0.6457581388116695
  0.0042455669069694  0.6645624814214968  0.3572490935333779
  0.3087024609543393  0.7159636541976958  0.6470405468754992
  0.3349022066586845  0.6635590300665311  0.3561453250314900
  0.6660823682309258  0.6660891906356754  0.6457776024340688
  0.6645622864465636  0.6645642914973308  0.3572475739570647
  0.4444585170756308  0.4444581287852425  0.6847360973675678
 
  0.00000000E+00  0.00000000E+00  0.00000000E+00
  0.00000000E+00  0.00000000E+00  0.00000000E+00
  0.00000000E+00  0.00000000E+00  0.00000000E+00
  0.00000000E+00  0.00000000E+00  0.00000000E+00
  0.00000000E+00  0.00000000E+00  0.00000000E+00
  0.00000000E+00  0.00000000E+00  0.00000000E+00
  0.00000000E+00  0.00000000E+00  0.00000000E+00
  0.00000000E+00  0.00000000E+00  0.00000000E+00
  0.00000000E+00  0.00000000E+00  0.00000000E+00
  0.00000000E+00  0.00000000E+00  0.00000000E+00
  0.00000000E+00  0.00000000E+00  0.00000000E+00
  0.00000000E+00  0.00000000E+00  0.00000000E+00
  0.00000000E+00  0.00000000E+00  0.00000000E+00
  0.00000000E+00  0.00000000E+00  0.00000000E+00
  0.00000000E+00  0.00000000E+00  0.00000000E+00
  0.00000000E+00  0.00000000E+00  0.00000000E+00
  0.00000000E+00  0.00000000E+00  0.00000000E+00
  0.00000000E+00  0.00000000E+00  0.00000000E+00
  0.00000000E+00  0.00000000E+00  0.00000000E+00
  0.00000000E+00  0.00000000E+00  0.00000000E+00
  0.00000000E+00  0.00000000E+00  0.00000000E+00
  0.00000000E+00  0.00000000E+00  0.00000000E+00
  0.00000000E+00  0.00000000E+00  0.00000000E+00
  0.00000000E+00  0.00000000E+00  0.00000000E+00
  0.00000000E+00  0.00000000E+00  0.00000000E+00
  0.00000000E+00  0.00000000E+00  0.00000000E+00
  0.00000000E+00  0.00000000E+00  0.00000000E+00
  0.00000000E+00  0.00000000E+00  0.00000000E+00
  0.00000000E+00  0.00000000E+00  0.00000000E+00
  0.00000000E+00  0.00000000E+00  0.00000000E+00
  0.00000000E+00  0.00000000E+00  0.00000000E+00
  0.00000000E+00  0.00000000E+00  0.00000000E+00
  0.00000000E+00  0.00000000E+00  0.00000000E+00
  0.00000000E+00  0.00000000E+00  0.00000000E+00
  0.00000000E+00  0.00000000E+00  0.00000000E+00
  0.00000000E+00  0.00000000E+00  0.00000000E+00
  0.00000000E+00  0.00000000E+00  0.00000000E+00
