CONTCAR\(17)                            
   1.00000000000000     
    10.6176996231000000    0.0000000000000000    0.0000000000000000
     0.0000000000000000   17.6849002838000011    0.0000000000000000
     0.0000000000000000    0.0000000000000000   18.8054008484000015
   K    Fe   Se   O 
     8    16    24     1
Direct
  0.3746053035114998  0.2499194083134022  0.3983256288400188
  0.1228015189535988  0.2492113713611497  0.5957549819160257
  0.8747150246426393  0.2504914466898580  0.3986022842614754
  0.6268700769478854  0.2496579437015636  0.5961783143676738
  0.3752802148092083  0.7477039884009927  0.4374979728217646
  0.1344720866441515  0.7450256880401178  0.5976109374174073
  0.8755107021650822  0.7481050988620565  0.4262478359018248
  0.6162779155382295  0.7444252433125262  0.5980634403308182
  0.2493894619697815  0.0826068320521553  0.4968522059400160
 -0.0002183991074159  0.0791559537262110  0.4972575588348926
  0.2502125154685831  0.9395786298465972  0.4993770166297893
 -0.0009617514976449  0.9315587320773298  0.5053599533743512
  0.7494616070109885  0.0792346082021287  0.4969588436068552
  0.4999668854352203  0.0826719591998130  0.4967707179912877
  0.7508155793729401  0.9316416241306458  0.5051757271235902
  0.4998591649864143  0.9395776716797152  0.4989011928570862
  0.2500891976864321  0.5619354149378828  0.5053068107216935
 -0.0039894485107165  0.5656861566849013  0.5067610593374099
  0.2492092683994626  0.4164833614934048  0.4976889211356855
  0.9992332507217276  0.4186659537068955  0.4960708121529533
  0.7545301514142772  0.5657726285966678  0.5071271711295861
  0.5004103381141283  0.5621172477311700  0.5056484177625014
  0.7508035543671763  0.4186209210730097  0.4965299011553609
  0.5008464718723394  0.4165473762422296  0.4984323353150044
  0.3745811808452449  0.0097247873410075  0.4229244337231141
  0.1253385038709295  0.0125234722347750  0.5753485088228971
  0.3746484627428844  0.1536462204909314  0.5668877700817458
  0.1227298546750442  0.1490264103006365  0.4243680902462874
  0.1288840229772167  0.8587801661785789  0.4346419512182907
  0.3758216599205802  0.8877125532476333  0.5846136524560306
  0.8749731756847779  0.0034280862518847  0.4263811941420527
  0.6241231251348701  0.0125891778838014  0.5750249328619587
  0.8743564399103246  0.1504178926970310  0.5667104892155650
  0.6263751435974052  0.1493618374412405  0.4242846139576388
  0.6214224767672031  0.8586954248322763  0.4344694394980562
  0.8743795346280973  0.8609733120413579  0.5824940590094149
  0.3756345028402025  0.4920434970559284  0.4271220457378098
  0.1240335587861893  0.4838933322920965  0.5764577104799570
  0.3746565082053935  0.6163658721587755  0.5914362784026855
  0.1263309452730960  0.6391934293489124  0.4350148481704234
  0.1247503225925238  0.3524382017971040  0.4218877754242563
  0.3743542241715617  0.3451434032518167  0.5669913303509923
  0.8746084907152096  0.4924927326032471  0.4237358074879938
  0.6264888518021000  0.4841389269684049  0.5770251800021129
  0.8756753420291202  0.6336795840429259  0.5903649918681444
  0.6244095919800379  0.6392532444835257  0.4351878285678393
  0.6251053250671105  0.3523630625075082  0.4226832812588796
  0.8754143855722295  0.3476571073411002  0.5672696363247578
  0.3757437712946536  0.7881228341450925  0.5792938247660292
 
  0.00000000E+00  0.00000000E+00  0.00000000E+00
  0.00000000E+00  0.00000000E+00  0.00000000E+00
  0.00000000E+00  0.00000000E+00  0.00000000E+00
  0.00000000E+00  0.00000000E+00  0.00000000E+00
  0.00000000E+00  0.00000000E+00  0.00000000E+00
  0.00000000E+00  0.00000000E+00  0.00000000E+00
  0.00000000E+00  0.00000000E+00  0.00000000E+00
  0.00000000E+00  0.00000000E+00  0.00000000E+00
  0.00000000E+00  0.00000000E+00  0.00000000E+00
  0.00000000E+00  0.00000000E+00  0.00000000E+00
  0.00000000E+00  0.00000000E+00  0.00000000E+00
  0.00000000E+00  0.00000000E+00  0.00000000E+00
  0.00000000E+00  0.00000000E+00  0.00000000E+00
  0.00000000E+00  0.00000000E+00  0.00000000E+00
  0.00000000E+00  0.00000000E+00  0.00000000E+00
  0.00000000E+00  0.00000000E+00  0.00000000E+00
  0.00000000E+00  0.00000000E+00  0.00000000E+00
  0.00000000E+00  0.00000000E+00  0.00000000E+00
  0.00000000E+00  0.00000000E+00  0.00000000E+00
  0.00000000E+00  0.00000000E+00  0.00000000E+00
  0.00000000E+00  0.00000000E+00  0.00000000E+00
  0.00000000E+00  0.00000000E+00  0.00000000E+00
  0.00000000E+00  0.00000000E+00  0.00000000E+00
  0.00000000E+00  0.00000000E+00  0.00000000E+00
  0.00000000E+00  0.00000000E+00  0.00000000E+00
  0.00000000E+00  0.00000000E+00  0.00000000E+00
  0.00000000E+00  0.00000000E+00  0.00000000E+00
  0.00000000E+00  0.00000000E+00  0.00000000E+00
  0.00000000E+00  0.00000000E+00  0.00000000E+00
  0.00000000E+00  0.00000000E+00  0.00000000E+00
  0.00000000E+00  0.00000000E+00  0.00000000E+00
  0.00000000E+00  0.00000000E+00  0.00000000E+00
  0.00000000E+00  0.00000000E+00  0.00000000E+00
  0.00000000E+00  0.00000000E+00  0.00000000E+00
  0.00000000E+00  0.00000000E+00  0.00000000E+00
  0.00000000E+00  0.00000000E+00  0.00000000E+00
  0.00000000E+00  0.00000000E+00  0.00000000E+00
  0.00000000E+00  0.00000000E+00  0.00000000E+00
  0.00000000E+00  0.00000000E+00  0.00000000E+00
  0.00000000E+00  0.00000000E+00  0.00000000E+00
  0.00000000E+00  0.00000000E+00  0.00000000E+00
  0.00000000E+00  0.00000000E+00  0.00000000E+00
  0.00000000E+00  0.00000000E+00  0.00000000E+00
  0.00000000E+00  0.00000000E+00  0.00000000E+00
  0.00000000E+00  0.00000000E+00  0.00000000E+00
  0.00000000E+00  0.00000000E+00  0.00000000E+00
  0.00000000E+00  0.00000000E+00  0.00000000E+00
  0.00000000E+00  0.00000000E+00  0.00000000E+00
  0.00000000E+00  0.00000000E+00  0.00000000E+00
