CONTCAR                                 
   1.00000000000000     
    13.0511999129999996    0.0000000000000000    0.0000000000000000
     6.3390174089000002   12.3852332663000002    0.0000000000000000
     0.0000000000000000    0.0000000000000000   23.7280006408999995
   Te   Os   Cl   O    H 
     8     4    48     1     1
Direct
  0.4077624587097050  0.6742548703525792  0.3925402814773541
  0.0941149411198428  0.3196637701617054  0.6077485722745806
  0.9074513742714934  0.6743457399849998  0.3920732095638032
  0.5931118823369714  0.3210865955607416  0.6093724285179307
  0.4078415196515643  0.1743652447244354  0.3924801720387105
  0.0937238287373468  0.8192823663202558  0.6076120051243371
  0.9077410923024177  0.1740670062322015  0.3926202676999334
  0.5937072696469331  0.8200689129923845  0.6076506045874747
  0.2500891309847273  0.4972822584827700  0.4992222127409450
  0.7511710489843175  0.4976957214136189  0.4997801083964481
  0.2508122638764966  0.9974012528104851  0.4999568805484898
  0.7513300769464684  0.9968104825183337  0.4994078585031195
  0.2786001920775063  0.7414762125528541  0.3156851877174179
  0.2237215841776134  0.2536510269350016  0.6841945545634733
  0.4993535670112370  0.7802611877700375  0.3681950415836363
  0.0504228025466429  0.6033540601773258  0.4934825279641026
  0.4485648928198945  0.3912560826549598  0.5052311614844808
  0.2265494795033441  0.4401231198935741  0.5888390610460332
  0.2736253823446206  0.5550395941124118  0.4097400197836191
  0.2282574324682621  0.3553359014072690  0.4579546945175518
  0.2711484203702567  0.6397139547868803  0.5404161491571902
  0.4629603196879033  0.4781954921082772  0.6551682075625975
  0.0387068280037330  0.5202302021139038  0.3428166834984355
  0.0027453196409772  0.2135626604644688  0.6319567691002831
  0.7781604726474989  0.7413578574459843  0.3153274941833777
  0.7270667353012848  0.2538175351410591  0.6834012840501350
  0.9991264758487332  0.7802078193486960  0.3677562695925203
  0.5514797479643800  0.6032344558065945  0.4937243648295650
  0.9503821501720476  0.3921605983356676  0.5058178992283796
  0.7278585023815295  0.4410300449170086  0.5892186741891874
  0.7744858688502989  0.5547134613822383  0.4100881456007561
  0.7299666988480944  0.3552168882130118  0.4589790320777401
  0.7718872437569719  0.6404498550499369  0.5406345090182456
  0.9626769413526495  0.4737973963425122  0.6570576678179186
  0.5389380943547606  0.5202072239553603  0.3431409729774077
  0.5015605826707602  0.2160392173181994  0.6341396996858745
  0.2783586206987642  0.2408751437260504  0.3157039698365910
  0.2235397442465362  0.7522156024784373  0.6840889946829533
  0.4992990625959626  0.2801667151837101  0.3676402767984629
  0.0513412785124021  0.1032715183320001  0.4938504741812934
  0.4501472424101010  0.8914634395697296  0.5061203029129195
  0.2266669723807841  0.9398165412851536  0.5894096085121504
  0.2747327388299606  0.0548819083580600  0.4104836940037320
  0.2296908484774545  0.8552023205675625  0.4586579761706562
  0.2719752485965502  0.1397792416322891  0.5411385083342780
  0.4626853972782194  0.9739397461695287  0.6570670105977985
  0.0391945260322718  0.0202664806034070  0.3431246875200477
  0.0023508158180257  0.7131959967741808  0.6319438656487448
  0.7782947112422711  0.2413083182380594  0.3158891868534590
  0.7237468575691062  0.7529440406650599  0.6840819159357086
  0.9990766206796148  0.2802087583893971  0.3682966565730100
  0.5518534026507211  0.1032228259923859  0.4936571266649655
  0.9504045788462980  0.8904352197283695  0.5056755815820859
  0.7268560145471482  0.9400827035869531  0.5890165747167834
  0.7752135111343185  0.0534163771783162  0.4096979513415261
  0.7291634314389311  0.8549523260745566  0.4583331373541463
  0.7729013648799916  0.1386675817517857  0.5399364835313659
  0.9623609807492445  0.9733390989733285  0.6568419503973686
  0.5389137647137919  0.0201149772264810  0.3430960175118955
  0.5027580366139544  0.7136596282157840  0.6318766559824973
  0.5191585688500718  0.3522947576753547  0.7720815605312948
  0.5299436998382520  0.3712419508362900  0.8112894541212281
 
  0.00000000E+00  0.00000000E+00  0.00000000E+00
  0.00000000E+00  0.00000000E+00  0.00000000E+00
  0.00000000E+00  0.00000000E+00  0.00000000E+00
  0.00000000E+00  0.00000000E+00  0.00000000E+00
  0.00000000E+00  0.00000000E+00  0.00000000E+00
  0.00000000E+00  0.00000000E+00  0.00000000E+00
  0.00000000E+00  0.00000000E+00  0.00000000E+00
  0.00000000E+00  0.00000000E+00  0.00000000E+00
  0.00000000E+00  0.00000000E+00  0.00000000E+00
  0.00000000E+00  0.00000000E+00  0.00000000E+00
  0.00000000E+00  0.00000000E+00  0.00000000E+00
  0.00000000E+00  0.00000000E+00  0.00000000E+00
  0.00000000E+00  0.00000000E+00  0.00000000E+00
  0.00000000E+00  0.00000000E+00  0.00000000E+00
  0.00000000E+00  0.00000000E+00  0.00000000E+00
  0.00000000E+00  0.00000000E+00  0.00000000E+00
  0.00000000E+00  0.00000000E+00  0.00000000E+00
  0.00000000E+00  0.00000000E+00  0.00000000E+00
  0.00000000E+00  0.00000000E+00  0.00000000E+00
  0.00000000E+00  0.00000000E+00  0.00000000E+00
  0.00000000E+00  0.00000000E+00  0.00000000E+00
  0.00000000E+00  0.00000000E+00  0.00000000E+00
  0.00000000E+00  0.00000000E+00  0.00000000E+00
  0.00000000E+00  0.00000000E+00  0.00000000E+00
  0.00000000E+00  0.00000000E+00  0.00000000E+00
  0.00000000E+00  0.00000000E+00  0.00000000E+00
  0.00000000E+00  0.00000000E+00  0.00000000E+00
  0.00000000E+00  0.00000000E+00  0.00000000E+00
  0.00000000E+00  0.00000000E+00  0.00000000E+00
  0.00000000E+00  0.00000000E+00  0.00000000E+00
  0.00000000E+00  0.00000000E+00  0.00000000E+00
  0.00000000E+00  0.00000000E+00  0.00000000E+00
  0.00000000E+00  0.00000000E+00  0.00000000E+00
  0.00000000E+00  0.00000000E+00  0.00000000E+00
  0.00000000E+00  0.00000000E+00  0.00000000E+00
  0.00000000E+00  0.00000000E+00  0.00000000E+00
  0.00000000E+00  0.00000000E+00  0.00000000E+00
  0.00000000E+00  0.00000000E+00  0.00000000E+00
  0.00000000E+00  0.00000000E+00  0.00000000E+00
  0.00000000E+00  0.00000000E+00  0.00000000E+00
  0.00000000E+00  0.00000000E+00  0.00000000E+00
  0.00000000E+00  0.00000000E+00  0.00000000E+00
  0.00000000E+00  0.00000000E+00  0.00000000E+00
  0.00000000E+00  0.00000000E+00  0.00000000E+00
  0.00000000E+00  0.00000000E+00  0.00000000E+00
  0.00000000E+00  0.00000000E+00  0.00000000E+00
  0.00000000E+00  0.00000000E+00  0.00000000E+00
  0.00000000E+00  0.00000000E+00  0.00000000E+00
  0.00000000E+00  0.00000000E+00  0.00000000E+00
  0.00000000E+00  0.00000000E+00  0.00000000E+00
  0.00000000E+00  0.00000000E+00  0.00000000E+00
  0.00000000E+00  0.00000000E+00  0.00000000E+00
  0.00000000E+00  0.00000000E+00  0.00000000E+00
  0.00000000E+00  0.00000000E+00  0.00000000E+00
  0.00000000E+00  0.00000000E+00  0.00000000E+00
  0.00000000E+00  0.00000000E+00  0.00000000E+00
  0.00000000E+00  0.00000000E+00  0.00000000E+00
  0.00000000E+00  0.00000000E+00  0.00000000E+00
  0.00000000E+00  0.00000000E+00  0.00000000E+00
  0.00000000E+00  0.00000000E+00  0.00000000E+00
  0.00000000E+00  0.00000000E+00  0.00000000E+00
  0.00000000E+00  0.00000000E+00  0.00000000E+00
