CONTCAR                                 
   1.00000000000000     
    13.9573001861999995    0.0000000000000000    0.0000000000000000
     0.0000000000000000   20.3449993133999989    0.0000000000000000
     0.0000000000000000    0.0000000000000000   22.8059997559000003
   Nb   Cr   Se   O 
    16    16    80     1
Direct
  0.1851834781381242  0.2300633711916625  0.5847842862137680
  0.0598501679247071  0.2703298147241933  0.4136509687598159
  0.4354176713778763  0.2300732430005706  0.5847653176316893
  0.3098825967170290  0.2703642901825699  0.4138806346302736
  0.6856405633096827  0.2301936915823868  0.5847782361484610
  0.5607709119771809  0.2706593498256250  0.4138864708168782
  0.9354433625582007  0.2299989186488591  0.5847965911241241
  0.8106153364608214  0.2707164963909961  0.4136427570182842
  0.1852239787582894  0.7290392081415664  0.5872809039652730
  0.0600534231929168  0.7714187707897775  0.4169675308482268
  0.4351473264721866  0.7296770083940968  0.5876835288288158
  0.3103416115641002  0.7713902924474669  0.4169635531370846
  0.6851955409080784  0.7325572828164328  0.5866149662059675
  0.5603716882834623  0.7714123623185679  0.4168385981207116
  0.9350667029361073  0.7296230374563129  0.5877009468937290
  0.8105769776868283  0.7713582576186759  0.4168069655592179
  0.0606172739067456  0.0663336772634479  0.5283480273836083
  0.1847137914327818  0.4333014917727584  0.4713132364480412
  0.3101711551690826  0.0663752776569783  0.5282839800606955
  0.4343891238826733  0.4332513295295647  0.4709794664610051
  0.5605948633024270  0.0665410612857964  0.5280813775489726
  0.6853638436422077  0.4335460473464996  0.4719255798516496
  0.8104156388157963  0.0665163691263182  0.5279841723678752
  0.9363782958777950  0.4333627058542464  0.4711210096689889
  0.0582576475999220  0.5667517979068168  0.5288361930395766
  0.1856014162487878  0.9344530558146924  0.4745727889348147
  0.3122045294655205  0.5666252146361000  0.5286683670842390
  0.4355549038211656  0.9345713152489515  0.4741092993929951
  0.5507122306867756  0.5651604620909398  0.5261850327194323
  0.6852907682339827  0.9352911228211729  0.4740280972117429
  0.8193834514287751  0.5650097739925919  0.5262861989776459
  0.9352319993056510  0.9345446272120767  0.4745665880440978
  0.1850825448838243  0.3136393922493482  0.4916573051384678
  0.0605792715867146  0.4478670860409155  0.5497415991463874
  0.0603211083832521  0.1861975727375707  0.5069655214556441
  0.1850504410989634  0.1804075540035277  0.3729864674050833
  0.0603218600397278  0.3201067022707432  0.6254460855760515
  0.0604254816148347  0.2143344529654721  0.6709046068912210
  0.0601388168028055  0.4042183125442265  0.3959508958742898
  0.1852097656115898  0.2859886036455051  0.3276264101878938
  0.1854416532819262  0.0963448615131114  0.6029679076695144
  0.1852929532486007  0.0519388021131269  0.4500313762599217
  0.4352349796224687  0.3137331599828619  0.4916195016923302
  0.3098903662906115  0.4476543695401342  0.5493285799422323
  0.3103348466924877  0.1862764016037701  0.5070610129178387
  0.4354456359972183  0.1806296833714908  0.3733586624136994
  0.3104218507405336  0.3201559291660088  0.6252434033984978
  0.3103892310803217  0.2143964086966690  0.6707977726253844
  0.3096965401812122  0.4043062592756230  0.3961343472084558
  0.4352436307694946  0.2863556352142360  0.3280617485320472
  0.4355109266779141  0.0961900407341086  0.6026616075320524
  0.4352460034833119  0.0522118180115683  0.4499982568841804
  0.6855060148709556  0.3138379879126010  0.4917724591687361
  0.5595217115148612  0.4480642361536689  0.5496282495547704
  0.5605477019539024  0.1864428922698831  0.5070310207266041
  0.6855151134118921  0.1810335420109910  0.3724822757086362
  0.5602937217484498  0.3201060100786233  0.6254774646966951
  0.5605507226839703  0.2144084565715126  0.6707746917901238
  0.5606445929238367  0.4046488423857172  0.3964160677601404
  0.6852575808385570  0.2869792672476165  0.3277487381276394
  0.6856216976004114  0.0964317815167641  0.6027434434539933
  0.6853159255686918  0.0526971789285203  0.4496541341857567
  0.9353941030691909  0.3138148778870017  0.4916749296647039
  0.8108963138679740  0.4479460789917266  0.5497269325965130
  0.8104621502989101  0.1864155274278193  0.5068925302273584
  0.9351016207129096  0.1804386518680233  0.3728800237747771
  0.8107887778071642  0.3200927121557489  0.6254770556928955
  0.8104976064630313  0.2144227205078423  0.6708652644308034
  0.8102517489092143  0.4047100261006753  0.3964434997013069
  0.9353733812890711  0.2857985983844442  0.3271237021602105
  0.9353160201599034  0.0961277029134244  0.6027556770324490
  0.9356724370769742  0.0520165920388450  0.4499470983773621
  0.1853789211149531  0.8143329128149678  0.4950690374357080
  0.0604529795474465  0.9487546680031794  0.5527577016754958
  0.0597066369726779  0.6867594107113235  0.5093418867191997
  0.1852027469906016  0.6813413196226960  0.3765139796590336
  0.0606344873753057  0.8188867470040835  0.6288100975197172
  0.0599190022023958  0.7133086545250342  0.6737836485907137
  0.0604494895744170  0.9050575676462560  0.3999255295347713
  0.1852721219860258  0.7870387018175325  0.3309052708065296
  0.1853994877665991  0.5949589921816203  0.6029945353612599
  0.1850181820821301  0.5526360844267905  0.4514503486274071
  0.4354750659971960  0.8145025713766326  0.4950563420835559
  0.3108163641028766  0.9487823782127394  0.5526236172285341
  0.3105776959057941  0.6867825953948652  0.5092987279489695
  0.4352274824139880  0.6821160431715744  0.3749857179439911
  0.3096996850755169  0.8188367805900334  0.6288100587784037
  0.3101962216510047  0.7132322494409791  0.6738110954877496
  0.3101237299538261  0.9050410079809914  0.3995868064203893
  0.4355029248751770  0.7885042330362003  0.3311617814852143
  0.4352803189236269  0.5951910773720395  0.6046805720774749
  0.4319521621601694  0.5517339007752908  0.4473723987892293
  0.6854916684498316  0.8154059523593569  0.4942545600499147
  0.5603515666332306  0.9490097799374707  0.5524643018814205
  0.5596368167965823  0.6864855519519213  0.5095137560779116
  0.6853368294921587  0.6810446629921552  0.3767172260747166
  0.5590220025098661  0.8193753021443119  0.6296886209084115
  0.5620587617320754  0.7130528084989934  0.6732685022191893
  0.5604549855417833  0.9052349912137728  0.3991675479646102
  0.6853390475363267  0.7864344745352549  0.3306450006830969
  0.6848379614583044  0.5988533454863432  0.5966107574834582
  0.6851094623275189  0.5530460801867653  0.4529052486175680
  0.9352660303252032  0.8144657435006991  0.4951623079358377
  0.8101412168795296  0.9491023428008603  0.5525722211134068
  0.8107475184751626  0.6863155624198931  0.5094736917220057
  0.9354782404277465  0.6821163676828839  0.3746523705388780
  0.8113300626217761  0.8192330863963490  0.6298292426172799
  0.8083040182205944  0.7127143480388382  0.6731483080294344
  0.8104497354724980  0.9051724123518774  0.3994935776966275
  0.9352463280225014  0.7885021022955190  0.3309573301706182
  0.9348895483681982  0.5950689900837965  0.6047237302904920
  0.9382825542872312  0.5518102822502022  0.4475230057389418
  0.6841504708067705  0.5737006016477801  0.6674190133323979
 
  0.00000000E+00  0.00000000E+00  0.00000000E+00
  0.00000000E+00  0.00000000E+00  0.00000000E+00
  0.00000000E+00  0.00000000E+00  0.00000000E+00
  0.00000000E+00  0.00000000E+00  0.00000000E+00
  0.00000000E+00  0.00000000E+00  0.00000000E+00
  0.00000000E+00  0.00000000E+00  0.00000000E+00
  0.00000000E+00  0.00000000E+00  0.00000000E+00
  0.00000000E+00  0.00000000E+00  0.00000000E+00
  0.00000000E+00  0.00000000E+00  0.00000000E+00
  0.00000000E+00  0.00000000E+00  0.00000000E+00
  0.00000000E+00  0.00000000E+00  0.00000000E+00
  0.00000000E+00  0.00000000E+00  0.00000000E+00
  0.00000000E+00  0.00000000E+00  0.00000000E+00
  0.00000000E+00  0.00000000E+00  0.00000000E+00
  0.00000000E+00  0.00000000E+00  0.00000000E+00
  0.00000000E+00  0.00000000E+00  0.00000000E+00
  0.00000000E+00  0.00000000E+00  0.00000000E+00
  0.00000000E+00  0.00000000E+00  0.00000000E+00
  0.00000000E+00  0.00000000E+00  0.00000000E+00
  0.00000000E+00  0.00000000E+00  0.00000000E+00
  0.00000000E+00  0.00000000E+00  0.00000000E+00
  0.00000000E+00  0.00000000E+00  0.00000000E+00
  0.00000000E+00  0.00000000E+00  0.00000000E+00
  0.00000000E+00  0.00000000E+00  0.00000000E+00
  0.00000000E+00  0.00000000E+00  0.00000000E+00
  0.00000000E+00  0.00000000E+00  0.00000000E+00
  0.00000000E+00  0.00000000E+00  0.00000000E+00
  0.00000000E+00  0.00000000E+00  0.00000000E+00
  0.00000000E+00  0.00000000E+00  0.00000000E+00
  0.00000000E+00  0.00000000E+00  0.00000000E+00
  0.00000000E+00  0.00000000E+00  0.00000000E+00
  0.00000000E+00  0.00000000E+00  0.00000000E+00
  0.00000000E+00  0.00000000E+00  0.00000000E+00
  0.00000000E+00  0.00000000E+00  0.00000000E+00
  0.00000000E+00  0.00000000E+00  0.00000000E+00
  0.00000000E+00  0.00000000E+00  0.00000000E+00
  0.00000000E+00  0.00000000E+00  0.00000000E+00
  0.00000000E+00  0.00000000E+00  0.00000000E+00
  0.00000000E+00  0.00000000E+00  0.00000000E+00
  0.00000000E+00  0.00000000E+00  0.00000000E+00
  0.00000000E+00  0.00000000E+00  0.00000000E+00
  0.00000000E+00  0.00000000E+00  0.00000000E+00
  0.00000000E+00  0.00000000E+00  0.00000000E+00
  0.00000000E+00  0.00000000E+00  0.00000000E+00
  0.00000000E+00  0.00000000E+00  0.00000000E+00
  0.00000000E+00  0.00000000E+00  0.00000000E+00
  0.00000000E+00  0.00000000E+00  0.00000000E+00
  0.00000000E+00  0.00000000E+00  0.00000000E+00
  0.00000000E+00  0.00000000E+00  0.00000000E+00
  0.00000000E+00  0.00000000E+00  0.00000000E+00
  0.00000000E+00  0.00000000E+00  0.00000000E+00
  0.00000000E+00  0.00000000E+00  0.00000000E+00
  0.00000000E+00  0.00000000E+00  0.00000000E+00
  0.00000000E+00  0.00000000E+00  0.00000000E+00
  0.00000000E+00  0.00000000E+00  0.00000000E+00
  0.00000000E+00  0.00000000E+00  0.00000000E+00
  0.00000000E+00  0.00000000E+00  0.00000000E+00
  0.00000000E+00  0.00000000E+00  0.00000000E+00
  0.00000000E+00  0.00000000E+00  0.00000000E+00
  0.00000000E+00  0.00000000E+00  0.00000000E+00
  0.00000000E+00  0.00000000E+00  0.00000000E+00
  0.00000000E+00  0.00000000E+00  0.00000000E+00
  0.00000000E+00  0.00000000E+00  0.00000000E+00
  0.00000000E+00  0.00000000E+00  0.00000000E+00
  0.00000000E+00  0.00000000E+00  0.00000000E+00
  0.00000000E+00  0.00000000E+00  0.00000000E+00
  0.00000000E+00  0.00000000E+00  0.00000000E+00
  0.00000000E+00  0.00000000E+00  0.00000000E+00
  0.00000000E+00  0.00000000E+00  0.00000000E+00
  0.00000000E+00  0.00000000E+00  0.00000000E+00
  0.00000000E+00  0.00000000E+00  0.00000000E+00
  0.00000000E+00  0.00000000E+00  0.00000000E+00
  0.00000000E+00  0.00000000E+00  0.00000000E+00
  0.00000000E+00  0.00000000E+00  0.00000000E+00
  0.00000000E+00  0.00000000E+00  0.00000000E+00
  0.00000000E+00  0.00000000E+00  0.00000000E+00
  0.00000000E+00  0.00000000E+00  0.00000000E+00
  0.00000000E+00  0.00000000E+00  0.00000000E+00
  0.00000000E+00  0.00000000E+00  0.00000000E+00
  0.00000000E+00  0.00000000E+00  0.00000000E+00
  0.00000000E+00  0.00000000E+00  0.00000000E+00
  0.00000000E+00  0.00000000E+00  0.00000000E+00
  0.00000000E+00  0.00000000E+00  0.00000000E+00
  0.00000000E+00  0.00000000E+00  0.00000000E+00
  0.00000000E+00  0.00000000E+00  0.00000000E+00
  0.00000000E+00  0.00000000E+00  0.00000000E+00
  0.00000000E+00  0.00000000E+00  0.00000000E+00
  0.00000000E+00  0.00000000E+00  0.00000000E+00
  0.00000000E+00  0.00000000E+00  0.00000000E+00
  0.00000000E+00  0.00000000E+00  0.00000000E+00
  0.00000000E+00  0.00000000E+00  0.00000000E+00
  0.00000000E+00  0.00000000E+00  0.00000000E+00
  0.00000000E+00  0.00000000E+00  0.00000000E+00
  0.00000000E+00  0.00000000E+00  0.00000000E+00
  0.00000000E+00  0.00000000E+00  0.00000000E+00
  0.00000000E+00  0.00000000E+00  0.00000000E+00
  0.00000000E+00  0.00000000E+00  0.00000000E+00
  0.00000000E+00  0.00000000E+00  0.00000000E+00
  0.00000000E+00  0.00000000E+00  0.00000000E+00
  0.00000000E+00  0.00000000E+00  0.00000000E+00
  0.00000000E+00  0.00000000E+00  0.00000000E+00
  0.00000000E+00  0.00000000E+00  0.00000000E+00
  0.00000000E+00  0.00000000E+00  0.00000000E+00
  0.00000000E+00  0.00000000E+00  0.00000000E+00
  0.00000000E+00  0.00000000E+00  0.00000000E+00
  0.00000000E+00  0.00000000E+00  0.00000000E+00
  0.00000000E+00  0.00000000E+00  0.00000000E+00
  0.00000000E+00  0.00000000E+00  0.00000000E+00
  0.00000000E+00  0.00000000E+00  0.00000000E+00
  0.00000000E+00  0.00000000E+00  0.00000000E+00
  0.00000000E+00  0.00000000E+00  0.00000000E+00
  0.00000000E+00  0.00000000E+00  0.00000000E+00
  0.00000000E+00  0.00000000E+00  0.00000000E+00
