CONTCAR\(13)                            
   1.00000000000000     
    12.8629999160999997    0.0000000000000000    0.0000000000000000
     0.0000000000000000   14.3196001052999993    0.0000000000000000
     0.0000000000000000    0.0000000000000000   19.5569992064999987
   Ag   Au   S    O 
    12    24    24     1
Direct
  0.0913855714555893  0.3449516082270563  0.6063907207035300
  0.2363526308580859  0.0942043267087129  0.6058402765626383
  0.4335272148779339  0.3397687093203885  0.5991348035201227
  0.5700126835810480  0.0716625965291797  0.5924914760599052
  0.7647258017861702  0.3180673524342055  0.5915325710560566
  0.8981944408126097  0.0867872229361595  0.6038538829417064
  0.0929023803441495  0.8405272460655482  0.6034179125466110
  0.2432784588150767  0.5958949636766420  0.6020607086903311
  0.4368935471311346  0.8445858406636688  0.6006936635783617
  0.5726166335199281  0.5724185635846837  0.5899314386667740
  0.7620968050446066  0.8202679256642398  0.5954656236721689
  0.9003684224992838  0.5848429478686938  0.6046265220590783
  0.0368287430870069  0.4961453804396214  0.5062904561956501
  0.2994564563663147  0.2531127072312600  0.5004068055929665
  0.1549335597807087  0.3586504521732934  0.3647739973311630
  0.1739272530819065  0.1141337178780191  0.4256711302204295
  0.3495471608633665  0.4950900141503922  0.4647630335530692
  0.6359704102078751  0.2379052120004559  0.4902881202741725
  0.4953445318907939  0.3711621620632641  0.4059294937096425
  0.4975440980582206  0.1239076708156333  0.4065674438333602
  0.7009128411996883  0.4879393362825155  0.4878232205417703
  0.9929658591851833  0.2363457837424789  0.4725477681735768
  0.8452280642233490  0.3612842186759337  0.4113379518744154
  0.8369724744260409  0.1105075078553526  0.4078182541397197
  0.0282053310542665  0.9931344079680713  0.5056844880877378
  0.3100936600741875  0.7535869630713421  0.4998190110268013
  0.1680432417904996  0.8612149229709587  0.3751648921970201
  0.1888179233448497  0.6168170574199294  0.4325698814536665
  0.3415000718720833  0.9971205623084245  0.4697567836900376
  0.6361664543491869  0.7385688417952423  0.4920620833429865
  0.4950958093481503  0.8730927952354151  0.4073694891918151
  0.5042380281469505  0.6204747748843076  0.4026215170917808
  0.6984311081259307  0.9902854507511734  0.4892546965040552
  0.9901797181075409  0.7403090149159084  0.4783971724920093
  0.8394235857884027  0.8602521037258057  0.4103156716763010
  0.8419318561202189  0.6102852497182383  0.4112951611087396
  0.2522927743138510  0.4916403220064680  0.3636688076720347
  0.2544480135430760  0.2624372986598189  0.6153936210157767
  0.0818954274378143  0.5134890326682253  0.6208398319867570
  0.0660011539980729  0.2189963062966029  0.3644255431999071
  0.6110923602219316  0.4916426266598037  0.3842994789216547
  0.5850302187116512  0.2429524466032049  0.6050232911144278
  0.3997657954069496  0.5039546972790987  0.5808340722451106
  0.3804677328141111  0.2471319957679583  0.3945148251099653
  0.9591285771766493  0.4860294216812875  0.4001204057583578
  0.9380264991236515  0.2499878146158068  0.5860480385127147
  0.7468626320270531  0.4895531837172626  0.6037987069816424
  0.7307309811820062  0.2394836831367755  0.3888957660064705
  0.2628379732456025  0.9961526631824356  0.3629106011239358
  0.2590727947889775  0.7646183542491727  0.6138786029735499
  0.0768288728485516  0.0091580767265498  0.6198055022534632
  0.0764243736845316  0.7227345609891387  0.3745444095801957
  0.6064586800695437  0.9967609494977907  0.3867227626520204
  0.5845101362424074  0.7434692483421372  0.6068580373317474
  0.3960066252075620  0.0071105443623694  0.5838123707897083
  0.3882857604456902  0.7438125447971302  0.3927064728752612
  0.9517249924487530  0.9850025518334746  0.3987584657994461
  0.9330381452560914  0.7505512518368533  0.5917469978368004
  0.7451547579860147  0.9913006878267012  0.6050760807945110
  0.7297941882061139  0.7349288077801859  0.3901757650619118
  0.2998879753949950  0.5214757287315592  0.2981940080424366
 
  0.00000000E+00  0.00000000E+00  0.00000000E+00
  0.00000000E+00  0.00000000E+00  0.00000000E+00
  0.00000000E+00  0.00000000E+00  0.00000000E+00
  0.00000000E+00  0.00000000E+00  0.00000000E+00
  0.00000000E+00  0.00000000E+00  0.00000000E+00
  0.00000000E+00  0.00000000E+00  0.00000000E+00
  0.00000000E+00  0.00000000E+00  0.00000000E+00
  0.00000000E+00  0.00000000E+00  0.00000000E+00
  0.00000000E+00  0.00000000E+00  0.00000000E+00
  0.00000000E+00  0.00000000E+00  0.00000000E+00
  0.00000000E+00  0.00000000E+00  0.00000000E+00
  0.00000000E+00  0.00000000E+00  0.00000000E+00
  0.00000000E+00  0.00000000E+00  0.00000000E+00
  0.00000000E+00  0.00000000E+00  0.00000000E+00
  0.00000000E+00  0.00000000E+00  0.00000000E+00
  0.00000000E+00  0.00000000E+00  0.00000000E+00
  0.00000000E+00  0.00000000E+00  0.00000000E+00
  0.00000000E+00  0.00000000E+00  0.00000000E+00
  0.00000000E+00  0.00000000E+00  0.00000000E+00
  0.00000000E+00  0.00000000E+00  0.00000000E+00
  0.00000000E+00  0.00000000E+00  0.00000000E+00
  0.00000000E+00  0.00000000E+00  0.00000000E+00
  0.00000000E+00  0.00000000E+00  0.00000000E+00
  0.00000000E+00  0.00000000E+00  0.00000000E+00
  0.00000000E+00  0.00000000E+00  0.00000000E+00
  0.00000000E+00  0.00000000E+00  0.00000000E+00
  0.00000000E+00  0.00000000E+00  0.00000000E+00
  0.00000000E+00  0.00000000E+00  0.00000000E+00
  0.00000000E+00  0.00000000E+00  0.00000000E+00
  0.00000000E+00  0.00000000E+00  0.00000000E+00
  0.00000000E+00  0.00000000E+00  0.00000000E+00
  0.00000000E+00  0.00000000E+00  0.00000000E+00
  0.00000000E+00  0.00000000E+00  0.00000000E+00
  0.00000000E+00  0.00000000E+00  0.00000000E+00
  0.00000000E+00  0.00000000E+00  0.00000000E+00
  0.00000000E+00  0.00000000E+00  0.00000000E+00
  0.00000000E+00  0.00000000E+00  0.00000000E+00
  0.00000000E+00  0.00000000E+00  0.00000000E+00
  0.00000000E+00  0.00000000E+00  0.00000000E+00
  0.00000000E+00  0.00000000E+00  0.00000000E+00
  0.00000000E+00  0.00000000E+00  0.00000000E+00
  0.00000000E+00  0.00000000E+00  0.00000000E+00
  0.00000000E+00  0.00000000E+00  0.00000000E+00
  0.00000000E+00  0.00000000E+00  0.00000000E+00
  0.00000000E+00  0.00000000E+00  0.00000000E+00
  0.00000000E+00  0.00000000E+00  0.00000000E+00
  0.00000000E+00  0.00000000E+00  0.00000000E+00
  0.00000000E+00  0.00000000E+00  0.00000000E+00
  0.00000000E+00  0.00000000E+00  0.00000000E+00
  0.00000000E+00  0.00000000E+00  0.00000000E+00
  0.00000000E+00  0.00000000E+00  0.00000000E+00
  0.00000000E+00  0.00000000E+00  0.00000000E+00
  0.00000000E+00  0.00000000E+00  0.00000000E+00
  0.00000000E+00  0.00000000E+00  0.00000000E+00
  0.00000000E+00  0.00000000E+00  0.00000000E+00
  0.00000000E+00  0.00000000E+00  0.00000000E+00
  0.00000000E+00  0.00000000E+00  0.00000000E+00
  0.00000000E+00  0.00000000E+00  0.00000000E+00
  0.00000000E+00  0.00000000E+00  0.00000000E+00
  0.00000000E+00  0.00000000E+00  0.00000000E+00
  0.00000000E+00  0.00000000E+00  0.00000000E+00
