CONTCAR\(5)                             
   1.00000000000000     
    11.8485002518000009    0.0000000000000000    0.0000000000000000
    -1.9747488887000000   10.7919135847999996    0.0000000000000000
     0.0000000000000000    0.0000000000000000   24.1044006348000011
   Er   I    O 
    18    21     1
Direct
  0.1304284020427157  0.7758919527491456  0.4864397994243101
  0.0746175786094793  0.4371768288412027  0.4512040981295896
  0.2758094835438510  0.6519276555265239  0.3861378365978271
  0.2599309599206605  0.5583977644718443  0.5519824984070508
  0.0597568054616395  0.3478113654739118  0.6304047634481682
  0.1999476781414961  0.2305222902050258  0.5249240432125331
  0.4617520220710304  0.7977244025483778  0.4878228843287764
  0.3925555217971616  0.4234807552423394  0.4511547621053492
  0.6062446388392538  0.6408342166370867  0.3978711133405485
  0.5932021179053215  0.5675462176668418  0.5448044079552762
  0.3907334809038893  0.3507644671458230  0.6257393006615874
  0.5335058625577024  0.2315885106054380  0.5224704463251600
  0.8024594243859081  0.7975705417638670  0.4878917440782860
  0.7453119838581974  0.4203314825016962  0.4528674578694066
  0.9405552222073842  0.6499819073870639  0.3879433109388286
  0.9279563560766886  0.5594530835072404  0.5507720507769026
  0.7260748266648538  0.3518238985107467  0.6236565990059999
  0.8825244999188460  0.2302852023172821  0.5248813910813781
  0.2530702767520085  0.5040249479011473  0.6938221011535732
  0.1427858310394842  0.8649815315945003  0.3642310707535216
  0.1912725612448725  0.1352113055204852  0.6478707426500666
  0.0829878168972865  0.5020640699914843  0.3180714772339130
  0.1263232055669575  0.7559064864636175  0.6095259122989686
  0.0055408908289265  0.0029017552346836  0.5074353404484916
  0.2010138236272576  0.2301151696506426  0.3989667259829041
  0.5851835197148986  0.5070134901117870  0.6879087211011400
  0.4794590473756704  0.8625950937232438  0.3643991144259543
  0.5235140017820210  0.1388032773497427  0.6457053052791623
  0.4182532026277074  0.4993382317354233  0.3206185553624392
  0.4591297286915115  0.7605271043178649  0.6086746655661007
  0.3295226170249079  0.0062619818200143  0.5069441691336425
  0.5372658546846926  0.2288803797659097  0.3987341809460717
  0.9156988512018537  0.5033550200406396  0.6922127856038335
  0.8071851854791606  0.8618099017149072  0.3645105662436804
  0.8557954648900283  0.1367562661957269  0.6477251340929052
  0.7474732423828173  0.4978401281762038  0.3219814034949092
  0.7944230624933060  0.7593201619569744  0.6084304786761011
  0.6705351175777665  0.0172845611597425  0.5090142290415284
  0.8758608984705978  0.2295990123423230  0.3994543597020038
  0.6204993277401930  0.7269185501314694  0.4794244941221233
 
  0.00000000E+00  0.00000000E+00  0.00000000E+00
  0.00000000E+00  0.00000000E+00  0.00000000E+00
  0.00000000E+00  0.00000000E+00  0.00000000E+00
  0.00000000E+00  0.00000000E+00  0.00000000E+00
  0.00000000E+00  0.00000000E+00  0.00000000E+00
  0.00000000E+00  0.00000000E+00  0.00000000E+00
  0.00000000E+00  0.00000000E+00  0.00000000E+00
  0.00000000E+00  0.00000000E+00  0.00000000E+00
  0.00000000E+00  0.00000000E+00  0.00000000E+00
  0.00000000E+00  0.00000000E+00  0.00000000E+00
  0.00000000E+00  0.00000000E+00  0.00000000E+00
  0.00000000E+00  0.00000000E+00  0.00000000E+00
  0.00000000E+00  0.00000000E+00  0.00000000E+00
  0.00000000E+00  0.00000000E+00  0.00000000E+00
  0.00000000E+00  0.00000000E+00  0.00000000E+00
  0.00000000E+00  0.00000000E+00  0.00000000E+00
  0.00000000E+00  0.00000000E+00  0.00000000E+00
  0.00000000E+00  0.00000000E+00  0.00000000E+00
  0.00000000E+00  0.00000000E+00  0.00000000E+00
  0.00000000E+00  0.00000000E+00  0.00000000E+00
  0.00000000E+00  0.00000000E+00  0.00000000E+00
  0.00000000E+00  0.00000000E+00  0.00000000E+00
  0.00000000E+00  0.00000000E+00  0.00000000E+00
  0.00000000E+00  0.00000000E+00  0.00000000E+00
  0.00000000E+00  0.00000000E+00  0.00000000E+00
  0.00000000E+00  0.00000000E+00  0.00000000E+00
  0.00000000E+00  0.00000000E+00  0.00000000E+00
  0.00000000E+00  0.00000000E+00  0.00000000E+00
  0.00000000E+00  0.00000000E+00  0.00000000E+00
  0.00000000E+00  0.00000000E+00  0.00000000E+00
  0.00000000E+00  0.00000000E+00  0.00000000E+00
  0.00000000E+00  0.00000000E+00  0.00000000E+00
  0.00000000E+00  0.00000000E+00  0.00000000E+00
  0.00000000E+00  0.00000000E+00  0.00000000E+00
  0.00000000E+00  0.00000000E+00  0.00000000E+00
  0.00000000E+00  0.00000000E+00  0.00000000E+00
  0.00000000E+00  0.00000000E+00  0.00000000E+00
  0.00000000E+00  0.00000000E+00  0.00000000E+00
  0.00000000E+00  0.00000000E+00  0.00000000E+00
  0.00000000E+00  0.00000000E+00  0.00000000E+00
