CONTCAR\(3)                             
   1.00000000000000     
    15.2456998825000003    0.0000000000000000    0.0000000000000000
     7.6228095670000000   13.2074592144000000    0.0000000000000000
     0.0000000000000000    0.0000000000000000   19.0911998748999991
   Nb   I    O    H 
    12    32     1     1
Selective dynamics
Direct
  0.2051026325303553  0.3995827264067131  0.4886379207659814   F   F   F
  0.4003408451147976  0.4006667665232584  0.4910796406009013   F   F   F
  0.3991397278876292  0.2056001095638891  0.4890794702096741   F   F   F
  0.7021683495170876  0.4007047509042465  0.4911288817691073   F   F   F
  0.9010831601308524  0.4010026696449955  0.4907283116818206   F   F   F
  0.9007059201956480  0.2033191130832819  0.4906953017150926   F   F   F
  0.2029358747104482  0.9009922731050963  0.4907789209380198   F   F   F
  0.4006441516904005  0.9013725517114963  0.4909409086069019   F   F   F
  0.4004903912978790  0.7024983318886839  0.4912292189043796   F   F   F
  0.7024885306845050  0.9015141965048272  0.4905149727467020   F   F   F
  0.9005696005645021  0.9011834638042373  0.4903633863615227   F   F   F
  0.9009823416737248  0.7030905893833861  0.4904932044725570   F   F   F
  0.5022987014447153  0.2520867543896799  0.3907192714309033   F   F   F
  0.2509880496042669  0.2510241447343446  0.3897955125047403   F   F   F
  0.2519927055427900  0.5026120471428825  0.3904741905865166   F   F   F
  0.3324286616220178  0.0874371622086585  0.5710249207034295   F   F   F
  0.0866056713703003  0.0868771850096479  0.5707484303640840   F   F   F
  0.0872335771617472  0.3328979848977127  0.5706742497024209   F   F   F
  0.9999072115388472  0.5023912414996659  0.4130667656228582   F   F   F
  0.3373310299645880  0.3375899961466970  0.6030749637622819   F   F   F
  0.0006712877221062  0.2522390258158964  0.3908340899432332   F   F   F
  0.7519675838585798  0.2520025552478700  0.3908660629754266   F   F   F
  0.7512731945087125  0.5010512466392498  0.3913806248660734   F   F   F
  0.8319795177868912  0.0864832916228764  0.5709212268552193   F   F   F
  0.5863502042089621  0.0874890563054933  0.5697391374041629   F   F   F
  0.5861821791204207  0.3338770140619260  0.5717697341020127   F   F   F
  0.5015718285162194  0.5019362967217234  0.4139856986127981   F   F   F
  0.8350861721086105  0.3348650006667810  0.6026173680266638   F   F   F
  0.5007204328826802  0.7516450205960226  0.3915366609225899   F   F   F
  0.2517654911531864  0.7521984748922534  0.3909378238372838   F   F   F
  0.2518952530121013  0.0009743327287239  0.3909876968564134   F   F   F
  0.3336552871322169  0.5862714783666760  0.5718055025099602   F   F   F
  0.0871469452110958  0.5866206631908426  0.5695577428353005   F   F   F
  0.0860755192798734  0.8322020579507523  0.5707740622391171   F   F   F
  0.0014086511364937  0.0017963573978719  0.4137736974394528   F   F   F
  0.3344982877447862  0.8352935618825086  0.6027621901323243   F   F   F
  0.0002820901799510  0.7523758591245411  0.3903990434496549   F   F   F
  0.7515518321529626  0.7520661245471629  0.3909606524041465   F   F   F
  0.7517358178579130  0.0006955646597362  0.3903131682974674   F   F   F
  0.8321699613815667  0.5864739061757547  0.5711525448900758   F   F   F
  0.5869239806808082  0.5871712370570918  0.5708162158790202   F   F   F
  0.5861638500212152  0.8324789017613980  0.5713307772596892   F   F   F
  0.5016918265229720  0.0004597022005939  0.4133916143503100   F   F   F
  0.8347495799501132  0.8354107135322053  0.6023072558293734   F   F   F
  0.3977539471244000  0.3876990048153388  0.6975253810959927   T   T   T
  0.3788811864980701  0.3681899764853469  0.7405697662181060   T   T   T
 
  0.00000000E+00  0.00000000E+00  0.00000000E+00
  0.00000000E+00  0.00000000E+00  0.00000000E+00
  0.00000000E+00  0.00000000E+00  0.00000000E+00
  0.00000000E+00  0.00000000E+00  0.00000000E+00
  0.00000000E+00  0.00000000E+00  0.00000000E+00
  0.00000000E+00  0.00000000E+00  0.00000000E+00
  0.00000000E+00  0.00000000E+00  0.00000000E+00
  0.00000000E+00  0.00000000E+00  0.00000000E+00
  0.00000000E+00  0.00000000E+00  0.00000000E+00
  0.00000000E+00  0.00000000E+00  0.00000000E+00
  0.00000000E+00  0.00000000E+00  0.00000000E+00
  0.00000000E+00  0.00000000E+00  0.00000000E+00
  0.00000000E+00  0.00000000E+00  0.00000000E+00
  0.00000000E+00  0.00000000E+00  0.00000000E+00
  0.00000000E+00  0.00000000E+00  0.00000000E+00
  0.00000000E+00  0.00000000E+00  0.00000000E+00
  0.00000000E+00  0.00000000E+00  0.00000000E+00
  0.00000000E+00  0.00000000E+00  0.00000000E+00
  0.00000000E+00  0.00000000E+00  0.00000000E+00
  0.00000000E+00  0.00000000E+00  0.00000000E+00
  0.00000000E+00  0.00000000E+00  0.00000000E+00
  0.00000000E+00  0.00000000E+00  0.00000000E+00
  0.00000000E+00  0.00000000E+00  0.00000000E+00
  0.00000000E+00  0.00000000E+00  0.00000000E+00
  0.00000000E+00  0.00000000E+00  0.00000000E+00
  0.00000000E+00  0.00000000E+00  0.00000000E+00
  0.00000000E+00  0.00000000E+00  0.00000000E+00
  0.00000000E+00  0.00000000E+00  0.00000000E+00
  0.00000000E+00  0.00000000E+00  0.00000000E+00
  0.00000000E+00  0.00000000E+00  0.00000000E+00
  0.00000000E+00  0.00000000E+00  0.00000000E+00
  0.00000000E+00  0.00000000E+00  0.00000000E+00
  0.00000000E+00  0.00000000E+00  0.00000000E+00
  0.00000000E+00  0.00000000E+00  0.00000000E+00
  0.00000000E+00  0.00000000E+00  0.00000000E+00
  0.00000000E+00  0.00000000E+00  0.00000000E+00
  0.00000000E+00  0.00000000E+00  0.00000000E+00
  0.00000000E+00  0.00000000E+00  0.00000000E+00
  0.00000000E+00  0.00000000E+00  0.00000000E+00
  0.00000000E+00  0.00000000E+00  0.00000000E+00
  0.00000000E+00  0.00000000E+00  0.00000000E+00
  0.00000000E+00  0.00000000E+00  0.00000000E+00
  0.00000000E+00  0.00000000E+00  0.00000000E+00
  0.00000000E+00  0.00000000E+00  0.00000000E+00
  0.00000000E+00  0.00000000E+00  0.00000000E+00
  0.00000000E+00  0.00000000E+00  0.00000000E+00
