 Co2 Se2                                
   1.00000000000000     
     3.6038246137881114    0.0000000000000000    0.0000000000000000
     0.0000000000000000    3.6038244421733112    0.0000000000000000
     0.0000000000000000    0.0000000000000000   17.7828840476240018
   Co   Se
     2     2
Direct
  0.0000000010285242 -0.0000000011554387  0.5000000002431165
  0.4999999985903096  0.5000000008633627  0.4999999997597980
 -0.0000000021526157  0.4999999982858831  0.5812970947047849
  0.5000000025337807  0.0000000020061927  0.4187029052923006
 
  0.00000000E+00  0.00000000E+00  0.00000000E+00
  0.00000000E+00  0.00000000E+00  0.00000000E+00
  0.00000000E+00  0.00000000E+00  0.00000000E+00
  0.00000000E+00  0.00000000E+00  0.00000000E+00
