CONTCAR\(5)                             
   1.00000000000000     
    12.4510002136000004    0.0000000000000000    0.0000000000000000
     6.2255001068000002   10.7828824875000002    0.0000000000000000
     0.0000000000000000    0.0000000000000000   35.7985992432000018
   Ge   Te   As   O    H 
    36    63    18     1     1
Direct
  0.0057338852557518  0.0044774098907981  0.6489089940223466
  0.2255691386869777  0.2239683547804528  0.4510769638696041
  0.1152850658666838  0.1130646517871305  0.5495656912241892
  0.0024610937792447  0.0000296106611064  0.3527106061700868
  0.3314222058669599  0.0058799062321931  0.6499640043933691
  0.5591510689156199  0.2219098749241884  0.4520751072812783
  0.4484929515326544  0.1115935235245276  0.5499158583046166
  0.3365576294102374  0.0002235086741118  0.3525816989169968
  0.6684352366487013  0.0046184562256375  0.6490299431191993
  0.8921440521548862  0.2231436079617923  0.4511238220359466
  0.7831329101330611  0.1104162981411455  0.5501707895326622
  0.6692881100378746  0.0006895562932442  0.3526824797253283
  0.0077390054277325  0.3293736960398547  0.6497950778561959
  0.2234966809410508  0.5575049765203864  0.4521731295970089
  0.1134205374955435  0.4467544015696674  0.5500348440528717
  0.0025794778370463  0.3343682708182660  0.3525882396960947
  0.3387021076456717  0.3364048990144481  0.6483309283297505
  0.5585565029567368  0.5564024325340593  0.4518973451664705
  0.4482461138199756  0.4465535380892008  0.5491052168654191
  0.3358179018893261  0.3340918858248704  0.3530291645911833
  0.6698584828903698  0.3366573472259023  0.6480443700422762
  0.8914778515305731  0.5578151130885785  0.4517268870394175
  0.7832506396691082  0.4460383898188611  0.5497532112838538
  0.6681319490657764  0.3343122979809118  0.3533257667924339
  0.0060622691184717  0.6665674635869060  0.6491707116740306
  0.2252163180815179  0.8897914757018676  0.4511405805647560
  0.1127920751638767  0.7810215732951820  0.5501956140269429
  0.0025455016556696  0.6674486753692612  0.3525845561585156
  0.3388237497248956  0.6678435643224587  0.6481583335502046
  0.5596905590918219  0.8894892097490297  0.4516021268609095
  0.4478108295522601  0.7815847712505534  0.5497920904485929
  0.3364388782520785  0.6661364294613185  0.3531897742798004
  0.6699035150221677  0.6684331437629607  0.6485723105705957
  0.8918510094062486  0.8892973940720095  0.4518429383000822
  0.7797370008842353  0.7785293235698593  0.5518723566217438
  0.6692972621435641  0.6673206247199636  0.3527052911492230
  0.9972177877056078  0.9979607622018790  0.7912583229318171
  0.1093041976388476  0.1101464999675500  0.6935127939614277
  0.2170213532799299  0.2187851627025852  0.3043813216974122
  0.9954232545405866  0.9967660601245830  0.2097094855903478
  0.9946598812695442  0.9967348842098132  0.5002825461686053
  0.1053566869602774  0.1071764803956529  0.4022678431269532
  0.2179841502682696  0.2196719557329513  0.5981270373654550
  0.3302416398752442 -0.0001945208490291  0.7916583256928800
  0.4413366067839767  0.1099611512184708  0.6966638449837111
  0.5504234258001351  0.2188534110026474  0.3044101168113176
  0.3282425550268557  0.9968661693897066  0.2097131298333640
  0.3280624987532973  0.9969318100344603  0.5000385527481158
  0.4385755633063200  0.1076908334665526  0.4019821361441188
  0.5508572835229146  0.2196587039405457  0.5984375438960517
  0.6634780787678707  0.9990444045352224  0.7912587253164495
  0.7752850904118215  0.1090316924673079  0.6961522253460777
  0.8832886619211633  0.2186827390827798  0.3045335308184013
  0.6619898287275711  0.9967880396865735  0.2095980150570218
  0.6612847999921946  0.9967382239027371  0.4999988265573667
  0.7720555207531685  0.1070686911030088  0.4022686737454719
  0.8833796096392493  0.2204856361800662  0.5979517256641446
  0.9988202172011021  0.3315006255193088  0.7915481172911817
  0.1086430965839653  0.4426258614481847  0.6966253397548493
  0.2170091941425486  0.5523133631660194  0.3043365989859654
  0.9949023070411394  0.3298991538295997  0.2097951110337835
  0.9951140014321772  0.3298856039399716  0.5000804999325046
  0.1050290945822727  0.4411124954878303  0.4021045875973945
  0.2176687332097131  0.5527785474217261  0.5984752267527467
  0.3353071041784411  0.3359332486448836  0.7937168043174376
  0.4411346119004200  0.4427087903467679  0.6964896603239440
  0.5503029467140182  0.5517993060099520  0.3044844521260871
  0.3285386782413984  0.3297475209051386  0.2096137145622654
  0.3276820696202185  0.3303345176490817  0.5003204573334049
  0.4381217875386660  0.4411009995445380  0.4022600321793954
  0.5510065209238175  0.5528268845921548  0.5982785680437506
  0.6686473196087435  0.3294175582685894  0.7921245597225620
  0.7738056706442975  0.4433255075651358  0.6963338189023572
  0.8835908555144693  0.5519447434589134  0.3044179141609830
  0.6620448314554767  0.3301244528768836  0.2095674458432083
  0.6617438658155436  0.3295905616257173  0.5003260949894459
  0.7718719814750249  0.4408302018282240  0.4023263047563620
  0.8838124348315979  0.5537231211614027  0.5978452534204702
  0.9978275355479026  0.6649594504702425  0.7910500742028964
  0.1074395839740367  0.7768617394654656  0.6962212810224814
  0.2170760255095200  0.8851857365802777  0.3044823326326416
  0.9956106540067079  0.6635938460675516  0.2095516136055440
  0.9942857631964760  0.6635898768794553  0.5001010200495934
  0.1050720857310602  0.7741509520755605  0.4022472183671262
  0.2186398072718219  0.8853061144989235  0.5979461003676239
  0.3298280454664711  0.6675389046594310  0.7923043207716080
  0.4423138500933887  0.7746122439452641  0.6965050251637149
  0.5506314416500601  0.8850878665853998  0.3044255871591831
  0.3288581233751397  0.6633517524049060  0.2096633344376231
  0.3275026729451841  0.6637520942284711  0.5004166870153717
  0.4386163682169393  0.7740470157368700  0.4023165565028317
  0.5516542268483867  0.8858701070551077  0.5978200400195148
  0.6647108511728601  0.6656943435828495  0.7911706979762361
  0.7742184845774915  0.7759386809005685  0.6963825435733602
  0.8837314238270733  0.8854515608813412  0.3043250052401206
  0.6618615845977532  0.6630005434200295  0.2096405062029308
  0.6616129566283251  0.6637359488304464  0.4998952227860269
  0.7721612641384674  0.7742078422323773  0.4020034386586329
  0.8839878852762468  0.8858860522668539  0.5982860125133137
  0.1129801803386140  0.1115941230682474  0.2528360152358447
  0.2273583879816588  0.2247411278663703  0.7510458978071076
  0.4472704964574942  0.1122279867484279  0.2527219391187617
  0.5597087376185220  0.2229831439099074  0.7491563549196967
  0.7804538199100417  0.1124169424851167  0.2527531150358822
  0.8867061815871248  0.2270357535266823  0.7508660860956311
  0.1137341794604935  0.4454113780773386  0.2526807767000724
  0.2259614773470897  0.5573168946264730  0.7489454473085206
  0.4474443912534539  0.4452663817946051  0.2527757192849089
  0.5619446624474581  0.5594138191991739  0.7482557052495521
  0.7800184445552655  0.4446829391662668  0.2527265919201315
  0.8948557959815570  0.5578019901768961  0.7477810797745864
  0.1143827785014047  0.7784343622506462  0.2528113072759204
  0.2289664571792378  0.8849611943098032  0.7508570737773385
  0.4467944723518928  0.7789666902684641  0.2526391964965299
  0.5600308755367436  0.8922432464033940  0.7480843759047646
  0.7805871762286168  0.7784847494692275  0.2522762431823800
  0.8942813331801382  0.8914395026759060  0.7472339787609169
  0.4367534136351378  0.4387609271245660  0.8201915629911203
  0.4334308012425797  0.4359382008161890  0.8474740742913547
 
  0.00000000E+00  0.00000000E+00  0.00000000E+00
  0.00000000E+00  0.00000000E+00  0.00000000E+00
  0.00000000E+00  0.00000000E+00  0.00000000E+00
  0.00000000E+00  0.00000000E+00  0.00000000E+00
  0.00000000E+00  0.00000000E+00  0.00000000E+00
  0.00000000E+00  0.00000000E+00  0.00000000E+00
  0.00000000E+00  0.00000000E+00  0.00000000E+00
  0.00000000E+00  0.00000000E+00  0.00000000E+00
  0.00000000E+00  0.00000000E+00  0.00000000E+00
  0.00000000E+00  0.00000000E+00  0.00000000E+00
  0.00000000E+00  0.00000000E+00  0.00000000E+00
  0.00000000E+00  0.00000000E+00  0.00000000E+00
  0.00000000E+00  0.00000000E+00  0.00000000E+00
  0.00000000E+00  0.00000000E+00  0.00000000E+00
  0.00000000E+00  0.00000000E+00  0.00000000E+00
  0.00000000E+00  0.00000000E+00  0.00000000E+00
  0.00000000E+00  0.00000000E+00  0.00000000E+00
  0.00000000E+00  0.00000000E+00  0.00000000E+00
  0.00000000E+00  0.00000000E+00  0.00000000E+00
  0.00000000E+00  0.00000000E+00  0.00000000E+00
  0.00000000E+00  0.00000000E+00  0.00000000E+00
  0.00000000E+00  0.00000000E+00  0.00000000E+00
  0.00000000E+00  0.00000000E+00  0.00000000E+00
  0.00000000E+00  0.00000000E+00  0.00000000E+00
  0.00000000E+00  0.00000000E+00  0.00000000E+00
  0.00000000E+00  0.00000000E+00  0.00000000E+00
  0.00000000E+00  0.00000000E+00  0.00000000E+00
  0.00000000E+00  0.00000000E+00  0.00000000E+00
  0.00000000E+00  0.00000000E+00  0.00000000E+00
  0.00000000E+00  0.00000000E+00  0.00000000E+00
  0.00000000E+00  0.00000000E+00  0.00000000E+00
  0.00000000E+00  0.00000000E+00  0.00000000E+00
  0.00000000E+00  0.00000000E+00  0.00000000E+00
  0.00000000E+00  0.00000000E+00  0.00000000E+00
  0.00000000E+00  0.00000000E+00  0.00000000E+00
  0.00000000E+00  0.00000000E+00  0.00000000E+00
  0.00000000E+00  0.00000000E+00  0.00000000E+00
  0.00000000E+00  0.00000000E+00  0.00000000E+00
  0.00000000E+00  0.00000000E+00  0.00000000E+00
  0.00000000E+00  0.00000000E+00  0.00000000E+00
  0.00000000E+00  0.00000000E+00  0.00000000E+00
  0.00000000E+00  0.00000000E+00  0.00000000E+00
  0.00000000E+00  0.00000000E+00  0.00000000E+00
  0.00000000E+00  0.00000000E+00  0.00000000E+00
  0.00000000E+00  0.00000000E+00  0.00000000E+00
  0.00000000E+00  0.00000000E+00  0.00000000E+00
  0.00000000E+00  0.00000000E+00  0.00000000E+00
  0.00000000E+00  0.00000000E+00  0.00000000E+00
  0.00000000E+00  0.00000000E+00  0.00000000E+00
  0.00000000E+00  0.00000000E+00  0.00000000E+00
  0.00000000E+00  0.00000000E+00  0.00000000E+00
  0.00000000E+00  0.00000000E+00  0.00000000E+00
  0.00000000E+00  0.00000000E+00  0.00000000E+00
  0.00000000E+00  0.00000000E+00  0.00000000E+00
  0.00000000E+00  0.00000000E+00  0.00000000E+00
  0.00000000E+00  0.00000000E+00  0.00000000E+00
  0.00000000E+00  0.00000000E+00  0.00000000E+00
  0.00000000E+00  0.00000000E+00  0.00000000E+00
  0.00000000E+00  0.00000000E+00  0.00000000E+00
  0.00000000E+00  0.00000000E+00  0.00000000E+00
  0.00000000E+00  0.00000000E+00  0.00000000E+00
  0.00000000E+00  0.00000000E+00  0.00000000E+00
  0.00000000E+00  0.00000000E+00  0.00000000E+00
  0.00000000E+00  0.00000000E+00  0.00000000E+00
  0.00000000E+00  0.00000000E+00  0.00000000E+00
  0.00000000E+00  0.00000000E+00  0.00000000E+00
  0.00000000E+00  0.00000000E+00  0.00000000E+00
  0.00000000E+00  0.00000000E+00  0.00000000E+00
  0.00000000E+00  0.00000000E+00  0.00000000E+00
  0.00000000E+00  0.00000000E+00  0.00000000E+00
  0.00000000E+00  0.00000000E+00  0.00000000E+00
  0.00000000E+00  0.00000000E+00  0.00000000E+00
  0.00000000E+00  0.00000000E+00  0.00000000E+00
  0.00000000E+00  0.00000000E+00  0.00000000E+00
  0.00000000E+00  0.00000000E+00  0.00000000E+00
  0.00000000E+00  0.00000000E+00  0.00000000E+00
  0.00000000E+00  0.00000000E+00  0.00000000E+00
  0.00000000E+00  0.00000000E+00  0.00000000E+00
  0.00000000E+00  0.00000000E+00  0.00000000E+00
  0.00000000E+00  0.00000000E+00  0.00000000E+00
  0.00000000E+00  0.00000000E+00  0.00000000E+00
  0.00000000E+00  0.00000000E+00  0.00000000E+00
  0.00000000E+00  0.00000000E+00  0.00000000E+00
  0.00000000E+00  0.00000000E+00  0.00000000E+00
  0.00000000E+00  0.00000000E+00  0.00000000E+00
  0.00000000E+00  0.00000000E+00  0.00000000E+00
  0.00000000E+00  0.00000000E+00  0.00000000E+00
  0.00000000E+00  0.00000000E+00  0.00000000E+00
  0.00000000E+00  0.00000000E+00  0.00000000E+00
  0.00000000E+00  0.00000000E+00  0.00000000E+00
  0.00000000E+00  0.00000000E+00  0.00000000E+00
  0.00000000E+00  0.00000000E+00  0.00000000E+00
  0.00000000E+00  0.00000000E+00  0.00000000E+00
  0.00000000E+00  0.00000000E+00  0.00000000E+00
  0.00000000E+00  0.00000000E+00  0.00000000E+00
  0.00000000E+00  0.00000000E+00  0.00000000E+00
  0.00000000E+00  0.00000000E+00  0.00000000E+00
  0.00000000E+00  0.00000000E+00  0.00000000E+00
  0.00000000E+00  0.00000000E+00  0.00000000E+00
  0.00000000E+00  0.00000000E+00  0.00000000E+00
  0.00000000E+00  0.00000000E+00  0.00000000E+00
  0.00000000E+00  0.00000000E+00  0.00000000E+00
  0.00000000E+00  0.00000000E+00  0.00000000E+00
  0.00000000E+00  0.00000000E+00  0.00000000E+00
  0.00000000E+00  0.00000000E+00  0.00000000E+00
  0.00000000E+00  0.00000000E+00  0.00000000E+00
  0.00000000E+00  0.00000000E+00  0.00000000E+00
  0.00000000E+00  0.00000000E+00  0.00000000E+00
  0.00000000E+00  0.00000000E+00  0.00000000E+00
  0.00000000E+00  0.00000000E+00  0.00000000E+00
  0.00000000E+00  0.00000000E+00  0.00000000E+00
  0.00000000E+00  0.00000000E+00  0.00000000E+00
  0.00000000E+00  0.00000000E+00  0.00000000E+00
  0.00000000E+00  0.00000000E+00  0.00000000E+00
  0.00000000E+00  0.00000000E+00  0.00000000E+00
  0.00000000E+00  0.00000000E+00  0.00000000E+00
  0.00000000E+00  0.00000000E+00  0.00000000E+00
  0.00000000E+00  0.00000000E+00  0.00000000E+00
  0.00000000E+00  0.00000000E+00  0.00000000E+00
