CONTCAR\(2)                             
   1.00000000000000     
    15.6181001662999996    0.0000000000000000    0.0000000000000000
     0.0000000000000000   13.6417999267999992    0.0000000000000000
     0.0000000000000000    0.0000000000000000   21.1772994994999983
   Tb   Br
    20    32
Direct
  0.1250000000000000  0.5246204442532859  0.4025390480740554
  0.1250000000000000  0.4754030705028870  0.5973113025668001
 -0.0000000000000000  0.6390473927794790  0.5146559395859412
 -0.0000000000000000  0.3610491042334041  0.4852395655446900
  0.1250000000000000 -0.0000516583869882  0.5000348124384307
  0.3750000080000007  0.5246204442532859  0.4025390480740554
  0.3750000080000007  0.4754030705028870  0.5973113025668001
  0.2500000000000000  0.6390473927794790  0.5146559395859412
  0.2500000000000000  0.3610491042334041  0.4852395655446900
  0.3750000080000007 -0.0000516583869882  0.5000348124384307
  0.6249999919999993  0.5246204442532859  0.4025390480740554
  0.6249999919999993  0.4754030705028870  0.5973113025668001
  0.5000000000000000  0.6390473927794790  0.5146559395859412
  0.5000000000000000  0.3610491042334041  0.4852395655446900
  0.6249999919999993 -0.0000516583869882  0.5000348124384307
  0.8749999770000016  0.5246204442532859  0.4025390480740554
  0.8749999770000016  0.4754030705028870  0.5973113025668001
  0.7500000149999977  0.6390473927794790  0.5146559395859412
  0.7500000149999977  0.3610491042334041  0.4852395655446900
  0.8749999770000016 -0.0000516583869882  0.5000348124384307
  0.1250000000000000  0.1989721683540272  0.4620169603751229
  0.1250000000000000  0.8011499327230062  0.5383392511277660
 -0.0000000000000000  0.3897959403265688  0.3488959611709481
  0.0000000000000000  0.6100730545634980  0.6510206465833877
 -0.0000000000000000  0.0379470565129533  0.5917780641140303
 -0.0000000000000000  0.3210282323218109  0.6197929559539851
 -0.0000000000000000  0.6790388361595385  0.3801104167459102
 -0.0000000000000000  0.9619265576565191  0.4082549887189323
  0.3750000080000007  0.1989721683540272  0.4620169603751229
  0.3750000080000007  0.8011499327230062  0.5383392511277660
  0.2500000000000000  0.3897959403265688  0.3488959611709481
  0.2500000000000000  0.6100730545634980  0.6510206465833877
  0.2500000000000000  0.0379470565129533  0.5917780641140303
  0.2500000000000000  0.3210282323218109  0.6197929559539851
  0.2500000000000000  0.6790388361595385  0.3801104167459102
  0.2500000000000000  0.9619265576565191  0.4082549887189323
  0.6249999919999993  0.1989721683540272  0.4620169603751229
  0.6249999919999993  0.8011499327230062  0.5383392511277660
  0.5000000000000000  0.3897959403265688  0.3488959611709481
  0.5000000000000000  0.6100730545634980  0.6510206465833877
  0.5000000000000000  0.0379470565129533  0.5917780641140303
  0.5000000000000000  0.3210282323218109  0.6197929559539851
  0.5000000000000000  0.6790388361595385  0.3801104167459102
  0.5000000000000000  0.9619265576565191  0.4082549887189323
  0.8749999770000016  0.1989721683540272  0.4620169603751229
  0.8749999770000016  0.8011499327230062  0.5383392511277660
  0.7500000149999977  0.3897959403265688  0.3488959611709481
  0.7500000149999977  0.6100730545634980  0.6510206465833877
  0.7500000149999977  0.0379470565129533  0.5917780641140303
  0.7500000149999977  0.3210282323218109  0.6197929559539851
  0.7500000149999977  0.6790388361595385  0.3801104167459102
  0.7500000149999977  0.9619265576565191  0.4082549887189323
 
  0.00000000E+00  0.00000000E+00  0.00000000E+00
  0.00000000E+00  0.00000000E+00  0.00000000E+00
  0.00000000E+00  0.00000000E+00  0.00000000E+00
  0.00000000E+00  0.00000000E+00  0.00000000E+00
  0.00000000E+00  0.00000000E+00  0.00000000E+00
  0.00000000E+00  0.00000000E+00  0.00000000E+00
  0.00000000E+00  0.00000000E+00  0.00000000E+00
  0.00000000E+00  0.00000000E+00  0.00000000E+00
  0.00000000E+00  0.00000000E+00  0.00000000E+00
  0.00000000E+00  0.00000000E+00  0.00000000E+00
  0.00000000E+00  0.00000000E+00  0.00000000E+00
  0.00000000E+00  0.00000000E+00  0.00000000E+00
  0.00000000E+00  0.00000000E+00  0.00000000E+00
  0.00000000E+00  0.00000000E+00  0.00000000E+00
  0.00000000E+00  0.00000000E+00  0.00000000E+00
  0.00000000E+00  0.00000000E+00  0.00000000E+00
  0.00000000E+00  0.00000000E+00  0.00000000E+00
  0.00000000E+00  0.00000000E+00  0.00000000E+00
  0.00000000E+00  0.00000000E+00  0.00000000E+00
  0.00000000E+00  0.00000000E+00  0.00000000E+00
  0.00000000E+00  0.00000000E+00  0.00000000E+00
  0.00000000E+00  0.00000000E+00  0.00000000E+00
  0.00000000E+00  0.00000000E+00  0.00000000E+00
  0.00000000E+00  0.00000000E+00  0.00000000E+00
  0.00000000E+00  0.00000000E+00  0.00000000E+00
  0.00000000E+00  0.00000000E+00  0.00000000E+00
  0.00000000E+00  0.00000000E+00  0.00000000E+00
  0.00000000E+00  0.00000000E+00  0.00000000E+00
  0.00000000E+00  0.00000000E+00  0.00000000E+00
  0.00000000E+00  0.00000000E+00  0.00000000E+00
  0.00000000E+00  0.00000000E+00  0.00000000E+00
  0.00000000E+00  0.00000000E+00  0.00000000E+00
  0.00000000E+00  0.00000000E+00  0.00000000E+00
  0.00000000E+00  0.00000000E+00  0.00000000E+00
  0.00000000E+00  0.00000000E+00  0.00000000E+00
  0.00000000E+00  0.00000000E+00  0.00000000E+00
  0.00000000E+00  0.00000000E+00  0.00000000E+00
  0.00000000E+00  0.00000000E+00  0.00000000E+00
  0.00000000E+00  0.00000000E+00  0.00000000E+00
  0.00000000E+00  0.00000000E+00  0.00000000E+00
  0.00000000E+00  0.00000000E+00  0.00000000E+00
  0.00000000E+00  0.00000000E+00  0.00000000E+00
  0.00000000E+00  0.00000000E+00  0.00000000E+00
  0.00000000E+00  0.00000000E+00  0.00000000E+00
  0.00000000E+00  0.00000000E+00  0.00000000E+00
  0.00000000E+00  0.00000000E+00  0.00000000E+00
  0.00000000E+00  0.00000000E+00  0.00000000E+00
  0.00000000E+00  0.00000000E+00  0.00000000E+00
  0.00000000E+00  0.00000000E+00  0.00000000E+00
  0.00000000E+00  0.00000000E+00  0.00000000E+00
  0.00000000E+00  0.00000000E+00  0.00000000E+00
  0.00000000E+00  0.00000000E+00  0.00000000E+00
