CONTCAR\(3)                             
   1.00000000000000     
    14.6440000533999992    0.0000000000000000    0.0000000000000000
     0.0000000000000000   14.6358003615999994    0.0000000000000000
     0.0000000000000000    0.0000000000000000   19.3710002898999996
   Pd   Se   O    H 
    18    18    56     1
Direct
  0.0024345246127098  0.1667775523945281  0.5000156123067541
  0.1691895089997217  0.9999653310272052  0.5002488846259041
  0.3357969955370379  0.1668353339952660  0.5000039456642185
  0.5030014977451103  0.0005416527995550  0.5003990330001002
  0.6690739223934301  0.1667516344748350  0.5000923211410822
  0.8361109222884906  0.0000425020776831  0.5001657939743183
  0.0032466296789195  0.4997994998829398  0.4978821179327539
  0.1693189293454509  0.3334185855529199  0.4989086089489092
  0.3360571651266753  0.4999763321680106  0.4979014436857483
  0.5028259516706797  0.3336653227125268  0.4993807240518535
  0.6701178070474398  0.5001840866534337  0.4998290897215156
  0.8364416772916670  0.3334959336712089  0.4997079534337203
  0.0029967615704933  0.8332716525347479  0.4990012824915055
  0.1695549642014456  0.6661863679882387  0.4974946781871736
  0.3364019353963457  0.8338478976950299  0.4996152918670873
  0.5035433531335940  0.6671551872286017  0.4996022109518634
  0.6697526391682302  0.8336364691485230  0.5000149209550457
  0.8364635098511997  0.6666800996215727  0.4988153203501184
  0.1684318386007746  0.1665245983745507  0.6154078572417419
  0.1699195184888325  0.1661103120069143  0.3842796482382980
  0.5015910717140102  0.1669438144378432  0.6156558224869144
  0.5033765482505217  0.1670199619520858  0.3844016436927973
  0.8349654306171885  0.1661346320185757  0.6156241026870930
  0.8363808232907459  0.1670261459636748  0.3845220089586334
  0.1688806268232597  0.5003571434071432  0.6140672858127161
  0.1704367208698940  0.4999364133302961  0.3821963432138205
  0.5009098771841849  0.5000265574427658  0.6147375159936104
  0.5045568994281666  0.5012599511001596  0.3837321267474962
  0.8372978285677988  0.5000819181739260  0.6145525080731460
  0.8362064604060109  0.5003712115859500  0.3833589050814865
  0.1690233917048403  0.8305805718045107  0.6146950808256477
  0.1706836487988284  0.8349836055002271  0.3836042224922522
  0.5019675483647248  0.8328924716519026  0.6155599285194668
  0.5039282342847002  0.8348757468472812  0.3843562234088225
  0.8363297869696424  0.8318551782335533  0.6151646078399224
  0.8364384823055104  0.8347142782843378  0.3839202620481217
  0.1471176332015816  0.2772323395938159  0.4043006182491240
  0.2808255470046603  0.1434846386071840  0.4053459260553183
  0.1127943055445044  0.1102582584489085  0.4564110576199241
  0.1912684437372718  0.0554054514504259  0.5949671793074103
  0.2254168617973562  0.2233725208736175  0.5436929675108715
  0.0575247580645382  0.1894018047632784  0.5946823599722748
  0.4807196538512031  0.2781281601701480  0.4047151797065425
  0.6142448268925733  0.1441625146619145  0.4052984204661669
  0.4464680095719160  0.1107382787984008  0.4564545858649041
  0.5246460510543542  0.0558836268216183  0.5952103626947149
  0.5589117331874363  0.2235975257521758  0.5439379179561570
  0.3907490984826012  0.1897583811250669  0.5946964527556915
  0.8134891090269534  0.2780173034687934  0.4051092080434557
  0.9473205243745610  0.1442518346674007  0.4052438991703227
  0.7795630728810821  0.1104064173562165  0.4564785345061679
  0.8579924675648769  0.0551360618863654  0.5949953031211166
  0.8921605739686882  0.2230733827622586  0.5439729205332853
  0.7240756214559596  0.1889907573656870  0.5948357904488404
  0.1474343273602443  0.6110097800205949  0.4026948510946085
  0.2812904166934516  0.4769604663348588  0.4031280941370312
  0.1125357149708108  0.4424480949010032  0.4533562130120359
  0.1916736882005026  0.3891537834962620  0.5933864000493827
  0.2248561290999262  0.5552330772689871  0.5405034797489776
  0.0580389785648450  0.5224497230929330  0.5924736151338621
  0.4815349463775149  0.6121045465294586  0.4047726033567614
  0.6152504998564368  0.4781890967398681  0.4048993330182853
  0.4470644081298403  0.4438760632130183  0.4549054467739424
  0.5242833613698252  0.3890792309481057  0.5941547646507388
  0.5598811082330926  0.5569325161469507  0.5437678185301635
  0.3905767178982984  0.5231632884360522  0.5926853974445052
  0.8137482153638942  0.6114835404883650  0.4041116774626019
  0.9472613534021548  0.4773189422785435  0.4033114635093042
  0.7799910192978530  0.4435340967724031  0.4555442743413778
  0.8599101015516339  0.3889280148514018  0.5941467227759674
  0.8930734827950175  0.5561225402846759  0.5419782065413230
  0.7260170819977958  0.5224772526675281  0.5943579209157122
  0.1474568804138201  0.9456100429258925  0.4051302243254682
  0.2814423538137589  0.8118656580400554  0.4047588586306006
  0.1128975213554355  0.7769086140178274  0.4543115977359875
  0.1923303234779894  0.7203921407896559  0.5923603711195966
  0.2260826723666440  0.8896534785431172  0.5437951214107244
  0.0583021784079705  0.8542574979296376  0.5938416355211302
  0.4811167967429881  0.9457144822408878  0.4054818530426161
  0.6147944584618159  0.8118911368053645  0.4051518604392115
  0.4468972050601963  0.7775239937774856  0.4557749621889258
  0.5252667640792197  0.7221310495795876  0.5944681355282029
  0.5598240197797892  0.8904385526743823  0.5444052261915218
  0.3912890753564611  0.8560235888099328  0.5943944352397992
  0.8137544519574789  0.9455255161271410  0.4052024121646198
  0.9474372033736316  0.8116791903916649  0.4042661512135410
  0.7798648606618528  0.7774007186079928  0.4556498770294368
  0.8592918416224578  0.7212025599717293  0.5936507943379468
  0.8931891989565699  0.8897754006686966  0.5437369073033622
  0.7253734608444731  0.8551066297389056  0.5947082374510018
  0.1659670618609042  0.5234825579368945  0.7724734585600146
  0.1503141866549953  0.4917653961352215  0.8374817428813230
  0.1539041811980653  0.4245125545010993  0.8331238385544637
 
  0.00000000E+00  0.00000000E+00  0.00000000E+00
  0.00000000E+00  0.00000000E+00  0.00000000E+00
  0.00000000E+00  0.00000000E+00  0.00000000E+00
  0.00000000E+00  0.00000000E+00  0.00000000E+00
  0.00000000E+00  0.00000000E+00  0.00000000E+00
  0.00000000E+00  0.00000000E+00  0.00000000E+00
  0.00000000E+00  0.00000000E+00  0.00000000E+00
  0.00000000E+00  0.00000000E+00  0.00000000E+00
  0.00000000E+00  0.00000000E+00  0.00000000E+00
  0.00000000E+00  0.00000000E+00  0.00000000E+00
  0.00000000E+00  0.00000000E+00  0.00000000E+00
  0.00000000E+00  0.00000000E+00  0.00000000E+00
  0.00000000E+00  0.00000000E+00  0.00000000E+00
  0.00000000E+00  0.00000000E+00  0.00000000E+00
  0.00000000E+00  0.00000000E+00  0.00000000E+00
  0.00000000E+00  0.00000000E+00  0.00000000E+00
  0.00000000E+00  0.00000000E+00  0.00000000E+00
  0.00000000E+00  0.00000000E+00  0.00000000E+00
  0.00000000E+00  0.00000000E+00  0.00000000E+00
  0.00000000E+00  0.00000000E+00  0.00000000E+00
  0.00000000E+00  0.00000000E+00  0.00000000E+00
  0.00000000E+00  0.00000000E+00  0.00000000E+00
  0.00000000E+00  0.00000000E+00  0.00000000E+00
  0.00000000E+00  0.00000000E+00  0.00000000E+00
  0.00000000E+00  0.00000000E+00  0.00000000E+00
  0.00000000E+00  0.00000000E+00  0.00000000E+00
  0.00000000E+00  0.00000000E+00  0.00000000E+00
  0.00000000E+00  0.00000000E+00  0.00000000E+00
  0.00000000E+00  0.00000000E+00  0.00000000E+00
  0.00000000E+00  0.00000000E+00  0.00000000E+00
  0.00000000E+00  0.00000000E+00  0.00000000E+00
  0.00000000E+00  0.00000000E+00  0.00000000E+00
  0.00000000E+00  0.00000000E+00  0.00000000E+00
  0.00000000E+00  0.00000000E+00  0.00000000E+00
  0.00000000E+00  0.00000000E+00  0.00000000E+00
  0.00000000E+00  0.00000000E+00  0.00000000E+00
  0.00000000E+00  0.00000000E+00  0.00000000E+00
  0.00000000E+00  0.00000000E+00  0.00000000E+00
  0.00000000E+00  0.00000000E+00  0.00000000E+00
  0.00000000E+00  0.00000000E+00  0.00000000E+00
  0.00000000E+00  0.00000000E+00  0.00000000E+00
  0.00000000E+00  0.00000000E+00  0.00000000E+00
  0.00000000E+00  0.00000000E+00  0.00000000E+00
  0.00000000E+00  0.00000000E+00  0.00000000E+00
  0.00000000E+00  0.00000000E+00  0.00000000E+00
  0.00000000E+00  0.00000000E+00  0.00000000E+00
  0.00000000E+00  0.00000000E+00  0.00000000E+00
  0.00000000E+00  0.00000000E+00  0.00000000E+00
  0.00000000E+00  0.00000000E+00  0.00000000E+00
  0.00000000E+00  0.00000000E+00  0.00000000E+00
  0.00000000E+00  0.00000000E+00  0.00000000E+00
  0.00000000E+00  0.00000000E+00  0.00000000E+00
  0.00000000E+00  0.00000000E+00  0.00000000E+00
  0.00000000E+00  0.00000000E+00  0.00000000E+00
  0.00000000E+00  0.00000000E+00  0.00000000E+00
  0.00000000E+00  0.00000000E+00  0.00000000E+00
  0.00000000E+00  0.00000000E+00  0.00000000E+00
  0.00000000E+00  0.00000000E+00  0.00000000E+00
  0.00000000E+00  0.00000000E+00  0.00000000E+00
  0.00000000E+00  0.00000000E+00  0.00000000E+00
  0.00000000E+00  0.00000000E+00  0.00000000E+00
  0.00000000E+00  0.00000000E+00  0.00000000E+00
  0.00000000E+00  0.00000000E+00  0.00000000E+00
  0.00000000E+00  0.00000000E+00  0.00000000E+00
  0.00000000E+00  0.00000000E+00  0.00000000E+00
  0.00000000E+00  0.00000000E+00  0.00000000E+00
  0.00000000E+00  0.00000000E+00  0.00000000E+00
  0.00000000E+00  0.00000000E+00  0.00000000E+00
  0.00000000E+00  0.00000000E+00  0.00000000E+00
  0.00000000E+00  0.00000000E+00  0.00000000E+00
  0.00000000E+00  0.00000000E+00  0.00000000E+00
  0.00000000E+00  0.00000000E+00  0.00000000E+00
  0.00000000E+00  0.00000000E+00  0.00000000E+00
  0.00000000E+00  0.00000000E+00  0.00000000E+00
  0.00000000E+00  0.00000000E+00  0.00000000E+00
  0.00000000E+00  0.00000000E+00  0.00000000E+00
  0.00000000E+00  0.00000000E+00  0.00000000E+00
  0.00000000E+00  0.00000000E+00  0.00000000E+00
  0.00000000E+00  0.00000000E+00  0.00000000E+00
  0.00000000E+00  0.00000000E+00  0.00000000E+00
  0.00000000E+00  0.00000000E+00  0.00000000E+00
  0.00000000E+00  0.00000000E+00  0.00000000E+00
  0.00000000E+00  0.00000000E+00  0.00000000E+00
  0.00000000E+00  0.00000000E+00  0.00000000E+00
  0.00000000E+00  0.00000000E+00  0.00000000E+00
  0.00000000E+00  0.00000000E+00  0.00000000E+00
  0.00000000E+00  0.00000000E+00  0.00000000E+00
  0.00000000E+00  0.00000000E+00  0.00000000E+00
  0.00000000E+00  0.00000000E+00  0.00000000E+00
  0.00000000E+00  0.00000000E+00  0.00000000E+00
  0.00000000E+00  0.00000000E+00  0.00000000E+00
  0.00000000E+00  0.00000000E+00  0.00000000E+00
  0.00000000E+00  0.00000000E+00  0.00000000E+00
