CONTCAR\(9)                             
   1.00000000000000     
    12.3274002075000002    0.0000000000000000    0.0000000000000000
     0.0000000000000000   15.7540998459000008    0.0000000000000000
     0.0000000000000000    0.0000000000000000   20.2700004577999984
   Pr   Br   O    H 
    12    30     1     1
Selective dynamics
Direct
  0.2488407136175042  0.6335617339082162  0.5063124167977904   F   F   F
  0.0827251629454153  0.3551025280429556  0.4716544179135838   F   F   F
  0.2410089676650600  0.1304225404432700  0.5303025441365179   F   F   F
  0.0816246198327519  0.8594654059470841  0.4658418147034382   F   F   F
  0.5823566523339849  0.6399831610708517  0.5101047805269587   F   F   F
  0.4219989251930798  0.3648510788941337  0.4614263966736090   F   F   F
  0.5824948032128106  0.1164522169768318  0.6060821853554614   F   F   F
  0.4170214543423327  0.8686625556281058  0.4774814818052278   F   F   F
  0.9165731336790444  0.6333253923827158  0.5062826051274740   F   F   F
  0.7430914307231120  0.3650086911263486  0.4613090301079268   F   F   F
  0.9236185328728865  0.1311180586580392  0.5313891756347502   F   F   F
  0.7472207605617101  0.8679304158533370  0.4776586895208013   F   F   F
  0.2579524821834056  0.8898936394455106  0.3712749923162804   F   F   F
  0.0827821374928988  0.1292093619813386  0.6348402519979288   F   F   F
  0.2476146418975063  0.4798068291237740  0.4079728018125763   F   F   F
  0.0828910814258847  0.5095191545807367  0.5644466476614554   F   F   F
  0.0813683229196656  0.0569468596585949  0.4373166947677944   F   F   F
  0.2376829906660234  0.9342330369600944  0.5625244525327062   F   F   F
  0.0823760124148194  0.7337278632346411  0.5821446490427746   F   F   F
  0.2537090621901328  0.2463507412110388  0.4021239150198426   F   F   F
  0.0826980476960273  0.6839547935474855  0.4047470220844431   F   F   F
  0.2619891904565748  0.3149849400466138  0.5701333565806692   F   F   F
  0.5828442543917376  0.8951993581624791  0.3769937663792149   F   F   F
  0.3608103750371896  0.1028672404235778  0.6513200070182492   F   F   F
  0.5824385694299892  0.4940061145067958  0.4077555689864667   F   F   F
  0.4190581881920608  0.5119507760398676  0.5626818668230840   F   F   F
  0.4385311867246600  0.0721354915780310  0.4675482842596779   F   F   F
  0.5823105431043771  0.9224513453562651  0.5839874294707030   F   F   F
  0.4091579192021086  0.7348257710333783  0.5872747849462456   F   F   F
  0.5825332027332450  0.2697829197284634  0.3814538952748450   F   F   F
  0.4172205586357549  0.6927201831568937  0.4102029655508588   F   F   F
  0.5829527830374275  0.3047682043553621  0.5629667018227309   F   F   F
  0.9054916454673219  0.8897325353253720  0.3711247781298894   F   F   F
  0.8042879679395512  0.1042209686301163  0.6535409322422225   F   F   F
  0.9177985752154711  0.4797699250132013  0.4079629031991203   F   F   F
  0.7460251173289478  0.5118209687595439  0.5626069671108453   F   F   F
  0.7227039300899918  0.0746188712600073  0.4709068708301558   F   F   F
  0.9255267561021299  0.9348344469030536  0.5627786115654771   F   F   F
  0.7560387589504671  0.7346755036628920  0.5872912048696719   F   F   F
  0.9109253526722298  0.2462268689367590  0.4027387642150231   F   F   F
  0.7480031762875399  0.6922106375318009  0.4102406075476281   F   F   F
  0.9031171265125835  0.3158981141796104  0.5705339203793400   F   F   F
  0.5812705612279458  0.1767269442630877  0.6998172699364247   T   T   T
  0.6333245663946911  0.1965654214717390  0.7314313464720487   T   T   T
 
  0.00000000E+00  0.00000000E+00  0.00000000E+00
  0.00000000E+00  0.00000000E+00  0.00000000E+00
  0.00000000E+00  0.00000000E+00  0.00000000E+00
  0.00000000E+00  0.00000000E+00  0.00000000E+00
  0.00000000E+00  0.00000000E+00  0.00000000E+00
  0.00000000E+00  0.00000000E+00  0.00000000E+00
  0.00000000E+00  0.00000000E+00  0.00000000E+00
  0.00000000E+00  0.00000000E+00  0.00000000E+00
  0.00000000E+00  0.00000000E+00  0.00000000E+00
  0.00000000E+00  0.00000000E+00  0.00000000E+00
  0.00000000E+00  0.00000000E+00  0.00000000E+00
  0.00000000E+00  0.00000000E+00  0.00000000E+00
  0.00000000E+00  0.00000000E+00  0.00000000E+00
  0.00000000E+00  0.00000000E+00  0.00000000E+00
  0.00000000E+00  0.00000000E+00  0.00000000E+00
  0.00000000E+00  0.00000000E+00  0.00000000E+00
  0.00000000E+00  0.00000000E+00  0.00000000E+00
  0.00000000E+00  0.00000000E+00  0.00000000E+00
  0.00000000E+00  0.00000000E+00  0.00000000E+00
  0.00000000E+00  0.00000000E+00  0.00000000E+00
  0.00000000E+00  0.00000000E+00  0.00000000E+00
  0.00000000E+00  0.00000000E+00  0.00000000E+00
  0.00000000E+00  0.00000000E+00  0.00000000E+00
  0.00000000E+00  0.00000000E+00  0.00000000E+00
  0.00000000E+00  0.00000000E+00  0.00000000E+00
  0.00000000E+00  0.00000000E+00  0.00000000E+00
  0.00000000E+00  0.00000000E+00  0.00000000E+00
  0.00000000E+00  0.00000000E+00  0.00000000E+00
  0.00000000E+00  0.00000000E+00  0.00000000E+00
  0.00000000E+00  0.00000000E+00  0.00000000E+00
  0.00000000E+00  0.00000000E+00  0.00000000E+00
  0.00000000E+00  0.00000000E+00  0.00000000E+00
  0.00000000E+00  0.00000000E+00  0.00000000E+00
  0.00000000E+00  0.00000000E+00  0.00000000E+00
  0.00000000E+00  0.00000000E+00  0.00000000E+00
  0.00000000E+00  0.00000000E+00  0.00000000E+00
  0.00000000E+00  0.00000000E+00  0.00000000E+00
  0.00000000E+00  0.00000000E+00  0.00000000E+00
  0.00000000E+00  0.00000000E+00  0.00000000E+00
  0.00000000E+00  0.00000000E+00  0.00000000E+00
  0.00000000E+00  0.00000000E+00  0.00000000E+00
  0.00000000E+00  0.00000000E+00  0.00000000E+00
  0.00000000E+00  0.00000000E+00  0.00000000E+00
  0.00000000E+00  0.00000000E+00  0.00000000E+00
