CONTCAR\(13)                            
   1.00000000000000     
    11.2263002396000005    0.0000000000000000    0.0000000000000000
     0.0000000000000000   21.7961997986000000    0.0000000000000000
     0.0000000000000000    0.0000000000000000   19.3752994536999985
   Ta   Te   Pd   O    H 
     9    42     9     1     1
Direct
  0.1669858619922821  0.4776048045802074  0.4980010261785340
  0.1651754299818680  0.1235956012750061  0.5025654554651304
  0.1657444329856435  0.7756156625482415  0.5139175573401715
  0.5000948780487759  0.4785298172887394  0.4974220260731101
  0.4996697576707295  0.1249826612636730  0.5159034368548526
  0.4999285852112960  0.7756802337358923  0.5137611485853253
  0.8332341167406813  0.4776012173986788  0.4980493820328619
  0.8345300703075629  0.1236217016028418  0.5025543535011827
  0.8342806083505632  0.7756459531478787  0.5139836324425060
  0.0000553095167635  0.4091915674593799  0.4190596236972505
  0.1646128512016522  0.2397231543130026  0.4270177470508201
  0.1620759201666674  0.8887831715420115  0.5898694314853272
  0.0000031192376232  0.8425097020978852  0.4330120106965776
  0.0000979226415539  0.5501791957317652  0.4232998421789841
  0.0001660179278634  0.4822398602145875  0.6107284532864917
  0.1654680201941294  0.0042409583174539  0.4336565554336160
  0.9998435295803703  0.0550766591697210  0.5831730203817850
  0.1665029607622447  0.5940188915943656  0.5703773966903519
  0.9997882082241818  0.1966136988793841  0.5776691180142794
  0.1657675964559084  0.6993805475609045  0.4048385176088473
  0.9998669791239857  0.1201301972111141  0.3900263702489532
  0.0000193062000920  0.7396431260435562  0.6119721691289384
  0.1665071996931507  0.3611346132362852  0.5734204523638383
  0.3339047409523503  0.4112195640473018  0.4160862095738330
  0.4999554526112300  0.2376006594147462  0.4288455782584014
  0.4996033677307861  0.8893673568206071  0.5883696565234969
  0.3334951771366871  0.8437856899360775  0.4336928350872686
  0.3331623233162531  0.5526845643774455  0.4243485333799967
  0.3343477838223732  0.4817651433224142  0.6104637580539355
  0.4998965948480872  0.0064521753170461  0.4415535267526884
  0.3219503332598497  0.0494714360329759  0.5834075724704143
  0.5000705394294309  0.5938101473617072  0.5715719591895511
  0.3232825793265828  0.2056407482728139  0.5733444589840309
  0.5001658087262081  0.6998140829584354  0.4046847425450182
  0.3393250719079275  0.1202608741306537  0.3950753822841143
  0.3331141798785969  0.7402450457172790  0.6115064451337712
  0.4999952251798175  0.3616479375803929  0.5710436096915018
  0.6664236457810916  0.4111008512785102  0.4162795079524783
  0.8352692077489632  0.2397345214951646  0.4269249382962134
  0.8378338956510629  0.8888227783391655  0.5899180346624604
  0.6664075790311900  0.8439142772435299  0.4339601058607328
  0.6670297687508524  0.5526755935436423  0.4243460391791009
  0.6658639436019047  0.4817490256912038  0.6104821400001248
  0.8342099530203279  0.0041787551467723  0.4338052547923704
  0.6775621761866448  0.0498099791406408  0.5836875625447295
  0.8336554135791140  0.5940144900158352  0.5703450600929650
  0.6763118409767966  0.2055540115023852  0.5733731100182838
  0.8343963256511419  0.6995509520129715  0.4047850121385811
  0.6604794166859115  0.1202138833152783  0.3950794629384787
  0.6667811482321093  0.7401403422647883  0.6114671731278907
  0.8334693954098434  0.3611264993118969  0.5734639798769827
 -0.0000437450124272  0.9463393606257839  0.5103394770783524
 -0.0000641130065428  0.3017104210237010  0.4989596104637657
  0.0000436607182357  0.6619045860899697  0.5004005940285837
  0.3290236517812419  0.9452763669874795  0.5116316566196289
  0.3309406254637381  0.3045164445220064  0.4942894152151828
  0.3336597322047251  0.6617746877387790  0.5006115257247227
  0.6705832826016590  0.9454206875868606  0.5119399749282775
  0.6689864190912358  0.3044198320395933  0.4943668150038284
  0.6665357576627819  0.6617086378085469  0.5005720930125506
  0.4989679841755411  0.1406682552100148  0.6284048828108403
  0.4981048806711227  0.1033863625629758  0.6570340839650789
 
  0.00000000E+00  0.00000000E+00  0.00000000E+00
  0.00000000E+00  0.00000000E+00  0.00000000E+00
  0.00000000E+00  0.00000000E+00  0.00000000E+00
  0.00000000E+00  0.00000000E+00  0.00000000E+00
  0.00000000E+00  0.00000000E+00  0.00000000E+00
  0.00000000E+00  0.00000000E+00  0.00000000E+00
  0.00000000E+00  0.00000000E+00  0.00000000E+00
  0.00000000E+00  0.00000000E+00  0.00000000E+00
  0.00000000E+00  0.00000000E+00  0.00000000E+00
  0.00000000E+00  0.00000000E+00  0.00000000E+00
  0.00000000E+00  0.00000000E+00  0.00000000E+00
  0.00000000E+00  0.00000000E+00  0.00000000E+00
  0.00000000E+00  0.00000000E+00  0.00000000E+00
  0.00000000E+00  0.00000000E+00  0.00000000E+00
  0.00000000E+00  0.00000000E+00  0.00000000E+00
  0.00000000E+00  0.00000000E+00  0.00000000E+00
  0.00000000E+00  0.00000000E+00  0.00000000E+00
  0.00000000E+00  0.00000000E+00  0.00000000E+00
  0.00000000E+00  0.00000000E+00  0.00000000E+00
  0.00000000E+00  0.00000000E+00  0.00000000E+00
  0.00000000E+00  0.00000000E+00  0.00000000E+00
  0.00000000E+00  0.00000000E+00  0.00000000E+00
  0.00000000E+00  0.00000000E+00  0.00000000E+00
  0.00000000E+00  0.00000000E+00  0.00000000E+00
  0.00000000E+00  0.00000000E+00  0.00000000E+00
  0.00000000E+00  0.00000000E+00  0.00000000E+00
  0.00000000E+00  0.00000000E+00  0.00000000E+00
  0.00000000E+00  0.00000000E+00  0.00000000E+00
  0.00000000E+00  0.00000000E+00  0.00000000E+00
  0.00000000E+00  0.00000000E+00  0.00000000E+00
  0.00000000E+00  0.00000000E+00  0.00000000E+00
  0.00000000E+00  0.00000000E+00  0.00000000E+00
  0.00000000E+00  0.00000000E+00  0.00000000E+00
  0.00000000E+00  0.00000000E+00  0.00000000E+00
  0.00000000E+00  0.00000000E+00  0.00000000E+00
  0.00000000E+00  0.00000000E+00  0.00000000E+00
  0.00000000E+00  0.00000000E+00  0.00000000E+00
  0.00000000E+00  0.00000000E+00  0.00000000E+00
  0.00000000E+00  0.00000000E+00  0.00000000E+00
  0.00000000E+00  0.00000000E+00  0.00000000E+00
  0.00000000E+00  0.00000000E+00  0.00000000E+00
  0.00000000E+00  0.00000000E+00  0.00000000E+00
  0.00000000E+00  0.00000000E+00  0.00000000E+00
  0.00000000E+00  0.00000000E+00  0.00000000E+00
  0.00000000E+00  0.00000000E+00  0.00000000E+00
  0.00000000E+00  0.00000000E+00  0.00000000E+00
  0.00000000E+00  0.00000000E+00  0.00000000E+00
  0.00000000E+00  0.00000000E+00  0.00000000E+00
  0.00000000E+00  0.00000000E+00  0.00000000E+00
  0.00000000E+00  0.00000000E+00  0.00000000E+00
  0.00000000E+00  0.00000000E+00  0.00000000E+00
  0.00000000E+00  0.00000000E+00  0.00000000E+00
  0.00000000E+00  0.00000000E+00  0.00000000E+00
  0.00000000E+00  0.00000000E+00  0.00000000E+00
  0.00000000E+00  0.00000000E+00  0.00000000E+00
  0.00000000E+00  0.00000000E+00  0.00000000E+00
  0.00000000E+00  0.00000000E+00  0.00000000E+00
  0.00000000E+00  0.00000000E+00  0.00000000E+00
  0.00000000E+00  0.00000000E+00  0.00000000E+00
  0.00000000E+00  0.00000000E+00  0.00000000E+00
  0.00000000E+00  0.00000000E+00  0.00000000E+00
  0.00000000E+00  0.00000000E+00  0.00000000E+00
