CONTCAR                                 
   1.00000000000000     
    12.0100002288999992    0.0000000000000000    0.0000000000000000
     0.0000000000000000   13.6953001021999992    0.0000000000000000
     0.0000000000000000    0.0000000000000000   20.2971992493000002
   Hf   Te   O    H 
     6    30     1     1
Direct
  0.1671595175541295  0.0000558754153935  0.5458285510459876
  0.9934681847623991  0.5000647329693511  0.4606998125992824
  0.5013739658218765  0.0000167332975821  0.5460697584325790
  0.3340157889145344  0.5000274120504201  0.4205907203192232
  0.8341075504272961  0.0000244730169732  0.5516304519472177
  0.6755892981006881  0.5000133571191078  0.4611012485573897
  0.0018717543804461  0.6860886593280633  0.5336980322712102
  0.1650997061291855  0.8159184550734189  0.4675128036883799
  0.1788097278970397  0.5000315833852912  0.5538724101042038
  0.9965900666512129  0.0001172592018294  0.4389752181690904
  0.1331884303075312  0.6028056446300193  0.3671637611517226
  0.0033802167104324  0.8982115971248255  0.6308498429006146
  0.0034079966891001  0.1018947198277678  0.6308580961962789
  0.1331550358186839  0.3972862933425441  0.3671513342486918
  0.0017363450255351  0.3140492902246449  0.5337077549503210
  0.1650501271538956  0.1841606041757799  0.4675128440161445
  0.3349613238873766  0.6748332054299049  0.5146895745922150
  0.5037456961721294  0.8164428634816862  0.4675656495664323
  0.4909362250826440  0.5002813916490658  0.5548257323322586
  0.3345273301572964  0.0000016878173965  0.4356380363306109
  0.5369501837998389  0.6017430023964605  0.3665175683655422
  0.3339749634069967  0.8984686005312691  0.6270733861888139
  0.3340106298663899  0.1016754688510284  0.6270367630894175
  0.5369336472647841  0.3982464526986875  0.3665415294266711
  0.3348744064086811  0.3252378889220311  0.5146787293730998
  0.5037534989693072  0.1836362230045656  0.4675716768519416
  0.6665175815824677  0.6862889001879297  0.5338769820535941
  0.8340960680472600  0.8171085205321520  0.4746348311256806
  0.8349721331261237  0.4999985946355241  0.5720411713322460
  0.6724439175938453  0.0000408190278224  0.4390439415016016
  0.8342002968979388  0.6009791001655587  0.3742833188847240
  0.6649076863094967  0.8980925767245619  0.6309247978220957
  0.6649372140306957  0.1018218144664573  0.6309647090975307
  0.8341904030707495  0.3990993722430160  0.3742862460878362
  0.6664535185742824  0.3137311380911292  0.5338776293775002
  0.8341028965888518  0.1829260892654907  0.4746430299132733
  0.3432749789262380  0.5000117811800379  0.3199466831312384
  0.2790916958926243  0.5000477235152020  0.2906354009573782
 
  0.00000000E+00  0.00000000E+00  0.00000000E+00
  0.00000000E+00  0.00000000E+00  0.00000000E+00
  0.00000000E+00  0.00000000E+00  0.00000000E+00
  0.00000000E+00  0.00000000E+00  0.00000000E+00
  0.00000000E+00  0.00000000E+00  0.00000000E+00
  0.00000000E+00  0.00000000E+00  0.00000000E+00
  0.00000000E+00  0.00000000E+00  0.00000000E+00
  0.00000000E+00  0.00000000E+00  0.00000000E+00
  0.00000000E+00  0.00000000E+00  0.00000000E+00
  0.00000000E+00  0.00000000E+00  0.00000000E+00
  0.00000000E+00  0.00000000E+00  0.00000000E+00
  0.00000000E+00  0.00000000E+00  0.00000000E+00
  0.00000000E+00  0.00000000E+00  0.00000000E+00
  0.00000000E+00  0.00000000E+00  0.00000000E+00
  0.00000000E+00  0.00000000E+00  0.00000000E+00
  0.00000000E+00  0.00000000E+00  0.00000000E+00
  0.00000000E+00  0.00000000E+00  0.00000000E+00
  0.00000000E+00  0.00000000E+00  0.00000000E+00
  0.00000000E+00  0.00000000E+00  0.00000000E+00
  0.00000000E+00  0.00000000E+00  0.00000000E+00
  0.00000000E+00  0.00000000E+00  0.00000000E+00
  0.00000000E+00  0.00000000E+00  0.00000000E+00
  0.00000000E+00  0.00000000E+00  0.00000000E+00
  0.00000000E+00  0.00000000E+00  0.00000000E+00
  0.00000000E+00  0.00000000E+00  0.00000000E+00
  0.00000000E+00  0.00000000E+00  0.00000000E+00
  0.00000000E+00  0.00000000E+00  0.00000000E+00
  0.00000000E+00  0.00000000E+00  0.00000000E+00
  0.00000000E+00  0.00000000E+00  0.00000000E+00
  0.00000000E+00  0.00000000E+00  0.00000000E+00
  0.00000000E+00  0.00000000E+00  0.00000000E+00
  0.00000000E+00  0.00000000E+00  0.00000000E+00
  0.00000000E+00  0.00000000E+00  0.00000000E+00
  0.00000000E+00  0.00000000E+00  0.00000000E+00
  0.00000000E+00  0.00000000E+00  0.00000000E+00
  0.00000000E+00  0.00000000E+00  0.00000000E+00
  0.00000000E+00  0.00000000E+00  0.00000000E+00
  0.00000000E+00  0.00000000E+00  0.00000000E+00
