CONTCAR                                 
   1.00000000000000     
    13.8964004516999999    0.0000000000000000    0.0000000000000000
     0.0991868080000000   15.6682861384999992    0.0000000000000000
     0.0000000000000000    0.0000000000000000   19.4270992279000012
   Ta   Ni   Se
    16     8    40
Direct
  0.0639612353449260  0.1094800707519127  0.4803090548255198
  0.0610214525361853  0.3907115959602637  0.4803287469105141
  0.1860328345769437  0.8907273738257944  0.5196712809662450
  0.1889721989972479  0.6094860194972475  0.5196846142877746
  0.3139612613449282  0.1094800707519127  0.4803090548255198
  0.3110214565361856  0.3907115959602637  0.4803287469105141
  0.4360328165769494  0.8907273738257944  0.5196712809662450
  0.4389722169972423  0.6094860194972475  0.5196846142877746
  0.5639612613449282  0.1094800707519127  0.4803090548255198
  0.5610214565361856  0.3907115959602637  0.4803287469105141
  0.6860327825769466  0.8907273738257944  0.5196712809662450
  0.6889722509972451  0.6094860194972475  0.5196846142877746
  0.8139612273449254  0.1094800707519127  0.4803090548255198
  0.8110214225361899  0.3907115959602637  0.4803287469105141
  0.9360327825769466  0.8907273738257944  0.5196712809662450
  0.9389722509972451  0.6094860194972475  0.5196846142877746
  0.1874704346677169  0.2500871487026148  0.4668993224971716
  0.0625396385148678  0.7501037988041735  0.5330885305915503
  0.4374704346677169  0.2500871487026148  0.4668993224971716
  0.3125396335148638  0.7501037988041735  0.5330885305915503
  0.6874705036677190  0.2500871487026148  0.4668993224971716
  0.5625396335148638  0.7501037988041735  0.5330885305915503
  0.9374705036677190  0.2500871487026148  0.4668993224971716
  0.8125395995148610  0.7501037988041735  0.5330885305915503
  0.1867901821436170  0.1395011280395786  0.3858100493198949
  0.1882505060247168  0.3606833229326196  0.3858211422810764
  0.0632181812608751  0.8607030427652277  0.6141792881366295
  0.0617630199891134  0.6395095255214586  0.6141913294297832
  0.0632159744987641  0.9501835451206652  0.4297322090373593
  0.0617999967097149  0.5500104118065273  0.4297683073640042
  0.1867752662302091  0.0500136652003069  0.5702493284541218
  0.1881900832964584  0.4501863649750793  0.5702453288179832
  0.0625179723176331  0.2500821578643179  0.5507315992608633
  0.1874810088910095  0.7501008952322011  0.4492700118195142
  0.4367901651436120  0.1395011280395786  0.3858100493198949
  0.4382505410247162  0.3606833229326196  0.3858211422810764
  0.3132181992608766  0.8607030427652277  0.6141792881366295
  0.3117629939891112  0.6395095255214586  0.6141913294297832
  0.3132159924987656  0.9501835451206652  0.4297322090373593
  0.3117999587097188  0.5500104118065273  0.4297683073640042
  0.4367752462302145  0.0500236662003066  0.5702493284541218
  0.4381901002964562  0.4501863649750793  0.5702453288179832
  0.3125179683176398  0.2500821578643179  0.5507315992608633
  0.4374810088910095  0.7501008952322011  0.4492700118195142
  0.6867901991436148  0.1395011280395786  0.3858100493198949
  0.6882505060247168  0.3606833229326196  0.3858211422810764
  0.5632181642608772  0.8607030427652277  0.6141792881366295
  0.5617629939891112  0.6395095255214586  0.6141913294297832
  0.5632159924987655  0.9501835451206652  0.4297322090373593
  0.5617999927097145  0.5500104118065273  0.4297683073640042
  0.6867752812302139  0.0500236662003066  0.5702493284541218
  0.6881901002964562  0.4501863649750793  0.5702453288179832
  0.5625179683176398  0.2500821578643179  0.5507315992608633
  0.6874810438910088  0.7501008952322011  0.4492700118195142
  0.9367901991436148  0.1395011280395786  0.3858100493198949
  0.9382505060247168  0.3606833229326196  0.3858211422810764
  0.8132181302608744  0.8607030427652277  0.6141792881366295
  0.8117630289891106  0.6395095255214586  0.6141913294297832
  0.8132159234987634  0.9501835451206652  0.4297322090373593
  0.8118000617097166  0.5500104118065273  0.4297683073640042
  0.9367752832302141  0.0500136652003069  0.5702493284541218
  0.9381901002964562  0.4501863649750793  0.5702453288179832
  0.8125179683176398  0.2500821578643179  0.5507315992608633
  0.9374810438910088  0.7501008952322011  0.4492700118195142
 
  0.00000000E+00  0.00000000E+00  0.00000000E+00
  0.00000000E+00  0.00000000E+00  0.00000000E+00
  0.00000000E+00  0.00000000E+00  0.00000000E+00
  0.00000000E+00  0.00000000E+00  0.00000000E+00
  0.00000000E+00  0.00000000E+00  0.00000000E+00
  0.00000000E+00  0.00000000E+00  0.00000000E+00
  0.00000000E+00  0.00000000E+00  0.00000000E+00
  0.00000000E+00  0.00000000E+00  0.00000000E+00
  0.00000000E+00  0.00000000E+00  0.00000000E+00
  0.00000000E+00  0.00000000E+00  0.00000000E+00
  0.00000000E+00  0.00000000E+00  0.00000000E+00
  0.00000000E+00  0.00000000E+00  0.00000000E+00
  0.00000000E+00  0.00000000E+00  0.00000000E+00
  0.00000000E+00  0.00000000E+00  0.00000000E+00
  0.00000000E+00  0.00000000E+00  0.00000000E+00
  0.00000000E+00  0.00000000E+00  0.00000000E+00
  0.00000000E+00  0.00000000E+00  0.00000000E+00
  0.00000000E+00  0.00000000E+00  0.00000000E+00
  0.00000000E+00  0.00000000E+00  0.00000000E+00
  0.00000000E+00  0.00000000E+00  0.00000000E+00
  0.00000000E+00  0.00000000E+00  0.00000000E+00
  0.00000000E+00  0.00000000E+00  0.00000000E+00
  0.00000000E+00  0.00000000E+00  0.00000000E+00
  0.00000000E+00  0.00000000E+00  0.00000000E+00
  0.00000000E+00  0.00000000E+00  0.00000000E+00
  0.00000000E+00  0.00000000E+00  0.00000000E+00
  0.00000000E+00  0.00000000E+00  0.00000000E+00
  0.00000000E+00  0.00000000E+00  0.00000000E+00
  0.00000000E+00  0.00000000E+00  0.00000000E+00
  0.00000000E+00  0.00000000E+00  0.00000000E+00
  0.00000000E+00  0.00000000E+00  0.00000000E+00
  0.00000000E+00  0.00000000E+00  0.00000000E+00
  0.00000000E+00  0.00000000E+00  0.00000000E+00
  0.00000000E+00  0.00000000E+00  0.00000000E+00
  0.00000000E+00  0.00000000E+00  0.00000000E+00
  0.00000000E+00  0.00000000E+00  0.00000000E+00
  0.00000000E+00  0.00000000E+00  0.00000000E+00
  0.00000000E+00  0.00000000E+00  0.00000000E+00
  0.00000000E+00  0.00000000E+00  0.00000000E+00
  0.00000000E+00  0.00000000E+00  0.00000000E+00
  0.00000000E+00  0.00000000E+00  0.00000000E+00
  0.00000000E+00  0.00000000E+00  0.00000000E+00
  0.00000000E+00  0.00000000E+00  0.00000000E+00
  0.00000000E+00  0.00000000E+00  0.00000000E+00
  0.00000000E+00  0.00000000E+00  0.00000000E+00
  0.00000000E+00  0.00000000E+00  0.00000000E+00
  0.00000000E+00  0.00000000E+00  0.00000000E+00
  0.00000000E+00  0.00000000E+00  0.00000000E+00
  0.00000000E+00  0.00000000E+00  0.00000000E+00
  0.00000000E+00  0.00000000E+00  0.00000000E+00
  0.00000000E+00  0.00000000E+00  0.00000000E+00
  0.00000000E+00  0.00000000E+00  0.00000000E+00
  0.00000000E+00  0.00000000E+00  0.00000000E+00
  0.00000000E+00  0.00000000E+00  0.00000000E+00
  0.00000000E+00  0.00000000E+00  0.00000000E+00
  0.00000000E+00  0.00000000E+00  0.00000000E+00
  0.00000000E+00  0.00000000E+00  0.00000000E+00
  0.00000000E+00  0.00000000E+00  0.00000000E+00
  0.00000000E+00  0.00000000E+00  0.00000000E+00
  0.00000000E+00  0.00000000E+00  0.00000000E+00
  0.00000000E+00  0.00000000E+00  0.00000000E+00
  0.00000000E+00  0.00000000E+00  0.00000000E+00
  0.00000000E+00  0.00000000E+00  0.00000000E+00
  0.00000000E+00  0.00000000E+00  0.00000000E+00
