CONTCAR\(2)                             
   1.00000000000000     
    12.9092998505000001    0.0000000000000000    0.0000000000000000
     0.0000000000000000   11.5581998825000003    0.0000000000000000
     0.0000000000000000    0.0000000000000000   18.7824001311999993
   Nb   Ge   Te   O 
    12     4    24     1
Direct
  0.3503868034409194  0.7128020766835093  0.5168386925378030
  0.0966852929170017  0.2861812747554779  0.5000914005584747
  0.4815468915774730  0.0671567623861122  0.5003242436443500
  0.2325393846393027  0.9375231967503481  0.5030332816784693
  0.3329799158180720  0.4126405215136302  0.5006167786163758
  0.0834490512052710  0.5870404492334771  0.5031153379749682
  0.8463820439953480  0.7181528943804594  0.5010110072282075
  0.5962625103977857  0.2871228692288028  0.5023020593495531
  0.9802956955396738  0.0665578064529484  0.5001095529583992
  0.7302072345675725  0.9387477535373776  0.5016902678955191
  0.8354990362534593  0.4195755456913020  0.5003527594521628
  0.5952640933847491  0.5824131844776588  0.5018986541772534
  0.2847279785936720  0.1755205931138448  0.4980095976566687
  0.0341777445357536  0.8287577873642107  0.5000447229242155
  0.7866267124278536  0.1784703062422182  0.5007998225580579
  0.5364859893920269  0.8270861534549425  0.5064109355679918
  0.4489317877013974  0.5279942934452322  0.6059396355952558
  0.1750833935179870  0.4375398233703365  0.3991618849093328
  0.1762597301666915  0.4343533439346388  0.6030596279865321
  0.4250763540580635  0.5745402537259565  0.4067728967984010
  0.3914896592735957  0.9262994678516066  0.6042276026674145
  0.1412666715188564  0.0912390545740465  0.3998326121432996
  0.1404542528382464  0.0953560139607674  0.6007814514913719
  0.3940637984153099  0.9064586696195533  0.4040924135639443
  0.1660121992295629  0.7556708541201971  0.6022945620507443
  0.4329612289803180  0.2591294716504393  0.4019212214281112
  0.4278393764189090  0.2494157455469121  0.6004845528127589
  0.1849296221631107  0.7433882837053503  0.4087457292244565
  0.9249930314958377  0.5702158679107683  0.6037814646050990
  0.6761553737146855  0.4326617375478818  0.3985140362301891
  0.6843803363744811  0.4294293293175215  0.6060381659167575
  0.9260538593388645  0.5704784026440421  0.3990840724067723
  0.8913548816205221  0.9119889373759520  0.6012806224599103
  0.6426599141973384  0.0945674575785844  0.4003128376617582
  0.6425209500540916  0.0948598327568106  0.6021491457077559
  0.8879562296985952  0.9120275867758991  0.3997518924037848
  0.6837593066530019  0.7436214520971447  0.6011576160189520
  0.9311395181011122  0.2595973741923103  0.4019754550482020
  0.9321481386904651  0.2598592615386934  0.5985792243743830
  0.6783622953105279  0.7473807298222539  0.4040074413272450
  0.3689920247825569  0.6770075866708041  0.6183849353890949
 
  0.00000000E+00  0.00000000E+00  0.00000000E+00
  0.00000000E+00  0.00000000E+00  0.00000000E+00
  0.00000000E+00  0.00000000E+00  0.00000000E+00
  0.00000000E+00  0.00000000E+00  0.00000000E+00
  0.00000000E+00  0.00000000E+00  0.00000000E+00
  0.00000000E+00  0.00000000E+00  0.00000000E+00
  0.00000000E+00  0.00000000E+00  0.00000000E+00
  0.00000000E+00  0.00000000E+00  0.00000000E+00
  0.00000000E+00  0.00000000E+00  0.00000000E+00
  0.00000000E+00  0.00000000E+00  0.00000000E+00
  0.00000000E+00  0.00000000E+00  0.00000000E+00
  0.00000000E+00  0.00000000E+00  0.00000000E+00
  0.00000000E+00  0.00000000E+00  0.00000000E+00
  0.00000000E+00  0.00000000E+00  0.00000000E+00
  0.00000000E+00  0.00000000E+00  0.00000000E+00
  0.00000000E+00  0.00000000E+00  0.00000000E+00
  0.00000000E+00  0.00000000E+00  0.00000000E+00
  0.00000000E+00  0.00000000E+00  0.00000000E+00
  0.00000000E+00  0.00000000E+00  0.00000000E+00
  0.00000000E+00  0.00000000E+00  0.00000000E+00
  0.00000000E+00  0.00000000E+00  0.00000000E+00
  0.00000000E+00  0.00000000E+00  0.00000000E+00
  0.00000000E+00  0.00000000E+00  0.00000000E+00
  0.00000000E+00  0.00000000E+00  0.00000000E+00
  0.00000000E+00  0.00000000E+00  0.00000000E+00
  0.00000000E+00  0.00000000E+00  0.00000000E+00
  0.00000000E+00  0.00000000E+00  0.00000000E+00
  0.00000000E+00  0.00000000E+00  0.00000000E+00
  0.00000000E+00  0.00000000E+00  0.00000000E+00
  0.00000000E+00  0.00000000E+00  0.00000000E+00
  0.00000000E+00  0.00000000E+00  0.00000000E+00
  0.00000000E+00  0.00000000E+00  0.00000000E+00
  0.00000000E+00  0.00000000E+00  0.00000000E+00
  0.00000000E+00  0.00000000E+00  0.00000000E+00
  0.00000000E+00  0.00000000E+00  0.00000000E+00
  0.00000000E+00  0.00000000E+00  0.00000000E+00
  0.00000000E+00  0.00000000E+00  0.00000000E+00
  0.00000000E+00  0.00000000E+00  0.00000000E+00
  0.00000000E+00  0.00000000E+00  0.00000000E+00
  0.00000000E+00  0.00000000E+00  0.00000000E+00
  0.00000000E+00  0.00000000E+00  0.00000000E+00
