CONTCAR\(16)                            
   1.00000000000000     
    12.5135002136000004    0.0000000000000000    0.0000000000000000
     0.0000000000000000   15.7480001450000007    0.0000000000000000
     0.0000000000000000    0.0000000000000000   19.7180004119999985
   Nb   Fe   Te   O 
    16    16    32     1
Direct
  0.2599142561321073  0.1538893272042700  0.5083019945915471
  0.9824990991931083  0.4041527538740775  0.5094826711993267
  0.0096304765142580  0.0951182984848115  0.4925506635382935
  0.2342830580146843  0.3453696857650952  0.4932947710378996
  0.7596988538892367  0.1531917107232502  0.5077317906443919
  0.4857674969938226  0.4037517912825949  0.5083470230701531
  0.5097286722061964  0.0951230951341838  0.4925723526129469
  0.7363999559162917  0.3459374930018599  0.4910862789939872
  0.2595010361412255  0.6534339736338343  0.5093485852390596
 -0.0139684599306803  0.9036391770155258  0.5084785206094414
  0.0083931705869074  0.5959832834837657  0.4935630650188971
  0.2363138101129502  0.8452805447378166  0.4933616467677407
  0.7617603246131710  0.6513839790120891  0.5061727711690973
  0.4861889620070299  0.9036304897663637  0.5087537049260029
  0.5100922208884255  0.5946197949760378  0.4931589861753641
  0.7363632325269321  0.8451998977203538  0.4925560713722791
  0.0686492191553247  0.2535807039673911  0.5387717642813438
  0.3200284999807784 -0.0042537214950849  0.4622166666536035
  0.4257836953800984  0.2461998494657062  0.4622424342084456
  0.1760253133348035  0.0033633551355972  0.5389031512964404
  0.5699507765715770  0.2536332767530884  0.5386051280446698
  0.8198634307436937 -0.0044543751837637  0.4620815850212053
  0.9249080518108560  0.2451437466167405  0.4619442220647006
  0.6759731335760747  0.0030455839730425  0.5389428258897885
  0.0701974389597054  0.7539238170255057  0.5394608437315053
  0.3187813632789718  0.4956309054062524  0.4631802416306734
  0.4268122695548998  0.7453194941977196  0.4629144845244026
  0.1758538411284145  0.5034977855150929  0.5402924475589239
  0.5711926412406847  0.7526250522505473  0.5393376947597649
  0.8174561431909856  0.4957795973027881  0.4553585512342329
  0.9268810566370715  0.7460921858662265  0.4616072183278742
  0.6828734802280381  0.5026125349934901  0.5374428334052801
  0.3762932481249895  0.3705884030134765  0.3835773483920716
  0.1248954699578528  0.9773309915752337  0.4117258559534226
  0.3710800074227675  0.0216359187631440  0.5894305096931614
  0.1254661870318922  0.3789347552833235  0.6184129728087130
  0.3743338455850221  0.2720865471154673  0.5895155437838382
  0.1205833550744686  0.2274015737316853  0.4118176994003266
  0.1171931954162449  0.1289891404666117  0.6176899397676870
  0.3672176070537484  0.1206903486927282  0.3830580984110845
  0.8796316507648799  0.3680896333175442  0.3814763119880254
  0.6244909006736732  0.9773199534839259  0.4117521825689424
  0.8709416527006046  0.0213728241512089  0.5893739642519292
  0.6296033907324243  0.3799019406520318  0.6168796900088678
  0.8727021982305221  0.2716074261980976  0.5889823398343449
  0.6205745234473916  0.2275815440594463  0.4111733298084254
  0.6173377343418257  0.1288431904704957  0.6176034470968049
  0.8674810910559829  0.1196446958206587  0.3825667101946076
  0.3784710106455559  0.8698055272673312  0.3835579012603214
  0.1233545578330488  0.4773077653398368  0.4130851501786814
  0.3718426729534056  0.5214392115816108  0.5902447909605326
  0.1281866063022051  0.8790587393452820  0.6184004527602133
  0.3752364941122567  0.7710189898686982  0.5898680788500775
  0.1216430881743874  0.7271259369205394  0.4122541595673879
  0.1154446323443705  0.6286099749381390  0.6187134679249632
  0.3666301299346460  0.6200170392290423  0.3842004441630815
  0.8786290138564448  0.8705851698556852  0.3828597977005073
  0.6218961896963053  0.4771441986246096  0.4105115194509413
  0.8703763077614876  0.5210565038365812  0.5894904676285118
  0.6290569725607719  0.8783858698651607  0.6181701922750020
  0.8743120641581603  0.7694346166755631  0.5885876913950246
  0.6210264345807824  0.7274253995196897  0.4115720295439147
  0.6201947018881860  0.6268621235983881  0.6169440213492745
  0.8696120824121154  0.6223463480319719  0.3809498145200438
  0.8759541305939074  0.5387921561005714  0.6829610659099693
 
  0.00000000E+00  0.00000000E+00  0.00000000E+00
  0.00000000E+00  0.00000000E+00  0.00000000E+00
  0.00000000E+00  0.00000000E+00  0.00000000E+00
  0.00000000E+00  0.00000000E+00  0.00000000E+00
  0.00000000E+00  0.00000000E+00  0.00000000E+00
  0.00000000E+00  0.00000000E+00  0.00000000E+00
  0.00000000E+00  0.00000000E+00  0.00000000E+00
  0.00000000E+00  0.00000000E+00  0.00000000E+00
  0.00000000E+00  0.00000000E+00  0.00000000E+00
  0.00000000E+00  0.00000000E+00  0.00000000E+00
  0.00000000E+00  0.00000000E+00  0.00000000E+00
  0.00000000E+00  0.00000000E+00  0.00000000E+00
  0.00000000E+00  0.00000000E+00  0.00000000E+00
  0.00000000E+00  0.00000000E+00  0.00000000E+00
  0.00000000E+00  0.00000000E+00  0.00000000E+00
  0.00000000E+00  0.00000000E+00  0.00000000E+00
  0.00000000E+00  0.00000000E+00  0.00000000E+00
  0.00000000E+00  0.00000000E+00  0.00000000E+00
  0.00000000E+00  0.00000000E+00  0.00000000E+00
  0.00000000E+00  0.00000000E+00  0.00000000E+00
  0.00000000E+00  0.00000000E+00  0.00000000E+00
  0.00000000E+00  0.00000000E+00  0.00000000E+00
  0.00000000E+00  0.00000000E+00  0.00000000E+00
  0.00000000E+00  0.00000000E+00  0.00000000E+00
  0.00000000E+00  0.00000000E+00  0.00000000E+00
  0.00000000E+00  0.00000000E+00  0.00000000E+00
  0.00000000E+00  0.00000000E+00  0.00000000E+00
  0.00000000E+00  0.00000000E+00  0.00000000E+00
  0.00000000E+00  0.00000000E+00  0.00000000E+00
  0.00000000E+00  0.00000000E+00  0.00000000E+00
  0.00000000E+00  0.00000000E+00  0.00000000E+00
  0.00000000E+00  0.00000000E+00  0.00000000E+00
  0.00000000E+00  0.00000000E+00  0.00000000E+00
  0.00000000E+00  0.00000000E+00  0.00000000E+00
  0.00000000E+00  0.00000000E+00  0.00000000E+00
  0.00000000E+00  0.00000000E+00  0.00000000E+00
  0.00000000E+00  0.00000000E+00  0.00000000E+00
  0.00000000E+00  0.00000000E+00  0.00000000E+00
  0.00000000E+00  0.00000000E+00  0.00000000E+00
  0.00000000E+00  0.00000000E+00  0.00000000E+00
  0.00000000E+00  0.00000000E+00  0.00000000E+00
  0.00000000E+00  0.00000000E+00  0.00000000E+00
  0.00000000E+00  0.00000000E+00  0.00000000E+00
  0.00000000E+00  0.00000000E+00  0.00000000E+00
  0.00000000E+00  0.00000000E+00  0.00000000E+00
  0.00000000E+00  0.00000000E+00  0.00000000E+00
  0.00000000E+00  0.00000000E+00  0.00000000E+00
  0.00000000E+00  0.00000000E+00  0.00000000E+00
  0.00000000E+00  0.00000000E+00  0.00000000E+00
  0.00000000E+00  0.00000000E+00  0.00000000E+00
  0.00000000E+00  0.00000000E+00  0.00000000E+00
  0.00000000E+00  0.00000000E+00  0.00000000E+00
  0.00000000E+00  0.00000000E+00  0.00000000E+00
  0.00000000E+00  0.00000000E+00  0.00000000E+00
  0.00000000E+00  0.00000000E+00  0.00000000E+00
  0.00000000E+00  0.00000000E+00  0.00000000E+00
  0.00000000E+00  0.00000000E+00  0.00000000E+00
  0.00000000E+00  0.00000000E+00  0.00000000E+00
  0.00000000E+00  0.00000000E+00  0.00000000E+00
  0.00000000E+00  0.00000000E+00  0.00000000E+00
  0.00000000E+00  0.00000000E+00  0.00000000E+00
  0.00000000E+00  0.00000000E+00  0.00000000E+00
  0.00000000E+00  0.00000000E+00  0.00000000E+00
  0.00000000E+00  0.00000000E+00  0.00000000E+00
  0.00000000E+00  0.00000000E+00  0.00000000E+00
