CONTCAR\(14)                            
   1.00000000000000     
    10.8957996367999996    0.0000000000000000    0.0000000000000000
     0.0000000000000000   12.8001003265000008    0.0000000000000000
     0.0000000000000000    0.0000000000000000   21.8099994658999989
   Cu   Si   P    O 
    12    24    36     1
Direct
  0.0001189130865521  0.1070244413825049  0.4621466035441757
  0.0001118509000476  0.2850530721817558  0.3606522524099692
  0.3333921532941241  0.1069608051501950  0.4619942983036755
  0.3331729894522327  0.2842529960324262  0.3608096702865280
  0.6666440796338610  0.1070094339305417  0.4621133760413013
  0.6662858531140446  0.2850792809527656  0.3607054621629319
  0.0006781870534671  0.6070649662538455  0.4613619023979367
  0.9995700653780458  0.7851983918658362  0.3607853830505089
  0.3339932995086882  0.6061766651302658  0.4617442855179306
  0.3331430133739397  0.7862123179336468  0.3613673681773911
  0.6673844647812393  0.6069827922063623  0.4612934995509741
  0.6668208881162945  0.7852903426206684  0.3607552674621538
  0.1662363442981141  0.0438594018215891  0.3871901830750334
  0.1661708560921267  0.1952124935324083  0.6090751523654612
  0.1666621496051728  0.3529979848986515  0.4807290292196529
  0.9993329223873405  0.4435029655910283  0.6139829263580652
  0.4995818766235904  0.0439047972611125  0.3871123418568368
  0.5005234231012321  0.1952144246640059  0.6090594169143545
  0.4999007802776185  0.3529577740201565  0.4806645667800552
  0.3333768540065471  0.4439975929347952  0.6142093037017042
  0.8329607910500295  0.0441944571564419  0.3871713261968069
  0.8333447269896731  0.1941615455380560  0.6086672704374188
  0.8333623869249428  0.3532327689364943  0.4802753833259763
  0.6673411177657571  0.4435350359775386  0.6139316728986027
  0.1656770829886992  0.5436863625651986  0.3863512099470147
  0.1606190730236617  0.6912176616131561  0.6085329630578680
  0.1661258897377069  0.8531560686139781  0.4817217211886339
  0.0000375664902923  0.9438632238334279  0.6148305951246756
  0.5001760025624009  0.5436641883709816  0.3862673386189413
  0.5063739664279464  0.6913183854369594  0.6083646976776995
  0.5008401438077693  0.8531087177695997  0.4815105681458988
  0.3334639464949681  0.9498204507328211  0.6146165936906339
  0.8329261036765736  0.5437198035155909  0.3862339933504156
  0.8335684775298892  0.6943858243245989  0.6090532481359604
  0.8334974655420729  0.8530125613941637  0.4812227083396590
  0.6667123303159005  0.9438655689737707  0.6147570903427588
 -0.0003433068453851  0.1173336247507134  0.3455742425268230
  0.1667655218138812  0.1866898080484262  0.5065237868050364
  0.1667904405708602  0.3722241329630830  0.3794815077361976
  0.9991978460288997  0.2761646347948906  0.6545878785820567
  0.9999449255288910  0.4478135050103731  0.5107413389318599
  0.1656953369995816  0.0320376820791028  0.6565724589061797
  0.3328366427521744  0.1167449632504387  0.3452199644285505
  0.5000031685608310  0.1866999755751227  0.5064922281684896
  0.4995729291758624  0.3721685366858439  0.3794067004504730
  0.3333583076626448  0.2764324849285183  0.6548466004623873
  0.3332992092328509  0.4476724691392436  0.5110446496354080
  0.5011897408325889  0.0320485052240089  0.6565968647979308
  0.6661589481573621  0.1173819961853629  0.3455408606238454
  0.8333536235616036  0.1869448325898200  0.5060859720355355
  0.8332344310304572  0.3722458111717211  0.3790065144719150
  0.6674789945200363  0.2761789203365048  0.6545300912618613
  0.6667268796529455  0.4477864753888261  0.5106940852942582
  0.8333599414281403  0.0303219240619310  0.6559421003675980
  0.9993234159858442  0.6176258384246561  0.3447999140411988
  0.1677095182142820  0.6864010685218022  0.5061940399858842
  0.1659517240325654  0.8723081532538330  0.3804573131170520
  0.9985325409446751  0.7757283160689051  0.6555996602715175
  0.9998326015004151  0.9479966594842746  0.5116559583314753
  0.1655027179105975  0.5285053959593303  0.6560959117138608
  0.3328756011122395  0.6184855184078529  0.3461531069938028
  0.5003167327374148  0.6863507927724701  0.5060081303256472
  0.5003045150514076  0.8723581907174504  0.3802203401401917
  0.3335621957658951  0.7753618335281720  0.6511819040853702
  0.3335255368444379  0.9476332176758320  0.5114064426302315
  0.5012945510408863  0.5286162148260753  0.6560058276775252
  0.6664520397493354  0.6177155337641123  0.3447850641028258
  0.8339199203934888  0.6864521076176541  0.5063483634233842
  0.8332212439643955  0.8727283134942195  0.3800634148834024
  0.6684393921563198  0.7757057306079537  0.6554924849847925
  0.6670150202869926  0.9480008709281582  0.5116094485588385
  0.8333446147938025  0.5299984678952102  0.6555462609668397
  0.3338350224382325  0.7714622707508365  0.7204181556241408
 
  0.00000000E+00  0.00000000E+00  0.00000000E+00
  0.00000000E+00  0.00000000E+00  0.00000000E+00
  0.00000000E+00  0.00000000E+00  0.00000000E+00
  0.00000000E+00  0.00000000E+00  0.00000000E+00
  0.00000000E+00  0.00000000E+00  0.00000000E+00
  0.00000000E+00  0.00000000E+00  0.00000000E+00
  0.00000000E+00  0.00000000E+00  0.00000000E+00
  0.00000000E+00  0.00000000E+00  0.00000000E+00
  0.00000000E+00  0.00000000E+00  0.00000000E+00
  0.00000000E+00  0.00000000E+00  0.00000000E+00
  0.00000000E+00  0.00000000E+00  0.00000000E+00
  0.00000000E+00  0.00000000E+00  0.00000000E+00
  0.00000000E+00  0.00000000E+00  0.00000000E+00
  0.00000000E+00  0.00000000E+00  0.00000000E+00
  0.00000000E+00  0.00000000E+00  0.00000000E+00
  0.00000000E+00  0.00000000E+00  0.00000000E+00
  0.00000000E+00  0.00000000E+00  0.00000000E+00
  0.00000000E+00  0.00000000E+00  0.00000000E+00
  0.00000000E+00  0.00000000E+00  0.00000000E+00
  0.00000000E+00  0.00000000E+00  0.00000000E+00
  0.00000000E+00  0.00000000E+00  0.00000000E+00
  0.00000000E+00  0.00000000E+00  0.00000000E+00
  0.00000000E+00  0.00000000E+00  0.00000000E+00
  0.00000000E+00  0.00000000E+00  0.00000000E+00
  0.00000000E+00  0.00000000E+00  0.00000000E+00
  0.00000000E+00  0.00000000E+00  0.00000000E+00
  0.00000000E+00  0.00000000E+00  0.00000000E+00
  0.00000000E+00  0.00000000E+00  0.00000000E+00
  0.00000000E+00  0.00000000E+00  0.00000000E+00
  0.00000000E+00  0.00000000E+00  0.00000000E+00
  0.00000000E+00  0.00000000E+00  0.00000000E+00
  0.00000000E+00  0.00000000E+00  0.00000000E+00
  0.00000000E+00  0.00000000E+00  0.00000000E+00
  0.00000000E+00  0.00000000E+00  0.00000000E+00
  0.00000000E+00  0.00000000E+00  0.00000000E+00
  0.00000000E+00  0.00000000E+00  0.00000000E+00
  0.00000000E+00  0.00000000E+00  0.00000000E+00
  0.00000000E+00  0.00000000E+00  0.00000000E+00
  0.00000000E+00  0.00000000E+00  0.00000000E+00
  0.00000000E+00  0.00000000E+00  0.00000000E+00
  0.00000000E+00  0.00000000E+00  0.00000000E+00
  0.00000000E+00  0.00000000E+00  0.00000000E+00
  0.00000000E+00  0.00000000E+00  0.00000000E+00
  0.00000000E+00  0.00000000E+00  0.00000000E+00
  0.00000000E+00  0.00000000E+00  0.00000000E+00
  0.00000000E+00  0.00000000E+00  0.00000000E+00
  0.00000000E+00  0.00000000E+00  0.00000000E+00
  0.00000000E+00  0.00000000E+00  0.00000000E+00
  0.00000000E+00  0.00000000E+00  0.00000000E+00
  0.00000000E+00  0.00000000E+00  0.00000000E+00
  0.00000000E+00  0.00000000E+00  0.00000000E+00
  0.00000000E+00  0.00000000E+00  0.00000000E+00
  0.00000000E+00  0.00000000E+00  0.00000000E+00
  0.00000000E+00  0.00000000E+00  0.00000000E+00
  0.00000000E+00  0.00000000E+00  0.00000000E+00
  0.00000000E+00  0.00000000E+00  0.00000000E+00
  0.00000000E+00  0.00000000E+00  0.00000000E+00
  0.00000000E+00  0.00000000E+00  0.00000000E+00
  0.00000000E+00  0.00000000E+00  0.00000000E+00
  0.00000000E+00  0.00000000E+00  0.00000000E+00
  0.00000000E+00  0.00000000E+00  0.00000000E+00
  0.00000000E+00  0.00000000E+00  0.00000000E+00
  0.00000000E+00  0.00000000E+00  0.00000000E+00
  0.00000000E+00  0.00000000E+00  0.00000000E+00
  0.00000000E+00  0.00000000E+00  0.00000000E+00
  0.00000000E+00  0.00000000E+00  0.00000000E+00
  0.00000000E+00  0.00000000E+00  0.00000000E+00
  0.00000000E+00  0.00000000E+00  0.00000000E+00
  0.00000000E+00  0.00000000E+00  0.00000000E+00
  0.00000000E+00  0.00000000E+00  0.00000000E+00
  0.00000000E+00  0.00000000E+00  0.00000000E+00
  0.00000000E+00  0.00000000E+00  0.00000000E+00
  0.00000000E+00  0.00000000E+00  0.00000000E+00
