CONTCAR\(12)                            
   1.00000000000000     
    14.4757995605000005    0.0000000000000000    0.0000000000000000
     7.2285261864999999   12.5388166469000009    0.0000000000000000
     0.0000000000000000    0.0000000000000000   18.6821994780999994
   Nb   Te
    16    32
Direct
  0.0000000000000000  0.0000000000000000  0.5000000000000000
  0.2500000000000000  0.0000000000000000  0.5000000000000000
  0.5000000000000000  0.0000000000000000  0.5000000000000000
  0.7500000000000000  0.0000000000000000  0.5000000000000000
  0.0000000009999965  0.2499999959999997  0.5000000000000000
  0.2500000169999979  0.2499999959999997  0.5000000000000000
  0.5000000169999979  0.2499999959999997  0.5000000000000000
  0.7500000169999979  0.2499999959999997  0.5000000000000000
  0.0000000009999965  0.4999999919999993  0.5000000000000000
  0.2500000009999965  0.4999999919999993  0.5000000000000000
  0.5000000340000028  0.4999999919999993  0.5000000000000000
  0.7500000340000028  0.4999999919999993  0.5000000000000000
  0.0000000049999969  0.7499999500000030  0.5000000000000000
  0.2500000049999969  0.7499999500000030  0.5000000000000000
  0.5000000049999969  0.7499999500000030  0.5000000000000000
  0.7500000049999969  0.7499999500000030  0.5000000000000000
  0.0834192277452672  0.0833404527659809  0.3997523958135503
  0.1665807842547338  0.1666595522340160  0.6002475781864476
  0.3334192277452672  0.0833404527659809  0.3997523958135503
  0.4165807512547346  0.1666595522340160  0.6002475781864476
  0.5834192277452672  0.0833404527659809  0.3997523958135503
  0.6665807842547338  0.1666595522340160  0.6002475781864476
  0.8334192277452672  0.0833404527659809  0.3997523958135503
  0.9165807842547338  0.1666595522340160  0.6002475781864476
  0.0834192337452677  0.3333404397659834  0.3997523958135503
  0.1665807682547324  0.4166595482340156  0.6002475781864476
  0.3334192497452690  0.3333404397659834  0.3997523958135503
  0.4165807352547333  0.4166595482340156  0.6002475781864476
  0.5834192497452690  0.3333404397659834  0.3997523958135503
  0.6665807352547333  0.4166595482340156  0.6002475781864476
  0.8334192497452690  0.3333404397659834  0.3997523958135503
  0.9165807352547333  0.4166595482340156  0.6002475781864476
  0.0834192197452666  0.5833403977659799  0.3997523958135503
  0.1665808192547331  0.6666595442340153  0.6002475781864476
  0.3334192197452666  0.5833403977659799  0.3997523958135503
  0.4165808192547331  0.6666595442340153  0.6002475781864476
  0.5834192197452666  0.5833403977659799  0.3997523958135503
  0.6665808192547331  0.6666595442340153  0.6002475781864476
  0.8334192197452666  0.5833403977659799  0.3997523958135503
  0.9165808192547331  0.6666595442340153  0.6002475781864476
  0.0834192187452629  0.8333404317659827  0.3997523958135503
  0.1665807512547346  0.9166595792340146  0.6002475781864476
  0.3334192187452629  0.8333404317659827  0.3997523958135503
  0.4165807512547346  0.9166595792340146  0.6002475781864476
  0.5834192187452629  0.8333404317659827  0.3997523958135503
  0.6665807512547346  0.9166595792340146  0.6002475781864476
  0.8334192847452684  0.8333404317659827  0.3997523958135503
  0.9165807512547346  0.9166595792340146  0.6002475781864476
 
  0.00000000E+00  0.00000000E+00  0.00000000E+00
  0.00000000E+00  0.00000000E+00  0.00000000E+00
  0.00000000E+00  0.00000000E+00  0.00000000E+00
  0.00000000E+00  0.00000000E+00  0.00000000E+00
  0.00000000E+00  0.00000000E+00  0.00000000E+00
  0.00000000E+00  0.00000000E+00  0.00000000E+00
  0.00000000E+00  0.00000000E+00  0.00000000E+00
  0.00000000E+00  0.00000000E+00  0.00000000E+00
  0.00000000E+00  0.00000000E+00  0.00000000E+00
  0.00000000E+00  0.00000000E+00  0.00000000E+00
  0.00000000E+00  0.00000000E+00  0.00000000E+00
  0.00000000E+00  0.00000000E+00  0.00000000E+00
  0.00000000E+00  0.00000000E+00  0.00000000E+00
  0.00000000E+00  0.00000000E+00  0.00000000E+00
  0.00000000E+00  0.00000000E+00  0.00000000E+00
  0.00000000E+00  0.00000000E+00  0.00000000E+00
  0.00000000E+00  0.00000000E+00  0.00000000E+00
  0.00000000E+00  0.00000000E+00  0.00000000E+00
  0.00000000E+00  0.00000000E+00  0.00000000E+00
  0.00000000E+00  0.00000000E+00  0.00000000E+00
  0.00000000E+00  0.00000000E+00  0.00000000E+00
  0.00000000E+00  0.00000000E+00  0.00000000E+00
  0.00000000E+00  0.00000000E+00  0.00000000E+00
  0.00000000E+00  0.00000000E+00  0.00000000E+00
  0.00000000E+00  0.00000000E+00  0.00000000E+00
  0.00000000E+00  0.00000000E+00  0.00000000E+00
  0.00000000E+00  0.00000000E+00  0.00000000E+00
  0.00000000E+00  0.00000000E+00  0.00000000E+00
  0.00000000E+00  0.00000000E+00  0.00000000E+00
  0.00000000E+00  0.00000000E+00  0.00000000E+00
  0.00000000E+00  0.00000000E+00  0.00000000E+00
  0.00000000E+00  0.00000000E+00  0.00000000E+00
  0.00000000E+00  0.00000000E+00  0.00000000E+00
  0.00000000E+00  0.00000000E+00  0.00000000E+00
  0.00000000E+00  0.00000000E+00  0.00000000E+00
  0.00000000E+00  0.00000000E+00  0.00000000E+00
  0.00000000E+00  0.00000000E+00  0.00000000E+00
  0.00000000E+00  0.00000000E+00  0.00000000E+00
  0.00000000E+00  0.00000000E+00  0.00000000E+00
  0.00000000E+00  0.00000000E+00  0.00000000E+00
  0.00000000E+00  0.00000000E+00  0.00000000E+00
  0.00000000E+00  0.00000000E+00  0.00000000E+00
  0.00000000E+00  0.00000000E+00  0.00000000E+00
  0.00000000E+00  0.00000000E+00  0.00000000E+00
  0.00000000E+00  0.00000000E+00  0.00000000E+00
  0.00000000E+00  0.00000000E+00  0.00000000E+00
  0.00000000E+00  0.00000000E+00  0.00000000E+00
  0.00000000E+00  0.00000000E+00  0.00000000E+00
