 Nb3 I8                                 
   1.00000000000000     
     7.6228390316753236    0.0000000000000000    0.0000000000000000
     3.8114190180372236    6.6037410737330937    0.0000000000000000
     0.0000000000000000    0.0000000000000000   19.0911982183559985
   Nb   I 
     3     8
Direct
  0.4039951563466957  0.7980300928910538  0.4935367618261068
  0.7979697738729499  0.7980338148220056  0.4935364119864047
  0.7979828089521277  0.4040256556151860  0.4935366710748639
  0.9983519325762700  0.5008401251820587  0.3933288085409217
  0.5008080936965271  0.5008445210699648  0.3933304415374721
  0.5008355026969511  0.9983246635115961  0.3933414688333912
  0.6607230713559744  0.1696000908494852  0.5739786856721807
  0.1696822588270237  0.1695949958592493  0.5739778000236839
  0.1696433246539968  0.6607256973204656  0.5739699961881684
  0.0000239841301166  0.9999607178616614  0.4167165940839297
  0.6666530928913730  0.6666886250172794  0.6058622451721121
 
  0.00000000E+00  0.00000000E+00  0.00000000E+00
  0.00000000E+00  0.00000000E+00  0.00000000E+00
  0.00000000E+00  0.00000000E+00  0.00000000E+00
  0.00000000E+00  0.00000000E+00  0.00000000E+00
  0.00000000E+00  0.00000000E+00  0.00000000E+00
  0.00000000E+00  0.00000000E+00  0.00000000E+00
  0.00000000E+00  0.00000000E+00  0.00000000E+00
  0.00000000E+00  0.00000000E+00  0.00000000E+00
  0.00000000E+00  0.00000000E+00  0.00000000E+00
  0.00000000E+00  0.00000000E+00  0.00000000E+00
  0.00000000E+00  0.00000000E+00  0.00000000E+00
