Cu2 H4 Se2 O10                          
   1.00000000000000     
     5.1353558827840997    0.0298742559460424    0.0116350501524007
    -0.8222420802502831    5.5444977928190742   -0.0644230985821587
    -2.1615641120082461   -1.9434569550063321    6.9797472812550954
   Cu   H    Se   O 
     2     4     2    10
Direct
 -0.0000000000000000 -0.0000000000000000  0.0000000000000000
  0.4999999839999987  0.4999999739999978  0.5000000109999974
  0.9077139442263662  0.4661081277159336  0.7617583253995942
  0.0922860917736297  0.5338919002840689  0.2382417476004083
  0.0274001201758222  0.6714363307308209  0.6644802597177260
  0.9725998288241772  0.3285636792691729  0.3355196962822775
  0.5720855769860197  0.8756820687085406  0.2312489097546142
  0.4279143720139797  0.1243178572914605  0.7687510792453885
  0.6718095111444380  0.8183890915971835  0.0345030381612647
  0.3281904538555624  0.1816109104028165  0.9654969598387352
  0.2177008569949996  0.8100793956120591  0.1567438660085088
  0.7822990860049991  0.1899206523879448  0.8432561399914917
  0.7034002787808793  0.1656029185950996  0.3736323786940368
  0.2965996272191200  0.8343969534049041  0.6263676103059587
  0.6749494472124999  0.6648812890137781  0.3469568749540700
  0.3250504747875008  0.3351186579862211  0.6530431470459317
  0.1308773747780312  0.3909761469590954  0.2918906490705409
  0.8691226392219698  0.6090237890409064  0.7081093399294618
 
  0.00000000E+00  0.00000000E+00  0.00000000E+00
  0.00000000E+00  0.00000000E+00  0.00000000E+00
  0.00000000E+00  0.00000000E+00  0.00000000E+00
  0.00000000E+00  0.00000000E+00  0.00000000E+00
  0.00000000E+00  0.00000000E+00  0.00000000E+00
  0.00000000E+00  0.00000000E+00  0.00000000E+00
  0.00000000E+00  0.00000000E+00  0.00000000E+00
  0.00000000E+00  0.00000000E+00  0.00000000E+00
  0.00000000E+00  0.00000000E+00  0.00000000E+00
  0.00000000E+00  0.00000000E+00  0.00000000E+00
  0.00000000E+00  0.00000000E+00  0.00000000E+00
  0.00000000E+00  0.00000000E+00  0.00000000E+00
  0.00000000E+00  0.00000000E+00  0.00000000E+00
  0.00000000E+00  0.00000000E+00  0.00000000E+00
  0.00000000E+00  0.00000000E+00  0.00000000E+00
  0.00000000E+00  0.00000000E+00  0.00000000E+00
  0.00000000E+00  0.00000000E+00  0.00000000E+00
  0.00000000E+00  0.00000000E+00  0.00000000E+00
