CONTCAR\(6)                             
   1.00000000000000     
    10.0733995438000008    0.0000000000000000    0.0000000000000000
     0.0000000000000000    9.7955999374000005    0.0000000000000000
     0.0000000000000000    0.0000000000000000   18.6921005248999990
   Ta   Se   O    H 
    12    18     2     1
Direct
  0.1014649757363715  0.5479625120799736  0.4986467333962149
  0.2683537545051966  0.2956013989404261  0.4974669454221411
  0.1014878928258883  0.8603046775890026  0.5622731625649646
  0.2692928224324821  0.9829841581931198  0.4497028238762540
  0.4372986001405693  0.5460408181809343  0.4969710542895991
  0.6018205476577895  0.2952504979967759  0.4966216069770575
  0.4314841120520320  0.8602847829232163  0.5498246981957162
  0.6016691485830310  0.9833872545328529  0.4475466320883964
  0.7661423383858846  0.5460341143742531  0.4970306351878299
  0.9346680860930739  0.2955782384350583  0.4973442289355176
  0.7716324965995863  0.8603129206411586  0.5496029878440046
  0.9339069675232160  0.9830035903369044  0.4494805077931110
  0.1014096461035605  0.3633310835429577  0.5968501970888428
  0.2676182154528619  0.4799416345109270  0.3987827144662182
  0.1016932663570616  0.1713512301980940  0.4052381457657936
  0.2732172472244372  0.6625525349428013  0.5919721753193954
  0.2718149910928273  0.0619455571019633  0.5804039045113490
  0.1016131906761773  0.7897684837803054  0.4199643144016839
  0.4368614651257585  0.3635360177556926  0.5961406971023188
  0.6018461266695300  0.4776482967762763  0.3966322595106907
  0.4343159004896419  0.1699718204854813  0.4020298071403005
  0.6016843222535713  0.6705630458102205  0.5912015035812886
  0.6016408476837163  0.0535167957466357  0.5813905604486991
  0.4348878975849879  0.7902638278365404  0.4153189600471762
  0.7664198969893963  0.3636839327430572  0.5962423930084362
  0.9357158572364104  0.4800580956437868  0.3987309037676621
  0.7689224825418031  0.1700229067908502  0.4018832137847900
  0.9297839363255468  0.6626273435543366  0.5920160696041885
  0.9309807863565643  0.0621278142026891  0.5800923525706561
  0.7683120833214865  0.7903532711105585  0.4150379219707330
  0.0995377834893944  0.8607797343008569  0.6692093509408539
  0.0997770373859949  0.9860569554865369  0.7123673309370055
  0.0911751361041544  0.9452841694557746  0.7600829074610687
 
  0.00000000E+00  0.00000000E+00  0.00000000E+00
  0.00000000E+00  0.00000000E+00  0.00000000E+00
  0.00000000E+00  0.00000000E+00  0.00000000E+00
  0.00000000E+00  0.00000000E+00  0.00000000E+00
  0.00000000E+00  0.00000000E+00  0.00000000E+00
  0.00000000E+00  0.00000000E+00  0.00000000E+00
  0.00000000E+00  0.00000000E+00  0.00000000E+00
  0.00000000E+00  0.00000000E+00  0.00000000E+00
  0.00000000E+00  0.00000000E+00  0.00000000E+00
  0.00000000E+00  0.00000000E+00  0.00000000E+00
  0.00000000E+00  0.00000000E+00  0.00000000E+00
  0.00000000E+00  0.00000000E+00  0.00000000E+00
  0.00000000E+00  0.00000000E+00  0.00000000E+00
  0.00000000E+00  0.00000000E+00  0.00000000E+00
  0.00000000E+00  0.00000000E+00  0.00000000E+00
  0.00000000E+00  0.00000000E+00  0.00000000E+00
  0.00000000E+00  0.00000000E+00  0.00000000E+00
  0.00000000E+00  0.00000000E+00  0.00000000E+00
  0.00000000E+00  0.00000000E+00  0.00000000E+00
  0.00000000E+00  0.00000000E+00  0.00000000E+00
  0.00000000E+00  0.00000000E+00  0.00000000E+00
  0.00000000E+00  0.00000000E+00  0.00000000E+00
  0.00000000E+00  0.00000000E+00  0.00000000E+00
  0.00000000E+00  0.00000000E+00  0.00000000E+00
  0.00000000E+00  0.00000000E+00  0.00000000E+00
  0.00000000E+00  0.00000000E+00  0.00000000E+00
  0.00000000E+00  0.00000000E+00  0.00000000E+00
  0.00000000E+00  0.00000000E+00  0.00000000E+00
  0.00000000E+00  0.00000000E+00  0.00000000E+00
  0.00000000E+00  0.00000000E+00  0.00000000E+00
  0.00000000E+00  0.00000000E+00  0.00000000E+00
  0.00000000E+00  0.00000000E+00  0.00000000E+00
  0.00000000E+00  0.00000000E+00  0.00000000E+00
