CONTCAR\(19)                            
   1.00000000000000     
    15.9589004516999999    0.0000000000000000    0.0000000000000000
     0.0000000000000000   15.9589004516999999    0.0000000000000000
     0.0000000000000000    0.0000000000000000   22.3083992004000002
   Al   Pd   I 
    16    80    32
Direct
  0.1250000000000000  0.1250000000000000  0.5000000000000000
  0.3750000000000000  0.1250000000000000  0.5000000000000000
  0.6250000000000000  0.1250000000000000  0.5000000000000000
  0.8750000000000000  0.1250000000000000  0.5000000000000000
  0.1250000000000000  0.3750000000000000  0.5000000000000000
  0.3750000000000000  0.3750000000000000  0.5000000000000000
  0.6250000000000000  0.3750000000000000  0.5000000000000000
  0.8750000000000000  0.3750000000000000  0.5000000000000000
  0.1250000000000000  0.6250000000000000  0.5000000000000000
  0.3750000000000000  0.6250000000000000  0.5000000000000000
  0.6250000000000000  0.6250000000000000  0.5000000000000000
  0.8750000000000000  0.6250000000000000  0.5000000000000000
  0.1250000000000000  0.8750000000000000  0.5000000000000000
  0.3750000000000000  0.8750000000000000  0.5000000000000000
  0.6250000000000000  0.8750000000000000  0.5000000000000000
  0.8750000000000000  0.8750000000000000  0.5000000000000000
  0.0000000000000000  0.1250000000000000  0.4192199980000026
  0.1250000000000000  0.0000000000000000  0.4192199980000026
  0.1250000000000000  0.0000000000000000  0.5807699980000010
  0.0000000000000000  0.1250000000000000  0.5807699980000010
  0.0000000000000000  0.0000000000000000  0.4999899970000001
  0.2500000000000000  0.1250000000000000  0.4192199980000026
  0.3750000000000000  0.0000000000000000  0.4192199980000026
  0.3750000000000000  0.0000000000000000  0.5807699980000010
  0.2500000000000000  0.1250000000000000  0.5807699980000010
  0.2500000000000000  0.0000000000000000  0.4999899970000001
  0.5000000000000000  0.1250000000000000  0.4192199980000026
  0.6250000000000000  0.0000000000000000  0.4192199980000026
  0.6250000000000000  0.0000000000000000  0.5807699980000010
  0.5000000000000000  0.1250000000000000  0.5807699980000010
  0.5000000000000000  0.0000000000000000  0.4999899970000001
  0.7500000000000000  0.1250000000000000  0.4192199980000026
  0.8750000000000000  0.0000000000000000  0.4192199980000026
  0.8750000000000000  0.0000000000000000  0.5807699980000010
  0.7500000000000000  0.1250000000000000  0.5807699980000010
  0.7500000000000000  0.0000000000000000  0.4999899970000001
  0.0000000000000000  0.3750000000000000  0.4192199980000026
  0.1250000000000000  0.2500000000000000  0.4192199980000026
  0.1250000000000000  0.2500000000000000  0.5807699980000010
  0.0000000000000000  0.3750000000000000  0.5807699980000010
  0.0000000000000000  0.2500000000000000  0.4999899970000001
  0.2500000000000000  0.3750000000000000  0.4192199980000026
  0.3750000000000000  0.2500000000000000  0.4192199980000026
  0.3750000000000000  0.2500000000000000  0.5807699980000010
  0.2500000000000000  0.3750000000000000  0.5807699980000010
  0.2500000000000000  0.2500000000000000  0.4999899970000001
  0.5000000000000000  0.3750000000000000  0.4192199980000026
  0.6250000000000000  0.2500000000000000  0.4192199980000026
  0.6250000000000000  0.2500000000000000  0.5807699980000010
  0.5000000000000000  0.3750000000000000  0.5807699980000010
  0.5000000000000000  0.2500000000000000  0.4999899970000001
  0.7500000000000000  0.3750000000000000  0.4192199980000026
  0.8750000000000000  0.2500000000000000  0.4192199980000026
  0.8750000000000000  0.2500000000000000  0.5807699980000010
  0.7500000000000000  0.3750000000000000  0.5807699980000010
  0.7500000000000000  0.2500000000000000  0.4999899970000001
  0.0000000000000000  0.6250000000000000  0.4192199980000026
  0.1250000000000000  0.5000000000000000  0.4192199980000026
  0.1250000000000000  0.5000000000000000  0.5807699980000010
  0.0000000000000000  0.6250000000000000  0.5807699980000010
  0.0000000000000000  0.5000000000000000  0.4999899970000001
  0.2500000000000000  0.6250000000000000  0.4192199980000026
  0.3750000000000000  0.5000000000000000  0.4192199980000026
  0.3750000000000000  0.5000000000000000  0.5807699980000010
  0.2500000000000000  0.6250000000000000  0.5807699980000010
  0.2500000000000000  0.5000000000000000  0.4999899970000001
  0.5000000000000000  0.6250000000000000  0.4192199980000026
  0.6250000000000000  0.5000000000000000  0.4192199980000026
  0.6250000000000000  0.5000000000000000  0.5807699980000010
  0.5000000000000000  0.6250000000000000  0.5807699980000010
  0.5000000000000000  0.5000000000000000  0.4999899970000001
  0.7500000000000000  0.6250000000000000  0.4192199980000026
  0.8750000000000000  0.5000000000000000  0.4192199980000026
  0.8750000000000000  0.5000000000000000  0.5807699980000010
  0.7500000000000000  0.6250000000000000  0.5807699980000010
  0.7500000000000000  0.5000000000000000  0.4999899970000001
  0.0000000000000000  0.8750000000000000  0.4192199980000026
  0.1250000000000000  0.7500000000000000  0.4192199980000026
  0.1250000000000000  0.7500000000000000  0.5807699980000010
  0.0000000000000000  0.8750000000000000  0.5807699980000010
  0.0000000000000000  0.7500000000000000  0.4999899970000001
  0.2500000000000000  0.8750000000000000  0.4192199980000026
  0.3750000000000000  0.7500000000000000  0.4192199980000026
  0.3750000000000000  0.7500000000000000  0.5807699980000010
  0.2500000000000000  0.8750000000000000  0.5807699980000010
  0.2500000000000000  0.7500000000000000  0.4999899970000001
  0.5000000000000000  0.8750000000000000  0.4192199980000026
  0.6250000000000000  0.7500000000000000  0.4192199980000026
  0.6250000000000000  0.7500000000000000  0.5807699980000010
  0.5000000000000000  0.8750000000000000  0.5807699980000010
  0.5000000000000000  0.7500000000000000  0.4999899970000001
  0.7500000000000000  0.8750000000000000  0.4192199980000026
  0.8750000000000000  0.7500000000000000  0.4192199980000026
  0.8750000000000000  0.7500000000000000  0.5807699980000010
  0.7500000000000000  0.8750000000000000  0.5807699980000010
  0.7500000000000000  0.7500000000000000  0.4999899970000001
  0.0000000000000000  0.0000000000000000  0.3337199959999992
  0.0000000000000000  0.0000000000000000  0.6663300000000021
  0.2500000000000000  0.0000000000000000  0.3337199959999992
  0.2500000000000000  0.0000000000000000  0.6663300000000021
  0.5000000000000000  0.0000000000000000  0.3337199959999992
  0.5000000000000000  0.0000000000000000  0.6663300000000021
  0.7500000000000000  0.0000000000000000  0.3337199959999992
  0.7500000000000000  0.0000000000000000  0.6663300000000021
  0.0000000000000000  0.2500000000000000  0.3337199959999992
  0.0000000000000000  0.2500000000000000  0.6663300000000021
  0.2500000000000000  0.2500000000000000  0.3337199959999992
  0.2500000000000000  0.2500000000000000  0.6663300000000021
  0.5000000000000000  0.2500000000000000  0.3337199959999992
  0.5000000000000000  0.2500000000000000  0.6663300000000021
  0.7500000000000000  0.2500000000000000  0.3337199959999992
  0.7500000000000000  0.2500000000000000  0.6663300000000021
  0.0000000000000000  0.5000000000000000  0.3337199959999992
  0.0000000000000000  0.5000000000000000  0.6663300000000021
  0.2500000000000000  0.5000000000000000  0.3337199959999992
  0.2500000000000000  0.5000000000000000  0.6663300000000021
  0.5000000000000000  0.5000000000000000  0.3337199959999992
  0.5000000000000000  0.5000000000000000  0.6663300000000021
  0.7500000000000000  0.5000000000000000  0.3337199959999992
  0.7500000000000000  0.5000000000000000  0.6663300000000021
  0.0000000000000000  0.7500000000000000  0.3337199959999992
  0.0000000000000000  0.7500000000000000  0.6663300000000021
  0.2500000000000000  0.7500000000000000  0.3337199959999992
  0.2500000000000000  0.7500000000000000  0.6663300000000021
  0.5000000000000000  0.7500000000000000  0.3337199959999992
  0.5000000000000000  0.7500000000000000  0.6663300000000021
  0.7500000000000000  0.7500000000000000  0.3337199959999992
  0.7500000000000000  0.7500000000000000  0.6663300000000021
 
  0.00000000E+00  0.00000000E+00  0.00000000E+00
  0.00000000E+00  0.00000000E+00  0.00000000E+00
  0.00000000E+00  0.00000000E+00  0.00000000E+00
  0.00000000E+00  0.00000000E+00  0.00000000E+00
  0.00000000E+00  0.00000000E+00  0.00000000E+00
  0.00000000E+00  0.00000000E+00  0.00000000E+00
  0.00000000E+00  0.00000000E+00  0.00000000E+00
  0.00000000E+00  0.00000000E+00  0.00000000E+00
  0.00000000E+00  0.00000000E+00  0.00000000E+00
  0.00000000E+00  0.00000000E+00  0.00000000E+00
  0.00000000E+00  0.00000000E+00  0.00000000E+00
  0.00000000E+00  0.00000000E+00  0.00000000E+00
  0.00000000E+00  0.00000000E+00  0.00000000E+00
  0.00000000E+00  0.00000000E+00  0.00000000E+00
  0.00000000E+00  0.00000000E+00  0.00000000E+00
  0.00000000E+00  0.00000000E+00  0.00000000E+00
  0.00000000E+00  0.00000000E+00  0.00000000E+00
  0.00000000E+00  0.00000000E+00  0.00000000E+00
  0.00000000E+00  0.00000000E+00  0.00000000E+00
  0.00000000E+00  0.00000000E+00  0.00000000E+00
  0.00000000E+00  0.00000000E+00  0.00000000E+00
  0.00000000E+00  0.00000000E+00  0.00000000E+00
  0.00000000E+00  0.00000000E+00  0.00000000E+00
  0.00000000E+00  0.00000000E+00  0.00000000E+00
  0.00000000E+00  0.00000000E+00  0.00000000E+00
  0.00000000E+00  0.00000000E+00  0.00000000E+00
  0.00000000E+00  0.00000000E+00  0.00000000E+00
  0.00000000E+00  0.00000000E+00  0.00000000E+00
  0.00000000E+00  0.00000000E+00  0.00000000E+00
  0.00000000E+00  0.00000000E+00  0.00000000E+00
  0.00000000E+00  0.00000000E+00  0.00000000E+00
  0.00000000E+00  0.00000000E+00  0.00000000E+00
  0.00000000E+00  0.00000000E+00  0.00000000E+00
  0.00000000E+00  0.00000000E+00  0.00000000E+00
  0.00000000E+00  0.00000000E+00  0.00000000E+00
  0.00000000E+00  0.00000000E+00  0.00000000E+00
  0.00000000E+00  0.00000000E+00  0.00000000E+00
  0.00000000E+00  0.00000000E+00  0.00000000E+00
  0.00000000E+00  0.00000000E+00  0.00000000E+00
  0.00000000E+00  0.00000000E+00  0.00000000E+00
  0.00000000E+00  0.00000000E+00  0.00000000E+00
  0.00000000E+00  0.00000000E+00  0.00000000E+00
  0.00000000E+00  0.00000000E+00  0.00000000E+00
  0.00000000E+00  0.00000000E+00  0.00000000E+00
  0.00000000E+00  0.00000000E+00  0.00000000E+00
  0.00000000E+00  0.00000000E+00  0.00000000E+00
  0.00000000E+00  0.00000000E+00  0.00000000E+00
  0.00000000E+00  0.00000000E+00  0.00000000E+00
  0.00000000E+00  0.00000000E+00  0.00000000E+00
  0.00000000E+00  0.00000000E+00  0.00000000E+00
  0.00000000E+00  0.00000000E+00  0.00000000E+00
  0.00000000E+00  0.00000000E+00  0.00000000E+00
  0.00000000E+00  0.00000000E+00  0.00000000E+00
  0.00000000E+00  0.00000000E+00  0.00000000E+00
  0.00000000E+00  0.00000000E+00  0.00000000E+00
  0.00000000E+00  0.00000000E+00  0.00000000E+00
  0.00000000E+00  0.00000000E+00  0.00000000E+00
  0.00000000E+00  0.00000000E+00  0.00000000E+00
  0.00000000E+00  0.00000000E+00  0.00000000E+00
  0.00000000E+00  0.00000000E+00  0.00000000E+00
  0.00000000E+00  0.00000000E+00  0.00000000E+00
  0.00000000E+00  0.00000000E+00  0.00000000E+00
  0.00000000E+00  0.00000000E+00  0.00000000E+00
  0.00000000E+00  0.00000000E+00  0.00000000E+00
  0.00000000E+00  0.00000000E+00  0.00000000E+00
  0.00000000E+00  0.00000000E+00  0.00000000E+00
  0.00000000E+00  0.00000000E+00  0.00000000E+00
  0.00000000E+00  0.00000000E+00  0.00000000E+00
  0.00000000E+00  0.00000000E+00  0.00000000E+00
  0.00000000E+00  0.00000000E+00  0.00000000E+00
  0.00000000E+00  0.00000000E+00  0.00000000E+00
  0.00000000E+00  0.00000000E+00  0.00000000E+00
  0.00000000E+00  0.00000000E+00  0.00000000E+00
  0.00000000E+00  0.00000000E+00  0.00000000E+00
  0.00000000E+00  0.00000000E+00  0.00000000E+00
  0.00000000E+00  0.00000000E+00  0.00000000E+00
  0.00000000E+00  0.00000000E+00  0.00000000E+00
  0.00000000E+00  0.00000000E+00  0.00000000E+00
  0.00000000E+00  0.00000000E+00  0.00000000E+00
  0.00000000E+00  0.00000000E+00  0.00000000E+00
  0.00000000E+00  0.00000000E+00  0.00000000E+00
  0.00000000E+00  0.00000000E+00  0.00000000E+00
  0.00000000E+00  0.00000000E+00  0.00000000E+00
  0.00000000E+00  0.00000000E+00  0.00000000E+00
  0.00000000E+00  0.00000000E+00  0.00000000E+00
  0.00000000E+00  0.00000000E+00  0.00000000E+00
  0.00000000E+00  0.00000000E+00  0.00000000E+00
  0.00000000E+00  0.00000000E+00  0.00000000E+00
  0.00000000E+00  0.00000000E+00  0.00000000E+00
  0.00000000E+00  0.00000000E+00  0.00000000E+00
  0.00000000E+00  0.00000000E+00  0.00000000E+00
  0.00000000E+00  0.00000000E+00  0.00000000E+00
  0.00000000E+00  0.00000000E+00  0.00000000E+00
  0.00000000E+00  0.00000000E+00  0.00000000E+00
  0.00000000E+00  0.00000000E+00  0.00000000E+00
  0.00000000E+00  0.00000000E+00  0.00000000E+00
  0.00000000E+00  0.00000000E+00  0.00000000E+00
  0.00000000E+00  0.00000000E+00  0.00000000E+00
  0.00000000E+00  0.00000000E+00  0.00000000E+00
  0.00000000E+00  0.00000000E+00  0.00000000E+00
  0.00000000E+00  0.00000000E+00  0.00000000E+00
  0.00000000E+00  0.00000000E+00  0.00000000E+00
  0.00000000E+00  0.00000000E+00  0.00000000E+00
  0.00000000E+00  0.00000000E+00  0.00000000E+00
  0.00000000E+00  0.00000000E+00  0.00000000E+00
  0.00000000E+00  0.00000000E+00  0.00000000E+00
  0.00000000E+00  0.00000000E+00  0.00000000E+00
  0.00000000E+00  0.00000000E+00  0.00000000E+00
  0.00000000E+00  0.00000000E+00  0.00000000E+00
  0.00000000E+00  0.00000000E+00  0.00000000E+00
  0.00000000E+00  0.00000000E+00  0.00000000E+00
  0.00000000E+00  0.00000000E+00  0.00000000E+00
  0.00000000E+00  0.00000000E+00  0.00000000E+00
  0.00000000E+00  0.00000000E+00  0.00000000E+00
  0.00000000E+00  0.00000000E+00  0.00000000E+00
  0.00000000E+00  0.00000000E+00  0.00000000E+00
  0.00000000E+00  0.00000000E+00  0.00000000E+00
  0.00000000E+00  0.00000000E+00  0.00000000E+00
  0.00000000E+00  0.00000000E+00  0.00000000E+00
  0.00000000E+00  0.00000000E+00  0.00000000E+00
  0.00000000E+00  0.00000000E+00  0.00000000E+00
  0.00000000E+00  0.00000000E+00  0.00000000E+00
  0.00000000E+00  0.00000000E+00  0.00000000E+00
  0.00000000E+00  0.00000000E+00  0.00000000E+00
  0.00000000E+00  0.00000000E+00  0.00000000E+00
  0.00000000E+00  0.00000000E+00  0.00000000E+00
  0.00000000E+00  0.00000000E+00  0.00000000E+00
  0.00000000E+00  0.00000000E+00  0.00000000E+00
