CONTCAR\(10)                            
   1.00000000000000     
    12.6843996047999994    0.0000000000000000    0.0000000000000000
     0.0000000000000000   11.4939002990999999    0.0000000000000000
     0.0000000000000000    0.0000000000000000   18.8276996612999987
   Nb   Si   Te   O    H 
    12     4    24     1     1
Direct
  0.0765123515106891  0.0845367275640156  0.4978044875031296
  0.3273854508066033  0.9137126579420094  0.4977830985586731
  0.3433774514079282  0.2139415703053696  0.4978640091555099
  0.0925479324612920  0.7847815745651372  0.4980931115014937
  0.4790941973783276  0.5612096544273478  0.4979300740474959
  0.2292976802343776  0.4377087685684969  0.4981096242250561
  0.5768765985466419  0.0843142101432760  0.4979000111496286
  0.8271158661319419  0.9153127269112638  0.4981063865269534
  0.8427991333532080  0.2148381312057631  0.4981627837169784
  0.5905846025135948  0.7836085711993117  0.4988096827400705
  0.9795912225399630  0.5609058520534217  0.4981505943576631
  0.7274788887319592  0.4360805347909646  0.4996055714553652
  0.0333475330250330  0.3229482098647675  0.4980124445255836
  0.2823455105065544  0.6753820031613949  0.4978406198576398
  0.5318311603507913  0.3238179516193268  0.4977670626712926
  0.7840044683986769  0.6763866137486657  0.4910050427903143
  0.4183634009150729  0.0655802114238885  0.6007945895002156
  0.1680558687117647  0.9323958130095369  0.3949176125464420
  0.1682474151242253  0.9329793453448432  0.6004525796146616
  0.4183949705996733  0.0652235060978339  0.3947932997155844
  0.3933160119052152  0.4048865746233421  0.5980167746631613
  0.1434457744169632  0.5945937337457544  0.3982036529939483
  0.1431741271271938  0.5951716362539841  0.5977730773088363
  0.3933723821131272  0.4039632772514940  0.3979551232166781
  0.1728370267608758  0.2465321362172283  0.5951405777236958
  0.4216620561368587  0.7511428434276269  0.4004302556588218
  0.4194055097495228  0.7511184772072372  0.5960502215388310
  0.1725019226272581  0.2470254429126706  0.4007304528665349
  0.9187162365593731  0.0660748027441930  0.6007884709309214
  0.6673956833241159  0.9321167684845344  0.3957343560206692
  0.6684725023607402  0.9345058000197950  0.6005161594694290
  0.9178164651387281  0.0667018903552411  0.3949801054945730
  0.8944896735347599  0.4029943341767981  0.5981805690684596
  0.6422236723364610  0.5931647222219973  0.3957450594087568
  0.6432046653196705  0.5957892651893233  0.5944623354487489
  0.8931244123549562  0.4034197997895747  0.3988974667490975
  0.6719925247655681  0.2459725263674812  0.5954787758343437
  0.9220951402190657  0.7521359042790411  0.3995968927339674
  0.9206530591024762  0.7512151189402644  0.5941864170666924
  0.6716681043166136  0.2472052843708336  0.4005471097383217
  0.5799227513319561  0.5553896798125288  0.6928317756628281
  0.6219789442501730  0.5961551516624688  0.7286015542429350
 
  0.00000000E+00  0.00000000E+00  0.00000000E+00
  0.00000000E+00  0.00000000E+00  0.00000000E+00
  0.00000000E+00  0.00000000E+00  0.00000000E+00
  0.00000000E+00  0.00000000E+00  0.00000000E+00
  0.00000000E+00  0.00000000E+00  0.00000000E+00
  0.00000000E+00  0.00000000E+00  0.00000000E+00
  0.00000000E+00  0.00000000E+00  0.00000000E+00
  0.00000000E+00  0.00000000E+00  0.00000000E+00
  0.00000000E+00  0.00000000E+00  0.00000000E+00
  0.00000000E+00  0.00000000E+00  0.00000000E+00
  0.00000000E+00  0.00000000E+00  0.00000000E+00
  0.00000000E+00  0.00000000E+00  0.00000000E+00
  0.00000000E+00  0.00000000E+00  0.00000000E+00
  0.00000000E+00  0.00000000E+00  0.00000000E+00
  0.00000000E+00  0.00000000E+00  0.00000000E+00
  0.00000000E+00  0.00000000E+00  0.00000000E+00
  0.00000000E+00  0.00000000E+00  0.00000000E+00
  0.00000000E+00  0.00000000E+00  0.00000000E+00
  0.00000000E+00  0.00000000E+00  0.00000000E+00
  0.00000000E+00  0.00000000E+00  0.00000000E+00
  0.00000000E+00  0.00000000E+00  0.00000000E+00
  0.00000000E+00  0.00000000E+00  0.00000000E+00
  0.00000000E+00  0.00000000E+00  0.00000000E+00
  0.00000000E+00  0.00000000E+00  0.00000000E+00
  0.00000000E+00  0.00000000E+00  0.00000000E+00
  0.00000000E+00  0.00000000E+00  0.00000000E+00
  0.00000000E+00  0.00000000E+00  0.00000000E+00
  0.00000000E+00  0.00000000E+00  0.00000000E+00
  0.00000000E+00  0.00000000E+00  0.00000000E+00
  0.00000000E+00  0.00000000E+00  0.00000000E+00
  0.00000000E+00  0.00000000E+00  0.00000000E+00
  0.00000000E+00  0.00000000E+00  0.00000000E+00
  0.00000000E+00  0.00000000E+00  0.00000000E+00
  0.00000000E+00  0.00000000E+00  0.00000000E+00
  0.00000000E+00  0.00000000E+00  0.00000000E+00
  0.00000000E+00  0.00000000E+00  0.00000000E+00
  0.00000000E+00  0.00000000E+00  0.00000000E+00
  0.00000000E+00  0.00000000E+00  0.00000000E+00
  0.00000000E+00  0.00000000E+00  0.00000000E+00
  0.00000000E+00  0.00000000E+00  0.00000000E+00
  0.00000000E+00  0.00000000E+00  0.00000000E+00
  0.00000000E+00  0.00000000E+00  0.00000000E+00
