CONTCAR\(5)                             
   1.00000000000000     
    12.4780998230000009    0.0000000000000000    0.0000000000000000
     0.0000000000000000   15.4434003830000002    0.0000000000000000
     0.0000000000000000    0.0000000000000000   19.6900997161999989
   Nb   Co   Te   O    H 
    16    16    32     1     1
Direct
  0.2383893164467930  0.1272492941709294  0.4938707795190638
  0.2563674762474145  0.3260543609005419  0.5046543581839792
  0.4883486263012520  0.0758340842623761  0.5066833995459286
  0.0068109539810756  0.3768138098132651  0.4927481564633158
  0.7386769985008448  0.1271360907487735  0.4938674988877464
  0.7546467781215850  0.3278287731500993  0.5060267198989727
  0.9884644453379329  0.0755663628052749  0.5067582090453723
  0.5066520007668751  0.3771872217873836  0.4922056124329202
  0.2394151785050398  0.6259497563411625  0.4927760164046303
  0.2552972825276807  0.8256846879879698  0.5062270666866973
  0.4939171253317133  0.5764490668703492  0.5021303959617244
  0.0052748574461042  0.8767573298398603  0.4933070376105477
  0.7385793840507154  0.6278610738094534  0.4867544707439292
  0.7543475074975127  0.8247809940083225  0.5054813242926608
  0.9898840189348946  0.5755952058917851  0.5039226574011890
  0.5060284400810020  0.8765702701610654  0.4947980236613322
  0.4249884919925516  0.2291246991908618  0.4583980798306482
  0.1737762485941677  0.4734276018958899  0.5393445054139009
  0.3199525072784221  0.4786302759407973  0.4566733086412934
  0.0703557367142216  0.2241318505429779  0.5411456078457785
  0.9251207746352959  0.2289308889979657  0.4586719181673447
  0.6733337886318300  0.4810041668826912  0.5439743492163021
  0.8195542699506398  0.4785230476809657  0.4590948430351596
  0.5700764335691261  0.2245512408645880  0.5409318695529571
  0.4250444993645618  0.7301733202403174  0.4595088597699127
  0.1745209915160134  0.9729044595585685  0.5414383394439884
  0.3200230511695595  0.9791601701746586  0.4594722148526058
  0.0702395688825368  0.7235413217110739  0.5400983823932705
  0.9250836767197818  0.7284494182833458  0.4571313073391606
  0.6744505766907950  0.9739228753508569  0.5413194258568563
  0.8195201214928486  0.9790007226679978  0.4590117783726225
  0.5702523907349298  0.7199855866001750  0.5435531480324093
  0.1254301642306265  0.4929742016340169  0.4098664786006921
  0.3706350371648630  0.3542711499768531  0.3795963266735605
  0.1219935680331067  0.3480477535845144  0.6178996402526479
  0.3749207458883844  0.2100703416114927  0.5871881903702680
  0.3746791142812677  0.1044927301826846  0.3814766724013455
  0.1244020646765772  0.0977258672845203  0.6187950465933506
  0.1197263229902350  0.2430299229161922  0.4116153396152325
  0.3709638366137701  0.4628765553368651  0.5839286971953028
  0.6281227311616141  0.4897215067564996  0.4098021505860274
  0.8701872501368958  0.3543262188037648  0.3810717364820712
  0.6189963474923500  0.3501962993141832  0.6177547412465155
  0.8745779540486220  0.2102688907570305  0.5868270167033205
  0.8749355208960121  0.1046388933348375  0.3815371784398864
  0.6245198425350891  0.0982649959465607  0.6188578354817266
  0.6204031090452587  0.2424837497497216  0.4121475046765313
  0.8700740891549787  0.4596165308740131  0.5864333761057209
  0.1246938233551887  0.9937053453240636  0.4128441447472075
  0.3690678513941849  0.8556097412395501  0.3818582091455188
  0.1185156396001295  0.8467868114413515  0.6185504898854711
  0.3748415705564476  0.7081512434550764  0.5867686945915787
  0.3786516550536739  0.6053223921446986  0.3804207798467016
  0.1240926151560128  0.5971335364058907  0.6172438839968833
  0.1198138626931702  0.7427381520413094  0.4114426058335950
  0.3692897856941736  0.9589568602397466  0.5881242474859476
  0.6244955648841852  0.9931724277113929  0.4128891619399531
  0.8692224954026661  0.8555206211872805  0.3808080919191326
  0.6200657939999603  0.8476082174014468  0.6188244330827858
  0.8726805183792647  0.7068220075631844  0.5846467848932773
  0.8747738479690523  0.6039465927489818  0.3786420665555952
  0.6357897552624190  0.6029306166497629  0.6237254077707045
  0.6174466492917717  0.7449576042739581  0.4106152048863870
  0.8693697015973845  0.9583300248335901  0.5875105583863965
  0.5045071557739270  0.5670462864180940  0.6853112102083234
  0.5291904995710032  0.5749761797244916  0.7320762738960493
 
  0.00000000E+00  0.00000000E+00  0.00000000E+00
  0.00000000E+00  0.00000000E+00  0.00000000E+00
  0.00000000E+00  0.00000000E+00  0.00000000E+00
  0.00000000E+00  0.00000000E+00  0.00000000E+00
  0.00000000E+00  0.00000000E+00  0.00000000E+00
  0.00000000E+00  0.00000000E+00  0.00000000E+00
  0.00000000E+00  0.00000000E+00  0.00000000E+00
  0.00000000E+00  0.00000000E+00  0.00000000E+00
  0.00000000E+00  0.00000000E+00  0.00000000E+00
  0.00000000E+00  0.00000000E+00  0.00000000E+00
  0.00000000E+00  0.00000000E+00  0.00000000E+00
  0.00000000E+00  0.00000000E+00  0.00000000E+00
  0.00000000E+00  0.00000000E+00  0.00000000E+00
  0.00000000E+00  0.00000000E+00  0.00000000E+00
  0.00000000E+00  0.00000000E+00  0.00000000E+00
  0.00000000E+00  0.00000000E+00  0.00000000E+00
  0.00000000E+00  0.00000000E+00  0.00000000E+00
  0.00000000E+00  0.00000000E+00  0.00000000E+00
  0.00000000E+00  0.00000000E+00  0.00000000E+00
  0.00000000E+00  0.00000000E+00  0.00000000E+00
  0.00000000E+00  0.00000000E+00  0.00000000E+00
  0.00000000E+00  0.00000000E+00  0.00000000E+00
  0.00000000E+00  0.00000000E+00  0.00000000E+00
  0.00000000E+00  0.00000000E+00  0.00000000E+00
  0.00000000E+00  0.00000000E+00  0.00000000E+00
  0.00000000E+00  0.00000000E+00  0.00000000E+00
  0.00000000E+00  0.00000000E+00  0.00000000E+00
  0.00000000E+00  0.00000000E+00  0.00000000E+00
  0.00000000E+00  0.00000000E+00  0.00000000E+00
  0.00000000E+00  0.00000000E+00  0.00000000E+00
  0.00000000E+00  0.00000000E+00  0.00000000E+00
  0.00000000E+00  0.00000000E+00  0.00000000E+00
  0.00000000E+00  0.00000000E+00  0.00000000E+00
  0.00000000E+00  0.00000000E+00  0.00000000E+00
  0.00000000E+00  0.00000000E+00  0.00000000E+00
  0.00000000E+00  0.00000000E+00  0.00000000E+00
  0.00000000E+00  0.00000000E+00  0.00000000E+00
  0.00000000E+00  0.00000000E+00  0.00000000E+00
  0.00000000E+00  0.00000000E+00  0.00000000E+00
  0.00000000E+00  0.00000000E+00  0.00000000E+00
  0.00000000E+00  0.00000000E+00  0.00000000E+00
  0.00000000E+00  0.00000000E+00  0.00000000E+00
  0.00000000E+00  0.00000000E+00  0.00000000E+00
  0.00000000E+00  0.00000000E+00  0.00000000E+00
  0.00000000E+00  0.00000000E+00  0.00000000E+00
  0.00000000E+00  0.00000000E+00  0.00000000E+00
  0.00000000E+00  0.00000000E+00  0.00000000E+00
  0.00000000E+00  0.00000000E+00  0.00000000E+00
  0.00000000E+00  0.00000000E+00  0.00000000E+00
  0.00000000E+00  0.00000000E+00  0.00000000E+00
  0.00000000E+00  0.00000000E+00  0.00000000E+00
  0.00000000E+00  0.00000000E+00  0.00000000E+00
  0.00000000E+00  0.00000000E+00  0.00000000E+00
  0.00000000E+00  0.00000000E+00  0.00000000E+00
  0.00000000E+00  0.00000000E+00  0.00000000E+00
  0.00000000E+00  0.00000000E+00  0.00000000E+00
  0.00000000E+00  0.00000000E+00  0.00000000E+00
  0.00000000E+00  0.00000000E+00  0.00000000E+00
  0.00000000E+00  0.00000000E+00  0.00000000E+00
  0.00000000E+00  0.00000000E+00  0.00000000E+00
  0.00000000E+00  0.00000000E+00  0.00000000E+00
  0.00000000E+00  0.00000000E+00  0.00000000E+00
  0.00000000E+00  0.00000000E+00  0.00000000E+00
  0.00000000E+00  0.00000000E+00  0.00000000E+00
  0.00000000E+00  0.00000000E+00  0.00000000E+00
  0.00000000E+00  0.00000000E+00  0.00000000E+00
