CONTCAR\(10)                            
   1.00000000000000     
     9.7571001052999993    0.0000000000000000    0.0000000000000000
    -3.0063686365000000   15.8319856181999992    0.0000000000000000
     0.0000000000000000    0.0000000000000000   18.2793006897000012
   V    P    S    O 
     4     8    26     1
Direct
  0.6126308539029820  0.6047955036712034  0.4980031270162833
  0.6112490163629293  0.1070027695401890  0.5036640332279472
  0.3790354791707108  0.3967719392520224  0.5026659639046889
  0.3816915721691482  0.8964519018546871  0.4974964601889939
  0.8282928160002656  0.2625961802789638  0.4925866451596655
  0.6881604290531163  0.4342694774871462  0.5396354862848894
  0.1685741714471965  0.7398208698833472  0.5035055140324063
  0.1678335312866242  0.2399567236826609  0.4972391053374983
  0.3045637501150369  0.0665893038497652  0.5392623283859463
  0.6952254859040919  0.9363988598539773  0.4656380425824602
  0.3011659908609313  0.5665693588568499  0.4608058110510782
  0.8253502062015532  0.7609582009356473  0.5063489606325040
  0.1121130861857624  0.1106179089151912  0.5301149252568887
  0.8851863707281385  0.8917862381146076  0.4786238947448658
 -0.0017153043062718  0.7493044110281173  0.5749673356974281
  0.3877251879763212  0.0402603240738569  0.4397559450977542
  0.5328883151523672  0.3554771838829668  0.5913441242637627
  0.2379745298722060  0.4539588579900087  0.4117229312425590
  0.1894586126674828  0.3222307495458035  0.5802757336050479
  0.6583749774269317  0.7326094795390239  0.5723422828222759
  0.4558060767789885  0.6471679275883697  0.4100338215064553
  0.6041079218182758  0.4607034166544632  0.4401623160913795
  0.6547706428009130  0.2346122720470880  0.4306304239808116
  0.8799775625006629  0.3898503580891724  0.5314221313810837
  0.9974086172878041  0.2489551490135230  0.4241447686362000
  0.6019446237487966  0.9613158600964550  0.5627567846320684
  0.7989038497334553  0.6821701095487664  0.4204628213084404
  0.3872381060384883  0.5405250130145882  0.5599048179425605
  0.1946320136219917  0.8207397870515071  0.4192092850906046
  0.7527416076739033  0.5472440785297628  0.5882082199343288
  0.5432709682631072  0.8582891263678479  0.4104824080887193
  0.2394018959950006  0.9537637192488735  0.5877978241671029
  0.3357634717774620  0.7677502429851505  0.5697694098889458
  0.8048355174045547  0.1730882241369018  0.5857048676321492
  0.7674864126752032  0.0503700303879378  0.4203986785266425
  0.4591153781287682  0.1458175689270163  0.5927313193331177
  0.1095418189113971  0.6098644608336109  0.4721380502946785
  0.3344761513766509  0.2670055090744614  0.4309039056372239
  0.7552980962870610  0.2151610311684408  0.6516896643925401
 
  0.00000000E+00  0.00000000E+00  0.00000000E+00
  0.00000000E+00  0.00000000E+00  0.00000000E+00
  0.00000000E+00  0.00000000E+00  0.00000000E+00
  0.00000000E+00  0.00000000E+00  0.00000000E+00
  0.00000000E+00  0.00000000E+00  0.00000000E+00
  0.00000000E+00  0.00000000E+00  0.00000000E+00
  0.00000000E+00  0.00000000E+00  0.00000000E+00
  0.00000000E+00  0.00000000E+00  0.00000000E+00
  0.00000000E+00  0.00000000E+00  0.00000000E+00
  0.00000000E+00  0.00000000E+00  0.00000000E+00
  0.00000000E+00  0.00000000E+00  0.00000000E+00
  0.00000000E+00  0.00000000E+00  0.00000000E+00
  0.00000000E+00  0.00000000E+00  0.00000000E+00
  0.00000000E+00  0.00000000E+00  0.00000000E+00
  0.00000000E+00  0.00000000E+00  0.00000000E+00
  0.00000000E+00  0.00000000E+00  0.00000000E+00
  0.00000000E+00  0.00000000E+00  0.00000000E+00
  0.00000000E+00  0.00000000E+00  0.00000000E+00
  0.00000000E+00  0.00000000E+00  0.00000000E+00
  0.00000000E+00  0.00000000E+00  0.00000000E+00
  0.00000000E+00  0.00000000E+00  0.00000000E+00
  0.00000000E+00  0.00000000E+00  0.00000000E+00
  0.00000000E+00  0.00000000E+00  0.00000000E+00
  0.00000000E+00  0.00000000E+00  0.00000000E+00
  0.00000000E+00  0.00000000E+00  0.00000000E+00
  0.00000000E+00  0.00000000E+00  0.00000000E+00
  0.00000000E+00  0.00000000E+00  0.00000000E+00
  0.00000000E+00  0.00000000E+00  0.00000000E+00
  0.00000000E+00  0.00000000E+00  0.00000000E+00
  0.00000000E+00  0.00000000E+00  0.00000000E+00
  0.00000000E+00  0.00000000E+00  0.00000000E+00
  0.00000000E+00  0.00000000E+00  0.00000000E+00
  0.00000000E+00  0.00000000E+00  0.00000000E+00
  0.00000000E+00  0.00000000E+00  0.00000000E+00
  0.00000000E+00  0.00000000E+00  0.00000000E+00
  0.00000000E+00  0.00000000E+00  0.00000000E+00
  0.00000000E+00  0.00000000E+00  0.00000000E+00
  0.00000000E+00  0.00000000E+00  0.00000000E+00
  0.00000000E+00  0.00000000E+00  0.00000000E+00
