 Co1 I2                                 
   1.00000000000000     
     3.9492124708857235    0.0000000000000000    0.0000000000000000
    -1.9746067367362625    3.4201156293697248    0.0000000000000000
     0.0000000000000000    0.0000000000000000   18.1073755680159998
   Co   I 
     1     2
Direct
 -0.0000000014767870 -0.0000000036027543  0.5000000000256922
  0.3333327918366553  0.6666672213476720  0.4137061286494814
  0.6666672096401315  0.3333327822550824  0.5862938713248265
 
  0.00000000E+00  0.00000000E+00  0.00000000E+00
  0.00000000E+00  0.00000000E+00  0.00000000E+00
  0.00000000E+00  0.00000000E+00  0.00000000E+00
