 Sc5 Cl8                                
   1.00000000000000     
     3.5343807221571764    0.0000000000000000    0.0000000000000000
     0.0000000000000000   13.3227436781476118    0.0000000000000000
     0.0000000000000000    0.0000000000000000   20.2078215463039967
   Sc   Cl
     5     8
Direct
  0.0000403617259285  0.0000113139219548  0.4999976746623357
  0.5000512414845260  0.3343816573402191  0.5091967323583251
  0.5000617545491990  0.6656317104493579  0.4908067998552393
  0.0000527467432468  0.5096587571379626  0.5752355912515157
  0.0000606778961924  0.4902791526963409  0.4247685479237434
  0.5000509831308213  0.3895608154011301  0.6290862528696926
  0.5000634076561573  0.6104514979157754  0.3709320321853378
  0.5000409595403763  0.0179962440788173  0.4133012584246126
  0.5000411912742395  0.9820067204766714  0.5866912802664320
  0.5000540213580474  0.6419471299271889  0.6149252916483615
  0.5000589386763223  0.3580593888361960  0.3850614894232015
  0.0000599634852418  0.8067699686309755  0.4820606239415643
  0.0000483457893726  0.1932140573576649  0.5179364251896371
 
  0.00000000E+00  0.00000000E+00  0.00000000E+00
  0.00000000E+00  0.00000000E+00  0.00000000E+00
  0.00000000E+00  0.00000000E+00  0.00000000E+00
  0.00000000E+00  0.00000000E+00  0.00000000E+00
  0.00000000E+00  0.00000000E+00  0.00000000E+00
  0.00000000E+00  0.00000000E+00  0.00000000E+00
  0.00000000E+00  0.00000000E+00  0.00000000E+00
  0.00000000E+00  0.00000000E+00  0.00000000E+00
  0.00000000E+00  0.00000000E+00  0.00000000E+00
  0.00000000E+00  0.00000000E+00  0.00000000E+00
  0.00000000E+00  0.00000000E+00  0.00000000E+00
  0.00000000E+00  0.00000000E+00  0.00000000E+00
  0.00000000E+00  0.00000000E+00  0.00000000E+00
