CONTCAR\(8)                             
   1.00000000000000     
    10.2070999146000005    0.0000000000000000    0.0000000000000000
    -1.7011927660999999   18.1179073708000011    0.0000000000000000
     0.0000000000000000    0.0000000000000000   20.2910003661999987
   Ta   Co   Pd   Se   O 
    12     6     3    36     1
Direct
  0.0287098589247394  0.1475257078892926  0.4665415351264599
  0.3096216476968215  0.8478747346156075  0.5330726259426748
  0.0727370540728688  0.4090070338689008  0.4687295344758224
  0.2659479206512673  0.5908827110373107  0.5296058006364950
  0.3629557889272191  0.1512032346982700  0.4674386001783430
  0.6428944990730339  0.8480079795242252  0.5333801581220821
  0.4057925299090375  0.4078772771868334  0.4730518193990323
  0.5996698897534343  0.5916962990725785  0.5303418400280338
  0.6958181292059408  0.1512111568082849  0.4676258957664958
  0.9762850181824613  0.8480452212283085  0.5332343989990924
  0.7389331510164571  0.4078873779120725  0.4732136274454517
  0.9329042347884008  0.5909754775569837  0.5296437987604194
  0.2257120255713821  0.2870397606259579  0.4427920450217517
  0.1202573914544368  0.7142243531248730  0.5598364978143180
  0.5522153790937288  0.2847486604517430  0.4414392894997368
  0.4531992002521975  0.7140544080492227  0.5600484723282512
  0.8790074488958578  0.2869237631058595  0.4428143157632843
  0.7868848523142966  0.7140447905128938  0.5601436142522030
  0.1710285390394857  0.9996518184684804  0.4996945840629713
  0.5031790638665997  0.9991362485956752  0.4999524340158647
  0.8352323729213457  0.9995991382724366  0.5000240982430331
  0.1899060615439318  0.1178067884349510  0.5601729407498336
  0.1485025406166554  0.8810323261591068  0.4401022155861107
  0.1028781641817135  0.6035213670295985  0.6229302630654110
  0.2388871002020708  0.3964788149205833  0.3777771307636412
  0.2398337543277116  0.4457055682361694  0.5629412848543023
  0.0951579871336230  0.5527519934184362  0.4374511880183893
  0.0442270096775583  0.2399836369315707  0.3747554957587067
  0.2945471092897475  0.7612828354651301  0.6303313768221610
  0.1854500553201265  0.0735166556090325  0.3973788383632881
  0.1561639289530064  0.9252269070146527  0.6017361790777930
  0.0515025679742868  0.2777104854333745  0.5235766964962877
  0.2877223770446673  0.7181435942097366  0.4756173809448483
  0.5235315442930484  0.1168794025421406  0.5604304178282145
  0.4820425290386360  0.8808982187751752  0.4400984816890230
  0.4354659574884720  0.6033527471982152  0.6233411558927304
  0.5688275092568703  0.3963335734021252  0.3796420672965801
  0.5762093115694169  0.4472624863539515  0.5646770493524215
  0.4292425761364159  0.5520318544093695  0.4386920309230544
  0.3795669041879085  0.2381991349122755  0.3702990466738600
  0.6279830728795908  0.7612258535504314  0.6305053984627879
  0.5166377862182638  0.0745007327469904  0.3983125190480531
  0.4890013751424636  0.9248325462225377  0.6020866620552883
  0.3875648900516336  0.2802911578434111  0.5266577539476029
  0.6208992427682838  0.7184395123743409  0.4759394038386942
  0.8577412742120563  0.1178129545043965  0.5603601150710291
  0.8150443501464331  0.8811272619900931  0.4402803067748006
  0.7701189423544545  0.6032766934519520  0.6234103967312036
  0.8983325865497422  0.3964280250600187  0.3780167142931091
  0.9123124877743873  0.4461650498559547  0.5629551581713654
  0.7610713879773358  0.5520817462111172  0.4385577982223583
  0.7087285640342714  0.2380063355268395  0.3703059324453628
  0.9618817038988779  0.7611868936245807  0.6303649011180881
  0.8470790358649646  0.0733018133471641  0.3976574377756545
  0.8226662437971127  0.9252040484845245  0.6020872355555407
  0.7154075764885154  0.2802371300185578  0.5267568523644101
  0.9537520818004632  0.7182694466841956  0.4757432736837467
  0.0542962141942477  0.2812360254414865  0.6065963594023899
 
  0.00000000E+00  0.00000000E+00  0.00000000E+00
  0.00000000E+00  0.00000000E+00  0.00000000E+00
  0.00000000E+00  0.00000000E+00  0.00000000E+00
  0.00000000E+00  0.00000000E+00  0.00000000E+00
  0.00000000E+00  0.00000000E+00  0.00000000E+00
  0.00000000E+00  0.00000000E+00  0.00000000E+00
  0.00000000E+00  0.00000000E+00  0.00000000E+00
  0.00000000E+00  0.00000000E+00  0.00000000E+00
  0.00000000E+00  0.00000000E+00  0.00000000E+00
  0.00000000E+00  0.00000000E+00  0.00000000E+00
  0.00000000E+00  0.00000000E+00  0.00000000E+00
  0.00000000E+00  0.00000000E+00  0.00000000E+00
  0.00000000E+00  0.00000000E+00  0.00000000E+00
  0.00000000E+00  0.00000000E+00  0.00000000E+00
  0.00000000E+00  0.00000000E+00  0.00000000E+00
  0.00000000E+00  0.00000000E+00  0.00000000E+00
  0.00000000E+00  0.00000000E+00  0.00000000E+00
  0.00000000E+00  0.00000000E+00  0.00000000E+00
  0.00000000E+00  0.00000000E+00  0.00000000E+00
  0.00000000E+00  0.00000000E+00  0.00000000E+00
  0.00000000E+00  0.00000000E+00  0.00000000E+00
  0.00000000E+00  0.00000000E+00  0.00000000E+00
  0.00000000E+00  0.00000000E+00  0.00000000E+00
  0.00000000E+00  0.00000000E+00  0.00000000E+00
  0.00000000E+00  0.00000000E+00  0.00000000E+00
  0.00000000E+00  0.00000000E+00  0.00000000E+00
  0.00000000E+00  0.00000000E+00  0.00000000E+00
  0.00000000E+00  0.00000000E+00  0.00000000E+00
  0.00000000E+00  0.00000000E+00  0.00000000E+00
  0.00000000E+00  0.00000000E+00  0.00000000E+00
  0.00000000E+00  0.00000000E+00  0.00000000E+00
  0.00000000E+00  0.00000000E+00  0.00000000E+00
  0.00000000E+00  0.00000000E+00  0.00000000E+00
  0.00000000E+00  0.00000000E+00  0.00000000E+00
  0.00000000E+00  0.00000000E+00  0.00000000E+00
  0.00000000E+00  0.00000000E+00  0.00000000E+00
  0.00000000E+00  0.00000000E+00  0.00000000E+00
  0.00000000E+00  0.00000000E+00  0.00000000E+00
  0.00000000E+00  0.00000000E+00  0.00000000E+00
  0.00000000E+00  0.00000000E+00  0.00000000E+00
  0.00000000E+00  0.00000000E+00  0.00000000E+00
  0.00000000E+00  0.00000000E+00  0.00000000E+00
  0.00000000E+00  0.00000000E+00  0.00000000E+00
  0.00000000E+00  0.00000000E+00  0.00000000E+00
  0.00000000E+00  0.00000000E+00  0.00000000E+00
  0.00000000E+00  0.00000000E+00  0.00000000E+00
  0.00000000E+00  0.00000000E+00  0.00000000E+00
  0.00000000E+00  0.00000000E+00  0.00000000E+00
  0.00000000E+00  0.00000000E+00  0.00000000E+00
  0.00000000E+00  0.00000000E+00  0.00000000E+00
  0.00000000E+00  0.00000000E+00  0.00000000E+00
  0.00000000E+00  0.00000000E+00  0.00000000E+00
  0.00000000E+00  0.00000000E+00  0.00000000E+00
  0.00000000E+00  0.00000000E+00  0.00000000E+00
  0.00000000E+00  0.00000000E+00  0.00000000E+00
  0.00000000E+00  0.00000000E+00  0.00000000E+00
  0.00000000E+00  0.00000000E+00  0.00000000E+00
  0.00000000E+00  0.00000000E+00  0.00000000E+00
