CONTCAR                                 
   1.00000000000000     
    12.8863000870000004    0.0000000000000000    0.0000000000000000
     6.4431192937999997   11.1597653626000000    0.0000000000000000
     0.0000000000000000    0.0000000000000000   25.6977996825999995
   In   Te   O    H 
    27    36     2     1
Selective dynamics
Direct
  0.9960246617326618  0.0000932958097550  0.4984199024991298   F   F   F
  0.1106101691511157  0.1103538759944414  0.3511802162720485   F   F   F
  0.2195660155813286  0.2211896127096438  0.6476641506935223   F   F   F
  0.3339607910188036  0.0000261919234603  0.4982734492820526   F   F   F
  0.4453984712582226  0.1095594080453779  0.3499685779403521   F   F   F
  0.5525842822189873  0.2205155436441686  0.6483910903204944   F   F   F
  0.6651812339504275  0.0005557300491432  0.4997833356839081   F   F   F
  0.7747037804052610  0.1134347711203176  0.3500363557298272   F   F   F
  0.9003286065706391  0.2185784642873543  0.6461597348545425   F   F   F
  0.9963962793127550  0.3354716224430447  0.4993313579295418   F   F   F
  0.1093420191481584  0.4450163769786002  0.3499370969843625   F   F   F
  0.2199538798467700  0.5598886007596420  0.6485039018485921   F   F   F
  0.3299065844344256  0.3341883860476216  0.4998086577870566   F   F   F
  0.4424265250202311  0.4459068914815560  0.3501778669747821   F   F   F
  0.5524449240338214  0.5613699756685691  0.6466861675013647   F   F   F
  0.6643051722930196  0.3343748951357668  0.5003980626256634   F   F   F
  0.7745440754514732  0.4459990170364918  0.3501515695719490   F   F   F
  0.8889902363399500  0.5543277030909479  0.6500801896236155   F   F   F
  0.9961605627244836  0.6685393643019424  0.4996207464398879   F   F   F
  0.1094679929704867  0.7783723212913785  0.3506380293938918   F   F   F
  0.2169250267138949  0.8922078870450179  0.6492999979235634   F   F   F
  0.3306144865924807  0.6670162225823972  0.4996050916048560   F   F   F
  0.4446556842863885  0.7776927104737581  0.3497158152510735   F   F   F
  0.5541042551465765  0.8886224540480114  0.6496496209672316   F   F   F
  0.6635185627693119  0.6687279533351358  0.4994478996713809   F   F   F
  0.7781353635360375  0.7777433333690382  0.3487749803811155   F   F   F
  0.8864238055204865  0.8930465737662630  0.6496094404559045   F   F   F
  0.9980775810480012  0.0012226115947556  0.2935134292002957   F   F   F
  0.9969402431520038  0.0016417021233295  0.7087294787912839   F   F   F
  0.1060327579801665  0.1122119559419161  0.5681472823760316   F   F   F
  0.2176685015240452  0.2237645908715180  0.4313112994185175   F   F   F
  0.3317259517473232  0.0005054563204965  0.2927817719287376   F   F   F
  0.3308500873185807  0.0012956034145475  0.7063831552609159   F   F   F
  0.4398023687810095  0.1126075193569633  0.5683765880858687   F   F   F
  0.5519675908646775  0.2239215559326126  0.4311741983867208   F   F   F
  0.6663391466162452  0.0008027128073067  0.2918278498320959   F   F   F
  0.6635414108780253  0.0009858675850367  0.7072276853434118   F   F   F
  0.7712469925123671  0.1116946412777082  0.5684676628922389   F   F   F
  0.8834921523648376  0.2240703845189316  0.4313713622188757   F   F   F
  0.9980763716487289  0.3327140654250229  0.2935723687045453   F   F   F
  0.0016288630678574  0.3340297729325670  0.7083503538994904   F   F   F
  0.1062272599736929  0.4460823158682103  0.5686423790130846   F   F   F
  0.2179600513348987  0.5573423604043910  0.4309758368502870   F   F   F
  0.3323857825200420  0.3328952429386192  0.2932601520243949   F   F   F
  0.3297358109492876  0.3355278780378370  0.7049566575403361   F   F   F
  0.4392330060183269  0.4470811848300116  0.5683175948132231   F   F   F
  0.5527477239281282  0.5573047257658104  0.4306027040398419   F   F   F
  0.6640089951565997  0.3350170884297441  0.2922649883272683   F   F   F
  0.6647048219122524  0.3342822391564724  0.7050023118931179   F   F   F
  0.7712813328767041  0.4504184164509581  0.5684035328368893   F   F   F
  0.8852650182639294  0.5574230089229602  0.4303600320536987   F   F   F
  0.0007089273343936  0.6663207195148289  0.2919223652202447   F   F   F
  0.9978686978805840  0.6694481347918639  0.7061430082640783   F   F   F
  0.1061260208776886  0.7801561281554186  0.5680702205045165   F   F   F
  0.2186290619002591  0.8905953355943765  0.4309955825733596   F   F   F
  0.3313312249927520  0.6681897431819408  0.2928079236164791   F   F   F
  0.3317589008251858  0.6697179916276781  0.7059316436138090   F   F   F
  0.4404487937615187  0.7810611315284959  0.5675648433589799   F   F   F
  0.5535647167981494  0.8907260289782712  0.4298135780824097   F   F   F
  0.6661688083305179  0.6669712896891085  0.2918041491482484   F   F   F
  0.6655696195805803  0.6664662220609543  0.7068962396863725   F   F   F
  0.7732683859665244  0.7797696461411334  0.5683643678831842   F   F   F
  0.8844709322192585  0.8893035248139753  0.4299451497538413   F   F   F
  0.5159566569618690  0.4448044540328411  0.7585270662404255   T   T   T
  0.5050965283586422  0.3832077217920826  0.8027755804292482   T   T   T
  0.4492607447461055  0.3574694937504503  0.7889000941200186   T   T   T
 
  0.00000000E+00  0.00000000E+00  0.00000000E+00
  0.00000000E+00  0.00000000E+00  0.00000000E+00
  0.00000000E+00  0.00000000E+00  0.00000000E+00
  0.00000000E+00  0.00000000E+00  0.00000000E+00
  0.00000000E+00  0.00000000E+00  0.00000000E+00
  0.00000000E+00  0.00000000E+00  0.00000000E+00
  0.00000000E+00  0.00000000E+00  0.00000000E+00
  0.00000000E+00  0.00000000E+00  0.00000000E+00
  0.00000000E+00  0.00000000E+00  0.00000000E+00
  0.00000000E+00  0.00000000E+00  0.00000000E+00
  0.00000000E+00  0.00000000E+00  0.00000000E+00
  0.00000000E+00  0.00000000E+00  0.00000000E+00
  0.00000000E+00  0.00000000E+00  0.00000000E+00
  0.00000000E+00  0.00000000E+00  0.00000000E+00
  0.00000000E+00  0.00000000E+00  0.00000000E+00
  0.00000000E+00  0.00000000E+00  0.00000000E+00
  0.00000000E+00  0.00000000E+00  0.00000000E+00
  0.00000000E+00  0.00000000E+00  0.00000000E+00
  0.00000000E+00  0.00000000E+00  0.00000000E+00
  0.00000000E+00  0.00000000E+00  0.00000000E+00
  0.00000000E+00  0.00000000E+00  0.00000000E+00
  0.00000000E+00  0.00000000E+00  0.00000000E+00
  0.00000000E+00  0.00000000E+00  0.00000000E+00
  0.00000000E+00  0.00000000E+00  0.00000000E+00
  0.00000000E+00  0.00000000E+00  0.00000000E+00
  0.00000000E+00  0.00000000E+00  0.00000000E+00
  0.00000000E+00  0.00000000E+00  0.00000000E+00
  0.00000000E+00  0.00000000E+00  0.00000000E+00
  0.00000000E+00  0.00000000E+00  0.00000000E+00
  0.00000000E+00  0.00000000E+00  0.00000000E+00
  0.00000000E+00  0.00000000E+00  0.00000000E+00
  0.00000000E+00  0.00000000E+00  0.00000000E+00
  0.00000000E+00  0.00000000E+00  0.00000000E+00
  0.00000000E+00  0.00000000E+00  0.00000000E+00
  0.00000000E+00  0.00000000E+00  0.00000000E+00
  0.00000000E+00  0.00000000E+00  0.00000000E+00
  0.00000000E+00  0.00000000E+00  0.00000000E+00
  0.00000000E+00  0.00000000E+00  0.00000000E+00
  0.00000000E+00  0.00000000E+00  0.00000000E+00
  0.00000000E+00  0.00000000E+00  0.00000000E+00
  0.00000000E+00  0.00000000E+00  0.00000000E+00
  0.00000000E+00  0.00000000E+00  0.00000000E+00
  0.00000000E+00  0.00000000E+00  0.00000000E+00
  0.00000000E+00  0.00000000E+00  0.00000000E+00
  0.00000000E+00  0.00000000E+00  0.00000000E+00
  0.00000000E+00  0.00000000E+00  0.00000000E+00
  0.00000000E+00  0.00000000E+00  0.00000000E+00
  0.00000000E+00  0.00000000E+00  0.00000000E+00
  0.00000000E+00  0.00000000E+00  0.00000000E+00
  0.00000000E+00  0.00000000E+00  0.00000000E+00
  0.00000000E+00  0.00000000E+00  0.00000000E+00
  0.00000000E+00  0.00000000E+00  0.00000000E+00
  0.00000000E+00  0.00000000E+00  0.00000000E+00
  0.00000000E+00  0.00000000E+00  0.00000000E+00
  0.00000000E+00  0.00000000E+00  0.00000000E+00
  0.00000000E+00  0.00000000E+00  0.00000000E+00
  0.00000000E+00  0.00000000E+00  0.00000000E+00
  0.00000000E+00  0.00000000E+00  0.00000000E+00
  0.00000000E+00  0.00000000E+00  0.00000000E+00
  0.00000000E+00  0.00000000E+00  0.00000000E+00
  0.00000000E+00  0.00000000E+00  0.00000000E+00
  0.00000000E+00  0.00000000E+00  0.00000000E+00
  0.00000000E+00  0.00000000E+00  0.00000000E+00
  0.00000000E+00  0.00000000E+00  0.00000000E+00
  0.00000000E+00  0.00000000E+00  0.00000000E+00
  0.00000000E+00  0.00000000E+00  0.00000000E+00
