CONTCAR\(10)                            
   1.00000000000000     
    12.5135002136000004    0.0000000000000000    0.0000000000000000
     0.0000000000000000   15.7480001450000007    0.0000000000000000
     0.0000000000000000    0.0000000000000000   19.7180004119999985
   Nb   Fe   Te   O    H 
    16    16    32     2     1
Direct
  0.2393618457591151  0.1574317259091093  0.4938957838621539
  0.0119105828692096  0.4071008562815587  0.4950913409165699
  0.9895559583066842  0.0989338464018304  0.5095286594140178
  0.2632634948896154  0.3490205366062316  0.5094217661010464
  0.7400056702750075  0.1574227380253598  0.4937068646183903
  0.5133165373591336  0.4083301736063439  0.4944592664404052
  0.4895802829820335  0.0988010902250624  0.5095694074625361
  0.7643196237172324  0.3508053729101268  0.5092275131145133
  0.2390535989521148  0.6573357331357796  0.4947333632614174
  0.0137186237550521  0.9075019369189257  0.4942892068622856
  0.9878694792612038  0.5986914217014512  0.5114199899817842
  0.2637216815142349  0.8491184142157377  0.5099163323584686
  0.7397149664380860  0.6572019129980508  0.4937072057936593
  0.5137431960579146  0.9077479593640417  0.4940725588037748
  0.4902768690123976  0.5985595230286482  0.5105048138441628
  0.7638690459742448  0.8491326639453662  0.5097871886721274
  0.0736195050704873  0.2491677132908338  0.5398936831903333
  0.3233535873717827  0.0069763424518138  0.4634310802642922
  0.4296160878259125  0.2572824607566821  0.4634787806728113
  0.1796316326765724  0.9995751408495400  0.5402521684193624
  0.5734956456969030  0.2490273211899291  0.5400515288686134
  0.8236601302258902  0.0070204725417871  0.4632866418003247
  0.9297625349205337  0.2572782564004602  0.4629180743898724
  0.6799338755192917  0.9997011493498048  0.5400566326306884
  0.0736396220726512  0.7494115675866395  0.5406223661113949
  0.3228589565808913  0.5070103193611678  0.4642330146951602
  0.4296589213575425  0.7569691338167336  0.4638091213248606
  0.1794893509235343  0.4987826998551345  0.5412257374883197
  0.5735908866108000  0.7498482394028517  0.5403591004784992
  0.8216578573803557  0.5072893543978902  0.4621311942089473
  0.9295247217598848  0.7567525512840775  0.4640115402107322
  0.6819780775884887  0.4993114222244100  0.5426693892017672
  0.3717392292270253  0.3831402491438446  0.3846235684310790
  0.1283137668841851  0.0251619714652036  0.4128954131253257
  0.3747484530071136  0.9812666752355591  0.5907694017808041
  0.1221794503313764  0.3727346608755888  0.6197418023814522
  0.3778903963987542  0.2309763384173504  0.5906024953694033
  0.1247905443820246  0.2756521166273678  0.4127401341423057
  0.1316469553497904  0.1240682384940282  0.6193372424275758
  0.3819511109791955  0.1325252468235925  0.3844174149580086
  0.8713122600082719  0.3822622357541300  0.3838775321701083
  0.6284842460818579  0.0253798041886397  0.4128836424041594
  0.8747353761405673  0.9814988552406974  0.5908444164331464
  0.6190322964403074  0.3728881048426889  0.6194317944337918
  0.8785418297746442  0.2320333036211947  0.5900426459469558
  0.6248634006712001  0.2756010811891257  0.4132077006315394
  0.6323380985876812  0.1239306455599657  0.6192066315138888
  0.8823121792387081  0.1322495796729325  0.3841243341190357
  0.3713579473840235  0.8822297190965003  0.3845271664734808
  0.1275290601520128  0.5257918444329388  0.4144271019922915
  0.3745972405693040  0.4811828338768132  0.5915024262595037
  0.1211623316177612  0.8743659229490763  0.6195301637181994
  0.3784920548220866  0.7314306409080464  0.5909361981901021
  0.1247153090980094  0.7750283108698985  0.4133388523136010
  0.1326495922790563  0.6239328401163694  0.6199398732100310
  0.3825108576888431  0.6318786516927463  0.3852655054132273
  0.8717747799648365  0.8821220628789319  0.3845884180593149
  0.6279224197073010  0.5252002381736169  0.4131475734357907
  0.8747692798712829  0.4795860710399246  0.5906425273995899
  0.6213402633929108  0.8746313917299280  0.6193375625172955
  0.8779476018872426  0.7306676911761935  0.5909965884955760
  0.6249591064199193  0.7752872552658783  0.4130753821018063
  0.6327350756061345  0.6254245868186709  0.6198010821285593
  0.8828510218100064  0.6328511020718569  0.3847204143295885
  0.9144828566759888  0.4200110356488260  0.6918717764351231
  0.8301394393886287  0.4318675399074567  0.7408509156852483
  0.7886511174571338  0.3793005771610716  0.7351429221098121
 
  0.00000000E+00  0.00000000E+00  0.00000000E+00
  0.00000000E+00  0.00000000E+00  0.00000000E+00
  0.00000000E+00  0.00000000E+00  0.00000000E+00
  0.00000000E+00  0.00000000E+00  0.00000000E+00
  0.00000000E+00  0.00000000E+00  0.00000000E+00
  0.00000000E+00  0.00000000E+00  0.00000000E+00
  0.00000000E+00  0.00000000E+00  0.00000000E+00
  0.00000000E+00  0.00000000E+00  0.00000000E+00
  0.00000000E+00  0.00000000E+00  0.00000000E+00
  0.00000000E+00  0.00000000E+00  0.00000000E+00
  0.00000000E+00  0.00000000E+00  0.00000000E+00
  0.00000000E+00  0.00000000E+00  0.00000000E+00
  0.00000000E+00  0.00000000E+00  0.00000000E+00
  0.00000000E+00  0.00000000E+00  0.00000000E+00
  0.00000000E+00  0.00000000E+00  0.00000000E+00
  0.00000000E+00  0.00000000E+00  0.00000000E+00
  0.00000000E+00  0.00000000E+00  0.00000000E+00
  0.00000000E+00  0.00000000E+00  0.00000000E+00
  0.00000000E+00  0.00000000E+00  0.00000000E+00
  0.00000000E+00  0.00000000E+00  0.00000000E+00
  0.00000000E+00  0.00000000E+00  0.00000000E+00
  0.00000000E+00  0.00000000E+00  0.00000000E+00
  0.00000000E+00  0.00000000E+00  0.00000000E+00
  0.00000000E+00  0.00000000E+00  0.00000000E+00
  0.00000000E+00  0.00000000E+00  0.00000000E+00
  0.00000000E+00  0.00000000E+00  0.00000000E+00
  0.00000000E+00  0.00000000E+00  0.00000000E+00
  0.00000000E+00  0.00000000E+00  0.00000000E+00
  0.00000000E+00  0.00000000E+00  0.00000000E+00
  0.00000000E+00  0.00000000E+00  0.00000000E+00
  0.00000000E+00  0.00000000E+00  0.00000000E+00
  0.00000000E+00  0.00000000E+00  0.00000000E+00
  0.00000000E+00  0.00000000E+00  0.00000000E+00
  0.00000000E+00  0.00000000E+00  0.00000000E+00
  0.00000000E+00  0.00000000E+00  0.00000000E+00
  0.00000000E+00  0.00000000E+00  0.00000000E+00
  0.00000000E+00  0.00000000E+00  0.00000000E+00
  0.00000000E+00  0.00000000E+00  0.00000000E+00
  0.00000000E+00  0.00000000E+00  0.00000000E+00
  0.00000000E+00  0.00000000E+00  0.00000000E+00
  0.00000000E+00  0.00000000E+00  0.00000000E+00
  0.00000000E+00  0.00000000E+00  0.00000000E+00
  0.00000000E+00  0.00000000E+00  0.00000000E+00
  0.00000000E+00  0.00000000E+00  0.00000000E+00
  0.00000000E+00  0.00000000E+00  0.00000000E+00
  0.00000000E+00  0.00000000E+00  0.00000000E+00
  0.00000000E+00  0.00000000E+00  0.00000000E+00
  0.00000000E+00  0.00000000E+00  0.00000000E+00
  0.00000000E+00  0.00000000E+00  0.00000000E+00
  0.00000000E+00  0.00000000E+00  0.00000000E+00
  0.00000000E+00  0.00000000E+00  0.00000000E+00
  0.00000000E+00  0.00000000E+00  0.00000000E+00
  0.00000000E+00  0.00000000E+00  0.00000000E+00
  0.00000000E+00  0.00000000E+00  0.00000000E+00
  0.00000000E+00  0.00000000E+00  0.00000000E+00
  0.00000000E+00  0.00000000E+00  0.00000000E+00
  0.00000000E+00  0.00000000E+00  0.00000000E+00
  0.00000000E+00  0.00000000E+00  0.00000000E+00
  0.00000000E+00  0.00000000E+00  0.00000000E+00
  0.00000000E+00  0.00000000E+00  0.00000000E+00
  0.00000000E+00  0.00000000E+00  0.00000000E+00
  0.00000000E+00  0.00000000E+00  0.00000000E+00
  0.00000000E+00  0.00000000E+00  0.00000000E+00
  0.00000000E+00  0.00000000E+00  0.00000000E+00
  0.00000000E+00  0.00000000E+00  0.00000000E+00
  0.00000000E+00  0.00000000E+00  0.00000000E+00
  0.00000000E+00  0.00000000E+00  0.00000000E+00
