CONTCAR\(3)                             
   1.00000000000000     
    15.7967996596999996    0.0000000000000000    0.0000000000000000
    -7.8983998298999998   13.6804298037999992    0.0000000000000000
     0.0000000000000000    0.0000000000000000   18.1074008942000013
   Co   I    O    H 
    16    32     2     1
Selective dynamics
Direct
  0.9989405279967798  0.0003938571057418  0.4982297420145372   F   F   F
  0.2473011223952142  0.9964764516509490  0.4977108510965209   F   F   F
  0.4983922269854304  0.9999576670352468  0.4985816218371824   F   F   F
  0.7507554772341081  0.0032144211367893  0.4979412142630082   F   F   F
  0.9976315483842129  0.2502099478038389  0.4973972349566296   F   F   F
  0.2511981689397231  0.2505149314340471  0.4967538158177192   F   F   F
  0.4989360256334479  0.2519947543485941  0.4984695728955799   F   F   F
  0.7505630245989465  0.2489907586396995  0.4985387462757558   F   F   F
  0.0013229479193342  0.5012914605709966  0.4983021933110621   F   F   F
  0.2490085515309559  0.5017227822608419  0.4970578960952423   F   F   F
  0.4984022867011930  0.5010296129728644  0.4968674047849220   F   F   F
  0.7473575942180446  0.5005805265852601  0.4985811807534262   F   F   F
  0.0030161489114064  0.7525175924915146  0.4984910760003984   F   F   F
  0.2478986056114252  0.7517005546327624  0.4970512706460823   F   F   F
  0.5001140407290237  0.7503801022986423  0.4965281134261161   F   F   F
  0.7475092434237780  0.7486548945183529  0.4971312661614391   F   F   F
  0.0896069310232406  0.1705235147010384  0.4146512397708975   F   F   F
  0.1698590081330096  0.0911916320285471  0.5787761175950692   F   F   F
  0.3370325101400056  0.1750967867933824  0.4199929642467453   F   F   F
  0.4197826838433514  0.0907877171510378  0.5802575058139823   F   F   F
  0.5787136401325412  0.1704835083025600  0.4161955499985766   F   F   F
  0.6659501425773513  0.0837573964865612  0.5843848112579693   F   F   F
  0.8314214052100652  0.1665257736124488  0.4094921203508264   F   F   F
  0.9152686312403375  0.0833853554537072  0.5838351449526158   F   F   F
  0.0829539408210636  0.4182471649807411  0.4110241737331179   F   F   F
  0.1728853338707381  0.3316014265587413  0.5784779739053150   F   F   F
  0.3300760399942249  0.4096537116074046  0.4139304495974869   F   F   F
  0.4114661792585110  0.3285864345954437  0.5766916511856977   F   F   F
  0.5860663099784276  0.4156842924692015  0.4190958818198922   F   F   F
  0.6620054392428756  0.3381533312162972  0.5776664052531117   F   F   F
  0.8287015390257721  0.4214227994906068  0.4164957553676842   F   F   F
  0.9165815704546105  0.3337898611531855  0.5839133602661590   F   F   F
  0.0823680596993697  0.6675376691208612  0.4113472976017007   F   F   F
  0.1659082964643588  0.5839168783631408  0.5837902238404666   F   F   F
  0.3411105681208397  0.6700390972331789  0.4145800089667731   F   F   F
  0.4200926401496616  0.5911382877514981  0.5780749326843519   F   F   F
  0.5850382664445419  0.6714755447775218  0.4172590952601496   F   F   F
  0.6712048027177886  0.5872492503133842  0.5772850769862217   F   F   F
  0.8225011933078790  0.6619707044841974  0.4202190529990375   F   F   F
  0.9075149620994196  0.5797291370881084  0.5797470458182659   F   F   F
  0.0821485018083621  0.9166798702806958  0.4107497571329688   F   F   F
  0.1659409819333604  0.8348630527811878  0.5862914016751617   F   F   F
  0.3324161876684073  0.9181749260438892  0.4110197307871175   F   F   F
  0.4195254213281814  0.8300331147444240  0.5787514706923318   F   F   F
  0.5797613940623734  0.9111176419747480  0.4156876046818709   F   F   F
  0.6624765010898699  0.8258106213580447  0.5755467699261629   F   F   F
  0.8294180542179390  0.9103663057749003  0.4141431414637324   F   F   F
  0.9080523101895039  0.8303816071011312  0.5791095801517727   F   F   F
  0.5225300621478084  0.4829646613384710  0.6733450882892669   T   T   T
  0.5171218496488663  0.4960517621652940  0.7502749808588831   T   T   T
  0.5455608637423310  0.4575883222182497  0.7707350971711406   T   T   T
 
  0.00000000E+00  0.00000000E+00  0.00000000E+00
  0.00000000E+00  0.00000000E+00  0.00000000E+00
  0.00000000E+00  0.00000000E+00  0.00000000E+00
  0.00000000E+00  0.00000000E+00  0.00000000E+00
  0.00000000E+00  0.00000000E+00  0.00000000E+00
  0.00000000E+00  0.00000000E+00  0.00000000E+00
  0.00000000E+00  0.00000000E+00  0.00000000E+00
  0.00000000E+00  0.00000000E+00  0.00000000E+00
  0.00000000E+00  0.00000000E+00  0.00000000E+00
  0.00000000E+00  0.00000000E+00  0.00000000E+00
  0.00000000E+00  0.00000000E+00  0.00000000E+00
  0.00000000E+00  0.00000000E+00  0.00000000E+00
  0.00000000E+00  0.00000000E+00  0.00000000E+00
  0.00000000E+00  0.00000000E+00  0.00000000E+00
  0.00000000E+00  0.00000000E+00  0.00000000E+00
  0.00000000E+00  0.00000000E+00  0.00000000E+00
  0.00000000E+00  0.00000000E+00  0.00000000E+00
  0.00000000E+00  0.00000000E+00  0.00000000E+00
  0.00000000E+00  0.00000000E+00  0.00000000E+00
  0.00000000E+00  0.00000000E+00  0.00000000E+00
  0.00000000E+00  0.00000000E+00  0.00000000E+00
  0.00000000E+00  0.00000000E+00  0.00000000E+00
  0.00000000E+00  0.00000000E+00  0.00000000E+00
  0.00000000E+00  0.00000000E+00  0.00000000E+00
  0.00000000E+00  0.00000000E+00  0.00000000E+00
  0.00000000E+00  0.00000000E+00  0.00000000E+00
  0.00000000E+00  0.00000000E+00  0.00000000E+00
  0.00000000E+00  0.00000000E+00  0.00000000E+00
  0.00000000E+00  0.00000000E+00  0.00000000E+00
  0.00000000E+00  0.00000000E+00  0.00000000E+00
  0.00000000E+00  0.00000000E+00  0.00000000E+00
  0.00000000E+00  0.00000000E+00  0.00000000E+00
  0.00000000E+00  0.00000000E+00  0.00000000E+00
  0.00000000E+00  0.00000000E+00  0.00000000E+00
  0.00000000E+00  0.00000000E+00  0.00000000E+00
  0.00000000E+00  0.00000000E+00  0.00000000E+00
  0.00000000E+00  0.00000000E+00  0.00000000E+00
  0.00000000E+00  0.00000000E+00  0.00000000E+00
  0.00000000E+00  0.00000000E+00  0.00000000E+00
  0.00000000E+00  0.00000000E+00  0.00000000E+00
  0.00000000E+00  0.00000000E+00  0.00000000E+00
  0.00000000E+00  0.00000000E+00  0.00000000E+00
  0.00000000E+00  0.00000000E+00  0.00000000E+00
  0.00000000E+00  0.00000000E+00  0.00000000E+00
  0.00000000E+00  0.00000000E+00  0.00000000E+00
  0.00000000E+00  0.00000000E+00  0.00000000E+00
  0.00000000E+00  0.00000000E+00  0.00000000E+00
  0.00000000E+00  0.00000000E+00  0.00000000E+00
  0.00000000E+00  0.00000000E+00  0.00000000E+00
  0.00000000E+00  0.00000000E+00  0.00000000E+00
  0.00000000E+00  0.00000000E+00  0.00000000E+00
