CONTCAR\(6)                             
   1.00000000000000     
    10.8789997101000004    0.0000000000000000    0.0000000000000000
     0.0000000000000000   14.0766000748000000    0.0000000000000000
     0.0000000000000000    0.0000000000000000   17.9612998961999999
   Cu   Br   O 
    12    12    24
Direct
  0.1666599930000032  0.3664601448709348  0.5000000000000000
  0.0000000000000000  0.1335398461290609  0.5000000000000000
  0.5000000000000000  0.3664601448709348  0.5000000000000000
  0.3333300019999967  0.1335398461290609  0.5000000000000000
  0.8333300019999967  0.3664601448709348  0.5000000000000000
  0.6666700419999998  0.1335398461290609  0.5000000000000000
  0.1666599930000032  0.8664601788709376  0.5000000000000000
  0.0000000000000000  0.6335398551290652  0.5000000000000000
  0.5000000000000000  0.8664601788709376  0.5000000000000000
  0.3333300019999967  0.6335398551290652  0.5000000000000000
  0.8333300019999967  0.8664601788709376  0.5000000000000000
  0.6666700419999998  0.6335398551290652  0.5000000000000000
  0.2500000000000000  0.2500000000000000  0.5854287986841555
  0.0833299969999999  0.2500000000000000  0.4145712283158431
  0.5833399959999994  0.2500000000000000  0.5854287986841555
  0.4166699980000033  0.2500000000000000  0.4145712283158431
  0.9166700419999998  0.2500000000000000  0.5854287986841555
  0.7500000439999965  0.2500000000000000  0.4145712283158431
  0.2500000000000000  0.7500000169999979  0.5854287986841555
  0.0833299969999999  0.7500000169999979  0.4145712283158431
  0.5833399959999994  0.7500000169999979  0.5854287986841555
  0.4166699980000033  0.7500000169999979  0.4145712283158431
  0.9166700419999998  0.7500000169999979  0.5854287986841555
  0.7500000439999965  0.7500000169999979  0.4145712283158431
  0.0712695963880421  0.4542813368514231  0.4431753006318857
  0.0954004066119580  0.0457186631485769  0.4431753006318857
  0.2620604106119586  0.4542813368514231  0.5568346813681160
  0.2379395893880414  0.0457186631485769  0.5568346813681160
  0.4045996153880367  0.4542813368514231  0.4431753006318857
  0.4287303866119601  0.0457186631485769  0.4431753006318857
  0.5954004286119599  0.4542813368514231  0.5568346813681160
  0.5712696133880399  0.0457186631485769  0.5568346813681160
  0.7379395673880396  0.4542813368514231  0.4431753006318857
  0.7620604326119604  0.0457186631485769  0.4431753006318857
  0.9287304306119637  0.4542813368514231  0.5568346813681160
  0.9045995713880401  0.0457186631485769  0.5568346813681160
  0.0712695963880421  0.9542813368514231  0.4431753006318857
  0.0954004066119580  0.5457186631485769  0.4431753006318857
  0.2620604106119586  0.9542813368514231  0.5568346813681160
  0.2379395893880414  0.5457186631485769  0.5568346813681160
  0.4045996153880367  0.9542813368514231  0.4431753006318857
  0.4287303866119601  0.5457186631485769  0.4431753006318857
  0.5954004286119599  0.9542813368514231  0.5568346813681160
  0.5712696133880399  0.5457186631485769  0.5568346813681160
  0.7379395673880396  0.9542813368514231  0.4431753006318857
  0.7620604326119604  0.5457186631485769  0.4431753006318857
  0.9287304306119637  0.9542813368514231  0.5568346813681160
  0.9045995713880401  0.5457186631485769  0.5568346813681160
 
  0.00000000E+00  0.00000000E+00  0.00000000E+00
  0.00000000E+00  0.00000000E+00  0.00000000E+00
  0.00000000E+00  0.00000000E+00  0.00000000E+00
  0.00000000E+00  0.00000000E+00  0.00000000E+00
  0.00000000E+00  0.00000000E+00  0.00000000E+00
  0.00000000E+00  0.00000000E+00  0.00000000E+00
  0.00000000E+00  0.00000000E+00  0.00000000E+00
  0.00000000E+00  0.00000000E+00  0.00000000E+00
  0.00000000E+00  0.00000000E+00  0.00000000E+00
  0.00000000E+00  0.00000000E+00  0.00000000E+00
  0.00000000E+00  0.00000000E+00  0.00000000E+00
  0.00000000E+00  0.00000000E+00  0.00000000E+00
  0.00000000E+00  0.00000000E+00  0.00000000E+00
  0.00000000E+00  0.00000000E+00  0.00000000E+00
  0.00000000E+00  0.00000000E+00  0.00000000E+00
  0.00000000E+00  0.00000000E+00  0.00000000E+00
  0.00000000E+00  0.00000000E+00  0.00000000E+00
  0.00000000E+00  0.00000000E+00  0.00000000E+00
  0.00000000E+00  0.00000000E+00  0.00000000E+00
  0.00000000E+00  0.00000000E+00  0.00000000E+00
  0.00000000E+00  0.00000000E+00  0.00000000E+00
  0.00000000E+00  0.00000000E+00  0.00000000E+00
  0.00000000E+00  0.00000000E+00  0.00000000E+00
  0.00000000E+00  0.00000000E+00  0.00000000E+00
  0.00000000E+00  0.00000000E+00  0.00000000E+00
  0.00000000E+00  0.00000000E+00  0.00000000E+00
  0.00000000E+00  0.00000000E+00  0.00000000E+00
  0.00000000E+00  0.00000000E+00  0.00000000E+00
  0.00000000E+00  0.00000000E+00  0.00000000E+00
  0.00000000E+00  0.00000000E+00  0.00000000E+00
  0.00000000E+00  0.00000000E+00  0.00000000E+00
  0.00000000E+00  0.00000000E+00  0.00000000E+00
  0.00000000E+00  0.00000000E+00  0.00000000E+00
  0.00000000E+00  0.00000000E+00  0.00000000E+00
  0.00000000E+00  0.00000000E+00  0.00000000E+00
  0.00000000E+00  0.00000000E+00  0.00000000E+00
  0.00000000E+00  0.00000000E+00  0.00000000E+00
  0.00000000E+00  0.00000000E+00  0.00000000E+00
  0.00000000E+00  0.00000000E+00  0.00000000E+00
  0.00000000E+00  0.00000000E+00  0.00000000E+00
  0.00000000E+00  0.00000000E+00  0.00000000E+00
  0.00000000E+00  0.00000000E+00  0.00000000E+00
  0.00000000E+00  0.00000000E+00  0.00000000E+00
  0.00000000E+00  0.00000000E+00  0.00000000E+00
  0.00000000E+00  0.00000000E+00  0.00000000E+00
  0.00000000E+00  0.00000000E+00  0.00000000E+00
  0.00000000E+00  0.00000000E+00  0.00000000E+00
  0.00000000E+00  0.00000000E+00  0.00000000E+00
