CONTCAR\(2)                             
   1.00000000000000     
    11.1906995773000002    0.0000000000000000    0.0000000000000000
     0.0000000000000000   11.1906995773000002    0.0000000000000000
     0.0000000000000000    0.0000000000000000   22.0060005188000005
   Zr   Ge   Te   O    H 
    18    18    18     2     1
Direct
  0.1670400453470819  0.0012743533683690  0.4020096167059045
  0.9977923058602909  0.1662245237385637  0.5981103560007675
  0.4991624162427780  0.0011285352742491  0.4019904805557986
  0.3328490123089191  0.1682205128446854  0.5999479081870722
  0.8330964346938768  0.0013207359865217  0.4010679465832762
  0.6689545623795815  0.1653987022586099  0.5983068759725912
  0.1670267889682416  0.3354282554166458  0.4034448685908520
  0.0003848949006221  0.5019391547328436  0.6000007734871859
  0.4990559875952058  0.3352639385334854  0.4032781051488884
  0.3320489568109725  0.4988505340368782  0.6099130749272890
  0.8330717700992819  0.3351840379848121  0.4019614684053415
  0.6660119014932971  0.5019177336070738  0.5998938790167053
  0.1671488259552889  0.6674059224873166  0.4033539825501947
  0.9973518542806034  0.8371346242541682  0.5983666342433813
  0.4988789722558681  0.6672362159639491  0.4033475859689998
  0.3328889129580016  0.8335849791653779  0.6001748480160378
  0.8328504463687657  0.6676120965160270  0.4019893098147233
  0.6685695941091577  0.8368995944832149  0.5982461124111389
  0.1666197188466738  0.1678157586712403  0.5008152380103150
 -0.0000355557405232  0.0013736632428603  0.4995679109039519
  0.4994223969053862  0.1677205826642412  0.5009330016272796
  0.3330643009567331  0.0012098348825881  0.5009935819224564
  0.8331214519685223  0.1679654711661012  0.4995760228252354
  0.6661223887671532  0.0013595381504997  0.4995801503224262
  0.1667544180431307  0.5014755876406498  0.5028994568696354
  0.9994689470698128  0.3350121218287413  0.5007917925333629
  0.4990588197027026  0.5011679707884339  0.5028806058042559
  0.3331148430771811  0.3355551653748797  0.5031025666637053
  0.8330774203451403  0.5014887431111945  0.5008758055436352
  0.6666087959847403  0.3348114935455666  0.5008442909292985
  0.1666131072916771  0.8347857543364262  0.5009377328822486
  0.9994226478700182  0.6679242723671648  0.5008841731651940
  0.4992860766202125  0.8346454889512163  0.5009390215884495
  0.3329575261659707  0.6667727574838145  0.5031212637595631
  0.8330720729657195  0.8346103384070130  0.4996410183324728
  0.6664294496238006  0.6677229935054877  0.5008220327788264
  0.1664379754845166  0.0016515616364807  0.6602890858464648
  0.0005830177779967  0.1687237488586744  0.3410169321383308
  0.4997044067173664  0.0009524463435141  0.6603385843963439
  0.3330451507105406  0.1687111971046918  0.3412857777822252
  0.8331317929820621  0.0016351782161851  0.6616077253355221
  0.6657285424301793  0.1684116838662874  0.3408107842973166
  0.1585166224795324  0.3274730586701345  0.6593436097336794
  0.0004704911971805  0.5015492828678546  0.3413793818867608
  0.5089517149052555  0.3263085580726570  0.6601249445144174
  0.3328377143657918  0.5011552532119462  0.3418001899857775
  0.8332303221927441  0.3348675698650777  0.6601858434348694
  0.6653333554105074  0.5012385183369095  0.3412483869670299
  0.1580666521203484  0.6765176234759603  0.6604060179770569
  0.0004508990960132  0.8340933061886435  0.3409803348554156
  0.5071373120400723  0.6748547152929928  0.6597957103934006
  0.3331716630782844  0.8338032315005712  0.3410652509039053
  0.8328255731732285  0.6683112039646654  0.6604437063086033
  0.6657777085604735  0.8339412286596058  0.3407641385440128
  0.3438190858187605  0.5153287810814301  0.7071672024818512
  0.3030148518271867  0.4372085025429097  0.7562627082736600
  0.3747126285400653  0.3872413034718678  0.7621745208948875
 
  0.00000000E+00  0.00000000E+00  0.00000000E+00
  0.00000000E+00  0.00000000E+00  0.00000000E+00
  0.00000000E+00  0.00000000E+00  0.00000000E+00
  0.00000000E+00  0.00000000E+00  0.00000000E+00
  0.00000000E+00  0.00000000E+00  0.00000000E+00
  0.00000000E+00  0.00000000E+00  0.00000000E+00
  0.00000000E+00  0.00000000E+00  0.00000000E+00
  0.00000000E+00  0.00000000E+00  0.00000000E+00
  0.00000000E+00  0.00000000E+00  0.00000000E+00
  0.00000000E+00  0.00000000E+00  0.00000000E+00
  0.00000000E+00  0.00000000E+00  0.00000000E+00
  0.00000000E+00  0.00000000E+00  0.00000000E+00
  0.00000000E+00  0.00000000E+00  0.00000000E+00
  0.00000000E+00  0.00000000E+00  0.00000000E+00
  0.00000000E+00  0.00000000E+00  0.00000000E+00
  0.00000000E+00  0.00000000E+00  0.00000000E+00
  0.00000000E+00  0.00000000E+00  0.00000000E+00
  0.00000000E+00  0.00000000E+00  0.00000000E+00
  0.00000000E+00  0.00000000E+00  0.00000000E+00
  0.00000000E+00  0.00000000E+00  0.00000000E+00
  0.00000000E+00  0.00000000E+00  0.00000000E+00
  0.00000000E+00  0.00000000E+00  0.00000000E+00
  0.00000000E+00  0.00000000E+00  0.00000000E+00
  0.00000000E+00  0.00000000E+00  0.00000000E+00
  0.00000000E+00  0.00000000E+00  0.00000000E+00
  0.00000000E+00  0.00000000E+00  0.00000000E+00
  0.00000000E+00  0.00000000E+00  0.00000000E+00
  0.00000000E+00  0.00000000E+00  0.00000000E+00
  0.00000000E+00  0.00000000E+00  0.00000000E+00
  0.00000000E+00  0.00000000E+00  0.00000000E+00
  0.00000000E+00  0.00000000E+00  0.00000000E+00
  0.00000000E+00  0.00000000E+00  0.00000000E+00
  0.00000000E+00  0.00000000E+00  0.00000000E+00
  0.00000000E+00  0.00000000E+00  0.00000000E+00
  0.00000000E+00  0.00000000E+00  0.00000000E+00
  0.00000000E+00  0.00000000E+00  0.00000000E+00
  0.00000000E+00  0.00000000E+00  0.00000000E+00
  0.00000000E+00  0.00000000E+00  0.00000000E+00
  0.00000000E+00  0.00000000E+00  0.00000000E+00
  0.00000000E+00  0.00000000E+00  0.00000000E+00
  0.00000000E+00  0.00000000E+00  0.00000000E+00
  0.00000000E+00  0.00000000E+00  0.00000000E+00
  0.00000000E+00  0.00000000E+00  0.00000000E+00
  0.00000000E+00  0.00000000E+00  0.00000000E+00
  0.00000000E+00  0.00000000E+00  0.00000000E+00
  0.00000000E+00  0.00000000E+00  0.00000000E+00
  0.00000000E+00  0.00000000E+00  0.00000000E+00
  0.00000000E+00  0.00000000E+00  0.00000000E+00
  0.00000000E+00  0.00000000E+00  0.00000000E+00
  0.00000000E+00  0.00000000E+00  0.00000000E+00
  0.00000000E+00  0.00000000E+00  0.00000000E+00
  0.00000000E+00  0.00000000E+00  0.00000000E+00
  0.00000000E+00  0.00000000E+00  0.00000000E+00
  0.00000000E+00  0.00000000E+00  0.00000000E+00
  0.00000000E+00  0.00000000E+00  0.00000000E+00
  0.00000000E+00  0.00000000E+00  0.00000000E+00
  0.00000000E+00  0.00000000E+00  0.00000000E+00
