 Li4 W4 Cl24                            
   1.00000000000000     
    12.4667298939151650    0.0000000000000000    0.0000000000000000
     6.2333649469575825   10.7964256404715169    0.0000000000000000
     0.0000000000000000    0.0000000000000000   17.7941788443569990
   Li   W    Cl
     4     4    24
Direct
  0.3333424724747758  0.3333196959061269  0.5065325719716114
  0.4981362337722501  0.4980312924621160  0.5037388872252038
  0.4979529180965869  0.0038392112795975  0.5037736978158946
  0.0038437486346652  0.4981897317810251  0.5037621719261267
  0.1609903780871278  0.1614877992160615  0.5015343095863116
  0.6666711371364045  0.6666659162828168  0.5011646787816204
  0.1614694005919759  0.6775334203536048  0.5015228863666650
  0.6775528575640877  0.1609899474284475  0.5015296950436579
  0.6616318034987785  0.0163060017917758  0.4253050505079017
  0.1665941126830361  0.0162470544525419  0.4223490239979526
  0.6634400549446724  0.8216607901412516  0.5779836415205608
  0.0162464695502891  0.8171391416503440  0.4223437587137084
  0.8216591154108883  0.5149178766848053  0.5779919668136841
  0.3197304887336401  0.0141335519191443  0.5779988779964782
  0.0162851249489648  0.3220848456150520  0.4253029565933701
  0.5092524087186376  0.3229207528730029  0.4280505748939802
  0.5126243392026097  0.1659200943552790  0.5789855604298708
  0.5149181730668104  0.6634367880640681  0.5779932834179817
  0.1659177740501363  0.3214705335250585  0.5789889814318840
  0.6608488711201659  0.5160578045614699  0.4249041698025025
  0.8171715828848960  0.1665930539921874  0.4223541751885591
  0.0135737730569332  0.1664625572958727  0.5784296060022669
  0.1678558528809546  0.5092150002188518  0.4280444297895798
  0.3229247751977127  0.1678362050147726  0.4280606566657639
  0.3214741254590407  0.5125921922777934  0.5789808569772319
  0.8230906695311688  0.6608381403901120  0.4248920898396449
  0.6661109966642726  0.3197533879504775  0.5779841368522654
  0.1664577940438363  0.8199283477914534  0.5784252294958421
  0.8199596992120988  0.0136008956909137  0.5784263786171877
  0.0141315393695578  0.6661082544882078  0.5779831403113889
  0.3220740527253199  0.6616347990236022  0.4252913022474374
  0.5160682566876886  0.8230859155221282  0.4248977744380156
 
  0.00000000E+00  0.00000000E+00  0.00000000E+00
  0.00000000E+00  0.00000000E+00  0.00000000E+00
  0.00000000E+00  0.00000000E+00  0.00000000E+00
  0.00000000E+00  0.00000000E+00  0.00000000E+00
  0.00000000E+00  0.00000000E+00  0.00000000E+00
  0.00000000E+00  0.00000000E+00  0.00000000E+00
  0.00000000E+00  0.00000000E+00  0.00000000E+00
  0.00000000E+00  0.00000000E+00  0.00000000E+00
  0.00000000E+00  0.00000000E+00  0.00000000E+00
  0.00000000E+00  0.00000000E+00  0.00000000E+00
  0.00000000E+00  0.00000000E+00  0.00000000E+00
  0.00000000E+00  0.00000000E+00  0.00000000E+00
  0.00000000E+00  0.00000000E+00  0.00000000E+00
  0.00000000E+00  0.00000000E+00  0.00000000E+00
  0.00000000E+00  0.00000000E+00  0.00000000E+00
  0.00000000E+00  0.00000000E+00  0.00000000E+00
  0.00000000E+00  0.00000000E+00  0.00000000E+00
  0.00000000E+00  0.00000000E+00  0.00000000E+00
  0.00000000E+00  0.00000000E+00  0.00000000E+00
  0.00000000E+00  0.00000000E+00  0.00000000E+00
  0.00000000E+00  0.00000000E+00  0.00000000E+00
  0.00000000E+00  0.00000000E+00  0.00000000E+00
  0.00000000E+00  0.00000000E+00  0.00000000E+00
  0.00000000E+00  0.00000000E+00  0.00000000E+00
  0.00000000E+00  0.00000000E+00  0.00000000E+00
  0.00000000E+00  0.00000000E+00  0.00000000E+00
  0.00000000E+00  0.00000000E+00  0.00000000E+00
  0.00000000E+00  0.00000000E+00  0.00000000E+00
  0.00000000E+00  0.00000000E+00  0.00000000E+00
  0.00000000E+00  0.00000000E+00  0.00000000E+00
  0.00000000E+00  0.00000000E+00  0.00000000E+00
  0.00000000E+00  0.00000000E+00  0.00000000E+00
