CONTCAR\(2)                             
   1.00000000000000     
    12.6978998183999998    0.0000000000000000    0.0000000000000000
     0.0000000000000000   11.4748001099000003    0.0000000000000000
     0.0000000000000000    0.0000000000000000   18.8323001862000012
   Ta   Si   Te   O    H 
    12     4    24     2     1
Direct
  0.3323556259753537  0.5867543185030074  0.5009365103469406
  0.0844590608605985  0.4172913126296456  0.5023895896544712
  0.4853131062165736  0.9395939848482218  0.5011109536639595
  0.2360861202099399  0.0644958133893453  0.5017684163874954
  0.3503599350923725  0.2874081282203500  0.5025408348817124
  0.0997869619931419  0.7177380586205577  0.5014352437726050
  0.8321725049147860  0.5862183213965532  0.5016997924251703
  0.5861083735370177  0.4167477621862776  0.5020834873672338
  0.9855938232735855  0.9399721445036738  0.5013174719520668
  0.7353914866937078  0.0634965764697702  0.5012873073011452
  0.8491114870796619  0.2869835939924196  0.5016559522651661
  0.5991630543010525  0.7156975665580282  0.5019420658040068
  0.2892907014969318  0.8268112670464317  0.5012663304535699
  0.0391170255427498  0.1775474476814069  0.5013260994117692
  0.7889345230087313  0.8263066146271969  0.5015714214380199
  0.5395724571916124  0.1764353370979533  0.5013875645416103
  0.4006026620715878  0.0959236189838849  0.6016908837646838
  0.1501128431741522  0.9080556666870606  0.4012714183864829
  0.1497790617697678  0.9077825104044548  0.6014839529034908
  0.4002937355046450  0.0975726285908360  0.4013120103176887
  0.4277516165999566  0.7492452867234045  0.5987112813156831
  0.1787592298577737  0.2557439018511262  0.4048769473878907
  0.1780693986708079  0.2549997881166244  0.5994918497877707
  0.4283295633709603  0.7475099142593741  0.4040784770324821
  0.4268227186891266  0.4349948407071628  0.6006847609712145
  0.1749554877132317  0.5688899270467151  0.3982918086236968
  0.1738600034621724  0.5698273971101069  0.6047221732687555
  0.4258717989295877  0.4347815922920967  0.3980491806866218
  0.8997401369887156  0.0961765944225267  0.6014589199403446
  0.6496640575681124  0.9061860243831228  0.4012733617846908
  0.6495164110309518  0.9070794216951009  0.6015082717884401
  0.8997637891613329  0.0966132639140012  0.4013621488095452
  0.9282521635873721  0.7486709716913236  0.5984872380089740
  0.6779172745923391  0.2549543460175781  0.4039261352016233
  0.6783899342619826  0.2539571488069451  0.5991081154366935
  0.9281672348408291  0.7482928786043866  0.4045601510740708
  0.9247006679108229  0.4346341112237049  0.6043468282454282
  0.6748976391563426  0.5688504018283314  0.3983860829997106
  0.6760192990348346  0.5703305298857733  0.6057622187645172
  0.9256089617930946  0.4348450332702506  0.3992592141783011
  0.4459283314706624  0.3750791398635223  0.7141574717484390
  0.3651153119942649  0.2965918328895851  0.7366632246803924
  0.3171043884067488  0.3487228889601272  0.7624370052254268
 
  0.00000000E+00  0.00000000E+00  0.00000000E+00
  0.00000000E+00  0.00000000E+00  0.00000000E+00
  0.00000000E+00  0.00000000E+00  0.00000000E+00
  0.00000000E+00  0.00000000E+00  0.00000000E+00
  0.00000000E+00  0.00000000E+00  0.00000000E+00
  0.00000000E+00  0.00000000E+00  0.00000000E+00
  0.00000000E+00  0.00000000E+00  0.00000000E+00
  0.00000000E+00  0.00000000E+00  0.00000000E+00
  0.00000000E+00  0.00000000E+00  0.00000000E+00
  0.00000000E+00  0.00000000E+00  0.00000000E+00
  0.00000000E+00  0.00000000E+00  0.00000000E+00
  0.00000000E+00  0.00000000E+00  0.00000000E+00
  0.00000000E+00  0.00000000E+00  0.00000000E+00
  0.00000000E+00  0.00000000E+00  0.00000000E+00
  0.00000000E+00  0.00000000E+00  0.00000000E+00
  0.00000000E+00  0.00000000E+00  0.00000000E+00
  0.00000000E+00  0.00000000E+00  0.00000000E+00
  0.00000000E+00  0.00000000E+00  0.00000000E+00
  0.00000000E+00  0.00000000E+00  0.00000000E+00
  0.00000000E+00  0.00000000E+00  0.00000000E+00
  0.00000000E+00  0.00000000E+00  0.00000000E+00
  0.00000000E+00  0.00000000E+00  0.00000000E+00
  0.00000000E+00  0.00000000E+00  0.00000000E+00
  0.00000000E+00  0.00000000E+00  0.00000000E+00
  0.00000000E+00  0.00000000E+00  0.00000000E+00
  0.00000000E+00  0.00000000E+00  0.00000000E+00
  0.00000000E+00  0.00000000E+00  0.00000000E+00
  0.00000000E+00  0.00000000E+00  0.00000000E+00
  0.00000000E+00  0.00000000E+00  0.00000000E+00
  0.00000000E+00  0.00000000E+00  0.00000000E+00
  0.00000000E+00  0.00000000E+00  0.00000000E+00
  0.00000000E+00  0.00000000E+00  0.00000000E+00
  0.00000000E+00  0.00000000E+00  0.00000000E+00
  0.00000000E+00  0.00000000E+00  0.00000000E+00
  0.00000000E+00  0.00000000E+00  0.00000000E+00
  0.00000000E+00  0.00000000E+00  0.00000000E+00
  0.00000000E+00  0.00000000E+00  0.00000000E+00
  0.00000000E+00  0.00000000E+00  0.00000000E+00
  0.00000000E+00  0.00000000E+00  0.00000000E+00
  0.00000000E+00  0.00000000E+00  0.00000000E+00
  0.00000000E+00  0.00000000E+00  0.00000000E+00
  0.00000000E+00  0.00000000E+00  0.00000000E+00
  0.00000000E+00  0.00000000E+00  0.00000000E+00
