CONTCAR\(2)                             
   1.00000000000000     
    15.0899000167999997    0.0000000000000000    0.0000000000000000
     0.0000000000000000   15.0899000167999997    0.0000000000000000
     0.0000000000000000    0.0000000000000000   20.7000007629000002
   Eu   Br   O    H 
    32    32    33     1
Direct
 -0.0004328659023953  0.1244144054593842  0.4296752096155823
  0.1228656005573062  0.0000422733220227  0.5654718714272262
  0.2504252407566431  0.1256619482518585  0.4321633729407751
  0.3748066465059315 -0.0000420984579003  0.5716229822421929
  0.4998487367863377  0.1253569025117687  0.4314566102732370
  0.6267894847057257 -0.0000109870522962  0.5653320212078923
  0.7503981040811049  0.1247245882861064  0.4299350189499810
  0.8748832563496194  0.0000081210018437  0.5787888851416567
  0.0004211552898602  0.3751716104823359  0.4319734043889712
  0.1258356025516353  0.2506318803535476  0.5673806268465365
  0.2496332559174615  0.3749704028386213  0.4296088699438139
  0.3755600588837961  0.2482386431284211  0.5743370462374671
  0.5003276491548542  0.3744775089330473  0.4301666646599624
  0.6244673353234885  0.2508167021797749  0.5682589041471131
  0.7494923298008952  0.3753292638019318  0.4315803996216050
  0.8751038021752208  0.2480556287541527  0.5654225614618297
  0.0005472062285623  0.6246186920285660  0.4320318730804150
  0.1236887961871988  0.4999288041740935  0.5749367280141306
  0.2497914439519151  0.6250406958083484  0.4295795453520482
  0.3760026600460419  0.4998951989589420  0.5601202745196046
  0.5002963100701019  0.6256398388834390  0.4299858729708644
  0.6272422148819379  0.4999846778693367  0.5740980689726674
  0.7495041202212445  0.6247696865607552  0.4316833521066208
  0.8757834267380994  0.5000117973918953  0.5714090968887924
 -0.0002860887317681  0.8754109272677809  0.4295431873861894
  0.1256068555527937  0.7495030408613341  0.5671457039266375
  0.2505749408212169  0.8743786321074930  0.4321514913132996
  0.3754444439174776  0.7518008837044319  0.5743725415280834
  0.5000009263495905  0.8747541153994086  0.4314805192699908
  0.6243765714523383  0.7491762270569176  0.5680496805177077
  0.7505916554728166  0.8754562750708639  0.4299174654297763
  0.8750054506786594  0.7519763437934955  0.5654358622984335
  0.0017054396224231  0.1266525609020289  0.6481306024652986
  0.1254819989416229  0.0000149905622857  0.3532051739925174
  0.2473916174249909  0.1249443728058760  0.6483740958843058
  0.3747858714297005  0.0000441743338379  0.3525220925853237
  0.5026776270401828  0.1242682940862701  0.6486062654102669
  0.6250085374097782  0.0000512093789345  0.3532382565147364
  0.7484022689530103  0.1266513616537963  0.6482443318890879
  0.8748951978470908  0.0000373892175482  0.3494173472843318
 -0.0000064765621039  0.3720277411593679  0.6485510650742186
  0.1259677739950697  0.2509267007730202  0.3518088725763131
  0.2496903630890865  0.3743017827288845  0.6555041310350191
  0.3750512414124897  0.2481913959530429  0.3507131039290681
  0.5001776946988558  0.3754070109049871  0.6528385326068864
  0.6240034074095628  0.2510627679784474  0.3516059975028960
  0.7510703969833802  0.3726454754045377  0.6484741862341237
  0.8749560537657520  0.2501478247318188  0.3532442546408411
  0.0002439723697395  0.6280005026168610  0.6485052555482470
  0.1230448364276539  0.4999562377171469  0.3506457470940398
  0.2497443618711762  0.6256361427235051  0.6559021871172861
  0.3753160539067696  0.4999815842668925  0.3540560801882503
  0.5005150003393695  0.6253481332489276  0.6535890424183468
  0.6267510738878476  0.5000386668007517  0.3507227754109171
  0.7510181146819238  0.6273990147040381  0.6484131387884434
  0.8752300989414248  0.5000204052219861  0.3525986305884355
  0.0016989024893403  0.8733413660874977  0.6481167028558217
  0.1262383370874415  0.7488719406759486  0.3519133973568879
  0.2471691634340281  0.8747211940970669  0.6484028687799908
  0.3750985054914830  0.7518900952976062  0.3506785002370861
  0.5026293756199102  0.8758159537180316  0.6485309659700438
  0.6241233225203677  0.7490646333175246  0.3516126699419005
  0.7483431966878252  0.8733295161313509  0.6481725076991219
  0.8750001201225682  0.7497668483702024  0.3532014770762525
  0.1233846122814839  0.1275745219770464  0.4987177311803830
  0.9900083544645456 -0.0001689523264931  0.5006341706858880
  0.3756552980677970  0.1252720526371265  0.5021592474883763
  0.2520631833246195  0.0000042418998360  0.5005008440112787
  0.6262154532526562  0.1280011846064411  0.4988565623341480
  0.4972466322148448  0.0000993906073811  0.5002920420936126
  0.8750740610755061  0.1152066435990536  0.5007009521843441
  0.7596288872752831  0.0001164556640426  0.5007382692533465
  0.1269026091167954  0.3803687364000610  0.5012243679033910
  0.0027473808898559  0.2482579142905411  0.4987040657631809
  0.3744170895592425  0.3663286242479564  0.4993835592294122
  0.2554482852136345  0.2526040971766700  0.5011564712235612
  0.6235083045986711  0.3794367410669630  0.5011134239506849
  0.4958945250721550  0.2510122692371597  0.5011304174732113
  0.8746136216870806  0.3772977028900542  0.5003324044791966
  0.7472642811268221  0.2488881733694682  0.4988587422093246
  0.1272201544176310  0.6195689238513163  0.5012578609516828
  0.0017537144950829  0.4998285049329362  0.5023280254036128
  0.3745854023698761  0.6336670801523953  0.4994501953294975
  0.2415935725790219  0.5000664875813438  0.4997261219394707
  0.6232992764118827  0.6203599123776742  0.5010551047583774
  0.5091226520442512  0.5002196329463779  0.4991776327694919
  0.8747540663011343  0.6227672547932565  0.5003485911061220
  0.7505750403149208  0.4999926517199513  0.5019890182643579
  0.1235273429335366  0.8726816730112484  0.4986224375190865
  0.0024329035229805  0.7516002795437177  0.4986017138894193
  0.3758241621776592  0.8746065486545013  0.5021505650531843
  0.2553298087686458  0.7473819466693431  0.5011557184943732
  0.6264634968173386  0.8720014681901496  0.4988005969372575
  0.4955703661694120  0.7490213850841629  0.5010589185880699
  0.8753561110878955  0.8848221080222961  0.5006751274532212
  0.7472159120027740  0.7513597252069788  0.4988253776495607
  0.3694051882683518  0.5014009555200540  0.6744138375311379
  0.3715685839811624  0.5009638440972304  0.7218630785214674
 
  0.00000000E+00  0.00000000E+00  0.00000000E+00
  0.00000000E+00  0.00000000E+00  0.00000000E+00
  0.00000000E+00  0.00000000E+00  0.00000000E+00
  0.00000000E+00  0.00000000E+00  0.00000000E+00
  0.00000000E+00  0.00000000E+00  0.00000000E+00
  0.00000000E+00  0.00000000E+00  0.00000000E+00
  0.00000000E+00  0.00000000E+00  0.00000000E+00
  0.00000000E+00  0.00000000E+00  0.00000000E+00
  0.00000000E+00  0.00000000E+00  0.00000000E+00
  0.00000000E+00  0.00000000E+00  0.00000000E+00
  0.00000000E+00  0.00000000E+00  0.00000000E+00
  0.00000000E+00  0.00000000E+00  0.00000000E+00
  0.00000000E+00  0.00000000E+00  0.00000000E+00
  0.00000000E+00  0.00000000E+00  0.00000000E+00
  0.00000000E+00  0.00000000E+00  0.00000000E+00
  0.00000000E+00  0.00000000E+00  0.00000000E+00
  0.00000000E+00  0.00000000E+00  0.00000000E+00
  0.00000000E+00  0.00000000E+00  0.00000000E+00
  0.00000000E+00  0.00000000E+00  0.00000000E+00
  0.00000000E+00  0.00000000E+00  0.00000000E+00
  0.00000000E+00  0.00000000E+00  0.00000000E+00
  0.00000000E+00  0.00000000E+00  0.00000000E+00
  0.00000000E+00  0.00000000E+00  0.00000000E+00
  0.00000000E+00  0.00000000E+00  0.00000000E+00
  0.00000000E+00  0.00000000E+00  0.00000000E+00
  0.00000000E+00  0.00000000E+00  0.00000000E+00
  0.00000000E+00  0.00000000E+00  0.00000000E+00
  0.00000000E+00  0.00000000E+00  0.00000000E+00
  0.00000000E+00  0.00000000E+00  0.00000000E+00
  0.00000000E+00  0.00000000E+00  0.00000000E+00
  0.00000000E+00  0.00000000E+00  0.00000000E+00
  0.00000000E+00  0.00000000E+00  0.00000000E+00
  0.00000000E+00  0.00000000E+00  0.00000000E+00
  0.00000000E+00  0.00000000E+00  0.00000000E+00
  0.00000000E+00  0.00000000E+00  0.00000000E+00
  0.00000000E+00  0.00000000E+00  0.00000000E+00
  0.00000000E+00  0.00000000E+00  0.00000000E+00
  0.00000000E+00  0.00000000E+00  0.00000000E+00
  0.00000000E+00  0.00000000E+00  0.00000000E+00
  0.00000000E+00  0.00000000E+00  0.00000000E+00
  0.00000000E+00  0.00000000E+00  0.00000000E+00
  0.00000000E+00  0.00000000E+00  0.00000000E+00
  0.00000000E+00  0.00000000E+00  0.00000000E+00
  0.00000000E+00  0.00000000E+00  0.00000000E+00
  0.00000000E+00  0.00000000E+00  0.00000000E+00
  0.00000000E+00  0.00000000E+00  0.00000000E+00
  0.00000000E+00  0.00000000E+00  0.00000000E+00
  0.00000000E+00  0.00000000E+00  0.00000000E+00
  0.00000000E+00  0.00000000E+00  0.00000000E+00
  0.00000000E+00  0.00000000E+00  0.00000000E+00
  0.00000000E+00  0.00000000E+00  0.00000000E+00
  0.00000000E+00  0.00000000E+00  0.00000000E+00
  0.00000000E+00  0.00000000E+00  0.00000000E+00
  0.00000000E+00  0.00000000E+00  0.00000000E+00
  0.00000000E+00  0.00000000E+00  0.00000000E+00
  0.00000000E+00  0.00000000E+00  0.00000000E+00
  0.00000000E+00  0.00000000E+00  0.00000000E+00
  0.00000000E+00  0.00000000E+00  0.00000000E+00
  0.00000000E+00  0.00000000E+00  0.00000000E+00
  0.00000000E+00  0.00000000E+00  0.00000000E+00
  0.00000000E+00  0.00000000E+00  0.00000000E+00
  0.00000000E+00  0.00000000E+00  0.00000000E+00
  0.00000000E+00  0.00000000E+00  0.00000000E+00
  0.00000000E+00  0.00000000E+00  0.00000000E+00
  0.00000000E+00  0.00000000E+00  0.00000000E+00
  0.00000000E+00  0.00000000E+00  0.00000000E+00
  0.00000000E+00  0.00000000E+00  0.00000000E+00
  0.00000000E+00  0.00000000E+00  0.00000000E+00
  0.00000000E+00  0.00000000E+00  0.00000000E+00
  0.00000000E+00  0.00000000E+00  0.00000000E+00
  0.00000000E+00  0.00000000E+00  0.00000000E+00
  0.00000000E+00  0.00000000E+00  0.00000000E+00
  0.00000000E+00  0.00000000E+00  0.00000000E+00
  0.00000000E+00  0.00000000E+00  0.00000000E+00
  0.00000000E+00  0.00000000E+00  0.00000000E+00
  0.00000000E+00  0.00000000E+00  0.00000000E+00
  0.00000000E+00  0.00000000E+00  0.00000000E+00
  0.00000000E+00  0.00000000E+00  0.00000000E+00
  0.00000000E+00  0.00000000E+00  0.00000000E+00
  0.00000000E+00  0.00000000E+00  0.00000000E+00
  0.00000000E+00  0.00000000E+00  0.00000000E+00
  0.00000000E+00  0.00000000E+00  0.00000000E+00
  0.00000000E+00  0.00000000E+00  0.00000000E+00
  0.00000000E+00  0.00000000E+00  0.00000000E+00
  0.00000000E+00  0.00000000E+00  0.00000000E+00
  0.00000000E+00  0.00000000E+00  0.00000000E+00
  0.00000000E+00  0.00000000E+00  0.00000000E+00
  0.00000000E+00  0.00000000E+00  0.00000000E+00
  0.00000000E+00  0.00000000E+00  0.00000000E+00
  0.00000000E+00  0.00000000E+00  0.00000000E+00
  0.00000000E+00  0.00000000E+00  0.00000000E+00
  0.00000000E+00  0.00000000E+00  0.00000000E+00
  0.00000000E+00  0.00000000E+00  0.00000000E+00
  0.00000000E+00  0.00000000E+00  0.00000000E+00
  0.00000000E+00  0.00000000E+00  0.00000000E+00
  0.00000000E+00  0.00000000E+00  0.00000000E+00
  0.00000000E+00  0.00000000E+00  0.00000000E+00
  0.00000000E+00  0.00000000E+00  0.00000000E+00
