 Na2 Fe2 As2                            
   1.00000000000000     
     3.8043533423511078    0.0000000000000000    0.0000000000000000
     0.0000000000000000    3.8043533415784512    0.0000000000000000
     0.0000000000000000    0.0000000000000000   19.8189433070119989
   Na   Fe   As
     2     2     2
Direct
  0.4999999999157242  0.0000000001173053  0.3715265964022308
 -0.0000000000120823  0.4999999998327855  0.6284734036056866
  0.0000000000377548 -0.0000000001264661  0.5000000000084420
  0.5000000000070735  0.5000000001752715  0.4999999999842731
  0.0000000000351877  0.5000000000741770  0.4322142232542184
  0.5000000000163416 -0.0000000000730719  0.5677857767451491
 
  0.00000000E+00  0.00000000E+00  0.00000000E+00
  0.00000000E+00  0.00000000E+00  0.00000000E+00
  0.00000000E+00  0.00000000E+00  0.00000000E+00
  0.00000000E+00  0.00000000E+00  0.00000000E+00
  0.00000000E+00  0.00000000E+00  0.00000000E+00
  0.00000000E+00  0.00000000E+00  0.00000000E+00
