CONTCAR                                 
   1.00000000000000     
    11.6387996674000007    0.0000000000000000    0.0000000000000000
     5.8194217944000002   10.1357943405000004    0.0000000000000000
     0.0000000000000000    0.0000000000000000   18.1699008942000013
   Li   Ni   P    S    O    H 
     4     4     8    24     1     1
Direct
  0.3418521461939544  0.3209220555392944  0.5016150284456086
  0.8444998694625164  0.3263672458997365  0.4985638131184205
  0.3412501980915845  0.8310729003289239  0.5106069417660201
  0.8431744260106704  0.8277512974063309  0.4921390138867706
  0.1716784255623037  0.1643651458434789  0.4996749450808964
  0.6849633626546076  0.1393959345446266  0.4953757352661984
  0.1700463942106029  0.6678656254969615  0.5008023542290188
  0.6759608537860354  0.6569957389713319  0.5068328313200009
  0.5045451485896443  0.5114610668349746  0.5808776143681861
  0.0080800330710888  0.4920446797027377  0.4355672078038914
  0.0058101813789905  0.4963591688414687  0.5560403245980269
  0.5068884809287175  0.4891916570271049  0.4598565673029495
  0.5061585305073762  0.9977359727696787  0.5658981168767852
  0.0125285423750012  0.9896270598330537  0.4338867954641155
  0.0036196963432986  0.9962925497034356  0.5539899691407529
  0.5078000569329760  0.9896034450834476  0.4459205980255039
  0.0218020854841038  0.3206141178715612  0.5856166333490007
  0.3304474438424723  0.1622186761861388  0.5900074684883684
  0.0246508471526941  0.1526665607537483  0.4081773376317927
  0.1742331351521795  0.3143299215779741  0.4135974357920879
  0.3305476102877136  0.0083760925079375  0.4171623673185222
  0.1586570882189686  0.0180838700789448  0.5874199418533604
  0.5101509049535750  0.3435591678925954  0.6324963768064943
  0.8228607546864619  0.1567426214207147  0.5784664057005849
  0.5285261985457353  0.1502629813486461  0.4188493870959478
  0.6638472358149761  0.3148788565858049  0.4263361198468077
  0.8443918123572972 -0.0036824186255567  0.4006159745864955
  0.6705365384300843  0.0155804149097956  0.5859925596379739
  0.0167576494603367  0.8203513535940183  0.5820345488374734
  0.3299512028276729  0.6714730442054619  0.6028834074172581
  0.0216892273581558  0.6514460057220387  0.4054683072957754
  0.1834745607910840  0.8117197388914720  0.4179479224507814
  0.3308520124935698  0.5079676481623475  0.4270780584904326
  0.1663288303354083  0.5160109151921061  0.5831125293847921
  0.5212745271972612  0.8262889261492805  0.5991837751710988
  0.8317100639934830  0.6607456262832355  0.5842086637656279
  0.5234324712435201  0.6500287207638497  0.4290294773620369
  0.6666546923092880  0.8118570499326764  0.4182168502943793
  0.8329003071241593  0.5014170760319500  0.4120327809079198
  0.6792925076178474  0.5104024700346487  0.5955480708477587
  0.4015546973586441  0.4110234786177790  0.6996210908063731
  0.3114988528639311  0.4437064400843095  0.6789187021677100
 
  0.00000000E+00  0.00000000E+00  0.00000000E+00
  0.00000000E+00  0.00000000E+00  0.00000000E+00
  0.00000000E+00  0.00000000E+00  0.00000000E+00
  0.00000000E+00  0.00000000E+00  0.00000000E+00
  0.00000000E+00  0.00000000E+00  0.00000000E+00
  0.00000000E+00  0.00000000E+00  0.00000000E+00
  0.00000000E+00  0.00000000E+00  0.00000000E+00
  0.00000000E+00  0.00000000E+00  0.00000000E+00
  0.00000000E+00  0.00000000E+00  0.00000000E+00
  0.00000000E+00  0.00000000E+00  0.00000000E+00
  0.00000000E+00  0.00000000E+00  0.00000000E+00
  0.00000000E+00  0.00000000E+00  0.00000000E+00
  0.00000000E+00  0.00000000E+00  0.00000000E+00
  0.00000000E+00  0.00000000E+00  0.00000000E+00
  0.00000000E+00  0.00000000E+00  0.00000000E+00
  0.00000000E+00  0.00000000E+00  0.00000000E+00
  0.00000000E+00  0.00000000E+00  0.00000000E+00
  0.00000000E+00  0.00000000E+00  0.00000000E+00
  0.00000000E+00  0.00000000E+00  0.00000000E+00
  0.00000000E+00  0.00000000E+00  0.00000000E+00
  0.00000000E+00  0.00000000E+00  0.00000000E+00
  0.00000000E+00  0.00000000E+00  0.00000000E+00
  0.00000000E+00  0.00000000E+00  0.00000000E+00
  0.00000000E+00  0.00000000E+00  0.00000000E+00
  0.00000000E+00  0.00000000E+00  0.00000000E+00
  0.00000000E+00  0.00000000E+00  0.00000000E+00
  0.00000000E+00  0.00000000E+00  0.00000000E+00
  0.00000000E+00  0.00000000E+00  0.00000000E+00
  0.00000000E+00  0.00000000E+00  0.00000000E+00
  0.00000000E+00  0.00000000E+00  0.00000000E+00
  0.00000000E+00  0.00000000E+00  0.00000000E+00
  0.00000000E+00  0.00000000E+00  0.00000000E+00
  0.00000000E+00  0.00000000E+00  0.00000000E+00
  0.00000000E+00  0.00000000E+00  0.00000000E+00
  0.00000000E+00  0.00000000E+00  0.00000000E+00
  0.00000000E+00  0.00000000E+00  0.00000000E+00
  0.00000000E+00  0.00000000E+00  0.00000000E+00
  0.00000000E+00  0.00000000E+00  0.00000000E+00
  0.00000000E+00  0.00000000E+00  0.00000000E+00
  0.00000000E+00  0.00000000E+00  0.00000000E+00
  0.00000000E+00  0.00000000E+00  0.00000000E+00
  0.00000000E+00  0.00000000E+00  0.00000000E+00
