 Ta4 Co2 Pd1 Se12                       
   1.00000000000000     
     3.4023813876181817    0.0000000000000000    0.0000000000000000
    -1.7011906938090908   18.1179351098409711    0.0000000000000000
     0.0000000000000000    0.0000000000000000   20.2910381510640008
   Ta   Co   Pd   Se
     4     2     1    12
Direct
  0.0754888093984535  0.1513569131152984  0.4665193367133760
  0.9245140085913971  0.8486456267084581  0.5334702729513465
  0.2040592974410532  0.4082718251010226  0.4709046488816785
  0.7959441021594325  0.5917414381386847  0.5290914206392032
  0.6421877246668460  0.2849117031183642  0.4399368468389140
  0.3578165538886428  0.7150604419955311  0.5600549910050078
  0.5000027672807733  0.0000026250449060  0.4999981631498996
  0.5591426608144402  0.1182816101711600  0.5596081002764011
  0.4408657394336411  0.8817228157537162  0.4403944576130066
  0.3022816163257943  0.6037661710051857  0.6224846247830724
  0.6976184187919690  0.3962455931629835  0.3775134862835405
  0.7237100867915037  0.4476483917656902  0.5625980556316684
  0.2762497811221590  0.5523386281584856  0.4374203016901626
  0.1186485359060019  0.2382239417879899  0.3694681981201486
  0.8813678133732196  0.7617973322609400  0.6305593583125652
  0.5367945430228527  0.0741373980651211  0.3977922225879100
  0.4632115666078117  0.9258637428696148  0.6022010366925306
  0.1405915334548000  0.2808477176116335  0.5242825456512034
  0.8595044409292056  0.7191360841652150  0.4757019321783668
 
  0.00000000E+00  0.00000000E+00  0.00000000E+00
  0.00000000E+00  0.00000000E+00  0.00000000E+00
  0.00000000E+00  0.00000000E+00  0.00000000E+00
  0.00000000E+00  0.00000000E+00  0.00000000E+00
  0.00000000E+00  0.00000000E+00  0.00000000E+00
  0.00000000E+00  0.00000000E+00  0.00000000E+00
  0.00000000E+00  0.00000000E+00  0.00000000E+00
  0.00000000E+00  0.00000000E+00  0.00000000E+00
  0.00000000E+00  0.00000000E+00  0.00000000E+00
  0.00000000E+00  0.00000000E+00  0.00000000E+00
  0.00000000E+00  0.00000000E+00  0.00000000E+00
  0.00000000E+00  0.00000000E+00  0.00000000E+00
  0.00000000E+00  0.00000000E+00  0.00000000E+00
  0.00000000E+00  0.00000000E+00  0.00000000E+00
  0.00000000E+00  0.00000000E+00  0.00000000E+00
  0.00000000E+00  0.00000000E+00  0.00000000E+00
  0.00000000E+00  0.00000000E+00  0.00000000E+00
  0.00000000E+00  0.00000000E+00  0.00000000E+00
  0.00000000E+00  0.00000000E+00  0.00000000E+00
