 Ag2 Ir2 F14                            
   1.00000000000000     
     5.5326531977830449    0.0000000000000000    0.0000000000000000
     0.0000000000000000    6.2071761735549007    0.0000000000000000
     0.0000000000000000    0.0000000000000000   21.5910112505159937
   Ag   Ir   F 
     2     2    14
Direct
  0.0000003434918604  0.7801836816348897  0.5020771683758439
  0.0000021355360753  0.2801602759085735  0.4978913212839654
  0.4999952603405025  0.1584695902502088  0.3771191303721738
  0.4999997793783587  0.6585034781287001  0.6228514828063056
  0.5000025305280485  0.9044370697800497  0.5700041636915760
  0.2565481506601474  0.7751330987454367  0.6729592180107064
  0.7424479409413023  0.5377459942138737  0.5685927111591759
  0.4999994999231976  0.4051989977646112  0.6708891601183651
  0.7434032229458803  0.2750921328054587  0.3269999112996270
  0.0000002493803029  0.5366379417307955  0.4368575119056161
  0.4999998232986632  0.4044293290625709  0.4299782635769893
  0.5000002259286036  0.9052174689457253  0.3290888126802772
  0.2565968988190369  0.2750833524109219  0.3269980687342369
  0.2575854671347137  0.0377955818096445  0.4313784270026224
  0.0000024916386814  0.0366564736828073  0.5631121689774816
  0.7424125156707074  0.0377959202109864  0.4313792641511088
  0.7434528234901839  0.7751348840539815  0.6729586522533381
  0.2575506408937196  0.5377487288607723  0.5685936163229557
 
  0.00000000E+00  0.00000000E+00  0.00000000E+00
  0.00000000E+00  0.00000000E+00  0.00000000E+00
  0.00000000E+00  0.00000000E+00  0.00000000E+00
  0.00000000E+00  0.00000000E+00  0.00000000E+00
  0.00000000E+00  0.00000000E+00  0.00000000E+00
  0.00000000E+00  0.00000000E+00  0.00000000E+00
  0.00000000E+00  0.00000000E+00  0.00000000E+00
  0.00000000E+00  0.00000000E+00  0.00000000E+00
  0.00000000E+00  0.00000000E+00  0.00000000E+00
  0.00000000E+00  0.00000000E+00  0.00000000E+00
  0.00000000E+00  0.00000000E+00  0.00000000E+00
  0.00000000E+00  0.00000000E+00  0.00000000E+00
  0.00000000E+00  0.00000000E+00  0.00000000E+00
  0.00000000E+00  0.00000000E+00  0.00000000E+00
  0.00000000E+00  0.00000000E+00  0.00000000E+00
  0.00000000E+00  0.00000000E+00  0.00000000E+00
  0.00000000E+00  0.00000000E+00  0.00000000E+00
  0.00000000E+00  0.00000000E+00  0.00000000E+00
