 Te4 W2                                 
   1.00000000000000     
     3.4547876916002771    0.0000000000000000    0.0000000000000000
     0.0000000000000000    6.3026260767754740    0.0000000000000000
     0.0000000000000000    0.0000000000000000   19.1946541325700011
   Te   W 
     4     2
Direct
  0.4999999993859324  0.7904730522247532  0.4224124844740147
 -0.0000000022731424  0.2997946181294194  0.3905863804167064
  0.5000000024233924  0.1411758453026895  0.6093856281150879
  0.0000000002159031  0.6505681840601478  0.5775973253019079
  0.0000000018662002  0.0420075872720398  0.5051017612662740
  0.4999999983817143  0.3989937130109459  0.4948975130756780
 
  0.00000000E+00  0.00000000E+00  0.00000000E+00
  0.00000000E+00  0.00000000E+00  0.00000000E+00
  0.00000000E+00  0.00000000E+00  0.00000000E+00
  0.00000000E+00  0.00000000E+00  0.00000000E+00
  0.00000000E+00  0.00000000E+00  0.00000000E+00
  0.00000000E+00  0.00000000E+00  0.00000000E+00
