CONTCAR\(6)                             
   1.00000000000000     
    13.9937000274999992    0.0000000000000000    0.0000000000000000
     0.0000000000000000   12.1743001938000006    0.0000000000000000
     0.0000000000000000    0.0000000000000000   22.0200004577999984
   Ta   Se   O    H 
    16    48     1     1
Direct
  0.0649336417068012  0.9968887192537288  0.4173426730371272
  0.1908912396514404  0.8578604025145765  0.5830843760489205
  0.0649207078709968  0.5901099165489742  0.4766845051413806
  0.1882931479711584  0.2629888856577798  0.5239115843503134
  0.3153191994475023  0.9967913264338357  0.4175569566733467
  0.4393563651530261  0.8577661986265717  0.5829753084618755
  0.3155660688187499  0.5887919721193230  0.4754387643529137
  0.4422847112508835  0.2629467095250962  0.5238427989374402
  0.5657488154230389  0.9969560427121321  0.4174299368164051
  0.6896019547492757  0.8577234585607902  0.5837048779505977
  0.5659732464415647  0.5898358564202094  0.4766200542006970
  0.6906655897263779  0.2647899269730141  0.5244881451025535
  0.8153570237829045  0.9966773395792550  0.4178461174906184
  0.9405887290504087  0.8576522547117699  0.5835548298312667
  0.8154156583107388  0.5901147386928484  0.4766416236956943
  0.9402422077487773  0.2647888457871958  0.5245873561336198
  0.0650828631303714  0.8179725243039572  0.4946751823098167
  0.1898291325209081  0.0365224775164097  0.5059137114271032
  0.0656140702493888  0.9870947603005050  0.6399327630751230
  0.1902915582526672  0.8677105327951590  0.3610913120155214
  0.1910587086407840  0.4380782992543948  0.4416002118100978
  0.0652151224522463  0.4157833728057511  0.5597205505967408
  0.1917024019079089  0.6334353498692027  0.5642065549958982
  0.0646494273052959  0.2201840190186859  0.4354716222863891
  0.1903442383195550  0.0791161330868649  0.3412047314489270
  0.0662315831194430  0.7762138215848090  0.6602255831697932
  0.1903890876091135  0.6590692994674505  0.3949943583642799
  0.0651376007646115  0.1957077817309613  0.6064674456257690
  0.3152399404634379  0.8171490339314450  0.4940470317808212
  0.4407611828754725  0.0367014013228515  0.5058992622154018
  0.3148330866752621  0.9917620620502811  0.6347806153802550
  0.4402972439392938  0.8678437637485489  0.3611439110933454
  0.4399833376029899  0.4378729433717305  0.4414578699658800
  0.3154526729203664  0.4062311928501073  0.5658350750834242
  0.4394232527834676  0.6333862087954464  0.5641553832805953
  0.3153059896501185  0.2201042175157512  0.4369144724238743
  0.4404767082831789  0.0791550420551877  0.3412543506400748
  0.3151054742765260  0.7522785079411900  0.6580994117325121
  0.4405361580820425  0.6591856645687127  0.3949904196999980
  0.3152220898046551  0.1970551918553584  0.6067818638157279
  0.5654602270282959  0.8180281226684240  0.4947833480544146
  0.6902572867432581  0.0369707263642777  0.5065956287001544
  0.5645997313943584  0.9883773802417709  0.6394123586535142
  0.6904469826435674  0.8666963476135764  0.3615433194435140
  0.6907137517512221  0.4390229387756298  0.4409832427189574
  0.5656481018976950  0.4156028153343425  0.5598702692922600
  0.6901484885202562  0.6344314677199663  0.5651079996419931
  0.5660282458494326  0.2202396289093185  0.4354584974919461
  0.6908217739252065  0.0791578584076655  0.3415343874230921
  0.5638086854467917  0.7758388094257310  0.6606469199506627
  0.6900841090102706  0.6584421863562422  0.3947293099977357
  0.5656231461397950  0.1957278875921677  0.6065319283919322
  0.8150942146506388  0.8178392712874074  0.4948548557595581
  0.9406073223409532  0.0369332521276630  0.5066001714502691
  0.8151381162367789  0.9878073307648887  0.6395476148378132
  0.9401278089315229  0.8666999457218627  0.3614846844353929
  0.9404957999514481  0.4391671807087855  0.4409766696564050
  0.8155656260671913  0.4156588397115432  0.5601383414051335
  0.9404192067181069  0.6344551149130906  0.5650902167430990
  0.8154725403452974  0.2201502237897665  0.4363531564638154
  0.9399173706735474  0.0793267071710233  0.3415695584448638
  0.8151295318355323  0.7756516388397388  0.6597949111441351
  0.9406536362344304  0.6584921682496290  0.3947182690016406
  0.8152103203399560  0.1962927445569456  0.6064282492018110
  0.3131260820051756  0.8202781679412317  0.7343477512184637
  0.3803407355865105  0.8338551309494896  0.7443753070153509
 
  0.00000000E+00  0.00000000E+00  0.00000000E+00
  0.00000000E+00  0.00000000E+00  0.00000000E+00
  0.00000000E+00  0.00000000E+00  0.00000000E+00
  0.00000000E+00  0.00000000E+00  0.00000000E+00
  0.00000000E+00  0.00000000E+00  0.00000000E+00
  0.00000000E+00  0.00000000E+00  0.00000000E+00
  0.00000000E+00  0.00000000E+00  0.00000000E+00
  0.00000000E+00  0.00000000E+00  0.00000000E+00
  0.00000000E+00  0.00000000E+00  0.00000000E+00
  0.00000000E+00  0.00000000E+00  0.00000000E+00
  0.00000000E+00  0.00000000E+00  0.00000000E+00
  0.00000000E+00  0.00000000E+00  0.00000000E+00
  0.00000000E+00  0.00000000E+00  0.00000000E+00
  0.00000000E+00  0.00000000E+00  0.00000000E+00
  0.00000000E+00  0.00000000E+00  0.00000000E+00
  0.00000000E+00  0.00000000E+00  0.00000000E+00
  0.00000000E+00  0.00000000E+00  0.00000000E+00
  0.00000000E+00  0.00000000E+00  0.00000000E+00
  0.00000000E+00  0.00000000E+00  0.00000000E+00
  0.00000000E+00  0.00000000E+00  0.00000000E+00
  0.00000000E+00  0.00000000E+00  0.00000000E+00
  0.00000000E+00  0.00000000E+00  0.00000000E+00
  0.00000000E+00  0.00000000E+00  0.00000000E+00
  0.00000000E+00  0.00000000E+00  0.00000000E+00
  0.00000000E+00  0.00000000E+00  0.00000000E+00
  0.00000000E+00  0.00000000E+00  0.00000000E+00
  0.00000000E+00  0.00000000E+00  0.00000000E+00
  0.00000000E+00  0.00000000E+00  0.00000000E+00
  0.00000000E+00  0.00000000E+00  0.00000000E+00
  0.00000000E+00  0.00000000E+00  0.00000000E+00
  0.00000000E+00  0.00000000E+00  0.00000000E+00
  0.00000000E+00  0.00000000E+00  0.00000000E+00
  0.00000000E+00  0.00000000E+00  0.00000000E+00
  0.00000000E+00  0.00000000E+00  0.00000000E+00
  0.00000000E+00  0.00000000E+00  0.00000000E+00
  0.00000000E+00  0.00000000E+00  0.00000000E+00
  0.00000000E+00  0.00000000E+00  0.00000000E+00
  0.00000000E+00  0.00000000E+00  0.00000000E+00
  0.00000000E+00  0.00000000E+00  0.00000000E+00
  0.00000000E+00  0.00000000E+00  0.00000000E+00
  0.00000000E+00  0.00000000E+00  0.00000000E+00
  0.00000000E+00  0.00000000E+00  0.00000000E+00
  0.00000000E+00  0.00000000E+00  0.00000000E+00
  0.00000000E+00  0.00000000E+00  0.00000000E+00
  0.00000000E+00  0.00000000E+00  0.00000000E+00
  0.00000000E+00  0.00000000E+00  0.00000000E+00
  0.00000000E+00  0.00000000E+00  0.00000000E+00
  0.00000000E+00  0.00000000E+00  0.00000000E+00
  0.00000000E+00  0.00000000E+00  0.00000000E+00
  0.00000000E+00  0.00000000E+00  0.00000000E+00
  0.00000000E+00  0.00000000E+00  0.00000000E+00
  0.00000000E+00  0.00000000E+00  0.00000000E+00
  0.00000000E+00  0.00000000E+00  0.00000000E+00
  0.00000000E+00  0.00000000E+00  0.00000000E+00
  0.00000000E+00  0.00000000E+00  0.00000000E+00
  0.00000000E+00  0.00000000E+00  0.00000000E+00
  0.00000000E+00  0.00000000E+00  0.00000000E+00
  0.00000000E+00  0.00000000E+00  0.00000000E+00
  0.00000000E+00  0.00000000E+00  0.00000000E+00
  0.00000000E+00  0.00000000E+00  0.00000000E+00
  0.00000000E+00  0.00000000E+00  0.00000000E+00
  0.00000000E+00  0.00000000E+00  0.00000000E+00
  0.00000000E+00  0.00000000E+00  0.00000000E+00
  0.00000000E+00  0.00000000E+00  0.00000000E+00
  0.00000000E+00  0.00000000E+00  0.00000000E+00
  0.00000000E+00  0.00000000E+00  0.00000000E+00
