 Cu1 Ag1 Te2                            
   1.00000000000000     
     3.1392216854610138    0.0000000000000000    0.0000000000000000
     0.0000000000000000    4.1895173595067847    0.0000000000000000
     0.0000000000000000    0.0000000000000000   19.2248342280280013
   Cu   Ag   Te
     1     1     2
Direct
  0.4999999998623900 -0.0000000001740296  0.5295210805622540
  0.0000000000360487  0.5000000000777801  0.4789530639440581
  0.0000000003462695  0.0000000000177157  0.3882459592029786
  0.4999999997552907  0.5000000000785326  0.6105997006740823
 
  0.00000000E+00  0.00000000E+00  0.00000000E+00
  0.00000000E+00  0.00000000E+00  0.00000000E+00
  0.00000000E+00  0.00000000E+00  0.00000000E+00
  0.00000000E+00  0.00000000E+00  0.00000000E+00
