CONTCAR\(9)                             
   1.00000000000000     
    14.0611000061000002    0.0000000000000000    0.0000000000000000
     0.0000000000000000   17.2483997345000013    0.0000000000000000
     0.0000000000000000    0.0000000000000000   18.5618991852000015
   Cu   H    Se   O 
     8    16    16    49
Direct
  0.9997791949108645  0.9998088216359093  0.4996735494840578
  0.2484377896313390  0.2488461300235656  0.5010508393499578
  0.5003700632461729  0.9994112593592348  0.5000745932960413
  0.7496478754994840  0.2502565026800383  0.5000510582764974
  0.0004384145047780  0.5002640787834522  0.4973884816564365
  0.2480953107963089  0.7480263607335402  0.5066144717913019
  0.4986122888828390  0.4992427369687036  0.5084413280641016
  0.7508570653861923  0.7506154740510524  0.4981203673795704
  0.3129658293809854  0.0197902711882492  0.4357582001057025
  0.0614931977219086  0.2282730190893290  0.5638079365998152
  0.4359692330217868  0.2742204271211790  0.4381988628679139
  0.1847275313383037  0.4822067767842100  0.5601521696515164
  0.8126214805702148  0.0197709828719965  0.4352061509819478
  0.5623094597825755  0.2280703328024245  0.5634734920528146
  0.9367483501167584  0.2706282804970002  0.4357772143782626
  0.6901829312289252  0.4794735734428386  0.5691141066627736
  0.3135047727332463  0.5209096795795105  0.4350286839764550
  0.0614757207274437  0.7282733932704843  0.5649929612119351
  0.4310577812831227  0.7744828288924737  0.4426121459794174
  0.1861661127055001  0.9817764970236666  0.5627283312274471
  0.8098937085090014  0.5183917486842802  0.4377503401611875
  0.5732515773399598  0.7361839176268745  0.5619841384521891
  0.9388113358869887  0.7716095250618906  0.4355735985657319
  0.6871292468431776  0.9805883058031029  0.5639803520103044
  0.3177395566363472  0.4084692579771314  0.5604820241490387
  0.0727482456012538  0.3411356696692494  0.4394862779621604
  0.4270103382802120  0.1566570204833226  0.5592655313898831
  0.1783458508729296  0.0919110729073722  0.4392197865733678
  0.8246230599945079  0.4073316910911302  0.5604438712047966
  0.5719461870843858  0.3448628490190444  0.4438765839821528
  0.9265710876886217  0.1569227207194288  0.5593120309862343
  0.6782836788361450  0.0921610400651218  0.4390466265756743
  0.3205005910183445  0.9091638828399979  0.5632771691086731
  0.0740663299428803  0.8424570938529001  0.4419140889181961
  0.4403619330753088  0.6665035315383960  0.5709848392118175
  0.1794362767091755  0.5936353895356916  0.4371899150414720
  0.8210899356570138  0.9079228610516097  0.5600465692795424
  0.5692873505463396  0.8419557090027823  0.4393002541644790
  0.9266311049154297  0.6571059273998188  0.5584477092057440
  0.6756692095017058  0.5909338264650899  0.4439473398102720
  0.1134190697699680  0.2594628157460335  0.4848731619594844
  0.3838167227372864  0.2377020454096410  0.5146433382729683
  0.3633627943602136  0.4857240787339236  0.5121030831584434
  0.2315801377461497  0.1377894499875936  0.5106791262634616
  0.1347719571602966  0.0102823199958877  0.4829799985488847
  0.4809419972563020  0.1097483576871880  0.4885514711404824
  0.2648204720251499  0.3589409848745291  0.4906208839276403
  0.0192132160876781  0.3895679209050371  0.5093521381656743
  0.2770914257582717  0.0473984280251543  0.3962597681511895
  0.0249889565279204  0.2008776627456470  0.6031431981016766
  0.2187424522779651  0.4547401225412955  0.6006162004880267
  0.4723653047756216  0.3031379485959391  0.3997554567224384
  0.6145380939833842  0.2610310369620166  0.4846588362567559
  0.8846359260805201  0.2388619448073257  0.5151159953190927
  0.8655783560603822  0.4887669776524461  0.5147948588574351
  0.7330369776082719  0.1392354423256847  0.5091165711558432
  0.6351735069522277  0.0117192849102423  0.4848211739750496
  0.9807625398639743  0.1102473227944998  0.4886005961753384
  0.7666193347956636  0.3613062496795365  0.4910714343276084
  0.5202086507752455  0.3886516111067877  0.5171918572396663
  0.7761659838011994  0.0468198738881753  0.3956923994506312
  0.5258171546302464  0.2005287310842121  0.6026643011764818
  0.7289881970845045  0.4518565807446748  0.6070201411531500
  0.9734665354812719  0.2974426095271383  0.3963055563589748
  0.1142043658077867  0.7599720443710680  0.4863201037612725
  0.3833063015881137  0.7427658738928358  0.5308118114175713
  0.3652822665836624  0.9865058516211462  0.5139359294660082
  0.2318438490475287  0.6377004131141817  0.5096963065138667
  0.1347028619186972  0.5111532602183075  0.4791245377034699
  0.4802528020081382  0.6116682749391131  0.5017260619919526
  0.2662144287811472  0.8584653836786913  0.4950521710694815
  0.0189879464533362  0.8892469140737660  0.5121355131383822
  0.2789438600822223  0.5492011019630070  0.3951409398203083
  0.0240124420667911  0.7008256774165531  0.6036676742084168
  0.2222877829340035  0.9567556442172744  0.6036487286062524
  0.4661330857940342  0.7980697942748094  0.4011569514239781
  0.6150623554402230  0.7597724388279303  0.4810248821384491
  0.8854367392565123  0.7392711209371683  0.5136109226768184
  0.8647465322700754  0.9881060580515992  0.5143305186460978
  0.7344494544313775  0.6401432228341051  0.5108593715663545
  0.6334767780216595  0.5129639043761713  0.4935475581151749
  0.9817038366885384  0.6110121048451305  0.4878990746415397
  0.7657353462515530  0.8613262575972200  0.4897486660710300
  0.5216893324301992  0.8887070190903259  0.5121274786498446
  0.7706914457664311  0.5440634195286904  0.3987737846206727
  0.5416298902906718  0.7125129590107804  0.6061336740587606
  0.7234794643228000  0.9534268105771417  0.6035079602699014
  0.9760590861893590  0.7992758536723912  0.3968250913157689
  0.3871251925669412  0.6239981885469135  0.6371484760153905
 
  0.00000000E+00  0.00000000E+00  0.00000000E+00
  0.00000000E+00  0.00000000E+00  0.00000000E+00
  0.00000000E+00  0.00000000E+00  0.00000000E+00
  0.00000000E+00  0.00000000E+00  0.00000000E+00
  0.00000000E+00  0.00000000E+00  0.00000000E+00
  0.00000000E+00  0.00000000E+00  0.00000000E+00
  0.00000000E+00  0.00000000E+00  0.00000000E+00
  0.00000000E+00  0.00000000E+00  0.00000000E+00
  0.00000000E+00  0.00000000E+00  0.00000000E+00
  0.00000000E+00  0.00000000E+00  0.00000000E+00
  0.00000000E+00  0.00000000E+00  0.00000000E+00
  0.00000000E+00  0.00000000E+00  0.00000000E+00
  0.00000000E+00  0.00000000E+00  0.00000000E+00
  0.00000000E+00  0.00000000E+00  0.00000000E+00
  0.00000000E+00  0.00000000E+00  0.00000000E+00
  0.00000000E+00  0.00000000E+00  0.00000000E+00
  0.00000000E+00  0.00000000E+00  0.00000000E+00
  0.00000000E+00  0.00000000E+00  0.00000000E+00
  0.00000000E+00  0.00000000E+00  0.00000000E+00
  0.00000000E+00  0.00000000E+00  0.00000000E+00
  0.00000000E+00  0.00000000E+00  0.00000000E+00
  0.00000000E+00  0.00000000E+00  0.00000000E+00
  0.00000000E+00  0.00000000E+00  0.00000000E+00
  0.00000000E+00  0.00000000E+00  0.00000000E+00
  0.00000000E+00  0.00000000E+00  0.00000000E+00
  0.00000000E+00  0.00000000E+00  0.00000000E+00
  0.00000000E+00  0.00000000E+00  0.00000000E+00
  0.00000000E+00  0.00000000E+00  0.00000000E+00
  0.00000000E+00  0.00000000E+00  0.00000000E+00
  0.00000000E+00  0.00000000E+00  0.00000000E+00
  0.00000000E+00  0.00000000E+00  0.00000000E+00
  0.00000000E+00  0.00000000E+00  0.00000000E+00
  0.00000000E+00  0.00000000E+00  0.00000000E+00
  0.00000000E+00  0.00000000E+00  0.00000000E+00
  0.00000000E+00  0.00000000E+00  0.00000000E+00
  0.00000000E+00  0.00000000E+00  0.00000000E+00
  0.00000000E+00  0.00000000E+00  0.00000000E+00
  0.00000000E+00  0.00000000E+00  0.00000000E+00
  0.00000000E+00  0.00000000E+00  0.00000000E+00
  0.00000000E+00  0.00000000E+00  0.00000000E+00
  0.00000000E+00  0.00000000E+00  0.00000000E+00
  0.00000000E+00  0.00000000E+00  0.00000000E+00
  0.00000000E+00  0.00000000E+00  0.00000000E+00
  0.00000000E+00  0.00000000E+00  0.00000000E+00
  0.00000000E+00  0.00000000E+00  0.00000000E+00
  0.00000000E+00  0.00000000E+00  0.00000000E+00
  0.00000000E+00  0.00000000E+00  0.00000000E+00
  0.00000000E+00  0.00000000E+00  0.00000000E+00
  0.00000000E+00  0.00000000E+00  0.00000000E+00
  0.00000000E+00  0.00000000E+00  0.00000000E+00
  0.00000000E+00  0.00000000E+00  0.00000000E+00
  0.00000000E+00  0.00000000E+00  0.00000000E+00
  0.00000000E+00  0.00000000E+00  0.00000000E+00
  0.00000000E+00  0.00000000E+00  0.00000000E+00
  0.00000000E+00  0.00000000E+00  0.00000000E+00
  0.00000000E+00  0.00000000E+00  0.00000000E+00
  0.00000000E+00  0.00000000E+00  0.00000000E+00
  0.00000000E+00  0.00000000E+00  0.00000000E+00
  0.00000000E+00  0.00000000E+00  0.00000000E+00
  0.00000000E+00  0.00000000E+00  0.00000000E+00
  0.00000000E+00  0.00000000E+00  0.00000000E+00
  0.00000000E+00  0.00000000E+00  0.00000000E+00
  0.00000000E+00  0.00000000E+00  0.00000000E+00
  0.00000000E+00  0.00000000E+00  0.00000000E+00
  0.00000000E+00  0.00000000E+00  0.00000000E+00
  0.00000000E+00  0.00000000E+00  0.00000000E+00
  0.00000000E+00  0.00000000E+00  0.00000000E+00
  0.00000000E+00  0.00000000E+00  0.00000000E+00
  0.00000000E+00  0.00000000E+00  0.00000000E+00
  0.00000000E+00  0.00000000E+00  0.00000000E+00
  0.00000000E+00  0.00000000E+00  0.00000000E+00
  0.00000000E+00  0.00000000E+00  0.00000000E+00
  0.00000000E+00  0.00000000E+00  0.00000000E+00
  0.00000000E+00  0.00000000E+00  0.00000000E+00
  0.00000000E+00  0.00000000E+00  0.00000000E+00
  0.00000000E+00  0.00000000E+00  0.00000000E+00
  0.00000000E+00  0.00000000E+00  0.00000000E+00
  0.00000000E+00  0.00000000E+00  0.00000000E+00
  0.00000000E+00  0.00000000E+00  0.00000000E+00
  0.00000000E+00  0.00000000E+00  0.00000000E+00
  0.00000000E+00  0.00000000E+00  0.00000000E+00
  0.00000000E+00  0.00000000E+00  0.00000000E+00
  0.00000000E+00  0.00000000E+00  0.00000000E+00
  0.00000000E+00  0.00000000E+00  0.00000000E+00
  0.00000000E+00  0.00000000E+00  0.00000000E+00
  0.00000000E+00  0.00000000E+00  0.00000000E+00
  0.00000000E+00  0.00000000E+00  0.00000000E+00
  0.00000000E+00  0.00000000E+00  0.00000000E+00
  0.00000000E+00  0.00000000E+00  0.00000000E+00
