CONTCAR\(25)                            
   1.00000000000000     
    12.0160999297999993    0.0000000000000000    0.0000000000000000
     0.0000000000000000   12.0160999297999993    0.0000000000000000
     0.0000000000000000    0.0000000000000000   21.8733997345000013
   Sr   Cu   I    O 
    18     9    18    18
Direct
  0.0000000000000000  0.0000000000000000  0.5767099750000000
  0.0000000000000000  0.0000000000000000  0.4231900070000023
  0.3333300130000012  0.0000000000000000  0.5767099750000000
  0.3333300130000012  0.0000000000000000  0.4231900070000023
  0.6666700270000021  0.0000000000000000  0.5767099750000000
  0.6666700270000021  0.0000000000000000  0.4231900070000023
  0.0000000000000000  0.3333300130000012  0.5767099750000000
  0.0000000000000000  0.3333300130000012  0.4231900070000023
  0.3333300130000012  0.3333300130000012  0.5767099750000000
  0.3333300130000012  0.3333300130000012  0.4231900070000023
  0.6666700270000021  0.3333300130000012  0.5767099750000000
  0.6666700270000021  0.3333300130000012  0.4231900070000023
  0.0000000000000000  0.6666700270000021  0.5767099750000000
  0.0000000000000000  0.6666700270000021  0.4231900070000023
  0.3333300130000012  0.6666700270000021  0.5767099750000000
  0.3333300130000012  0.6666700270000021  0.4231900070000023
  0.6666700270000021  0.6666700270000021  0.5767099750000000
  0.6666700270000021  0.6666700270000021  0.4231900070000023
  0.1666699869999988  0.1666699869999988  0.4999499910000011
  0.5000000000000000  0.1666699869999988  0.4999499910000011
  0.8333299729999979  0.1666699869999988  0.4999499910000011
  0.1666699869999988  0.5000000000000000  0.4999499910000011
  0.5000000000000000  0.5000000000000000  0.4999499910000011
  0.8333299729999979  0.5000000000000000  0.4999499910000011
  0.1666699869999988  0.8333299729999979  0.4999499910000011
  0.5000000000000000  0.8333299729999979  0.4999499910000011
  0.8333299729999979  0.8333299729999979  0.4999499910000011
  0.1666699869999988  0.1666699869999988  0.3417800029999967
  0.1666699869999988  0.1666699869999988  0.6581400130000006
  0.5000000000000000  0.1666699869999988  0.3417800029999967
  0.5000000000000000  0.1666699869999988  0.6581400130000006
  0.8333299729999979  0.1666699869999988  0.3417800029999967
  0.8333299729999979  0.1666699869999988  0.6581400130000006
  0.1666699869999988  0.5000000000000000  0.3417800029999967
  0.1666699869999988  0.5000000000000000  0.6581400130000006
  0.5000000000000000  0.5000000000000000  0.3417800029999967
  0.5000000000000000  0.5000000000000000  0.6581400130000006
  0.8333299729999979  0.5000000000000000  0.3417800029999967
  0.8333299729999979  0.5000000000000000  0.6581400130000006
  0.1666699869999988  0.8333299729999979  0.3417800029999967
  0.1666699869999988  0.8333299729999979  0.6581400130000006
  0.5000000000000000  0.8333299729999979  0.3417800029999967
  0.5000000000000000  0.8333299729999979  0.6581400130000006
  0.8333299729999979  0.8333299729999979  0.3417800029999967
  0.8333299729999979  0.8333299729999979  0.6581400130000006
  0.0000000000000000  0.1666699869999988  0.4999499910000011
  0.1666699869999988  0.0000000000000000  0.4999499910000011
  0.3333300130000012  0.1666699869999988  0.4999499910000011
  0.5000000000000000  0.0000000000000000  0.4999499910000011
  0.6666700270000021  0.1666699869999988  0.4999499910000011
  0.8333299729999979  0.0000000000000000  0.4999499910000011
  0.0000000000000000  0.5000000000000000  0.4999499910000011
  0.1666699869999988  0.3333300130000012  0.4999499910000011
  0.3333300130000012  0.5000000000000000  0.4999499910000011
  0.5000000000000000  0.3333300130000012  0.4999499910000011
  0.6666700270000021  0.5000000000000000  0.4999499910000011
  0.8333299729999979  0.3333300130000012  0.4999499910000011
  0.0000000000000000  0.8333299729999979  0.4999499910000011
  0.1666699869999988  0.6666700270000021  0.4999499910000011
  0.3333300130000012  0.8333299729999979  0.4999499910000011
  0.5000000000000000  0.6666700270000021  0.4999499910000011
  0.6666700270000021  0.8333299729999979  0.4999499910000011
  0.8333299729999979  0.6666700270000021  0.4999499910000011
 
  0.00000000E+00  0.00000000E+00  0.00000000E+00
  0.00000000E+00  0.00000000E+00  0.00000000E+00
  0.00000000E+00  0.00000000E+00  0.00000000E+00
  0.00000000E+00  0.00000000E+00  0.00000000E+00
  0.00000000E+00  0.00000000E+00  0.00000000E+00
  0.00000000E+00  0.00000000E+00  0.00000000E+00
  0.00000000E+00  0.00000000E+00  0.00000000E+00
  0.00000000E+00  0.00000000E+00  0.00000000E+00
  0.00000000E+00  0.00000000E+00  0.00000000E+00
  0.00000000E+00  0.00000000E+00  0.00000000E+00
  0.00000000E+00  0.00000000E+00  0.00000000E+00
  0.00000000E+00  0.00000000E+00  0.00000000E+00
  0.00000000E+00  0.00000000E+00  0.00000000E+00
  0.00000000E+00  0.00000000E+00  0.00000000E+00
  0.00000000E+00  0.00000000E+00  0.00000000E+00
  0.00000000E+00  0.00000000E+00  0.00000000E+00
  0.00000000E+00  0.00000000E+00  0.00000000E+00
  0.00000000E+00  0.00000000E+00  0.00000000E+00
  0.00000000E+00  0.00000000E+00  0.00000000E+00
  0.00000000E+00  0.00000000E+00  0.00000000E+00
  0.00000000E+00  0.00000000E+00  0.00000000E+00
  0.00000000E+00  0.00000000E+00  0.00000000E+00
  0.00000000E+00  0.00000000E+00  0.00000000E+00
  0.00000000E+00  0.00000000E+00  0.00000000E+00
  0.00000000E+00  0.00000000E+00  0.00000000E+00
  0.00000000E+00  0.00000000E+00  0.00000000E+00
  0.00000000E+00  0.00000000E+00  0.00000000E+00
  0.00000000E+00  0.00000000E+00  0.00000000E+00
  0.00000000E+00  0.00000000E+00  0.00000000E+00
  0.00000000E+00  0.00000000E+00  0.00000000E+00
  0.00000000E+00  0.00000000E+00  0.00000000E+00
  0.00000000E+00  0.00000000E+00  0.00000000E+00
  0.00000000E+00  0.00000000E+00  0.00000000E+00
  0.00000000E+00  0.00000000E+00  0.00000000E+00
  0.00000000E+00  0.00000000E+00  0.00000000E+00
  0.00000000E+00  0.00000000E+00  0.00000000E+00
  0.00000000E+00  0.00000000E+00  0.00000000E+00
  0.00000000E+00  0.00000000E+00  0.00000000E+00
  0.00000000E+00  0.00000000E+00  0.00000000E+00
  0.00000000E+00  0.00000000E+00  0.00000000E+00
  0.00000000E+00  0.00000000E+00  0.00000000E+00
  0.00000000E+00  0.00000000E+00  0.00000000E+00
  0.00000000E+00  0.00000000E+00  0.00000000E+00
  0.00000000E+00  0.00000000E+00  0.00000000E+00
  0.00000000E+00  0.00000000E+00  0.00000000E+00
  0.00000000E+00  0.00000000E+00  0.00000000E+00
  0.00000000E+00  0.00000000E+00  0.00000000E+00
  0.00000000E+00  0.00000000E+00  0.00000000E+00
  0.00000000E+00  0.00000000E+00  0.00000000E+00
  0.00000000E+00  0.00000000E+00  0.00000000E+00
  0.00000000E+00  0.00000000E+00  0.00000000E+00
  0.00000000E+00  0.00000000E+00  0.00000000E+00
  0.00000000E+00  0.00000000E+00  0.00000000E+00
  0.00000000E+00  0.00000000E+00  0.00000000E+00
  0.00000000E+00  0.00000000E+00  0.00000000E+00
  0.00000000E+00  0.00000000E+00  0.00000000E+00
  0.00000000E+00  0.00000000E+00  0.00000000E+00
  0.00000000E+00  0.00000000E+00  0.00000000E+00
  0.00000000E+00  0.00000000E+00  0.00000000E+00
  0.00000000E+00  0.00000000E+00  0.00000000E+00
  0.00000000E+00  0.00000000E+00  0.00000000E+00
  0.00000000E+00  0.00000000E+00  0.00000000E+00
  0.00000000E+00  0.00000000E+00  0.00000000E+00
