CONTCAR\(2)                             
   1.00000000000000     
    21.4713001251000009    0.0000000000000000    0.0000000000000000
    10.7356067371999995   19.1142855119999986    0.0000000000000000
     0.0000000000000000    0.0000000000000000   19.1464004516999999
   Ta   Te   O    H 
    36    72     2     1
Direct
  0.4050723578738200  0.3567350367501092  0.5012719498056413
  0.2603389369330102  0.1450803584296949  0.5006881009272703
  0.0980093803885538  0.1443746624279640  0.5008534672242035
  0.2421548083946377  0.3568626165344142  0.5009998854469586
  0.4290182606824899  0.1450747063994697  0.4985599439078854
  0.0736933140052187  0.3558822879079813  0.5028353704121997
  0.0998395111785655  0.0002487040677650  0.5022367170011961
  0.4024395987074527  0.0010181134112415  0.5023601923423442
  0.2517564067632492  0.0005198736269776  0.5025478825570460
  0.9047724205209278  0.3561440463596455  0.5013221928774954
  0.7609196082581704  0.1436080528370738  0.5007126413112388
  0.5984440029760947  0.1439206008043286  0.5004547822442049
  0.7422141344519062  0.3561960571254232  0.5016534654817448
  0.9289715021053979  0.1445727432597579  0.4988733486071197
  0.5744285561507070  0.3561111203276113  0.5035966132108030
  0.5995889682929629  0.0002945146862814  0.5019998515728687
  0.9025454906614669  0.0003101300189670  0.5018319234804309
  0.7515010915181008  0.0002910859733518  0.5015871359964521
  0.4016502636508719  0.8620963191013971  0.5048639956252288
  0.2614277301877905  0.6435522790565287  0.4985438076597717
  0.0984850033336713  0.6440338897318298  0.4997009557353209
  0.2427406043207299  0.8570041532995845  0.5043215134416457
  0.4275352716405507  0.6400520605482853  0.4926466987448563
  0.0737579879939787  0.8568389244541024  0.5049647693791357
  0.1001354349807571  0.5004192357758583  0.5001866841083640
  0.4027296135991705  0.5017692892299834  0.4995645510647293
  0.2508886349386543  0.5007779999167141  0.4999409983356884
  0.9047474593684015  0.8565023723809162  0.5023457999520602
  0.7612094292103464  0.6429777086065798  0.4987355586652029
  0.6029013004809656  0.6404745216036076  0.4959012523888262
  0.7413035950855758  0.8567123200138838  0.5027535807809755
  0.9294176735968520  0.6440481198943075  0.4976158770403600
  0.5710731755352185  0.8580024688304420  0.5077091475641993
  0.6008677142059540  0.4994318332257777  0.4993903677569875
  0.9032895273453505  0.4999995701853877  0.5000518095219704
  0.7511772203842284  0.5005179371916313  0.4996428631252741
  0.4728452942740020  0.2247050056590467  0.5805259995687422
  0.1968481318237636  0.2767635591318793  0.4205644832468707
  0.0301854374364936  0.2761267714943472  0.4207824214481022
  0.3057616199852262  0.2253410444764512  0.5807194259033039
  0.3640408152743007  0.2759299386720784  0.4188433315442808
  0.1386223265068907  0.2257849975338857  0.5831531362376055
  0.3586632735063517  0.4468721613644746  0.3921703249170534
  0.3041219331673730  0.0559572006845102  0.6105115989493228
  0.1432525781227767  0.0545270653781529  0.6102071491565439
  0.1968522184532588  0.1092703638253667  0.3956257426755982
  0.3058468352421855  0.3920716491391261  0.6065342528589852
  0.3623285069413029  0.1082612397380629  0.3969734022088360
  0.4699154100361724  0.3940264172105685  0.6047033973370546
  0.1404629090543210  0.3926566497890533  0.6048038980114328
  0.0328150347145595  0.1077901099990157  0.3972286119103074
  0.0250237526420847  0.4536245389848474  0.4043869179224870
  0.4775721639474568  0.0485522968641519  0.5979641213643205
  0.1972944719276839  0.4472436352293485  0.3916659422871902
  0.9726848282005491  0.2243438418555499  0.5810500400887975
  0.6974794408751777  0.2754910179820342  0.4214007635238204
  0.5307361889165136  0.2762142530615037  0.4213302719650258
  0.8061614587328592  0.2240111213515235  0.5810440657060738
  0.8639744940119911  0.2751424109455840  0.4189136688434942
  0.6390968797264165  0.2248464975953652  0.5827819669522611
  0.8595931415712172  0.4460914026980873  0.3920130117196905
  0.8051949653809487  0.0533289202757672  0.6101066882325910
  0.6441067135260710  0.0536668704311580  0.6097391109019838
  0.6972237468749540  0.1086705424980039  0.3948659733620019
  0.8057019414829938  0.3919649835753845  0.6067033325149964
  0.8625883581949978  0.1076686302486252  0.3968086160250408
  0.9703875141653597  0.3924101189082023  0.6049358904768880
  0.6402841208914367  0.3932308695040660  0.6055351946936796
  0.5327418102102754  0.1076651830202948  0.3967870928722164
  0.5253977629163131  0.4524363372347153  0.4040775356556807
  0.9776835067844942  0.0470176835600356  0.5975075014152438
  0.6987163854937251  0.4450661478498645  0.3915975516222403
  0.4714687661181500  0.7249143181282207  0.5612766685942816
  0.1970683676314735  0.7772271295759907  0.4227385207612713
  0.0304612836497071  0.7769411682466512  0.4222074388349668
  0.3070396670964470  0.7233007495637835  0.5794304811419124
  0.3645838876218193  0.7755617084855118  0.4212896167597222
  0.1399879222722404  0.7245871895994540  0.5818842247261600
  0.3581011976704076  0.9480551743722430  0.3932216775854940
  0.3051878553452312  0.5537670474104885  0.6080833914350166
  0.1441907437638505  0.5534679893843588  0.6088093789242777
  0.1963752475941263  0.6092478264775636  0.3934400586882134
  0.3043232967693186  0.8938530620517824  0.6106889228139636
  0.3601165515558478  0.6069899769601363  0.3909868629450415
  0.4683118926609566  0.8954763215615102  0.6096798559710805
  0.1406043677019397  0.8927181052681874  0.6075457412334444
  0.0325764469659333  0.6084040856681270  0.3956396990397053
  0.0247492242427754  0.9538113575719578  0.4059741516645872
  0.4777006893620594  0.5483055468714895  0.5959280732643748
  0.1976237881172054  0.9468121429758938  0.3944450655877390
  0.9730232297038413  0.7237377239156331  0.5803083824053772
  0.6948679910136235  0.7769480196850509  0.4239080069353207
  0.5291906347768318  0.7766080326846705  0.4244489242822524
  0.8060874028031293  0.7234545568933157  0.5799555907400347
  0.8632568570562427  0.7759048221494851  0.4202729849824536
  0.6391450814613435  0.7245459067915831  0.5812343308722845
  0.8587101884159267  0.9468758577156819  0.3932261604002960
  0.8057434218078257  0.5532184609264803  0.6082879511731321
  0.6436659162135498  0.5542191423523164  0.6078577463377002
  0.6998256252317603  0.6071883029362368  0.3907280883520912
  0.8058929106257295  0.8913183735281365  0.6078560629783425
  0.8626847140692320  0.6079965397907259  0.3950752826530106
  0.9702345446194656  0.8922774142373839  0.6066003469860490
  0.6404707034612827  0.8929111185188177  0.6077997080408153
  0.5342020098194737  0.6054335039886425  0.3933397013995332
  0.5247695208367773  0.9529993167059772  0.4066120745024122
  0.9783534070264253  0.5465676763760925  0.5961697923123523
  0.6969615198969947  0.9471186500031195  0.3936345554601175
  0.4758070968309980  0.7034703069176231  0.6686711458307713
  0.5051025248883576  0.7416827299994679  0.7055691113560485
  0.5568015485673854  0.7083783979451752  0.7038062496108637
 
  0.00000000E+00  0.00000000E+00  0.00000000E+00
  0.00000000E+00  0.00000000E+00  0.00000000E+00
  0.00000000E+00  0.00000000E+00  0.00000000E+00
  0.00000000E+00  0.00000000E+00  0.00000000E+00
  0.00000000E+00  0.00000000E+00  0.00000000E+00
  0.00000000E+00  0.00000000E+00  0.00000000E+00
  0.00000000E+00  0.00000000E+00  0.00000000E+00
  0.00000000E+00  0.00000000E+00  0.00000000E+00
  0.00000000E+00  0.00000000E+00  0.00000000E+00
  0.00000000E+00  0.00000000E+00  0.00000000E+00
  0.00000000E+00  0.00000000E+00  0.00000000E+00
  0.00000000E+00  0.00000000E+00  0.00000000E+00
  0.00000000E+00  0.00000000E+00  0.00000000E+00
  0.00000000E+00  0.00000000E+00  0.00000000E+00
  0.00000000E+00  0.00000000E+00  0.00000000E+00
  0.00000000E+00  0.00000000E+00  0.00000000E+00
  0.00000000E+00  0.00000000E+00  0.00000000E+00
  0.00000000E+00  0.00000000E+00  0.00000000E+00
  0.00000000E+00  0.00000000E+00  0.00000000E+00
  0.00000000E+00  0.00000000E+00  0.00000000E+00
  0.00000000E+00  0.00000000E+00  0.00000000E+00
  0.00000000E+00  0.00000000E+00  0.00000000E+00
  0.00000000E+00  0.00000000E+00  0.00000000E+00
  0.00000000E+00  0.00000000E+00  0.00000000E+00
  0.00000000E+00  0.00000000E+00  0.00000000E+00
  0.00000000E+00  0.00000000E+00  0.00000000E+00
  0.00000000E+00  0.00000000E+00  0.00000000E+00
  0.00000000E+00  0.00000000E+00  0.00000000E+00
  0.00000000E+00  0.00000000E+00  0.00000000E+00
  0.00000000E+00  0.00000000E+00  0.00000000E+00
  0.00000000E+00  0.00000000E+00  0.00000000E+00
  0.00000000E+00  0.00000000E+00  0.00000000E+00
  0.00000000E+00  0.00000000E+00  0.00000000E+00
  0.00000000E+00  0.00000000E+00  0.00000000E+00
  0.00000000E+00  0.00000000E+00  0.00000000E+00
  0.00000000E+00  0.00000000E+00  0.00000000E+00
  0.00000000E+00  0.00000000E+00  0.00000000E+00
  0.00000000E+00  0.00000000E+00  0.00000000E+00
  0.00000000E+00  0.00000000E+00  0.00000000E+00
  0.00000000E+00  0.00000000E+00  0.00000000E+00
  0.00000000E+00  0.00000000E+00  0.00000000E+00
  0.00000000E+00  0.00000000E+00  0.00000000E+00
  0.00000000E+00  0.00000000E+00  0.00000000E+00
  0.00000000E+00  0.00000000E+00  0.00000000E+00
  0.00000000E+00  0.00000000E+00  0.00000000E+00
  0.00000000E+00  0.00000000E+00  0.00000000E+00
  0.00000000E+00  0.00000000E+00  0.00000000E+00
  0.00000000E+00  0.00000000E+00  0.00000000E+00
  0.00000000E+00  0.00000000E+00  0.00000000E+00
  0.00000000E+00  0.00000000E+00  0.00000000E+00
  0.00000000E+00  0.00000000E+00  0.00000000E+00
  0.00000000E+00  0.00000000E+00  0.00000000E+00
  0.00000000E+00  0.00000000E+00  0.00000000E+00
  0.00000000E+00  0.00000000E+00  0.00000000E+00
  0.00000000E+00  0.00000000E+00  0.00000000E+00
  0.00000000E+00  0.00000000E+00  0.00000000E+00
  0.00000000E+00  0.00000000E+00  0.00000000E+00
  0.00000000E+00  0.00000000E+00  0.00000000E+00
  0.00000000E+00  0.00000000E+00  0.00000000E+00
  0.00000000E+00  0.00000000E+00  0.00000000E+00
  0.00000000E+00  0.00000000E+00  0.00000000E+00
  0.00000000E+00  0.00000000E+00  0.00000000E+00
  0.00000000E+00  0.00000000E+00  0.00000000E+00
  0.00000000E+00  0.00000000E+00  0.00000000E+00
  0.00000000E+00  0.00000000E+00  0.00000000E+00
  0.00000000E+00  0.00000000E+00  0.00000000E+00
  0.00000000E+00  0.00000000E+00  0.00000000E+00
  0.00000000E+00  0.00000000E+00  0.00000000E+00
  0.00000000E+00  0.00000000E+00  0.00000000E+00
  0.00000000E+00  0.00000000E+00  0.00000000E+00
  0.00000000E+00  0.00000000E+00  0.00000000E+00
  0.00000000E+00  0.00000000E+00  0.00000000E+00
  0.00000000E+00  0.00000000E+00  0.00000000E+00
  0.00000000E+00  0.00000000E+00  0.00000000E+00
  0.00000000E+00  0.00000000E+00  0.00000000E+00
  0.00000000E+00  0.00000000E+00  0.00000000E+00
  0.00000000E+00  0.00000000E+00  0.00000000E+00
  0.00000000E+00  0.00000000E+00  0.00000000E+00
  0.00000000E+00  0.00000000E+00  0.00000000E+00
  0.00000000E+00  0.00000000E+00  0.00000000E+00
  0.00000000E+00  0.00000000E+00  0.00000000E+00
  0.00000000E+00  0.00000000E+00  0.00000000E+00
  0.00000000E+00  0.00000000E+00  0.00000000E+00
  0.00000000E+00  0.00000000E+00  0.00000000E+00
  0.00000000E+00  0.00000000E+00  0.00000000E+00
  0.00000000E+00  0.00000000E+00  0.00000000E+00
  0.00000000E+00  0.00000000E+00  0.00000000E+00
  0.00000000E+00  0.00000000E+00  0.00000000E+00
  0.00000000E+00  0.00000000E+00  0.00000000E+00
  0.00000000E+00  0.00000000E+00  0.00000000E+00
  0.00000000E+00  0.00000000E+00  0.00000000E+00
  0.00000000E+00  0.00000000E+00  0.00000000E+00
  0.00000000E+00  0.00000000E+00  0.00000000E+00
  0.00000000E+00  0.00000000E+00  0.00000000E+00
  0.00000000E+00  0.00000000E+00  0.00000000E+00
  0.00000000E+00  0.00000000E+00  0.00000000E+00
  0.00000000E+00  0.00000000E+00  0.00000000E+00
  0.00000000E+00  0.00000000E+00  0.00000000E+00
  0.00000000E+00  0.00000000E+00  0.00000000E+00
  0.00000000E+00  0.00000000E+00  0.00000000E+00
  0.00000000E+00  0.00000000E+00  0.00000000E+00
  0.00000000E+00  0.00000000E+00  0.00000000E+00
  0.00000000E+00  0.00000000E+00  0.00000000E+00
  0.00000000E+00  0.00000000E+00  0.00000000E+00
  0.00000000E+00  0.00000000E+00  0.00000000E+00
  0.00000000E+00  0.00000000E+00  0.00000000E+00
  0.00000000E+00  0.00000000E+00  0.00000000E+00
  0.00000000E+00  0.00000000E+00  0.00000000E+00
  0.00000000E+00  0.00000000E+00  0.00000000E+00
  0.00000000E+00  0.00000000E+00  0.00000000E+00
  0.00000000E+00  0.00000000E+00  0.00000000E+00
