CONTCAR                                 
   1.00000000000000     
    11.9160003662000005    0.0000000000000000    0.0000000000000000
    -5.9580032889999996   10.3494530515999994    0.0000000000000000
     0.0000000000000000    0.0000000000000000   17.8166999817000011
   Hf   Fe   Cl   O 
     4     4    24     1
Direct
  0.1514943666259436  0.3191409062119840  0.5007810327813014
  0.6667498048456272  0.3256045485460516  0.4986443740354742
  0.1745066367871439  0.8317008414848268  0.4999592658345844
  0.6381129529479053  0.8128062509505469  0.5121762175760697
  0.4966579432743899  0.5052390725796613  0.5016233742953763
  0.9965378242923807  0.4943200678932375  0.5000958730079470
  0.4913596803745932  0.9953170479073266  0.5020410713027964
  0.0134648239241420  0.0069670348382256  0.5106556958016089
  0.1500173607516000  0.4912153081404407  0.5768795648459581
  0.3253437353791469  0.3311916895832366  0.5794186067907521
  0.0022548222270247  0.1573391652133662  0.5882578306054795
  0.1479096560719483  0.1521480321438373  0.4200447354507269
  0.9911562237659699  0.3346948894459802  0.4217727812960216
  0.3238457043565202  0.4830977499778377  0.4189555655084186
  0.6544017933361527  0.4876227279984179  0.5804037493444625
  0.8403733987088929  0.3407496661531063  0.5800534071398780
  0.4996733614456976  0.1567412260983665  0.5784062581944697
  0.6538197561099440  0.1478133068052318  0.4238726614817243
  0.5089548383353757  0.3375443232071328  0.4176313157167493
  0.8405473181680138  0.4958117111040481  0.4229222714469735
  0.1807060691391587  0.0082715982446956  0.5786658180555542
  0.3402347885816837  0.8430219743851283  0.5836995540469933
  0.0067476655001576  0.6554305035282809  0.5784349104912970
  0.1535775158634961  0.6540391636611642  0.4215814268726427
  0.0022973446931171  0.8449912704392649  0.4315538645744917
  0.3402180457402840  0.9950557456138034  0.4189774328650845
  0.6430967717438124  0.9941993503149198  0.5825462477876825
  0.9088940414350232  0.8706088916263774  0.5995837797852883
  0.4708003764464346  0.6466718437906364  0.5894907533427440
  0.6507750964476857  0.6661630339209913  0.4194955113538657
  0.4924853499187241  0.8401519113102945  0.4242593446878514
  0.8372328141168949  0.9856353757643667  0.4464455417217025
  0.7497216726451353  0.7963736541172233  0.5887203439580132
 
  0.00000000E+00  0.00000000E+00  0.00000000E+00
  0.00000000E+00  0.00000000E+00  0.00000000E+00
  0.00000000E+00  0.00000000E+00  0.00000000E+00
  0.00000000E+00  0.00000000E+00  0.00000000E+00
  0.00000000E+00  0.00000000E+00  0.00000000E+00
  0.00000000E+00  0.00000000E+00  0.00000000E+00
  0.00000000E+00  0.00000000E+00  0.00000000E+00
  0.00000000E+00  0.00000000E+00  0.00000000E+00
  0.00000000E+00  0.00000000E+00  0.00000000E+00
  0.00000000E+00  0.00000000E+00  0.00000000E+00
  0.00000000E+00  0.00000000E+00  0.00000000E+00
  0.00000000E+00  0.00000000E+00  0.00000000E+00
  0.00000000E+00  0.00000000E+00  0.00000000E+00
  0.00000000E+00  0.00000000E+00  0.00000000E+00
  0.00000000E+00  0.00000000E+00  0.00000000E+00
  0.00000000E+00  0.00000000E+00  0.00000000E+00
  0.00000000E+00  0.00000000E+00  0.00000000E+00
  0.00000000E+00  0.00000000E+00  0.00000000E+00
  0.00000000E+00  0.00000000E+00  0.00000000E+00
  0.00000000E+00  0.00000000E+00  0.00000000E+00
  0.00000000E+00  0.00000000E+00  0.00000000E+00
  0.00000000E+00  0.00000000E+00  0.00000000E+00
  0.00000000E+00  0.00000000E+00  0.00000000E+00
  0.00000000E+00  0.00000000E+00  0.00000000E+00
  0.00000000E+00  0.00000000E+00  0.00000000E+00
  0.00000000E+00  0.00000000E+00  0.00000000E+00
  0.00000000E+00  0.00000000E+00  0.00000000E+00
  0.00000000E+00  0.00000000E+00  0.00000000E+00
  0.00000000E+00  0.00000000E+00  0.00000000E+00
  0.00000000E+00  0.00000000E+00  0.00000000E+00
  0.00000000E+00  0.00000000E+00  0.00000000E+00
  0.00000000E+00  0.00000000E+00  0.00000000E+00
  0.00000000E+00  0.00000000E+00  0.00000000E+00
