CONTCAR\(9)                             
   1.00000000000000     
    10.2439002990999999    0.0000000000000000    0.0000000000000000
    -5.1219302098000004    8.8769157374999992    0.0000000000000000
     0.0000000000000000    0.0000000000000000   20.8738994598000005
   Zr   Cl   O    H 
    18    18     1     1
Direct
  0.0535552985276319  0.1085752044627899  0.5548060840624963
  0.1662801849286869  0.9988625811275345  0.4409045485791774
  0.3886281434631522  0.1086904719246909  0.5547715850973419
  0.5013594212574536  0.0000522360781401  0.4415443899542825
  0.7226061766420294  0.1115130912538191  0.5560666318152615
  0.8322087197203899  0.9999377973792410  0.4415643860972363
  0.0551757467944523  0.4452199291873522  0.5555800221411807
  0.1746845198017195  0.3371901997787102  0.4463257691077461
  0.3864316814454018  0.4405450807026465  0.5913927489203277
  0.4957870643923690  0.3372310271113855  0.4462786718960116
  0.7230361510659219  0.4450746787513807  0.5556158146355363
  0.8328881509930627  0.3324658744436273  0.4422143768661554
  0.0551566217352704  0.7769478683803134  0.5537418241391554
  0.1666495163008075  0.6663445634787790  0.4410763509334448
  0.3889727574017446  0.7786913983921202  0.5547381707535035
  0.4954240457338964  0.6573810018032696  0.4458325182215449
  0.7229914621501656  0.7784077572542301  0.5548297961857147
  0.8331105514589510  0.6662921728020975  0.4411148623711988
  0.2532672974275185  0.1727647423104171  0.6393972676647119
  0.2792181890874441  0.2252538756028337  0.3606523773676343
  0.6109162254415289  0.2221430835602639  0.6397141306097330
  0.6086396963300380  0.2248025577554771  0.3602286803756273
  0.9449909865462035  0.2223177344508830  0.6397391803435353
  0.9495577199393660  0.2248114196023424  0.3602435693147701
  0.2582820900168556  0.5804390887984088  0.6404694448301003
  0.2789222502715170  0.5527598479869346  0.3604276393738409
  0.6544190198564502  0.5796057787207861  0.6406525351945481
  0.6074022243427390  0.5529282594623245  0.3604189708181798
  0.9439102376117753  0.5548674613793393  0.6381586517407619
  0.9435919830081985  0.5536757826129340  0.3576323857529261
  0.2784226355776224  0.8885099860272051  0.6374184271536765
  0.2790839060335651  0.8889411637374984  0.3573069532379064
  0.6113358183256521  0.8892581351923304  0.6397311953266678
  0.6082471546345205  0.8829411630397085  0.3597108706968016
  0.9434407301286585  0.8883099761063102  0.6375022886344304
  0.9433733892514417  0.8889898396998159  0.3573688869129528
  0.3798160926642933  0.4286463413344648  0.6904523544272424
  0.4239169996915252  0.5193110153075725  0.7167156234466331
 
  0.00000000E+00  0.00000000E+00  0.00000000E+00
  0.00000000E+00  0.00000000E+00  0.00000000E+00
  0.00000000E+00  0.00000000E+00  0.00000000E+00
  0.00000000E+00  0.00000000E+00  0.00000000E+00
  0.00000000E+00  0.00000000E+00  0.00000000E+00
  0.00000000E+00  0.00000000E+00  0.00000000E+00
  0.00000000E+00  0.00000000E+00  0.00000000E+00
  0.00000000E+00  0.00000000E+00  0.00000000E+00
  0.00000000E+00  0.00000000E+00  0.00000000E+00
  0.00000000E+00  0.00000000E+00  0.00000000E+00
  0.00000000E+00  0.00000000E+00  0.00000000E+00
  0.00000000E+00  0.00000000E+00  0.00000000E+00
  0.00000000E+00  0.00000000E+00  0.00000000E+00
  0.00000000E+00  0.00000000E+00  0.00000000E+00
  0.00000000E+00  0.00000000E+00  0.00000000E+00
  0.00000000E+00  0.00000000E+00  0.00000000E+00
  0.00000000E+00  0.00000000E+00  0.00000000E+00
  0.00000000E+00  0.00000000E+00  0.00000000E+00
  0.00000000E+00  0.00000000E+00  0.00000000E+00
  0.00000000E+00  0.00000000E+00  0.00000000E+00
  0.00000000E+00  0.00000000E+00  0.00000000E+00
  0.00000000E+00  0.00000000E+00  0.00000000E+00
  0.00000000E+00  0.00000000E+00  0.00000000E+00
  0.00000000E+00  0.00000000E+00  0.00000000E+00
  0.00000000E+00  0.00000000E+00  0.00000000E+00
  0.00000000E+00  0.00000000E+00  0.00000000E+00
  0.00000000E+00  0.00000000E+00  0.00000000E+00
  0.00000000E+00  0.00000000E+00  0.00000000E+00
  0.00000000E+00  0.00000000E+00  0.00000000E+00
  0.00000000E+00  0.00000000E+00  0.00000000E+00
  0.00000000E+00  0.00000000E+00  0.00000000E+00
  0.00000000E+00  0.00000000E+00  0.00000000E+00
  0.00000000E+00  0.00000000E+00  0.00000000E+00
  0.00000000E+00  0.00000000E+00  0.00000000E+00
  0.00000000E+00  0.00000000E+00  0.00000000E+00
  0.00000000E+00  0.00000000E+00  0.00000000E+00
  0.00000000E+00  0.00000000E+00  0.00000000E+00
  0.00000000E+00  0.00000000E+00  0.00000000E+00
