CONTCAR\(7)                             
   1.00000000000000     
    12.0179996490000001    0.0000000000000000    0.0000000000000000
     5.5443836140000000   17.3830097696000010    0.0000000000000000
     0.0000000000000000    0.0000000000000000   18.4081001282000010
   Nb   Ir   Se   O 
    16     4    40     1
Direct
  0.3125487108050647  0.4162639532130417  0.5006766189468072
  0.3775065020114492  0.1927656059327910  0.5024481744695389
  0.0448137132818306  0.9960494216570163  0.5026710844187768
  0.0891141250318944  0.3153049153579536  0.4972232163777795
  0.8168501463297646  0.4151345438787082  0.4973577437410028
  0.8729705233837891  0.1992208398433389  0.5060627567992908
  0.5437300791579088  0.9955513826848692  0.5040524780107585
  0.5834793101631093  0.3080237247826320  0.4985862193814248
  0.3173279743368899  0.9135225471454462  0.5012043429685400
  0.3713357737169390  0.7024671497017312  0.5048460562528783
  0.0428357649375509  0.4960574407403898  0.5025365401208918
  0.0796632825174617  0.8091222770787067  0.4970926772807200
  0.8122288216002792  0.9159582216556876  0.5001528457687560
  0.8781693123880072  0.6929606651603449  0.5013086428435606
  0.5422672507488244  0.5005030477599894  0.4941976264008902
  0.5927301364231750  0.8165805913275146  0.4983838900729848
  0.2119168025339763  0.0905492766131830  0.5023105478084634
  0.7140374708864957  0.0912110931807644  0.5026383916333405
  0.2132104077837805  0.5905484230071776  0.5013453213966106
  0.7107718251035343  0.5926615368872706  0.4986532757059085
  0.1866268490216293  0.0011921444685719  0.6014816178654327
  0.0428816276172428  0.1017728072012686  0.4158562595805485
  0.2709287522977699  0.3025002713952691  0.5848592594940689
  0.1533234807938353  0.4003667239823737  0.4054021255718755
  0.3757219351971742  0.0925137166836170  0.5912751794177631
  0.2247502904344628  0.1952032408236137  0.4111402910702583
  0.4769032083504278  0.4009439018656571  0.5919234946740585
  0.3547119022500121  0.0038035123128562  0.4128174708680913
  0.0714591011280610  0.1968978950651885  0.5747174288533231
  0.4266300240471187  0.3023376306710924  0.4114181479056869
  0.6854896677173524  0.0026555659631579  0.6019756449548532
  0.5446846148533662  0.1019860833798330  0.4154869542782474
  0.7677519775765148  0.3040969763860328  0.5875830826459295
  0.6536443963759707  0.3950684520881533  0.4083137054728451
  0.8796863107361865  0.0916966303008080  0.5901312044755818
  0.7246480383204670  0.1961150430292903  0.4116296385845855
  0.9763978110437744  0.4039896889066451  0.5955435953248265
  0.8549417948528740  0.0057073333837179  0.4116990378408832
  0.5721428571325934  0.1938805268105282  0.5781298514483456
  0.9320404445682541  0.2998651395040555  0.4121065809220216
  0.1832409458989794  0.5032859562878426  0.6011318543959666
  0.0440085989461434  0.6021659974746986  0.4139436488600492
  0.2660303181859220  0.8020129889378429  0.5898710858084841
  0.1544813714169530  0.8963153930770165  0.4109221986606155
  0.3820876918141980  0.5897772577989311  0.5854918925890266
  0.2242982872373675  0.6967606191824918  0.4108604256997409
  0.4791584210378507  0.9033409140115232  0.5977986487326438
  0.3524998535679869  0.5057649636912017  0.4092268916896535
  0.0719778861392153  0.6940794851969595  0.5769853354082859
  0.4331034017191080  0.8001077497850693  0.4136106474233348
  0.6823426254720374  0.5021975067300667  0.5958246081032996
  0.5440468815017576  0.6046459245705926  0.4098711132960373
  0.7723098326436073  0.8019429505791321  0.5851519821942676
  0.6518073650246136  0.9015144652305265  0.4051821004392404
  0.8733165036734498  0.5923873933119985  0.5891624640920952
  0.7256290684632877  0.6982300274057746  0.4094480941642215
  0.9768277438555011  0.9022832210468054  0.5952157200482274
  0.8546903955911753  0.5053915014824747  0.4092868543297702
  0.5709986039285547  0.6971948888148071  0.5731426966379655
  0.9259027184369147  0.8031160485338960  0.4096138867262500
  0.4898589679885615  0.4187632070200252  0.6802483370526486
 
  0.00000000E+00  0.00000000E+00  0.00000000E+00
  0.00000000E+00  0.00000000E+00  0.00000000E+00
  0.00000000E+00  0.00000000E+00  0.00000000E+00
  0.00000000E+00  0.00000000E+00  0.00000000E+00
  0.00000000E+00  0.00000000E+00  0.00000000E+00
  0.00000000E+00  0.00000000E+00  0.00000000E+00
  0.00000000E+00  0.00000000E+00  0.00000000E+00
  0.00000000E+00  0.00000000E+00  0.00000000E+00
  0.00000000E+00  0.00000000E+00  0.00000000E+00
  0.00000000E+00  0.00000000E+00  0.00000000E+00
  0.00000000E+00  0.00000000E+00  0.00000000E+00
  0.00000000E+00  0.00000000E+00  0.00000000E+00
  0.00000000E+00  0.00000000E+00  0.00000000E+00
  0.00000000E+00  0.00000000E+00  0.00000000E+00
  0.00000000E+00  0.00000000E+00  0.00000000E+00
  0.00000000E+00  0.00000000E+00  0.00000000E+00
  0.00000000E+00  0.00000000E+00  0.00000000E+00
  0.00000000E+00  0.00000000E+00  0.00000000E+00
  0.00000000E+00  0.00000000E+00  0.00000000E+00
  0.00000000E+00  0.00000000E+00  0.00000000E+00
  0.00000000E+00  0.00000000E+00  0.00000000E+00
  0.00000000E+00  0.00000000E+00  0.00000000E+00
  0.00000000E+00  0.00000000E+00  0.00000000E+00
  0.00000000E+00  0.00000000E+00  0.00000000E+00
  0.00000000E+00  0.00000000E+00  0.00000000E+00
  0.00000000E+00  0.00000000E+00  0.00000000E+00
  0.00000000E+00  0.00000000E+00  0.00000000E+00
  0.00000000E+00  0.00000000E+00  0.00000000E+00
  0.00000000E+00  0.00000000E+00  0.00000000E+00
  0.00000000E+00  0.00000000E+00  0.00000000E+00
  0.00000000E+00  0.00000000E+00  0.00000000E+00
  0.00000000E+00  0.00000000E+00  0.00000000E+00
  0.00000000E+00  0.00000000E+00  0.00000000E+00
  0.00000000E+00  0.00000000E+00  0.00000000E+00
  0.00000000E+00  0.00000000E+00  0.00000000E+00
  0.00000000E+00  0.00000000E+00  0.00000000E+00
  0.00000000E+00  0.00000000E+00  0.00000000E+00
  0.00000000E+00  0.00000000E+00  0.00000000E+00
  0.00000000E+00  0.00000000E+00  0.00000000E+00
  0.00000000E+00  0.00000000E+00  0.00000000E+00
  0.00000000E+00  0.00000000E+00  0.00000000E+00
  0.00000000E+00  0.00000000E+00  0.00000000E+00
  0.00000000E+00  0.00000000E+00  0.00000000E+00
  0.00000000E+00  0.00000000E+00  0.00000000E+00
  0.00000000E+00  0.00000000E+00  0.00000000E+00
  0.00000000E+00  0.00000000E+00  0.00000000E+00
  0.00000000E+00  0.00000000E+00  0.00000000E+00
  0.00000000E+00  0.00000000E+00  0.00000000E+00
  0.00000000E+00  0.00000000E+00  0.00000000E+00
  0.00000000E+00  0.00000000E+00  0.00000000E+00
  0.00000000E+00  0.00000000E+00  0.00000000E+00
  0.00000000E+00  0.00000000E+00  0.00000000E+00
  0.00000000E+00  0.00000000E+00  0.00000000E+00
  0.00000000E+00  0.00000000E+00  0.00000000E+00
  0.00000000E+00  0.00000000E+00  0.00000000E+00
  0.00000000E+00  0.00000000E+00  0.00000000E+00
  0.00000000E+00  0.00000000E+00  0.00000000E+00
  0.00000000E+00  0.00000000E+00  0.00000000E+00
  0.00000000E+00  0.00000000E+00  0.00000000E+00
  0.00000000E+00  0.00000000E+00  0.00000000E+00
  0.00000000E+00  0.00000000E+00  0.00000000E+00
