CONTCAR\(12)                            
   1.00000000000000     
    14.3652000426999997    0.0000000000000000    0.0000000000000000
     7.1792291409000004   12.4398023524999992    0.0000000000000000
     0.0000000000000000    0.0000000000000000   17.6567993164000008
   Co   Te
    16    32
Direct
  0.0000000000000000  0.0000000000000000  0.5000000000000000
  0.2500000000000000  0.0000000000000000  0.5000000000000000
  0.5000000000000000  0.0000000000000000  0.5000000000000000
  0.7500000000000000  0.0000000000000000  0.5000000000000000
  0.0000000040000003  0.2499999959999997  0.5000000000000000
  0.2500000120000010  0.2499999959999997  0.5000000000000000
  0.5000000120000010  0.2499999959999997  0.5000000000000000
  0.7500000120000010  0.2499999959999997  0.5000000000000000
  0.0000000080000007  0.4999999930000030  0.5000000000000000
  0.2500000240000020  0.4999999930000030  0.5000000000000000
  0.5000000240000020  0.4999999930000030  0.5000000000000000
  0.7500000240000020  0.4999999930000030  0.5000000000000000
  0.0000000229999984  0.7499999509999995  0.5000000000000000
  0.2499999890000026  0.7499999509999995  0.5000000000000000
  0.5000000559999975  0.7499999509999995  0.5000000000000000
  0.7499999890000026  0.7499999509999995  0.5000000000000000
  0.1666499930000001  0.1666799839999982  0.5834700010000020
  0.0833499989999993  0.0833200020000007  0.4165399910000005
  0.4166499930000001  0.1666799839999982  0.5834700010000020
  0.3333500239999978  0.0833200020000007  0.4165399910000005
  0.6666500600000020  0.1666799839999982  0.5834700010000020
  0.5833499570000029  0.0833200020000007  0.4165399910000005
  0.9166500600000020  0.1666799839999982  0.5834700010000020
  0.8333499570000029  0.0833200020000007  0.4165399910000005
  0.1666499959999967  0.4166799999999995  0.5834700010000020
  0.0833500079999965  0.3333199890000031  0.4165399910000005
  0.4166499959999967  0.4166799999999995  0.5834700010000020
  0.3333500079999965  0.3333199890000031  0.4165399910000005
  0.6666500620000022  0.4166799999999995  0.5834700010000020
  0.5833499740000008  0.3333199890000031  0.4165399910000005
  0.9166499959999967  0.4166799999999995  0.5834700010000020
  0.8333499740000008  0.3333199890000031  0.4165399910000005
  0.1666499749999986  0.6666799959999992  0.5834700010000020
  0.0833500009999995  0.5833200240000025  0.4165399910000005
  0.4166500079999977  0.6666799959999992  0.5834700010000020
  0.3333499669999966  0.5833200240000025  0.4165399910000005
  0.6666500079999977  0.6666799959999992  0.5834700010000020
  0.5833499669999966  0.5833200240000025  0.4165399910000005
  0.9166500079999977  0.6666799959999992  0.5834700010000020
  0.8333499669999966  0.5833200240000025  0.4165399910000005
  0.1666499729999984  0.9166799540000028  0.5834700010000020
  0.0833500319999985  0.8333199819999990  0.4165399910000005
  0.4166500389999968  0.9166799540000028  0.5834700010000020
  0.3333499989999993  0.8333199819999990  0.4165399910000005
  0.6666499729999984  0.9166799540000028  0.5834700010000020
  0.5833499989999993  0.8333199819999990  0.4165399910000005
  0.9166500389999968  0.9166799540000028  0.5834700010000020
  0.8333499989999993  0.8333199819999990  0.4165399910000005
 
  0.00000000E+00  0.00000000E+00  0.00000000E+00
  0.00000000E+00  0.00000000E+00  0.00000000E+00
  0.00000000E+00  0.00000000E+00  0.00000000E+00
  0.00000000E+00  0.00000000E+00  0.00000000E+00
  0.00000000E+00  0.00000000E+00  0.00000000E+00
  0.00000000E+00  0.00000000E+00  0.00000000E+00
  0.00000000E+00  0.00000000E+00  0.00000000E+00
  0.00000000E+00  0.00000000E+00  0.00000000E+00
  0.00000000E+00  0.00000000E+00  0.00000000E+00
  0.00000000E+00  0.00000000E+00  0.00000000E+00
  0.00000000E+00  0.00000000E+00  0.00000000E+00
  0.00000000E+00  0.00000000E+00  0.00000000E+00
  0.00000000E+00  0.00000000E+00  0.00000000E+00
  0.00000000E+00  0.00000000E+00  0.00000000E+00
  0.00000000E+00  0.00000000E+00  0.00000000E+00
  0.00000000E+00  0.00000000E+00  0.00000000E+00
  0.00000000E+00  0.00000000E+00  0.00000000E+00
  0.00000000E+00  0.00000000E+00  0.00000000E+00
  0.00000000E+00  0.00000000E+00  0.00000000E+00
  0.00000000E+00  0.00000000E+00  0.00000000E+00
  0.00000000E+00  0.00000000E+00  0.00000000E+00
  0.00000000E+00  0.00000000E+00  0.00000000E+00
  0.00000000E+00  0.00000000E+00  0.00000000E+00
  0.00000000E+00  0.00000000E+00  0.00000000E+00
  0.00000000E+00  0.00000000E+00  0.00000000E+00
  0.00000000E+00  0.00000000E+00  0.00000000E+00
  0.00000000E+00  0.00000000E+00  0.00000000E+00
  0.00000000E+00  0.00000000E+00  0.00000000E+00
  0.00000000E+00  0.00000000E+00  0.00000000E+00
  0.00000000E+00  0.00000000E+00  0.00000000E+00
  0.00000000E+00  0.00000000E+00  0.00000000E+00
  0.00000000E+00  0.00000000E+00  0.00000000E+00
  0.00000000E+00  0.00000000E+00  0.00000000E+00
  0.00000000E+00  0.00000000E+00  0.00000000E+00
  0.00000000E+00  0.00000000E+00  0.00000000E+00
  0.00000000E+00  0.00000000E+00  0.00000000E+00
  0.00000000E+00  0.00000000E+00  0.00000000E+00
  0.00000000E+00  0.00000000E+00  0.00000000E+00
  0.00000000E+00  0.00000000E+00  0.00000000E+00
  0.00000000E+00  0.00000000E+00  0.00000000E+00
  0.00000000E+00  0.00000000E+00  0.00000000E+00
  0.00000000E+00  0.00000000E+00  0.00000000E+00
  0.00000000E+00  0.00000000E+00  0.00000000E+00
  0.00000000E+00  0.00000000E+00  0.00000000E+00
  0.00000000E+00  0.00000000E+00  0.00000000E+00
  0.00000000E+00  0.00000000E+00  0.00000000E+00
  0.00000000E+00  0.00000000E+00  0.00000000E+00
  0.00000000E+00  0.00000000E+00  0.00000000E+00
