CONTCAR                                 
   1.00000000000000     
    10.2439002990999999    0.0000000000000000    0.0000000000000000
    -5.1219302098000004    8.8769157374999992    0.0000000000000000
     0.0000000000000000    0.0000000000000000   20.8738994598000005
   Zr   Cl   O 
    18    18     1
Direct
  0.0558338069172374  0.1116509846599691  0.5571681629106526
  0.1668409308770498  0.0004161215638753  0.4433758527542687
  0.3891319152496594  0.1116230799426095  0.5571512191643261
  0.5001032173311826  0.0003950612963001  0.4433438658786411
  0.7219265137142361  0.1104261074479673  0.5570955303361400
  0.8336555940684527  0.0004053629709739  0.4433004867665226
  0.0569321317364089  0.4454549593526026  0.5571468712831780
  0.1668783126815012  0.3336464753277075  0.4432983225853240
  0.3893090685594341  0.4453151557082661  0.5573315384250064
  0.5001055645625725  0.3336985526308423  0.4433151133209746
  0.7218656284848791  0.4455554599083861  0.5571092631971089
  0.8335673463293223  0.3337645564014964  0.4438885296291890
  0.0557954713065483  0.7782424195759972  0.5571405585155101
  0.1668428931288304  0.6670867623805105  0.4433283991275885
  0.3893718046661289  0.7779570484849767  0.5573241452569301
  0.5002040072285668  0.6670088146680108  0.4432776152746187
  0.7220541757552846  0.7780602212428297  0.5572885808057935
  0.8336231040622273  0.6671376611229458  0.4432726505587452
  0.2781197812885255  0.2227920847429912  0.6405010345385838
  0.2779067887075685  0.2224635564704610  0.3596320893559108
  0.6112903081403661  0.2226938729933745  0.6403710925234205
  0.6117300034469931  0.2227769494377257  0.3599761365531952
  0.9447465077242873  0.2226806215190976  0.6404430844555979
  0.9443980638323446  0.2227695089722160  0.3599115956596678
  0.2796241261969399  0.5567766386953034  0.6394086695785296
  0.2778685630604678  0.5558229826074417  0.3596924750927077
  0.6104682736194198  0.5570259362285188  0.6393632475911175
  0.6112782451552125  0.5558718847281229  0.3596891542171705
  0.9447518403255356  0.5562172720491940  0.6404079556321889
  0.9444406406976750  0.5553877202205141  0.3598939789258831
  0.2781194053258126  0.8893711817717197  0.6404184935229990
  0.2779447335204638  0.8892214480892660  0.3597083882952703
  0.6106247929562918  0.8878369174585879  0.6393197609689080
  0.6112315908018424  0.8892677998340686  0.3597418044843196
  0.9447291097085212  0.8895003780799490  0.6404364785399682
  0.9447405191712104  0.8893326475990863  0.3596358328342572
  0.5015061166610073  0.6691960338160834  0.7339120364397702
 
  0.00000000E+00  0.00000000E+00  0.00000000E+00
  0.00000000E+00  0.00000000E+00  0.00000000E+00
  0.00000000E+00  0.00000000E+00  0.00000000E+00
  0.00000000E+00  0.00000000E+00  0.00000000E+00
  0.00000000E+00  0.00000000E+00  0.00000000E+00
  0.00000000E+00  0.00000000E+00  0.00000000E+00
  0.00000000E+00  0.00000000E+00  0.00000000E+00
  0.00000000E+00  0.00000000E+00  0.00000000E+00
  0.00000000E+00  0.00000000E+00  0.00000000E+00
  0.00000000E+00  0.00000000E+00  0.00000000E+00
  0.00000000E+00  0.00000000E+00  0.00000000E+00
  0.00000000E+00  0.00000000E+00  0.00000000E+00
  0.00000000E+00  0.00000000E+00  0.00000000E+00
  0.00000000E+00  0.00000000E+00  0.00000000E+00
  0.00000000E+00  0.00000000E+00  0.00000000E+00
  0.00000000E+00  0.00000000E+00  0.00000000E+00
  0.00000000E+00  0.00000000E+00  0.00000000E+00
  0.00000000E+00  0.00000000E+00  0.00000000E+00
  0.00000000E+00  0.00000000E+00  0.00000000E+00
  0.00000000E+00  0.00000000E+00  0.00000000E+00
  0.00000000E+00  0.00000000E+00  0.00000000E+00
  0.00000000E+00  0.00000000E+00  0.00000000E+00
  0.00000000E+00  0.00000000E+00  0.00000000E+00
  0.00000000E+00  0.00000000E+00  0.00000000E+00
  0.00000000E+00  0.00000000E+00  0.00000000E+00
  0.00000000E+00  0.00000000E+00  0.00000000E+00
  0.00000000E+00  0.00000000E+00  0.00000000E+00
  0.00000000E+00  0.00000000E+00  0.00000000E+00
  0.00000000E+00  0.00000000E+00  0.00000000E+00
  0.00000000E+00  0.00000000E+00  0.00000000E+00
  0.00000000E+00  0.00000000E+00  0.00000000E+00
  0.00000000E+00  0.00000000E+00  0.00000000E+00
  0.00000000E+00  0.00000000E+00  0.00000000E+00
  0.00000000E+00  0.00000000E+00  0.00000000E+00
  0.00000000E+00  0.00000000E+00  0.00000000E+00
  0.00000000E+00  0.00000000E+00  0.00000000E+00
  0.00000000E+00  0.00000000E+00  0.00000000E+00
