CONTCAR\(3)                             
   1.00000000000000     
    14.6440000533999992    0.0000000000000000    0.0000000000000000
     0.0000000000000000   14.6358003615999994    0.0000000000000000
     0.0000000000000000    0.0000000000000000   19.3710002898999996
   Pd   Se   O    H 
    18    18    55     1
Direct
  0.0044562744836369  0.1683450313045469  0.5029861839523733
  0.1718079733994458  0.0024340855121352  0.5020833521885777
  0.3375328519362810  0.1698911554397498  0.5002553029127483
  0.5067753076999963  0.0054776151302818  0.5006831252483366
  0.6706125015285309  0.1695519113444206  0.5021191553837738
  0.8384216410554615  0.0001424830900234  0.5019247157056412
  0.0036080993622036  0.4998025699947135  0.5009685865394644
  0.1694305182809046  0.3354577831906411  0.5010622380457974
  0.3345471862456577  0.5093970725923285  0.5002615925110376
  0.5034701883384898  0.3390323581346664  0.5025353642280521
  0.6708786141392480  0.5018893533748781  0.5025411860444748
  0.8374335011592109  0.3338823038041170  0.5031749986466494
  0.0071661750855085  0.8335043389938619  0.5023563468924905
  0.1781184867560697  0.6658181593605974  0.5001832157649986
  0.3402359955847629  0.8381034533689586  0.5008053650952391
  0.5069193259179841  0.6716113884315789  0.5009588187834595
  0.6738237513116587  0.8369632907993747  0.5009011030290296
  0.8375679223456984  0.6668097780598572  0.5008410793505718
  0.1719715745413879  0.1693565362519749  0.6170553156153105
  0.1706273263448779  0.1694153189620593  0.3859060714188445
  0.5026799099592836  0.1711425018908770  0.6167673441638328
  0.5058074820535552  0.1739618833730887  0.3857545333155983
  0.8358988262578819  0.1653932450842888  0.6182456475555540
  0.8380512031386331  0.1677146286389544  0.3874062076425844
  0.1494266174514323  0.4813538836244859  0.6377734094193102
  0.1706925784823241  0.5017900120839514  0.3844923846304411
  0.5011091301867197  0.5060861471107003  0.6172965012075764
  0.5046269024079777  0.5041943371171840  0.3869311130465860
  0.8376885776560314  0.5008319635843961  0.6175537756516647
  0.8372550842163378  0.4999626940342381  0.3862373745698378
  0.1742702632235620  0.8327939315634865  0.6170243767895798
  0.1726848816900883  0.8357786226304214  0.3868539376097218
  0.5068606567414307  0.8385804357753202  0.6160679563026363
  0.5080293004838836  0.8394208272385413  0.3852205031496467
  0.8393315091898685  0.8324380292120424  0.6169312343822426
  0.8418746586596342  0.8346743173658879  0.3859522340722421
  0.1485574182657956  0.2808332291063351  0.4059861067472426
  0.2818832379498915  0.1464911951912669  0.4059252441287100
  0.1140743213904756  0.1121485298543590  0.4577880162665409
  0.1937401651354449  0.0580130513440054  0.5968217461001615
  0.2257760144725864  0.2239948196516295  0.5431848226840543
  0.0603662636089055  0.1921338618297810  0.5975498782809510
  0.4823852288075159  0.2845690788448323  0.4073991221898865
  0.6166769731841342  0.1508972753380604  0.4065158476644299
  0.4490968305367318  0.1154610836679595  0.4567841394716794
  0.5265849890321235  0.0604082432206141  0.5959154613617486
  0.5612162719823601  0.2289018299759746  0.5460189586129616
  0.3920359212191897  0.1936055882996115  0.5949205486707640
  0.8152715760465981  0.2786040230357401  0.4083668665988256
  0.9488006729291811  0.1447969097966180  0.4085251542299915
  0.7801399350589051  0.1102214879722752  0.4585790707823421
  0.8590852731033820  0.0547068050275641  0.5969614214298815
  0.8937680400080836  0.2235457305928392  0.5473844373199199
  0.7251637929342749  0.1886977255997664  0.5973529334927150
  0.1495721348187331  0.6131702391557781  0.4046465841655618
  0.2819302518477613  0.4804133480032675  0.4047856440985385
  0.1164135386962002  0.4477556729670198  0.4588362028392083
  0.1900851340652991  0.3858250289123148  0.5965638659622243
  0.2290291547454117  0.5603235384781797  0.5410238149427045
  0.0544153251861914  0.5221077082566339  0.5960119515803228
  0.4833210573280553  0.6159121470824829  0.4065744725513767
  0.6155034057187194  0.4810512518628869  0.4075207885182763
  0.4478559315377666  0.4506673221723290  0.4602590269872024
  0.5221242177934116  0.3941419943930455  0.5974963835585285
  0.5622042561654084  0.5616838463554643  0.5463141048338116
  0.3916093900280089  0.5322526182728353  0.5958937240395485
  0.8143515192774160  0.6112226026519707  0.4063944740342436
  0.9486612311159277  0.4779400067559649  0.4061518569378464
  0.7799803964290319  0.4430291414031089  0.4580598685069788
  0.8607569102256036  0.3892752013913423  0.5979708597715074
  0.8915239633364536  0.5545802844322054  0.5433300033957380
  0.7262610938692973  0.5222400098410631  0.5975292893426811
  0.1493884284112852  0.9466559159185337  0.4074156460474896
  0.2843192736107341  0.8143828136068834  0.4065285906854470
  0.1191278325358596  0.7788177446992108  0.4600662736097973
  0.2001005716496209  0.7230361273990127  0.5959702089669250
  0.2301747655387700  0.8931922268747670  0.5458557861368831
  0.0625702888978950  0.8542156091705735  0.5969672001793143
  0.4853530198550899  0.9504503792901104  0.4058935819654010
  0.6190181776457564  0.8165538132962098  0.4058370313875983
  0.4512905569015473  0.7826239638970449  0.4569234743207033
  0.5298992883784095  0.7276710196568814  0.5953344787275086
  0.5646781350307677  0.8958998792958042  0.5446948972707304
  0.3961859287824012  0.8618004577851153  0.5950231648570892
  0.8190623074694798  0.9457525894425558  0.4064994661801578
  0.9523956369841500  0.8111516835953267  0.4075409299466202
  0.7833570044212763  0.7783436194203333  0.4572063275335978
  0.8615788480517921  0.7216044123964238  0.5953501577068465
  0.8965860974930209  0.8902654062772299  0.5456768882638912
  0.7285590726592730  0.8562278311802132  0.5962721301189475
  0.0896096975408440  0.4221081878554784  0.7084769375157691
  0.0474804179760753  0.3789004797364726  0.6862524826141865
 
  0.00000000E+00  0.00000000E+00  0.00000000E+00
  0.00000000E+00  0.00000000E+00  0.00000000E+00
  0.00000000E+00  0.00000000E+00  0.00000000E+00
  0.00000000E+00  0.00000000E+00  0.00000000E+00
  0.00000000E+00  0.00000000E+00  0.00000000E+00
  0.00000000E+00  0.00000000E+00  0.00000000E+00
  0.00000000E+00  0.00000000E+00  0.00000000E+00
  0.00000000E+00  0.00000000E+00  0.00000000E+00
  0.00000000E+00  0.00000000E+00  0.00000000E+00
  0.00000000E+00  0.00000000E+00  0.00000000E+00
  0.00000000E+00  0.00000000E+00  0.00000000E+00
  0.00000000E+00  0.00000000E+00  0.00000000E+00
  0.00000000E+00  0.00000000E+00  0.00000000E+00
  0.00000000E+00  0.00000000E+00  0.00000000E+00
  0.00000000E+00  0.00000000E+00  0.00000000E+00
  0.00000000E+00  0.00000000E+00  0.00000000E+00
  0.00000000E+00  0.00000000E+00  0.00000000E+00
  0.00000000E+00  0.00000000E+00  0.00000000E+00
  0.00000000E+00  0.00000000E+00  0.00000000E+00
  0.00000000E+00  0.00000000E+00  0.00000000E+00
  0.00000000E+00  0.00000000E+00  0.00000000E+00
  0.00000000E+00  0.00000000E+00  0.00000000E+00
  0.00000000E+00  0.00000000E+00  0.00000000E+00
  0.00000000E+00  0.00000000E+00  0.00000000E+00
  0.00000000E+00  0.00000000E+00  0.00000000E+00
  0.00000000E+00  0.00000000E+00  0.00000000E+00
  0.00000000E+00  0.00000000E+00  0.00000000E+00
  0.00000000E+00  0.00000000E+00  0.00000000E+00
  0.00000000E+00  0.00000000E+00  0.00000000E+00
  0.00000000E+00  0.00000000E+00  0.00000000E+00
  0.00000000E+00  0.00000000E+00  0.00000000E+00
  0.00000000E+00  0.00000000E+00  0.00000000E+00
  0.00000000E+00  0.00000000E+00  0.00000000E+00
  0.00000000E+00  0.00000000E+00  0.00000000E+00
  0.00000000E+00  0.00000000E+00  0.00000000E+00
  0.00000000E+00  0.00000000E+00  0.00000000E+00
  0.00000000E+00  0.00000000E+00  0.00000000E+00
  0.00000000E+00  0.00000000E+00  0.00000000E+00
  0.00000000E+00  0.00000000E+00  0.00000000E+00
  0.00000000E+00  0.00000000E+00  0.00000000E+00
  0.00000000E+00  0.00000000E+00  0.00000000E+00
  0.00000000E+00  0.00000000E+00  0.00000000E+00
  0.00000000E+00  0.00000000E+00  0.00000000E+00
  0.00000000E+00  0.00000000E+00  0.00000000E+00
  0.00000000E+00  0.00000000E+00  0.00000000E+00
  0.00000000E+00  0.00000000E+00  0.00000000E+00
  0.00000000E+00  0.00000000E+00  0.00000000E+00
  0.00000000E+00  0.00000000E+00  0.00000000E+00
  0.00000000E+00  0.00000000E+00  0.00000000E+00
  0.00000000E+00  0.00000000E+00  0.00000000E+00
  0.00000000E+00  0.00000000E+00  0.00000000E+00
  0.00000000E+00  0.00000000E+00  0.00000000E+00
  0.00000000E+00  0.00000000E+00  0.00000000E+00
  0.00000000E+00  0.00000000E+00  0.00000000E+00
  0.00000000E+00  0.00000000E+00  0.00000000E+00
  0.00000000E+00  0.00000000E+00  0.00000000E+00
  0.00000000E+00  0.00000000E+00  0.00000000E+00
  0.00000000E+00  0.00000000E+00  0.00000000E+00
  0.00000000E+00  0.00000000E+00  0.00000000E+00
  0.00000000E+00  0.00000000E+00  0.00000000E+00
  0.00000000E+00  0.00000000E+00  0.00000000E+00
  0.00000000E+00  0.00000000E+00  0.00000000E+00
  0.00000000E+00  0.00000000E+00  0.00000000E+00
  0.00000000E+00  0.00000000E+00  0.00000000E+00
  0.00000000E+00  0.00000000E+00  0.00000000E+00
  0.00000000E+00  0.00000000E+00  0.00000000E+00
  0.00000000E+00  0.00000000E+00  0.00000000E+00
  0.00000000E+00  0.00000000E+00  0.00000000E+00
  0.00000000E+00  0.00000000E+00  0.00000000E+00
  0.00000000E+00  0.00000000E+00  0.00000000E+00
  0.00000000E+00  0.00000000E+00  0.00000000E+00
  0.00000000E+00  0.00000000E+00  0.00000000E+00
  0.00000000E+00  0.00000000E+00  0.00000000E+00
  0.00000000E+00  0.00000000E+00  0.00000000E+00
  0.00000000E+00  0.00000000E+00  0.00000000E+00
  0.00000000E+00  0.00000000E+00  0.00000000E+00
  0.00000000E+00  0.00000000E+00  0.00000000E+00
  0.00000000E+00  0.00000000E+00  0.00000000E+00
  0.00000000E+00  0.00000000E+00  0.00000000E+00
  0.00000000E+00  0.00000000E+00  0.00000000E+00
  0.00000000E+00  0.00000000E+00  0.00000000E+00
  0.00000000E+00  0.00000000E+00  0.00000000E+00
  0.00000000E+00  0.00000000E+00  0.00000000E+00
  0.00000000E+00  0.00000000E+00  0.00000000E+00
  0.00000000E+00  0.00000000E+00  0.00000000E+00
  0.00000000E+00  0.00000000E+00  0.00000000E+00
  0.00000000E+00  0.00000000E+00  0.00000000E+00
  0.00000000E+00  0.00000000E+00  0.00000000E+00
  0.00000000E+00  0.00000000E+00  0.00000000E+00
  0.00000000E+00  0.00000000E+00  0.00000000E+00
  0.00000000E+00  0.00000000E+00  0.00000000E+00
  0.00000000E+00  0.00000000E+00  0.00000000E+00
