CONTCAR\(10)                            
   1.00000000000000     
    12.0853004455999997    0.0000000000000000    0.0000000000000000
     0.0000000000000000   13.7131004332999993    0.0000000000000000
     0.0000000000000000    0.0000000000000000   20.3784999846999995
   Zr   Te   O    H 
     6    30     2     1
Selective dynamics
Direct
  0.0034486725592799  0.4942368705020144  0.4454702103173815   F   F   F
  0.1689021899822549  0.9940180705098243  0.5467381087006444   F   F   F
  0.3401667540286795  0.4941589296551783  0.4450254551831563   F   F   F
  0.5021502681863836  0.9935612794738162  0.5484191269514795   F   F   F
  0.6673803540968919  0.4947040338679045  0.4445654495957214   F   F   F
  0.8352473499331765  0.9941471687246946  0.5465998369100973   F   F   F
  0.1701800137934484  0.4948239248944617  0.5558986509541270   F   F   F
  0.0028013417638491  0.9941115244372156  0.4364339170927281   F   F   F
  0.1708662216274064  0.5953552708152756  0.3632190399416757   F   F   F
  0.0019815999423471  0.8925529213039951  0.6287583124999756   F   F   F
  0.0016011063825019  0.0948369842279035  0.6292580047258838   F   F   F
  0.1708154153013481  0.3934062614444045  0.3626683913290094   F   F   F
  0.0019557554907337  0.3114806085636275  0.5250032141529459   F   F   F
  0.1687178497842794  0.1779838049143976  0.4685071297457597   F   F   F
  0.1697895875418709  0.8106073659674777  0.4677653877368115   F   F   F
  0.0031742273216651  0.6767616855643794  0.5245245334828397   F   F   F
  0.5037047591943491  0.4939135443548395  0.5574638332505941   F   F   F
  0.3366742557891342  0.9949455686012456  0.4370901600306709   F   F   F
  0.5028707093614813  0.5979401502479007  0.3662732418756605   F   F   F
  0.3346531026954054  0.8919919473021451  0.6294434241973477   F   F   F
  0.3344052865364731  0.0946078981363172  0.6300054854504964   F   F   F
  0.5018267196067328  0.3839010695804106  0.3668567324715681   F   F   F
  0.3359704598180144  0.3121289392375530  0.5254051515942848   F   F   F
  0.5008777986720290  0.1754490689776915  0.4697064479144260   F   F   F
  0.5029379765569857  0.8112785130858242  0.4690754176259517   F   F   F
  0.3371154795826996  0.6770430528606184  0.5253146499205315   F   F   F
  0.8369501807049744  0.4953098665432307  0.5557702059583391   F   F   F
  0.6682111460761817  0.9948486451874103  0.4370144643446210   F   F   F
  0.8364737291838296  0.5956152529598668  0.3631588783895481   F   F   F
  0.6695361829241548  0.8923424525327945  0.6294031098322321   F   F   F
  0.6690412050429586  0.0949516972818572  0.6298580141696775   F   F   F
  0.8364940294357979  0.3939420607363715  0.3626067864083211   F   F   F
  0.6677615270613231  0.3122706120665555  0.5240791726816951   F   F   F
  0.8352081429152349  0.1778541555914401  0.4681615454610437   F   F   F
  0.8361392636067535  0.8108843999845519  0.4675938983700121   F   F   F
  0.6699261619249270  0.6769644958309087  0.5250773077222135   F   F   F
  0.4842818517867329  0.4017812743560398  0.2587337926228557   T   T   T
  0.4582274440027376  0.4964094941662509  0.2334135412313074   T   T   T
  0.3767838537849783  0.4954190825115532  0.2320940232782747   T   T   T
 
  0.00000000E+00  0.00000000E+00  0.00000000E+00
  0.00000000E+00  0.00000000E+00  0.00000000E+00
  0.00000000E+00  0.00000000E+00  0.00000000E+00
  0.00000000E+00  0.00000000E+00  0.00000000E+00
  0.00000000E+00  0.00000000E+00  0.00000000E+00
  0.00000000E+00  0.00000000E+00  0.00000000E+00
  0.00000000E+00  0.00000000E+00  0.00000000E+00
  0.00000000E+00  0.00000000E+00  0.00000000E+00
  0.00000000E+00  0.00000000E+00  0.00000000E+00
  0.00000000E+00  0.00000000E+00  0.00000000E+00
  0.00000000E+00  0.00000000E+00  0.00000000E+00
  0.00000000E+00  0.00000000E+00  0.00000000E+00
  0.00000000E+00  0.00000000E+00  0.00000000E+00
  0.00000000E+00  0.00000000E+00  0.00000000E+00
  0.00000000E+00  0.00000000E+00  0.00000000E+00
  0.00000000E+00  0.00000000E+00  0.00000000E+00
  0.00000000E+00  0.00000000E+00  0.00000000E+00
  0.00000000E+00  0.00000000E+00  0.00000000E+00
  0.00000000E+00  0.00000000E+00  0.00000000E+00
  0.00000000E+00  0.00000000E+00  0.00000000E+00
  0.00000000E+00  0.00000000E+00  0.00000000E+00
  0.00000000E+00  0.00000000E+00  0.00000000E+00
  0.00000000E+00  0.00000000E+00  0.00000000E+00
  0.00000000E+00  0.00000000E+00  0.00000000E+00
  0.00000000E+00  0.00000000E+00  0.00000000E+00
  0.00000000E+00  0.00000000E+00  0.00000000E+00
  0.00000000E+00  0.00000000E+00  0.00000000E+00
  0.00000000E+00  0.00000000E+00  0.00000000E+00
  0.00000000E+00  0.00000000E+00  0.00000000E+00
  0.00000000E+00  0.00000000E+00  0.00000000E+00
  0.00000000E+00  0.00000000E+00  0.00000000E+00
  0.00000000E+00  0.00000000E+00  0.00000000E+00
  0.00000000E+00  0.00000000E+00  0.00000000E+00
  0.00000000E+00  0.00000000E+00  0.00000000E+00
  0.00000000E+00  0.00000000E+00  0.00000000E+00
  0.00000000E+00  0.00000000E+00  0.00000000E+00
  0.00000000E+00  0.00000000E+00  0.00000000E+00
  0.00000000E+00  0.00000000E+00  0.00000000E+00
  0.00000000E+00  0.00000000E+00  0.00000000E+00
