CONTCAR\(4)                             
   1.00000000000000     
    12.5853996276999993    0.0000000000000000    0.0000000000000000
     0.0000000000000000   10.3535003662000005    0.0000000000000000
     0.0000000000000000    0.0000000000000000   22.0041007995999998
   Cu   O    F    H 
    36    14    60     1
Selective dynamics
Direct
  0.0041946632437018  0.2195265695931923  0.3637462807265379   F   F   F
  0.1700355052198219  0.4770468945275752  0.3638899549857726   F   F   F
  0.9993644078121946  0.0238314946625309  0.6385592373406652   F   F   F
  0.1639813654157152  0.2813260634397636  0.6403851827802711   F   F   F
  0.1465456908000462  0.1313345718737935  0.4856993705539594   F   F   F
  0.3120423654268620  0.3702689805561548  0.5221501558765738   F   F   F
  0.3336114213942594  0.2184982078973761  0.3626554572030116   F   F   F
  0.5002346081050177  0.4772384256522386  0.3631666424649751   F   F   F
  0.3374860507512736  0.0249093266114144  0.6407589024069438   F   F   F
  0.5090473713062664  0.2803092882268814  0.6397382355256340   F   F   F
  0.4760006175932716  0.1320284859840584  0.4846802514987516   F   F   F
  0.6435094623460316  0.3705493063404646  0.5165148420865151   F   F   F
  0.6666543168540144  0.2191360859919556  0.3615740199758903   F   F   F
  0.8363966741590261  0.4779076726382385  0.3620030299325521   F   F   F
  0.6719791436105069  0.0230757385591573  0.6390624663861146   F   F   F
  0.8341845327250113  0.2822670257520414  0.6383219775462194   F   F   F
  0.8101950701267953  0.1307425909748048  0.4829699636578439   F   F   F
  0.9786172257918508  0.3714905896882996  0.5152539230332138   F   F   F
  0.0042584971579274  0.7190509292510967  0.3642523321929261   F   F   F
  0.1699875163746398  0.9770132845773247  0.3631267665672127   F   F   F
  0.9979379884264219  0.5247475720000097  0.6376065351624902   F   F   F
  0.1648210014750831  0.7847862722096934  0.6389096726558492   F   F   F
  0.1481095142927060  0.6302980766574251  0.4868414528987586   F   F   F
  0.3120913952392215  0.8730438815754979  0.5188574985021432   F   F   F
  0.3343205855132751  0.7183897018298993  0.3636685627248397   F   F   F
  0.5008861406246936  0.9772108697919180  0.3624385657056877   F   F   F
  0.3325084089626884  0.5260219655275051  0.6424347422932186   F   F   F
  0.5060900081438930  0.7830791110828130  0.6386785709944505   F   F   F
  0.4738458421868117  0.6286971644633610  0.4871886951008548   F   F   F
  0.6448335507061387  0.8714064921300846  0.5151427482941031   F   F   F
  0.6666721300552325  0.7188039762625564  0.3625056349150739   F   F   F
  0.8365925388041262  0.9777790902758028  0.3613847904462233   F   F   F
  0.6729825672380301  0.5239075119720553  0.6393608299889593   F   F   F
  0.8351978273140688  0.7827316179771415  0.6381852301631312   F   F   F
  0.8106688482121456  0.6303900170594758  0.4839457989126359   F   F   F
  0.9778234156973653  0.8730055507173873  0.5149103653278431   F   F   F
  0.2744117749247224  0.3768484666448515  0.6093398168909587   F   F   F
  0.1102337667260116  0.1224411553315505  0.3982264255161283   F   F   F
  0.6140438431222250  0.3776728430045821  0.6042632199429718   F   F   F
  0.4394154712593803  0.1217614500579103  0.3975822386511609   F   F   F
  0.9374423225635127  0.3802859179813041  0.6019662024939123   F   F   F
  0.7735735711862688  0.1225633503681607  0.3955505977005629   F   F   F
  0.2734558484141587  0.8811375846588163  0.6061112929478583   F   F   F
  0.1101858127308617  0.6219624439982212  0.3992974810971219   F   F   F
  0.6123003892080234  0.8781762064265095  0.6037244648941567   F   F   F
  0.4391868578512899  0.6211586996102056  0.3993194514338754   F   F   F
  0.9399580600798814  0.8795423404128542  0.6025423142746504   F   F   F
  0.7732814185681463  0.6220450614358271  0.3966058060990179   F   F   F
  0.2746252218837881  0.5072399157901515  0.7359438838538210   T   T   T
  0.3455198222272955  0.4519606013403674  0.7723346102110611   T   T   T
  0.2775889557483353  0.0736492363996959  0.3225992795157069   F   F   F
  0.0560111047343028  0.1760527764953181  0.6759362783238458   F   F   F
  0.2265335310235699  0.3245908070564028  0.3261745824721558   F   F   F
  0.1017449904675090  0.4252484058683592  0.6780111480057442   F   F   F
  0.2257898091906014  0.1290335064879571  0.6104846545416009   F   F   F
  0.0534342028724168  0.0328540035176559  0.5358245081234898   F   F   F
  0.1069532472109032  0.2779597922739327  0.5369654466015064   F   F   F
  0.2260474450245766  0.4716578199371995  0.4689136616179539   F   F   F
  0.2760692613514450  0.2255740270134581  0.4685843449453628   F   F   F
  0.0625733339565286  0.3717373250510505  0.3977699541448843   F   F   F
  0.6088302455244872  0.0743893679231249  0.3223880739398339   F   F   F
  0.3991500011805158  0.1781355396085829  0.6766171472018598   F   F   F
  0.5589573548188440  0.3254747672432217  0.3258266897576618   F   F   F
  0.4659145065775192  0.4256733333021288  0.6862413815957851   F   F   F
  0.5629506709973526  0.1264322933019884  0.6060992703400103   F   F   F
  0.3876061614438200  0.0333626066515720  0.5378161850539982   F   F   F
  0.4426484318628567  0.2768912659567278  0.5391760863516879   F   F   F
  0.5475245459773035  0.4681425224676516  0.4677752170852756   F   F   F
  0.6049343074525382  0.2253309667785359  0.4639826332015815   F   F   F
  0.3912811989292138  0.3714772731743352  0.3948316116852837   F   F   F
  0.9471519681496474  0.0753367239363172  0.3234843871138864   F   F   F
  0.7284865249148211  0.1761572175574670  0.6762669689939997   F   F   F
  0.8984858788674472  0.3262274548876292  0.3265818760317956   F   F   F
  0.7810760245900070  0.4271232132781435  0.6796620093052184   F   F   F
  0.8908595926937508  0.1292455618201984  0.6053636293712188   F   F   F
  0.7201866991106058  0.0317284318761608  0.5346576435769279   F   F   F
  0.7730197621656174  0.2772742650272804  0.5339529449794824   F   F   F
  0.8866702896560241  0.4697555913307170  0.4643280120818716   F   F   F
  0.9403556386556176  0.2236378590557848  0.4647779722981724   F   F   F
  0.7258132026957469  0.3724505071745483  0.3927950544577286   F   F   F
  0.2781117311595551  0.5734925230382402  0.3237647278052833   F   F   F
  0.0568864863147027  0.6771202879653089  0.6743148263008649   F   F   F
  0.2276522496861020  0.8240627237964731  0.3265070790805709   F   F   F
  0.1075863448156653  0.9276601628855161  0.6791016905729208   F   F   F
  0.2229463771966493  0.6355263607502550  0.6056927939301247   F   F   F
  0.0533318971037318  0.5319996794160033  0.5357695555145128   F   F   F
  0.1059221340951595  0.7799872280461884  0.5347874735842311   F   F   F
  0.2228872204580696  0.9709568637986692  0.4663159899865477   F   F   F
  0.2767450381889560  0.7241983479098622  0.4682297297625766   F   F   F
  0.0621459672701619  0.8720500416209163  0.3970481263794099   F   F   F
  0.6084301469897611  0.5741961843177990  0.3235626047991360   F   F   F
  0.4000852128857915  0.6788803752184478  0.6752568892605524   F   F   F
  0.5596114724924277  0.8247561355926578  0.3259098509309197   F   F   F
  0.4492242911417819  0.9283853238955402  0.6780097629213557   F   F   F
  0.5639897429200360  0.6292051894729553  0.6073266267422497   F   F   F
  0.3891846258697953  0.5310088142031191  0.5458225206793870   F   F   F
  0.4408111040078211  0.7781201506195714  0.5379202783904304   F   F   F
  0.5526664573893498  0.9702643953800489  0.4650629933259935   F   F   F
  0.6046987720195673  0.7236980452438289  0.4656985381228012   F   F   F
  0.3924027544228892  0.8717243554345160  0.3952805402528057   F   F   F
  0.9471749845591688  0.5748514404623748  0.3242235393250255   F   F   F
  0.7306720041214945  0.6762978459611588  0.6766019508347583   F   F   F
  0.8986320982328948  0.8255402291731500  0.3264498054525262   F   F   F
  0.7808778371913121  0.9275012520266515  0.6790534263016710   F   F   F
  0.8905978335283251  0.6299710140811072  0.6040532213952758   F   F   F
  0.7195603570753022  0.5318671253273237  0.5346342619074633   F   F   F
  0.7734457409340223  0.7781160698115244  0.5345961704764690   F   F   F
  0.8864079311673123  0.9706134941692994  0.4637034108698472   F   F   F
  0.9391347644449652  0.7247159969991728  0.4645778979955324   F   F   F
  0.7264395102005494  0.8721136354895194  0.3930042046852407   F   F   F
  0.4072653774210124  0.4273272900473943  0.7417632057482927   T   T   T
 
  0.00000000E+00  0.00000000E+00  0.00000000E+00
  0.00000000E+00  0.00000000E+00  0.00000000E+00
  0.00000000E+00  0.00000000E+00  0.00000000E+00
  0.00000000E+00  0.00000000E+00  0.00000000E+00
  0.00000000E+00  0.00000000E+00  0.00000000E+00
  0.00000000E+00  0.00000000E+00  0.00000000E+00
  0.00000000E+00  0.00000000E+00  0.00000000E+00
  0.00000000E+00  0.00000000E+00  0.00000000E+00
  0.00000000E+00  0.00000000E+00  0.00000000E+00
  0.00000000E+00  0.00000000E+00  0.00000000E+00
  0.00000000E+00  0.00000000E+00  0.00000000E+00
  0.00000000E+00  0.00000000E+00  0.00000000E+00
  0.00000000E+00  0.00000000E+00  0.00000000E+00
  0.00000000E+00  0.00000000E+00  0.00000000E+00
  0.00000000E+00  0.00000000E+00  0.00000000E+00
  0.00000000E+00  0.00000000E+00  0.00000000E+00
  0.00000000E+00  0.00000000E+00  0.00000000E+00
  0.00000000E+00  0.00000000E+00  0.00000000E+00
  0.00000000E+00  0.00000000E+00  0.00000000E+00
  0.00000000E+00  0.00000000E+00  0.00000000E+00
  0.00000000E+00  0.00000000E+00  0.00000000E+00
  0.00000000E+00  0.00000000E+00  0.00000000E+00
  0.00000000E+00  0.00000000E+00  0.00000000E+00
  0.00000000E+00  0.00000000E+00  0.00000000E+00
  0.00000000E+00  0.00000000E+00  0.00000000E+00
  0.00000000E+00  0.00000000E+00  0.00000000E+00
  0.00000000E+00  0.00000000E+00  0.00000000E+00
  0.00000000E+00  0.00000000E+00  0.00000000E+00
  0.00000000E+00  0.00000000E+00  0.00000000E+00
  0.00000000E+00  0.00000000E+00  0.00000000E+00
  0.00000000E+00  0.00000000E+00  0.00000000E+00
  0.00000000E+00  0.00000000E+00  0.00000000E+00
  0.00000000E+00  0.00000000E+00  0.00000000E+00
  0.00000000E+00  0.00000000E+00  0.00000000E+00
  0.00000000E+00  0.00000000E+00  0.00000000E+00
  0.00000000E+00  0.00000000E+00  0.00000000E+00
  0.00000000E+00  0.00000000E+00  0.00000000E+00
  0.00000000E+00  0.00000000E+00  0.00000000E+00
  0.00000000E+00  0.00000000E+00  0.00000000E+00
  0.00000000E+00  0.00000000E+00  0.00000000E+00
  0.00000000E+00  0.00000000E+00  0.00000000E+00
  0.00000000E+00  0.00000000E+00  0.00000000E+00
  0.00000000E+00  0.00000000E+00  0.00000000E+00
  0.00000000E+00  0.00000000E+00  0.00000000E+00
  0.00000000E+00  0.00000000E+00  0.00000000E+00
  0.00000000E+00  0.00000000E+00  0.00000000E+00
  0.00000000E+00  0.00000000E+00  0.00000000E+00
  0.00000000E+00  0.00000000E+00  0.00000000E+00
  0.00000000E+00  0.00000000E+00  0.00000000E+00
  0.00000000E+00  0.00000000E+00  0.00000000E+00
  0.00000000E+00  0.00000000E+00  0.00000000E+00
  0.00000000E+00  0.00000000E+00  0.00000000E+00
  0.00000000E+00  0.00000000E+00  0.00000000E+00
  0.00000000E+00  0.00000000E+00  0.00000000E+00
  0.00000000E+00  0.00000000E+00  0.00000000E+00
  0.00000000E+00  0.00000000E+00  0.00000000E+00
  0.00000000E+00  0.00000000E+00  0.00000000E+00
  0.00000000E+00  0.00000000E+00  0.00000000E+00
  0.00000000E+00  0.00000000E+00  0.00000000E+00
  0.00000000E+00  0.00000000E+00  0.00000000E+00
  0.00000000E+00  0.00000000E+00  0.00000000E+00
  0.00000000E+00  0.00000000E+00  0.00000000E+00
  0.00000000E+00  0.00000000E+00  0.00000000E+00
  0.00000000E+00  0.00000000E+00  0.00000000E+00
  0.00000000E+00  0.00000000E+00  0.00000000E+00
  0.00000000E+00  0.00000000E+00  0.00000000E+00
  0.00000000E+00  0.00000000E+00  0.00000000E+00
  0.00000000E+00  0.00000000E+00  0.00000000E+00
  0.00000000E+00  0.00000000E+00  0.00000000E+00
  0.00000000E+00  0.00000000E+00  0.00000000E+00
  0.00000000E+00  0.00000000E+00  0.00000000E+00
  0.00000000E+00  0.00000000E+00  0.00000000E+00
  0.00000000E+00  0.00000000E+00  0.00000000E+00
  0.00000000E+00  0.00000000E+00  0.00000000E+00
  0.00000000E+00  0.00000000E+00  0.00000000E+00
  0.00000000E+00  0.00000000E+00  0.00000000E+00
  0.00000000E+00  0.00000000E+00  0.00000000E+00
  0.00000000E+00  0.00000000E+00  0.00000000E+00
  0.00000000E+00  0.00000000E+00  0.00000000E+00
  0.00000000E+00  0.00000000E+00  0.00000000E+00
  0.00000000E+00  0.00000000E+00  0.00000000E+00
  0.00000000E+00  0.00000000E+00  0.00000000E+00
  0.00000000E+00  0.00000000E+00  0.00000000E+00
  0.00000000E+00  0.00000000E+00  0.00000000E+00
  0.00000000E+00  0.00000000E+00  0.00000000E+00
  0.00000000E+00  0.00000000E+00  0.00000000E+00
  0.00000000E+00  0.00000000E+00  0.00000000E+00
  0.00000000E+00  0.00000000E+00  0.00000000E+00
  0.00000000E+00  0.00000000E+00  0.00000000E+00
  0.00000000E+00  0.00000000E+00  0.00000000E+00
  0.00000000E+00  0.00000000E+00  0.00000000E+00
  0.00000000E+00  0.00000000E+00  0.00000000E+00
  0.00000000E+00  0.00000000E+00  0.00000000E+00
  0.00000000E+00  0.00000000E+00  0.00000000E+00
  0.00000000E+00  0.00000000E+00  0.00000000E+00
  0.00000000E+00  0.00000000E+00  0.00000000E+00
  0.00000000E+00  0.00000000E+00  0.00000000E+00
  0.00000000E+00  0.00000000E+00  0.00000000E+00
  0.00000000E+00  0.00000000E+00  0.00000000E+00
  0.00000000E+00  0.00000000E+00  0.00000000E+00
  0.00000000E+00  0.00000000E+00  0.00000000E+00
  0.00000000E+00  0.00000000E+00  0.00000000E+00
  0.00000000E+00  0.00000000E+00  0.00000000E+00
  0.00000000E+00  0.00000000E+00  0.00000000E+00
  0.00000000E+00  0.00000000E+00  0.00000000E+00
  0.00000000E+00  0.00000000E+00  0.00000000E+00
  0.00000000E+00  0.00000000E+00  0.00000000E+00
  0.00000000E+00  0.00000000E+00  0.00000000E+00
  0.00000000E+00  0.00000000E+00  0.00000000E+00
  0.00000000E+00  0.00000000E+00  0.00000000E+00
  0.00000000E+00  0.00000000E+00  0.00000000E+00
