CONTCAR\(6)                             
   1.00000000000000     
    13.7857999802000002    0.0000000000000000    0.0000000000000000
    -6.8928999901000001   11.9388529942999995    0.0000000000000000
     0.0000000000000000    0.0000000000000000   18.1305007935000013
   Ru   Se   H 
    16    32     1
Direct
  0.1608632746990163  0.0535507290220461  0.4986768743593947
  0.3926634893842113  0.0535283488115510  0.4986724340341736
  0.6891985943727255  0.0946826817842172  0.5000209428032018
  0.9054923328237032  0.0947138140591309  0.5000191603385157
  0.2103184013467451  0.3549146144392915  0.5025410064825306
  0.4162130210545602  0.3324172235964371  0.5041974772888049
  0.6445797195205818  0.3548906657884524  0.5025336059300352
  0.9052579305274452  0.3104912653989402  0.4999765435145967
  0.1600537589198545  0.6060472220743771  0.4988185011732507
  0.4165960127658218  0.5835717257567002  0.5032490446716604
  0.6669690003081687  0.5835542736590573  0.5032373626212070
  0.9460156292029308  0.6059874318373214  0.4988142968629737
  0.1663521765644090  0.8327424694056538  0.4972672007407142
  0.3934002537429644  0.8397760706829202  0.4985825042767406
  0.6449202914382587  0.7898613631506609  0.5021192573641720
  0.9463633225999506  0.8398380682882282  0.4985867899009412
 -0.0085672340281598  0.0090121631796817  0.5763763022158079
 -0.0092816528304251  0.0096894684710223  0.4217017702303750
  0.2441913074965055 -0.0115986209430602  0.5910877088314268
  0.2449250190309294 -0.0101095998098914  0.4055641284567873
  0.5175431290439391  0.0089807760851935  0.5763641574741457
  0.5189461840395901  0.0096584553417457  0.4217073524364130
  0.7367191616781897 -0.0265730694453892  0.5784186101592188
  0.7361755962894941 -0.0276503670260405  0.4236486716349356
  0.0265530051268049  0.2633729351887291  0.5784704427706407
  0.0277312552262807  0.2637215357352705  0.4236247154184423
  0.2442049989666666  0.2264151514926051  0.5815683900305278
  0.2481721736716477  0.2316161957128264  0.4220219271650116
  0.4822002032148951  0.2263862910779967  0.5815706222556427
  0.4834257401468047  0.2315969163361109  0.4220188779425249
  0.7368196202799260  0.2633739800943842  0.5784641073856811
  0.7359846983702645  0.2636914523065958  0.4236345209576702
 -0.0090502760508207  0.4818511416207809  0.5765780357663962
 -0.0096145819048734  0.4807014810722512  0.4216987691013456
  0.2448095480117536  0.5178899924458704  0.5811611302791501
  0.2476501888465744  0.5159695302672208  0.4217854161498688
  0.5009042732137921  0.5017529450106031  0.5843033002725081
  0.4993872775947386  0.4987863263455595  0.4168185225324506
  0.7731118852649157  0.5178878231861944  0.5811360567945784
  0.7683435989077759  0.5159646479401215  0.4217830350362922
  0.0105980559290269  0.7551801507300153  0.5908502794573158
  0.0086626182562409  0.7538391397743971  0.4057715926634958
  0.2445544389455075  0.7552043631437505  0.5908703730922794
  0.2451497600172856  0.7538616943022136  0.4057551783249739
  0.4820293015094822  0.7553965643550721  0.5808817997196863
  0.4837995870788843  0.7523433730986389  0.4215669570494199
  0.7733513042270398  0.7553693532164479  0.5808628104280711
  0.7685522521984369  0.7523638527662706  0.4215666932729397
  0.5055804749595038  0.5107661261718190  0.6684243303310876
 
  0.00000000E+00  0.00000000E+00  0.00000000E+00
  0.00000000E+00  0.00000000E+00  0.00000000E+00
  0.00000000E+00  0.00000000E+00  0.00000000E+00
  0.00000000E+00  0.00000000E+00  0.00000000E+00
  0.00000000E+00  0.00000000E+00  0.00000000E+00
  0.00000000E+00  0.00000000E+00  0.00000000E+00
  0.00000000E+00  0.00000000E+00  0.00000000E+00
  0.00000000E+00  0.00000000E+00  0.00000000E+00
  0.00000000E+00  0.00000000E+00  0.00000000E+00
  0.00000000E+00  0.00000000E+00  0.00000000E+00
  0.00000000E+00  0.00000000E+00  0.00000000E+00
  0.00000000E+00  0.00000000E+00  0.00000000E+00
  0.00000000E+00  0.00000000E+00  0.00000000E+00
  0.00000000E+00  0.00000000E+00  0.00000000E+00
  0.00000000E+00  0.00000000E+00  0.00000000E+00
  0.00000000E+00  0.00000000E+00  0.00000000E+00
  0.00000000E+00  0.00000000E+00  0.00000000E+00
  0.00000000E+00  0.00000000E+00  0.00000000E+00
  0.00000000E+00  0.00000000E+00  0.00000000E+00
  0.00000000E+00  0.00000000E+00  0.00000000E+00
  0.00000000E+00  0.00000000E+00  0.00000000E+00
  0.00000000E+00  0.00000000E+00  0.00000000E+00
  0.00000000E+00  0.00000000E+00  0.00000000E+00
  0.00000000E+00  0.00000000E+00  0.00000000E+00
  0.00000000E+00  0.00000000E+00  0.00000000E+00
  0.00000000E+00  0.00000000E+00  0.00000000E+00
  0.00000000E+00  0.00000000E+00  0.00000000E+00
  0.00000000E+00  0.00000000E+00  0.00000000E+00
  0.00000000E+00  0.00000000E+00  0.00000000E+00
  0.00000000E+00  0.00000000E+00  0.00000000E+00
  0.00000000E+00  0.00000000E+00  0.00000000E+00
  0.00000000E+00  0.00000000E+00  0.00000000E+00
  0.00000000E+00  0.00000000E+00  0.00000000E+00
  0.00000000E+00  0.00000000E+00  0.00000000E+00
  0.00000000E+00  0.00000000E+00  0.00000000E+00
  0.00000000E+00  0.00000000E+00  0.00000000E+00
  0.00000000E+00  0.00000000E+00  0.00000000E+00
  0.00000000E+00  0.00000000E+00  0.00000000E+00
  0.00000000E+00  0.00000000E+00  0.00000000E+00
  0.00000000E+00  0.00000000E+00  0.00000000E+00
  0.00000000E+00  0.00000000E+00  0.00000000E+00
  0.00000000E+00  0.00000000E+00  0.00000000E+00
  0.00000000E+00  0.00000000E+00  0.00000000E+00
  0.00000000E+00  0.00000000E+00  0.00000000E+00
  0.00000000E+00  0.00000000E+00  0.00000000E+00
  0.00000000E+00  0.00000000E+00  0.00000000E+00
  0.00000000E+00  0.00000000E+00  0.00000000E+00
  0.00000000E+00  0.00000000E+00  0.00000000E+00
  0.00000000E+00  0.00000000E+00  0.00000000E+00
