CONTCAR\(5)                             
   1.00000000000000     
    11.2482995986999992    0.0000000000000000    0.0000000000000000
     0.0000000000000000   13.7291002274000000    0.0000000000000000
     0.0000000000000000    0.0000000000000000   19.4125995636000006
   Zr   I    O 
    12    24     1
Direct
  0.9956285869809212  0.2436944022756870  0.5034235181716911
  0.1619692621990013  0.0550656009528621  0.4975620856907334
  0.3290089859402094  0.2433701374395081  0.5028385291493744
  0.4955584027057762  0.0539065925043875  0.4975812444036316
  0.6621194034209976  0.2430374511864279  0.5025408306073692
  0.8291442884316859  0.0546340443309691  0.4974404037665168
  0.9958568567964113  0.7434104129241171  0.5030535789450976
  0.1585824406237022  0.5544056117931733  0.4984994365859118
  0.3203672277352921  0.7453631592569288  0.5029923184806406
  0.4951965787473740  0.5505850500869994  0.4971056861413155
  0.6709758655317687  0.7450872397990315  0.5032229862246772
  0.8330216975235318  0.5541619899393329  0.4982443029634645
  0.9954635526144225  0.4377572988498820  0.5871767078515397
  0.9954946771060295  0.1104198774674636  0.3873034488495686
  0.1617110287863933  0.3605490512487879  0.4161833185353379
  0.1625699432039699  0.1895302589105840  0.6134903087126942
  0.3289608637825684  0.4384126966616230  0.5851201030940769
  0.3289584286341506  0.1087766478550082  0.3873796436960797
  0.4955720333858986  0.3581628661137596  0.4137203755928647
  0.4958717537771735  0.1888363804059824  0.6129000811510821
  0.6622384050658882  0.4383522923175708  0.5842491841783050
  0.6622623766671167  0.1082530173936710  0.3871013603966075
  0.8296270181500315  0.3597856820741149  0.4157689428959495
  0.8287349457858213  0.1888412627980413  0.6132070967852626
  0.9955920419005660  0.9383133656621946  0.5850574988036777
  0.9959467249319197  0.6091947111031715  0.3869869204447052
  0.1603266493533489  0.8614191099845245  0.4135852213344521
  0.1611355654086633  0.6892614891686714  0.6144579945352120
  0.3280394969813437  0.9385123103392066  0.5853544536952496
  0.3273787001451096  0.6084748823797436  0.3883621008384888
  0.4957544630846200  0.8585625217892706  0.4164583883660540
  0.4948977509190330  0.6907096121235617  0.6019598825643740
  0.6631719193331668  0.9381033839132940  0.5851428993376103
  0.6642803369959992  0.6082904752656426  0.3885028422390488
  0.8309119234175166  0.8610616558810397  0.4136151166864630
  0.8302286181390733  0.6883578283427584  0.6144243222434376
  0.4911015227935314  0.6807995174610176  0.6987567220414295
 
  0.00000000E+00  0.00000000E+00  0.00000000E+00
  0.00000000E+00  0.00000000E+00  0.00000000E+00
  0.00000000E+00  0.00000000E+00  0.00000000E+00
  0.00000000E+00  0.00000000E+00  0.00000000E+00
  0.00000000E+00  0.00000000E+00  0.00000000E+00
  0.00000000E+00  0.00000000E+00  0.00000000E+00
  0.00000000E+00  0.00000000E+00  0.00000000E+00
  0.00000000E+00  0.00000000E+00  0.00000000E+00
  0.00000000E+00  0.00000000E+00  0.00000000E+00
  0.00000000E+00  0.00000000E+00  0.00000000E+00
  0.00000000E+00  0.00000000E+00  0.00000000E+00
  0.00000000E+00  0.00000000E+00  0.00000000E+00
  0.00000000E+00  0.00000000E+00  0.00000000E+00
  0.00000000E+00  0.00000000E+00  0.00000000E+00
  0.00000000E+00  0.00000000E+00  0.00000000E+00
  0.00000000E+00  0.00000000E+00  0.00000000E+00
  0.00000000E+00  0.00000000E+00  0.00000000E+00
  0.00000000E+00  0.00000000E+00  0.00000000E+00
  0.00000000E+00  0.00000000E+00  0.00000000E+00
  0.00000000E+00  0.00000000E+00  0.00000000E+00
  0.00000000E+00  0.00000000E+00  0.00000000E+00
  0.00000000E+00  0.00000000E+00  0.00000000E+00
  0.00000000E+00  0.00000000E+00  0.00000000E+00
  0.00000000E+00  0.00000000E+00  0.00000000E+00
  0.00000000E+00  0.00000000E+00  0.00000000E+00
  0.00000000E+00  0.00000000E+00  0.00000000E+00
  0.00000000E+00  0.00000000E+00  0.00000000E+00
  0.00000000E+00  0.00000000E+00  0.00000000E+00
  0.00000000E+00  0.00000000E+00  0.00000000E+00
  0.00000000E+00  0.00000000E+00  0.00000000E+00
  0.00000000E+00  0.00000000E+00  0.00000000E+00
  0.00000000E+00  0.00000000E+00  0.00000000E+00
  0.00000000E+00  0.00000000E+00  0.00000000E+00
  0.00000000E+00  0.00000000E+00  0.00000000E+00
  0.00000000E+00  0.00000000E+00  0.00000000E+00
  0.00000000E+00  0.00000000E+00  0.00000000E+00
  0.00000000E+00  0.00000000E+00  0.00000000E+00
