CONTCAR\(2)                             
   1.00000000000000     
    12.4035997391000006    0.0000000000000000    0.0000000000000000
     6.2017683962000003   10.7417350166999999    0.0000000000000000
     0.0000000000000000    0.0000000000000000   17.7593994140999989
   Fe   Br   O    H 
     8    24     2     1
Direct
  0.0022976334324251 -0.0012327214606850  0.4929846900128069
  0.1676243895762163  0.1663875129469129  0.4920162147526873
  0.5002957055965771  0.0013486729724268  0.4928064563125419
  0.6687323676893264  0.1666347789843433  0.4932884691007590
  0.0007091289824822  0.5000039623341112  0.4924985627442729
  0.1691120967703326  0.6653112194700238  0.4943753430037538
  0.5028237541128190  0.4999275952086903  0.4935804494518704
  0.6679458120394333  0.6676031995253661  0.4925427345271602
  0.0172478826955629  0.1495157266216250  0.4134910385433195
  0.1534007845861079  0.3333385124886809  0.4145506328950400
  0.3351350829973945  0.0146716359890306  0.4142604768111997
  0.1538162649033275  0.0144893601812899  0.5705353212886621
  0.0126870350948545  0.3331233007681732  0.5688560732428595
  0.3329541295651011  0.1536536888718624  0.5705105878261683
  0.5141957101421447  0.1546503098750225  0.4157515901064371
  0.6548021672710314  0.3333420176198809  0.4154562781322682
  0.8346904661137993  0.0122343605746859  0.4161147673056276
  0.6526859939470601  0.0150267520374066  0.5711059925090198
  0.5166894816932797  0.3336689832962075  0.5714505620139552
  0.8358463952645120  0.1533056614647284  0.5697216276568942
  0.0165148405419638  0.6528786798891663  0.4159570939614427
  0.1563985906572439  0.8314004803655680  0.4165830809339788
  0.3356905945739164  0.5135880149305281  0.4161811910873700
  0.1545145861764778  0.5119021241989679  0.5713361902593768
  0.0158977506497199  0.8327604148868739  0.5716198532391259
  0.3359478990707156  0.6507765504303343  0.5724508174471458
  0.5157827348148715  0.6526200592861053  0.4147595714034812
  0.6539782874039581  0.8349532408065623  0.4153132271224910
  0.8343806660116245  0.5152541694635041  0.4142898586145105
  0.6543634865006135  0.5157113521180325  0.5700299404705748
  0.5140941577087000  0.8342673891056738  0.5700952573831549
  0.8344590460827989  0.6530327423954297  0.5703520305000124
  0.4543657838926387  0.4865797055090215  0.7821865584209172
  0.5226540364659582  0.5260160078391385  0.7449213201110876
  0.4057852469750175  0.4713049660053224  0.7431861338080263
 
  0.00000000E+00  0.00000000E+00  0.00000000E+00
  0.00000000E+00  0.00000000E+00  0.00000000E+00
  0.00000000E+00  0.00000000E+00  0.00000000E+00
  0.00000000E+00  0.00000000E+00  0.00000000E+00
  0.00000000E+00  0.00000000E+00  0.00000000E+00
  0.00000000E+00  0.00000000E+00  0.00000000E+00
  0.00000000E+00  0.00000000E+00  0.00000000E+00
  0.00000000E+00  0.00000000E+00  0.00000000E+00
  0.00000000E+00  0.00000000E+00  0.00000000E+00
  0.00000000E+00  0.00000000E+00  0.00000000E+00
  0.00000000E+00  0.00000000E+00  0.00000000E+00
  0.00000000E+00  0.00000000E+00  0.00000000E+00
  0.00000000E+00  0.00000000E+00  0.00000000E+00
  0.00000000E+00  0.00000000E+00  0.00000000E+00
  0.00000000E+00  0.00000000E+00  0.00000000E+00
  0.00000000E+00  0.00000000E+00  0.00000000E+00
  0.00000000E+00  0.00000000E+00  0.00000000E+00
  0.00000000E+00  0.00000000E+00  0.00000000E+00
  0.00000000E+00  0.00000000E+00  0.00000000E+00
  0.00000000E+00  0.00000000E+00  0.00000000E+00
  0.00000000E+00  0.00000000E+00  0.00000000E+00
  0.00000000E+00  0.00000000E+00  0.00000000E+00
  0.00000000E+00  0.00000000E+00  0.00000000E+00
  0.00000000E+00  0.00000000E+00  0.00000000E+00
  0.00000000E+00  0.00000000E+00  0.00000000E+00
  0.00000000E+00  0.00000000E+00  0.00000000E+00
  0.00000000E+00  0.00000000E+00  0.00000000E+00
  0.00000000E+00  0.00000000E+00  0.00000000E+00
  0.00000000E+00  0.00000000E+00  0.00000000E+00
  0.00000000E+00  0.00000000E+00  0.00000000E+00
  0.00000000E+00  0.00000000E+00  0.00000000E+00
  0.00000000E+00  0.00000000E+00  0.00000000E+00
  0.00000000E+00  0.00000000E+00  0.00000000E+00
  0.00000000E+00  0.00000000E+00  0.00000000E+00
  0.00000000E+00  0.00000000E+00  0.00000000E+00
