CONTCAR\(8)                             
   1.00000000000000     
    13.4425001143999996    0.0000000000000000    0.0000000000000000
     3.3606099258000000   18.5762653218000011    0.0000000000000000
     0.0000000000000000    0.0000000000000000   18.6296005248999990
   V    Te
    24    48
Direct
  0.0000000000000000  0.0000100000000032  0.5000000000000000
  0.0885955288552367  0.1450559676618397  0.4967146215453369
  0.1614044731447564  0.3549340343381573  0.5032853274546625
  0.2500000009999965  0.0000100000000032  0.5000000000000000
  0.3385955108552423  0.1450559676618397  0.4967146215453369
  0.4114044551447620  0.3549340343381573  0.5032853274546625
  0.4999999830000021  0.0000100000000032  0.5000000000000000
  0.5885955288552367  0.1450559676618397  0.4967146215453369
  0.6614044731447635  0.3549340343381573  0.5032853274546625
  0.7499999650000007  0.0000100000000032  0.5000000000000000
  0.8385955468552382  0.1450559676618397  0.4967146215453369
  0.9114044911447579  0.3549340343381573  0.5032853274546625
  0.0000000009999965  0.5000100110000005  0.5000000000000000
  0.0885955288552367  0.6450559806618372  0.4967146215453369
  0.1614044821447607  0.8549340093381588  0.5032853274546625
  0.2500000009999965  0.5000100110000005  0.5000000000000000
  0.3385955458552417  0.6450559806618372  0.4967146215453369
  0.4114044291447598  0.8549340093381588  0.5032853274546625
  0.4999999830000021  0.5000100110000005  0.5000000000000000
  0.5885955638552431  0.6450559806618372  0.4967146215453369
  0.6614044471447613  0.8549340093381588  0.5032853274546625
  0.7500000009999965  0.5000100110000005  0.5000000000000000
  0.8385955108552423  0.6450559806618372  0.4967146215453369
  0.9114044651447628  0.8549340093381588  0.5032853274546625
  0.1116083046864631  0.0537550045711725  0.6014832338600371
  0.1383916863135397  0.4462450054288283  0.3985167401399536
  0.1938181278590676  0.2242031753789462  0.5812094888579509
  0.0561818711409288  0.2757868396210554  0.4187904851420470
  0.0268412207887749  0.3929755927326894  0.6042907265015316
  0.2231587862112221  0.1070243942673130  0.3957092474984734
  0.3616083136864603  0.0537550045711725  0.6014832338600371
  0.3883917043135341  0.4462450054288283  0.3985167401399536
  0.4438181458590691  0.2242031753789462  0.5812094888579509
  0.3061818531409273  0.2757868396210554  0.4187904851420470
  0.2768412377887799  0.3929755927326894  0.6042907265015316
  0.4731587862112221  0.1070243942673130  0.3957092474984734
  0.6116083666864611  0.0537550045711725  0.6014832338600371
  0.6383916863135397  0.4462450054288283  0.3985167401399536
  0.6938181278590676  0.2242031753789462  0.5812094888579509
  0.5561818711409288  0.2757868396210554  0.4187904851420470
  0.5268412557887743  0.3929755927326894  0.6042907265015316
  0.7231588032112199  0.1070243942673130  0.3957092474984734
  0.8616083136864603  0.0537550045711725  0.6014832338600371
  0.8883917043135341  0.4462450054288283  0.3985167401399536
  0.9438180748590739  0.2242031753789462  0.5812094888579509
  0.8061818881409266  0.2757868396210554  0.4187904851420470
  0.7768412737887758  0.3929755927326894  0.6042907265015316
  0.9731587502112262  0.1070243942673130  0.3957092474984734
  0.1116083066864633  0.5537550465711689  0.6014832338600371
  0.1383917023135339  0.9462449544288276  0.3985167401399536
  0.1938181438590689  0.7242031243789455  0.5812094888579509
  0.0561818801409260  0.7757868146210569  0.4187904851420470
  0.0268412167887746  0.8929756187326845  0.6042907265015316
  0.2231588102112241  0.6070243822673120  0.3957092474984734
  0.3616083066864633  0.5537550465711689  0.6014832338600371
  0.3883917203135354  0.9462449544288276  0.3985167401399536
  0.4438181608590739  0.7242031243789455  0.5812094888579509
  0.3061818621409316  0.7757868146210569  0.4187904851420470
  0.2768411987887802  0.8929756187326845  0.6042907265015316
  0.4731588272112219  0.6070243822673120  0.3957092474984734
  0.6116083246864648  0.5537550465711689  0.6014832338600371
  0.6383916673135346  0.9462449544288276  0.3985167401399536
  0.6938181788590683  0.7242031243789455  0.5812094888579509
  0.5561818451409266  0.7757868146210569  0.4187904851420470
  0.5268412167887746  0.8929756187326845  0.6042907265015316
  0.7231587742112211  0.6070243822673120  0.3957092474984734
  0.8616082706864603  0.5537550465711689  0.6014832338600371
  0.8883916843135395  0.9462449544288276  0.3985167401399536
  0.9438181258590674  0.7242031243789455  0.5812094888579509
  0.8061819331409268  0.7757868146210569  0.4187904851420470
  0.7768412347887761  0.8929756187326845  0.6042907265015316
  0.9731587212112203  0.6070243822673120  0.3957092474984734
 
  0.00000000E+00  0.00000000E+00  0.00000000E+00
  0.00000000E+00  0.00000000E+00  0.00000000E+00
  0.00000000E+00  0.00000000E+00  0.00000000E+00
  0.00000000E+00  0.00000000E+00  0.00000000E+00
  0.00000000E+00  0.00000000E+00  0.00000000E+00
  0.00000000E+00  0.00000000E+00  0.00000000E+00
  0.00000000E+00  0.00000000E+00  0.00000000E+00
  0.00000000E+00  0.00000000E+00  0.00000000E+00
  0.00000000E+00  0.00000000E+00  0.00000000E+00
  0.00000000E+00  0.00000000E+00  0.00000000E+00
  0.00000000E+00  0.00000000E+00  0.00000000E+00
  0.00000000E+00  0.00000000E+00  0.00000000E+00
  0.00000000E+00  0.00000000E+00  0.00000000E+00
  0.00000000E+00  0.00000000E+00  0.00000000E+00
  0.00000000E+00  0.00000000E+00  0.00000000E+00
  0.00000000E+00  0.00000000E+00  0.00000000E+00
  0.00000000E+00  0.00000000E+00  0.00000000E+00
  0.00000000E+00  0.00000000E+00  0.00000000E+00
  0.00000000E+00  0.00000000E+00  0.00000000E+00
  0.00000000E+00  0.00000000E+00  0.00000000E+00
  0.00000000E+00  0.00000000E+00  0.00000000E+00
  0.00000000E+00  0.00000000E+00  0.00000000E+00
  0.00000000E+00  0.00000000E+00  0.00000000E+00
  0.00000000E+00  0.00000000E+00  0.00000000E+00
  0.00000000E+00  0.00000000E+00  0.00000000E+00
  0.00000000E+00  0.00000000E+00  0.00000000E+00
  0.00000000E+00  0.00000000E+00  0.00000000E+00
  0.00000000E+00  0.00000000E+00  0.00000000E+00
  0.00000000E+00  0.00000000E+00  0.00000000E+00
  0.00000000E+00  0.00000000E+00  0.00000000E+00
  0.00000000E+00  0.00000000E+00  0.00000000E+00
  0.00000000E+00  0.00000000E+00  0.00000000E+00
  0.00000000E+00  0.00000000E+00  0.00000000E+00
  0.00000000E+00  0.00000000E+00  0.00000000E+00
  0.00000000E+00  0.00000000E+00  0.00000000E+00
  0.00000000E+00  0.00000000E+00  0.00000000E+00
  0.00000000E+00  0.00000000E+00  0.00000000E+00
  0.00000000E+00  0.00000000E+00  0.00000000E+00
  0.00000000E+00  0.00000000E+00  0.00000000E+00
  0.00000000E+00  0.00000000E+00  0.00000000E+00
  0.00000000E+00  0.00000000E+00  0.00000000E+00
  0.00000000E+00  0.00000000E+00  0.00000000E+00
  0.00000000E+00  0.00000000E+00  0.00000000E+00
  0.00000000E+00  0.00000000E+00  0.00000000E+00
  0.00000000E+00  0.00000000E+00  0.00000000E+00
  0.00000000E+00  0.00000000E+00  0.00000000E+00
  0.00000000E+00  0.00000000E+00  0.00000000E+00
  0.00000000E+00  0.00000000E+00  0.00000000E+00
  0.00000000E+00  0.00000000E+00  0.00000000E+00
  0.00000000E+00  0.00000000E+00  0.00000000E+00
  0.00000000E+00  0.00000000E+00  0.00000000E+00
  0.00000000E+00  0.00000000E+00  0.00000000E+00
  0.00000000E+00  0.00000000E+00  0.00000000E+00
  0.00000000E+00  0.00000000E+00  0.00000000E+00
  0.00000000E+00  0.00000000E+00  0.00000000E+00
  0.00000000E+00  0.00000000E+00  0.00000000E+00
  0.00000000E+00  0.00000000E+00  0.00000000E+00
  0.00000000E+00  0.00000000E+00  0.00000000E+00
  0.00000000E+00  0.00000000E+00  0.00000000E+00
  0.00000000E+00  0.00000000E+00  0.00000000E+00
  0.00000000E+00  0.00000000E+00  0.00000000E+00
  0.00000000E+00  0.00000000E+00  0.00000000E+00
  0.00000000E+00  0.00000000E+00  0.00000000E+00
  0.00000000E+00  0.00000000E+00  0.00000000E+00
  0.00000000E+00  0.00000000E+00  0.00000000E+00
  0.00000000E+00  0.00000000E+00  0.00000000E+00
  0.00000000E+00  0.00000000E+00  0.00000000E+00
  0.00000000E+00  0.00000000E+00  0.00000000E+00
  0.00000000E+00  0.00000000E+00  0.00000000E+00
  0.00000000E+00  0.00000000E+00  0.00000000E+00
  0.00000000E+00  0.00000000E+00  0.00000000E+00
  0.00000000E+00  0.00000000E+00  0.00000000E+00
