 Na2 Hf1 N2                             
   1.00000000000000     
     3.2773786228255535    0.0000000000000000    0.0000000000000000
    -1.6386893114127767    2.8382926178970882    0.0000000000000000
     0.0000000000000000    0.0000000000000000   20.2373514633959992
   Na   Hf   N 
     2     1     2
Direct
  0.6666668835206991  0.3333331973376689  0.3726777470558942
  0.3333331171468436  0.6666668017761084  0.6273222547742976
  0.0000000037979255 -0.0000000020017038  0.4999998384431927
  0.6666665945149362  0.3333333984503972  0.5571055265344138
  0.3333334010195953  0.6666666044375291  0.4428946331922022
 
  0.00000000E+00  0.00000000E+00  0.00000000E+00
  0.00000000E+00  0.00000000E+00  0.00000000E+00
  0.00000000E+00  0.00000000E+00  0.00000000E+00
  0.00000000E+00  0.00000000E+00  0.00000000E+00
  0.00000000E+00  0.00000000E+00  0.00000000E+00
