CONTCAR\(2)                             
   1.00000000000000     
    11.3158998488999991    0.0000000000000000    0.0000000000000000
     0.0000000000000000   12.4995002747000008    0.0000000000000000
     0.0000000000000000    0.0000000000000000   18.9974002838000011
   Ta   Te   Ir   O    H 
     6    24     6     1     1
Direct
  0.9934221926067281  0.0571992801888152  0.5025671205848750
  0.1639921770278197  0.7353286425074507  0.4901269420282942
  0.3264520111240499  0.0580603850378344  0.5021296201051598
  0.4921485956848127  0.7318080032185651  0.4953414274759314
  0.6588530299182865  0.0568961774378470  0.5024017924442845
  0.8292458238513398  0.7355455131982539  0.4953043601747610
  0.1606193466520486  0.1142953767794522  0.6031756125821263
  0.9960556963381362  0.8517656551629527  0.5763896810195893
  0.9925462191730037  0.6849966498595725  0.3907420444740279
  0.1549429784376804  0.4388271543595319  0.4203128416858516
  0.1604273527346632  0.9423333033628819  0.4180602142204926
  0.9923082011599637  0.2003942827377590  0.3982146527206106
  0.9937387401633293  0.3552277113344508  0.5681055603149161
  0.1618672396123618  0.5908417206246346  0.5937255474243462
  0.4925278565901647  0.1133577168874319  0.6034754885408000
  0.3254255800909923  0.8525205966472246  0.5764667725685937
  0.3287562096520579  0.6879982248398517  0.3877918690594981
  0.4929053828788104  0.4434239536918872  0.4255414046985364
  0.4928793426535857  0.9386050498759834  0.4203259420016457
  0.3271677456177493  0.2008225756926617  0.3976305108878601
  0.3270429849752302  0.3602137404300151  0.5661401020108613
  0.4964062193683984  0.5911854193940608  0.6032525145874391
  0.8263364873292075  0.1115058956910044  0.6035517296645361
  0.6588776771691277  0.8512675606812347  0.5760855754278815
  0.6604110025897298  0.6829494206426624  0.3940631810729661
  0.8236463730205669  0.4420192053882883  0.4264096521285841
  0.8269367673026726  0.9409134480829505  0.4197256081900066
  0.6598974628465428  0.2005496092066535  0.3985047587370209
  0.6595673892807299  0.3529084593712021  0.5702303472355644
  0.8276188849943460  0.5909829502987626  0.5985602124576719
  0.9922713980556970  0.5429485549235978  0.4976314821567108
  0.1600460435094408  0.2535193704227397  0.4942544424314327
  0.3220711753542263  0.5467395153316493  0.4935031608452809
  0.4930540538128322  0.2536412784737415  0.4950519810845857
  0.6582693750503935  0.5418917450876725  0.5019158786898360
  0.8265853315211317  0.2526309752038525  0.4956871776318932
  0.6288998215064494  0.6479399160868931  0.6775407686825127
  0.6210796313456570  0.6041247508379844  0.7199420009530623
 
  0.00000000E+00  0.00000000E+00  0.00000000E+00
  0.00000000E+00  0.00000000E+00  0.00000000E+00
  0.00000000E+00  0.00000000E+00  0.00000000E+00
  0.00000000E+00  0.00000000E+00  0.00000000E+00
  0.00000000E+00  0.00000000E+00  0.00000000E+00
  0.00000000E+00  0.00000000E+00  0.00000000E+00
  0.00000000E+00  0.00000000E+00  0.00000000E+00
  0.00000000E+00  0.00000000E+00  0.00000000E+00
  0.00000000E+00  0.00000000E+00  0.00000000E+00
  0.00000000E+00  0.00000000E+00  0.00000000E+00
  0.00000000E+00  0.00000000E+00  0.00000000E+00
  0.00000000E+00  0.00000000E+00  0.00000000E+00
  0.00000000E+00  0.00000000E+00  0.00000000E+00
  0.00000000E+00  0.00000000E+00  0.00000000E+00
  0.00000000E+00  0.00000000E+00  0.00000000E+00
  0.00000000E+00  0.00000000E+00  0.00000000E+00
  0.00000000E+00  0.00000000E+00  0.00000000E+00
  0.00000000E+00  0.00000000E+00  0.00000000E+00
  0.00000000E+00  0.00000000E+00  0.00000000E+00
  0.00000000E+00  0.00000000E+00  0.00000000E+00
  0.00000000E+00  0.00000000E+00  0.00000000E+00
  0.00000000E+00  0.00000000E+00  0.00000000E+00
  0.00000000E+00  0.00000000E+00  0.00000000E+00
  0.00000000E+00  0.00000000E+00  0.00000000E+00
  0.00000000E+00  0.00000000E+00  0.00000000E+00
  0.00000000E+00  0.00000000E+00  0.00000000E+00
  0.00000000E+00  0.00000000E+00  0.00000000E+00
  0.00000000E+00  0.00000000E+00  0.00000000E+00
  0.00000000E+00  0.00000000E+00  0.00000000E+00
  0.00000000E+00  0.00000000E+00  0.00000000E+00
  0.00000000E+00  0.00000000E+00  0.00000000E+00
  0.00000000E+00  0.00000000E+00  0.00000000E+00
  0.00000000E+00  0.00000000E+00  0.00000000E+00
  0.00000000E+00  0.00000000E+00  0.00000000E+00
  0.00000000E+00  0.00000000E+00  0.00000000E+00
  0.00000000E+00  0.00000000E+00  0.00000000E+00
  0.00000000E+00  0.00000000E+00  0.00000000E+00
  0.00000000E+00  0.00000000E+00  0.00000000E+00
