CONTCAR\(10)                            
   1.00000000000000     
    14.8165998459000008    0.0000000000000000    0.0000000000000000
    -7.4083277786000004   12.8316514086000009    0.0000000000000000
     0.0000000000000000    0.0000000000000000   18.0188999175999989
   Fe   Br
    16    32
Direct
  0.0000000000000000  0.0000000000000000  0.5000000000000000
  0.2500000000000000  0.0000000000000000  0.5000000000000000
  0.5000000000000000  0.0000000000000000  0.5000000000000000
  0.7499999839999987  0.0000000000000000  0.5000000000000000
  0.0000000060000005  0.2500000049999969  0.5000000000000000
  0.2500000060000005  0.2500000049999969  0.5000000000000000
  0.5000000140000012  0.2500000049999969  0.5000000000000000
  0.7499999659999972  0.2500000049999969  0.5000000000000000
  0.0000000120000010  0.5000000109999974  0.5000000000000000
  0.2500000120000010  0.5000000109999974  0.5000000000000000
  0.5000000120000010  0.5000000109999974  0.5000000000000000
  0.7500000120000010  0.5000000109999974  0.5000000000000000
  0.0000000289999988  0.7500000530000008  0.5000000000000000
  0.2500000289999988  0.7500000530000008  0.5000000000000000
  0.5000000289999988  0.7500000530000008  0.5000000000000000
  0.7500000129999975  0.7500000530000008  0.5000000000000000
  0.1666700019999965  0.0833300030000004  0.4162299979999986
  0.0833300039999969  0.1666700019999965  0.5837700020000014
  0.4166700099999971  0.0833300030000004  0.4162299979999986
  0.3333300199999982  0.1666700019999965  0.5837700020000014
  0.6666699940000029  0.0833300030000004  0.4162299979999986
  0.5833300039999969  0.1666700019999965  0.5837700020000014
  0.9166700099999971  0.0833300030000004  0.4162299979999986
  0.8333299560000000  0.1666700019999965  0.5837700020000014
  0.1666700079999970  0.3333300079999972  0.4162299979999986
  0.0833300099999974  0.4166700079999970  0.5837700020000014
  0.4166700079999970  0.3333300079999972  0.4162299979999986
  0.3333300350000030  0.4166700079999970  0.5837700020000014
  0.6666700399999996  0.3333300079999972  0.4162299979999986
  0.5833300190000017  0.4166700079999970  0.5837700020000014
  0.9166700560000010  0.3333300079999972  0.4162299979999986
  0.8333299379999985  0.4166700079999970  0.5837700020000014
  0.1666700190000014  0.5833299769999982  0.4162299979999986
  0.0833300190000017  0.6666700500000005  0.5837700020000014
  0.4166700190000014  0.5833299769999982  0.4162299979999986
  0.3333300350000030  0.6666700500000005  0.5837700020000014
  0.6666700350000028  0.5833299769999982  0.4162299979999986
  0.5833300190000017  0.6666700500000005  0.5837700020000014
  0.9166700190000014  0.5833299769999982  0.4162299979999986
  0.8333299709999977  0.6666700500000005  0.5837700020000014
  0.1666700010000000  0.8333299820000022  0.4162299979999986
  0.0833300150000014  0.9166700190000014  0.5837700020000014
  0.4166700010000000  0.8333299820000022  0.4162299979999986
  0.3333300310000027  0.9166700190000014  0.5837700020000014
  0.6666700170000013  0.8333299820000022  0.4162299979999986
  0.5833300150000014  0.9166700190000014  0.5837700020000014
  0.9166700339999991  0.8333299820000022  0.4162299979999986
  0.8333299660000009  0.9166700190000014  0.5837700020000014
 
  0.00000000E+00  0.00000000E+00  0.00000000E+00
  0.00000000E+00  0.00000000E+00  0.00000000E+00
  0.00000000E+00  0.00000000E+00  0.00000000E+00
  0.00000000E+00  0.00000000E+00  0.00000000E+00
  0.00000000E+00  0.00000000E+00  0.00000000E+00
  0.00000000E+00  0.00000000E+00  0.00000000E+00
  0.00000000E+00  0.00000000E+00  0.00000000E+00
  0.00000000E+00  0.00000000E+00  0.00000000E+00
  0.00000000E+00  0.00000000E+00  0.00000000E+00
  0.00000000E+00  0.00000000E+00  0.00000000E+00
  0.00000000E+00  0.00000000E+00  0.00000000E+00
  0.00000000E+00  0.00000000E+00  0.00000000E+00
  0.00000000E+00  0.00000000E+00  0.00000000E+00
  0.00000000E+00  0.00000000E+00  0.00000000E+00
  0.00000000E+00  0.00000000E+00  0.00000000E+00
  0.00000000E+00  0.00000000E+00  0.00000000E+00
  0.00000000E+00  0.00000000E+00  0.00000000E+00
  0.00000000E+00  0.00000000E+00  0.00000000E+00
  0.00000000E+00  0.00000000E+00  0.00000000E+00
  0.00000000E+00  0.00000000E+00  0.00000000E+00
  0.00000000E+00  0.00000000E+00  0.00000000E+00
  0.00000000E+00  0.00000000E+00  0.00000000E+00
  0.00000000E+00  0.00000000E+00  0.00000000E+00
  0.00000000E+00  0.00000000E+00  0.00000000E+00
  0.00000000E+00  0.00000000E+00  0.00000000E+00
  0.00000000E+00  0.00000000E+00  0.00000000E+00
  0.00000000E+00  0.00000000E+00  0.00000000E+00
  0.00000000E+00  0.00000000E+00  0.00000000E+00
  0.00000000E+00  0.00000000E+00  0.00000000E+00
  0.00000000E+00  0.00000000E+00  0.00000000E+00
  0.00000000E+00  0.00000000E+00  0.00000000E+00
  0.00000000E+00  0.00000000E+00  0.00000000E+00
  0.00000000E+00  0.00000000E+00  0.00000000E+00
  0.00000000E+00  0.00000000E+00  0.00000000E+00
  0.00000000E+00  0.00000000E+00  0.00000000E+00
  0.00000000E+00  0.00000000E+00  0.00000000E+00
  0.00000000E+00  0.00000000E+00  0.00000000E+00
  0.00000000E+00  0.00000000E+00  0.00000000E+00
  0.00000000E+00  0.00000000E+00  0.00000000E+00
  0.00000000E+00  0.00000000E+00  0.00000000E+00
  0.00000000E+00  0.00000000E+00  0.00000000E+00
  0.00000000E+00  0.00000000E+00  0.00000000E+00
  0.00000000E+00  0.00000000E+00  0.00000000E+00
  0.00000000E+00  0.00000000E+00  0.00000000E+00
  0.00000000E+00  0.00000000E+00  0.00000000E+00
  0.00000000E+00  0.00000000E+00  0.00000000E+00
  0.00000000E+00  0.00000000E+00  0.00000000E+00
  0.00000000E+00  0.00000000E+00  0.00000000E+00
