 CONTCAR                                
   1.00000000000000     
     2.8596604862056054    0.0000000000000000    0.0000000000000000
     0.0000000000000000    3.0115504937321158    0.0000000000000000
     0.0000000000000000    0.0000000000000000   20.3069049200000009
   Mo   B    O 
     2     2     2
Direct
  0.0006497762398454  0.5019495132924653  0.5700822607611258
  0.5006463799431538  0.5019976916876719  0.4299124680883868
  0.0006392031415179  0.0020571105577943  0.4783681013015867
  0.5006601107308819  0.0020335310422089  0.5216309659296162
  0.5006416715027863  0.5016170515382764  0.6357300826662240
  0.0006328094418275  0.5017551398815772  0.3642711091647945
 
  0.00000000E+00  0.00000000E+00  0.00000000E+00
  0.00000000E+00  0.00000000E+00  0.00000000E+00
  0.00000000E+00  0.00000000E+00  0.00000000E+00
  0.00000000E+00  0.00000000E+00  0.00000000E+00
  0.00000000E+00  0.00000000E+00  0.00000000E+00
  0.00000000E+00  0.00000000E+00  0.00000000E+00
