CONTCAR\(2)                             
   1.00000000000000     
    10.9488000870000004    0.0000000000000000    0.0000000000000000
     0.0000000000000000   10.9488000870000004    0.0000000000000000
     0.0000000000000000    0.0000000000000000   22.0405998230000009
   Zr   Si   Te   O 
    18    18    18     1
Selective dynamics
Direct
  0.1716065375947196  0.0000192795604192  0.5982738909413143   F   F   F
  0.0024619432463027  0.1659502755511184  0.4044702452629778   F   F   F
  0.5024046053651787  0.0000253141742377  0.5986436336730208   F   F   F
  0.3364164927248225  0.1672001975755748  0.4057354551391654   F   F   F
  0.8345505210533517  0.0000129822261101  0.5981526704820155   F   F   F
  0.6684365575418809  0.1668861453345230  0.4049392450203158   F   F   F
  0.1612863962452664  0.3310185615062764  0.5976665111627000   F   F   F
  0.0016526081531651  0.5000197426593687  0.4041503634666697   F   F   F
  0.5068154323205931  0.3451826516217196  0.6004310864317546   F   F   F
  0.3353516751058550  0.5000191045372304  0.4053020760410391   F   F   F
  0.8384787541773662  0.3295166356988943  0.5972645970039636   F   F   F
  0.6699818364633927  0.5000056019267021  0.4047417015574268   F   F   F
  0.1612882706620553  0.6690314484256632  0.5976595105746796   F   F   F
  0.0024789313129077  0.8341194684607771  0.4044703650369357   F   F   F
  0.5068181999984844  0.6548510912576617  0.6004285556314670   F   F   F
  0.3364103818991282  0.8328550576714520  0.4057363931223819   F   F   F
  0.8384749047218136  0.6705178047871172  0.5972613240995628   F   F   F
  0.6684500411779197  0.8331709803880187  0.4049468824425944   F   F   F
  0.1700484538055207  0.1657323532430581  0.5012770824841510   F   F   F
  0.0025533646554194  0.0000223910691588  0.5018945559641637   F   F   F
  0.5026131250815453  0.1679214686079504  0.5023207394076437   F   F   F
  0.3371772641862307  0.0000297655237489  0.5017552628925657   F   F   F
  0.8351590551273134  0.1650251591485912  0.5009886088665780   F   F   F
  0.6686168813035067  0.0000190518464365  0.5016263124576668   F   F   F
  0.1676061102553774  0.5000326628510905  0.5026024140278054   F   F   F
  0.0014310831567030  0.3327897246072240  0.5005833790149765   F   F   F
  0.5047383575887565  0.5000129177127732  0.4998203905461480   F   F   F
  0.3355799691908388  0.3345563614954514  0.5031173526197250   F   F   F
  0.8368803051223637  0.5000239680587555  0.5015114763505792   F   F   F
  0.6704321657411256  0.3330934359428142  0.5016407589080316   F   F   F
  0.1700520559679433  0.8343078724827890  0.5012685658816523   F   F   F
  0.0014372531529503  0.6672472038415123  0.5005817502015901   F   F   F
  0.5026205543304911  0.8321618026493525  0.5023201470021164   F   F   F
  0.3355884172607659  0.6654904289936923  0.5031161269408457   F   F   F
  0.8351639286555397  0.8350072289413220  0.5009897403088246   F   F   F
  0.6704277449615574  0.6669532931018622  0.5016359354925513   F   F   F
  0.0021890539593485  0.1638710925041948  0.6629166894381910   F   F   F
  0.1697707680581786  0.0000258056199485  0.3416604539836072   F   F   F
  0.3382510531369007  0.1727547797171525  0.6601321026476867   F   F   F
  0.5016766924415776  0.0000157225158546  0.3416817345085761   F   F   F
  0.6676042246680183  0.1676706913597172  0.6619283810236567   F   F   F
  0.8350450141538204  0.0000205588271882  0.3413548243264799   F   F   F
  0.9920580388320204  0.5000562124644148  0.6681963399080431   F   F   F
  0.1690296481058837  0.3333796552562305  0.3418666859479558   F   F   F
  0.2565833973223377  0.5000519820876050  0.6849138510385657   F   F   F
  0.5017521588267400  0.3338512386952601  0.3416982910261410   F   F   F
  0.6897355368867579  0.5000260777889096  0.6646905380987036   F   F   F
  0.8355847341670710  0.3328376915566693  0.3410717356654658   F   F   F
  0.0021881128156807  0.8361447601709244  0.6629172893131425   F   F   F
  0.1690526546016287  0.6666648794508632  0.3418593347361707   F   F   F
  0.3382473233136238  0.8272793769456683  0.6601306387385577   F   F   F
  0.5017528865359964  0.6662036951410002  0.3417097440168675   F   F   F
  0.6675979022620453  0.8323561202519159  0.6619228755325821   F   F   F
  0.8355701947278078  0.6671824355249143  0.3410841287926729   F   F   F
  0.4342404068764338  0.5000177906411167  0.6444985115588056   T   T   T
 
  0.00000000E+00  0.00000000E+00  0.00000000E+00
  0.00000000E+00  0.00000000E+00  0.00000000E+00
  0.00000000E+00  0.00000000E+00  0.00000000E+00
  0.00000000E+00  0.00000000E+00  0.00000000E+00
  0.00000000E+00  0.00000000E+00  0.00000000E+00
  0.00000000E+00  0.00000000E+00  0.00000000E+00
  0.00000000E+00  0.00000000E+00  0.00000000E+00
  0.00000000E+00  0.00000000E+00  0.00000000E+00
  0.00000000E+00  0.00000000E+00  0.00000000E+00
  0.00000000E+00  0.00000000E+00  0.00000000E+00
  0.00000000E+00  0.00000000E+00  0.00000000E+00
  0.00000000E+00  0.00000000E+00  0.00000000E+00
  0.00000000E+00  0.00000000E+00  0.00000000E+00
  0.00000000E+00  0.00000000E+00  0.00000000E+00
  0.00000000E+00  0.00000000E+00  0.00000000E+00
  0.00000000E+00  0.00000000E+00  0.00000000E+00
  0.00000000E+00  0.00000000E+00  0.00000000E+00
  0.00000000E+00  0.00000000E+00  0.00000000E+00
  0.00000000E+00  0.00000000E+00  0.00000000E+00
  0.00000000E+00  0.00000000E+00  0.00000000E+00
  0.00000000E+00  0.00000000E+00  0.00000000E+00
  0.00000000E+00  0.00000000E+00  0.00000000E+00
  0.00000000E+00  0.00000000E+00  0.00000000E+00
  0.00000000E+00  0.00000000E+00  0.00000000E+00
  0.00000000E+00  0.00000000E+00  0.00000000E+00
  0.00000000E+00  0.00000000E+00  0.00000000E+00
  0.00000000E+00  0.00000000E+00  0.00000000E+00
  0.00000000E+00  0.00000000E+00  0.00000000E+00
  0.00000000E+00  0.00000000E+00  0.00000000E+00
  0.00000000E+00  0.00000000E+00  0.00000000E+00
  0.00000000E+00  0.00000000E+00  0.00000000E+00
  0.00000000E+00  0.00000000E+00  0.00000000E+00
  0.00000000E+00  0.00000000E+00  0.00000000E+00
  0.00000000E+00  0.00000000E+00  0.00000000E+00
  0.00000000E+00  0.00000000E+00  0.00000000E+00
  0.00000000E+00  0.00000000E+00  0.00000000E+00
  0.00000000E+00  0.00000000E+00  0.00000000E+00
  0.00000000E+00  0.00000000E+00  0.00000000E+00
  0.00000000E+00  0.00000000E+00  0.00000000E+00
  0.00000000E+00  0.00000000E+00  0.00000000E+00
  0.00000000E+00  0.00000000E+00  0.00000000E+00
  0.00000000E+00  0.00000000E+00  0.00000000E+00
  0.00000000E+00  0.00000000E+00  0.00000000E+00
  0.00000000E+00  0.00000000E+00  0.00000000E+00
  0.00000000E+00  0.00000000E+00  0.00000000E+00
  0.00000000E+00  0.00000000E+00  0.00000000E+00
  0.00000000E+00  0.00000000E+00  0.00000000E+00
  0.00000000E+00  0.00000000E+00  0.00000000E+00
  0.00000000E+00  0.00000000E+00  0.00000000E+00
  0.00000000E+00  0.00000000E+00  0.00000000E+00
  0.00000000E+00  0.00000000E+00  0.00000000E+00
  0.00000000E+00  0.00000000E+00  0.00000000E+00
  0.00000000E+00  0.00000000E+00  0.00000000E+00
  0.00000000E+00  0.00000000E+00  0.00000000E+00
  0.00000000E+00  0.00000000E+00  0.00000000E+00
