CONTCAR\(2)                             
   1.00000000000000     
    11.8118000031000001    0.0000000000000000    0.0000000000000000
     0.0000000000000000   12.8071002959999998    0.0000000000000000
     0.0000000000000000    0.0000000000000000   20.7511997223000009
   Cu   Sb   Se   O 
    12    12    24     1
Direct
  0.1607114089918858  0.3664110288913008  0.4399441862146174
  0.1645616568860535  0.1274806939244596  0.5538075339374513
  0.5000305519701403  0.3684537278102861  0.4478002554293249
  0.5000016747792758  0.1267258316265720  0.5583552436857556
  0.8393834055525021  0.3663782005169514  0.4399726691334216
  0.8355400433857848  0.1274796997112795  0.5538396686353196
  0.1668531120983925  0.8706284722962578  0.4414008007590944
  0.1674581828967867  0.6164566368469864  0.5580359064823189
  0.4999872980555266  0.8741856208872193  0.4413057652458021
  0.4999558137515416  0.6230312932120641  0.5620897588427040
  0.8331568889594004  0.8706880403150196  0.4414083769583982
  0.8325184301087476  0.6164407545877271  0.5580426809832950
  0.0000351812594894  0.3619350895716966  0.6220330769007718
  0.0000038284174916  0.1187533875538327  0.3651805138637705
  0.3554559139125809  0.3822679725756685  0.6516251338149243
  0.3346833747885632  0.1235770025645318  0.3675736763448376
  0.6445436424137790  0.3822266514747018  0.6516215993990891
  0.6651832724835981  0.1235442641244644  0.3676018785109741
  0.0000116027062657  0.8721415214852462  0.6287929535999832
 -0.0000125860206990  0.6205117642630017  0.3687416769632684
  0.3330414449870692  0.8748633712185948  0.6297176245137657
  0.3361949856229036  0.6189287522965127  0.3703659138543289
  0.6669783045538737  0.8748758761567812  0.6297200416724714
  0.6637821199176165  0.6189326765492256  0.3703805607747584
  0.1720379037177991  0.3134197271710401  0.5493088804365059
  0.0000266710017085  0.3155745789302692  0.3771154551524479
  0.0000380319007084  0.0675982802895690  0.6100183804190127
  0.1667551506384787  0.0581817395126915  0.4467607044377675
  0.4999974894430920  0.3144161913424259  0.5582845388314430
  0.3348044269029721  0.3186376286717469  0.3875965596854913
  0.3308629847346711  0.0704013118522961  0.6104537735687712
  0.5000014681011519  0.0615125590778093  0.4493263028260644
  0.8280198966956270  0.3134210960602994  0.5493317790800066
  0.6652612616367294  0.3186408511125210  0.3875933084551059
  0.6691491088528331  0.0704126719979445  0.6104250850908034
  0.8331859028073819  0.0582457499777919  0.4467827968638779
  0.1672418344590547  0.8066610358390960  0.5494365064589276
 -0.0000119534597969  0.8167366232952274  0.3851906343697277
 -0.0000072069278261  0.5632034444518179  0.6116310440429219
  0.1658044534150405  0.5554047073087588  0.4489091727447602
  0.5000274087611591  0.8119965396950122  0.5499668095489643
  0.3339780172261868  0.8156124875526138  0.3858877248597163
  0.3325960604870695  0.5755659966403206  0.6174051135269667
  0.4999438826069726  0.5576926815422982  0.4536307363021660
  0.8327700295379807  0.8066618913620621  0.5494427508493641
  0.6660359901678697  0.8156057313502924  0.3858998167051682
  0.6673746241960958  0.5755201412018668  0.6173757200223599
  0.8341867904952942  0.5554016834980260  0.4489158340442554
  0.4999704271232759  0.4071661328058310  0.7007632031569371
 
  0.00000000E+00  0.00000000E+00  0.00000000E+00
  0.00000000E+00  0.00000000E+00  0.00000000E+00
  0.00000000E+00  0.00000000E+00  0.00000000E+00
  0.00000000E+00  0.00000000E+00  0.00000000E+00
  0.00000000E+00  0.00000000E+00  0.00000000E+00
  0.00000000E+00  0.00000000E+00  0.00000000E+00
  0.00000000E+00  0.00000000E+00  0.00000000E+00
  0.00000000E+00  0.00000000E+00  0.00000000E+00
  0.00000000E+00  0.00000000E+00  0.00000000E+00
  0.00000000E+00  0.00000000E+00  0.00000000E+00
  0.00000000E+00  0.00000000E+00  0.00000000E+00
  0.00000000E+00  0.00000000E+00  0.00000000E+00
  0.00000000E+00  0.00000000E+00  0.00000000E+00
  0.00000000E+00  0.00000000E+00  0.00000000E+00
  0.00000000E+00  0.00000000E+00  0.00000000E+00
  0.00000000E+00  0.00000000E+00  0.00000000E+00
  0.00000000E+00  0.00000000E+00  0.00000000E+00
  0.00000000E+00  0.00000000E+00  0.00000000E+00
  0.00000000E+00  0.00000000E+00  0.00000000E+00
  0.00000000E+00  0.00000000E+00  0.00000000E+00
  0.00000000E+00  0.00000000E+00  0.00000000E+00
  0.00000000E+00  0.00000000E+00  0.00000000E+00
  0.00000000E+00  0.00000000E+00  0.00000000E+00
  0.00000000E+00  0.00000000E+00  0.00000000E+00
  0.00000000E+00  0.00000000E+00  0.00000000E+00
  0.00000000E+00  0.00000000E+00  0.00000000E+00
  0.00000000E+00  0.00000000E+00  0.00000000E+00
  0.00000000E+00  0.00000000E+00  0.00000000E+00
  0.00000000E+00  0.00000000E+00  0.00000000E+00
  0.00000000E+00  0.00000000E+00  0.00000000E+00
  0.00000000E+00  0.00000000E+00  0.00000000E+00
  0.00000000E+00  0.00000000E+00  0.00000000E+00
  0.00000000E+00  0.00000000E+00  0.00000000E+00
  0.00000000E+00  0.00000000E+00  0.00000000E+00
  0.00000000E+00  0.00000000E+00  0.00000000E+00
  0.00000000E+00  0.00000000E+00  0.00000000E+00
  0.00000000E+00  0.00000000E+00  0.00000000E+00
  0.00000000E+00  0.00000000E+00  0.00000000E+00
  0.00000000E+00  0.00000000E+00  0.00000000E+00
  0.00000000E+00  0.00000000E+00  0.00000000E+00
  0.00000000E+00  0.00000000E+00  0.00000000E+00
  0.00000000E+00  0.00000000E+00  0.00000000E+00
  0.00000000E+00  0.00000000E+00  0.00000000E+00
  0.00000000E+00  0.00000000E+00  0.00000000E+00
  0.00000000E+00  0.00000000E+00  0.00000000E+00
  0.00000000E+00  0.00000000E+00  0.00000000E+00
  0.00000000E+00  0.00000000E+00  0.00000000E+00
  0.00000000E+00  0.00000000E+00  0.00000000E+00
  0.00000000E+00  0.00000000E+00  0.00000000E+00
