CONTCAR                                 
   1.00000000000000     
    13.1778001785000001    0.0000000000000000    0.0000000000000000
    -6.5889000893000000   11.4123097205999997    0.0000000000000000
     0.0000000000000000    0.0000000000000000   18.1460990905999999
   W    Se   H 
    16    32     1
Direct
  0.0834188423479226  0.1667077654907751  0.5005873647290728
  0.3332429645928568  0.1665298096640190  0.5007401943340855
  0.5832414994845976  0.1666873403772656  0.5005898788165183
  0.8333271617048046  0.1667022461528132  0.5004335265317628
  0.0831421811124402  0.4167515760384181  0.5004097101429379
  0.3333333592655273  0.4166293146136890  0.5007784810589029
  0.5832636479496363  0.4166184640863009  0.5008422996149478
  0.8335766054758290  0.4167199994665913  0.5004417198256067
  0.0833141136789758  0.6666463390119871  0.5003167803510793
  0.3332257880822856  0.6668125756312583  0.5003964097974123
  0.5832734435971815  0.6665539690921365  0.5005828116230099
  0.8335556597910052  0.6668107343451980  0.5004542546573820
  0.0831103108212580  0.9163522605510920  0.5004378814171192
  0.3332499439837133  0.9163308850003409  0.5004127257205212
  0.5832768790089713  0.9166271744948008  0.5004265975602821
  0.8333655813645277  0.9166172490994947  0.5004379860142404
  0.1669445524386631  0.0834389918956499  0.4076044192928175
  0.1659706089768819  0.0827078954882645  0.5937249621664282
  0.4164441972939193  0.0834473400232364  0.4075994919735261
  0.4166662228746538  0.0826719716326922  0.5937111635542269
  0.6665134390480518  0.0834474898021816  0.4074587701004283
  0.6667033388018033  0.0832690345417397  0.5934715837673101
  0.9168567622298870  0.0834249287598608  0.4074756010797786
  0.9165617488824035  0.0832740313809394  0.5934709969332468
  0.1670531979700253  0.3335219874807745  0.4076120250285724
  0.1660198713132230  0.3332825571603146  0.5937206867802466
  0.4166574874024121  0.3332637174205640  0.4075355408382682
  0.4165788806489858  0.3332350006046561  0.5932480778655075
  0.6664567288560322  0.3335217043676804  0.4076382907609430
  0.6672126354866528  0.3332442227618817  0.5937534963924314
  0.9165901662933494  0.3332073538305113  0.4073001058548618
  0.9166724750536897  0.3333172138226024  0.5934917948190381
  0.1666550643730677  0.5832832851110193  0.4072853906801277
  0.1665716889479847  0.5834208953356145  0.5934084624254824
  0.4164782429648994  0.5829198744143207  0.4076026164489966
  0.4166987063890293  0.5839568344078138  0.5937126263586608
  0.6664455721229897  0.5828995273006830  0.4076331700144277
  0.6671988071548871  0.5839537376366871  0.5937557548180584
  0.9165418658493060  0.5832712731904355  0.4073366060871636
  0.9168504205667199  0.5834024254822088  0.5934324796447844
  0.1666796490465084  0.8333984368096703  0.4073206870091750
  0.1665921228030679  0.8331176225779298  0.5934143104435536
  0.4167616430941649  0.8333133967131930  0.4072808343711450
  0.4166679606987085  0.8332669307732153  0.5934866332950373
  0.6665919112422316  0.8331096779025803  0.4074644552852957
  0.6667150784685053  0.8334279097589425  0.5934682501278389
  0.9165774877453067  0.8332784216295086  0.4073180936390395
  0.9166474487897813  0.8333105644016842  0.5935099163597201
  0.4189858229106899  0.3359554164647018  0.7017740835889803
 
  0.00000000E+00  0.00000000E+00  0.00000000E+00
  0.00000000E+00  0.00000000E+00  0.00000000E+00
  0.00000000E+00  0.00000000E+00  0.00000000E+00
  0.00000000E+00  0.00000000E+00  0.00000000E+00
  0.00000000E+00  0.00000000E+00  0.00000000E+00
  0.00000000E+00  0.00000000E+00  0.00000000E+00
  0.00000000E+00  0.00000000E+00  0.00000000E+00
  0.00000000E+00  0.00000000E+00  0.00000000E+00
  0.00000000E+00  0.00000000E+00  0.00000000E+00
  0.00000000E+00  0.00000000E+00  0.00000000E+00
  0.00000000E+00  0.00000000E+00  0.00000000E+00
  0.00000000E+00  0.00000000E+00  0.00000000E+00
  0.00000000E+00  0.00000000E+00  0.00000000E+00
  0.00000000E+00  0.00000000E+00  0.00000000E+00
  0.00000000E+00  0.00000000E+00  0.00000000E+00
  0.00000000E+00  0.00000000E+00  0.00000000E+00
  0.00000000E+00  0.00000000E+00  0.00000000E+00
  0.00000000E+00  0.00000000E+00  0.00000000E+00
  0.00000000E+00  0.00000000E+00  0.00000000E+00
  0.00000000E+00  0.00000000E+00  0.00000000E+00
  0.00000000E+00  0.00000000E+00  0.00000000E+00
  0.00000000E+00  0.00000000E+00  0.00000000E+00
  0.00000000E+00  0.00000000E+00  0.00000000E+00
  0.00000000E+00  0.00000000E+00  0.00000000E+00
  0.00000000E+00  0.00000000E+00  0.00000000E+00
  0.00000000E+00  0.00000000E+00  0.00000000E+00
  0.00000000E+00  0.00000000E+00  0.00000000E+00
  0.00000000E+00  0.00000000E+00  0.00000000E+00
  0.00000000E+00  0.00000000E+00  0.00000000E+00
  0.00000000E+00  0.00000000E+00  0.00000000E+00
  0.00000000E+00  0.00000000E+00  0.00000000E+00
  0.00000000E+00  0.00000000E+00  0.00000000E+00
  0.00000000E+00  0.00000000E+00  0.00000000E+00
  0.00000000E+00  0.00000000E+00  0.00000000E+00
  0.00000000E+00  0.00000000E+00  0.00000000E+00
  0.00000000E+00  0.00000000E+00  0.00000000E+00
  0.00000000E+00  0.00000000E+00  0.00000000E+00
  0.00000000E+00  0.00000000E+00  0.00000000E+00
  0.00000000E+00  0.00000000E+00  0.00000000E+00
  0.00000000E+00  0.00000000E+00  0.00000000E+00
  0.00000000E+00  0.00000000E+00  0.00000000E+00
  0.00000000E+00  0.00000000E+00  0.00000000E+00
  0.00000000E+00  0.00000000E+00  0.00000000E+00
  0.00000000E+00  0.00000000E+00  0.00000000E+00
  0.00000000E+00  0.00000000E+00  0.00000000E+00
  0.00000000E+00  0.00000000E+00  0.00000000E+00
  0.00000000E+00  0.00000000E+00  0.00000000E+00
  0.00000000E+00  0.00000000E+00  0.00000000E+00
  0.00000000E+00  0.00000000E+00  0.00000000E+00
