CONTCAR\(6)                             
   1.00000000000000     
    13.7187995910999998    0.0000000000000000    0.0000000000000000
    -4.5729412920000003   17.9978325079000001    0.0000000000000000
     0.0000000000000000    0.0000000000000000   21.4340000153000005
   Ag   Te   Mo   O 
     6    36    36     1
Direct
  0.9974783915240698  0.0015564748245807  0.5020798450157659
  0.3333365185214927  0.0003406901688909  0.5040659855835881
  0.6699546059288742  0.0011755666453200  0.5017142679474001
  0.0020795449346509  0.5019259981364872  0.4979704957879975
  0.3339277785382811  0.5003030725178867  0.5001970966996323
  0.6641210365159815  0.5002871801791482  0.4999769630715428
  0.2612641452510804  0.2773487816370991  0.6474321789629011
  0.1400764344796870  0.4169686239136223  0.5627292803935869
  0.1935955830205074  0.0851177923775153  0.4366228832972818
  0.0366143985426708  0.1110339524620627  0.5969884957417638
  0.3018102212236875  0.3927687294901107  0.4026440805701131
  0.0759987993999224  0.2282299841756056  0.3494986238962078
  0.5911794189761961  0.2769012223346666  0.6475203510783808
  0.4743273600586521  0.4221412239017422  0.5717193782510304
  0.5297821898657681  0.0846750903164350  0.4367365730367594
  0.3704148738769616  0.1102569928805863  0.5976971210181644
  0.6275432849691556  0.3927066189640058  0.4025868608491154
  0.4074007287633119  0.2210951158636021  0.3494070742277617
  0.9256927165353966  0.2764401127868860  0.6481545744299170
  0.8052207258905709  0.4167692683074731  0.5621677694038321
  0.8630315290433600  0.0869696406843278  0.4348508757710298
  0.7046327222468244  0.1105921269036065  0.5967523765616024
  0.9645812004717058  0.3940103717787414  0.4018057356794928
  0.7433786043305746  0.2274686778251905  0.3495610300480462
  0.2570845506590144  0.7727641527139548  0.6499559019575791
  0.1379163830352084  0.9156754054928198  0.5662699172012289
  0.1957961157480974  0.5878831635648486  0.4338867419476035
  0.0361238405649494  0.6081970817485131  0.5955789314967345
  0.2981993524438546  0.8950807230653465  0.4049527324587967
  0.0765972314178928  0.7313216507516288  0.3504807869103290
  0.5903072990777416  0.7723940419122197  0.6503093426831325
  0.4722600508528894  0.9155229685611744  0.5662716404398419
  0.5282815686100671  0.5864008672673392  0.4356012369011311
  0.3686457425692867  0.6086059186423125  0.5965089600601935
  0.6313885157386139  0.8942256076253352  0.4047303574897354
  0.4102167119549757  0.7301281922658340  0.3508724135219263
  0.9244763663890972  0.7725176024229645  0.6500805655191632
  0.8048648182288388  0.9152112506445105  0.5672455901107529
  0.8622251298357855  0.5876128793056550  0.4345048498762176
  0.7028628835151887  0.6084517194002004  0.5967212065771232
  0.9637928616680701  0.8947158922889371  0.4048828037897520
  0.7425450329780625  0.7295915907102150  0.3511430535677093
  0.1077197888800814  0.3200949576992654  0.4553821131820789
  0.2272579044068341  0.1831968566090293  0.5424304997423858
  0.0579870834166371  0.1728973782841835  0.4727358407930132
  0.2793730139989417  0.3312879305522580  0.5253869739544142
  0.0894565194397005  0.2636639279901149  0.5700030659656867
  0.2452825880427107  0.2387558224376686  0.4280588541855557
  0.4385467469657037  0.3143500690756919  0.4531632928192742
  0.5620742704169547  0.1828957645297995  0.5424221766676188
  0.3901230889585331  0.1696296304108935  0.4728355746021104
  0.6088073987817263  0.3309876303920896  0.5254273708977987
  0.4213444939772674  0.2629417919527545  0.5678315793269965
  0.5811794674676991  0.2383849047920337  0.4280610313221346
  0.7727589512828421  0.3197490196258999  0.4552761467261793
  0.8951542699644183  0.1846302145677177  0.5424498982448709
  0.7245245830873662  0.1724502926945617  0.4727094411588935
  0.9440198515185688  0.3315183409869453  0.5253097407011299
  0.7534750861463919  0.2633705115227264  0.5699238632865510
  0.9141072806734856  0.2411194621902291  0.4281512008100112
  0.1064280174608246  0.8205546428466148  0.4577463880886788
  0.2272737282680758  0.6829177673376127  0.5426733541596195
  0.0573554055535636  0.6731399575483215  0.4725335810770183
  0.2765057578694011  0.8302631689762641  0.5277905337677281
  0.0869047409494080  0.7614650003559504  0.5712730431361243
  0.2471049696673113  0.7419688563723901  0.4290737974965195
  0.4398382233340535  0.8200852773729038  0.4579010799842536
  0.5604077602929700  0.6824153487876569  0.5434588695619637
  0.3904909693760056  0.6726992374117471  0.4731618500612402
  0.6097191779850119  0.8298797875475772  0.5280690925391218
  0.4200145685475468  0.7613740996611505  0.5716069832561419
  0.5801297844218013  0.7411596814855034  0.4297508261923624
  0.7728964743039886  0.8197901829041598  0.4582213961274680
  0.8940617551406330  0.6827256037610093  0.5429488659058092
  0.7238732236368027  0.6724715352290020  0.4734426081085515
  0.9430185011852188  0.8301438165498187  0.5279682933479583
  0.7534513361077646  0.7611786203050448  0.5719022518777032
  0.9134206690765562  0.7416726983984341  0.4292956979065771
  0.4747859692002085  0.4240881033755832  0.6589858381865782
 
  0.00000000E+00  0.00000000E+00  0.00000000E+00
  0.00000000E+00  0.00000000E+00  0.00000000E+00
  0.00000000E+00  0.00000000E+00  0.00000000E+00
  0.00000000E+00  0.00000000E+00  0.00000000E+00
  0.00000000E+00  0.00000000E+00  0.00000000E+00
  0.00000000E+00  0.00000000E+00  0.00000000E+00
  0.00000000E+00  0.00000000E+00  0.00000000E+00
  0.00000000E+00  0.00000000E+00  0.00000000E+00
  0.00000000E+00  0.00000000E+00  0.00000000E+00
  0.00000000E+00  0.00000000E+00  0.00000000E+00
  0.00000000E+00  0.00000000E+00  0.00000000E+00
  0.00000000E+00  0.00000000E+00  0.00000000E+00
  0.00000000E+00  0.00000000E+00  0.00000000E+00
  0.00000000E+00  0.00000000E+00  0.00000000E+00
  0.00000000E+00  0.00000000E+00  0.00000000E+00
  0.00000000E+00  0.00000000E+00  0.00000000E+00
  0.00000000E+00  0.00000000E+00  0.00000000E+00
  0.00000000E+00  0.00000000E+00  0.00000000E+00
  0.00000000E+00  0.00000000E+00  0.00000000E+00
  0.00000000E+00  0.00000000E+00  0.00000000E+00
  0.00000000E+00  0.00000000E+00  0.00000000E+00
  0.00000000E+00  0.00000000E+00  0.00000000E+00
  0.00000000E+00  0.00000000E+00  0.00000000E+00
  0.00000000E+00  0.00000000E+00  0.00000000E+00
  0.00000000E+00  0.00000000E+00  0.00000000E+00
  0.00000000E+00  0.00000000E+00  0.00000000E+00
  0.00000000E+00  0.00000000E+00  0.00000000E+00
  0.00000000E+00  0.00000000E+00  0.00000000E+00
  0.00000000E+00  0.00000000E+00  0.00000000E+00
  0.00000000E+00  0.00000000E+00  0.00000000E+00
  0.00000000E+00  0.00000000E+00  0.00000000E+00
  0.00000000E+00  0.00000000E+00  0.00000000E+00
  0.00000000E+00  0.00000000E+00  0.00000000E+00
  0.00000000E+00  0.00000000E+00  0.00000000E+00
  0.00000000E+00  0.00000000E+00  0.00000000E+00
  0.00000000E+00  0.00000000E+00  0.00000000E+00
  0.00000000E+00  0.00000000E+00  0.00000000E+00
  0.00000000E+00  0.00000000E+00  0.00000000E+00
  0.00000000E+00  0.00000000E+00  0.00000000E+00
  0.00000000E+00  0.00000000E+00  0.00000000E+00
  0.00000000E+00  0.00000000E+00  0.00000000E+00
  0.00000000E+00  0.00000000E+00  0.00000000E+00
  0.00000000E+00  0.00000000E+00  0.00000000E+00
  0.00000000E+00  0.00000000E+00  0.00000000E+00
  0.00000000E+00  0.00000000E+00  0.00000000E+00
  0.00000000E+00  0.00000000E+00  0.00000000E+00
  0.00000000E+00  0.00000000E+00  0.00000000E+00
  0.00000000E+00  0.00000000E+00  0.00000000E+00
  0.00000000E+00  0.00000000E+00  0.00000000E+00
  0.00000000E+00  0.00000000E+00  0.00000000E+00
  0.00000000E+00  0.00000000E+00  0.00000000E+00
  0.00000000E+00  0.00000000E+00  0.00000000E+00
  0.00000000E+00  0.00000000E+00  0.00000000E+00
  0.00000000E+00  0.00000000E+00  0.00000000E+00
  0.00000000E+00  0.00000000E+00  0.00000000E+00
  0.00000000E+00  0.00000000E+00  0.00000000E+00
  0.00000000E+00  0.00000000E+00  0.00000000E+00
  0.00000000E+00  0.00000000E+00  0.00000000E+00
  0.00000000E+00  0.00000000E+00  0.00000000E+00
  0.00000000E+00  0.00000000E+00  0.00000000E+00
  0.00000000E+00  0.00000000E+00  0.00000000E+00
  0.00000000E+00  0.00000000E+00  0.00000000E+00
  0.00000000E+00  0.00000000E+00  0.00000000E+00
  0.00000000E+00  0.00000000E+00  0.00000000E+00
  0.00000000E+00  0.00000000E+00  0.00000000E+00
  0.00000000E+00  0.00000000E+00  0.00000000E+00
  0.00000000E+00  0.00000000E+00  0.00000000E+00
  0.00000000E+00  0.00000000E+00  0.00000000E+00
  0.00000000E+00  0.00000000E+00  0.00000000E+00
  0.00000000E+00  0.00000000E+00  0.00000000E+00
  0.00000000E+00  0.00000000E+00  0.00000000E+00
  0.00000000E+00  0.00000000E+00  0.00000000E+00
  0.00000000E+00  0.00000000E+00  0.00000000E+00
  0.00000000E+00  0.00000000E+00  0.00000000E+00
  0.00000000E+00  0.00000000E+00  0.00000000E+00
  0.00000000E+00  0.00000000E+00  0.00000000E+00
  0.00000000E+00  0.00000000E+00  0.00000000E+00
  0.00000000E+00  0.00000000E+00  0.00000000E+00
  0.00000000E+00  0.00000000E+00  0.00000000E+00
