CONTCAR                                 
   1.00000000000000     
    14.0314998627000005    0.0000000000000000    0.0000000000000000
     0.0000000000000000   12.8740997313999994    0.0000000000000000
     0.0000000000000000    0.0000000000000000   20.5195999146000005
   Ta   Ni   Te   O 
    16    32    32     1
Direct
  0.0000104045395778  0.2038104905727575  0.4797978415846174
  0.9999563034774601  0.4536529756534531  0.5224388623959524
  0.2494389669053143  0.2028363340273085  0.4787050788750534
  0.2513836434638302  0.4540431857303158  0.5225524066764503
  0.5000070459639933  0.2020641310120825  0.4770148046500549
  0.5000095898301743  0.4486441392528518  0.5207346071306628
  0.7505557017172264  0.2027872862047431  0.4787280499382472
  0.7485680525666976  0.4540554718922926  0.5225254979503752
  0.9999755102059781  0.7024305321251016  0.4793972560398568
  0.0000261371336023  0.9515219882475975  0.5221030640214761
  0.2511401074992776  0.7011283556270294  0.4785148908566872
  0.2498888516977614  0.9536454828264448  0.5206051402827779
  0.4999845934730948  0.7082483010282874  0.4751006923219001
  0.4999853625616796  0.9528521662127735  0.5192743968908283
  0.7487969855601108  0.7011583567761056  0.4785198557391395
  0.7501167321948268  0.9536227201416334  0.5206584378998220
  0.1250972736329957  0.1045438857823974  0.5562674335275110
  0.1257276736781264  0.3558876718650892  0.4455188364077067
  0.1252466287836048  0.3006775393016690  0.5570500209071331
  0.1230762628030533  0.0507260234428252  0.4444314931744740
  0.3761112793083047  0.1036614210961835  0.5551410149161525
  0.3739306545505902  0.3549012488831080  0.4437500640688478
  0.3747602875799830  0.2992905959619782  0.5552134960254748
  0.3737162490736040  0.0516755627228809  0.4428384700417085
  0.6238631170622266  0.1036572193549848  0.5551835042223384
  0.6260882351426522  0.3548941318741933  0.4437584164769162
  0.6252526244592310  0.2993298647862411  0.5552314777477821
  0.6262617079210119  0.0516675336832990  0.4428800049773463
  0.8748534845958418  0.1045109888306624  0.5562929512566266
  0.8741839513592818  0.3558629673716305  0.4455261410533996
  0.8747202952152870  0.3006342519442948  0.5570466013587352
  0.8770546609262782  0.0507075709960712  0.4444924914531713
  0.1292943683799572  0.6033153639522884  0.5561380700510233
  0.1261680882790378  0.8547180468816286  0.4446335193386639
  0.1267659271217726  0.7992869033760658  0.5562141908395899
  0.1235873129578054  0.5508613036861174  0.4443588490862473
  0.4003261013157822  0.6095127111047280  0.5597553417414587
  0.3736744403435546  0.8559919246791560  0.4415268554110511
  0.3744477885423981  0.8012484850555097  0.5528059490386344
  0.3733522781326051  0.5519367762987601  0.4465175952250046
  0.5997843248176080  0.6094861611846595  0.5596694903964581
  0.6264683740179336  0.8559820206783599  0.4415691196633894
  0.6253060830944600  0.8012714547001129  0.5528648808207628
  0.6265830641242669  0.5519038092777310  0.4464324736292064
  0.8707732920291189  0.6033211246418492  0.5561018602359514
  0.8738342609563799  0.8547137633630506  0.4446476239534078
  0.8732472457149425  0.7992934678991367  0.5562325958517973
  0.8763765272715573  0.5508106058069726  0.4443233870151338
  0.1236804225353484  0.4518903910346289  0.6348769300078088
  0.1244794105568828  0.2039816124165762  0.3671721157066011
  0.9999811582872431  0.4513743318262350  0.3777242279526235
 -0.0000047148077908  0.2023408775428537  0.6235708087708842
  0.3750100767243558  0.4507697815856288  0.6338148980937497
  0.3742458414133454  0.2039283570405773  0.3654263930343848
  0.2495043769270139  0.4538570077040164  0.3777144113402263
  0.2505219687095455  0.2019450694401985  0.6228011018015908
  0.6250117308071087  0.4508285798490774  0.6338250587727311
  0.6257028526497271  0.2038811380037277  0.3654652967322129
  0.4999767931640419  0.4537154944764748  0.3783266080226243
  0.4999946730203272  0.2024699491115905  0.6215780502579331
  0.8761987271150000  0.4518653838070033  0.6348601239593649
  0.8754474929307211  0.2039349975046348  0.3671849576888481
  0.7504452842449283  0.4538144235065541  0.3776529557577049
  0.7494865308074115  0.2019094696121581  0.6228090854753081
  0.1260934643905564  0.9514839105025471  0.6336648542110997
  0.1250471319219091  0.7028760979591239  0.3670065246088268
  0.0000137556563501  0.9507881857152132  0.3772969671438437
  0.0000161134955393  0.7001482466350396  0.6217788794527618
  0.3762503332162073  0.9504907379891750  0.6324117380605015
  0.3734831066419435  0.7015060566848321  0.3648334728896370
  0.2484268347490551  0.9547840469778734  0.3758702797122437
  0.2574755707995581  0.6969222242881898  0.6203912045799116
  0.6238579210506366  0.9505133140188524  0.6324550189841874
  0.6264517329284206  0.7015516715788570  0.3648150647256946
  0.5000211510171483  0.9542817423145646  0.3758866679773242
  0.4999771956935248  0.7058450440530099  0.6477141714209890
  0.8739550353740478  0.9514747480715002  0.6336938984670875
  0.8749107398343030  0.7029447942117499  0.3670160275637796
  0.7516118376842128  0.9548975219675299  0.3759631408100458
  0.7425490230520281  0.6969582222854704  0.6203549378471495
  0.5001480844275029  0.6052626894701318  0.7139296080032879
 
  0.00000000E+00  0.00000000E+00  0.00000000E+00
  0.00000000E+00  0.00000000E+00  0.00000000E+00
  0.00000000E+00  0.00000000E+00  0.00000000E+00
  0.00000000E+00  0.00000000E+00  0.00000000E+00
  0.00000000E+00  0.00000000E+00  0.00000000E+00
  0.00000000E+00  0.00000000E+00  0.00000000E+00
  0.00000000E+00  0.00000000E+00  0.00000000E+00
  0.00000000E+00  0.00000000E+00  0.00000000E+00
  0.00000000E+00  0.00000000E+00  0.00000000E+00
  0.00000000E+00  0.00000000E+00  0.00000000E+00
  0.00000000E+00  0.00000000E+00  0.00000000E+00
  0.00000000E+00  0.00000000E+00  0.00000000E+00
  0.00000000E+00  0.00000000E+00  0.00000000E+00
  0.00000000E+00  0.00000000E+00  0.00000000E+00
  0.00000000E+00  0.00000000E+00  0.00000000E+00
  0.00000000E+00  0.00000000E+00  0.00000000E+00
  0.00000000E+00  0.00000000E+00  0.00000000E+00
  0.00000000E+00  0.00000000E+00  0.00000000E+00
  0.00000000E+00  0.00000000E+00  0.00000000E+00
  0.00000000E+00  0.00000000E+00  0.00000000E+00
  0.00000000E+00  0.00000000E+00  0.00000000E+00
  0.00000000E+00  0.00000000E+00  0.00000000E+00
  0.00000000E+00  0.00000000E+00  0.00000000E+00
  0.00000000E+00  0.00000000E+00  0.00000000E+00
  0.00000000E+00  0.00000000E+00  0.00000000E+00
  0.00000000E+00  0.00000000E+00  0.00000000E+00
  0.00000000E+00  0.00000000E+00  0.00000000E+00
  0.00000000E+00  0.00000000E+00  0.00000000E+00
  0.00000000E+00  0.00000000E+00  0.00000000E+00
  0.00000000E+00  0.00000000E+00  0.00000000E+00
  0.00000000E+00  0.00000000E+00  0.00000000E+00
  0.00000000E+00  0.00000000E+00  0.00000000E+00
  0.00000000E+00  0.00000000E+00  0.00000000E+00
  0.00000000E+00  0.00000000E+00  0.00000000E+00
  0.00000000E+00  0.00000000E+00  0.00000000E+00
  0.00000000E+00  0.00000000E+00  0.00000000E+00
  0.00000000E+00  0.00000000E+00  0.00000000E+00
  0.00000000E+00  0.00000000E+00  0.00000000E+00
  0.00000000E+00  0.00000000E+00  0.00000000E+00
  0.00000000E+00  0.00000000E+00  0.00000000E+00
  0.00000000E+00  0.00000000E+00  0.00000000E+00
  0.00000000E+00  0.00000000E+00  0.00000000E+00
  0.00000000E+00  0.00000000E+00  0.00000000E+00
  0.00000000E+00  0.00000000E+00  0.00000000E+00
  0.00000000E+00  0.00000000E+00  0.00000000E+00
  0.00000000E+00  0.00000000E+00  0.00000000E+00
  0.00000000E+00  0.00000000E+00  0.00000000E+00
  0.00000000E+00  0.00000000E+00  0.00000000E+00
  0.00000000E+00  0.00000000E+00  0.00000000E+00
  0.00000000E+00  0.00000000E+00  0.00000000E+00
  0.00000000E+00  0.00000000E+00  0.00000000E+00
  0.00000000E+00  0.00000000E+00  0.00000000E+00
  0.00000000E+00  0.00000000E+00  0.00000000E+00
  0.00000000E+00  0.00000000E+00  0.00000000E+00
  0.00000000E+00  0.00000000E+00  0.00000000E+00
  0.00000000E+00  0.00000000E+00  0.00000000E+00
  0.00000000E+00  0.00000000E+00  0.00000000E+00
  0.00000000E+00  0.00000000E+00  0.00000000E+00
  0.00000000E+00  0.00000000E+00  0.00000000E+00
  0.00000000E+00  0.00000000E+00  0.00000000E+00
  0.00000000E+00  0.00000000E+00  0.00000000E+00
  0.00000000E+00  0.00000000E+00  0.00000000E+00
  0.00000000E+00  0.00000000E+00  0.00000000E+00
  0.00000000E+00  0.00000000E+00  0.00000000E+00
  0.00000000E+00  0.00000000E+00  0.00000000E+00
  0.00000000E+00  0.00000000E+00  0.00000000E+00
  0.00000000E+00  0.00000000E+00  0.00000000E+00
  0.00000000E+00  0.00000000E+00  0.00000000E+00
  0.00000000E+00  0.00000000E+00  0.00000000E+00
  0.00000000E+00  0.00000000E+00  0.00000000E+00
  0.00000000E+00  0.00000000E+00  0.00000000E+00
  0.00000000E+00  0.00000000E+00  0.00000000E+00
  0.00000000E+00  0.00000000E+00  0.00000000E+00
  0.00000000E+00  0.00000000E+00  0.00000000E+00
  0.00000000E+00  0.00000000E+00  0.00000000E+00
  0.00000000E+00  0.00000000E+00  0.00000000E+00
  0.00000000E+00  0.00000000E+00  0.00000000E+00
  0.00000000E+00  0.00000000E+00  0.00000000E+00
  0.00000000E+00  0.00000000E+00  0.00000000E+00
  0.00000000E+00  0.00000000E+00  0.00000000E+00
  0.00000000E+00  0.00000000E+00  0.00000000E+00
