CONTCAR                                 
   1.00000000000000     
    12.2124004363999994    0.0000000000000000    0.0000000000000000
     0.0000000000000000   12.2124004363999994    0.0000000000000000
     0.0000000000000000    0.0000000000000000   20.3764991759999994
   H    W    O 
   128    32     1
Direct
  0.1199759718822688  0.0157456118927124  0.5417272069734174
  0.9988817654134619  0.1441816600040621  0.4557545158409623
  0.1250872533109617  0.9967927383765851  0.3661104374863162
  0.0018912462239818  0.1188524403487156  0.6303878025911974
  0.9954089815577273  0.9961477010095192  0.5971784286040648
  0.1251119922165940  0.1232460820371636  0.3990309382661345
 -0.0004559707888018  0.0076432626379163  0.3989639926544920
  0.1257343292065016  0.1293098822301339  0.5975339742549227
  0.3745888379181917  0.0135527756331294  0.5412082343104150
  0.2500717840611407  0.1445896997541378  0.4555592548963960
  0.3741325831724869  0.9953166071365680  0.3652898278187168
  0.2512282779338444  0.1189218337839503  0.6302163287714698
  0.2500043604961717  0.9964617276474568  0.5975530595123159
  0.3756506234385470  0.1231226389184269  0.3984925890717053
  0.2501318930887619  0.0068786085617823  0.3983238896564284
  0.3760348597375670  0.1286726746094148  0.5976661407087808
  0.6224994776081209  0.0110566190414994  0.5416856877284583
  0.5013614274551632  0.1427996249934143  0.4553588564190396
  0.6265741608887304  0.9959092827573424  0.3657166448667780
  0.5006469326737873  0.1190043948695588  0.6303481524933513
  0.5001907834808146  0.9948210738567842  0.5979728517934317
  0.6259642825013769  0.1230580268837270  0.3986638576019300
  0.5003763676354076  0.0026974862567731  0.3987978456699451
  0.6253073219707609  0.1280686530652179  0.5975988054898556
  0.8541102951828032  0.9924410605380205  0.5422269309075457
  0.7509613453019359  0.1443200923474945  0.4558573943749912
  0.8763655907666691  0.9955897791703935  0.3668066238931373
  0.7496935214037616  0.1174145893690173  0.6305939195170449
  0.7447094858856725  0.9956644639512071  0.5993699949412437
  0.8759316986056904  0.1227629547777860  0.3995019993601588
  0.7500805456232670  0.0059381958057525  0.3996680441542643
  0.8757405527214036  0.1230232771815283  0.5966745844909511
  0.1241528141962325  0.2693810774200450  0.5417530999556256
  0.0010343759616641  0.3971087402333067  0.4568159068687082
  0.1257136770677809  0.2458116684911805  0.3667807169137952
  0.0015169158695066  0.3709722439532264  0.6312515981871113
  0.0001498463985319  0.2468193432344206  0.5983527415290812
  0.1255138224775257  0.3727365496196606  0.3993590614550278
  0.0006343166402892  0.2566247759786771  0.3997212840405456
  0.1264811217947176  0.3803274676704828  0.5986528765777385
  0.3762499984901758  0.2695750137701720  0.5414767425513060
  0.2509694882622592  0.3955504973249308  0.4563398089166754
  0.3762196254482952  0.2455486239653965  0.3666652273511590
  0.2517830804219900  0.3695357279990555  0.6310668076220746
  0.2506257073019353  0.2461734999353710  0.5979464976371088
  0.3767622107718058  0.3720789970933598  0.3993317440170505
  0.2509603892165534  0.2563710321980954  0.3995640198679378
  0.3768184933011064  0.3795736785589244  0.5987207995476989
  0.6270412031950854  0.2692871014461506  0.5416842951428448
  0.5015023568896885  0.3974756161689800  0.4565199143939758
  0.6266416506934110  0.2456747373523497  0.3667575029910832
  0.5027577641398072  0.3693109042387223  0.6310463326222301
  0.5012428108887312  0.2462807914565840  0.5977452235128597
  0.6260665737794618  0.3723729949309192  0.3991437585183345
  0.5013247521765475  0.2563364492871476  0.3996201634897956
  0.6260533320565641  0.3790331973737383  0.5994370390485078
  0.8758327279519914  0.2689303535063222  0.5422341749137082
  0.7510292462882157  0.3969984215228322  0.4566609900145043
  0.8761685435845784  0.2464215200287898  0.3670865653468138
  0.7493787170729015  0.3703107295402303  0.6311055323753575
  0.7511495192797850  0.2464329479656381  0.5984536974160641
  0.8760682536885143  0.3729852847292455  0.4003509615128206
  0.7513327239968932  0.2566903997289344  0.3997257934886363
  0.8758124207477583  0.3827834198484003  0.5978452799105209
  0.1289249527153924  0.5193929015278943  0.5412945322680826
  0.9980757374163717  0.6469665613084986  0.4562994529090060
  0.1261408047206323  0.4952137704980576  0.3665629403058384
  0.9809703890341902  0.6214295739072352  0.6291365633111543
  0.9996219746470117  0.4995921886960198  0.5985292070870089
  0.1248392633493572  0.6224815322395175  0.3993603352867292
  0.0014845262851414  0.5073332971323701  0.4001132984455185
  0.1259162433979192  0.6304397753999116  0.5981110691230074
  0.3741083472179816  0.5202322572892737  0.5407800536273989
  0.2489492977573334  0.6464931182267969  0.4563614976259867
  0.3755636740552833  0.4958396833470129  0.3664171395410502
  0.2533141285355167  0.6211001775939500  0.6308801212477808
  0.2525503235956112  0.4970588582466136  0.5983619900220627
  0.3759831961897204  0.6214601799519905  0.4004364741514919
  0.2515903423653177  0.5058873936792081  0.3990913449247445
  0.3788680111359058  0.6286314621438398  0.5998394445777656
  0.6277883607515069  0.5160440365691650  0.5407358854794353
  0.5037618443119180  0.6454127977402200  0.4572147503152256
  0.6278476203786076  0.4956878073428935  0.3660015186504450
  0.5717010814702158  0.5577044080482073  0.7092206776398952
  0.5007491443042268  0.4976801080263566  0.5980777470827996
  0.6275051494359214  0.6219883260596762  0.4000574703936671
  0.5011181470117259  0.5076571074354651  0.3991370325211618
  0.6260223877324049  0.6271345161590894  0.5988883758831092
  0.8764006622381940  0.5375577814079210  0.5477235343188174
  0.7529953653428610  0.6480452765861261  0.4568488622443692
  0.8768954318179248  0.4933975396086189  0.3681351507244310
  0.6961903749970757  0.5567619383976365  0.7034920693464440
  0.7535555425781387  0.4979718683503546  0.5978776714336480
  0.8752538714192114  0.6215360022449232  0.4004251646229882
  0.7515470209108052  0.5073672034313913  0.3998462247138549
  0.7759268901716113  0.6226417461890711  0.6291454419604323
  0.1265174425265177  0.7711372602695863  0.5412201922539807
  0.9964937059131969  0.8951136586872581  0.4553790572847464
  0.1267820656062875  0.7467079215413283  0.3661375641179948
  0.0028651983560559  0.8696309996573091  0.6298603706202525
  0.0000662136189376  0.7454735764816499  0.5979294009414965
  0.1252928257953945  0.8727320727349226  0.3990195644663780
  0.0013362065640065  0.7575271263915500  0.3997479659371482
  0.1269250855045416  0.8793198775082627  0.5974051883951281
  0.4158327674541917  0.7479114682820766  0.5468115676605926
  0.2497344587346446  0.8961857735507943  0.4550887142879378
  0.3742632892288878  0.7457475705025124  0.3670112065393930
  0.2520610621406963  0.8712774815634059  0.6294713484927326
  0.2585589178872131  0.7473535246243844  0.5958811084499520
  0.3703928742717095  0.8726722196176339  0.3978113651830992
  0.2520474733184277  0.7566901844383519  0.3989985025637299
  0.3782915555508519  0.8723421257603552  0.5964862635721514
  0.5885735175083886  0.7479431311899609  0.5463275893097566
  0.4843560232026244  0.8810426772138334  0.4541868016426768
  0.6294015309511957  0.7475747232339466  0.3666030035512147
  0.5012979291859283  0.8492762524265702  0.6280590176909419
  0.4993705438088026  0.6484587589437832  0.6292552817138486
  0.6199962871541476  0.8728714498855633  0.3984697464706100
  0.5013503588015426  0.7538070367476329  0.3985471808050700
  0.6234034104931689  0.8706347479529534  0.5969015649920631
  0.8757969685621619  0.7074339199894624  0.5472746545037750
  0.7366442151003897  0.8863284987928131  0.4545140233242031
  0.8768188710865772  0.7484267039849254  0.3675741046935619
  0.7502420450537393  0.8711924294413141  0.6295601918694013
  0.7465087690553377  0.7459423234804248  0.5959608663335982
  0.8736441568198055  0.8717179533217854  0.4000045558870763
  0.7510786610927099  0.7568914133506930  0.3988581626073560
  0.8756576055654929  0.8623875374968609  0.5954610991536602
  0.1259065692784873  0.9956881281352531  0.4506345934330018
  0.0013057590139344  0.1194390031073838  0.5458774356268153
  0.3756447244245897  0.9955758169265445  0.4498766850530003
  0.2513805260019729  0.1191200967023726  0.5457224635314551
  0.6259661535801564  0.9959648151121341  0.4503215832079955
  0.5009843117925993  0.1187436486470860  0.5458164088938021
  0.8765873143439529  0.9957981709258684  0.4513308427124246
  0.7508268884847863  0.1190221895006382  0.5460977085551288
  0.1262190770809102  0.2451394016562404  0.4513007248151585
  0.0014704054649107  0.3699899346819605  0.5467593148370384
  0.3763995682573077  0.2447350422677904  0.4512022409444982
  0.2516614031906237  0.3692288588316169  0.5465799059969944
  0.6261250629418780  0.2448830047289418  0.4512844137042405
  0.5014433605418920  0.3695536293223842  0.5465542432080279
  0.8761456119190961  0.2452916128576377  0.4516249366352276
  0.7507804186747290  0.3694434828333615  0.5466226772148560
  0.1267805383243828  0.4949011512854736  0.4511471127849684
  0.0025609897543744  0.6204581455494687  0.5454315865512152
  0.3762514775771521  0.4945646066506587  0.4509960160164050
  0.2521127710861142  0.6198027803349491  0.5463424504618104
  0.6263126433112665  0.4947900342680168  0.4506498552822253
  0.5016821422376531  0.6199692126023031  0.5461794962874090
  0.8764881035439251  0.4953664205872380  0.4521015292985100
  0.7508855782578129  0.6201757905715343  0.5456408999260923
  0.1271923643202321  0.7455978690367459  0.4506690213218625
  0.0019468824456332  0.8697410815195402  0.5453566147976452
  0.3763479131814055  0.7456675745488471  0.4510281100413436
  0.2519514837971341  0.8701288720261238  0.5449410939472843
  0.6268163788272908  0.7468405078546353  0.4506548504389570
  0.5017336149863624  0.8708492482693025  0.5442550072063902
  0.8766243821486562  0.7465823111059899  0.4516061348170089
  0.7512622049637522  0.8704506993467562  0.5449797078789723
  0.6366289784153381  0.5265527573374343  0.7298391006148124
 
  0.00000000E+00  0.00000000E+00  0.00000000E+00
  0.00000000E+00  0.00000000E+00  0.00000000E+00
  0.00000000E+00  0.00000000E+00  0.00000000E+00
  0.00000000E+00  0.00000000E+00  0.00000000E+00
  0.00000000E+00  0.00000000E+00  0.00000000E+00
  0.00000000E+00  0.00000000E+00  0.00000000E+00
  0.00000000E+00  0.00000000E+00  0.00000000E+00
  0.00000000E+00  0.00000000E+00  0.00000000E+00
  0.00000000E+00  0.00000000E+00  0.00000000E+00
  0.00000000E+00  0.00000000E+00  0.00000000E+00
  0.00000000E+00  0.00000000E+00  0.00000000E+00
  0.00000000E+00  0.00000000E+00  0.00000000E+00
  0.00000000E+00  0.00000000E+00  0.00000000E+00
  0.00000000E+00  0.00000000E+00  0.00000000E+00
  0.00000000E+00  0.00000000E+00  0.00000000E+00
  0.00000000E+00  0.00000000E+00  0.00000000E+00
  0.00000000E+00  0.00000000E+00  0.00000000E+00
  0.00000000E+00  0.00000000E+00  0.00000000E+00
  0.00000000E+00  0.00000000E+00  0.00000000E+00
  0.00000000E+00  0.00000000E+00  0.00000000E+00
  0.00000000E+00  0.00000000E+00  0.00000000E+00
  0.00000000E+00  0.00000000E+00  0.00000000E+00
  0.00000000E+00  0.00000000E+00  0.00000000E+00
  0.00000000E+00  0.00000000E+00  0.00000000E+00
  0.00000000E+00  0.00000000E+00  0.00000000E+00
  0.00000000E+00  0.00000000E+00  0.00000000E+00
  0.00000000E+00  0.00000000E+00  0.00000000E+00
  0.00000000E+00  0.00000000E+00  0.00000000E+00
  0.00000000E+00  0.00000000E+00  0.00000000E+00
  0.00000000E+00  0.00000000E+00  0.00000000E+00
  0.00000000E+00  0.00000000E+00  0.00000000E+00
  0.00000000E+00  0.00000000E+00  0.00000000E+00
  0.00000000E+00  0.00000000E+00  0.00000000E+00
  0.00000000E+00  0.00000000E+00  0.00000000E+00
  0.00000000E+00  0.00000000E+00  0.00000000E+00
  0.00000000E+00  0.00000000E+00  0.00000000E+00
  0.00000000E+00  0.00000000E+00  0.00000000E+00
  0.00000000E+00  0.00000000E+00  0.00000000E+00
  0.00000000E+00  0.00000000E+00  0.00000000E+00
  0.00000000E+00  0.00000000E+00  0.00000000E+00
  0.00000000E+00  0.00000000E+00  0.00000000E+00
  0.00000000E+00  0.00000000E+00  0.00000000E+00
  0.00000000E+00  0.00000000E+00  0.00000000E+00
  0.00000000E+00  0.00000000E+00  0.00000000E+00
  0.00000000E+00  0.00000000E+00  0.00000000E+00
  0.00000000E+00  0.00000000E+00  0.00000000E+00
  0.00000000E+00  0.00000000E+00  0.00000000E+00
  0.00000000E+00  0.00000000E+00  0.00000000E+00
  0.00000000E+00  0.00000000E+00  0.00000000E+00
  0.00000000E+00  0.00000000E+00  0.00000000E+00
  0.00000000E+00  0.00000000E+00  0.00000000E+00
  0.00000000E+00  0.00000000E+00  0.00000000E+00
  0.00000000E+00  0.00000000E+00  0.00000000E+00
  0.00000000E+00  0.00000000E+00  0.00000000E+00
  0.00000000E+00  0.00000000E+00  0.00000000E+00
  0.00000000E+00  0.00000000E+00  0.00000000E+00
  0.00000000E+00  0.00000000E+00  0.00000000E+00
  0.00000000E+00  0.00000000E+00  0.00000000E+00
  0.00000000E+00  0.00000000E+00  0.00000000E+00
  0.00000000E+00  0.00000000E+00  0.00000000E+00
  0.00000000E+00  0.00000000E+00  0.00000000E+00
  0.00000000E+00  0.00000000E+00  0.00000000E+00
  0.00000000E+00  0.00000000E+00  0.00000000E+00
  0.00000000E+00  0.00000000E+00  0.00000000E+00
  0.00000000E+00  0.00000000E+00  0.00000000E+00
  0.00000000E+00  0.00000000E+00  0.00000000E+00
  0.00000000E+00  0.00000000E+00  0.00000000E+00
  0.00000000E+00  0.00000000E+00  0.00000000E+00
  0.00000000E+00  0.00000000E+00  0.00000000E+00
  0.00000000E+00  0.00000000E+00  0.00000000E+00
  0.00000000E+00  0.00000000E+00  0.00000000E+00
  0.00000000E+00  0.00000000E+00  0.00000000E+00
  0.00000000E+00  0.00000000E+00  0.00000000E+00
  0.00000000E+00  0.00000000E+00  0.00000000E+00
  0.00000000E+00  0.00000000E+00  0.00000000E+00
  0.00000000E+00  0.00000000E+00  0.00000000E+00
  0.00000000E+00  0.00000000E+00  0.00000000E+00
  0.00000000E+00  0.00000000E+00  0.00000000E+00
  0.00000000E+00  0.00000000E+00  0.00000000E+00
  0.00000000E+00  0.00000000E+00  0.00000000E+00
  0.00000000E+00  0.00000000E+00  0.00000000E+00
  0.00000000E+00  0.00000000E+00  0.00000000E+00
  0.00000000E+00  0.00000000E+00  0.00000000E+00
  0.00000000E+00  0.00000000E+00  0.00000000E+00
  0.00000000E+00  0.00000000E+00  0.00000000E+00
  0.00000000E+00  0.00000000E+00  0.00000000E+00
  0.00000000E+00  0.00000000E+00  0.00000000E+00
  0.00000000E+00  0.00000000E+00  0.00000000E+00
  0.00000000E+00  0.00000000E+00  0.00000000E+00
  0.00000000E+00  0.00000000E+00  0.00000000E+00
  0.00000000E+00  0.00000000E+00  0.00000000E+00
  0.00000000E+00  0.00000000E+00  0.00000000E+00
  0.00000000E+00  0.00000000E+00  0.00000000E+00
  0.00000000E+00  0.00000000E+00  0.00000000E+00
  0.00000000E+00  0.00000000E+00  0.00000000E+00
  0.00000000E+00  0.00000000E+00  0.00000000E+00
  0.00000000E+00  0.00000000E+00  0.00000000E+00
  0.00000000E+00  0.00000000E+00  0.00000000E+00
  0.00000000E+00  0.00000000E+00  0.00000000E+00
  0.00000000E+00  0.00000000E+00  0.00000000E+00
  0.00000000E+00  0.00000000E+00  0.00000000E+00
  0.00000000E+00  0.00000000E+00  0.00000000E+00
  0.00000000E+00  0.00000000E+00  0.00000000E+00
  0.00000000E+00  0.00000000E+00  0.00000000E+00
  0.00000000E+00  0.00000000E+00  0.00000000E+00
  0.00000000E+00  0.00000000E+00  0.00000000E+00
  0.00000000E+00  0.00000000E+00  0.00000000E+00
  0.00000000E+00  0.00000000E+00  0.00000000E+00
  0.00000000E+00  0.00000000E+00  0.00000000E+00
  0.00000000E+00  0.00000000E+00  0.00000000E+00
  0.00000000E+00  0.00000000E+00  0.00000000E+00
  0.00000000E+00  0.00000000E+00  0.00000000E+00
  0.00000000E+00  0.00000000E+00  0.00000000E+00
  0.00000000E+00  0.00000000E+00  0.00000000E+00
  0.00000000E+00  0.00000000E+00  0.00000000E+00
  0.00000000E+00  0.00000000E+00  0.00000000E+00
  0.00000000E+00  0.00000000E+00  0.00000000E+00
  0.00000000E+00  0.00000000E+00  0.00000000E+00
  0.00000000E+00  0.00000000E+00  0.00000000E+00
  0.00000000E+00  0.00000000E+00  0.00000000E+00
  0.00000000E+00  0.00000000E+00  0.00000000E+00
  0.00000000E+00  0.00000000E+00  0.00000000E+00
  0.00000000E+00  0.00000000E+00  0.00000000E+00
  0.00000000E+00  0.00000000E+00  0.00000000E+00
  0.00000000E+00  0.00000000E+00  0.00000000E+00
  0.00000000E+00  0.00000000E+00  0.00000000E+00
  0.00000000E+00  0.00000000E+00  0.00000000E+00
  0.00000000E+00  0.00000000E+00  0.00000000E+00
  0.00000000E+00  0.00000000E+00  0.00000000E+00
  0.00000000E+00  0.00000000E+00  0.00000000E+00
  0.00000000E+00  0.00000000E+00  0.00000000E+00
  0.00000000E+00  0.00000000E+00  0.00000000E+00
  0.00000000E+00  0.00000000E+00  0.00000000E+00
  0.00000000E+00  0.00000000E+00  0.00000000E+00
  0.00000000E+00  0.00000000E+00  0.00000000E+00
  0.00000000E+00  0.00000000E+00  0.00000000E+00
  0.00000000E+00  0.00000000E+00  0.00000000E+00
  0.00000000E+00  0.00000000E+00  0.00000000E+00
  0.00000000E+00  0.00000000E+00  0.00000000E+00
  0.00000000E+00  0.00000000E+00  0.00000000E+00
  0.00000000E+00  0.00000000E+00  0.00000000E+00
  0.00000000E+00  0.00000000E+00  0.00000000E+00
  0.00000000E+00  0.00000000E+00  0.00000000E+00
  0.00000000E+00  0.00000000E+00  0.00000000E+00
  0.00000000E+00  0.00000000E+00  0.00000000E+00
  0.00000000E+00  0.00000000E+00  0.00000000E+00
  0.00000000E+00  0.00000000E+00  0.00000000E+00
  0.00000000E+00  0.00000000E+00  0.00000000E+00
  0.00000000E+00  0.00000000E+00  0.00000000E+00
  0.00000000E+00  0.00000000E+00  0.00000000E+00
  0.00000000E+00  0.00000000E+00  0.00000000E+00
  0.00000000E+00  0.00000000E+00  0.00000000E+00
  0.00000000E+00  0.00000000E+00  0.00000000E+00
  0.00000000E+00  0.00000000E+00  0.00000000E+00
  0.00000000E+00  0.00000000E+00  0.00000000E+00
  0.00000000E+00  0.00000000E+00  0.00000000E+00
  0.00000000E+00  0.00000000E+00  0.00000000E+00
  0.00000000E+00  0.00000000E+00  0.00000000E+00
  0.00000000E+00  0.00000000E+00  0.00000000E+00
  0.00000000E+00  0.00000000E+00  0.00000000E+00
  0.00000000E+00  0.00000000E+00  0.00000000E+00
