CONTCAR                                 
   1.00000000000000     
    14.0611000061000002    0.0000000000000000    0.0000000000000000
     0.0000000000000000   17.2483997345000013    0.0000000000000000
     0.0000000000000000    0.0000000000000000   18.5618991852000015
   Cu   H    Se   O 
     8    17    16    50
Direct
  0.0004930885123287  0.0000237840206410  0.5000502102847264
  0.2503596673702546  0.2501255867712118  0.5002164446541215
  0.5007457140981018  0.9997235329565513  0.4991320742842618
  0.7503485167161159  0.2501869904105547  0.5001080195432621
  0.0000379763727310  0.5004622207152210  0.5003096784023029
  0.2507958816293083  0.7498705886572878  0.5001897164022608
  0.5002875091280359  0.5004432623929489  0.4989320203504093
  0.7505925140523289  0.7506304422169734  0.4979634071575347
  0.3133671501905013  0.0196289583693385  0.4358799196472560
  0.0624327717709363  0.2296775665940771  0.5647103018155804
  0.4381630053535090  0.2708813925206357  0.4358446595367482
  0.1875660593867181  0.4810887126962342  0.5640027522364477
  0.8136668863311627  0.0202329472751117  0.4356381159584828
  0.5624134087089843  0.2293581706986387  0.5646115244471375
  0.9384545845528436  0.2708727582162993  0.4356624964834737
  0.6872695002440068  0.4805786377188070  0.5644321818169757
  0.3127540941706499  0.5200300670116036  0.4347857899055967
  0.0621653131638737  0.7294110446381978  0.5652481668111520
  0.4375009016540758  0.7712926883543290  0.4337809985265721
  0.1881016371522293  0.9804064180885845  0.5645927239982171
  0.8133266715545417  0.5195313952634493  0.4354940490163273
  0.5641945188801856  0.7287184068601746  0.5601479449488664
  0.9389186085031156  0.7705670523744175  0.4353222040259084
  0.6872484757349895  0.9801050925449601  0.5640003273851235
  0.4194342651559353  0.5998354131492150  0.7962173140754132
  0.3220294348873196  0.4088897718215705  0.5598452296310370
  0.0730969526597391  0.3428979331807653  0.4411979488085649
  0.4277719312813204  0.1573303660666099  0.5590276918495434
  0.1789045170483519  0.0918717474794306  0.4397716029922591
  0.8216359426311399  0.4082806158397077  0.5605947235771964
  0.5729639158828803  0.3427298112577404  0.4410015629276245
  0.9277388344644919  0.1576671653621773  0.5591927197938134
  0.6790811971454929  0.0922749092646598  0.4393924063402821
  0.3223419140570982  0.9079779783605275  0.5604505017721522
  0.0737387433147134  0.8421473308559513  0.4410295417209653
  0.4288776796309008  0.6576579484713960  0.5573848965518593
  0.1785026568754731  0.5923573944749023  0.4393725235542973
  0.8217128500264863  0.9080533954392820  0.5598854957644477
  0.5726501605640948  0.8427247181120237  0.4375322610109293
  0.9268440287677251  0.6582321564529963  0.5592952818190824
  0.6789372914638818  0.5919034834047565  0.4388826099780800
  0.1152547609321957  0.2616023004525587  0.4862896427570433
  0.3855006513684174  0.2387537327733753  0.5141666653519792
  0.3649742846750925  0.4890090341495466  0.5134946631877284
  0.2336202663341709  0.1391655573222792  0.5098244742094096
  0.1356804302292218  0.0113137181368188  0.4853318910866875
  0.4829038469031275  0.1105878008642378  0.4888874465664728
  0.2671353068041782  0.3609683830384043  0.4901851752773254
  0.0179002855788681  0.3897754965563465  0.5112541785427922
  0.2769383221131960  0.0467810878214721  0.3963749880059950
  0.0253612519747364  0.2021954287934520  0.6036540463299218
  0.2241605850270574  0.4538974001558742  0.6033695511381509
  0.4750664136695946  0.2983345070607086  0.3967833083813233
  0.6151922313293809  0.2614930253473631  0.4861438666274935
  0.8854673362223409  0.2389328364836985  0.5141080622381011
  0.8649155580575680  0.4889566878563372  0.5152856269461168
  0.7335539759809180  0.1393059706002120  0.5097090813767977
  0.6358049543050015  0.0115199354423794  0.4845256786979064
  0.9829907102116309  0.1107739363149989  0.4891880973143969
  0.7670223342701874  0.3611436223520812  0.4904352969963099
  0.5182504997171620  0.3898801047065987  0.5110721903007160
  0.7773636511833644  0.0473773280112297  0.3960956235592761
  0.5254730118202104  0.2017728537873893  0.6035487137097135
  0.7234971595876800  0.4533653450018846  0.6039994950297611
  0.9754355284193963  0.2984009393145755  0.3967123457187398
  0.1154804971746444  0.7611040696341433  0.4866710653634030
  0.3861192207768838  0.7391101963797553  0.5125568477241842
  0.3658015350657848  0.9883600105591555  0.5146537289910285
  0.2340901459576727  0.6390035451733240  0.5093459189758178
  0.1350288050571962  0.5118264098638576  0.4849327224622897
  0.4827153985117576  0.6107276215745401  0.4863977960564227
  0.2668331707195790  0.8608998862076191  0.4906848700955493
  0.0180748837001374  0.8893396099706905  0.5107167853963261
  0.2757741679626662  0.5468497411377413  0.3953702976433462
  0.0244746529126161  0.7022915654837973  0.6040471030462058
  0.2248595848493338  0.9535962545206189  0.6040852828505408
  0.4736709335121603  0.7987949364835174  0.3943010432237060
  0.6160304038328661  0.7608622728328314  0.4810024835355335
  0.8853415917778378  0.7396550956523598  0.5139900274628104
  0.8653396946325884  0.9889864116154499  0.5150728980720913
  0.7338742332216057  0.6397995182686955  0.5084746427821472
  0.6357651525585908  0.5117725199267795  0.4851337545518390
  0.9820120621691402  0.6111047259578015  0.4893665935764915
  0.7670698313113746  0.8616191386084182  0.4892954507062939
  0.5193193791455855  0.8889532305699319  0.5087880812846706
  0.7769761934486255  0.5463238262701395  0.3957974234628026
  0.5281846354636173  0.7019019291080895  0.5999543948556010
  0.7236629630483833  0.9529633402780959  0.6034682064899641
  0.9763041359937077  0.7975901599201123  0.3962939365022393
  0.4032102814765750  0.6493526893212263  0.7720272628219433
  0.3617965329157187  0.6282942119775399  0.7095509979102985
 
  0.00000000E+00  0.00000000E+00  0.00000000E+00
  0.00000000E+00  0.00000000E+00  0.00000000E+00
  0.00000000E+00  0.00000000E+00  0.00000000E+00
  0.00000000E+00  0.00000000E+00  0.00000000E+00
  0.00000000E+00  0.00000000E+00  0.00000000E+00
  0.00000000E+00  0.00000000E+00  0.00000000E+00
  0.00000000E+00  0.00000000E+00  0.00000000E+00
  0.00000000E+00  0.00000000E+00  0.00000000E+00
  0.00000000E+00  0.00000000E+00  0.00000000E+00
  0.00000000E+00  0.00000000E+00  0.00000000E+00
  0.00000000E+00  0.00000000E+00  0.00000000E+00
  0.00000000E+00  0.00000000E+00  0.00000000E+00
  0.00000000E+00  0.00000000E+00  0.00000000E+00
  0.00000000E+00  0.00000000E+00  0.00000000E+00
  0.00000000E+00  0.00000000E+00  0.00000000E+00
  0.00000000E+00  0.00000000E+00  0.00000000E+00
  0.00000000E+00  0.00000000E+00  0.00000000E+00
  0.00000000E+00  0.00000000E+00  0.00000000E+00
  0.00000000E+00  0.00000000E+00  0.00000000E+00
  0.00000000E+00  0.00000000E+00  0.00000000E+00
  0.00000000E+00  0.00000000E+00  0.00000000E+00
  0.00000000E+00  0.00000000E+00  0.00000000E+00
  0.00000000E+00  0.00000000E+00  0.00000000E+00
  0.00000000E+00  0.00000000E+00  0.00000000E+00
  0.00000000E+00  0.00000000E+00  0.00000000E+00
  0.00000000E+00  0.00000000E+00  0.00000000E+00
  0.00000000E+00  0.00000000E+00  0.00000000E+00
  0.00000000E+00  0.00000000E+00  0.00000000E+00
  0.00000000E+00  0.00000000E+00  0.00000000E+00
  0.00000000E+00  0.00000000E+00  0.00000000E+00
  0.00000000E+00  0.00000000E+00  0.00000000E+00
  0.00000000E+00  0.00000000E+00  0.00000000E+00
  0.00000000E+00  0.00000000E+00  0.00000000E+00
  0.00000000E+00  0.00000000E+00  0.00000000E+00
  0.00000000E+00  0.00000000E+00  0.00000000E+00
  0.00000000E+00  0.00000000E+00  0.00000000E+00
  0.00000000E+00  0.00000000E+00  0.00000000E+00
  0.00000000E+00  0.00000000E+00  0.00000000E+00
  0.00000000E+00  0.00000000E+00  0.00000000E+00
  0.00000000E+00  0.00000000E+00  0.00000000E+00
  0.00000000E+00  0.00000000E+00  0.00000000E+00
  0.00000000E+00  0.00000000E+00  0.00000000E+00
  0.00000000E+00  0.00000000E+00  0.00000000E+00
  0.00000000E+00  0.00000000E+00  0.00000000E+00
  0.00000000E+00  0.00000000E+00  0.00000000E+00
  0.00000000E+00  0.00000000E+00  0.00000000E+00
  0.00000000E+00  0.00000000E+00  0.00000000E+00
  0.00000000E+00  0.00000000E+00  0.00000000E+00
  0.00000000E+00  0.00000000E+00  0.00000000E+00
  0.00000000E+00  0.00000000E+00  0.00000000E+00
  0.00000000E+00  0.00000000E+00  0.00000000E+00
  0.00000000E+00  0.00000000E+00  0.00000000E+00
  0.00000000E+00  0.00000000E+00  0.00000000E+00
  0.00000000E+00  0.00000000E+00  0.00000000E+00
  0.00000000E+00  0.00000000E+00  0.00000000E+00
  0.00000000E+00  0.00000000E+00  0.00000000E+00
  0.00000000E+00  0.00000000E+00  0.00000000E+00
  0.00000000E+00  0.00000000E+00  0.00000000E+00
  0.00000000E+00  0.00000000E+00  0.00000000E+00
  0.00000000E+00  0.00000000E+00  0.00000000E+00
  0.00000000E+00  0.00000000E+00  0.00000000E+00
  0.00000000E+00  0.00000000E+00  0.00000000E+00
  0.00000000E+00  0.00000000E+00  0.00000000E+00
  0.00000000E+00  0.00000000E+00  0.00000000E+00
  0.00000000E+00  0.00000000E+00  0.00000000E+00
  0.00000000E+00  0.00000000E+00  0.00000000E+00
  0.00000000E+00  0.00000000E+00  0.00000000E+00
  0.00000000E+00  0.00000000E+00  0.00000000E+00
  0.00000000E+00  0.00000000E+00  0.00000000E+00
  0.00000000E+00  0.00000000E+00  0.00000000E+00
  0.00000000E+00  0.00000000E+00  0.00000000E+00
  0.00000000E+00  0.00000000E+00  0.00000000E+00
  0.00000000E+00  0.00000000E+00  0.00000000E+00
  0.00000000E+00  0.00000000E+00  0.00000000E+00
  0.00000000E+00  0.00000000E+00  0.00000000E+00
  0.00000000E+00  0.00000000E+00  0.00000000E+00
  0.00000000E+00  0.00000000E+00  0.00000000E+00
  0.00000000E+00  0.00000000E+00  0.00000000E+00
  0.00000000E+00  0.00000000E+00  0.00000000E+00
  0.00000000E+00  0.00000000E+00  0.00000000E+00
  0.00000000E+00  0.00000000E+00  0.00000000E+00
  0.00000000E+00  0.00000000E+00  0.00000000E+00
  0.00000000E+00  0.00000000E+00  0.00000000E+00
  0.00000000E+00  0.00000000E+00  0.00000000E+00
  0.00000000E+00  0.00000000E+00  0.00000000E+00
  0.00000000E+00  0.00000000E+00  0.00000000E+00
  0.00000000E+00  0.00000000E+00  0.00000000E+00
  0.00000000E+00  0.00000000E+00  0.00000000E+00
  0.00000000E+00  0.00000000E+00  0.00000000E+00
  0.00000000E+00  0.00000000E+00  0.00000000E+00
  0.00000000E+00  0.00000000E+00  0.00000000E+00
