CONTCAR\(5)                             
   1.00000000000000     
    11.0214996337999995    0.0000000000000000    0.0000000000000000
     0.0000000000000000   14.9139995575000004    0.0000000000000000
     0.0000000000000000    0.0000000000000000   19.5716991425000018
   Nb   Ni   Te   O    H 
     6     6    30     2     1
Direct
  0.0003649234751499  0.2465112584673305  0.4964324847021937
  0.9995334469374537  0.7487227572274581  0.5022898439611411
  0.3329208986459756  0.2482605180599021  0.4957849075563210
  0.3328252341673313  0.7498216895260380  0.5017756349545116
  0.6655070158799222  0.2462094026505355  0.4966229609719644
  0.6659717944031069  0.7486605900772110  0.5023346189211759
  0.1669370528863842  0.9978377681411421  0.4972377307319618
  0.1698143650085459  0.5009244582024177  0.4998937318447130
  0.4989121624837918  0.9973978738581920  0.4970930422265983
  0.4952340937394253  0.5011100696058833  0.5002925308566486
  0.8329947346452389  0.9986840199726061  0.4975998299265910
  0.8328987448223052  0.4986657281799098  0.5020681574666784
  0.9994267129952007  0.0742973072024117  0.4263009738093412
  0.9993379101569212  0.9229344623074432  0.5691446268083494
  0.0009335118829007  0.5755435750096413  0.5716399073146899
  0.0010363503473629  0.4222909898224497  0.4325198846064545
  0.1673214551091843  0.2493653989879688  0.3843392579550149
  0.1660690844995009  0.7508957042721554  0.6138469048873544
  0.1662268986173784  0.8545037994302352  0.4241022343318504
  0.1670045699381425  0.1387172224897783  0.5712640455579397
  0.1678420370384830  0.3573964533591268  0.5716896151828521
  0.1669755207928288  0.6436118990223441  0.4251945331925679
  0.3330117972513695  0.0748794160926978  0.4253447624478938
  0.3329406278628292  0.9220019939025138  0.5706974296613255
  0.3324965591031648  0.5792118182163531  0.5731459316831423
  0.3328883300192549  0.4226400458610658  0.4267732308332705
  0.4988518728808488  0.2492074319685438  0.3844128282180665
  0.4992677035056406  0.7507344756121124  0.6139081676793562
  0.4993865029371866  0.8543734252944631  0.4239217355710597
  0.4991506244499849  0.1379328298530861  0.5709900077430765
  0.4977515979184099  0.3572723707153910  0.5720620778005802
  0.4986043335518148  0.6435800392081796  0.4253293393513335
  0.6666066406202048  0.0742085054556639  0.4261621830818587
  0.6665685256519877  0.9227421480173711  0.5692171422542863
  0.6647706807322764  0.5756060357285513  0.5716845575515295
  0.6638135709746084  0.4221007067659416  0.4333661065193438
  0.8328156896324838  0.2471433121852264  0.3851483965793568
  0.8327256738442088  0.7496003887933931  0.6143388872181534
  0.8326299397313507  0.8528257521977280  0.4245009640825653
  0.8331615387505342  0.1419091277553325  0.5737179168343955
  0.8328414228983337  0.3509694517988557  0.5736126001042704
  0.8327161557069575  0.6425977413533959  0.4262280898593038
  0.3423358918103140  0.2525202197874298  0.7155765080036539
  0.3369944907190849  0.2935727154165490  0.6491665199292933
  0.3430515559746377  0.1881468471479579  0.7037971572259767
 
  0.00000000E+00  0.00000000E+00  0.00000000E+00
  0.00000000E+00  0.00000000E+00  0.00000000E+00
  0.00000000E+00  0.00000000E+00  0.00000000E+00
  0.00000000E+00  0.00000000E+00  0.00000000E+00
  0.00000000E+00  0.00000000E+00  0.00000000E+00
  0.00000000E+00  0.00000000E+00  0.00000000E+00
  0.00000000E+00  0.00000000E+00  0.00000000E+00
  0.00000000E+00  0.00000000E+00  0.00000000E+00
  0.00000000E+00  0.00000000E+00  0.00000000E+00
  0.00000000E+00  0.00000000E+00  0.00000000E+00
  0.00000000E+00  0.00000000E+00  0.00000000E+00
  0.00000000E+00  0.00000000E+00  0.00000000E+00
  0.00000000E+00  0.00000000E+00  0.00000000E+00
  0.00000000E+00  0.00000000E+00  0.00000000E+00
  0.00000000E+00  0.00000000E+00  0.00000000E+00
  0.00000000E+00  0.00000000E+00  0.00000000E+00
  0.00000000E+00  0.00000000E+00  0.00000000E+00
  0.00000000E+00  0.00000000E+00  0.00000000E+00
  0.00000000E+00  0.00000000E+00  0.00000000E+00
  0.00000000E+00  0.00000000E+00  0.00000000E+00
  0.00000000E+00  0.00000000E+00  0.00000000E+00
  0.00000000E+00  0.00000000E+00  0.00000000E+00
  0.00000000E+00  0.00000000E+00  0.00000000E+00
  0.00000000E+00  0.00000000E+00  0.00000000E+00
  0.00000000E+00  0.00000000E+00  0.00000000E+00
  0.00000000E+00  0.00000000E+00  0.00000000E+00
  0.00000000E+00  0.00000000E+00  0.00000000E+00
  0.00000000E+00  0.00000000E+00  0.00000000E+00
  0.00000000E+00  0.00000000E+00  0.00000000E+00
  0.00000000E+00  0.00000000E+00  0.00000000E+00
  0.00000000E+00  0.00000000E+00  0.00000000E+00
  0.00000000E+00  0.00000000E+00  0.00000000E+00
  0.00000000E+00  0.00000000E+00  0.00000000E+00
  0.00000000E+00  0.00000000E+00  0.00000000E+00
  0.00000000E+00  0.00000000E+00  0.00000000E+00
  0.00000000E+00  0.00000000E+00  0.00000000E+00
  0.00000000E+00  0.00000000E+00  0.00000000E+00
  0.00000000E+00  0.00000000E+00  0.00000000E+00
  0.00000000E+00  0.00000000E+00  0.00000000E+00
  0.00000000E+00  0.00000000E+00  0.00000000E+00
  0.00000000E+00  0.00000000E+00  0.00000000E+00
  0.00000000E+00  0.00000000E+00  0.00000000E+00
  0.00000000E+00  0.00000000E+00  0.00000000E+00
  0.00000000E+00  0.00000000E+00  0.00000000E+00
  0.00000000E+00  0.00000000E+00  0.00000000E+00
