CONTCAR\(3)                             
   1.00000000000000     
    12.8629999160999997    0.0000000000000000    0.0000000000000000
     0.0000000000000000   14.3196001052999993    0.0000000000000000
     0.0000000000000000    0.0000000000000000   19.5569992064999987
   Ag   Au   S    O    H 
    12    24    24     1     1
Direct
  0.0753517205094229  0.3197454890223578  0.5952028667920908
  0.2275847372054554  0.0779052658678913  0.6091919664869553
  0.4099856984845649  0.3315978570446595  0.6010923111447112
  0.5696275313005401  0.0837193398724816  0.6007966002228498
  0.7480424359548130  0.3327479166824834  0.5995000301704252
  0.8980301396138406  0.0681804675931369  0.6008495897772693
  0.0833197041653372  0.8199430581551469  0.5843803409467004
  0.2343938164047059  0.5801769696484005  0.6008670685370709
  0.4143475819574317  0.8391824073422515  0.5889876032549908
  0.5677748340245684  0.5861273414513408  0.6186208086684690
  0.7502066203536424  0.8247212820118256  0.5899393639100368
  0.9039223908440923  0.5686427812483793  0.6039224418248559
  0.0280847692331600  0.4928346010491713  0.4857086314352365
  0.3017553177302960  0.2440881647123598  0.4855199301075745
  0.1650707399160601  0.3674229255888748  0.4114387903463581
  0.1665431392799401  0.1168429993770770  0.4051603137382342
  0.3686676228474275  0.4937759296415683  0.5017580795905138
  0.6323620525056002  0.2498457782710238  0.4865790436476796
  0.5048210977558955  0.3791844023327528  0.4064741280305889
  0.5009277832602586  0.1309513912004477  0.3947669700504525
  0.6884428463680432  0.4986429974843639  0.5125068342630670
  0.9600970474545858  0.2373091213755771  0.4851294815089652
  0.8388472254764165  0.3696034599342250  0.3967283257684079
  0.8298969057379743  0.1174662974915637  0.4057939366391724
  0.0266036509965896  0.9881988088503251  0.4962793471130926
  0.3190820917867578  0.7442977785283231  0.4709268151005798
  0.1715810512266679  0.8696273144489928  0.4024470259723984
  0.1715625222812527  0.6176798878670122  0.4076736920395179
  0.3571560457712675  0.0007983500922972  0.5012713311736853
  0.6287343354393220  0.7322506909009390  0.4818920608557954
  0.5080567295461227  0.8805404900901248  0.3781358387084435
  0.5290172175886227  0.6298177732675002  0.3859699387780941
  0.6816340541322420  0.9980618828143936  0.4766631663649795
  0.9661740651581058  0.7335246876521382  0.4793888761214735
  0.8252147377595602  0.8657010765567514  0.4077941826304258
  0.8419528692064482  0.6171100373827394  0.3919749705786756
  0.2812736740269017  0.4902140188863872  0.3988442552650875
  0.2450118346788673  0.2452658730041054  0.5993381027177347
  0.0749524920934501  0.4906056366464484  0.6014534955221551
  0.0569402704915014  0.2415371298256565  0.3843731793633253
  0.6333753840650230  0.4940465377274761  0.4012667670047936
  0.5750011422508834  0.2520114726270007  0.5999902607351766
  0.4076165129659230  0.5001179765521194  0.6182633811649411
  0.3902016697491634  0.2570602969953838  0.3820091888470503
  0.9533136194661228  0.4917523433244630  0.3770144778280849
  0.9038120128132956  0.2387987825751237  0.5987037622172463
  0.7358051317515418  0.4991505012115426  0.6275351886238448
  0.7247719028756995  0.2468247065712796  0.3840721191821839
  0.2844730273040217 -0.0044980928094219  0.3936285171360714
  0.2527643551590918  0.7464366169686498  0.5822156123625141
  0.0706620816444981  0.9874800702835886  0.6124429997956243
  0.0647871857103993  0.7430314719119783  0.3791991105518802
  0.6128874691971626  0.0095367762904417  0.3666551224161470
  0.5750998941108106  0.7515650474970449  0.5948437057812915
  0.4055772787707103  0.0054561881762806  0.6159089713601386
  0.4055559573981526  0.7502147336592977  0.3663986338854086
  0.9397870931149011  0.9891990481298862  0.3924093244582922
  0.9097417206859987  0.7385026400821372  0.5928649512413925
  0.7292312497376799  0.9932934725147633  0.5921034952707541
  0.7221940903266002  0.7364214352540973  0.3798232361873989
  0.4616890458698919  0.5542569913301431  0.3098794544938555
  0.4005109964646741  0.5903916149132635  0.2958606272877802
 
  0.00000000E+00  0.00000000E+00  0.00000000E+00
  0.00000000E+00  0.00000000E+00  0.00000000E+00
  0.00000000E+00  0.00000000E+00  0.00000000E+00
  0.00000000E+00  0.00000000E+00  0.00000000E+00
  0.00000000E+00  0.00000000E+00  0.00000000E+00
  0.00000000E+00  0.00000000E+00  0.00000000E+00
  0.00000000E+00  0.00000000E+00  0.00000000E+00
  0.00000000E+00  0.00000000E+00  0.00000000E+00
  0.00000000E+00  0.00000000E+00  0.00000000E+00
  0.00000000E+00  0.00000000E+00  0.00000000E+00
  0.00000000E+00  0.00000000E+00  0.00000000E+00
  0.00000000E+00  0.00000000E+00  0.00000000E+00
  0.00000000E+00  0.00000000E+00  0.00000000E+00
  0.00000000E+00  0.00000000E+00  0.00000000E+00
  0.00000000E+00  0.00000000E+00  0.00000000E+00
  0.00000000E+00  0.00000000E+00  0.00000000E+00
  0.00000000E+00  0.00000000E+00  0.00000000E+00
  0.00000000E+00  0.00000000E+00  0.00000000E+00
  0.00000000E+00  0.00000000E+00  0.00000000E+00
  0.00000000E+00  0.00000000E+00  0.00000000E+00
  0.00000000E+00  0.00000000E+00  0.00000000E+00
  0.00000000E+00  0.00000000E+00  0.00000000E+00
  0.00000000E+00  0.00000000E+00  0.00000000E+00
  0.00000000E+00  0.00000000E+00  0.00000000E+00
  0.00000000E+00  0.00000000E+00  0.00000000E+00
  0.00000000E+00  0.00000000E+00  0.00000000E+00
  0.00000000E+00  0.00000000E+00  0.00000000E+00
  0.00000000E+00  0.00000000E+00  0.00000000E+00
  0.00000000E+00  0.00000000E+00  0.00000000E+00
  0.00000000E+00  0.00000000E+00  0.00000000E+00
  0.00000000E+00  0.00000000E+00  0.00000000E+00
  0.00000000E+00  0.00000000E+00  0.00000000E+00
  0.00000000E+00  0.00000000E+00  0.00000000E+00
  0.00000000E+00  0.00000000E+00  0.00000000E+00
  0.00000000E+00  0.00000000E+00  0.00000000E+00
  0.00000000E+00  0.00000000E+00  0.00000000E+00
  0.00000000E+00  0.00000000E+00  0.00000000E+00
  0.00000000E+00  0.00000000E+00  0.00000000E+00
  0.00000000E+00  0.00000000E+00  0.00000000E+00
  0.00000000E+00  0.00000000E+00  0.00000000E+00
  0.00000000E+00  0.00000000E+00  0.00000000E+00
  0.00000000E+00  0.00000000E+00  0.00000000E+00
  0.00000000E+00  0.00000000E+00  0.00000000E+00
  0.00000000E+00  0.00000000E+00  0.00000000E+00
  0.00000000E+00  0.00000000E+00  0.00000000E+00
  0.00000000E+00  0.00000000E+00  0.00000000E+00
  0.00000000E+00  0.00000000E+00  0.00000000E+00
  0.00000000E+00  0.00000000E+00  0.00000000E+00
  0.00000000E+00  0.00000000E+00  0.00000000E+00
  0.00000000E+00  0.00000000E+00  0.00000000E+00
  0.00000000E+00  0.00000000E+00  0.00000000E+00
  0.00000000E+00  0.00000000E+00  0.00000000E+00
  0.00000000E+00  0.00000000E+00  0.00000000E+00
  0.00000000E+00  0.00000000E+00  0.00000000E+00
  0.00000000E+00  0.00000000E+00  0.00000000E+00
  0.00000000E+00  0.00000000E+00  0.00000000E+00
  0.00000000E+00  0.00000000E+00  0.00000000E+00
  0.00000000E+00  0.00000000E+00  0.00000000E+00
  0.00000000E+00  0.00000000E+00  0.00000000E+00
  0.00000000E+00  0.00000000E+00  0.00000000E+00
  0.00000000E+00  0.00000000E+00  0.00000000E+00
  0.00000000E+00  0.00000000E+00  0.00000000E+00
