CONTCAR\(14)                            
   1.00000000000000     
    11.6875000000000000    0.0000000000000000    0.0000000000000000
     0.0000000000000000   15.6604003905999996    0.0000000000000000
     0.0000000000000000    0.0000000000000000   20.9486999511999983
   Pr   C    Cl
    24    12    30
Direct
  0.1666699989999998  0.2497946606413043  0.3602407015311788
  0.1666699989999998  0.2497253323586955  0.6397492604688220
 -0.0000000000000000  0.3571118134671571  0.5000188101278766
 -0.0000000000000000  0.1423881745328467  0.4999812358721200
  0.5000000000000000  0.2497946606413043  0.3602407015311788
  0.5000000000000000  0.2497253323586955  0.6397492604688220
  0.3333300010000002  0.3571118134671571  0.5000188101278766
  0.3333300010000002  0.1423881745328467  0.4999812358721200
  0.8333299609999969  0.2497946606413043  0.3602407015311788
  0.8333299609999969  0.2497253323586955  0.6397492604688220
  0.6666700390000031  0.3571118134671571  0.5000188101278766
  0.6666700390000031  0.1423881745328467  0.4999812358721200
  0.1666699989999998  0.7497946606413043  0.3602407015311788
  0.1666699989999998  0.7497253483586969  0.6397492604688220
 -0.0000000000000000  0.8571117834671544  0.5000188101278766
 -0.0000000000000000  0.6423881895328445  0.4999812358721200
  0.5000000000000000  0.7497946606413043  0.3602407015311788
  0.5000000000000000  0.7497253483586969  0.6397492604688220
  0.3333300010000002  0.8571117834671544  0.5000188101278766
  0.3333300010000002  0.6423881895328445  0.4999812358721200
  0.8333299609999969  0.7497946606413043  0.3602407015311788
  0.8333299609999969  0.7497253483586969  0.6397492604688220
  0.6666700390000031  0.8571117834671544  0.5000188101278766
  0.6666700390000031  0.6423881895328445  0.4999812358721200
  0.1666699989999998  0.2497704737614554  0.4664995896076370
  0.1666699989999998  0.2497495352385458  0.5335004103923630
  0.5000000000000000  0.2497704737614554  0.4664995896076370
  0.5000000000000000  0.2497495352385458  0.5335004103923630
  0.8333299609999969  0.2497704737614554  0.4664995896076370
  0.8333299609999969  0.2497495352385458  0.5335004103923630
  0.1666699989999998  0.7497704577614540  0.4664995896076370
  0.1666699989999998  0.7497495502385435  0.5335004103923630
  0.5000000000000000  0.7497704577614540  0.4664995896076370
  0.5000000000000000  0.7497495502385435  0.5335004103923630
  0.8333299609999969  0.7497704577614540  0.4664995896076370
  0.8333299609999969  0.7497495502385435  0.5335004103923630
 -0.0000000000000000  0.1171450397767542  0.6436288211678008
 -0.0000000000000000  0.1172447206915743  0.3563225901759579
 -0.0000000000000000  0.3823649662232400  0.3563611638322055
 -0.0000000000000000  0.3822652923084240  0.6436773868240437
  0.1666699989999998  0.4997499870000013  0.5000000000000000
  0.3333300010000002  0.1171450397767542  0.6436288211678008
  0.3333300010000002  0.1172447206915743  0.3563225901759579
  0.3333300010000002  0.3823649662232400  0.3563611638322055
  0.3333300010000002  0.3822652923084240  0.6436773868240437
  0.5000000000000000  0.4997499870000013  0.5000000000000000
  0.6666700390000031  0.1171450397767542  0.6436288211678008
  0.6666700390000031  0.1172447206915743  0.3563225901759579
  0.6666700390000031  0.3823649662232400  0.3563611638322055
  0.6666700390000031  0.3822652923084240  0.6436773868240437
  0.8333299609999969  0.4997499870000013  0.5000000000000000
 -0.0000000000000000  0.6171450557767556  0.6436288211678008
 -0.0000000000000000  0.6172447286915749  0.3563225901759579
  0.0000000000000000  0.8823649662232399  0.3563611638322055
 -0.0000000000000000  0.8822652323084262  0.6436773868240437
  0.1666699989999998  0.9997500169999967  0.5000000000000000
  0.3333300010000002  0.6171450557767556  0.6436288211678008
  0.3333300010000002  0.6172447286915749  0.3563225901759579
  0.3333300010000002  0.8823649662232399  0.3563611638322055
  0.3333300010000002  0.8822652323084262  0.6436773868240437
  0.5000000000000000  0.9997500169999967  0.5000000000000000
  0.6666700390000031  0.6171450557767556  0.6436288211678008
  0.6666700390000031  0.6172447286915749  0.3563225901759579
  0.6666700390000031  0.8823649662232399  0.3563611638322055
  0.6666700390000031  0.8822652323084262  0.6436773868240437
  0.8333299609999969  0.9997500169999967  0.5000000000000000
 
  0.00000000E+00  0.00000000E+00  0.00000000E+00
  0.00000000E+00  0.00000000E+00  0.00000000E+00
  0.00000000E+00  0.00000000E+00  0.00000000E+00
  0.00000000E+00  0.00000000E+00  0.00000000E+00
  0.00000000E+00  0.00000000E+00  0.00000000E+00
  0.00000000E+00  0.00000000E+00  0.00000000E+00
  0.00000000E+00  0.00000000E+00  0.00000000E+00
  0.00000000E+00  0.00000000E+00  0.00000000E+00
  0.00000000E+00  0.00000000E+00  0.00000000E+00
  0.00000000E+00  0.00000000E+00  0.00000000E+00
  0.00000000E+00  0.00000000E+00  0.00000000E+00
  0.00000000E+00  0.00000000E+00  0.00000000E+00
  0.00000000E+00  0.00000000E+00  0.00000000E+00
  0.00000000E+00  0.00000000E+00  0.00000000E+00
  0.00000000E+00  0.00000000E+00  0.00000000E+00
  0.00000000E+00  0.00000000E+00  0.00000000E+00
  0.00000000E+00  0.00000000E+00  0.00000000E+00
  0.00000000E+00  0.00000000E+00  0.00000000E+00
  0.00000000E+00  0.00000000E+00  0.00000000E+00
  0.00000000E+00  0.00000000E+00  0.00000000E+00
  0.00000000E+00  0.00000000E+00  0.00000000E+00
  0.00000000E+00  0.00000000E+00  0.00000000E+00
  0.00000000E+00  0.00000000E+00  0.00000000E+00
  0.00000000E+00  0.00000000E+00  0.00000000E+00
  0.00000000E+00  0.00000000E+00  0.00000000E+00
  0.00000000E+00  0.00000000E+00  0.00000000E+00
  0.00000000E+00  0.00000000E+00  0.00000000E+00
  0.00000000E+00  0.00000000E+00  0.00000000E+00
  0.00000000E+00  0.00000000E+00  0.00000000E+00
  0.00000000E+00  0.00000000E+00  0.00000000E+00
  0.00000000E+00  0.00000000E+00  0.00000000E+00
  0.00000000E+00  0.00000000E+00  0.00000000E+00
  0.00000000E+00  0.00000000E+00  0.00000000E+00
  0.00000000E+00  0.00000000E+00  0.00000000E+00
  0.00000000E+00  0.00000000E+00  0.00000000E+00
  0.00000000E+00  0.00000000E+00  0.00000000E+00
  0.00000000E+00  0.00000000E+00  0.00000000E+00
  0.00000000E+00  0.00000000E+00  0.00000000E+00
  0.00000000E+00  0.00000000E+00  0.00000000E+00
  0.00000000E+00  0.00000000E+00  0.00000000E+00
  0.00000000E+00  0.00000000E+00  0.00000000E+00
  0.00000000E+00  0.00000000E+00  0.00000000E+00
  0.00000000E+00  0.00000000E+00  0.00000000E+00
  0.00000000E+00  0.00000000E+00  0.00000000E+00
  0.00000000E+00  0.00000000E+00  0.00000000E+00
  0.00000000E+00  0.00000000E+00  0.00000000E+00
  0.00000000E+00  0.00000000E+00  0.00000000E+00
  0.00000000E+00  0.00000000E+00  0.00000000E+00
  0.00000000E+00  0.00000000E+00  0.00000000E+00
  0.00000000E+00  0.00000000E+00  0.00000000E+00
  0.00000000E+00  0.00000000E+00  0.00000000E+00
  0.00000000E+00  0.00000000E+00  0.00000000E+00
  0.00000000E+00  0.00000000E+00  0.00000000E+00
  0.00000000E+00  0.00000000E+00  0.00000000E+00
  0.00000000E+00  0.00000000E+00  0.00000000E+00
  0.00000000E+00  0.00000000E+00  0.00000000E+00
  0.00000000E+00  0.00000000E+00  0.00000000E+00
  0.00000000E+00  0.00000000E+00  0.00000000E+00
  0.00000000E+00  0.00000000E+00  0.00000000E+00
  0.00000000E+00  0.00000000E+00  0.00000000E+00
  0.00000000E+00  0.00000000E+00  0.00000000E+00
  0.00000000E+00  0.00000000E+00  0.00000000E+00
  0.00000000E+00  0.00000000E+00  0.00000000E+00
  0.00000000E+00  0.00000000E+00  0.00000000E+00
  0.00000000E+00  0.00000000E+00  0.00000000E+00
  0.00000000E+00  0.00000000E+00  0.00000000E+00
