CONTCAR\(6)                             
   1.00000000000000     
    11.2666997910000006    0.0000000000000000    0.0000000000000000
     0.0000000000000000   10.8214998245000000    0.0000000000000000
     0.0000000000000000    0.0000000000000000   21.2649002074999984
   Zr   Se   O 
    12    36     1
Selective dynamics
Direct
  0.0822644002959692  0.3558880598736707  0.4320445883563693   F   F   F
  0.2463209128635100  0.0961825972133781  0.5736778261779634   F   F   F
  0.4147641841040226  0.3560434812027893  0.4322882088325599   F   F   F
  0.5856059765467805  0.1120867664176757  0.5708541798708708   F   F   F
  0.7484773122023114  0.3588920165140266  0.4306854470295889   F   F   F
  0.9161046885918083  0.1097874630338822  0.5699862195578760   F   F   F
  0.0782978260390408  0.8546060650364709  0.4284336004549019   F   F   F
  0.2464229877159312  0.6063023050482172  0.5719834130585397   F   F   F
  0.4116392658775254  0.8563972802133009  0.4308570003827654   F   F   F
  0.5792326343068268  0.6102432537085249  0.5727457299793670   F   F   F
  0.7453645435131264  0.8580907189366656  0.4316898307341432   F   F   F
  0.9134532429637616  0.6077246221016495  0.5716697839359526   F   F   F
  0.2493909092406454  0.2483156768592352  0.3536447283899946   F   F   F
  0.0900863923520845  0.2113574312178983  0.6512761455510088   F   F   F
  0.2484604387762417  0.4685664598417816  0.3571495960814133   F   F   F
  0.0658142140577951  0.9928927952664992  0.6479183057710003   F   F   F
  0.2489148593807400  0.3548146798273564  0.5270025383570029   F   F   F
  0.0826422736777204  0.1041381150853056  0.4771710879480651   F   F   F
  0.5817028921977823  0.2471188389627912  0.3548075658765839   F   F   F
  0.4237599805702956  0.2324944923707051  0.6442870549663340   F   F   F
  0.5801533328466206  0.4673154136023783  0.3540802616440786   F   F   F
  0.4574923498115879  0.0279034506139126  0.6777453047884237   F   F   F
  0.5833577407143906  0.3597060930469738  0.5252282339916476   F   F   F
  0.4141775292217531  0.1045433987819280  0.4789599131214075   F   F   F
  0.9155793153846048  0.2482256557721456  0.3535679702578989   F   F   F
  0.7541567180304014  0.2138993751971938  0.6525436118487846   F   F   F
  0.9167496400346451  0.4684473331576982  0.3551955703861154   F   F   F
  0.7522171645735725  0.9940004989089744  0.6428226293184878   F   F   F
  0.9148242588266768  0.3580777001131992  0.5254412450639308   F   F   F
  0.7494974604874685  0.1095671988271789  0.4767234145491912   F   F   F
  0.2467526043733628  0.7479889092714558  0.3504522247213870   F   F   F
  0.0813239182746130  0.7155779529851571  0.6496125013684022   F   F   F
  0.2459187730390653  0.9682688790427534  0.3543585920366397   F   F   F
  0.0784399949721575  0.4951459180344173  0.6478177138568739   F   F   F
  0.2403958018241852  0.8516287259823514  0.5217680458143192   F   F   F
  0.0796879010740099  0.6054410216233066  0.4772148663923161   F   F   F
  0.5794176121996770  0.7473681996967230  0.3549040348760286   F   F   F
  0.4087255784744315  0.7273466601751295  0.6444223089204968   F   F   F
  0.5784789436968154  0.9676491838244985  0.3543043755329052   F   F   F
  0.4165850381444116  0.5088586227852119  0.6546595463869167   F   F   F
  0.5766525517839298  0.8605071785600913  0.5266158991525813   F   F   F
  0.4134389936336618  0.6062708569888144  0.4779965622241633   F   F   F
  0.9090801070021541  0.7475371000272801  0.3522927048343334   F   F   F
  0.7469815265076818  0.7147229021413537  0.6523381609477212   F   F   F
  0.9100362348598665  0.9680553126705647  0.3539545766925301   F   F   F
  0.7466974577136583  0.4945291935848317  0.6459566630582856   F   F   F
  0.9131044389854068  0.8566222941359385  0.5243208475206913   F   F   F
  0.7458851820456971  0.6092929957341013  0.4779590324021470   F   F   F
  0.3356313051895299  0.9716285189825913  0.6311249502342042   T   T   T
 
  0.00000000E+00  0.00000000E+00  0.00000000E+00
  0.00000000E+00  0.00000000E+00  0.00000000E+00
  0.00000000E+00  0.00000000E+00  0.00000000E+00
  0.00000000E+00  0.00000000E+00  0.00000000E+00
  0.00000000E+00  0.00000000E+00  0.00000000E+00
  0.00000000E+00  0.00000000E+00  0.00000000E+00
  0.00000000E+00  0.00000000E+00  0.00000000E+00
  0.00000000E+00  0.00000000E+00  0.00000000E+00
  0.00000000E+00  0.00000000E+00  0.00000000E+00
  0.00000000E+00  0.00000000E+00  0.00000000E+00
  0.00000000E+00  0.00000000E+00  0.00000000E+00
  0.00000000E+00  0.00000000E+00  0.00000000E+00
  0.00000000E+00  0.00000000E+00  0.00000000E+00
  0.00000000E+00  0.00000000E+00  0.00000000E+00
  0.00000000E+00  0.00000000E+00  0.00000000E+00
  0.00000000E+00  0.00000000E+00  0.00000000E+00
  0.00000000E+00  0.00000000E+00  0.00000000E+00
  0.00000000E+00  0.00000000E+00  0.00000000E+00
  0.00000000E+00  0.00000000E+00  0.00000000E+00
  0.00000000E+00  0.00000000E+00  0.00000000E+00
  0.00000000E+00  0.00000000E+00  0.00000000E+00
  0.00000000E+00  0.00000000E+00  0.00000000E+00
  0.00000000E+00  0.00000000E+00  0.00000000E+00
  0.00000000E+00  0.00000000E+00  0.00000000E+00
  0.00000000E+00  0.00000000E+00  0.00000000E+00
  0.00000000E+00  0.00000000E+00  0.00000000E+00
  0.00000000E+00  0.00000000E+00  0.00000000E+00
  0.00000000E+00  0.00000000E+00  0.00000000E+00
  0.00000000E+00  0.00000000E+00  0.00000000E+00
  0.00000000E+00  0.00000000E+00  0.00000000E+00
  0.00000000E+00  0.00000000E+00  0.00000000E+00
  0.00000000E+00  0.00000000E+00  0.00000000E+00
  0.00000000E+00  0.00000000E+00  0.00000000E+00
  0.00000000E+00  0.00000000E+00  0.00000000E+00
  0.00000000E+00  0.00000000E+00  0.00000000E+00
  0.00000000E+00  0.00000000E+00  0.00000000E+00
  0.00000000E+00  0.00000000E+00  0.00000000E+00
  0.00000000E+00  0.00000000E+00  0.00000000E+00
  0.00000000E+00  0.00000000E+00  0.00000000E+00
  0.00000000E+00  0.00000000E+00  0.00000000E+00
  0.00000000E+00  0.00000000E+00  0.00000000E+00
  0.00000000E+00  0.00000000E+00  0.00000000E+00
  0.00000000E+00  0.00000000E+00  0.00000000E+00
  0.00000000E+00  0.00000000E+00  0.00000000E+00
  0.00000000E+00  0.00000000E+00  0.00000000E+00
  0.00000000E+00  0.00000000E+00  0.00000000E+00
  0.00000000E+00  0.00000000E+00  0.00000000E+00
  0.00000000E+00  0.00000000E+00  0.00000000E+00
  0.00000000E+00  0.00000000E+00  0.00000000E+00
