CONTCAR\(14)                            
   1.00000000000000     
    14.3248996734999992    0.0000000000000000    0.0000000000000000
    -7.1590188013000002   12.4195981305000007    0.0000000000000000
     0.0000000000000000    0.0000000000000000   17.6436004639000004
   Rb   O 
    24    13
Selective dynamics
Direct
  0.3300956290649779  0.3488358263336195  0.5717763615091798   F   F   F
  0.4995695581362227  0.3262540037743662  0.4226992348188432   F   F   F
  0.1702083762644264  0.1579426514852642  0.4192742484004839   F   F   F
  0.0177785996757436  0.1833569819287177  0.5754150215451617   F   F   F
  0.3363022039121901  0.9937044943125457  0.4298518797242892   F   F   F
  0.1770862145286642  0.5004683192936383  0.5681944388343751   F   F   F
  0.8376966871793883  0.3366026386202776  0.5850876240696650   F   F   F
  0.9923979084922365  0.3344888150010021  0.4183807304470051   F   F   F
  0.6689393498575598  0.1678151342694179  0.4325768199425184   F   F   F
  0.4986926509687635  0.1663880363232479  0.5845851145441756   F   F   F
  0.8432081091515613  0.0077294647510797  0.4299017316138674   F   F   F
  0.6567215370748158  0.5010085574845817  0.5780868435608468   F   F   F
  0.3353024376871758  0.8185067694054240  0.5758522330658877   F   F   F
  0.5119647913655285  0.8424170136125539  0.4195019991172018   F   F   F
  0.1590451628071392  0.6667157429009549  0.4187307377293124   F   F   F
  0.0017935955134760  0.6651493881006871  0.5846803547539068   F   F   F
  0.3352563393481347  0.5001689825671036  0.4030401207498358   F   F   F
  0.1728973001378407  0.0031157866684026  0.5846397756884656   F   F   F
  0.8327648303142965  0.8349946888492994  0.5844242598491221   F   F   F
  0.0018627844435812  0.8342086709046654  0.4325507589952338   F   F   F
  0.6733117659423371  0.6746675901348098  0.4225566863147208   F   F   F
  0.4825431088537115  0.6529442375176018  0.5718903011154381   F   F   F
  0.8287742603221773  0.5008367376394034  0.4299297464003971   F   F   F
  0.6704393858773585  0.9983539780515756  0.5842458452798667   F   F   F
  0.1637706823003029  0.3291482295120716  0.4720682434976808   F   F   F
  0.3354213083760911  0.1627315417790953  0.5013843365055664   F   F   F
  0.0045234200888444  0.0017144204602673  0.5093922980798027   F   F   F
  0.6675433792806871  0.3338391139070893  0.5090027910441606   F   F   F
  0.8368970672656886  0.1698189868133895  0.5083198606546162   F   F   F
  0.5034940090527513  0.9995965674407614  0.5089160197699414   F   F   F
  0.1682141117928424  0.8318432026668816  0.5082832367493566   F   F   F
  0.3348589464911598  0.6710552460145749  0.4731556714894012   F   F   F
  0.9982153837998240  0.5007002187785758  0.5012301227808535   F   F   F
  0.6733540074369415  0.8387929035086046  0.5009217145608460   F   F   F
  0.8344375980583365  0.6679306855936247  0.5084364194791888   F   F   F
  0.5034195517554565  0.5002649433749511  0.4820372374422845   F   F   F
  0.3112080763817886  0.5019902342198606  0.6661188072661649   T   T   T
 
  0.00000000E+00  0.00000000E+00  0.00000000E+00
  0.00000000E+00  0.00000000E+00  0.00000000E+00
  0.00000000E+00  0.00000000E+00  0.00000000E+00
  0.00000000E+00  0.00000000E+00  0.00000000E+00
  0.00000000E+00  0.00000000E+00  0.00000000E+00
  0.00000000E+00  0.00000000E+00  0.00000000E+00
  0.00000000E+00  0.00000000E+00  0.00000000E+00
  0.00000000E+00  0.00000000E+00  0.00000000E+00
  0.00000000E+00  0.00000000E+00  0.00000000E+00
  0.00000000E+00  0.00000000E+00  0.00000000E+00
  0.00000000E+00  0.00000000E+00  0.00000000E+00
  0.00000000E+00  0.00000000E+00  0.00000000E+00
  0.00000000E+00  0.00000000E+00  0.00000000E+00
  0.00000000E+00  0.00000000E+00  0.00000000E+00
  0.00000000E+00  0.00000000E+00  0.00000000E+00
  0.00000000E+00  0.00000000E+00  0.00000000E+00
  0.00000000E+00  0.00000000E+00  0.00000000E+00
  0.00000000E+00  0.00000000E+00  0.00000000E+00
  0.00000000E+00  0.00000000E+00  0.00000000E+00
  0.00000000E+00  0.00000000E+00  0.00000000E+00
  0.00000000E+00  0.00000000E+00  0.00000000E+00
  0.00000000E+00  0.00000000E+00  0.00000000E+00
  0.00000000E+00  0.00000000E+00  0.00000000E+00
  0.00000000E+00  0.00000000E+00  0.00000000E+00
  0.00000000E+00  0.00000000E+00  0.00000000E+00
  0.00000000E+00  0.00000000E+00  0.00000000E+00
  0.00000000E+00  0.00000000E+00  0.00000000E+00
  0.00000000E+00  0.00000000E+00  0.00000000E+00
  0.00000000E+00  0.00000000E+00  0.00000000E+00
  0.00000000E+00  0.00000000E+00  0.00000000E+00
  0.00000000E+00  0.00000000E+00  0.00000000E+00
  0.00000000E+00  0.00000000E+00  0.00000000E+00
  0.00000000E+00  0.00000000E+00  0.00000000E+00
  0.00000000E+00  0.00000000E+00  0.00000000E+00
  0.00000000E+00  0.00000000E+00  0.00000000E+00
  0.00000000E+00  0.00000000E+00  0.00000000E+00
  0.00000000E+00  0.00000000E+00  0.00000000E+00
