Ta12 Si4 Te24                           
   1.00000000000000     
     6.4223523668996823    0.0000000000000000    0.0000000000000000
    -0.0000000000000000   11.5943680149634201    0.0000000000000000
     0.0000000000000000    0.0000000000000000   14.3975366825780693
   Ta   Si   Te
    12     4    24
Direct
  0.6678306062476833  0.3355217208705495  0.7500000000000000
  0.1678305882476890  0.1644782791294505  0.7500000000000000
  0.8321694307523162  0.8355217208705494  0.2500000000000000
  0.3321693937523166  0.6644782381294507  0.2500000000000000
  0.9679123818259726  0.6872934498222326  0.7500000000000000
  0.4679123818259728  0.8127065501777674  0.7500000000000000
  0.5320876181740274  0.1872934298222310  0.2500000000000000
  0.0320876391740255  0.3127065701777689  0.2500000000000000
  0.6971321556436082  0.0306000043493224  0.7500000000000000
  0.1971321926436078  0.4694000006506744  0.7500000000000000
  0.8028678073563923  0.5305999993493256  0.2500000000000000
  0.3028678263563903  0.9694000416506743  0.2500000000000000
  0.5751759231133176  0.5753888658696051  0.7500000000000000
  0.0751759371133188  0.9246110931303950  0.7500000000000000
  0.9248240398866829  0.0753888808696028  0.2500000000000000
  0.4248240768866824  0.4246111341303949  0.2500000000000000
  0.7958580933112789  0.8413712602845043  0.8816543077997404
  0.2958580933112788  0.6586287807154956  0.6183456922002596
  0.7041418696887145  0.3413712192845045  0.1183456762002656
  0.2041418886887197  0.1586287607154936  0.3816543397997358
  0.2041418886887197  0.1586287607154936  0.1183456762002656
  0.7041418696887145  0.3413712192845045  0.3816543397997358
  0.2958580933112788  0.6586287807154956  0.8816543077997404
  0.7958580933112789  0.8413712602845043  0.6183456922002596
  0.8552931223477620  0.4964310912166966  0.8776851705817350
  0.3552931973477648  0.0035688977833061  0.6223148294182650
  0.6447068396522349  0.9964310912166966  0.1223148374182656
  0.1447068306522375  0.5035688667833070  0.3776851705817351
  0.1447068306522375  0.5035688667833070  0.1223148374182656
  0.6447068396522349  0.9964310912166966  0.3776851705817351
  0.3552931973477648  0.0035688977833061  0.8776851705817350
  0.8552931223477620  0.4964310912166966  0.6223148294182650
  0.8485242836715169  0.1811867461294694  0.8820786403071779
  0.3485243576715231  0.3188132538705306  0.6179213596928221
  0.6514756793284765  0.6811867671294676  0.1179213596928223
  0.1514756703284792  0.8188132328705324  0.3820786083071750
  0.1514756703284792  0.8188132328705324  0.1179213596928223
  0.6514756793284765  0.6811867671294676  0.3820786083071750
  0.3485243576715231  0.3188132538705306  0.8820786403071779
  0.8485242836715169  0.1811867461294694  0.6179213596928221
 
  0.00000000E+00  0.00000000E+00  0.00000000E+00
  0.00000000E+00  0.00000000E+00  0.00000000E+00
  0.00000000E+00  0.00000000E+00  0.00000000E+00
  0.00000000E+00  0.00000000E+00  0.00000000E+00
  0.00000000E+00  0.00000000E+00  0.00000000E+00
  0.00000000E+00  0.00000000E+00  0.00000000E+00
  0.00000000E+00  0.00000000E+00  0.00000000E+00
  0.00000000E+00  0.00000000E+00  0.00000000E+00
  0.00000000E+00  0.00000000E+00  0.00000000E+00
  0.00000000E+00  0.00000000E+00  0.00000000E+00
  0.00000000E+00  0.00000000E+00  0.00000000E+00
  0.00000000E+00  0.00000000E+00  0.00000000E+00
  0.00000000E+00  0.00000000E+00  0.00000000E+00
  0.00000000E+00  0.00000000E+00  0.00000000E+00
  0.00000000E+00  0.00000000E+00  0.00000000E+00
  0.00000000E+00  0.00000000E+00  0.00000000E+00
  0.00000000E+00  0.00000000E+00  0.00000000E+00
  0.00000000E+00  0.00000000E+00  0.00000000E+00
  0.00000000E+00  0.00000000E+00  0.00000000E+00
  0.00000000E+00  0.00000000E+00  0.00000000E+00
  0.00000000E+00  0.00000000E+00  0.00000000E+00
  0.00000000E+00  0.00000000E+00  0.00000000E+00
  0.00000000E+00  0.00000000E+00  0.00000000E+00
  0.00000000E+00  0.00000000E+00  0.00000000E+00
  0.00000000E+00  0.00000000E+00  0.00000000E+00
  0.00000000E+00  0.00000000E+00  0.00000000E+00
  0.00000000E+00  0.00000000E+00  0.00000000E+00
  0.00000000E+00  0.00000000E+00  0.00000000E+00
  0.00000000E+00  0.00000000E+00  0.00000000E+00
  0.00000000E+00  0.00000000E+00  0.00000000E+00
  0.00000000E+00  0.00000000E+00  0.00000000E+00
  0.00000000E+00  0.00000000E+00  0.00000000E+00
  0.00000000E+00  0.00000000E+00  0.00000000E+00
  0.00000000E+00  0.00000000E+00  0.00000000E+00
  0.00000000E+00  0.00000000E+00  0.00000000E+00
  0.00000000E+00  0.00000000E+00  0.00000000E+00
  0.00000000E+00  0.00000000E+00  0.00000000E+00
  0.00000000E+00  0.00000000E+00  0.00000000E+00
  0.00000000E+00  0.00000000E+00  0.00000000E+00
  0.00000000E+00  0.00000000E+00  0.00000000E+00
