CONTCAR\(6)                             
   1.00000000000000     
    11.6057996750000001    0.0000000000000000    0.0000000000000000
     5.8029393748000002   10.0514726542999995    0.0000000000000000
     0.0000000000000000    0.0000000000000000   18.0372009276999989
   Ni   P    S    O    H 
     8     8    24     2     1
Direct
  0.1697176729143787  0.1663568270167124  0.5001475845673510
  0.3372488516217579  0.3337556197302040  0.5033164729885959
  0.6692181119978002  0.1678843936707833  0.5028142881202773
  0.8359398458436647  0.3336968996242121  0.5025175202345161
  0.1719725015619558  0.6657205908768291  0.5034850497747680
  0.3374969491496504  0.8307799910106862  0.5028518036067193
  0.6701879040981539  0.6657753033814146  0.5029536841677547
  0.8366180437432306  0.8333743165154096  0.5003229473203102
  0.5033733708308756 -0.0006942547606358  0.5623531876586320
  0.0016056665022851  0.0013412491340963  0.4403996467253724
  0.0034404989670518 -0.0004358690456557  0.5616493853459669
  0.5034028200627375  0.9981369640273073  0.4411177709471012
  0.5048927091659819  0.5003386919210011  0.5877072636365127
  0.0052392241979021  0.4996644492061495  0.4413229944036883
  0.0035912362793462  0.4994705339205632  0.5625024508371246
  0.5039979858775352  0.4999903669862785  0.4609516706115674
  0.3295763682255785  0.1725964599095665  0.5852610859881073
 -0.0002900964822481  0.1757798093605735  0.4174193428344402
  0.3312188521698061  0.9957208563417260  0.4180315752853425
  0.1769500741391459 -0.0005324587956781  0.5845512255864823
  0.5021229423834050  0.3175444605090500  0.5840263592475293
  0.1793938721037269  0.3273717077100520  0.4180597454381724
  0.8321576305949377  0.1710729686843343  0.5881496256722543
  0.5031624081438519  0.1699404016831670  0.4155555581642491
  0.8271590449972025  0.0032806871817292  0.4175577167334455
  0.6768059741716506 -0.0003367844180803  0.5851525244272118
  0.0037952069197358  0.3256705388376994  0.5849692734604464
  0.6726585262599558  0.3304578695319144  0.4246298400377350
  0.3192520097214629  0.6829836464811162  0.5840743610536595
  0.0076944054138059  0.6718187340363581  0.4183661135583592
  0.3338545109413849  0.5004018078604210  0.4256200899944524
  0.1746474423574178  0.4992803546520949  0.5895337479351997
  0.5038266179149740  0.8278267632976902  0.5887804570828106
  0.1729431596193447  0.8298986410087407  0.4147039983254247
  0.8303722469034082  0.6734644691130593  0.5852012684794327
  0.5035942491141444  0.6694968878162039  0.4249009546127036
  0.8335645310210866  0.4998069077066091  0.4155365602120450
  0.6888976383529093  0.4996442614165549  0.5843717890647768
  0.0031287825170555  0.8261942702741848  0.5846682517640940
  0.6759046020112477  0.8240610912707765  0.4178124198175922
  0.5224027457028624  0.4992461981982297  0.6824288147757026
  0.4084439206388344  0.5020584473741938  0.7203086911921140
  0.4416287643289913  0.4058848067423934  0.7251050613099908
 
  0.00000000E+00  0.00000000E+00  0.00000000E+00
  0.00000000E+00  0.00000000E+00  0.00000000E+00
  0.00000000E+00  0.00000000E+00  0.00000000E+00
  0.00000000E+00  0.00000000E+00  0.00000000E+00
  0.00000000E+00  0.00000000E+00  0.00000000E+00
  0.00000000E+00  0.00000000E+00  0.00000000E+00
  0.00000000E+00  0.00000000E+00  0.00000000E+00
  0.00000000E+00  0.00000000E+00  0.00000000E+00
  0.00000000E+00  0.00000000E+00  0.00000000E+00
  0.00000000E+00  0.00000000E+00  0.00000000E+00
  0.00000000E+00  0.00000000E+00  0.00000000E+00
  0.00000000E+00  0.00000000E+00  0.00000000E+00
  0.00000000E+00  0.00000000E+00  0.00000000E+00
  0.00000000E+00  0.00000000E+00  0.00000000E+00
  0.00000000E+00  0.00000000E+00  0.00000000E+00
  0.00000000E+00  0.00000000E+00  0.00000000E+00
  0.00000000E+00  0.00000000E+00  0.00000000E+00
  0.00000000E+00  0.00000000E+00  0.00000000E+00
  0.00000000E+00  0.00000000E+00  0.00000000E+00
  0.00000000E+00  0.00000000E+00  0.00000000E+00
  0.00000000E+00  0.00000000E+00  0.00000000E+00
  0.00000000E+00  0.00000000E+00  0.00000000E+00
  0.00000000E+00  0.00000000E+00  0.00000000E+00
  0.00000000E+00  0.00000000E+00  0.00000000E+00
  0.00000000E+00  0.00000000E+00  0.00000000E+00
  0.00000000E+00  0.00000000E+00  0.00000000E+00
  0.00000000E+00  0.00000000E+00  0.00000000E+00
  0.00000000E+00  0.00000000E+00  0.00000000E+00
  0.00000000E+00  0.00000000E+00  0.00000000E+00
  0.00000000E+00  0.00000000E+00  0.00000000E+00
  0.00000000E+00  0.00000000E+00  0.00000000E+00
  0.00000000E+00  0.00000000E+00  0.00000000E+00
  0.00000000E+00  0.00000000E+00  0.00000000E+00
  0.00000000E+00  0.00000000E+00  0.00000000E+00
  0.00000000E+00  0.00000000E+00  0.00000000E+00
  0.00000000E+00  0.00000000E+00  0.00000000E+00
  0.00000000E+00  0.00000000E+00  0.00000000E+00
  0.00000000E+00  0.00000000E+00  0.00000000E+00
  0.00000000E+00  0.00000000E+00  0.00000000E+00
  0.00000000E+00  0.00000000E+00  0.00000000E+00
  0.00000000E+00  0.00000000E+00  0.00000000E+00
  0.00000000E+00  0.00000000E+00  0.00000000E+00
  0.00000000E+00  0.00000000E+00  0.00000000E+00
