CONTCAR                                 
   1.00000000000000     
    10.9738998412999997    0.0000000000000000    0.0000000000000000
     0.0000000000000000   10.9738998412999997    0.0000000000000000
     0.0000000000000000    0.0000000000000000   19.0231990814000014
   Li   Co   As   O    H 
    18    18    18     2     1
Direct
  0.1655616871683036  0.0048496511136658  0.6050874154383176
  0.9951809962983728  0.1705303574939516  0.3942919681494087
  0.4961701350449554  0.0049734394653471  0.6050814825839542
  0.3311686809346971  0.1685592778072313  0.3932689866898410
  0.8311125052698544  0.0047859693503081  0.6066110156976502
  0.6663331231954258  0.1706629694288771  0.3946335638885208
  0.2054188879048529  0.3496898856467764  0.6370923523335480
  0.9933391665211372  0.5045886689226448  0.3926457059057079
  0.4784455935742919  0.3459953400778107  0.6299162487409182
  0.3309712690343706  0.5058001143667706  0.3929452987701451
  0.8315444543515084  0.3382949860668927  0.6056806828520426
  0.6680209196543917  0.5044622187141253  0.3935608596364720
  0.1678987224931225  0.6693066666406585  0.6052301755631651
  0.9947910997446859  0.8393172045207873  0.3943417427099663
  0.4922327056839569  0.6656998760950829  0.6094445961764249
  0.3310562626153543  0.8418105074867964  0.3912569068953684
  0.8313416601476693  0.6704264159617461  0.6057989680089673
  0.6666546008019735  0.8389991886208783  0.3943483184863885
  0.1630914837688898  0.1721629086113860  0.4988974811090900
  0.9972791003066945  0.0043254639346310  0.5009670842453257
  0.4987940157447329  0.1718012860301424  0.4993989693919413
  0.3308831255407376  0.0028926231936384  0.4992104384765350
  0.8313558230219100  0.1704121019552121  0.5015299940238466
  0.6648508543922993  0.0041006249433513  0.5011168251786328
  0.1602329625791085  0.5053919107213477  0.4940188499690628
 -0.0002367478464480  0.3373292298798752  0.5007285272048986
  0.5009380031031641  0.5052106692982888  0.4952834989926148
  0.3305604360021614  0.3363148503708251  0.4944761471460654
  0.8316260172306043  0.5043073022498514  0.5023146490817871
  0.6629537728294503  0.3372192777229228  0.5007096260138386
  0.1635554775379150  0.8370671155264975  0.4995705983666517
 -0.0018962009340101  0.6706227513069770  0.5003664103694367
  0.4984524509087075  0.8366799518417705  0.4997460996851630
  0.3306977379409290  0.6765562787718369  0.4923242066380480
  0.8309040457412923  0.8375775578754524  0.5006581507442019
  0.6636942385960241  0.6706973583583345  0.5004656391324577
  0.0000159171005512  0.1724232472825402  0.5777747102540959
  0.1627672929940278  0.0045744982266603  0.4235411559609714
  0.3304135378968099  0.1715092509422394  0.5723620658350073
  0.4993404539422938  0.0043873057612185  0.4237767956730168
  0.6629326711435347  0.1721157682394623  0.5777764299388723
  0.8308999135696880  0.0046548390081492  0.4244272165312917
  0.0015183627342286  0.5029144730476131  0.5771598526415287
  0.1620717386638545  0.3364769130568430  0.4194048913632716
  0.3297600943821193  0.5086485091757800  0.5627542503057020
  0.4995920516548348  0.3367287126397813  0.4201303527157184
  0.6622581564882137  0.5034315656820395  0.5767549253769739
  0.8311424815951953  0.3375917544372870  0.4259303612172933
 -0.0019691629271809  0.8370363580325419  0.5775623064176184
  0.1604147209492871  0.6739473177065529  0.4190489046136012
  0.3310301428649702  0.8363508121076392  0.5756762796719900
  0.5010890191258035  0.6732629868125386  0.4194427474293408
  0.6637724390795263  0.8366928772136645  0.5778189533160057
  0.8307967470436869  0.6707222542763408  0.4248099059010231
  0.3694838841618084  0.4855943112141126  0.7218895168683864
  0.3481149065075390  0.3576248170525105  0.6954751759360941
  0.3857452061260780  0.4679590217117755  0.7714338477358164
 
  0.00000000E+00  0.00000000E+00  0.00000000E+00
  0.00000000E+00  0.00000000E+00  0.00000000E+00
  0.00000000E+00  0.00000000E+00  0.00000000E+00
  0.00000000E+00  0.00000000E+00  0.00000000E+00
  0.00000000E+00  0.00000000E+00  0.00000000E+00
  0.00000000E+00  0.00000000E+00  0.00000000E+00
  0.00000000E+00  0.00000000E+00  0.00000000E+00
  0.00000000E+00  0.00000000E+00  0.00000000E+00
  0.00000000E+00  0.00000000E+00  0.00000000E+00
  0.00000000E+00  0.00000000E+00  0.00000000E+00
  0.00000000E+00  0.00000000E+00  0.00000000E+00
  0.00000000E+00  0.00000000E+00  0.00000000E+00
  0.00000000E+00  0.00000000E+00  0.00000000E+00
  0.00000000E+00  0.00000000E+00  0.00000000E+00
  0.00000000E+00  0.00000000E+00  0.00000000E+00
  0.00000000E+00  0.00000000E+00  0.00000000E+00
  0.00000000E+00  0.00000000E+00  0.00000000E+00
  0.00000000E+00  0.00000000E+00  0.00000000E+00
  0.00000000E+00  0.00000000E+00  0.00000000E+00
  0.00000000E+00  0.00000000E+00  0.00000000E+00
  0.00000000E+00  0.00000000E+00  0.00000000E+00
  0.00000000E+00  0.00000000E+00  0.00000000E+00
  0.00000000E+00  0.00000000E+00  0.00000000E+00
  0.00000000E+00  0.00000000E+00  0.00000000E+00
  0.00000000E+00  0.00000000E+00  0.00000000E+00
  0.00000000E+00  0.00000000E+00  0.00000000E+00
  0.00000000E+00  0.00000000E+00  0.00000000E+00
  0.00000000E+00  0.00000000E+00  0.00000000E+00
  0.00000000E+00  0.00000000E+00  0.00000000E+00
  0.00000000E+00  0.00000000E+00  0.00000000E+00
  0.00000000E+00  0.00000000E+00  0.00000000E+00
  0.00000000E+00  0.00000000E+00  0.00000000E+00
  0.00000000E+00  0.00000000E+00  0.00000000E+00
  0.00000000E+00  0.00000000E+00  0.00000000E+00
  0.00000000E+00  0.00000000E+00  0.00000000E+00
  0.00000000E+00  0.00000000E+00  0.00000000E+00
  0.00000000E+00  0.00000000E+00  0.00000000E+00
  0.00000000E+00  0.00000000E+00  0.00000000E+00
  0.00000000E+00  0.00000000E+00  0.00000000E+00
  0.00000000E+00  0.00000000E+00  0.00000000E+00
  0.00000000E+00  0.00000000E+00  0.00000000E+00
  0.00000000E+00  0.00000000E+00  0.00000000E+00
  0.00000000E+00  0.00000000E+00  0.00000000E+00
  0.00000000E+00  0.00000000E+00  0.00000000E+00
  0.00000000E+00  0.00000000E+00  0.00000000E+00
  0.00000000E+00  0.00000000E+00  0.00000000E+00
  0.00000000E+00  0.00000000E+00  0.00000000E+00
  0.00000000E+00  0.00000000E+00  0.00000000E+00
  0.00000000E+00  0.00000000E+00  0.00000000E+00
  0.00000000E+00  0.00000000E+00  0.00000000E+00
  0.00000000E+00  0.00000000E+00  0.00000000E+00
  0.00000000E+00  0.00000000E+00  0.00000000E+00
  0.00000000E+00  0.00000000E+00  0.00000000E+00
  0.00000000E+00  0.00000000E+00  0.00000000E+00
  0.00000000E+00  0.00000000E+00  0.00000000E+00
  0.00000000E+00  0.00000000E+00  0.00000000E+00
  0.00000000E+00  0.00000000E+00  0.00000000E+00
