CONTCAR\(3)                             
   1.00000000000000     
    11.7566995620999997    0.0000000000000000    0.0000000000000000
     0.0000000000000000   11.8254995346000005    0.0000000000000000
     0.0000000000000000    0.0000000000000000   21.8330993651999989
   Zr   Te   O 
    12    36     1
Direct
  0.0814896031269059  0.3451825699667432  0.5741345526221843
  0.2530838358909514  0.0896759004381278  0.4243177854233187
  0.4209133919736076  0.3263312209681267  0.5854476718623972
  0.5862166341357423  0.0894608992651111  0.4236289030533172
  0.7527239528275980  0.3412728377322798  0.5746578798789088
  0.9188209320109453  0.0904568659763672  0.4233763069241780
  0.0844687041232758  0.8420382712346159  0.5778801213689744
  0.2519875972348541  0.5909499029320900  0.4257744807290742
  0.4175672429570013  0.8407675118635216  0.5775986617627152
  0.5833095243618813  0.5902236052770300  0.4259839915949679
  0.7508349846493262  0.8415037688237670  0.5779738335893473
  0.9172033858317328  0.5918920819018445  0.4240914661082669
  0.1998145055426731  0.2246655028309422  0.6752123275832840
  0.2571072606944372  0.3377719516751680  0.4787565254603071
  0.0871687732309935  0.2102130252291623  0.3451053465043618
  0.0850447770139350  0.4722580312314725  0.3456882920533644
  0.2404966286726574  0.4617244738610412  0.6548335817010157
  0.0847466338171214  0.0924550982387451  0.5252621846785600
  0.6208802618151086  0.2212894001880708  0.6642436163557697
  0.5839588969907722  0.3383045070344595  0.4772523681746736
  0.4193843198308315  0.2095660290841866  0.3456770205219766
  0.4171082876513848  0.4719655963520392  0.3456481188206565
  0.5804989771531774  0.4542520728217507  0.6601062195398564
  0.4216256228335434  0.0855198137956624  0.5246248875145326
  0.9308773585551662  0.2295572297813720  0.6665440010016944
  0.9175087703191825  0.3405143124292526  0.4737606397561635
  0.7520309021248757  0.2096999830023192  0.3439619430214335
  0.7495608947941519  0.4719357796860643  0.3454580484276323
  0.9111565065546414  0.4657787258329060  0.6523727702934796
  0.7533814659982672  0.0911159892525937  0.5255955967824244
  0.2489990924795512  0.7267416837426972  0.6607641127423394
  0.2514172791205170  0.8407999242189399  0.4760250864949423
  0.0859383492447108  0.7099130366378167  0.3452904144181181
  0.0853209027571256  0.9724447093274452  0.3437738771045509
  0.2504715308022758  0.9650665931005100  0.6531499205153779
  0.0833806562086462  0.5936248716300658  0.5255001687303356
  0.5863676498801089  0.7230189149813793  0.6580452740895519
  0.5847894422480334  0.8395440152922549  0.4762759354074798
  0.4183306873342018  0.7096739684447892  0.3466975493042604
  0.4185621670515773  0.9719932920596468  0.3428944256719076
  0.5810303876350970  0.9600687011073512  0.6573822138283126
  0.4168462733426882  0.5915169908963743  0.5282011553201580
  0.9189738396843348  0.7276102234248355  0.6610345617614378
  0.9177667965746125  0.8417841018420936  0.4759891697337993
  0.7496758999241115  0.7096746471052808  0.3455018056474369
  0.7522784371529986  0.9715570425181719  0.3438335305369101
  0.9165729687530167  0.9649387134348349  0.6541611074623150
  0.7512677113659717  0.5921223426379153  0.5262702339229266
  0.3676491007237216  0.2229530348907772  0.6495908501989885
 
  0.00000000E+00  0.00000000E+00  0.00000000E+00
  0.00000000E+00  0.00000000E+00  0.00000000E+00
  0.00000000E+00  0.00000000E+00  0.00000000E+00
  0.00000000E+00  0.00000000E+00  0.00000000E+00
  0.00000000E+00  0.00000000E+00  0.00000000E+00
  0.00000000E+00  0.00000000E+00  0.00000000E+00
  0.00000000E+00  0.00000000E+00  0.00000000E+00
  0.00000000E+00  0.00000000E+00  0.00000000E+00
  0.00000000E+00  0.00000000E+00  0.00000000E+00
  0.00000000E+00  0.00000000E+00  0.00000000E+00
  0.00000000E+00  0.00000000E+00  0.00000000E+00
  0.00000000E+00  0.00000000E+00  0.00000000E+00
  0.00000000E+00  0.00000000E+00  0.00000000E+00
  0.00000000E+00  0.00000000E+00  0.00000000E+00
  0.00000000E+00  0.00000000E+00  0.00000000E+00
  0.00000000E+00  0.00000000E+00  0.00000000E+00
  0.00000000E+00  0.00000000E+00  0.00000000E+00
  0.00000000E+00  0.00000000E+00  0.00000000E+00
  0.00000000E+00  0.00000000E+00  0.00000000E+00
  0.00000000E+00  0.00000000E+00  0.00000000E+00
  0.00000000E+00  0.00000000E+00  0.00000000E+00
  0.00000000E+00  0.00000000E+00  0.00000000E+00
  0.00000000E+00  0.00000000E+00  0.00000000E+00
  0.00000000E+00  0.00000000E+00  0.00000000E+00
  0.00000000E+00  0.00000000E+00  0.00000000E+00
  0.00000000E+00  0.00000000E+00  0.00000000E+00
  0.00000000E+00  0.00000000E+00  0.00000000E+00
  0.00000000E+00  0.00000000E+00  0.00000000E+00
  0.00000000E+00  0.00000000E+00  0.00000000E+00
  0.00000000E+00  0.00000000E+00  0.00000000E+00
  0.00000000E+00  0.00000000E+00  0.00000000E+00
  0.00000000E+00  0.00000000E+00  0.00000000E+00
  0.00000000E+00  0.00000000E+00  0.00000000E+00
  0.00000000E+00  0.00000000E+00  0.00000000E+00
  0.00000000E+00  0.00000000E+00  0.00000000E+00
  0.00000000E+00  0.00000000E+00  0.00000000E+00
  0.00000000E+00  0.00000000E+00  0.00000000E+00
  0.00000000E+00  0.00000000E+00  0.00000000E+00
  0.00000000E+00  0.00000000E+00  0.00000000E+00
  0.00000000E+00  0.00000000E+00  0.00000000E+00
  0.00000000E+00  0.00000000E+00  0.00000000E+00
  0.00000000E+00  0.00000000E+00  0.00000000E+00
  0.00000000E+00  0.00000000E+00  0.00000000E+00
  0.00000000E+00  0.00000000E+00  0.00000000E+00
  0.00000000E+00  0.00000000E+00  0.00000000E+00
  0.00000000E+00  0.00000000E+00  0.00000000E+00
  0.00000000E+00  0.00000000E+00  0.00000000E+00
  0.00000000E+00  0.00000000E+00  0.00000000E+00
  0.00000000E+00  0.00000000E+00  0.00000000E+00
