CONTCAR\(8)                             
   1.00000000000000     
    13.7187995910999998    0.0000000000000000    0.0000000000000000
    -4.5729412920000003   17.9978325079000001    0.0000000000000000
     0.0000000000000000    0.0000000000000000   21.4340000153000005
   Ag   Te   Mo   O    H 
     6    36    36     1     1
Direct
  0.9917831035443195  0.9977202643910995  0.5044519604752984
  0.3345388939040044  0.9975184570476044  0.5018655156817003
  0.6674773445118577  0.9979662265585939  0.5046987906159147
  0.0025620628059626  0.4982239608157863  0.4960657621978354
  0.3284499695669028  0.4981378517126519  0.4957950726298659
  0.6670029616349998  0.4988516939499675  0.4996043729404568
  0.2579189029254035  0.2728067001873856  0.6495157225374546
  0.1376715543974645  0.4131568170012735  0.5641125000940365
  0.1939087932294319  0.0828075327862524  0.4375674735471644
  0.0366303821167243  0.1068273233050195  0.5983864830598189
  0.2966084252352635  0.3891673557122349  0.4019246912944300
  0.0747636729607899  0.2236891164582830  0.3509199744980211
  0.5911030146784180  0.2723589825170644  0.6496509628420933
  0.4710768598690364  0.4133651041416314  0.5635189136271707
  0.5282136045487813  0.0832144428333280  0.4365759061866611
  0.3693315856178035  0.1064575857507854  0.5975426077816935
  0.6302724306770739  0.3900950608980538  0.4032016124994852
  0.4081594171825321  0.2239799571690709  0.3508860334532050
  0.9244814093540947  0.2724341753029634  0.6496604424647568
  0.8053531208212650  0.4133224097048907  0.5638668142439546
  0.8605991863849299  0.0828798310411790  0.4362893208152337
  0.7022461681037954  0.1069251406046069  0.5984643440192388
  0.9634625279411184  0.3893519410158237  0.4021439019715818
  0.7415748041016923  0.2240161920266295  0.3509863229175177
  0.2547972551774121  0.7663446170799243  0.6490849152862098
  0.1379344707382956  0.9120788103740073  0.5659405891781082
  0.1947644938036279  0.5846829298477724  0.4296003892879325
  0.0344133188204753  0.6027497695150229  0.5939639094749369
  0.2975055016732364  0.8918467702108244  0.4034478174980562
  0.0734212877105187  0.7283128953072077  0.3499306582195005
  0.5628799401819577  0.7675894005192471  0.6526507892316805
  0.4697845466028132  0.9117907694374741  0.5671855282472202
  0.5294551603944448  0.5849337879004103  0.4362309786973926
  0.3674751159984001  0.6027121228118189  0.5939843459602058
  0.6320448756388762  0.8921819843755613  0.4080886035048748
  0.4124863505368554  0.7285542151135765  0.3502495495679770
  0.9476722265140751  0.7674840453166636  0.6521658862578773
  0.8036456434561753  0.9117614184433056  0.5712348680070790
  0.8601787727011629  0.5849467118403427  0.4352861444460028
  0.7013339948456209  0.6045828460926943  0.5981148355632865
  0.9628297755677078  0.8919221260696907  0.4074516674461970
  0.7425606269320703  0.7288714523041629  0.3531439620863812
  0.1055274376581460  0.3157964401590762  0.4566695767599862
  0.2271471366919533  0.1803852176584339  0.5438778979145139
  0.0564707779808187  0.1687861345281460  0.4739735215013060
  0.2760131169847563  0.3274332140675014  0.5264676255754691
  0.0866437184560196  0.2593130779914881  0.5712206360823646
  0.2457866900018574  0.2367181136565891  0.4293017272525197
  0.4389404163375558  0.3160541629294361  0.4567103677236780
  0.5603380390371006  0.1804140784802656  0.5437395087124691
  0.3898772500681502  0.1689527972047265  0.4737795293512564
  0.6094819803497967  0.3275011499033084  0.5267621143012624
  0.4201117537644991  0.2594649411054581  0.5711548974553646
  0.5793134296196157  0.2371261597197287  0.4292977399651099
  0.7722909186213111  0.3160626118447638  0.4567927113493158
  0.8936536954368278  0.1802896182647267  0.5438801832008846
  0.7231618196971785  0.1689686460362287  0.4740043019069694
  0.9427064402970792  0.3272857376611739  0.5265918324795122
  0.7533914826307853  0.2594467730456083  0.5712724079617894
  0.9125711036870298  0.2368355983716013  0.4293461751845085
  0.1054486711354487  0.8175239492003614  0.4571382124129961
  0.2254741954076136  0.6769861713747238  0.5403059924657961
  0.0558001869268638  0.6687655484887054  0.4712436057474749
  0.2755367484165640  0.8270679513678759  0.5263084765237159
  0.0913507567028996  0.7567887624614433  0.5692430221938928
  0.2463954813834675  0.7387985080188959  0.4279765141468460
  0.4396492988479510  0.8175818914174154  0.4576165022861352
  0.5602184537787008  0.6802776018458426  0.5455987803087040
  0.3898924177112211  0.6688672656881651  0.4715282484067563
  0.6084853880890335  0.8257663921285612  0.5317639561626573
  0.4122272309711786  0.7567040745824849  0.5696049448704505
  0.5805321783484598  0.7390933972966198  0.4315184190182733
  0.7722629790287064  0.8166114178035858  0.4619867168199069
  0.8931364623588990  0.6798604832222320  0.5450979654200379
  0.7236352889686737  0.6709893305510720  0.4759237842120467
  0.9422321360048619  0.8259930302274135  0.5311780853182774
  0.7540592165067195  0.7582897357035504  0.5784211807561715
  0.9121405105753089  0.7390142485017744  0.4311211914713226
  0.7524074698872940  0.7649512268932610  0.6762457091741719
  0.7708348292222892  0.8157656811058588  0.6924149112506013
 
  0.00000000E+00  0.00000000E+00  0.00000000E+00
  0.00000000E+00  0.00000000E+00  0.00000000E+00
  0.00000000E+00  0.00000000E+00  0.00000000E+00
  0.00000000E+00  0.00000000E+00  0.00000000E+00
  0.00000000E+00  0.00000000E+00  0.00000000E+00
  0.00000000E+00  0.00000000E+00  0.00000000E+00
  0.00000000E+00  0.00000000E+00  0.00000000E+00
  0.00000000E+00  0.00000000E+00  0.00000000E+00
  0.00000000E+00  0.00000000E+00  0.00000000E+00
  0.00000000E+00  0.00000000E+00  0.00000000E+00
  0.00000000E+00  0.00000000E+00  0.00000000E+00
  0.00000000E+00  0.00000000E+00  0.00000000E+00
  0.00000000E+00  0.00000000E+00  0.00000000E+00
  0.00000000E+00  0.00000000E+00  0.00000000E+00
  0.00000000E+00  0.00000000E+00  0.00000000E+00
  0.00000000E+00  0.00000000E+00  0.00000000E+00
  0.00000000E+00  0.00000000E+00  0.00000000E+00
  0.00000000E+00  0.00000000E+00  0.00000000E+00
  0.00000000E+00  0.00000000E+00  0.00000000E+00
  0.00000000E+00  0.00000000E+00  0.00000000E+00
  0.00000000E+00  0.00000000E+00  0.00000000E+00
  0.00000000E+00  0.00000000E+00  0.00000000E+00
  0.00000000E+00  0.00000000E+00  0.00000000E+00
  0.00000000E+00  0.00000000E+00  0.00000000E+00
  0.00000000E+00  0.00000000E+00  0.00000000E+00
  0.00000000E+00  0.00000000E+00  0.00000000E+00
  0.00000000E+00  0.00000000E+00  0.00000000E+00
  0.00000000E+00  0.00000000E+00  0.00000000E+00
  0.00000000E+00  0.00000000E+00  0.00000000E+00
  0.00000000E+00  0.00000000E+00  0.00000000E+00
  0.00000000E+00  0.00000000E+00  0.00000000E+00
  0.00000000E+00  0.00000000E+00  0.00000000E+00
  0.00000000E+00  0.00000000E+00  0.00000000E+00
  0.00000000E+00  0.00000000E+00  0.00000000E+00
  0.00000000E+00  0.00000000E+00  0.00000000E+00
  0.00000000E+00  0.00000000E+00  0.00000000E+00
  0.00000000E+00  0.00000000E+00  0.00000000E+00
  0.00000000E+00  0.00000000E+00  0.00000000E+00
  0.00000000E+00  0.00000000E+00  0.00000000E+00
  0.00000000E+00  0.00000000E+00  0.00000000E+00
  0.00000000E+00  0.00000000E+00  0.00000000E+00
  0.00000000E+00  0.00000000E+00  0.00000000E+00
  0.00000000E+00  0.00000000E+00  0.00000000E+00
  0.00000000E+00  0.00000000E+00  0.00000000E+00
  0.00000000E+00  0.00000000E+00  0.00000000E+00
  0.00000000E+00  0.00000000E+00  0.00000000E+00
  0.00000000E+00  0.00000000E+00  0.00000000E+00
  0.00000000E+00  0.00000000E+00  0.00000000E+00
  0.00000000E+00  0.00000000E+00  0.00000000E+00
  0.00000000E+00  0.00000000E+00  0.00000000E+00
  0.00000000E+00  0.00000000E+00  0.00000000E+00
  0.00000000E+00  0.00000000E+00  0.00000000E+00
  0.00000000E+00  0.00000000E+00  0.00000000E+00
  0.00000000E+00  0.00000000E+00  0.00000000E+00
  0.00000000E+00  0.00000000E+00  0.00000000E+00
  0.00000000E+00  0.00000000E+00  0.00000000E+00
  0.00000000E+00  0.00000000E+00  0.00000000E+00
  0.00000000E+00  0.00000000E+00  0.00000000E+00
  0.00000000E+00  0.00000000E+00  0.00000000E+00
  0.00000000E+00  0.00000000E+00  0.00000000E+00
  0.00000000E+00  0.00000000E+00  0.00000000E+00
  0.00000000E+00  0.00000000E+00  0.00000000E+00
  0.00000000E+00  0.00000000E+00  0.00000000E+00
  0.00000000E+00  0.00000000E+00  0.00000000E+00
  0.00000000E+00  0.00000000E+00  0.00000000E+00
  0.00000000E+00  0.00000000E+00  0.00000000E+00
  0.00000000E+00  0.00000000E+00  0.00000000E+00
  0.00000000E+00  0.00000000E+00  0.00000000E+00
  0.00000000E+00  0.00000000E+00  0.00000000E+00
  0.00000000E+00  0.00000000E+00  0.00000000E+00
  0.00000000E+00  0.00000000E+00  0.00000000E+00
  0.00000000E+00  0.00000000E+00  0.00000000E+00
  0.00000000E+00  0.00000000E+00  0.00000000E+00
  0.00000000E+00  0.00000000E+00  0.00000000E+00
  0.00000000E+00  0.00000000E+00  0.00000000E+00
  0.00000000E+00  0.00000000E+00  0.00000000E+00
  0.00000000E+00  0.00000000E+00  0.00000000E+00
  0.00000000E+00  0.00000000E+00  0.00000000E+00
  0.00000000E+00  0.00000000E+00  0.00000000E+00
  0.00000000E+00  0.00000000E+00  0.00000000E+00
