 Cu2 Sb2 Se4                            
   1.00000000000000     
     3.9372651723031060    0.0000000000000000    0.0000000000000000
     0.0000000000000000    6.4035259923831411    0.0000000000000000
     0.0000000000000000    0.0000000000000000   20.7511641964639963
   Cu   Sb   Se
     2     2     4
Direct
  0.4999999965266100  0.7400916355434061  0.4431295703928969
  0.4999999978491441  0.2400912543076845  0.5568706638230154
 -0.0000000022227059  0.7414768059821542  0.6324158456550864
  0.0000000078077350  0.2414772430538000  0.3675840743008057
  0.5000000010415245  0.6164767811542486  0.5519139422702887
 -0.0000000078047943  0.6323817740163086  0.3864799021679859
  0.0000000043706131  0.1323812878820451  0.6135199741156780
  0.5000000024318738  0.1164772180603518  0.4480860272742507
 
  0.00000000E+00  0.00000000E+00  0.00000000E+00
  0.00000000E+00  0.00000000E+00  0.00000000E+00
  0.00000000E+00  0.00000000E+00  0.00000000E+00
  0.00000000E+00  0.00000000E+00  0.00000000E+00
  0.00000000E+00  0.00000000E+00  0.00000000E+00
  0.00000000E+00  0.00000000E+00  0.00000000E+00
  0.00000000E+00  0.00000000E+00  0.00000000E+00
  0.00000000E+00  0.00000000E+00  0.00000000E+00
