CONTCAR\(3)                             
   1.00000000000000     
    13.8191995620999997    0.0000000000000000    0.0000000000000000
     0.0000000000000000   12.6052999496000009    0.0000000000000000
     0.0000000000000000    0.0000000000000000   19.1947002411000014
   Te   W    O    H 
    32    16     1     1
Selective dynamics
Direct
  0.1250189767078282  0.3943937512750111  0.4233118490400258   F   F   F
  0.0010576114162930  0.1500805996336965  0.3940356572570920   F   F   F
  0.1257058228046191  0.0725680372217283  0.6129408257929967   F   F   F
  0.0013215628294745  0.3268555403783040  0.5801843563881235   F   F   F
  0.3768258408159468  0.3981101082723058  0.4265757744503986   F   F   F
  0.2516467320541551  0.1528564228961926  0.3941261678433960   F   F   F
  0.3763650264954279  0.0717335520513203  0.6123815924077363   F   F   F
  0.2501883975845800  0.3265555894832062  0.5812791021758628   F   F   F
  0.6261298138667897  0.3976527839553157  0.4264801901637654   F   F   F
  0.5014328925622209  0.1531325942095805  0.3942249017811719   F   F   F
  0.6260872148893810  0.0715797972620322  0.6127269726014504   F   F   F
  0.5014549753024724  0.3284397933704497  0.5812583148662398   F   F   F
  0.8771272841591511  0.3943062993721540  0.4236448144572194   F   F   F
  0.7507325037970958  0.1522100595784295  0.3942424673096951   F   F   F
  0.8768767106514730  0.0727827188703998  0.6131404117391597   F   F   F
  0.7521687973604401  0.3264922184104648  0.5815817539036630   F   F   F
  0.1256335628518812  0.8966490017354900  0.4252072668169760   F   F   F
  0.0012884771015393  0.6510828367326340  0.3926115695538712   F   F   F
  0.1243303045247330  0.5712501299657617  0.6121324290290673   F   F   F
  0.0010449495389651  0.8265401185055481  0.5813070168330796   F   F   F
  0.3721451571245282  0.8969812586230788  0.4248581803549314   F   F   F
  0.2458432953503902  0.6455038157096027  0.3904429087702184   F   F   F
  0.3726552648059283  0.5726191385863260  0.6118779559550944   F   F   F
  0.2474620958220441  0.8276216576148627  0.5830560325840892   F   F   F
  0.6309361312698201  0.8968590753764474  0.4250130388203672   F   F   F
  0.5017431632192029  0.6538323309616061  0.3998694562372194   F   F   F
  0.6303949474953754  0.5736507325700089  0.6125961922314787   F   F   F
  0.5015574273623500  0.8204034855356284  0.5601751975989444   F   F   F
  0.8767100287641085  0.8966067796025001  0.4251726019428617   F   F   F
  0.7565383652072057  0.6452845675191909  0.3906529280673539   F   F   F
  0.8782074736858050  0.5714991855852745  0.6121451039798202   F   F   F
  0.7556087175311745  0.8272674418610535  0.5838244213522970   F   F   F
  0.0011302472456407  0.0219734205657787  0.5084150560536784   F   F   F
  0.1261384072952225  0.2005583391397181  0.4980742739815085   F   F   F
  0.2505947198973359  0.0233920466625932  0.5085384523089189   F   F   F
  0.3761945787106242  0.2019384625803156  0.4986561809014489   F   F   F
  0.5014630300170992  0.0242789093550471  0.5077532942223186   F   F   F
  0.6265442950560640  0.2016964940546302  0.4988126662568675   F   F   F
  0.7519736037048403  0.0231755560536513  0.5089305882291768   F   F   F
  0.8761296490616814  0.2005297369059349  0.4982295003874313   F   F   F
  0.0012867768297653  0.5217790758618435  0.5067331305932683   F   F   F
  0.1248303651006140  0.7011204203230221  0.4974552669557823   F   F   F
  0.2469791459802835  0.5203098386830689  0.5071957285944890   F   F   F
  0.3596490414439799  0.6996739738917128  0.4975522031212165   F   F   F
  0.5022618065830997  0.5253434421414696  0.5105796410232912   F   F   F
  0.6433575291439979  0.7000439577427215  0.4980826118872770   F   F   F
  0.7551427256702326  0.5202441408858292  0.5075260798575130   F   F   F
  0.8777253683774831  0.7010287274180058  0.4973610970860420   F   F   F
  0.5053068956650364  0.8014759177484478  0.6649138708891442   T   T   T
  0.4378526362645587  0.8031959812605862  0.6799715376376563   T   T   T
 
  0.00000000E+00  0.00000000E+00  0.00000000E+00
  0.00000000E+00  0.00000000E+00  0.00000000E+00
  0.00000000E+00  0.00000000E+00  0.00000000E+00
  0.00000000E+00  0.00000000E+00  0.00000000E+00
  0.00000000E+00  0.00000000E+00  0.00000000E+00
  0.00000000E+00  0.00000000E+00  0.00000000E+00
  0.00000000E+00  0.00000000E+00  0.00000000E+00
  0.00000000E+00  0.00000000E+00  0.00000000E+00
  0.00000000E+00  0.00000000E+00  0.00000000E+00
  0.00000000E+00  0.00000000E+00  0.00000000E+00
  0.00000000E+00  0.00000000E+00  0.00000000E+00
  0.00000000E+00  0.00000000E+00  0.00000000E+00
  0.00000000E+00  0.00000000E+00  0.00000000E+00
  0.00000000E+00  0.00000000E+00  0.00000000E+00
  0.00000000E+00  0.00000000E+00  0.00000000E+00
  0.00000000E+00  0.00000000E+00  0.00000000E+00
  0.00000000E+00  0.00000000E+00  0.00000000E+00
  0.00000000E+00  0.00000000E+00  0.00000000E+00
  0.00000000E+00  0.00000000E+00  0.00000000E+00
  0.00000000E+00  0.00000000E+00  0.00000000E+00
  0.00000000E+00  0.00000000E+00  0.00000000E+00
  0.00000000E+00  0.00000000E+00  0.00000000E+00
  0.00000000E+00  0.00000000E+00  0.00000000E+00
  0.00000000E+00  0.00000000E+00  0.00000000E+00
  0.00000000E+00  0.00000000E+00  0.00000000E+00
  0.00000000E+00  0.00000000E+00  0.00000000E+00
  0.00000000E+00  0.00000000E+00  0.00000000E+00
  0.00000000E+00  0.00000000E+00  0.00000000E+00
  0.00000000E+00  0.00000000E+00  0.00000000E+00
  0.00000000E+00  0.00000000E+00  0.00000000E+00
  0.00000000E+00  0.00000000E+00  0.00000000E+00
  0.00000000E+00  0.00000000E+00  0.00000000E+00
  0.00000000E+00  0.00000000E+00  0.00000000E+00
  0.00000000E+00  0.00000000E+00  0.00000000E+00
  0.00000000E+00  0.00000000E+00  0.00000000E+00
  0.00000000E+00  0.00000000E+00  0.00000000E+00
  0.00000000E+00  0.00000000E+00  0.00000000E+00
  0.00000000E+00  0.00000000E+00  0.00000000E+00
  0.00000000E+00  0.00000000E+00  0.00000000E+00
  0.00000000E+00  0.00000000E+00  0.00000000E+00
  0.00000000E+00  0.00000000E+00  0.00000000E+00
  0.00000000E+00  0.00000000E+00  0.00000000E+00
  0.00000000E+00  0.00000000E+00  0.00000000E+00
  0.00000000E+00  0.00000000E+00  0.00000000E+00
  0.00000000E+00  0.00000000E+00  0.00000000E+00
  0.00000000E+00  0.00000000E+00  0.00000000E+00
  0.00000000E+00  0.00000000E+00  0.00000000E+00
  0.00000000E+00  0.00000000E+00  0.00000000E+00
  0.00000000E+00  0.00000000E+00  0.00000000E+00
  0.00000000E+00  0.00000000E+00  0.00000000E+00
