CONTCAR\(4)                             
   1.00000000000000     
    12.8154001235999999    0.0000000000000000    0.0000000000000000
     6.4077083683999998   11.0983416437999995    0.0000000000000000
     0.0000000000000000    0.0000000000000000   33.6823997497999983
   Ge   Bi   Te   O    H 
    27    18    54     1     1
Direct
  0.1081106901534335  0.1105012081931017  0.2640880159926565
  0.2193746118534344  0.2206009369297380  0.7376240214838038
  0.2193249360246229  0.2221266508159807  0.3737125607521021
  0.4407354625062029  0.1110172711284213  0.2639884140840359
  0.5528908564818302  0.2204041247454439  0.7377162006966916
  0.5522990349268497  0.2219489884461863  0.3737322338138788
  0.7742580600257938  0.1103154885714130  0.2643227099351827
  0.8924379216864124  0.2081342310407473  0.7382312524457386
  0.8858322229630273  0.2217698167600816  0.3735957650116351
  0.1079739215846338  0.4441111101240990  0.2641350154105339
  0.2202269894570913  0.5539720839063184  0.7381557295941772
  0.2192666158141724  0.5545343594991425  0.3735419594783037
  0.4407484783177008  0.4439144658822600  0.2642041118367003
  0.5485276117861033  0.5579835920177770  0.7380345123566976
  0.5522087417241586  0.5551972217089659  0.3736670861250088
  0.7742760329447843  0.4441881504669647  0.2644291965146309
  0.8880816859920060  0.5573689787782954  0.7375928304276386
  0.8857763645876164  0.5550976264450718  0.3736549132186350
  0.1080611888537861  0.7769191760175870  0.2642295107054749
  0.2223461885091968  0.8840367119041956  0.7384297370544335
  0.2194884685596856  0.8885859459668252  0.3736130686308862
  0.4405314160454513  0.7778682967763210  0.2641474007731350
  0.5533502651012928  0.8862362621625097  0.7382348815916653
  0.5525228439877863  0.8890783696501587  0.3739320715429495
  0.7740939028654696  0.7774815890398097  0.2643764674540844
  0.8880500056375881  0.8834446439946509  0.7382533949294352
  0.8856192331519267  0.8883941399697097  0.3735487798053616
  0.9973934842718531 -0.0011164521506900  0.4935808958027608
  0.1069668979056370  0.1106622254943790  0.6189680861699119
  0.3294839166629018  0.0009336150890964  0.4934184698594736
  0.4415793301144291  0.1106254203089946  0.6182208789032416
  0.6621973959717704  0.0008660811286125  0.4933972694193523
  0.7750181950886889  0.1113905136765466  0.6191421556836550
  0.9963490061277777  0.3333533842082910  0.4934073629338948
  0.1078827715891078  0.4446293473092462  0.6182465754533295
  0.3278088509581815  0.3373787395974494  0.4943798301688458
  0.4401254281436461  0.4456706229913268  0.6181416909420188
  0.6634329425140794  0.3323821716747301  0.4931101205125024
  0.7751151897990314  0.4432355074670148  0.6181191110709719
  0.9967035206683011  0.6680031614684534  0.4936119707390392
  0.1035404227752919  0.7863616874779155  0.6185983242344284
  0.3294934090557872  0.6664443382473426  0.4935748024033489
  0.4415054390654071  0.7769105681463300  0.6181659752488835
  0.6630574530834946  0.6666704054460849  0.4932606675763430
  0.7753463549615321  0.7769323171657109  0.6178721230540739
  0.9970454050393505 -0.0007430648845546  0.3314289383869092
  0.1099101472660168  0.1067893367739195  0.7797101411511383
  0.1078665985497220  0.1101844113539430  0.4395489982133119
  0.2184514179937784  0.2222012971522500  0.5557561619908238
  0.2187345021472608  0.2222131031196388  0.2224098444442172
  0.9888939521339613  0.0160294420512558  0.6763400534583265
  0.3309054323119760 -0.0006404286738280  0.3314851103919837
  0.4413409351156715  0.1094639963231587  0.7796253248273443
  0.4401069649478156  0.1127800817422323  0.4399159140598600
  0.5526319190651414  0.2221131187463828  0.5559879422690935
  0.5523765892593797  0.2217045901624231  0.2226427118553982
  0.3305707182824971 -0.0009511762462457  0.6717383334471300
  0.6636248810454120 -0.0004501074195425  0.3314014722306748
  0.7767753681560347  0.1061681460330930  0.7795519686126686
  0.7756644659513569  0.1093394049164282  0.4393803996994771
  0.8859186234111105  0.2206811136171963  0.5554662345550820
  0.8852433998666656  0.2218520505203872  0.2229604446127296
  0.6636842669201348 -0.0011388590336225  0.6716658813549998
  0.9969685210392959  0.3327879912385970  0.3314204560243270
  0.1087890644837157  0.4430182627469850  0.7797679187184218
  0.1075946838847108  0.4439186268722661  0.4395847706543376
  0.2167992609750927  0.5592349747845681  0.5560850334901839
  0.2188978810239317  0.5551591654031118  0.2225378640748783
  0.9968209634161631  0.3345738369153722  0.6718100837173057
  0.3306152471411371  0.3323295311696195  0.3311569189692070
  0.4422358096069179  0.4427383216525808  0.7799258553194078
  0.4417240164560339  0.4432564028633996  0.4393414435173335
  0.5532139316746716  0.5542518648576380  0.5554660112161475
  0.5521208811042957  0.5550161733441389  0.2229004333219326
  0.3302823317770659  0.3330288908010268  0.6716943859787102
  0.6636038435626057  0.3327660428626381  0.3313686974250051
  0.7694570568945477  0.4563738764422687  0.7823696218353312
  0.7746208225439797  0.4435841164580041  0.4394439932472009
  0.8858898304614587  0.5546459961008787  0.5555417736719753
  0.8854245655112752  0.5552708913134828  0.2228521971844375
  0.6613095148132985  0.3352169219874813  0.6718583650224886
  0.9971061681967646  0.6656926885357112  0.3313021404042819
  0.1098005807323216  0.7745546449410114  0.7804152848396519
  0.1086701705195052  0.7766797869783032  0.4391695873407411
  0.2201335349946922  0.8879474419148951  0.5548540601055478
  0.2187357234222452  0.8880339358576134  0.2224461100662928
  0.9973640677048027  0.6693357558986478  0.6711879154149415
  0.3301932745311781  0.6658904774469067  0.3313699800532531
  0.4411094479106681  0.7764527862277877  0.7807273479777874
  0.4410981972042420  0.7772613076133431  0.4395944823273888
  0.5525387919152787  0.8883663087685917  0.5554727385452111
  0.5524124883315549  0.8883342133004574  0.2226266823080844
  0.3265885647945842  0.6697035289118560  0.6713959062765109
  0.6633714113945832  0.6665020226278848  0.3316016881943946
  0.7762881828087216  0.7758312878862786  0.7803497328287153
  0.7746080917640670  0.7774206858435515  0.4396009267705936
  0.8850259310854270  0.8887656794659347  0.5551051082864715
  0.8857168406240533  0.8878759200882225  0.2228435770842098
  0.6639764870987771  0.6659389628331289  0.6713964014340964
  0.6977695807919188  0.5889007431035326  0.8258659066907433
  0.7360832720420929  0.5507709489992305  0.8510243232597854
 
  0.00000000E+00  0.00000000E+00  0.00000000E+00
  0.00000000E+00  0.00000000E+00  0.00000000E+00
  0.00000000E+00  0.00000000E+00  0.00000000E+00
  0.00000000E+00  0.00000000E+00  0.00000000E+00
  0.00000000E+00  0.00000000E+00  0.00000000E+00
  0.00000000E+00  0.00000000E+00  0.00000000E+00
  0.00000000E+00  0.00000000E+00  0.00000000E+00
  0.00000000E+00  0.00000000E+00  0.00000000E+00
  0.00000000E+00  0.00000000E+00  0.00000000E+00
  0.00000000E+00  0.00000000E+00  0.00000000E+00
  0.00000000E+00  0.00000000E+00  0.00000000E+00
  0.00000000E+00  0.00000000E+00  0.00000000E+00
  0.00000000E+00  0.00000000E+00  0.00000000E+00
  0.00000000E+00  0.00000000E+00  0.00000000E+00
  0.00000000E+00  0.00000000E+00  0.00000000E+00
  0.00000000E+00  0.00000000E+00  0.00000000E+00
  0.00000000E+00  0.00000000E+00  0.00000000E+00
  0.00000000E+00  0.00000000E+00  0.00000000E+00
  0.00000000E+00  0.00000000E+00  0.00000000E+00
  0.00000000E+00  0.00000000E+00  0.00000000E+00
  0.00000000E+00  0.00000000E+00  0.00000000E+00
  0.00000000E+00  0.00000000E+00  0.00000000E+00
  0.00000000E+00  0.00000000E+00  0.00000000E+00
  0.00000000E+00  0.00000000E+00  0.00000000E+00
  0.00000000E+00  0.00000000E+00  0.00000000E+00
  0.00000000E+00  0.00000000E+00  0.00000000E+00
  0.00000000E+00  0.00000000E+00  0.00000000E+00
  0.00000000E+00  0.00000000E+00  0.00000000E+00
  0.00000000E+00  0.00000000E+00  0.00000000E+00
  0.00000000E+00  0.00000000E+00  0.00000000E+00
  0.00000000E+00  0.00000000E+00  0.00000000E+00
  0.00000000E+00  0.00000000E+00  0.00000000E+00
  0.00000000E+00  0.00000000E+00  0.00000000E+00
  0.00000000E+00  0.00000000E+00  0.00000000E+00
  0.00000000E+00  0.00000000E+00  0.00000000E+00
  0.00000000E+00  0.00000000E+00  0.00000000E+00
  0.00000000E+00  0.00000000E+00  0.00000000E+00
  0.00000000E+00  0.00000000E+00  0.00000000E+00
  0.00000000E+00  0.00000000E+00  0.00000000E+00
  0.00000000E+00  0.00000000E+00  0.00000000E+00
  0.00000000E+00  0.00000000E+00  0.00000000E+00
  0.00000000E+00  0.00000000E+00  0.00000000E+00
  0.00000000E+00  0.00000000E+00  0.00000000E+00
  0.00000000E+00  0.00000000E+00  0.00000000E+00
  0.00000000E+00  0.00000000E+00  0.00000000E+00
  0.00000000E+00  0.00000000E+00  0.00000000E+00
  0.00000000E+00  0.00000000E+00  0.00000000E+00
  0.00000000E+00  0.00000000E+00  0.00000000E+00
  0.00000000E+00  0.00000000E+00  0.00000000E+00
  0.00000000E+00  0.00000000E+00  0.00000000E+00
  0.00000000E+00  0.00000000E+00  0.00000000E+00
  0.00000000E+00  0.00000000E+00  0.00000000E+00
  0.00000000E+00  0.00000000E+00  0.00000000E+00
  0.00000000E+00  0.00000000E+00  0.00000000E+00
  0.00000000E+00  0.00000000E+00  0.00000000E+00
  0.00000000E+00  0.00000000E+00  0.00000000E+00
  0.00000000E+00  0.00000000E+00  0.00000000E+00
  0.00000000E+00  0.00000000E+00  0.00000000E+00
  0.00000000E+00  0.00000000E+00  0.00000000E+00
  0.00000000E+00  0.00000000E+00  0.00000000E+00
  0.00000000E+00  0.00000000E+00  0.00000000E+00
  0.00000000E+00  0.00000000E+00  0.00000000E+00
  0.00000000E+00  0.00000000E+00  0.00000000E+00
  0.00000000E+00  0.00000000E+00  0.00000000E+00
  0.00000000E+00  0.00000000E+00  0.00000000E+00
  0.00000000E+00  0.00000000E+00  0.00000000E+00
  0.00000000E+00  0.00000000E+00  0.00000000E+00
  0.00000000E+00  0.00000000E+00  0.00000000E+00
  0.00000000E+00  0.00000000E+00  0.00000000E+00
  0.00000000E+00  0.00000000E+00  0.00000000E+00
  0.00000000E+00  0.00000000E+00  0.00000000E+00
  0.00000000E+00  0.00000000E+00  0.00000000E+00
  0.00000000E+00  0.00000000E+00  0.00000000E+00
  0.00000000E+00  0.00000000E+00  0.00000000E+00
  0.00000000E+00  0.00000000E+00  0.00000000E+00
  0.00000000E+00  0.00000000E+00  0.00000000E+00
  0.00000000E+00  0.00000000E+00  0.00000000E+00
  0.00000000E+00  0.00000000E+00  0.00000000E+00
  0.00000000E+00  0.00000000E+00  0.00000000E+00
  0.00000000E+00  0.00000000E+00  0.00000000E+00
  0.00000000E+00  0.00000000E+00  0.00000000E+00
  0.00000000E+00  0.00000000E+00  0.00000000E+00
  0.00000000E+00  0.00000000E+00  0.00000000E+00
  0.00000000E+00  0.00000000E+00  0.00000000E+00
  0.00000000E+00  0.00000000E+00  0.00000000E+00
  0.00000000E+00  0.00000000E+00  0.00000000E+00
  0.00000000E+00  0.00000000E+00  0.00000000E+00
  0.00000000E+00  0.00000000E+00  0.00000000E+00
  0.00000000E+00  0.00000000E+00  0.00000000E+00
  0.00000000E+00  0.00000000E+00  0.00000000E+00
  0.00000000E+00  0.00000000E+00  0.00000000E+00
  0.00000000E+00  0.00000000E+00  0.00000000E+00
  0.00000000E+00  0.00000000E+00  0.00000000E+00
  0.00000000E+00  0.00000000E+00  0.00000000E+00
  0.00000000E+00  0.00000000E+00  0.00000000E+00
  0.00000000E+00  0.00000000E+00  0.00000000E+00
  0.00000000E+00  0.00000000E+00  0.00000000E+00
  0.00000000E+00  0.00000000E+00  0.00000000E+00
  0.00000000E+00  0.00000000E+00  0.00000000E+00
  0.00000000E+00  0.00000000E+00  0.00000000E+00
  0.00000000E+00  0.00000000E+00  0.00000000E+00
