CONTCAR\(10)                            
   1.00000000000000     
    11.3503999709999999    0.0000000000000000    0.0000000000000000
    -5.6751999854999999    9.8297347179999992    0.0000000000000000
     0.0000000000000000    0.0000000000000000   18.1851005553999983
   Zr   Se   O 
     9    18     1
Direct
  0.9968107628012333  0.9924984896134299  0.5015470851726923
  0.3292491539853237  0.9927849297889535  0.5013819565262826
  0.6668906915518397  0.0002054465568767  0.4968910983956824
  0.9967679046900102  0.3248024194989766  0.5046154610989877
  0.3294543975167981  0.3255906884229184  0.5006716067641980
  0.6617533938916916  0.3250468570016189  0.5048169575371777
  0.9969394902178940  0.6604814450462885  0.5041433246498783
  0.3212069729592257  0.6547233118090060  0.4946749490211269
  0.6668986927761658  0.6547427107850097  0.4951789848819969
  0.2187991498882760  0.1040468171521974  0.5888057949224933
  0.1064747609866052  0.2144779548814172  0.4142844169780946
  0.5514294929828039  0.1008226983925362  0.5890336473809603
  0.4419800115693883  0.2148286183927023  0.4142940146247034
  0.8826673641114656  0.1004598715365321  0.5892180437966386
  0.7774249033839449  0.2213213718293084  0.4143136787573628
  0.2226125294150236  0.4408475736621303  0.5880632033838871
  0.0996892742592444  0.5437673411102634  0.4131725589677949
  0.5517710389445619  0.4410947204525927  0.5884024853749912
  0.4409167941010543  0.5478966302429011  0.4115399555593557
  0.8856494959971445  0.4371772789101585  0.5910908841738002
  0.7774497862820898  0.5441020685655602  0.4133521182521137
  0.2217635577341216  0.7695759657821550  0.5880214553826517
  0.1070684976018749  0.8809114346239405  0.4142036208404786
  0.5509066991480496  0.7692647032392679  0.5844154978544476
  0.4422212433057869  0.8819084853410171  0.4127529508391760
  0.8813920750732583  0.7694261620132633  0.5883610919480385
  0.7732754739739359  0.8816585152179492  0.4129068698786143
  0.5451367198511993  0.7614958791310986  0.6772660330363689
 
  0.00000000E+00  0.00000000E+00  0.00000000E+00
  0.00000000E+00  0.00000000E+00  0.00000000E+00
  0.00000000E+00  0.00000000E+00  0.00000000E+00
  0.00000000E+00  0.00000000E+00  0.00000000E+00
  0.00000000E+00  0.00000000E+00  0.00000000E+00
  0.00000000E+00  0.00000000E+00  0.00000000E+00
  0.00000000E+00  0.00000000E+00  0.00000000E+00
  0.00000000E+00  0.00000000E+00  0.00000000E+00
  0.00000000E+00  0.00000000E+00  0.00000000E+00
  0.00000000E+00  0.00000000E+00  0.00000000E+00
  0.00000000E+00  0.00000000E+00  0.00000000E+00
  0.00000000E+00  0.00000000E+00  0.00000000E+00
  0.00000000E+00  0.00000000E+00  0.00000000E+00
  0.00000000E+00  0.00000000E+00  0.00000000E+00
  0.00000000E+00  0.00000000E+00  0.00000000E+00
  0.00000000E+00  0.00000000E+00  0.00000000E+00
  0.00000000E+00  0.00000000E+00  0.00000000E+00
  0.00000000E+00  0.00000000E+00  0.00000000E+00
  0.00000000E+00  0.00000000E+00  0.00000000E+00
  0.00000000E+00  0.00000000E+00  0.00000000E+00
  0.00000000E+00  0.00000000E+00  0.00000000E+00
  0.00000000E+00  0.00000000E+00  0.00000000E+00
  0.00000000E+00  0.00000000E+00  0.00000000E+00
  0.00000000E+00  0.00000000E+00  0.00000000E+00
  0.00000000E+00  0.00000000E+00  0.00000000E+00
  0.00000000E+00  0.00000000E+00  0.00000000E+00
  0.00000000E+00  0.00000000E+00  0.00000000E+00
  0.00000000E+00  0.00000000E+00  0.00000000E+00
