CONTCAR\(4)                             
   1.00000000000000     
    12.6408004761000008    0.0000000000000000    0.0000000000000000
    -6.3204002380000004   10.9472543365000003    0.0000000000000000
     0.0000000000000000    0.0000000000000000   17.9836006164999986
   V    S    O    H 
    16    32     1     1
Direct
  0.0847249150224130  0.1684286733980471  0.5037592539402951
  0.3353612455494712  0.1683839364143722  0.5036288651732832
  0.5856090925563038  0.1691423405759878  0.5038018164706344
  0.8352656444245596  0.1691329848276055  0.5038635014571327
  0.0838375885500113  0.4178414645883493  0.5040768297437737
  0.3352807328259217  0.4184580806183789  0.5030338282868385
  0.5855856183823960  0.4176606004875651  0.5036217542706254
  0.8349415539394940  0.4181158647244061  0.5039379881515629
  0.0838605432900863  0.6675172797467468  0.5036462008510583
  0.3228101606691283  0.6625421725638390  0.5020769182990747
  0.5909550368391550  0.6621488770232560  0.5022230703170720
  0.8353958512384310  0.6676075998453470  0.5035047246008588
  0.0847325294044197  0.9178627506936081  0.5036479386971706
  0.3353093385087220  0.9182665858309278  0.5032553551024250
  0.5909394442508145  0.9305808084951508  0.5035080482757621
  0.8344245267959707  0.9180481986944855  0.5032566245766219
  0.0018705105023145  0.0017953712263292  0.4208472102849825
  0.0011219042695245  0.0012511911326243  0.5862746910989856
  0.2515018751032443  0.0017885108367466  0.4208021686044958
  0.2517038582254969  0.0014237598736671  0.5862224721223868
  0.5018197924997025  0.0040226131658727  0.4200511032340231
  0.5015813773383044  0.0034851848692767  0.5871189986542120
  0.7538540472670903  0.0039416784976964  0.4201038110004660
  0.7532238087271281  0.0031867176090330  0.5871388563226887
  0.0015122446936928  0.2517916793857395  0.4210112266012800
  0.0014866969925507  0.2515431095803180  0.5868305076734970
  0.2513488965451103  0.2510627845600339  0.4207826472793528
  0.2518777775375156  0.2519925839300186  0.5862007237420244
  0.5018586070198126  0.2514546001921616  0.4207652623453768
  0.5017437890128562  0.2516666849542375  0.5866203472081182
  0.7519539153360384  0.2521047832622756  0.4209469231526697
  0.7518305701739436  0.2520431481801353  0.5867712591135472
  0.0010058134190061  0.5010382516768459  0.4210158844855627
  0.0009613757962867  0.5013472718007037  0.5868240039605084
  0.2490319150597458  0.4987638795436666  0.4200096764987791
  0.2508740808823973  0.5007182778304440  0.5869837481227549
  0.5015043744012644  0.4987800011370069  0.4196497615593842
  0.5017759400786446  0.5002565742532923  0.5866212088217750
  0.7520023559823699  0.5011162212397693  0.4208268420433185
  0.7517423763395570  0.5013227753554403  0.5865758970137307
  0.0016438574414366  0.7514131836757940  0.4206924337796494
  0.0013487093918272  0.7512729985537092  0.5865550205491488
  0.2492196174915193  0.7520443813268471  0.4195994505965928
  0.2499386554788074  0.7514639176363787  0.5865684083402058
  0.5021607178096801  0.7522656947968329  0.4290780218608816
  0.5002807431347378  0.7511873547022390  0.5731914102958555
  0.7543909738632024  0.7519051652099691  0.4195749673811093
  0.7526122389367984  0.7511696458042110  0.5864898099139850
  0.4997359740426717  0.7540950753486229  0.6646310591510911
  0.4296861999584465  0.6765365613240135  0.6816206439733534
 
  0.00000000E+00  0.00000000E+00  0.00000000E+00
  0.00000000E+00  0.00000000E+00  0.00000000E+00
  0.00000000E+00  0.00000000E+00  0.00000000E+00
  0.00000000E+00  0.00000000E+00  0.00000000E+00
  0.00000000E+00  0.00000000E+00  0.00000000E+00
  0.00000000E+00  0.00000000E+00  0.00000000E+00
  0.00000000E+00  0.00000000E+00  0.00000000E+00
  0.00000000E+00  0.00000000E+00  0.00000000E+00
  0.00000000E+00  0.00000000E+00  0.00000000E+00
  0.00000000E+00  0.00000000E+00  0.00000000E+00
  0.00000000E+00  0.00000000E+00  0.00000000E+00
  0.00000000E+00  0.00000000E+00  0.00000000E+00
  0.00000000E+00  0.00000000E+00  0.00000000E+00
  0.00000000E+00  0.00000000E+00  0.00000000E+00
  0.00000000E+00  0.00000000E+00  0.00000000E+00
  0.00000000E+00  0.00000000E+00  0.00000000E+00
  0.00000000E+00  0.00000000E+00  0.00000000E+00
  0.00000000E+00  0.00000000E+00  0.00000000E+00
  0.00000000E+00  0.00000000E+00  0.00000000E+00
  0.00000000E+00  0.00000000E+00  0.00000000E+00
  0.00000000E+00  0.00000000E+00  0.00000000E+00
  0.00000000E+00  0.00000000E+00  0.00000000E+00
  0.00000000E+00  0.00000000E+00  0.00000000E+00
  0.00000000E+00  0.00000000E+00  0.00000000E+00
  0.00000000E+00  0.00000000E+00  0.00000000E+00
  0.00000000E+00  0.00000000E+00  0.00000000E+00
  0.00000000E+00  0.00000000E+00  0.00000000E+00
  0.00000000E+00  0.00000000E+00  0.00000000E+00
  0.00000000E+00  0.00000000E+00  0.00000000E+00
  0.00000000E+00  0.00000000E+00  0.00000000E+00
  0.00000000E+00  0.00000000E+00  0.00000000E+00
  0.00000000E+00  0.00000000E+00  0.00000000E+00
  0.00000000E+00  0.00000000E+00  0.00000000E+00
  0.00000000E+00  0.00000000E+00  0.00000000E+00
  0.00000000E+00  0.00000000E+00  0.00000000E+00
  0.00000000E+00  0.00000000E+00  0.00000000E+00
  0.00000000E+00  0.00000000E+00  0.00000000E+00
  0.00000000E+00  0.00000000E+00  0.00000000E+00
  0.00000000E+00  0.00000000E+00  0.00000000E+00
  0.00000000E+00  0.00000000E+00  0.00000000E+00
  0.00000000E+00  0.00000000E+00  0.00000000E+00
  0.00000000E+00  0.00000000E+00  0.00000000E+00
  0.00000000E+00  0.00000000E+00  0.00000000E+00
  0.00000000E+00  0.00000000E+00  0.00000000E+00
  0.00000000E+00  0.00000000E+00  0.00000000E+00
  0.00000000E+00  0.00000000E+00  0.00000000E+00
  0.00000000E+00  0.00000000E+00  0.00000000E+00
  0.00000000E+00  0.00000000E+00  0.00000000E+00
  0.00000000E+00  0.00000000E+00  0.00000000E+00
  0.00000000E+00  0.00000000E+00  0.00000000E+00
