CONTCAR\(9)                             
   1.00000000000000     
    10.2439002990999999    0.0000000000000000    0.0000000000000000
    -5.1219302098000004    8.8769157374999992    0.0000000000000000
     0.0000000000000000    0.0000000000000000   20.8738994598000005
   Zr   Cl   O    H 
    18    18     2     1
Direct
  0.0558309455037765  0.1117622710613321  0.5546844537591320
  0.1674363965623588  0.0019378804053510  0.4403821041315575
  0.3896252883297813  0.1122933451177653  0.5542671858383506
  0.5020225724139440  0.0030424336836546  0.4408775617783997
  0.7231901291886560  0.1127198666025950  0.5552842255527111
  0.8336211808663129  0.0021215282421722  0.4414101562416172
  0.0542045486814477  0.4467525449278981  0.5540517432176679
  0.1752599136003495  0.3391005954675020  0.4455595790906117
  0.3884483074548389  0.4478076503491974  0.5881699131739989
  0.4963243527774857  0.3395159725135556  0.4451455282333177
  0.7236982167645042  0.4461652550149461  0.5542305888272694
  0.8328729810216692  0.3338177458431574  0.4408138683219451
  0.0559358227997067  0.7800992018892821  0.5533119172420127
  0.1667038890678398  0.6692656880904267  0.4401719124934471
  0.3892584110799543  0.7818120267730208  0.5541163555402251
  0.4966699367764887  0.6605008317626515  0.4456118673879126
  0.7241917005307859  0.7800294371731448  0.5547622916349810
  0.8339492078483579  0.6684648451016203  0.4403900180467789
  0.2602984257651450  0.1840926966405201  0.6390801176984999
  0.2797297521917218  0.2276719834593832  0.3596874546419991
  0.6123096234138616  0.2235349955133162  0.6386645654390116
  0.6089762762011705  0.2268897169005219  0.3589474028961703
  0.9457985690212970  0.2247203027602712  0.6389572719861051
  0.9504218726935905  0.2264834448007406  0.3593967706573926
  0.2554408963063213  0.5804919465844002  0.6386530031215781
  0.2800006654467465  0.5557526727169092  0.3599717295270333
  0.6523104302687780  0.5755248411410603  0.6391897889402427
  0.6081177548723509  0.5561273184040968  0.3597322547451601
  0.9442073551772771  0.5571037137332632  0.6370196526666230
  0.9440798746113049  0.5559765122630759  0.3565737548871091
  0.2789562879875994  0.8919352340121485  0.6371070189507902
  0.2798986751027597  0.8917338744321913  0.3565522772035261
  0.6113593647484854  0.8902500259162588  0.6389903744044333
  0.6091684962715778  0.8853487727192878  0.3594413182524305
  0.9449900079968762  0.8911350616215642  0.6377094864308347
  0.9443101413629282  0.8914581678349036  0.3568679817573011
  0.3764422010932583  0.4594151352681947  0.6908242089154674
  0.4457794891675126  0.3918622594265444  0.7310493686168439
  0.4065509490311783  0.4005223918320329  0.7726128987494919
 
  0.00000000E+00  0.00000000E+00  0.00000000E+00
  0.00000000E+00  0.00000000E+00  0.00000000E+00
  0.00000000E+00  0.00000000E+00  0.00000000E+00
  0.00000000E+00  0.00000000E+00  0.00000000E+00
  0.00000000E+00  0.00000000E+00  0.00000000E+00
  0.00000000E+00  0.00000000E+00  0.00000000E+00
  0.00000000E+00  0.00000000E+00  0.00000000E+00
  0.00000000E+00  0.00000000E+00  0.00000000E+00
  0.00000000E+00  0.00000000E+00  0.00000000E+00
  0.00000000E+00  0.00000000E+00  0.00000000E+00
  0.00000000E+00  0.00000000E+00  0.00000000E+00
  0.00000000E+00  0.00000000E+00  0.00000000E+00
  0.00000000E+00  0.00000000E+00  0.00000000E+00
  0.00000000E+00  0.00000000E+00  0.00000000E+00
  0.00000000E+00  0.00000000E+00  0.00000000E+00
  0.00000000E+00  0.00000000E+00  0.00000000E+00
  0.00000000E+00  0.00000000E+00  0.00000000E+00
  0.00000000E+00  0.00000000E+00  0.00000000E+00
  0.00000000E+00  0.00000000E+00  0.00000000E+00
  0.00000000E+00  0.00000000E+00  0.00000000E+00
  0.00000000E+00  0.00000000E+00  0.00000000E+00
  0.00000000E+00  0.00000000E+00  0.00000000E+00
  0.00000000E+00  0.00000000E+00  0.00000000E+00
  0.00000000E+00  0.00000000E+00  0.00000000E+00
  0.00000000E+00  0.00000000E+00  0.00000000E+00
  0.00000000E+00  0.00000000E+00  0.00000000E+00
  0.00000000E+00  0.00000000E+00  0.00000000E+00
  0.00000000E+00  0.00000000E+00  0.00000000E+00
  0.00000000E+00  0.00000000E+00  0.00000000E+00
  0.00000000E+00  0.00000000E+00  0.00000000E+00
  0.00000000E+00  0.00000000E+00  0.00000000E+00
  0.00000000E+00  0.00000000E+00  0.00000000E+00
  0.00000000E+00  0.00000000E+00  0.00000000E+00
  0.00000000E+00  0.00000000E+00  0.00000000E+00
  0.00000000E+00  0.00000000E+00  0.00000000E+00
  0.00000000E+00  0.00000000E+00  0.00000000E+00
  0.00000000E+00  0.00000000E+00  0.00000000E+00
  0.00000000E+00  0.00000000E+00  0.00000000E+00
  0.00000000E+00  0.00000000E+00  0.00000000E+00
