Ta8 Co4 Pd2 Se24                        
   1.00000000000000     
    13.1775070109535548    0.0000000000000000    0.0069694306090311
     0.0000000000000000    3.4346759976762975    0.0000000000000000
    -6.3023104645521846    0.0000000000000000   18.2686438775985778
   Ta   Co   Pd   Se
     8     4     2    24
Direct
  0.1250513244764996  0.5000000000000000  0.1510462686805104
  0.8749486755235004  0.5000000000000000  0.8489537353194900
  0.2460875295317716  0.5000000000000000  0.4063427753363749
  0.7539124924682304  0.5000000000000000  0.5936572026636234
  0.6250513074764946  0.0000000000000000  0.1510462686805104
  0.3749486755235003 -0.0000000000000000  0.8489537353194900
  0.7460875125317664 -0.0000000000000000  0.4063427753363749
  0.2539124754682324  0.0000000000000000  0.5936572026636234
  0.2312750512184183  0.0000000000000000  0.2843265798883343
  0.7687249407815809 -0.0000000000000000  0.7156733711116653
  0.7312750172184227  0.5000000000000000  0.2843265798883343
  0.2687249237815761  0.5000000000000000  0.7156733711116653
  0.0000000000000000 -0.0000000000000000 -0.0000000000000000
  0.5000000000000000  0.5000000000000000 -0.0000000000000000
  0.4665869013329522  0.5000000000000000  0.1184844452105369
  0.5334131116670524  0.5000000000000000  0.8815154797894605
  0.6174323741514278  0.0000000000000000  0.6055400663506841
  0.3825675708485785 -0.0000000000000000  0.3944598586493135
  0.6300113602455174  0.5000000000000000  0.4506544983543817
  0.3699886777544859  0.5000000000000000  0.5493454786456198
  0.3163804196666927  0.5000000000000000  0.2367705375935729
  0.6836195853333111  0.5000000000000000  0.7632294404064252
  0.1933966274746997 -0.0000000000000000  0.0740937358163321
  0.8066033555252954 -0.0000000000000000  0.9259062681836683
  0.5993922596492920 -0.0000000000000000  0.2813283744230852
  0.4006077783507044 -0.0000000000000000  0.7186716025769163
  0.9665869353329479  0.0000000000000000  0.1184844452105369
  0.0334131116670525 -0.0000000000000000  0.8815154797894605
  0.1174324081514234  0.5000000000000000  0.6055400663506841
  0.8825675708485783  0.5000000000000000  0.3944598586493135
  0.1300113262455146  0.0000000000000000  0.4506544983543817
  0.8699886097544872 -0.0000000000000000  0.5493454786456198
  0.8163804196666928 -0.0000000000000000  0.2367705375935729
  0.1836196023333092  0.0000000000000000  0.7632294404064252
  0.6933966614747025  0.5000000000000000  0.0740937358163321
  0.3066033555252953  0.5000000000000000  0.9259062681836683
  0.0993922426492939  0.5000000000000000  0.2813283744230852
  0.9006077783507040  0.5000000000000000  0.7186716025769163
 
  0.00000000E+00  0.00000000E+00  0.00000000E+00
  0.00000000E+00  0.00000000E+00  0.00000000E+00
  0.00000000E+00  0.00000000E+00  0.00000000E+00
  0.00000000E+00  0.00000000E+00  0.00000000E+00
  0.00000000E+00  0.00000000E+00  0.00000000E+00
  0.00000000E+00  0.00000000E+00  0.00000000E+00
  0.00000000E+00  0.00000000E+00  0.00000000E+00
  0.00000000E+00  0.00000000E+00  0.00000000E+00
  0.00000000E+00  0.00000000E+00  0.00000000E+00
  0.00000000E+00  0.00000000E+00  0.00000000E+00
  0.00000000E+00  0.00000000E+00  0.00000000E+00
  0.00000000E+00  0.00000000E+00  0.00000000E+00
  0.00000000E+00  0.00000000E+00  0.00000000E+00
  0.00000000E+00  0.00000000E+00  0.00000000E+00
  0.00000000E+00  0.00000000E+00  0.00000000E+00
  0.00000000E+00  0.00000000E+00  0.00000000E+00
  0.00000000E+00  0.00000000E+00  0.00000000E+00
  0.00000000E+00  0.00000000E+00  0.00000000E+00
  0.00000000E+00  0.00000000E+00  0.00000000E+00
  0.00000000E+00  0.00000000E+00  0.00000000E+00
  0.00000000E+00  0.00000000E+00  0.00000000E+00
  0.00000000E+00  0.00000000E+00  0.00000000E+00
  0.00000000E+00  0.00000000E+00  0.00000000E+00
  0.00000000E+00  0.00000000E+00  0.00000000E+00
  0.00000000E+00  0.00000000E+00  0.00000000E+00
  0.00000000E+00  0.00000000E+00  0.00000000E+00
  0.00000000E+00  0.00000000E+00  0.00000000E+00
  0.00000000E+00  0.00000000E+00  0.00000000E+00
  0.00000000E+00  0.00000000E+00  0.00000000E+00
  0.00000000E+00  0.00000000E+00  0.00000000E+00
  0.00000000E+00  0.00000000E+00  0.00000000E+00
  0.00000000E+00  0.00000000E+00  0.00000000E+00
  0.00000000E+00  0.00000000E+00  0.00000000E+00
  0.00000000E+00  0.00000000E+00  0.00000000E+00
  0.00000000E+00  0.00000000E+00  0.00000000E+00
  0.00000000E+00  0.00000000E+00  0.00000000E+00
  0.00000000E+00  0.00000000E+00  0.00000000E+00
  0.00000000E+00  0.00000000E+00  0.00000000E+00
