K-Spacing Value to Generate K-Mesh: 0.030
0
Gamma
   3  10   2
0.0  0.0  0.0
