CONTCAR\(4)                             
   1.00000000000000     
    11.9160003662000005    0.0000000000000000    0.0000000000000000
    -5.9580032889999996   10.3494530515999994    0.0000000000000000
     0.0000000000000000    0.0000000000000000   17.8166999817000011
   Hf   Fe   Cl   O    H 
     4     4    24     1     1
Direct
  0.1628865784189558  0.3315939308281234  0.4926821386015387
  0.6668906686847452  0.3389856156839683  0.4924202033570073
  0.1785834451776754  0.8272241671501830  0.4944433836101090
  0.6584484998502828  0.8274858252697007  0.5517135137839179
  0.4935729823869947  0.4850566304422347  0.4986345855619815
  0.0051947013241080  0.5025949237552033  0.4941839693107881
  0.5028633608781587  0.0076974993958049  0.5003731685888920
  0.0016839545660181 -0.0004546575484548  0.4960289416643211
  0.1569276915637985  0.4974616581230100  0.5723408951117070
  0.3309124926879320  0.3177685070915943  0.5653540111096717
  0.0128981690756662  0.1702001753336971  0.5815791002078105
  0.1485859611878550  0.1641654012079953  0.4067016430182653
  0.9973998761983166  0.3425521062417655  0.4164549134642479
  0.3449421546175112  0.4953060198303894  0.4179019217202097
  0.6458659335340093  0.4849554954108867  0.5800594275621326
  0.8445252880929368  0.3530553926454731  0.5713828763417990
  0.4984004229038612  0.1675915427060585  0.5696324398586392
  0.6544213400367015  0.1588973327490630  0.4175073567168762
  0.5125724233945882  0.3534161614680534  0.4089417146992225
  0.8470867027460163  0.5047021831773187  0.4180025519789226
  0.1707377546800221 -0.0044994607404581  0.5712538808863538
  0.3503219050109412  0.8550122342365282  0.5828133977433362
  0.0107129560173357  0.6585327848515783  0.5734956992504869
  0.1662376854928679  0.6533939934480231  0.4163172605666298
  0.0177554547696187  0.8382026590478658  0.4142832949034270
  0.3491995683401714  0.9903092204705271  0.4146347930738526
  0.6693164662304266  0.0395631608726239  0.5763521266115444
  0.8608925006990301  0.8367936025606981  0.5885748073137430
  0.4691392532053174  0.6121999273536155  0.5813351906376881
  0.6527203714116654  0.6657980861721519  0.4457794467257186
  0.5131555354869428  0.8422863040360220  0.4461942993782357
  0.8194250927366511  0.9747685141816717  0.4399397029807033
  0.6334246410735165  0.8241561756043767  0.6597255341352615
  0.6624776745193807  0.8955467939427335  0.6947419345249535
 
  0.00000000E+00  0.00000000E+00  0.00000000E+00
  0.00000000E+00  0.00000000E+00  0.00000000E+00
  0.00000000E+00  0.00000000E+00  0.00000000E+00
  0.00000000E+00  0.00000000E+00  0.00000000E+00
  0.00000000E+00  0.00000000E+00  0.00000000E+00
  0.00000000E+00  0.00000000E+00  0.00000000E+00
  0.00000000E+00  0.00000000E+00  0.00000000E+00
  0.00000000E+00  0.00000000E+00  0.00000000E+00
  0.00000000E+00  0.00000000E+00  0.00000000E+00
  0.00000000E+00  0.00000000E+00  0.00000000E+00
  0.00000000E+00  0.00000000E+00  0.00000000E+00
  0.00000000E+00  0.00000000E+00  0.00000000E+00
  0.00000000E+00  0.00000000E+00  0.00000000E+00
  0.00000000E+00  0.00000000E+00  0.00000000E+00
  0.00000000E+00  0.00000000E+00  0.00000000E+00
  0.00000000E+00  0.00000000E+00  0.00000000E+00
  0.00000000E+00  0.00000000E+00  0.00000000E+00
  0.00000000E+00  0.00000000E+00  0.00000000E+00
  0.00000000E+00  0.00000000E+00  0.00000000E+00
  0.00000000E+00  0.00000000E+00  0.00000000E+00
  0.00000000E+00  0.00000000E+00  0.00000000E+00
  0.00000000E+00  0.00000000E+00  0.00000000E+00
  0.00000000E+00  0.00000000E+00  0.00000000E+00
  0.00000000E+00  0.00000000E+00  0.00000000E+00
  0.00000000E+00  0.00000000E+00  0.00000000E+00
  0.00000000E+00  0.00000000E+00  0.00000000E+00
  0.00000000E+00  0.00000000E+00  0.00000000E+00
  0.00000000E+00  0.00000000E+00  0.00000000E+00
  0.00000000E+00  0.00000000E+00  0.00000000E+00
  0.00000000E+00  0.00000000E+00  0.00000000E+00
  0.00000000E+00  0.00000000E+00  0.00000000E+00
  0.00000000E+00  0.00000000E+00  0.00000000E+00
  0.00000000E+00  0.00000000E+00  0.00000000E+00
  0.00000000E+00  0.00000000E+00  0.00000000E+00
