CONTCAR\(13)                            
   1.00000000000000     
    10.9294004440000005    0.0000000000000000    0.0000000000000000
    -5.4647012217000004    9.4654836332999999    0.0000000000000000
     0.0000000000000000    0.0000000000000000   27.0860996245999992
   Mn   Ga   S 
    18    18    45
Direct
  0.1111815401614861  0.2223730973229803  0.4454331816124638
  0.2221484518385098  0.1109569046770235  0.5545667833875367
  0.4445215311614886  0.2223730973229803  0.4454331816124638
  0.5554784618385071  0.1109569046770235  0.5545667833875367
  0.7778514761614914  0.2223730973229803  0.4454331816124638
  0.8888184418385123  0.1109569046770235  0.5545667833875367
  0.1111815341614927  0.5557030983229804  0.4454331816124638
  0.2221484718385115  0.4442969056770198  0.5545667833875367
  0.4445215241614915  0.5557030983229804  0.4454331816124638
  0.5554784818385088  0.4442969056770198  0.5545667833875367
  0.7778514691614873  0.5557030983229804  0.4454331816124638
  0.8888184608385103  0.4442969056770198  0.5545667833875367
  0.1111815641614881  0.8890430993229766  0.4454331816124638
  0.2221484518385098  0.7776268816770217  0.5545667833875367
  0.4445215431614896  0.8890430993229766  0.4454331816124638
  0.5554784628385108  0.7776268816770217  0.5545667833875367
  0.7778514881614924  0.8890430993229766  0.4454331816124638
  0.8888184418385123  0.7776268816770217  0.5545667833875367
  0.1109167389568350  0.2218234899136678  0.6848187905916552
  0.2224232620431684  0.1115065240863370  0.3151812094083448
  0.4442467709568342  0.2218234899136678  0.6848187905916552
  0.5557532720431658  0.1115065240863370  0.3151812094083448
  0.7775767589568298  0.2218234899136678  0.6848187905916552
  0.8890832170431685  0.1115065240863370  0.3151812094083448
  0.1109167399568315  0.5551534399136673  0.6848187905916552
  0.2224232530431641  0.4448465130863323  0.3151812094083448
  0.4442467609568334  0.5551534399136673  0.6848187905916552
  0.5557532850431705  0.4448465130863323  0.3151812094083448
  0.7775767269568342  0.5551534399136673  0.6848187905916552
  0.8890832300431660  0.4448465130863323  0.3151812094083448
  0.1109167329568345  0.8884935419136684  0.6848187905916552
  0.2224232590431646  0.7781765390863311  0.3151812094083448
  0.4442467649568337  0.8884935419136684  0.6848187905916552
  0.5557532910431638  0.7781765390863311  0.3151812094083448
  0.7775767539568329  0.8884935419136684  0.6848187905916552
  0.8890832360431665  0.7781765390863311  0.3151812094083448
 -0.0000000000000000 -0.0000000000000000  0.5000000000000000
  0.1110355923764760  0.2220711887529522  0.6030081605673990
  0.2223044056235236  0.1112688122470512  0.3969918394326011
  0.1113918908871054  0.2227837847742074  0.2765391884574815
  0.2219381191128991  0.1105462292257903  0.7234608295425198
  0.3333300099999974 -0.0000000000000000  0.5000000000000000
  0.4443656033764770  0.2220711887529522  0.6030081605673990
  0.5556344166235248  0.1112688122470512  0.3969918394326011
  0.4447219008871028  0.2227837847742074  0.2765391884574815
  0.5552780981128937  0.1105462292257903  0.7234608295425198
  0.6666700119999973 -0.0000000000000000  0.5000000000000000
  0.7776955483764725  0.2220711887529522  0.6030081605673990
  0.8889643616235274  0.1112688122470512  0.3969918394326011
  0.7780618808871007  0.2227837847742074  0.2765391884574815
  0.8886081301128930  0.1105462292257903  0.7234608295425198
  0.0000000040000003  0.3333300010000002  0.5000000000000000
  0.1110355953764726  0.5554011647529540  0.6030081605673990
  0.2223044336235259  0.4445988382470499  0.3969918394326011
  0.1113918868871050  0.5561237607742052  0.2765391884574815
  0.2219381181128955  0.4438762432257951  0.7234608295425198
  0.3333300139999977  0.3333300010000002  0.5000000000000000
  0.4443656053764772  0.5554011647529540  0.6030081605673990
  0.5556344226235252  0.4445988382470499  0.3969918394326011
  0.4447218858871051  0.5561237607742052  0.2765391884574815
  0.5552781201128956  0.4438762432257951  0.7234608295425198
  0.6666700050000003  0.3333300010000002  0.5000000000000000
  0.7776955283764779  0.5554011647529540  0.6030081605673990
  0.8889643666235243  0.4445988382470499  0.3969918394326011
  0.7780618878871048  0.5561237607742052  0.2765391884574815
  0.8886081731128930  0.4438762432257951  0.7234608295425198
  0.0000000029999967  0.6666700270000021  0.5000000000000000
  0.1110356043764769  0.8887312417529534  0.6030081605673990
  0.2223044146235208  0.7779288152470480  0.3969918394326011
  0.1113918998871026  0.8894537367742069  0.2765391884574815
  0.2219380911128968  0.7772161932257907  0.7234608295425198
  0.3333300139999977  0.6666700270000021  0.5000000000000000
  0.4443656143764744  0.8887312417529534  0.6030081605673990
  0.5556344026235236  0.7779288152470480  0.3969918394326011
  0.4447218888871018  0.8894537367742069  0.2765391884574815
  0.5552780921128933  0.7772161932257907  0.7234608295425198
  0.6666700150000011  0.6666700270000021  0.5000000000000000
  0.7776955593764769  0.8887312417529534  0.6030081605673990
  0.8889643476235263  0.7779288152470480  0.3969918394326011
  0.7780618678871032  0.8894537367742069  0.2765391884574815
  0.8886081241128996  0.7772161932257907  0.7234608295425198
 
  0.00000000E+00  0.00000000E+00  0.00000000E+00
  0.00000000E+00  0.00000000E+00  0.00000000E+00
  0.00000000E+00  0.00000000E+00  0.00000000E+00
  0.00000000E+00  0.00000000E+00  0.00000000E+00
  0.00000000E+00  0.00000000E+00  0.00000000E+00
  0.00000000E+00  0.00000000E+00  0.00000000E+00
  0.00000000E+00  0.00000000E+00  0.00000000E+00
  0.00000000E+00  0.00000000E+00  0.00000000E+00
  0.00000000E+00  0.00000000E+00  0.00000000E+00
  0.00000000E+00  0.00000000E+00  0.00000000E+00
  0.00000000E+00  0.00000000E+00  0.00000000E+00
  0.00000000E+00  0.00000000E+00  0.00000000E+00
  0.00000000E+00  0.00000000E+00  0.00000000E+00
  0.00000000E+00  0.00000000E+00  0.00000000E+00
  0.00000000E+00  0.00000000E+00  0.00000000E+00
  0.00000000E+00  0.00000000E+00  0.00000000E+00
  0.00000000E+00  0.00000000E+00  0.00000000E+00
  0.00000000E+00  0.00000000E+00  0.00000000E+00
  0.00000000E+00  0.00000000E+00  0.00000000E+00
  0.00000000E+00  0.00000000E+00  0.00000000E+00
  0.00000000E+00  0.00000000E+00  0.00000000E+00
  0.00000000E+00  0.00000000E+00  0.00000000E+00
  0.00000000E+00  0.00000000E+00  0.00000000E+00
  0.00000000E+00  0.00000000E+00  0.00000000E+00
  0.00000000E+00  0.00000000E+00  0.00000000E+00
  0.00000000E+00  0.00000000E+00  0.00000000E+00
  0.00000000E+00  0.00000000E+00  0.00000000E+00
  0.00000000E+00  0.00000000E+00  0.00000000E+00
  0.00000000E+00  0.00000000E+00  0.00000000E+00
  0.00000000E+00  0.00000000E+00  0.00000000E+00
  0.00000000E+00  0.00000000E+00  0.00000000E+00
  0.00000000E+00  0.00000000E+00  0.00000000E+00
  0.00000000E+00  0.00000000E+00  0.00000000E+00
  0.00000000E+00  0.00000000E+00  0.00000000E+00
  0.00000000E+00  0.00000000E+00  0.00000000E+00
  0.00000000E+00  0.00000000E+00  0.00000000E+00
  0.00000000E+00  0.00000000E+00  0.00000000E+00
  0.00000000E+00  0.00000000E+00  0.00000000E+00
  0.00000000E+00  0.00000000E+00  0.00000000E+00
  0.00000000E+00  0.00000000E+00  0.00000000E+00
  0.00000000E+00  0.00000000E+00  0.00000000E+00
  0.00000000E+00  0.00000000E+00  0.00000000E+00
  0.00000000E+00  0.00000000E+00  0.00000000E+00
  0.00000000E+00  0.00000000E+00  0.00000000E+00
  0.00000000E+00  0.00000000E+00  0.00000000E+00
  0.00000000E+00  0.00000000E+00  0.00000000E+00
  0.00000000E+00  0.00000000E+00  0.00000000E+00
  0.00000000E+00  0.00000000E+00  0.00000000E+00
  0.00000000E+00  0.00000000E+00  0.00000000E+00
  0.00000000E+00  0.00000000E+00  0.00000000E+00
  0.00000000E+00  0.00000000E+00  0.00000000E+00
  0.00000000E+00  0.00000000E+00  0.00000000E+00
  0.00000000E+00  0.00000000E+00  0.00000000E+00
  0.00000000E+00  0.00000000E+00  0.00000000E+00
  0.00000000E+00  0.00000000E+00  0.00000000E+00
  0.00000000E+00  0.00000000E+00  0.00000000E+00
  0.00000000E+00  0.00000000E+00  0.00000000E+00
  0.00000000E+00  0.00000000E+00  0.00000000E+00
  0.00000000E+00  0.00000000E+00  0.00000000E+00
  0.00000000E+00  0.00000000E+00  0.00000000E+00
  0.00000000E+00  0.00000000E+00  0.00000000E+00
  0.00000000E+00  0.00000000E+00  0.00000000E+00
  0.00000000E+00  0.00000000E+00  0.00000000E+00
  0.00000000E+00  0.00000000E+00  0.00000000E+00
  0.00000000E+00  0.00000000E+00  0.00000000E+00
  0.00000000E+00  0.00000000E+00  0.00000000E+00
  0.00000000E+00  0.00000000E+00  0.00000000E+00
  0.00000000E+00  0.00000000E+00  0.00000000E+00
  0.00000000E+00  0.00000000E+00  0.00000000E+00
  0.00000000E+00  0.00000000E+00  0.00000000E+00
  0.00000000E+00  0.00000000E+00  0.00000000E+00
  0.00000000E+00  0.00000000E+00  0.00000000E+00
  0.00000000E+00  0.00000000E+00  0.00000000E+00
  0.00000000E+00  0.00000000E+00  0.00000000E+00
  0.00000000E+00  0.00000000E+00  0.00000000E+00
  0.00000000E+00  0.00000000E+00  0.00000000E+00
  0.00000000E+00  0.00000000E+00  0.00000000E+00
  0.00000000E+00  0.00000000E+00  0.00000000E+00
  0.00000000E+00  0.00000000E+00  0.00000000E+00
  0.00000000E+00  0.00000000E+00  0.00000000E+00
  0.00000000E+00  0.00000000E+00  0.00000000E+00
