CONTCAR\(4)                             
   1.00000000000000     
    13.9937000274999992    0.0000000000000000    0.0000000000000000
     0.0000000000000000   12.1743001938000006    0.0000000000000000
     0.0000000000000000    0.0000000000000000   22.0200004577999984
   Ta   Se   O    H 
    16    48     1     1
Direct
  0.0645681306082192  0.9978550979674679  0.4175022803982968
  0.1918891765817616  0.8597456929563549  0.5841486440498251
  0.0644771103867659  0.5918299795476069  0.4769886779142889
  0.1872876462334450  0.2638174381086088  0.5236659259610081
  0.3143928554963736  0.9976205950912244  0.4172360956257468
  0.4407957353522193  0.8572674332308410  0.5811856004274768
  0.3161250221382959  0.5891986294496284  0.4750556361514267
  0.4415378912128611  0.2637539430389507  0.5224438076421850
  0.5646695113408884  0.9982274408366507  0.4159289533682905
  0.6891512071263202  0.8587713524865805  0.5825651277251008
  0.5653908645257116  0.5902279974809843  0.4739673699538064
  0.6897381079354691  0.2657855441641767  0.5226169007569256
  0.8141982660467566  0.9979467800596545  0.4167316749943640
  0.9397922838415362  0.8593094679934091  0.5828434749209485
  0.8154211034221884  0.5915314569314517  0.4753473309809591
  0.9391557347441458  0.2662524615409853  0.5234782768661975
  0.0660012032905624  0.8198197314760659  0.4949680399437558
  0.1901251533354930  0.0376777149928431  0.5057195964452221
  0.0658584923155166  0.9885274525420159  0.6395357453990672
  0.1896660642823893  0.8678365173630181  0.3609349710866336
  0.1905862557299975  0.4393911390982690  0.4419936954543875
  0.0636978928100036  0.4170669087100631  0.5598292781294306
  0.1935945676726551  0.6349830958861875  0.5657791685096627
  0.0639305751086018  0.2210616043446055  0.4348171841111138
  0.1885438317883683  0.0793527586959067  0.3404383714207377
  0.0660286212555830  0.7778866176221348  0.6596576257864374
  0.1903577580983596  0.6603279259228917  0.3954814427390056
  0.0637389138269216  0.1967008639665268  0.6056919787161064
  0.3144661028607241  0.8173281558544850  0.4930186362522726
  0.4408860553206821  0.0381912230879854  0.5045240612222189
  0.3170014656699318  0.9919411365978235  0.6347266402408646
  0.4389288821094566  0.8685231055379640  0.3602239916077899
  0.4382852548405127  0.4387105356169644  0.4398710308141259
  0.3152147323799417  0.4063519123000265  0.5654757787640993
  0.4416282203780164  0.6333234088800060  0.5619977976393589
  0.3135602723514137  0.2208760033296543  0.4359517324308312
  0.4383202300978846  0.0801309779052355  0.3401292715593570
  0.3182652809301231  0.7542176698586863  0.6568998382583414
  0.4396784928231978  0.6595919207296688  0.3936358380952553
  0.3157448668939205  0.1976462179289270  0.6063902826824923
  0.5653268961419102  0.8190454029802172  0.4923828374504867
  0.6892777151339580  0.0386862430185518  0.5048261369145810
  0.5645322931723868  0.9887676283172711  0.6381860399942265
  0.6897698147855138  0.8677624711933158  0.3597901214678609
  0.6903957605541871  0.4399592404402519  0.4389131750635655
  0.5647565122480841  0.4167899212897155  0.5574683891473119
  0.6891691964822361  0.6358555261199896  0.5635634797530610
  0.5646617344984350  0.2216794208197332  0.4334904589666331
  0.6898020043909977  0.0803182850136054  0.3396822171820391
  0.5637324156664707  0.7776969222613305  0.6587611807979279
  0.6909736647150072  0.6599188750545394  0.3928704574598591
  0.5648265538181761  0.1967844606870144  0.6045966325470203
  0.8155216936847743  0.8197901155308213  0.4936945157931524
  0.9396810565971110  0.0380196452028779  0.5058508944368533
  0.8141704049252805  0.9890497249600038  0.6379777973880925
  0.9404860129917438  0.8671232508823250  0.3610322905546003
  0.9400525124611196  0.4407840996849572  0.4405344280019314
  0.8141974734579730  0.4168983886725973  0.5590491229082702
  0.9395748171239071  0.6362751334044776  0.5649366975949168
  0.8150832012868560  0.2214989981673485  0.4345405661426758
  0.9395863367930644  0.0797011765940218  0.3407981933344915
  0.8136730156579651  0.7776110938839280  0.6582708361039826
  0.9420684710296046  0.6599572878984413  0.3948815302352544
  0.8141284632253818  0.1978077735288157  0.6049032965475162
  0.3394387725194737  0.8212677420491982  0.7323691906328978
  0.3754534604751474  0.7638251372121623  0.7546522185354394
 
  0.00000000E+00  0.00000000E+00  0.00000000E+00
  0.00000000E+00  0.00000000E+00  0.00000000E+00
  0.00000000E+00  0.00000000E+00  0.00000000E+00
  0.00000000E+00  0.00000000E+00  0.00000000E+00
  0.00000000E+00  0.00000000E+00  0.00000000E+00
  0.00000000E+00  0.00000000E+00  0.00000000E+00
  0.00000000E+00  0.00000000E+00  0.00000000E+00
  0.00000000E+00  0.00000000E+00  0.00000000E+00
  0.00000000E+00  0.00000000E+00  0.00000000E+00
  0.00000000E+00  0.00000000E+00  0.00000000E+00
  0.00000000E+00  0.00000000E+00  0.00000000E+00
  0.00000000E+00  0.00000000E+00  0.00000000E+00
  0.00000000E+00  0.00000000E+00  0.00000000E+00
  0.00000000E+00  0.00000000E+00  0.00000000E+00
  0.00000000E+00  0.00000000E+00  0.00000000E+00
  0.00000000E+00  0.00000000E+00  0.00000000E+00
  0.00000000E+00  0.00000000E+00  0.00000000E+00
  0.00000000E+00  0.00000000E+00  0.00000000E+00
  0.00000000E+00  0.00000000E+00  0.00000000E+00
  0.00000000E+00  0.00000000E+00  0.00000000E+00
  0.00000000E+00  0.00000000E+00  0.00000000E+00
  0.00000000E+00  0.00000000E+00  0.00000000E+00
  0.00000000E+00  0.00000000E+00  0.00000000E+00
  0.00000000E+00  0.00000000E+00  0.00000000E+00
  0.00000000E+00  0.00000000E+00  0.00000000E+00
  0.00000000E+00  0.00000000E+00  0.00000000E+00
  0.00000000E+00  0.00000000E+00  0.00000000E+00
  0.00000000E+00  0.00000000E+00  0.00000000E+00
  0.00000000E+00  0.00000000E+00  0.00000000E+00
  0.00000000E+00  0.00000000E+00  0.00000000E+00
  0.00000000E+00  0.00000000E+00  0.00000000E+00
  0.00000000E+00  0.00000000E+00  0.00000000E+00
  0.00000000E+00  0.00000000E+00  0.00000000E+00
  0.00000000E+00  0.00000000E+00  0.00000000E+00
  0.00000000E+00  0.00000000E+00  0.00000000E+00
  0.00000000E+00  0.00000000E+00  0.00000000E+00
  0.00000000E+00  0.00000000E+00  0.00000000E+00
  0.00000000E+00  0.00000000E+00  0.00000000E+00
  0.00000000E+00  0.00000000E+00  0.00000000E+00
  0.00000000E+00  0.00000000E+00  0.00000000E+00
  0.00000000E+00  0.00000000E+00  0.00000000E+00
  0.00000000E+00  0.00000000E+00  0.00000000E+00
  0.00000000E+00  0.00000000E+00  0.00000000E+00
  0.00000000E+00  0.00000000E+00  0.00000000E+00
  0.00000000E+00  0.00000000E+00  0.00000000E+00
  0.00000000E+00  0.00000000E+00  0.00000000E+00
  0.00000000E+00  0.00000000E+00  0.00000000E+00
  0.00000000E+00  0.00000000E+00  0.00000000E+00
  0.00000000E+00  0.00000000E+00  0.00000000E+00
  0.00000000E+00  0.00000000E+00  0.00000000E+00
  0.00000000E+00  0.00000000E+00  0.00000000E+00
  0.00000000E+00  0.00000000E+00  0.00000000E+00
  0.00000000E+00  0.00000000E+00  0.00000000E+00
  0.00000000E+00  0.00000000E+00  0.00000000E+00
  0.00000000E+00  0.00000000E+00  0.00000000E+00
  0.00000000E+00  0.00000000E+00  0.00000000E+00
  0.00000000E+00  0.00000000E+00  0.00000000E+00
  0.00000000E+00  0.00000000E+00  0.00000000E+00
  0.00000000E+00  0.00000000E+00  0.00000000E+00
  0.00000000E+00  0.00000000E+00  0.00000000E+00
  0.00000000E+00  0.00000000E+00  0.00000000E+00
  0.00000000E+00  0.00000000E+00  0.00000000E+00
  0.00000000E+00  0.00000000E+00  0.00000000E+00
  0.00000000E+00  0.00000000E+00  0.00000000E+00
  0.00000000E+00  0.00000000E+00  0.00000000E+00
  0.00000000E+00  0.00000000E+00  0.00000000E+00
