CONTCAR\(7)                             
   1.00000000000000     
    13.4884004592999993    0.0000000000000000    0.0000000000000000
    -6.7442190033999996   11.6815167672999998    0.0000000000000000
     0.0000000000000000    0.0000000000000000   18.4951992035000004
   Nb   Cl
    12    32
Direct
  0.0973600040000022  0.1947100089999978  0.4950000059999979
  0.0973500070000028  0.4026500009999978  0.4950000059999979
  0.3052900160000007  0.4026399999999981  0.4950000059999979
  0.5973600479999988  0.1947100089999978  0.4950000059999979
  0.5973499709999999  0.4026500009999978  0.4950000059999979
  0.8052899990000029  0.4026399999999981  0.4950000059999979
  0.0973599920000012  0.6947100249999991  0.4950000059999979
  0.0973500110000032  0.9026499960000010  0.4950000059999979
  0.3052900180000009  0.9026399540000014  0.4950000059999979
  0.5973600270000006  0.6947100249999991  0.4950000059999979
  0.5973500110000032  0.9026499960000010  0.4950000059999979
  0.8052899819999979  0.9026399540000014  0.4950000059999979
  0.1666600040000006  0.3333300030000004  0.5941500249999976
  0.0000000000000000  0.0000000000000000  0.4214699810000013
  0.4158999949999966  0.0840999999999994  0.5683100350000032
  0.1682000090000031  0.0840999999999994  0.5683100350000032
  0.4158999919999999  0.3318000160000025  0.5683100350000032
  0.2489899999999992  0.2510200030000007  0.4058699810000022
  0.0020300050000017  0.2510100020000010  0.4058699810000022
  0.2489900189999972  0.4979700259999973  0.4058699810000022
  0.6666599859999991  0.3333300030000004  0.5941500249999976
  0.5000000000000000  0.0000000000000000  0.4214699810000013
  0.9158999599999973  0.0840999999999994  0.5683100350000032
  0.6681999560000023  0.0840999999999994  0.5683100350000032
  0.9158999919999999  0.3318000160000025  0.5683100350000032
  0.7489900090000035  0.2510200030000007  0.4058699810000022
  0.5020300050000017  0.2510100020000010  0.4058699810000022
  0.7489900539999965  0.4979700259999973  0.4058699810000022
  0.1666600149999979  0.8333299780000019  0.5941500249999976
  0.0000000040000003  0.4999999950000031  0.4214699810000013
  0.4159000040000009  0.5841000050000034  0.5683100350000032
  0.1682000180000003  0.5841000050000034  0.5683100350000032
  0.4158999759999986  0.8317999699999987  0.5683100350000032
  0.2489900160000005  0.7510200380000001  0.4058699810000022
  0.0020300090000021  0.7510099969999970  0.4058699810000022
  0.2489899999999992  0.9979699399999973  0.4058699810000022
  0.6666600149999979  0.8333299780000019  0.5941500249999976
  0.5000000040000003  0.4999999950000031  0.4214699810000013
  0.9159000399999968  0.5841000050000034  0.5683100350000032
  0.6681999999999988  0.5841000050000034  0.5683100350000032
  0.9158999759999986  0.8317999699999987  0.5683100350000032
  0.7489900329999983  0.7510200380000001  0.4058699810000022
  0.5020300090000021  0.7510099969999970  0.4058699810000022
  0.7489900180000006  0.9979699399999973  0.4058699810000022
 
  0.00000000E+00  0.00000000E+00  0.00000000E+00
  0.00000000E+00  0.00000000E+00  0.00000000E+00
  0.00000000E+00  0.00000000E+00  0.00000000E+00
  0.00000000E+00  0.00000000E+00  0.00000000E+00
  0.00000000E+00  0.00000000E+00  0.00000000E+00
  0.00000000E+00  0.00000000E+00  0.00000000E+00
  0.00000000E+00  0.00000000E+00  0.00000000E+00
  0.00000000E+00  0.00000000E+00  0.00000000E+00
  0.00000000E+00  0.00000000E+00  0.00000000E+00
  0.00000000E+00  0.00000000E+00  0.00000000E+00
  0.00000000E+00  0.00000000E+00  0.00000000E+00
  0.00000000E+00  0.00000000E+00  0.00000000E+00
  0.00000000E+00  0.00000000E+00  0.00000000E+00
  0.00000000E+00  0.00000000E+00  0.00000000E+00
  0.00000000E+00  0.00000000E+00  0.00000000E+00
  0.00000000E+00  0.00000000E+00  0.00000000E+00
  0.00000000E+00  0.00000000E+00  0.00000000E+00
  0.00000000E+00  0.00000000E+00  0.00000000E+00
  0.00000000E+00  0.00000000E+00  0.00000000E+00
  0.00000000E+00  0.00000000E+00  0.00000000E+00
  0.00000000E+00  0.00000000E+00  0.00000000E+00
  0.00000000E+00  0.00000000E+00  0.00000000E+00
  0.00000000E+00  0.00000000E+00  0.00000000E+00
  0.00000000E+00  0.00000000E+00  0.00000000E+00
  0.00000000E+00  0.00000000E+00  0.00000000E+00
  0.00000000E+00  0.00000000E+00  0.00000000E+00
  0.00000000E+00  0.00000000E+00  0.00000000E+00
  0.00000000E+00  0.00000000E+00  0.00000000E+00
  0.00000000E+00  0.00000000E+00  0.00000000E+00
  0.00000000E+00  0.00000000E+00  0.00000000E+00
  0.00000000E+00  0.00000000E+00  0.00000000E+00
  0.00000000E+00  0.00000000E+00  0.00000000E+00
  0.00000000E+00  0.00000000E+00  0.00000000E+00
  0.00000000E+00  0.00000000E+00  0.00000000E+00
  0.00000000E+00  0.00000000E+00  0.00000000E+00
  0.00000000E+00  0.00000000E+00  0.00000000E+00
  0.00000000E+00  0.00000000E+00  0.00000000E+00
  0.00000000E+00  0.00000000E+00  0.00000000E+00
  0.00000000E+00  0.00000000E+00  0.00000000E+00
  0.00000000E+00  0.00000000E+00  0.00000000E+00
  0.00000000E+00  0.00000000E+00  0.00000000E+00
  0.00000000E+00  0.00000000E+00  0.00000000E+00
  0.00000000E+00  0.00000000E+00  0.00000000E+00
  0.00000000E+00  0.00000000E+00  0.00000000E+00
