CONTCAR\(10)                            
   1.00000000000000     
    12.5135002136000004    0.0000000000000000    0.0000000000000000
     0.0000000000000000   15.7480001450000007    0.0000000000000000
     0.0000000000000000    0.0000000000000000   19.7180004119999985
   Nb   Fe   Te   O    H 
    16    16    32     2     1
Direct
  0.2598266445676274  0.1543875709646733  0.5083278829901638
  0.9868318482947445  0.4047472827216586  0.5063993025718354
  0.0097078795120485  0.0963676355872990  0.4928462015230994
  0.2369943914966126  0.3467380482365121  0.4918150902218968
  0.7596202977584287  0.1552092880272271  0.5083742706986828
  0.4889220965744030  0.4041462830657954  0.5057706364130271
  0.5100121286399224  0.0961709443178196  0.4931543901441555
  0.7368296255260325  0.3471323074279223  0.4872751215031569
  0.2613799189834040  0.6545079834307668  0.5072919866202160
  0.9860120056191722  0.9048514157817037  0.5091142259128819
  0.0113143976028525  0.5963811821242512  0.4918579545600864
  0.2364143374984330  0.8461134690911820  0.4932151517666920
  0.7606180101559408  0.6539055880714087  0.5078045920013305
  0.4860649413372826  0.9046527789497008  0.5090958899439074
  0.5112611243970553  0.5962681488704562  0.4919431582721712
  0.7362674362357133  0.8461525154661531  0.4930556607123843
  0.0693310316029667  0.2549342762344681  0.5384130539658978
  0.3200150652567365  0.9966924387629471  0.4629423293147679
  0.4261670038320943  0.2459023131789115  0.4618721645630279
  0.1758248952545618  0.0043813461124004  0.5397459906623850
  0.5702195023366540  0.2567588459241784  0.5393489410338231
  0.8198598544506391  0.9967714295229974  0.4626656432012797
  0.9261066451104470  0.2468609389157967  0.4615363735616330
  0.6760985517431980  0.0043606345432282  0.5394881660260129
  0.0704853625138823  0.7540695589974479  0.5388916595710281
  0.3205559201903315  0.4965291086499024  0.4603448077179101
  0.4274727023728226  0.7466700168447082  0.4619017440827475
  0.1772725478478182  0.5042200705395811  0.5375097676745315
  0.5711386101787382  0.7534427362647129  0.5387863703434115
  0.8211575014797688  0.4967302668691648  0.4610238223783373
  0.9268315466988913  0.7467918863989648  0.4621909620343353
  0.6768035263937601  0.5008458324180763  0.5396990393495872
  0.3806796772066467  0.3706404369405549  0.3821376279619116
  0.1249628517763266  0.9783292253834688  0.4124525089302621
  0.3711144959744673  0.0226152264073073  0.5900007723156898
  0.1288422642161221  0.3801924812588127  0.6166816821367509
  0.3749304356820287  0.2728956313703136  0.5886131547022765
  0.1214534225434650  0.2287880484493974  0.4114301868110382
  0.1168094877814040  0.1307085491991219  0.6180497652220188
  0.3671395335812146  0.1206143256851898  0.3831928281046253
  0.8798237177704964  0.3717200507409311  0.3808611915288181
  0.6246064766807000  0.9782465669022878  0.4122702450351500
  0.8711339548566225  0.0231810105139663  0.5898004351522345
  0.6311513804974348  0.3800057695828276  0.6198243727687960
  0.8713120015989613  0.2757373576878677  0.5877670685479109
  0.6203891932084173  0.2270097355646843  0.4112146462218556
  0.6173331180994490  0.1306402903781653  0.6180744132691912
  0.8674010174517952  0.1209398420606774  0.3831137421688933
  0.3787528002626346  0.8717465376046660  0.3835548309430358
  0.1258056679189621  0.4790881259085984  0.4100248978429687
  0.3733356551261604  0.5200817996042869  0.5874965324210215
  0.1288651839286296  0.8791251088216755  0.6185104457723856
  0.3757748778707982  0.7713850365198125  0.5892571397227697
  0.1221440947412756  0.7289806216310618  0.4113722815183088
  0.1194748649884063  0.6290306176207585  0.6172086782946434
  0.3689935247450748  0.6218709497050168  0.3820771371958004
  0.8789873413074610  0.8717610327281704  0.3834934456366020
  0.6269252761027339  0.4806189686248197  0.4101489171067743
  0.8721732293417020  0.5218560615563235  0.5881215042030328
  0.6288252043346997  0.8789899984207199  0.6183416092579515
  0.8750128036953519  0.7717944687205384  0.5893632096414031
  0.6225565784397092  0.7289461039393880  0.4113185228861749
  0.6184798915257355  0.6277530252815935  0.6173416721070970
  0.8685778555611816  0.6220329984069404  0.3826081416837775
  0.4932158601864269  0.4240723340778395  0.6859501753450841
  0.5237400761841331  0.4231603646872749  0.7569001116762227
  0.4908885593503496  0.3699467637029463  0.7722238015311559
 
  0.00000000E+00  0.00000000E+00  0.00000000E+00
  0.00000000E+00  0.00000000E+00  0.00000000E+00
  0.00000000E+00  0.00000000E+00  0.00000000E+00
  0.00000000E+00  0.00000000E+00  0.00000000E+00
  0.00000000E+00  0.00000000E+00  0.00000000E+00
  0.00000000E+00  0.00000000E+00  0.00000000E+00
  0.00000000E+00  0.00000000E+00  0.00000000E+00
  0.00000000E+00  0.00000000E+00  0.00000000E+00
  0.00000000E+00  0.00000000E+00  0.00000000E+00
  0.00000000E+00  0.00000000E+00  0.00000000E+00
  0.00000000E+00  0.00000000E+00  0.00000000E+00
  0.00000000E+00  0.00000000E+00  0.00000000E+00
  0.00000000E+00  0.00000000E+00  0.00000000E+00
  0.00000000E+00  0.00000000E+00  0.00000000E+00
  0.00000000E+00  0.00000000E+00  0.00000000E+00
  0.00000000E+00  0.00000000E+00  0.00000000E+00
  0.00000000E+00  0.00000000E+00  0.00000000E+00
  0.00000000E+00  0.00000000E+00  0.00000000E+00
  0.00000000E+00  0.00000000E+00  0.00000000E+00
  0.00000000E+00  0.00000000E+00  0.00000000E+00
  0.00000000E+00  0.00000000E+00  0.00000000E+00
  0.00000000E+00  0.00000000E+00  0.00000000E+00
  0.00000000E+00  0.00000000E+00  0.00000000E+00
  0.00000000E+00  0.00000000E+00  0.00000000E+00
  0.00000000E+00  0.00000000E+00  0.00000000E+00
  0.00000000E+00  0.00000000E+00  0.00000000E+00
  0.00000000E+00  0.00000000E+00  0.00000000E+00
  0.00000000E+00  0.00000000E+00  0.00000000E+00
  0.00000000E+00  0.00000000E+00  0.00000000E+00
  0.00000000E+00  0.00000000E+00  0.00000000E+00
  0.00000000E+00  0.00000000E+00  0.00000000E+00
  0.00000000E+00  0.00000000E+00  0.00000000E+00
  0.00000000E+00  0.00000000E+00  0.00000000E+00
  0.00000000E+00  0.00000000E+00  0.00000000E+00
  0.00000000E+00  0.00000000E+00  0.00000000E+00
  0.00000000E+00  0.00000000E+00  0.00000000E+00
  0.00000000E+00  0.00000000E+00  0.00000000E+00
  0.00000000E+00  0.00000000E+00  0.00000000E+00
  0.00000000E+00  0.00000000E+00  0.00000000E+00
  0.00000000E+00  0.00000000E+00  0.00000000E+00
  0.00000000E+00  0.00000000E+00  0.00000000E+00
  0.00000000E+00  0.00000000E+00  0.00000000E+00
  0.00000000E+00  0.00000000E+00  0.00000000E+00
  0.00000000E+00  0.00000000E+00  0.00000000E+00
  0.00000000E+00  0.00000000E+00  0.00000000E+00
  0.00000000E+00  0.00000000E+00  0.00000000E+00
  0.00000000E+00  0.00000000E+00  0.00000000E+00
  0.00000000E+00  0.00000000E+00  0.00000000E+00
  0.00000000E+00  0.00000000E+00  0.00000000E+00
  0.00000000E+00  0.00000000E+00  0.00000000E+00
  0.00000000E+00  0.00000000E+00  0.00000000E+00
  0.00000000E+00  0.00000000E+00  0.00000000E+00
  0.00000000E+00  0.00000000E+00  0.00000000E+00
  0.00000000E+00  0.00000000E+00  0.00000000E+00
  0.00000000E+00  0.00000000E+00  0.00000000E+00
  0.00000000E+00  0.00000000E+00  0.00000000E+00
  0.00000000E+00  0.00000000E+00  0.00000000E+00
  0.00000000E+00  0.00000000E+00  0.00000000E+00
  0.00000000E+00  0.00000000E+00  0.00000000E+00
  0.00000000E+00  0.00000000E+00  0.00000000E+00
  0.00000000E+00  0.00000000E+00  0.00000000E+00
  0.00000000E+00  0.00000000E+00  0.00000000E+00
  0.00000000E+00  0.00000000E+00  0.00000000E+00
  0.00000000E+00  0.00000000E+00  0.00000000E+00
  0.00000000E+00  0.00000000E+00  0.00000000E+00
  0.00000000E+00  0.00000000E+00  0.00000000E+00
  0.00000000E+00  0.00000000E+00  0.00000000E+00
