CONTCAR\(10)                            
   1.00000000000000     
    12.0853004455999997    0.0000000000000000    0.0000000000000000
     0.0000000000000000   13.7131004332999993    0.0000000000000000
     0.0000000000000000    0.0000000000000000   20.3784999846999995
   Zr   Te   O    H 
     6    30     2     1
Selective dynamics
Direct
  0.0043636044704698  0.4881513482950481  0.4567730405749018   F   F   F
  0.1679877700049062  0.9868662936174957  0.5506797976237152   F   F   F
  0.3387940147520325  0.4895624034358619  0.4617497745460710   F   F   F
  0.5003873943000698  0.9888481307749117  0.5530635576892209   F   F   F
  0.6712268086746676  0.4875213127233522  0.4562983502790559   F   F   F
  0.8338018932145133  0.9865790205844149  0.5529225614697708   F   F   F
  0.1683041028509251  0.4776083021110225  0.5687816267954560   F   F   F
  0.9967236363829457  0.9802850336566209  0.4413774554750063   F   F   F
  0.1741462649361836  0.5944545120247753  0.3790465546507846   F   F   F
  0.0019512539788238  0.8869502436968020  0.6347961307124450   F   F   F
  0.0020734212799098  0.0897482393579523  0.6325908578611532   F   F   F
  0.1739705494320489  0.3919647327747171  0.3746819690881011   F   F   F
  0.0032707089600947  0.2986514099583957  0.5289336931894724   F   F   F
  0.1699926736435131  0.1680267300216940  0.4698007141534006   F   F   F
  0.1654171128651711  0.8015014174081898  0.4733687411947400   F   F   F
  0.0046425701919546  0.6711038080722673  0.5357866758074437   F   F   F
  0.5093488696828103  0.4600768594854827  0.5689086398311929   F   F   F
  0.3339563563404297  0.9845547422110243  0.4412130873414384   F   F   F
  0.5030026126716933  0.5979482312043345  0.3821240561115431   F   F   F
  0.3340774755472893  0.8910894381950385  0.6367994772567016   F   F   F
  0.3324497572948033  0.0946813281701111  0.6311209340991297   F   F   F
  0.5010609323665847  0.3958667014049411  0.3710736276776458   F   F   F
  0.3378957711888830  0.2988933765486053  0.5292500216698528   F   F   F
  0.5028570068907854  0.1667580858998079  0.4682022612711023   F   F   F
  0.4993569420214286  0.7978021346972852  0.4845199226085626   F   F   F
  0.3312868447256960  0.6742754098565129  0.5473511918120124   F   F   F
  0.8358537327442335  0.4847163239593542  0.5662674539473045   F   F   F
  0.6673238712245322  0.9770915586049682  0.4426831013434196   F   F   F
  0.8383439094223490  0.5920752607821811  0.3746950314070858   F   F   F
  0.6661191980512839  0.8925277011537815  0.6389404055971610   F   F   F
  0.6682976029446763  0.0948476623763668  0.6314352021151706   F   F   F
  0.8382686016793102  0.3898447864158143  0.3723710371163449   F   F   F
  0.6701588781916783  0.2967443718639018  0.5259078789251461   F   F   F
  0.8408246265903188  0.1641033528148768  0.4683387383582343   F   F   F
  0.8309157138625736  0.7999414860360972  0.4788480544292923   F   F   F
  0.6724766749914366  0.6662584608247073  0.5404411337110488   F   F   F
  0.4479973021116592  0.6257247793773359  0.6249932217837326   T   T   T
  0.4630529665973668  0.6993198450278371  0.6772649007896092   T   T   T
  0.4132705469199465  0.6737350795761188  0.7104231878084761   T   T   T
 
  0.00000000E+00  0.00000000E+00  0.00000000E+00
  0.00000000E+00  0.00000000E+00  0.00000000E+00
  0.00000000E+00  0.00000000E+00  0.00000000E+00
  0.00000000E+00  0.00000000E+00  0.00000000E+00
  0.00000000E+00  0.00000000E+00  0.00000000E+00
  0.00000000E+00  0.00000000E+00  0.00000000E+00
  0.00000000E+00  0.00000000E+00  0.00000000E+00
  0.00000000E+00  0.00000000E+00  0.00000000E+00
  0.00000000E+00  0.00000000E+00  0.00000000E+00
  0.00000000E+00  0.00000000E+00  0.00000000E+00
  0.00000000E+00  0.00000000E+00  0.00000000E+00
  0.00000000E+00  0.00000000E+00  0.00000000E+00
  0.00000000E+00  0.00000000E+00  0.00000000E+00
  0.00000000E+00  0.00000000E+00  0.00000000E+00
  0.00000000E+00  0.00000000E+00  0.00000000E+00
  0.00000000E+00  0.00000000E+00  0.00000000E+00
  0.00000000E+00  0.00000000E+00  0.00000000E+00
  0.00000000E+00  0.00000000E+00  0.00000000E+00
  0.00000000E+00  0.00000000E+00  0.00000000E+00
  0.00000000E+00  0.00000000E+00  0.00000000E+00
  0.00000000E+00  0.00000000E+00  0.00000000E+00
  0.00000000E+00  0.00000000E+00  0.00000000E+00
  0.00000000E+00  0.00000000E+00  0.00000000E+00
  0.00000000E+00  0.00000000E+00  0.00000000E+00
  0.00000000E+00  0.00000000E+00  0.00000000E+00
  0.00000000E+00  0.00000000E+00  0.00000000E+00
  0.00000000E+00  0.00000000E+00  0.00000000E+00
  0.00000000E+00  0.00000000E+00  0.00000000E+00
  0.00000000E+00  0.00000000E+00  0.00000000E+00
  0.00000000E+00  0.00000000E+00  0.00000000E+00
  0.00000000E+00  0.00000000E+00  0.00000000E+00
  0.00000000E+00  0.00000000E+00  0.00000000E+00
  0.00000000E+00  0.00000000E+00  0.00000000E+00
  0.00000000E+00  0.00000000E+00  0.00000000E+00
  0.00000000E+00  0.00000000E+00  0.00000000E+00
  0.00000000E+00  0.00000000E+00  0.00000000E+00
  0.00000000E+00  0.00000000E+00  0.00000000E+00
  0.00000000E+00  0.00000000E+00  0.00000000E+00
  0.00000000E+00  0.00000000E+00  0.00000000E+00
