CONTCAR\(2)                             
   1.00000000000000     
    13.2992000580000003    0.0000000000000000    0.0000000000000000
    -6.6496130274000000   11.5161678841999997    0.0000000000000000
     0.0000000000000000    0.0000000000000000   36.9292984009000023
   Bi   Te   O 
    54    54     1
Direct
  0.1144314096024819  0.2234751532432472  0.6381335691227432
  0.2222090378842785  0.1114046992513640  0.3624429492445154
  0.3338925083495555  0.3337666920265598  0.2528581573152922
  0.3362846613841337  0.3363896503716832  0.7474961985341393
  0.2230320437916318  0.1116190783425254  0.5227845496657961
  0.1119882789792937  0.2228871139546828  0.4774154557959759
  0.4474851207845201  0.2238473134049387  0.6374969117864379
  0.5557833447792830  0.1113138435789289  0.3627890658132786
  0.6665789375059248  0.3333081499343414  0.2530650194476590
  0.6655708129365759  0.3330596614445029  0.7469837543837342
  0.5569041979140241  0.1127723016659721  0.5226138179492259
  0.4451902212238009  0.2233019832853202  0.4772243111468970
  0.7797442095337951  0.2226954023583189  0.6376711569917931
  0.8892713958256773  0.1115035337116873  0.3624295291646948
 -0.0001823950715556  0.3340674001355693  0.2528863649289784
  0.9941689458520082  0.3289430901557284  0.7473594404912927
  0.8906121797930733  0.1123310496507435  0.5231693142522271
  0.7795761478105084  0.2235772661557602  0.4774932213751554
  0.1133187600502879  0.5566386873413208  0.6388055217974030
  0.2225940943313016  0.4452060519246736  0.3627280077280995
  0.3332962991007304  0.6666551631799307  0.2531245625449340
  0.3465694133308996  0.6709092745483272  0.7513172351046020
  0.2231171969935160  0.4449382898214524  0.5229875225192725
  0.1128871482534664  0.5569260208375021  0.4775625432380244
  0.4446471206009042  0.5563935409037991  0.6379684778912617
  0.5555466370028744  0.4451126463457351  0.3627225399608445
  0.6657635003965334  0.6656383029440041  0.2528364411353426
  0.6735608447094849  0.6694803450365653  0.7464808326497516
  0.5561007573689487  0.4452406706067378  0.5228803575348423
  0.4456699848383694  0.5569389633055478  0.4776201438268893
  0.7796490636102642  0.5573587197814284  0.6377734963652207
  0.8894674013437504  0.4450579643829320  0.3627218528396137
  0.9998194664452577  0.6656652787234055  0.2528520339242505
 -0.0008786466447204  0.6678101723006492  0.7467966839741821
  0.8908489743979657  0.4458454211697316  0.5229151928303833
  0.7786152688045008  0.5562989918446816  0.4775759198273221
  0.1165269861664422  0.8908686491106995  0.6384434409425184
  0.2221339166206515  0.7783417473430516  0.3626025479817800
  0.3342181693888939  0.0001201842628977  0.2528845396167058
  0.3362910963467365  0.0002174726079144  0.7475049095408686
  0.2233925149064842  0.7787764380882686  0.5230871383185900
  0.1118186557847440  0.8892624337764907  0.4775164566428457
  0.4474367485779000  0.8902834119270866  0.6378949323038099
  0.5563735517740699  0.7784459174466934  0.3625299670189641
  0.6657666905875023  0.0000895910565458  0.2528586488204035
  0.6699291933858168  0.0004519323071979  0.7464118999735155
  0.5568982090937445  0.7791144894160236  0.5231246381893679
  0.4458921085570951  0.8903484315285052  0.4775283824114285
  0.7814760821107277  0.8900308037779865  0.6373643059017382
  0.8890526001610123  0.7781726233615259  0.3624505740234028
 -0.0000031122792906  0.0000236134275288  0.2535516214657912
  0.0054876617507891  0.0044281682582220  0.7475464625730096
  0.8901974814799803  0.7783614442676469  0.5231952952971197
  0.7794781645222351  0.8900844855901546  0.4777587109893951
  0.1133906419961503  0.2257961949107287  0.7938428186099930
  0.2222005063860749  0.1111567749597011  0.2071454383534123
  0.0003297210687969  0.0005981062900296  0.4092707691566388
  0.0040263132759191  0.0014902781969216  0.5911090980172674
  0.2271007762602408  0.1137379655939215  0.6926338341516647
  0.1116522675034787  0.2232776542740382  0.3081873658699220
  0.4453496533669010  0.2228885361906182  0.7935768495329932
  0.5559081399192085  0.1118604750105942  0.2065839020486705
  0.3332206824324019  0.0005920227934108  0.4094663565367519
  0.3368421357499479  0.0014346347636858  0.5908270484223782
  0.5573590413658183  0.1119635449790790  0.6920260797138168
  0.4451568483168506  0.2229444708853969  0.3082374765924425
  0.7751304419109417  0.2200378309947751  0.7935075968149696
  0.8890045803875969  0.1112458479611855  0.2071881702970986
  0.6676274084753838  0.0005887478394993  0.4094853617937376
  0.6686329609121973  0.0004778440452538  0.5908628364648030
  0.8908996052532342  0.1100440162659933  0.6915841019674023
  0.7778243473768556  0.2229391349517268  0.3082030725250295
  0.0588821629630906  0.5293625840045052  0.8009900363982402
  0.2224135004160764  0.4448741727994906  0.2069007896147161
  0.0002452139533170  0.3335168793121310  0.4094937197150563
  0.0027019566307536  0.3343891709556860  0.5914346212518086
  0.2232010013363539  0.4467655762447326  0.6934804947349509
  0.1114051467729040  0.5560281104650328  0.3083573317287106
  0.4584975562014614  0.5583888624754557  0.7940441018054397
  0.5557447745890276  0.4442291205508631  0.2065902345019263
  0.3333065013994512  0.3335050813568422  0.4094877092133249
  0.3351761671280128  0.3341541385268946  0.5909311288240814
  0.5572093157607504  0.4453571513890021  0.6921335441994492
  0.4446305507840824  0.5559984090409803  0.3083434707676623
  0.7799837743096476  0.5551539509358003  0.7935082336477336
  0.8883651221742022  0.4442586968930327  0.2065806987436548
  0.6670726622981556  0.3340533392741014  0.4094954614714790
  0.6693630265341352  0.3348679564099606  0.5908347421622470
  0.8891980301590782  0.4445420796897889  0.6920866643090603
  0.7778080868465868  0.5556519529686760  0.3081417275003685
  0.1133634529623710  0.8889140138407506  0.7935276752226971
  0.2224407826631798  0.7778138640338774  0.2069015409861459
  0.0002062116568241  0.6675287771248407  0.4094965215041937
  0.0029371027707387  0.6685023785246967  0.5915588433022234
  0.2255650062405967  0.7770328692229008  0.6932063194625216
  0.1115317430584067  0.8889361894540447  0.3081607179719924
  0.4546614219337828  0.8969661987598179  0.7941045848684177
  0.5553008322103263  0.7777813592377500  0.2068932873083091
  0.3339334900778733  0.6675456327384814  0.4094729709563296
  0.3341814495140177  0.6673353655360698  0.5912119705706878
  0.5589300300733573  0.7782785625016154  0.6919966450308588
  0.4447214720987331  0.8894287596527398  0.3083465793059689
  0.7814897294449279  0.8907924331686868  0.7929475921861339
  0.8889816767235678  0.7779525331810464  0.2071787823221569
  0.6674035039710992  0.6677212248865391  0.4094970890446095
  0.6669531241155151  0.6667180047074351  0.5909604836549884
  0.8934930113984428  0.7821315147595550  0.6914328252767734
  0.7776053551061343  0.8890769625939898  0.3081166373560336
  0.2271090450160951  0.6019911356508957  0.7981395770966729
 
  0.00000000E+00  0.00000000E+00  0.00000000E+00
  0.00000000E+00  0.00000000E+00  0.00000000E+00
  0.00000000E+00  0.00000000E+00  0.00000000E+00
  0.00000000E+00  0.00000000E+00  0.00000000E+00
  0.00000000E+00  0.00000000E+00  0.00000000E+00
  0.00000000E+00  0.00000000E+00  0.00000000E+00
  0.00000000E+00  0.00000000E+00  0.00000000E+00
  0.00000000E+00  0.00000000E+00  0.00000000E+00
  0.00000000E+00  0.00000000E+00  0.00000000E+00
  0.00000000E+00  0.00000000E+00  0.00000000E+00
  0.00000000E+00  0.00000000E+00  0.00000000E+00
  0.00000000E+00  0.00000000E+00  0.00000000E+00
  0.00000000E+00  0.00000000E+00  0.00000000E+00
  0.00000000E+00  0.00000000E+00  0.00000000E+00
  0.00000000E+00  0.00000000E+00  0.00000000E+00
  0.00000000E+00  0.00000000E+00  0.00000000E+00
  0.00000000E+00  0.00000000E+00  0.00000000E+00
  0.00000000E+00  0.00000000E+00  0.00000000E+00
  0.00000000E+00  0.00000000E+00  0.00000000E+00
  0.00000000E+00  0.00000000E+00  0.00000000E+00
  0.00000000E+00  0.00000000E+00  0.00000000E+00
  0.00000000E+00  0.00000000E+00  0.00000000E+00
  0.00000000E+00  0.00000000E+00  0.00000000E+00
  0.00000000E+00  0.00000000E+00  0.00000000E+00
  0.00000000E+00  0.00000000E+00  0.00000000E+00
  0.00000000E+00  0.00000000E+00  0.00000000E+00
  0.00000000E+00  0.00000000E+00  0.00000000E+00
  0.00000000E+00  0.00000000E+00  0.00000000E+00
  0.00000000E+00  0.00000000E+00  0.00000000E+00
  0.00000000E+00  0.00000000E+00  0.00000000E+00
  0.00000000E+00  0.00000000E+00  0.00000000E+00
  0.00000000E+00  0.00000000E+00  0.00000000E+00
  0.00000000E+00  0.00000000E+00  0.00000000E+00
  0.00000000E+00  0.00000000E+00  0.00000000E+00
  0.00000000E+00  0.00000000E+00  0.00000000E+00
  0.00000000E+00  0.00000000E+00  0.00000000E+00
  0.00000000E+00  0.00000000E+00  0.00000000E+00
  0.00000000E+00  0.00000000E+00  0.00000000E+00
  0.00000000E+00  0.00000000E+00  0.00000000E+00
  0.00000000E+00  0.00000000E+00  0.00000000E+00
  0.00000000E+00  0.00000000E+00  0.00000000E+00
  0.00000000E+00  0.00000000E+00  0.00000000E+00
  0.00000000E+00  0.00000000E+00  0.00000000E+00
  0.00000000E+00  0.00000000E+00  0.00000000E+00
  0.00000000E+00  0.00000000E+00  0.00000000E+00
  0.00000000E+00  0.00000000E+00  0.00000000E+00
  0.00000000E+00  0.00000000E+00  0.00000000E+00
  0.00000000E+00  0.00000000E+00  0.00000000E+00
  0.00000000E+00  0.00000000E+00  0.00000000E+00
  0.00000000E+00  0.00000000E+00  0.00000000E+00
  0.00000000E+00  0.00000000E+00  0.00000000E+00
  0.00000000E+00  0.00000000E+00  0.00000000E+00
  0.00000000E+00  0.00000000E+00  0.00000000E+00
  0.00000000E+00  0.00000000E+00  0.00000000E+00
  0.00000000E+00  0.00000000E+00  0.00000000E+00
  0.00000000E+00  0.00000000E+00  0.00000000E+00
  0.00000000E+00  0.00000000E+00  0.00000000E+00
  0.00000000E+00  0.00000000E+00  0.00000000E+00
  0.00000000E+00  0.00000000E+00  0.00000000E+00
  0.00000000E+00  0.00000000E+00  0.00000000E+00
  0.00000000E+00  0.00000000E+00  0.00000000E+00
  0.00000000E+00  0.00000000E+00  0.00000000E+00
  0.00000000E+00  0.00000000E+00  0.00000000E+00
  0.00000000E+00  0.00000000E+00  0.00000000E+00
  0.00000000E+00  0.00000000E+00  0.00000000E+00
  0.00000000E+00  0.00000000E+00  0.00000000E+00
  0.00000000E+00  0.00000000E+00  0.00000000E+00
  0.00000000E+00  0.00000000E+00  0.00000000E+00
  0.00000000E+00  0.00000000E+00  0.00000000E+00
  0.00000000E+00  0.00000000E+00  0.00000000E+00
  0.00000000E+00  0.00000000E+00  0.00000000E+00
  0.00000000E+00  0.00000000E+00  0.00000000E+00
  0.00000000E+00  0.00000000E+00  0.00000000E+00
  0.00000000E+00  0.00000000E+00  0.00000000E+00
  0.00000000E+00  0.00000000E+00  0.00000000E+00
  0.00000000E+00  0.00000000E+00  0.00000000E+00
  0.00000000E+00  0.00000000E+00  0.00000000E+00
  0.00000000E+00  0.00000000E+00  0.00000000E+00
  0.00000000E+00  0.00000000E+00  0.00000000E+00
  0.00000000E+00  0.00000000E+00  0.00000000E+00
  0.00000000E+00  0.00000000E+00  0.00000000E+00
  0.00000000E+00  0.00000000E+00  0.00000000E+00
  0.00000000E+00  0.00000000E+00  0.00000000E+00
  0.00000000E+00  0.00000000E+00  0.00000000E+00
  0.00000000E+00  0.00000000E+00  0.00000000E+00
  0.00000000E+00  0.00000000E+00  0.00000000E+00
  0.00000000E+00  0.00000000E+00  0.00000000E+00
  0.00000000E+00  0.00000000E+00  0.00000000E+00
  0.00000000E+00  0.00000000E+00  0.00000000E+00
  0.00000000E+00  0.00000000E+00  0.00000000E+00
  0.00000000E+00  0.00000000E+00  0.00000000E+00
  0.00000000E+00  0.00000000E+00  0.00000000E+00
  0.00000000E+00  0.00000000E+00  0.00000000E+00
  0.00000000E+00  0.00000000E+00  0.00000000E+00
  0.00000000E+00  0.00000000E+00  0.00000000E+00
  0.00000000E+00  0.00000000E+00  0.00000000E+00
  0.00000000E+00  0.00000000E+00  0.00000000E+00
  0.00000000E+00  0.00000000E+00  0.00000000E+00
  0.00000000E+00  0.00000000E+00  0.00000000E+00
  0.00000000E+00  0.00000000E+00  0.00000000E+00
  0.00000000E+00  0.00000000E+00  0.00000000E+00
  0.00000000E+00  0.00000000E+00  0.00000000E+00
  0.00000000E+00  0.00000000E+00  0.00000000E+00
  0.00000000E+00  0.00000000E+00  0.00000000E+00
  0.00000000E+00  0.00000000E+00  0.00000000E+00
  0.00000000E+00  0.00000000E+00  0.00000000E+00
  0.00000000E+00  0.00000000E+00  0.00000000E+00
  0.00000000E+00  0.00000000E+00  0.00000000E+00
  0.00000000E+00  0.00000000E+00  0.00000000E+00
