 Si4 Cu2 P6                             
   1.00000000000000     
     3.6319458317375468    0.0000000000000000    0.0000000000000000
     0.0000000000000000    6.4000653947693884    0.0000000000000000
     0.0000000000000000    0.0000000000000000   21.8100099778200018
   Cu   Si   P 
     2     4     6
Direct
 -0.0000000054179702  0.2185675617922656  0.4611666896313975
  0.0000000053068784  0.5721604174939359  0.3609096862018974
  0.5000000016636795  0.0904950447336623  0.3858574243152953
  0.4999999981185113  0.3944883805567049  0.6086591751261657
  0.5000000014756403  0.7112000966112215  0.4806503750032308
 -0.0000000035407642  0.8932822798046499  0.6139562184673999
 -0.0000000024540184  0.2372326632680502  0.3444748214534433
  0.5000000021735977  0.3784844859631853  0.5060949948134028
  0.5000000063358933  0.7470782807854355  0.3792761104021880
 -0.0000000004212391  0.5575783718758797  0.6545552384775579
  0.0000000007479756  0.9011191628316871  0.5106589233279195
  0.4999999960118169  0.0656222542833102  0.6553838394405452
 
  0.00000000E+00  0.00000000E+00  0.00000000E+00
  0.00000000E+00  0.00000000E+00  0.00000000E+00
  0.00000000E+00  0.00000000E+00  0.00000000E+00
  0.00000000E+00  0.00000000E+00  0.00000000E+00
  0.00000000E+00  0.00000000E+00  0.00000000E+00
  0.00000000E+00  0.00000000E+00  0.00000000E+00
  0.00000000E+00  0.00000000E+00  0.00000000E+00
  0.00000000E+00  0.00000000E+00  0.00000000E+00
  0.00000000E+00  0.00000000E+00  0.00000000E+00
  0.00000000E+00  0.00000000E+00  0.00000000E+00
  0.00000000E+00  0.00000000E+00  0.00000000E+00
  0.00000000E+00  0.00000000E+00  0.00000000E+00
