CONTCAR\(5)                             
   1.00000000000000     
     3.9223001003000002    0.0000000000000000    0.0000000000000000
     1.9611500502000001    3.3968115281000002    0.0000000000000000
     0.0000000000000000    0.0000000000000000   18.9503002167000005
   Te   Pt   O    H 
     2     2     2     2
Direct
  0.6596419470672942  0.6835837080399255  0.6062794226743979
  0.6566130440455999  0.6843919956730576  0.3953703227370455
  0.3191948258072914  0.3577440672066016  0.5434492030088295
 -0.0159554756487382  0.0241329037481727  0.4579493143542740
  0.7759025316414850  0.5806127377334083  0.7115439296379176
  0.7441674962293375  0.5784569295902736  0.2896607929473802
  0.5246290347288999  0.6689988142687574  0.7358896936299757
  0.6361867501288484  0.8336988827397952  0.2657273320101784
 
  0.00000000E+00  0.00000000E+00  0.00000000E+00
  0.00000000E+00  0.00000000E+00  0.00000000E+00
  0.00000000E+00  0.00000000E+00  0.00000000E+00
  0.00000000E+00  0.00000000E+00  0.00000000E+00
  0.00000000E+00  0.00000000E+00  0.00000000E+00
  0.00000000E+00  0.00000000E+00  0.00000000E+00
  0.00000000E+00  0.00000000E+00  0.00000000E+00
  0.00000000E+00  0.00000000E+00  0.00000000E+00
