CONTCAR                                 
   1.00000000000000     
    13.0608997344999995    0.0000000000000000    0.0000000000000000
    -3.2652307411999999   18.2355734656999999    0.0000000000000000
     0.0000000000000000    0.0000000000000000   18.6539993286000012
   Ta   Pd   S 
    16     8    48
Direct
  0.0873883369942476  0.3496098928572368  0.5240659376305127
  0.1626116770057535  0.1503900761427642  0.4759340623694873
  0.3373883179942425  0.3496098928572368  0.5240659376305127
  0.4126116590057521  0.1503900761427642  0.4759340623694873
  0.5873883179942425  0.3496098928572368  0.5240659376305127
  0.6626116590057520  0.1503900761427642  0.4759340623694873
  0.8373883549942491  0.3496098928572368  0.5240659376305127
  0.9126116950057550  0.1503900761427642  0.4759340623694873
  0.0873883259942431  0.8496098748572354  0.5240659376305127
  0.1626116790057537  0.6503900711427673  0.4759340623694873
  0.3373883169942459  0.8496098748572354  0.5240659376305127
  0.4126116790057537  0.6503900711427673  0.4759340623694873
  0.5873883349942475  0.8496098748572354  0.5240659376305127
  0.6626116430057507  0.6503900711427673  0.4759340623694873
  0.8373883719942470  0.8496098748572354  0.5240659376305127
  0.9126117160057532  0.6503900711427673  0.4759340623694873
 -0.0000000000000000  0.0000000000000000  0.5000000000000000
  0.2500000000000000  0.0000000000000000  0.5000000000000000
  0.5000000000000000  0.0000000000000000  0.5000000000000000
  0.7500000369999995  0.0000000000000000  0.5000000000000000
  0.9999999990000035  0.4999999819999985  0.5000000000000000
  0.2499999990000035  0.4999999819999985  0.5000000000000000
  0.5000000169999979  0.4999999819999985  0.5000000000000000
  0.7500000539999974  0.4999999819999985  0.5000000000000000
  0.1893814895642848  0.2574365434153954  0.5693856895323398
  0.0269585436074871  0.1080752790565265  0.5683159455007397
  0.2230414653925172  0.3919247169434732  0.4316840034992668
  0.0606184964357140  0.2425634385846102  0.4306143104676603
  0.2298713039159898  0.4194055211980138  0.5981087916938436
  0.0201286850840057  0.0805944488019837  0.4018911833061579
  0.4393814895642849  0.2574365434153954  0.5693856895323398
  0.2769585546074845  0.1080752790565265  0.5683159455007397
  0.4730414473925156  0.3919247169434732  0.4316840034992668
  0.3106185274357130  0.2425634385846102  0.4306143104676603
  0.4798713309159885  0.4194055211980138  0.5981087916938436
  0.2701287010840070  0.0805944488019837  0.4018911833061579
  0.6893814895642848  0.2574365434153954  0.5693856895323398
  0.5269585736074825  0.1080752790565265  0.5683159455007397
  0.7230414103925161  0.3919247169434732  0.4316840034992668
  0.5606185274357131  0.2425634385846102  0.4306143104676603
  0.7298713309159885  0.4194055211980138  0.5981087916938436
  0.5201286830840055  0.0805944488019837  0.4018911833061579
  0.9393814525642853  0.2574365434153954  0.5693856895323398
  0.7769585366074830  0.1080752790565265  0.5683159455007397
  0.9730415203925110  0.3919247169434732  0.4316840034992668
  0.8106184544357106  0.2425634385846102  0.4306143104676603
  0.9798712949159927  0.4194055211980138  0.5981087916938436
  0.7701286090840065  0.0805944488019837  0.4018911833061579
  0.1893814875642847  0.7574365254153939  0.5693856895323398
  0.0269585456074873  0.6080753000565247  0.5683159455007397
  0.2230414643925135  0.8919246989434717  0.4316840034992668
  0.0606185084357150  0.7425634205846088  0.4306143104676603
  0.2298713049159935  0.9194054771980101  0.5981087916938436
  0.0201286910840062  0.5805944698019890  0.4018911833061579
  0.4393814695642903  0.7574365254153939  0.5693856895323398
  0.2769585546074845  0.6080753000565247  0.5683159455007397
  0.4730414463925120  0.8919246989434717  0.4316840034992668
  0.3106185264357094  0.7425634205846088  0.4306143104676603
  0.4798713239159915  0.9194054771980101  0.5981087916938436
  0.2701287000840105  0.5805944698019890  0.4018911833061579
  0.6893815065642898  0.7574365254153939  0.5693856895323398
  0.5269585636074888  0.6080753000565247  0.5683159455007397
  0.7230414273925140  0.8919246989434717  0.4316840034992668
  0.5606185084357150  0.7425634205846088  0.4306143104676603
  0.7298713419159930  0.9194054771980101  0.5981087916938436
  0.5201286730840118  0.5805944698019890  0.4018911833061579
  0.9393814695642903  0.7574365254153939  0.5693856895323398
  0.7769585636074888  0.6080753000565247  0.5683159455007397
  0.9730414643925135  0.8919246989434717  0.4316840034992668
  0.8106184724357121  0.7425634205846088  0.4306143104676603
  0.9798713049159935  0.9194054771980101  0.5981087916938436
  0.7701286360840123  0.5805944698019890  0.4018911833061579
 
  0.00000000E+00  0.00000000E+00  0.00000000E+00
  0.00000000E+00  0.00000000E+00  0.00000000E+00
  0.00000000E+00  0.00000000E+00  0.00000000E+00
  0.00000000E+00  0.00000000E+00  0.00000000E+00
  0.00000000E+00  0.00000000E+00  0.00000000E+00
  0.00000000E+00  0.00000000E+00  0.00000000E+00
  0.00000000E+00  0.00000000E+00  0.00000000E+00
  0.00000000E+00  0.00000000E+00  0.00000000E+00
  0.00000000E+00  0.00000000E+00  0.00000000E+00
  0.00000000E+00  0.00000000E+00  0.00000000E+00
  0.00000000E+00  0.00000000E+00  0.00000000E+00
  0.00000000E+00  0.00000000E+00  0.00000000E+00
  0.00000000E+00  0.00000000E+00  0.00000000E+00
  0.00000000E+00  0.00000000E+00  0.00000000E+00
  0.00000000E+00  0.00000000E+00  0.00000000E+00
  0.00000000E+00  0.00000000E+00  0.00000000E+00
  0.00000000E+00  0.00000000E+00  0.00000000E+00
  0.00000000E+00  0.00000000E+00  0.00000000E+00
  0.00000000E+00  0.00000000E+00  0.00000000E+00
  0.00000000E+00  0.00000000E+00  0.00000000E+00
  0.00000000E+00  0.00000000E+00  0.00000000E+00
  0.00000000E+00  0.00000000E+00  0.00000000E+00
  0.00000000E+00  0.00000000E+00  0.00000000E+00
  0.00000000E+00  0.00000000E+00  0.00000000E+00
  0.00000000E+00  0.00000000E+00  0.00000000E+00
  0.00000000E+00  0.00000000E+00  0.00000000E+00
  0.00000000E+00  0.00000000E+00  0.00000000E+00
  0.00000000E+00  0.00000000E+00  0.00000000E+00
  0.00000000E+00  0.00000000E+00  0.00000000E+00
  0.00000000E+00  0.00000000E+00  0.00000000E+00
  0.00000000E+00  0.00000000E+00  0.00000000E+00
  0.00000000E+00  0.00000000E+00  0.00000000E+00
  0.00000000E+00  0.00000000E+00  0.00000000E+00
  0.00000000E+00  0.00000000E+00  0.00000000E+00
  0.00000000E+00  0.00000000E+00  0.00000000E+00
  0.00000000E+00  0.00000000E+00  0.00000000E+00
  0.00000000E+00  0.00000000E+00  0.00000000E+00
  0.00000000E+00  0.00000000E+00  0.00000000E+00
  0.00000000E+00  0.00000000E+00  0.00000000E+00
  0.00000000E+00  0.00000000E+00  0.00000000E+00
  0.00000000E+00  0.00000000E+00  0.00000000E+00
  0.00000000E+00  0.00000000E+00  0.00000000E+00
  0.00000000E+00  0.00000000E+00  0.00000000E+00
  0.00000000E+00  0.00000000E+00  0.00000000E+00
  0.00000000E+00  0.00000000E+00  0.00000000E+00
  0.00000000E+00  0.00000000E+00  0.00000000E+00
  0.00000000E+00  0.00000000E+00  0.00000000E+00
  0.00000000E+00  0.00000000E+00  0.00000000E+00
  0.00000000E+00  0.00000000E+00  0.00000000E+00
  0.00000000E+00  0.00000000E+00  0.00000000E+00
  0.00000000E+00  0.00000000E+00  0.00000000E+00
  0.00000000E+00  0.00000000E+00  0.00000000E+00
  0.00000000E+00  0.00000000E+00  0.00000000E+00
  0.00000000E+00  0.00000000E+00  0.00000000E+00
  0.00000000E+00  0.00000000E+00  0.00000000E+00
  0.00000000E+00  0.00000000E+00  0.00000000E+00
  0.00000000E+00  0.00000000E+00  0.00000000E+00
  0.00000000E+00  0.00000000E+00  0.00000000E+00
  0.00000000E+00  0.00000000E+00  0.00000000E+00
  0.00000000E+00  0.00000000E+00  0.00000000E+00
  0.00000000E+00  0.00000000E+00  0.00000000E+00
  0.00000000E+00  0.00000000E+00  0.00000000E+00
  0.00000000E+00  0.00000000E+00  0.00000000E+00
  0.00000000E+00  0.00000000E+00  0.00000000E+00
  0.00000000E+00  0.00000000E+00  0.00000000E+00
  0.00000000E+00  0.00000000E+00  0.00000000E+00
  0.00000000E+00  0.00000000E+00  0.00000000E+00
  0.00000000E+00  0.00000000E+00  0.00000000E+00
  0.00000000E+00  0.00000000E+00  0.00000000E+00
  0.00000000E+00  0.00000000E+00  0.00000000E+00
  0.00000000E+00  0.00000000E+00  0.00000000E+00
  0.00000000E+00  0.00000000E+00  0.00000000E+00
