CONTCAR\(2)                             
   1.00000000000000     
    10.5118999480999999    0.0000000000000000    0.0000000000000000
     5.2559499741000000    9.1035723971000007    0.0000000000000000
     0.0000000000000000    0.0000000000000000   21.1504993439000017
   Zr   Br   O 
    18    18     1
Direct
  0.2222298117791498  0.2222169536546223  0.4451098548482416
  0.1111083484533012  0.1110792027646812  0.5557693215294731
  0.5555887475020050  0.2220807992175303  0.4448392334746056
  0.4445222254569210  0.1110826948402059  0.5557681915519330
  0.8890607113760473  0.2220802334468931  0.4448132656949119
  0.7773983249424423  0.1119878322013017  0.5555513379421366
  0.2221270211284855  0.5555287527434620  0.4448394329664342
  0.1111102702987662  0.4444995160089498  0.5557668018640450
  0.5555712335557097  0.5555615220683500  0.4447809997947501
  0.4446847337130396  0.4446027155988622  0.5557302052823008
  0.8890426946431738  0.5555541959167054  0.4448175734751013
  0.7774704685726608  0.4446232714063027  0.5557228285079002
  0.2221222972493025  0.8890465707111984  0.4448219606550798
  0.1121217525754262  0.7773024972873520  0.5555632688089797
  0.5555940688349487  0.8890247001378034  0.4448266257709019
  0.4446972118873972  0.7774253254077763  0.5557318962672461
  0.8889999530164506  0.8888888067527198  0.4451493729957640
  0.7774316572668819  0.7773533371635681  0.5555437779381576
  0.0000189349756670 -0.0000410495438969  0.6449599437011813
 -0.0000189912309546 -0.0000477821441385  0.3552963692074942
  0.3335473460759141  0.9996495144904555  0.6450809310174367
  0.3332583683096774  0.0002227190332166  0.3554001183601182
  0.6667620556891464 -0.0000227416814712  0.6449460316872051
  0.6668113603110277 -0.0000595214667726  0.3553069625020720
  0.9997111690780023  0.3334948504814990  0.6450646052656068
  0.0002198058026315  0.3332359354152624  0.3553731167855758
  0.3335410926353261  0.3335030456740336  0.6450793317008833
  0.3332345426620832  0.3331917569552476  0.3554247844739101
  0.6660345939222935  0.3347493465505588  0.6442419923927566
  0.6666865612381860  0.3332943740130318  0.3552624826611981
  0.0000286065021491  0.6667200148507639  0.6449535137718252
 -0.0000297719237270  0.6667668397406195  0.3553073392807610
  0.3348865934997984  0.6659341994985527  0.6442439092972094
  0.3333029513995828  0.6666828231028777  0.3552719905603723
  0.6660569822127846  0.6659613245456908  0.6442574660850630
  0.6666905049754669  0.6666945401679588  0.3552581282294028
  0.5558553096128243  0.5554518049882257  0.7413849866519547
 
  0.00000000E+00  0.00000000E+00  0.00000000E+00
  0.00000000E+00  0.00000000E+00  0.00000000E+00
  0.00000000E+00  0.00000000E+00  0.00000000E+00
  0.00000000E+00  0.00000000E+00  0.00000000E+00
  0.00000000E+00  0.00000000E+00  0.00000000E+00
  0.00000000E+00  0.00000000E+00  0.00000000E+00
  0.00000000E+00  0.00000000E+00  0.00000000E+00
  0.00000000E+00  0.00000000E+00  0.00000000E+00
  0.00000000E+00  0.00000000E+00  0.00000000E+00
  0.00000000E+00  0.00000000E+00  0.00000000E+00
  0.00000000E+00  0.00000000E+00  0.00000000E+00
  0.00000000E+00  0.00000000E+00  0.00000000E+00
  0.00000000E+00  0.00000000E+00  0.00000000E+00
  0.00000000E+00  0.00000000E+00  0.00000000E+00
  0.00000000E+00  0.00000000E+00  0.00000000E+00
  0.00000000E+00  0.00000000E+00  0.00000000E+00
  0.00000000E+00  0.00000000E+00  0.00000000E+00
  0.00000000E+00  0.00000000E+00  0.00000000E+00
  0.00000000E+00  0.00000000E+00  0.00000000E+00
  0.00000000E+00  0.00000000E+00  0.00000000E+00
  0.00000000E+00  0.00000000E+00  0.00000000E+00
  0.00000000E+00  0.00000000E+00  0.00000000E+00
  0.00000000E+00  0.00000000E+00  0.00000000E+00
  0.00000000E+00  0.00000000E+00  0.00000000E+00
  0.00000000E+00  0.00000000E+00  0.00000000E+00
  0.00000000E+00  0.00000000E+00  0.00000000E+00
  0.00000000E+00  0.00000000E+00  0.00000000E+00
  0.00000000E+00  0.00000000E+00  0.00000000E+00
  0.00000000E+00  0.00000000E+00  0.00000000E+00
  0.00000000E+00  0.00000000E+00  0.00000000E+00
  0.00000000E+00  0.00000000E+00  0.00000000E+00
  0.00000000E+00  0.00000000E+00  0.00000000E+00
  0.00000000E+00  0.00000000E+00  0.00000000E+00
  0.00000000E+00  0.00000000E+00  0.00000000E+00
  0.00000000E+00  0.00000000E+00  0.00000000E+00
  0.00000000E+00  0.00000000E+00  0.00000000E+00
  0.00000000E+00  0.00000000E+00  0.00000000E+00
