 Y2 C2 Br2                              
   1.00000000000000     
     3.7625090271676034    0.0000000000000000    0.0000000000000000
    -1.8812550069555225    3.4813401407384963    0.0000000000000000
     0.0000000000000000    0.0000000000000000   21.6142871367420000
   Y    C    Br
     2     2     2
Direct
  0.6017504651951811  0.2040081723297149  0.5672199518717207
  0.3515480948035687  0.7026512991920129  0.4327821340440678
  0.8974956263894356  0.7948826798360500  0.5173659404884674
  0.0558441003440180  0.1118393073797534  0.4826330809566031
  0.2600306845543017  0.5200409137154551  0.6542228174493943
  0.6928540287134979  0.3856216275470103  0.3457760751897467
 
  0.00000000E+00  0.00000000E+00  0.00000000E+00
  0.00000000E+00  0.00000000E+00  0.00000000E+00
  0.00000000E+00  0.00000000E+00  0.00000000E+00
  0.00000000E+00  0.00000000E+00  0.00000000E+00
  0.00000000E+00  0.00000000E+00  0.00000000E+00
  0.00000000E+00  0.00000000E+00  0.00000000E+00
