G   60   57    1    0.005     # Parameters to Generate KPOINTS (Don't Edit This Line)
    1711
Reciprocal lattice
    0.000000000000    0.000000000000    0.000000000000       1
    0.016666666667    0.000000000000    0.000000000000       2
    0.033333333333    0.000000000000    0.000000000000       2
    0.050000000000    0.000000000000    0.000000000000       2
    0.066666666667    0.000000000000    0.000000000000       2
    0.083333333333    0.000000000000    0.000000000000       2
    0.100000000000    0.000000000000    0.000000000000       2
    0.116666666667    0.000000000000    0.000000000000       2
    0.133333333333    0.000000000000    0.000000000000       2
    0.150000000000    0.000000000000    0.000000000000       2
    0.166666666667    0.000000000000    0.000000000000       2
    0.183333333333    0.000000000000    0.000000000000       2
    0.200000000000    0.000000000000    0.000000000000       2
    0.216666666667    0.000000000000    0.000000000000       2
    0.233333333333    0.000000000000    0.000000000000       2
    0.250000000000    0.000000000000    0.000000000000       2
    0.266666666667    0.000000000000    0.000000000000       2
    0.283333333333    0.000000000000    0.000000000000       2
    0.300000000000    0.000000000000    0.000000000000       2
    0.316666666667    0.000000000000    0.000000000000       2
    0.333333333333    0.000000000000    0.000000000000       2
    0.350000000000    0.000000000000    0.000000000000       2
    0.366666666667    0.000000000000    0.000000000000       2
    0.383333333333    0.000000000000    0.000000000000       2
    0.400000000000    0.000000000000    0.000000000000       2
    0.416666666667    0.000000000000    0.000000000000       2
    0.433333333333    0.000000000000    0.000000000000       2
    0.450000000000    0.000000000000    0.000000000000       2
    0.466666666667    0.000000000000    0.000000000000       2
    0.483333333333    0.000000000000    0.000000000000       2
    0.500000000000    0.000000000000    0.000000000000       1
    0.000000000000    0.017543859649    0.000000000000       2
    0.016666666667    0.017543859649    0.000000000000       2
    0.033333333333    0.017543859649    0.000000000000       2
    0.050000000000    0.017543859649    0.000000000000       2
    0.066666666667    0.017543859649    0.000000000000       2
    0.083333333333    0.017543859649    0.000000000000       2
    0.100000000000    0.017543859649    0.000000000000       2
    0.116666666667    0.017543859649    0.000000000000       2
    0.133333333333    0.017543859649    0.000000000000       2
    0.150000000000    0.017543859649    0.000000000000       2
    0.166666666667    0.017543859649    0.000000000000       2
    0.183333333333    0.017543859649    0.000000000000       2
    0.200000000000    0.017543859649    0.000000000000       2
    0.216666666667    0.017543859649    0.000000000000       2
    0.233333333333    0.017543859649    0.000000000000       2
    0.250000000000    0.017543859649    0.000000000000       2
    0.266666666667    0.017543859649    0.000000000000       2
    0.283333333333    0.017543859649    0.000000000000       2
    0.300000000000    0.017543859649    0.000000000000       2
    0.316666666667    0.017543859649    0.000000000000       2
    0.333333333333    0.017543859649    0.000000000000       2
    0.350000000000    0.017543859649    0.000000000000       2
    0.366666666667    0.017543859649    0.000000000000       2
    0.383333333333    0.017543859649    0.000000000000       2
    0.400000000000    0.017543859649    0.000000000000       2
    0.416666666667    0.017543859649    0.000000000000       2
    0.433333333333    0.017543859649    0.000000000000       2
    0.450000000000    0.017543859649    0.000000000000       2
    0.466666666667    0.017543859649    0.000000000000       2
    0.483333333333    0.017543859649    0.000000000000       2
    0.500000000000    0.017543859649    0.000000000000       2
   -0.483333333333    0.017543859649    0.000000000000       2
   -0.466666666667    0.017543859649    0.000000000000       2
   -0.450000000000    0.017543859649    0.000000000000       2
   -0.433333333333    0.017543859649    0.000000000000       2
   -0.416666666667    0.017543859649    0.000000000000       2
   -0.400000000000    0.017543859649    0.000000000000       2
   -0.383333333333    0.017543859649    0.000000000000       2
   -0.366666666667    0.017543859649    0.000000000000       2
   -0.350000000000    0.017543859649    0.000000000000       2
   -0.333333333333    0.017543859649    0.000000000000       2
   -0.316666666667    0.017543859649    0.000000000000       2
   -0.300000000000    0.017543859649    0.000000000000       2
   -0.283333333333    0.017543859649    0.000000000000       2
   -0.266666666667    0.017543859649    0.000000000000       2
   -0.250000000000    0.017543859649    0.000000000000       2
   -0.233333333333    0.017543859649    0.000000000000       2
   -0.216666666667    0.017543859649    0.000000000000       2
   -0.200000000000    0.017543859649    0.000000000000       2
   -0.183333333333    0.017543859649    0.000000000000       2
   -0.166666666667    0.017543859649    0.000000000000       2
   -0.150000000000    0.017543859649    0.000000000000       2
   -0.133333333333    0.017543859649    0.000000000000       2
   -0.116666666667    0.017543859649    0.000000000000       2
   -0.100000000000    0.017543859649    0.000000000000       2
   -0.083333333333    0.017543859649    0.000000000000       2
   -0.066666666667    0.017543859649    0.000000000000       2
   -0.050000000000    0.017543859649    0.000000000000       2
   -0.033333333333    0.017543859649    0.000000000000       2
   -0.016666666667    0.017543859649    0.000000000000       2
    0.000000000000    0.035087719298    0.000000000000       2
    0.016666666667    0.035087719298    0.000000000000       2
    0.033333333333    0.035087719298    0.000000000000       2
    0.050000000000    0.035087719298    0.000000000000       2
    0.066666666667    0.035087719298    0.000000000000       2
    0.083333333333    0.035087719298    0.000000000000       2
    0.100000000000    0.035087719298    0.000000000000       2
    0.116666666667    0.035087719298    0.000000000000       2
    0.133333333333    0.035087719298    0.000000000000       2
    0.150000000000    0.035087719298    0.000000000000       2
    0.166666666667    0.035087719298    0.000000000000       2
    0.183333333333    0.035087719298    0.000000000000       2
    0.200000000000    0.035087719298    0.000000000000       2
    0.216666666667    0.035087719298    0.000000000000       2
    0.233333333333    0.035087719298    0.000000000000       2
    0.250000000000    0.035087719298    0.000000000000       2
    0.266666666667    0.035087719298    0.000000000000       2
    0.283333333333    0.035087719298    0.000000000000       2
    0.300000000000    0.035087719298    0.000000000000       2
    0.316666666667    0.035087719298    0.000000000000       2
    0.333333333333    0.035087719298    0.000000000000       2
    0.350000000000    0.035087719298    0.000000000000       2
    0.366666666667    0.035087719298    0.000000000000       2
    0.383333333333    0.035087719298    0.000000000000       2
    0.400000000000    0.035087719298    0.000000000000       2
    0.416666666667    0.035087719298    0.000000000000       2
    0.433333333333    0.035087719298    0.000000000000       2
    0.450000000000    0.035087719298    0.000000000000       2
    0.466666666667    0.035087719298    0.000000000000       2
    0.483333333333    0.035087719298    0.000000000000       2
    0.500000000000    0.035087719298    0.000000000000       2
   -0.483333333333    0.035087719298    0.000000000000       2
   -0.466666666667    0.035087719298    0.000000000000       2
   -0.450000000000    0.035087719298    0.000000000000       2
   -0.433333333333    0.035087719298    0.000000000000       2
   -0.416666666667    0.035087719298    0.000000000000       2
   -0.400000000000    0.035087719298    0.000000000000       2
   -0.383333333333    0.035087719298    0.000000000000       2
   -0.366666666667    0.035087719298    0.000000000000       2
   -0.350000000000    0.035087719298    0.000000000000       2
   -0.333333333333    0.035087719298    0.000000000000       2
   -0.316666666667    0.035087719298    0.000000000000       2
   -0.300000000000    0.035087719298    0.000000000000       2
   -0.283333333333    0.035087719298    0.000000000000       2
   -0.266666666667    0.035087719298    0.000000000000       2
   -0.250000000000    0.035087719298    0.000000000000       2
   -0.233333333333    0.035087719298    0.000000000000       2
   -0.216666666667    0.035087719298    0.000000000000       2
   -0.200000000000    0.035087719298    0.000000000000       2
   -0.183333333333    0.035087719298    0.000000000000       2
   -0.166666666667    0.035087719298    0.000000000000       2
   -0.150000000000    0.035087719298    0.000000000000       2
   -0.133333333333    0.035087719298    0.000000000000       2
   -0.116666666667    0.035087719298    0.000000000000       2
   -0.100000000000    0.035087719298    0.000000000000       2
   -0.083333333333    0.035087719298    0.000000000000       2
   -0.066666666667    0.035087719298    0.000000000000       2
   -0.050000000000    0.035087719298    0.000000000000       2
   -0.033333333333    0.035087719298    0.000000000000       2
   -0.016666666667    0.035087719298    0.000000000000       2
    0.000000000000    0.052631578947    0.000000000000       2
    0.016666666667    0.052631578947    0.000000000000       2
    0.033333333333    0.052631578947    0.000000000000       2
    0.050000000000    0.052631578947    0.000000000000       2
    0.066666666667    0.052631578947    0.000000000000       2
    0.083333333333    0.052631578947    0.000000000000       2
    0.100000000000    0.052631578947    0.000000000000       2
    0.116666666667    0.052631578947    0.000000000000       2
    0.133333333333    0.052631578947    0.000000000000       2
    0.150000000000    0.052631578947    0.000000000000       2
    0.166666666667    0.052631578947    0.000000000000       2
    0.183333333333    0.052631578947    0.000000000000       2
    0.200000000000    0.052631578947    0.000000000000       2
    0.216666666667    0.052631578947    0.000000000000       2
    0.233333333333    0.052631578947    0.000000000000       2
    0.250000000000    0.052631578947    0.000000000000       2
    0.266666666667    0.052631578947    0.000000000000       2
    0.283333333333    0.052631578947    0.000000000000       2
    0.300000000000    0.052631578947    0.000000000000       2
    0.316666666667    0.052631578947    0.000000000000       2
    0.333333333333    0.052631578947    0.000000000000       2
    0.350000000000    0.052631578947    0.000000000000       2
    0.366666666667    0.052631578947    0.000000000000       2
    0.383333333333    0.052631578947    0.000000000000       2
    0.400000000000    0.052631578947    0.000000000000       2
    0.416666666667    0.052631578947    0.000000000000       2
    0.433333333333    0.052631578947    0.000000000000       2
    0.450000000000    0.052631578947    0.000000000000       2
    0.466666666667    0.052631578947    0.000000000000       2
    0.483333333333    0.052631578947    0.000000000000       2
    0.500000000000    0.052631578947    0.000000000000       2
   -0.483333333333    0.052631578947    0.000000000000       2
   -0.466666666667    0.052631578947    0.000000000000       2
   -0.450000000000    0.052631578947    0.000000000000       2
   -0.433333333333    0.052631578947    0.000000000000       2
   -0.416666666667    0.052631578947    0.000000000000       2
   -0.400000000000    0.052631578947    0.000000000000       2
   -0.383333333333    0.052631578947    0.000000000000       2
   -0.366666666667    0.052631578947    0.000000000000       2
   -0.350000000000    0.052631578947    0.000000000000       2
   -0.333333333333    0.052631578947    0.000000000000       2
   -0.316666666667    0.052631578947    0.000000000000       2
   -0.300000000000    0.052631578947    0.000000000000       2
   -0.283333333333    0.052631578947    0.000000000000       2
   -0.266666666667    0.052631578947    0.000000000000       2
   -0.250000000000    0.052631578947    0.000000000000       2
   -0.233333333333    0.052631578947    0.000000000000       2
   -0.216666666667    0.052631578947    0.000000000000       2
   -0.200000000000    0.052631578947    0.000000000000       2
   -0.183333333333    0.052631578947    0.000000000000       2
   -0.166666666667    0.052631578947    0.000000000000       2
   -0.150000000000    0.052631578947    0.000000000000       2
   -0.133333333333    0.052631578947    0.000000000000       2
   -0.116666666667    0.052631578947    0.000000000000       2
   -0.100000000000    0.052631578947    0.000000000000       2
   -0.083333333333    0.052631578947    0.000000000000       2
   -0.066666666667    0.052631578947    0.000000000000       2
   -0.050000000000    0.052631578947    0.000000000000       2
   -0.033333333333    0.052631578947    0.000000000000       2
   -0.016666666667    0.052631578947    0.000000000000       2
    0.000000000000    0.070175438596    0.000000000000       2
    0.016666666667    0.070175438596    0.000000000000       2
    0.033333333333    0.070175438596    0.000000000000       2
    0.050000000000    0.070175438596    0.000000000000       2
    0.066666666667    0.070175438596    0.000000000000       2
    0.083333333333    0.070175438596    0.000000000000       2
    0.100000000000    0.070175438596    0.000000000000       2
    0.116666666667    0.070175438596    0.000000000000       2
    0.133333333333    0.070175438596    0.000000000000       2
    0.150000000000    0.070175438596    0.000000000000       2
    0.166666666667    0.070175438596    0.000000000000       2
    0.183333333333    0.070175438596    0.000000000000       2
    0.200000000000    0.070175438596    0.000000000000       2
    0.216666666667    0.070175438596    0.000000000000       2
    0.233333333333    0.070175438596    0.000000000000       2
    0.250000000000    0.070175438596    0.000000000000       2
    0.266666666667    0.070175438596    0.000000000000       2
    0.283333333333    0.070175438596    0.000000000000       2
    0.300000000000    0.070175438596    0.000000000000       2
    0.316666666667    0.070175438596    0.000000000000       2
    0.333333333333    0.070175438596    0.000000000000       2
    0.350000000000    0.070175438596    0.000000000000       2
    0.366666666667    0.070175438596    0.000000000000       2
    0.383333333333    0.070175438596    0.000000000000       2
    0.400000000000    0.070175438596    0.000000000000       2
    0.416666666667    0.070175438596    0.000000000000       2
    0.433333333333    0.070175438596    0.000000000000       2
    0.450000000000    0.070175438596    0.000000000000       2
    0.466666666667    0.070175438596    0.000000000000       2
    0.483333333333    0.070175438596    0.000000000000       2
    0.500000000000    0.070175438596    0.000000000000       2
   -0.483333333333    0.070175438596    0.000000000000       2
   -0.466666666667    0.070175438596    0.000000000000       2
   -0.450000000000    0.070175438596    0.000000000000       2
   -0.433333333333    0.070175438596    0.000000000000       2
   -0.416666666667    0.070175438596    0.000000000000       2
   -0.400000000000    0.070175438596    0.000000000000       2
   -0.383333333333    0.070175438596    0.000000000000       2
   -0.366666666667    0.070175438596    0.000000000000       2
   -0.350000000000    0.070175438596    0.000000000000       2
   -0.333333333333    0.070175438596    0.000000000000       2
   -0.316666666667    0.070175438596    0.000000000000       2
   -0.300000000000    0.070175438596    0.000000000000       2
   -0.283333333333    0.070175438596    0.000000000000       2
   -0.266666666667    0.070175438596    0.000000000000       2
   -0.250000000000    0.070175438596    0.000000000000       2
   -0.233333333333    0.070175438596    0.000000000000       2
   -0.216666666667    0.070175438596    0.000000000000       2
   -0.200000000000    0.070175438596    0.000000000000       2
   -0.183333333333    0.070175438596    0.000000000000       2
   -0.166666666667    0.070175438596    0.000000000000       2
   -0.150000000000    0.070175438596    0.000000000000       2
   -0.133333333333    0.070175438596    0.000000000000       2
   -0.116666666667    0.070175438596    0.000000000000       2
   -0.100000000000    0.070175438596    0.000000000000       2
   -0.083333333333    0.070175438596    0.000000000000       2
   -0.066666666667    0.070175438596    0.000000000000       2
   -0.050000000000    0.070175438596    0.000000000000       2
   -0.033333333333    0.070175438596    0.000000000000       2
   -0.016666666667    0.070175438596    0.000000000000       2
    0.000000000000    0.087719298246    0.000000000000       2
    0.016666666667    0.087719298246    0.000000000000       2
    0.033333333333    0.087719298246    0.000000000000       2
    0.050000000000    0.087719298246    0.000000000000       2
    0.066666666667    0.087719298246    0.000000000000       2
    0.083333333333    0.087719298246    0.000000000000       2
    0.100000000000    0.087719298246    0.000000000000       2
    0.116666666667    0.087719298246    0.000000000000       2
    0.133333333333    0.087719298246    0.000000000000       2
    0.150000000000    0.087719298246    0.000000000000       2
    0.166666666667    0.087719298246    0.000000000000       2
    0.183333333333    0.087719298246    0.000000000000       2
    0.200000000000    0.087719298246    0.000000000000       2
    0.216666666667    0.087719298246    0.000000000000       2
    0.233333333333    0.087719298246    0.000000000000       2
    0.250000000000    0.087719298246    0.000000000000       2
    0.266666666667    0.087719298246    0.000000000000       2
    0.283333333333    0.087719298246    0.000000000000       2
    0.300000000000    0.087719298246    0.000000000000       2
    0.316666666667    0.087719298246    0.000000000000       2
    0.333333333333    0.087719298246    0.000000000000       2
    0.350000000000    0.087719298246    0.000000000000       2
    0.366666666667    0.087719298246    0.000000000000       2
    0.383333333333    0.087719298246    0.000000000000       2
    0.400000000000    0.087719298246    0.000000000000       2
    0.416666666667    0.087719298246    0.000000000000       2
    0.433333333333    0.087719298246    0.000000000000       2
    0.450000000000    0.087719298246    0.000000000000       2
    0.466666666667    0.087719298246    0.000000000000       2
    0.483333333333    0.087719298246    0.000000000000       2
    0.500000000000    0.087719298246    0.000000000000       2
   -0.483333333333    0.087719298246    0.000000000000       2
   -0.466666666667    0.087719298246    0.000000000000       2
   -0.450000000000    0.087719298246    0.000000000000       2
   -0.433333333333    0.087719298246    0.000000000000       2
   -0.416666666667    0.087719298246    0.000000000000       2
   -0.400000000000    0.087719298246    0.000000000000       2
   -0.383333333333    0.087719298246    0.000000000000       2
   -0.366666666667    0.087719298246    0.000000000000       2
   -0.350000000000    0.087719298246    0.000000000000       2
   -0.333333333333    0.087719298246    0.000000000000       2
   -0.316666666667    0.087719298246    0.000000000000       2
   -0.300000000000    0.087719298246    0.000000000000       2
   -0.283333333333    0.087719298246    0.000000000000       2
   -0.266666666667    0.087719298246    0.000000000000       2
   -0.250000000000    0.087719298246    0.000000000000       2
   -0.233333333333    0.087719298246    0.000000000000       2
   -0.216666666667    0.087719298246    0.000000000000       2
   -0.200000000000    0.087719298246    0.000000000000       2
   -0.183333333333    0.087719298246    0.000000000000       2
   -0.166666666667    0.087719298246    0.000000000000       2
   -0.150000000000    0.087719298246    0.000000000000       2
   -0.133333333333    0.087719298246    0.000000000000       2
   -0.116666666667    0.087719298246    0.000000000000       2
   -0.100000000000    0.087719298246    0.000000000000       2
   -0.083333333333    0.087719298246    0.000000000000       2
   -0.066666666667    0.087719298246    0.000000000000       2
   -0.050000000000    0.087719298246    0.000000000000       2
   -0.033333333333    0.087719298246    0.000000000000       2
   -0.016666666667    0.087719298246    0.000000000000       2
    0.000000000000    0.105263157895    0.000000000000       2
    0.016666666667    0.105263157895    0.000000000000       2
    0.033333333333    0.105263157895    0.000000000000       2
    0.050000000000    0.105263157895    0.000000000000       2
    0.066666666667    0.105263157895    0.000000000000       2
    0.083333333333    0.105263157895    0.000000000000       2
    0.100000000000    0.105263157895    0.000000000000       2
    0.116666666667    0.105263157895    0.000000000000       2
    0.133333333333    0.105263157895    0.000000000000       2
    0.150000000000    0.105263157895    0.000000000000       2
    0.166666666667    0.105263157895    0.000000000000       2
    0.183333333333    0.105263157895    0.000000000000       2
    0.200000000000    0.105263157895    0.000000000000       2
    0.216666666667    0.105263157895    0.000000000000       2
    0.233333333333    0.105263157895    0.000000000000       2
    0.250000000000    0.105263157895    0.000000000000       2
    0.266666666667    0.105263157895    0.000000000000       2
    0.283333333333    0.105263157895    0.000000000000       2
    0.300000000000    0.105263157895    0.000000000000       2
    0.316666666667    0.105263157895    0.000000000000       2
    0.333333333333    0.105263157895    0.000000000000       2
    0.350000000000    0.105263157895    0.000000000000       2
    0.366666666667    0.105263157895    0.000000000000       2
    0.383333333333    0.105263157895    0.000000000000       2
    0.400000000000    0.105263157895    0.000000000000       2
    0.416666666667    0.105263157895    0.000000000000       2
    0.433333333333    0.105263157895    0.000000000000       2
    0.450000000000    0.105263157895    0.000000000000       2
    0.466666666667    0.105263157895    0.000000000000       2
    0.483333333333    0.105263157895    0.000000000000       2
    0.500000000000    0.105263157895    0.000000000000       2
   -0.483333333333    0.105263157895    0.000000000000       2
   -0.466666666667    0.105263157895    0.000000000000       2
   -0.450000000000    0.105263157895    0.000000000000       2
   -0.433333333333    0.105263157895    0.000000000000       2
   -0.416666666667    0.105263157895    0.000000000000       2
   -0.400000000000    0.105263157895    0.000000000000       2
   -0.383333333333    0.105263157895    0.000000000000       2
   -0.366666666667    0.105263157895    0.000000000000       2
   -0.350000000000    0.105263157895    0.000000000000       2
   -0.333333333333    0.105263157895    0.000000000000       2
   -0.316666666667    0.105263157895    0.000000000000       2
   -0.300000000000    0.105263157895    0.000000000000       2
   -0.283333333333    0.105263157895    0.000000000000       2
   -0.266666666667    0.105263157895    0.000000000000       2
   -0.250000000000    0.105263157895    0.000000000000       2
   -0.233333333333    0.105263157895    0.000000000000       2
   -0.216666666667    0.105263157895    0.000000000000       2
   -0.200000000000    0.105263157895    0.000000000000       2
   -0.183333333333    0.105263157895    0.000000000000       2
   -0.166666666667    0.105263157895    0.000000000000       2
   -0.150000000000    0.105263157895    0.000000000000       2
   -0.133333333333    0.105263157895    0.000000000000       2
   -0.116666666667    0.105263157895    0.000000000000       2
   -0.100000000000    0.105263157895    0.000000000000       2
   -0.083333333333    0.105263157895    0.000000000000       2
   -0.066666666667    0.105263157895    0.000000000000       2
   -0.050000000000    0.105263157895    0.000000000000       2
   -0.033333333333    0.105263157895    0.000000000000       2
   -0.016666666667    0.105263157895    0.000000000000       2
    0.000000000000    0.122807017544    0.000000000000       2
    0.016666666667    0.122807017544    0.000000000000       2
    0.033333333333    0.122807017544    0.000000000000       2
    0.050000000000    0.122807017544    0.000000000000       2
    0.066666666667    0.122807017544    0.000000000000       2
    0.083333333333    0.122807017544    0.000000000000       2
    0.100000000000    0.122807017544    0.000000000000       2
    0.116666666667    0.122807017544    0.000000000000       2
    0.133333333333    0.122807017544    0.000000000000       2
    0.150000000000    0.122807017544    0.000000000000       2
    0.166666666667    0.122807017544    0.000000000000       2
    0.183333333333    0.122807017544    0.000000000000       2
    0.200000000000    0.122807017544    0.000000000000       2
    0.216666666667    0.122807017544    0.000000000000       2
    0.233333333333    0.122807017544    0.000000000000       2
    0.250000000000    0.122807017544    0.000000000000       2
    0.266666666667    0.122807017544    0.000000000000       2
    0.283333333333    0.122807017544    0.000000000000       2
    0.300000000000    0.122807017544    0.000000000000       2
    0.316666666667    0.122807017544    0.000000000000       2
    0.333333333333    0.122807017544    0.000000000000       2
    0.350000000000    0.122807017544    0.000000000000       2
    0.366666666667    0.122807017544    0.000000000000       2
    0.383333333333    0.122807017544    0.000000000000       2
    0.400000000000    0.122807017544    0.000000000000       2
    0.416666666667    0.122807017544    0.000000000000       2
    0.433333333333    0.122807017544    0.000000000000       2
    0.450000000000    0.122807017544    0.000000000000       2
    0.466666666667    0.122807017544    0.000000000000       2
    0.483333333333    0.122807017544    0.000000000000       2
    0.500000000000    0.122807017544    0.000000000000       2
   -0.483333333333    0.122807017544    0.000000000000       2
   -0.466666666667    0.122807017544    0.000000000000       2
   -0.450000000000    0.122807017544    0.000000000000       2
   -0.433333333333    0.122807017544    0.000000000000       2
   -0.416666666667    0.122807017544    0.000000000000       2
   -0.400000000000    0.122807017544    0.000000000000       2
   -0.383333333333    0.122807017544    0.000000000000       2
   -0.366666666667    0.122807017544    0.000000000000       2
   -0.350000000000    0.122807017544    0.000000000000       2
   -0.333333333333    0.122807017544    0.000000000000       2
   -0.316666666667    0.122807017544    0.000000000000       2
   -0.300000000000    0.122807017544    0.000000000000       2
   -0.283333333333    0.122807017544    0.000000000000       2
   -0.266666666667    0.122807017544    0.000000000000       2
   -0.250000000000    0.122807017544    0.000000000000       2
   -0.233333333333    0.122807017544    0.000000000000       2
   -0.216666666667    0.122807017544    0.000000000000       2
   -0.200000000000    0.122807017544    0.000000000000       2
   -0.183333333333    0.122807017544    0.000000000000       2
   -0.166666666667    0.122807017544    0.000000000000       2
   -0.150000000000    0.122807017544    0.000000000000       2
   -0.133333333333    0.122807017544    0.000000000000       2
   -0.116666666667    0.122807017544    0.000000000000       2
   -0.100000000000    0.122807017544    0.000000000000       2
   -0.083333333333    0.122807017544    0.000000000000       2
   -0.066666666667    0.122807017544    0.000000000000       2
   -0.050000000000    0.122807017544    0.000000000000       2
   -0.033333333333    0.122807017544    0.000000000000       2
   -0.016666666667    0.122807017544    0.000000000000       2
    0.000000000000    0.140350877193    0.000000000000       2
    0.016666666667    0.140350877193    0.000000000000       2
    0.033333333333    0.140350877193    0.000000000000       2
    0.050000000000    0.140350877193    0.000000000000       2
    0.066666666667    0.140350877193    0.000000000000       2
    0.083333333333    0.140350877193    0.000000000000       2
    0.100000000000    0.140350877193    0.000000000000       2
    0.116666666667    0.140350877193    0.000000000000       2
    0.133333333333    0.140350877193    0.000000000000       2
    0.150000000000    0.140350877193    0.000000000000       2
    0.166666666667    0.140350877193    0.000000000000       2
    0.183333333333    0.140350877193    0.000000000000       2
    0.200000000000    0.140350877193    0.000000000000       2
    0.216666666667    0.140350877193    0.000000000000       2
    0.233333333333    0.140350877193    0.000000000000       2
    0.250000000000    0.140350877193    0.000000000000       2
    0.266666666667    0.140350877193    0.000000000000       2
    0.283333333333    0.140350877193    0.000000000000       2
    0.300000000000    0.140350877193    0.000000000000       2
    0.316666666667    0.140350877193    0.000000000000       2
    0.333333333333    0.140350877193    0.000000000000       2
    0.350000000000    0.140350877193    0.000000000000       2
    0.366666666667    0.140350877193    0.000000000000       2