CONTCAR                                 
   1.00000000000000     
    10.2665004730000007    0.0000000000000000    0.0000000000000000
     0.0000000000000000   17.1711997986000000    0.0000000000000000
     0.0000000000000000    0.0000000000000000   18.9181995391999997
   K    Fe   S    O    H 
     8    16    24     1     1
Direct
  0.1245637767186607  0.2500309399339974  0.4095732970345610
  0.3749642298926697  0.2500943706072972  0.5895321647714508
  0.6246254902278409  0.2499530582238063  0.4093508407092522
  0.8754559816645220  0.2500822092086776  0.5893894209660117
  0.1249055198816276  0.7499824115822628  0.4137782442122713
  0.4063502850106776  0.7497946756809074  0.6218300734130033
  0.6255594712157045  0.7499469497442620  0.4078224898612011
  0.8436396129651823  0.7497294068662768  0.6215309894257866
 -0.0000326619698533  0.0730921262079681  0.4996177355486974
  0.2500384009956051  0.9249563923069415  0.4981139307432245
  0.0001798380536981  0.9250025328884919  0.4982392373901104
  0.2498173453585698  0.0730116473743040  0.4997225070167953
  0.4998988263702496  0.0744196414408983  0.4988454585355117
  0.7501330323068957  0.9271012877200955  0.4944136762096681
  0.4998958743203480  0.9269296091540460  0.4944885887472112
  0.7498136121074556  0.0743922579393757  0.4987359507683033
  0.0001712929638516  0.5749080396439796  0.4980533690416937
  0.2498646360174015  0.4269375381106256  0.4995557018642852
  0.0000199933937849  0.4268813081749169  0.4995302931359126
  0.2500394972938337  0.5749556047023289  0.4979180836004203
  0.4998652386008486  0.5729728069605795  0.4942310035932115
  0.7498544915126937  0.4255631171660905  0.4985670388162413
  0.4999480981122690  0.4255618351768876  0.4985980550262360
  0.7501854450377188  0.5728188218360588  0.4941985495912683
  0.3737193077556859  0.8590961489201895  0.4313536154201619
  0.1248870433341563  0.1410388880469746  0.5646215312589945
  0.1252459053661850  0.8551026710827733  0.5607288063412642
  0.3765303579405139  0.9984676565619154  0.5622926993051577
  0.1250671761841038  0.0000176334749291  0.4346231010160225
  0.3732706405808973  0.1436082362235597  0.4361500941733977
  0.8765224816602979  0.8592530876823833  0.4314084799064538
  0.6250638139219403  0.1421554837566212  0.5639462667075846
  0.6251921861396632  0.8576285320492942  0.5550947426024633
  0.8733521376007515  0.9985535539864706  0.5622478769799559
  0.6247089215032190  0.0033815657862283  0.4316941076288890
  0.8762704502432921  0.1435795631227323  0.4359457097851660
  0.3732820304104288  0.3563384511803455  0.4359679072537376
  0.1252493516968306  0.6447265720042367  0.5606298640373705
  0.1249984650070435  0.3590613283917004  0.5646097460250258
  0.3765990335953330  0.5014878058674604  0.5620908526830931
  0.1250508098998887  0.4998739017723292  0.4344420208469224
  0.3736460006992373  0.6408234352521094  0.4311206751106687
  0.8763710457605206  0.3563569998853606  0.4358522839664144
  0.6251719027266548  0.6422223836371822  0.5549202012944436
  0.6250105946405539  0.3578731079389143  0.5638035612340200
  0.8733311928999212  0.5014120535956980  0.5621103159484994
  0.6248057693677528  0.4965357444495006  0.4314571788749422
  0.8765441077585556  0.6407044341871215  0.4312110910360685
  0.6252170632248483  0.7512762871051786  0.6878905303995210
  0.6254349000294878  0.7548656513876859  0.7392602181414457
 
  0.00000000E+00  0.00000000E+00  0.00000000E+00
  0.00000000E+00  0.00000000E+00  0.00000000E+00
  0.00000000E+00  0.00000000E+00  0.00000000E+00
  0.00000000E+00  0.00000000E+00  0.00000000E+00
  0.00000000E+00  0.00000000E+00  0.00000000E+00
  0.00000000E+00  0.00000000E+00  0.00000000E+00
  0.00000000E+00  0.00000000E+00  0.00000000E+00
  0.00000000E+00  0.00000000E+00  0.00000000E+00
  0.00000000E+00  0.00000000E+00  0.00000000E+00
  0.00000000E+00  0.00000000E+00  0.00000000E+00
  0.00000000E+00  0.00000000E+00  0.00000000E+00
  0.00000000E+00  0.00000000E+00  0.00000000E+00
  0.00000000E+00  0.00000000E+00  0.00000000E+00
  0.00000000E+00  0.00000000E+00  0.00000000E+00
  0.00000000E+00  0.00000000E+00  0.00000000E+00
  0.00000000E+00  0.00000000E+00  0.00000000E+00
  0.00000000E+00  0.00000000E+00  0.00000000E+00
  0.00000000E+00  0.00000000E+00  0.00000000E+00
  0.00000000E+00  0.00000000E+00  0.00000000E+00
  0.00000000E+00  0.00000000E+00  0.00000000E+00
  0.00000000E+00  0.00000000E+00  0.00000000E+00
  0.00000000E+00  0.00000000E+00  0.00000000E+00
  0.00000000E+00  0.00000000E+00  0.00000000E+00
  0.00000000E+00  0.00000000E+00  0.00000000E+00
  0.00000000E+00  0.00000000E+00  0.00000000E+00
  0.00000000E+00  0.00000000E+00  0.00000000E+00
  0.00000000E+00  0.00000000E+00  0.00000000E+00
  0.00000000E+00  0.00000000E+00  0.00000000E+00
  0.00000000E+00  0.00000000E+00  0.00000000E+00
  0.00000000E+00  0.00000000E+00  0.00000000E+00
  0.00000000E+00  0.00000000E+00  0.00000000E+00
  0.00000000E+00  0.00000000E+00  0.00000000E+00
  0.00000000E+00  0.00000000E+00  0.00000000E+00
  0.00000000E+00  0.00000000E+00  0.00000000E+00
  0.00000000E+00  0.00000000E+00  0.00000000E+00
  0.00000000E+00  0.00000000E+00  0.00000000E+00
  0.00000000E+00  0.00000000E+00  0.00000000E+00
  0.00000000E+00  0.00000000E+00  0.00000000E+00
  0.00000000E+00  0.00000000E+00  0.00000000E+00
  0.00000000E+00  0.00000000E+00  0.00000000E+00
  0.00000000E+00  0.00000000E+00  0.00000000E+00
  0.00000000E+00  0.00000000E+00  0.00000000E+00
  0.00000000E+00  0.00000000E+00  0.00000000E+00
  0.00000000E+00  0.00000000E+00  0.00000000E+00
  0.00000000E+00  0.00000000E+00  0.00000000E+00
  0.00000000E+00  0.00000000E+00  0.00000000E+00
  0.00000000E+00  0.00000000E+00  0.00000000E+00
  0.00000000E+00  0.00000000E+00  0.00000000E+00
  0.00000000E+00  0.00000000E+00  0.00000000E+00
  0.00000000E+00  0.00000000E+00  0.00000000E+00
