CONTCAR\(5)                             
   1.00000000000000     
    13.7474002837999993    0.0000000000000000    0.0000000000000000
     6.8496988029999999   13.0331533396000001    0.0000000000000000
     0.0000000000000000    0.0000000000000000   18.5631008147999985
   Li   Cu   C    O    H 
     9    18    18    56     1
Direct
  0.1781759572214836  0.0771796222412728  0.4631554520964171
  0.5600790872966483  0.0352631360059363  0.5116486005613061
  0.8882401604626786  0.0420818912999321  0.4937941986848464
  0.2076313193963819  0.4123700455675783  0.4457753744154910
  0.5641147266079671  0.3809577223454143  0.5339070890903047
  0.9069590773695752  0.3618308824972571  0.5330844755430265
  0.2344267730274970  0.6850439231680849  0.4811680268574335
  0.5511653120222437  0.6882850269354960  0.5350544343497513
  0.8624366350848324  0.7468488612989659  0.4636168946862605
  0.1476114578310448  0.2431244734795813  0.6057127060902636
  0.3302623859343813  0.1783250776411695  0.4198909117241603
  0.4091628400775587  0.2746121026239590  0.5651692941677163
  0.6156749805847189  0.1843401400932051  0.3979429683121921
  0.7906147458392168  0.2585846994428790  0.5852422693521324
  0.9425805776203894  0.1920523116046886  0.4017872426203917
  0.0990431425761486  0.5996611965334083  0.5624908903883530
  0.3429369532003494  0.5134195705954931  0.3680192304873774
  0.4300352321771759  0.5820139580254651  0.6299853551362545
  0.6739669206045524  0.4921122623395197  0.4181502784414552
  0.8087165880637406  0.5937815077216025  0.5785973942739651
  0.9545722628215983  0.5141983459469534  0.4149687063502946
  0.1423237898043297  0.9153955437061784  0.5717693625615577
  0.3001397490202908  0.8485889692048051  0.4086140448411342
  0.4245925018742276  0.9250726579109224  0.5811987597246078
  0.6146706400903122  0.8530177684511637  0.3955252616771824
  0.7908448535929962  0.9328124154292218  0.5710862632906532
  0.9772072771659299  0.8434833465571908  0.3917734534467436
  0.3461969040838363  0.1194424808920107  0.5976991452126841
  0.0851495286902611  0.2936941717502251  0.4328038022660557
  0.6553609875105616  0.1589057054692883  0.5702825808861914
  0.4214818497083151  0.3123476768493678  0.3762317467075355
  0.0137044859707295  0.1378863963521918  0.5651133577820514
  0.7292721992515092  0.3032046720204241  0.4217985139966228
  0.3303424900146782  0.4789848167487700  0.5357475073098925
  0.0954977434658874  0.6186615132090352  0.3983501638844537
  0.6726607062782185  0.4845083304180495  0.5850882039548623
  0.4450609087727274  0.6308059184571018  0.4178228266570220
  0.0082725336256578  0.4635905644002874  0.6011792590482675
  0.7550400428830785  0.6394072382735386  0.3899757838649781
  0.3347944634803736  0.7844716808993746  0.5953663451168082
  0.0864650782240621  0.9681656512855648  0.3962954917096995
  0.6647429950909107  0.8148857050316040  0.5572552459441972
  0.4130006113220095  0.9746957567407851  0.4222438115256680
  0.0103027641544080  0.8109564557577411  0.5487840979162980
  0.7507968571021925  0.9624256383451861  0.4136797353299234
  0.2655312081721994  0.0991964295598760  0.6094774228092702
  0.3218191815792079  0.2161771686324095  0.5982735539543921
  0.1048636920222388  0.0569659178371813  0.5499618364181181
  0.9911424076525318  0.0460347046949806  0.4050132914777138
  0.0798390245720891  0.2096586857091617  0.4212495673514202
  0.1783011535391652  0.2958397036471110  0.4318832340145425
  0.5646290341866608  0.1549642853842544  0.5593783732268751
  0.6541367132419080  0.2466803305270978  0.5800290855463360
  0.4432062417279408  0.0476763384460630  0.5844029397451795
  0.3197412842458763  0.0528281436906930  0.4366119219091508
  0.4359405830607529  0.2222057929900147  0.3974019351597256
  0.5086678479817940  0.3191264670358393  0.3598375996944005
  0.9223917424638778  0.1322612859681627  0.5642394301902256
  0.0129465784902493  0.2249155602261601  0.5787834406572754
  0.7488423318694827  0.0757392141024153  0.5706147908952470
  0.6587795180823623  0.0446388319386542  0.4228478127802249
  0.7444288911157498  0.2103339232117736  0.4163918290179711
  0.8109992732294284  0.3234841795470083  0.4079155397731601
  0.2377027560445579  0.4743989363648783  0.5346660212834967
  0.3347391237136847  0.5635214472142330  0.5361388194415091
  0.1026692141135760  0.3879283290396015  0.6099730068403370
  0.9953053776018387  0.3772865699887362  0.4478062437700630
  0.0908126083813435  0.5324979050049439  0.4035741295993537
  0.1889269735850849  0.6200708201006239  0.3936195122969094
  0.5825376766139632  0.4801564830912053  0.5970324827205630
  0.6745085550830564  0.5717732748367707  0.5814046629433454
  0.4215108087910811  0.3920231473301451  0.5350182731448965
  0.3250370067804201  0.3904726199326952  0.3744800987645018
  0.4442523843545054  0.5662398004866359  0.3716245493047830
  0.5365610272439126  0.6179567797972856  0.4461460141725717
  0.9179708297246405  0.4552636656577316  0.6028468573585561
 -0.0070180793926753  0.5568029534036023  0.5883974221885556
  0.7620796793703514  0.3993733074490716  0.5736540651691975
  0.6377002135087876  0.3801967687084285  0.4409685969919251
  0.7740367623248703  0.5439942106490776  0.3964377949575528
  0.8415595681104751  0.6527520294724216  0.3975170112231337
  0.2463627217765021  0.7772492929736444  0.6063097871670755
  0.3206211667129921  0.8749366623698887  0.5742628684540622
  0.1020220054559842  0.7282437389480670  0.5412683046375042
  0.0053732071670713  0.7042031136416455  0.4004157810036540
  0.0992437554936710  0.8755967222047795  0.3916411077014595
  0.1745935839423430  0.9800497232978730  0.3944513047109484
  0.5741955003216047  0.8077495640596466  0.5607898812242946
  0.6627225592003986  0.9034102072209146  0.5611857984288431
  0.4313252990872874  0.7087549658399686  0.6023195357708331
  0.3533047277596219  0.7101394868407409  0.4378633194293891
  0.4252098540113966  0.8841887179471938  0.4088495303965006
  0.5005059463062179  0.9879853969371208  0.4210215987146564
  0.9194700707824653  0.8035334530143143  0.5524279339333361
  0.0061359296878167  0.9009971119264025  0.5523112665817771
  0.7580130109054147  0.7328296295789397  0.5472496190712932
  0.6601078278814052  0.7125880217215516  0.3772298140846565
  0.7522617798812887  0.8739172357000017  0.4067735401055141
  0.8422309401644434  0.9682147852668866  0.4136093387595680
  0.4409590194916609  0.4678676375752040  0.7500693142291983
  0.3785640941449375  0.5113713962792784  0.6865169668244817
  0.4349890786408345  0.4040799024111048  0.7541674836938926
 
  0.00000000E+00  0.00000000E+00  0.00000000E+00
  0.00000000E+00  0.00000000E+00  0.00000000E+00
  0.00000000E+00  0.00000000E+00  0.00000000E+00
  0.00000000E+00  0.00000000E+00  0.00000000E+00
  0.00000000E+00  0.00000000E+00  0.00000000E+00
  0.00000000E+00  0.00000000E+00  0.00000000E+00
  0.00000000E+00  0.00000000E+00  0.00000000E+00
  0.00000000E+00  0.00000000E+00  0.00000000E+00
  0.00000000E+00  0.00000000E+00  0.00000000E+00
  0.00000000E+00  0.00000000E+00  0.00000000E+00
  0.00000000E+00  0.00000000E+00  0.00000000E+00
  0.00000000E+00  0.00000000E+00  0.00000000E+00
  0.00000000E+00  0.00000000E+00  0.00000000E+00
  0.00000000E+00  0.00000000E+00  0.00000000E+00
  0.00000000E+00  0.00000000E+00  0.00000000E+00
  0.00000000E+00  0.00000000E+00  0.00000000E+00
  0.00000000E+00  0.00000000E+00  0.00000000E+00
  0.00000000E+00  0.00000000E+00  0.00000000E+00
  0.00000000E+00  0.00000000E+00  0.00000000E+00
  0.00000000E+00  0.00000000E+00  0.00000000E+00
  0.00000000E+00  0.00000000E+00  0.00000000E+00
  0.00000000E+00  0.00000000E+00  0.00000000E+00
  0.00000000E+00  0.00000000E+00  0.00000000E+00
  0.00000000E+00  0.00000000E+00  0.00000000E+00
  0.00000000E+00  0.00000000E+00  0.00000000E+00
  0.00000000E+00  0.00000000E+00  0.00000000E+00
  0.00000000E+00  0.00000000E+00  0.00000000E+00
  0.00000000E+00  0.00000000E+00  0.00000000E+00
  0.00000000E+00  0.00000000E+00  0.00000000E+00
  0.00000000E+00  0.00000000E+00  0.00000000E+00
  0.00000000E+00  0.00000000E+00  0.00000000E+00
  0.00000000E+00  0.00000000E+00  0.00000000E+00
  0.00000000E+00  0.00000000E+00  0.00000000E+00
  0.00000000E+00  0.00000000E+00  0.00000000E+00
  0.00000000E+00  0.00000000E+00  0.00000000E+00
  0.00000000E+00  0.00000000E+00  0.00000000E+00
  0.00000000E+00  0.00000000E+00  0.00000000E+00
  0.00000000E+00  0.00000000E+00  0.00000000E+00
  0.00000000E+00  0.00000000E+00  0.00000000E+00
  0.00000000E+00  0.00000000E+00  0.00000000E+00
  0.00000000E+00  0.00000000E+00  0.00000000E+00
  0.00000000E+00  0.00000000E+00  0.00000000E+00
  0.00000000E+00  0.00000000E+00  0.00000000E+00
  0.00000000E+00  0.00000000E+00  0.00000000E+00
  0.00000000E+00  0.00000000E+00  0.00000000E+00
  0.00000000E+00  0.00000000E+00  0.00000000E+00
  0.00000000E+00  0.00000000E+00  0.00000000E+00
  0.00000000E+00  0.00000000E+00  0.00000000E+00
  0.00000000E+00  0.00000000E+00  0.00000000E+00
  0.00000000E+00  0.00000000E+00  0.00000000E+00
  0.00000000E+00  0.00000000E+00  0.00000000E+00
  0.00000000E+00  0.00000000E+00  0.00000000E+00
  0.00000000E+00  0.00000000E+00  0.00000000E+00
  0.00000000E+00  0.00000000E+00  0.00000000E+00
  0.00000000E+00  0.00000000E+00  0.00000000E+00
  0.00000000E+00  0.00000000E+00  0.00000000E+00
  0.00000000E+00  0.00000000E+00  0.00000000E+00
  0.00000000E+00  0.00000000E+00  0.00000000E+00
  0.00000000E+00  0.00000000E+00  0.00000000E+00
  0.00000000E+00  0.00000000E+00  0.00000000E+00
  0.00000000E+00  0.00000000E+00  0.00000000E+00
  0.00000000E+00  0.00000000E+00  0.00000000E+00
  0.00000000E+00  0.00000000E+00  0.00000000E+00
  0.00000000E+00  0.00000000E+00  0.00000000E+00
  0.00000000E+00  0.00000000E+00  0.00000000E+00
  0.00000000E+00  0.00000000E+00  0.00000000E+00
  0.00000000E+00  0.00000000E+00  0.00000000E+00
  0.00000000E+00  0.00000000E+00  0.00000000E+00
  0.00000000E+00  0.00000000E+00  0.00000000E+00
  0.00000000E+00  0.00000000E+00  0.00000000E+00
  0.00000000E+00  0.00000000E+00  0.00000000E+00
  0.00000000E+00  0.00000000E+00  0.00000000E+00
  0.00000000E+00  0.00000000E+00  0.00000000E+00
  0.00000000E+00  0.00000000E+00  0.00000000E+00
  0.00000000E+00  0.00000000E+00  0.00000000E+00
  0.00000000E+00  0.00000000E+00  0.00000000E+00
  0.00000000E+00  0.00000000E+00  0.00000000E+00
  0.00000000E+00  0.00000000E+00  0.00000000E+00
  0.00000000E+00  0.00000000E+00  0.00000000E+00
  0.00000000E+00  0.00000000E+00  0.00000000E+00
  0.00000000E+00  0.00000000E+00  0.00000000E+00
  0.00000000E+00  0.00000000E+00  0.00000000E+00
  0.00000000E+00  0.00000000E+00  0.00000000E+00
  0.00000000E+00  0.00000000E+00  0.00000000E+00
  0.00000000E+00  0.00000000E+00  0.00000000E+00
  0.00000000E+00  0.00000000E+00  0.00000000E+00
  0.00000000E+00  0.00000000E+00  0.00000000E+00
  0.00000000E+00  0.00000000E+00  0.00000000E+00
  0.00000000E+00  0.00000000E+00  0.00000000E+00
  0.00000000E+00  0.00000000E+00  0.00000000E+00
  0.00000000E+00  0.00000000E+00  0.00000000E+00
  0.00000000E+00  0.00000000E+00  0.00000000E+00
  0.00000000E+00  0.00000000E+00  0.00000000E+00
  0.00000000E+00  0.00000000E+00  0.00000000E+00
  0.00000000E+00  0.00000000E+00  0.00000000E+00
  0.00000000E+00  0.00000000E+00  0.00000000E+00
  0.00000000E+00  0.00000000E+00  0.00000000E+00
  0.00000000E+00  0.00000000E+00  0.00000000E+00
  0.00000000E+00  0.00000000E+00  0.00000000E+00
  0.00000000E+00  0.00000000E+00  0.00000000E+00
  0.00000000E+00  0.00000000E+00  0.00000000E+00
  0.00000000E+00  0.00000000E+00  0.00000000E+00
