G   54   54    1    0.005     # Parameters to Generate KPOINTS (Don't Edit This Line)
     271
Reciprocal lattice
    0.000000000000    0.000000000000    0.000000000000       1
    0.018518518519    0.000000000000    0.000000000000       6
    0.037037037037    0.000000000000    0.000000000000       6
    0.055555555556    0.000000000000    0.000000000000       6
    0.074074074074    0.000000000000    0.000000000000       6
    0.092592592593    0.000000000000    0.000000000000       6
    0.111111111111    0.000000000000    0.000000000000       6
    0.129629629630    0.000000000000    0.000000000000       6
    0.148148148148    0.000000000000    0.000000000000       6
    0.166666666667    0.000000000000    0.000000000000       6
    0.185185185185    0.000000000000    0.000000000000       6
    0.203703703704    0.000000000000    0.000000000000       6
    0.222222222222    0.000000000000    0.000000000000       6
    0.240740740741    0.000000000000    0.000000000000       6
    0.259259259259    0.000000000000    0.000000000000       6
    0.277777777778    0.000000000000    0.000000000000       6
    0.296296296296    0.000000000000    0.000000000000       6
    0.314814814815    0.000000000000    0.000000000000       6
    0.333333333333    0.000000000000    0.000000000000       6
    0.351851851852    0.000000000000    0.000000000000       6
    0.370370370370    0.000000000000    0.000000000000       6
    0.388888888889    0.000000000000    0.000000000000       6
    0.407407407407    0.000000000000    0.000000000000       6
    0.425925925926    0.000000000000    0.000000000000       6
    0.444444444444    0.000000000000    0.000000000000       6
    0.462962962963    0.000000000000    0.000000000000       6
    0.481481481481    0.000000000000    0.000000000000       6
    0.500000000000    0.000000000000    0.000000000000       3
    0.018518518519    0.018518518519    0.000000000000       6
    0.037037037037    0.018518518519    0.000000000000      12
    0.055555555556    0.018518518519    0.000000000000      12
    0.074074074074    0.018518518519    0.000000000000      12
    0.092592592593    0.018518518519    0.000000000000      12
    0.111111111111    0.018518518519    0.000000000000      12
    0.129629629630    0.018518518519    0.000000000000      12
    0.148148148148    0.018518518519    0.000000000000      12
    0.166666666667    0.018518518519    0.000000000000      12
    0.185185185185    0.018518518519    0.000000000000      12
    0.203703703704    0.018518518519    0.000000000000      12
    0.222222222222    0.018518518519    0.000000000000      12
    0.240740740741    0.018518518519    0.000000000000      12
    0.259259259259    0.018518518519    0.000000000000      12
    0.277777777778    0.018518518519    0.000000000000      12
    0.296296296296    0.018518518519    0.000000000000      12
    0.314814814815    0.018518518519    0.000000000000      12
    0.333333333333    0.018518518519    0.000000000000      12
    0.351851851852    0.018518518519    0.000000000000      12
    0.370370370370    0.018518518519    0.000000000000      12
    0.388888888889    0.018518518519    0.000000000000      12
    0.407407407407    0.018518518519    0.000000000000      12
    0.425925925926    0.018518518519    0.000000000000      12
    0.444444444444    0.018518518519    0.000000000000      12
    0.462962962963    0.018518518519    0.000000000000      12
    0.481481481481    0.018518518519    0.000000000000      12
    0.037037037037    0.037037037037    0.000000000000       6
    0.055555555556    0.037037037037    0.000000000000      12
    0.074074074074    0.037037037037    0.000000000000      12
    0.092592592593    0.037037037037    0.000000000000      12
    0.111111111111    0.037037037037    0.000000000000      12
    0.129629629630    0.037037037037    0.000000000000      12
    0.148148148148    0.037037037037    0.000000000000      12
    0.166666666667    0.037037037037    0.000000000000      12
    0.185185185185    0.037037037037    0.000000000000      12
    0.203703703704    0.037037037037    0.000000000000      12
    0.222222222222    0.037037037037    0.000000000000      12
    0.240740740741    0.037037037037    0.000000000000      12
    0.259259259259    0.037037037037    0.000000000000      12
    0.277777777778    0.037037037037    0.000000000000      12
    0.296296296296    0.037037037037    0.000000000000      12
    0.314814814815    0.037037037037    0.000000000000      12
    0.333333333333    0.037037037037    0.000000000000      12
    0.351851851852    0.037037037037    0.000000000000      12
    0.370370370370    0.037037037037    0.000000000000      12
    0.388888888889    0.037037037037    0.000000000000      12
    0.407407407407    0.037037037037    0.000000000000      12
    0.425925925926    0.037037037037    0.000000000000      12
    0.444444444444    0.037037037037    0.000000000000      12
    0.462962962963    0.037037037037    0.000000000000      12
    0.481481481481    0.037037037037    0.000000000000       6
    0.055555555556    0.055555555556    0.000000000000       6
    0.074074074074    0.055555555556    0.000000000000      12
    0.092592592593    0.055555555556    0.000000000000      12
    0.111111111111    0.055555555556    0.000000000000      12
    0.129629629630    0.055555555556    0.000000000000      12
    0.148148148148    0.055555555556    0.000000000000      12
    0.166666666667    0.055555555556    0.000000000000      12
    0.185185185185    0.055555555556    0.000000000000      12
    0.203703703704    0.055555555556    0.000000000000      12
    0.222222222222    0.055555555556    0.000000000000      12
    0.240740740741    0.055555555556    0.000000000000      12
    0.259259259259    0.055555555556    0.000000000000      12
    0.277777777778    0.055555555556    0.000000000000      12
    0.296296296296    0.055555555556    0.000000000000      12
    0.314814814815    0.055555555556    0.000000000000      12
    0.333333333333    0.055555555556    0.000000000000      12
    0.351851851852    0.055555555556    0.000000000000      12
    0.370370370370    0.055555555556    0.000000000000      12
    0.388888888889    0.055555555556    0.000000000000      12
    0.407407407407    0.055555555556    0.000000000000      12
    0.425925925926    0.055555555556    0.000000000000      12
    0.444444444444    0.055555555556    0.000000000000      12
    0.462962962963    0.055555555556    0.000000000000      12
    0.074074074074    0.074074074074    0.000000000000       6
    0.092592592593    0.074074074074    0.000000000000      12
    0.111111111111    0.074074074074    0.000000000000      12
    0.129629629630    0.074074074074    0.000000000000      12
    0.148148148148    0.074074074074    0.000000000000      12
    0.166666666667    0.074074074074    0.000000000000      12
    0.185185185185    0.074074074074    0.000000000000      12
    0.203703703704    0.074074074074    0.000000000000      12
    0.222222222222    0.074074074074    0.000000000000      12
    0.240740740741    0.074074074074    0.000000000000      12
    0.259259259259    0.074074074074    0.000000000000      12
    0.277777777778    0.074074074074    0.000000000000      12
    0.296296296296    0.074074074074    0.000000000000      12
    0.314814814815    0.074074074074    0.000000000000      12
    0.333333333333    0.074074074074    0.000000000000      12
    0.351851851852    0.074074074074    0.000000000000      12
    0.370370370370    0.074074074074    0.000000000000      12
    0.388888888889    0.074074074074    0.000000000000      12
    0.407407407407    0.074074074074    0.000000000000      12
    0.425925925926    0.074074074074    0.000000000000      12
    0.444444444444    0.074074074074    0.000000000000      12
    0.462962962963    0.074074074074    0.000000000000       6
    0.092592592593    0.092592592593    0.000000000000       6
    0.111111111111    0.092592592593    0.000000000000      12
    0.129629629630    0.092592592593    0.000000000000      12
    0.148148148148    0.092592592593    0.000000000000      12
    0.166666666667    0.092592592593    0.000000000000      12
    0.185185185185    0.092592592593    0.000000000000      12
    0.203703703704    0.092592592593    0.000000000000      12
    0.222222222222    0.092592592593    0.000000000000      12
    0.240740740741    0.092592592593    0.000000000000      12
    0.259259259259    0.092592592593    0.000000000000      12
    0.277777777778    0.092592592593    0.000000000000      12
    0.296296296296    0.092592592593    0.000000000000      12
    0.314814814815    0.092592592593    0.000000000000      12
    0.333333333333    0.092592592593    0.000000000000      12
    0.351851851852    0.092592592593    0.000000000000      12
    0.370370370370    0.092592592593    0.000000000000      12
    0.388888888889    0.092592592593    0.000000000000      12
    0.407407407407    0.092592592593    0.000000000000      12
    0.425925925926    0.092592592593    0.000000000000      12
    0.444444444444    0.092592592593    0.000000000000      12
    0.111111111111    0.111111111111    0.000000000000       6
    0.129629629630    0.111111111111    0.000000000000      12
    0.148148148148    0.111111111111    0.000000000000      12
    0.166666666667    0.111111111111    0.000000000000      12
    0.185185185185    0.111111111111    0.000000000000      12
    0.203703703704    0.111111111111    0.000000000000      12
    0.222222222222    0.111111111111    0.000000000000      12
    0.240740740741    0.111111111111    0.000000000000      12
    0.259259259259    0.111111111111    0.000000000000      12
    0.277777777778    0.111111111111    0.000000000000      12
    0.296296296296    0.111111111111    0.000000000000      12
    0.314814814815    0.111111111111    0.000000000000      12
    0.333333333333    0.111111111111    0.000000000000      12
    0.351851851852    0.111111111111    0.000000000000      12
    0.370370370370    0.111111111111    0.000000000000      12
    0.388888888889    0.111111111111    0.000000000000      12
    0.407407407407    0.111111111111    0.000000000000      12
    0.425925925926    0.111111111111    0.000000000000      12
    0.444444444444    0.111111111111    0.000000000000       6
    0.129629629630    0.129629629630    0.000000000000       6
    0.148148148148    0.129629629630    0.000000000000      12
    0.166666666667    0.129629629630    0.000000000000      12
    0.185185185185    0.129629629630    0.000000000000      12
    0.203703703704    0.129629629630    0.000000000000      12
    0.222222222222    0.129629629630    0.000000000000      12
    0.240740740741    0.129629629630    0.000000000000      12
    0.259259259259    0.129629629630    0.000000000000      12
    0.277777777778    0.129629629630    0.000000000000      12
    0.296296296296    0.129629629630    0.000000000000      12
    0.314814814815    0.129629629630    0.000000000000      12
    0.333333333333    0.129629629630    0.000000000000      12
    0.351851851852    0.129629629630    0.000000000000      12
    0.370370370370    0.129629629630    0.000000000000      12
    0.388888888889    0.129629629630    0.000000000000      12
    0.407407407407    0.129629629630    0.000000000000      12
    0.425925925926    0.129629629630    0.000000000000      12
    0.148148148148    0.148148148148    0.000000000000       6
    0.166666666667    0.148148148148    0.000000000000      12
    0.185185185185    0.148148148148    0.000000000000      12
    0.203703703704    0.148148148148    0.000000000000      12
    0.222222222222    0.148148148148    0.000000000000      12
    0.240740740741    0.148148148148    0.000000000000      12
    0.259259259259    0.148148148148    0.000000000000      12
    0.277777777778    0.148148148148    0.000000000000      12
    0.296296296296    0.148148148148    0.000000000000      12
    0.314814814815    0.148148148148    0.000000000000      12
    0.333333333333    0.148148148148    0.000000000000      12
    0.351851851852    0.148148148148    0.000000000000      12
    0.370370370370    0.148148148148    0.000000000000      12
    0.388888888889    0.148148148148    0.000000000000      12
    0.407407407407    0.148148148148    0.000000000000      12
    0.425925925926    0.148148148148    0.000000000000       6
    0.166666666667    0.166666666667    0.000000000000       6
    0.185185185185    0.166666666667    0.000000000000      12
    0.203703703704    0.166666666667    0.000000000000      12
    0.222222222222    0.166666666667    0.000000000000      12
    0.240740740741    0.166666666667    0.000000000000      12
    0.259259259259    0.166666666667    0.000000000000      12
    0.277777777778    0.166666666667    0.000000000000      12
    0.296296296296    0.166666666667    0.000000000000      12
    0.314814814815    0.166666666667    0.000000000000      12
    0.333333333333    0.166666666667    0.000000000000      12
    0.351851851852    0.166666666667    0.000000000000      12
    0.370370370370    0.166666666667    0.000000000000      12
    0.388888888889    0.166666666667    0.000000000000      12
    0.407407407407    0.166666666667    0.000000000000      12
    0.185185185185    0.185185185185    0.000000000000       6
    0.203703703704    0.185185185185    0.000000000000      12
    0.222222222222    0.185185185185    0.000000000000      12
    0.240740740741    0.185185185185    0.000000000000      12
    0.259259259259    0.185185185185    0.000000000000      12
    0.277777777778    0.185185185185    0.000000000000      12
    0.296296296296    0.185185185185    0.000000000000      12
    0.314814814815    0.185185185185    0.000000000000      12
    0.333333333333    0.185185185185    0.000000000000      12
    0.351851851852    0.185185185185    0.000000000000      12
    0.370370370370    0.185185185185    0.000000000000      12
    0.388888888889    0.185185185185    0.000000000000      12
    0.407407407407    0.185185185185    0.000000000000       6
    0.203703703704    0.203703703704    0.000000000000       6
    0.222222222222    0.203703703704    0.000000000000      12
    0.240740740741    0.203703703704    0.000000000000      12
    0.259259259259    0.203703703704    0.000000000000      12
    0.277777777778    0.203703703704    0.000000000000      12
    0.296296296296    0.203703703704    0.000000000000      12
    0.314814814815    0.203703703704    0.000000000000      12
    0.333333333333    0.203703703704    0.000000000000      12
    0.351851851852    0.203703703704    0.000000000000      12
    0.370370370370    0.203703703704    0.000000000000      12
    0.388888888889    0.203703703704    0.000000000000      12
    0.222222222222    0.222222222222    0.000000000000       6
    0.240740740741    0.222222222222    0.000000000000      12
    0.259259259259    0.222222222222    0.000000000000      12
    0.277777777778    0.222222222222    0.000000000000      12
    0.296296296296    0.222222222222    0.000000000000      12
    0.314814814815    0.222222222222    0.000000000000      12
    0.333333333333    0.222222222222    0.000000000000      12
    0.351851851852    0.222222222222    0.000000000000      12
    0.370370370370    0.222222222222    0.000000000000      12
    0.388888888889    0.222222222222    0.000000000000       6
    0.240740740741    0.240740740741    0.000000000000       6
    0.259259259259    0.240740740741    0.000000000000      12
    0.277777777778    0.240740740741    0.000000000000      12
    0.296296296296    0.240740740741    0.000000000000      12
    0.314814814815    0.240740740741    0.000000000000      12
    0.333333333333    0.240740740741    0.000000000000      12
    0.351851851852    0.240740740741    0.000000000000      12
    0.370370370370    0.240740740741    0.000000000000      12
    0.259259259259    0.259259259259    0.000000000000       6
    0.277777777778    0.259259259259    0.000000000000      12
    0.296296296296    0.259259259259    0.000000000000      12
    0.314814814815    0.259259259259    0.000000000000      12
    0.333333333333    0.259259259259    0.000000000000      12
    0.351851851852    0.259259259259    0.000000000000      12
    0.370370370370    0.259259259259    0.000000000000       6
    0.277777777778    0.277777777778    0.000000000000       6
    0.296296296296    0.277777777778    0.000000000000      12
    0.314814814815    0.277777777778    0.000000000000      12
    0.333333333333    0.277777777778    0.000000000000      12
    0.351851851852    0.277777777778    0.000000000000      12
    0.296296296296    0.296296296296    0.000000000000       6
    0.314814814815    0.296296296296    0.000000000000      12
    0.333333333333    0.296296296296    0.000000000000      12
    0.351851851852    0.296296296296    0.000000000000       6
    0.314814814815    0.314814814815    0.000000000000       6
    0.333333333333    0.314814814815    0.000000000000      12
    0.333333333333    0.333333333333    0.000000000000       2
