CONTCAR                                 
   1.00000000000000     
    13.1028995514000002    0.0000000000000000    0.0000000000000000
     0.0000000000000000   13.0989999771000001    0.0000000000000000
     0.0000000000000000    0.0000000000000000   24.4346008300999991
   Nd   Te   O    H 
    18    54     2     1
Direct
  0.1374815002910310  0.0033022094183721  0.5882598007612145
  0.3052373404711730  0.1686504828861572  0.4127894889692030
  0.4722800998064045  0.0027409543759234  0.5875991478562952
  0.6395806779925834  0.1681225320340545  0.4127919524901742
  0.8067092456116711  0.0032480222917712  0.5884403968742689
  0.9725709749631406  0.1692917498302506  0.4138103782564997
  0.1389843000965882  0.3365541246928672  0.5889685936410558
  0.3061971283557838  0.5023435724167626  0.4132379343571344
  0.4731832259659896  0.3283627200023673  0.5842885455345339
  0.6392445446144706  0.5020034493721752  0.4132026178684001
  0.8062936938584571  0.3368900915425357  0.5887940957806563
  0.9727680923226245  0.5022544072050295  0.4139311937795185
  0.1386493947299385  0.6694954753426998  0.5886100758387229
  0.3054970063155622  0.8360553734804412  0.4128535005480387
  0.4737668209662615  0.6764405230887505  0.5848418602249836
  0.6392299901335790  0.8359084703795503  0.4129558169846845
  0.8061953700834934  0.6693944569398269  0.5884777586438972
  0.9723741390889629  0.8353446288022610  0.4137626064383113
  0.1389572930655376  0.1682590777004336  0.3088529516014376
  0.3040881354971248  0.0043075760926214  0.6927375020249968
  0.3041265655411181  0.1679117762949289  0.5477461918506634
  0.1386337634472667  0.0022677937743865  0.4529802831889000
  0.3064049119805929  0.0022550667319763  0.3082184149749025
  0.1397522424849029  0.1704416920869392  0.6934173092796598
  0.4726030318322145  0.1687424017328496  0.3083112190269972
  0.6388565928585521  0.0041941794544584  0.6927273975846617
  0.6410570422371293  0.1678342076225832  0.5477596329004655
  0.4722379886681978  0.0022531865257420  0.4526136072504627
  0.6401655419962538  0.0011770075226991  0.3082759089216438
  0.4734872254823514  0.1689891438408111  0.6915350738155510
  0.8063782885613833  0.1688721803495170  0.3088174179320973
  0.9703897011930920  0.0025377127284472  0.6936822182258950
  0.9723863143990314  0.1703326272899943  0.5489493644624943
  0.8063860400016694  0.0022949865445057  0.4532014077992628
  0.9730139943780003  0.0022486679428013  0.3090535716173619
  0.8066704060828869  0.1711024839293529  0.6936044097163432
  0.1399496871078725  0.5012142266408830  0.3088799038698440
  0.3058586182449616  0.3361732548408582  0.6932044443365513
  0.3086649350094888  0.5027592361160060  0.5503305322072265
  0.1401436207790852  0.3362920438127688  0.4538903926908517
  0.3054074076186311  0.3357142010413128  0.3084886739940771
  0.1379748335939297  0.5035499752386841  0.6935619368209061
  0.4729866362632009  0.5022671415598268  0.3087686183844411
  0.6389646324642655  0.3376896024713716  0.6924215277211303
  0.6370373145516552  0.5025336034368735  0.5496203203154550
  0.4725429107081496  0.3347757849214261  0.4516023981530211
  0.6391622195852165  0.3345925434812784  0.3085450702937180
  0.4685513759535169  0.5022666864277952  0.6834076994548326
  0.8066693251281905  0.5020400088011954  0.3091024975023942
  0.9728485296180196  0.3358841000098991  0.6939388168318601
  0.9725208503450347  0.5026839417296003  0.5490972823753992
  0.8050309294065059  0.3360629294596151  0.4537724335250246
  0.9725951981397003  0.3357894903970475  0.3093642550434268
  0.8037679585112443  0.5041743877646923  0.6934077031718573
  0.1388636543043873  0.8344853115755413  0.3088215084377808
  0.3061126123439095  0.6728493682572037  0.6918505415301297
  0.3042676568939982  0.8375133397668790  0.5480020518296413
  0.1400499462210831  0.6682702966654901  0.4536093989932866
  0.3060764826083755  0.6688275118386002  0.3085371931937857
  0.1385406133251195  0.8387975043375704  0.6933676932004786
  0.4725051029563119  0.8358241827826802  0.3083169380624611
  0.6398481647349143  0.6711507108313910  0.6920826389508292
  0.6409412735215696  0.8380193305580548  0.5478005251985110
  0.4725125554452205  0.6697360098532030  0.4517878595803708
  0.6392803479022646  0.6682322973321462  0.3086699382147629
  0.4736694069947163  0.8367032722889363  0.6916590647179532
  0.8058698538391127  0.8355490520653817  0.3089804988686922
  0.9730574194779607  0.6693030426030120  0.6934277534739408
  0.9725322090333606  0.8356995905396758  0.5488447083437364
  0.8051458080885041  0.6684082764558070  0.4534549994106101
  0.9724989836651474  0.6688415672086236  0.3093236073747363
  0.8064947160539617  0.8377546416019115  0.6934054005250090
  0.3883987216831599  0.5065232496359044  0.8005334812552078
  0.4823351055543483  0.5185454594561065  0.7716642845390211
  0.3590545229488455  0.5758482249279382  0.7985252475857223
 
  0.00000000E+00  0.00000000E+00  0.00000000E+00
  0.00000000E+00  0.00000000E+00  0.00000000E+00
  0.00000000E+00  0.00000000E+00  0.00000000E+00
  0.00000000E+00  0.00000000E+00  0.00000000E+00
  0.00000000E+00  0.00000000E+00  0.00000000E+00
  0.00000000E+00  0.00000000E+00  0.00000000E+00
  0.00000000E+00  0.00000000E+00  0.00000000E+00
  0.00000000E+00  0.00000000E+00  0.00000000E+00
  0.00000000E+00  0.00000000E+00  0.00000000E+00
  0.00000000E+00  0.00000000E+00  0.00000000E+00
  0.00000000E+00  0.00000000E+00  0.00000000E+00
  0.00000000E+00  0.00000000E+00  0.00000000E+00
  0.00000000E+00  0.00000000E+00  0.00000000E+00
  0.00000000E+00  0.00000000E+00  0.00000000E+00
  0.00000000E+00  0.00000000E+00  0.00000000E+00
  0.00000000E+00  0.00000000E+00  0.00000000E+00
  0.00000000E+00  0.00000000E+00  0.00000000E+00
  0.00000000E+00  0.00000000E+00  0.00000000E+00
  0.00000000E+00  0.00000000E+00  0.00000000E+00
  0.00000000E+00  0.00000000E+00  0.00000000E+00
  0.00000000E+00  0.00000000E+00  0.00000000E+00
  0.00000000E+00  0.00000000E+00  0.00000000E+00
  0.00000000E+00  0.00000000E+00  0.00000000E+00
  0.00000000E+00  0.00000000E+00  0.00000000E+00
  0.00000000E+00  0.00000000E+00  0.00000000E+00
  0.00000000E+00  0.00000000E+00  0.00000000E+00
  0.00000000E+00  0.00000000E+00  0.00000000E+00
  0.00000000E+00  0.00000000E+00  0.00000000E+00
  0.00000000E+00  0.00000000E+00  0.00000000E+00
  0.00000000E+00  0.00000000E+00  0.00000000E+00
  0.00000000E+00  0.00000000E+00  0.00000000E+00
  0.00000000E+00  0.00000000E+00  0.00000000E+00
  0.00000000E+00  0.00000000E+00  0.00000000E+00
  0.00000000E+00  0.00000000E+00  0.00000000E+00
  0.00000000E+00  0.00000000E+00  0.00000000E+00
  0.00000000E+00  0.00000000E+00  0.00000000E+00
  0.00000000E+00  0.00000000E+00  0.00000000E+00
  0.00000000E+00  0.00000000E+00  0.00000000E+00
  0.00000000E+00  0.00000000E+00  0.00000000E+00
  0.00000000E+00  0.00000000E+00  0.00000000E+00
  0.00000000E+00  0.00000000E+00  0.00000000E+00
  0.00000000E+00  0.00000000E+00  0.00000000E+00
  0.00000000E+00  0.00000000E+00  0.00000000E+00
  0.00000000E+00  0.00000000E+00  0.00000000E+00
  0.00000000E+00  0.00000000E+00  0.00000000E+00
  0.00000000E+00  0.00000000E+00  0.00000000E+00
  0.00000000E+00  0.00000000E+00  0.00000000E+00
  0.00000000E+00  0.00000000E+00  0.00000000E+00
  0.00000000E+00  0.00000000E+00  0.00000000E+00
  0.00000000E+00  0.00000000E+00  0.00000000E+00
  0.00000000E+00  0.00000000E+00  0.00000000E+00
  0.00000000E+00  0.00000000E+00  0.00000000E+00
  0.00000000E+00  0.00000000E+00  0.00000000E+00
  0.00000000E+00  0.00000000E+00  0.00000000E+00
  0.00000000E+00  0.00000000E+00  0.00000000E+00
  0.00000000E+00  0.00000000E+00  0.00000000E+00
  0.00000000E+00  0.00000000E+00  0.00000000E+00
  0.00000000E+00  0.00000000E+00  0.00000000E+00
  0.00000000E+00  0.00000000E+00  0.00000000E+00
  0.00000000E+00  0.00000000E+00  0.00000000E+00
  0.00000000E+00  0.00000000E+00  0.00000000E+00
  0.00000000E+00  0.00000000E+00  0.00000000E+00
  0.00000000E+00  0.00000000E+00  0.00000000E+00
  0.00000000E+00  0.00000000E+00  0.00000000E+00
  0.00000000E+00  0.00000000E+00  0.00000000E+00
  0.00000000E+00  0.00000000E+00  0.00000000E+00
  0.00000000E+00  0.00000000E+00  0.00000000E+00
  0.00000000E+00  0.00000000E+00  0.00000000E+00
  0.00000000E+00  0.00000000E+00  0.00000000E+00
  0.00000000E+00  0.00000000E+00  0.00000000E+00
  0.00000000E+00  0.00000000E+00  0.00000000E+00
  0.00000000E+00  0.00000000E+00  0.00000000E+00
  0.00000000E+00  0.00000000E+00  0.00000000E+00
  0.00000000E+00  0.00000000E+00  0.00000000E+00
  0.00000000E+00  0.00000000E+00  0.00000000E+00
