CONTCAR\(5)                             
   1.00000000000000     
    11.0214996337999995    0.0000000000000000    0.0000000000000000
     0.0000000000000000   14.9139995575000004    0.0000000000000000
     0.0000000000000000    0.0000000000000000   19.5716991425000018
   Nb   Ni   Te   O    H 
     6     6    30     2     1
Direct
  0.0049901782968362  0.2518350565711955  0.5003017039146727
  0.0045838359305819  0.7529613822491754  0.5082933209481197
  0.3379593100352380  0.2504614889578818  0.4987591906756208
  0.3379187488292104  0.7547039982781598  0.5075472024675776
  0.6716482204508267  0.2503832123782530  0.4988398199463049
  0.6713463898078658  0.7544774387419579  0.5074948606868830
  0.1705156331502167  0.0035679419034835  0.5019508170285860
  0.1726653315306237  0.5029763651925379  0.5072944638849393
  0.5039536901280854  0.0033074032319718  0.5009361841112039
  0.5040566806968485  0.5084737362030367  0.5069983833943326
  0.8377010281398043  0.0033803281103673  0.5017452180576782
  0.8375135418182680  0.5026225934265156  0.5076301349405412
  0.0043434919682994  0.0801265764713008  0.4299387094691909
  0.0040080954255401  0.9281227621476660  0.5743492091211877
  0.0052905289125889  0.5793152023329071  0.5781729522183596
  0.0049346824661640  0.4269592769838866  0.4362659633085642
  0.1697142996599936  0.2542656614044176  0.3881241738359265
  0.1712754394965970  0.7558129521697836  0.6198230373362534
  0.1702084708991691  0.8578721578264989  0.4296173740482558
  0.1721255903515271  0.1460739986875979  0.5778456748106393
  0.1721842121239092  0.3564781351645365  0.5788503235314835
  0.1718146912545038  0.6469196589162394  0.4322273836215942
  0.3365549159815302  0.0783547376248279  0.4288050962436216
  0.3378760056493491  0.9286456649706665  0.5741830343703356
  0.3371595515860406  0.5838327583916509  0.5782423320149945
  0.3393055963698615  0.4272563481836968  0.4350080760908241
  0.5049133920481452  0.2517721103065398  0.3870877472664702
  0.5045868010711487  0.7571193065720720  0.6194305660570762
  0.5043210521526120  0.8583090607216803  0.4284998110430251
  0.5053060575338293  0.1438217510659570  0.5757895475170756
  0.5042202350507594  0.3591358739383566  0.5707061506065187
  0.5047371749072838  0.6484341211837901  0.4312664703704243
  0.6717385403022647  0.0782115892355577  0.4289171398134570
  0.6704743891685112  0.9284536649305579  0.5741168751407812
  0.6725164310642882  0.5834976305590445  0.5779445838565636
  0.6700313387524091  0.4275088755906964  0.4355056264349315
  0.8399123812584932  0.2541058701110614  0.3883943586577843
  0.8376332997505429  0.7554236143369195  0.6198896266971516
  0.8383789480927462  0.8574261235109404  0.4293512278217619
  0.8378833416310698  0.1459690419733377  0.5777278210493506
  0.8376305008837690  0.3557984536275498  0.5793296313141951
  0.8380080210004550  0.6464635213407561  0.4324855087495010
  0.3951374013934554  0.2961864254797462  0.7052141421446194
  0.5090512664255655  0.3285716064593558  0.6787688660118647
  0.4031114755531746  0.2309541865358327  0.6979996453697694
 
  0.00000000E+00  0.00000000E+00  0.00000000E+00
  0.00000000E+00  0.00000000E+00  0.00000000E+00
  0.00000000E+00  0.00000000E+00  0.00000000E+00
  0.00000000E+00  0.00000000E+00  0.00000000E+00
  0.00000000E+00  0.00000000E+00  0.00000000E+00
  0.00000000E+00  0.00000000E+00  0.00000000E+00
  0.00000000E+00  0.00000000E+00  0.00000000E+00
  0.00000000E+00  0.00000000E+00  0.00000000E+00
  0.00000000E+00  0.00000000E+00  0.00000000E+00
  0.00000000E+00  0.00000000E+00  0.00000000E+00
  0.00000000E+00  0.00000000E+00  0.00000000E+00
  0.00000000E+00  0.00000000E+00  0.00000000E+00
  0.00000000E+00  0.00000000E+00  0.00000000E+00
  0.00000000E+00  0.00000000E+00  0.00000000E+00
  0.00000000E+00  0.00000000E+00  0.00000000E+00
  0.00000000E+00  0.00000000E+00  0.00000000E+00
  0.00000000E+00  0.00000000E+00  0.00000000E+00
  0.00000000E+00  0.00000000E+00  0.00000000E+00
  0.00000000E+00  0.00000000E+00  0.00000000E+00
  0.00000000E+00  0.00000000E+00  0.00000000E+00
  0.00000000E+00  0.00000000E+00  0.00000000E+00
  0.00000000E+00  0.00000000E+00  0.00000000E+00
  0.00000000E+00  0.00000000E+00  0.00000000E+00
  0.00000000E+00  0.00000000E+00  0.00000000E+00
  0.00000000E+00  0.00000000E+00  0.00000000E+00
  0.00000000E+00  0.00000000E+00  0.00000000E+00
  0.00000000E+00  0.00000000E+00  0.00000000E+00
  0.00000000E+00  0.00000000E+00  0.00000000E+00
  0.00000000E+00  0.00000000E+00  0.00000000E+00
  0.00000000E+00  0.00000000E+00  0.00000000E+00
  0.00000000E+00  0.00000000E+00  0.00000000E+00
  0.00000000E+00  0.00000000E+00  0.00000000E+00
  0.00000000E+00  0.00000000E+00  0.00000000E+00
  0.00000000E+00  0.00000000E+00  0.00000000E+00
  0.00000000E+00  0.00000000E+00  0.00000000E+00
  0.00000000E+00  0.00000000E+00  0.00000000E+00
  0.00000000E+00  0.00000000E+00  0.00000000E+00
  0.00000000E+00  0.00000000E+00  0.00000000E+00
  0.00000000E+00  0.00000000E+00  0.00000000E+00
  0.00000000E+00  0.00000000E+00  0.00000000E+00
  0.00000000E+00  0.00000000E+00  0.00000000E+00
  0.00000000E+00  0.00000000E+00  0.00000000E+00
  0.00000000E+00  0.00000000E+00  0.00000000E+00
  0.00000000E+00  0.00000000E+00  0.00000000E+00
  0.00000000E+00  0.00000000E+00  0.00000000E+00
