CONTCAR\(24)                            
   1.00000000000000     
    14.0611000061000002    0.0000000000000000    0.0000000000000000
     0.0000000000000000   17.2483997345000013    0.0000000000000000
     0.0000000000000000    0.0000000000000000   18.5618991852000015
   Cu   H    Se   O 
     8    16    16    48
Direct
 -0.0000000000000000  0.0000000000000000  0.5000000000000000
  0.2500000000000000  0.2500000000000000  0.5000000000000000
  0.5000000000000000 -0.0000000000000000  0.5000000000000000
  0.7500000000000000  0.2500000000000000  0.5000000000000000
 -0.0000000000000000  0.5000000000000000  0.5000000000000000
  0.2500000000000000  0.7500000280000023  0.5000000000000000
  0.5000000000000000  0.5000000000000000  0.5000000000000000
  0.7500000000000000  0.7500000280000023  0.5000000000000000
  0.3130645319051898  0.0209313398274705  0.4357968262241952
  0.0630745229051958  0.2290686571725327  0.5641932057758042
  0.4369254980948095  0.2709213218274729  0.4358168132241898
  0.1869354680948102  0.4790686711725269  0.5641932057758042
  0.8130644979051942  0.0209313398274705  0.4357968262241952
  0.5630745019051906  0.2290686571725327  0.5641932057758042
  0.9369254640948066  0.2709213218274729  0.4358168132241898
  0.6869355020948058  0.4790686711725269  0.5641932057758042
  0.3130645319051898  0.5209313288274731  0.4357968262241952
  0.0630745229051958  0.7290686431725317  0.5641932057758042
  0.4369254980948095  0.7709213488274715  0.4358168132241898
  0.1869354680948102  0.9790686711725269  0.5641932057758042
  0.8130644979051942  0.5209313288274731  0.4357968262241952
  0.5630745019051906  0.7290686431725317  0.5641932057758042
  0.9369254640948066  0.7709213488274715  0.4358168132241898
  0.6869355020948058  0.9790686711725269  0.5641932057758042
  0.3219913563520242  0.4076568354283652  0.5598852929753330
  0.0719813443520273  0.3423431645716348  0.4401146560246735
  0.4280086436479758  0.1576568354283650  0.5598852929753330
  0.1780086606479735  0.0923431575716379  0.4401146560246735
  0.8219913563520245  0.4076568354283652  0.5598852929753330
  0.5719813183520253  0.3423431645716348  0.4401146560246735
  0.9280086436479755  0.1576568354283650  0.5598852929753330
  0.6780086436479755  0.0923431575716379  0.4401146560246735
  0.3219913563520242  0.9076568634283601  0.5598852929753330
  0.0719813443520273  0.8423431645716352  0.4401146560246735
  0.4280086436479758  0.6576568354283648  0.5598852929753330
  0.1780086606479735  0.5923431365716399  0.4401146560246735
  0.8219913563520245  0.9076568634283601  0.5598852929753330
  0.5719813183520253  0.8423431645716352  0.4401146560246735
  0.9280086436479755  0.6576568354283648  0.5598852929753330
  0.6780086436479755  0.5923431365716399  0.4401146560246735
  0.1146706470126253  0.2608830162681041  0.4846322368914463
  0.3853293359873697  0.2391170117318982  0.5153777821085546
  0.3646606600126268  0.4891169837318959  0.5153777821085546
  0.2320540439885996  0.1391951881771152  0.5107323087956065
  0.1353393479873740  0.0108830032680995  0.4846222178914451
  0.4820540439885995  0.1108148198228887  0.4892676392043891
  0.2679559600113969  0.3608048118228849  0.4892676392043891
  0.0179559470113993  0.3891851801771112  0.5107423277956077
  0.2765897021430319  0.0482417057078996  0.3964871838300436
  0.0265997141430288  0.2017682982921039  0.6035028231699572
  0.2234102808569705  0.4517682982921039  0.6035028231699572
  0.4734002938569717  0.2982217217079017  0.3964971768300427
  0.6146706300126278  0.2608830162681041  0.4846322368914463
  0.8853293699873722  0.2391170117318982  0.5153777821085546
  0.8646606600126271  0.4891169837318959  0.5153777821085546
  0.7320540779886022  0.1391951881771152  0.5107323087956065
  0.6353393399873729  0.0108830032680995  0.4846222178914451
  0.9820540779886022  0.1108148198228887  0.4892676392043891
  0.7679559600113970  0.3608048118228849  0.4892676392043891
  0.5179559600113970  0.3891851801771112  0.5107423277956077
  0.7765897021430316  0.0482417057078996  0.3964871838300436
  0.5265997061430280  0.2017682982921039  0.6035028231699572
  0.7234102978569684  0.4517682982921039  0.6035028231699572
  0.9734002608569728  0.2982217217079017  0.3964971768300427
  0.1146706470126253  0.7608829882681019  0.4846322368914463
  0.3853293359873697  0.7391170117318981  0.5153777821085546
  0.3646606600126268  0.9891170397319005  0.5153777821085546
  0.2320540439885996  0.6391951331771141  0.5107323087956065
  0.1353393479873740  0.5108829602680995  0.4846222178914451
  0.4820540439885995  0.6108147918228864  0.4892676392043891
  0.2679559600113969  0.8608048668228859  0.4892676392043891
  0.0179559470113993  0.8891852081771136  0.5107423277956077
  0.2765897021430319  0.5482417097078995  0.3964871838300436
  0.0265997141430288  0.7017682702921020  0.6035028231699572
  0.2234102808569705  0.9517682432921033  0.6035028231699572
  0.4734002938569717  0.7982216667079003  0.3964971768300427
  0.6146706300126278  0.7608829882681019  0.4846322368914463
  0.8853293699873722  0.7391170117318981  0.5153777821085546
  0.8646606600126271  0.9891170397319005  0.5153777821085546
  0.7320540779886022  0.6391951331771141  0.5107323087956065
  0.6353393399873729  0.5108829602680995  0.4846222178914451
  0.9820540779886022  0.6108147918228864  0.4892676392043891
  0.7679559600113969  0.8608048668228859  0.4892676392043891
  0.5179559600113969  0.8891852081771136  0.5107423277956077
  0.7765897021430316  0.5482417097078995  0.3964871838300436
  0.5265997061430280  0.7017682702921020  0.6035028231699572
  0.7234102978569684  0.9517682432921033  0.6035028231699572
  0.9734002608569728  0.7982216667079003  0.3964971768300427
 
  0.00000000E+00  0.00000000E+00  0.00000000E+00
  0.00000000E+00  0.00000000E+00  0.00000000E+00
  0.00000000E+00  0.00000000E+00  0.00000000E+00
  0.00000000E+00  0.00000000E+00  0.00000000E+00
  0.00000000E+00  0.00000000E+00  0.00000000E+00
  0.00000000E+00  0.00000000E+00  0.00000000E+00
  0.00000000E+00  0.00000000E+00  0.00000000E+00
  0.00000000E+00  0.00000000E+00  0.00000000E+00
  0.00000000E+00  0.00000000E+00  0.00000000E+00
  0.00000000E+00  0.00000000E+00  0.00000000E+00
  0.00000000E+00  0.00000000E+00  0.00000000E+00
  0.00000000E+00  0.00000000E+00  0.00000000E+00
  0.00000000E+00  0.00000000E+00  0.00000000E+00
  0.00000000E+00  0.00000000E+00  0.00000000E+00
  0.00000000E+00  0.00000000E+00  0.00000000E+00
  0.00000000E+00  0.00000000E+00  0.00000000E+00
  0.00000000E+00  0.00000000E+00  0.00000000E+00
  0.00000000E+00  0.00000000E+00  0.00000000E+00
  0.00000000E+00  0.00000000E+00  0.00000000E+00
  0.00000000E+00  0.00000000E+00  0.00000000E+00
  0.00000000E+00  0.00000000E+00  0.00000000E+00
  0.00000000E+00  0.00000000E+00  0.00000000E+00
  0.00000000E+00  0.00000000E+00  0.00000000E+00
  0.00000000E+00  0.00000000E+00  0.00000000E+00
  0.00000000E+00  0.00000000E+00  0.00000000E+00
  0.00000000E+00  0.00000000E+00  0.00000000E+00
  0.00000000E+00  0.00000000E+00  0.00000000E+00
  0.00000000E+00  0.00000000E+00  0.00000000E+00
  0.00000000E+00  0.00000000E+00  0.00000000E+00
  0.00000000E+00  0.00000000E+00  0.00000000E+00
  0.00000000E+00  0.00000000E+00  0.00000000E+00
  0.00000000E+00  0.00000000E+00  0.00000000E+00
  0.00000000E+00  0.00000000E+00  0.00000000E+00
  0.00000000E+00  0.00000000E+00  0.00000000E+00
  0.00000000E+00  0.00000000E+00  0.00000000E+00
  0.00000000E+00  0.00000000E+00  0.00000000E+00
  0.00000000E+00  0.00000000E+00  0.00000000E+00
  0.00000000E+00  0.00000000E+00  0.00000000E+00
  0.00000000E+00  0.00000000E+00  0.00000000E+00
  0.00000000E+00  0.00000000E+00  0.00000000E+00
  0.00000000E+00  0.00000000E+00  0.00000000E+00
  0.00000000E+00  0.00000000E+00  0.00000000E+00
  0.00000000E+00  0.00000000E+00  0.00000000E+00
  0.00000000E+00  0.00000000E+00  0.00000000E+00
  0.00000000E+00  0.00000000E+00  0.00000000E+00
  0.00000000E+00  0.00000000E+00  0.00000000E+00
  0.00000000E+00  0.00000000E+00  0.00000000E+00
  0.00000000E+00  0.00000000E+00  0.00000000E+00
  0.00000000E+00  0.00000000E+00  0.00000000E+00
  0.00000000E+00  0.00000000E+00  0.00000000E+00
  0.00000000E+00  0.00000000E+00  0.00000000E+00
  0.00000000E+00  0.00000000E+00  0.00000000E+00
  0.00000000E+00  0.00000000E+00  0.00000000E+00
  0.00000000E+00  0.00000000E+00  0.00000000E+00
  0.00000000E+00  0.00000000E+00  0.00000000E+00
  0.00000000E+00  0.00000000E+00  0.00000000E+00
  0.00000000E+00  0.00000000E+00  0.00000000E+00
  0.00000000E+00  0.00000000E+00  0.00000000E+00
  0.00000000E+00  0.00000000E+00  0.00000000E+00
  0.00000000E+00  0.00000000E+00  0.00000000E+00
  0.00000000E+00  0.00000000E+00  0.00000000E+00
  0.00000000E+00  0.00000000E+00  0.00000000E+00
  0.00000000E+00  0.00000000E+00  0.00000000E+00
  0.00000000E+00  0.00000000E+00  0.00000000E+00
  0.00000000E+00  0.00000000E+00  0.00000000E+00
  0.00000000E+00  0.00000000E+00  0.00000000E+00
  0.00000000E+00  0.00000000E+00  0.00000000E+00
  0.00000000E+00  0.00000000E+00  0.00000000E+00
  0.00000000E+00  0.00000000E+00  0.00000000E+00
  0.00000000E+00  0.00000000E+00  0.00000000E+00
  0.00000000E+00  0.00000000E+00  0.00000000E+00
  0.00000000E+00  0.00000000E+00  0.00000000E+00
  0.00000000E+00  0.00000000E+00  0.00000000E+00
  0.00000000E+00  0.00000000E+00  0.00000000E+00
  0.00000000E+00  0.00000000E+00  0.00000000E+00
  0.00000000E+00  0.00000000E+00  0.00000000E+00
  0.00000000E+00  0.00000000E+00  0.00000000E+00
  0.00000000E+00  0.00000000E+00  0.00000000E+00
  0.00000000E+00  0.00000000E+00  0.00000000E+00
  0.00000000E+00  0.00000000E+00  0.00000000E+00
  0.00000000E+00  0.00000000E+00  0.00000000E+00
  0.00000000E+00  0.00000000E+00  0.00000000E+00
  0.00000000E+00  0.00000000E+00  0.00000000E+00
  0.00000000E+00  0.00000000E+00  0.00000000E+00
  0.00000000E+00  0.00000000E+00  0.00000000E+00
  0.00000000E+00  0.00000000E+00  0.00000000E+00
  0.00000000E+00  0.00000000E+00  0.00000000E+00
  0.00000000E+00  0.00000000E+00  0.00000000E+00
