CONTCAR\(8)                             
   1.00000000000000     
    10.8789997101000004    0.0000000000000000    0.0000000000000000
     0.0000000000000000   14.0766000748000000    0.0000000000000000
     0.0000000000000000    0.0000000000000000   17.9612998961999999
   Cu   Br   O    H 
    12    12    25     1
Direct
  0.1563153176183380  0.3702866557138895  0.4985496036246918
  0.9827468293350754  0.1283777196584255  0.5064907063964813
  0.4994117253388359  0.3720739682361417  0.4541755665359488
  0.3253194998137311  0.1357906184169170  0.5035915370980137
  0.8242941665923565  0.3653592425712579  0.4999787455754785
  0.6510743978068239  0.1138757685813281  0.4887330534387797
  0.1666289559074639  0.8713605363968470  0.4993691407154630
  0.9917949848651492  0.6340279965726326  0.5062986037975549
  0.5006914417032362  0.8704870934344882  0.4987856747739456
  0.3236778113245397  0.6413635910434308  0.5051450320406675
  0.8336289861380866  0.8659835223865145  0.4945048640645288
  0.6615297738943137  0.6333638317951946  0.4992670007187754
  0.2086215658350123  0.2422047508742651  0.5868319349459249
  0.0167681251462913  0.2645404794504038  0.4241120763930980
  0.5838602183807154  0.2740054779023381  0.6430680305102418
  0.3501863309318904  0.2595097459651821  0.4080783680639125
  0.8497602596489515  0.2317118541759695  0.5886336875290764
  0.6710532120450795  0.2640747412717857  0.4244407710917017
  0.2001110657674267  0.7414801819629782  0.5880741404676501
  0.0358386607696064  0.7670289266164745  0.4199659991262567
  0.5315626851187175  0.7322864131771432  0.5806294336665697
  0.3651830351880382  0.7769762579222221  0.4182616994965797
  0.8614662136767046  0.7350295938498144  0.5839093856755631
  0.7034297464047271  0.7659841035794122  0.4130749110099570
  0.0961106633414346  0.4720301000631481  0.4372403475485760
  0.1266059763566708  0.0653697917565203  0.4632952252588102
  0.2817876166879227  0.4473767397860022  0.5451610298159013
  0.2776163338620085  0.0319382861435662  0.5675175461865777
  0.3961590848494931  0.4769119201399009  0.4274259506171030
  0.4702111717595914  0.0704761926067229  0.4640013131042575
  0.6055070680869770  0.4388071274567178  0.5210335157286669
  0.6316516874188373  0.0229905112066171  0.5651122450214997
  0.7773186666959954  0.4694937671277940  0.4353494141828192
  0.8083082134060122  0.0608821315157288  0.4553256176420201
  0.9529973948161681  0.4397852518597117  0.5473986825324841
  0.9458922592051621  0.0222289159434770  0.5695947454396038
  0.1153338810625333  0.9774589602759718  0.4390773353238016
  0.1150767299988600  0.5612285795921280  0.4551474851520417
  0.2968468182831561  0.9436574158199731  0.5466318970706382
  0.2591255350943422  0.5356280348370926  0.5625254483791107
  0.4575802866438199  0.9805266793613812  0.4398626143592455
  0.4281046178729664  0.5645559884809992  0.4430857038870929
  0.6380396717842325  0.9323167087358122  0.5459536645143807
  0.5799276571526211  0.5255076235473115  0.5432060344205286
  0.8001127087791534  0.9721909942151631  0.4301252182312524
  0.7919379199906132  0.5587908918708815  0.4548936704530875
  0.9640368078909108  0.9354195926569613  0.5450635147659334
  0.9330842188667342  0.5287003741738678  0.5661300033986545
  0.4454525948616779  0.3344243220482327  0.6807858093123120
  0.3775396839809964  0.3093599022232192  0.6497564818967658
 
  0.00000000E+00  0.00000000E+00  0.00000000E+00
  0.00000000E+00  0.00000000E+00  0.00000000E+00
  0.00000000E+00  0.00000000E+00  0.00000000E+00
  0.00000000E+00  0.00000000E+00  0.00000000E+00
  0.00000000E+00  0.00000000E+00  0.00000000E+00
  0.00000000E+00  0.00000000E+00  0.00000000E+00
  0.00000000E+00  0.00000000E+00  0.00000000E+00
  0.00000000E+00  0.00000000E+00  0.00000000E+00
  0.00000000E+00  0.00000000E+00  0.00000000E+00
  0.00000000E+00  0.00000000E+00  0.00000000E+00
  0.00000000E+00  0.00000000E+00  0.00000000E+00
  0.00000000E+00  0.00000000E+00  0.00000000E+00
  0.00000000E+00  0.00000000E+00  0.00000000E+00
  0.00000000E+00  0.00000000E+00  0.00000000E+00
  0.00000000E+00  0.00000000E+00  0.00000000E+00
  0.00000000E+00  0.00000000E+00  0.00000000E+00
  0.00000000E+00  0.00000000E+00  0.00000000E+00
  0.00000000E+00  0.00000000E+00  0.00000000E+00
  0.00000000E+00  0.00000000E+00  0.00000000E+00
  0.00000000E+00  0.00000000E+00  0.00000000E+00
  0.00000000E+00  0.00000000E+00  0.00000000E+00
  0.00000000E+00  0.00000000E+00  0.00000000E+00
  0.00000000E+00  0.00000000E+00  0.00000000E+00
  0.00000000E+00  0.00000000E+00  0.00000000E+00
  0.00000000E+00  0.00000000E+00  0.00000000E+00
  0.00000000E+00  0.00000000E+00  0.00000000E+00
  0.00000000E+00  0.00000000E+00  0.00000000E+00
  0.00000000E+00  0.00000000E+00  0.00000000E+00
  0.00000000E+00  0.00000000E+00  0.00000000E+00
  0.00000000E+00  0.00000000E+00  0.00000000E+00
  0.00000000E+00  0.00000000E+00  0.00000000E+00
  0.00000000E+00  0.00000000E+00  0.00000000E+00
  0.00000000E+00  0.00000000E+00  0.00000000E+00
  0.00000000E+00  0.00000000E+00  0.00000000E+00
  0.00000000E+00  0.00000000E+00  0.00000000E+00
  0.00000000E+00  0.00000000E+00  0.00000000E+00
  0.00000000E+00  0.00000000E+00  0.00000000E+00
  0.00000000E+00  0.00000000E+00  0.00000000E+00
  0.00000000E+00  0.00000000E+00  0.00000000E+00
  0.00000000E+00  0.00000000E+00  0.00000000E+00
  0.00000000E+00  0.00000000E+00  0.00000000E+00
  0.00000000E+00  0.00000000E+00  0.00000000E+00
  0.00000000E+00  0.00000000E+00  0.00000000E+00
  0.00000000E+00  0.00000000E+00  0.00000000E+00
  0.00000000E+00  0.00000000E+00  0.00000000E+00
  0.00000000E+00  0.00000000E+00  0.00000000E+00
  0.00000000E+00  0.00000000E+00  0.00000000E+00
  0.00000000E+00  0.00000000E+00  0.00000000E+00
  0.00000000E+00  0.00000000E+00  0.00000000E+00
  0.00000000E+00  0.00000000E+00  0.00000000E+00
