CONTCAR\(6)                             
   1.00000000000000     
    11.2666997910000006    0.0000000000000000    0.0000000000000000
     0.0000000000000000   10.8214998245000000    0.0000000000000000
     0.0000000000000000    0.0000000000000000   21.2649002074999984
   Zr   Se   O    H 
    12    36     1     1
Selective dynamics
Direct
  0.0921051897329264  0.3619092865076823  0.4341485734755537   F   F   F
  0.2600168021569189  0.1049484975760890  0.5741624162558594   F   F   F
  0.4231307067181902  0.3600604990113965  0.4321294058178822   F   F   F
  0.5899217297852388  0.1058964995699654  0.5735131487273506   F   F   F
  0.7574173401327897  0.3615132991517385  0.4320647459637073   F   F   F
  0.9249632576139533  0.1112673054926603  0.5726545834977372   F   F   F
  0.0925344526189065  0.8602626277051399  0.4315678506434253   F   F   F
  0.2725721197989373  0.6119083319677472  0.5828494460141798   F   F   F
  0.4245098585988103  0.8606220252438987  0.4310006683132031   F   F   F
  0.5849536778480910  0.6153517316216437  0.5703545204950302   F   F   F
  0.7591224918759352  0.8626692288048119  0.4286076777554584   F   F   F
  0.9229705160241366  0.6152197728736581  0.5696526515816345   F   F   F
  0.2560650712669243  0.2540798349408107  0.3535806908468047   F   F   F
  0.0931002278607309  0.2187258447468068  0.6502071840718315   F   F   F
  0.2566182285184624  0.4743517813956828  0.3585394979746397   F   F   F
  0.0897939039016364  0.9983662626454404  0.6498230120330106   F   F   F
  0.2597210730157613  0.3600238334083414  0.5289060488631421   F   F   F
  0.0928413988176331  0.1112928849100214  0.4791887961449675   F   F   F
  0.5908846184229688  0.2468898196358609  0.3579102075476186   F   F   F
  0.4258235032480826  0.1986339432323732  0.6569362238708010   F   F   F
  0.5896953559033236  0.4670907390466326  0.3532025677604054   F   F   F
  0.4251723536970999  0.9782939109445792  0.6429424151137155   F   F   F
  0.5896687765464392  0.3601560383347504  0.5268183812430038   F   F   F
  0.4242231034362263  0.1100756235924223  0.4785224971968347   F   F   F
  0.9249876789521352  0.2501519209250276  0.3576946357166335   F   F   F
  0.7567113176291542  0.2208195652959830  0.6489313407415054   F   F   F
  0.9261531711231541  0.4705356608360418  0.3557075619336345   F   F   F
  0.7602409320614569  0.0005854257949096  0.6504757944516300   F   F   F
  0.9232550853520678  0.3626097000219346  0.5270625284860770   F   F   F
  0.7580545469577871  0.1118145523588723  0.4783349622154915   F   F   F
  0.2584669287059498  0.7545774342373690  0.3513673239219486   F   F   F
  0.0851794969635051  0.7218219299657349  0.6516893670015804   F   F   F
  0.2584245198488446  0.9748204375570353  0.3569066353126189   F   F   F
  0.0790951966970468  0.5017002416701359  0.6491871989367723   F   F   F
  0.2568282432623192  0.8574329878990810  0.5253057949536029   F   F   F
  0.0978444485814265  0.6111758190847283  0.4819050586607005   F   F   F
  0.5911714133293486  0.7479661164172811  0.3551162198603990   F   F   F
  0.3268525322668268  0.5678213844566784  0.7115597600973160   F   F   F
  0.5900657077150058  0.9682105322908683  0.3502990976303053   F   F   F
  0.4516351096476896  0.4580065972415071  0.6452253371072842   F   F   F
  0.5961934232380628  0.8632957766324338  0.5219438017560378   F   F   F
  0.4205560149476000  0.6086052124753536  0.4768237439896694   F   F   F
  0.9271597309577970  0.7492027908005809  0.3546342180602124   F   F   F
  0.7461897592884128  0.7245526041436747  0.6487927205279433   F   F   F
  0.9280480740146757  0.9702753141289264  0.3521873891840812   F   F   F
  0.7585588729350903  0.5054788755391115  0.6472011093713235   F   F   F
  0.9239643991818980  0.8630303828268069  0.5245682845143236   F   F   F
  0.7544116228554643  0.6124516268631979  0.4765427901908765   F   F   F
  0.4360369102995776  0.7183699859149968  0.6090605017682051   T   T   T
  0.4339085156475520  0.7199572002615185  0.6547282366572296   T   T   T
 
  0.00000000E+00  0.00000000E+00  0.00000000E+00
  0.00000000E+00  0.00000000E+00  0.00000000E+00
  0.00000000E+00  0.00000000E+00  0.00000000E+00
  0.00000000E+00  0.00000000E+00  0.00000000E+00
  0.00000000E+00  0.00000000E+00  0.00000000E+00
  0.00000000E+00  0.00000000E+00  0.00000000E+00
  0.00000000E+00  0.00000000E+00  0.00000000E+00
  0.00000000E+00  0.00000000E+00  0.00000000E+00
  0.00000000E+00  0.00000000E+00  0.00000000E+00
  0.00000000E+00  0.00000000E+00  0.00000000E+00
  0.00000000E+00  0.00000000E+00  0.00000000E+00
  0.00000000E+00  0.00000000E+00  0.00000000E+00
  0.00000000E+00  0.00000000E+00  0.00000000E+00
  0.00000000E+00  0.00000000E+00  0.00000000E+00
  0.00000000E+00  0.00000000E+00  0.00000000E+00
  0.00000000E+00  0.00000000E+00  0.00000000E+00
  0.00000000E+00  0.00000000E+00  0.00000000E+00
  0.00000000E+00  0.00000000E+00  0.00000000E+00
  0.00000000E+00  0.00000000E+00  0.00000000E+00
  0.00000000E+00  0.00000000E+00  0.00000000E+00
  0.00000000E+00  0.00000000E+00  0.00000000E+00
  0.00000000E+00  0.00000000E+00  0.00000000E+00
  0.00000000E+00  0.00000000E+00  0.00000000E+00
  0.00000000E+00  0.00000000E+00  0.00000000E+00
  0.00000000E+00  0.00000000E+00  0.00000000E+00
  0.00000000E+00  0.00000000E+00  0.00000000E+00
  0.00000000E+00  0.00000000E+00  0.00000000E+00
  0.00000000E+00  0.00000000E+00  0.00000000E+00
  0.00000000E+00  0.00000000E+00  0.00000000E+00
  0.00000000E+00  0.00000000E+00  0.00000000E+00
  0.00000000E+00  0.00000000E+00  0.00000000E+00
  0.00000000E+00  0.00000000E+00  0.00000000E+00
  0.00000000E+00  0.00000000E+00  0.00000000E+00
  0.00000000E+00  0.00000000E+00  0.00000000E+00
  0.00000000E+00  0.00000000E+00  0.00000000E+00
  0.00000000E+00  0.00000000E+00  0.00000000E+00
  0.00000000E+00  0.00000000E+00  0.00000000E+00
  0.00000000E+00  0.00000000E+00  0.00000000E+00
  0.00000000E+00  0.00000000E+00  0.00000000E+00
  0.00000000E+00  0.00000000E+00  0.00000000E+00
  0.00000000E+00  0.00000000E+00  0.00000000E+00
  0.00000000E+00  0.00000000E+00  0.00000000E+00
  0.00000000E+00  0.00000000E+00  0.00000000E+00
  0.00000000E+00  0.00000000E+00  0.00000000E+00
  0.00000000E+00  0.00000000E+00  0.00000000E+00
  0.00000000E+00  0.00000000E+00  0.00000000E+00
  0.00000000E+00  0.00000000E+00  0.00000000E+00
  0.00000000E+00  0.00000000E+00  0.00000000E+00
  0.00000000E+00  0.00000000E+00  0.00000000E+00
  0.00000000E+00  0.00000000E+00  0.00000000E+00
