CONTCAR\(5)                             
   1.00000000000000     
    11.7456998825000003    0.0000000000000000    0.0000000000000000
     0.0000000000000000   17.6870002747000008    0.0000000000000000
     0.0000000000000000    0.0000000000000000   19.5771007537999999
   Ti   Ge   Te   O 
     6     6    36     1
Direct
  0.0832724731504257  0.4808066271657315  0.5102362536125273
  0.2495556867275016  0.9526105475252667  0.4895507378436101
  0.4169235870232011  0.4783018825668890  0.5167580781868278
  0.5851061534960336  0.9554775509649595  0.4833248302172025
  0.7518952182341140  0.4828414393596347  0.5147537876191405
  0.9185721010318874  0.9554150169257726  0.4871999821252934
  0.2591593439124666  0.8014292856746329  0.4817910031436216
  0.0881382196849886  0.6308167471888885  0.5259699989573337
  0.5867676377688203  0.8059458666389906  0.4721780665273656
  0.4274120893345604  0.6162276536572473  0.5749124841018374
  0.9198360442449988  0.8044730952943981  0.4798870619260101
  0.7502413897608855  0.6334979774406820  0.5235749523724373
  0.0834871178371028  0.9217887396747939  0.3832721966618373
  0.2499105205023987  0.2518751717031402  0.5652574319833427
  0.2577139533724749  0.0572207542870476  0.3794980061727941
  0.0826333263007384  0.8975405436972971  0.5852789307347662
  0.2403247131662781  0.4968450762411961  0.6231050969340363
  0.0802399933167621  0.3606252506918594  0.6069651137101131
  0.0761383133855839  0.1842158255169781  0.4392963843262094
  0.2506097089147392  0.7115579390067706  0.5975061919415655
  0.0882914773574571  0.7265058460236977  0.4139898757897573
  0.2524649478194553  0.3866769567382028  0.4503251877544875
  0.0851263214836586  0.0517890247360448  0.5448523816691887
  0.2582595995445858  0.5422156328875873  0.4219222463934272
  0.4051689142760759  0.9189330618690266  0.3788245541821145
  0.5874763370798936  0.2554763706022268  0.5726506632169458
  0.5846718179703418  0.0626380364766118  0.3747095942754126
  0.4223612993717609  0.9003955978860236  0.5831442558570372
  0.5824952421207118  0.4990940082420662  0.6373988286185802
  0.4122789364774630  0.3611349483301187  0.6170942655791044
  0.4161699530568848  0.1750393369140529  0.4209067945885238
  0.5916559911669584  0.7239569124275760  0.5875631799753843
  0.4206910132057696  0.7366683752560244  0.4024919859536397
  0.5855326472856011  0.3833376685992458  0.4608905798952451
  0.4188157317322516  0.0535623154551790  0.5385880846909481
  0.5794689162921999  0.5398185355008661  0.4243788191672451
  0.7531072377518270  0.9279005991408804  0.3772859286891884
  0.9179626961940940  0.2507718547690462  0.5403615769104653
  0.9235217533198403  0.0663562772523230  0.3815981002625682
  0.7493903617427252  0.9039913674623580  0.5829628682436863
  0.9179348491663355  0.5078595075992626  0.6179850976953551
  0.7570956111480999  0.3666613683757703  0.6173546786831356
  0.7457924996332104  0.1754133026315292  0.4137776305330588
  0.9192081572089106  0.7090770771809585  0.5918439907680674
  0.7552229845192316  0.7254160905483639  0.4095955424823425
  0.9130767591609192  0.3901163968448911  0.4471670645961136
  0.7493694298400811  0.0552221600351959  0.5393681676260826
  0.9177676883815221  0.5478959213253453  0.4185734904972974
  0.4818435115261762  0.5912022136672944  0.6613881483077496
 
  0.00000000E+00  0.00000000E+00  0.00000000E+00
  0.00000000E+00  0.00000000E+00  0.00000000E+00
  0.00000000E+00  0.00000000E+00  0.00000000E+00
  0.00000000E+00  0.00000000E+00  0.00000000E+00
  0.00000000E+00  0.00000000E+00  0.00000000E+00
  0.00000000E+00  0.00000000E+00  0.00000000E+00
  0.00000000E+00  0.00000000E+00  0.00000000E+00
  0.00000000E+00  0.00000000E+00  0.00000000E+00
  0.00000000E+00  0.00000000E+00  0.00000000E+00
  0.00000000E+00  0.00000000E+00  0.00000000E+00
  0.00000000E+00  0.00000000E+00  0.00000000E+00
  0.00000000E+00  0.00000000E+00  0.00000000E+00
  0.00000000E+00  0.00000000E+00  0.00000000E+00
  0.00000000E+00  0.00000000E+00  0.00000000E+00
  0.00000000E+00  0.00000000E+00  0.00000000E+00
  0.00000000E+00  0.00000000E+00  0.00000000E+00
  0.00000000E+00  0.00000000E+00  0.00000000E+00
  0.00000000E+00  0.00000000E+00  0.00000000E+00
  0.00000000E+00  0.00000000E+00  0.00000000E+00
  0.00000000E+00  0.00000000E+00  0.00000000E+00
  0.00000000E+00  0.00000000E+00  0.00000000E+00
  0.00000000E+00  0.00000000E+00  0.00000000E+00
  0.00000000E+00  0.00000000E+00  0.00000000E+00
  0.00000000E+00  0.00000000E+00  0.00000000E+00
  0.00000000E+00  0.00000000E+00  0.00000000E+00
  0.00000000E+00  0.00000000E+00  0.00000000E+00
  0.00000000E+00  0.00000000E+00  0.00000000E+00
  0.00000000E+00  0.00000000E+00  0.00000000E+00
  0.00000000E+00  0.00000000E+00  0.00000000E+00
  0.00000000E+00  0.00000000E+00  0.00000000E+00
  0.00000000E+00  0.00000000E+00  0.00000000E+00
  0.00000000E+00  0.00000000E+00  0.00000000E+00
  0.00000000E+00  0.00000000E+00  0.00000000E+00
  0.00000000E+00  0.00000000E+00  0.00000000E+00
  0.00000000E+00  0.00000000E+00  0.00000000E+00
  0.00000000E+00  0.00000000E+00  0.00000000E+00
  0.00000000E+00  0.00000000E+00  0.00000000E+00
  0.00000000E+00  0.00000000E+00  0.00000000E+00
  0.00000000E+00  0.00000000E+00  0.00000000E+00
  0.00000000E+00  0.00000000E+00  0.00000000E+00
  0.00000000E+00  0.00000000E+00  0.00000000E+00
  0.00000000E+00  0.00000000E+00  0.00000000E+00
  0.00000000E+00  0.00000000E+00  0.00000000E+00
  0.00000000E+00  0.00000000E+00  0.00000000E+00
  0.00000000E+00  0.00000000E+00  0.00000000E+00
  0.00000000E+00  0.00000000E+00  0.00000000E+00
  0.00000000E+00  0.00000000E+00  0.00000000E+00
  0.00000000E+00  0.00000000E+00  0.00000000E+00
  0.00000000E+00  0.00000000E+00  0.00000000E+00
