CONTCAR\(3)                             
   1.00000000000000     
    12.6485004424999996    0.0000000000000000    0.0000000000000000
    -1.2670761195000000   12.5961316350000008    0.0000000000000000
     0.0000000000000000    0.0000000000000000   18.5200004577999984
   Cr   P    S    O 
     4     8    28     1
Direct
  0.2552043764683422  0.2496086945956240  0.4994666358505045
  0.7548398266518187  0.2506947388125426  0.5012206865010287
  0.2587672297438974  0.7589108592427654  0.5005012810682492
  0.7515262544961269  0.7486831256754020  0.5037452435564604
  0.4825546540670588  0.3342322095705524  0.4733147412034446
  0.1696457766747100  0.0243396332661711  0.5269337655820586
  0.9830393083572545  0.3334176307071550  0.4719952394239895
  0.6700486007634612  0.0230307044813049  0.5269440395830252
  0.4835341771877596  0.8343526875014049  0.4731308860071104
  0.1729517419599470  0.5189390610395666  0.5223832442880507
  0.9791529554660484  0.8328249187822351  0.4773994916684783
  0.6698340285153114  0.5212953776188666  0.5300931091628009
  0.4214572108857776  0.2481522153213171  0.5592533763913907
  0.2251934457097704  0.3973015629645735  0.5767937168811613
  0.3565889493165468  0.3325034763567202  0.4046593568961753
  0.0106703541814507  0.5005111314872556  0.4919972105179309
  0.1719520844479711  0.1506234099817797  0.5950421955708034
  0.1068476273792519  0.2747664300973961  0.4217286940611685
  0.2561323594627835  0.0827140082227519  0.4406476690968714
  0.9230359438310712  0.2532194356108405  0.5603996603262080
  0.7250828532787578  0.3956093972733726  0.5800730858086495
  0.8550149266243809  0.3323334928329421  0.4053182624464063
  0.5064596546863993  0.4978851142054245  0.5012584813844634
  0.6704443843797795  0.1493087503867828  0.5951603301303811
  0.6089146736920747  0.2790362173286820  0.4233044109590475
  0.7595764852567124  0.0841320982559016  0.4425527868054668
  0.4231787349532717  0.7554765796342359  0.5621842291676241
  0.2262992860201618  0.8996490937805495  0.5783699441900851
  0.3578910280872033  0.8299960766932210  0.4033826239277118
  0.0062032188420981  0.9983555800733201  0.4989447832201652
  0.1758334939803288  0.6516152359341203  0.6021432913455328
  0.1024934847804214  0.7668269821625098  0.4305154652656380
  0.2635334628344276  0.5891168733959833  0.4416961160134701
  0.9182498346021610  0.7519824154379082  0.5652826202147780
  0.7183820867696450  0.8960465337886123  0.5794117986525819
  0.8536568119740822  0.8302971473140284  0.4086052324969258
  0.5080224131569989  0.0001389478139729  0.4929095327010840
  0.6700702001269122  0.6475367663132042  0.5985166143149019
  0.6069558971583224  0.7723210742777178  0.4242828266362784
  0.7568129636814559  0.5827294531836898  0.4446118824301104
  0.2537275575480652  0.6333846395775748  0.6609850822517686
 
  0.00000000E+00  0.00000000E+00  0.00000000E+00
  0.00000000E+00  0.00000000E+00  0.00000000E+00
  0.00000000E+00  0.00000000E+00  0.00000000E+00
  0.00000000E+00  0.00000000E+00  0.00000000E+00
  0.00000000E+00  0.00000000E+00  0.00000000E+00
  0.00000000E+00  0.00000000E+00  0.00000000E+00
  0.00000000E+00  0.00000000E+00  0.00000000E+00
  0.00000000E+00  0.00000000E+00  0.00000000E+00
  0.00000000E+00  0.00000000E+00  0.00000000E+00
  0.00000000E+00  0.00000000E+00  0.00000000E+00
  0.00000000E+00  0.00000000E+00  0.00000000E+00
  0.00000000E+00  0.00000000E+00  0.00000000E+00
  0.00000000E+00  0.00000000E+00  0.00000000E+00
  0.00000000E+00  0.00000000E+00  0.00000000E+00
  0.00000000E+00  0.00000000E+00  0.00000000E+00
  0.00000000E+00  0.00000000E+00  0.00000000E+00
  0.00000000E+00  0.00000000E+00  0.00000000E+00
  0.00000000E+00  0.00000000E+00  0.00000000E+00
  0.00000000E+00  0.00000000E+00  0.00000000E+00
  0.00000000E+00  0.00000000E+00  0.00000000E+00
  0.00000000E+00  0.00000000E+00  0.00000000E+00
  0.00000000E+00  0.00000000E+00  0.00000000E+00
  0.00000000E+00  0.00000000E+00  0.00000000E+00
  0.00000000E+00  0.00000000E+00  0.00000000E+00
  0.00000000E+00  0.00000000E+00  0.00000000E+00
  0.00000000E+00  0.00000000E+00  0.00000000E+00
  0.00000000E+00  0.00000000E+00  0.00000000E+00
  0.00000000E+00  0.00000000E+00  0.00000000E+00
  0.00000000E+00  0.00000000E+00  0.00000000E+00
  0.00000000E+00  0.00000000E+00  0.00000000E+00
  0.00000000E+00  0.00000000E+00  0.00000000E+00
  0.00000000E+00  0.00000000E+00  0.00000000E+00
  0.00000000E+00  0.00000000E+00  0.00000000E+00
  0.00000000E+00  0.00000000E+00  0.00000000E+00
  0.00000000E+00  0.00000000E+00  0.00000000E+00
  0.00000000E+00  0.00000000E+00  0.00000000E+00
  0.00000000E+00  0.00000000E+00  0.00000000E+00
  0.00000000E+00  0.00000000E+00  0.00000000E+00
  0.00000000E+00  0.00000000E+00  0.00000000E+00
  0.00000000E+00  0.00000000E+00  0.00000000E+00
  0.00000000E+00  0.00000000E+00  0.00000000E+00
