 Bi16 I4                                
   1.00000000000000     
     4.4278183145210921    0.0000000000000000    0.0000000000000000
     0.0000000000000000   13.2517387739170243    0.0000000000000000
     0.0000000000000000    0.0000000000000000   28.4766017427680040
   Bi   I 
    16     4
Direct
 -0.0000000009072602  0.9400242281321265  0.5998282818603683
 -0.0000000003107073  0.0599683632694360  0.4001775876966073
  0.5000000003950582  0.7954409342518796  0.3577012040246836
  0.5000000002102643  0.3387813315176830  0.4411527822715700
  0.0000000000600391  0.1638890257828502  0.5700711153944641
 -0.0000000003628745  0.6144218540150389  0.4883242796451984
  0.0000000004492385  0.8361195338164189  0.4299292950354441
  0.0000000001715821  0.5223918080776172  0.3111669320014424
  0.4999999996515774  0.1132424044534017  0.4695701298644737
  0.4999999997321064  0.6612249255157846  0.5588435268498271
  0.0000000002028074  0.3855860152571133  0.5116687712203307
  0.4999999990844089  0.8867628079576081  0.5304250848583927
  0.5000000000510798  0.2045604674988740  0.6423027636088972
  0.5000000003129852  0.4284338825518828  0.6173171871678281
  0.5000000001915446  0.5715672554040004  0.3826831510097873
  0.0000000002952878  0.4776004480788843  0.6888378024654898
 -0.0000000001680248  0.2667915264188304  0.7345710249299093
 -0.0000000003448768  0.7331924268665464  0.2654273661976654
  0.0000000009060880  0.2954306913708346  0.3419847097598170
  0.0000000003796736  0.7045700697631849  0.6580170041378017
 
  0.00000000E+00  0.00000000E+00  0.00000000E+00
  0.00000000E+00  0.00000000E+00  0.00000000E+00
  0.00000000E+00  0.00000000E+00  0.00000000E+00
  0.00000000E+00  0.00000000E+00  0.00000000E+00
  0.00000000E+00  0.00000000E+00  0.00000000E+00
  0.00000000E+00  0.00000000E+00  0.00000000E+00
  0.00000000E+00  0.00000000E+00  0.00000000E+00
  0.00000000E+00  0.00000000E+00  0.00000000E+00
  0.00000000E+00  0.00000000E+00  0.00000000E+00
  0.00000000E+00  0.00000000E+00  0.00000000E+00
  0.00000000E+00  0.00000000E+00  0.00000000E+00
  0.00000000E+00  0.00000000E+00  0.00000000E+00
  0.00000000E+00  0.00000000E+00  0.00000000E+00
  0.00000000E+00  0.00000000E+00  0.00000000E+00
  0.00000000E+00  0.00000000E+00  0.00000000E+00
  0.00000000E+00  0.00000000E+00  0.00000000E+00
  0.00000000E+00  0.00000000E+00  0.00000000E+00
  0.00000000E+00  0.00000000E+00  0.00000000E+00
  0.00000000E+00  0.00000000E+00  0.00000000E+00
  0.00000000E+00  0.00000000E+00  0.00000000E+00
