 K2 Mn2 P2                              
   1.00000000000000     
     3.7543424590654415    0.0000000000000000    0.0000000000000000
     0.0000000000000000    3.7543402454753996    0.0000000000000000
     0.0000000000000000    0.0000000000000000   21.3454565740719993
   K    Mn   P 
     2     2     2
Direct
  0.0000000376930345  0.4999997554582620  0.3524453365552717
  0.4999999608783199  0.0000002287471048  0.6475637304436399
  0.0000000504385582  0.0000000409509511  0.4999984172011769
  0.4999999502981325  0.4999999646733286  0.4999985276766031
  0.9999999203326198  0.5000000813427832  0.5617558257728185
  0.5000000803593352  0.9999999288275632  0.4382381623504898
 
  0.00000000E+00  0.00000000E+00  0.00000000E+00
  0.00000000E+00  0.00000000E+00  0.00000000E+00
  0.00000000E+00  0.00000000E+00  0.00000000E+00
  0.00000000E+00  0.00000000E+00  0.00000000E+00
  0.00000000E+00  0.00000000E+00  0.00000000E+00
  0.00000000E+00  0.00000000E+00  0.00000000E+00
