Rb2 Mn2 As2                             
   1.00000000000000     
     4.3989337749560669    0.0000000000000000   -0.0000000000000000
     0.0000000000000000    4.3989337749560669    0.0000000000000000
     0.0000000000000000   -0.0000000000000000    8.2854741586563865
   Rb   Mn   As
     2     2     2
Direct
  0.0000000000000000  0.5000000000000000  0.6524947092815572
  0.5000000000000000  0.0000000000000000  0.3475052627184477
  0.5000000000000000  0.5000000000000000 -0.0000000000000000
 -0.0000000000000000  0.0000000000000000 -0.0000000000000000
  0.0000000000000000  0.5000000000000000  0.1599051319059920
  0.5000000000000000  0.0000000000000000  0.8400948680940081
 
  0.00000000E+00  0.00000000E+00  0.00000000E+00
  0.00000000E+00  0.00000000E+00  0.00000000E+00
  0.00000000E+00  0.00000000E+00  0.00000000E+00
  0.00000000E+00  0.00000000E+00  0.00000000E+00
  0.00000000E+00  0.00000000E+00  0.00000000E+00
  0.00000000E+00  0.00000000E+00  0.00000000E+00
