CONTCAR\(6)                             
   1.00000000000000     
    12.5569000244000009    0.0000000000000000    0.0000000000000000
     0.0000000000000000   12.5685997009000001    0.0000000000000000
     0.0000000000000000    0.0000000000000000   19.2248001098999985
   Cu   Ag   Te   O    H 
    12    12    24     1     1
Direct
  0.1261180061027645  0.0065529586956714  0.5099811931719316
  0.3866701136658151  0.0053409320696076  0.5151384877146299
  0.6214733064539715  0.0071126149041447  0.5113488657961938
  0.8709943995077793  0.0078978073834008  0.5104754418569897
  0.1346412502946492  0.3360595726690363  0.5669931090570586
  0.3570031012832189  0.3377688976049882  0.5728700122290107
  0.6401561163294858  0.3398401899186609  0.5693932637116248
  0.8633684920546898  0.3360234624053575  0.5689306907262122
  0.1299155276432771  0.6681103713999477  0.5119705653465942
  0.3685128745326693  0.6668978103265530  0.5155583347280839
  0.6341894779725976  0.6676249503005494  0.5147035505874200
  0.8676698199223409  0.6674802473040842  0.5129010475918321
  0.9912209431943069  0.2057317356249584  0.4829677557353165
  0.2599959511911578  0.1899687009513613  0.4843176137995968
  0.4957775193350500  0.2214546192639730  0.4727663121771144
  0.7484856492219691  0.1983026646857695  0.4806560470769767
  0.9917387323591527  0.4683217093985519  0.4838191239934062
  0.2584197259094196  0.4800368701455682  0.4842705386608657
  0.4965473532401816  0.4586734922497087  0.4908357989512666
  0.7482923100096102  0.4785229459941220  0.4828569843132087
  0.9951956611814126  0.8364839733239080  0.4633878812146506
  0.2573002372603881  0.8398343239311927  0.4661777904828668
  0.4996061913640801  0.8297057748889358  0.4619033641089700
  0.7461010996236297  0.8396932158766717  0.4650068299849863
  0.9998621941861146  0.0249660661784361  0.3919316002465791
  0.1229012133801959  0.1483262374904442  0.6094720632785027
  0.2441153899770114  0.0199096835638599  0.3890153166019985
  0.3776127677708061  0.1502085461818297  0.6134656180104727
  0.4989865995442671  0.0265283161815830  0.3957559326865905
  0.6216860606570904  0.1524398183713274  0.6082894533617988
  0.7469787400303431  0.0217533846162183  0.3893831644779695
  0.8752003941930155  0.1478957828383756  0.6119550498328152
  0.0186555555327672  0.3378483440860549  0.3711493314409395
  0.1226393165312274  0.5234784281283567  0.6102064981065141
  0.2435076245539705  0.3354583526159800  0.3800205499922455
  0.3767623441441401  0.5252343399410506  0.6174412327751426
  0.5175589711853945  0.3544494985975533  0.3558923727590440
  0.6232461320744989  0.5260057312366015  0.6148653048137191
  0.7437156262968045  0.3410822328947276  0.3738271662204582
  0.8768372060265293  0.5235007748769718  0.6127115198366369
  0.0027477370998668  0.6481069709874987  0.3934395555435515
  0.1227289497007718  0.8380362269864960  0.5952795873505963
  0.2474677222882349  0.6548148144824211  0.3913405233311877
  0.3782459150645181  0.8355729886198304  0.5984889878498194
  0.5033860857510746  0.6302581630601125  0.3989678875348091
  0.6232509286678365  0.8379878175781101  0.5972185807867731
  0.7514595485020834  0.6558751826020455  0.3904962273001900
  0.8779359457124656  0.8377589835548633  0.5964465131068124
  0.5037861675502313  0.2238493306415847  0.2917837381925494
  0.4962710009251055  0.2514740283709997  0.2443951195454659
 
  0.00000000E+00  0.00000000E+00  0.00000000E+00
  0.00000000E+00  0.00000000E+00  0.00000000E+00
  0.00000000E+00  0.00000000E+00  0.00000000E+00
  0.00000000E+00  0.00000000E+00  0.00000000E+00
  0.00000000E+00  0.00000000E+00  0.00000000E+00
  0.00000000E+00  0.00000000E+00  0.00000000E+00
  0.00000000E+00  0.00000000E+00  0.00000000E+00
  0.00000000E+00  0.00000000E+00  0.00000000E+00
  0.00000000E+00  0.00000000E+00  0.00000000E+00
  0.00000000E+00  0.00000000E+00  0.00000000E+00
  0.00000000E+00  0.00000000E+00  0.00000000E+00
  0.00000000E+00  0.00000000E+00  0.00000000E+00
  0.00000000E+00  0.00000000E+00  0.00000000E+00
  0.00000000E+00  0.00000000E+00  0.00000000E+00
  0.00000000E+00  0.00000000E+00  0.00000000E+00
  0.00000000E+00  0.00000000E+00  0.00000000E+00
  0.00000000E+00  0.00000000E+00  0.00000000E+00
  0.00000000E+00  0.00000000E+00  0.00000000E+00
  0.00000000E+00  0.00000000E+00  0.00000000E+00
  0.00000000E+00  0.00000000E+00  0.00000000E+00
  0.00000000E+00  0.00000000E+00  0.00000000E+00
  0.00000000E+00  0.00000000E+00  0.00000000E+00
  0.00000000E+00  0.00000000E+00  0.00000000E+00
  0.00000000E+00  0.00000000E+00  0.00000000E+00
  0.00000000E+00  0.00000000E+00  0.00000000E+00
  0.00000000E+00  0.00000000E+00  0.00000000E+00
  0.00000000E+00  0.00000000E+00  0.00000000E+00
  0.00000000E+00  0.00000000E+00  0.00000000E+00
  0.00000000E+00  0.00000000E+00  0.00000000E+00
  0.00000000E+00  0.00000000E+00  0.00000000E+00
  0.00000000E+00  0.00000000E+00  0.00000000E+00
  0.00000000E+00  0.00000000E+00  0.00000000E+00
  0.00000000E+00  0.00000000E+00  0.00000000E+00
  0.00000000E+00  0.00000000E+00  0.00000000E+00
  0.00000000E+00  0.00000000E+00  0.00000000E+00
  0.00000000E+00  0.00000000E+00  0.00000000E+00
  0.00000000E+00  0.00000000E+00  0.00000000E+00
  0.00000000E+00  0.00000000E+00  0.00000000E+00
  0.00000000E+00  0.00000000E+00  0.00000000E+00
  0.00000000E+00  0.00000000E+00  0.00000000E+00
  0.00000000E+00  0.00000000E+00  0.00000000E+00
  0.00000000E+00  0.00000000E+00  0.00000000E+00
  0.00000000E+00  0.00000000E+00  0.00000000E+00
  0.00000000E+00  0.00000000E+00  0.00000000E+00
  0.00000000E+00  0.00000000E+00  0.00000000E+00
  0.00000000E+00  0.00000000E+00  0.00000000E+00
  0.00000000E+00  0.00000000E+00  0.00000000E+00
  0.00000000E+00  0.00000000E+00  0.00000000E+00
  0.00000000E+00  0.00000000E+00  0.00000000E+00
  0.00000000E+00  0.00000000E+00  0.00000000E+00
