CONTCAR\(4)                             
   1.00000000000000     
    10.8753004073999993    0.0000000000000000    0.0000000000000000
     0.0000000000000000   10.8753004073999993    0.0000000000000000
     0.0000000000000000    0.0000000000000000   21.9909000397000014
   Hf   Si   Te
    18    18    18
Direct
  0.1666699989999998 -0.0000000000000000  0.5953894732544657
 -0.0000000000000000  0.1666699989999998  0.4046005087455296
  0.5000000000000000  0.0000000000000000  0.5953894732544657
  0.3333300010000002  0.1666699989999998  0.4046005087455296
  0.8333299569999966 -0.0000000000000000  0.5953894732544657
  0.6666700430000034  0.1666699989999998  0.4046005087455296
  0.1666699989999998  0.3333300010000002  0.5953894732544657
 -0.0000000000000000  0.5000000000000000  0.4046005087455296
  0.5000000000000000  0.3333300010000002  0.5953894732544657
  0.3333300010000002  0.5000000000000000  0.4046005087455296
  0.8333299569999966  0.3333300010000002  0.5953894732544657
  0.6666700430000034  0.5000000000000000  0.4046005087455296
  0.1666699989999998  0.6666700430000034  0.5953894732544657
 -0.0000000000000000  0.8333299569999966  0.4046005087455296
  0.5000000000000000  0.6666700430000034  0.5953894732544657
  0.3333300010000002  0.8333299569999966  0.4046005087455296
  0.8333299569999966  0.6666700430000034  0.5953894732544657
  0.6666700430000034  0.8333299569999966  0.4046005087455296
 -0.0000000000000000  0.0000000000000000  0.5000000000000000
  0.1666699989999998  0.1666699989999998  0.5000000000000000
  0.3333300010000002  0.0000000000000000  0.5000000000000000
  0.5000000000000000  0.1666699989999998  0.5000000000000000
  0.6666700430000034 -0.0000000000000000  0.5000000000000000
  0.8333299569999966  0.1666699989999998  0.5000000000000000
 -0.0000000000000000  0.3333300010000002  0.5000000000000000
  0.1666699989999998  0.5000000000000000  0.5000000000000000
  0.3333300010000002  0.3333300010000002  0.5000000000000000
  0.5000000000000000  0.5000000000000000  0.5000000000000000
  0.6666700430000034  0.3333300010000002  0.5000000000000000
  0.8333299569999966  0.5000000000000000  0.5000000000000000
 -0.0000000000000000  0.6666700430000034  0.5000000000000000
  0.1666699989999998  0.8333299569999966  0.5000000000000000
  0.3333300010000002  0.6666700430000034  0.5000000000000000
  0.5000000000000000  0.8333299569999966  0.5000000000000000
  0.6666700430000034  0.6666700430000034  0.5000000000000000
  0.8333299569999966  0.8333299569999966  0.5000000000000000
 -0.0000000000000000  0.1666699989999998  0.6595869445830457
  0.1666699989999998 -0.0000000000000000  0.3404130554169543
  0.3333300010000002  0.1666699989999998  0.6595869445830457
  0.5000000000000000 -0.0000000000000000  0.3404130554169543
  0.6666700430000034  0.1666699989999998  0.6595869445830457
  0.8333299569999966 -0.0000000000000000  0.3404130554169543
 -0.0000000000000000  0.5000000000000000  0.6595869445830457
  0.1666699989999998  0.3333300010000002  0.3404130554169543
  0.3333300010000002  0.5000000000000000  0.6595869445830457
  0.5000000000000000  0.3333300010000002  0.3404130554169543
  0.6666700430000034  0.5000000000000000  0.6595869445830457
  0.8333299569999966  0.3333300010000002  0.3404130554169543
 -0.0000000000000000  0.8333299569999966  0.6595869445830457
  0.1666699989999998  0.6666700430000034  0.3404130554169543
  0.3333300010000002  0.8333299569999966  0.6595869445830457
  0.5000000000000000  0.6666700430000034  0.3404130554169543
  0.6666700430000034  0.8333299569999966  0.6595869445830457
  0.8333299569999966  0.6666700430000034  0.3404130554169543
 
  0.00000000E+00  0.00000000E+00  0.00000000E+00
  0.00000000E+00  0.00000000E+00  0.00000000E+00
  0.00000000E+00  0.00000000E+00  0.00000000E+00
  0.00000000E+00  0.00000000E+00  0.00000000E+00
  0.00000000E+00  0.00000000E+00  0.00000000E+00
  0.00000000E+00  0.00000000E+00  0.00000000E+00
  0.00000000E+00  0.00000000E+00  0.00000000E+00
  0.00000000E+00  0.00000000E+00  0.00000000E+00
  0.00000000E+00  0.00000000E+00  0.00000000E+00
  0.00000000E+00  0.00000000E+00  0.00000000E+00
  0.00000000E+00  0.00000000E+00  0.00000000E+00
  0.00000000E+00  0.00000000E+00  0.00000000E+00
  0.00000000E+00  0.00000000E+00  0.00000000E+00
  0.00000000E+00  0.00000000E+00  0.00000000E+00
  0.00000000E+00  0.00000000E+00  0.00000000E+00
  0.00000000E+00  0.00000000E+00  0.00000000E+00
  0.00000000E+00  0.00000000E+00  0.00000000E+00
  0.00000000E+00  0.00000000E+00  0.00000000E+00
  0.00000000E+00  0.00000000E+00  0.00000000E+00
  0.00000000E+00  0.00000000E+00  0.00000000E+00
  0.00000000E+00  0.00000000E+00  0.00000000E+00
  0.00000000E+00  0.00000000E+00  0.00000000E+00
  0.00000000E+00  0.00000000E+00  0.00000000E+00
  0.00000000E+00  0.00000000E+00  0.00000000E+00
  0.00000000E+00  0.00000000E+00  0.00000000E+00
  0.00000000E+00  0.00000000E+00  0.00000000E+00
  0.00000000E+00  0.00000000E+00  0.00000000E+00
  0.00000000E+00  0.00000000E+00  0.00000000E+00
  0.00000000E+00  0.00000000E+00  0.00000000E+00
  0.00000000E+00  0.00000000E+00  0.00000000E+00
  0.00000000E+00  0.00000000E+00  0.00000000E+00
  0.00000000E+00  0.00000000E+00  0.00000000E+00
  0.00000000E+00  0.00000000E+00  0.00000000E+00
  0.00000000E+00  0.00000000E+00  0.00000000E+00
  0.00000000E+00  0.00000000E+00  0.00000000E+00
  0.00000000E+00  0.00000000E+00  0.00000000E+00
  0.00000000E+00  0.00000000E+00  0.00000000E+00
  0.00000000E+00  0.00000000E+00  0.00000000E+00
  0.00000000E+00  0.00000000E+00  0.00000000E+00
  0.00000000E+00  0.00000000E+00  0.00000000E+00
  0.00000000E+00  0.00000000E+00  0.00000000E+00
  0.00000000E+00  0.00000000E+00  0.00000000E+00
  0.00000000E+00  0.00000000E+00  0.00000000E+00
  0.00000000E+00  0.00000000E+00  0.00000000E+00
  0.00000000E+00  0.00000000E+00  0.00000000E+00
  0.00000000E+00  0.00000000E+00  0.00000000E+00
  0.00000000E+00  0.00000000E+00  0.00000000E+00
  0.00000000E+00  0.00000000E+00  0.00000000E+00
  0.00000000E+00  0.00000000E+00  0.00000000E+00
  0.00000000E+00  0.00000000E+00  0.00000000E+00
  0.00000000E+00  0.00000000E+00  0.00000000E+00
  0.00000000E+00  0.00000000E+00  0.00000000E+00
  0.00000000E+00  0.00000000E+00  0.00000000E+00
  0.00000000E+00  0.00000000E+00  0.00000000E+00
