 Fe2 Se2                                
   1.00000000000000     
     3.6440968893445085    0.0000000000000000    0.0000000000000000
     0.0000000000000000    3.6440968573291097    0.0000000000000000
     0.0000000000000000    0.0000000000000000   17.7768695999159974
   Fe   Se
     2     2
Direct
  0.0000000005557368  0.0000000005945680  0.4999999998203322
  0.4999999979343528  0.4999999987493595  0.5000000009625509
  0.5000000030278073  0.9999999997018634  0.4209091008565764
  0.9999999984821031  0.5000000009542163  0.5790908983605405
 
  0.00000000E+00  0.00000000E+00  0.00000000E+00
  0.00000000E+00  0.00000000E+00  0.00000000E+00
  0.00000000E+00  0.00000000E+00  0.00000000E+00
  0.00000000E+00  0.00000000E+00  0.00000000E+00
