CONTCAR                                 
   1.00000000000000     
    10.0122995377000006    0.0000000000000000    0.0000000000000000
    -5.0061497688000003    8.6709057498999993    0.0000000000000000
     0.0000000000000000    0.0000000000000000   15.0000000000000000
   B    N    H 
    16    16     1
Selective dynamics
Direct
  0.1666658440947799  0.0833697324449076  0.4949189419164952   F   F   F
  0.4166115060608249  0.0834701069219150  0.4958399565914746   F   F   F
  0.6666736253721055  0.0834703536615038  0.4979513670618729   F   F   F
  0.9167206371753380  0.0834678766518735  0.4959323561161995   F   F   F
  0.1664362199332672  0.3328682694377605  0.4990122452819676   F   F   F
  0.4163424759637735  0.3328885304842473  0.4989887710730869   F   F   F
  0.6666936763924909  0.3335315147174072  0.4979365835279665   F   F   F
  0.9167182368857851  0.3335115289569188  0.4979956773446546   F   F   F
  0.1664470887677041  0.5838500360761998  0.4989406843849196   F   F   F
  0.4166808086616740  0.5834997831282891  0.5172732045090243   F   F   F
  0.6672965709346386  0.5838635353259676  0.4989540714398686   F   F   F
  0.9167215947254377  0.5835950156168153  0.4958185336688175   F   F   F
  0.1666398525093840  0.8335405917285996  0.4947871512853013   F   F   F
  0.4163289132588304  0.8337272135089364  0.4988948046422692   F   F   F
  0.6673189455601971  0.8337565213080325  0.4989473360963430   F   F   F
  0.9168175342903737  0.8335399106301935  0.4948642516363080   F   F   F
  0.0831108092603898  0.1664604755868453  0.4955679440485667   F   F   F
  0.3332631515674720  0.1664803703124917  0.4955015010810797   F   F   F
  0.5833635875009122  0.1668364750327100  0.4973278323192716   F   F   F
  0.8333508965419298  0.1668337570013136  0.4973709543758034   F   F   F
  0.0834888083541969  0.4168793691269386  0.4995723586488481   F   F   F
  0.3323149690768119  0.4147252633053711  0.5016460410340784   F   F   F
  0.5833005891305589  0.4168953587501534  0.4995421221862770   F   F   F
  0.8333706969601877  0.4168389315083800  0.4973546862258971   F   F   F
  0.0831152353232554  0.6669172651987409  0.4953654710708904   F   F   F
  0.3323095256323967  0.6678712520531391  0.5016437725436163   F   F   F
  0.5854509736097029  0.6678792827823088  0.5016312096377078   F   F   F
  0.8337027166045985  0.6669395889551808  0.4954289270224521   F   F   F
  0.0833706526334268  0.9168194631715778  0.4941803118401111   F   F   F
  0.3332803982292347  0.9170797370645474  0.4953697420633603   F   F   F
  0.5833011633193053  0.9167001511073281  0.4994974990548258   F   F   F
  0.8337165312065622  0.9170821465797943  0.4954839168403353   F   F   F
  0.4166659364624649  0.5833012398636015  0.6076597434302872   T   T   T
 
  0.00000000E+00  0.00000000E+00  0.00000000E+00
  0.00000000E+00  0.00000000E+00  0.00000000E+00
  0.00000000E+00  0.00000000E+00  0.00000000E+00
  0.00000000E+00  0.00000000E+00  0.00000000E+00
  0.00000000E+00  0.00000000E+00  0.00000000E+00
  0.00000000E+00  0.00000000E+00  0.00000000E+00
  0.00000000E+00  0.00000000E+00  0.00000000E+00
  0.00000000E+00  0.00000000E+00  0.00000000E+00
  0.00000000E+00  0.00000000E+00  0.00000000E+00
  0.00000000E+00  0.00000000E+00  0.00000000E+00
  0.00000000E+00  0.00000000E+00  0.00000000E+00
  0.00000000E+00  0.00000000E+00  0.00000000E+00
  0.00000000E+00  0.00000000E+00  0.00000000E+00
  0.00000000E+00  0.00000000E+00  0.00000000E+00
  0.00000000E+00  0.00000000E+00  0.00000000E+00
  0.00000000E+00  0.00000000E+00  0.00000000E+00
  0.00000000E+00  0.00000000E+00  0.00000000E+00
  0.00000000E+00  0.00000000E+00  0.00000000E+00
  0.00000000E+00  0.00000000E+00  0.00000000E+00
  0.00000000E+00  0.00000000E+00  0.00000000E+00
  0.00000000E+00  0.00000000E+00  0.00000000E+00
  0.00000000E+00  0.00000000E+00  0.00000000E+00
  0.00000000E+00  0.00000000E+00  0.00000000E+00
  0.00000000E+00  0.00000000E+00  0.00000000E+00
  0.00000000E+00  0.00000000E+00  0.00000000E+00
  0.00000000E+00  0.00000000E+00  0.00000000E+00
  0.00000000E+00  0.00000000E+00  0.00000000E+00
  0.00000000E+00  0.00000000E+00  0.00000000E+00
  0.00000000E+00  0.00000000E+00  0.00000000E+00
  0.00000000E+00  0.00000000E+00  0.00000000E+00
  0.00000000E+00  0.00000000E+00  0.00000000E+00
  0.00000000E+00  0.00000000E+00  0.00000000E+00
  0.00000000E+00  0.00000000E+00  0.00000000E+00
