CONTCAR\(3)                             
   1.00000000000000     
    11.2130002975000007    0.0000000000000000    0.0000000000000000
     0.0000000000000000   15.4723997115999996    0.0000000000000000
     0.0000000000000000    0.0000000000000000   19.4957008362000010
   Ta   Te   Pt   O    H 
     6    30     6     1     1
Direct
  0.0011455770832995  0.2484018326507496  0.5080104861435117
  0.0010159233615283  0.7499118044732143  0.4982872375153988
  0.3352924885147388  0.2464119525351904  0.5082362433462961
  0.3352984968483668  0.7501823779356442  0.4992702028712515
  0.6690617699745189  0.2485046323651829  0.5075861294622257
  0.6688168096330500  0.7501368475638870  0.4980871943580922
  0.1668733318708888  0.2466086125892133  0.6191275409765638
  0.1693677452227078  0.7495865417192746  0.3876169353261290
  0.0025003090930795  0.9161781480627269  0.4270201106591998
  0.9998246169308871  0.0811462808512289  0.5784880243469601
  0.1684136043470943  0.1462771739592270  0.4303596685397437
  0.1678256410141969  0.8507483529182025  0.5770646853939070
  0.1666786561888998  0.6490327726227534  0.5760826145071221
  0.1681421245798305  0.3492245447390516  0.4297537627249142
  0.0000257482137016  0.5834962021552030  0.4269575981440354
  0.9992791148784050  0.4151612944710692  0.5789973473099082
  0.5035291363236638  0.2469104827624946  0.6187635409052064
  0.5007056588684407  0.7498441661641166  0.3874531364431846
  0.3351141579257444  0.9161614190171008  0.4280419002628051
  0.3355040338558979  0.0811262547796190  0.5798132008459689
  0.5018006044976886  0.1465861835421549  0.4299152205102033
  0.5024446208173856  0.8512621634977435  0.5768804342782587
  0.5037247141326517  0.6496496092558033  0.5766285434618936
  0.5015812282298242  0.3498514556937948  0.4300085239505478
  0.3351474622713724  0.5843748082303364  0.4283621094670593
  0.3348010515890536  0.4180847670655652  0.5649294996853840
  0.8346616703751408  0.2482196019323126  0.6189805212650938
  0.8351277315504717  0.7503266623413438  0.3866948397805672
  0.6676124132827539  0.9164095098163543  0.4267460661934379
  0.6697695477553509  0.0817383628513610  0.5783363343700501
  0.8352955940606392  0.1474221106707461  0.4295375650634341
  0.8346845215703311  0.8508914431381314  0.5761104544450433
  0.8347031237429192  0.6482667840215868  0.5756913995123796
  0.8351444294160473  0.3504351147365341  0.4298703683513097
  0.6691540515269239  0.5834938136419154  0.4273045039015102
  0.6705810642926195  0.4146410130596792  0.5794096215472635
  0.1683562567491919  0.9988876959672695  0.5038070121910820
  0.1636789995460290  0.5011879675415614  0.5026665841766160
  0.5019722275090501  0.9991511622383129  0.5035216159568563
  0.5063846068657227  0.5016474128181159  0.5036624485395436
  0.8349237779869796  0.9987719238818400  0.5023798960989296
  0.8345986652159851  0.4991628248681153  0.5027914923073240
  0.3388888241775234  0.4424260860025839  0.6668625814085800
  0.2591181311094175  0.4295396398517326  0.6847649794552311
 
  0.00000000E+00  0.00000000E+00  0.00000000E+00
  0.00000000E+00  0.00000000E+00  0.00000000E+00
  0.00000000E+00  0.00000000E+00  0.00000000E+00
  0.00000000E+00  0.00000000E+00  0.00000000E+00
  0.00000000E+00  0.00000000E+00  0.00000000E+00
  0.00000000E+00  0.00000000E+00  0.00000000E+00
  0.00000000E+00  0.00000000E+00  0.00000000E+00
  0.00000000E+00  0.00000000E+00  0.00000000E+00
  0.00000000E+00  0.00000000E+00  0.00000000E+00
  0.00000000E+00  0.00000000E+00  0.00000000E+00
  0.00000000E+00  0.00000000E+00  0.00000000E+00
  0.00000000E+00  0.00000000E+00  0.00000000E+00
  0.00000000E+00  0.00000000E+00  0.00000000E+00
  0.00000000E+00  0.00000000E+00  0.00000000E+00
  0.00000000E+00  0.00000000E+00  0.00000000E+00
  0.00000000E+00  0.00000000E+00  0.00000000E+00
  0.00000000E+00  0.00000000E+00  0.00000000E+00
  0.00000000E+00  0.00000000E+00  0.00000000E+00
  0.00000000E+00  0.00000000E+00  0.00000000E+00
  0.00000000E+00  0.00000000E+00  0.00000000E+00
  0.00000000E+00  0.00000000E+00  0.00000000E+00
  0.00000000E+00  0.00000000E+00  0.00000000E+00
  0.00000000E+00  0.00000000E+00  0.00000000E+00
  0.00000000E+00  0.00000000E+00  0.00000000E+00
  0.00000000E+00  0.00000000E+00  0.00000000E+00
  0.00000000E+00  0.00000000E+00  0.00000000E+00
  0.00000000E+00  0.00000000E+00  0.00000000E+00
  0.00000000E+00  0.00000000E+00  0.00000000E+00
  0.00000000E+00  0.00000000E+00  0.00000000E+00
  0.00000000E+00  0.00000000E+00  0.00000000E+00
  0.00000000E+00  0.00000000E+00  0.00000000E+00
  0.00000000E+00  0.00000000E+00  0.00000000E+00
  0.00000000E+00  0.00000000E+00  0.00000000E+00
  0.00000000E+00  0.00000000E+00  0.00000000E+00
  0.00000000E+00  0.00000000E+00  0.00000000E+00
  0.00000000E+00  0.00000000E+00  0.00000000E+00
  0.00000000E+00  0.00000000E+00  0.00000000E+00
  0.00000000E+00  0.00000000E+00  0.00000000E+00
  0.00000000E+00  0.00000000E+00  0.00000000E+00
  0.00000000E+00  0.00000000E+00  0.00000000E+00
  0.00000000E+00  0.00000000E+00  0.00000000E+00
  0.00000000E+00  0.00000000E+00  0.00000000E+00
  0.00000000E+00  0.00000000E+00  0.00000000E+00
  0.00000000E+00  0.00000000E+00  0.00000000E+00
