 Cu8 H8 C4 O20                          
   1.00000000000000     
    10.1940345950900184    0.0000000000000000    0.0000000000000000
     0.0000000000000000   11.6066220032732392    0.0000000000000000
     0.0000000000000000    0.0000000000000000   16.7477922459139990
   Cu   H    C    O 
     8     8     4    20
Direct
  0.7474461850516630  0.2823183019917799  0.4939043992837922
  0.2720169660585970  0.7826358919947723  0.5067398616544263
  0.7721036884141621  0.7176869077540056  0.5060215579861504
  0.2469783238530406  0.2171937940011531  0.4927594927319608
  0.4808977815097601  0.3809208742727525  0.5036951270198388
  0.5389762021378125  0.8809997343296593  0.4950770469217029
  0.0401424634827932  0.6182206855330635  0.4970777775208702
  0.9845873125820503  0.1186716820255429  0.5038874602100459
  0.2620816078334844  0.4074795077208083  0.4472555989122540
  0.7590528461781413  0.9088421100287893  0.5504764418623715
  0.2592046342657254  0.5928431539340828  0.5535953642442607
  0.7627152636342930  0.0911253987121005  0.4489822236978315
  0.6750867027349499  0.4699060806496147  0.5518079459833629
  0.3439789679274696  0.9693072630469693  0.4476700537453320
  0.8448477519004517  0.5284986772875631  0.4507896301325433
  0.1776516523814912  0.0333841418866797  0.5563679788072620
  0.5152622897626601  0.1237989656914484  0.4770046075316541
  0.5043566843775495  0.6239357986535691  0.5213617445310926
  0.0051790874213856  0.8765328583644377  0.5211896302386754
  0.0166466872653670  0.3751110364416697  0.4780986427553263
  0.3918946492779971  0.1085127320084315  0.4876264803436088
  0.6274951736487683  0.6086520706063862  0.5099716892261698
  0.1285441100598621  0.8924668423180994  0.5111672242651344
  0.8937822300961660  0.3901306931268481  0.4907828910738283
  0.5640867289516382  0.2278152440377980  0.4742844668401320
  0.4559081751690487  0.7280131721609920  0.5250506745795566
  0.9566018335570329  0.7724739856865201  0.5239128041069224
  0.0647031530723209  0.2713858032897457  0.4707853325830900
  0.5953143377323196  0.0383407105632283  0.4696128739810158
  0.4242364443690737  0.5385280198941580  0.5287026010545320
  0.9249856921172125  0.9620300750494349  0.5279152734169561
  0.0967701838349889  0.4608811957472397  0.4723925730343757
  0.3292926569897705  0.3461404050967701  0.4440056276089115
  0.6918632195304240  0.8474780887963711  0.5539249737347011
  0.1918332595608768  0.6540837099564185  0.5565916964723687
  0.8295639051714027  0.1528526018927065  0.4474404709050231
  0.6465226404282783  0.3890419490410944  0.5553241872915472
  0.3724869190109654  0.8883673766230576  0.4443804716293865
  0.8734264635092529  0.6093547088745880  0.4467431938727383
  0.1482871251397337  0.1140377509096448  0.5591482411386826
 
  0.00000000E+00  0.00000000E+00  0.00000000E+00
  0.00000000E+00  0.00000000E+00  0.00000000E+00
  0.00000000E+00  0.00000000E+00  0.00000000E+00
  0.00000000E+00  0.00000000E+00  0.00000000E+00
  0.00000000E+00  0.00000000E+00  0.00000000E+00
  0.00000000E+00  0.00000000E+00  0.00000000E+00
  0.00000000E+00  0.00000000E+00  0.00000000E+00
  0.00000000E+00  0.00000000E+00  0.00000000E+00
  0.00000000E+00  0.00000000E+00  0.00000000E+00
  0.00000000E+00  0.00000000E+00  0.00000000E+00
  0.00000000E+00  0.00000000E+00  0.00000000E+00
  0.00000000E+00  0.00000000E+00  0.00000000E+00
  0.00000000E+00  0.00000000E+00  0.00000000E+00
  0.00000000E+00  0.00000000E+00  0.00000000E+00
  0.00000000E+00  0.00000000E+00  0.00000000E+00
  0.00000000E+00  0.00000000E+00  0.00000000E+00
  0.00000000E+00  0.00000000E+00  0.00000000E+00
  0.00000000E+00  0.00000000E+00  0.00000000E+00
  0.00000000E+00  0.00000000E+00  0.00000000E+00
  0.00000000E+00  0.00000000E+00  0.00000000E+00
  0.00000000E+00  0.00000000E+00  0.00000000E+00
  0.00000000E+00  0.00000000E+00  0.00000000E+00
  0.00000000E+00  0.00000000E+00  0.00000000E+00
  0.00000000E+00  0.00000000E+00  0.00000000E+00
  0.00000000E+00  0.00000000E+00  0.00000000E+00
  0.00000000E+00  0.00000000E+00  0.00000000E+00
  0.00000000E+00  0.00000000E+00  0.00000000E+00
  0.00000000E+00  0.00000000E+00  0.00000000E+00
  0.00000000E+00  0.00000000E+00  0.00000000E+00
  0.00000000E+00  0.00000000E+00  0.00000000E+00
  0.00000000E+00  0.00000000E+00  0.00000000E+00
  0.00000000E+00  0.00000000E+00  0.00000000E+00
  0.00000000E+00  0.00000000E+00  0.00000000E+00
  0.00000000E+00  0.00000000E+00  0.00000000E+00
  0.00000000E+00  0.00000000E+00  0.00000000E+00
  0.00000000E+00  0.00000000E+00  0.00000000E+00
  0.00000000E+00  0.00000000E+00  0.00000000E+00
  0.00000000E+00  0.00000000E+00  0.00000000E+00
  0.00000000E+00  0.00000000E+00  0.00000000E+00
  0.00000000E+00  0.00000000E+00  0.00000000E+00
