Ta4 Se6                                 
   1.00000000000000     
     6.6075511678202830    0.0000000000000000    0.0137544904922839
     0.0000000000000000    3.4274306809812884    0.0000000000000000
    -2.2887622269378185    0.0000000000000000    9.0083050611490290
   Ta   Se
     4     6
Direct
  0.8865177468787938  0.2500000000000000  0.3654312582556867
  0.1134823311212127  0.7499999830000021  0.6345687847443133
  0.6785218487429520  0.2500000000000000  0.9987439718799086
  0.3214782582570461  0.7499999830000021  0.0012561041200905
  0.2729863462139425  0.2500000000000000  0.4868591685880086
  0.7270136597860580  0.7499999830000021  0.5131408754119879
  0.0279501680638168  0.2500000000000000  0.8423958991879164
  0.9720498149361854  0.7499999830000021  0.1576041308120860
  0.5239868265130412  0.7499999830000021  0.7941996609603821
  0.4760132014869539  0.2500000000000000  0.2058003430396182
 
  0.00000000E+00  0.00000000E+00  0.00000000E+00
  0.00000000E+00  0.00000000E+00  0.00000000E+00
  0.00000000E+00  0.00000000E+00  0.00000000E+00
  0.00000000E+00  0.00000000E+00  0.00000000E+00
  0.00000000E+00  0.00000000E+00  0.00000000E+00
  0.00000000E+00  0.00000000E+00  0.00000000E+00
  0.00000000E+00  0.00000000E+00  0.00000000E+00
  0.00000000E+00  0.00000000E+00  0.00000000E+00
  0.00000000E+00  0.00000000E+00  0.00000000E+00
  0.00000000E+00  0.00000000E+00  0.00000000E+00
