CONTCAR\(7)                             
   1.00000000000000     
    11.1906995773000002    0.0000000000000000    0.0000000000000000
     0.0000000000000000   11.1906995773000002    0.0000000000000000
     0.0000000000000000    0.0000000000000000   22.0060005188000005
   Zr   Ge   Te   O 
    18    18    18     1
Selective dynamics
Direct
  0.1663244075603387  0.0000000000000000  0.4023644530705184   F   F   F
  0.9999944076785141  0.1688211178260630  0.5992240165876197   F   F   F
  0.4999989668553582  0.0000000000000000  0.4026276453280317   F   F   F
  0.3290246125302971  0.1618171130687145  0.5991782590913530   F   F   F
  0.8336706957766182  0.0000000000000000  0.4023645648196847   F   F   F
  0.6709784001019798  0.1618207581945725  0.5991813544889055   F   F   F
  0.1670510973697148  0.3338889675490861  0.4028405806973296   F   F   F
  0.9999977040123653  0.5000000000000000  0.5992718290216104   F   F   F
  0.4999828239684092  0.3321108011032479  0.4032625736145690   F   F   F
  0.3440382726655216  0.5000000000000000  0.6015854413955068   F   F   F
  0.8329263419267861  0.3338949230326520  0.4028411866549888   F   F   F
  0.6559611650570645  0.5000000000000000  0.6015866907969212   F   F   F
  0.1670510973697148  0.6661110754509139  0.4028405806973296   F   F   F
  0.9999944076785141  0.8311788391739370  0.5992240165876197   F   F   F
  0.4999828239684092  0.6678892418967521  0.4032625736145690   F   F   F
  0.3290246125302971  0.8381828439312855  0.5991782590913530   F   F   F
  0.8329263419267861  0.6661051199673480  0.4028411866549888   F   F   F
  0.6709784001019798  0.8381791988054275  0.5991813544889055   F   F   F
  0.1653502776841975  0.1673322513190456  0.5006013092773856   F   F   F
  0.9999991956306218  0.0000000000000000  0.5014090190126979   F   F   F
  0.4999998808137036  0.1652161133749033  0.5024603370854095   F   F   F
  0.3327075174902347  0.0000000000000000  0.5007832756161150   F   F   F
  0.8346454243435488  0.1673337461641324  0.5006015859046329   F   F   F
  0.6672936831907421  0.0000000000000000  0.5007822489636382   F   F   F
  0.1669533248742070  0.5000000000000000  0.5012203815079630   F   F   F
  0.9999959776849821  0.3338337926353176  0.5007170793141285   F   F   F
  0.4999913642602181  0.5000000000000000  0.4992409868728203   F   F   F
  0.3334388216757276  0.3327274886566229  0.5024545387357620   F   F   F
  0.8330333995282118  0.5000000000000000  0.5012210142848232   F   F   F
  0.6665445999497734  0.3327274050105373  0.5024553696240446   F   F   F
  0.1653502776841975  0.8326677056809544  0.5006013092773856   F   F   F
  0.9999959776849821  0.6661662503646824  0.5007170793141285   F   F   F
  0.4999998808137036  0.8347838436250967  0.5024603370854095   F   F   F
  0.3334388216757276  0.6672725543433771  0.5024545387357620   F   F   F
  0.8346454243435488  0.8326662108358676  0.5006015859046329   F   F   F
  0.6665445999497734  0.6672726379894627  0.5024553696240446   F   F   F
  0.1625834912633124  0.0000000000000000  0.6621676049573111   F   F   F
  0.9999912535876376  0.1670109792131669  0.3413509581392589   F   F   F
  0.4999948816127855  0.0000000000000000  0.6724323227252000   F   F   F
  0.3335049538182489  0.1665309303545257  0.3415965345528207   F   F   F
  0.8374050750928461  0.0000000000000000  0.6621899986515061   F   F   F
  0.6664830833168125  0.1665295266401614  0.3416060695944338   F   F   F
  0.1693030220601131  0.3357135566084395  0.6602980205334674   F   F   F
  0.9999880934451824  0.5000000000000000  0.3410012147251607   F   F   F
  0.4999949914504427  0.2704176969738157  0.6790131012195744   F   F   F
  0.3346458972454585  0.5000000000000000  0.3418608503493559   F   F   F
  0.8307052890786863  0.3357145168007634  0.6602973898660238   F   F   F
  0.6653368480640651  0.5000000000000000  0.3418631042337381   F   F   F
  0.1693030220601131  0.6642864863915534  0.6602980205334674   F   F   F
  0.9999912535876376  0.8329889777868331  0.3413509581392589   F   F   F
  0.4999949914504427  0.7295823460261843  0.6790131012195744   F   F   F
  0.3335049538182489  0.8334690266454743  0.3415965345528207   F   F   F
  0.8307052890786863  0.6642855261992366  0.6602973898660238   F   F   F
  0.6664830833168125  0.8334704303598386  0.3416060695944338   F   F   F
  0.4999655072957622  0.5000400110000028  0.6475355894379523   T   T   T
 
  0.00000000E+00  0.00000000E+00  0.00000000E+00
  0.00000000E+00  0.00000000E+00  0.00000000E+00
  0.00000000E+00  0.00000000E+00  0.00000000E+00
  0.00000000E+00  0.00000000E+00  0.00000000E+00
  0.00000000E+00  0.00000000E+00  0.00000000E+00
  0.00000000E+00  0.00000000E+00  0.00000000E+00
  0.00000000E+00  0.00000000E+00  0.00000000E+00
  0.00000000E+00  0.00000000E+00  0.00000000E+00
  0.00000000E+00  0.00000000E+00  0.00000000E+00
  0.00000000E+00  0.00000000E+00  0.00000000E+00
  0.00000000E+00  0.00000000E+00  0.00000000E+00
  0.00000000E+00  0.00000000E+00  0.00000000E+00
  0.00000000E+00  0.00000000E+00  0.00000000E+00
  0.00000000E+00  0.00000000E+00  0.00000000E+00
  0.00000000E+00  0.00000000E+00  0.00000000E+00
  0.00000000E+00  0.00000000E+00  0.00000000E+00
  0.00000000E+00  0.00000000E+00  0.00000000E+00
  0.00000000E+00  0.00000000E+00  0.00000000E+00
  0.00000000E+00  0.00000000E+00  0.00000000E+00
  0.00000000E+00  0.00000000E+00  0.00000000E+00
  0.00000000E+00  0.00000000E+00  0.00000000E+00
  0.00000000E+00  0.00000000E+00  0.00000000E+00
  0.00000000E+00  0.00000000E+00  0.00000000E+00
  0.00000000E+00  0.00000000E+00  0.00000000E+00
  0.00000000E+00  0.00000000E+00  0.00000000E+00
  0.00000000E+00  0.00000000E+00  0.00000000E+00
  0.00000000E+00  0.00000000E+00  0.00000000E+00
  0.00000000E+00  0.00000000E+00  0.00000000E+00
  0.00000000E+00  0.00000000E+00  0.00000000E+00
  0.00000000E+00  0.00000000E+00  0.00000000E+00
  0.00000000E+00  0.00000000E+00  0.00000000E+00
  0.00000000E+00  0.00000000E+00  0.00000000E+00
  0.00000000E+00  0.00000000E+00  0.00000000E+00
  0.00000000E+00  0.00000000E+00  0.00000000E+00
  0.00000000E+00  0.00000000E+00  0.00000000E+00
  0.00000000E+00  0.00000000E+00  0.00000000E+00
  0.00000000E+00  0.00000000E+00  0.00000000E+00
  0.00000000E+00  0.00000000E+00  0.00000000E+00
  0.00000000E+00  0.00000000E+00  0.00000000E+00
  0.00000000E+00  0.00000000E+00  0.00000000E+00
  0.00000000E+00  0.00000000E+00  0.00000000E+00
  0.00000000E+00  0.00000000E+00  0.00000000E+00
  0.00000000E+00  0.00000000E+00  0.00000000E+00
  0.00000000E+00  0.00000000E+00  0.00000000E+00
  0.00000000E+00  0.00000000E+00  0.00000000E+00
  0.00000000E+00  0.00000000E+00  0.00000000E+00
  0.00000000E+00  0.00000000E+00  0.00000000E+00
  0.00000000E+00  0.00000000E+00  0.00000000E+00
  0.00000000E+00  0.00000000E+00  0.00000000E+00
  0.00000000E+00  0.00000000E+00  0.00000000E+00
  0.00000000E+00  0.00000000E+00  0.00000000E+00
  0.00000000E+00  0.00000000E+00  0.00000000E+00
  0.00000000E+00  0.00000000E+00  0.00000000E+00
  0.00000000E+00  0.00000000E+00  0.00000000E+00
  0.00000000E+00  0.00000000E+00  0.00000000E+00
