CONTCAR\(2)                             
   1.00000000000000     
    11.0504999160999997    0.0000000000000000    0.0000000000000000
     0.0000000000000000   15.0270004272000008    0.0000000000000000
     0.0000000000000000    0.0000000000000000   19.5720996856999996
   Ta   Ni   Te   O    H 
     6     6    30     1     1
Direct
  0.0000356875519714  0.7501288648615656  0.4996582489632360
  0.0010409739235655  0.2497574116538175  0.5015436993072413
  0.3333561454298746  0.7491086112190786  0.5128784646517914
  0.3333633101598608  0.2489670369510080  0.4998546664879555
  0.6666752332255967  0.7501153469897162  0.4996621199007336
  0.6656648821099793  0.2497515561970260  0.5015457339558580
  0.1648346561347083  0.4963174996882316  0.4980638216033384
  0.1643560120213579  0.0013578598749930  0.4997834521675415
  0.5018594587973766  0.4963135554107225  0.4980595274295041
  0.5023248453356999  0.0013646259412567  0.4997783012084582
  0.8333118025409192  0.4999395486539413  0.5013648234093111
  0.8333312593128142  0.9998185414642720  0.5008116419686885
  0.9993254497896018  0.4216520434621742  0.5712089099115190
  0.1674939527943735  0.3548581784494331  0.4239483196736700
  0.9989776814750257  0.5776856537463146  0.4311880894512399
  0.9985081340586675  0.9223565613531122  0.4299380489788192
  0.9985125399647714  0.0782036883091664  0.5713826948527654
  0.1734660178670993  0.7498133317934901  0.3926569632378900
  0.1570911113695530  0.8652020636218580  0.5753149611656312
  0.1682034652797171  0.2496915470085028  0.6128076933897759
  0.1669375188638824  0.1417042131307795  0.4254171705286680
  0.1571888048280670  0.6322270530819623  0.5739224939196461
  0.3333768296416295  0.4205092414930505  0.5693817314335234
  0.4992251589489527  0.3548374683361644  0.4239418993759543
  0.3333309280124013  0.5801556490714361  0.4331861651890136
  0.3333513960048222  0.9181853706915959  0.4348077821849827
  0.3333390045547233  0.0779605977002760  0.5702487201244466
  0.4932248434771296  0.7498105401162647  0.3926628312179048
  0.5095915367480117  0.8652141741180230  0.5753125304249949
  0.4985301794008308  0.2496559401628673  0.6128143421802221
  0.4997655627042263  0.1417038701828872  0.4254189742171519
  0.5095337182266562  0.6321901346221281  0.5739350239511509
  0.6673512814842013  0.4216474901345819  0.5712134353989242
  0.8333408449041499  0.3554624185282620  0.4267311962775651
  0.6676665130155115  0.5776812651904493  0.4311869261475962
  0.6681662650689830  0.9223017183502762  0.4299530315875515
  0.6681480789191880  0.0782030825018438  0.5714024903857009
  0.8333257508901752  0.7507752453367118  0.3881519352904661
  0.8333399141798381  0.8554819673921941  0.5754088908904720
  0.8333656691166311  0.2504855186689170  0.6131991657723717
  0.8333479311501151  0.1443459127139093  0.4265978361998037
  0.8333572003451906  0.6446281958495845  0.5753925934159767
  0.3333927207620917  0.7349515496372447  0.6245651483081645
  0.3334092806100770  0.7904577513388844  0.6512374198627526
 
  0.00000000E+00  0.00000000E+00  0.00000000E+00
  0.00000000E+00  0.00000000E+00  0.00000000E+00
  0.00000000E+00  0.00000000E+00  0.00000000E+00
  0.00000000E+00  0.00000000E+00  0.00000000E+00
  0.00000000E+00  0.00000000E+00  0.00000000E+00
  0.00000000E+00  0.00000000E+00  0.00000000E+00
  0.00000000E+00  0.00000000E+00  0.00000000E+00
  0.00000000E+00  0.00000000E+00  0.00000000E+00
  0.00000000E+00  0.00000000E+00  0.00000000E+00
  0.00000000E+00  0.00000000E+00  0.00000000E+00
  0.00000000E+00  0.00000000E+00  0.00000000E+00
  0.00000000E+00  0.00000000E+00  0.00000000E+00
  0.00000000E+00  0.00000000E+00  0.00000000E+00
  0.00000000E+00  0.00000000E+00  0.00000000E+00
  0.00000000E+00  0.00000000E+00  0.00000000E+00
  0.00000000E+00  0.00000000E+00  0.00000000E+00
  0.00000000E+00  0.00000000E+00  0.00000000E+00
  0.00000000E+00  0.00000000E+00  0.00000000E+00
  0.00000000E+00  0.00000000E+00  0.00000000E+00
  0.00000000E+00  0.00000000E+00  0.00000000E+00
  0.00000000E+00  0.00000000E+00  0.00000000E+00
  0.00000000E+00  0.00000000E+00  0.00000000E+00
  0.00000000E+00  0.00000000E+00  0.00000000E+00
  0.00000000E+00  0.00000000E+00  0.00000000E+00
  0.00000000E+00  0.00000000E+00  0.00000000E+00
  0.00000000E+00  0.00000000E+00  0.00000000E+00
  0.00000000E+00  0.00000000E+00  0.00000000E+00
  0.00000000E+00  0.00000000E+00  0.00000000E+00
  0.00000000E+00  0.00000000E+00  0.00000000E+00
  0.00000000E+00  0.00000000E+00  0.00000000E+00
  0.00000000E+00  0.00000000E+00  0.00000000E+00
  0.00000000E+00  0.00000000E+00  0.00000000E+00
  0.00000000E+00  0.00000000E+00  0.00000000E+00
  0.00000000E+00  0.00000000E+00  0.00000000E+00
  0.00000000E+00  0.00000000E+00  0.00000000E+00
  0.00000000E+00  0.00000000E+00  0.00000000E+00
  0.00000000E+00  0.00000000E+00  0.00000000E+00
  0.00000000E+00  0.00000000E+00  0.00000000E+00
  0.00000000E+00  0.00000000E+00  0.00000000E+00
  0.00000000E+00  0.00000000E+00  0.00000000E+00
  0.00000000E+00  0.00000000E+00  0.00000000E+00
  0.00000000E+00  0.00000000E+00  0.00000000E+00
  0.00000000E+00  0.00000000E+00  0.00000000E+00
  0.00000000E+00  0.00000000E+00  0.00000000E+00
