CONTCAR                                 
   1.00000000000000     
    14.4987001419000006    0.0000000000000000    0.0000000000000000
    -0.3851722429000000   15.7714976485000005    0.0000000000000000
     0.0000000000000000    0.0000000000000000   25.2446994780999994
   Cr   P    O    H 
    24    24   121     1
Direct
  0.9902768264196259  0.3551048034110353  0.3460071524958021
  0.2449380322670911  0.3727736261815403  0.5183310108333211
  0.0884258439707882  0.1260244951510757  0.4803010243903308
  0.3424374808489336  0.1461461600198621  0.6533636382630303
  0.3245152432638745  0.3528799252592246  0.3455266331913999
  0.5780841678420077  0.3729367032465813  0.5186945445371335
  0.4218591911417820  0.1260449887423515  0.4810225485404814
  0.6762117068843799  0.1452838414002300  0.6539712096571830
  0.6582551946662194  0.3529822037264306  0.3461837925681636
  0.9117704365582486  0.3732418535810645  0.5194654006751028
  0.7551818167803679  0.1262711728103499  0.4809336341207977
  0.0100069603833082  0.1443133986142436  0.6534387391339315
  0.9916188903924718  0.8530950836605319  0.3460953175136929
  0.2449497292737418  0.8730734493847421  0.5194205207818917
  0.0886651521996587  0.6263626165026643  0.4813029462890259
  0.3437514321107206  0.6433096200498344  0.6536132422315916
  0.3246366401108634  0.8539091681140205  0.3464225561281335
  0.5783206219407451  0.8728833968267737  0.5194174997369886
  0.4217824098707777  0.6259009897081849  0.4804623849868548
  0.6764789974152967  0.6442796771131684  0.6533405923387182
  0.6570652132799336  0.8549574645891106  0.3460296699588710
  0.9115202234207209  0.8729927710871985  0.5186997972436075
  0.7552074691363178  0.6259443845696555  0.4803478099959173
  0.0094235796728195  0.6456987339642479  0.6537015411392406
  0.0738665325606938  0.4395440065665083  0.4465154592834227
  0.2538604796044941  0.2173517714274863  0.4305265867405172
  0.0804548191589829  0.2807722383915439  0.5686233656670691
  0.2594352410650774  0.0598428450620558  0.5534072098024641
  0.4071835185128735  0.4391293318501157  0.4457341042439295
  0.5868569020318800  0.2176001830531953  0.4308914045958675
  0.4128908790272210  0.2818085910586626  0.5687688931362247
  0.5931071035384146  0.0597998820938752  0.5536470596295957
  0.7406868124958471  0.4391758856889948  0.4463589878020423
  0.9198698429614336  0.2185622719218495  0.4309981069569559
  0.7463961789747596  0.2814167080104606  0.5690062585846324
  0.9262415687456892  0.0598169029980404  0.5531063104564119
  0.0740105167441164  0.9391124002076940  0.4462594462340284
  0.2533067106026663  0.7181925701769348  0.4311450672001827
  0.0795548809175387  0.7816963220015957  0.5691445495920354
  0.2596858630255210  0.5593858448194042  0.5531527205236964
  0.4073453856709306  0.9392509256876223  0.4468548422729408
  0.5866626540952858  0.7183603645147202  0.4308894709194674
  0.4132663111525288  0.7805507300205128  0.5690035631725645
  0.5929650725520821  0.5595696559467213  0.5529099915558303
  0.7404283809544425  0.9394047690028474  0.4465025753037878
  0.9206074459628548  0.7175380638031587  0.4308261114676496
  0.7469444820837390  0.7807481501059235  0.5687633772475480
  0.9262948154456562  0.5599458439448128  0.5535959748804623
  0.0756895638838841  0.3989483575950910  0.3885818959140991
  0.3066985411538063  0.4397853496537945  0.4646920128896358
  0.2454300045488874  0.4182917210561221  0.3362853634366171
  0.1333483117530070  0.3812998638896832  0.4792812667710380
  0.2177500684702280  0.4699290226617819  0.5585101952411264
  0.2802971817109290  0.2576541807460190  0.3751033642051532
  0.0365529329945064  0.3330053705136185  0.2913086889814068
  0.1827912970981067  0.3062912667588704  0.5717021340361004
  0.2708700458577661  0.2818117359956167  0.4746624246467896
  0.3157942264400519  0.1411511096393199  0.4386081000658481
  0.0181319309883651  0.3569443201304796  0.5613878127623243
  0.0632723760330502  0.2170942635553135  0.5240523127115391
  0.1514433519720634  0.1922284512923869  0.4271083684175833
  0.2968030422810961  0.1670604873178241  0.7084423723809702
  0.0549999792880556  0.2391555706625877  0.6237855928523720
  0.1142784237030255  0.0289680721464249  0.4394116439194116
  0.1997390358846137  0.1160683621859883  0.5194630994650736
  0.0883778431804053  0.0781037141597614  0.6623845564878754
  0.0265265174518239  0.0588960813503693  0.5338857915221770
  0.2568724718412368  0.1029129856870519  0.6106618961825805
  0.4096651860235001  0.3969494282747754  0.3882245587770748
  0.6401443354834352  0.4399560093599848  0.4652007020490696
  0.5800863101918011  0.4193276755508320  0.3370255508065464
  0.4670132999920951  0.3822901481072212  0.4792489365282318
  0.5519198946553315  0.4699816484123317  0.5592941743537386
  0.6126473102473424  0.2579596876158644  0.3754003819225042
  0.3709008815175423  0.3313553726052783  0.2907642500220000
  0.5153756949196471  0.3067501626380613  0.5718301668185958
  0.6041883808226715  0.2820077703263490  0.4750220680131599
  0.6488396091396598  0.1413636290360112  0.4387553102346421
  0.3510077960223661  0.3577530563602089  0.5598780661933427
  0.3959370411514928  0.2168564827478764  0.5248044772290886
  0.4844055684729431  0.1924559700724084  0.4278096075575472
  0.6299368684745749  0.1669894090683866  0.7087605449167741
  0.3865257600689735  0.2416916616164430  0.6241847101592127
  0.4483967345592391  0.0288777418274381  0.4403924452222635
  0.5332645630485217  0.1167780808446878  0.5202780345173320
  0.4214353703844942  0.0804182671588708  0.6618829605101197
  0.3599189700748931  0.0588998391782916  0.5344734691836482
  0.5909591933457550  0.1018017636200702  0.6112173528516508
  0.7435561881191569  0.3956715482275220  0.3892349219693275
  0.9736145318346854  0.4403828208912085  0.4658315318126325
  0.9115951337691980  0.4208456098209208  0.3365745754793358
  0.8003727841152114  0.3832541940004864  0.4805050879901421
  0.8860366096142630  0.4701014740069865  0.5605231592129671
  0.9455579589367356  0.2603572798793767  0.3759042152402152
  0.7046694175763530  0.3314594454051048  0.2914345122217304
  0.8487379483944985  0.3068302906426172  0.5725383226700702
  0.9366987364714826  0.2821694901917283  0.4756301395528044
  0.9822058785462355  0.1424036280814745  0.4382533792573022
  0.6841198565134625  0.3574648495734552  0.5612471275878109
  0.7295643174808474  0.2172816386453663  0.5246565253773808
  0.8175720213845249  0.1928834138870418  0.4276286222217208
  0.9641477805780913  0.1660367200245998  0.7083203146572988
  0.7203724462281051  0.2404602014372760  0.6243283299623894
  0.7816451385779837  0.0290796816715508  0.4405083012516848
  0.8667498511338451  0.1174677336125150  0.5199628044118880
  0.7551355308060314  0.0797032361886616  0.6631722914931664
  0.6934864700098405  0.0591333386216813  0.5345173090417730
  0.9241996890252664  0.1012691956375626  0.6108237239173886
  0.0769778574911128  0.8961415908936773  0.3889913661058676
  0.3069265600460260  0.9401889473156465  0.4658599808706234
  0.2464861263835428  0.9201956936829532  0.3370225337807104
  0.1337035354936404  0.8829041160395851  0.4802335507026161
  0.2190119467496580  0.9700775299192249  0.5603309875861955
  0.2789456610519853  0.7591223889848236  0.3758044319025231
  0.0377577325796734  0.8318425898917946  0.2912210316266468
  0.1819880759491787  0.8067871964396734  0.5724854667646048
  0.2705450174864027  0.7821752271090278  0.4755189795937987
  0.3153068336235557  0.6418396772575584  0.4385982584397635
  0.0176589314208115  0.8579376495231146  0.5611120903110772
  0.0624086718406950  0.7172509077928177  0.5250212668667530
  0.1508931438788150  0.6929002951162305  0.4280282551808684
  0.2980405754465180  0.6642632201692200  0.7086198987208729
  0.0533815340775899  0.7414291932864935  0.6246147811901157
  0.1155402784322458  0.5291213614565534  0.4410004418692764
  0.2001476914399660  0.6179352959988476  0.5206161808345362
  0.0883805832574120  0.5799521727583369  0.6621623282203765
  0.0268002651543280  0.5591691874626977  0.5346833465549024
  0.2582229856753217  0.5998805006708300  0.6111853738840116
  0.4098768812645351  0.8967527135888930  0.3894458064521339
  0.6401196651271124  0.9400232814538300  0.4657234445914273
  0.5784766947766165  0.9209004100888184  0.3369126016467364
  0.4667735834773653  0.8824008007575700  0.4805727439914143
  0.5524890857302566  0.9699999943755365  0.5601538303079938
  0.6123791785060970  0.7600808359013388  0.3757817832530572
  0.3711901438148485  0.8320156023027158  0.2917786208129315
  0.5155095564675779  0.8062757564712585  0.5726270404024062
  0.6034346315982574  0.7818750281253606  0.4755847278205509
  0.6490682176892474  0.6422817148669864  0.4382032137965792
  0.3509599167525985  0.8566907706822040  0.5617552130690118
  0.3964747768048884  0.7168416135537560  0.5244579728452616
  0.4843574312209719  0.6927387692553214  0.4274262059576026
  0.6301731167683746  0.6653659099724749  0.7082367221632972
  0.3873649682825303  0.7387455559890735  0.6241960600465830
  0.4478082331183353  0.5289877126999806  0.4394356409869208
  0.5332878037488157  0.6166181914410523  0.5195046825499937
  0.4236865396188482  0.5779641039664714  0.6621051541928363
  0.3599159413996060  0.5584616032995592  0.5338461109353523
  0.5909167546347234  0.6016073643130414  0.6104964289601371
  0.7426384414690065  0.8981952124043969  0.3887235569077945
  0.9734535561973030  0.9398668348200061  0.4650906693308539
  0.9130328694468766  0.9191088991300616  0.3371896571532371
  0.8000569559178438  0.8818226947696649  0.4796215355013257
  0.8848823208202111  0.9702099154232288  0.5591016561463433
  0.9468479845974891  0.7578792586743303  0.3753983819652703
  0.7031915673905536  0.8332406648896946  0.2912237229379885
  0.8492320870148893  0.8064391727187744  0.5720066470757003
  0.9374512383983953  0.7819468970611368  0.4750199912814760
  0.9825619932892486  0.6413433942926002  0.4388640963161777
  0.6846203378894977  0.8568785821619357  0.5614487651977238
  0.7298803449566771  0.7169124344034077  0.5243191903677691
  0.8181956489591624  0.6923584503992296  0.4273736648784848
  0.9636203761193137  0.6663731723426790  0.7087674210310160
  0.7214574593829690  0.7393586094048525  0.6240487152652044
  0.7809944860764866  0.5289680198688828  0.4392918307351437
  0.8664535011406770  0.6159931364059225  0.5196302390287464
  0.7547218789876022  0.5778968976047867  0.6621929109431879
  0.6933260141870011  0.5587234670232080  0.5338348774758847
  0.9237352505827275  0.6029060312015068  0.6108773302431232
  0.3867754834935663  0.4261025996794658  0.6757941682298824
  0.4312330674200390  0.4340467685103407  0.7050795730934470
 
  0.00000000E+00  0.00000000E+00  0.00000000E+00
  0.00000000E+00  0.00000000E+00  0.00000000E+00
  0.00000000E+00  0.00000000E+00  0.00000000E+00
  0.00000000E+00  0.00000000E+00  0.00000000E+00
  0.00000000E+00  0.00000000E+00  0.00000000E+00
  0.00000000E+00  0.00000000E+00  0.00000000E+00
  0.00000000E+00  0.00000000E+00  0.00000000E+00
  0.00000000E+00  0.00000000E+00  0.00000000E+00
  0.00000000E+00  0.00000000E+00  0.00000000E+00
  0.00000000E+00  0.00000000E+00  0.00000000E+00
  0.00000000E+00  0.00000000E+00  0.00000000E+00
  0.00000000E+00  0.00000000E+00  0.00000000E+00
  0.00000000E+00  0.00000000E+00  0.00000000E+00
  0.00000000E+00  0.00000000E+00  0.00000000E+00
  0.00000000E+00  0.00000000E+00  0.00000000E+00
  0.00000000E+00  0.00000000E+00  0.00000000E+00
  0.00000000E+00  0.00000000E+00  0.00000000E+00
  0.00000000E+00  0.00000000E+00  0.00000000E+00
  0.00000000E+00  0.00000000E+00  0.00000000E+00
  0.00000000E+00  0.00000000E+00  0.00000000E+00
  0.00000000E+00  0.00000000E+00  0.00000000E+00
  0.00000000E+00  0.00000000E+00  0.00000000E+00
  0.00000000E+00  0.00000000E+00  0.00000000E+00
  0.00000000E+00  0.00000000E+00  0.00000000E+00
  0.00000000E+00  0.00000000E+00  0.00000000E+00
  0.00000000E+00  0.00000000E+00  0.00000000E+00
  0.00000000E+00  0.00000000E+00  0.00000000E+00
  0.00000000E+00  0.00000000E+00  0.00000000E+00
  0.00000000E+00  0.00000000E+00  0.00000000E+00
  0.00000000E+00  0.00000000E+00  0.00000000E+00
  0.00000000E+00  0.00000000E+00  0.00000000E+00
  0.00000000E+00  0.00000000E+00  0.00000000E+00
  0.00000000E+00  0.00000000E+00  0.00000000E+00
  0.00000000E+00  0.00000000E+00  0.00000000E+00
  0.00000000E+00  0.00000000E+00  0.00000000E+00
  0.00000000E+00  0.00000000E+00  0.00000000E+00
  0.00000000E+00  0.00000000E+00  0.00000000E+00
  0.00000000E+00  0.00000000E+00  0.00000000E+00
  0.00000000E+00  0.00000000E+00  0.00000000E+00
  0.00000000E+00  0.00000000E+00  0.00000000E+00
  0.00000000E+00  0.00000000E+00  0.00000000E+00
  0.00000000E+00  0.00000000E+00  0.00000000E+00
  0.00000000E+00  0.00000000E+00  0.00000000E+00
  0.00000000E+00  0.00000000E+00  0.00000000E+00
  0.00000000E+00  0.00000000E+00  0.00000000E+00
  0.00000000E+00  0.00000000E+00  0.00000000E+00
  0.00000000E+00  0.00000000E+00  0.00000000E+00
  0.00000000E+00  0.00000000E+00  0.00000000E+00
  0.00000000E+00  0.00000000E+00  0.00000000E+00
  0.00000000E+00  0.00000000E+00  0.00000000E+00
  0.00000000E+00  0.00000000E+00  0.00000000E+00
  0.00000000E+00  0.00000000E+00  0.00000000E+00
  0.00000000E+00  0.00000000E+00  0.00000000E+00
  0.00000000E+00  0.00000000E+00  0.00000000E+00
  0.00000000E+00  0.00000000E+00  0.00000000E+00
  0.00000000E+00  0.00000000E+00  0.00000000E+00
  0.00000000E+00  0.00000000E+00  0.00000000E+00
  0.00000000E+00  0.00000000E+00  0.00000000E+00
  0.00000000E+00  0.00000000E+00  0.00000000E+00
  0.00000000E+00  0.00000000E+00  0.00000000E+00
  0.00000000E+00  0.00000000E+00  0.00000000E+00
  0.00000000E+00  0.00000000E+00  0.00000000E+00
  0.00000000E+00  0.00000000E+00  0.00000000E+00
  0.00000000E+00  0.00000000E+00  0.00000000E+00
  0.00000000E+00  0.00000000E+00  0.00000000E+00
  0.00000000E+00  0.00000000E+00  0.00000000E+00
  0.00000000E+00  0.00000000E+00  0.00000000E+00
  0.00000000E+00  0.00000000E+00  0.00000000E+00
  0.00000000E+00  0.00000000E+00  0.00000000E+00
  0.00000000E+00  0.00000000E+00  0.00000000E+00
  0.00000000E+00  0.00000000E+00  0.00000000E+00
  0.00000000E+00  0.00000000E+00  0.00000000E+00
  0.00000000E+00  0.00000000E+00  0.00000000E+00
  0.00000000E+00  0.00000000E+00  0.00000000E+00
  0.00000000E+00  0.00000000E+00  0.00000000E+00
  0.00000000E+00  0.00000000E+00  0.00000000E+00
  0.00000000E+00  0.00000000E+00  0.00000000E+00
  0.00000000E+00  0.00000000E+00  0.00000000E+00
  0.00000000E+00  0.00000000E+00  0.00000000E+00
  0.00000000E+00  0.00000000E+00  0.00000000E+00
  0.00000000E+00  0.00000000E+00  0.00000000E+00
  0.00000000E+00  0.00000000E+00  0.00000000E+00
  0.00000000E+00  0.00000000E+00  0.00000000E+00
  0.00000000E+00  0.00000000E+00  0.00000000E+00
  0.00000000E+00  0.00000000E+00  0.00000000E+00
  0.00000000E+00  0.00000000E+00  0.00000000E+00
  0.00000000E+00  0.00000000E+00  0.00000000E+00
  0.00000000E+00  0.00000000E+00  0.00000000E+00
  0.00000000E+00  0.00000000E+00  0.00000000E+00
  0.00000000E+00  0.00000000E+00  0.00000000E+00
  0.00000000E+00  0.00000000E+00  0.00000000E+00
  0.00000000E+00  0.00000000E+00  0.00000000E+00
  0.00000000E+00  0.00000000E+00  0.00000000E+00
  0.00000000E+00  0.00000000E+00  0.00000000E+00
  0.00000000E+00  0.00000000E+00  0.00000000E+00
  0.00000000E+00  0.00000000E+00  0.00000000E+00
  0.00000000E+00  0.00000000E+00  0.00000000E+00
  0.00000000E+00  0.00000000E+00  0.00000000E+00
  0.00000000E+00  0.00000000E+00  0.00000000E+00
  0.00000000E+00  0.00000000E+00  0.00000000E+00
  0.00000000E+00  0.00000000E+00  0.00000000E+00
  0.00000000E+00  0.00000000E+00  0.00000000E+00
  0.00000000E+00  0.00000000E+00  0.00000000E+00
  0.00000000E+00  0.00000000E+00  0.00000000E+00
  0.00000000E+00  0.00000000E+00  0.00000000E+00
  0.00000000E+00  0.00000000E+00  0.00000000E+00
  0.00000000E+00  0.00000000E+00  0.00000000E+00
  0.00000000E+00  0.00000000E+00  0.00000000E+00
  0.00000000E+00  0.00000000E+00  0.00000000E+00
  0.00000000E+00  0.00000000E+00  0.00000000E+00
  0.00000000E+00  0.00000000E+00  0.00000000E+00
  0.00000000E+00  0.00000000E+00  0.00000000E+00
  0.00000000E+00  0.00000000E+00  0.00000000E+00
  0.00000000E+00  0.00000000E+00  0.00000000E+00
  0.00000000E+00  0.00000000E+00  0.00000000E+00
  0.00000000E+00  0.00000000E+00  0.00000000E+00
  0.00000000E+00  0.00000000E+00  0.00000000E+00
  0.00000000E+00  0.00000000E+00  0.00000000E+00
  0.00000000E+00  0.00000000E+00  0.00000000E+00
  0.00000000E+00  0.00000000E+00  0.00000000E+00
  0.00000000E+00  0.00000000E+00  0.00000000E+00
  0.00000000E+00  0.00000000E+00  0.00000000E+00
  0.00000000E+00  0.00000000E+00  0.00000000E+00
  0.00000000E+00  0.00000000E+00  0.00000000E+00
  0.00000000E+00  0.00000000E+00  0.00000000E+00
  0.00000000E+00  0.00000000E+00  0.00000000E+00
  0.00000000E+00  0.00000000E+00  0.00000000E+00
  0.00000000E+00  0.00000000E+00  0.00000000E+00
  0.00000000E+00  0.00000000E+00  0.00000000E+00
  0.00000000E+00  0.00000000E+00  0.00000000E+00
  0.00000000E+00  0.00000000E+00  0.00000000E+00
  0.00000000E+00  0.00000000E+00  0.00000000E+00
  0.00000000E+00  0.00000000E+00  0.00000000E+00
  0.00000000E+00  0.00000000E+00  0.00000000E+00
  0.00000000E+00  0.00000000E+00  0.00000000E+00
  0.00000000E+00  0.00000000E+00  0.00000000E+00
  0.00000000E+00  0.00000000E+00  0.00000000E+00
  0.00000000E+00  0.00000000E+00  0.00000000E+00
  0.00000000E+00  0.00000000E+00  0.00000000E+00
  0.00000000E+00  0.00000000E+00  0.00000000E+00
  0.00000000E+00  0.00000000E+00  0.00000000E+00
  0.00000000E+00  0.00000000E+00  0.00000000E+00
  0.00000000E+00  0.00000000E+00  0.00000000E+00
  0.00000000E+00  0.00000000E+00  0.00000000E+00
  0.00000000E+00  0.00000000E+00  0.00000000E+00
  0.00000000E+00  0.00000000E+00  0.00000000E+00
  0.00000000E+00  0.00000000E+00  0.00000000E+00
  0.00000000E+00  0.00000000E+00  0.00000000E+00
  0.00000000E+00  0.00000000E+00  0.00000000E+00
  0.00000000E+00  0.00000000E+00  0.00000000E+00
  0.00000000E+00  0.00000000E+00  0.00000000E+00
  0.00000000E+00  0.00000000E+00  0.00000000E+00
  0.00000000E+00  0.00000000E+00  0.00000000E+00
  0.00000000E+00  0.00000000E+00  0.00000000E+00
  0.00000000E+00  0.00000000E+00  0.00000000E+00
  0.00000000E+00  0.00000000E+00  0.00000000E+00
  0.00000000E+00  0.00000000E+00  0.00000000E+00
  0.00000000E+00  0.00000000E+00  0.00000000E+00
  0.00000000E+00  0.00000000E+00  0.00000000E+00
  0.00000000E+00  0.00000000E+00  0.00000000E+00
  0.00000000E+00  0.00000000E+00  0.00000000E+00
  0.00000000E+00  0.00000000E+00  0.00000000E+00
  0.00000000E+00  0.00000000E+00  0.00000000E+00
  0.00000000E+00  0.00000000E+00  0.00000000E+00
  0.00000000E+00  0.00000000E+00  0.00000000E+00
  0.00000000E+00  0.00000000E+00  0.00000000E+00
  0.00000000E+00  0.00000000E+00  0.00000000E+00
  0.00000000E+00  0.00000000E+00  0.00000000E+00
  0.00000000E+00  0.00000000E+00  0.00000000E+00
  0.00000000E+00  0.00000000E+00  0.00000000E+00
