CONTCAR                                 
   1.00000000000000     
    14.1827001571999993    0.0000000000000000    0.0000000000000000
     0.0000000000000000   18.7943000793000010    0.0000000000000000
     0.0000000000000000    0.0000000000000000   21.0296001433999997
   Ta   Pt   Se   O    H 
    16     8    56     2     1
Direct
  0.1878144266503605  0.4225768404494628  0.5617390266374493
  0.0620868537621376  0.5787656630758803  0.4367832999504792
  0.0622659085144558  0.9046692735398925  0.4878875530823814
  0.1878967715603427  0.0977755579933079  0.5072455926855314
  0.4376308566329202  0.4225091638904261  0.5616821604780434
  0.3119922173242085  0.5786291394234270  0.4366930331535132
  0.3124210517310216  0.9046689312278290  0.4874566643189013
  0.4376922016293986  0.0971861115167033  0.5073036048752148
  0.6872645817208788  0.4226427029755311  0.5617644357815864
  0.5620408047307849  0.5786684516631729  0.4367555201564764
  0.5620243618215400  0.9042431555945506  0.4878525736380066
  0.6876447074276364  0.0979302024947925  0.5080171079805980
  0.9376412659076407  0.4227680441315835  0.5616351349265403
  0.8120296002769715  0.5788051305740614  0.4368206216474588
  0.8122164490830681  0.9046227082202883  0.4880395532663268
  0.9377751598458270  0.0974074902888958  0.5082193702294556
  0.0623289363684370  0.2267641697890512  0.5328417168604129
  0.1872299503383123  0.7750874933314155  0.4636667388619786
  0.3126538561317821  0.2265487827943356  0.5323814509829052
  0.4370791394214619  0.7750076150404562  0.4635584862760960
  0.5621812540071991  0.2267592377823833  0.5326133818227995
  0.6872115516530095  0.7751540075680603  0.4639384855699192
  0.8123982543898590  0.2266563739466752  0.5330403630187520
  0.9371939962189706  0.7752300968846145  0.4638292941098424
  0.0621121965312019  0.6978528371891420  0.5134490050304016
  0.1872570553873905  0.3045239891996520  0.4837653182901392
  0.0625094072050370  0.4357823097173092  0.4675588852603283
  0.1871081032700159  0.5660793386734512  0.5310020428907886
  0.1867881362490228  0.5261632656732360  0.3571338808581364
  0.0627044025651699  0.4746866367739448  0.6414259862471402
  0.1871393860234194  0.9839996202041231  0.4275198302566335
  0.0627602064677309  0.0180421388811802  0.5675777037661488
  0.0627198189774142  0.3363512284913926  0.6133436296020731
  0.1870178536054915  0.6645280226498850  0.3843189246854256
  0.1876087118250041  0.1733399096281451  0.6053727662321066
  0.0621760235905020  0.8278773950729520  0.3904288266681167
  0.0617791285698227  0.1468946613506464  0.4305073178562072
  0.1875805114602989  0.8559241057003611  0.5652241204548563
  0.3120975853634321  0.6976861715597035  0.5133946272444948
  0.4374338755319888  0.3043261029844608  0.4836820261860165
  0.3124049709907791  0.4356210065226437  0.4674557958503160
  0.4370555755270440  0.5659447949317133  0.5309048324754320
  0.4369410430098423  0.5256605228636756  0.3575256511062104
  0.3127765352682195  0.4745580356986612  0.6413768759214514
  0.4376435885753500  0.9836617767174904  0.4273020360576278
  0.3117679133780628  0.0178370300304264  0.5667343763955166
  0.3129055373129280  0.3357834554930544  0.6130056948563988
  0.4369787619921940  0.6643267114258758  0.3842426061737947
  0.4372364068126618  0.1717492443529499  0.6054733231625112
  0.3121078321491219  0.8275732896240243  0.3901648093257892
  0.3122390495782092  0.1469884487656261  0.4299755685940155
  0.4370453971079429  0.8559085660985115  0.5653698438871904
  0.5619259341637921  0.6977483665453299  0.5134391149167074
  0.6877166919982427  0.3044977269005536  0.4838405381874452
  0.5626235960929994  0.4356165703951512  0.4674385791189812
  0.6870282172585128  0.5661416888940023  0.5310257100066984
  0.6869435746657160  0.5263567311523465  0.3571002161496848
  0.5625268259405640  0.4748381957639137  0.6412936039193404
  0.6870842263173352  0.9840688347099161  0.4284246708438068
  0.5621450639712917  0.0180513246887854  0.5671124269533988
  0.5624207339390539  0.3357403897722445  0.6130079189139420
  0.6869942430201593  0.6645719853539367  0.3844012400365729
  0.6870473320028423  0.1737115063625583  0.6059284648414477
  0.5624461061417297  0.8275028591365278  0.3904472476549338
  0.5627955870731917  0.1471784791394677  0.4303684429914783
  0.6873002130650347  0.8557841907378292  0.5655928695593075
  0.8121391569259557  0.6978240700482541  0.5136081110648087
  0.9372761432549844  0.3044348259042702  0.4839007161633778
  0.8124150384958542  0.4358498255142202  0.4676348555507072
  0.9370912237977880  0.5661021905971492  0.5310074071964985
  0.9369366125926085  0.5260494110781794  0.3575243296199680
  0.8126756678202598  0.4746790357725343  0.6414509214751959
  0.9370996003677531  0.9841180135657722  0.4279798937967589
  0.8121391773966489  0.0180744032314725  0.5678781350620867
  0.8126132520196043  0.3366192989792532  0.6135050371554241
  0.9370044642685780  0.6645544626168547  0.3844253934002856
  0.9375432241010768  0.1736363015315298  0.6059288546421517
  0.8121661891943225  0.8279200506978726  0.3905277701135758
  0.8124723441576572  0.1467333081842540  0.4308004248619052
  0.9372791428613062  0.8559118407154144  0.5654964947409935
  0.4428024775539003  0.0313013143951666  0.6737452840406464
  0.4469634036729468  0.0281266806339849  0.7395812696816390
  0.4409758163947401 -0.0230906834897499  0.7488122616942824
 
  0.00000000E+00  0.00000000E+00  0.00000000E+00
  0.00000000E+00  0.00000000E+00  0.00000000E+00
  0.00000000E+00  0.00000000E+00  0.00000000E+00
  0.00000000E+00  0.00000000E+00  0.00000000E+00
  0.00000000E+00  0.00000000E+00  0.00000000E+00
  0.00000000E+00  0.00000000E+00  0.00000000E+00
  0.00000000E+00  0.00000000E+00  0.00000000E+00
  0.00000000E+00  0.00000000E+00  0.00000000E+00
  0.00000000E+00  0.00000000E+00  0.00000000E+00
  0.00000000E+00  0.00000000E+00  0.00000000E+00
  0.00000000E+00  0.00000000E+00  0.00000000E+00
  0.00000000E+00  0.00000000E+00  0.00000000E+00
  0.00000000E+00  0.00000000E+00  0.00000000E+00
  0.00000000E+00  0.00000000E+00  0.00000000E+00
  0.00000000E+00  0.00000000E+00  0.00000000E+00
  0.00000000E+00  0.00000000E+00  0.00000000E+00
  0.00000000E+00  0.00000000E+00  0.00000000E+00
  0.00000000E+00  0.00000000E+00  0.00000000E+00
  0.00000000E+00  0.00000000E+00  0.00000000E+00
  0.00000000E+00  0.00000000E+00  0.00000000E+00
  0.00000000E+00  0.00000000E+00  0.00000000E+00
  0.00000000E+00  0.00000000E+00  0.00000000E+00
  0.00000000E+00  0.00000000E+00  0.00000000E+00
  0.00000000E+00  0.00000000E+00  0.00000000E+00
  0.00000000E+00  0.00000000E+00  0.00000000E+00
  0.00000000E+00  0.00000000E+00  0.00000000E+00
  0.00000000E+00  0.00000000E+00  0.00000000E+00
  0.00000000E+00  0.00000000E+00  0.00000000E+00
  0.00000000E+00  0.00000000E+00  0.00000000E+00
  0.00000000E+00  0.00000000E+00  0.00000000E+00
  0.00000000E+00  0.00000000E+00  0.00000000E+00
  0.00000000E+00  0.00000000E+00  0.00000000E+00
  0.00000000E+00  0.00000000E+00  0.00000000E+00
  0.00000000E+00  0.00000000E+00  0.00000000E+00
  0.00000000E+00  0.00000000E+00  0.00000000E+00
  0.00000000E+00  0.00000000E+00  0.00000000E+00
  0.00000000E+00  0.00000000E+00  0.00000000E+00
  0.00000000E+00  0.00000000E+00  0.00000000E+00
  0.00000000E+00  0.00000000E+00  0.00000000E+00
  0.00000000E+00  0.00000000E+00  0.00000000E+00
  0.00000000E+00  0.00000000E+00  0.00000000E+00
  0.00000000E+00  0.00000000E+00  0.00000000E+00
  0.00000000E+00  0.00000000E+00  0.00000000E+00
  0.00000000E+00  0.00000000E+00  0.00000000E+00
  0.00000000E+00  0.00000000E+00  0.00000000E+00
  0.00000000E+00  0.00000000E+00  0.00000000E+00
  0.00000000E+00  0.00000000E+00  0.00000000E+00
  0.00000000E+00  0.00000000E+00  0.00000000E+00
  0.00000000E+00  0.00000000E+00  0.00000000E+00
  0.00000000E+00  0.00000000E+00  0.00000000E+00
  0.00000000E+00  0.00000000E+00  0.00000000E+00
  0.00000000E+00  0.00000000E+00  0.00000000E+00
  0.00000000E+00  0.00000000E+00  0.00000000E+00
  0.00000000E+00  0.00000000E+00  0.00000000E+00
  0.00000000E+00  0.00000000E+00  0.00000000E+00
  0.00000000E+00  0.00000000E+00  0.00000000E+00
  0.00000000E+00  0.00000000E+00  0.00000000E+00
  0.00000000E+00  0.00000000E+00  0.00000000E+00
  0.00000000E+00  0.00000000E+00  0.00000000E+00
  0.00000000E+00  0.00000000E+00  0.00000000E+00
  0.00000000E+00  0.00000000E+00  0.00000000E+00
  0.00000000E+00  0.00000000E+00  0.00000000E+00
  0.00000000E+00  0.00000000E+00  0.00000000E+00
  0.00000000E+00  0.00000000E+00  0.00000000E+00
  0.00000000E+00  0.00000000E+00  0.00000000E+00
  0.00000000E+00  0.00000000E+00  0.00000000E+00
  0.00000000E+00  0.00000000E+00  0.00000000E+00
  0.00000000E+00  0.00000000E+00  0.00000000E+00
  0.00000000E+00  0.00000000E+00  0.00000000E+00
  0.00000000E+00  0.00000000E+00  0.00000000E+00
  0.00000000E+00  0.00000000E+00  0.00000000E+00
  0.00000000E+00  0.00000000E+00  0.00000000E+00
  0.00000000E+00  0.00000000E+00  0.00000000E+00
  0.00000000E+00  0.00000000E+00  0.00000000E+00
  0.00000000E+00  0.00000000E+00  0.00000000E+00
  0.00000000E+00  0.00000000E+00  0.00000000E+00
  0.00000000E+00  0.00000000E+00  0.00000000E+00
  0.00000000E+00  0.00000000E+00  0.00000000E+00
  0.00000000E+00  0.00000000E+00  0.00000000E+00
  0.00000000E+00  0.00000000E+00  0.00000000E+00
  0.00000000E+00  0.00000000E+00  0.00000000E+00
  0.00000000E+00  0.00000000E+00  0.00000000E+00
  0.00000000E+00  0.00000000E+00  0.00000000E+00
