CONTCAR                                 
   1.00000000000000     
    13.0951995849999996    0.0000000000000000    0.0000000000000000
     0.0000000000000000   17.1203994751000010    0.0000000000000000
     0.0000000000000000    0.0000000000000000   20.8015995025999985
   La   I    O 
    12    30     1
Direct
  0.2503535582941536  0.1091565832091125  0.5194903413630911
  0.0834663691729078  0.8338906721864772  0.4838607527179970
  0.2467101317952229  0.6053766053570441  0.5263363879310172
  0.0843455719680785  0.3359277599862335  0.4681993518237563
  0.5829764247058450  0.1091565832091125  0.5194903413630911
  0.4166699800000018  0.8328180123325787  0.4847026769086107
  0.5866198512047757  0.6053766053570441  0.5263363879310172
  0.4166699800000018  0.3362332526216414  0.4685325475802028
  0.9166700170000013  0.1089305397055297  0.5191935453643015
  0.7498636328270889  0.8338906721864772  0.4838607527179970
  0.9166700170000013  0.6065389308059373  0.5291202566381523
  0.7489844300319181  0.3359277599862335  0.4681993518237563
  0.2502820481077884  0.3484975915034265  0.3572888378073894
  0.0838045333945327  0.5905692071900414  0.6389132553044408
  0.2508904029224404  0.9542335182469391  0.4195942679701585
  0.0835088272506055  0.9884354472162935  0.5852448333087490
  0.0809600808418010  0.5305416719542985  0.4290594672074554
  0.2510869726923422  0.4136453420616329  0.5648608548768739
  0.0834923236928826  0.2172272050029786  0.5954746247325704
  0.2502661878657146  0.7285446789441146  0.4040894875442094
  0.0835128760065778  0.1554700255773136  0.4105666068935812
  0.2495054135854563  0.7832596856038273  0.5920173785754612
  0.5830479348922105  0.3484975915034265  0.3572888378073894
  0.4166699800000018  0.5960535461536890  0.6404646880257129
  0.5824395800775586  0.9542335182469391  0.4195942679701585
  0.4166699800000018  0.9880998155821932  0.5855291968791330
  0.4166699800000018  0.5309208071516159  0.4299367793311841
  0.5822430103076567  0.4136453420616329  0.5648608548768739
  0.4166699800000018  0.2174775476199085  0.5957417003926037
  0.5830637951342843  0.7285446789441146  0.4040894875442094
  0.4166699800000018  0.1558199766482725  0.4106201162339059
  0.5838245694145422  0.7832596856038273  0.5920173785754612
  0.9166700170000013  0.3477678693151165  0.3577764966023120
  0.7495254686054637  0.5905692071900414  0.6389132553044408
  0.9166700170000013  0.9545529555212647  0.4189119139342911
  0.7498211747493914  0.9884354472162935  0.5852448333087490
  0.7523699211581958  0.5305416719542985  0.4290594672074554
  0.9166700170000013  0.4119160484134129  0.5648354798494311
  0.7498376783071072  0.2172272050029786  0.5954746247325704
  0.9166700170000013  0.7283412216823490  0.4048157266470153
  0.7498171259934191  0.1554700255773136  0.4105666068935812
  0.9166700170000013  0.7850495623960451  0.5914612202461484
  0.4166400120000020  0.4919076439710300  0.6702949442534977
 
  0.00000000E+00  0.00000000E+00  0.00000000E+00
  0.00000000E+00  0.00000000E+00  0.00000000E+00
  0.00000000E+00  0.00000000E+00  0.00000000E+00
  0.00000000E+00  0.00000000E+00  0.00000000E+00
  0.00000000E+00  0.00000000E+00  0.00000000E+00
  0.00000000E+00  0.00000000E+00  0.00000000E+00
  0.00000000E+00  0.00000000E+00  0.00000000E+00
  0.00000000E+00  0.00000000E+00  0.00000000E+00
  0.00000000E+00  0.00000000E+00  0.00000000E+00
  0.00000000E+00  0.00000000E+00  0.00000000E+00
  0.00000000E+00  0.00000000E+00  0.00000000E+00
  0.00000000E+00  0.00000000E+00  0.00000000E+00
  0.00000000E+00  0.00000000E+00  0.00000000E+00
  0.00000000E+00  0.00000000E+00  0.00000000E+00
  0.00000000E+00  0.00000000E+00  0.00000000E+00
  0.00000000E+00  0.00000000E+00  0.00000000E+00
  0.00000000E+00  0.00000000E+00  0.00000000E+00
  0.00000000E+00  0.00000000E+00  0.00000000E+00
  0.00000000E+00  0.00000000E+00  0.00000000E+00
  0.00000000E+00  0.00000000E+00  0.00000000E+00
  0.00000000E+00  0.00000000E+00  0.00000000E+00
  0.00000000E+00  0.00000000E+00  0.00000000E+00
  0.00000000E+00  0.00000000E+00  0.00000000E+00
  0.00000000E+00  0.00000000E+00  0.00000000E+00
  0.00000000E+00  0.00000000E+00  0.00000000E+00
  0.00000000E+00  0.00000000E+00  0.00000000E+00
  0.00000000E+00  0.00000000E+00  0.00000000E+00
  0.00000000E+00  0.00000000E+00  0.00000000E+00
  0.00000000E+00  0.00000000E+00  0.00000000E+00
  0.00000000E+00  0.00000000E+00  0.00000000E+00
  0.00000000E+00  0.00000000E+00  0.00000000E+00
  0.00000000E+00  0.00000000E+00  0.00000000E+00
  0.00000000E+00  0.00000000E+00  0.00000000E+00
  0.00000000E+00  0.00000000E+00  0.00000000E+00
  0.00000000E+00  0.00000000E+00  0.00000000E+00
  0.00000000E+00  0.00000000E+00  0.00000000E+00
  0.00000000E+00  0.00000000E+00  0.00000000E+00
  0.00000000E+00  0.00000000E+00  0.00000000E+00
  0.00000000E+00  0.00000000E+00  0.00000000E+00
  0.00000000E+00  0.00000000E+00  0.00000000E+00
  0.00000000E+00  0.00000000E+00  0.00000000E+00
  0.00000000E+00  0.00000000E+00  0.00000000E+00
  0.00000000E+00  0.00000000E+00  0.00000000E+00
