 Ag2 H2 O4                              
   1.00000000000000     
     5.4224400181652044    0.0000000000000000    0.0000000000000000
     0.8723956830534657    5.4073168281154613    0.0000000000000000
     0.0000000000000000    0.0000000000000000   16.8506169179668959
   Ag   H    O 
     2     2     4
Direct
  0.5652484102141102  0.3860758827377495  0.5316652281657426
  0.0695783788112863  0.8813687369791552  0.5314798840627049
  0.5343978724401666  0.8481134363480578  0.5440047153245615
  0.6813915332914249  0.0014233233104406  0.4359226590690710
  0.4252788011483943  0.7394534614711148  0.5691273069815281
  0.1601088516599205  0.2891162057307000  0.5452534470240735
  0.7056677012286130  0.0245675179046430  0.4924157254525028
  0.9719685022427171  0.4752991470694141  0.5459159988244693
 
  0.00000000E+00  0.00000000E+00  0.00000000E+00
  0.00000000E+00  0.00000000E+00  0.00000000E+00
  0.00000000E+00  0.00000000E+00  0.00000000E+00
  0.00000000E+00  0.00000000E+00  0.00000000E+00
  0.00000000E+00  0.00000000E+00  0.00000000E+00
  0.00000000E+00  0.00000000E+00  0.00000000E+00
  0.00000000E+00  0.00000000E+00  0.00000000E+00
  0.00000000E+00  0.00000000E+00  0.00000000E+00
