CONTCAR\(20)                            
   1.00000000000000     
    14.4448003769000000    0.0000000000000000    0.0000000000000000
     0.0000000000000000   10.3396997452000008    0.0000000000000000
     0.0000000000000000    0.0000000000000000   18.5883998870999996
   Cu   Mo   F    O 
     6     6    36     1
Direct
  0.9936822629302458  0.9972958640011605  0.4959587199865195
  0.3341496620098279  0.0047194023778595  0.5012367152339481
  0.6623729582271367  0.0034765575009225  0.5021594576220464
  0.0006152713548116  0.5000932669178256  0.4964426567780562
  0.3317158012960951  0.5028729111616286  0.4960808526808536
  0.6598234009033753  0.4973562210030073  0.5801658098332222
  0.1651819748329596  0.2492159996753344  0.4997422017705178
  0.5016339463555989  0.2629016359170595  0.4918691080594168
  0.8294869328524636  0.2525614036185569  0.4901986293873415
  0.1639223830512062  0.7520263284907935  0.4932541873999782
  0.4977573985649514  0.7531022994570015  0.5095507905285273
  0.8209870842840524  0.7373115891942786  0.5176723084140661
  0.2203833624900477  0.0932919645503219  0.5413092927437870
  0.1114819656483469  0.4053002633544843  0.4570819434203714
  0.1096947492076396  0.2879904391058522  0.5877837601080654
  0.2201401882714188  0.2103799593276715  0.4114385026549656
  0.0549198393205417  0.1574743339704673  0.4682801317958453
  0.2750880764114007  0.3428573160218778  0.5308813964739452
  0.5581335474945373  0.1099502706407291  0.5371435730182430
  0.4411156666451881  0.4148263020865991  0.4502420686981999
  0.4513377085857074  0.3051266875633037  0.5817349052143672
  0.5522676102246402  0.2200968150247720  0.4031510755298716
  0.3909341706167899  0.1648550037345096  0.4672338125684301
  0.6111858270819704  0.3624034976255824  0.5193095515353573
  0.8802110766517062  0.0910606134873516  0.5303054700538716
  0.7840854155349289  0.4084259803528073  0.4534553099438436
  0.7724413358132275  0.2758566393588190  0.5796118913363627
  0.8896800996061521  0.2113755373446633  0.4045554780217073
  0.7223502512595114  0.1557113270837252  0.4562617935049253
  0.9387297314761859  0.3413229019407434  0.5269076655102430
  0.2171397157430083  0.5923746848515523  0.5326157558598091
  0.1093146601875439  0.9107339207099227  0.4554539270088933
  0.1074833043352393  0.7811584249362050  0.5819412238859454
  0.2235431310547571  0.7227139715062210  0.4057007263209805
  0.0579675846373915  0.6564977002484386  0.4570232350805884
  0.2721882349049652  0.8445937881331446  0.5287209407109961
  0.5343369687514394  0.5900861387694347  0.5526389792888522
  0.4516743556674616  0.9156514167148604  0.4682562498755189
  0.4356245750163508  0.7941716281798029  0.5944228425134165
  0.5580181075481639  0.7223012650024597  0.4233076734165977
  0.3890719736537005  0.6671088139394854  0.4698579222397337
  0.6048189733325052  0.8459707682203743  0.5473109060040041
  0.8990200887336355  0.5954790950625910  0.5502800947853016
  0.7651782964878741  0.8904615347576207  0.4695260713317004
  0.7982786863328212  0.8347048029638746  0.5996155060849597
  0.8705050218367827  0.7033359245657125  0.4262192619432261
  0.7176868317415225  0.6493569222664337  0.4820863703553903
  0.9405129351851201  0.8341449713753133  0.5246540744523220
  0.7433268698470529  0.5914047809068750  0.6226089100147914
 
  0.00000000E+00  0.00000000E+00  0.00000000E+00
  0.00000000E+00  0.00000000E+00  0.00000000E+00
  0.00000000E+00  0.00000000E+00  0.00000000E+00
  0.00000000E+00  0.00000000E+00  0.00000000E+00
  0.00000000E+00  0.00000000E+00  0.00000000E+00
  0.00000000E+00  0.00000000E+00  0.00000000E+00
  0.00000000E+00  0.00000000E+00  0.00000000E+00
  0.00000000E+00  0.00000000E+00  0.00000000E+00
  0.00000000E+00  0.00000000E+00  0.00000000E+00
  0.00000000E+00  0.00000000E+00  0.00000000E+00
  0.00000000E+00  0.00000000E+00  0.00000000E+00
  0.00000000E+00  0.00000000E+00  0.00000000E+00
  0.00000000E+00  0.00000000E+00  0.00000000E+00
  0.00000000E+00  0.00000000E+00  0.00000000E+00
  0.00000000E+00  0.00000000E+00  0.00000000E+00
  0.00000000E+00  0.00000000E+00  0.00000000E+00
  0.00000000E+00  0.00000000E+00  0.00000000E+00
  0.00000000E+00  0.00000000E+00  0.00000000E+00
  0.00000000E+00  0.00000000E+00  0.00000000E+00
  0.00000000E+00  0.00000000E+00  0.00000000E+00
  0.00000000E+00  0.00000000E+00  0.00000000E+00
  0.00000000E+00  0.00000000E+00  0.00000000E+00
  0.00000000E+00  0.00000000E+00  0.00000000E+00
  0.00000000E+00  0.00000000E+00  0.00000000E+00
  0.00000000E+00  0.00000000E+00  0.00000000E+00
  0.00000000E+00  0.00000000E+00  0.00000000E+00
  0.00000000E+00  0.00000000E+00  0.00000000E+00
  0.00000000E+00  0.00000000E+00  0.00000000E+00
  0.00000000E+00  0.00000000E+00  0.00000000E+00
  0.00000000E+00  0.00000000E+00  0.00000000E+00
  0.00000000E+00  0.00000000E+00  0.00000000E+00
  0.00000000E+00  0.00000000E+00  0.00000000E+00
  0.00000000E+00  0.00000000E+00  0.00000000E+00
  0.00000000E+00  0.00000000E+00  0.00000000E+00
  0.00000000E+00  0.00000000E+00  0.00000000E+00
  0.00000000E+00  0.00000000E+00  0.00000000E+00
  0.00000000E+00  0.00000000E+00  0.00000000E+00
  0.00000000E+00  0.00000000E+00  0.00000000E+00
  0.00000000E+00  0.00000000E+00  0.00000000E+00
  0.00000000E+00  0.00000000E+00  0.00000000E+00
  0.00000000E+00  0.00000000E+00  0.00000000E+00
  0.00000000E+00  0.00000000E+00  0.00000000E+00
  0.00000000E+00  0.00000000E+00  0.00000000E+00
  0.00000000E+00  0.00000000E+00  0.00000000E+00
  0.00000000E+00  0.00000000E+00  0.00000000E+00
  0.00000000E+00  0.00000000E+00  0.00000000E+00
  0.00000000E+00  0.00000000E+00  0.00000000E+00
  0.00000000E+00  0.00000000E+00  0.00000000E+00
  0.00000000E+00  0.00000000E+00  0.00000000E+00
