CONTCAR\(6)                             
   1.00000000000000     
    10.0141000748000000    0.0000000000000000    0.0000000000000000
    -5.0070500374000000    8.6724650608000005    0.0000000000000000
     0.0000000000000000    0.0000000000000000   20.7465000153000005
   Sc   N    Cl   O    H 
    18     9    18     2     1
Direct
  0.2221411793374924  0.1112445700986336  0.4419219711593224
  0.1111147292859047  0.2225903321277556  0.5565558106970792
  0.5554506029520466  0.1113043660152234  0.4419128116495682
  0.4444645041999529  0.2225536817725054  0.5566147177153989
  0.8888115578868787  0.1112860137578967  0.4418925656223514
  0.7777159630987035  0.2223872577553384  0.5565583680804608
  0.2221486927996403  0.4446036214754193  0.4418413751420293
  0.1111354881578216  0.5555895695829953  0.5566104073832462
  0.5554988029838892  0.4445988289719108  0.4419130737299682
  0.4442421841596236  0.5557844550725620  0.5567244655512573
  0.8887873312887467  0.4446417353346268  0.4419238274711617
  0.7775665716316847  0.5556365470896576  0.5566252229911389
  0.2220962920588310  0.7779735838122522  0.4419047649553334
  0.1110770667663222  0.8889879049877070  0.5566053057654876
  0.5554863876959369  0.7779393267145891  0.4418466355628555
  0.4444408180752693  0.8889948273897641  0.5565564378267026
  0.8888375507262645  0.7779336489118018  0.4419166716966308
  0.7776498460425663  0.8890381274204292  0.5565205647995234
 -0.0000244473502142  0.0001329652129889  0.4991126982828724
  0.3332285294286179  0.0002107772958681  0.4991366943275659
  0.6666330498356787  0.0002157643876465  0.4990498324747077
  0.9998871566585750  0.3334704293996646  0.4990594321893870
  0.3332776169952382  0.3335083797211021  0.4990751831109340
  0.6665963312180256  0.3334942628114231  0.4991603613859724
 -0.0001163303277351  0.6668286319867450  0.4991453454062416
  0.3332460589991449  0.6668196106263438  0.4990307997740099
  0.6666045728358622  0.6668042385534548  0.4990693913548785
  0.2222219194973142  0.1112759472755824  0.6379490796484545
  0.1109915790221601  0.2223280964352692  0.3603434745917423
  0.5555267398869301  0.1112748056521941  0.6379538972667814
  0.4442580195351939  0.2223361308686186  0.3603111007227124
  0.8888212524914850  0.1112890975633251  0.6379139983175871
  0.7777133278421192  0.2224115119144053  0.3603398775335567
  0.2217478261664364  0.4442549283963477  0.6372886643494581
  0.1109546872295068  0.5557131355241185  0.3603185598700339
  0.5553805785874487  0.4447547282636240  0.6378667860857183
  0.4444181088952731  0.5556639492263474  0.3602984732853579
  0.8888207776866518  0.4445478093243744  0.6379544841231621
  0.7777622424820575  0.5558272184151924  0.3603124939161455
  0.2223047331723029  0.7778810155952852  0.6378294453880293
  0.1110162661819521  0.8890597487882868  0.3603535118825363
  0.5559617049232157  0.7785809138999000  0.6371820693366668
  0.4443547641913233  0.8891058030577845  0.3603153053339561
  0.8888193180613887  0.7778857626728518  0.6379457433910777
  0.7777536478607519  0.8890935230635539  0.3603429986621388
  0.4291211788176261  0.6070619158933637  0.7679783211783947
  0.3440316215414937  0.5878428995102520  0.8222613234831624
  0.4177425024865902  0.6109887993730192  0.8580061005272076
 
  0.00000000E+00  0.00000000E+00  0.00000000E+00
  0.00000000E+00  0.00000000E+00  0.00000000E+00
  0.00000000E+00  0.00000000E+00  0.00000000E+00
  0.00000000E+00  0.00000000E+00  0.00000000E+00
  0.00000000E+00  0.00000000E+00  0.00000000E+00
  0.00000000E+00  0.00000000E+00  0.00000000E+00
  0.00000000E+00  0.00000000E+00  0.00000000E+00
  0.00000000E+00  0.00000000E+00  0.00000000E+00
  0.00000000E+00  0.00000000E+00  0.00000000E+00
  0.00000000E+00  0.00000000E+00  0.00000000E+00
  0.00000000E+00  0.00000000E+00  0.00000000E+00
  0.00000000E+00  0.00000000E+00  0.00000000E+00
  0.00000000E+00  0.00000000E+00  0.00000000E+00
  0.00000000E+00  0.00000000E+00  0.00000000E+00
  0.00000000E+00  0.00000000E+00  0.00000000E+00
  0.00000000E+00  0.00000000E+00  0.00000000E+00
  0.00000000E+00  0.00000000E+00  0.00000000E+00
  0.00000000E+00  0.00000000E+00  0.00000000E+00
  0.00000000E+00  0.00000000E+00  0.00000000E+00
  0.00000000E+00  0.00000000E+00  0.00000000E+00
  0.00000000E+00  0.00000000E+00  0.00000000E+00
  0.00000000E+00  0.00000000E+00  0.00000000E+00
  0.00000000E+00  0.00000000E+00  0.00000000E+00
  0.00000000E+00  0.00000000E+00  0.00000000E+00
  0.00000000E+00  0.00000000E+00  0.00000000E+00
  0.00000000E+00  0.00000000E+00  0.00000000E+00
  0.00000000E+00  0.00000000E+00  0.00000000E+00
  0.00000000E+00  0.00000000E+00  0.00000000E+00
  0.00000000E+00  0.00000000E+00  0.00000000E+00
  0.00000000E+00  0.00000000E+00  0.00000000E+00
  0.00000000E+00  0.00000000E+00  0.00000000E+00
  0.00000000E+00  0.00000000E+00  0.00000000E+00
  0.00000000E+00  0.00000000E+00  0.00000000E+00
  0.00000000E+00  0.00000000E+00  0.00000000E+00
  0.00000000E+00  0.00000000E+00  0.00000000E+00
  0.00000000E+00  0.00000000E+00  0.00000000E+00
  0.00000000E+00  0.00000000E+00  0.00000000E+00
  0.00000000E+00  0.00000000E+00  0.00000000E+00
  0.00000000E+00  0.00000000E+00  0.00000000E+00
  0.00000000E+00  0.00000000E+00  0.00000000E+00
  0.00000000E+00  0.00000000E+00  0.00000000E+00
  0.00000000E+00  0.00000000E+00  0.00000000E+00
  0.00000000E+00  0.00000000E+00  0.00000000E+00
  0.00000000E+00  0.00000000E+00  0.00000000E+00
  0.00000000E+00  0.00000000E+00  0.00000000E+00
  0.00000000E+00  0.00000000E+00  0.00000000E+00
  0.00000000E+00  0.00000000E+00  0.00000000E+00
  0.00000000E+00  0.00000000E+00  0.00000000E+00
