CONTCAR\(11)                            
   1.00000000000000     
    15.8002004622999994    0.0000000000000000    0.0000000000000000
     7.9001002311999997   13.6833749853000004    0.0000000000000000
     0.0000000000000000    0.0000000000000000   21.9174003601000003
   Ce   Br   O 
    32    32    32
Direct
  0.1666699829999985  0.1666700219999981  0.4326700040000020
  0.0833299999999966  0.0833300110000010  0.5673400029999982
  0.4166699680000008  0.1666700219999981  0.4326700040000020
  0.3333299470000028  0.0833300110000010  0.5673400029999982
  0.6666699230000006  0.1666700219999981  0.4326700040000020
  0.5833299620000005  0.0833300110000010  0.5673400029999982
  0.9166699989999998  0.1666700219999981  0.4326700040000020
  0.8333299769999982  0.0833300110000010  0.5673400029999982
  0.1666699749999978  0.4166699940000029  0.4326700040000020
  0.0833300010000002  0.3333300090000009  0.5673400029999982
  0.4166699900000026  0.4166699940000029  0.4326700040000020
  0.3333299560000000  0.3333300090000009  0.5673400029999982
  0.6666700050000003  0.4166699940000029  0.4326700040000020
  0.5833299709999977  0.3333300090000009  0.5673400029999982
  0.9166700199999980  0.4166699940000029  0.4326700040000020
  0.8333299860000025  0.3333300090000009  0.5673400029999982
  0.1666699230000006  0.6666700529999972  0.4326700040000020
  0.0833299539999999  0.5833299979999964  0.5673400029999982
  0.4166699680000008  0.6666700529999972  0.4326700040000020
  0.3333299689999976  0.5833299979999964  0.5673400029999982
  0.6666699230000006  0.6666700529999972  0.4326700040000020
  0.5833298630000030  0.5833299979999964  0.5673400029999982
  0.9166699980000033  0.6666700529999972  0.4326700040000020
  0.8333299990000000  0.5833299979999964  0.5673400029999982
  0.1666699479999991  0.9166700780000028  0.4326700040000020
  0.0833299439999990  0.8333300919999971  0.5673400029999982
  0.4166699629999968  0.9166700780000028  0.4326700040000020
  0.3333299290000014  0.8333300919999971  0.5673400029999982
  0.6666699780000016  0.9166700780000028  0.4326700040000020
  0.5833298240000033  0.8333300919999971  0.5673400029999982
  0.9166699940000029  0.9166700780000028  0.4326700040000020
  0.8333299589999967  0.8333300919999971  0.5673400029999982
  0.0000000000000000  0.0000000000000000  0.6588500330000002
  0.0000000000000000  0.0000000000000000  0.3411400020000031
  0.2500000000000000  0.0000000000000000  0.6588500330000002
  0.2500000000000000  0.0000000000000000  0.3411400020000031
  0.5000000000000000  0.0000000000000000  0.6588500330000002
  0.5000000000000000  0.0000000000000000  0.3411400020000031
  0.7499999850000023  0.0000000000000000  0.6588500330000002
  0.7499999850000023  0.0000000000000000  0.3411400020000031
  0.9999999970000033  0.2500000069999970  0.6588500330000002
  0.9999999970000033  0.2500000069999970  0.3411400020000031
  0.2499999890000026  0.2500000069999970  0.6588500330000002
  0.2499999890000026  0.2500000069999970  0.3411400020000031
  0.4999999739999978  0.2500000069999970  0.6588500330000002
  0.4999999739999978  0.2500000069999970  0.3411400020000031
  0.7499999890000026  0.2500000069999970  0.6588500330000002
  0.7499999890000026  0.2500000069999970  0.3411400020000031
  0.9999999930000030  0.5000000140000012  0.6588500330000002
  0.9999999930000030  0.5000000140000012  0.3411400020000031
  0.2499999930000030  0.5000000140000012  0.6588500330000002
  0.2499999930000030  0.5000000140000012  0.3411400020000031
  0.4999999779999982  0.5000000140000012  0.6588500330000002
  0.4999999779999982  0.5000000140000012  0.3411400020000031
  0.7499999930000030  0.5000000140000012  0.6588500330000002
  0.7499999930000030  0.5000000140000012  0.3411400020000031
  0.9999999910000028  0.7500000029999967  0.6588500330000002
  0.9999999910000028  0.7500000029999967  0.3411400020000031
  0.2499999759999980  0.7500000029999967  0.6588500330000002
  0.2499999759999980  0.7500000029999967  0.3411400020000031
  0.4999999910000028  0.7500000029999967  0.6588500330000002
  0.4999999910000028  0.7500000029999967  0.3411400020000031
  0.7499999460000026  0.7500000029999967  0.6588500330000002
  0.7499999460000026  0.7500000029999967  0.3411400020000031
  0.1666699829999985  0.1666700219999981  0.5404000340000010
  0.0833299999999966  0.0833300110000010  0.4596099740000028
  0.4166699680000008  0.1666700219999981  0.5404000340000010
  0.3333299470000028  0.0833300110000010  0.4596099740000028
  0.6666699230000006  0.1666700219999981  0.5404000340000010
  0.5833299620000005  0.0833300110000010  0.4596099740000028
  0.9166699989999998  0.1666700219999981  0.5404000340000010
  0.8333299769999982  0.0833300110000010  0.4596099740000028
  0.1666699749999978  0.4166699940000029  0.5404000340000010
  0.0833300010000002  0.3333300090000009  0.4596099740000028
  0.4166699900000026  0.4166699940000029  0.5404000340000010
  0.3333299560000000  0.3333300090000009  0.4596099740000028
  0.6666700050000003  0.4166699940000029  0.5404000340000010
  0.5833299709999977  0.3333300090000009  0.4596099740000028
  0.9166700199999980  0.4166699940000029  0.5404000340000010
  0.8333299860000025  0.3333300090000009  0.4596099740000028
  0.1666699230000006  0.6666700529999972  0.5404000340000010
  0.0833299539999999  0.5833299979999964  0.4596099740000028
  0.4166699680000008  0.6666700529999972  0.5404000340000010
  0.3333299689999976  0.5833299979999964  0.4596099740000028
  0.6666699230000006  0.6666700529999972  0.5404000340000010
  0.5833298630000030  0.5833299979999964  0.4596099740000028
  0.9166699980000033  0.6666700529999972  0.5404000340000010
  0.8333299990000000  0.5833299979999964  0.4596099740000028
  0.1666699479999991  0.9166700780000028  0.5404000340000010
  0.0833299439999990  0.8333300919999971  0.4596099740000028
  0.4166699629999968  0.9166700780000028  0.5404000340000010
  0.3333299290000014  0.8333300919999971  0.4596099740000028
  0.6666699780000016  0.9166700780000028  0.5404000340000010
  0.5833298240000033  0.8333300919999971  0.4596099740000028
  0.9166699940000029  0.9166700780000028  0.5404000340000010
  0.8333299589999967  0.8333300919999971  0.4596099740000028
 
  0.00000000E+00  0.00000000E+00  0.00000000E+00
  0.00000000E+00  0.00000000E+00  0.00000000E+00
  0.00000000E+00  0.00000000E+00  0.00000000E+00
  0.00000000E+00  0.00000000E+00  0.00000000E+00
  0.00000000E+00  0.00000000E+00  0.00000000E+00
  0.00000000E+00  0.00000000E+00  0.00000000E+00
  0.00000000E+00  0.00000000E+00  0.00000000E+00
  0.00000000E+00  0.00000000E+00  0.00000000E+00
  0.00000000E+00  0.00000000E+00  0.00000000E+00
  0.00000000E+00  0.00000000E+00  0.00000000E+00
  0.00000000E+00  0.00000000E+00  0.00000000E+00
  0.00000000E+00  0.00000000E+00  0.00000000E+00
  0.00000000E+00  0.00000000E+00  0.00000000E+00
  0.00000000E+00  0.00000000E+00  0.00000000E+00
  0.00000000E+00  0.00000000E+00  0.00000000E+00
  0.00000000E+00  0.00000000E+00  0.00000000E+00
  0.00000000E+00  0.00000000E+00  0.00000000E+00
  0.00000000E+00  0.00000000E+00  0.00000000E+00
  0.00000000E+00  0.00000000E+00  0.00000000E+00
  0.00000000E+00  0.00000000E+00  0.00000000E+00
  0.00000000E+00  0.00000000E+00  0.00000000E+00
  0.00000000E+00  0.00000000E+00  0.00000000E+00
  0.00000000E+00  0.00000000E+00  0.00000000E+00
  0.00000000E+00  0.00000000E+00  0.00000000E+00
  0.00000000E+00  0.00000000E+00  0.00000000E+00
  0.00000000E+00  0.00000000E+00  0.00000000E+00
  0.00000000E+00  0.00000000E+00  0.00000000E+00
  0.00000000E+00  0.00000000E+00  0.00000000E+00
  0.00000000E+00  0.00000000E+00  0.00000000E+00
  0.00000000E+00  0.00000000E+00  0.00000000E+00
  0.00000000E+00  0.00000000E+00  0.00000000E+00
  0.00000000E+00  0.00000000E+00  0.00000000E+00
  0.00000000E+00  0.00000000E+00  0.00000000E+00
  0.00000000E+00  0.00000000E+00  0.00000000E+00
  0.00000000E+00  0.00000000E+00  0.00000000E+00
  0.00000000E+00  0.00000000E+00  0.00000000E+00
  0.00000000E+00  0.00000000E+00  0.00000000E+00
  0.00000000E+00  0.00000000E+00  0.00000000E+00
  0.00000000E+00  0.00000000E+00  0.00000000E+00
  0.00000000E+00  0.00000000E+00  0.00000000E+00
  0.00000000E+00  0.00000000E+00  0.00000000E+00
  0.00000000E+00  0.00000000E+00  0.00000000E+00
  0.00000000E+00  0.00000000E+00  0.00000000E+00
  0.00000000E+00  0.00000000E+00  0.00000000E+00
  0.00000000E+00  0.00000000E+00  0.00000000E+00
  0.00000000E+00  0.00000000E+00  0.00000000E+00
  0.00000000E+00  0.00000000E+00  0.00000000E+00
  0.00000000E+00  0.00000000E+00  0.00000000E+00
  0.00000000E+00  0.00000000E+00  0.00000000E+00
  0.00000000E+00  0.00000000E+00  0.00000000E+00
  0.00000000E+00  0.00000000E+00  0.00000000E+00
  0.00000000E+00  0.00000000E+00  0.00000000E+00
  0.00000000E+00  0.00000000E+00  0.00000000E+00
  0.00000000E+00  0.00000000E+00  0.00000000E+00
  0.00000000E+00  0.00000000E+00  0.00000000E+00
  0.00000000E+00  0.00000000E+00  0.00000000E+00
  0.00000000E+00  0.00000000E+00  0.00000000E+00
  0.00000000E+00  0.00000000E+00  0.00000000E+00
  0.00000000E+00  0.00000000E+00  0.00000000E+00
  0.00000000E+00  0.00000000E+00  0.00000000E+00
  0.00000000E+00  0.00000000E+00  0.00000000E+00
  0.00000000E+00  0.00000000E+00  0.00000000E+00
  0.00000000E+00  0.00000000E+00  0.00000000E+00
  0.00000000E+00  0.00000000E+00  0.00000000E+00
  0.00000000E+00  0.00000000E+00  0.00000000E+00
  0.00000000E+00  0.00000000E+00  0.00000000E+00
  0.00000000E+00  0.00000000E+00  0.00000000E+00
  0.00000000E+00  0.00000000E+00  0.00000000E+00
  0.00000000E+00  0.00000000E+00  0.00000000E+00
  0.00000000E+00  0.00000000E+00  0.00000000E+00
  0.00000000E+00  0.00000000E+00  0.00000000E+00
  0.00000000E+00  0.00000000E+00  0.00000000E+00
  0.00000000E+00  0.00000000E+00  0.00000000E+00
  0.00000000E+00  0.00000000E+00  0.00000000E+00
  0.00000000E+00  0.00000000E+00  0.00000000E+00
  0.00000000E+00  0.00000000E+00  0.00000000E+00
  0.00000000E+00  0.00000000E+00  0.00000000E+00
  0.00000000E+00  0.00000000E+00  0.00000000E+00
  0.00000000E+00  0.00000000E+00  0.00000000E+00
  0.00000000E+00  0.00000000E+00  0.00000000E+00
  0.00000000E+00  0.00000000E+00  0.00000000E+00
  0.00000000E+00  0.00000000E+00  0.00000000E+00
  0.00000000E+00  0.00000000E+00  0.00000000E+00
  0.00000000E+00  0.00000000E+00  0.00000000E+00
  0.00000000E+00  0.00000000E+00  0.00000000E+00
  0.00000000E+00  0.00000000E+00  0.00000000E+00
  0.00000000E+00  0.00000000E+00  0.00000000E+00
  0.00000000E+00  0.00000000E+00  0.00000000E+00
  0.00000000E+00  0.00000000E+00  0.00000000E+00
  0.00000000E+00  0.00000000E+00  0.00000000E+00
  0.00000000E+00  0.00000000E+00  0.00000000E+00
  0.00000000E+00  0.00000000E+00  0.00000000E+00
  0.00000000E+00  0.00000000E+00  0.00000000E+00
  0.00000000E+00  0.00000000E+00  0.00000000E+00
  0.00000000E+00  0.00000000E+00  0.00000000E+00
  0.00000000E+00  0.00000000E+00  0.00000000E+00
