CONTCAR\(7)                             
   1.00000000000000     
    12.0179996490000001    0.0000000000000000    0.0000000000000000
     5.5443836140000000   17.3830097696000010    0.0000000000000000
     0.0000000000000000    0.0000000000000000   18.4081001282000010
   Nb   Ir   Se   O 
    16     4    40     1
Direct
  0.3190700936797327  0.4153964008745549  0.4986203543904519
  0.3740368316730757  0.2031843282482749  0.5059610059686404
  0.0458309334675839  0.9977994785152430  0.5044074578005421
  0.0802963308946896  0.3080062006161766  0.4968282462873458
  0.8128261402419924  0.4168847611848441  0.4998674362634156
  0.8838243431286742  0.1899107989950588  0.5000144685451732
  0.5467653344266641  0.9981425485602895  0.5025261929373698
  0.5946938181030884  0.3170040466313389  0.4984965961843189
  0.3141615974149631  0.9184696610068782  0.5006456271366611
  0.3834923876039241  0.6912850059021464  0.5013627367638885
  0.0462972521879592  0.4992721383220352  0.5005393862512251
  0.1049793674631787  0.8240627818845918  0.4980936424895027
  0.8206066230813993  0.9147372787682919  0.5024849814847564
  0.8646795360763982  0.7020535192908222  0.5053664360839814
  0.5450241461628799  0.4961310387243915  0.5036444693262178
  0.5793242621963904  0.8098099058764242  0.4978691485694833
  0.2177836854142056  0.0932488657227227  0.5023694951427489
  0.7139845768093463  0.0913770767090216  0.5021024202488256
  0.2134707975620002  0.5931662018336580  0.4994533737436926
  0.7167066854251373  0.5915116131279328  0.5023681308635718
  0.1874376525557814  0.0057599610089723  0.6022054073303451
  0.0496687938488487  0.1029639070524689  0.4137932802613109
  0.2671863612797487  0.3047517476576877  0.5886884336343610
  0.1554960312374948  0.3961412374780204  0.4114403626617714
  0.3836162162592174  0.0932659718620923  0.5891629551742138
  0.2286580233654441  0.1977644323206018  0.4108298132151563
  0.4798850217062974  0.4042964257798193  0.5967068715945635
  0.3574452911290095  0.0073332447557353  0.4114527550181965
  0.0744310112151679  0.1950081251657321  0.5781955392742784
  0.4364424133361918  0.3004516971479497  0.4130472618501561
  0.6891767529177590  0.0023961751422225  0.6016634024026130
  0.5459971106271595  0.1021486934047133  0.4152796818985578
  0.7769559728193005  0.3017838857695042  0.5828793651100612
  0.6535756377726294  0.4018971436159856  0.4049194203181539
  0.8769559308792486  0.0938875652349948  0.5916924742674742
  0.7273286659487244  0.1959371480332732  0.4108056190525348
  0.9796386639408841  0.4033540614145354  0.5933711867573987
  0.8573399809199116  0.0038140233102485  0.4129265472541440
  0.5739884065160594  0.1981382277170961  0.5745066921356983
  0.9267727775445601  0.3032008973344246  0.4093132967528977
  0.1886452725486826  0.5034682099399660  0.5987943255426578
  0.0429626029212515  0.6041039771790784  0.4147460462582825
  0.2767689017426693  0.8023817842042618  0.5861235718536584
  0.1543460904550101  0.9071940097561659  0.4020503465542978
  0.3755900345164618  0.5935756860032724  0.5907652276290232
  0.2292060408855920  0.6988723954607220  0.4108131837436185
  0.4784167830676437  0.9035404376929939  0.5957406877666775
  0.3583382004616995  0.5041544120752262  0.4100233934481732
  0.0709716185571017  0.7009418765514367  0.5656966009238510
  0.4266475403271106  0.8050040757960861  0.4099924869290965
  0.6867504833068363  0.5034493129549825  0.6017052826651980
  0.5474780547558064  0.6020874732755988  0.4146477488964009
  0.7669852654106197  0.8034818888798319  0.5906775299251331
  0.6580627963683804  0.8958570843242526  0.4128190494937155
  0.8833932896930733  0.5921560460769076  0.5892129351286706
  0.7211881212325175  0.6973709569505160  0.4104642716476146
  0.9840929526772301  0.9051280514863974  0.5981649035265728
  0.8565188204719200  0.5063147890896766  0.4109174214869184
  0.5745498269589339  0.6944831885310243  0.5779573550551044
  0.9406493546911768  0.7981206164345702  0.4203997157634941
  0.0870670131175514  0.6907139103362202  0.6565055953161160
 
  0.00000000E+00  0.00000000E+00  0.00000000E+00
  0.00000000E+00  0.00000000E+00  0.00000000E+00
  0.00000000E+00  0.00000000E+00  0.00000000E+00
  0.00000000E+00  0.00000000E+00  0.00000000E+00
  0.00000000E+00  0.00000000E+00  0.00000000E+00
  0.00000000E+00  0.00000000E+00  0.00000000E+00
  0.00000000E+00  0.00000000E+00  0.00000000E+00
  0.00000000E+00  0.00000000E+00  0.00000000E+00
  0.00000000E+00  0.00000000E+00  0.00000000E+00
  0.00000000E+00  0.00000000E+00  0.00000000E+00
  0.00000000E+00  0.00000000E+00  0.00000000E+00
  0.00000000E+00  0.00000000E+00  0.00000000E+00
  0.00000000E+00  0.00000000E+00  0.00000000E+00
  0.00000000E+00  0.00000000E+00  0.00000000E+00
  0.00000000E+00  0.00000000E+00  0.00000000E+00
  0.00000000E+00  0.00000000E+00  0.00000000E+00
  0.00000000E+00  0.00000000E+00  0.00000000E+00
  0.00000000E+00  0.00000000E+00  0.00000000E+00
  0.00000000E+00  0.00000000E+00  0.00000000E+00
  0.00000000E+00  0.00000000E+00  0.00000000E+00
  0.00000000E+00  0.00000000E+00  0.00000000E+00
  0.00000000E+00  0.00000000E+00  0.00000000E+00
  0.00000000E+00  0.00000000E+00  0.00000000E+00
  0.00000000E+00  0.00000000E+00  0.00000000E+00
  0.00000000E+00  0.00000000E+00  0.00000000E+00
  0.00000000E+00  0.00000000E+00  0.00000000E+00
  0.00000000E+00  0.00000000E+00  0.00000000E+00
  0.00000000E+00  0.00000000E+00  0.00000000E+00
  0.00000000E+00  0.00000000E+00  0.00000000E+00
  0.00000000E+00  0.00000000E+00  0.00000000E+00
  0.00000000E+00  0.00000000E+00  0.00000000E+00
  0.00000000E+00  0.00000000E+00  0.00000000E+00
  0.00000000E+00  0.00000000E+00  0.00000000E+00
  0.00000000E+00  0.00000000E+00  0.00000000E+00
  0.00000000E+00  0.00000000E+00  0.00000000E+00
  0.00000000E+00  0.00000000E+00  0.00000000E+00
  0.00000000E+00  0.00000000E+00  0.00000000E+00
  0.00000000E+00  0.00000000E+00  0.00000000E+00
  0.00000000E+00  0.00000000E+00  0.00000000E+00
  0.00000000E+00  0.00000000E+00  0.00000000E+00
  0.00000000E+00  0.00000000E+00  0.00000000E+00
  0.00000000E+00  0.00000000E+00  0.00000000E+00
  0.00000000E+00  0.00000000E+00  0.00000000E+00
  0.00000000E+00  0.00000000E+00  0.00000000E+00
  0.00000000E+00  0.00000000E+00  0.00000000E+00
  0.00000000E+00  0.00000000E+00  0.00000000E+00
  0.00000000E+00  0.00000000E+00  0.00000000E+00
  0.00000000E+00  0.00000000E+00  0.00000000E+00
  0.00000000E+00  0.00000000E+00  0.00000000E+00
  0.00000000E+00  0.00000000E+00  0.00000000E+00
  0.00000000E+00  0.00000000E+00  0.00000000E+00
  0.00000000E+00  0.00000000E+00  0.00000000E+00
  0.00000000E+00  0.00000000E+00  0.00000000E+00
  0.00000000E+00  0.00000000E+00  0.00000000E+00
  0.00000000E+00  0.00000000E+00  0.00000000E+00
  0.00000000E+00  0.00000000E+00  0.00000000E+00
  0.00000000E+00  0.00000000E+00  0.00000000E+00
  0.00000000E+00  0.00000000E+00  0.00000000E+00
  0.00000000E+00  0.00000000E+00  0.00000000E+00
  0.00000000E+00  0.00000000E+00  0.00000000E+00
  0.00000000E+00  0.00000000E+00  0.00000000E+00
