CONTCAR\(12)                            
   1.00000000000000     
    13.0895996094000004    0.0000000000000000    0.0000000000000000
     6.5373165239000004   11.3368964473999991    0.0000000000000000
     0.0000000000000000    0.0000000000000000   17.7437992095999988
   Cr   S    O    H 
    16    32     1     1
Direct
  0.0094727995528694  0.2324657129974012  0.4993152706448429
  0.2465017670942050  0.2510356718856858  0.5014649985474801
  0.5107547599209313  0.2381928498897578  0.5023210729833165
  0.7525146335971418  0.2422849243281644  0.5025702071199548
 -0.0087627759320791  0.4805991629808223  0.4979584821269525
  0.2647817415950605  0.4780384099760597  0.5015508428767493
  0.5293198967462767  0.4615643163228020  0.5023706526316244
  0.7527809197555458  0.4893613892804872  0.5017885720731066
 -0.0172800876878308  0.7532883455109826  0.4954374157124510
  0.2275338295442045  0.7404586505936191  0.5014756141663108
  0.5146097173533875  0.7608882275374129  0.4952403741264203
  0.7701940338229137  0.7224229830043257  0.5036504236758713
  0.0226038546690848 -0.0054598280856755  0.5003173597488287
  0.2439090034714049  0.0200366619753865  0.4961625217208565
  0.4901015300025535  0.0042608025327634  0.5003813828999544
  0.7476921806824304  0.0110887591413493  0.5060510372980290
  0.0925355116301745  0.0734252371804894  0.4142950720578005
  0.1711102098808322  0.1610987614670705  0.5825046595450990
  0.3313429526698433  0.0834067687748533  0.4166182226916938
  0.4168035426635417  0.1646242879241335  0.5797656644522119
  0.5882986353015011  0.0773520334389567  0.4221301929039206
  0.6713735489853579  0.1590907804483918  0.5871103681912032
  0.8424377880109414  0.0758043895741555  0.4262366266449839
  0.9241831015028186  0.1550256576033411  0.5793939405411833
  0.0837122831775253  0.3253301876286194  0.4183688467376090
  0.1621165072669542  0.4111814629357005  0.5793301288839720
  0.3418714690236193  0.3209521688615132  0.4223443033819023
  0.4261025900775618  0.4072086731391619  0.5824426380495652
  0.5935080246297008  0.3201520908254211  0.4179096210976575
  0.6749102264323031  0.4045147074249081  0.5857972865374307
  0.8401162653537648  0.3206368452627852  0.4241909424334287
  0.9217529997801792  0.3990092056569481  0.5813838773504320
  0.0854126881738777  0.5717126535697120  0.4350865630146688
  0.1610728391400843  0.6591849871726201  0.5809759941766983
  0.3433350917526130  0.5713796260533205  0.4299892385793819
  0.4233490993074937  0.6556289160645438  0.5575599898216410
  0.5833664688315066  0.5783666326397661  0.4285425193131525
  0.6689764643114104  0.6613355177150468  0.5798515586563611
  0.8330459011572381  0.5739067499032204  0.4179529250906521
  0.9209379971427417  0.6546144820570028  0.5802147044453193
  0.0786741900459798  0.8274888057049984  0.4189754534183572
  0.1793118774063235  0.9064669306682683  0.5769253646565640
  0.3326446615796435  0.8307551577392009  0.4358104187714543
  0.4142920490969277  0.9153317159774781  0.5770241695723399
  0.5931619626542165  0.8301465954238813  0.4182377226353378
  0.6698337545137862  0.9080223658089013  0.5669388019522559
  0.8284882051800679  0.8294614437760511  0.4220935458167484
  0.9233516342267991  0.9126188875590636  0.5753130458337256
  0.4297808166347196  0.6478996393006718  0.6512512714952968
  0.3931202542698289  0.7290692448484938  0.6704877118972180
 
  0.00000000E+00  0.00000000E+00  0.00000000E+00
  0.00000000E+00  0.00000000E+00  0.00000000E+00
  0.00000000E+00  0.00000000E+00  0.00000000E+00
  0.00000000E+00  0.00000000E+00  0.00000000E+00
  0.00000000E+00  0.00000000E+00  0.00000000E+00
  0.00000000E+00  0.00000000E+00  0.00000000E+00
  0.00000000E+00  0.00000000E+00  0.00000000E+00
  0.00000000E+00  0.00000000E+00  0.00000000E+00
  0.00000000E+00  0.00000000E+00  0.00000000E+00
  0.00000000E+00  0.00000000E+00  0.00000000E+00
  0.00000000E+00  0.00000000E+00  0.00000000E+00
  0.00000000E+00  0.00000000E+00  0.00000000E+00
  0.00000000E+00  0.00000000E+00  0.00000000E+00
  0.00000000E+00  0.00000000E+00  0.00000000E+00
  0.00000000E+00  0.00000000E+00  0.00000000E+00
  0.00000000E+00  0.00000000E+00  0.00000000E+00
  0.00000000E+00  0.00000000E+00  0.00000000E+00
  0.00000000E+00  0.00000000E+00  0.00000000E+00
  0.00000000E+00  0.00000000E+00  0.00000000E+00
  0.00000000E+00  0.00000000E+00  0.00000000E+00
  0.00000000E+00  0.00000000E+00  0.00000000E+00
  0.00000000E+00  0.00000000E+00  0.00000000E+00
  0.00000000E+00  0.00000000E+00  0.00000000E+00
  0.00000000E+00  0.00000000E+00  0.00000000E+00
  0.00000000E+00  0.00000000E+00  0.00000000E+00
  0.00000000E+00  0.00000000E+00  0.00000000E+00
  0.00000000E+00  0.00000000E+00  0.00000000E+00
  0.00000000E+00  0.00000000E+00  0.00000000E+00
  0.00000000E+00  0.00000000E+00  0.00000000E+00
  0.00000000E+00  0.00000000E+00  0.00000000E+00
  0.00000000E+00  0.00000000E+00  0.00000000E+00
  0.00000000E+00  0.00000000E+00  0.00000000E+00
  0.00000000E+00  0.00000000E+00  0.00000000E+00
  0.00000000E+00  0.00000000E+00  0.00000000E+00
  0.00000000E+00  0.00000000E+00  0.00000000E+00
  0.00000000E+00  0.00000000E+00  0.00000000E+00
  0.00000000E+00  0.00000000E+00  0.00000000E+00
  0.00000000E+00  0.00000000E+00  0.00000000E+00
  0.00000000E+00  0.00000000E+00  0.00000000E+00
  0.00000000E+00  0.00000000E+00  0.00000000E+00
  0.00000000E+00  0.00000000E+00  0.00000000E+00
  0.00000000E+00  0.00000000E+00  0.00000000E+00
  0.00000000E+00  0.00000000E+00  0.00000000E+00
  0.00000000E+00  0.00000000E+00  0.00000000E+00
  0.00000000E+00  0.00000000E+00  0.00000000E+00
  0.00000000E+00  0.00000000E+00  0.00000000E+00
  0.00000000E+00  0.00000000E+00  0.00000000E+00
  0.00000000E+00  0.00000000E+00  0.00000000E+00
  0.00000000E+00  0.00000000E+00  0.00000000E+00
  0.00000000E+00  0.00000000E+00  0.00000000E+00
