CONTCAR\(3)                             
   1.00000000000000     
    12.0853004455999997    0.0000000000000000    0.0000000000000000
     0.0000000000000000   13.7131004332999993    0.0000000000000000
     0.0000000000000000    0.0000000000000000   20.3784999846999995
   Zr   Te   O 
     6    30     1
Direct
  0.9955077810757957  0.5018728021084807  0.4544151154055118
  0.1701961629752524  0.0016791669510560  0.5513894062699979
  0.3414322898494681  0.5016650631826672  0.4635896262729515
  0.5034674669015295  0.0017055490047284  0.5519846122196019
  0.6706083713300556  0.5014748079448542  0.4528438329465367
  0.8356038779390716  0.0018659541783896  0.5478640671250836
  0.1028730422046976  0.5029934778912000  0.5845557763416188
  0.0054350614843752  0.0022189516605331  0.4389814336106596
  0.1732697747844013  0.6019938607165558  0.3797396681644125
  0.0009356118993739  0.9007957426124787  0.6316040549795499
  0.0009081457804401  0.1038575469166084  0.6308473357370439
  0.1733997966286234  0.4006757487659490  0.3803392008514809
  0.9983923021619630  0.3117575739984482  0.5277474524885457
  0.1725577003772113  0.1823783698605269  0.4721914483501440
  0.1713956233315122  0.8221369223204816  0.4709550226010520
 -0.0017296798268509  0.6919175219614911  0.5274806979135963
  0.5193704434004456  0.5022651274902348  0.5668227745359300
  0.3375996792362269  0.0029830910066978  0.4407613899796621
  0.5031624905061591  0.6003152277031842  0.3712137116721427
  0.3367016833754019  0.8984643638513865  0.6325641647604913
  0.3366821333633427  0.1029661554545818  0.6335392588849600
  0.5031536794829518  0.3988086998521608  0.3730108423044141
  0.3434523007442651  0.3094048559389715  0.5341211130267063
  0.5050230606894466  0.1839973420007818  0.4739024389869611
  0.5045880398274283  0.8213185691749707  0.4714857205653357
  0.3451549289548047  0.6955078233584437  0.5313090930074199
  0.8366654365473638  0.5030186118619034  0.5672079924090622
  0.6640101306050484  0.0046759877120503  0.4388072188627169
  0.8348508439252124  0.6035195226254240  0.3699152662126342
  0.6714857786690066  0.8991000133185292  0.6313157487009895
  0.6717144644442662  0.1018929786540689  0.6330018195567841
  0.8353252443194770  0.4005143985283454  0.3696876656795087
  0.6717071591362929  0.3180741253376457  0.5320099034290959
  0.8345846663120079  0.1839038143462796  0.4687344676721342
  0.8346640311858456  0.8206013833503902  0.4677304295198533
  0.6707829139667548  0.6867305818906606  0.5299879755884452
  0.2575475684113346  0.5062082254688142  0.5493524003670189
 
  0.00000000E+00  0.00000000E+00  0.00000000E+00
  0.00000000E+00  0.00000000E+00  0.00000000E+00
  0.00000000E+00  0.00000000E+00  0.00000000E+00
  0.00000000E+00  0.00000000E+00  0.00000000E+00
  0.00000000E+00  0.00000000E+00  0.00000000E+00
  0.00000000E+00  0.00000000E+00  0.00000000E+00
  0.00000000E+00  0.00000000E+00  0.00000000E+00
  0.00000000E+00  0.00000000E+00  0.00000000E+00
  0.00000000E+00  0.00000000E+00  0.00000000E+00
  0.00000000E+00  0.00000000E+00  0.00000000E+00
  0.00000000E+00  0.00000000E+00  0.00000000E+00
  0.00000000E+00  0.00000000E+00  0.00000000E+00
  0.00000000E+00  0.00000000E+00  0.00000000E+00
  0.00000000E+00  0.00000000E+00  0.00000000E+00
  0.00000000E+00  0.00000000E+00  0.00000000E+00
  0.00000000E+00  0.00000000E+00  0.00000000E+00
  0.00000000E+00  0.00000000E+00  0.00000000E+00
  0.00000000E+00  0.00000000E+00  0.00000000E+00
  0.00000000E+00  0.00000000E+00  0.00000000E+00
  0.00000000E+00  0.00000000E+00  0.00000000E+00
  0.00000000E+00  0.00000000E+00  0.00000000E+00
  0.00000000E+00  0.00000000E+00  0.00000000E+00
  0.00000000E+00  0.00000000E+00  0.00000000E+00
  0.00000000E+00  0.00000000E+00  0.00000000E+00
  0.00000000E+00  0.00000000E+00  0.00000000E+00
  0.00000000E+00  0.00000000E+00  0.00000000E+00
  0.00000000E+00  0.00000000E+00  0.00000000E+00
  0.00000000E+00  0.00000000E+00  0.00000000E+00
  0.00000000E+00  0.00000000E+00  0.00000000E+00
  0.00000000E+00  0.00000000E+00  0.00000000E+00
  0.00000000E+00  0.00000000E+00  0.00000000E+00
  0.00000000E+00  0.00000000E+00  0.00000000E+00
  0.00000000E+00  0.00000000E+00  0.00000000E+00
  0.00000000E+00  0.00000000E+00  0.00000000E+00
  0.00000000E+00  0.00000000E+00  0.00000000E+00
  0.00000000E+00  0.00000000E+00  0.00000000E+00
  0.00000000E+00  0.00000000E+00  0.00000000E+00
