CONTCAR                                 
   1.00000000000000     
    12.1569004059000001    0.0000000000000000    0.0000000000000000
    -6.0784502029000000   10.5281845827999998    0.0000000000000000
     0.0000000000000000    0.0000000000000000   13.7363996505999992
   Ti   C    H 
    32    16     1
Direct
  0.1671397006285468  0.0842481979887437  0.5847389425386987
  0.0827784449672075  0.1659182860891245  0.4185983728719927
  0.4171085170816314  0.0842445584094531  0.5847382118570356
  0.3332496813857879  0.1664959161497251  0.4188588562394608
  0.6666455074187287  0.0833200468165534  0.5846083554500539
  0.5831401966901952  0.1659211975035648  0.4185967801994867
  0.9166733641531780  0.0833219757115616  0.5846101791424405
  0.8333305370318093  0.1666607781011629  0.4184406769434975
  0.1658290075210946  0.3329120805149553  0.5841089174552784
  0.0827806526222458  0.4168541090338961  0.4185981651585629
  0.4199781224815474  0.3399617044926057  0.5819570675169331
  0.3289160264995725  0.4144567126343521  0.4160653970519384
  0.6670840286052410  0.3329107045871413  0.5841089041773362
  0.5855399798469991  0.4144594849152545  0.4160655307021866
  0.9166736749769236  0.3333468587170823  0.5846081933058008
  0.8340725171837913  0.4168540704514825  0.4185977232312446
  0.1671337802418267  0.5828836317868639  0.5847395831504557
  0.0834915049887377  0.6669828857512622  0.4192645278272327
  0.4199802103418669  0.5800138838747461  0.5819587865484640
  0.3332490371209935  0.6667449008604763  0.4188627623301494
  0.6600355204176898  0.5800171632418268  0.5819580035538453
  0.5855383139044913  0.6710792552689794  0.4160681277268891
  0.9157480052999043  0.5828838195450026  0.5847407487231635
  0.8334968839347342  0.6667436962412906  0.4188623176247049
  0.1666653662248171  0.8333303706861042  0.5853800729766323
  0.0834896687298001  0.9165005088334784  0.4192649058920677
  0.4171098067247198  0.8328610442639418  0.5847399813970990
  0.3330104850701521  0.9165004370746775  0.4192626866994793
  0.6670848349801985  0.8341673674283964  0.5841108608686061
  0.5831394801758001  0.9172110271242955  0.4185988597632391
  0.9157473719290592  0.8328569008364372  0.5847406502913890
  0.8340741352318417  0.9172128792675243  0.4185994387564094
  0.0002072553598986 -0.0002130937173295  0.5021577826926186
  0.2500569869845433  0.0001125773367502  0.5022511849820027
  0.4995815279390892 -0.0002124882242279  0.5021522347406419
  0.7501056977176769  0.0002157295847657  0.5012981188472669
 -0.0002189022752893  0.2498894722857316  0.5012974629838303
  0.2500563819615304  0.2501139420383187  0.5013871565674365
  0.5000549862442829  0.2501130314650509  0.5013910610109672
  0.7501091041804805  0.2498840238200686  0.5012959551596311
  0.0002064664258710  0.5004126025998951  0.5021538335745476
  0.2500553238934669  0.4999370262910388  0.5013914054904810
  0.4999989170794120  0.4999975587955581  0.4882389480634723
  0.7498824684281410  0.4999400782942046  0.5013920059594857
 -0.0001184736545636  0.7499367474436529  0.5022546378499764
  0.2500550575681036  0.7499386962242084  0.5022539568193501
  0.5000588032352793  0.7499397631580726  0.5013950811121043
  0.7498802372162209  0.7499338784041385  0.5013899306523738
  0.5000141952846948  0.5000244199981323  0.6648566875220374
 
  0.00000000E+00  0.00000000E+00  0.00000000E+00
  0.00000000E+00  0.00000000E+00  0.00000000E+00
  0.00000000E+00  0.00000000E+00  0.00000000E+00
  0.00000000E+00  0.00000000E+00  0.00000000E+00
  0.00000000E+00  0.00000000E+00  0.00000000E+00
  0.00000000E+00  0.00000000E+00  0.00000000E+00
  0.00000000E+00  0.00000000E+00  0.00000000E+00
  0.00000000E+00  0.00000000E+00  0.00000000E+00
  0.00000000E+00  0.00000000E+00  0.00000000E+00
  0.00000000E+00  0.00000000E+00  0.00000000E+00
  0.00000000E+00  0.00000000E+00  0.00000000E+00
  0.00000000E+00  0.00000000E+00  0.00000000E+00
  0.00000000E+00  0.00000000E+00  0.00000000E+00
  0.00000000E+00  0.00000000E+00  0.00000000E+00
  0.00000000E+00  0.00000000E+00  0.00000000E+00
  0.00000000E+00  0.00000000E+00  0.00000000E+00
  0.00000000E+00  0.00000000E+00  0.00000000E+00
  0.00000000E+00  0.00000000E+00  0.00000000E+00
  0.00000000E+00  0.00000000E+00  0.00000000E+00
  0.00000000E+00  0.00000000E+00  0.00000000E+00
  0.00000000E+00  0.00000000E+00  0.00000000E+00
  0.00000000E+00  0.00000000E+00  0.00000000E+00
  0.00000000E+00  0.00000000E+00  0.00000000E+00
  0.00000000E+00  0.00000000E+00  0.00000000E+00
  0.00000000E+00  0.00000000E+00  0.00000000E+00
  0.00000000E+00  0.00000000E+00  0.00000000E+00
  0.00000000E+00  0.00000000E+00  0.00000000E+00
  0.00000000E+00  0.00000000E+00  0.00000000E+00
  0.00000000E+00  0.00000000E+00  0.00000000E+00
  0.00000000E+00  0.00000000E+00  0.00000000E+00
  0.00000000E+00  0.00000000E+00  0.00000000E+00
  0.00000000E+00  0.00000000E+00  0.00000000E+00
  0.00000000E+00  0.00000000E+00  0.00000000E+00
  0.00000000E+00  0.00000000E+00  0.00000000E+00
  0.00000000E+00  0.00000000E+00  0.00000000E+00
  0.00000000E+00  0.00000000E+00  0.00000000E+00
  0.00000000E+00  0.00000000E+00  0.00000000E+00
  0.00000000E+00  0.00000000E+00  0.00000000E+00
  0.00000000E+00  0.00000000E+00  0.00000000E+00
  0.00000000E+00  0.00000000E+00  0.00000000E+00
  0.00000000E+00  0.00000000E+00  0.00000000E+00
  0.00000000E+00  0.00000000E+00  0.00000000E+00
  0.00000000E+00  0.00000000E+00  0.00000000E+00
  0.00000000E+00  0.00000000E+00  0.00000000E+00
  0.00000000E+00  0.00000000E+00  0.00000000E+00
  0.00000000E+00  0.00000000E+00  0.00000000E+00
  0.00000000E+00  0.00000000E+00  0.00000000E+00
  0.00000000E+00  0.00000000E+00  0.00000000E+00
  0.00000000E+00  0.00000000E+00  0.00000000E+00
