CONTCAR\(13)                            
   1.00000000000000     
    10.9738998412999997    0.0000000000000000    0.0000000000000000
     0.0000000000000000   10.9738998412999997    0.0000000000000000
     0.0000000000000000    0.0000000000000000   19.0231990814000014
   Li   Co   As   O 
    18    18    18     1
Selective dynamics
Direct
  0.1663852177351117  0.9999834150055875  0.6074669206447538   F   F   F
  0.9993261045141679  0.1662877039299033  0.3957483145346856   F   F   F
  0.4986676195999848  0.9999995433278954  0.6072980697957391   F   F   F
  0.3320261102392124  0.1647779836965455  0.3954090345637837   F   F   F
  0.8322049216549061  0.9999645200447773  0.6087472929225086   F   F   F
  0.6660893542175543  0.1642146175842356  0.3949404464236679   F   F   F
  0.1676536811398393  0.3348689340656179  0.6066796731843027   F   F   F
  0.0004455527126623  0.4999843306671963  0.3956597755009454   F   F   F
  0.4896724704882089  0.3557059024930709  0.6278927397444676   F   F   F
  0.3297306846672399  0.4999965811729083  0.3929217990359319   F   F   F
  0.8311769448590383  0.3347562280588861  0.6060716177897305   F   F   F
  0.6687924837799244  0.5000012762637240  0.3934747871773610   F   F   F
  0.1676732634775888  0.6651235831520168  0.6066810397489633   F   F   F
  0.9993294080859272  0.8337077004131999  0.3957345414225060   F   F   F
  0.4896615287062360  0.6443601063176487  0.6278831746707638   F   F   F
  0.3320329431174258  0.8352457247784102  0.3953995655996110   F   F   F
  0.8311846208372557  0.6652336501042768  0.6060727272623438   F   F   F
  0.6661064300191271  0.8357772368354404  0.3949285948676717   F   F   F
  0.1658108503328251  0.1666966069550995  0.5016197580015245   F   F   F
  0.9988079899715885  0.9999907694903811  0.5013765725182111   F   F   F
  0.5000056395810404  0.1677828597094120  0.5027254672822679   F   F   F
  0.3324065823861488  0.9999979667634662  0.5030112687218917   F   F   F
  0.8318027240678205  0.1662708918412434  0.5019459614515824   F   F   F
  0.6667121084071397  0.9999987329900364  0.5033285016868021   F   F   F
  0.1640235429272181  0.4999871896106640  0.5017038288633557   F   F   F
  0.9986545130377991  0.3329036713737921  0.5018381470640563   F   F   F
  0.5018648391022609  0.5000046502947981  0.4918313471847142   F   F   F
  0.3337473647602707  0.3311046720413913  0.4981434519917585   F   F   F
  0.8332499202674697  0.5000101714753598  0.4999571819831630   F   F   F
  0.6645278498723854  0.3314733635700193  0.4997363849977390   F   F   F
  0.1657651234334949  0.8332921118461201  0.5016108558593331   F   F   F
  0.9986721516848220  0.6670561526321848  0.5018192973311670   F   F   F
  0.5000039754934704  0.8321802093072819  0.5026930634591409   F   F   F
  0.3337917685070195  0.6688319686845787  0.4981367460419861   F   F   F
  0.8317962866761945  0.8337257600362307  0.5019727324170233   F   F   F
  0.6644992171727040  0.6685020015036756  0.4997615526091082   F   F   F
  0.9990791802925685  0.1665742468141289  0.5784014902278614   F   F   F
  0.1661322964583931  0.0000182543644485  0.4253747452578978   F   F   F
  0.3333845959016557  0.1690293528787947  0.5783103279698665   F   F   F
  0.4996241737769154  0.0000350807455405  0.4274468603439274   F   F   F
  0.6648268046654948  0.1687440606364987  0.5793536194531086   F   F   F
  0.8322464601275854  0.9999930094770164  0.4253056991716448   F   F   F
  0.9979624770531856  0.4999960820564695  0.5785907476731467   F   F   F
  0.1639657577276381  0.3328214845302995  0.4235322092192746   F   F   F
  0.3384896605126357  0.4999951958612030  0.5661099019514495   F   F   F
  0.5000784340995708  0.3287906837230707  0.4200318438177888   F   F   F
  0.6640966069979939  0.5000062159539382  0.5726549416432860   F   F   F
  0.8325892792625353  0.3321075436621470  0.4244644751136377   F   F   F
  0.9991090193406436  0.8333763105397693  0.5783775624371188   F   F   F
  0.1639946731703787  0.6671598675345862  0.4235179657345469   F   F   F
  0.3333997114988421  0.8309433334204712  0.5782822684490725   F   F   F
  0.5000703578023220  0.6711855752416085  0.4200247166740496   F   F   F
  0.6647593972847545  0.8312782114917923  0.5793693639059398   F   F   F
  0.8325913133544347  0.6679028636303954  0.4244894013166913   F   F   F
  0.3919876231393289  0.5000334404007631  0.6551211043761200   T   T   T
 
  0.00000000E+00  0.00000000E+00  0.00000000E+00
  0.00000000E+00  0.00000000E+00  0.00000000E+00
  0.00000000E+00  0.00000000E+00  0.00000000E+00
  0.00000000E+00  0.00000000E+00  0.00000000E+00
  0.00000000E+00  0.00000000E+00  0.00000000E+00
  0.00000000E+00  0.00000000E+00  0.00000000E+00
  0.00000000E+00  0.00000000E+00  0.00000000E+00
  0.00000000E+00  0.00000000E+00  0.00000000E+00
  0.00000000E+00  0.00000000E+00  0.00000000E+00
  0.00000000E+00  0.00000000E+00  0.00000000E+00
  0.00000000E+00  0.00000000E+00  0.00000000E+00
  0.00000000E+00  0.00000000E+00  0.00000000E+00
  0.00000000E+00  0.00000000E+00  0.00000000E+00
  0.00000000E+00  0.00000000E+00  0.00000000E+00
  0.00000000E+00  0.00000000E+00  0.00000000E+00
  0.00000000E+00  0.00000000E+00  0.00000000E+00
  0.00000000E+00  0.00000000E+00  0.00000000E+00
  0.00000000E+00  0.00000000E+00  0.00000000E+00
  0.00000000E+00  0.00000000E+00  0.00000000E+00
  0.00000000E+00  0.00000000E+00  0.00000000E+00
  0.00000000E+00  0.00000000E+00  0.00000000E+00
  0.00000000E+00  0.00000000E+00  0.00000000E+00
  0.00000000E+00  0.00000000E+00  0.00000000E+00
  0.00000000E+00  0.00000000E+00  0.00000000E+00
  0.00000000E+00  0.00000000E+00  0.00000000E+00
  0.00000000E+00  0.00000000E+00  0.00000000E+00
  0.00000000E+00  0.00000000E+00  0.00000000E+00
  0.00000000E+00  0.00000000E+00  0.00000000E+00
  0.00000000E+00  0.00000000E+00  0.00000000E+00
  0.00000000E+00  0.00000000E+00  0.00000000E+00
  0.00000000E+00  0.00000000E+00  0.00000000E+00
  0.00000000E+00  0.00000000E+00  0.00000000E+00
  0.00000000E+00  0.00000000E+00  0.00000000E+00
  0.00000000E+00  0.00000000E+00  0.00000000E+00
  0.00000000E+00  0.00000000E+00  0.00000000E+00
  0.00000000E+00  0.00000000E+00  0.00000000E+00
  0.00000000E+00  0.00000000E+00  0.00000000E+00
  0.00000000E+00  0.00000000E+00  0.00000000E+00
  0.00000000E+00  0.00000000E+00  0.00000000E+00
  0.00000000E+00  0.00000000E+00  0.00000000E+00
  0.00000000E+00  0.00000000E+00  0.00000000E+00
  0.00000000E+00  0.00000000E+00  0.00000000E+00
  0.00000000E+00  0.00000000E+00  0.00000000E+00
  0.00000000E+00  0.00000000E+00  0.00000000E+00
  0.00000000E+00  0.00000000E+00  0.00000000E+00
  0.00000000E+00  0.00000000E+00  0.00000000E+00
  0.00000000E+00  0.00000000E+00  0.00000000E+00
  0.00000000E+00  0.00000000E+00  0.00000000E+00
  0.00000000E+00  0.00000000E+00  0.00000000E+00
  0.00000000E+00  0.00000000E+00  0.00000000E+00
  0.00000000E+00  0.00000000E+00  0.00000000E+00
  0.00000000E+00  0.00000000E+00  0.00000000E+00
  0.00000000E+00  0.00000000E+00  0.00000000E+00
  0.00000000E+00  0.00000000E+00  0.00000000E+00
  0.00000000E+00  0.00000000E+00  0.00000000E+00
