CONTCAR\(12)                            
   1.00000000000000     
    13.8203001021999992    0.0000000000000000    0.0000000000000000
     1.7075399424000000   15.0073707208999991    0.0000000000000000
     0.0000000000000000    0.0000000000000000   18.4675998688000007
   Nb   Ir   Se   O    H 
    18     2    40     2     1
Selective dynamics
Direct
  0.0855549659176376  0.1835974203718251  0.4998238480817747   F   F   F
  0.0111326566524568  0.9805282627540350  0.4924496841266048   F   F   F
  0.3908923943821065  0.8025706006355904  0.4947457281908783   F   F   F
  0.2934882208318257  0.6237251097916143  0.4962530766925681   F   F   F
  0.2500572950472275  0.9836337177798100  0.4954407006332033   F   F   F
  0.1904326608944729  0.4257555184344213  0.5013860400348733   F   F   F
  0.1567143084406339  0.8042466814423435  0.4952284002573251   F   F   F
  0.0520295103672197  0.6213148850152450  0.4971682209881862   F   F   F
  0.4445739632730650  0.3824727053096595  0.4952111640019439   F   F   F
  0.5852666773740509  0.1841836106979855  0.4992477018418029   F   F   F
  0.4988639010348450  0.9786819906720865  0.4921444474316274   F   F   F
  0.9123828691329834  0.8022240129901164  0.4951001004935733   F   F   F
  0.7954968479917994  0.6249700819074349  0.4986327897502250   F   F   F
  0.7511361354088280  0.9825777196089618  0.4928285318690087   F   F   F
  0.6895849113834913  0.4243650994983028  0.5036634111855918   F   F   F
  0.6391846056797448  0.8043696695134344  0.4949965036215289   F   F   F
  0.5406112509216001  0.6232290349125975  0.4966393852671800   F   F   F
  0.9450595715099297  0.3833937477598539  0.4955762964315795   F   F   F
  0.3683396647434947  0.2103876183434608  0.4950581620447849   F   F   F
  0.8688077394940024  0.2107146422915278  0.4949985361559115   F   F   F
  0.4694806590311273  0.2662888929172311  0.5945455568472937   F   F   F
  0.0838505986041227  0.3352001265204620  0.4124802460410066   F   F   F
  0.3668742647865102  0.0722222204502714  0.5727102466800886   F   F   F
  0.4830639857083554  0.1288202775547376  0.4033465891800319   F   F   F
  0.2675040259499610  0.8672641666715819  0.5944352684608205   F   F   F
  0.2208162119864241  0.2682121809931246  0.5691380055360185   F   F   F
  0.3788719819618791  0.9331497044618473  0.3976840671725341   F   F   F
  0.3270611360631861  0.3362290607114744  0.4062848968497264   F   F   F
  0.1659830124331378  0.6749829948457489  0.5937031973788081   F   F   F
  0.1148412878899663  0.0589018773094807  0.5891059323291188   F   F   F
  0.2403629434917391  0.1400631130017373  0.4202867158596959   F   F   F
  0.2818684712880852  0.7390240757052950  0.3963428585320443   F   F   F
  0.0598397280891376  0.4750915450594277  0.5870272810504602   F   F   F
  0.0196803292509031  0.8654067069556888  0.5919460073354728   F   F   F
  0.1809254617592302  0.5429568376129694  0.4041815658675105   F   F   F
  0.1368681662233442  0.9332281369599187  0.3956000469525307   F   F   F
  0.4120219910404685  0.6736212019390919  0.5926431625006501   F   F   F
  0.0357666385891307  0.7390448369495459  0.3991970881670852   F   F   F
  0.3184307026351547  0.4748739107772337  0.5836994934585320   F   F   F
  0.4299947998757432  0.5347090010780491  0.4170593223283348   F   F   F
  0.9701159717742698  0.2664890096988799  0.5947515352028745   F   F   F
  0.5840934686806776  0.3357500110672262  0.4124234292109534   F   F   F
  0.8674721106869896  0.0705724290208352  0.5700175926705384   F   F   F
  0.9838773247160475  0.1289935843945855  0.4033787738006609   F   F   F
  0.7681303737860645  0.8638949672478304  0.5867561873869818   F   F   F
  0.7212762302324052  0.2666983138342687  0.5697776347533789   F   F   F
  0.8848092259731288  0.9335050978554023  0.3997852320475630   F   F   F
  0.8273059778003216  0.3373970557471040  0.4068906789828546   F   F   F
  0.6617642107766670  0.6737591292727103  0.5915430657082297   F   F   F
  0.6131618293337411  0.0572526768630368  0.5853194911849684   F   F   F
  0.7411860662784306  0.1408149184394389  0.4202811843791068   F   F   F
  0.7824845125123048  0.7427189902202400  0.4041694986586393   F   F   F
  0.5574892464705385  0.4756689603518396  0.5865808074106127   F   F   F
  0.5119274670147931  0.8643953771898651  0.5914211593526986   F   F   F
  0.6797344819994962  0.5439468367445244  0.4086535397359867   F   F   F
  0.6322669207874654  0.9352432171923226  0.3973640484922285   F   F   F
  0.9174292479973758  0.6729688984892874  0.5918152642807399   F   F   F
  0.5278521655063884  0.7400605230281485  0.3991920900959300   F   F   F
  0.8183112883395296  0.4745476866488048  0.5847560418029900   F   F   F
  0.9306080904861744  0.5364787901186716  0.4195861842611777   F   F   F
  0.4800591152545337  0.3771655823723776  0.7253578196264243   T   T   T
  0.4405447300224239  0.3469459850256698  0.7866979833757171   T   T   T
  0.3704132514312164  0.3686292329716779  0.7822684966283626   T   T   T
 
  0.00000000E+00  0.00000000E+00  0.00000000E+00
  0.00000000E+00  0.00000000E+00  0.00000000E+00
  0.00000000E+00  0.00000000E+00  0.00000000E+00
  0.00000000E+00  0.00000000E+00  0.00000000E+00
  0.00000000E+00  0.00000000E+00  0.00000000E+00
  0.00000000E+00  0.00000000E+00  0.00000000E+00
  0.00000000E+00  0.00000000E+00  0.00000000E+00
  0.00000000E+00  0.00000000E+00  0.00000000E+00
  0.00000000E+00  0.00000000E+00  0.00000000E+00
  0.00000000E+00  0.00000000E+00  0.00000000E+00
  0.00000000E+00  0.00000000E+00  0.00000000E+00
  0.00000000E+00  0.00000000E+00  0.00000000E+00
  0.00000000E+00  0.00000000E+00  0.00000000E+00
  0.00000000E+00  0.00000000E+00  0.00000000E+00
  0.00000000E+00  0.00000000E+00  0.00000000E+00
  0.00000000E+00  0.00000000E+00  0.00000000E+00
  0.00000000E+00  0.00000000E+00  0.00000000E+00
  0.00000000E+00  0.00000000E+00  0.00000000E+00
  0.00000000E+00  0.00000000E+00  0.00000000E+00
  0.00000000E+00  0.00000000E+00  0.00000000E+00
  0.00000000E+00  0.00000000E+00  0.00000000E+00
  0.00000000E+00  0.00000000E+00  0.00000000E+00
  0.00000000E+00  0.00000000E+00  0.00000000E+00
  0.00000000E+00  0.00000000E+00  0.00000000E+00
  0.00000000E+00  0.00000000E+00  0.00000000E+00
  0.00000000E+00  0.00000000E+00  0.00000000E+00
  0.00000000E+00  0.00000000E+00  0.00000000E+00
  0.00000000E+00  0.00000000E+00  0.00000000E+00
  0.00000000E+00  0.00000000E+00  0.00000000E+00
  0.00000000E+00  0.00000000E+00  0.00000000E+00
  0.00000000E+00  0.00000000E+00  0.00000000E+00
  0.00000000E+00  0.00000000E+00  0.00000000E+00
  0.00000000E+00  0.00000000E+00  0.00000000E+00
  0.00000000E+00  0.00000000E+00  0.00000000E+00
  0.00000000E+00  0.00000000E+00  0.00000000E+00
  0.00000000E+00  0.00000000E+00  0.00000000E+00
  0.00000000E+00  0.00000000E+00  0.00000000E+00
  0.00000000E+00  0.00000000E+00  0.00000000E+00
  0.00000000E+00  0.00000000E+00  0.00000000E+00
  0.00000000E+00  0.00000000E+00  0.00000000E+00
  0.00000000E+00  0.00000000E+00  0.00000000E+00
  0.00000000E+00  0.00000000E+00  0.00000000E+00
  0.00000000E+00  0.00000000E+00  0.00000000E+00
  0.00000000E+00  0.00000000E+00  0.00000000E+00
  0.00000000E+00  0.00000000E+00  0.00000000E+00
  0.00000000E+00  0.00000000E+00  0.00000000E+00
  0.00000000E+00  0.00000000E+00  0.00000000E+00
  0.00000000E+00  0.00000000E+00  0.00000000E+00
  0.00000000E+00  0.00000000E+00  0.00000000E+00
  0.00000000E+00  0.00000000E+00  0.00000000E+00
  0.00000000E+00  0.00000000E+00  0.00000000E+00
  0.00000000E+00  0.00000000E+00  0.00000000E+00
  0.00000000E+00  0.00000000E+00  0.00000000E+00
  0.00000000E+00  0.00000000E+00  0.00000000E+00
  0.00000000E+00  0.00000000E+00  0.00000000E+00
  0.00000000E+00  0.00000000E+00  0.00000000E+00
  0.00000000E+00  0.00000000E+00  0.00000000E+00
  0.00000000E+00  0.00000000E+00  0.00000000E+00
  0.00000000E+00  0.00000000E+00  0.00000000E+00
  0.00000000E+00  0.00000000E+00  0.00000000E+00
  0.00000000E+00  0.00000000E+00  0.00000000E+00
  0.00000000E+00  0.00000000E+00  0.00000000E+00
  0.00000000E+00  0.00000000E+00  0.00000000E+00
