CONTCAR\(3)                             
   1.00000000000000     
    14.4757995605000005    0.0000000000000000    0.0000000000000000
     7.2285261864999999   12.5388166469000009    0.0000000000000000
     0.0000000000000000    0.0000000000000000   18.6821994780999994
   Nb   Te   O    H 
    16    32     2     1
Selective dynamics
Direct
  0.0213192060150291  0.9615434485480492  0.5107011578452401   F   F   F
  0.2709017333083850  0.9642600637068313  0.5105760696465040   F   F   F
  0.5137092940544008  0.9745300472749321  0.5070124830051626   F   F   F
  0.7478898007752761  0.9770616563257164  0.5058531461384987   F   F   F
  0.9804263200571839  0.2873703360870081  0.5025686394225986   F   F   F
  0.2240519044280873  0.2858014700298739  0.5046260073702200   F   F   F
  0.5142181056414756  0.2135568045033267  0.5072929412787843   F   F   F
  0.7378874673680897  0.2837073734524864  0.5054466970256968   F   F   F
  0.9767845234373951  0.5179979414070743  0.5049609463221216   F   F   F
  0.2067354556811267  0.5292189719568512  0.5029255531788408   F   F   F
  0.5153034299727963  0.5251544824627246  0.5052627567253438   F   F   F
  0.7462654787385361  0.5179078029399875  0.5050225218478701   F   F   F
  0.9750278565769719  0.7470608419500095  0.5051713976022256   F   F   F
  0.2677431893092717  0.7425026288171495  0.5075226865726421   F   F   F
  0.5146817196452105  0.7452326717320688  0.5063240361730976   F   F   F
  0.7454129906133105  0.7434337368150494  0.5049660766136199   F   F   F
  0.0820433151142623  0.0851294917754686  0.4256545712503126   F   F   F
  0.1617426992854050  0.1642020649712919  0.5908415062558277   F   F   F
  0.3246831628396976  0.0884742263488221  0.4220153286899588   F   F   F
  0.4057082328556945  0.1632935119064243  0.6015862339135722   F   F   F
  0.5844037005508014  0.0705827221538371  0.4000444420446669   F   F   F
  0.6762210218778364  0.1612757631384056  0.6005339108283607   F   F   F
  0.8347773933961946  0.0857607075679070  0.4249613119683957   F   F   F
  0.9224086575107293  0.1625153103957828  0.5904307358276668   F   F   F
  0.0747184440891218  0.3454254293224253  0.3982925270292981   F   F   F
  0.1522330372955807  0.4322856472250507  0.6109904845412188   F   F   F
  0.3303353963621021  0.3385083231026940  0.4106385870317268   F   F   F
  0.4114056080426707  0.4214047482068324  0.5622178269008842   F   F   F
  0.5760443996759292  0.3377356098982531  0.4127129175946607   F   F   F
  0.6653284733062961  0.4268723641927679  0.6134495234526653   F   F   F
  0.8274208297188821  0.3425716528630929  0.3987622851199006   F   F   F
  0.9083672909009550  0.4270092385946640  0.6123253945063993   F   F   F
  0.0641910760069777  0.5933103228720427  0.3953325395119407   F   F   F
  0.1543608797690368  0.6777538430322849  0.6048612036433667   F   F   F
  0.3371739619317466  0.5783572372692660  0.4103584700792879   F   F   F
  0.4207986877134786  0.6684481746493773  0.6135466694270590   F   F   F
  0.5872867979002905  0.5909741593304716  0.3950478686142418   F   F   F
  0.6666732612259096  0.6686834886759598  0.6140390630422345   F   F   F
  0.8259876445468848  0.5900840332643398  0.3966351698335302   F   F   F
  0.9052053362039487  0.6704247097815212  0.6132606818147934   F   F   F
  0.0881877979760972  0.8202177837771174  0.4058083704611235   F   F   F
  0.1727701401392849  0.9085059394438844  0.6154078365896254   F   F   F
  0.3395590681696845  0.8258734991119709  0.4007224865266252   F   F   F
  0.4217303466407358  0.9113251413360217  0.6141016667638226   F   F   F
  0.5820122846095614  0.8314883054021536  0.3982250632158539   F   F   F
  0.6650719688566440  0.9116963000542810  0.6132994493279895   F   F   F
  0.8258745333696424  0.8327439934636942  0.3975899364834561   F   F   F
  0.9104911668782094  0.9137063707765520  0.6095946799121208   F   F   F
  0.3882251940875960  0.4319158771307627  0.6727432606313641   T   T   T
  0.4893954862613299  0.3815948377149851  0.7109600665366003   T   T   T
  0.5034845072682046  0.3079183262404683  0.7150919475402203   T   T   T
 
  0.00000000E+00  0.00000000E+00  0.00000000E+00
  0.00000000E+00  0.00000000E+00  0.00000000E+00
  0.00000000E+00  0.00000000E+00  0.00000000E+00
  0.00000000E+00  0.00000000E+00  0.00000000E+00
  0.00000000E+00  0.00000000E+00  0.00000000E+00
  0.00000000E+00  0.00000000E+00  0.00000000E+00
  0.00000000E+00  0.00000000E+00  0.00000000E+00
  0.00000000E+00  0.00000000E+00  0.00000000E+00
  0.00000000E+00  0.00000000E+00  0.00000000E+00
  0.00000000E+00  0.00000000E+00  0.00000000E+00
  0.00000000E+00  0.00000000E+00  0.00000000E+00
  0.00000000E+00  0.00000000E+00  0.00000000E+00
  0.00000000E+00  0.00000000E+00  0.00000000E+00
  0.00000000E+00  0.00000000E+00  0.00000000E+00
  0.00000000E+00  0.00000000E+00  0.00000000E+00
  0.00000000E+00  0.00000000E+00  0.00000000E+00
  0.00000000E+00  0.00000000E+00  0.00000000E+00
  0.00000000E+00  0.00000000E+00  0.00000000E+00
  0.00000000E+00  0.00000000E+00  0.00000000E+00
  0.00000000E+00  0.00000000E+00  0.00000000E+00
  0.00000000E+00  0.00000000E+00  0.00000000E+00
  0.00000000E+00  0.00000000E+00  0.00000000E+00
  0.00000000E+00  0.00000000E+00  0.00000000E+00
  0.00000000E+00  0.00000000E+00  0.00000000E+00
  0.00000000E+00  0.00000000E+00  0.00000000E+00
  0.00000000E+00  0.00000000E+00  0.00000000E+00
  0.00000000E+00  0.00000000E+00  0.00000000E+00
  0.00000000E+00  0.00000000E+00  0.00000000E+00
  0.00000000E+00  0.00000000E+00  0.00000000E+00
  0.00000000E+00  0.00000000E+00  0.00000000E+00
  0.00000000E+00  0.00000000E+00  0.00000000E+00
  0.00000000E+00  0.00000000E+00  0.00000000E+00
  0.00000000E+00  0.00000000E+00  0.00000000E+00
  0.00000000E+00  0.00000000E+00  0.00000000E+00
  0.00000000E+00  0.00000000E+00  0.00000000E+00
  0.00000000E+00  0.00000000E+00  0.00000000E+00
  0.00000000E+00  0.00000000E+00  0.00000000E+00
  0.00000000E+00  0.00000000E+00  0.00000000E+00
  0.00000000E+00  0.00000000E+00  0.00000000E+00
  0.00000000E+00  0.00000000E+00  0.00000000E+00
  0.00000000E+00  0.00000000E+00  0.00000000E+00
  0.00000000E+00  0.00000000E+00  0.00000000E+00
  0.00000000E+00  0.00000000E+00  0.00000000E+00
  0.00000000E+00  0.00000000E+00  0.00000000E+00
  0.00000000E+00  0.00000000E+00  0.00000000E+00
  0.00000000E+00  0.00000000E+00  0.00000000E+00
  0.00000000E+00  0.00000000E+00  0.00000000E+00
  0.00000000E+00  0.00000000E+00  0.00000000E+00
  0.00000000E+00  0.00000000E+00  0.00000000E+00
  0.00000000E+00  0.00000000E+00  0.00000000E+00
  0.00000000E+00  0.00000000E+00  0.00000000E+00
