 CoTe2\(4)                              
   1.00000000000000     
     3.6054744748862886    0.0000000000000000    0.0000000000000000
    -1.8027372374431443    3.1224317330527525    0.0000000000000000
     0.0000000000000000    0.0000000000000000   14.6574001200000001
   Co   Te
     1     2
Direct
  0.0000000207508667  0.0000000185739277  0.5000000000321205
  0.6666667193542254  0.3333333805215524  0.4000631988615171
  0.3333333168949101  0.6666666519045206  0.5999368011063615
 
  0.00000000E+00  0.00000000E+00  0.00000000E+00
  0.00000000E+00  0.00000000E+00  0.00000000E+00
  0.00000000E+00  0.00000000E+00  0.00000000E+00
