CONTCAR\(4)                             
   1.00000000000000     
    13.8203001021999992    0.0000000000000000    0.0000000000000000
     1.7075399424000000   15.0073707208999991    0.0000000000000000
     0.0000000000000000    0.0000000000000000   18.4675998688000007
   Nb   Ir   Se   O 
    18     2    40     1
Direct
  0.0849596932337945  0.1808587318899173  0.5047660189237969
  0.0052205630310334  0.9776324632493051  0.4964493141504320
  0.3878916361844459  0.8014894893206006  0.5001600765030078
  0.2828663870255423  0.6217851481294647  0.5049369748510787
  0.2417569566713893  0.9840394767416818  0.4982233059328256
  0.1895189909756929  0.4250580036489783  0.5066443442033882
  0.1370852969267636  0.8040396109916456  0.4987599724807859
  0.0394782996453308  0.6217591827856532  0.4985806790840907
  0.4462986234858343  0.3785984156907938  0.5157293394186020
  0.5854779670875203  0.1800755659400864  0.5057143565746984
  0.5034515703885548  0.9763662977406059  0.4946737548872763
  0.9069640807508871  0.8011616881237460  0.4972613294094992
  0.8008404453045413  0.6259710497056994  0.4996449259417015
  0.7571140559137043  0.9812276581713330  0.4966176071209952
  0.7074344215110231  0.4222849220302642  0.5037681117577588
  0.6620819315973484  0.8029843259651008  0.4980370720667248
  0.5583126047795920  0.6271620512422817  0.5063839925550706
  0.9515811818459672  0.3784729734020547  0.4963361433681318
  0.3677148156707603  0.2065694946226758  0.5031129430838736
  0.8691275670400194  0.2089241781231307  0.4993081913881873
  0.4705691705617003  0.2505543720740642  0.6056043428416594
  0.0806297505251258  0.3297291240256487  0.4119415550880420
  0.3666026879785203  0.0649853115328402  0.5757386300490575
  0.4817969855099328  0.1289107919391174  0.4090563493444976
  0.2619200282447195  0.8653662685915549  0.5949263324794590
  0.2180788624119737  0.2655774770065591  0.5748671783945052
  0.3771661243232994  0.9320484393939819  0.4038787917613375
  0.3254985133457433  0.3390651505629989  0.4210773308013565
  0.1558681762908588  0.6757077117388095  0.5981490697487000
  0.1114709562861970  0.0564877871598389  0.5938809109355246
  0.2399703373956345  0.1402585397220613  0.4254104197314624
  0.2783437339603577  0.7364934710493550  0.4056336614032430
  0.0459887590673994  0.4731009847182771  0.5877181974583421
  0.0133801595620772  0.8651493504463655  0.5981666750454243
  0.1801370124611902  0.5415372121227512  0.4093299076495359
  0.1330258100238956  0.9316571145516289  0.3983886075800744
  0.4133396269266308  0.6696099075323018  0.5951821876553363
  0.0317202696186912  0.7371653033211335  0.3984392720871030
  0.2872540489176718  0.4803278538003456  0.5995388231429783
  0.4347188892202413  0.5326308448047591  0.4410897969643218
  0.9697065709271656  0.2659828173540188  0.5986828125608183
  0.5743616446354785  0.3365963870213128  0.4267357485788105
  0.8677054629754454  0.0702907829193944  0.5762191777335860
  0.9831210726180185  0.1269413027962037  0.4075394462412107
  0.7721183417708010  0.8662650082662481  0.5952288114496428
  0.7217488067830442  0.2654862594131954  0.5741307255896740
  0.8845815262075816  0.9317799535134904  0.4000556226913266
  0.8230204452843771  0.3332897326324978  0.4099865112217341
  0.6735693781371350  0.6777227580794554  0.6001298251971930
  0.6158561300313724  0.0520346476047363  0.5899903250325508
  0.7403383016194193  0.1395548098924324  0.4249644126963175
  0.7858136307719129  0.7399514877265698  0.4001881396621584
  0.5888591701612539  0.4861142064864030  0.6046017600678465
  0.5166943123195199  0.8607027927773702  0.5903973291106248
  0.6811139458737383  0.5444769466454670  0.4109277336405678
  0.6363026971588227  0.9342573028367122  0.4006012544046607
  0.9159642980224068  0.6750850175426483  0.5972048800141824
  0.5315952222660651  0.7411746774212062  0.4092450383293486
  0.8170948907778646  0.4778480737530020  0.5913568598903647
  0.9301872381931388  0.5325052407136196  0.4189850780668318
  0.4690797717638182  0.4486864089945898  0.6072522339567014
 
  0.00000000E+00  0.00000000E+00  0.00000000E+00
  0.00000000E+00  0.00000000E+00  0.00000000E+00
  0.00000000E+00  0.00000000E+00  0.00000000E+00
  0.00000000E+00  0.00000000E+00  0.00000000E+00
  0.00000000E+00  0.00000000E+00  0.00000000E+00
  0.00000000E+00  0.00000000E+00  0.00000000E+00
  0.00000000E+00  0.00000000E+00  0.00000000E+00
  0.00000000E+00  0.00000000E+00  0.00000000E+00
  0.00000000E+00  0.00000000E+00  0.00000000E+00
  0.00000000E+00  0.00000000E+00  0.00000000E+00
  0.00000000E+00  0.00000000E+00  0.00000000E+00
  0.00000000E+00  0.00000000E+00  0.00000000E+00
  0.00000000E+00  0.00000000E+00  0.00000000E+00
  0.00000000E+00  0.00000000E+00  0.00000000E+00
  0.00000000E+00  0.00000000E+00  0.00000000E+00
  0.00000000E+00  0.00000000E+00  0.00000000E+00
  0.00000000E+00  0.00000000E+00  0.00000000E+00
  0.00000000E+00  0.00000000E+00  0.00000000E+00
  0.00000000E+00  0.00000000E+00  0.00000000E+00
  0.00000000E+00  0.00000000E+00  0.00000000E+00
  0.00000000E+00  0.00000000E+00  0.00000000E+00
  0.00000000E+00  0.00000000E+00  0.00000000E+00
  0.00000000E+00  0.00000000E+00  0.00000000E+00
  0.00000000E+00  0.00000000E+00  0.00000000E+00
  0.00000000E+00  0.00000000E+00  0.00000000E+00
  0.00000000E+00  0.00000000E+00  0.00000000E+00
  0.00000000E+00  0.00000000E+00  0.00000000E+00
  0.00000000E+00  0.00000000E+00  0.00000000E+00
  0.00000000E+00  0.00000000E+00  0.00000000E+00
  0.00000000E+00  0.00000000E+00  0.00000000E+00
  0.00000000E+00  0.00000000E+00  0.00000000E+00
  0.00000000E+00  0.00000000E+00  0.00000000E+00
  0.00000000E+00  0.00000000E+00  0.00000000E+00
  0.00000000E+00  0.00000000E+00  0.00000000E+00
  0.00000000E+00  0.00000000E+00  0.00000000E+00
  0.00000000E+00  0.00000000E+00  0.00000000E+00
  0.00000000E+00  0.00000000E+00  0.00000000E+00
  0.00000000E+00  0.00000000E+00  0.00000000E+00
  0.00000000E+00  0.00000000E+00  0.00000000E+00
  0.00000000E+00  0.00000000E+00  0.00000000E+00
  0.00000000E+00  0.00000000E+00  0.00000000E+00
  0.00000000E+00  0.00000000E+00  0.00000000E+00
  0.00000000E+00  0.00000000E+00  0.00000000E+00
  0.00000000E+00  0.00000000E+00  0.00000000E+00
  0.00000000E+00  0.00000000E+00  0.00000000E+00
  0.00000000E+00  0.00000000E+00  0.00000000E+00
  0.00000000E+00  0.00000000E+00  0.00000000E+00
  0.00000000E+00  0.00000000E+00  0.00000000E+00
  0.00000000E+00  0.00000000E+00  0.00000000E+00
  0.00000000E+00  0.00000000E+00  0.00000000E+00
  0.00000000E+00  0.00000000E+00  0.00000000E+00
  0.00000000E+00  0.00000000E+00  0.00000000E+00
  0.00000000E+00  0.00000000E+00  0.00000000E+00
  0.00000000E+00  0.00000000E+00  0.00000000E+00
  0.00000000E+00  0.00000000E+00  0.00000000E+00
  0.00000000E+00  0.00000000E+00  0.00000000E+00
  0.00000000E+00  0.00000000E+00  0.00000000E+00
  0.00000000E+00  0.00000000E+00  0.00000000E+00
  0.00000000E+00  0.00000000E+00  0.00000000E+00
  0.00000000E+00  0.00000000E+00  0.00000000E+00
  0.00000000E+00  0.00000000E+00  0.00000000E+00
