CONTCAR\(2)                             
   1.00000000000000     
    11.8893995285000003    0.0000000000000000    0.0000000000000000
     0.0000000000000000   11.8893995285000003    0.0000000000000000
     0.0000000000000000    0.0000000000000000   25.3729991912999999
   Ce   Bi   S    O    H 
    18    18    36    19     1
Direct
  0.0006320222444179  0.0000807233494976  0.4503700008859942
  0.1678236142223308  0.1670374767659598  0.5498322999742401
  0.3332589393613140  0.0000683011212436  0.4499221115714499
  0.4987817031768034  0.1668027682852450  0.5498925267288566
  0.6660285768395564  0.0000860165791701  0.4503622067267437
  0.8333892285459953  0.1658102996421951  0.5494287340619259
  0.0004134796694205  0.3339259018862292  0.4513099265415004
  0.1682986805952688  0.5000861376932940  0.5520979984964651
  0.3334489794822356  0.3342758674545563  0.4518711407440349
  0.4982368832485652  0.5000785368315102  0.5529194250791197
  0.6660812340442922  0.3340654515161102  0.4515360970828280
  0.8335434037506972  0.5000811350142597  0.5501913053005912
  0.0004312309994590  0.6661898200624221  0.4513134029873753
  0.1678337953349082  0.8331230223986050  0.5498273659696338
  0.3334384363015027  0.6658639021439943  0.4518762043647509
  0.4988091703790910  0.8333197999184631  0.5498519615755030
  0.6660819223963230  0.6660544402759947  0.4515184942059331
  0.8333893525260677  0.8343330287365524  0.5494167521382228
  0.0031651304460611  0.0000215974922032  0.7005538490215427
  0.1665996105832208  0.1669037851694905  0.3009804479869009
  0.3327470720193082  0.0000405237997637  0.7003128766129548
  0.5000015707942533  0.1669510101975450  0.3009724580151485
  0.6616764818844594  0.0000155382660077  0.7007845677661509
  0.8332867448920592  0.1668038335263399  0.3010007883479598
  0.9993943073187223  0.3326152688916336  0.6991512416879525
  0.1666874481443459  0.5000085357329380  0.3010923391397919
  0.3296065626256693  0.3483141362767431  0.7038646872918687
  0.4999421486492516  0.5000031935568480  0.3010968883017656
  0.6663560112240023  0.3322641564209457  0.6988259682292919
  0.8332707060107137  0.4999945394434920  0.3011228471292721
  0.9993765611264356  0.6674311532523164  0.6991425567982827
  0.1666202394867648  0.8331415613912598  0.3009555915431822
  0.3296711328413588  0.6517245699461987  0.7038915956000192
  0.5000004654482210  0.8330683730358472  0.3009698626245725
  0.6663962057507413  0.6677608829287570  0.6988257636189024
  0.8332965984777446  0.8332341474299821  0.3010216150911429
  0.0008669141211298  0.0001084535216432  0.6003163925808941
  0.0000396102026374  0.0000308644402689  0.2968346844339668
  0.1665471288389870  0.1678869195348909  0.4010604889729426
  0.1657487683064590  0.1686165635212518  0.7084182664586089
  0.3331972763295937  0.0000402368579459  0.5999986114860801
  0.3333730917694696  0.0000207494857968  0.2982701175846610
  0.5001672566525948  0.1680485927698273  0.4010956382032222
  0.4998968889085524  0.1664116592611669  0.7085813471608976
  0.6657222303058203  0.0000693602098790  0.6004499869783729
  0.6664287696832163  0.0000128180183037  0.2969275917442369
  0.8332197003417063  0.1674934792466223  0.4011209508602170
  0.8345673224681124  0.1701244461044610  0.7073966751674478
  0.9962948398901201  0.3283109932823683  0.5991441631481369
  0.9998407459883102  0.3332965405790153  0.2956263956156895
  0.1668131236277004  0.5000263680501127  0.4013677346538705
  0.1669573093184572  0.5000557478094653  0.6730978690006634
  0.3340427324551932  0.3260439455395474  0.5992073874221187
  0.3332032311535404  0.3335789192047088  0.2953509585322794
  0.4999711956987709  0.5000214223506184  0.4013780383293880
  0.5011366412213244  0.5001229270920577  0.6773107428906220
  0.6700019473568021  0.3280184109833436  0.5989683673588361
  0.6666768236398600  0.3335183847291460  0.2953855852118676
  0.8331575199702851  0.5000260275228008  0.4013806281296950
  0.8316907105846059  0.5001149229613895  0.7027959578610683
  0.9963375922066977  0.6719087974519710  0.5991373778749767
  0.9998946358004414  0.6667579241797081  0.2956885693280202
  0.1665410517115435  0.8322006213564809  0.4010437018444921
  0.1657450677311569  0.8315194985893939  0.7083623205809526
  0.3341809934205757  0.6741265474851512  0.5990872452478532
  0.3332107532013326  0.6664395308743876  0.2953614011181663
  0.5001479920594297  0.8320740781134626  0.4010957161724781
  0.4999435665475245  0.8337652143604224  0.7087094802605133
  0.6700159743819107  0.6721481818750167  0.5989665816317525
  0.6667204800569582  0.6665125750375648  0.2954781025535236
  0.8332458028381921  0.8327382518525064  0.4011681835520350
  0.8346595995673822  0.8301034221719953  0.7074327645680495
  0.0001872082640756  0.1662201095411895  0.5000531611100130
  0.1670360502777014  0.0000628163810421  0.5000203979521952
  0.3332936835791369  0.1658757458718892  0.4994969590969455
  0.4995951474904304  0.0000446278748729  0.4999842446326725
  0.6664661041527683  0.1661025877683934  0.5000687452887039
  0.8332727661153558  0.0000807504426904  0.5000014322041169
  0.9997950016900385  0.5000498174967005  0.5013294319511123
  0.1662822255945528  0.3332925811229779  0.5005792737680202
  0.3335851926676118  0.5000477236345144  0.5011337102849679
  0.5004021176062060  0.3335036944744454  0.5007872075561671
  0.6666612631272264  0.5000692595875976  0.5016550236466255
  0.8333307123854254  0.3333052412870248  0.5002677053158622
  0.0002031812329706  0.8339414453595422  0.5000539544110779
  0.1662703021580219  0.6668649998355720  0.5005666938009327
  0.3333022670785743  0.8342888097801706  0.4994736445589281
  0.5004435684390338  0.6666453840939959  0.5007587006055058
  0.6664572738149175  0.8340235306548763  0.5000553348353933
  0.8333149208044206  0.6668199523084921  0.5002655487919916
  0.3116964421472179  0.5003218895964811  0.7701853365896577
  0.3736435031764488  0.5004460820292885  0.7954746238385663
 
  0.00000000E+00  0.00000000E+00  0.00000000E+00
  0.00000000E+00  0.00000000E+00  0.00000000E+00
  0.00000000E+00  0.00000000E+00  0.00000000E+00
  0.00000000E+00  0.00000000E+00  0.00000000E+00
  0.00000000E+00  0.00000000E+00  0.00000000E+00
  0.00000000E+00  0.00000000E+00  0.00000000E+00
  0.00000000E+00  0.00000000E+00  0.00000000E+00
  0.00000000E+00  0.00000000E+00  0.00000000E+00
  0.00000000E+00  0.00000000E+00  0.00000000E+00
  0.00000000E+00  0.00000000E+00  0.00000000E+00
  0.00000000E+00  0.00000000E+00  0.00000000E+00
  0.00000000E+00  0.00000000E+00  0.00000000E+00
  0.00000000E+00  0.00000000E+00  0.00000000E+00
  0.00000000E+00  0.00000000E+00  0.00000000E+00
  0.00000000E+00  0.00000000E+00  0.00000000E+00
  0.00000000E+00  0.00000000E+00  0.00000000E+00
  0.00000000E+00  0.00000000E+00  0.00000000E+00
  0.00000000E+00  0.00000000E+00  0.00000000E+00
  0.00000000E+00  0.00000000E+00  0.00000000E+00
  0.00000000E+00  0.00000000E+00  0.00000000E+00
  0.00000000E+00  0.00000000E+00  0.00000000E+00
  0.00000000E+00  0.00000000E+00  0.00000000E+00
  0.00000000E+00  0.00000000E+00  0.00000000E+00
  0.00000000E+00  0.00000000E+00  0.00000000E+00
  0.00000000E+00  0.00000000E+00  0.00000000E+00
  0.00000000E+00  0.00000000E+00  0.00000000E+00
  0.00000000E+00  0.00000000E+00  0.00000000E+00
  0.00000000E+00  0.00000000E+00  0.00000000E+00
  0.00000000E+00  0.00000000E+00  0.00000000E+00
  0.00000000E+00  0.00000000E+00  0.00000000E+00
  0.00000000E+00  0.00000000E+00  0.00000000E+00
  0.00000000E+00  0.00000000E+00  0.00000000E+00
  0.00000000E+00  0.00000000E+00  0.00000000E+00
  0.00000000E+00  0.00000000E+00  0.00000000E+00
  0.00000000E+00  0.00000000E+00  0.00000000E+00
  0.00000000E+00  0.00000000E+00  0.00000000E+00
  0.00000000E+00  0.00000000E+00  0.00000000E+00
  0.00000000E+00  0.00000000E+00  0.00000000E+00
  0.00000000E+00  0.00000000E+00  0.00000000E+00
  0.00000000E+00  0.00000000E+00  0.00000000E+00
  0.00000000E+00  0.00000000E+00  0.00000000E+00
  0.00000000E+00  0.00000000E+00  0.00000000E+00
  0.00000000E+00  0.00000000E+00  0.00000000E+00
  0.00000000E+00  0.00000000E+00  0.00000000E+00
  0.00000000E+00  0.00000000E+00  0.00000000E+00
  0.00000000E+00  0.00000000E+00  0.00000000E+00
  0.00000000E+00  0.00000000E+00  0.00000000E+00
  0.00000000E+00  0.00000000E+00  0.00000000E+00
  0.00000000E+00  0.00000000E+00  0.00000000E+00
  0.00000000E+00  0.00000000E+00  0.00000000E+00
  0.00000000E+00  0.00000000E+00  0.00000000E+00
  0.00000000E+00  0.00000000E+00  0.00000000E+00
  0.00000000E+00  0.00000000E+00  0.00000000E+00
  0.00000000E+00  0.00000000E+00  0.00000000E+00
  0.00000000E+00  0.00000000E+00  0.00000000E+00
  0.00000000E+00  0.00000000E+00  0.00000000E+00
  0.00000000E+00  0.00000000E+00  0.00000000E+00
  0.00000000E+00  0.00000000E+00  0.00000000E+00
  0.00000000E+00  0.00000000E+00  0.00000000E+00
  0.00000000E+00  0.00000000E+00  0.00000000E+00
  0.00000000E+00  0.00000000E+00  0.00000000E+00
  0.00000000E+00  0.00000000E+00  0.00000000E+00
  0.00000000E+00  0.00000000E+00  0.00000000E+00
  0.00000000E+00  0.00000000E+00  0.00000000E+00
  0.00000000E+00  0.00000000E+00  0.00000000E+00
  0.00000000E+00  0.00000000E+00  0.00000000E+00
  0.00000000E+00  0.00000000E+00  0.00000000E+00
  0.00000000E+00  0.00000000E+00  0.00000000E+00
  0.00000000E+00  0.00000000E+00  0.00000000E+00
  0.00000000E+00  0.00000000E+00  0.00000000E+00
  0.00000000E+00  0.00000000E+00  0.00000000E+00
  0.00000000E+00  0.00000000E+00  0.00000000E+00
  0.00000000E+00  0.00000000E+00  0.00000000E+00
  0.00000000E+00  0.00000000E+00  0.00000000E+00
  0.00000000E+00  0.00000000E+00  0.00000000E+00
  0.00000000E+00  0.00000000E+00  0.00000000E+00
  0.00000000E+00  0.00000000E+00  0.00000000E+00
  0.00000000E+00  0.00000000E+00  0.00000000E+00
  0.00000000E+00  0.00000000E+00  0.00000000E+00
  0.00000000E+00  0.00000000E+00  0.00000000E+00
  0.00000000E+00  0.00000000E+00  0.00000000E+00
  0.00000000E+00  0.00000000E+00  0.00000000E+00
  0.00000000E+00  0.00000000E+00  0.00000000E+00
  0.00000000E+00  0.00000000E+00  0.00000000E+00
  0.00000000E+00  0.00000000E+00  0.00000000E+00
  0.00000000E+00  0.00000000E+00  0.00000000E+00
  0.00000000E+00  0.00000000E+00  0.00000000E+00
  0.00000000E+00  0.00000000E+00  0.00000000E+00
  0.00000000E+00  0.00000000E+00  0.00000000E+00
  0.00000000E+00  0.00000000E+00  0.00000000E+00
  0.00000000E+00  0.00000000E+00  0.00000000E+00
  0.00000000E+00  0.00000000E+00  0.00000000E+00
