 Te2 Os1 Cl12                           
   1.00000000000000     
     6.5256038202235276    0.0000000000000000    0.0000000000000000
     3.1694990887682102    6.1926018102186688    0.0000000000000000
     0.0000000000000000    0.0000000000000000   23.7280256790676845
   Te   Os   Cl
     2     1    12
Direct
  0.8152210423823303  0.3488148575456458  0.3926660664376847
  0.1870272442772815  0.6401430476464016  0.6073710901519411
  0.5011672313989322  0.9945620616310388  0.5000294452989770
  0.5561678358275940  0.4810890669996019  0.3158999774426939
  0.4461272206744192  0.5077756544392463  0.6841350356111014
 -0.0013711799354311  0.5589916997851272  0.3670486036672232
  0.1015815479317406  0.2077055929093125  0.4947112696689195
  0.9007163412718333  0.7812816535241487  0.5053558357322482
  0.4574841755926232  0.8769269050522246  0.5894918585255969
  0.5448557996453720  0.1121175608644786  0.4105621609941080
  0.4566287945932631  0.7112021971625155  0.4582016539929205
  0.5457448880389606  0.2778012583864541  0.5418804273669795
  0.9259946854195319  0.9506037589617065  0.6561998084825085
  0.0762656054816963  0.0383338185350554  0.3438264415952856
  0.0036855409440331  0.4299312219033282  0.6329609138405601
 
  0.00000000E+00  0.00000000E+00  0.00000000E+00
  0.00000000E+00  0.00000000E+00  0.00000000E+00
  0.00000000E+00  0.00000000E+00  0.00000000E+00
  0.00000000E+00  0.00000000E+00  0.00000000E+00
  0.00000000E+00  0.00000000E+00  0.00000000E+00
  0.00000000E+00  0.00000000E+00  0.00000000E+00
  0.00000000E+00  0.00000000E+00  0.00000000E+00
  0.00000000E+00  0.00000000E+00  0.00000000E+00
  0.00000000E+00  0.00000000E+00  0.00000000E+00
  0.00000000E+00  0.00000000E+00  0.00000000E+00
  0.00000000E+00  0.00000000E+00  0.00000000E+00
  0.00000000E+00  0.00000000E+00  0.00000000E+00
  0.00000000E+00  0.00000000E+00  0.00000000E+00
  0.00000000E+00  0.00000000E+00  0.00000000E+00
  0.00000000E+00  0.00000000E+00  0.00000000E+00
