CONTCAR                                 
   1.00000000000000     
    13.3121995926000007    0.0000000000000000    0.0000000000000000
    -6.6560997963000004   11.5287030274000006    0.0000000000000000
     0.0000000000000000    0.0000000000000000   18.1287994384999998
   Nb   S    H 
    16    32     1
Direct
  0.0009437155357638 -0.0008691697238907  0.5011787566156326
  0.2482731365243345 -0.0008644395403362  0.5011155197066662
  0.5031859330344356 -0.0000435530270332  0.5013909764961214
  0.7469080374467877 -0.0000428959377381  0.5013069373661465
  0.0001417020360633  0.2531962618652561  0.5013519957888226
  0.2499509503663316  0.2498177552916118  0.5009968394565717
  0.5031578781826227  0.2532105604143252  0.5014254856294964
  0.7500811408022989  0.2500393770649641  0.5014301912861379
  0.0001163699445893  0.4969017896406652  0.5014415410931425
  0.2381695041168208  0.4940984725952886  0.5010004545180381
  0.5059585745775360  0.4941096840723153  0.5010306249544271
  0.7469020741685523  0.4969470858520592  0.5014449886513409
  0.0009311276248923  0.7518069712051253  0.5011280351347580
  0.2498883333037219  0.7501661580990339  0.5009216747739905
  0.5059578266041799  0.7619161926749403  0.5009694392394365
  0.7502487608669810  0.7501490433512674  0.5009711761182013
  0.1667906812857316  0.0835557422349048  0.4144422314437925
  0.1670520278127150  0.0839377390535490  0.5877464953516703
  0.4169935471765895  0.0833681558432556  0.4164279823903859
  0.4168567799048428  0.0833956367209477  0.5861834124325048
  0.6674232509493921  0.0847896238080970  0.4142125457043137
  0.6674442696376006  0.0847442985389569  0.5886081061212424
  0.9167310656273868  0.0834151201009239  0.4163593065031396
  0.9166280258801855  0.0834477340751132  0.5861442712116897
  0.1656685935544169  0.3313883785542412  0.4142121386774318
  0.1657205487256297  0.3316786115323214  0.5884134893922864
  0.4158395234075419  0.3313645606407457  0.4142512422530263
  0.4159524344301118  0.3316252512435605  0.5884350851938852
  0.6674057212173858  0.3327241751508616  0.4142679192849628
  0.6674377899748314  0.3326448897569061  0.5886487730031837
  0.9153492306896808  0.3326714630721556  0.4142329594051727
  0.9153004293823680  0.3326239304079627  0.5886523134487591
  0.1655805602298890  0.5842536371963640  0.4142217386985848
  0.1657674693846185  0.5842322460432798  0.5883909624589196
  0.4166523433646919  0.5833691324236343  0.4239541208141674
  0.4166905625746406  0.5834125541643014  0.5803999188194715
  0.6687137714124605  0.5842438584835884  0.4142531029639154
  0.6684614504662864  0.5841874981630467  0.5884188258572205
  0.9167232732079305  0.5830753959434494  0.4164518792831583
  0.9166982768935426  0.5832935901929246  0.5862347216997562
  0.1667720839902191  0.8332869408017313  0.4143502834009185
  0.1669112726563352  0.8331409274240641  0.5877232201175296
  0.4157695691115286  0.8344813629709947  0.4141915452932373
  0.4158420270313780  0.8343300749773412  0.5883741670298233
  0.6686753612274193  0.8344134697713049  0.4141700651703695
  0.6683944822547762  0.8343883025558885  0.5883784895894077
  0.9165467399897751  0.8333028853824546  0.4144410922502194
  0.9160962317278257  0.8330077358984820  0.5877445768713937
  0.4166855556843733  0.5833254069748126  0.6553983730355336
 
  0.00000000E+00  0.00000000E+00  0.00000000E+00
  0.00000000E+00  0.00000000E+00  0.00000000E+00
  0.00000000E+00  0.00000000E+00  0.00000000E+00
  0.00000000E+00  0.00000000E+00  0.00000000E+00
  0.00000000E+00  0.00000000E+00  0.00000000E+00
  0.00000000E+00  0.00000000E+00  0.00000000E+00
  0.00000000E+00  0.00000000E+00  0.00000000E+00
  0.00000000E+00  0.00000000E+00  0.00000000E+00
  0.00000000E+00  0.00000000E+00  0.00000000E+00
  0.00000000E+00  0.00000000E+00  0.00000000E+00
  0.00000000E+00  0.00000000E+00  0.00000000E+00
  0.00000000E+00  0.00000000E+00  0.00000000E+00
  0.00000000E+00  0.00000000E+00  0.00000000E+00
  0.00000000E+00  0.00000000E+00  0.00000000E+00
  0.00000000E+00  0.00000000E+00  0.00000000E+00
  0.00000000E+00  0.00000000E+00  0.00000000E+00
  0.00000000E+00  0.00000000E+00  0.00000000E+00
  0.00000000E+00  0.00000000E+00  0.00000000E+00
  0.00000000E+00  0.00000000E+00  0.00000000E+00
  0.00000000E+00  0.00000000E+00  0.00000000E+00
  0.00000000E+00  0.00000000E+00  0.00000000E+00
  0.00000000E+00  0.00000000E+00  0.00000000E+00
  0.00000000E+00  0.00000000E+00  0.00000000E+00
  0.00000000E+00  0.00000000E+00  0.00000000E+00
  0.00000000E+00  0.00000000E+00  0.00000000E+00
  0.00000000E+00  0.00000000E+00  0.00000000E+00
  0.00000000E+00  0.00000000E+00  0.00000000E+00
  0.00000000E+00  0.00000000E+00  0.00000000E+00
  0.00000000E+00  0.00000000E+00  0.00000000E+00
  0.00000000E+00  0.00000000E+00  0.00000000E+00
  0.00000000E+00  0.00000000E+00  0.00000000E+00
  0.00000000E+00  0.00000000E+00  0.00000000E+00
  0.00000000E+00  0.00000000E+00  0.00000000E+00
  0.00000000E+00  0.00000000E+00  0.00000000E+00
  0.00000000E+00  0.00000000E+00  0.00000000E+00
  0.00000000E+00  0.00000000E+00  0.00000000E+00
  0.00000000E+00  0.00000000E+00  0.00000000E+00
  0.00000000E+00  0.00000000E+00  0.00000000E+00
  0.00000000E+00  0.00000000E+00  0.00000000E+00
  0.00000000E+00  0.00000000E+00  0.00000000E+00
  0.00000000E+00  0.00000000E+00  0.00000000E+00
  0.00000000E+00  0.00000000E+00  0.00000000E+00
  0.00000000E+00  0.00000000E+00  0.00000000E+00
  0.00000000E+00  0.00000000E+00  0.00000000E+00
  0.00000000E+00  0.00000000E+00  0.00000000E+00
  0.00000000E+00  0.00000000E+00  0.00000000E+00
  0.00000000E+00  0.00000000E+00  0.00000000E+00
  0.00000000E+00  0.00000000E+00  0.00000000E+00
  0.00000000E+00  0.00000000E+00  0.00000000E+00
