This file is generated by VASPKIT code  
   1.00000000000000     
    12.8979005813999983    0.0000000000000000    0.0000000000000000
    -6.4489502906999991   11.1699095588999988    0.0000000000000000
     0.0000000000000000    0.0000000000000000   22.5037994384999998
   La   P    I    O 
    18     9    18    18
Direct
  0.1361084694513295  0.2347225607256647  0.5729056972037085
  0.1361084694513295  0.5680558940590004  0.5729056972037085
  0.1361084694513295  0.9013892273923361  0.5729056972037085
  0.4694418027846652  0.2347225607256647  0.5729056972037085
  0.4694418027846652  0.5680558940590004  0.5729056972037085
  0.4694418027846652  0.9013892273923361  0.5729056972037085
  0.8027751361180009  0.2347225607256647  0.5729056972037085
  0.8027751361180009  0.5680558940590004  0.5729056972037085
  0.8027751361180009  0.9013892273923361  0.5729056972037085
  0.2480620836868965  0.1240293751767823  0.4219675188899643
  0.2480620836868965  0.4573627085101108  0.4219675188899643
  0.2480620836868965  0.7906960418434466  0.4219675188899643
  0.5813954170202322  0.1240293751767823  0.4219675188899643
  0.5813954170202322  0.4573627085101108  0.4219675188899643
  0.5813954170202322  0.7906960418434466  0.4219675188899643
  0.9147287503535679  0.1240293751767823  0.4219675188899643
  0.9147287503535679  0.4573627085101108  0.4219675188899643
  0.9147287503535679  0.7906960418434466  0.4219675188899643
  0.0242561161484929  0.0121280580742464  0.4979911363813159
  0.0242561161484929  0.3454613914075750  0.4979911363813159
  0.0242561161484929  0.6787947247409107  0.4979911363813159
  0.3575894494818286  0.0121280580742464  0.4979911363813159
  0.3575894494818286  0.3454613914075750  0.4979911363813159
  0.3575894494818286  0.6787947247409107  0.4979911363813159
  0.6909227828151643  0.0121280580742464  0.4979911363813159
  0.6909227828151643  0.3454613914075750  0.4979911363813159
  0.6909227828151643  0.6787947247409107  0.4979911363813159
  0.2461923882610222  0.1230945274638415  0.6706003112450105
  0.2461923882610222  0.4564278607971772  0.6706003112450105
  0.2461923882610222  0.7897611941305129  0.6706003112450105
  0.5795257215943508  0.1230945274638415  0.6706003112450105
  0.5795257215943508  0.4564278607971772  0.6706003112450105
  0.5795257215943508  0.7897611941305129  0.6706003112450105
  0.9128590549276865  0.1230945274638415  0.6706003112450105
  0.9128590549276865  0.4564278607971772  0.6706003112450105
  0.9128590549276865  0.7897611941305129  0.6706003112450105
  0.1292790005669033  0.2313078262834480  0.3229157604988799
  0.1292790005669033  0.5646411596167837  0.3229157604988799
  0.1292790005669033  0.8979744929501194  0.3229157604988799
  0.4626123339002319  0.2313078262834480  0.3229157604988799
  0.4626123339002319  0.5646411596167837  0.3229157604988799
  0.4626123339002319  0.8979744929501194  0.3229157604988799
  0.7959456672335676  0.2313078262834480  0.3229157604988799
  0.7959456672335676  0.5646411596167837  0.3229157604988799
  0.7959456672335676  0.8979744929501194  0.3229157604988799
  0.0927881863087805  0.2130590786543891  0.6708383026705533
  0.0927881863087805  0.5463924119877248  0.6708383026705533
  0.0927881863087805  0.8797257453210534  0.6708383026705533
  0.4261215196421091  0.2130590786543891  0.6708383026705533
  0.4261215196421091  0.5463924119877248  0.6708383026705533
  0.4261215196421091  0.8797257453210534  0.6708383026705533
  0.7594548529754448  0.2130590786543891  0.6708383026705533
  0.7594548529754448  0.5463924119877248  0.6708383026705533
  0.7594548529754448  0.8797257453210534  0.6708383026705533
  0.1191804272432435  0.0595918636216197  0.3427812941105657
  0.1191804272432435  0.3929251969549625  0.3427812941105657
  0.1191804272432435  0.7262585302882840  0.3427812941105657
  0.4525137605765792  0.0595918636216197  0.3427812941105657
  0.4525137605765792  0.3929251969549625  0.3427812941105657
  0.4525137605765792  0.7262585302882840  0.3427812941105657
  0.7858470939099149  0.0595918636216197  0.3427812941105657
  0.7858470939099149  0.3929251969549625  0.3427812941105657
  0.7858470939099149  0.7262585302882840  0.3427812941105657
 
  0.00000000E+00  0.00000000E+00  0.00000000E+00
  0.00000000E+00  0.00000000E+00  0.00000000E+00
  0.00000000E+00  0.00000000E+00  0.00000000E+00
  0.00000000E+00  0.00000000E+00  0.00000000E+00
  0.00000000E+00  0.00000000E+00  0.00000000E+00
  0.00000000E+00  0.00000000E+00  0.00000000E+00
  0.00000000E+00  0.00000000E+00  0.00000000E+00
  0.00000000E+00  0.00000000E+00  0.00000000E+00
  0.00000000E+00  0.00000000E+00  0.00000000E+00
  0.00000000E+00  0.00000000E+00  0.00000000E+00
  0.00000000E+00  0.00000000E+00  0.00000000E+00
  0.00000000E+00  0.00000000E+00  0.00000000E+00
  0.00000000E+00  0.00000000E+00  0.00000000E+00
  0.00000000E+00  0.00000000E+00  0.00000000E+00
  0.00000000E+00  0.00000000E+00  0.00000000E+00
  0.00000000E+00  0.00000000E+00  0.00000000E+00
  0.00000000E+00  0.00000000E+00  0.00000000E+00
  0.00000000E+00  0.00000000E+00  0.00000000E+00
  0.00000000E+00  0.00000000E+00  0.00000000E+00
  0.00000000E+00  0.00000000E+00  0.00000000E+00
  0.00000000E+00  0.00000000E+00  0.00000000E+00
  0.00000000E+00  0.00000000E+00  0.00000000E+00
  0.00000000E+00  0.00000000E+00  0.00000000E+00
  0.00000000E+00  0.00000000E+00  0.00000000E+00
  0.00000000E+00  0.00000000E+00  0.00000000E+00
  0.00000000E+00  0.00000000E+00  0.00000000E+00
  0.00000000E+00  0.00000000E+00  0.00000000E+00
  0.00000000E+00  0.00000000E+00  0.00000000E+00
  0.00000000E+00  0.00000000E+00  0.00000000E+00
  0.00000000E+00  0.00000000E+00  0.00000000E+00
  0.00000000E+00  0.00000000E+00  0.00000000E+00
  0.00000000E+00  0.00000000E+00  0.00000000E+00
  0.00000000E+00  0.00000000E+00  0.00000000E+00
  0.00000000E+00  0.00000000E+00  0.00000000E+00
  0.00000000E+00  0.00000000E+00  0.00000000E+00
  0.00000000E+00  0.00000000E+00  0.00000000E+00
  0.00000000E+00  0.00000000E+00  0.00000000E+00
  0.00000000E+00  0.00000000E+00  0.00000000E+00
  0.00000000E+00  0.00000000E+00  0.00000000E+00
  0.00000000E+00  0.00000000E+00  0.00000000E+00
  0.00000000E+00  0.00000000E+00  0.00000000E+00
  0.00000000E+00  0.00000000E+00  0.00000000E+00
  0.00000000E+00  0.00000000E+00  0.00000000E+00
  0.00000000E+00  0.00000000E+00  0.00000000E+00
  0.00000000E+00  0.00000000E+00  0.00000000E+00
  0.00000000E+00  0.00000000E+00  0.00000000E+00
  0.00000000E+00  0.00000000E+00  0.00000000E+00
  0.00000000E+00  0.00000000E+00  0.00000000E+00
  0.00000000E+00  0.00000000E+00  0.00000000E+00
  0.00000000E+00  0.00000000E+00  0.00000000E+00
  0.00000000E+00  0.00000000E+00  0.00000000E+00
  0.00000000E+00  0.00000000E+00  0.00000000E+00
  0.00000000E+00  0.00000000E+00  0.00000000E+00
  0.00000000E+00  0.00000000E+00  0.00000000E+00
  0.00000000E+00  0.00000000E+00  0.00000000E+00
  0.00000000E+00  0.00000000E+00  0.00000000E+00
  0.00000000E+00  0.00000000E+00  0.00000000E+00
  0.00000000E+00  0.00000000E+00  0.00000000E+00
  0.00000000E+00  0.00000000E+00  0.00000000E+00
  0.00000000E+00  0.00000000E+00  0.00000000E+00
  0.00000000E+00  0.00000000E+00  0.00000000E+00
  0.00000000E+00  0.00000000E+00  0.00000000E+00
  0.00000000E+00  0.00000000E+00  0.00000000E+00
