CONTCAR\(4)                             
   1.00000000000000     
    14.6658000945999998    0.0000000000000000    0.0000000000000000
    -6.3303146519000002   14.2892752829000003    0.0000000000000000
     0.0000000000000000    0.0000000000000000   22.6324005126999985
   Ag   Sb   F 
     9    18   108
Direct
  0.2685399810000035  0.3018000040000004  0.5000100290000020
  0.6018700039999985  0.3018000040000004  0.5000100290000020
  0.9352099910000007  0.3018000040000004  0.5000100290000020
  0.2685399880000006  0.6351299869999991  0.5000100290000020
  0.6018700099999990  0.6351299869999991  0.5000100290000020
  0.9352099979999977  0.6351299869999991  0.5000100290000020
  0.2685399759999996  0.9684600020000005  0.5000100290000020
  0.6018699979999980  0.9684600020000005  0.5000100290000020
  0.9352099859999967  0.9684600020000005  0.5000100290000020
  0.0298196051650849  0.1685051234592043  0.6098116529744693
  0.1739603898349130  0.1017648685407915  0.3901883470255308
  0.3631496031650884  0.1685051234592043  0.6098116529744693
  0.5073004018349139  0.1017648685407915  0.3901883470255308
  0.6964796091650853  0.1685051234592043  0.6098116529744693
  0.8406304078349109  0.1017648685407915  0.3901883470255308
  0.0298196071650850  0.5018451344592085  0.6098116529744693
  0.1739603808349158  0.4350948345407923  0.3901883470255308
  0.3631496131650892  0.5018451344592085  0.6098116529744693
  0.5073003678349111  0.4350948345407923  0.3901883470255308
  0.6964795871650906  0.5018451344592085  0.6098116529744693
  0.8406304068349144  0.4350948345407923  0.3901883470255308
  0.0298196131650855  0.8351751164592036  0.6098116529744693
  0.1739603958349135  0.7684348945407899  0.3901883470255308
  0.3631496191650897  0.8351751164592036  0.6098116529744693
  0.5073003998349137  0.7684348945407899  0.3901883470255308
  0.6964795931650840  0.8351751164592036  0.6098116529744693
  0.8406304068349144  0.7684348945407899  0.3901883470255308
  0.1602982980630611  0.1971028110795487  0.4441859593159583
  0.0434717019369376  0.0731871779204496  0.5558040116840397
  0.3116475158831551  0.1792596248030431  0.3893431605548053
  0.0163176400150144  0.2701697377449848  0.6470805944868177
  0.1874623459849863  0.0001102542550212  0.3529194265131805
  0.1668249721915263  0.2394566793374388  0.5899872380056014
  0.0369450318084727  0.0308233196625572  0.4100227479944005
  0.0065793356334937  0.2164959090925887  0.5304370391813822
  0.1971806573665048  0.0537840899074073  0.4695629608186178
  0.0616300107278727  0.1190128287641245  0.6782689358178712
  0.1421499912721222  0.1512571722358756  0.3217310641821288
  0.2254524661168457  0.0910303561969546  0.6106368664451941
  0.4936283120630660  0.1971028110795487  0.4441859593159583
  0.3768117259369322  0.0731871779204496  0.5558040116840397
  0.6449775538831548  0.1792596248030431  0.3893431605548053
  0.3496476300150102  0.2701697377449848  0.6470805944868177
  0.5208023659849877  0.0001102542550212  0.3529194265131805
  0.5001549541915286  0.2394566793374388  0.5899872380056014
  0.3702750168084716  0.0308233196625572  0.4100227479944005
  0.3399193396334937  0.2164959090925887  0.5304370391813822
  0.5305106803665067  0.0537840899074073  0.4695629608186178
  0.3949600457278757  0.1190128287641245  0.6782689358178712
  0.4754800132721277  0.1512571722358756  0.3217310641821288
  0.5587924541168445  0.0910303561969546  0.6106368664451941
  0.8269683000630647  0.1971028110795487  0.4441859593159583
  0.7101416999369337  0.0731871779204496  0.5558040116840397
  0.9783175418831607  0.1792596248030431  0.3893431605548053
  0.6829775710150124  0.2701697377449848  0.6470805944868177
  0.8541324049849840  0.0001102542550212  0.3529194265131805
  0.8334949091915281  0.2394566793374388  0.5899872380056014
  0.7036150698084721  0.0308233196625572  0.4100227479944005
  0.6732493946334985  0.2164959090925887  0.5304370391813822
  0.8638506353665063  0.0537840899074073  0.4695629608186178
  0.7282900187278736  0.1190128287641245  0.6782689358178712
  0.8088099872721222  0.1512571722358756  0.3217310641821288
  0.8921224931168408  0.0910303561969546  0.6106368664451941
  0.1602983050630652  0.5304327770795496  0.4441859593159583
  0.0434717039369378  0.4065271799204496  0.5558040116840397
  0.3116475218831556  0.5125896078030489  0.3893431605548053
  0.0163176290150099  0.6035096977449813  0.6470805944868177
  0.1874623539849870  0.3334502592550179  0.3529194265131805
  0.1668249851915238  0.5727866953374439  0.5899872380056014
  0.0369450238084720  0.3641633176625568  0.4100227479944005
  0.0065793406334976  0.5498259250925936  0.5304370391813822
  0.1971806663665020  0.3871140759074098  0.4695629608186178
  0.0616300007278719  0.4523428197641238  0.6782689358178712
  0.1421499882721255  0.4845871712358757  0.3217310641821288
  0.2254524561168449  0.4243603381969568  0.6106368664451941
  0.4936283110630623  0.5304327770795496  0.4441859593159583
  0.3768117159369385  0.4065271799204496  0.5558040116840397
  0.6449775608831589  0.5125896078030489  0.3893431605548053
  0.3496476190150128  0.6035096977449813  0.6470805944868177
  0.5208023739849884  0.3334502592550179  0.3529194265131805
  0.5001549581915289  0.5727866953374439  0.5899872380056014
  0.3702750218084755  0.3641633176625568  0.4100227479944005
  0.3399193446334977  0.5498259250925936  0.5304370391813822
  0.5305106553665011  0.3871140759074098  0.4695629608186178
  0.3949600227278773  0.4523428197641238  0.6782689358178712
  0.4754799942721226  0.4845871712358757  0.3217310641821288
  0.5587924281168424  0.4243603381969568  0.6106368664451941
  0.8269683640630630  0.5304327770795496  0.4441859593159583
  0.7101417389369333  0.4065271799204496  0.5558040116840397
  0.9783175478831541  0.5125896078030489  0.3893431605548053
  0.6829775930150143  0.6035096977449813  0.6470805944868177
  0.8541323799849855  0.3334502592550179  0.3529194265131805
  0.8334949301915263  0.5727866953374439  0.5899872380056014
  0.7036150428084734  0.3641633176625568  0.4100227479944005
  0.6732493826334975  0.5498259250925936  0.5304370391813822
  0.8638506433665070  0.3871140759074098  0.4695629608186178
  0.7282900287278744  0.4523428197641238  0.6782689358178712
  0.8088100012721233  0.4845871712358757  0.3217310641821288
  0.8921224991168413  0.4243603381969568  0.6106368664451941
  0.1602982900630675  0.8637728040795480  0.4441859593159583
  0.0434716859369363  0.7398571619204517  0.5558040116840397
  0.3116475238831558  0.8459196568030459  0.3893431605548053
  0.0163176620150162  0.9368397807449812  0.6470805944868177
  0.1874623599849875  0.6667802412550200  0.3529194265131805
  0.1668249571915286  0.9061266553374403  0.5899872380056014
  0.0369450218084719  0.6974932996625589  0.4100227479944005
  0.0065793486334983  0.8831558750925932  0.5304370391813822
  0.1971806523665079  0.7204540699074091  0.4695629608186178
  0.0616300377278785  0.7856728347641251  0.6782689358178712
  0.1421499952721225  0.8179171542358745  0.3217310641821288
  0.2254524741168393  0.7577003651969553  0.6106368664451941
  0.4936282970630612  0.8637728040795480  0.4441859593159583
  0.3768117059369376  0.7398571619204517  0.5558040116840397
  0.6449775628831591  0.8459196568030459  0.3893431605548053
  0.3496476360150107  0.9368397807449812  0.6470805944868177
  0.5208023809849854  0.6667802412550200  0.3529194265131805
  0.5001549311915231  0.9061266553374403  0.5899872380056014
  0.3702750288084726  0.6974932996625589  0.4100227479944005
  0.3399193366334970  0.8831558750925932  0.5304370391813822
  0.5305106593665014  0.7204540699074091  0.4695629608186178
  0.3949600437278755  0.7856728347641251  0.6782689358178712
  0.4754800012721268  0.8179171542358745  0.3217310641821288
  0.5587924451168402  0.7577003651969553  0.6106368664451941
  0.8269683170630626  0.8637728040795480  0.4441859593159583
  0.7101417129369383  0.7398571619204517  0.5558040116840397
  0.9783175828831605  0.8459196568030459  0.3893431605548053
  0.6829776100150121  0.9368397807449812  0.6470805944868177
  0.8541323869849896  0.6667802412550200  0.3529194265131805
  0.8334949191915290  0.9061266553374403  0.5899872380056014
  0.7036150488084739  0.6974932996625589  0.4100227479944005
  0.6732493746334969  0.8831558750925932  0.5304370391813822
  0.8638506793665028  0.7204540699074091  0.4695629608186178
  0.7282900497278726  0.7856728347641251  0.6782689358178712
  0.8088100072721238  0.8179171542358745  0.3217310641821288
  0.8921224841168436  0.7577003651969553  0.6106368664451941
 
  0.00000000E+00  0.00000000E+00  0.00000000E+00
  0.00000000E+00  0.00000000E+00  0.00000000E+00
  0.00000000E+00  0.00000000E+00  0.00000000E+00
  0.00000000E+00  0.00000000E+00  0.00000000E+00
  0.00000000E+00  0.00000000E+00  0.00000000E+00
  0.00000000E+00  0.00000000E+00  0.00000000E+00
  0.00000000E+00  0.00000000E+00  0.00000000E+00
  0.00000000E+00  0.00000000E+00  0.00000000E+00
  0.00000000E+00  0.00000000E+00  0.00000000E+00
  0.00000000E+00  0.00000000E+00  0.00000000E+00
  0.00000000E+00  0.00000000E+00  0.00000000E+00
  0.00000000E+00  0.00000000E+00  0.00000000E+00
  0.00000000E+00  0.00000000E+00  0.00000000E+00
  0.00000000E+00  0.00000000E+00  0.00000000E+00
  0.00000000E+00  0.00000000E+00  0.00000000E+00
  0.00000000E+00  0.00000000E+00  0.00000000E+00
  0.00000000E+00  0.00000000E+00  0.00000000E+00
  0.00000000E+00  0.00000000E+00  0.00000000E+00
  0.00000000E+00  0.00000000E+00  0.00000000E+00
  0.00000000E+00  0.00000000E+00  0.00000000E+00
  0.00000000E+00  0.00000000E+00  0.00000000E+00
  0.00000000E+00  0.00000000E+00  0.00000000E+00
  0.00000000E+00  0.00000000E+00  0.00000000E+00
  0.00000000E+00  0.00000000E+00  0.00000000E+00
  0.00000000E+00  0.00000000E+00  0.00000000E+00
  0.00000000E+00  0.00000000E+00  0.00000000E+00
  0.00000000E+00  0.00000000E+00  0.00000000E+00
  0.00000000E+00  0.00000000E+00  0.00000000E+00
  0.00000000E+00  0.00000000E+00  0.00000000E+00
  0.00000000E+00  0.00000000E+00  0.00000000E+00
  0.00000000E+00  0.00000000E+00  0.00000000E+00
  0.00000000E+00  0.00000000E+00  0.00000000E+00
  0.00000000E+00  0.00000000E+00  0.00000000E+00
  0.00000000E+00  0.00000000E+00  0.00000000E+00
  0.00000000E+00  0.00000000E+00  0.00000000E+00
  0.00000000E+00  0.00000000E+00  0.00000000E+00
  0.00000000E+00  0.00000000E+00  0.00000000E+00
  0.00000000E+00  0.00000000E+00  0.00000000E+00
  0.00000000E+00  0.00000000E+00  0.00000000E+00
  0.00000000E+00  0.00000000E+00  0.00000000E+00
  0.00000000E+00  0.00000000E+00  0.00000000E+00
  0.00000000E+00  0.00000000E+00  0.00000000E+00
  0.00000000E+00  0.00000000E+00  0.00000000E+00
  0.00000000E+00  0.00000000E+00  0.00000000E+00
  0.00000000E+00  0.00000000E+00  0.00000000E+00
  0.00000000E+00  0.00000000E+00  0.00000000E+00
  0.00000000E+00  0.00000000E+00  0.00000000E+00
  0.00000000E+00  0.00000000E+00  0.00000000E+00
  0.00000000E+00  0.00000000E+00  0.00000000E+00
  0.00000000E+00  0.00000000E+00  0.00000000E+00
  0.00000000E+00  0.00000000E+00  0.00000000E+00
  0.00000000E+00  0.00000000E+00  0.00000000E+00
  0.00000000E+00  0.00000000E+00  0.00000000E+00
  0.00000000E+00  0.00000000E+00  0.00000000E+00
  0.00000000E+00  0.00000000E+00  0.00000000E+00
  0.00000000E+00  0.00000000E+00  0.00000000E+00
  0.00000000E+00  0.00000000E+00  0.00000000E+00
  0.00000000E+00  0.00000000E+00  0.00000000E+00
  0.00000000E+00  0.00000000E+00  0.00000000E+00
  0.00000000E+00  0.00000000E+00  0.00000000E+00
  0.00000000E+00  0.00000000E+00  0.00000000E+00
  0.00000000E+00  0.00000000E+00  0.00000000E+00
  0.00000000E+00  0.00000000E+00  0.00000000E+00
  0.00000000E+00  0.00000000E+00  0.00000000E+00
  0.00000000E+00  0.00000000E+00  0.00000000E+00
  0.00000000E+00  0.00000000E+00  0.00000000E+00
  0.00000000E+00  0.00000000E+00  0.00000000E+00
  0.00000000E+00  0.00000000E+00  0.00000000E+00
  0.00000000E+00  0.00000000E+00  0.00000000E+00
  0.00000000E+00  0.00000000E+00  0.00000000E+00
  0.00000000E+00  0.00000000E+00  0.00000000E+00
  0.00000000E+00  0.00000000E+00  0.00000000E+00
  0.00000000E+00  0.00000000E+00  0.00000000E+00
  0.00000000E+00  0.00000000E+00  0.00000000E+00
  0.00000000E+00  0.00000000E+00  0.00000000E+00
  0.00000000E+00  0.00000000E+00  0.00000000E+00
  0.00000000E+00  0.00000000E+00  0.00000000E+00
  0.00000000E+00  0.00000000E+00  0.00000000E+00
  0.00000000E+00  0.00000000E+00  0.00000000E+00
  0.00000000E+00  0.00000000E+00  0.00000000E+00
  0.00000000E+00  0.00000000E+00  0.00000000E+00
  0.00000000E+00  0.00000000E+00  0.00000000E+00
  0.00000000E+00  0.00000000E+00  0.00000000E+00
  0.00000000E+00  0.00000000E+00  0.00000000E+00
  0.00000000E+00  0.00000000E+00  0.00000000E+00
  0.00000000E+00  0.00000000E+00  0.00000000E+00
  0.00000000E+00  0.00000000E+00  0.00000000E+00
  0.00000000E+00  0.00000000E+00  0.00000000E+00
  0.00000000E+00  0.00000000E+00  0.00000000E+00
  0.00000000E+00  0.00000000E+00  0.00000000E+00
  0.00000000E+00  0.00000000E+00  0.00000000E+00
  0.00000000E+00  0.00000000E+00  0.00000000E+00
  0.00000000E+00  0.00000000E+00  0.00000000E+00
  0.00000000E+00  0.00000000E+00  0.00000000E+00
  0.00000000E+00  0.00000000E+00  0.00000000E+00
  0.00000000E+00  0.00000000E+00  0.00000000E+00
  0.00000000E+00  0.00000000E+00  0.00000000E+00
  0.00000000E+00  0.00000000E+00  0.00000000E+00
  0.00000000E+00  0.00000000E+00  0.00000000E+00
  0.00000000E+00  0.00000000E+00  0.00000000E+00
  0.00000000E+00  0.00000000E+00  0.00000000E+00
  0.00000000E+00  0.00000000E+00  0.00000000E+00
  0.00000000E+00  0.00000000E+00  0.00000000E+00
  0.00000000E+00  0.00000000E+00  0.00000000E+00
  0.00000000E+00  0.00000000E+00  0.00000000E+00
  0.00000000E+00  0.00000000E+00  0.00000000E+00
  0.00000000E+00  0.00000000E+00  0.00000000E+00
  0.00000000E+00  0.00000000E+00  0.00000000E+00
  0.00000000E+00  0.00000000E+00  0.00000000E+00
  0.00000000E+00  0.00000000E+00  0.00000000E+00
  0.00000000E+00  0.00000000E+00  0.00000000E+00
  0.00000000E+00  0.00000000E+00  0.00000000E+00
  0.00000000E+00  0.00000000E+00  0.00000000E+00
  0.00000000E+00  0.00000000E+00  0.00000000E+00
  0.00000000E+00  0.00000000E+00  0.00000000E+00
  0.00000000E+00  0.00000000E+00  0.00000000E+00
  0.00000000E+00  0.00000000E+00  0.00000000E+00
  0.00000000E+00  0.00000000E+00  0.00000000E+00
  0.00000000E+00  0.00000000E+00  0.00000000E+00
  0.00000000E+00  0.00000000E+00  0.00000000E+00
  0.00000000E+00  0.00000000E+00  0.00000000E+00
  0.00000000E+00  0.00000000E+00  0.00000000E+00
  0.00000000E+00  0.00000000E+00  0.00000000E+00
  0.00000000E+00  0.00000000E+00  0.00000000E+00
  0.00000000E+00  0.00000000E+00  0.00000000E+00
  0.00000000E+00  0.00000000E+00  0.00000000E+00
  0.00000000E+00  0.00000000E+00  0.00000000E+00
  0.00000000E+00  0.00000000E+00  0.00000000E+00
  0.00000000E+00  0.00000000E+00  0.00000000E+00
  0.00000000E+00  0.00000000E+00  0.00000000E+00
  0.00000000E+00  0.00000000E+00  0.00000000E+00
  0.00000000E+00  0.00000000E+00  0.00000000E+00
  0.00000000E+00  0.00000000E+00  0.00000000E+00
  0.00000000E+00  0.00000000E+00  0.00000000E+00
  0.00000000E+00  0.00000000E+00  0.00000000E+00
