CONTCAR\(7)                             
   1.00000000000000     
    13.6564998627000005    0.0000000000000000    0.0000000000000000
     0.0000000000000000   10.3198995589999996    0.0000000000000000
     0.0000000000000000    0.0000000000000000   19.5949993133999989
   Ta   Fe   Te
     8     8    24
Direct
  0.0625000000000000  0.2490692295562093  0.4874199240638289
  0.1874999910000028  0.6394571729735685  0.5125830033052076
  0.3125000089999972  0.2490692295562093  0.4874199240638289
  0.4374999910000028  0.6394571729735685  0.5125830033052076
  0.5625000089999972  0.2490692295562093  0.4874199240638289
  0.6874999910000028  0.6394571729735685  0.5125830033052076
  0.8125000089999972  0.2490692295562093  0.4874199240638289
  0.9375000260000022  0.6394571729735685  0.5125830033052076
  0.1874999910000028  0.0393341560199210  0.4901104524501176
  0.0625000000000000  0.8491125013797680  0.5099197298232427
  0.4374999910000028  0.0393341560199210  0.4901104524501176
  0.3125000089999972  0.8491125013797680  0.5099197298232427
  0.6874999910000028  0.0393341560199210  0.4901104524501176
  0.5625000089999972  0.8491125013797680  0.5099197298232427
  0.9375000260000022  0.0393341560199210  0.4901104524501176
  0.8125000089999972  0.8491125013797680  0.5099197298232427
  0.1874999910000028  0.3849326167179902  0.5797286760297869
  0.0625000000000000  0.5035627972324781  0.4201739520192653
  0.1874999910000028  0.8347196337024206  0.4118645191187043
  0.0625000000000000  0.0536293351021825  0.5881699001296404
  0.0625000000000000  0.7066857079212254  0.6178039845361201
  0.1874999910000028  0.1819568513942333  0.3822259295240739
  0.4374999910000028  0.3849326167179902  0.5797286760297869
  0.3125000089999972  0.5035627972324781  0.4201739520192653
  0.4374999910000028  0.8347196337024206  0.4118645191187043
  0.3125000089999972  0.0536293351021825  0.5881699001296404
  0.3125000089999972  0.7066857079212254  0.6178039845361201
  0.4374999910000028  0.1819568513942333  0.3822259295240739
  0.6874999910000028  0.3849326167179902  0.5797286760297869
  0.5625000089999972  0.5035627972324781  0.4201739520192653
  0.6874999910000028  0.8347196337024206  0.4118645191187043
  0.5625000089999972  0.0536293351021825  0.5881699001296404
  0.5625000089999972  0.7066857079212254  0.6178039845361201
  0.6874999910000028  0.1819568513942333  0.3822259295240739
  0.9375000260000022  0.3849326167179902  0.5797286760297869
  0.8125000089999972  0.5035627972324781  0.4201739520192653
  0.9375000260000022  0.8347196337024206  0.4118645191187043
  0.8125000089999972  0.0536293351021825  0.5881699001296404
  0.8125000089999972  0.7066857079212254  0.6178039845361201
  0.9375000260000022  0.1819568513942333  0.3822259295240739
 
  0.00000000E+00  0.00000000E+00  0.00000000E+00
  0.00000000E+00  0.00000000E+00  0.00000000E+00
  0.00000000E+00  0.00000000E+00  0.00000000E+00
  0.00000000E+00  0.00000000E+00  0.00000000E+00
  0.00000000E+00  0.00000000E+00  0.00000000E+00
  0.00000000E+00  0.00000000E+00  0.00000000E+00
  0.00000000E+00  0.00000000E+00  0.00000000E+00
  0.00000000E+00  0.00000000E+00  0.00000000E+00
  0.00000000E+00  0.00000000E+00  0.00000000E+00
  0.00000000E+00  0.00000000E+00  0.00000000E+00
  0.00000000E+00  0.00000000E+00  0.00000000E+00
  0.00000000E+00  0.00000000E+00  0.00000000E+00
  0.00000000E+00  0.00000000E+00  0.00000000E+00
  0.00000000E+00  0.00000000E+00  0.00000000E+00
  0.00000000E+00  0.00000000E+00  0.00000000E+00
  0.00000000E+00  0.00000000E+00  0.00000000E+00
  0.00000000E+00  0.00000000E+00  0.00000000E+00
  0.00000000E+00  0.00000000E+00  0.00000000E+00
  0.00000000E+00  0.00000000E+00  0.00000000E+00
  0.00000000E+00  0.00000000E+00  0.00000000E+00
  0.00000000E+00  0.00000000E+00  0.00000000E+00
  0.00000000E+00  0.00000000E+00  0.00000000E+00
  0.00000000E+00  0.00000000E+00  0.00000000E+00
  0.00000000E+00  0.00000000E+00  0.00000000E+00
  0.00000000E+00  0.00000000E+00  0.00000000E+00
  0.00000000E+00  0.00000000E+00  0.00000000E+00
  0.00000000E+00  0.00000000E+00  0.00000000E+00
  0.00000000E+00  0.00000000E+00  0.00000000E+00
  0.00000000E+00  0.00000000E+00  0.00000000E+00
  0.00000000E+00  0.00000000E+00  0.00000000E+00
  0.00000000E+00  0.00000000E+00  0.00000000E+00
  0.00000000E+00  0.00000000E+00  0.00000000E+00
  0.00000000E+00  0.00000000E+00  0.00000000E+00
  0.00000000E+00  0.00000000E+00  0.00000000E+00
  0.00000000E+00  0.00000000E+00  0.00000000E+00
  0.00000000E+00  0.00000000E+00  0.00000000E+00
  0.00000000E+00  0.00000000E+00  0.00000000E+00
  0.00000000E+00  0.00000000E+00  0.00000000E+00
  0.00000000E+00  0.00000000E+00  0.00000000E+00
  0.00000000E+00  0.00000000E+00  0.00000000E+00
