CONTCAR\(7)                             
   1.00000000000000     
    12.3756999968999999    0.0000000000000000    0.0000000000000000
     0.0000000000000000   15.7599000931000006    0.0000000000000000
     0.0000000000000000    0.0000000000000000   19.7080001831000011
   Ta   Ni   Te
    16    16    32
Direct
  0.3750105855767032  0.4778470150999041  0.4999937610506535
  0.1249894144232968  0.0221529849000959  0.4999937610506535
  0.1249894144232968  0.2278470150999041  0.4999937610506535
  0.3750105855767032  0.2721529999000936  0.4999937610506535
  0.8750105855767032  0.4778470150999041  0.4999937610506535
  0.6249894144232968  0.0221529849000959  0.4999937610506535
  0.6249894144232968  0.2278470150999041  0.4999937610506535
  0.8750105855767032  0.2721529999000936  0.4999937610506535
  0.3750105855767032  0.9778470150999041  0.4999937610506535
  0.1249894144232968  0.5221530149000913  0.4999937610506535
  0.1249894144232968  0.7278470300999089  0.4999937610506535
  0.3750105855767032  0.7721529999000936  0.4999937610506535
  0.8750105855767032  0.9778470150999041  0.4999937610506535
  0.6249894144232968  0.5221530149000913  0.4999937610506535
  0.6249894144232968  0.7278470300999089  0.4999937610506535
  0.8750105855767032  0.7721529999000936  0.4999937610506535
  0.0525579891463153  0.3750000080000007  0.5433414975666011
  0.4474519998536834  0.1250000000000000  0.5433414975666011
  0.3025027419258350  0.1250000000000000  0.4566771844979769
  0.1975072750741660  0.3750000080000007  0.4566771844979769
  0.5525579791463144  0.3750000080000007  0.5433414975666011
  0.9474519998536834  0.1250000000000000  0.5433414975666011
  0.8025027039258319  0.1250000000000000  0.4566771844979769
  0.6975072370741628  0.3750000080000007  0.4566771844979769
  0.0525579891463153  0.8749999770000016  0.5433414975666011
  0.4474519998536834  0.6249999919999993  0.5433414975666011
  0.3025027419258350  0.6249999919999993  0.4566771844979769
  0.1975072750741660  0.8749999770000016  0.4566771844979769
  0.5525579791463144  0.8749999770000016  0.5433414975666011
  0.9474519998536834  0.6249999919999993  0.5433414975666011
  0.8025027039258319  0.6249999919999993  0.4566771844979769
  0.6975072370741628  0.8749999770000016  0.4566771844979769
  0.2513747427182338  0.3750000080000007  0.5856502192650623
  0.0000000000000000  0.2500000000000000  0.6193778470813385
  0.0013108115831173  0.1250000000000000  0.4143479547132145
  0.4986891964168763  0.3750000080000007  0.4143479547132145
  0.2500000000000000  0.2500000000000000  0.3806177737745031
  0.2500000000000000  0.0000000000000000  0.3806177737745031
  0.0000000000000000  0.0000000000000000  0.6193778470813385
  0.2486252572817662  0.1250000000000000  0.5856602362650634
  0.7513747427182338  0.3750000080000007  0.5856502192650623
  0.5000000000000000  0.2500000000000000  0.6193778470813385
  0.5013108035831237  0.1250000000000000  0.4143479547132145
  0.9986891584168802  0.3750000080000007  0.4143479547132145
  0.7499999610000003  0.2500000000000000  0.3806177737745031
  0.7499999610000003  0.0000000000000000  0.3806177737745031
  0.5000000000000000  0.0000000000000000  0.6193778470813385
  0.7486252572817662  0.1250000000000000  0.5856602362650634
  0.2513747427182338  0.8749999770000016  0.5856502192650623
  0.0000000000000000  0.7500000149999977  0.6193778470813385
  0.0013108115831173  0.6249999919999993  0.4143479547132145
  0.4986891964168763  0.8749999770000016  0.4143479547132145
  0.2500000000000000  0.7500000149999977  0.3806177737745031
  0.2500000000000000  0.5000000000000000  0.3806177737745031
  0.0000000000000000  0.5000000000000000  0.6193778470813385
  0.2486252572817662  0.6249999919999993  0.5856602362650634
  0.7513747427182338  0.8749999770000016  0.5856502192650623
  0.5000000000000000  0.7500000149999977  0.6193778470813385
  0.5013108035831237  0.6249999919999993  0.4143479547132145
  0.9986891584168802  0.8749999770000016  0.4143479547132145
  0.7499999610000003  0.7500000149999977  0.3806177737745031
  0.7499999610000003  0.5000000000000000  0.3806177737745031
  0.5000000000000000  0.5000000000000000  0.6193778470813385
  0.7486252572817662  0.6249999919999993  0.5856602362650634
 
  0.00000000E+00  0.00000000E+00  0.00000000E+00
  0.00000000E+00  0.00000000E+00  0.00000000E+00
  0.00000000E+00  0.00000000E+00  0.00000000E+00
  0.00000000E+00  0.00000000E+00  0.00000000E+00
  0.00000000E+00  0.00000000E+00  0.00000000E+00
  0.00000000E+00  0.00000000E+00  0.00000000E+00
  0.00000000E+00  0.00000000E+00  0.00000000E+00
  0.00000000E+00  0.00000000E+00  0.00000000E+00
  0.00000000E+00  0.00000000E+00  0.00000000E+00
  0.00000000E+00  0.00000000E+00  0.00000000E+00
  0.00000000E+00  0.00000000E+00  0.00000000E+00
  0.00000000E+00  0.00000000E+00  0.00000000E+00
  0.00000000E+00  0.00000000E+00  0.00000000E+00
  0.00000000E+00  0.00000000E+00  0.00000000E+00
  0.00000000E+00  0.00000000E+00  0.00000000E+00
  0.00000000E+00  0.00000000E+00  0.00000000E+00
  0.00000000E+00  0.00000000E+00  0.00000000E+00
  0.00000000E+00  0.00000000E+00  0.00000000E+00
  0.00000000E+00  0.00000000E+00  0.00000000E+00
  0.00000000E+00  0.00000000E+00  0.00000000E+00
  0.00000000E+00  0.00000000E+00  0.00000000E+00
  0.00000000E+00  0.00000000E+00  0.00000000E+00
  0.00000000E+00  0.00000000E+00  0.00000000E+00
  0.00000000E+00  0.00000000E+00  0.00000000E+00
  0.00000000E+00  0.00000000E+00  0.00000000E+00
  0.00000000E+00  0.00000000E+00  0.00000000E+00
  0.00000000E+00  0.00000000E+00  0.00000000E+00
  0.00000000E+00  0.00000000E+00  0.00000000E+00
  0.00000000E+00  0.00000000E+00  0.00000000E+00
  0.00000000E+00  0.00000000E+00  0.00000000E+00
  0.00000000E+00  0.00000000E+00  0.00000000E+00
  0.00000000E+00  0.00000000E+00  0.00000000E+00
  0.00000000E+00  0.00000000E+00  0.00000000E+00
  0.00000000E+00  0.00000000E+00  0.00000000E+00
  0.00000000E+00  0.00000000E+00  0.00000000E+00
  0.00000000E+00  0.00000000E+00  0.00000000E+00
  0.00000000E+00  0.00000000E+00  0.00000000E+00
  0.00000000E+00  0.00000000E+00  0.00000000E+00
  0.00000000E+00  0.00000000E+00  0.00000000E+00
  0.00000000E+00  0.00000000E+00  0.00000000E+00
  0.00000000E+00  0.00000000E+00  0.00000000E+00
  0.00000000E+00  0.00000000E+00  0.00000000E+00
  0.00000000E+00  0.00000000E+00  0.00000000E+00
  0.00000000E+00  0.00000000E+00  0.00000000E+00
  0.00000000E+00  0.00000000E+00  0.00000000E+00
  0.00000000E+00  0.00000000E+00  0.00000000E+00
  0.00000000E+00  0.00000000E+00  0.00000000E+00
  0.00000000E+00  0.00000000E+00  0.00000000E+00
  0.00000000E+00  0.00000000E+00  0.00000000E+00
  0.00000000E+00  0.00000000E+00  0.00000000E+00
  0.00000000E+00  0.00000000E+00  0.00000000E+00
  0.00000000E+00  0.00000000E+00  0.00000000E+00
  0.00000000E+00  0.00000000E+00  0.00000000E+00
  0.00000000E+00  0.00000000E+00  0.00000000E+00
  0.00000000E+00  0.00000000E+00  0.00000000E+00
  0.00000000E+00  0.00000000E+00  0.00000000E+00
  0.00000000E+00  0.00000000E+00  0.00000000E+00
  0.00000000E+00  0.00000000E+00  0.00000000E+00
  0.00000000E+00  0.00000000E+00  0.00000000E+00
  0.00000000E+00  0.00000000E+00  0.00000000E+00
  0.00000000E+00  0.00000000E+00  0.00000000E+00
  0.00000000E+00  0.00000000E+00  0.00000000E+00
  0.00000000E+00  0.00000000E+00  0.00000000E+00
  0.00000000E+00  0.00000000E+00  0.00000000E+00
