 Sc5 N1 Cl8                             
   1.00000000000000     
     3.4756321015594858    0.0000000000000000    0.0000000000000000
     0.0000000000000000   11.8839437395528993    0.0000000000000000
     0.0000000000000000    0.0000000000000000   20.5958016090437717
   Sc   N    Cl
     5     1     8
Direct
  0.5000000174053773  0.9797117597142304  0.6024049194183532
  0.4999999610429439  0.0173256046468820  0.3977110216412885
 -0.0000002199630197  0.1218572713647453  0.5076517666481456
 -0.0000000981647711  0.8751928277866601  0.4924404399762946
  0.5000001901008979  0.4985251189713585  0.4999969243462745
  0.4999998330976870  0.9985200735323426  0.5000626613886846
  0.5000001878031568  0.7104658294515961  0.4799039501775452
  0.4999997371268428  0.2866048444440096  0.5201081644698173
  0.0000000519233971  0.8255150228596012  0.6170735646709627
 -0.0000002374411158  0.1714868803429951  0.3829935330576275
  0.0000001517440165  0.8722400471202036  0.3639139022448236
  0.0000000455550257  0.1248544984934427  0.6361586137445598
  0.0000002215836440  0.5193238667423281  0.5856694458122135
  0.0000001581859178  0.4777342860928317  0.4143237493206466
 
  0.00000000E+00  0.00000000E+00  0.00000000E+00
  0.00000000E+00  0.00000000E+00  0.00000000E+00
  0.00000000E+00  0.00000000E+00  0.00000000E+00
  0.00000000E+00  0.00000000E+00  0.00000000E+00
  0.00000000E+00  0.00000000E+00  0.00000000E+00
  0.00000000E+00  0.00000000E+00  0.00000000E+00
  0.00000000E+00  0.00000000E+00  0.00000000E+00
  0.00000000E+00  0.00000000E+00  0.00000000E+00
  0.00000000E+00  0.00000000E+00  0.00000000E+00
  0.00000000E+00  0.00000000E+00  0.00000000E+00
  0.00000000E+00  0.00000000E+00  0.00000000E+00
  0.00000000E+00  0.00000000E+00  0.00000000E+00
  0.00000000E+00  0.00000000E+00  0.00000000E+00
  0.00000000E+00  0.00000000E+00  0.00000000E+00
