CONTCAR\(6)                             
   1.00000000000000     
    11.3112001419000006    0.0000000000000000    0.0000000000000000
    -5.6555817499999996   10.5064091515999998    0.0000000000000000
     0.0000000000000000    0.0000000000000000   21.6791000366000013
   Tb   C    Br
    18    18    18
Direct
  0.1245476284552864  0.2490818733839740  0.5674265705529810
  0.2082323695447132  0.0831481216160247  0.4325834594470177
  0.4578876114552882  0.2490818733839740  0.5674265705529810
  0.5415623725447134  0.0831481216160247  0.4325834594470177
  0.7912176144552887  0.2490818733839740  0.5674265705529810
  0.8748923335447103  0.0831481216160247  0.4325834594470177
  0.1245476254552897  0.5824118333839744  0.5674265705529810
  0.2082323355447104  0.4164880726160240  0.4325834594470177
  0.4578875984552907  0.5824118333839744  0.5674265705529810
  0.5415623385447106  0.4164880726160240  0.4325834594470177
  0.7912176224552894  0.5824118333839744  0.5674265705529810
  0.8748922785447093  0.4164880726160240  0.4325834594470177
  0.1245475684552885  0.9157518233839804  0.5674265705529810
  0.2082323445447146  0.7498180776160245  0.4325834594470177
  0.4578875414552895  0.9157518233839804  0.5674265705529810
  0.5415623475447149  0.7498180776160245  0.4325834594470177
  0.7912175444552900  0.9157518233839804  0.5674265705529810
  0.8748923085447118  0.7498180776160245  0.4325834594470177
  0.3594982284788707  0.3856265907108622  0.5170682233702727
  0.3066217295211323  0.2799433772891376  0.4829317766297273
  0.6928282104788728  0.3856265907108622  0.5170682233702727
  0.6399617655211280  0.2799433772891376  0.4829317766297273
  0.0261582764788677  0.3856265907108622  0.5170682233702727
  0.9732916425211322  0.2799433772891376  0.4829317766297273
  0.3594982144788695  0.7189665817108646  0.5170682233702727
  0.3066217035211302  0.6132833452891349  0.4829317766297273
  0.6928282174788698  0.7189665817108646  0.5170682233702727
  0.6399617395211330  0.6132833452891349  0.4829317766297273
  0.0261582624788666  0.7189665817108646  0.5170682233702727
  0.9732916795211317  0.6132833452891349  0.4829317766297273
  0.3594982534788692  0.0522966537108601  0.5170682233702727
  0.3066216935211293  0.9466133962891392  0.4829317766297273
  0.6928282564788695  0.0522966537108601  0.5170682233702727
  0.6399617295211322  0.9466133962891392  0.4829317766297273
  0.0261582914788725  0.0522966537108601  0.5170682233702727
  0.9732916485211327  0.9466133962891392  0.4829317766297273
  0.0945599155981044  0.1890618509311599  0.3455833650657140
  0.2381900694018951  0.1431081380688406  0.6544166569342879
  0.4278999305981018  0.1890618509311599  0.3455833650657140
  0.5715200304018919  0.1431081380688406  0.6544166569342879
  0.7612299125981041  0.1890618509311599  0.3455833650657140
  0.9048501174018921  0.1431081380688406  0.6544166569342879
  0.0945599025981069  0.5223918119311569  0.3455833650657140
  0.2381900414018928  0.4764381100688420  0.6544166569342879
  0.4278999175981043  0.5223918119311569  0.3455833650657140
  0.5715200014018931  0.4764381100688420  0.6544166569342879
  0.7612298785981084  0.5223918119311569  0.3455833650657140
  0.9048500894018969  0.4764381100688420  0.6544166569342879
  0.0945598895981023  0.8557318469311631  0.3455833650657140
  0.2381900524018973  0.8097681610688391  0.6544166569342879
  0.4278999045981068  0.8557318469311631  0.3455833650657140
  0.5715200134018941  0.8097681610688391  0.6544166569342879
  0.7612298655981038  0.8557318469311631  0.3455833650657140
  0.9048501004018943  0.8097681610688391  0.6544166569342879
 
  0.00000000E+00  0.00000000E+00  0.00000000E+00
  0.00000000E+00  0.00000000E+00  0.00000000E+00
  0.00000000E+00  0.00000000E+00  0.00000000E+00
  0.00000000E+00  0.00000000E+00  0.00000000E+00
  0.00000000E+00  0.00000000E+00  0.00000000E+00
  0.00000000E+00  0.00000000E+00  0.00000000E+00
  0.00000000E+00  0.00000000E+00  0.00000000E+00
  0.00000000E+00  0.00000000E+00  0.00000000E+00
  0.00000000E+00  0.00000000E+00  0.00000000E+00
  0.00000000E+00  0.00000000E+00  0.00000000E+00
  0.00000000E+00  0.00000000E+00  0.00000000E+00
  0.00000000E+00  0.00000000E+00  0.00000000E+00
  0.00000000E+00  0.00000000E+00  0.00000000E+00
  0.00000000E+00  0.00000000E+00  0.00000000E+00
  0.00000000E+00  0.00000000E+00  0.00000000E+00
  0.00000000E+00  0.00000000E+00  0.00000000E+00
  0.00000000E+00  0.00000000E+00  0.00000000E+00
  0.00000000E+00  0.00000000E+00  0.00000000E+00
  0.00000000E+00  0.00000000E+00  0.00000000E+00
  0.00000000E+00  0.00000000E+00  0.00000000E+00
  0.00000000E+00  0.00000000E+00  0.00000000E+00
  0.00000000E+00  0.00000000E+00  0.00000000E+00
  0.00000000E+00  0.00000000E+00  0.00000000E+00
  0.00000000E+00  0.00000000E+00  0.00000000E+00
  0.00000000E+00  0.00000000E+00  0.00000000E+00
  0.00000000E+00  0.00000000E+00  0.00000000E+00
  0.00000000E+00  0.00000000E+00  0.00000000E+00
  0.00000000E+00  0.00000000E+00  0.00000000E+00
  0.00000000E+00  0.00000000E+00  0.00000000E+00
  0.00000000E+00  0.00000000E+00  0.00000000E+00
  0.00000000E+00  0.00000000E+00  0.00000000E+00
  0.00000000E+00  0.00000000E+00  0.00000000E+00
  0.00000000E+00  0.00000000E+00  0.00000000E+00
  0.00000000E+00  0.00000000E+00  0.00000000E+00
  0.00000000E+00  0.00000000E+00  0.00000000E+00
  0.00000000E+00  0.00000000E+00  0.00000000E+00
  0.00000000E+00  0.00000000E+00  0.00000000E+00
  0.00000000E+00  0.00000000E+00  0.00000000E+00
  0.00000000E+00  0.00000000E+00  0.00000000E+00
  0.00000000E+00  0.00000000E+00  0.00000000E+00
  0.00000000E+00  0.00000000E+00  0.00000000E+00
  0.00000000E+00  0.00000000E+00  0.00000000E+00
  0.00000000E+00  0.00000000E+00  0.00000000E+00
  0.00000000E+00  0.00000000E+00  0.00000000E+00
  0.00000000E+00  0.00000000E+00  0.00000000E+00
  0.00000000E+00  0.00000000E+00  0.00000000E+00
  0.00000000E+00  0.00000000E+00  0.00000000E+00
  0.00000000E+00  0.00000000E+00  0.00000000E+00
  0.00000000E+00  0.00000000E+00  0.00000000E+00
  0.00000000E+00  0.00000000E+00  0.00000000E+00
  0.00000000E+00  0.00000000E+00  0.00000000E+00
  0.00000000E+00  0.00000000E+00  0.00000000E+00
  0.00000000E+00  0.00000000E+00  0.00000000E+00
  0.00000000E+00  0.00000000E+00  0.00000000E+00
