CONTCAR\(3)                             
   1.00000000000000     
    14.6345996856999996    0.0000000000000000    0.0000000000000000
     0.0000000000000000   15.8402004242000007    0.0000000000000000
     0.0000000000000000    0.0000000000000000   18.4207000731999990
   Ti   Ag   F    O 
     9     9    54     1
Direct
  0.1596573972618924  0.1716042852517469  0.4773345711908362
  0.4917619128937877  0.1682105863986822  0.4878982937881694
  0.8235488270321198  0.1711341781953101  0.4755761852895768
  0.1898745345221401  0.5006674687344047  0.5534930540832885
  0.5216837607885992  0.4942861385037126  0.5860678007758070
  0.8590200182619915  0.5004731463752387  0.5341570762509373
  0.1495179090691600  0.8258128515749367  0.4630838355687338
  0.4849002022306100  0.8166090820301993  0.4716490333751550
  0.8167932533508457  0.8284361096217270  0.4562543374801768
  0.9865378145406110 -0.0003960028890194  0.4705536226541142
  0.3204744812130683  0.9951685924044160  0.4769136635755042
  0.6523812626062622  0.9963778886749939  0.4747021465871226
  0.0103572907085814  0.3368448691069751  0.5081658505102942
  0.3451876415951805  0.3386200170592899  0.5182179052222491
  0.6765881067420346  0.3315065118275045  0.5166384053219074
  0.0055642838472848  0.6638532757304831  0.4981945365040436
  0.3353789133808945  0.6617985855754068  0.5244015829072548
  0.6744113279922775  0.6545409958263375  0.4827127334668461
  0.0817981559598282  0.1724870378681502  0.5555240030650644
  0.2330730789285110  0.1694439314164910  0.3984718898394300
  0.2326758769754279  0.0851098557296315  0.5235261190911271
  0.0834712279937980  0.2592472158348591  0.4349185778799605
  0.0848693904436775  0.0853519492062471  0.4329128436134687
  0.2306260513907214  0.2573073779679430  0.5242438871944292
  0.4125086561849525  0.1675919391811027  0.5647860242636412
  0.5648535412083027  0.1691440115743717  0.4086318082096815
  0.5659418945321000  0.0817509667012641  0.5318536724507194
  0.4182567246731282  0.2593058206534400  0.4464218662652842
  0.4192778889102634  0.0811336351764510  0.4411682403325014
  0.5619266591990547  0.2538248263080070  0.5362761087787192
  0.7502971456038763  0.1741085991945612  0.5569323758690978
  0.8966026296261492  0.1694349462014156  0.3964771621440084
  0.8996339187237711  0.0867012328678947  0.5219029722203424
  0.7445271589295219  0.2569770312560976  0.4354663221483648
  0.7492153212486722  0.0839258967761733  0.4343998749415844
  0.8958576212288367  0.2587228830261538  0.5203650867083272
  0.1165174973825019  0.4934885845755850  0.6308460481782027
  0.2785157356328314  0.5096020169007004  0.4797690634096433
  0.2708995187666813  0.4150193872330597  0.5924903422091333
  0.1191754457079140  0.5823260409085347  0.5016877850820182
  0.1279124113816120  0.4142284341838523  0.5002282840095006
  0.2557013330872415  0.5925772957406729  0.6000165848765143
  0.4605062715446996  0.4604910536513123  0.6641034747158558
  0.6060935239966452  0.5415773627190905  0.5159659474189539
  0.6143999818816344  0.4107211123301131  0.5981013754391828
  0.4501763237711747  0.5900372802341941  0.5672378158301709
  0.4607111476538417  0.4260165298735628  0.5176171181461491
  0.6394294770415887  0.6321153136943074  0.6440476484256493
  0.7845429244445044  0.5114010058589255  0.6112345550890071
  0.9424948843726653  0.4937237540092883  0.4580550252243851
  0.9328316584651979  0.4150417487431153  0.5800399592134187
  0.7953533397431880  0.5826644142099144  0.4754364031314899
  0.7840073818631730  0.4160487322099354  0.4903781166823140
  0.9341196867610950  0.5903946717286270  0.5740708431151906
  0.0689893195827660  0.8253147846437255  0.5404524773218083
  0.2229474038100317  0.8310364220199942  0.3849177788970769
  0.2188421458083479  0.7406955167186104  0.5106037724522049
  0.0735010505460464  0.9124485388190828  0.4197694854089506
  0.0757756287824720  0.7367525271124450  0.4204048334201964
  0.2203094022660455  0.9109925978389209  0.5131655839572156
  0.4141196578762230  0.8127961378707013  0.5549836661470877
  0.5471099399960878  0.8121777018831778  0.3874403466903704
  0.5642838761707986  0.7322322981784897  0.5133940185040546
  0.4039485150012731  0.9006453552396506  0.4313324970944455
  0.4080049981427163  0.7223690164834145  0.4400376799085057
  0.5567702302246624  0.9052981759004486  0.5122762742216060
  0.7408941965640892  0.8251042481358342  0.5359963587883642
  0.8900304579536459  0.8375622065023548  0.3778893977133442
  0.8900744442831920  0.7423309514193074  0.5004709380837081
  0.7364540869104500  0.9127772475392704  0.4151480515494710
  0.7430540202505400  0.7410291218409962  0.4130294571622482
  0.8865176556076300  0.9146183893477434  0.5062692397742210
  0.5870721679268234  0.5643259617584566  0.6688780581405316
 
  0.00000000E+00  0.00000000E+00  0.00000000E+00
  0.00000000E+00  0.00000000E+00  0.00000000E+00
  0.00000000E+00  0.00000000E+00  0.00000000E+00
  0.00000000E+00  0.00000000E+00  0.00000000E+00
  0.00000000E+00  0.00000000E+00  0.00000000E+00
  0.00000000E+00  0.00000000E+00  0.00000000E+00
  0.00000000E+00  0.00000000E+00  0.00000000E+00
  0.00000000E+00  0.00000000E+00  0.00000000E+00
  0.00000000E+00  0.00000000E+00  0.00000000E+00
  0.00000000E+00  0.00000000E+00  0.00000000E+00
  0.00000000E+00  0.00000000E+00  0.00000000E+00
  0.00000000E+00  0.00000000E+00  0.00000000E+00
  0.00000000E+00  0.00000000E+00  0.00000000E+00
  0.00000000E+00  0.00000000E+00  0.00000000E+00
  0.00000000E+00  0.00000000E+00  0.00000000E+00
  0.00000000E+00  0.00000000E+00  0.00000000E+00
  0.00000000E+00  0.00000000E+00  0.00000000E+00
  0.00000000E+00  0.00000000E+00  0.00000000E+00
  0.00000000E+00  0.00000000E+00  0.00000000E+00
  0.00000000E+00  0.00000000E+00  0.00000000E+00
  0.00000000E+00  0.00000000E+00  0.00000000E+00
  0.00000000E+00  0.00000000E+00  0.00000000E+00
  0.00000000E+00  0.00000000E+00  0.00000000E+00
  0.00000000E+00  0.00000000E+00  0.00000000E+00
  0.00000000E+00  0.00000000E+00  0.00000000E+00
  0.00000000E+00  0.00000000E+00  0.00000000E+00
  0.00000000E+00  0.00000000E+00  0.00000000E+00
  0.00000000E+00  0.00000000E+00  0.00000000E+00
  0.00000000E+00  0.00000000E+00  0.00000000E+00
  0.00000000E+00  0.00000000E+00  0.00000000E+00
  0.00000000E+00  0.00000000E+00  0.00000000E+00
  0.00000000E+00  0.00000000E+00  0.00000000E+00
  0.00000000E+00  0.00000000E+00  0.00000000E+00
  0.00000000E+00  0.00000000E+00  0.00000000E+00
  0.00000000E+00  0.00000000E+00  0.00000000E+00
  0.00000000E+00  0.00000000E+00  0.00000000E+00
  0.00000000E+00  0.00000000E+00  0.00000000E+00
  0.00000000E+00  0.00000000E+00  0.00000000E+00
  0.00000000E+00  0.00000000E+00  0.00000000E+00
  0.00000000E+00  0.00000000E+00  0.00000000E+00
  0.00000000E+00  0.00000000E+00  0.00000000E+00
  0.00000000E+00  0.00000000E+00  0.00000000E+00
  0.00000000E+00  0.00000000E+00  0.00000000E+00
  0.00000000E+00  0.00000000E+00  0.00000000E+00
  0.00000000E+00  0.00000000E+00  0.00000000E+00
  0.00000000E+00  0.00000000E+00  0.00000000E+00
  0.00000000E+00  0.00000000E+00  0.00000000E+00
  0.00000000E+00  0.00000000E+00  0.00000000E+00
  0.00000000E+00  0.00000000E+00  0.00000000E+00
  0.00000000E+00  0.00000000E+00  0.00000000E+00
  0.00000000E+00  0.00000000E+00  0.00000000E+00
  0.00000000E+00  0.00000000E+00  0.00000000E+00
  0.00000000E+00  0.00000000E+00  0.00000000E+00
  0.00000000E+00  0.00000000E+00  0.00000000E+00
  0.00000000E+00  0.00000000E+00  0.00000000E+00
  0.00000000E+00  0.00000000E+00  0.00000000E+00
  0.00000000E+00  0.00000000E+00  0.00000000E+00
  0.00000000E+00  0.00000000E+00  0.00000000E+00
  0.00000000E+00  0.00000000E+00  0.00000000E+00
  0.00000000E+00  0.00000000E+00  0.00000000E+00
  0.00000000E+00  0.00000000E+00  0.00000000E+00
  0.00000000E+00  0.00000000E+00  0.00000000E+00
  0.00000000E+00  0.00000000E+00  0.00000000E+00
  0.00000000E+00  0.00000000E+00  0.00000000E+00
  0.00000000E+00  0.00000000E+00  0.00000000E+00
  0.00000000E+00  0.00000000E+00  0.00000000E+00
  0.00000000E+00  0.00000000E+00  0.00000000E+00
  0.00000000E+00  0.00000000E+00  0.00000000E+00
  0.00000000E+00  0.00000000E+00  0.00000000E+00
  0.00000000E+00  0.00000000E+00  0.00000000E+00
  0.00000000E+00  0.00000000E+00  0.00000000E+00
  0.00000000E+00  0.00000000E+00  0.00000000E+00
  0.00000000E+00  0.00000000E+00  0.00000000E+00
