CONTCAR\(5)                             
   1.00000000000000     
    10.9052000045999993    0.0000000000000000    0.0000000000000000
     5.4526010918000001   10.6458758644000007    0.0000000000000000
     0.0000000000000000    0.0000000000000000   18.0139999390000014
   Cr   Br   O 
     9    18     1
Direct
  0.9968838579877539  0.0060683656530593  0.5027879183167010
  0.3303975986445641  0.0057093504722165  0.5025967069531906
  0.6702583694641505  0.9921930683146682  0.4978453512214356
 -0.0014303842099523  0.3372425565827857  0.4978151099271665
  0.3280687666281124  0.3420670819777430  0.4976830789184656
  0.6639974940680895  0.3421243851127627  0.4978996114121253
 -0.0000949788176856  0.6684750917551865  0.5031688150431300
  0.3307714801086702  0.6716745242552258  0.5042000979425845
  0.6649937953064226  0.6677873145048233  0.5028473677771721
  0.2054283861687684  0.2571631902341397  0.5836382332247720
  0.1237571771162173  0.0854703037260869  0.4161002942532218
  0.5382365175757026  0.2572898082613069  0.5840024547282067
  0.4571086939960923  0.0878067635825920  0.4171062678323704
  0.8717927491059454  0.2572583342761598  0.5838107341515798
  0.7883778939706263  0.0876634696290353  0.4174039715589444
  0.2090096963428399  0.5824866415828183  0.5866749959987647
  0.1196785719119097  0.4232424861490520  0.4123221083281458
  0.5417379738223743  0.5821335895128419  0.5865790749612695
  0.4579581427760440  0.4182869356150369  0.4119117475205031
  0.8725011527664148  0.5877263212780585  0.5879128135716303
  0.7911713655159615  0.4231189029917260  0.4123265194191438
  0.2055680823794821  0.9217991189903286  0.5875683315190322
  0.1233520065854883  0.7533064546432724  0.4183844304263754
  0.5386993658626665  0.9235682419713718  0.5873750804275703
  0.4563636949731337  0.7529983573089970  0.4182481949721331
  0.8704441945860369  0.9239798848591262  0.5874852194270035
  0.7880143342287013  0.7571565018057187  0.4189955592613865
  0.4927437501354991  0.3460730269538710  0.6653299159059908
 
  0.00000000E+00  0.00000000E+00  0.00000000E+00
  0.00000000E+00  0.00000000E+00  0.00000000E+00
  0.00000000E+00  0.00000000E+00  0.00000000E+00
  0.00000000E+00  0.00000000E+00  0.00000000E+00
  0.00000000E+00  0.00000000E+00  0.00000000E+00
  0.00000000E+00  0.00000000E+00  0.00000000E+00
  0.00000000E+00  0.00000000E+00  0.00000000E+00
  0.00000000E+00  0.00000000E+00  0.00000000E+00
  0.00000000E+00  0.00000000E+00  0.00000000E+00
  0.00000000E+00  0.00000000E+00  0.00000000E+00
  0.00000000E+00  0.00000000E+00  0.00000000E+00
  0.00000000E+00  0.00000000E+00  0.00000000E+00
  0.00000000E+00  0.00000000E+00  0.00000000E+00
  0.00000000E+00  0.00000000E+00  0.00000000E+00
  0.00000000E+00  0.00000000E+00  0.00000000E+00
  0.00000000E+00  0.00000000E+00  0.00000000E+00
  0.00000000E+00  0.00000000E+00  0.00000000E+00
  0.00000000E+00  0.00000000E+00  0.00000000E+00
  0.00000000E+00  0.00000000E+00  0.00000000E+00
  0.00000000E+00  0.00000000E+00  0.00000000E+00
  0.00000000E+00  0.00000000E+00  0.00000000E+00
  0.00000000E+00  0.00000000E+00  0.00000000E+00
  0.00000000E+00  0.00000000E+00  0.00000000E+00
  0.00000000E+00  0.00000000E+00  0.00000000E+00
  0.00000000E+00  0.00000000E+00  0.00000000E+00
  0.00000000E+00  0.00000000E+00  0.00000000E+00
  0.00000000E+00  0.00000000E+00  0.00000000E+00
  0.00000000E+00  0.00000000E+00  0.00000000E+00
