CONTCAR\(7)                             
   1.00000000000000     
    15.1381998061999994    0.0000000000000000    0.0000000000000000
     0.0000000000000000   18.7124004363999994    0.0000000000000000
     0.0000000000000000    0.0000000000000000   17.8572998046999984
   Cu   Te   O 
    16    16    49
Direct
  0.3454594169857980  0.2570591457423341  0.5242346111338418
  0.0965430603031715  0.4972389789980409  0.5255744552708058
  0.1542237101833256  0.2465057833012013  0.4732935677588384
  0.4047445386936313  0.0066695325860810  0.4737199789254194
  0.8446166965470827  0.2562026945309094  0.5256148644720788
  0.5787869053557794  0.4672361267817272  0.5598265280158314
  0.6548120897524619  0.2447259124125525  0.4729164347011811
  0.9038861077958256  0.0059702413335242  0.4746800505650954
  0.3461491309376006  0.7554356362236945  0.5242527538752770
  0.0956450190870306  0.9957736846416736  0.5252091985402209
  0.1549906331504979  0.7458152397861526  0.4731900237764994
  0.4080408761004133  0.5060157376069335  0.4754238819628117
  0.8458204775513409  0.7550503816152421  0.5242907953667256
  0.5951222686513654  0.9951658537378599  0.5264567587413393
  0.6521374600294669  0.7437464759461559  0.4739663229560289
  0.9049479328803065  0.5062188771170189  0.4764331346517316
  0.2767014356139014  0.1052876327947704  0.5742051291115591
  0.2239663237560567  0.3989737893063852  0.4247668827941258
  0.4741892493033595  0.3563734815847358  0.4230863606294887
  0.0264962739259915  0.1478691746564074  0.5741288437933139
  0.7760200989835498  0.1044129895408956  0.5763158344049082
  0.7202235498817685  0.3990926184328478  0.4333959134104702
  0.9723305904966036  0.3549306703095265  0.4260562339639839
  0.5265159649861952  0.1478363104179328  0.5743850687789122
  0.2801742393970452  0.6048685459372076  0.5744866731671093
  0.2237320269832545  0.8979341624759756  0.4239356817483517
  0.4731796513556777  0.8543478109762676  0.4242942619809484
  0.0265999275883397  0.6489560162574705  0.5746347014288095
  0.7701301797942143  0.6027785557930998  0.5732701607743692
  0.7228042411753567  0.8967041025135030  0.4251735689703761
  0.9734747538105200  0.8546624063944267  0.4237176700192313
  0.5281578747122814  0.6415157052734334  0.5757541347811609
  0.3052525095461077  0.0679751916585971  0.4797514658678486
  0.2605029612847069  0.3037406670443654  0.4558673604065903
  0.4001040665357086  0.1768080729512892  0.5748921664949525
  0.4891557429457880  0.0525796430389576  0.5435126287251513
  0.3511512768548318  0.4277542722573992  0.4229896105242405
  0.1502552998284957  0.0760348854308497  0.5757085748464041
  0.4451512958049768  0.3175803397973929  0.5167524429837345
  0.1957581697636523  0.4355429726260041  0.5195157176899446
  0.0106902487774839  0.4495204389847606  0.4582564380525154
  0.2393778541327065  0.2000612158838093  0.5422569257783671
  0.0553482457367909  0.1841637207766670  0.4793340930561548
  0.0995712589640129  0.3269131600705106  0.4233253896546836
  0.8041088491963250  0.0665616232540786  0.4819996586063862
  0.7605028567846533  0.3018015248281008  0.4554092455485838
  0.8998214649601386  0.1759918391979369  0.5759050681181460
  0.9895437412325576  0.0526251466378649  0.5428256836840595
  0.8490762355167391  0.4249321950075630  0.4309938508948281
  0.6497748674801823  0.0750631118598051  0.5775476388066780
  0.9460885898070096  0.3155606740914061  0.5200413169383162
  0.6936620508437450  0.4260568938222411  0.5315259612501750
  0.5141695424588724  0.4493307450463633  0.4578727189318488
  0.7387712478374234  0.1989067044620516  0.5436263584569250
  0.5555455679876599  0.1831446853937103  0.4792919950244111
  0.6004444230148164  0.3257355441085250  0.4233674328723749
  0.3080855271231892  0.5666564931646682  0.4799548074392996
  0.2611888048789556  0.8030397062682132  0.4554961151246193
  0.3986226342082627  0.6748224139649149  0.5744444728493743
  0.4808317587711813  0.5468401383286253  0.5543847760393570
  0.3497547019755318  0.9273513938312965  0.4221456628052598
  0.1514272937085649  0.5772243726483097  0.5744099285985031
  0.4443469020087630  0.8178245117487205  0.5188879745392978
  0.1952240530262527  0.9345979521215659  0.5186674423537403
  0.0100091211594675  0.9493638051906519  0.4566365936403897
  0.2406261389415957  0.6990219461573248  0.5406560666592390
  0.0546138889729300  0.6858723347027772  0.4798009651077930
  0.0998855767073390  0.8260811111536271  0.4227222739746316
  0.8035578809033205  0.5647879975747733  0.4800870555236496
  0.7593482528656814  0.8017242289512800  0.4570263566234304
  0.9005702257372752  0.6768836289065369  0.5769163672700391
  0.9906384658451277  0.5537101257172957  0.5423850340431515
  0.8492469783626766  0.9261705148342643  0.4230772795709472
  0.6463176920172345  0.5780106975257818  0.5671357486750795
  0.9442852893870564  0.8171297463990606  0.5179234532288701
  0.6941005889845522  0.9332906512123478  0.5199036144631340
  0.5106680516788300  0.9491179910180711  0.4568254522961511
  0.7403325563409264  0.6990450694444748  0.5394531836907379
  0.5517506069981456  0.6826499786245577  0.4815312248070077
  0.5989470511113160  0.8243129808717673  0.4223485693534609
  0.5693791682211556  0.4519009173828560  0.6565391346387430
 
  0.00000000E+00  0.00000000E+00  0.00000000E+00
  0.00000000E+00  0.00000000E+00  0.00000000E+00
  0.00000000E+00  0.00000000E+00  0.00000000E+00
  0.00000000E+00  0.00000000E+00  0.00000000E+00
  0.00000000E+00  0.00000000E+00  0.00000000E+00
  0.00000000E+00  0.00000000E+00  0.00000000E+00
  0.00000000E+00  0.00000000E+00  0.00000000E+00
  0.00000000E+00  0.00000000E+00  0.00000000E+00
  0.00000000E+00  0.00000000E+00  0.00000000E+00
  0.00000000E+00  0.00000000E+00  0.00000000E+00
  0.00000000E+00  0.00000000E+00  0.00000000E+00
  0.00000000E+00  0.00000000E+00  0.00000000E+00
  0.00000000E+00  0.00000000E+00  0.00000000E+00
  0.00000000E+00  0.00000000E+00  0.00000000E+00
  0.00000000E+00  0.00000000E+00  0.00000000E+00
  0.00000000E+00  0.00000000E+00  0.00000000E+00
  0.00000000E+00  0.00000000E+00  0.00000000E+00
  0.00000000E+00  0.00000000E+00  0.00000000E+00
  0.00000000E+00  0.00000000E+00  0.00000000E+00
  0.00000000E+00  0.00000000E+00  0.00000000E+00
  0.00000000E+00  0.00000000E+00  0.00000000E+00
  0.00000000E+00  0.00000000E+00  0.00000000E+00
  0.00000000E+00  0.00000000E+00  0.00000000E+00
  0.00000000E+00  0.00000000E+00  0.00000000E+00
  0.00000000E+00  0.00000000E+00  0.00000000E+00
  0.00000000E+00  0.00000000E+00  0.00000000E+00
  0.00000000E+00  0.00000000E+00  0.00000000E+00
  0.00000000E+00  0.00000000E+00  0.00000000E+00
  0.00000000E+00  0.00000000E+00  0.00000000E+00
  0.00000000E+00  0.00000000E+00  0.00000000E+00
  0.00000000E+00  0.00000000E+00  0.00000000E+00
  0.00000000E+00  0.00000000E+00  0.00000000E+00
  0.00000000E+00  0.00000000E+00  0.00000000E+00
  0.00000000E+00  0.00000000E+00  0.00000000E+00
  0.00000000E+00  0.00000000E+00  0.00000000E+00
  0.00000000E+00  0.00000000E+00  0.00000000E+00
  0.00000000E+00  0.00000000E+00  0.00000000E+00
  0.00000000E+00  0.00000000E+00  0.00000000E+00
  0.00000000E+00  0.00000000E+00  0.00000000E+00
  0.00000000E+00  0.00000000E+00  0.00000000E+00
  0.00000000E+00  0.00000000E+00  0.00000000E+00
  0.00000000E+00  0.00000000E+00  0.00000000E+00
  0.00000000E+00  0.00000000E+00  0.00000000E+00
  0.00000000E+00  0.00000000E+00  0.00000000E+00
  0.00000000E+00  0.00000000E+00  0.00000000E+00
  0.00000000E+00  0.00000000E+00  0.00000000E+00
  0.00000000E+00  0.00000000E+00  0.00000000E+00
  0.00000000E+00  0.00000000E+00  0.00000000E+00
  0.00000000E+00  0.00000000E+00  0.00000000E+00
  0.00000000E+00  0.00000000E+00  0.00000000E+00
  0.00000000E+00  0.00000000E+00  0.00000000E+00
  0.00000000E+00  0.00000000E+00  0.00000000E+00
  0.00000000E+00  0.00000000E+00  0.00000000E+00
  0.00000000E+00  0.00000000E+00  0.00000000E+00
  0.00000000E+00  0.00000000E+00  0.00000000E+00
  0.00000000E+00  0.00000000E+00  0.00000000E+00
  0.00000000E+00  0.00000000E+00  0.00000000E+00
  0.00000000E+00  0.00000000E+00  0.00000000E+00
  0.00000000E+00  0.00000000E+00  0.00000000E+00
  0.00000000E+00  0.00000000E+00  0.00000000E+00
  0.00000000E+00  0.00000000E+00  0.00000000E+00
  0.00000000E+00  0.00000000E+00  0.00000000E+00
  0.00000000E+00  0.00000000E+00  0.00000000E+00
  0.00000000E+00  0.00000000E+00  0.00000000E+00
  0.00000000E+00  0.00000000E+00  0.00000000E+00
  0.00000000E+00  0.00000000E+00  0.00000000E+00
  0.00000000E+00  0.00000000E+00  0.00000000E+00
  0.00000000E+00  0.00000000E+00  0.00000000E+00
  0.00000000E+00  0.00000000E+00  0.00000000E+00
  0.00000000E+00  0.00000000E+00  0.00000000E+00
  0.00000000E+00  0.00000000E+00  0.00000000E+00
  0.00000000E+00  0.00000000E+00  0.00000000E+00
  0.00000000E+00  0.00000000E+00  0.00000000E+00
  0.00000000E+00  0.00000000E+00  0.00000000E+00
  0.00000000E+00  0.00000000E+00  0.00000000E+00
  0.00000000E+00  0.00000000E+00  0.00000000E+00
  0.00000000E+00  0.00000000E+00  0.00000000E+00
  0.00000000E+00  0.00000000E+00  0.00000000E+00
  0.00000000E+00  0.00000000E+00  0.00000000E+00
  0.00000000E+00  0.00000000E+00  0.00000000E+00
  0.00000000E+00  0.00000000E+00  0.00000000E+00
