CONTCAR\(12)                            
   1.00000000000000     
    12.5135002136000004    0.0000000000000000    0.0000000000000000
     0.0000000000000000   15.7480001450000007    0.0000000000000000
     0.0000000000000000    0.0000000000000000   19.7180004119999985
   Nb   Fe   Te
    16    16    32
Direct
  0.2500000000000000  0.1484566595808718  0.5000000000000000
 -0.0000000000000000  0.3984566445808670  0.5000000000000000
 -0.0000000000000000  0.1015433474191323  0.5000000000000000
  0.2500000000000000  0.3515433704191307  0.5000000000000000
  0.7500000000000000  0.1484566595808718  0.5000000000000000
  0.5000000000000000  0.3984566445808670  0.5000000000000000
  0.5000000000000000  0.1015433474191323  0.5000000000000000
  0.7500000000000000  0.3515433704191307  0.5000000000000000
  0.2500000000000000  0.6484566295808692  0.5000000000000000
 -0.0000000000000000  0.8984566445808669  0.5000000000000000
 -0.0000000000000000  0.6015433854191284  0.5000000000000000
  0.2500000000000000  0.8515433404191283  0.5000000000000000
  0.7500000000000000  0.6484566295808692  0.5000000000000000
  0.5000000000000000  0.8984566445808669  0.5000000000000000
  0.5000000000000000  0.6015433854191284  0.5000000000000000
  0.7500000000000000  0.8515433404191283  0.5000000000000000
  0.0707649016697500  0.2500000000000000  0.5411033066044066
  0.3207648916697492 -0.0000000000000000  0.4588967413955903
  0.4292351083302508  0.2500000000000000  0.4588967413955903
  0.1792451113302507 -0.0000000000000000  0.5411033066044066
  0.5707648916697492  0.2500000000000000  0.5411033066044066
  0.8207648536697532 -0.0000000000000000  0.4588967413955903
  0.9292351463302468  0.2500000000000000  0.4588967413955903
  0.6792450543302495 -0.0000000000000000  0.5411033066044066
  0.0707649016697500  0.7499999850000023  0.5411033066044066
  0.3207648916697492  0.5000000000000000  0.4588967413955903
  0.4292351083302508  0.7499999850000023  0.4588967413955903
  0.1792451113302507  0.5000000000000000  0.5411033066044066
  0.5707648916697492  0.7499999850000023  0.5411033066044066
  0.8207648536697532  0.5000000000000000  0.4588967413955903
  0.9292351463302468  0.7499999850000023  0.4588967413955903
  0.6792450543302495  0.5000000000000000  0.5411033066044066
  0.3750000000000000  0.3749999919999993  0.3804701689344542
  0.1239658067013803 -0.0000000000000000  0.4128134577585635
  0.3760241712986218 -0.0000000000000000  0.5871864932414360
  0.1250000000000000  0.3749999919999993  0.6195297830655490
  0.3739758287013782  0.2500000000000000  0.5871864932414360
  0.1260241992986241  0.2500000000000000  0.4128134577585635
  0.1250000000000000  0.1250000000000000  0.6195297830655490
  0.3750000000000000  0.1250000000000000  0.3804701689344542
  0.8749999619999969  0.3749999919999993  0.3804701689344542
  0.6239658067013804 -0.0000000000000000  0.4128134577585635
  0.8760242092986249 -0.0000000000000000  0.5871864932414360
  0.6250000000000000  0.3749999919999993  0.6195297830655490
  0.8739757907013751  0.2500000000000000  0.5871864932414360
  0.6260241712986218  0.2500000000000000  0.4128134577585635
  0.6250000000000000  0.1250000000000000  0.6195297830655490
  0.8749999619999969  0.1250000000000000  0.3804701689344542
  0.3750000000000000  0.8749999919999993  0.3804701689344542
  0.1239658067013803  0.5000000000000000  0.4128134577585635
  0.3760241712986218  0.5000000000000000  0.5871864932414360
  0.1250000000000000  0.8749999919999993  0.6195297830655490
  0.3739758287013782  0.7499999850000023  0.5871864932414360
  0.1260241992986241  0.7499999850000023  0.4128134577585635
  0.1250000000000000  0.6249999770000016  0.6195297830655490
  0.3750000000000000  0.6249999770000016  0.3804701689344542
  0.8749999619999969  0.8749999919999993  0.3804701689344542
  0.6239658067013804  0.5000000000000000  0.4128134577585635
  0.8760242092986249  0.5000000000000000  0.5871864932414360
  0.6250000000000000  0.8749999919999993  0.6195297830655490
  0.8739757907013751  0.7499999850000023  0.5871864932414360
  0.6260241712986218  0.7499999850000023  0.4128134577585635
  0.6250000000000000  0.6249999770000016  0.6195297830655490
  0.8749999619999969  0.6249999770000016  0.3804701689344542
 
  0.00000000E+00  0.00000000E+00  0.00000000E+00
  0.00000000E+00  0.00000000E+00  0.00000000E+00
  0.00000000E+00  0.00000000E+00  0.00000000E+00
  0.00000000E+00  0.00000000E+00  0.00000000E+00
  0.00000000E+00  0.00000000E+00  0.00000000E+00
  0.00000000E+00  0.00000000E+00  0.00000000E+00
  0.00000000E+00  0.00000000E+00  0.00000000E+00
  0.00000000E+00  0.00000000E+00  0.00000000E+00
  0.00000000E+00  0.00000000E+00  0.00000000E+00
  0.00000000E+00  0.00000000E+00  0.00000000E+00
  0.00000000E+00  0.00000000E+00  0.00000000E+00
  0.00000000E+00  0.00000000E+00  0.00000000E+00
  0.00000000E+00  0.00000000E+00  0.00000000E+00
  0.00000000E+00  0.00000000E+00  0.00000000E+00
  0.00000000E+00  0.00000000E+00  0.00000000E+00
  0.00000000E+00  0.00000000E+00  0.00000000E+00
  0.00000000E+00  0.00000000E+00  0.00000000E+00
  0.00000000E+00  0.00000000E+00  0.00000000E+00
  0.00000000E+00  0.00000000E+00  0.00000000E+00
  0.00000000E+00  0.00000000E+00  0.00000000E+00
  0.00000000E+00  0.00000000E+00  0.00000000E+00
  0.00000000E+00  0.00000000E+00  0.00000000E+00
  0.00000000E+00  0.00000000E+00  0.00000000E+00
  0.00000000E+00  0.00000000E+00  0.00000000E+00
  0.00000000E+00  0.00000000E+00  0.00000000E+00
  0.00000000E+00  0.00000000E+00  0.00000000E+00
  0.00000000E+00  0.00000000E+00  0.00000000E+00
  0.00000000E+00  0.00000000E+00  0.00000000E+00
  0.00000000E+00  0.00000000E+00  0.00000000E+00
  0.00000000E+00  0.00000000E+00  0.00000000E+00
  0.00000000E+00  0.00000000E+00  0.00000000E+00
  0.00000000E+00  0.00000000E+00  0.00000000E+00
  0.00000000E+00  0.00000000E+00  0.00000000E+00
  0.00000000E+00  0.00000000E+00  0.00000000E+00
  0.00000000E+00  0.00000000E+00  0.00000000E+00
  0.00000000E+00  0.00000000E+00  0.00000000E+00
  0.00000000E+00  0.00000000E+00  0.00000000E+00
  0.00000000E+00  0.00000000E+00  0.00000000E+00
  0.00000000E+00  0.00000000E+00  0.00000000E+00
  0.00000000E+00  0.00000000E+00  0.00000000E+00
  0.00000000E+00  0.00000000E+00  0.00000000E+00
  0.00000000E+00  0.00000000E+00  0.00000000E+00
  0.00000000E+00  0.00000000E+00  0.00000000E+00
  0.00000000E+00  0.00000000E+00  0.00000000E+00
  0.00000000E+00  0.00000000E+00  0.00000000E+00
  0.00000000E+00  0.00000000E+00  0.00000000E+00
  0.00000000E+00  0.00000000E+00  0.00000000E+00
  0.00000000E+00  0.00000000E+00  0.00000000E+00
  0.00000000E+00  0.00000000E+00  0.00000000E+00
  0.00000000E+00  0.00000000E+00  0.00000000E+00
  0.00000000E+00  0.00000000E+00  0.00000000E+00
  0.00000000E+00  0.00000000E+00  0.00000000E+00
  0.00000000E+00  0.00000000E+00  0.00000000E+00
  0.00000000E+00  0.00000000E+00  0.00000000E+00
  0.00000000E+00  0.00000000E+00  0.00000000E+00
  0.00000000E+00  0.00000000E+00  0.00000000E+00
  0.00000000E+00  0.00000000E+00  0.00000000E+00
  0.00000000E+00  0.00000000E+00  0.00000000E+00
  0.00000000E+00  0.00000000E+00  0.00000000E+00
  0.00000000E+00  0.00000000E+00  0.00000000E+00
  0.00000000E+00  0.00000000E+00  0.00000000E+00
  0.00000000E+00  0.00000000E+00  0.00000000E+00
  0.00000000E+00  0.00000000E+00  0.00000000E+00
  0.00000000E+00  0.00000000E+00  0.00000000E+00
