CONTCAR\(3)                             
   1.00000000000000     
    13.7056999207000008    0.0000000000000000    0.0000000000000000
     4.1214080124999999   12.9276297616000004    0.0000000000000000
     0.0000000000000000    0.0000000000000000   18.6212005615000002
   Bi   Rh   S    O    H 
    16    24    16     1     1
Selective dynamics
Direct
  0.1960413597653172  0.1935435836059582  0.5852833137019431   F   F   F
  0.4381804087486572  0.4502930154180618  0.6034107723348541   F   F   F
  0.0802705176368050  0.0808211663863290  0.4092987746829380   F   F   F
  0.3316093497634540  0.3356161815165208  0.4140166348679628   F   F   F
  0.6915644841733695  0.2023937610211775  0.5852061043244845   F   F   F
  0.9458721806303387  0.4464134552346692  0.5941304266503167   F   F   F
  0.5796813302123738  0.0805101788573452  0.4094477162191765   F   F   F
  0.8350113305606683  0.3345855609599511  0.4116028880996794   F   F   F
  0.2104251015465977  0.6860279065730737  0.5986533971443393   F   F   F
  0.4439273090594256  0.9443749677507540  0.5951788069415400   F   F   F
  0.0836095559727781  0.5821137239532561  0.4102887822089585   F   F   F
  0.3339142470872787  0.8326380696183406  0.4102677309479290   F   F   F
  0.6964054558781783  0.6982355952595327  0.5845855011987950   F   F   F
  0.9465823383928296  0.9456084820378976  0.5932013899842516   F   F   F
  0.5807768810859955  0.5798523281619836  0.4095489535003196   F   F   F
  0.8334646090309477  0.8370801413705067  0.4102443083167415   F   F   F
  0.0133428322921461  0.2604741872176035  0.4975964177259300   F   F   F
  0.4121214765228913  0.1084336919087079  0.5026416658886816   F   F   F
  0.1110521947981766  0.4122304309825040  0.5016025068204470   F   F   F
  0.2603848504911710  0.0112871016424165  0.4971389453178290   F   F   F
  0.3225140003221938  0.3190391903763796  0.5604643260101554   F   F   F
  0.2103802222170685  0.2098912674539406  0.4412609294533496   F   F   F
  0.5106839489285875  0.2590277215111527  0.4939227028818252   F   F   F
  0.9107952733035063  0.1114281451470305  0.5003808336078421   F   F   F
  0.6088630053280042  0.4116934609926517  0.5045946239434471   F   F   F
  0.7569649154797062  0.0156755233181585  0.4974227879651067   F   F   F
  0.8216213169280948  0.3221754149917189  0.5573815800480943   F   F   F
  0.7096908413881522  0.2144025712925384  0.4409138234072643   F   F   F
  0.0086781537247234  0.7636501312593467  0.4905529304923419   F   F   F
  0.4159866180302956  0.6068102300220488  0.5062210910292322   F   F   F
  0.1096913445468886  0.9126432457705818  0.5011615805691818   F   F   F
  0.2606044637953815  0.5132498094148730  0.5036280537054054   F   F   F
  0.3212273595612842  0.8176656464986110  0.5563394844442087   F   F   F
  0.2119151981634744  0.7107256154827652  0.4479759174039444   F   F   F
  0.5116903908685657  0.7602643498220090  0.4936434816108957   F   F   F
  0.9123859158568806  0.6106038105855660  0.5013926899811807   F   F   F
  0.6088198971597976  0.9121904662575062  0.5039941123159437   F   F   F
  0.7590483948829956  0.5137783343529421  0.4959276898132998   F   F   F
  0.8219795679184401  0.8217766027965467  0.5565528048422550   F   F   F
  0.7114665084411840  0.7133065469955113  0.4405229276763265   F   F   F
  0.4619737197795715  0.1890823187890263  0.5989756789822067   F   F   F
  0.1881496689471547  0.4537718926786667  0.6018964263859559   F   F   F
  0.0704402202568204  0.3365819514889310  0.3992686163626971   F   F   F
  0.3370077458225893  0.0690948234528932  0.4000548214330166   F   F   F
  0.9569688974082595  0.1900017481790712  0.5991484877291953   F   F   F
  0.6920126159991540  0.4595523027577642  0.6002130710312201   F   F   F
  0.5685841938944733  0.3405442677493227  0.4004568487946472   F   F   F
  0.8333526158124371  0.0717535016385540  0.3989894838476715   F   F   F
  0.4632964652970415  0.6938996901002668  0.5993124794587104   F   F   F
  0.1907781027208131  0.9548650174455062  0.5994644337924129   F   F   F
  0.0773688094092506  0.8348572108524905  0.3974142427237553   F   F   F
  0.3367249911138117  0.5693616786887929  0.4052943771612050   F   F   F
  0.9631021400829880  0.6938520008403941  0.5963801770157886   F   F   F
  0.6916440012532519  0.9581070584401132  0.6002630828443358   F   F   F
  0.5711496564989176  0.8392494954813898  0.3987466192646991   F   F   F
  0.8366554390233318  0.5717805108406537  0.3991609056699232   F   F   F
  0.3280963566980191  0.5834421225443336  0.6826829069808937   T   T   T
  0.2919296964874789  0.5540803912133399  0.7171326639895360   T   T   T
 
  0.00000000E+00  0.00000000E+00  0.00000000E+00
  0.00000000E+00  0.00000000E+00  0.00000000E+00
  0.00000000E+00  0.00000000E+00  0.00000000E+00
  0.00000000E+00  0.00000000E+00  0.00000000E+00
  0.00000000E+00  0.00000000E+00  0.00000000E+00
  0.00000000E+00  0.00000000E+00  0.00000000E+00
  0.00000000E+00  0.00000000E+00  0.00000000E+00
  0.00000000E+00  0.00000000E+00  0.00000000E+00
  0.00000000E+00  0.00000000E+00  0.00000000E+00
  0.00000000E+00  0.00000000E+00  0.00000000E+00
  0.00000000E+00  0.00000000E+00  0.00000000E+00
  0.00000000E+00  0.00000000E+00  0.00000000E+00
  0.00000000E+00  0.00000000E+00  0.00000000E+00
  0.00000000E+00  0.00000000E+00  0.00000000E+00
  0.00000000E+00  0.00000000E+00  0.00000000E+00
  0.00000000E+00  0.00000000E+00  0.00000000E+00
  0.00000000E+00  0.00000000E+00  0.00000000E+00
  0.00000000E+00  0.00000000E+00  0.00000000E+00
  0.00000000E+00  0.00000000E+00  0.00000000E+00
  0.00000000E+00  0.00000000E+00  0.00000000E+00
  0.00000000E+00  0.00000000E+00  0.00000000E+00
  0.00000000E+00  0.00000000E+00  0.00000000E+00
  0.00000000E+00  0.00000000E+00  0.00000000E+00
  0.00000000E+00  0.00000000E+00  0.00000000E+00
  0.00000000E+00  0.00000000E+00  0.00000000E+00
  0.00000000E+00  0.00000000E+00  0.00000000E+00
  0.00000000E+00  0.00000000E+00  0.00000000E+00
  0.00000000E+00  0.00000000E+00  0.00000000E+00
  0.00000000E+00  0.00000000E+00  0.00000000E+00
  0.00000000E+00  0.00000000E+00  0.00000000E+00
  0.00000000E+00  0.00000000E+00  0.00000000E+00
  0.00000000E+00  0.00000000E+00  0.00000000E+00
  0.00000000E+00  0.00000000E+00  0.00000000E+00
  0.00000000E+00  0.00000000E+00  0.00000000E+00
  0.00000000E+00  0.00000000E+00  0.00000000E+00
  0.00000000E+00  0.00000000E+00  0.00000000E+00
  0.00000000E+00  0.00000000E+00  0.00000000E+00
  0.00000000E+00  0.00000000E+00  0.00000000E+00
  0.00000000E+00  0.00000000E+00  0.00000000E+00
  0.00000000E+00  0.00000000E+00  0.00000000E+00
  0.00000000E+00  0.00000000E+00  0.00000000E+00
  0.00000000E+00  0.00000000E+00  0.00000000E+00
  0.00000000E+00  0.00000000E+00  0.00000000E+00
  0.00000000E+00  0.00000000E+00  0.00000000E+00
  0.00000000E+00  0.00000000E+00  0.00000000E+00
  0.00000000E+00  0.00000000E+00  0.00000000E+00
  0.00000000E+00  0.00000000E+00  0.00000000E+00
  0.00000000E+00  0.00000000E+00  0.00000000E+00
  0.00000000E+00  0.00000000E+00  0.00000000E+00
  0.00000000E+00  0.00000000E+00  0.00000000E+00
  0.00000000E+00  0.00000000E+00  0.00000000E+00
  0.00000000E+00  0.00000000E+00  0.00000000E+00
  0.00000000E+00  0.00000000E+00  0.00000000E+00
  0.00000000E+00  0.00000000E+00  0.00000000E+00
  0.00000000E+00  0.00000000E+00  0.00000000E+00
  0.00000000E+00  0.00000000E+00  0.00000000E+00
  0.00000000E+00  0.00000000E+00  0.00000000E+00
  0.00000000E+00  0.00000000E+00  0.00000000E+00
