CONTCAR\(5)                             
   1.00000000000000     
    11.6448001861999995    0.0000000000000000    0.0000000000000000
    -5.8224170578000001   10.0839903220000000    0.0000000000000000
     0.0000000000000000    0.0000000000000000   17.7579002380000013
   Fe   Cl   O 
     8    24     1
Direct
  0.3319121997540099  0.1619232065674026  0.5010921649530813
  0.9988598648874417  0.9958598055426252  0.5018939871694452
  0.8331852630662839  0.1634642220059975  0.5010699767764325
  0.5001459799589532  0.9969672652432213  0.5010674242871379
  0.3344746178127339  0.6636614101988179  0.5018872118653223
  0.0014278677048914  0.4966954530180351  0.5010922129460906
  0.8333889884415682  0.6615254346491822  0.5014795605795491
  0.4999317212252855  0.4948035379123332  0.5014833722784797
  0.3454310188472391  0.3273685927134921  0.4283985248269543
  0.4848181082883257  0.1484494127938228  0.4286231907117243
  0.1644068035037005  0.0077469476749740  0.4294442404746106
  0.3468773414028865  0.0098142559862891  0.5735316963344641
  0.4848856073663136  0.3289441754444539  0.5735451490333164
  0.1656835073467974  0.1480247221024389  0.5737952880860383
  0.8485311557584259  0.3302877066003411  0.4286302332389761
  0.9856649753230928  0.1483327225007755  0.4292680541227138
  0.6666677819484790  0.0111496172609580  0.4286477636823849
  0.8462490546066282  0.0104410791795575  0.5741283942762985
  0.9864434499697129  0.3296101135187259  0.5735233912586758
  0.6666738537342388  0.1509503478940969  0.5728940843014907
  0.3476894336146268  0.8293437150453602  0.4292461958600425
  0.4898601509777829  0.6516092743175754  0.4301129368937713
  0.1689080665293301  0.5100214593289238  0.4294295672126109
  0.3495969522470682  0.5112851274293697  0.5742890201965446
  0.4870882458188787  0.8308645296160253  0.5741399718603581
  0.1676550557203673  0.6490126642406796  0.5737926379784204
  0.8434618127814737  0.8284073733101327  0.4301137598651839
  0.9879033027426856  0.6486096524652375  0.4284103890332207
  0.6666525606987465  0.5094122021774601  0.4295398580912408
  0.8484398041787616  0.5107004530803191  0.5735343449475909
  0.9837167402839975  0.8283530737023616  0.5742981526769096
  0.6666749635764740  0.6522967130476547  0.5730600604471051
  0.6666731208827922  0.6052233184313756  0.6540975287338524
 
  0.00000000E+00  0.00000000E+00  0.00000000E+00
  0.00000000E+00  0.00000000E+00  0.00000000E+00
  0.00000000E+00  0.00000000E+00  0.00000000E+00
  0.00000000E+00  0.00000000E+00  0.00000000E+00
  0.00000000E+00  0.00000000E+00  0.00000000E+00
  0.00000000E+00  0.00000000E+00  0.00000000E+00
  0.00000000E+00  0.00000000E+00  0.00000000E+00
  0.00000000E+00  0.00000000E+00  0.00000000E+00
  0.00000000E+00  0.00000000E+00  0.00000000E+00
  0.00000000E+00  0.00000000E+00  0.00000000E+00
  0.00000000E+00  0.00000000E+00  0.00000000E+00
  0.00000000E+00  0.00000000E+00  0.00000000E+00
  0.00000000E+00  0.00000000E+00  0.00000000E+00
  0.00000000E+00  0.00000000E+00  0.00000000E+00
  0.00000000E+00  0.00000000E+00  0.00000000E+00
  0.00000000E+00  0.00000000E+00  0.00000000E+00
  0.00000000E+00  0.00000000E+00  0.00000000E+00
  0.00000000E+00  0.00000000E+00  0.00000000E+00
  0.00000000E+00  0.00000000E+00  0.00000000E+00
  0.00000000E+00  0.00000000E+00  0.00000000E+00
  0.00000000E+00  0.00000000E+00  0.00000000E+00
  0.00000000E+00  0.00000000E+00  0.00000000E+00
  0.00000000E+00  0.00000000E+00  0.00000000E+00
  0.00000000E+00  0.00000000E+00  0.00000000E+00
  0.00000000E+00  0.00000000E+00  0.00000000E+00
  0.00000000E+00  0.00000000E+00  0.00000000E+00
  0.00000000E+00  0.00000000E+00  0.00000000E+00
  0.00000000E+00  0.00000000E+00  0.00000000E+00
  0.00000000E+00  0.00000000E+00  0.00000000E+00
  0.00000000E+00  0.00000000E+00  0.00000000E+00
  0.00000000E+00  0.00000000E+00  0.00000000E+00
  0.00000000E+00  0.00000000E+00  0.00000000E+00
  0.00000000E+00  0.00000000E+00  0.00000000E+00
