CONTCAR\(3)                             
   1.00000000000000     
    12.5341997146999997    0.0000000000000000    0.0000000000000000
    -6.2670998572999999   10.8549353689999997    0.0000000000000000
     0.0000000000000000    0.0000000000000000   23.0692996979000000
   Tb   Ga   I    O 
    18    18    18     1
Direct
  0.0017199515354349  0.9978516419208061  0.5877027695713801
  0.0020147242953167  0.9978975126719763  0.4122747867406545
  0.3327986534857483  0.0005785709021045  0.5872048177141866
  0.3354733634183411  0.9977409154933644  0.4131391882758165
  0.6733597819412506  0.0001904403486986  0.5869447721477260
  0.6680785975008530  0.9977025717655194  0.4129005630247924
  0.0018171155069191  0.3314828911303871  0.5876517235846711
  0.0018162664085634  0.3316476816334313  0.4122679326800968
  0.3356730433946815  0.3317528658551751  0.5876416752105202
  0.3354556360093668  0.3314014624680741  0.4123234097925494
  0.6684847832341784  0.3313271530770964  0.5879006855610367
  0.6686711836773036  0.3315904454494653  0.4124293172623864
  0.0020029263172355  0.6648329553650870  0.5878891598561096
  0.0017323112394111  0.6646177833297594  0.4124660648181820
  0.3331241035011006  0.6599599283648728  0.5868124693533218
  0.3356621130347978  0.6652424440848308  0.4128592331205020
  0.6684407642902389  0.6649181673038240  0.5879376584977347
  0.6689362812298616  0.6645604024822700  0.4123573073509937
  0.2235451006809501  0.1097370689314842  0.5138933086797660
  0.1129389658808829  0.2202940137279646  0.4848377025809027
  0.5574094998046196  0.1089411911079119  0.5152181397126043
  0.4466191309802762  0.2204315158858333  0.4854984572244507
  0.8917177391485229  0.1095811640196234  0.5138200432512015
  0.7795587627000389  0.2202978634167544  0.4854140643569612
  0.2237277082191381  0.4415511817281831  0.5138188352578203
  0.1130820911248756  0.5538040030765614  0.4853933342009492
  0.5577707865458469  0.4428551944524944  0.5148504425985164
  0.4465794324637592  0.5536522014051239  0.4851542427431297
  0.8908228075153625  0.4425338434410093  0.5148449283480534
  0.7797791373379231  0.5536376643704413  0.4853527003592610
  0.2243955230000515  0.7760224133730620  0.5151788598866104
  0.1129323136860058  0.8868697181654083  0.4854615587449480
  0.5576591613270903  0.7758357623163008  0.5148163466262087
  0.4464261702358807  0.8869667231689166  0.4859752191146453
  0.8905525255090146  0.7757254259239359  0.5148655093265432
  0.7797856316599355  0.8869206419236884  0.4851727390289182
  0.2245162742205515  0.1088483902632296  0.3262073484629694
  0.1134276927939798  0.2208198975885267  0.6737207431854901
  0.5568860113778408  0.1086321350599120  0.3264855974885649
  0.4463681088686010  0.2201894228035949  0.6739655882976516
  0.8905343430675942  0.1091495713803244  0.3262706140957868
  0.7789712288566966  0.2199048746653474  0.6739147637823075
  0.2244783164933026  0.4427748049855460  0.3261654078926165
  0.1136962532669158  0.5541810561871957  0.6737495077837675
  0.5575942281352494  0.4423729728420323  0.3260511889792161
  0.4462694837700688  0.5544052364537982  0.6739575782472638
  0.8906201455583161  0.4427667019760565  0.3261652460867111
  0.7796607015979700  0.5538025884351487  0.6739703685704763
  0.2243252521145081  0.7760877747906562  0.3264626425286460
  0.1132606933926888  0.8869902574872951  0.6739708297316619
  0.5574321605472695  0.7756979589039277  0.3262323886002628
  0.4468296112246718  0.8862669123168465  0.6677444303481381
  0.8910713461860400  0.7755725334000998  0.3260820608868791
  0.7789028228211893  0.8865936921959245  0.6740614957691637
  0.4496616228657693  0.8831603921830695  0.7491425986582794
 
  0.00000000E+00  0.00000000E+00  0.00000000E+00
  0.00000000E+00  0.00000000E+00  0.00000000E+00
  0.00000000E+00  0.00000000E+00  0.00000000E+00
  0.00000000E+00  0.00000000E+00  0.00000000E+00
  0.00000000E+00  0.00000000E+00  0.00000000E+00
  0.00000000E+00  0.00000000E+00  0.00000000E+00
  0.00000000E+00  0.00000000E+00  0.00000000E+00
  0.00000000E+00  0.00000000E+00  0.00000000E+00
  0.00000000E+00  0.00000000E+00  0.00000000E+00
  0.00000000E+00  0.00000000E+00  0.00000000E+00
  0.00000000E+00  0.00000000E+00  0.00000000E+00
  0.00000000E+00  0.00000000E+00  0.00000000E+00
  0.00000000E+00  0.00000000E+00  0.00000000E+00
  0.00000000E+00  0.00000000E+00  0.00000000E+00
  0.00000000E+00  0.00000000E+00  0.00000000E+00
  0.00000000E+00  0.00000000E+00  0.00000000E+00
  0.00000000E+00  0.00000000E+00  0.00000000E+00
  0.00000000E+00  0.00000000E+00  0.00000000E+00
  0.00000000E+00  0.00000000E+00  0.00000000E+00
  0.00000000E+00  0.00000000E+00  0.00000000E+00
  0.00000000E+00  0.00000000E+00  0.00000000E+00
  0.00000000E+00  0.00000000E+00  0.00000000E+00
  0.00000000E+00  0.00000000E+00  0.00000000E+00
  0.00000000E+00  0.00000000E+00  0.00000000E+00
  0.00000000E+00  0.00000000E+00  0.00000000E+00
  0.00000000E+00  0.00000000E+00  0.00000000E+00
  0.00000000E+00  0.00000000E+00  0.00000000E+00
  0.00000000E+00  0.00000000E+00  0.00000000E+00
  0.00000000E+00  0.00000000E+00  0.00000000E+00
  0.00000000E+00  0.00000000E+00  0.00000000E+00
  0.00000000E+00  0.00000000E+00  0.00000000E+00
  0.00000000E+00  0.00000000E+00  0.00000000E+00
  0.00000000E+00  0.00000000E+00  0.00000000E+00
  0.00000000E+00  0.00000000E+00  0.00000000E+00
  0.00000000E+00  0.00000000E+00  0.00000000E+00
  0.00000000E+00  0.00000000E+00  0.00000000E+00
  0.00000000E+00  0.00000000E+00  0.00000000E+00
  0.00000000E+00  0.00000000E+00  0.00000000E+00
  0.00000000E+00  0.00000000E+00  0.00000000E+00
  0.00000000E+00  0.00000000E+00  0.00000000E+00
  0.00000000E+00  0.00000000E+00  0.00000000E+00
  0.00000000E+00  0.00000000E+00  0.00000000E+00
  0.00000000E+00  0.00000000E+00  0.00000000E+00
  0.00000000E+00  0.00000000E+00  0.00000000E+00
  0.00000000E+00  0.00000000E+00  0.00000000E+00
  0.00000000E+00  0.00000000E+00  0.00000000E+00
  0.00000000E+00  0.00000000E+00  0.00000000E+00
  0.00000000E+00  0.00000000E+00  0.00000000E+00
  0.00000000E+00  0.00000000E+00  0.00000000E+00
  0.00000000E+00  0.00000000E+00  0.00000000E+00
  0.00000000E+00  0.00000000E+00  0.00000000E+00
  0.00000000E+00  0.00000000E+00  0.00000000E+00
  0.00000000E+00  0.00000000E+00  0.00000000E+00
  0.00000000E+00  0.00000000E+00  0.00000000E+00
  0.00000000E+00  0.00000000E+00  0.00000000E+00
