 Mn2 Sb2 Se4 I2                         
   1.00000000000000     
     3.9044955257737524    0.0000000000000000    0.0000000000000000
     0.0000000000000000   10.5268661262561132    0.0000000000000000
     0.0000000000000000    0.0000000000000000   20.5844167469160020
   Mn   Sb   Se   I 
     2     2     4     2
Direct
 -0.0004298611778229 -0.0000505170590111  0.4999933871932942
  0.0002142570971906  0.5000019295739996  0.5000023171754240
  0.4999592145369220  0.3043834806189735  0.6194274991289522
  0.5000938518995556  0.6956207300830987  0.3805658864124408
 -0.0000020500274060  0.2468446038957100  0.5347382061014548
  0.5003036475314993  0.4609043470378012  0.4108710370912134
  0.0000076277463952  0.7531313854844737  0.4652599961924555
  0.5003149489036364  0.5391089055669519  0.5891306484315193
  0.4997622885821442  0.9317489675661845  0.5938619143737903
  0.4997760749078750  0.0683061672318162  0.4061491078994493
 
  0.00000000E+00  0.00000000E+00  0.00000000E+00
  0.00000000E+00  0.00000000E+00  0.00000000E+00
  0.00000000E+00  0.00000000E+00  0.00000000E+00
  0.00000000E+00  0.00000000E+00  0.00000000E+00
  0.00000000E+00  0.00000000E+00  0.00000000E+00
  0.00000000E+00  0.00000000E+00  0.00000000E+00
  0.00000000E+00  0.00000000E+00  0.00000000E+00
  0.00000000E+00  0.00000000E+00  0.00000000E+00
  0.00000000E+00  0.00000000E+00  0.00000000E+00
  0.00000000E+00  0.00000000E+00  0.00000000E+00
