CONTCAR\(10)                            
   1.00000000000000     
     9.7571001052999993    0.0000000000000000    0.0000000000000000
    -3.0063686365000000   15.8319856181999992    0.0000000000000000
     0.0000000000000000    0.0000000000000000   18.2793006897000012
   V    P    S    O 
     4     8    26     1
Direct
  0.6186390990913501  0.6032552797100673  0.4997385178080073
  0.6216668263145676  0.1059282161226534  0.5035282363536641
  0.3856047551297245  0.3956623692179296  0.5069871769831371
  0.3939579480720445  0.8977435512221806  0.4965828208391307
  0.8330693172603754  0.2623204598737657  0.4989553807720171
  0.6965194755637923  0.4340891054054064  0.5415480339884707
  0.1822571125599138  0.7420929316262429  0.5036124018215059
  0.1746621393651783  0.2393066263368984  0.4997295717234260
  0.3111510336963430  0.0668291459293525  0.5398325209418204
  0.7020593150269897  0.9372828420295675  0.4597632008798495
  0.3063481102585478  0.5657022683647340  0.4671731651780916
  0.8301245698647376  0.7612475808272952  0.5014970243405168
  0.1177825544343850  0.1087598899050053  0.5297464765553781
  0.8921653916215466  0.8900753475944907  0.4681004328043829
  0.0145559739490191  0.7678232727274631  0.5837489488159746
  0.3978836344462536  0.0422918768508143  0.4404791631486058
  0.5434168804577577  0.3538862805391754  0.5939172433624165
  0.2397693426725084  0.4531267933918710  0.4188394336092139
  0.2002389935766440  0.3185707919539295  0.5852139701877715
  0.6665912856277377  0.7335643079164746  0.5698011024339805
  0.4589627997364827  0.6445026354525586  0.4131826713492434
  0.6080899401855204  0.4590128294843961  0.4427653723165408
  0.6668759906060761  0.2353417613245266  0.4320729237381913
  0.8896630461790975  0.3919874232450404  0.5302675755689911
  0.0048343961492390  0.2514972293746823  0.4292859273590123
  0.6167595201069301  0.9614663926755413  0.5594943883357384
  0.8050086034678291  0.6761237330161547  0.4201491628333648
  0.3960419594889301  0.5397606123539115  0.5650681474399781
  0.2018939185149460  0.8231134467947361  0.4196561643869584
  0.7608998983831715  0.5467581023328301  0.5897825139301233
  0.5474073053219317  0.8587427585718637  0.4067500034934102
  0.2518139125127982  0.9538694018713212  0.5885612816447185
  0.3527325036483336  0.7695501633237174  0.5677947768747671
  0.8072370257853352  0.1810512454634369  0.5829673694055520
  0.7668562954990725  0.0507815943816295  0.4128316325394908
  0.4654034830901410  0.1465935477559624  0.5917590367655815
  0.1152331205071401  0.6119397104381944  0.4785560418218912
  0.3413787830784588  0.2676201577948718  0.4334233072488863
  0.9829335547491453  0.6958284317993146  0.6355170474002242
 
  0.00000000E+00  0.00000000E+00  0.00000000E+00
  0.00000000E+00  0.00000000E+00  0.00000000E+00
  0.00000000E+00  0.00000000E+00  0.00000000E+00
  0.00000000E+00  0.00000000E+00  0.00000000E+00
  0.00000000E+00  0.00000000E+00  0.00000000E+00
  0.00000000E+00  0.00000000E+00  0.00000000E+00
  0.00000000E+00  0.00000000E+00  0.00000000E+00
  0.00000000E+00  0.00000000E+00  0.00000000E+00
  0.00000000E+00  0.00000000E+00  0.00000000E+00
  0.00000000E+00  0.00000000E+00  0.00000000E+00
  0.00000000E+00  0.00000000E+00  0.00000000E+00
  0.00000000E+00  0.00000000E+00  0.00000000E+00
  0.00000000E+00  0.00000000E+00  0.00000000E+00
  0.00000000E+00  0.00000000E+00  0.00000000E+00
  0.00000000E+00  0.00000000E+00  0.00000000E+00
  0.00000000E+00  0.00000000E+00  0.00000000E+00
  0.00000000E+00  0.00000000E+00  0.00000000E+00
  0.00000000E+00  0.00000000E+00  0.00000000E+00
  0.00000000E+00  0.00000000E+00  0.00000000E+00
  0.00000000E+00  0.00000000E+00  0.00000000E+00
  0.00000000E+00  0.00000000E+00  0.00000000E+00
  0.00000000E+00  0.00000000E+00  0.00000000E+00
  0.00000000E+00  0.00000000E+00  0.00000000E+00
  0.00000000E+00  0.00000000E+00  0.00000000E+00
  0.00000000E+00  0.00000000E+00  0.00000000E+00
  0.00000000E+00  0.00000000E+00  0.00000000E+00
  0.00000000E+00  0.00000000E+00  0.00000000E+00
  0.00000000E+00  0.00000000E+00  0.00000000E+00
  0.00000000E+00  0.00000000E+00  0.00000000E+00
  0.00000000E+00  0.00000000E+00  0.00000000E+00
  0.00000000E+00  0.00000000E+00  0.00000000E+00
  0.00000000E+00  0.00000000E+00  0.00000000E+00
  0.00000000E+00  0.00000000E+00  0.00000000E+00
  0.00000000E+00  0.00000000E+00  0.00000000E+00
  0.00000000E+00  0.00000000E+00  0.00000000E+00
  0.00000000E+00  0.00000000E+00  0.00000000E+00
  0.00000000E+00  0.00000000E+00  0.00000000E+00
  0.00000000E+00  0.00000000E+00  0.00000000E+00
  0.00000000E+00  0.00000000E+00  0.00000000E+00
