CONTCAR\(11)                            
   1.00000000000000     
    13.2923002242999999    0.0000000000000000    0.0000000000000000
     6.5701190447000002   11.5675693128999999    0.0000000000000000
     0.0000000000000000    0.0000000000000000   18.3850994109999988
   Nb   Ir   S    O    H 
    12     4    32     1     1
Direct
  0.2499765232602869  0.0202615647333886  0.5068427751544533
  0.4924753842966609  0.0252579837189515  0.5019675058874142
  0.4756612344773927  0.2644116122571560  0.5017264611893282
  0.7402386881258849  0.0274078675156701  0.4987377914468709
  0.9810311957373017  0.0102936195007288  0.5070051153056667
  0.9760748217095454  0.2482831948780131  0.5117346975203603
  0.2330181422581745  0.5252075598734223  0.5010890436573874
  0.4771607767481072  0.5022410883226414  0.5011540175324782
  0.4816854005666258  0.7412247414993658  0.5013038804175309
  0.7558527595631901  0.5168165976514416  0.5023838126791773
  0.9932263381078883  0.5207828351645389  0.5028526804919196
  0.9731281623773640  0.7644102505691279  0.5041022265838180
  0.2653004934099457  0.2327541235911639  0.5056415977567568
  0.7665640259486892  0.2299262805436442  0.4931739602495000
  0.2651656255332639  0.7322770864607691  0.5022766743898686
  0.7660530457360082  0.7348564766888970  0.5038638219155374
  0.3333917249639242  0.0838912034517563  0.4138735063742018
  0.0740426717580647  0.0926189092942380  0.4257469841746726
  0.0872527891966470  0.3278475663104459  0.4374953574874425
  0.3154678307761358  0.3400773097757934  0.4207690306857828
  0.1611451566163637  0.1784870507926470  0.5891547265437680
  0.4182014869768480  0.1683810107344499  0.5958269965386478
  0.3999631919300057  0.4247874840481387  0.5897667766787436
  0.1702141665365318  0.4088342047045970  0.5773467636134129
  0.8397092762331368  0.0765246598518274  0.4072655450332334
  0.5743544039834347  0.0973291562005016  0.4135450393214981
  0.5839683393602542  0.3314384558329664  0.4229169919423867
  0.8278901134753127  0.3367223600710787  0.4202234758055567
  0.6637737401489403  0.1819273186678245  0.5820330414357429
  0.9272823639963903  0.1552463456875088  0.6072017410026049
  0.9090253786053921  0.4272279666919232  0.5876704342976140
  0.6722724719778199  0.4049465764672178  0.5664761679710111
  0.3284789493821734  0.5847569403637891  0.4092231408787939
  0.0712044498860678  0.6006328709347528  0.4144807757015556
  0.0892815460307830  0.8325592044555705  0.4314407649849841
  0.3199703309716213  0.8401711997603130  0.4219859546938665
  0.1577168447528905  0.6801588659644722  0.5855576892487164
  0.4167480525377201  0.6592109540146183  0.5934601086639475
  0.4124675181529796  0.9219347017746742  0.5832968118911523
  0.1712643625841608  0.9063375361238855  0.5747790930195436
  0.8362574216112222  0.5854448054966710  0.4113126681954498
  0.5772714629909572  0.5860995689929780  0.4202145896748704
  0.5883021703568616  0.8303449422545910  0.4350033489854823
  0.8185110111383054  0.8408125948338707  0.4195445621496035
  0.6600564026477613  0.6767782869555887  0.5842563343222125
  0.9163189402064944  0.6686781847079075  0.5957954997052610
  0.8974453370659461  0.9268424816824208  0.5905661489258165
  0.6696203906818781  0.9114548309050505  0.5742594915048045
  0.0249083166070676  0.1135243470748080  0.6787889300812964
  0.0292378230035908  0.0436979881521751  0.6997655002882937
 
  0.00000000E+00  0.00000000E+00  0.00000000E+00
  0.00000000E+00  0.00000000E+00  0.00000000E+00
  0.00000000E+00  0.00000000E+00  0.00000000E+00
  0.00000000E+00  0.00000000E+00  0.00000000E+00
  0.00000000E+00  0.00000000E+00  0.00000000E+00
  0.00000000E+00  0.00000000E+00  0.00000000E+00
  0.00000000E+00  0.00000000E+00  0.00000000E+00
  0.00000000E+00  0.00000000E+00  0.00000000E+00
  0.00000000E+00  0.00000000E+00  0.00000000E+00
  0.00000000E+00  0.00000000E+00  0.00000000E+00
  0.00000000E+00  0.00000000E+00  0.00000000E+00
  0.00000000E+00  0.00000000E+00  0.00000000E+00
  0.00000000E+00  0.00000000E+00  0.00000000E+00
  0.00000000E+00  0.00000000E+00  0.00000000E+00
  0.00000000E+00  0.00000000E+00  0.00000000E+00
  0.00000000E+00  0.00000000E+00  0.00000000E+00
  0.00000000E+00  0.00000000E+00  0.00000000E+00
  0.00000000E+00  0.00000000E+00  0.00000000E+00
  0.00000000E+00  0.00000000E+00  0.00000000E+00
  0.00000000E+00  0.00000000E+00  0.00000000E+00
  0.00000000E+00  0.00000000E+00  0.00000000E+00
  0.00000000E+00  0.00000000E+00  0.00000000E+00
  0.00000000E+00  0.00000000E+00  0.00000000E+00
  0.00000000E+00  0.00000000E+00  0.00000000E+00
  0.00000000E+00  0.00000000E+00  0.00000000E+00
  0.00000000E+00  0.00000000E+00  0.00000000E+00
  0.00000000E+00  0.00000000E+00  0.00000000E+00
  0.00000000E+00  0.00000000E+00  0.00000000E+00
  0.00000000E+00  0.00000000E+00  0.00000000E+00
  0.00000000E+00  0.00000000E+00  0.00000000E+00
  0.00000000E+00  0.00000000E+00  0.00000000E+00
  0.00000000E+00  0.00000000E+00  0.00000000E+00
  0.00000000E+00  0.00000000E+00  0.00000000E+00
  0.00000000E+00  0.00000000E+00  0.00000000E+00
  0.00000000E+00  0.00000000E+00  0.00000000E+00
  0.00000000E+00  0.00000000E+00  0.00000000E+00
  0.00000000E+00  0.00000000E+00  0.00000000E+00
  0.00000000E+00  0.00000000E+00  0.00000000E+00
  0.00000000E+00  0.00000000E+00  0.00000000E+00
  0.00000000E+00  0.00000000E+00  0.00000000E+00
  0.00000000E+00  0.00000000E+00  0.00000000E+00
  0.00000000E+00  0.00000000E+00  0.00000000E+00
  0.00000000E+00  0.00000000E+00  0.00000000E+00
  0.00000000E+00  0.00000000E+00  0.00000000E+00
  0.00000000E+00  0.00000000E+00  0.00000000E+00
  0.00000000E+00  0.00000000E+00  0.00000000E+00
  0.00000000E+00  0.00000000E+00  0.00000000E+00
  0.00000000E+00  0.00000000E+00  0.00000000E+00
  0.00000000E+00  0.00000000E+00  0.00000000E+00
  0.00000000E+00  0.00000000E+00  0.00000000E+00
