CONTCAR\(3)                             
   1.00000000000000     
    12.6408004761000008    0.0000000000000000    0.0000000000000000
    -6.3204002380000004   10.9472543365000003    0.0000000000000000
     0.0000000000000000    0.0000000000000000   17.9799003601000003
   V    S    H 
    16    32     1
Selective dynamics
Direct
  0.0806108215459815  0.1677929042873316  0.4996742323604551   F   F   F
  0.3315792974199780  0.1683306560365168  0.4993458610377814   F   F   F
  0.5821154435420794  0.1677967337297588  0.5002575783300856   F   F   F
  0.8315853953938444  0.1683011679465594  0.5000893261437085   F   F   F
  0.0808296603823351  0.4177583015235058  0.4995025890286655   F   F   F
  0.3225904854569634  0.4135373066133710  0.4995180589421437   F   F   F
  0.5861337238159692  0.4136298295894107  0.5001160549953099   F   F   F
  0.8322732570824201  0.4179326887096764  0.5001697376558738   F   F   F
  0.0816698576890502  0.6680830852724640  0.4996353414277905   F   F   F
  0.3318591267301585  0.6680624762466891  0.4995222587847366   F   F   F
  0.5861192142671499  0.6770525563053837  0.5004586363334838   F   F   F
  0.8314818172420715  0.6682178518588842  0.5000372087478837   F   F   F
  0.0813585244053812  0.9184544619226358  0.4996485947625189   F   F   F
  0.3319931494882624  0.9184672335677391  0.4996901779199803   F   F   F
  0.5820477453965225  0.9190226014332836  0.5003979787521260   F   F   F
  0.8318978754941639  0.9190988359177439  0.5003085852808482   F   F   F
  0.9976290161554857  0.0013824003148954  0.4168946161790075   F   F   F
  0.9984369571551071  0.0019524406034677  0.5827919888285606   F   F   F
  0.2481256122841629  0.0014804092751888  0.4167181238626156   F   F   F
  0.2482700713597765  0.0017407264211329  0.5822950174150066   F   F   F
  0.4987837833186433  0.0018424323802577  0.4171946297104370   F   F   F
  0.4980159978059788  0.0014978617050474  0.5830820161109216   F   F   F
  0.7483589277299174  0.0019991825763839  0.4174276452359678   F   F   F
  0.7484617578222057  0.0022569314232399  0.5831968453217087   F   F   F
  0.9973699601139288  0.2511159350105601  0.4167814111507511   F   F   F
  0.9979630576094678  0.2515532057113390  0.5826121505436674   F   F   F
  0.2463896298557700  0.2499418533208768  0.4163356005168524   F   F   F
  0.2463895290756497  0.2497582766081834  0.5829387058933833   F   F   F
  0.4989025212975733  0.2503774783864401  0.4167918700352189   F   F   F
  0.4979529551705539  0.2496297406356973  0.5833056012064546   F   F   F
  0.7484762983860520  0.2514532670420166  0.4172846046063938   F   F   F
  0.7486363757760586  0.2514502683276092  0.5830375247494501   F   F   F
  0.9980493909221622  0.5016113011437753  0.4167954411402235   F   F   F
  0.9988894370253334  0.5017909409317909  0.5826672264320223   F   F   F
  0.2468778186456504  0.5013534689060961  0.4163529249369446   F   F   F
  0.2464676888858932  0.5011468632577092  0.5829387277230182   F   F   F
  0.4988320130789603  0.5018126066447834  0.4237037615782597   F   F   F
  0.4976389360235345  0.5007284523335471  0.5754664649231671   F   F   F
  0.7496857370728662  0.5013679329963168  0.4170536557228743   F   F   F
  0.7500381255761752  0.5014672299302845  0.5835667868619083   F   F   F
  0.9979799144132855  0.7515417773816395  0.4169985111646994   F   F   F
  0.9985364402296781  0.7517513929782709  0.5825295875431706   F   F   F
  0.2485129824699115  0.7517092859059105  0.4168117449166076   F   F   F
  0.2484856208744048  0.7515539129157673  0.5823742119040318   F   F   F
  0.4991469483460946  0.7532821638103471  0.4169927012272083   F   F   F
  0.4981049311318770  0.7530141894047659  0.5835949555055677   F   F   F
  0.7495963040668627  0.7531706669414504  0.4171493035335558   F   F   F
  0.7500405343767085  0.7533819020913484  0.5837298498344623   F   F   F
  0.4964587575919452  0.4990747317229562  0.6504588822699949   T   T   T
 
  0.00000000E+00  0.00000000E+00  0.00000000E+00
  0.00000000E+00  0.00000000E+00  0.00000000E+00
  0.00000000E+00  0.00000000E+00  0.00000000E+00
  0.00000000E+00  0.00000000E+00  0.00000000E+00
  0.00000000E+00  0.00000000E+00  0.00000000E+00
  0.00000000E+00  0.00000000E+00  0.00000000E+00
  0.00000000E+00  0.00000000E+00  0.00000000E+00
  0.00000000E+00  0.00000000E+00  0.00000000E+00
  0.00000000E+00  0.00000000E+00  0.00000000E+00
  0.00000000E+00  0.00000000E+00  0.00000000E+00
  0.00000000E+00  0.00000000E+00  0.00000000E+00
  0.00000000E+00  0.00000000E+00  0.00000000E+00
  0.00000000E+00  0.00000000E+00  0.00000000E+00
  0.00000000E+00  0.00000000E+00  0.00000000E+00
  0.00000000E+00  0.00000000E+00  0.00000000E+00
  0.00000000E+00  0.00000000E+00  0.00000000E+00
  0.00000000E+00  0.00000000E+00  0.00000000E+00
  0.00000000E+00  0.00000000E+00  0.00000000E+00
  0.00000000E+00  0.00000000E+00  0.00000000E+00
  0.00000000E+00  0.00000000E+00  0.00000000E+00
  0.00000000E+00  0.00000000E+00  0.00000000E+00
  0.00000000E+00  0.00000000E+00  0.00000000E+00
  0.00000000E+00  0.00000000E+00  0.00000000E+00
  0.00000000E+00  0.00000000E+00  0.00000000E+00
  0.00000000E+00  0.00000000E+00  0.00000000E+00
  0.00000000E+00  0.00000000E+00  0.00000000E+00
  0.00000000E+00  0.00000000E+00  0.00000000E+00
  0.00000000E+00  0.00000000E+00  0.00000000E+00
  0.00000000E+00  0.00000000E+00  0.00000000E+00
  0.00000000E+00  0.00000000E+00  0.00000000E+00
  0.00000000E+00  0.00000000E+00  0.00000000E+00
  0.00000000E+00  0.00000000E+00  0.00000000E+00
  0.00000000E+00  0.00000000E+00  0.00000000E+00
  0.00000000E+00  0.00000000E+00  0.00000000E+00
  0.00000000E+00  0.00000000E+00  0.00000000E+00
  0.00000000E+00  0.00000000E+00  0.00000000E+00
  0.00000000E+00  0.00000000E+00  0.00000000E+00
  0.00000000E+00  0.00000000E+00  0.00000000E+00
  0.00000000E+00  0.00000000E+00  0.00000000E+00
  0.00000000E+00  0.00000000E+00  0.00000000E+00
  0.00000000E+00  0.00000000E+00  0.00000000E+00
  0.00000000E+00  0.00000000E+00  0.00000000E+00
  0.00000000E+00  0.00000000E+00  0.00000000E+00
  0.00000000E+00  0.00000000E+00  0.00000000E+00
  0.00000000E+00  0.00000000E+00  0.00000000E+00
  0.00000000E+00  0.00000000E+00  0.00000000E+00
  0.00000000E+00  0.00000000E+00  0.00000000E+00
  0.00000000E+00  0.00000000E+00  0.00000000E+00
  0.00000000E+00  0.00000000E+00  0.00000000E+00
