CONTCAR\(10)                            
   1.00000000000000     
    14.5429000853999995    0.0000000000000000    0.0000000000000000
     0.0000000000000000   10.6486997603999995    0.0000000000000000
     0.0000000000000000    0.0000000000000000   18.9185009002999998
   Ta   Ni   Te   O 
     8    16    24     1
Direct
  0.0640198374571190  0.7911688364823960  0.5075432211085307
  0.1887103948417241  0.2022614039178028  0.4938807570906136
  0.3140895602038758  0.7904582642914788  0.5077754170914870
  0.4375557078340824  0.2019573971214631  0.4936748794521222
  0.5608939845959433  0.7904123680769289  0.5078445412398302
  0.6862858190842847  0.2022900448507599  0.4940053261811199
  0.8109690971186049  0.7911813301555899  0.5077292383504501
  0.9375200563935316  0.2016654086087838  0.4940571447617015
  0.0658769834063310  0.4036865125766443  0.5013542795636197
  0.1836224189653393  0.5912842459132992  0.4943109888538211
  0.1891806983781660  0.9611631228704065  0.4619548054893002
  0.0631943461885560  0.0325526598634786  0.5400533469312692
  0.3141102014613418  0.4094891665296092  0.5036207634947606
  0.4376145551423045  0.5909311690785523  0.4927759087083017
  0.4375001301051071  0.9600198467248657  0.4611851749552827
  0.3141104230857675  0.0329464915844560  0.5404261500432043
  0.5608384504577532  0.4093676904596756  0.5036828807678835
  0.6912041529884453  0.5912536680739300  0.4945398155850460
  0.6858961955647074  0.9610765514947365  0.4620588760047105
  0.5607981136382311  0.0327197714627009  0.5404891907748526
  0.8089273473576888  0.4039849356868316  0.5014712691876375
  0.9374444948102758  0.5896988444797052  0.5009245776041998
  0.9374636323483166  0.9606029798522742  0.4619808382056630
  0.8117113115384342  0.0326813578166958  0.5401501699096699
  0.1892905340491707  0.7514778965975892  0.3967001535893221
  0.0628050017048357  0.2461000821288526  0.6030090842279978
  0.1916901227508712  0.4085415785049720  0.4074127984115621
  0.0648561086399813  0.5846023035973779  0.5932128849051116
  0.0629776169073567  0.0804417147500315  0.3966675966015579
  0.1887199120910723  0.9121860028104063  0.6055290262648813
  0.4375765400955454  0.7516519447657772  0.3961134165707929
  0.3133399709286099  0.2477169597067189  0.6033374185869036
  0.4374950167699512  0.4091321765926337  0.4078710814582377
  0.3129594860174117  0.5848218028426930  0.5963458324803730
  0.3131609705760912  0.0827499447609979  0.3957079909605586
  0.4374123644853086  0.9087326305726194  0.6064440423531983
  0.6858142257779243  0.7513437537308086  0.3968697239935330
  0.5616347622395714  0.2474647531862921  0.6034454366207553
  0.6832822414962488  0.4086047352571306  0.4075126184059037
  0.5619548598286456  0.5849611872125623  0.5965254265247516
  0.5619752720191811  0.0827529678317453  0.3957910621470834
  0.6862389463375407  0.9121877580302855  0.6056679902099570
  0.9374365806637966  0.7471484826144404  0.3991241672435750
  0.8123471316577298  0.2462564577066007  0.6030245621996577
  0.9373411339661339  0.4094068829347579  0.4102311138158187
  0.8101167355051304  0.5845581607124900  0.5933561677571921
  0.8120217161924081  0.0805449486959036  0.3967367440791439
  0.9374841851640289  0.9118237248476975  0.6052112738706599
  0.4374006561695474  0.5568272296355778  0.6471428983663380
 
  0.00000000E+00  0.00000000E+00  0.00000000E+00
  0.00000000E+00  0.00000000E+00  0.00000000E+00
  0.00000000E+00  0.00000000E+00  0.00000000E+00
  0.00000000E+00  0.00000000E+00  0.00000000E+00
  0.00000000E+00  0.00000000E+00  0.00000000E+00
  0.00000000E+00  0.00000000E+00  0.00000000E+00
  0.00000000E+00  0.00000000E+00  0.00000000E+00
  0.00000000E+00  0.00000000E+00  0.00000000E+00
  0.00000000E+00  0.00000000E+00  0.00000000E+00
  0.00000000E+00  0.00000000E+00  0.00000000E+00
  0.00000000E+00  0.00000000E+00  0.00000000E+00
  0.00000000E+00  0.00000000E+00  0.00000000E+00
  0.00000000E+00  0.00000000E+00  0.00000000E+00
  0.00000000E+00  0.00000000E+00  0.00000000E+00
  0.00000000E+00  0.00000000E+00  0.00000000E+00
  0.00000000E+00  0.00000000E+00  0.00000000E+00
  0.00000000E+00  0.00000000E+00  0.00000000E+00
  0.00000000E+00  0.00000000E+00  0.00000000E+00
  0.00000000E+00  0.00000000E+00  0.00000000E+00
  0.00000000E+00  0.00000000E+00  0.00000000E+00
  0.00000000E+00  0.00000000E+00  0.00000000E+00
  0.00000000E+00  0.00000000E+00  0.00000000E+00
  0.00000000E+00  0.00000000E+00  0.00000000E+00
  0.00000000E+00  0.00000000E+00  0.00000000E+00
  0.00000000E+00  0.00000000E+00  0.00000000E+00
  0.00000000E+00  0.00000000E+00  0.00000000E+00
  0.00000000E+00  0.00000000E+00  0.00000000E+00
  0.00000000E+00  0.00000000E+00  0.00000000E+00
  0.00000000E+00  0.00000000E+00  0.00000000E+00
  0.00000000E+00  0.00000000E+00  0.00000000E+00
  0.00000000E+00  0.00000000E+00  0.00000000E+00
  0.00000000E+00  0.00000000E+00  0.00000000E+00
  0.00000000E+00  0.00000000E+00  0.00000000E+00
  0.00000000E+00  0.00000000E+00  0.00000000E+00
  0.00000000E+00  0.00000000E+00  0.00000000E+00
  0.00000000E+00  0.00000000E+00  0.00000000E+00
  0.00000000E+00  0.00000000E+00  0.00000000E+00
  0.00000000E+00  0.00000000E+00  0.00000000E+00
  0.00000000E+00  0.00000000E+00  0.00000000E+00
  0.00000000E+00  0.00000000E+00  0.00000000E+00
  0.00000000E+00  0.00000000E+00  0.00000000E+00
  0.00000000E+00  0.00000000E+00  0.00000000E+00
  0.00000000E+00  0.00000000E+00  0.00000000E+00
  0.00000000E+00  0.00000000E+00  0.00000000E+00
  0.00000000E+00  0.00000000E+00  0.00000000E+00
  0.00000000E+00  0.00000000E+00  0.00000000E+00
  0.00000000E+00  0.00000000E+00  0.00000000E+00
  0.00000000E+00  0.00000000E+00  0.00000000E+00
  0.00000000E+00  0.00000000E+00  0.00000000E+00
