CONTCAR\(5)                             
   1.00000000000000     
    11.5825996398999997    0.0000000000000000    0.0000000000000000
     0.0000000000000000   12.9533996582000004    0.0000000000000000
     0.0000000000000000    0.0000000000000000   20.9237995147999989
   K    As   Pd
    16    16     8
Direct
  0.1250000000000000  0.0000000000000000  0.4476900250000000
  0.3750000000000000  0.0000000000000000  0.5523099750000000
  0.1250000000000000  0.2500000000000000  0.3577600090000033
  0.3750000000000000  0.2500000000000000  0.6422399909999967
  0.6250000000000000  0.0000000000000000  0.4476900250000000
  0.8750000409999998  0.0000000000000000  0.5523099750000000
  0.6250000000000000  0.2500000000000000  0.3577600090000033
  0.8750000409999998  0.2500000000000000  0.6422399909999967
  0.1250000000000000  0.5000000000000000  0.4476900250000000
  0.3750000000000000  0.5000000000000000  0.5523099750000000
  0.1250000000000000  0.7500000000000000  0.3577600090000033
  0.3750000000000000  0.7500000000000000  0.6422399909999967
  0.6250000000000000  0.5000000000000000  0.4476900250000000
  0.8750000409999998  0.5000000000000000  0.5523099750000000
  0.6250000000000000  0.7500000000000000  0.3577600090000033
  0.8750000409999998  0.7500000000000000  0.6422399909999967
  0.3750000000000000  0.3443600069999988  0.4185200000000009
  0.1250000000000000  0.1556400110000027  0.5814800449999993
  0.1250000000000000  0.3443600069999988  0.5814800449999993
  0.3750000000000000  0.1556400110000027  0.4185200000000009
  0.8750000409999998  0.3443600069999988  0.4185200000000009
  0.6250000000000000  0.1556400110000027  0.5814800449999993
  0.6250000000000000  0.3443600069999988  0.5814800449999993
  0.8750000409999998  0.1556400110000027  0.4185200000000009
  0.3750000000000000  0.8443599710000029  0.4185200000000009
  0.1250000000000000  0.6556400289999971  0.5814800449999993
  0.1250000000000000  0.8443599710000029  0.5814800449999993
  0.3750000000000000  0.6556400289999971  0.4185200000000009
  0.8750000409999998  0.8443599710000029  0.4185200000000009
  0.6250000000000000  0.6556400289999971  0.5814800449999993
  0.6250000000000000  0.8443599710000029  0.5814800449999993
  0.8750000409999998  0.6556400289999971  0.4185200000000009
  0.0000000000000000  0.2500000000000000  0.5000000000000000
  0.2500000000000000  0.2500000000000000  0.5000000000000000
  0.5000000000000000  0.2500000000000000  0.5000000000000000
  0.7500000000000000  0.2500000000000000  0.5000000000000000
  0.0000000000000000  0.7500000000000000  0.5000000000000000
  0.2500000000000000  0.7500000000000000  0.5000000000000000
  0.5000000000000000  0.7500000000000000  0.5000000000000000
  0.7500000000000000  0.7500000000000000  0.5000000000000000
 
  0.00000000E+00  0.00000000E+00  0.00000000E+00
  0.00000000E+00  0.00000000E+00  0.00000000E+00
  0.00000000E+00  0.00000000E+00  0.00000000E+00
  0.00000000E+00  0.00000000E+00  0.00000000E+00
  0.00000000E+00  0.00000000E+00  0.00000000E+00
  0.00000000E+00  0.00000000E+00  0.00000000E+00
  0.00000000E+00  0.00000000E+00  0.00000000E+00
  0.00000000E+00  0.00000000E+00  0.00000000E+00
  0.00000000E+00  0.00000000E+00  0.00000000E+00
  0.00000000E+00  0.00000000E+00  0.00000000E+00
  0.00000000E+00  0.00000000E+00  0.00000000E+00
  0.00000000E+00  0.00000000E+00  0.00000000E+00
  0.00000000E+00  0.00000000E+00  0.00000000E+00
  0.00000000E+00  0.00000000E+00  0.00000000E+00
  0.00000000E+00  0.00000000E+00  0.00000000E+00
  0.00000000E+00  0.00000000E+00  0.00000000E+00
  0.00000000E+00  0.00000000E+00  0.00000000E+00
  0.00000000E+00  0.00000000E+00  0.00000000E+00
  0.00000000E+00  0.00000000E+00  0.00000000E+00
  0.00000000E+00  0.00000000E+00  0.00000000E+00
  0.00000000E+00  0.00000000E+00  0.00000000E+00
  0.00000000E+00  0.00000000E+00  0.00000000E+00
  0.00000000E+00  0.00000000E+00  0.00000000E+00
  0.00000000E+00  0.00000000E+00  0.00000000E+00
  0.00000000E+00  0.00000000E+00  0.00000000E+00
  0.00000000E+00  0.00000000E+00  0.00000000E+00
  0.00000000E+00  0.00000000E+00  0.00000000E+00
  0.00000000E+00  0.00000000E+00  0.00000000E+00
  0.00000000E+00  0.00000000E+00  0.00000000E+00
  0.00000000E+00  0.00000000E+00  0.00000000E+00
  0.00000000E+00  0.00000000E+00  0.00000000E+00
  0.00000000E+00  0.00000000E+00  0.00000000E+00
  0.00000000E+00  0.00000000E+00  0.00000000E+00
  0.00000000E+00  0.00000000E+00  0.00000000E+00
  0.00000000E+00  0.00000000E+00  0.00000000E+00
  0.00000000E+00  0.00000000E+00  0.00000000E+00
  0.00000000E+00  0.00000000E+00  0.00000000E+00
  0.00000000E+00  0.00000000E+00  0.00000000E+00
  0.00000000E+00  0.00000000E+00  0.00000000E+00
  0.00000000E+00  0.00000000E+00  0.00000000E+00
