CONTCAR\(9)                             
   1.00000000000000     
    11.7566995620999997    0.0000000000000000    0.0000000000000000
     0.0000000000000000   11.8254995346000005    0.0000000000000000
     0.0000000000000000    0.0000000000000000   21.8330993651999989
   Zr   Te   O    H 
    12    36     1     1
Selective dynamics
Direct
  0.0797822156456078  0.3464287891095523  0.5734462999960215   F   F   F
  0.2515773187887191  0.0928397344434586  0.4251636482353902   F   F   F
  0.4196467349593576  0.3324050458460732  0.5818755607391779   F   F   F
  0.5852183559099586  0.0932346605343000  0.4254082740357816   F   F   F
  0.7529995774254630  0.3448715366751145  0.5711927802908292   F   F   F
  0.9186112777758311  0.0923793320166553  0.4226390630305588   F   F   F
  0.0851147872375364  0.8424830786686144  0.5787706114087072   F   F   F
  0.2519292952604957  0.5937269110832020  0.4254700638849798   F   F   F
  0.4168627633441773  0.8424871754323178  0.5787550220800100   F   F   F
  0.5834440895965116  0.5938909391741873  0.4247499322352155   F   F   F
  0.7515718552495159  0.8436982021066868  0.5783602286904284   F   F   F
  0.9175826242466840  0.5945117127015180  0.4232170416989192   F   F   F
  0.1753786445612420  0.2180099181208774  0.6763688484999051   F   F   F
  0.2557681150649955  0.3416492217894032  0.4783661452677634   F   F   F
  0.0869387849501564  0.2122583272731120  0.3445002971425239   F   F   F
  0.0861186707547930  0.4745254123598670  0.3450705487431804   F   F   F
  0.2432804300525930  0.4606198012350475  0.6539050665600072   F   F   F
  0.0823677041835467  0.0939210690790802  0.5248926973718824   F   F   F
  0.6408658679095396  0.2242406283869300  0.6673730283803749   F   F   F
  0.5816307738522823  0.3433730682721148  0.4764919059638615   F   F   F
  0.4185858208266495  0.2122089072923288  0.3460230626687775   F   F   F
  0.4170705194666482  0.4745354044446870  0.3451696573029821   F   F   F
  0.5830424631182538  0.4553737396480813  0.6570498244206462   F   F   F
  0.4183619235043281  0.0905640497613689  0.5270247177450997   F   F   F
  0.9321406294414558  0.2277277630050492  0.6729214651205737   F   F   F
  0.9184699801146792  0.3430263512379526  0.4723038947561022   F   F   F
  0.7501473933343590  0.2126821978477196  0.3447941715149199   F   F   F
  0.7497229053304224  0.4749879987082295  0.3440668503408730   F   F   F
  0.9123801641301412  0.4673871524194766  0.6513751274516437   F   F   F
  0.7548520555715612  0.0937266547724818  0.5256312573138118   F   F   F
  0.2507722247974584  0.7213029021927753  0.6579566295161570   F   F   F
  0.2512357819265176  0.8426502586874847  0.4766732044268451   F   F   F
  0.0859418245597681  0.7122173237584803  0.3444039568527799   F   F   F
  0.0862380903104949  0.9741360674745891  0.3441969088463708   F   F   F
  0.2496125736872017  0.9627744590077185  0.6567980914447134   F   F   F
  0.0831391676688114  0.5948085477556333  0.5248381219581049   F   F   F
  0.5872710800191854  0.7260804182406702  0.6591931246289846   F   F   F
  0.5843563805361995  0.8423572871970109  0.4770005840509697   F   F   F
  0.4177838725300234  0.7124702167598755  0.3453732395376719   F   F   F
  0.4188176640637593  0.9744188784068086  0.3459964625249015   F   F   F
  0.5820829375322703  0.9638153785968200  0.6569118275540262   F   F   F
  0.4180252522377756  0.5927152814590215  0.5278146095853700   F   F   F
  0.9185404763228959  0.7260740506647281  0.6603019737618538   F   F   F
  0.9180549978095129  0.8435423274417886  0.4760620080176778   F   F   F
  0.7499479617690596  0.7130342447089220  0.3447589670528117   F   F   F
  0.7502241583559623  0.9744277194333151  0.3443293398252010   F   F   F
  0.9178307392856340  0.9648588006281642  0.6551916886057043   F   F   F
  0.7516126969475891  0.5951930076411003  0.5252673680713542   F   F   F
  0.3835460487507589  0.2262659305323709  0.6566241481733215   T   T   T
  0.4125121122816466  0.2493819059672617  0.6959241284112259   T   T   T
 
  0.00000000E+00  0.00000000E+00  0.00000000E+00
  0.00000000E+00  0.00000000E+00  0.00000000E+00
  0.00000000E+00  0.00000000E+00  0.00000000E+00
  0.00000000E+00  0.00000000E+00  0.00000000E+00
  0.00000000E+00  0.00000000E+00  0.00000000E+00
  0.00000000E+00  0.00000000E+00  0.00000000E+00
  0.00000000E+00  0.00000000E+00  0.00000000E+00
  0.00000000E+00  0.00000000E+00  0.00000000E+00
  0.00000000E+00  0.00000000E+00  0.00000000E+00
  0.00000000E+00  0.00000000E+00  0.00000000E+00
  0.00000000E+00  0.00000000E+00  0.00000000E+00
  0.00000000E+00  0.00000000E+00  0.00000000E+00
  0.00000000E+00  0.00000000E+00  0.00000000E+00
  0.00000000E+00  0.00000000E+00  0.00000000E+00
  0.00000000E+00  0.00000000E+00  0.00000000E+00
  0.00000000E+00  0.00000000E+00  0.00000000E+00
  0.00000000E+00  0.00000000E+00  0.00000000E+00
  0.00000000E+00  0.00000000E+00  0.00000000E+00
  0.00000000E+00  0.00000000E+00  0.00000000E+00
  0.00000000E+00  0.00000000E+00  0.00000000E+00
  0.00000000E+00  0.00000000E+00  0.00000000E+00
  0.00000000E+00  0.00000000E+00  0.00000000E+00
  0.00000000E+00  0.00000000E+00  0.00000000E+00
  0.00000000E+00  0.00000000E+00  0.00000000E+00
  0.00000000E+00  0.00000000E+00  0.00000000E+00
  0.00000000E+00  0.00000000E+00  0.00000000E+00
  0.00000000E+00  0.00000000E+00  0.00000000E+00
  0.00000000E+00  0.00000000E+00  0.00000000E+00
  0.00000000E+00  0.00000000E+00  0.00000000E+00
  0.00000000E+00  0.00000000E+00  0.00000000E+00
  0.00000000E+00  0.00000000E+00  0.00000000E+00
  0.00000000E+00  0.00000000E+00  0.00000000E+00
  0.00000000E+00  0.00000000E+00  0.00000000E+00
  0.00000000E+00  0.00000000E+00  0.00000000E+00
  0.00000000E+00  0.00000000E+00  0.00000000E+00
  0.00000000E+00  0.00000000E+00  0.00000000E+00
  0.00000000E+00  0.00000000E+00  0.00000000E+00
  0.00000000E+00  0.00000000E+00  0.00000000E+00
  0.00000000E+00  0.00000000E+00  0.00000000E+00
  0.00000000E+00  0.00000000E+00  0.00000000E+00
  0.00000000E+00  0.00000000E+00  0.00000000E+00
  0.00000000E+00  0.00000000E+00  0.00000000E+00
  0.00000000E+00  0.00000000E+00  0.00000000E+00
  0.00000000E+00  0.00000000E+00  0.00000000E+00
  0.00000000E+00  0.00000000E+00  0.00000000E+00
  0.00000000E+00  0.00000000E+00  0.00000000E+00
  0.00000000E+00  0.00000000E+00  0.00000000E+00
  0.00000000E+00  0.00000000E+00  0.00000000E+00
  0.00000000E+00  0.00000000E+00  0.00000000E+00
  0.00000000E+00  0.00000000E+00  0.00000000E+00
