CONTCAR\(2)                             
   1.00000000000000     
    13.3212995528999993    0.0000000000000000    0.0000000000000000
    -6.6606497764999997   11.5365838241999992    0.0000000000000000
     0.0000000000000000    0.0000000000000000   18.1305007935000013
   Ta   S    H 
    16    32     1
Direct
  0.1705138748059752  0.0837438919925373  0.5008373233779851
  0.4132953501315793  0.0837412021594295  0.5008426408023909
  0.6686904952958919  0.0843402376479434  0.5007120085625643
  0.9157196186281572  0.0843422259807577  0.5007083508396356
  0.1662374306496912  0.3331137193248443  0.5005158834085931
  0.4102578125774818  0.3204378707256222  0.5003864136485685
  0.6669476200490672  0.3331034018836070  0.5005197575822438
  0.9157195746281607  0.3313673556473969  0.5007083508396356
  0.1705138848059760  0.5867599808134346  0.5008373233779851
  0.4102578125774818  0.5898099308518595  0.5003864136485685
  0.6796215756283478  0.5898057728141742  0.5003973083658386
  0.9162993525418994  0.5867535275337709  0.5008428429157490
  0.1667095684372364  0.8333497507186156  0.5009697767749829
  0.4132953411315821  0.8295441089721467  0.5008426408023909
  0.6669476190490706  0.8338341701654606  0.5005197575822438
  0.9162993705419009  0.8295357590081274  0.5008428429157490
  0.0001969013260033 -0.0001194567319801  0.5855346562032602
  0.0001572544412564 -0.0001132754654790  0.4160519908851534
  0.2492926786157388 -0.0014943636269285  0.5882718115305646
  0.2492248654063719 -0.0015999131913809  0.4135663299567507
  0.4997485874812028 -0.0001257062593986  0.5855397207295860
  0.4997851677163887 -0.0001074161418057  0.4160569850388314
  0.7497890927438028 -0.0005083829267783  0.5874225374299709
  0.7499255636875521 -0.0001990366149277  0.4139316460343751
  0.0005722664956150  0.2502861347478094  0.5874162937892264
  0.0002576969129457  0.2501288499564748  0.4139303381048383
  0.2482021282102120  0.2494315768016265  0.5880073709091378
  0.2478861323994443  0.2492621861525892  0.4135593576037584
  0.5012846729678128  0.2494234606439147  0.5880127780033024
  0.5014393583195214  0.2492542203360759  0.4135617307425755
  0.7497891207438051  0.2502974956705825  0.5874225374299709
  0.7499255916875545  0.2501246203024818  0.4139316460343751
  0.0001969033260034  0.5003163610579802  0.5855346562032602
  0.0001572564412566  0.5002705329067320  0.4160519908851534
  0.2482021292102156  0.4987705554085859  0.5880073709091378
  0.2478861333994479  0.4986239502468552  0.4135593576037584
  0.5000326467632619  0.5000163253816277  0.5790374695235165
  0.5000336727670855  0.5000168383835393  0.4238713731199639
  0.7506261573401740  0.4987616148745609  0.5880154897036435
  0.7507830809888074  0.4986096570150865  0.4135668106708985
  0.0015425942162211  0.7507713121081118  0.5882735988928294
  0.0016449820793247  0.7508225060396636  0.4135697763828632
  0.2492927006157406  0.7507870682426696  0.5882718115305646
  0.2492248874063737  0.7508248045977550  0.4135663299567507
  0.5012847029678152  0.7518612483239009  0.5880127780033024
  0.5014393883195238  0.7521851739834489  0.4135617307425755
  0.7506261953401772  0.7518646054656152  0.5880154897036435
  0.7507831189888106  0.7521734869737227  0.4135668106708985
  0.5000001831950346  0.5000000760975211  0.6540893666265177
 
  0.00000000E+00  0.00000000E+00  0.00000000E+00
  0.00000000E+00  0.00000000E+00  0.00000000E+00
  0.00000000E+00  0.00000000E+00  0.00000000E+00
  0.00000000E+00  0.00000000E+00  0.00000000E+00
  0.00000000E+00  0.00000000E+00  0.00000000E+00
  0.00000000E+00  0.00000000E+00  0.00000000E+00
  0.00000000E+00  0.00000000E+00  0.00000000E+00
  0.00000000E+00  0.00000000E+00  0.00000000E+00
  0.00000000E+00  0.00000000E+00  0.00000000E+00
  0.00000000E+00  0.00000000E+00  0.00000000E+00
  0.00000000E+00  0.00000000E+00  0.00000000E+00
  0.00000000E+00  0.00000000E+00  0.00000000E+00
  0.00000000E+00  0.00000000E+00  0.00000000E+00
  0.00000000E+00  0.00000000E+00  0.00000000E+00
  0.00000000E+00  0.00000000E+00  0.00000000E+00
  0.00000000E+00  0.00000000E+00  0.00000000E+00
  0.00000000E+00  0.00000000E+00  0.00000000E+00
  0.00000000E+00  0.00000000E+00  0.00000000E+00
  0.00000000E+00  0.00000000E+00  0.00000000E+00
  0.00000000E+00  0.00000000E+00  0.00000000E+00
  0.00000000E+00  0.00000000E+00  0.00000000E+00
  0.00000000E+00  0.00000000E+00  0.00000000E+00
  0.00000000E+00  0.00000000E+00  0.00000000E+00
  0.00000000E+00  0.00000000E+00  0.00000000E+00
  0.00000000E+00  0.00000000E+00  0.00000000E+00
  0.00000000E+00  0.00000000E+00  0.00000000E+00
  0.00000000E+00  0.00000000E+00  0.00000000E+00
  0.00000000E+00  0.00000000E+00  0.00000000E+00
  0.00000000E+00  0.00000000E+00  0.00000000E+00
  0.00000000E+00  0.00000000E+00  0.00000000E+00
  0.00000000E+00  0.00000000E+00  0.00000000E+00
  0.00000000E+00  0.00000000E+00  0.00000000E+00
  0.00000000E+00  0.00000000E+00  0.00000000E+00
  0.00000000E+00  0.00000000E+00  0.00000000E+00
  0.00000000E+00  0.00000000E+00  0.00000000E+00
  0.00000000E+00  0.00000000E+00  0.00000000E+00
  0.00000000E+00  0.00000000E+00  0.00000000E+00
  0.00000000E+00  0.00000000E+00  0.00000000E+00
  0.00000000E+00  0.00000000E+00  0.00000000E+00
  0.00000000E+00  0.00000000E+00  0.00000000E+00
  0.00000000E+00  0.00000000E+00  0.00000000E+00
  0.00000000E+00  0.00000000E+00  0.00000000E+00
  0.00000000E+00  0.00000000E+00  0.00000000E+00
  0.00000000E+00  0.00000000E+00  0.00000000E+00
  0.00000000E+00  0.00000000E+00  0.00000000E+00
  0.00000000E+00  0.00000000E+00  0.00000000E+00
  0.00000000E+00  0.00000000E+00  0.00000000E+00
  0.00000000E+00  0.00000000E+00  0.00000000E+00
  0.00000000E+00  0.00000000E+00  0.00000000E+00
