 Ta2 Fe2 Te6                            
   1.00000000000000     
     3.4141185633132451    0.0000000000000000    0.0000000000000000
     0.0000000000000000   10.3199336308777703    0.0000000000000000
     0.0000000000000000    0.0000000000000000   19.5949551684159999
   Ta   Fe   Te
     2     2     6
Direct
  0.2499999999614626  0.2489899107361765  0.4878049503434848
  0.7499999999677890  0.6395628085886722  0.5122032344835648
  0.7500000008262400  0.0392401241897269  0.4900212056561368
  0.2499999995669096  0.8492675068962597  0.5099667635812974
  0.7499999998939223  0.3849724883040634  0.5799927719741151
  0.2499999998704960  0.5035724703785392  0.4200158860707420
  0.7499999998071856  0.8349622757636493  0.4116055609247123
  0.2500000004363115  0.0534994432761564  0.5883885836059581
  0.2499999999013477  0.7053744511783528  0.6175422664566479
  0.7499999997683351  0.1830285206884041  0.3824587769033341
 
  0.00000000E+00  0.00000000E+00  0.00000000E+00
  0.00000000E+00  0.00000000E+00  0.00000000E+00
  0.00000000E+00  0.00000000E+00  0.00000000E+00
  0.00000000E+00  0.00000000E+00  0.00000000E+00
  0.00000000E+00  0.00000000E+00  0.00000000E+00
  0.00000000E+00  0.00000000E+00  0.00000000E+00
  0.00000000E+00  0.00000000E+00  0.00000000E+00
  0.00000000E+00  0.00000000E+00  0.00000000E+00
  0.00000000E+00  0.00000000E+00  0.00000000E+00
  0.00000000E+00  0.00000000E+00  0.00000000E+00
