CONTCAR\(4)                             
   1.00000000000000     
    12.6022996902000006    0.0000000000000000    0.0000000000000000
     6.3011498451000003   10.9139116778999998    0.0000000000000000
     0.0000000000000000    0.0000000000000000   22.1669998168999989
   Y    Ge   I    O 
    18     9    18     1
Direct
  0.1108004196125572  0.1106667265338337  0.5755936515679656
  0.0000302767547242  0.0000016389596870  0.4354169281249436
  0.4451650311652149  0.1105879032681284  0.5755087931556493
  0.3330691706065556  0.0004822390524725  0.4351245888506379
  0.7773191527729206  0.1120305134686814  0.5763432250758946
  0.6667678639568074  0.9997986059023856  0.4354052243505362
  0.1106487252004167  0.4452038319145143  0.5755767191545753
  0.0005128398624119  0.3331302526259732  0.4351719778336751
  0.4372810178663387  0.4372864089838374  0.5802340191773293
  0.3329565549754382  0.3331180881644375  0.4351945676776315
  0.7923469261617210  0.4371249459985164  0.5803425906072508
  0.6592564497583145  0.3482651592460804  0.4354777765099936
  0.1118748971378702  0.7774295473251688  0.5763805499764243
  0.9997982187838388  0.6668457937394969  0.4354203012190242
  0.4372361429228816  0.7920985239326852  0.5803181404448355
  0.3484503819047122  0.6590646196786124  0.4355800595363185
  0.7772726755398180  0.7774214228149300  0.5763479842585115
  0.6591610602421937  0.6589563008776756  0.4354258499807324
  0.2222069235040216  0.2221986495933338  0.5060953247079414
  0.5551159887096327  0.2239067397175952  0.5057525174302561
  0.8875867972031563  0.2239589412807342  0.5058018999825714
  0.2237939771391727  0.5552222568951207  0.5058318099946455
  0.5557808939680552  0.5553965030385822  0.5254499768075950
  0.8874197814196962  0.5552248619052914  0.5058122311447480
  0.2239803693859257  0.8875276607229992  0.5058111102466696
  0.5551485667120633  0.8873462331628240  0.5057507846608682
  0.8888078851896339  0.8888971203565693  0.5062382780640347
  0.0000733146008729 -0.0000803941641975  0.6663390369457042
  0.1111810064181128  0.1110039651643183  0.3454594696707407
  0.3295685133624328  0.0073494658572433  0.6695935459147730
  0.4451991175745516  0.1107253910219815  0.3456260828227899
  0.6665919726255330  0.0001831788012200  0.6661437473044712
  0.7753429396723561  0.1162058796114111  0.3476358583261352
  0.0073978293558161  0.3295290946659598  0.6696424493218697
  0.1107303426380598  0.4453462767815000  0.3456444593058720
  0.3296990593642511  0.3296813613440232  0.6692552467912682
  0.4392421898013856  0.4392494800811215  0.3411357800553956
  0.6667593830990155  0.3329929252224051  0.6675300845459576
  0.7884904844950409  0.4390688507534933  0.3409006696056675
  0.9998989474236977  0.6666913683139916  0.6661861741212215
  0.1164088054920516  0.7753525583855880  0.3476950235257568
  0.3326899301725261  0.6668999603478306  0.6674952192643707
  0.4390670977811379  0.7882289653345134  0.3408492080531342
  0.6669329723638423  0.6670642479016938  0.6673908206043387
  0.7751734960262375  0.7752301238278057  0.3474333287203735
  0.5558038382769894  0.5552867255879559  0.4368271315588725
 
  0.00000000E+00  0.00000000E+00  0.00000000E+00
  0.00000000E+00  0.00000000E+00  0.00000000E+00
  0.00000000E+00  0.00000000E+00  0.00000000E+00
  0.00000000E+00  0.00000000E+00  0.00000000E+00
  0.00000000E+00  0.00000000E+00  0.00000000E+00
  0.00000000E+00  0.00000000E+00  0.00000000E+00
  0.00000000E+00  0.00000000E+00  0.00000000E+00
  0.00000000E+00  0.00000000E+00  0.00000000E+00
  0.00000000E+00  0.00000000E+00  0.00000000E+00
  0.00000000E+00  0.00000000E+00  0.00000000E+00
  0.00000000E+00  0.00000000E+00  0.00000000E+00
  0.00000000E+00  0.00000000E+00  0.00000000E+00
  0.00000000E+00  0.00000000E+00  0.00000000E+00
  0.00000000E+00  0.00000000E+00  0.00000000E+00
  0.00000000E+00  0.00000000E+00  0.00000000E+00
  0.00000000E+00  0.00000000E+00  0.00000000E+00
  0.00000000E+00  0.00000000E+00  0.00000000E+00
  0.00000000E+00  0.00000000E+00  0.00000000E+00
  0.00000000E+00  0.00000000E+00  0.00000000E+00
  0.00000000E+00  0.00000000E+00  0.00000000E+00
  0.00000000E+00  0.00000000E+00  0.00000000E+00
  0.00000000E+00  0.00000000E+00  0.00000000E+00
  0.00000000E+00  0.00000000E+00  0.00000000E+00
  0.00000000E+00  0.00000000E+00  0.00000000E+00
  0.00000000E+00  0.00000000E+00  0.00000000E+00
  0.00000000E+00  0.00000000E+00  0.00000000E+00
  0.00000000E+00  0.00000000E+00  0.00000000E+00
  0.00000000E+00  0.00000000E+00  0.00000000E+00
  0.00000000E+00  0.00000000E+00  0.00000000E+00
  0.00000000E+00  0.00000000E+00  0.00000000E+00
  0.00000000E+00  0.00000000E+00  0.00000000E+00
  0.00000000E+00  0.00000000E+00  0.00000000E+00
  0.00000000E+00  0.00000000E+00  0.00000000E+00
  0.00000000E+00  0.00000000E+00  0.00000000E+00
  0.00000000E+00  0.00000000E+00  0.00000000E+00
  0.00000000E+00  0.00000000E+00  0.00000000E+00
  0.00000000E+00  0.00000000E+00  0.00000000E+00
  0.00000000E+00  0.00000000E+00  0.00000000E+00
  0.00000000E+00  0.00000000E+00  0.00000000E+00
  0.00000000E+00  0.00000000E+00  0.00000000E+00
  0.00000000E+00  0.00000000E+00  0.00000000E+00
  0.00000000E+00  0.00000000E+00  0.00000000E+00
  0.00000000E+00  0.00000000E+00  0.00000000E+00
  0.00000000E+00  0.00000000E+00  0.00000000E+00
  0.00000000E+00  0.00000000E+00  0.00000000E+00
  0.00000000E+00  0.00000000E+00  0.00000000E+00
