CONTCAR\(4)                             
   1.00000000000000     
    12.1478996276999993    0.0000000000000000    0.0000000000000000
     0.0000000000000000   12.1478996276999993    0.0000000000000000
     0.0000000000000000    0.0000000000000000   26.4330997467000017
   Sr   Sb   Se   F    O 
    18    18    36    18     1
Direct
  0.0056207210842068  0.1675443846136809  0.4447640166933043
  0.1715262795997682  0.0010564451008204  0.5572803048839672
  0.3379840729637950  0.1677186806044966  0.4458490723706462
  0.5047178160053319  0.0011568976828381  0.5573052447181699
  0.6707566627922534  0.1676576373491200  0.4448615165801090
  0.8386628204532041  0.0019955503807246  0.5559145798931996
  0.0057021543025031  0.5012029953240998  0.4449630088543675
  0.1720893819812707  0.3344191961925529  0.5571106018843225
  0.3387627434550025  0.5019162100071545  0.4464034044271392
  0.5049331032940423  0.3337582229572530  0.5569051621651331
  0.6711733945580460  0.5012901656930628  0.4458590437760902
  0.8404305483424342  0.3326551779095924  0.5551307283978517
  0.0052930430248762  0.8347448750309450  0.4452814902657805
  0.1719900840308094  0.6677364152930420  0.5573097311702732
  0.3388030149810987  0.8338105269591364  0.4466140061718857
  0.5078993492745889  0.6673403431375909  0.5599226365448211
  0.6708611673156060  0.8343930407423022  0.4458671485126255
  0.8400570147097136  0.6676063622453341  0.5559191483127035
  0.9984608929927593  0.1709083335080765  0.7033288416035248
  0.1727274164763281  0.0007380119177942  0.2982309320359590
  0.3393671316108741  0.1667016782758775  0.7044598470933011
  0.5057230343417757  0.0007502640477154  0.2984203791277283
  0.6656854628211195  0.1739406665737784  0.7034523817551469
  0.8393003241191396  0.0008257015667580  0.2981620398601857
  0.0003261816261025  0.4987737606143182  0.7038749338028344
  0.1728342214103984  0.3342588360234107  0.2983104964026171
  0.3183002611759493  0.4965949963025784  0.7063040076404048
  0.5053217464947340  0.3343489284548312  0.2985241997607272
  0.6702801251747805  0.5084669497085927  0.6987442346348689
  0.8392830353554039  0.3342129215824414  0.2982032996644227
  0.9976968649765640  0.8402610024040860  0.7037812483220747
  0.1724783727960617  0.6676476446111705  0.2986408847862991
  0.3262108977795612  0.8451227779127007  0.7057960668317790
  0.5056455853441728  0.6675648360477404  0.2985456758531074
  0.6713658219113892  0.8324120884485688  0.7023113122040093
  0.8389148543870015  0.6675705132210273  0.2984359675006243
  0.1722965098130572  0.0006911028542981  0.3944846226680938
  0.1525410890361849  0.9946610644339962  0.7212454929170266
  0.9869857331300945  0.1700047734145053  0.2806232424571012
  0.0041929650388427  0.1683537854617009  0.6071526168646162
  0.5039072917579607  0.0007427862424738  0.3946707061574641
  0.4914828648497244  0.9888419767684075  0.7213439305895516
  0.3202270841882682  0.1701203152376400  0.2805589214256279
  0.3376791275388455  0.1673869835348349  0.6080616597224076
  0.8377887743255317  0.0008742338539864  0.3943406046799905
  0.8244393151545729  0.9841111420954765  0.7218750120300582
  0.6530785922473861  0.1702338546345229  0.2807995186136417
  0.6709056114871134  0.1684491839544405  0.6073685441703663
  0.1723240604799977  0.3346448573504928  0.3945398958659060
  0.1565602916355856  0.3194301421567642  0.7222645113990946
  0.9868904369730513  0.5035571920491773  0.2806644796510184
  0.0064024059577016  0.5003774339022644  0.6075808314599360
  0.5039341893053083  0.3347623124687847  0.3947424493580178
  0.4921454915716598  0.3205456835193636  0.7214517478632405
  0.3201702160660754  0.5035940137914836  0.2805508653619782
  0.3390721901028069  0.5030778680898288  0.6108378747404867
  0.8379395781129039  0.3345392631179151  0.3943563126990597
  0.8234078998719503  0.3232134025233072  0.7212429085486428
  0.6532048966392020  0.5034806934035537  0.2806985340431672
  0.6793753546514856  0.4956663850676502  0.6035292895890039
  0.1721130477740788  0.6679992598678390  0.3948931770142678
  0.1552269953430187  0.6505124326047623  0.7239133300684262
  0.9869375713161112  0.8366767286961949  0.2805920937401429
  0.0040434460594915  0.8351429643989241  0.6077187816062375
  0.5046429177567152  0.6677896225774574  0.3948037488668601
  0.4663390738004021  0.6583081270386805  0.7356581985243693
  0.3199904276222718  0.8366663584759625  0.2804443597766078
  0.3384974467251204  0.8327246321939021  0.6098964940459094
  0.8378477114342022  0.6678334944677028  0.3946115059476882
  0.8306608004367039  0.6548696757159440  0.7201562760753778
  0.6533189664180681  0.8366708460301682  0.2805558968087847
  0.6751735261807087  0.8371716158302109  0.6064814918370079
  0.0058655460247953  0.0013875129671993  0.5009006401797176
  0.1717083127018763  0.1676619793603057  0.5014383842921032
  0.3382366533161442  0.0008505308442131  0.5017647924124222
  0.5045967023517126  0.1676317726407473  0.5011756404296377
  0.6710881893144064  0.0016824211369434  0.5009892886198573
  0.8385186650268174  0.1671720671143844  0.4999224409682518
  0.0067649030748445  0.3340806090304734  0.5003817795919188
  0.1721221961040231  0.5012885525762795  0.5016619072976777
  0.3383092540749788  0.3348737605125541  0.5017508763048759
  0.5047612225927467  0.5015771922652393  0.5022860952721174
  0.6714877423167201  0.3336690922329301  0.5003925792413392
  0.8398249706359203  0.5007908571816344  0.5000014704066869
  0.0062603798343544  0.6679864874533009  0.5009458494759502
  0.1717630949657717  0.8342337697832235  0.5017607275824292
  0.3396959407989976  0.6677600143698978  0.5029495809516310
  0.5050760227104777  0.8336672912104770  0.5024033699320095
  0.6719291981435759  0.6679740750838545  0.5013004916462147
  0.8387869590620542  0.8345761745238273  0.5005827455893008
  0.5612448281849254  0.6447869264426807  0.6820538201167468
 
  0.00000000E+00  0.00000000E+00  0.00000000E+00
  0.00000000E+00  0.00000000E+00  0.00000000E+00
  0.00000000E+00  0.00000000E+00  0.00000000E+00
  0.00000000E+00  0.00000000E+00  0.00000000E+00
  0.00000000E+00  0.00000000E+00  0.00000000E+00
  0.00000000E+00  0.00000000E+00  0.00000000E+00
  0.00000000E+00  0.00000000E+00  0.00000000E+00
  0.00000000E+00  0.00000000E+00  0.00000000E+00
  0.00000000E+00  0.00000000E+00  0.00000000E+00
  0.00000000E+00  0.00000000E+00  0.00000000E+00
  0.00000000E+00  0.00000000E+00  0.00000000E+00
  0.00000000E+00  0.00000000E+00  0.00000000E+00
  0.00000000E+00  0.00000000E+00  0.00000000E+00
  0.00000000E+00  0.00000000E+00  0.00000000E+00
  0.00000000E+00  0.00000000E+00  0.00000000E+00
  0.00000000E+00  0.00000000E+00  0.00000000E+00
  0.00000000E+00  0.00000000E+00  0.00000000E+00
  0.00000000E+00  0.00000000E+00  0.00000000E+00
  0.00000000E+00  0.00000000E+00  0.00000000E+00
  0.00000000E+00  0.00000000E+00  0.00000000E+00
  0.00000000E+00  0.00000000E+00  0.00000000E+00
  0.00000000E+00  0.00000000E+00  0.00000000E+00
  0.00000000E+00  0.00000000E+00  0.00000000E+00
  0.00000000E+00  0.00000000E+00  0.00000000E+00
  0.00000000E+00  0.00000000E+00  0.00000000E+00
  0.00000000E+00  0.00000000E+00  0.00000000E+00
  0.00000000E+00  0.00000000E+00  0.00000000E+00
  0.00000000E+00  0.00000000E+00  0.00000000E+00
  0.00000000E+00  0.00000000E+00  0.00000000E+00
  0.00000000E+00  0.00000000E+00  0.00000000E+00
  0.00000000E+00  0.00000000E+00  0.00000000E+00
  0.00000000E+00  0.00000000E+00  0.00000000E+00
  0.00000000E+00  0.00000000E+00  0.00000000E+00
  0.00000000E+00  0.00000000E+00  0.00000000E+00
  0.00000000E+00  0.00000000E+00  0.00000000E+00
  0.00000000E+00  0.00000000E+00  0.00000000E+00
  0.00000000E+00  0.00000000E+00  0.00000000E+00
  0.00000000E+00  0.00000000E+00  0.00000000E+00
  0.00000000E+00  0.00000000E+00  0.00000000E+00
  0.00000000E+00  0.00000000E+00  0.00000000E+00
  0.00000000E+00  0.00000000E+00  0.00000000E+00
  0.00000000E+00  0.00000000E+00  0.00000000E+00
  0.00000000E+00  0.00000000E+00  0.00000000E+00
  0.00000000E+00  0.00000000E+00  0.00000000E+00
  0.00000000E+00  0.00000000E+00  0.00000000E+00
  0.00000000E+00  0.00000000E+00  0.00000000E+00
  0.00000000E+00  0.00000000E+00  0.00000000E+00
  0.00000000E+00  0.00000000E+00  0.00000000E+00
  0.00000000E+00  0.00000000E+00  0.00000000E+00
  0.00000000E+00  0.00000000E+00  0.00000000E+00
  0.00000000E+00  0.00000000E+00  0.00000000E+00
  0.00000000E+00  0.00000000E+00  0.00000000E+00
  0.00000000E+00  0.00000000E+00  0.00000000E+00
  0.00000000E+00  0.00000000E+00  0.00000000E+00
  0.00000000E+00  0.00000000E+00  0.00000000E+00
  0.00000000E+00  0.00000000E+00  0.00000000E+00
  0.00000000E+00  0.00000000E+00  0.00000000E+00
  0.00000000E+00  0.00000000E+00  0.00000000E+00
  0.00000000E+00  0.00000000E+00  0.00000000E+00
  0.00000000E+00  0.00000000E+00  0.00000000E+00
  0.00000000E+00  0.00000000E+00  0.00000000E+00
  0.00000000E+00  0.00000000E+00  0.00000000E+00
  0.00000000E+00  0.00000000E+00  0.00000000E+00
  0.00000000E+00  0.00000000E+00  0.00000000E+00
  0.00000000E+00  0.00000000E+00  0.00000000E+00
  0.00000000E+00  0.00000000E+00  0.00000000E+00
  0.00000000E+00  0.00000000E+00  0.00000000E+00
  0.00000000E+00  0.00000000E+00  0.00000000E+00
  0.00000000E+00  0.00000000E+00  0.00000000E+00
  0.00000000E+00  0.00000000E+00  0.00000000E+00
  0.00000000E+00  0.00000000E+00  0.00000000E+00
  0.00000000E+00  0.00000000E+00  0.00000000E+00
  0.00000000E+00  0.00000000E+00  0.00000000E+00
  0.00000000E+00  0.00000000E+00  0.00000000E+00
  0.00000000E+00  0.00000000E+00  0.00000000E+00
  0.00000000E+00  0.00000000E+00  0.00000000E+00
  0.00000000E+00  0.00000000E+00  0.00000000E+00
  0.00000000E+00  0.00000000E+00  0.00000000E+00
  0.00000000E+00  0.00000000E+00  0.00000000E+00
  0.00000000E+00  0.00000000E+00  0.00000000E+00
  0.00000000E+00  0.00000000E+00  0.00000000E+00
  0.00000000E+00  0.00000000E+00  0.00000000E+00
  0.00000000E+00  0.00000000E+00  0.00000000E+00
  0.00000000E+00  0.00000000E+00  0.00000000E+00
  0.00000000E+00  0.00000000E+00  0.00000000E+00
  0.00000000E+00  0.00000000E+00  0.00000000E+00
  0.00000000E+00  0.00000000E+00  0.00000000E+00
  0.00000000E+00  0.00000000E+00  0.00000000E+00
  0.00000000E+00  0.00000000E+00  0.00000000E+00
  0.00000000E+00  0.00000000E+00  0.00000000E+00
  0.00000000E+00  0.00000000E+00  0.00000000E+00
