CONTCAR\(4)                             
   1.00000000000000     
    13.8203001021999992    0.0000000000000000    0.0000000000000000
     1.7075399424000000   15.0073707208999991    0.0000000000000000
     0.0000000000000000    0.0000000000000000   18.4675998688000007
   Nb   Ir   Se   O 
    18     2    40     1
Selective dynamics
Direct
  0.0849596932337917  0.1808587318899200  0.5047660189237959   F   F   F
  0.0052205630310311  0.9776324632493072  0.4964493141504320   F   F   F
  0.3878916361844489  0.8014894893206019  0.5001600765030076   F   F   F
  0.2828663870255426  0.6217851481294616  0.5049369748510770   F   F   F
  0.2417569566713880  0.9840394767416853  0.4982233059328252   F   F   F
  0.1895189909756922  0.4250580036489779  0.5066443442033872   F   F   F
  0.1370852969267631  0.8040396109916443  0.4987599724807836   F   F   F
  0.0394782996453316  0.6217591827856523  0.4985806790840925   F   F   F
  0.4462986234858377  0.3785984156907958  0.5157293394185984   F   F   F
  0.5854779670875203  0.1800755659400863  0.5057143565746998   F   F   F
  0.5034515703885560  0.9763662977406042  0.4946737548872733   F   F   F
  0.9069640807508890  0.8011616881237487  0.4972613294094970   F   F   F
  0.8008404453045443  0.6259710497056972  0.4996449259417020   F   F   F
  0.7571140559137035  0.9812276581713348  0.4966176071209958   F   F   F
  0.7074344215110244  0.4222849220302649  0.5037681117577577   F   F   F
  0.6620819315973492  0.8029843259650988  0.4980370720667224   F   F   F
  0.5583126047795943  0.6271620512422800  0.5063839925550724   F   F   F
  0.9515811818459667  0.3784729734020544  0.4963361433681328   F   F   F
  0.3677148156707588  0.2065694946226770  0.5031129430838703   F   F   F
  0.8691275670400174  0.2089241781231337  0.4993081913881880   F   F   F
  0.4705691705617028  0.2505543720740633  0.6056043428416586   F   F   F
  0.0806297505251266  0.3297291240256470  0.4119415550880419   F   F   F
  0.3666026879785207  0.0649853115328369  0.5757386300490595   F   F   F
  0.4817969855099307  0.1289107919391199  0.4090563493444961   F   F   F
  0.2619200282447167  0.8653662685915577  0.5949263324794600   F   F   F
  0.2180788624119714  0.2655774770065591  0.5748671783945056   F   F   F
  0.3771661243233027  0.9320484393939807  0.4038787917613362   F   F   F
  0.3254985133457424  0.3390651505630018  0.4210773308013600   F   F   F
  0.1558681762908591  0.6757077117388093  0.5981490697487004   F   F   F
  0.1114709562861975  0.0564877871598384  0.5938809109355248   F   F   F
  0.2399703373956328  0.1402585397220619  0.4254104197314632   F   F   F
  0.2783437339603552  0.7364934710493571  0.4056336614032432   F   F   F
  0.0459887590673986  0.4731009847182790  0.5877181974583436   F   F   F
  0.0133801595620753  0.8651493504463659  0.5981666750454266   F   F   F
  0.1801370124611879  0.5415372121227477  0.4093299076495356   F   F   F
  0.1330258100238950  0.9316571145516264  0.3983886075800740   F   F   F
  0.4133396269266285  0.6696099075323048  0.5951821876553396   F   F   F
  0.0317202696186882  0.7371653033211345  0.3984392720871028   F   F   F
  0.2872540489176743  0.4803278538003468  0.5995388231429786   F   F   F
  0.4347188892202425  0.5326308448047570  0.4410897969643202   F   F   F
  0.9697065709271655  0.2659828173540220  0.5986828125608170   F   F   F
  0.5743616446354807  0.3365963870213093  0.4267357485788139   F   F   F
  0.8677054629754437  0.0702907829193933  0.5762191777335843   F   F   F
  0.9831210726180188  0.1269413027962045  0.4075394462412092   F   F   F
  0.7721183417707991  0.8662650082662466  0.5952288114496440   F   F   F
  0.7217488067830473  0.2654862594131941  0.5741307255896757   F   F   F
  0.8845815262075831  0.9317799535134910  0.4000556226913261   F   F   F
  0.8230204452843779  0.3332897326325011  0.4099865112217316   F   F   F
  0.6735693781371381  0.6777227580794545  0.6001298251971932   F   F   F
  0.6158561300313750  0.0520346476047351  0.5899903250325522   F   F   F
  0.7403383016194169  0.1395548098924309  0.4249644126963190   F   F   F
  0.7858136307719121  0.7399514877265716  0.4001881396621556   F   F   F
  0.5888591701612569  0.4861142064864055  0.6046017600678439   F   F   F
  0.5166943123195225  0.8607027927773672  0.5903973291106226   F   F   F
  0.6811139458737401  0.5444769466454673  0.4109277336405697   F   F   F
  0.6363026971588255  0.9342573028367127  0.4006012544046627   F   F   F
  0.9159642980224092  0.6750850175426493  0.5972048800141820   F   F   F
  0.5315952222660627  0.7411746774212062  0.4092450383293453   F   F   F
  0.8170948907778666  0.4778480737530018  0.5913568598903680   F   F   F
  0.9301872381931418  0.5325052407136184  0.4189850780668323   F   F   F
  0.4690797717638163  0.4486864089945898  0.6064400006342021   T   T   T
 
  0.00000000E+00  0.00000000E+00  0.00000000E+00
  0.00000000E+00  0.00000000E+00  0.00000000E+00
  0.00000000E+00  0.00000000E+00  0.00000000E+00
  0.00000000E+00  0.00000000E+00  0.00000000E+00
  0.00000000E+00  0.00000000E+00  0.00000000E+00
  0.00000000E+00  0.00000000E+00  0.00000000E+00
  0.00000000E+00  0.00000000E+00  0.00000000E+00
  0.00000000E+00  0.00000000E+00  0.00000000E+00
  0.00000000E+00  0.00000000E+00  0.00000000E+00
  0.00000000E+00  0.00000000E+00  0.00000000E+00
  0.00000000E+00  0.00000000E+00  0.00000000E+00
  0.00000000E+00  0.00000000E+00  0.00000000E+00
  0.00000000E+00  0.00000000E+00  0.00000000E+00
  0.00000000E+00  0.00000000E+00  0.00000000E+00
  0.00000000E+00  0.00000000E+00  0.00000000E+00
  0.00000000E+00  0.00000000E+00  0.00000000E+00
  0.00000000E+00  0.00000000E+00  0.00000000E+00
  0.00000000E+00  0.00000000E+00  0.00000000E+00
  0.00000000E+00  0.00000000E+00  0.00000000E+00
  0.00000000E+00  0.00000000E+00  0.00000000E+00
  0.00000000E+00  0.00000000E+00  0.00000000E+00
  0.00000000E+00  0.00000000E+00  0.00000000E+00
  0.00000000E+00  0.00000000E+00  0.00000000E+00
  0.00000000E+00  0.00000000E+00  0.00000000E+00
  0.00000000E+00  0.00000000E+00  0.00000000E+00
  0.00000000E+00  0.00000000E+00  0.00000000E+00
  0.00000000E+00  0.00000000E+00  0.00000000E+00
  0.00000000E+00  0.00000000E+00  0.00000000E+00
  0.00000000E+00  0.00000000E+00  0.00000000E+00
  0.00000000E+00  0.00000000E+00  0.00000000E+00
  0.00000000E+00  0.00000000E+00  0.00000000E+00
  0.00000000E+00  0.00000000E+00  0.00000000E+00
  0.00000000E+00  0.00000000E+00  0.00000000E+00
  0.00000000E+00  0.00000000E+00  0.00000000E+00
  0.00000000E+00  0.00000000E+00  0.00000000E+00
  0.00000000E+00  0.00000000E+00  0.00000000E+00
  0.00000000E+00  0.00000000E+00  0.00000000E+00
  0.00000000E+00  0.00000000E+00  0.00000000E+00
  0.00000000E+00  0.00000000E+00  0.00000000E+00
  0.00000000E+00  0.00000000E+00  0.00000000E+00
  0.00000000E+00  0.00000000E+00  0.00000000E+00
  0.00000000E+00  0.00000000E+00  0.00000000E+00
  0.00000000E+00  0.00000000E+00  0.00000000E+00
  0.00000000E+00  0.00000000E+00  0.00000000E+00
  0.00000000E+00  0.00000000E+00  0.00000000E+00
  0.00000000E+00  0.00000000E+00  0.00000000E+00
  0.00000000E+00  0.00000000E+00  0.00000000E+00
  0.00000000E+00  0.00000000E+00  0.00000000E+00
  0.00000000E+00  0.00000000E+00  0.00000000E+00
  0.00000000E+00  0.00000000E+00  0.00000000E+00
  0.00000000E+00  0.00000000E+00  0.00000000E+00
  0.00000000E+00  0.00000000E+00  0.00000000E+00
  0.00000000E+00  0.00000000E+00  0.00000000E+00
  0.00000000E+00  0.00000000E+00  0.00000000E+00
  0.00000000E+00  0.00000000E+00  0.00000000E+00
  0.00000000E+00  0.00000000E+00  0.00000000E+00
  0.00000000E+00  0.00000000E+00  0.00000000E+00
  0.00000000E+00  0.00000000E+00  0.00000000E+00
  0.00000000E+00  0.00000000E+00  0.00000000E+00
  0.00000000E+00  0.00000000E+00  0.00000000E+00
  0.00000000E+00  0.00000000E+00  0.00000000E+00
