CONTCAR\(11)                            
   1.00000000000000     
    13.2923002242999999    0.0000000000000000    0.0000000000000000
     6.5701190447000002   11.5675693128999999    0.0000000000000000
     0.0000000000000000    0.0000000000000000   18.3850994109999988
   Nb   Ir   S    O    H 
    12     4    32     2     1
Direct
  0.2645143976847953  0.0092311016406683  0.5062582769186896
  0.5033734808538771  0.0151653468113279  0.5044402761153165
  0.4818173144357190  0.2546704162994435  0.5061255795037685
  0.7424793344141946  0.0180771257675971  0.5039450298298648
  0.9859545599000673  0.0006164418010845  0.5082218586988682
  0.9918524867964357  0.2350713385569817  0.5087990116897710
  0.2421097165114903  0.5165247981028510  0.5040355642671043
  0.4812008654619120  0.4957710001688012  0.5062930374903795
  0.4908786044596927  0.7330605747471559  0.5039249870735848
  0.7690010808158453  0.5085797906756155  0.5063417404846281
  0.0047622997916775  0.5126910151750084  0.5029877033071454
  0.9817926381711096  0.7614140484522335  0.5065414146128134
  0.2744937246073655  0.2242243257931487  0.5070342366421446
  0.7727673491305760  0.2259485840119926  0.5043199447967605
  0.2740100224527837  0.7248984638061087  0.5037847936170639
  0.7761758171816774  0.7256922297063864  0.5066555839637809
  0.3448466498224805  0.0763564228674275  0.4141171224833419
  0.0859572178222374  0.0773834052796711  0.4251831111012797
  0.0978707457396505  0.3180970908176441  0.4369639376793785
  0.3242040364562611  0.3325392477730736  0.4227924512826620
  0.1720207611192580  0.1661722891722873  0.5899166730094501
  0.4246730900625365  0.1589219948316943  0.5988249763542499
  0.4059639980691934  0.4172505746131708  0.5943000277150313
  0.1788207352926398  0.3995615978829472  0.5790998724055741
  0.8402873676344759  0.0754908785339488  0.4134152084651807
  0.5805973704587647  0.0926492991245341  0.4157822807236315
  0.5981721943402630  0.3211984239732502  0.4317480023146666
  0.8343916950910282  0.3292610359911299  0.4248157762235912
  0.6638266816151974  0.1749728994339542  0.5873813177796893
  0.9229497314028257  0.1515120847252352  0.5950769594551579
  0.9236403517241416  0.4144994547168654  0.5878995617446474
  0.6770120212949511  0.4037299453952038  0.5733590286989696
  0.3386607271530598  0.5748673212103904  0.4117401652733039
  0.0799850390866798  0.5930802201309463  0.4162000901400648
  0.0989403078301935  0.8215972904749310  0.4318652123245623
  0.3323993046317982  0.8293122371635044  0.4225548654704165
  0.1660869561677039  0.6739661575780325  0.5874320836703202
  0.4224222041109950  0.6539094488581865  0.5963539019861577
  0.4220701391045265  0.9122967311785486  0.5859564822178855
  0.1790561354846545  0.9005288635282552  0.5743651687229294
  0.8448868501072989  0.5780674478139670  0.4131852713255068
  0.5878205921355415  0.5751577881099634  0.4255959151936629
  0.5986262722968366  0.8207791121197147  0.4376605037312554
  0.8256344960389863  0.8348581491339768  0.4226704466601923
  0.6711581627385225  0.6675383494819288  0.5875248758011172
  0.9295759582986993  0.6565751454342253  0.5966205036267046
  0.9033002930589945  0.9153682594545137  0.5934813709240770
  0.6778198608266541  0.9004705298037163  0.5791298233214260
  0.8688137202933571  0.1649124070928855  0.6825481063357042
  0.8373938950631501  0.2771990936270278  0.7129756797631041
  0.7640697799570546  0.3278129821571077  0.6863443400632071
 
  0.00000000E+00  0.00000000E+00  0.00000000E+00
  0.00000000E+00  0.00000000E+00  0.00000000E+00
  0.00000000E+00  0.00000000E+00  0.00000000E+00
  0.00000000E+00  0.00000000E+00  0.00000000E+00
  0.00000000E+00  0.00000000E+00  0.00000000E+00
  0.00000000E+00  0.00000000E+00  0.00000000E+00
  0.00000000E+00  0.00000000E+00  0.00000000E+00
  0.00000000E+00  0.00000000E+00  0.00000000E+00
  0.00000000E+00  0.00000000E+00  0.00000000E+00
  0.00000000E+00  0.00000000E+00  0.00000000E+00
  0.00000000E+00  0.00000000E+00  0.00000000E+00
  0.00000000E+00  0.00000000E+00  0.00000000E+00
  0.00000000E+00  0.00000000E+00  0.00000000E+00
  0.00000000E+00  0.00000000E+00  0.00000000E+00
  0.00000000E+00  0.00000000E+00  0.00000000E+00
  0.00000000E+00  0.00000000E+00  0.00000000E+00
  0.00000000E+00  0.00000000E+00  0.00000000E+00
  0.00000000E+00  0.00000000E+00  0.00000000E+00
  0.00000000E+00  0.00000000E+00  0.00000000E+00
  0.00000000E+00  0.00000000E+00  0.00000000E+00
  0.00000000E+00  0.00000000E+00  0.00000000E+00
  0.00000000E+00  0.00000000E+00  0.00000000E+00
  0.00000000E+00  0.00000000E+00  0.00000000E+00
  0.00000000E+00  0.00000000E+00  0.00000000E+00
  0.00000000E+00  0.00000000E+00  0.00000000E+00
  0.00000000E+00  0.00000000E+00  0.00000000E+00
  0.00000000E+00  0.00000000E+00  0.00000000E+00
  0.00000000E+00  0.00000000E+00  0.00000000E+00
  0.00000000E+00  0.00000000E+00  0.00000000E+00
  0.00000000E+00  0.00000000E+00  0.00000000E+00
  0.00000000E+00  0.00000000E+00  0.00000000E+00
  0.00000000E+00  0.00000000E+00  0.00000000E+00
  0.00000000E+00  0.00000000E+00  0.00000000E+00
  0.00000000E+00  0.00000000E+00  0.00000000E+00
  0.00000000E+00  0.00000000E+00  0.00000000E+00
  0.00000000E+00  0.00000000E+00  0.00000000E+00
  0.00000000E+00  0.00000000E+00  0.00000000E+00
  0.00000000E+00  0.00000000E+00  0.00000000E+00
  0.00000000E+00  0.00000000E+00  0.00000000E+00
  0.00000000E+00  0.00000000E+00  0.00000000E+00
  0.00000000E+00  0.00000000E+00  0.00000000E+00
  0.00000000E+00  0.00000000E+00  0.00000000E+00
  0.00000000E+00  0.00000000E+00  0.00000000E+00
  0.00000000E+00  0.00000000E+00  0.00000000E+00
  0.00000000E+00  0.00000000E+00  0.00000000E+00
  0.00000000E+00  0.00000000E+00  0.00000000E+00
  0.00000000E+00  0.00000000E+00  0.00000000E+00
  0.00000000E+00  0.00000000E+00  0.00000000E+00
  0.00000000E+00  0.00000000E+00  0.00000000E+00
  0.00000000E+00  0.00000000E+00  0.00000000E+00
  0.00000000E+00  0.00000000E+00  0.00000000E+00
