CONTCAR                                 
   1.00000000000000     
    11.6593999863000004    0.0000000000000000    0.0000000000000000
    -5.8296999931000002   10.0973365810000004    0.0000000000000000
     0.0000000000000000    0.0000000000000000   24.5373001098999985
   Zn   In   S    O    H 
     9    18    36     2     1
Direct
  0.1088566181271705  0.2180752653083791  0.3248526112371419
  0.4403367555672531  0.2137600277551403  0.3226529728415025
  0.7733377235687354  0.2146725563684553  0.3236893316214069
  0.1116310382806520  0.5518364159738981  0.3236553370752223
  0.4399766963317583  0.5517124757258920  0.3225062505158029
  0.7738640503110389  0.5484794169040225  0.3033094952560558
  0.1133113159025264  0.8865629452783249  0.3249605419984069
  0.4416113781891198  0.8834209257586804  0.3214225242272089
  0.7727997894489278  0.8868287800588834  0.3253599592042022
 -0.0023462914663075 -0.0045755384588927  0.4834609150646262
  0.2213735118766570  0.1100371918357754  0.6473735023562812
  0.3314257298343154 -0.0048983318394784  0.4835827127398098
  0.5549748489482120  0.1099980466756229  0.6474129027583712
  0.6636128710521729 -0.0049119187741282  0.4836451643279291
  0.8883489914910814  0.1099770707120358  0.6473755368440994
 -0.0023107926294464  0.3289868399331111  0.4833297318063701
  0.2215671638086839  0.4432729476752161  0.6473922957155333
  0.3316945731601011  0.3288473030491176  0.4833127952027201
  0.5546082998224728  0.4430816639897655  0.6475365261411055
  0.6651207418196389  0.3301799729482482  0.4827907159003252
  0.8884816310497679  0.4431008932251898  0.6474954715559962
 -0.0039961668830313  0.6611414971141755  0.4831407769841276
  0.2213296649940507  0.7769928103955208  0.6472702183053668
  0.3315554823664021  0.6624809866428865  0.4836219936425282
  0.5548006212670641  0.7769598529902776  0.6472491309820915
  0.6650144557374690  0.6599635622538891  0.4827269849005425
  0.8881155852293233  0.7770042605738976  0.6474183077395248
  0.2191880761947254  0.1068433376777400  0.3061796732761812
  0.2199670760812785  0.1073514369585072  0.5489608646112233
  0.1090146972710360  0.2177985406631807  0.4331613240251507
  0.1103952785600366  0.2210360148552388  0.6943366626700878
  0.5528381488725992  0.1055450861044235  0.3049246229256146
  0.5540798671221440  0.1080153892910648  0.5490796725535028
  0.4414166537754896  0.2158671083760692  0.4335279423659590
  0.4434174982830886  0.2207257875012193  0.6942904577244980
  0.8870276549424692  0.1071059000777706  0.3068702555506943
  0.8872758576849580  0.1075058670225807  0.5489190973800168
  0.7747978484653995  0.2161414820560449  0.4335459416880152
  0.7771567642511442  0.2208276655645157  0.6943154824552418
  0.2191914991204663  0.4389268812725881  0.3052217963198708
  0.2202030739936204  0.4401380843915689  0.5490633047829113
  0.1099313791240723  0.5516500786517037  0.4335574796748418
  0.1108222007794490  0.5548592193782854  0.6942205698186961
  0.5521813467247558  0.4387800841542163  0.3199768835945659
  0.5529859209071301  0.4396292830053659  0.5492232723515102
  0.4415238135926371  0.5513976388451016  0.4335110639409908
  0.4438222658900685  0.5547425134071906  0.6941895767634660
  0.8869484477682251  0.4391499050316345  0.3171565044716445
  0.8874461078233338  0.4402332765095385  0.5492468718674294
  0.7761605712752934  0.5509984002339070  0.4331211710127294
  0.7771050966340678  0.5543496084381450  0.6940652772692280
  0.2193384379062558  0.7726655299868695  0.3053491705326269
  0.2199017079899972  0.7740446036610742  0.5488419039786041
  0.1091210078319180  0.8845578497250071  0.4332536830147970
  0.1103348133357362  0.8878725043770274  0.6943121348863158
  0.5532205326009302  0.7727447947867788  0.3049896549607629
  0.5544841415318641  0.7738612985476298  0.5488616037325424
  0.4422004294218346  0.8842579628816462  0.4329015151367512
  0.4434415115102097  0.8875804488237664  0.6941634490689403
  0.8881668260723725  0.7771973965591842  0.3106406333734985
  0.8873753605914476  0.7748384476256153  0.5491121891113544
  0.7751749629546267  0.8842327315703232  0.4333752304869818
  0.7768567926081058  0.8878522603054205  0.6942789988562553
  0.7715309136599604  0.5625160749797824  0.2128801907397298
  0.8297317839358808  0.6878135346130213  0.1947832873731480
  0.8632178997055873  0.7445688970153380  0.2304957587094345
 
  0.00000000E+00  0.00000000E+00  0.00000000E+00
  0.00000000E+00  0.00000000E+00  0.00000000E+00
  0.00000000E+00  0.00000000E+00  0.00000000E+00
  0.00000000E+00  0.00000000E+00  0.00000000E+00
  0.00000000E+00  0.00000000E+00  0.00000000E+00
  0.00000000E+00  0.00000000E+00  0.00000000E+00
  0.00000000E+00  0.00000000E+00  0.00000000E+00
  0.00000000E+00  0.00000000E+00  0.00000000E+00
  0.00000000E+00  0.00000000E+00  0.00000000E+00
  0.00000000E+00  0.00000000E+00  0.00000000E+00
  0.00000000E+00  0.00000000E+00  0.00000000E+00
  0.00000000E+00  0.00000000E+00  0.00000000E+00
  0.00000000E+00  0.00000000E+00  0.00000000E+00
  0.00000000E+00  0.00000000E+00  0.00000000E+00
  0.00000000E+00  0.00000000E+00  0.00000000E+00
  0.00000000E+00  0.00000000E+00  0.00000000E+00
  0.00000000E+00  0.00000000E+00  0.00000000E+00
  0.00000000E+00  0.00000000E+00  0.00000000E+00
  0.00000000E+00  0.00000000E+00  0.00000000E+00
  0.00000000E+00  0.00000000E+00  0.00000000E+00
  0.00000000E+00  0.00000000E+00  0.00000000E+00
  0.00000000E+00  0.00000000E+00  0.00000000E+00
  0.00000000E+00  0.00000000E+00  0.00000000E+00
  0.00000000E+00  0.00000000E+00  0.00000000E+00
  0.00000000E+00  0.00000000E+00  0.00000000E+00
  0.00000000E+00  0.00000000E+00  0.00000000E+00
  0.00000000E+00  0.00000000E+00  0.00000000E+00
  0.00000000E+00  0.00000000E+00  0.00000000E+00
  0.00000000E+00  0.00000000E+00  0.00000000E+00
  0.00000000E+00  0.00000000E+00  0.00000000E+00
  0.00000000E+00  0.00000000E+00  0.00000000E+00
  0.00000000E+00  0.00000000E+00  0.00000000E+00
  0.00000000E+00  0.00000000E+00  0.00000000E+00
  0.00000000E+00  0.00000000E+00  0.00000000E+00
  0.00000000E+00  0.00000000E+00  0.00000000E+00
  0.00000000E+00  0.00000000E+00  0.00000000E+00
  0.00000000E+00  0.00000000E+00  0.00000000E+00
  0.00000000E+00  0.00000000E+00  0.00000000E+00
  0.00000000E+00  0.00000000E+00  0.00000000E+00
  0.00000000E+00  0.00000000E+00  0.00000000E+00
  0.00000000E+00  0.00000000E+00  0.00000000E+00
  0.00000000E+00  0.00000000E+00  0.00000000E+00
  0.00000000E+00  0.00000000E+00  0.00000000E+00
  0.00000000E+00  0.00000000E+00  0.00000000E+00
  0.00000000E+00  0.00000000E+00  0.00000000E+00
  0.00000000E+00  0.00000000E+00  0.00000000E+00
  0.00000000E+00  0.00000000E+00  0.00000000E+00
  0.00000000E+00  0.00000000E+00  0.00000000E+00
  0.00000000E+00  0.00000000E+00  0.00000000E+00
  0.00000000E+00  0.00000000E+00  0.00000000E+00
  0.00000000E+00  0.00000000E+00  0.00000000E+00
  0.00000000E+00  0.00000000E+00  0.00000000E+00
  0.00000000E+00  0.00000000E+00  0.00000000E+00
  0.00000000E+00  0.00000000E+00  0.00000000E+00
  0.00000000E+00  0.00000000E+00  0.00000000E+00
  0.00000000E+00  0.00000000E+00  0.00000000E+00
  0.00000000E+00  0.00000000E+00  0.00000000E+00
  0.00000000E+00  0.00000000E+00  0.00000000E+00
  0.00000000E+00  0.00000000E+00  0.00000000E+00
  0.00000000E+00  0.00000000E+00  0.00000000E+00
  0.00000000E+00  0.00000000E+00  0.00000000E+00
  0.00000000E+00  0.00000000E+00  0.00000000E+00
  0.00000000E+00  0.00000000E+00  0.00000000E+00
  0.00000000E+00  0.00000000E+00  0.00000000E+00
  0.00000000E+00  0.00000000E+00  0.00000000E+00
  0.00000000E+00  0.00000000E+00  0.00000000E+00
