CONTCAR\(2)                             
   1.00000000000000     
    12.6843996047999994    0.0000000000000000    0.0000000000000000
     0.0000000000000000   11.4939002990999999    0.0000000000000000
     0.0000000000000000    0.0000000000000000   18.8276996612999987
   Nb   Si   Te   O 
    12     4    24     1
Direct
  0.0841395998051805  0.0857843897890193  0.4944622897214516
  0.3377931679842743  0.9219333443474820  0.5015389778256514
  0.3467875458687203  0.2128480191992791  0.5006318680421933
  0.0983883959912066  0.7855095496212076  0.5033138971342195
  0.4806276933113806  0.5623040934432761  0.5025329593698420
  0.2332118473374407  0.4364463554510255  0.5003882628427124
  0.5793631982788320  0.0822743154265134  0.5005067026236688
  0.8341049157405825  0.9135968184946407  0.4992575301634874
  0.8475726918206063  0.2118039849620887  0.4998400218936550
  0.5994977216899948  0.7897288293888061  0.4993512079856744
  0.9827143011513692  0.5604318872968279  0.4999761871363963
  0.7321469800982812  0.4369312607666997  0.5010368221192475
  0.0359513819982483  0.3231512134100689  0.4994065368496236
  0.2865355941953276  0.6751022757696450  0.5020035463596897
  0.5362082170004119  0.3230395873776278  0.5017146735189261
  0.7861614703618127  0.6747946661151125  0.5001208744189455
  0.4240883284398922  0.0688248164013758  0.6062437702915208
  0.1761672113342110  0.9311215034548553  0.3981650020794988
  0.1879050027836674  0.9119163818017478  0.6167217495685009
  0.4232125600537106  0.0666472602918146  0.3959650326431829
  0.3959667531117121  0.4026500196372008  0.6012653729497401
  0.1484637227173551  0.5972912612273324  0.4018745359565251
  0.1437469780807100  0.5910086718737431  0.5999449048627363
  0.3981368329624428  0.4043656380283470  0.4012589352400296
  0.1757460596092687  0.2434373925867464  0.5960630611643356
  0.4258944998284716  0.7541839486839137  0.4061931245417946
  0.4206434273539970  0.7575115919631599  0.6041618164378193
  0.1776807029643449  0.2488981081826921  0.4007487173198798
  0.9323094904999606  0.0614022751040485  0.6007744356790884
  0.6741018330603419  0.9331054830391391  0.3957543961870932
  0.6750606348421392  0.9341129518827427  0.6030600454397784
  0.9235022009263169  0.0663080992132384  0.3947383728315476
  0.8968478855162486  0.4020065886685567  0.5996499654945753
  0.6447813909109217  0.5943701876256282  0.4015140545592353
  0.6452578150290024  0.5984268278580437  0.6001422148919675
  0.8955591074325753  0.4026077554577252  0.4003289543976828
  0.6773686999208010  0.2443393070033975  0.5976783136397726
  0.9288384352598362  0.7520146165256856  0.4037284149433298
  0.9253561376571117  0.7500327057687344  0.5978622478838810
  0.6751668129789326  0.2463651466960935  0.4038889342943144
  0.2828030810923080  0.7947906981647368  0.6652912306967694
 
  0.00000000E+00  0.00000000E+00  0.00000000E+00
  0.00000000E+00  0.00000000E+00  0.00000000E+00
  0.00000000E+00  0.00000000E+00  0.00000000E+00
  0.00000000E+00  0.00000000E+00  0.00000000E+00
  0.00000000E+00  0.00000000E+00  0.00000000E+00
  0.00000000E+00  0.00000000E+00  0.00000000E+00
  0.00000000E+00  0.00000000E+00  0.00000000E+00
  0.00000000E+00  0.00000000E+00  0.00000000E+00
  0.00000000E+00  0.00000000E+00  0.00000000E+00
  0.00000000E+00  0.00000000E+00  0.00000000E+00
  0.00000000E+00  0.00000000E+00  0.00000000E+00
  0.00000000E+00  0.00000000E+00  0.00000000E+00
  0.00000000E+00  0.00000000E+00  0.00000000E+00
  0.00000000E+00  0.00000000E+00  0.00000000E+00
  0.00000000E+00  0.00000000E+00  0.00000000E+00
  0.00000000E+00  0.00000000E+00  0.00000000E+00
  0.00000000E+00  0.00000000E+00  0.00000000E+00
  0.00000000E+00  0.00000000E+00  0.00000000E+00
  0.00000000E+00  0.00000000E+00  0.00000000E+00
  0.00000000E+00  0.00000000E+00  0.00000000E+00
  0.00000000E+00  0.00000000E+00  0.00000000E+00
  0.00000000E+00  0.00000000E+00  0.00000000E+00
  0.00000000E+00  0.00000000E+00  0.00000000E+00
  0.00000000E+00  0.00000000E+00  0.00000000E+00
  0.00000000E+00  0.00000000E+00  0.00000000E+00
  0.00000000E+00  0.00000000E+00  0.00000000E+00
  0.00000000E+00  0.00000000E+00  0.00000000E+00
  0.00000000E+00  0.00000000E+00  0.00000000E+00
  0.00000000E+00  0.00000000E+00  0.00000000E+00
  0.00000000E+00  0.00000000E+00  0.00000000E+00
  0.00000000E+00  0.00000000E+00  0.00000000E+00
  0.00000000E+00  0.00000000E+00  0.00000000E+00
  0.00000000E+00  0.00000000E+00  0.00000000E+00
  0.00000000E+00  0.00000000E+00  0.00000000E+00
  0.00000000E+00  0.00000000E+00  0.00000000E+00
  0.00000000E+00  0.00000000E+00  0.00000000E+00
  0.00000000E+00  0.00000000E+00  0.00000000E+00
  0.00000000E+00  0.00000000E+00  0.00000000E+00
  0.00000000E+00  0.00000000E+00  0.00000000E+00
  0.00000000E+00  0.00000000E+00  0.00000000E+00
  0.00000000E+00  0.00000000E+00  0.00000000E+00
