 Li2 Fe2 P2                             
   1.00000000000000     
     3.6002405964451025    0.0000000000000000    0.0000000000000000
     0.0000000000000000    3.6002405313245158    0.0000000000000000
     0.0000000000000000    0.0000000000000000   19.0321873897499998
   Li   Fe   P 
     2     2     2
Direct
  0.4999999966769764  0.0000000028394282  0.6058834012225276
  0.0000000055505112  0.5000000004882637  0.3941165983454127
  0.9999999972579943  0.9999999995571827  0.4999999994361275
  0.5000000026154225  0.4999999987702495  0.5000000005835403
  0.9999999987586889  0.5000000006766072  0.5673678835182798
  0.4999999991404138  0.9999999976682687  0.4326321168941121
 
  0.00000000E+00  0.00000000E+00  0.00000000E+00
  0.00000000E+00  0.00000000E+00  0.00000000E+00
  0.00000000E+00  0.00000000E+00  0.00000000E+00
  0.00000000E+00  0.00000000E+00  0.00000000E+00
  0.00000000E+00  0.00000000E+00  0.00000000E+00
  0.00000000E+00  0.00000000E+00  0.00000000E+00
