 Nb2 Pd1 S6                             
   1.00000000000000     
     3.2548190468549119    0.0000000000000000    0.0000000000000000
    -1.6274090292621124    9.0662729334683583    0.0000000000000000
     0.0000000000000000    0.0000000000000000   18.6888558921119987
   Nb   Pd   S 
     2     1     6
Direct
  0.1493688560642769  0.2986954358207825  0.4762414467598576
  0.8506310615073247  0.7013045917481123  0.5237585510981588
  0.4999999758082256 -0.0000000100323635  0.5000000039238067
  0.3922908733543847  0.7845924758756462  0.4307955821230426
  0.6077092189803222  0.2154075185558653  0.5692044129584183
  0.2572879967631453  0.5145746531186405  0.5688860822850182
  0.7427119902876498  0.4854253679524999  0.4311139116898604
  0.5803346454917322  0.1606664870543996  0.4017068976004506
  0.4196653817429384  0.8393334799064169  0.5982931115613868
 
  0.00000000E+00  0.00000000E+00  0.00000000E+00
  0.00000000E+00  0.00000000E+00  0.00000000E+00
  0.00000000E+00  0.00000000E+00  0.00000000E+00
  0.00000000E+00  0.00000000E+00  0.00000000E+00
  0.00000000E+00  0.00000000E+00  0.00000000E+00
  0.00000000E+00  0.00000000E+00  0.00000000E+00
  0.00000000E+00  0.00000000E+00  0.00000000E+00
  0.00000000E+00  0.00000000E+00  0.00000000E+00
  0.00000000E+00  0.00000000E+00  0.00000000E+00
