CONTCAR\(3)                             
   1.00000000000000     
    11.1955995559999995    0.0000000000000000    0.0000000000000000
    -5.5977997779999997    9.6956736260999996    0.0000000000000000
     0.0000000000000000    0.0000000000000000   18.4459991455000001
   Ti   Te
     9    18
Direct
 -0.0000000000000000 -0.0000000000000000  0.5000000000000000
  0.3333299969999999  0.0000000000000000  0.5000000000000000
  0.6666700460000001 -0.0000000000000000  0.5000000000000000
  0.0000000060000005  0.3333300079999972  0.5000000000000000
  0.3333300030000004  0.3333300079999972  0.5000000000000000
  0.6666700720000023  0.3333300079999972  0.5000000000000000
  0.0000000020000002  0.6666700489999968  0.5000000000000000
  0.3333299990000000  0.6666700489999968  0.5000000000000000
  0.6666700469999967  0.6666700489999968  0.5000000000000000
  0.2222200020000002  0.1111100070000006  0.5950779147389543
  0.1111100070000006  0.2222200140000012  0.4049220592610435
  0.5555599870000023  0.1111100070000006  0.5950779147389543
  0.4444499700000009  0.2222200140000012  0.4049220592610435
  0.8888900259999986  0.1111100070000006  0.5950779147389543
  0.7777799670000007  0.2222200140000012  0.4049220592610435
  0.2222200140000012  0.4444400269999988  0.5950779147389543
  0.1111100099999973  0.5555600049999967  0.4049220592610435
  0.5555599979999997  0.4444400269999988  0.5950779147389543
  0.4444499840000020  0.5555600049999967  0.4049220592610435
  0.8888899740000014  0.4444400269999988  0.5950779147389543
  0.7777799599999966  0.5555600049999967  0.4049220592610435
  0.2222200400000034  0.7777800439999965  0.5950779147389543
  0.1111100629999981  0.8888900870000001  0.4049220592610435
  0.5555600249999983  0.7777800439999965  0.5950779147389543
  0.4444500270000020  0.8888900870000001  0.4049220592610435
  0.8888900219999982  0.7777800439999965  0.5950779147389543
  0.7777800240000019  0.8888900870000001  0.4049220592610435
 
  0.00000000E+00  0.00000000E+00  0.00000000E+00
  0.00000000E+00  0.00000000E+00  0.00000000E+00
  0.00000000E+00  0.00000000E+00  0.00000000E+00
  0.00000000E+00  0.00000000E+00  0.00000000E+00
  0.00000000E+00  0.00000000E+00  0.00000000E+00
  0.00000000E+00  0.00000000E+00  0.00000000E+00
  0.00000000E+00  0.00000000E+00  0.00000000E+00
  0.00000000E+00  0.00000000E+00  0.00000000E+00
  0.00000000E+00  0.00000000E+00  0.00000000E+00
  0.00000000E+00  0.00000000E+00  0.00000000E+00
  0.00000000E+00  0.00000000E+00  0.00000000E+00
  0.00000000E+00  0.00000000E+00  0.00000000E+00
  0.00000000E+00  0.00000000E+00  0.00000000E+00
  0.00000000E+00  0.00000000E+00  0.00000000E+00
  0.00000000E+00  0.00000000E+00  0.00000000E+00
  0.00000000E+00  0.00000000E+00  0.00000000E+00
  0.00000000E+00  0.00000000E+00  0.00000000E+00
  0.00000000E+00  0.00000000E+00  0.00000000E+00
  0.00000000E+00  0.00000000E+00  0.00000000E+00
  0.00000000E+00  0.00000000E+00  0.00000000E+00
  0.00000000E+00  0.00000000E+00  0.00000000E+00
  0.00000000E+00  0.00000000E+00  0.00000000E+00
  0.00000000E+00  0.00000000E+00  0.00000000E+00
  0.00000000E+00  0.00000000E+00  0.00000000E+00
  0.00000000E+00  0.00000000E+00  0.00000000E+00
  0.00000000E+00  0.00000000E+00  0.00000000E+00
  0.00000000E+00  0.00000000E+00  0.00000000E+00
