 Nb2 Cr2 Se10                           
   1.00000000000000     
     3.4893281502999023    0.0000000000000000    0.0000000000000000
     0.0000000000000000   10.1725296127506404    0.0000000000000000
     0.0000000000000000    0.0000000000000000   22.8060088535000034
   Nb   Cr   Se
     2     2    10
Direct
  0.7500000084230153  0.4564758383000233  0.5851621614773151
  0.2500000026386120  0.5435190187027840  0.4148372616817660
  0.2500000245713874  0.1318630292058428  0.5266681960084924
  0.7499999425797389  0.8681408096449066  0.4733340718833246
  0.7500000022700231  0.6279150144336392  0.4933032636559859
  0.2499999764828386  0.8968346754019382  0.5515513706750053
  0.2500000098615228  0.3720825165116797  0.5066964509056971
  0.7500000064766064  0.3650091327924795  0.3730983521986899
  0.2500000070195438  0.6349888886333009  0.6269000302619823
  0.2500000092886127  0.4227675073512541  0.6711418667281945
  0.2499999711697931  0.8108291101126273  0.3981381615433497
  0.7500000047002903  0.5772310539595265  0.3288562614298718
  0.7500000240963415  0.1891640691375045  0.6018609073763607
  0.7500000104216775  0.1031793358124926  0.4484528659517450
 
  0.00000000E+00  0.00000000E+00  0.00000000E+00
  0.00000000E+00  0.00000000E+00  0.00000000E+00
  0.00000000E+00  0.00000000E+00  0.00000000E+00
  0.00000000E+00  0.00000000E+00  0.00000000E+00
  0.00000000E+00  0.00000000E+00  0.00000000E+00
  0.00000000E+00  0.00000000E+00  0.00000000E+00
  0.00000000E+00  0.00000000E+00  0.00000000E+00
  0.00000000E+00  0.00000000E+00  0.00000000E+00
  0.00000000E+00  0.00000000E+00  0.00000000E+00
  0.00000000E+00  0.00000000E+00  0.00000000E+00
  0.00000000E+00  0.00000000E+00  0.00000000E+00
  0.00000000E+00  0.00000000E+00  0.00000000E+00
  0.00000000E+00  0.00000000E+00  0.00000000E+00
  0.00000000E+00  0.00000000E+00  0.00000000E+00
