 Ti1 Nb1 S4                             
   1.00000000000000     
     3.3673189603600044    0.0000000000000000    0.0000000000000000
     0.0000000000000000    5.8666093658494720    0.0000000000000000
     0.0000000000000000    0.0000000000000000   18.0196152197280028
   Ti   Nb   S 
     1     1     4
Direct
  0.5000000096856101  0.4999999991010504  0.4999999987712849
 -0.0000000115760521  0.0000000039443138  0.5000000015330671
  0.4999999905996352  0.1722186051434069  0.4163856734621795
  0.0000000069170211  0.3366961009098515  0.5816349382165739
  0.0000000016673795  0.6633038991442168  0.4183650616133065
  0.5000000027064059  0.8277813917571606  0.5836143264035881
 
  0.00000000E+00  0.00000000E+00  0.00000000E+00
  0.00000000E+00  0.00000000E+00  0.00000000E+00
  0.00000000E+00  0.00000000E+00  0.00000000E+00
  0.00000000E+00  0.00000000E+00  0.00000000E+00
  0.00000000E+00  0.00000000E+00  0.00000000E+00
  0.00000000E+00  0.00000000E+00  0.00000000E+00
