CONTCAR                                 
   1.00000000000000     
    11.2503995895000006    0.0000000000000000    0.0000000000000000
     0.0000000000000000   11.4900999068999994    0.0000000000000000
     0.0000000000000000    0.0000000000000000   19.3134994507000002
   Cr   Te   O    H 
     8    24     1     1
Direct
 -0.0019523316649447  0.6724420294473534  0.5048505352284441
  0.5058051869253213  0.8220465305330223  0.5022823758797604
 -0.0038230357503624  0.3241413793269455  0.5039360524986466
  0.4985904061524799  0.1731429474397331  0.5060338805815983
  0.2797720998614363  0.4974332439188150  0.5137124998858710
  0.7796319147267939 -0.0022007505968848  0.4957952479726234
  0.7161161200447327  0.4973418616357375  0.4961252879000728
  0.2079817677402818  0.0060077304701737  0.5123829168669581
  0.9056517982292180  0.4970462301745603  0.5862396320033373
  0.4029074590652639 -0.0011670007955805  0.4271527373531315
  0.0916256639835568  0.4980414369784154  0.4248049690474393
  0.5912375187322486 -0.0035193104774104  0.5844841219475834
  0.3253766726554055  0.1496036591221539  0.6015524123104674
  0.8253152851713859  0.3455020044320441  0.4062896466409532
  0.6740233497183074  0.8451561943562853  0.4047937771161725
  0.1615295459123601  0.6414593429043204  0.6050505225835064
  0.1674724686817198  0.3452499827936367  0.6018490585760651
  0.6671117249413574  0.1498603467056388  0.4071758193029282
  0.8290234180083206  0.6476476986922738  0.4067179078369687
  0.3169070061184527  0.8366068136849365  0.5806884080377118
  0.6203038280245106  0.3313469563749408  0.5817622760625548
  0.1148692917890245  0.1679513996528454  0.4253645289916256
  0.3759610362107786  0.6663663684908752  0.4287513006872942
  0.8752022831279106  0.8306651403230182  0.5801528667801914
  0.4399738702594353  0.4988444936182503  0.6167890340542208
  0.9371186351047436 -0.0011252946843800  0.3928589827453077
  0.5569415067555259  0.4958256523903608  0.3931467335823537
  0.0502579298880776  0.0015122713314640  0.6163868475001670
  0.6217155564490939  0.6644185803251389  0.5809999504247291
  0.1212919317311176  0.8315527286767791  0.4297898097160376
  0.3780905070225605  0.3316415102488883  0.4297079282420914
  0.8714947314569212  0.1679173914157623  0.5795094503652498
  0.3441499791112260  0.8632458841688219  0.6826144232823652
  0.4228947588157307  0.8995945579210604  0.6870083269955550
 
  0.00000000E+00  0.00000000E+00  0.00000000E+00
  0.00000000E+00  0.00000000E+00  0.00000000E+00
  0.00000000E+00  0.00000000E+00  0.00000000E+00
  0.00000000E+00  0.00000000E+00  0.00000000E+00
  0.00000000E+00  0.00000000E+00  0.00000000E+00
  0.00000000E+00  0.00000000E+00  0.00000000E+00
  0.00000000E+00  0.00000000E+00  0.00000000E+00
  0.00000000E+00  0.00000000E+00  0.00000000E+00
  0.00000000E+00  0.00000000E+00  0.00000000E+00
  0.00000000E+00  0.00000000E+00  0.00000000E+00
  0.00000000E+00  0.00000000E+00  0.00000000E+00
  0.00000000E+00  0.00000000E+00  0.00000000E+00
  0.00000000E+00  0.00000000E+00  0.00000000E+00
  0.00000000E+00  0.00000000E+00  0.00000000E+00
  0.00000000E+00  0.00000000E+00  0.00000000E+00
  0.00000000E+00  0.00000000E+00  0.00000000E+00
  0.00000000E+00  0.00000000E+00  0.00000000E+00
  0.00000000E+00  0.00000000E+00  0.00000000E+00
  0.00000000E+00  0.00000000E+00  0.00000000E+00
  0.00000000E+00  0.00000000E+00  0.00000000E+00
  0.00000000E+00  0.00000000E+00  0.00000000E+00
  0.00000000E+00  0.00000000E+00  0.00000000E+00
  0.00000000E+00  0.00000000E+00  0.00000000E+00
  0.00000000E+00  0.00000000E+00  0.00000000E+00
  0.00000000E+00  0.00000000E+00  0.00000000E+00
  0.00000000E+00  0.00000000E+00  0.00000000E+00
  0.00000000E+00  0.00000000E+00  0.00000000E+00
  0.00000000E+00  0.00000000E+00  0.00000000E+00
  0.00000000E+00  0.00000000E+00  0.00000000E+00
  0.00000000E+00  0.00000000E+00  0.00000000E+00
  0.00000000E+00  0.00000000E+00  0.00000000E+00
  0.00000000E+00  0.00000000E+00  0.00000000E+00
  0.00000000E+00  0.00000000E+00  0.00000000E+00
  0.00000000E+00  0.00000000E+00  0.00000000E+00
