CONTCAR\(3)                             
   1.00000000000000     
    12.9047002792000001    0.0000000000000000    0.0000000000000000
     0.0000000000000000   17.0116996765000010    0.0000000000000000
     0.0000000000000000    0.0000000000000000   20.7707004546999983
   Pr   I    O 
    12    30     1
Direct
  0.2504176809392445  0.1363650600129126  0.5174076102300225
  0.0836499856270297  0.8609352896006625  0.4848495935806006
  0.2470547046013822  0.6335050104173471  0.5265387695679878
  0.0847699216446992  0.3628187746083910  0.4690852779829031
  0.5828014861858383  0.1362527816026837  0.5175248738361895
  0.4166563770063590  0.8601185755148766  0.4848120206895599
  0.5863566062910734  0.6336820717895065  0.5268112371804634
  0.4163255977885247  0.3625416788593214  0.4690258620537057
  0.9168867121647888  0.1359697715509616  0.5176024378910558
  0.7495620866573927  0.8609614524295046  0.4849914513488230
  0.9162479190511572  0.6353376714486406  0.5294310489440955
  0.7489130709905462  0.3626308753921987  0.4687532741368471
  0.2500178426875207  0.3776779395701105  0.3582008763238038
  0.0838662310100966  0.6177230554402273  0.6388967255664426
  0.2503007996684884  0.9808437118134441  0.4191944745499427
  0.0842140988865305  0.0163510167204652  0.5839394308266403
  0.0806479280232532  0.5579535325733006  0.4306402518637313
  0.2516979591134516  0.4412818278587106  0.5649985240275581
  0.0837132824054556  0.2438043608441481  0.5942212401908582
  0.2500718366083104  0.7559788188164966  0.4050141128885235
  0.0835556465966730  0.1839254803707570  0.4096810887474648
  0.2505985569519610  0.8095902434518050  0.5919627433626149
  0.5828761186385278  0.3772221193005675  0.3580330852476099
  0.4167022154623209  0.6203480181652721  0.6413469492938768
  0.5830051229864106  0.9809235090320050  0.4193390616342619
  0.4165717630004368  0.0158308133861305  0.5839784169580672
  0.4168751903311604  0.5579162038665765  0.4310925523690738
  0.5820144751069957  0.4407418817559977  0.5645917185770675
  0.4165030289385430  0.2437414322077594  0.5943233190312818
  0.5831976881434481  0.7559994020128997  0.4051722576890320
  0.4165583985956920  0.1839327068042044  0.4093708796707569
  0.5829812075555916  0.8098388394004277  0.5923651501376560
  0.9169438094695103  0.3765475414679920  0.3586255331786930
  0.7497018948162705  0.6171775816788762  0.6393708156057472
  0.9165892291034422  0.9810285041428899  0.4192829868335154
  0.7495460683050278  0.0162965074217137  0.5840178398534479
  0.7519387669574270  0.5579151097814667  0.4305930278693794
  0.9165007523012612  0.4396151082387535  0.5644842671974654
  0.7497278181084617  0.2437510610703429  0.5940344792546653
  0.9162969946516283  0.7558402046348477  0.4063307466024713
  0.7498476351862194  0.1838060138799494  0.4098060633897835
  0.9166415488721396  0.8123795720369987  0.5921925074774279
  0.4171439415697075  0.5155191050278866  0.6707155823388846
 
  0.00000000E+00  0.00000000E+00  0.00000000E+00
  0.00000000E+00  0.00000000E+00  0.00000000E+00
  0.00000000E+00  0.00000000E+00  0.00000000E+00
  0.00000000E+00  0.00000000E+00  0.00000000E+00
  0.00000000E+00  0.00000000E+00  0.00000000E+00
  0.00000000E+00  0.00000000E+00  0.00000000E+00
  0.00000000E+00  0.00000000E+00  0.00000000E+00
  0.00000000E+00  0.00000000E+00  0.00000000E+00
  0.00000000E+00  0.00000000E+00  0.00000000E+00
  0.00000000E+00  0.00000000E+00  0.00000000E+00
  0.00000000E+00  0.00000000E+00  0.00000000E+00
  0.00000000E+00  0.00000000E+00  0.00000000E+00
  0.00000000E+00  0.00000000E+00  0.00000000E+00
  0.00000000E+00  0.00000000E+00  0.00000000E+00
  0.00000000E+00  0.00000000E+00  0.00000000E+00
  0.00000000E+00  0.00000000E+00  0.00000000E+00
  0.00000000E+00  0.00000000E+00  0.00000000E+00
  0.00000000E+00  0.00000000E+00  0.00000000E+00
  0.00000000E+00  0.00000000E+00  0.00000000E+00
  0.00000000E+00  0.00000000E+00  0.00000000E+00
  0.00000000E+00  0.00000000E+00  0.00000000E+00
  0.00000000E+00  0.00000000E+00  0.00000000E+00
  0.00000000E+00  0.00000000E+00  0.00000000E+00
  0.00000000E+00  0.00000000E+00  0.00000000E+00
  0.00000000E+00  0.00000000E+00  0.00000000E+00
  0.00000000E+00  0.00000000E+00  0.00000000E+00
  0.00000000E+00  0.00000000E+00  0.00000000E+00
  0.00000000E+00  0.00000000E+00  0.00000000E+00
  0.00000000E+00  0.00000000E+00  0.00000000E+00
  0.00000000E+00  0.00000000E+00  0.00000000E+00
  0.00000000E+00  0.00000000E+00  0.00000000E+00
  0.00000000E+00  0.00000000E+00  0.00000000E+00
  0.00000000E+00  0.00000000E+00  0.00000000E+00
  0.00000000E+00  0.00000000E+00  0.00000000E+00
  0.00000000E+00  0.00000000E+00  0.00000000E+00
  0.00000000E+00  0.00000000E+00  0.00000000E+00
  0.00000000E+00  0.00000000E+00  0.00000000E+00
  0.00000000E+00  0.00000000E+00  0.00000000E+00
  0.00000000E+00  0.00000000E+00  0.00000000E+00
  0.00000000E+00  0.00000000E+00  0.00000000E+00
  0.00000000E+00  0.00000000E+00  0.00000000E+00
  0.00000000E+00  0.00000000E+00  0.00000000E+00
  0.00000000E+00  0.00000000E+00  0.00000000E+00
