CONTCAR\(10)                            
   1.00000000000000     
    12.3037004471000007    0.0000000000000000    0.0000000000000000
     6.1518502235000003   10.6553171476999999    0.0000000000000000
     0.0000000000000000    0.0000000000000000   24.8090991973999984
   Mn   In   Se   O    H 
     9    18    36     2     1
Direct
  0.2308360370736979  0.2165532616359172  0.3277783041076287
  0.5702242593759547  0.2202293325996519  0.2715599858754162
  0.9044531466301035  0.2146048558334049  0.3275571562932480
  0.2313560240621290  0.5527620700296608  0.3267178756968494
  0.5630898296429743  0.5537741008566187  0.3267711455910966
  0.8976333778390954  0.5530511892058497  0.3276660009771135
  0.2327497934698030  0.8846164479175718  0.3267221015594536
  0.5645381639177888  0.8875028458138705  0.3273388605117469
  0.8999278538986152  0.8863426428582657  0.3275251955226853
  0.0047127944128408 -0.0017051517924891  0.4861936316873682
  0.1035657425549653  0.1150606179299848  0.6546259906723417
  0.3381064490791752 -0.0013300601512985  0.4858337557103079
  0.4373921636615098  0.1149468375130782  0.6540435476409689
  0.6675987697873234  0.0073092986162604  0.4839482779820563
  0.7701271256291438  0.1151431678378431  0.6540684781388718
  0.0040065371343692  0.3334704702006744  0.4876035867893516
  0.1037590349150258  0.4483834601645651  0.6538504144799768
  0.3448112990995341  0.3294828487515480  0.4830677296793764
  0.4371725020279761  0.4483653323813147  0.6538176627930308
  0.6685357599824955  0.3292951620718730  0.4822695430498563
  0.7707154186360925  0.4481227967288619  0.6536136183482888
  0.0039014867611889  0.6651233252648150  0.4871578615356367
  0.1033752734977552  0.7817373163846966  0.6546130229714360
  0.3380186412068070  0.6645824153741110  0.4859083223454294
  0.4366827171950294  0.7819170247664154  0.6545864777493926
  0.6713159872840252  0.6662877231196870  0.4872022883111902
  0.7708054416602456  0.7813068625462405  0.6537611053329199
  0.0119619717531282 -0.0050802036624849  0.2965124628380322
 -0.0076472630495389  0.0040229606754652  0.7031410868555465
  0.2253452802868151  0.2216169903829877  0.4308475263592964
  0.1146078287357161  0.1100536878934269  0.5509359346532443
  0.3429970977875423 -0.0040102651933147  0.2973249634550909
  0.3264823350884555  0.0041723654902582  0.7032016931313108
  0.5598106596644095  0.2216403471785105  0.4265365501558360
  0.4470595777090884  0.1110342992778864  0.5505528754303365
  0.6744447376285065  0.0034517441200096  0.3046523137897346
  0.6598465369275623  0.0033256460171962  0.7028088546724738
  0.8958240003760567  0.2208171345263123  0.4304613308580041
  0.7811444026078178  0.1113636414770288  0.5504991958595069
  0.0098225466640633  0.3301128524412247  0.2984267011626340
 -0.0073537648821786  0.3376529306476089  0.7028131720263739
  0.2250757776495013  0.5555523342771727  0.4302348870290607
  0.1179277714539254  0.4422239126710314  0.5502914434967481
  0.3440780116662017  0.3272717840987788  0.3053256223163312
  0.3262469392121289  0.3372858612197409  0.7026325807957822
  0.5603236249829653  0.5561149229371075  0.4301379035078283
  0.4484866970903831  0.4433661075874704  0.5502789361432399
  0.6788816490509710  0.3266738692200579  0.3065743817884805
  0.6595138326810113  0.3374905567216401  0.7026502465618459
  0.8930933831638136  0.5545819143834825  0.4308304493372925
  0.7788110273665138  0.4426725114364871  0.5498937411156878
  0.0089322739744226  0.6639845187179562  0.2986793823069256
 -0.0073368870419912  0.6701445317020355  0.7029783125660283
  0.2270345176219504  0.8874980891275923  0.4299842408199940
  0.1147878831047368  0.7767989963053405  0.5508794802193765
  0.3420833880286068  0.6632518052877187  0.2969178581567349
  0.3262746322891542  0.6700217585045657  0.7030650593732682
  0.5608305953008907  0.8878391834660134  0.4306471835197315
  0.4468016439089943  0.7774618210040820  0.5507828082365114
  0.6750734220726621  0.6645482400565306  0.2990781573094329
  0.6599255646762092  0.6701338837577278  0.7025771048492042
  0.8939316022449780  0.8869858487450899  0.4307208754569429
  0.7791454378287003  0.7811597396211541  0.5501043093223221
  0.5376890445611845  0.3004606945270722  0.2054079174228046
  0.5018952374331426  0.2077840671285917  0.1901893115778672
  0.4096558429458625  0.2556133297644079  0.1952712391700260
 
  0.00000000E+00  0.00000000E+00  0.00000000E+00
  0.00000000E+00  0.00000000E+00  0.00000000E+00
  0.00000000E+00  0.00000000E+00  0.00000000E+00
  0.00000000E+00  0.00000000E+00  0.00000000E+00
  0.00000000E+00  0.00000000E+00  0.00000000E+00
  0.00000000E+00  0.00000000E+00  0.00000000E+00
  0.00000000E+00  0.00000000E+00  0.00000000E+00
  0.00000000E+00  0.00000000E+00  0.00000000E+00
  0.00000000E+00  0.00000000E+00  0.00000000E+00
  0.00000000E+00  0.00000000E+00  0.00000000E+00
  0.00000000E+00  0.00000000E+00  0.00000000E+00
  0.00000000E+00  0.00000000E+00  0.00000000E+00
  0.00000000E+00  0.00000000E+00  0.00000000E+00
  0.00000000E+00  0.00000000E+00  0.00000000E+00
  0.00000000E+00  0.00000000E+00  0.00000000E+00
  0.00000000E+00  0.00000000E+00  0.00000000E+00
  0.00000000E+00  0.00000000E+00  0.00000000E+00
  0.00000000E+00  0.00000000E+00  0.00000000E+00
  0.00000000E+00  0.00000000E+00  0.00000000E+00
  0.00000000E+00  0.00000000E+00  0.00000000E+00
  0.00000000E+00  0.00000000E+00  0.00000000E+00
  0.00000000E+00  0.00000000E+00  0.00000000E+00
  0.00000000E+00  0.00000000E+00  0.00000000E+00
  0.00000000E+00  0.00000000E+00  0.00000000E+00
  0.00000000E+00  0.00000000E+00  0.00000000E+00
  0.00000000E+00  0.00000000E+00  0.00000000E+00
  0.00000000E+00  0.00000000E+00  0.00000000E+00
  0.00000000E+00  0.00000000E+00  0.00000000E+00
  0.00000000E+00  0.00000000E+00  0.00000000E+00
  0.00000000E+00  0.00000000E+00  0.00000000E+00
  0.00000000E+00  0.00000000E+00  0.00000000E+00
  0.00000000E+00  0.00000000E+00  0.00000000E+00
  0.00000000E+00  0.00000000E+00  0.00000000E+00
  0.00000000E+00  0.00000000E+00  0.00000000E+00
  0.00000000E+00  0.00000000E+00  0.00000000E+00
  0.00000000E+00  0.00000000E+00  0.00000000E+00
  0.00000000E+00  0.00000000E+00  0.00000000E+00
  0.00000000E+00  0.00000000E+00  0.00000000E+00
  0.00000000E+00  0.00000000E+00  0.00000000E+00
  0.00000000E+00  0.00000000E+00  0.00000000E+00
  0.00000000E+00  0.00000000E+00  0.00000000E+00
  0.00000000E+00  0.00000000E+00  0.00000000E+00
  0.00000000E+00  0.00000000E+00  0.00000000E+00
  0.00000000E+00  0.00000000E+00  0.00000000E+00
  0.00000000E+00  0.00000000E+00  0.00000000E+00
  0.00000000E+00  0.00000000E+00  0.00000000E+00
  0.00000000E+00  0.00000000E+00  0.00000000E+00
  0.00000000E+00  0.00000000E+00  0.00000000E+00
  0.00000000E+00  0.00000000E+00  0.00000000E+00
  0.00000000E+00  0.00000000E+00  0.00000000E+00
  0.00000000E+00  0.00000000E+00  0.00000000E+00
  0.00000000E+00  0.00000000E+00  0.00000000E+00
  0.00000000E+00  0.00000000E+00  0.00000000E+00
  0.00000000E+00  0.00000000E+00  0.00000000E+00
  0.00000000E+00  0.00000000E+00  0.00000000E+00
  0.00000000E+00  0.00000000E+00  0.00000000E+00
  0.00000000E+00  0.00000000E+00  0.00000000E+00
  0.00000000E+00  0.00000000E+00  0.00000000E+00
  0.00000000E+00  0.00000000E+00  0.00000000E+00
  0.00000000E+00  0.00000000E+00  0.00000000E+00
  0.00000000E+00  0.00000000E+00  0.00000000E+00
  0.00000000E+00  0.00000000E+00  0.00000000E+00
  0.00000000E+00  0.00000000E+00  0.00000000E+00
  0.00000000E+00  0.00000000E+00  0.00000000E+00
  0.00000000E+00  0.00000000E+00  0.00000000E+00
  0.00000000E+00  0.00000000E+00  0.00000000E+00
