CONTCAR                                 
   1.00000000000000     
    13.9937000274999992    0.0000000000000000    0.0000000000000000
     0.0000000000000000   12.1743001938000006    0.0000000000000000
     0.0000000000000000    0.0000000000000000   22.0200004577999984
   Ta   Se   O 
    16    48     1
Direct
  0.0613949443861821  0.9934140576126510  0.4175273692309973
  0.1859612464922961  0.8544037087296209  0.5835880107712745
  0.0609575996775653  0.5868057867139516  0.4752253599382534
  0.1828605899504400  0.2606616664171432  0.5240514792029229
  0.3120476347136763  0.9935689736851225  0.4192179206216799
  0.4372726577296993  0.8526141160229028  0.5838108454692565
  0.3103934950192608  0.5866283920984239  0.4772095452883680
  0.4348832919556703  0.2639150846828666  0.5311263887838675
  0.5614519093596088  0.9935665412286691  0.4195341037080852
  0.6889307487129470  0.8552448239955633  0.5838422812842243
  0.5635949159634372  0.5871664177735847  0.4785262318489467
  0.6911617205290860  0.2584291512661617  0.5256268512944587
  0.8117613912827090  0.9932933611201549  0.4173259174570437
  0.9372359733909165  0.8547873602116907  0.5833197281517134
  0.8139854791589537  0.5866706719449936  0.4752322400714818
  0.9367018386823097  0.2608866484893231  0.5238391966757883
  0.0621955011527051  0.8141971574117772  0.4942578032929770
  0.1861788356963688  0.0328084010188272  0.5070069827849204
  0.0617357247985905  0.9847865972367051  0.6396763516211402
  0.1874566485751430  0.8646129012947421  0.3618019656283526
  0.1857928287235830  0.4365747663924733  0.4396854848092466
  0.0571746349251938  0.4128597776251708  0.5590678884831125
  0.1845365710068555  0.6308341936013953  0.5644914990748343
  0.0599736563790596  0.2167019635099935  0.4352281345976618
  0.1877437347914254  0.0768728815934525  0.3427803566473576
  0.0618556454855700  0.7721412784366644  0.6596053591852142
  0.1873214708868053  0.6557274030466160  0.3943977528503229
  0.0603134191210624  0.1932697624602531  0.6067520635859180
  0.3119334573401920  0.8134595283112319  0.4951492726033397
  0.4366529639735612  0.0319468155439349  0.5084626541635977
  0.3118242980702171  0.9824923736370179  0.6400388789637592
  0.4369776991901245  0.8633858819320925  0.3630039263071998
  0.4384156694324940  0.4346913432006580  0.4471638639918443
  0.2927238878202065  0.4155983562629938  0.5611735784250436
  0.4361516410660508  0.6305820155561296  0.5657569504977900
  0.3112984969264434  0.2173599490859852  0.4390767505474938
  0.4369525137597998  0.0764090736500798  0.3436004315347384
  0.3116420099008439  0.7707747672446190  0.6595218976385938
  0.4376316397779541  0.6541114452139948  0.3962954248761961
  0.3081619423409470  0.1918526720994419  0.6083139449171868
  0.5627906724427948  0.8138828296547844  0.4953419429765019
  0.6885213718108536  0.0326362688255797  0.5070502953632549
  0.5640516963450927  0.9820273132781795  0.6398806468238923
  0.6859693850264894  0.8637191781741312  0.3621742165761446
  0.6871229388072732  0.4349365177905801  0.4415419816998187
  0.5873407064605818  0.4289972045350798  0.5684547018640973
  0.6915839887754571  0.6348274783625064  0.5643686599790489
  0.5587997204720272  0.2179717711712564  0.4410749841733607
  0.6849566204000078  0.0772453256691276  0.3430071369332383
  0.5628021627793643  0.7697635908419411  0.6593454248987412
  0.6868775193497390  0.6547190035426925  0.3946466269190726
  0.5668816505526197  0.1852690861324458  0.6073530103893710
  0.8132273383638899  0.8143596418933323  0.4942155548582408
  0.9368917006506533  0.0333935575607178  0.5061767652460349
  0.8134198022833389  0.9848751327393224  0.6401780994219431
  0.9366102742280911  0.8642979233027072  0.3607337054482635
  0.9370352480140076  0.4345934004607433  0.4392494033177234
  0.8140899232519361  0.4134857851352126  0.5595927772297634
  0.9371990041025822  0.6311710027997932  0.5641675525123536
  0.8101430502994053  0.2163433679393462  0.4356910510058065
  0.9366215813537822  0.0759868288685126  0.3410241268867087
  0.8132310807643383  0.7725183614263483  0.6600796383096561
  0.9371610017485675  0.6555291829142107  0.3932888290461142
  0.8141279882876843  0.1926490974731486  0.6073972879428965
  0.4668632982834521  0.3813131411492605  0.5904334383518197
 
  0.00000000E+00  0.00000000E+00  0.00000000E+00
  0.00000000E+00  0.00000000E+00  0.00000000E+00
  0.00000000E+00  0.00000000E+00  0.00000000E+00
  0.00000000E+00  0.00000000E+00  0.00000000E+00
  0.00000000E+00  0.00000000E+00  0.00000000E+00
  0.00000000E+00  0.00000000E+00  0.00000000E+00
  0.00000000E+00  0.00000000E+00  0.00000000E+00
  0.00000000E+00  0.00000000E+00  0.00000000E+00
  0.00000000E+00  0.00000000E+00  0.00000000E+00
  0.00000000E+00  0.00000000E+00  0.00000000E+00
  0.00000000E+00  0.00000000E+00  0.00000000E+00
  0.00000000E+00  0.00000000E+00  0.00000000E+00
  0.00000000E+00  0.00000000E+00  0.00000000E+00
  0.00000000E+00  0.00000000E+00  0.00000000E+00
  0.00000000E+00  0.00000000E+00  0.00000000E+00
  0.00000000E+00  0.00000000E+00  0.00000000E+00
  0.00000000E+00  0.00000000E+00  0.00000000E+00
  0.00000000E+00  0.00000000E+00  0.00000000E+00
  0.00000000E+00  0.00000000E+00  0.00000000E+00
  0.00000000E+00  0.00000000E+00  0.00000000E+00
  0.00000000E+00  0.00000000E+00  0.00000000E+00
  0.00000000E+00  0.00000000E+00  0.00000000E+00
  0.00000000E+00  0.00000000E+00  0.00000000E+00
  0.00000000E+00  0.00000000E+00  0.00000000E+00
  0.00000000E+00  0.00000000E+00  0.00000000E+00
  0.00000000E+00  0.00000000E+00  0.00000000E+00
  0.00000000E+00  0.00000000E+00  0.00000000E+00
  0.00000000E+00  0.00000000E+00  0.00000000E+00
  0.00000000E+00  0.00000000E+00  0.00000000E+00
  0.00000000E+00  0.00000000E+00  0.00000000E+00
  0.00000000E+00  0.00000000E+00  0.00000000E+00
  0.00000000E+00  0.00000000E+00  0.00000000E+00
  0.00000000E+00  0.00000000E+00  0.00000000E+00
  0.00000000E+00  0.00000000E+00  0.00000000E+00
  0.00000000E+00  0.00000000E+00  0.00000000E+00
  0.00000000E+00  0.00000000E+00  0.00000000E+00
  0.00000000E+00  0.00000000E+00  0.00000000E+00
  0.00000000E+00  0.00000000E+00  0.00000000E+00
  0.00000000E+00  0.00000000E+00  0.00000000E+00
  0.00000000E+00  0.00000000E+00  0.00000000E+00
  0.00000000E+00  0.00000000E+00  0.00000000E+00
  0.00000000E+00  0.00000000E+00  0.00000000E+00
  0.00000000E+00  0.00000000E+00  0.00000000E+00
  0.00000000E+00  0.00000000E+00  0.00000000E+00
  0.00000000E+00  0.00000000E+00  0.00000000E+00
  0.00000000E+00  0.00000000E+00  0.00000000E+00
  0.00000000E+00  0.00000000E+00  0.00000000E+00
  0.00000000E+00  0.00000000E+00  0.00000000E+00
  0.00000000E+00  0.00000000E+00  0.00000000E+00
  0.00000000E+00  0.00000000E+00  0.00000000E+00
  0.00000000E+00  0.00000000E+00  0.00000000E+00
  0.00000000E+00  0.00000000E+00  0.00000000E+00
  0.00000000E+00  0.00000000E+00  0.00000000E+00
  0.00000000E+00  0.00000000E+00  0.00000000E+00
  0.00000000E+00  0.00000000E+00  0.00000000E+00
  0.00000000E+00  0.00000000E+00  0.00000000E+00
  0.00000000E+00  0.00000000E+00  0.00000000E+00
  0.00000000E+00  0.00000000E+00  0.00000000E+00
  0.00000000E+00  0.00000000E+00  0.00000000E+00
  0.00000000E+00  0.00000000E+00  0.00000000E+00
  0.00000000E+00  0.00000000E+00  0.00000000E+00
  0.00000000E+00  0.00000000E+00  0.00000000E+00
  0.00000000E+00  0.00000000E+00  0.00000000E+00
  0.00000000E+00  0.00000000E+00  0.00000000E+00
  0.00000000E+00  0.00000000E+00  0.00000000E+00
