 Cu1 Ag1 O2                             
   1.00000000000000     
     2.7720467973720484    0.0000000000000000    0.0000000000000000
     0.0000000000000000    5.8751834230756907    0.0000000000000000
     0.0000000000000000    0.0000000000000000   16.5046358818719980
   Cu   Ag   O 
     1     1     2
Direct
  0.0000000005172489  0.8589673291138101  0.4999713213654076
  0.5000000002839315  0.3589945115356460  0.5000154550431426
  0.4999999997055553  0.6859376220004066  0.5418560595822116
  0.4999999994932624  0.0320525373501303  0.4581571640092341
 
  0.00000000E+00  0.00000000E+00  0.00000000E+00
  0.00000000E+00  0.00000000E+00  0.00000000E+00
  0.00000000E+00  0.00000000E+00  0.00000000E+00
  0.00000000E+00  0.00000000E+00  0.00000000E+00
