CONTCAR\(2)                             
   1.00000000000000     
    12.0100002288999992    0.0000000000000000    0.0000000000000000
     0.0000000000000000   13.6953001021999992    0.0000000000000000
     0.0000000000000000    0.0000000000000000   20.2971992493000002
   Hf   Te   O    H 
     6    30     1     1
Direct
  0.1664451235248599  0.0000110561993066  0.5489841514485471
  0.0004730237040645  0.5000765747096152  0.4506244148288344
  0.4999131118649967  0.0000170321231457  0.5491543604289996
  0.3333837316430477  0.5002838908176924  0.4493579930827302
  0.8332214030946432  0.9999662187261417  0.5489454308504527
  0.6655842172958740  0.5000909628968488  0.4504130148128844
 -0.0001806773538422  0.6827907607884295  0.5293108978201794
  0.1664359249288498  0.8167243282929855  0.4712544199269758
  0.1668612733189241  0.4998966206855587  0.5611756932590148
  0.9998482455216132  0.9998772152492141  0.4388919470083494
  0.1659940139899852  0.6023857491006892  0.3691419372050818
  0.9998600555077048  0.8982489134123833  0.6308208883898758
  0.9998560821513823  0.1017788067483419  0.6308007539728474
  0.1663187073909196  0.3993755839859916  0.3683585609395557
 -0.0000584386859912  0.3168279910625329  0.5288896762024095
  0.1665518612329458  0.1830820215920242  0.4709730756052070
  0.3331561107853947  0.6823951310478092  0.5287480751473123
  0.4999757884607413  0.8167164814589084  0.4714572141288537
  0.4995361921349951  0.4998204660736975  0.5612114218974742
  0.3333040398571135  0.9999425574876738  0.4389377934496118
  0.5000882136918381  0.6026587932314147  0.3692560463159045
  0.3330669876760611  0.8984140519552591  0.6309832402453009
  0.3331227489162598  0.1016824439595266  0.6309256028402657
  0.4996824530877356  0.3990967437776902  0.3683026772801555
  0.3330540984340453  0.3175856129971714  0.5284299457630806
  0.4998236412554711  0.1830857279311890  0.4711207645395695
  0.6665675209471771  0.6825943780659203  0.5293296550340403
  0.8330996524169744  0.8165362353711599  0.4711813638438627
  0.8331638482204146  0.4999153317520885  0.5614056462485465
  0.6665940509223838  0.9999070765062068  0.4388795112819872
  0.8332443752280086  0.6013540407273187  0.3685163029310689
  0.6666167450589198  0.8982428454878835  0.6309037967821832
  0.6666495996676440  0.1017265390739912  0.6308825612379493
  0.8332174061090424  0.3986640209382820  0.3685346011345567
  0.6662162413145069  0.3171094554382166  0.5289055643931625
  0.8330536078576593  0.1832093621905640  0.4710003069062668
  0.3387618627400668  0.4967168574255242  0.2841049772881487
  0.3372271600875640  0.4950320747115844  0.2358357445287915
 
  0.00000000E+00  0.00000000E+00  0.00000000E+00
  0.00000000E+00  0.00000000E+00  0.00000000E+00
  0.00000000E+00  0.00000000E+00  0.00000000E+00
  0.00000000E+00  0.00000000E+00  0.00000000E+00
  0.00000000E+00  0.00000000E+00  0.00000000E+00
  0.00000000E+00  0.00000000E+00  0.00000000E+00
  0.00000000E+00  0.00000000E+00  0.00000000E+00
  0.00000000E+00  0.00000000E+00  0.00000000E+00
  0.00000000E+00  0.00000000E+00  0.00000000E+00
  0.00000000E+00  0.00000000E+00  0.00000000E+00
  0.00000000E+00  0.00000000E+00  0.00000000E+00
  0.00000000E+00  0.00000000E+00  0.00000000E+00
  0.00000000E+00  0.00000000E+00  0.00000000E+00
  0.00000000E+00  0.00000000E+00  0.00000000E+00
  0.00000000E+00  0.00000000E+00  0.00000000E+00
  0.00000000E+00  0.00000000E+00  0.00000000E+00
  0.00000000E+00  0.00000000E+00  0.00000000E+00
  0.00000000E+00  0.00000000E+00  0.00000000E+00
  0.00000000E+00  0.00000000E+00  0.00000000E+00
  0.00000000E+00  0.00000000E+00  0.00000000E+00
  0.00000000E+00  0.00000000E+00  0.00000000E+00
  0.00000000E+00  0.00000000E+00  0.00000000E+00
  0.00000000E+00  0.00000000E+00  0.00000000E+00
  0.00000000E+00  0.00000000E+00  0.00000000E+00
  0.00000000E+00  0.00000000E+00  0.00000000E+00
  0.00000000E+00  0.00000000E+00  0.00000000E+00
  0.00000000E+00  0.00000000E+00  0.00000000E+00
  0.00000000E+00  0.00000000E+00  0.00000000E+00
  0.00000000E+00  0.00000000E+00  0.00000000E+00
  0.00000000E+00  0.00000000E+00  0.00000000E+00
  0.00000000E+00  0.00000000E+00  0.00000000E+00
  0.00000000E+00  0.00000000E+00  0.00000000E+00
  0.00000000E+00  0.00000000E+00  0.00000000E+00
  0.00000000E+00  0.00000000E+00  0.00000000E+00
  0.00000000E+00  0.00000000E+00  0.00000000E+00
  0.00000000E+00  0.00000000E+00  0.00000000E+00
  0.00000000E+00  0.00000000E+00  0.00000000E+00
  0.00000000E+00  0.00000000E+00  0.00000000E+00
