CONTCAR                                 
   1.00000000000000     
    14.5194997787000002    0.0000000000000000    0.0000000000000000
     0.0000000000000000   10.2968997954999999    0.0000000000000000
     0.0000000000000000    0.0000000000000000   22.7084999084000003
   K    Ru   Br   O 
     8     4    24     1
Direct
  0.4098757608074579  0.7463490067054923  0.5826906638474431
  0.1522160255095361  0.2475428104880984  0.4279669548248791
  0.1522856557498081  0.7525290073681810  0.4279880978870059
  0.4099953354191436  0.2537255128433700  0.5826821013490145
  0.9089977777824221  0.7322003223597343  0.5701741574874051
  0.6588422429385761  0.2362172674911977  0.4297044302641317
  0.6587825876973813  0.7637676063913592  0.4296591333511606
  0.9089382516169290  0.2677590481283395  0.5702366433959989
  0.1594415208189480  0.5000066737762662  0.5811970478275628
  0.4149020158734617  0.0000977361938952  0.4208525622115819
  0.6575203767794825  0.5000013634258960  0.5838257590862764
  0.9072560717436131 -0.0001627663259334  0.4170318708660848
  0.0351472095097362  0.5000001560240641  0.6557048355457759
  0.4126065439724738  0.2443087053649790  0.4198599289954319
  0.5374614191654677  0.0000703375976505  0.4974917593766987
  0.1587880855893891  0.2560250782660184  0.5817617666650761
  0.0396427867157421  0.4999965184692357  0.4985900155822728
  0.4125876899138289  0.7559254586194895  0.4198353359400619
  0.2697597513181427  0.0000202535356835  0.3606889426889886
  0.2782487803414508  0.4999874629013326  0.4999981608130035
  0.2961150417555059  0.0001292991032093  0.5023306090822126
  0.1588335328992437  0.7440200229220717  0.5817922558960389
  0.5237874422208828 -0.0000012762067699  0.3377884294270084
  0.2816280138567471  0.4998976025780614  0.6572507716688175
  0.5373608565421309  0.4999024232336367  0.6610680965839181
  0.9065771827252062  0.2441975301357628  0.4156960826776575
  0.0327023816049045  0.9999739510822704  0.4956323361473217
  0.6588103601753097  0.2557100757739589  0.5852407437755561
  0.5369180588822658  0.5001690974940016  0.5042441894154398
  0.9068794029760531  0.7555029941374102  0.4155480658014647
  0.7772741475025523 -0.0000962800795410  0.3461456617982554
  0.7738993931631784  0.5002039487199585  0.4995390195294915
  0.7961463413589926  0.9996290125973137  0.5033042341657934
  0.6587536970538871  0.7442927380939572  0.5854034027262622
  0.0251201211660206  0.0002378948195193  0.3385301830217656
  0.7849404466575370  0.4997835380382669  0.6566917851850014
  0.3450876651966033  0.0000796499325862  0.5733439010921749
 
  0.00000000E+00  0.00000000E+00  0.00000000E+00
  0.00000000E+00  0.00000000E+00  0.00000000E+00
  0.00000000E+00  0.00000000E+00  0.00000000E+00
  0.00000000E+00  0.00000000E+00  0.00000000E+00
  0.00000000E+00  0.00000000E+00  0.00000000E+00
  0.00000000E+00  0.00000000E+00  0.00000000E+00
  0.00000000E+00  0.00000000E+00  0.00000000E+00
  0.00000000E+00  0.00000000E+00  0.00000000E+00
  0.00000000E+00  0.00000000E+00  0.00000000E+00
  0.00000000E+00  0.00000000E+00  0.00000000E+00
  0.00000000E+00  0.00000000E+00  0.00000000E+00
  0.00000000E+00  0.00000000E+00  0.00000000E+00
  0.00000000E+00  0.00000000E+00  0.00000000E+00
  0.00000000E+00  0.00000000E+00  0.00000000E+00
  0.00000000E+00  0.00000000E+00  0.00000000E+00
  0.00000000E+00  0.00000000E+00  0.00000000E+00
  0.00000000E+00  0.00000000E+00  0.00000000E+00
  0.00000000E+00  0.00000000E+00  0.00000000E+00
  0.00000000E+00  0.00000000E+00  0.00000000E+00
  0.00000000E+00  0.00000000E+00  0.00000000E+00
  0.00000000E+00  0.00000000E+00  0.00000000E+00
  0.00000000E+00  0.00000000E+00  0.00000000E+00
  0.00000000E+00  0.00000000E+00  0.00000000E+00
  0.00000000E+00  0.00000000E+00  0.00000000E+00
  0.00000000E+00  0.00000000E+00  0.00000000E+00
  0.00000000E+00  0.00000000E+00  0.00000000E+00
  0.00000000E+00  0.00000000E+00  0.00000000E+00
  0.00000000E+00  0.00000000E+00  0.00000000E+00
  0.00000000E+00  0.00000000E+00  0.00000000E+00
  0.00000000E+00  0.00000000E+00  0.00000000E+00
  0.00000000E+00  0.00000000E+00  0.00000000E+00
  0.00000000E+00  0.00000000E+00  0.00000000E+00
  0.00000000E+00  0.00000000E+00  0.00000000E+00
  0.00000000E+00  0.00000000E+00  0.00000000E+00
  0.00000000E+00  0.00000000E+00  0.00000000E+00
  0.00000000E+00  0.00000000E+00  0.00000000E+00
  0.00000000E+00  0.00000000E+00  0.00000000E+00
