CONTCAR\(11)                            
   1.00000000000000     
    11.4335002898999996    0.0000000000000000    0.0000000000000000
     5.7167501449999998    9.9017017052000007    0.0000000000000000
     0.0000000000000000    0.0000000000000000   21.6627006530999999
   Zr   Te   P    O 
    18    18     9     1
Direct
  0.1063960816981521  0.1136398930582417  0.5662090502036180
  0.9968930971381138  0.0004341377964906  0.4343060362734045
  0.4405080119429033  0.1129167556541861  0.5683306732113163
  0.3302661360447753  0.0015744979196502  0.4350052813206772
  0.7824589731840941  0.1041943910947223  0.5653014008996018
  0.6629235384734338  0.0019032447442150  0.4356227084350505
  0.1048929871237971  0.4471630741730852  0.5656639963548824
  0.9969150379160198  0.3354556050503678  0.4342357817002976
  0.4477054374901859  0.4431045880717238  0.5778847699196630
  0.3319321244578081  0.3334265002040275  0.4359773970412273
  0.7830052220812391  0.4459633870966345  0.5653740250515875
  0.6646742364402435  0.3340833653609310  0.4373713379321953
  0.1046476378363443  0.7812297023489471  0.5656937443016012
  0.9959061600989133  0.6685941350327964  0.4344243550549274
  0.4405457148003002  0.7801730455936063  0.5682360728511401
  0.3320548562542363  0.6677704521842103  0.4361351562761381
  0.7738821878960960  0.7795661623786053  0.5664213292544815
  0.6629468702621194  0.6682682761194642  0.4356320437894122
  0.0007613998927618  0.9989982796338081  0.6566898615956519
  0.1085589606566897  0.1121472399377818  0.3465790981232309
  0.3274109515013522  0.0030511307977136  0.6559943062566254
  0.4415311590469488  0.1133597209129947  0.3469833680002319
  0.6660181091818167  0.0014809946163992  0.6558093710222908
  0.7733355617113824  0.1136156958959718  0.3472398390970932
  0.0012843050061982  0.3338008186741563  0.6568400042534548
  0.1105855766886160  0.4452413786636510  0.3467813876520930
  0.3153148117205152  0.3314292344426963  0.6571740030518706
  0.4432612660993689  0.4449232707782715  0.3483649069892120
  0.7238371336100445  0.3045234890914412  0.6644579253961934
  0.7729413023931011  0.4460242583883026  0.3472878696340663
  0.9960995990726024  0.6685234221942408  0.6549475549391045
  0.1109472670390635  0.7768402206528232  0.3469030734227534
  0.3146230352225695  0.6882555012892526  0.6572959397845773
  0.4414222148182598  0.7784782680977859  0.3471517725124658
  0.6662847792151486  0.6651665268496826  0.6557812547077432
  0.7728603098455401  0.7800815151989231  0.3469025823677173
  0.2195382954490167  0.2231985265417891  0.5010214449968178
  0.5519444699261951  0.2259682519346237  0.5043236607012919
  0.8877922559637849  0.2224760288986254  0.5002710384936460
  0.2233417874991606  0.5549303459960128  0.5028623182287222
  0.5523985493006511  0.5550928143246253  0.5043851236781589
  0.8863076448486780  0.5583075192657139  0.4997752188088286
  0.2194176597901802  0.8906034569928611  0.5010889458520433
  0.5511561359164087  0.8911010766199613  0.5014620379239929
  0.8861686566756868  0.8884042939383208  0.4998350695198130
  0.5211125417695232  0.4090362344896556  0.6645559121190792
 
  0.00000000E+00  0.00000000E+00  0.00000000E+00
  0.00000000E+00  0.00000000E+00  0.00000000E+00
  0.00000000E+00  0.00000000E+00  0.00000000E+00
  0.00000000E+00  0.00000000E+00  0.00000000E+00
  0.00000000E+00  0.00000000E+00  0.00000000E+00
  0.00000000E+00  0.00000000E+00  0.00000000E+00
  0.00000000E+00  0.00000000E+00  0.00000000E+00
  0.00000000E+00  0.00000000E+00  0.00000000E+00
  0.00000000E+00  0.00000000E+00  0.00000000E+00
  0.00000000E+00  0.00000000E+00  0.00000000E+00
  0.00000000E+00  0.00000000E+00  0.00000000E+00
  0.00000000E+00  0.00000000E+00  0.00000000E+00
  0.00000000E+00  0.00000000E+00  0.00000000E+00
  0.00000000E+00  0.00000000E+00  0.00000000E+00
  0.00000000E+00  0.00000000E+00  0.00000000E+00
  0.00000000E+00  0.00000000E+00  0.00000000E+00
  0.00000000E+00  0.00000000E+00  0.00000000E+00
  0.00000000E+00  0.00000000E+00  0.00000000E+00
  0.00000000E+00  0.00000000E+00  0.00000000E+00
  0.00000000E+00  0.00000000E+00  0.00000000E+00
  0.00000000E+00  0.00000000E+00  0.00000000E+00
  0.00000000E+00  0.00000000E+00  0.00000000E+00
  0.00000000E+00  0.00000000E+00  0.00000000E+00
  0.00000000E+00  0.00000000E+00  0.00000000E+00
  0.00000000E+00  0.00000000E+00  0.00000000E+00
  0.00000000E+00  0.00000000E+00  0.00000000E+00
  0.00000000E+00  0.00000000E+00  0.00000000E+00
  0.00000000E+00  0.00000000E+00  0.00000000E+00
  0.00000000E+00  0.00000000E+00  0.00000000E+00
  0.00000000E+00  0.00000000E+00  0.00000000E+00
  0.00000000E+00  0.00000000E+00  0.00000000E+00
  0.00000000E+00  0.00000000E+00  0.00000000E+00
  0.00000000E+00  0.00000000E+00  0.00000000E+00
  0.00000000E+00  0.00000000E+00  0.00000000E+00
  0.00000000E+00  0.00000000E+00  0.00000000E+00
  0.00000000E+00  0.00000000E+00  0.00000000E+00
  0.00000000E+00  0.00000000E+00  0.00000000E+00
  0.00000000E+00  0.00000000E+00  0.00000000E+00
  0.00000000E+00  0.00000000E+00  0.00000000E+00
  0.00000000E+00  0.00000000E+00  0.00000000E+00
  0.00000000E+00  0.00000000E+00  0.00000000E+00
  0.00000000E+00  0.00000000E+00  0.00000000E+00
  0.00000000E+00  0.00000000E+00  0.00000000E+00
  0.00000000E+00  0.00000000E+00  0.00000000E+00
  0.00000000E+00  0.00000000E+00  0.00000000E+00
  0.00000000E+00  0.00000000E+00  0.00000000E+00
