CONTCAR\(5)                             
   1.00000000000000     
    14.4435997009000001    0.0000000000000000    0.0000000000000000
     7.2217998505000001   12.5085242631000000    0.0000000000000000
     0.0000000000000000    0.0000000000000000   20.9591999053999984
   Lu   H    Cl   O 
    32    32    32     1
Direct
  0.9996819823808361  0.9996883602966394  0.4382123862436193
  0.0831015606822958  0.0831104324427155  0.5608384215160018
  0.2503530737885127  0.9992558043055056  0.4370863523125008
  0.3337958192340168  0.0831018416705618  0.5608228660590812
  0.5006089801547637  0.9996933796090762  0.4381751509083189
  0.5835239444388329  0.0842046470897291  0.5632672446217825
  0.7494405577531712  0.0011108232180465  0.4388265411577046
  0.8322620176941654  0.0842111521232089  0.5632912535605338
  0.9992283735534669  0.2503775559635869  0.4370908031288697
  0.0831002283909600  0.3337907492012277  0.5608270336877481
  0.2503558715998219  0.2503804933358560  0.4370763100387456
  0.3319219720677103  0.3319380564040275  0.5641524403450303
  0.5002934373529226  0.2516971333041091  0.4410146306096930
  0.5754504786645265  0.3490841834848747  0.5732805677487972
  0.7479956639599497  0.2516923364427495  0.4410299591195851
  0.8361303815289539  0.3319393549742559  0.5641620493854047
  0.9996889516748464  0.5006203396176039  0.4381936731463010
  0.0841935900801738  0.5835348055293317  0.5632737534665004
  0.2516931804850271  0.5003100523524744  0.4410195595913255
  0.3490571307792723  0.5754758620850111  0.5732984765149990
  0.4999962231010593  0.5000036064098385  0.4316523245443754
  0.5754517889244939  0.5754706171529724  0.5732911405790039
  0.7479922785496844  0.5003165761234198  0.4410292180638689
  0.8322675044311343  0.5835377943393223  0.5632784177766704
  0.0010998472570804  0.7494541717133650  0.4388276185416699
  0.0841922168396432  0.8322758292439584  0.5632885259579472
  0.2516882292576538  0.7479982779147787  0.4410371099312038
  0.3319210089675718  0.8361390591313923  0.5641641014025002
  0.5002907207211642  0.7480087439514544  0.4410223465801005
  0.5835263172237943  0.8322763621312533  0.5632677094006071
  0.7494420591397581  0.7494528413343740  0.4388222687733436
  0.8333282104411466  0.8333469879901816  0.5624448348734021
  0.9991906533992094  0.9991994114586614  0.5382202585080247
  0.0832950083975704  0.0833197056570504  0.4603325799998808
  0.2492480515784374  0.0014878643939571  0.5373975405620656
  0.3333645947264923  0.0833133001310046  0.4603006561691931
  0.5016124888421174  0.9991952008518810  0.5381868574414086
  0.5832703984835904  0.0837550646225871  0.4627381452283894
  0.7500573704602189  0.9998974757766433  0.5391498225480497
  0.8329551308606971  0.0837545882461556  0.4627626571819921
  0.0014802619120106  0.2492571798680570  0.5373996276114742
  0.0832984451389679  0.3333768296954009  0.4603136606694461
  0.2492572661516806  0.2492586185193263  0.5373857291483896
  0.3333591513439849  0.3333752094310311  0.4628384717823313
  0.5005723512700940  0.2520859721706368  0.5415629601021964
  0.5822984347320556  0.3353935827297216  0.4651064768417171
  0.7473358437397988  0.2520846848693054  0.5415716394904102
  0.8332428885558797  0.3333780383913706  0.4628476512597152
  0.9991915794571280  0.5016114000730175  0.5382014058812499
  0.0837536943967201  0.5832864874644332  0.4627458005134783
  0.2520686096154797  0.5005913641850109  0.5415637113713558
  0.3353911438398335  0.5823046530586327  0.4651187622299040
  0.5000021809833938  0.4999952789702226  0.5197442378198527
  0.5822964301212821  0.5823096547280477  0.4651155925327798
  0.7473405795634498  0.5005884417128639  0.5415729209349160
  0.8329605247622807  0.5832929085189278  0.4627512916740897
  0.9998874605880291  0.7500634676021698  0.5391498188000767
  0.0837525843126138  0.8329601359209869  0.4627662299946163
  0.2520634791383916  0.7473454114342554  0.5415761120459355
  0.3333552382138901  0.8332659670600594  0.4628509296774020
  0.5005685497381185  0.7473451898789204  0.5415704848606822
  0.5832715809335522  0.8329673509897936  0.4627388664046874
  0.7500554717319327  0.7500695403742730  0.5391442780003036
  0.8333279763705768  0.8333379936648678  0.4621093272032963
  0.1666770138363837  0.1666703689883595  0.6403534794356723
  0.1666113483840533  0.1666714780865321  0.3569667011434237
  0.4165363942890428  0.1607067468251618  0.6421174187725649
  0.4184013497697982  0.1667773731620339  0.3586766275544411
  0.6668746079151148  0.1662105982994609  0.6440334110117338
  0.6658234166315693  0.1683468679748979  0.3596730935828226
  0.9227533785841718  0.1607164567620340  0.6421371692812885
  0.9147944075432898  0.1667556538349952  0.3586980487369895
  0.1606970934136280  0.4165368617275246  0.6421204116342827
  0.1667535093328406  0.4184313911952304  0.3586820916712363
  0.3975143561348370  0.3975256835056467  0.6555644865816587
  0.4142279326527467  0.4142340856848896  0.3573723347615687
  0.7049431123601714  0.3975384088877066  0.6555673906263007
  0.6715611920504255  0.4142237496487562  0.3573850842755064
  0.9227508406279448  0.4165466632579435  0.6421283984802444
  0.9147964027197347  0.4184347218893523  0.3586956466142047
  0.1661628441733760  0.6669075934104494  0.6440424271045286
  0.1683331776101364  0.6658393497836664  0.3596754056578051
  0.3974946966961239  0.7049734394828494  0.6555805127393604
  0.4142134702648019  0.6715572894376152  0.3573850914379332
  0.6668863219254161  0.6669251184551322  0.6440326965250825
  0.6658151501034953  0.6658328252467870  0.3596740682898782
  0.9163826297407657  0.6672324449692114  0.6426474406590833
  0.9164598018610299  0.6670833984371348  0.3585564413842334
  0.1606971776649570  0.9227688032587396  0.6421360046058061
  0.1667418716291669  0.9148091362692570  0.3586991076693105
  0.4165419548750111  0.9227575926559968  0.6421202325510368
  0.4183845391929033  0.9148229348150101  0.3586838987568041
  0.6672188821920557  0.9163944437861432  0.6426427331121961
  0.6670806034884160  0.9164615654136868  0.3585443547217397
  0.9163789578754599  0.9163987472864285  0.6426592182464842
  0.9164586003492264  0.9164654563089647  0.3585612613281297
  0.4999845696340439  0.5000160369162342  0.6142980529701437
 
  0.00000000E+00  0.00000000E+00  0.00000000E+00
  0.00000000E+00  0.00000000E+00  0.00000000E+00
  0.00000000E+00  0.00000000E+00  0.00000000E+00
  0.00000000E+00  0.00000000E+00  0.00000000E+00
  0.00000000E+00  0.00000000E+00  0.00000000E+00
  0.00000000E+00  0.00000000E+00  0.00000000E+00
  0.00000000E+00  0.00000000E+00  0.00000000E+00
  0.00000000E+00  0.00000000E+00  0.00000000E+00
  0.00000000E+00  0.00000000E+00  0.00000000E+00
  0.00000000E+00  0.00000000E+00  0.00000000E+00
  0.00000000E+00  0.00000000E+00  0.00000000E+00
  0.00000000E+00  0.00000000E+00  0.00000000E+00
  0.00000000E+00  0.00000000E+00  0.00000000E+00
  0.00000000E+00  0.00000000E+00  0.00000000E+00
  0.00000000E+00  0.00000000E+00  0.00000000E+00
  0.00000000E+00  0.00000000E+00  0.00000000E+00
  0.00000000E+00  0.00000000E+00  0.00000000E+00
  0.00000000E+00  0.00000000E+00  0.00000000E+00
  0.00000000E+00  0.00000000E+00  0.00000000E+00
  0.00000000E+00  0.00000000E+00  0.00000000E+00
  0.00000000E+00  0.00000000E+00  0.00000000E+00
  0.00000000E+00  0.00000000E+00  0.00000000E+00
  0.00000000E+00  0.00000000E+00  0.00000000E+00
  0.00000000E+00  0.00000000E+00  0.00000000E+00
  0.00000000E+00  0.00000000E+00  0.00000000E+00
  0.00000000E+00  0.00000000E+00  0.00000000E+00
  0.00000000E+00  0.00000000E+00  0.00000000E+00
  0.00000000E+00  0.00000000E+00  0.00000000E+00
  0.00000000E+00  0.00000000E+00  0.00000000E+00
  0.00000000E+00  0.00000000E+00  0.00000000E+00
  0.00000000E+00  0.00000000E+00  0.00000000E+00
  0.00000000E+00  0.00000000E+00  0.00000000E+00
  0.00000000E+00  0.00000000E+00  0.00000000E+00
  0.00000000E+00  0.00000000E+00  0.00000000E+00
  0.00000000E+00  0.00000000E+00  0.00000000E+00
  0.00000000E+00  0.00000000E+00  0.00000000E+00
  0.00000000E+00  0.00000000E+00  0.00000000E+00
  0.00000000E+00  0.00000000E+00  0.00000000E+00
  0.00000000E+00  0.00000000E+00  0.00000000E+00
  0.00000000E+00  0.00000000E+00  0.00000000E+00
  0.00000000E+00  0.00000000E+00  0.00000000E+00
  0.00000000E+00  0.00000000E+00  0.00000000E+00
  0.00000000E+00  0.00000000E+00  0.00000000E+00
  0.00000000E+00  0.00000000E+00  0.00000000E+00
  0.00000000E+00  0.00000000E+00  0.00000000E+00
  0.00000000E+00  0.00000000E+00  0.00000000E+00
  0.00000000E+00  0.00000000E+00  0.00000000E+00
  0.00000000E+00  0.00000000E+00  0.00000000E+00
  0.00000000E+00  0.00000000E+00  0.00000000E+00
  0.00000000E+00  0.00000000E+00  0.00000000E+00
  0.00000000E+00  0.00000000E+00  0.00000000E+00
  0.00000000E+00  0.00000000E+00  0.00000000E+00
  0.00000000E+00  0.00000000E+00  0.00000000E+00
  0.00000000E+00  0.00000000E+00  0.00000000E+00
  0.00000000E+00  0.00000000E+00  0.00000000E+00
  0.00000000E+00  0.00000000E+00  0.00000000E+00
  0.00000000E+00  0.00000000E+00  0.00000000E+00
  0.00000000E+00  0.00000000E+00  0.00000000E+00
  0.00000000E+00  0.00000000E+00  0.00000000E+00
  0.00000000E+00  0.00000000E+00  0.00000000E+00
  0.00000000E+00  0.00000000E+00  0.00000000E+00
  0.00000000E+00  0.00000000E+00  0.00000000E+00
  0.00000000E+00  0.00000000E+00  0.00000000E+00
  0.00000000E+00  0.00000000E+00  0.00000000E+00
  0.00000000E+00  0.00000000E+00  0.00000000E+00
  0.00000000E+00  0.00000000E+00  0.00000000E+00
  0.00000000E+00  0.00000000E+00  0.00000000E+00
  0.00000000E+00  0.00000000E+00  0.00000000E+00
  0.00000000E+00  0.00000000E+00  0.00000000E+00
  0.00000000E+00  0.00000000E+00  0.00000000E+00
  0.00000000E+00  0.00000000E+00  0.00000000E+00
  0.00000000E+00  0.00000000E+00  0.00000000E+00
  0.00000000E+00  0.00000000E+00  0.00000000E+00
  0.00000000E+00  0.00000000E+00  0.00000000E+00
  0.00000000E+00  0.00000000E+00  0.00000000E+00
  0.00000000E+00  0.00000000E+00  0.00000000E+00
  0.00000000E+00  0.00000000E+00  0.00000000E+00
  0.00000000E+00  0.00000000E+00  0.00000000E+00
  0.00000000E+00  0.00000000E+00  0.00000000E+00
  0.00000000E+00  0.00000000E+00  0.00000000E+00
  0.00000000E+00  0.00000000E+00  0.00000000E+00
  0.00000000E+00  0.00000000E+00  0.00000000E+00
  0.00000000E+00  0.00000000E+00  0.00000000E+00
  0.00000000E+00  0.00000000E+00  0.00000000E+00
  0.00000000E+00  0.00000000E+00  0.00000000E+00
  0.00000000E+00  0.00000000E+00  0.00000000E+00
  0.00000000E+00  0.00000000E+00  0.00000000E+00
  0.00000000E+00  0.00000000E+00  0.00000000E+00
  0.00000000E+00  0.00000000E+00  0.00000000E+00
  0.00000000E+00  0.00000000E+00  0.00000000E+00
  0.00000000E+00  0.00000000E+00  0.00000000E+00
  0.00000000E+00  0.00000000E+00  0.00000000E+00
  0.00000000E+00  0.00000000E+00  0.00000000E+00
  0.00000000E+00  0.00000000E+00  0.00000000E+00
  0.00000000E+00  0.00000000E+00  0.00000000E+00
  0.00000000E+00  0.00000000E+00  0.00000000E+00
  0.00000000E+00  0.00000000E+00  0.00000000E+00
