CONTCAR                                 
   1.00000000000000     
    14.0806999207000008    0.0000000000000000    0.0000000000000000
     0.0000000000000000   14.0806999207000008    0.0000000000000000
     0.0000000000000000    0.0000000000000000   21.7056999206999990
   Zr   Si   Se   O    H 
    32    32    32     2     1
Direct
  0.1242491058986914  0.0009080822290173  0.5999795653336548
  0.9995961995699787  0.1258362003942395  0.4002253179146109
  0.3745952861902211  0.0008926581976709  0.6004266408493208
  0.2497730647009746  0.1260540800484620  0.4007920252205537
  0.6250065581543964  0.0008838219471841  0.6000609543970015
  0.4993963654248219  0.1259846640969400  0.4009219785044849
  0.8747488895414079  0.0009062569427556  0.5997187868353961
  0.7495468221814860  0.1258511907254842  0.4003082359248822
  0.1228778229332832  0.2492087737281636  0.5997536551852320
  0.9997196616507793  0.3760091684490376  0.4007383640280793
  0.3741587953273182  0.2498278080074883  0.6012436638175629
  0.2499602072242624  0.3763855620061989  0.4023068518629032
  0.6266951734876614  0.2487271505519857  0.5999422542698269
  0.4992536125882694  0.3763428053962770  0.4024097884424904
  0.8746598981478897  0.2506373393293870  0.5999579470356053
  0.7494173671182551  0.3760043422753654  0.4008442149423885
  0.1241288199574271  0.5010338417634301  0.6012696556419357
  0.9997259406122581  0.6256958007844915  0.4007158357159852
  0.3739869688168085  0.4989064621992227  0.6125201105181972
  0.2500160320941731  0.6254354827265018  0.4022515150395591
  0.6253301371701170  0.5015840824430526  0.6013338258560381
  0.4991612493335111  0.6253702098961966  0.4023423390782028
  0.8746434756203598  0.5009734873226890  0.6003670866092747
  0.7494005130121266  0.6257087774616963  0.4007875025533636
  0.1228356282624645  0.7527161959188362  0.5999097596900782
  0.9996118036516890  0.8758628743587735  0.4002266223844231
  0.3745906178187894  0.7510959568899835  0.6015863512867341
  0.2498640763627762  0.8756042060022224  0.4008350300779853
  0.6262845837742290  0.7526673917525173  0.6000488617056376
  0.4994105681496421  0.8755849832987153  0.4009436684575718
  0.8747178772467379  0.7513090081672260  0.6000118965533829
  0.7495407057011860  0.8758097587577680  0.4003083490197881
  0.9995638055266767  0.0008454618845732  0.4998940601918846
  0.1245421710915764  0.1255747363209139  0.5000215012240261
  0.2496649237354589  0.0008260991924942  0.5004270755365710
  0.3745208624225853  0.1259949633832633  0.5008020169162037
  0.4996824100597053  0.0008307349233547  0.5005714215382326
  0.6247269340922443  0.1255368735773814  0.5001449530850550
  0.7498048837856217  0.0008130338325287  0.4999494479410131
  0.8746152306289900  0.1256851562863019  0.4999126774113591
  0.9992300709781361  0.2507569240045626  0.4999960220342388
  0.1243415774534924  0.3761308917164072  0.5008852173882943
  0.2496962267603635  0.2508792528997219  0.5009629146693655
  0.3746820735046796  0.3770419678858374  0.5034266371629812
  0.4994941796021664  0.2507396127510475  0.5011769039360132
  0.6247753477563762  0.3761362628652662  0.5011062639033170
  0.7499712492857782  0.2508751805033143  0.5001327423278568
  0.8746429362623616  0.3759510566715747  0.5004272451975140
  0.9997294423530505  0.5009423937932880  0.5006476225015604
  0.1244585679037229  0.6258636198259069  0.5009431050275097
  0.2500569760851903  0.5010164709503755  0.5029642579821925
  0.3745252751912318  0.6248771393955650  0.5033244708788800
  0.4991571080274610  0.5010227508405265  0.5031036565642282
  0.6247872762985622  0.6258995130399541  0.5010338410661745
  0.7495274817867710  0.5009646363532170  0.5007680342115464
  0.8746130127067104  0.6259451063075119  0.5004554193427566
  0.9992660398491608  0.7509449624007516  0.5000467904940606
  0.1246057062050880  0.8761630610962641  0.5000660577703258
  0.2498613547315500  0.7509741629609081  0.5010543939321721
  0.3746003325616130  0.8756436761329311  0.5008822231755730
  0.4993777670085038  0.7508890767463186  0.5011758118982570
  0.6247428137925368  0.8761393011674983  0.5001924982905521
  0.7499524213147382  0.7510486823101274  0.5001672166316098
  0.8746538203252427  0.8760750094946772  0.4999086154437080
  0.9990401141051493  0.1252370911959133  0.6546533111451396
  0.1249757879027769  0.0008140373820851  0.3462809366068385
  0.2490780301661815  0.1248720126453833  0.6545807447172791
  0.3747066532975012  0.0007757409067182  0.3466305306412423
  0.4999910471516316  0.1249693745953806  0.6547550570809548
  0.6243246204878901  0.0008331913020498  0.3464190920176478
  0.7504793372448049  0.1252232199721561  0.6547571906316065
  0.8745581773426068  0.0008053465166995  0.3457919536989706
  0.9986169459188403  0.3755884286764015  0.6544202876439016
  0.1250862394387724  0.2513676865235013  0.3467377804986640
  0.2432038134078027  0.3697853534628237  0.6536581560820665
  0.3746641408533335  0.2515239027399190  0.3472927488457103
  0.5060287693543231  0.3697452197585562  0.6537073932570863
  0.6237969962966616  0.2512473040664034  0.3469212510780082
  0.7505043388236530  0.3755914930124646  0.6545683128438924
  0.8744397187597812  0.2511059624025336  0.3461372851048168
  0.9985679920568344  0.6263504840248757  0.6545192040404544
  0.1252442767143265  0.5008196602610866  0.3470826432840539
  0.2432815067937071  0.6319863520349358  0.6538170458368100
  0.3746546162768922  0.5007531532434086  0.3478600245781891
  0.5056730044567530  0.6317056217341630  0.6543040816223140
  0.6239740075019071  0.5007065944455391  0.3471915981526621
  0.7507294092304164  0.6265785767454730  0.6546390357251752
  0.8745446329921549  0.5007817534628956  0.3464909678022678
  0.9989261629468729  0.8768071140046345  0.6548139723036002
  0.1251217110041551  0.7503493986768461  0.3467631089898831
  0.2491802604304851  0.8769518993112442  0.6544956670474775
  0.3747099977322605  0.7502457584410536  0.3471411386657195
  0.4999919326320210  0.8769763228702416  0.6546481347440150
  0.6237037642689458  0.7502390114090005  0.3468489832322135
  0.7504708377355200  0.8766429920804057  0.6547629038790888
  0.8745513784124057  0.7506381245532978  0.3461460749754792
  0.3737000910863912  0.5074420135807642  0.7095008101304430
  0.3675797608420766  0.4360443790258728  0.7570225041813501
  0.4236358075228139  0.3959892543519459  0.7476200004877995
 
  0.00000000E+00  0.00000000E+00  0.00000000E+00
  0.00000000E+00  0.00000000E+00  0.00000000E+00
  0.00000000E+00  0.00000000E+00  0.00000000E+00
  0.00000000E+00  0.00000000E+00  0.00000000E+00
  0.00000000E+00  0.00000000E+00  0.00000000E+00
  0.00000000E+00  0.00000000E+00  0.00000000E+00
  0.00000000E+00  0.00000000E+00  0.00000000E+00
  0.00000000E+00  0.00000000E+00  0.00000000E+00
  0.00000000E+00  0.00000000E+00  0.00000000E+00
  0.00000000E+00  0.00000000E+00  0.00000000E+00
  0.00000000E+00  0.00000000E+00  0.00000000E+00
  0.00000000E+00  0.00000000E+00  0.00000000E+00
  0.00000000E+00  0.00000000E+00  0.00000000E+00
  0.00000000E+00  0.00000000E+00  0.00000000E+00
  0.00000000E+00  0.00000000E+00  0.00000000E+00
  0.00000000E+00  0.00000000E+00  0.00000000E+00
  0.00000000E+00  0.00000000E+00  0.00000000E+00
  0.00000000E+00  0.00000000E+00  0.00000000E+00
  0.00000000E+00  0.00000000E+00  0.00000000E+00
  0.00000000E+00  0.00000000E+00  0.00000000E+00
  0.00000000E+00  0.00000000E+00  0.00000000E+00
  0.00000000E+00  0.00000000E+00  0.00000000E+00
  0.00000000E+00  0.00000000E+00  0.00000000E+00
  0.00000000E+00  0.00000000E+00  0.00000000E+00
  0.00000000E+00  0.00000000E+00  0.00000000E+00
  0.00000000E+00  0.00000000E+00  0.00000000E+00
  0.00000000E+00  0.00000000E+00  0.00000000E+00
  0.00000000E+00  0.00000000E+00  0.00000000E+00
  0.00000000E+00  0.00000000E+00  0.00000000E+00
  0.00000000E+00  0.00000000E+00  0.00000000E+00
  0.00000000E+00  0.00000000E+00  0.00000000E+00
  0.00000000E+00  0.00000000E+00  0.00000000E+00
  0.00000000E+00  0.00000000E+00  0.00000000E+00
  0.00000000E+00  0.00000000E+00  0.00000000E+00
  0.00000000E+00  0.00000000E+00  0.00000000E+00
  0.00000000E+00  0.00000000E+00  0.00000000E+00
  0.00000000E+00  0.00000000E+00  0.00000000E+00
  0.00000000E+00  0.00000000E+00  0.00000000E+00
  0.00000000E+00  0.00000000E+00  0.00000000E+00
  0.00000000E+00  0.00000000E+00  0.00000000E+00
  0.00000000E+00  0.00000000E+00  0.00000000E+00
  0.00000000E+00  0.00000000E+00  0.00000000E+00
  0.00000000E+00  0.00000000E+00  0.00000000E+00
  0.00000000E+00  0.00000000E+00  0.00000000E+00
  0.00000000E+00  0.00000000E+00  0.00000000E+00
  0.00000000E+00  0.00000000E+00  0.00000000E+00
  0.00000000E+00  0.00000000E+00  0.00000000E+00
  0.00000000E+00  0.00000000E+00  0.00000000E+00
  0.00000000E+00  0.00000000E+00  0.00000000E+00
  0.00000000E+00  0.00000000E+00  0.00000000E+00
  0.00000000E+00  0.00000000E+00  0.00000000E+00
  0.00000000E+00  0.00000000E+00  0.00000000E+00
  0.00000000E+00  0.00000000E+00  0.00000000E+00
  0.00000000E+00  0.00000000E+00  0.00000000E+00
  0.00000000E+00  0.00000000E+00  0.00000000E+00
  0.00000000E+00  0.00000000E+00  0.00000000E+00
  0.00000000E+00  0.00000000E+00  0.00000000E+00
  0.00000000E+00  0.00000000E+00  0.00000000E+00
  0.00000000E+00  0.00000000E+00  0.00000000E+00
  0.00000000E+00  0.00000000E+00  0.00000000E+00
  0.00000000E+00  0.00000000E+00  0.00000000E+00
  0.00000000E+00  0.00000000E+00  0.00000000E+00
  0.00000000E+00  0.00000000E+00  0.00000000E+00
  0.00000000E+00  0.00000000E+00  0.00000000E+00
  0.00000000E+00  0.00000000E+00  0.00000000E+00
  0.00000000E+00  0.00000000E+00  0.00000000E+00
  0.00000000E+00  0.00000000E+00  0.00000000E+00
  0.00000000E+00  0.00000000E+00  0.00000000E+00
  0.00000000E+00  0.00000000E+00  0.00000000E+00
  0.00000000E+00  0.00000000E+00  0.00000000E+00
  0.00000000E+00  0.00000000E+00  0.00000000E+00
  0.00000000E+00  0.00000000E+00  0.00000000E+00
  0.00000000E+00  0.00000000E+00  0.00000000E+00
  0.00000000E+00  0.00000000E+00  0.00000000E+00
  0.00000000E+00  0.00000000E+00  0.00000000E+00
  0.00000000E+00  0.00000000E+00  0.00000000E+00
  0.00000000E+00  0.00000000E+00  0.00000000E+00
  0.00000000E+00  0.00000000E+00  0.00000000E+00
  0.00000000E+00  0.00000000E+00  0.00000000E+00
  0.00000000E+00  0.00000000E+00  0.00000000E+00
  0.00000000E+00  0.00000000E+00  0.00000000E+00
  0.00000000E+00  0.00000000E+00  0.00000000E+00
  0.00000000E+00  0.00000000E+00  0.00000000E+00
  0.00000000E+00  0.00000000E+00  0.00000000E+00
  0.00000000E+00  0.00000000E+00  0.00000000E+00
  0.00000000E+00  0.00000000E+00  0.00000000E+00
  0.00000000E+00  0.00000000E+00  0.00000000E+00
  0.00000000E+00  0.00000000E+00  0.00000000E+00
  0.00000000E+00  0.00000000E+00  0.00000000E+00
  0.00000000E+00  0.00000000E+00  0.00000000E+00
  0.00000000E+00  0.00000000E+00  0.00000000E+00
  0.00000000E+00  0.00000000E+00  0.00000000E+00
  0.00000000E+00  0.00000000E+00  0.00000000E+00
  0.00000000E+00  0.00000000E+00  0.00000000E+00
  0.00000000E+00  0.00000000E+00  0.00000000E+00
  0.00000000E+00  0.00000000E+00  0.00000000E+00
  0.00000000E+00  0.00000000E+00  0.00000000E+00
  0.00000000E+00  0.00000000E+00  0.00000000E+00
  0.00000000E+00  0.00000000E+00  0.00000000E+00
