CONTCAR\(10)                            
   1.00000000000000     
    14.1827001571999993    0.0000000000000000    0.0000000000000000
     0.0000000000000000   18.7943000793000010    0.0000000000000000
     0.0000000000000000    0.0000000000000000   21.0296001433999997
   Ta   Pt   Se   O 
    16     8    56     1
Selective dynamics
Direct
  0.1824460770820622  0.4212534143266353  0.5632765519194507   F   F   F
  0.0610403573806337  0.5768434794401642  0.4378996216256965   F   F   F
  0.0623043246016479  0.9031948748164780  0.4891062450587995   F   F   F
  0.1878849318530271  0.0964242179589831  0.5099398334999705   F   F   F
  0.4423056449460390  0.4243863245130797  0.5725095493396068   F   F   F
  0.3108151084833608  0.5763897018065194  0.4381481798115558   F   F   F
  0.3122255848800819  0.9036007861646098  0.4888686097628394   F   F   F
  0.4352848631171753  0.0963546067480721  0.5106937972158292   F   F   F
  0.6892754843735531  0.4186410685951785  0.5633720352382028   F   F   F
  0.5606018111539868  0.5763936131543517  0.4396459139317983   F   F   F
  0.5616983375184645  0.9029790976664103  0.4897050319541520   F   F   F
  0.6879699260708350  0.0946541755939450  0.5101747379681782   F   F   F
  0.9366636117396752  0.4199183468149243  0.5627297291629532   F   F   F
  0.8118187201649647  0.5766345754947153  0.4386205135784635   F   F   F
  0.8118978124518534  0.9031298829857306  0.4889314429028033   F   F   F
  0.9381216276495721  0.0948385211941272  0.5094669752037717   F   F   F
  0.0621748610533146  0.2243699280019271  0.5352749019870373   F   F   F
  0.1867079233850646  0.7732385507784301  0.4645706695852283   F   F   F
  0.3127071317912922  0.2250274050160144  0.5366404636588484   F   F   F
  0.4368103366698719  0.7734666223928315  0.4650647627034346   F   F   F
  0.5632910901030499  0.2279539950202931  0.5359001745151488   F   F   F
  0.6868053505796823  0.7733568492323428  0.4652494225375605   F   F   F
  0.8125430707004497  0.2238537214584895  0.5341777685788145   F   F   F
  0.9369442913758448  0.7733161006394482  0.4648491765364895   F   F   F
  0.0618919620849638  0.6960450490721897  0.5145942739921736   F   F   F
  0.1884171686455218  0.3024142974420485  0.4873767949997827   F   F   F
  0.0604632736264321  0.4334215540927318  0.4678908618723554   F   F   F
  0.1854092551251796  0.5642482528543624  0.5323203303638238   F   F   F
  0.1862994202014434  0.5230271054022708  0.3592320335966690   F   F   F
  0.0576215423145072  0.4732545310342928  0.6427973014368433   F   F   F
  0.1871581749472497  0.9831447417927990  0.4293379186112674   F   F   F
  0.0630304127198329  0.0158637115353599  0.5695500229526971   F   F   F
  0.0607331993063696  0.3335675640553433  0.6151736416181350   F   F   F
  0.1861899207447877  0.6626719223814561  0.3856741604421643   F   F   F
  0.1872659705555577  0.1720067939385075  0.6085129712957169   F   F   F
  0.0617987232681614  0.8264269082264804  0.3915496988138969   F   F   F
  0.0627339241427549  0.1455202258888235  0.4327419245198953   F   F   F
  0.1875397493134372  0.8537712239323909  0.5661772952157236   F   F   F
  0.3115771010498207  0.6960903341195390  0.5144891989793479   F   F   F
  0.4345291557097397  0.3071363340139257  0.4904223432823827   F   F   F
  0.3130989038115359  0.4338716635257782  0.4745368485238259   F   F   F
  0.4345139734383707  0.5648569241332666  0.5331129957063538   F   F   F
  0.4362915394045288  0.5238267336044231  0.3593558381059978   F   F   F
  0.2987435090870676  0.4750026753013046  0.6450902741670532   F   F   F
  0.4372403031897178  0.9833691021926469  0.4296097877264842   F   F   F
  0.3116360333528050  0.0161581890282534  0.5700042781746291   F   F   F
  0.3095607641943019  0.3421587384674538  0.6231914754484933   F   F   F
  0.4363317717479305  0.6619013182303846  0.3861623359469348   F   F   F
  0.4368703118581294  0.1719424668882539  0.6086445349628136   F   F   F
  0.3122054484238106  0.8262849127212206  0.3916881791742668   F   F   F
  0.3123915755809605  0.1457192333529562  0.4326181864683107   F   F   F
  0.4366624827247492  0.8543933295907422  0.5667614538356816   F   F   F
  0.5613036232692465  0.6963277551850382  0.5152078549723100   F   F   F
  0.6889787926441784  0.3027088919104060  0.4848151588874217   F   F   F
  0.5602489814843423  0.4340537768239656  0.4717318906067192   F   F   F
  0.6867365443720317  0.5638999446950734  0.5341240273595034   F   F   F
  0.6854807493929442  0.5231002050919287  0.3605353090442875   F   F   F
  0.5772134808289309  0.4951804278433016  0.6374626552955007   F   F   F
  0.6866203492565575  0.9826172902632067  0.4292910332641995   F   F   F
  0.5615698283142692  0.0161271807072865  0.5695406193718782   F   F   F
  0.5649058511282803  0.3281741432593179  0.6149427448643152   F   F   F
  0.6857749327668685  0.6621191064564869  0.3869392421027058   F   F   F
  0.6890189349139746  0.1694650960488389  0.6079431350594859   F   F   F
  0.5619552448699139  0.8262102886197198  0.3920350699946127   F   F   F
  0.5615213591769717  0.1494065684704182  0.4354579772614215   F   F   F
  0.6873265733661782  0.8542025254784136  0.5668071861830910   F   F   F
  0.8120938255539940  0.6962878178706546  0.5149944169935381   F   F   F
  0.9377399276948779  0.3015539672959235  0.4850782249923498   F   F   F
  0.8119504555212416  0.4333376931369202  0.4686072597190787   F   F   F
  0.9364463638854303  0.5638655249565545  0.5326722946537288   F   F   F
  0.9354214590669798  0.5240315991989704  0.3588230400690620   F   F   F
  0.8136586973636000  0.4705898864507532  0.6434172788428754   F   F   F
  0.9372340642259687  0.9823401240495784  0.4289922670013553   F   F   F
  0.8130535666337622  0.0153326820115964  0.5695942958777422   F   F   F
  0.8136830945211884  0.3323110181114401  0.6146444785851131   F   F   F
  0.9359302817670141  0.6631454740744900  0.3860825655079552   F   F   F
  0.9368448204542688  0.1701857913219271  0.6077027934047976   F   F   F
  0.8117386810002785  0.8261058783720472  0.3916423374329980   F   F   F
  0.8122252837349748  0.1440496800816646  0.4323126297236115   F   F   F
  0.9371856334002331  0.8540155153140603  0.5663156450566902   F   F   F
  0.4856952066963060  0.4340786522671180  0.6664699000374760   T   T   T
 
  0.00000000E+00  0.00000000E+00  0.00000000E+00
  0.00000000E+00  0.00000000E+00  0.00000000E+00
  0.00000000E+00  0.00000000E+00  0.00000000E+00
  0.00000000E+00  0.00000000E+00  0.00000000E+00
  0.00000000E+00  0.00000000E+00  0.00000000E+00
  0.00000000E+00  0.00000000E+00  0.00000000E+00
  0.00000000E+00  0.00000000E+00  0.00000000E+00
  0.00000000E+00  0.00000000E+00  0.00000000E+00
  0.00000000E+00  0.00000000E+00  0.00000000E+00
  0.00000000E+00  0.00000000E+00  0.00000000E+00
  0.00000000E+00  0.00000000E+00  0.00000000E+00
  0.00000000E+00  0.00000000E+00  0.00000000E+00
  0.00000000E+00  0.00000000E+00  0.00000000E+00
  0.00000000E+00  0.00000000E+00  0.00000000E+00
  0.00000000E+00  0.00000000E+00  0.00000000E+00
  0.00000000E+00  0.00000000E+00  0.00000000E+00
  0.00000000E+00  0.00000000E+00  0.00000000E+00
  0.00000000E+00  0.00000000E+00  0.00000000E+00
  0.00000000E+00  0.00000000E+00  0.00000000E+00
  0.00000000E+00  0.00000000E+00  0.00000000E+00
  0.00000000E+00  0.00000000E+00  0.00000000E+00
  0.00000000E+00  0.00000000E+00  0.00000000E+00
  0.00000000E+00  0.00000000E+00  0.00000000E+00
  0.00000000E+00  0.00000000E+00  0.00000000E+00
  0.00000000E+00  0.00000000E+00  0.00000000E+00
  0.00000000E+00  0.00000000E+00  0.00000000E+00
  0.00000000E+00  0.00000000E+00  0.00000000E+00
  0.00000000E+00  0.00000000E+00  0.00000000E+00
  0.00000000E+00  0.00000000E+00  0.00000000E+00
  0.00000000E+00  0.00000000E+00  0.00000000E+00
  0.00000000E+00  0.00000000E+00  0.00000000E+00
  0.00000000E+00  0.00000000E+00  0.00000000E+00
  0.00000000E+00  0.00000000E+00  0.00000000E+00
  0.00000000E+00  0.00000000E+00  0.00000000E+00
  0.00000000E+00  0.00000000E+00  0.00000000E+00
  0.00000000E+00  0.00000000E+00  0.00000000E+00
  0.00000000E+00  0.00000000E+00  0.00000000E+00
  0.00000000E+00  0.00000000E+00  0.00000000E+00
  0.00000000E+00  0.00000000E+00  0.00000000E+00
  0.00000000E+00  0.00000000E+00  0.00000000E+00
  0.00000000E+00  0.00000000E+00  0.00000000E+00
  0.00000000E+00  0.00000000E+00  0.00000000E+00
  0.00000000E+00  0.00000000E+00  0.00000000E+00
  0.00000000E+00  0.00000000E+00  0.00000000E+00
  0.00000000E+00  0.00000000E+00  0.00000000E+00
  0.00000000E+00  0.00000000E+00  0.00000000E+00
  0.00000000E+00  0.00000000E+00  0.00000000E+00
  0.00000000E+00  0.00000000E+00  0.00000000E+00
  0.00000000E+00  0.00000000E+00  0.00000000E+00
  0.00000000E+00  0.00000000E+00  0.00000000E+00
  0.00000000E+00  0.00000000E+00  0.00000000E+00
  0.00000000E+00  0.00000000E+00  0.00000000E+00
  0.00000000E+00  0.00000000E+00  0.00000000E+00
  0.00000000E+00  0.00000000E+00  0.00000000E+00
  0.00000000E+00  0.00000000E+00  0.00000000E+00
  0.00000000E+00  0.00000000E+00  0.00000000E+00
  0.00000000E+00  0.00000000E+00  0.00000000E+00
  0.00000000E+00  0.00000000E+00  0.00000000E+00
  0.00000000E+00  0.00000000E+00  0.00000000E+00
  0.00000000E+00  0.00000000E+00  0.00000000E+00
  0.00000000E+00  0.00000000E+00  0.00000000E+00
  0.00000000E+00  0.00000000E+00  0.00000000E+00
  0.00000000E+00  0.00000000E+00  0.00000000E+00
  0.00000000E+00  0.00000000E+00  0.00000000E+00
  0.00000000E+00  0.00000000E+00  0.00000000E+00
  0.00000000E+00  0.00000000E+00  0.00000000E+00
  0.00000000E+00  0.00000000E+00  0.00000000E+00
  0.00000000E+00  0.00000000E+00  0.00000000E+00
  0.00000000E+00  0.00000000E+00  0.00000000E+00
  0.00000000E+00  0.00000000E+00  0.00000000E+00
  0.00000000E+00  0.00000000E+00  0.00000000E+00
  0.00000000E+00  0.00000000E+00  0.00000000E+00
  0.00000000E+00  0.00000000E+00  0.00000000E+00
  0.00000000E+00  0.00000000E+00  0.00000000E+00
  0.00000000E+00  0.00000000E+00  0.00000000E+00
  0.00000000E+00  0.00000000E+00  0.00000000E+00
  0.00000000E+00  0.00000000E+00  0.00000000E+00
  0.00000000E+00  0.00000000E+00  0.00000000E+00
  0.00000000E+00  0.00000000E+00  0.00000000E+00
  0.00000000E+00  0.00000000E+00  0.00000000E+00
  0.00000000E+00  0.00000000E+00  0.00000000E+00
