CONTCAR\(5)                             
   1.00000000000000     
    11.7456998825000003    0.0000000000000000    0.0000000000000000
     0.0000000000000000   17.6870002747000008    0.0000000000000000
     0.0000000000000000    0.0000000000000000   19.5771007537999999
   Ti   Ge   Te   O    H 
     6     6    36     2     1
Direct
  0.0868431782869763  0.4752116707599114  0.5142823059875212
  0.2534970541507846  0.9506714204445998  0.4829523393817112
  0.4222720251572625  0.4745805732007113  0.5130271054536948
  0.5869989271751450  0.9505701583589641  0.4823172000187554
  0.7520013292669603  0.4741413902832079  0.5133875854589718
  0.9199742822393162  0.9507713225032006  0.4824243237635386
  0.2535331866252193  0.7996990419962202  0.4760158326527701
  0.0864407530524645  0.6263660633767927  0.5213739095026995
  0.5869103085761367  0.7995414079965357  0.4760172850369955
  0.4202676709683146  0.6259524334024675  0.5214833224885851
  0.9196971966064638  0.7997500575067846  0.4757817460158620
  0.7530303178522715  0.6256749941752631  0.5210318411458559
  0.0873027843234340  0.9205147477710582  0.3763527978571588
  0.2526658179453207  0.2533986713103999  0.5791338587359860
  0.2525943860351347  0.0592741610858027  0.3758163357603053
  0.0868356450213028  0.8965080613078911  0.5798165338771284
  0.2544266048347978  0.5053351790297214  0.6200019476647611
  0.0879324313670864  0.3668240066055830  0.6215144606893617
  0.0860850681014043  0.1721619731835347  0.4181826788515082
  0.2522432201260045  0.7058773626726165  0.5887324464043502
  0.0869214221674000  0.7206473259879402  0.4086574939641281
  0.2535006961919350  0.3757990802572877  0.4595701761431883
  0.0864806871834247  0.0503526531638272  0.5365424810640178
  0.2535357899191411  0.5286544612631161  0.4163185861599246
  0.4197246367934682  0.9200554688932883  0.3763645831444720
  0.5881533851135501  0.2534698938446738  0.5776369194660944
  0.5858547030577554  0.0590464370121992  0.3747556035346093
  0.4205273096655802  0.8974124510726540  0.5803671992944217
  0.5866709839455950  0.5051338384413810  0.6198492170617342
  0.4194019075876199  0.3665074697324044  0.6206271434861250
  0.4209733645183320  0.1727518405984370  0.4175774895911601
  0.5868726433969798  0.7050878288899938  0.5885319310222243
  0.4203616483146604  0.7198038248637388  0.4090844247069612
  0.5880785441236753  0.3730009815508879  0.4567696585416812
  0.4204930674527247  0.0506314774818506  0.5358863275608812
  0.5864192053874220  0.5353489369122215  0.4199846536738221
  0.7535831958810064  0.9201546639755520  0.3759698964433937
  0.9206283254832073  0.2542165504192653  0.5794507863291045
  0.9195282725718386  0.0594652054609242  0.3751542173124349
  0.7538058589242240  0.8976320044913777  0.5801350136126331
  0.9202192028336356  0.5057131178885399  0.6205262168341648
  0.7564414867551008  0.3681648075079522  0.6219428822200470
  0.7519311519126148  0.1723762546662542  0.4166262954997819
  0.9206166340939532  0.7060182432755724  0.5885391061663157
  0.7533644648932096  0.7198915235771253  0.4088629835683548
  0.9207984192717689  0.3748206319993628  0.4609948303460527
  0.7530224371363516  0.0506096422615130  0.5356931673798044
  0.9194880682333419  0.5284287703005006  0.4167245191897635
  0.6227591226556726  0.2087106636075191  0.6781170784928108
  0.5871574411036207  0.1303488973322473  0.6825714485009797
  0.5107240697193873  0.1351202252991044  0.7024621319414237
 
  0.00000000E+00  0.00000000E+00  0.00000000E+00
  0.00000000E+00  0.00000000E+00  0.00000000E+00
  0.00000000E+00  0.00000000E+00  0.00000000E+00
  0.00000000E+00  0.00000000E+00  0.00000000E+00
  0.00000000E+00  0.00000000E+00  0.00000000E+00
  0.00000000E+00  0.00000000E+00  0.00000000E+00
  0.00000000E+00  0.00000000E+00  0.00000000E+00
  0.00000000E+00  0.00000000E+00  0.00000000E+00
  0.00000000E+00  0.00000000E+00  0.00000000E+00
  0.00000000E+00  0.00000000E+00  0.00000000E+00
  0.00000000E+00  0.00000000E+00  0.00000000E+00
  0.00000000E+00  0.00000000E+00  0.00000000E+00
  0.00000000E+00  0.00000000E+00  0.00000000E+00
  0.00000000E+00  0.00000000E+00  0.00000000E+00
  0.00000000E+00  0.00000000E+00  0.00000000E+00
  0.00000000E+00  0.00000000E+00  0.00000000E+00
  0.00000000E+00  0.00000000E+00  0.00000000E+00
  0.00000000E+00  0.00000000E+00  0.00000000E+00
  0.00000000E+00  0.00000000E+00  0.00000000E+00
  0.00000000E+00  0.00000000E+00  0.00000000E+00
  0.00000000E+00  0.00000000E+00  0.00000000E+00
  0.00000000E+00  0.00000000E+00  0.00000000E+00
  0.00000000E+00  0.00000000E+00  0.00000000E+00
  0.00000000E+00  0.00000000E+00  0.00000000E+00
  0.00000000E+00  0.00000000E+00  0.00000000E+00
  0.00000000E+00  0.00000000E+00  0.00000000E+00
  0.00000000E+00  0.00000000E+00  0.00000000E+00
  0.00000000E+00  0.00000000E+00  0.00000000E+00
  0.00000000E+00  0.00000000E+00  0.00000000E+00
  0.00000000E+00  0.00000000E+00  0.00000000E+00
  0.00000000E+00  0.00000000E+00  0.00000000E+00
  0.00000000E+00  0.00000000E+00  0.00000000E+00
  0.00000000E+00  0.00000000E+00  0.00000000E+00
  0.00000000E+00  0.00000000E+00  0.00000000E+00
  0.00000000E+00  0.00000000E+00  0.00000000E+00
  0.00000000E+00  0.00000000E+00  0.00000000E+00
  0.00000000E+00  0.00000000E+00  0.00000000E+00
  0.00000000E+00  0.00000000E+00  0.00000000E+00
  0.00000000E+00  0.00000000E+00  0.00000000E+00
  0.00000000E+00  0.00000000E+00  0.00000000E+00
  0.00000000E+00  0.00000000E+00  0.00000000E+00
  0.00000000E+00  0.00000000E+00  0.00000000E+00
  0.00000000E+00  0.00000000E+00  0.00000000E+00
  0.00000000E+00  0.00000000E+00  0.00000000E+00
  0.00000000E+00  0.00000000E+00  0.00000000E+00
  0.00000000E+00  0.00000000E+00  0.00000000E+00
  0.00000000E+00  0.00000000E+00  0.00000000E+00
  0.00000000E+00  0.00000000E+00  0.00000000E+00
  0.00000000E+00  0.00000000E+00  0.00000000E+00
  0.00000000E+00  0.00000000E+00  0.00000000E+00
  0.00000000E+00  0.00000000E+00  0.00000000E+00
