CONTCAR\(2)                             
   1.00000000000000     
    12.8632001877000004    0.0000000000000000    0.0000000000000000
     0.0000000000000000   12.8638000487999999    0.0000000000000000
     0.0000000000000000    0.0000000000000000   23.9482994080000005
   Lu   Te   O    H 
    18    54     2     1
Selective dynamics
Direct
  0.1645284162170313  0.0023401120537372  0.5844526770536760   F   F   F
  0.9966744999330714  0.1683671124451678  0.4155652511537298   F   F   F
  0.4967062911242905  0.0029503402570583  0.5849907045557714   F   F   F
  0.3308891466915966  0.1688201397671776  0.4162009865588345   F   F   F
  0.8306241781069588  0.0020610461743971  0.5847306662373839   F   F   F
  0.6648209809919692  0.1684396019510572  0.4160743510594216   F   F   F
  0.1534235000010185  0.3328336257272966  0.5801203028961126   F   F   F
  0.9972234945382326  0.5029031098157049  0.4162455586161826   F   F   F
  0.5073539046995847  0.3349717465951372  0.5806179311099982   F   F   F
  0.3310859758920941  0.5014129037146233  0.4166414664262135   F   F   F
  0.8306878363338583  0.3368076349737095  0.5840754329445872   F   F   F
  0.6648703192783714  0.5027100304130983  0.4163689267480777   F   F   F
  0.1641389422498065  0.6707473062937055  0.5854343025373723   F   F   F
  0.9977602222604460  0.8355783306888043  0.4172042127138909   F   F   F
  0.4972931067577591  0.6707204257989048  0.5854604498174396   F   F   F
  0.3309261779630290  0.8354785651417913  0.4173514197610331   F   F   F
  0.8307236190460969  0.6714495816787718  0.5850732286444398   F   F   F
  0.6639265404689354  0.8353661805927999  0.4174909183245461   F   F   F
  0.9977695108359370  0.0019121158492368  0.3139833464126696   F   F   F
  0.1633897512845195  0.1695421077797050  0.6848204658827228   F   F   F
  0.9971122015628708  0.0033946909794054  0.6877788544305616   F   F   F
  0.1642877748371419  0.1685531086544003  0.3132929342339779   F   F   F
  0.1647197381963892  0.0032699908221474  0.4550310791695509   F   F   F
  0.9947242425914098  0.1672301451787419  0.5450575867713852   F   F   F
  0.3312980811105675  0.0023436736842015  0.3142278056404635   F   F   F
  0.4970467357243606  0.1726128306537618  0.6872606253402793   F   F   F
  0.3316441106925296  0.0073508012855541  0.6875540505531532   F   F   F
  0.4979873036876512  0.1689861159307640  0.3135391066322413   F   F   F
  0.4967742655747642  0.0030938894304242  0.4555221655660446   F   F   F
  0.3305346018113582  0.1709966372196234  0.5463247922597461   F   F   F
  0.6643774046863626  0.0020230491757971  0.3145826883879295   F   F   F
  0.8298660975283596  0.1711347636907519  0.6872291032835562   F   F   F
  0.6636942953173985  0.0032570106548278  0.6880804624187036   F   F   F
  0.8312143939129584  0.1685016889253461  0.3133014048186098   F   F   F
  0.8305148743102890  0.0012329377821416  0.4549131561623199   F   F   F
  0.6657351211008375  0.1675378261733371  0.5456913878367970   F   F   F
  0.9973797549609174  0.3356958722671948  0.3131923903948675   F   F   F
  0.1622077769009707  0.5039040289717747  0.6884915021069276   F   F   F
  0.9961888775916208  0.3357843561225025  0.6857611434849247   F   F   F
  0.1645008545193889  0.5023011273539240  0.3139191707345219   F   F   F
  0.1628606318199601  0.3352641071685056  0.4529521678701158   F   F   F
  0.9964693543374850  0.5042698318760372  0.5460632588236152   F   F   F
  0.3311087015911269  0.3353727728582570  0.3139779960342892   F   F   F
  0.4989814087361069  0.5053172510539667  0.6869094726965415   F   F   F
  0.3303460935753364  0.3437886516323658  0.6760308106606061   F   F   F
  0.4979264335936975  0.5021554642793831  0.3139875891714041   F   F   F
  0.4986297727674014  0.3355016199746004  0.4533418602087451   F   F   F
  0.3304419520810455  0.4992595838379827  0.5484934087780360   F   F   F
  0.6649204890961542  0.3356039713653800  0.3137917866635433   F   F   F
  0.8317798700045671  0.5063271614477713  0.6877300141343596   F   F   F
  0.6647045574938986  0.3367751032819086  0.6859841638148936   F   F   F
  0.8312893998840920  0.5026352847667539  0.3136648753213791   F   F   F
  0.8312530085041487  0.3358474940124054  0.4545119857308890   F   F   F
  0.6654514064293835  0.5044692257259982  0.5459741306019836   F   F   F
  0.9980862095040877  0.6693252021730345  0.3148075018162544   F   F   F
  0.1643440817144750  0.8374753851058330  0.6881651216473443   F   F   F
  0.9974074288224486  0.6712241411781505  0.6880656702897667   F   F   F
  0.1649360023779209  0.8355366166594322  0.3148516312965910   F   F   F
  0.1659233414922880  0.6674063442585378  0.4558133961682032   F   F   F
  0.9977832442964214  0.8359810557270819  0.5467260992088612   F   F   F
  0.3312443612162497  0.6684961454341973  0.3145775898104475   F   F   F
  0.4967837499813186  0.8371125654601173  0.6883343142426313   F   F   F
  0.3298172100105035  0.6722975430881277  0.6882395823630389   F   F   F
  0.4975457943626154  0.8356277482207730  0.3153526555608650   F   F   F
  0.4958980944387079  0.6672308268754037  0.4558585304916249   F   F   F
  0.3309799479806301  0.8360139687234565  0.5470979414028179   F   F   F
  0.6642271525387358  0.6688898540076664  0.3148248453718523   F   F   F
  0.8303713798379491  0.8404505412307657  0.6882547183293326   F   F   F
  0.6649656941009212  0.6701062187570841  0.6884970997912347   F   F   F
  0.8310522567407688  0.8354579788051382  0.3146728527409905   F   F   F
  0.8308193889372291  0.6698165155083444  0.4552239684237662   F   F   F
  0.6632404037987314  0.8361022732543120  0.5470484009593619   F   F   F
  0.2604688906916692  0.3573819782271670  0.7980394820136141   T   T   T
  0.3415426700658202  0.3105264529993121  0.7653742641199344   T   T   T
  0.2923551448833308  0.4236865483562226  0.8085800754841863   T   T   T
 
  0.00000000E+00  0.00000000E+00  0.00000000E+00
  0.00000000E+00  0.00000000E+00  0.00000000E+00
  0.00000000E+00  0.00000000E+00  0.00000000E+00
  0.00000000E+00  0.00000000E+00  0.00000000E+00
  0.00000000E+00  0.00000000E+00  0.00000000E+00
  0.00000000E+00  0.00000000E+00  0.00000000E+00
  0.00000000E+00  0.00000000E+00  0.00000000E+00
  0.00000000E+00  0.00000000E+00  0.00000000E+00
  0.00000000E+00  0.00000000E+00  0.00000000E+00
  0.00000000E+00  0.00000000E+00  0.00000000E+00
  0.00000000E+00  0.00000000E+00  0.00000000E+00
  0.00000000E+00  0.00000000E+00  0.00000000E+00
  0.00000000E+00  0.00000000E+00  0.00000000E+00
  0.00000000E+00  0.00000000E+00  0.00000000E+00
  0.00000000E+00  0.00000000E+00  0.00000000E+00
  0.00000000E+00  0.00000000E+00  0.00000000E+00
  0.00000000E+00  0.00000000E+00  0.00000000E+00
  0.00000000E+00  0.00000000E+00  0.00000000E+00
  0.00000000E+00  0.00000000E+00  0.00000000E+00
  0.00000000E+00  0.00000000E+00  0.00000000E+00
  0.00000000E+00  0.00000000E+00  0.00000000E+00
  0.00000000E+00  0.00000000E+00  0.00000000E+00
  0.00000000E+00  0.00000000E+00  0.00000000E+00
  0.00000000E+00  0.00000000E+00  0.00000000E+00
  0.00000000E+00  0.00000000E+00  0.00000000E+00
  0.00000000E+00  0.00000000E+00  0.00000000E+00
  0.00000000E+00  0.00000000E+00  0.00000000E+00
  0.00000000E+00  0.00000000E+00  0.00000000E+00
  0.00000000E+00  0.00000000E+00  0.00000000E+00
  0.00000000E+00  0.00000000E+00  0.00000000E+00
  0.00000000E+00  0.00000000E+00  0.00000000E+00
  0.00000000E+00  0.00000000E+00  0.00000000E+00
  0.00000000E+00  0.00000000E+00  0.00000000E+00
  0.00000000E+00  0.00000000E+00  0.00000000E+00
  0.00000000E+00  0.00000000E+00  0.00000000E+00
  0.00000000E+00  0.00000000E+00  0.00000000E+00
  0.00000000E+00  0.00000000E+00  0.00000000E+00
  0.00000000E+00  0.00000000E+00  0.00000000E+00
  0.00000000E+00  0.00000000E+00  0.00000000E+00
  0.00000000E+00  0.00000000E+00  0.00000000E+00
  0.00000000E+00  0.00000000E+00  0.00000000E+00
  0.00000000E+00  0.00000000E+00  0.00000000E+00
  0.00000000E+00  0.00000000E+00  0.00000000E+00
  0.00000000E+00  0.00000000E+00  0.00000000E+00
  0.00000000E+00  0.00000000E+00  0.00000000E+00
  0.00000000E+00  0.00000000E+00  0.00000000E+00
  0.00000000E+00  0.00000000E+00  0.00000000E+00
  0.00000000E+00  0.00000000E+00  0.00000000E+00
  0.00000000E+00  0.00000000E+00  0.00000000E+00
  0.00000000E+00  0.00000000E+00  0.00000000E+00
  0.00000000E+00  0.00000000E+00  0.00000000E+00
  0.00000000E+00  0.00000000E+00  0.00000000E+00
  0.00000000E+00  0.00000000E+00  0.00000000E+00
  0.00000000E+00  0.00000000E+00  0.00000000E+00
  0.00000000E+00  0.00000000E+00  0.00000000E+00
  0.00000000E+00  0.00000000E+00  0.00000000E+00
  0.00000000E+00  0.00000000E+00  0.00000000E+00
  0.00000000E+00  0.00000000E+00  0.00000000E+00
  0.00000000E+00  0.00000000E+00  0.00000000E+00
  0.00000000E+00  0.00000000E+00  0.00000000E+00
  0.00000000E+00  0.00000000E+00  0.00000000E+00
  0.00000000E+00  0.00000000E+00  0.00000000E+00
  0.00000000E+00  0.00000000E+00  0.00000000E+00
  0.00000000E+00  0.00000000E+00  0.00000000E+00
  0.00000000E+00  0.00000000E+00  0.00000000E+00
  0.00000000E+00  0.00000000E+00  0.00000000E+00
  0.00000000E+00  0.00000000E+00  0.00000000E+00
  0.00000000E+00  0.00000000E+00  0.00000000E+00
  0.00000000E+00  0.00000000E+00  0.00000000E+00
  0.00000000E+00  0.00000000E+00  0.00000000E+00
  0.00000000E+00  0.00000000E+00  0.00000000E+00
  0.00000000E+00  0.00000000E+00  0.00000000E+00
  0.00000000E+00  0.00000000E+00  0.00000000E+00
  0.00000000E+00  0.00000000E+00  0.00000000E+00
  0.00000000E+00  0.00000000E+00  0.00000000E+00
