CONTCAR\(10)                            
   1.00000000000000     
    10.9605998993000000    0.0000000000000000    0.0000000000000000
     5.4620360536000003    9.5107522852000006    0.0000000000000000
     0.0000000000000000    0.0000000000000000   24.0680007935000013
   Cr   Ga   S    O 
     9    18    36     1
Direct
  0.3365552978053469  0.0001700440380918  0.4986657732771351
  0.6640537220396953  0.0025213690222565  0.4991249554530238
  0.9994401304573287  0.0056720314776693  0.4990359086024026
  0.3323785752284962  0.3380083309307795  0.4986316027497310
  0.6596042148684912  0.3522935226222893  0.4989801590636460
 -0.0053468807687482  0.3420144369752128  0.4987359290904307
  0.3464149216419150  0.6655007483175214  0.4990351200343738
  0.6563543740094883  0.6607734800042581  0.4990929091136702
 -0.0028143114569772  0.6693768562566330  0.4990800372955675
  0.1101973306946170  0.1144478782797933  0.3543138388171733
  0.2207901343029295  0.2275727420939340  0.6421180903758921
  0.4431945948050988  0.1153307629922679  0.3537253512898629
  0.5523074209136094  0.2339434625468193  0.6421008198964081
  0.7758492723088272  0.1162542115322866  0.3556257120512845
  0.8829551151585041  0.2337574096847994  0.6426630720420713
  0.1109525501795471  0.4474716366519730  0.3536277440247493
  0.2269217972212560  0.5594708395027167  0.6421049497554333
  0.4438662701416446  0.4482076150063118  0.3527253872311329
  0.5532289114757108  0.5603645657723673  0.7272692460279570
  0.7769423839697750  0.4478282960590159  0.3515601571084145
  0.8828870793691381  0.5587242442732414  0.6430797021647093
  0.1119915983314516  0.7802036098728067  0.3556531912420746
  0.2268221277269260  0.8900781452324021  0.6426350756807744
  0.4433922898091604  0.7814205254172534  0.3517358813466221
  0.5518053236662778  0.8897276520631190  0.6430010807843837
  0.7760928934262160  0.7804251110159339  0.3552697703209353
  0.8873320316009847  0.8943249683210928  0.6423698269655764
  0.1109297734975849  0.1161496421987956  0.4479473327269806
  0.2205915726443773  0.2263261168105772  0.5483120523429491
  0.1086696382420067  0.1156030359227135  0.6816199412730258
  0.2212600570778977  0.2252658814999004  0.3111837785681441
  0.4431520424352938  0.1157700657061247  0.4472144951322264
  0.5555365223767330  0.2296425154463716  0.5483187737859093
  0.4447639492337588  0.1156152198761161  0.6814508437037801
  0.5558081194391921  0.2250233927952772  0.3112913576946991
  0.7740243876294547  0.1196090849965510  0.4487099811748202
  0.8835667972176539  0.2301855204627836  0.5489763786632450
  0.7756677130657899  0.1170248437807335  0.6832367207572363
  0.8884294805525920  0.2238595521892101  0.3111418953949504
  0.1104747140518825  0.4481617897594362  0.4471405612585470
  0.2237170139799452  0.5614018431347720  0.5483053147668630
  0.1090688202040894  0.4514934263465757  0.6814344327152415
  0.2207579074002494  0.5601610011897473  0.3112770785266571
  0.4429112359582622  0.4485296653655706  0.4461846133205700
  0.5527772213980714  0.5581163975665331  0.5542616376298333
  0.4354355443330554  0.4422810989874846  0.6890505746341415
  0.5545887727566498  0.5593161566742298  0.3097103454015037
  0.7780986147448874  0.4459290390072052  0.4446629390591021
  0.8831365254496770  0.5613603053541338  0.5496739464042093
  0.7901020585595701  0.4423066868686481  0.6892935658518772
  0.8885512181422637  0.5601500757680592  0.3111145724501846
  0.1138107559634873  0.7799938442262864  0.4487537800930080
  0.2241830172643813  0.8897734232832563  0.5489276794929395
  0.1101612571918031  0.7826808845065751  0.6832391716590538
  0.2197428483974845  0.8926066235773031  0.3111318505156312
  0.4413240972513850  0.7829653915882910  0.4448171062247024
  0.5558139147605604  0.8886389315416188  0.5496083707305142
  0.4353312693342347  0.7971996720351657  0.6893208974646075
  0.5557031019023496  0.8929383192393474  0.3112525071282295
  0.7735083026644399  0.7785074054936821  0.4480200068199057
  0.8878337293014817  0.8935305007301492  0.5490145199725613
  0.7758910951963144  0.7827237465107725  0.6832933918275393
  0.8880438480701631  0.8924908206431914  0.3144450340350342
  0.5541935843842718  0.5624646689539683  0.7976511609940711
 
  0.00000000E+00  0.00000000E+00  0.00000000E+00
  0.00000000E+00  0.00000000E+00  0.00000000E+00
  0.00000000E+00  0.00000000E+00  0.00000000E+00
  0.00000000E+00  0.00000000E+00  0.00000000E+00
  0.00000000E+00  0.00000000E+00  0.00000000E+00
  0.00000000E+00  0.00000000E+00  0.00000000E+00
  0.00000000E+00  0.00000000E+00  0.00000000E+00
  0.00000000E+00  0.00000000E+00  0.00000000E+00
  0.00000000E+00  0.00000000E+00  0.00000000E+00
  0.00000000E+00  0.00000000E+00  0.00000000E+00
  0.00000000E+00  0.00000000E+00  0.00000000E+00
  0.00000000E+00  0.00000000E+00  0.00000000E+00
  0.00000000E+00  0.00000000E+00  0.00000000E+00
  0.00000000E+00  0.00000000E+00  0.00000000E+00
  0.00000000E+00  0.00000000E+00  0.00000000E+00
  0.00000000E+00  0.00000000E+00  0.00000000E+00
  0.00000000E+00  0.00000000E+00  0.00000000E+00
  0.00000000E+00  0.00000000E+00  0.00000000E+00
  0.00000000E+00  0.00000000E+00  0.00000000E+00
  0.00000000E+00  0.00000000E+00  0.00000000E+00
  0.00000000E+00  0.00000000E+00  0.00000000E+00
  0.00000000E+00  0.00000000E+00  0.00000000E+00
  0.00000000E+00  0.00000000E+00  0.00000000E+00
  0.00000000E+00  0.00000000E+00  0.00000000E+00
  0.00000000E+00  0.00000000E+00  0.00000000E+00
  0.00000000E+00  0.00000000E+00  0.00000000E+00
  0.00000000E+00  0.00000000E+00  0.00000000E+00
  0.00000000E+00  0.00000000E+00  0.00000000E+00
  0.00000000E+00  0.00000000E+00  0.00000000E+00
  0.00000000E+00  0.00000000E+00  0.00000000E+00
  0.00000000E+00  0.00000000E+00  0.00000000E+00
  0.00000000E+00  0.00000000E+00  0.00000000E+00
  0.00000000E+00  0.00000000E+00  0.00000000E+00
  0.00000000E+00  0.00000000E+00  0.00000000E+00
  0.00000000E+00  0.00000000E+00  0.00000000E+00
  0.00000000E+00  0.00000000E+00  0.00000000E+00
  0.00000000E+00  0.00000000E+00  0.00000000E+00
  0.00000000E+00  0.00000000E+00  0.00000000E+00
  0.00000000E+00  0.00000000E+00  0.00000000E+00
  0.00000000E+00  0.00000000E+00  0.00000000E+00
  0.00000000E+00  0.00000000E+00  0.00000000E+00
  0.00000000E+00  0.00000000E+00  0.00000000E+00
  0.00000000E+00  0.00000000E+00  0.00000000E+00
  0.00000000E+00  0.00000000E+00  0.00000000E+00
  0.00000000E+00  0.00000000E+00  0.00000000E+00
  0.00000000E+00  0.00000000E+00  0.00000000E+00
  0.00000000E+00  0.00000000E+00  0.00000000E+00
  0.00000000E+00  0.00000000E+00  0.00000000E+00
  0.00000000E+00  0.00000000E+00  0.00000000E+00
  0.00000000E+00  0.00000000E+00  0.00000000E+00
  0.00000000E+00  0.00000000E+00  0.00000000E+00
  0.00000000E+00  0.00000000E+00  0.00000000E+00
  0.00000000E+00  0.00000000E+00  0.00000000E+00
  0.00000000E+00  0.00000000E+00  0.00000000E+00
  0.00000000E+00  0.00000000E+00  0.00000000E+00
  0.00000000E+00  0.00000000E+00  0.00000000E+00
  0.00000000E+00  0.00000000E+00  0.00000000E+00
  0.00000000E+00  0.00000000E+00  0.00000000E+00
  0.00000000E+00  0.00000000E+00  0.00000000E+00
  0.00000000E+00  0.00000000E+00  0.00000000E+00
  0.00000000E+00  0.00000000E+00  0.00000000E+00
  0.00000000E+00  0.00000000E+00  0.00000000E+00
  0.00000000E+00  0.00000000E+00  0.00000000E+00
  0.00000000E+00  0.00000000E+00  0.00000000E+00
