 Ag1 Sb2 F12                            
   1.00000000000000     
     4.8885859858968885    0.0000000000000000    0.0000000000000000
    -2.1100946939590539    4.7630764118837758    0.0000000000000000
     0.0000000000000000    0.0000000000000000   22.6324106886440006
   Ag   Sb   F 
     1     2    12
Direct
  0.8056197396365919  0.9053933960862511  0.5000072854418176
  0.0893924358728674  0.5057786980732267  0.6098341326833413
  0.5219500605672373  0.3050392301038563  0.3901703008067309
  0.4811141803532126  0.5906708597175528  0.4442151339430834
  0.1302084414620658  0.2202046835391191  0.5557778297267445
  0.9350363141096609  0.5378625709569185  0.3894501478227673
  0.0488916906821723  0.8108213978438266  0.6471061220299539
  0.5624527058765735  0.0000397310428274  0.3528890465639728
  0.5005168692123685  0.7187084348756860  0.5899674707960044
  0.1107911528444135  0.0921405316933215  0.4100412925713590
  0.0204130976680301  0.6493432579124034  0.5303853613091034
  0.5908785823893838  0.1614910031355460  0.4696215012073942
  0.1846093445825633  0.3571976320855420  0.6783192504515755
  0.4267056486059879  0.4535847017757749  0.3216817126019590
  0.6762657361368491  0.2730008711581503  0.6105334120442029
 
  0.00000000E+00  0.00000000E+00  0.00000000E+00
  0.00000000E+00  0.00000000E+00  0.00000000E+00
  0.00000000E+00  0.00000000E+00  0.00000000E+00
  0.00000000E+00  0.00000000E+00  0.00000000E+00
  0.00000000E+00  0.00000000E+00  0.00000000E+00
  0.00000000E+00  0.00000000E+00  0.00000000E+00
  0.00000000E+00  0.00000000E+00  0.00000000E+00
  0.00000000E+00  0.00000000E+00  0.00000000E+00
  0.00000000E+00  0.00000000E+00  0.00000000E+00
  0.00000000E+00  0.00000000E+00  0.00000000E+00
  0.00000000E+00  0.00000000E+00  0.00000000E+00
  0.00000000E+00  0.00000000E+00  0.00000000E+00
  0.00000000E+00  0.00000000E+00  0.00000000E+00
  0.00000000E+00  0.00000000E+00  0.00000000E+00
  0.00000000E+00  0.00000000E+00  0.00000000E+00
