CONTCAR\(9)                             
   1.00000000000000     
    13.8964004516999999    0.0000000000000000    0.0000000000000000
     0.0991868080000000   15.6682861384999992    0.0000000000000000
     0.0000000000000000    0.0000000000000000   19.4270992279000012
   Ta   Ni   Se   O 
    16     8    40     1
Direct
  0.0624146358881342  0.1087531899025331  0.4777367065236067
  0.0602600929842094  0.3918045284657718  0.4836328622733864
  0.1849911121768701  0.8934884995181462  0.5182166586007330
  0.1903901143572491  0.6118104332271971  0.5273255948338663
  0.3125955866636079  0.1059891114713238  0.4758398145063892
  0.3083662590109585  0.3833562904127841  0.4798659125035917
  0.4367309109955064  0.8923013741942489  0.5193449024430824
  0.4391283581435798  0.6203311365920599  0.5456477113942999
  0.5640297311517516  0.1061483543735502  0.4749461322675841
  0.5636070660512004  0.3823325774474765  0.4783927226620983
  0.6886373866554671  0.8937780717017769  0.5179216649787637
  0.6880074809344118  0.6124385262106504  0.5272166681446823
  0.8141720944550046  0.1086047171956649  0.4774573630248609
  0.8112168661535252  0.3920108251908997  0.4834731549625680
  0.9370882453940554  0.8915002007954362  0.5191494902088651
  0.9393544604778947  0.6096078959219104  0.5205150377163632
  0.1851494324169233  0.2489887317808523  0.4655874344996618
  0.0611692566430371  0.7515409488224866  0.5347633262027796
  0.4367779682636024  0.2473026688724327  0.4669584703901485
  0.3091291303757975  0.7569176879670497  0.5367322392511530
  0.6895967365394537  0.2488794819336952  0.4646106691389254
  0.5664285903603857  0.7573139865957158  0.5366258965217743
  0.9373295993994507  0.2515245576559658  0.4660072016042851
  0.8142667400797451  0.7517573400769838  0.5344285536956558
  0.1853056730018650  0.1402172686433060  0.3828153347461906
  0.1847661988915079  0.3624879390369187  0.3863870465362204
  0.0633026609517810  0.8638554307890095  0.6140171058210455
  0.0575359918422066  0.6418250291179073  0.6173071204013004
  0.0621770059471191  0.9496155430743799  0.4273325136419507
  0.0654015520867638  0.5513832147272548  0.4339873808136899
  0.1866689708406983  0.0513267059206584  0.5680645208105741
  0.1904740862421779  0.4484701064925928  0.5731286075998836
  0.0616765115008487  0.2484694232560532  0.5500551960830879
  0.1876114068667125  0.7482060740289131  0.4519263048881695
  0.4366009565433522  0.1399199112793246  0.3826633417927952
  0.4376036868630589  0.3590546052333989  0.3857135102734705
  0.3124532204260894  0.8705112534677744  0.6140402972764648
  0.2983312207297869  0.6583397136414059  0.6266493933311101
  0.3126919884534980  0.9479071664116504  0.4269236362763496
  0.3202317005121266  0.5478259610729775  0.4476784213178617
  0.4375264548886436  0.0521682535373906  0.5666194897579278
  0.4395500532557459  0.4027155930097420  0.5793742856823939
  0.3084753894469291  0.2435106658628618  0.5503686514749347
  0.4376960708277071  0.7473821131994447  0.4555372850148865
  0.6888329343295428  0.1397916882157906  0.3820842176239105
  0.6921607340560317  0.3626941204281064  0.3856576495532887
  0.5642923662641797  0.8712021540440444  0.6137321510264014
  0.5739131619409668  0.6593271493680904  0.6272203787560421
  0.5632401576385576  0.9479649998397635  0.4266711698814210
  0.5511640649754970  0.5479194220560308  0.4498880211795865
  0.6877230835213443  0.0516031674411902  0.5676723532714359
  0.6861057734041970  0.4489156714279493  0.5723864886211054
  0.5665820076206944  0.2433531348862488  0.5499138937490321
  0.6877377957371588  0.7484234930094174  0.4516333269967186
  0.9371862715383280  0.1423361122241527  0.3834586459575340
  0.9383449492817573  0.3654072092431970  0.3881495313599393
  0.8135427442457498  0.8640593370067585  0.6136964379670252
  0.8152555633218649  0.6420923772944993  0.6173568897203412
  0.8143627990184321  0.9495609773575686  0.4273339658097526
  0.8074119471196397  0.5516756738614125  0.4341930116742040
  0.9371975743033041  0.0509512886438557  0.5684807031018407
  0.9380468448612934  0.4507380328002589  0.5734353650523444
  0.8125801150021937  0.2484308626919886  0.5495113407751274
  0.9379170035829190  0.7497186637775562  0.4497945851819742
  0.4371737635459040  0.5150522252524942  0.5966533908515496
 
  0.00000000E+00  0.00000000E+00  0.00000000E+00
  0.00000000E+00  0.00000000E+00  0.00000000E+00
  0.00000000E+00  0.00000000E+00  0.00000000E+00
  0.00000000E+00  0.00000000E+00  0.00000000E+00
  0.00000000E+00  0.00000000E+00  0.00000000E+00
  0.00000000E+00  0.00000000E+00  0.00000000E+00
  0.00000000E+00  0.00000000E+00  0.00000000E+00
  0.00000000E+00  0.00000000E+00  0.00000000E+00
  0.00000000E+00  0.00000000E+00  0.00000000E+00
  0.00000000E+00  0.00000000E+00  0.00000000E+00
  0.00000000E+00  0.00000000E+00  0.00000000E+00
  0.00000000E+00  0.00000000E+00  0.00000000E+00
  0.00000000E+00  0.00000000E+00  0.00000000E+00
  0.00000000E+00  0.00000000E+00  0.00000000E+00
  0.00000000E+00  0.00000000E+00  0.00000000E+00
  0.00000000E+00  0.00000000E+00  0.00000000E+00
  0.00000000E+00  0.00000000E+00  0.00000000E+00
  0.00000000E+00  0.00000000E+00  0.00000000E+00
  0.00000000E+00  0.00000000E+00  0.00000000E+00
  0.00000000E+00  0.00000000E+00  0.00000000E+00
  0.00000000E+00  0.00000000E+00  0.00000000E+00
  0.00000000E+00  0.00000000E+00  0.00000000E+00
  0.00000000E+00  0.00000000E+00  0.00000000E+00
  0.00000000E+00  0.00000000E+00  0.00000000E+00
  0.00000000E+00  0.00000000E+00  0.00000000E+00
  0.00000000E+00  0.00000000E+00  0.00000000E+00
  0.00000000E+00  0.00000000E+00  0.00000000E+00
  0.00000000E+00  0.00000000E+00  0.00000000E+00
  0.00000000E+00  0.00000000E+00  0.00000000E+00
  0.00000000E+00  0.00000000E+00  0.00000000E+00
  0.00000000E+00  0.00000000E+00  0.00000000E+00
  0.00000000E+00  0.00000000E+00  0.00000000E+00
  0.00000000E+00  0.00000000E+00  0.00000000E+00
  0.00000000E+00  0.00000000E+00  0.00000000E+00
  0.00000000E+00  0.00000000E+00  0.00000000E+00
  0.00000000E+00  0.00000000E+00  0.00000000E+00
  0.00000000E+00  0.00000000E+00  0.00000000E+00
  0.00000000E+00  0.00000000E+00  0.00000000E+00
  0.00000000E+00  0.00000000E+00  0.00000000E+00
  0.00000000E+00  0.00000000E+00  0.00000000E+00
  0.00000000E+00  0.00000000E+00  0.00000000E+00
  0.00000000E+00  0.00000000E+00  0.00000000E+00
  0.00000000E+00  0.00000000E+00  0.00000000E+00
  0.00000000E+00  0.00000000E+00  0.00000000E+00
  0.00000000E+00  0.00000000E+00  0.00000000E+00
  0.00000000E+00  0.00000000E+00  0.00000000E+00
  0.00000000E+00  0.00000000E+00  0.00000000E+00
  0.00000000E+00  0.00000000E+00  0.00000000E+00
  0.00000000E+00  0.00000000E+00  0.00000000E+00
  0.00000000E+00  0.00000000E+00  0.00000000E+00
  0.00000000E+00  0.00000000E+00  0.00000000E+00
  0.00000000E+00  0.00000000E+00  0.00000000E+00
  0.00000000E+00  0.00000000E+00  0.00000000E+00
  0.00000000E+00  0.00000000E+00  0.00000000E+00
  0.00000000E+00  0.00000000E+00  0.00000000E+00
  0.00000000E+00  0.00000000E+00  0.00000000E+00
  0.00000000E+00  0.00000000E+00  0.00000000E+00
  0.00000000E+00  0.00000000E+00  0.00000000E+00
  0.00000000E+00  0.00000000E+00  0.00000000E+00
  0.00000000E+00  0.00000000E+00  0.00000000E+00
  0.00000000E+00  0.00000000E+00  0.00000000E+00
  0.00000000E+00  0.00000000E+00  0.00000000E+00
  0.00000000E+00  0.00000000E+00  0.00000000E+00
  0.00000000E+00  0.00000000E+00  0.00000000E+00
  0.00000000E+00  0.00000000E+00  0.00000000E+00
