CONTCAR                                 
   1.00000000000000     
     7.8445000648000001    0.0000000000000000    0.0000000000000000
     3.9223001003000002    6.7936230563000004    0.0000000000000000
     0.0000000000000000    0.0000000000000000   18.9503002167000005
   Te   Pt   O    H 
     8     8     2     1
Direct
  0.3349500626336077  0.3332085905635456  0.6150279946391528
  0.3356113468023284  0.3323166236371182  0.3927568585752648
  0.8327001290990224  0.3325267261922046  0.6147423301605338
  0.8325931070671704  0.3322020143558602  0.3926715151385123
  0.3317776714058118  0.8362978937872161  0.5970270436981689
  0.3337126364476550  0.8330002824110420  0.3952700594466093
  0.8327695588257938  0.8353437859059063  0.6149189122212448
  0.8318604030101927  0.8361362668689055  0.3925925193944989
  0.1612665794795117  0.1784901008698058  0.5434594490639401
 -0.0010915197900596  0.0007596305428525  0.4622124032753620
  0.6663504286818316  0.1671348235763818  0.5455600877831116
  0.5008413033845771  0.0007659010950855  0.4624586474149954
  0.1617865536662673  0.6614779457690719  0.5437024323968351
 -0.0001769781517542  0.5004887576199479  0.4599893503541488
  0.6768285780803445  0.6616094251979311  0.5439938060326693
  0.5010280885898973  0.4985371061087544  0.4623301190332444
  0.3187718852222253  0.8661987048975852  0.7073260824578086
  0.4182257951270165  0.6696123503036205  0.7385735588069247
  0.5475143394185621  0.6542230302971536  0.7497366751069704
 
  0.00000000E+00  0.00000000E+00  0.00000000E+00
  0.00000000E+00  0.00000000E+00  0.00000000E+00
  0.00000000E+00  0.00000000E+00  0.00000000E+00
  0.00000000E+00  0.00000000E+00  0.00000000E+00
  0.00000000E+00  0.00000000E+00  0.00000000E+00
  0.00000000E+00  0.00000000E+00  0.00000000E+00
  0.00000000E+00  0.00000000E+00  0.00000000E+00
  0.00000000E+00  0.00000000E+00  0.00000000E+00
  0.00000000E+00  0.00000000E+00  0.00000000E+00
  0.00000000E+00  0.00000000E+00  0.00000000E+00
  0.00000000E+00  0.00000000E+00  0.00000000E+00
  0.00000000E+00  0.00000000E+00  0.00000000E+00
  0.00000000E+00  0.00000000E+00  0.00000000E+00
  0.00000000E+00  0.00000000E+00  0.00000000E+00
  0.00000000E+00  0.00000000E+00  0.00000000E+00
  0.00000000E+00  0.00000000E+00  0.00000000E+00
  0.00000000E+00  0.00000000E+00  0.00000000E+00
  0.00000000E+00  0.00000000E+00  0.00000000E+00
  0.00000000E+00  0.00000000E+00  0.00000000E+00
