CONTCAR\(5)                             
   1.00000000000000     
    11.7456998825000003    0.0000000000000000    0.0000000000000000
     0.0000000000000000   17.6870002747000008    0.0000000000000000
     0.0000000000000000    0.0000000000000000   19.5771007537999999
   Ti   Ge   Te   O    H 
     6     6    36     1     1
Direct
  0.0824436372370056  0.4795233371559597  0.5138905640692403
  0.2580783192622604  0.9559890117553692  0.5033755046554697
  0.4178046428939341  0.4792977968595100  0.5149231419452667
  0.5857285429722509  0.9530831316778682  0.4860481407480780
  0.7510419782975438  0.4784835376438977  0.5139260088419914
  0.9129119434825875  0.9526702415162824  0.4834734174413332
  0.2526619067025185  0.8053414695471941  0.4883414217049154
  0.0844272705521520  0.6300820148993300  0.5232985405108733
  0.5876607944521942  0.8014002979634024  0.4759325414859207
  0.4172851381199753  0.6298019813811466  0.5244489319978184
  0.9149563999146865  0.8020097883479722  0.4759851665135127
  0.7511571589031117  0.6281837488827300  0.5201050115249548
  0.0928685935652155  0.9238351186612140  0.3864213481405152
  0.2498678905261331  0.2574617488727506  0.5775785601635994
  0.2484645760192691  0.0578863973164967  0.3886682805948790
  0.0640839560730806  0.8923472416002136  0.5835973266633301
  0.2489801979655762  0.5071240968561596  0.6210330561122558
  0.0836778581004362  0.3697334812376235  0.6202909628145111
  0.0818136942727082  0.1734794048428913  0.4317034616771406
  0.2501795502157356  0.7047257396316382  0.5951272485906146
  0.0890491018379490  0.7274729053662379  0.4133067381640776
  0.2506259861353634  0.3810371705102537  0.4590507836850971
  0.0725356885757117  0.0493025943951034  0.5470046118258345
  0.2509036302704425  0.5347021174071157  0.4177729890199448
  0.4117458434413205  0.9220750433279056  0.3852431861712270
  0.5855167592951579  0.2581493366594072  0.5786957602534598
  0.5894077155392204  0.0553304027010072  0.3738648182489540
  0.4456095746496039  0.8841613878296801  0.5823817310928551
  0.5839466566784001  0.5090700224422998  0.6208188837749872
  0.4170235223353937  0.3696291060560219  0.6212077885647940
  0.4265943021902002  0.1733593869105880  0.4293733759084071
  0.5870103837109767  0.7086575952402246  0.5894054382743966
  0.4137927142230000  0.7260550162958923  0.4138307838980366
  0.5840224851747893  0.3795170743977487  0.4606752777956539
  0.4334606661863890  0.0646789969606247  0.5362063702253865
  0.5832507435683287  0.5333820506619475  0.4174399326986838
  0.7506970231382728  0.9222896354200226  0.3760865286964845
  0.9157711020682434  0.2571755124282017  0.5762250900215624
  0.9220737097167617  0.0642435443759310  0.3784425637856104
  0.7525787623392434  0.9004161451277040  0.5824214389498403
  0.9167824461260383  0.5102804057685909  0.6199411581868788
  0.7514501539666254  0.3705416569489051  0.6217925233516235
  0.7492056748407805  0.1722021086071426  0.4149558709684043
  0.9153665239727030  0.7085039557678456  0.5889509387201297
  0.7531621000861917  0.7183171903738638  0.4063914281166177
  0.9170221187232417  0.3795194450508240  0.4596938234994022
  0.7513853234862197  0.0534432640030200  0.5380706103712884
  0.9160516669959670  0.5343001974989717  0.4168027801907522
  0.2805225721541024  0.9608379463104703  0.6099419563861398
  0.2947712750449955  0.0091590575067774  0.6331265309572680
 
  0.00000000E+00  0.00000000E+00  0.00000000E+00
  0.00000000E+00  0.00000000E+00  0.00000000E+00
  0.00000000E+00  0.00000000E+00  0.00000000E+00
  0.00000000E+00  0.00000000E+00  0.00000000E+00
  0.00000000E+00  0.00000000E+00  0.00000000E+00
  0.00000000E+00  0.00000000E+00  0.00000000E+00
  0.00000000E+00  0.00000000E+00  0.00000000E+00
  0.00000000E+00  0.00000000E+00  0.00000000E+00
  0.00000000E+00  0.00000000E+00  0.00000000E+00
  0.00000000E+00  0.00000000E+00  0.00000000E+00
  0.00000000E+00  0.00000000E+00  0.00000000E+00
  0.00000000E+00  0.00000000E+00  0.00000000E+00
  0.00000000E+00  0.00000000E+00  0.00000000E+00
  0.00000000E+00  0.00000000E+00  0.00000000E+00
  0.00000000E+00  0.00000000E+00  0.00000000E+00
  0.00000000E+00  0.00000000E+00  0.00000000E+00
  0.00000000E+00  0.00000000E+00  0.00000000E+00
  0.00000000E+00  0.00000000E+00  0.00000000E+00
  0.00000000E+00  0.00000000E+00  0.00000000E+00
  0.00000000E+00  0.00000000E+00  0.00000000E+00
  0.00000000E+00  0.00000000E+00  0.00000000E+00
  0.00000000E+00  0.00000000E+00  0.00000000E+00
  0.00000000E+00  0.00000000E+00  0.00000000E+00
  0.00000000E+00  0.00000000E+00  0.00000000E+00
  0.00000000E+00  0.00000000E+00  0.00000000E+00
  0.00000000E+00  0.00000000E+00  0.00000000E+00
  0.00000000E+00  0.00000000E+00  0.00000000E+00
  0.00000000E+00  0.00000000E+00  0.00000000E+00
  0.00000000E+00  0.00000000E+00  0.00000000E+00
  0.00000000E+00  0.00000000E+00  0.00000000E+00
  0.00000000E+00  0.00000000E+00  0.00000000E+00
  0.00000000E+00  0.00000000E+00  0.00000000E+00
  0.00000000E+00  0.00000000E+00  0.00000000E+00
  0.00000000E+00  0.00000000E+00  0.00000000E+00
  0.00000000E+00  0.00000000E+00  0.00000000E+00
  0.00000000E+00  0.00000000E+00  0.00000000E+00
  0.00000000E+00  0.00000000E+00  0.00000000E+00
  0.00000000E+00  0.00000000E+00  0.00000000E+00
  0.00000000E+00  0.00000000E+00  0.00000000E+00
  0.00000000E+00  0.00000000E+00  0.00000000E+00
  0.00000000E+00  0.00000000E+00  0.00000000E+00
  0.00000000E+00  0.00000000E+00  0.00000000E+00
  0.00000000E+00  0.00000000E+00  0.00000000E+00
  0.00000000E+00  0.00000000E+00  0.00000000E+00
  0.00000000E+00  0.00000000E+00  0.00000000E+00
  0.00000000E+00  0.00000000E+00  0.00000000E+00
  0.00000000E+00  0.00000000E+00  0.00000000E+00
  0.00000000E+00  0.00000000E+00  0.00000000E+00
  0.00000000E+00  0.00000000E+00  0.00000000E+00
  0.00000000E+00  0.00000000E+00  0.00000000E+00
