CONTCAR\(10)                            
   1.00000000000000     
    12.8523998259999992    0.0000000000000000    0.0000000000000000
    -6.4262191805000004   11.1304936247999997    0.0000000000000000
     0.0000000000000000    0.0000000000000000   19.0007991790999995
   Sr   Cu   O 
    18    18     1
Direct
  0.9996586047866608  0.0004472638663290  0.6070502513170906
  0.0007310971730050  0.9993066094330796  0.3971582661973428
  0.3340433617974231  0.0003529409263041  0.6072575771302541
  0.3319109174810872  0.9992318058279285  0.3971656051391813
  0.6679714797258343  0.0027656466031008  0.6047320306646887
  0.6664733128208270  0.9997978433989423  0.3950843984418053
  0.9972533174396593  0.3320356073375137  0.6047252816261408
  0.0002069473677043  0.3335088069641473  0.3951500891552193
  0.3450823040809496  0.3568038630018933  0.6134321565037240
  0.3318544139936253  0.3302186737828152  0.3943276552250009
  0.6679494182490234  0.3320788389295466  0.6046159997927143
  0.6665421852595319  0.3334442404965030  0.3951181476159462
  0.9996976314981968  0.6659773059549585  0.6070733123754775
  0.0008395776248917  0.6682078324332100  0.3971813533503725
  0.3451591802112934  0.6546190048784933  0.6134982514282820
  0.3319251263384668  0.6683321105008344  0.3944108984430647
  0.6428808173509158  0.6546918730370387  0.6134252392233023
  0.6697996881730017  0.6682868375162212  0.3943936675836588
  0.1126526615219859  0.2234528779473040  0.5020836438034977
  0.2228986725508882  0.1125384191063802  0.5030929780830963
  0.4438971548973251  0.2232464451040523  0.5021178711346314
  0.5543682298780827  0.1105833686183042  0.5005750855365215
  0.7776751146331082  0.2222675235237115  0.4989231164305358
  0.8892883928591437  0.1107167877050578  0.5005320627548639
  0.1129142674228406  0.5559618523047984  0.5021451957885518
  0.2216276277735221  0.4440544047974824  0.4963996027205899
  0.4444218102340249  0.5555512449770380  0.4891803099755797
  0.5559845852284523  0.4439756158028965  0.4963599983567322
  0.7767351301684802  0.5561248825177472  0.5020769613533961
  0.8894033330002111  0.4456000828603840  0.5005449305779252
  0.1112632179604054  0.8888608711113284  0.5031723203138257
  0.2230435733007341  0.7770567446279005  0.5031909066779635
  0.4440830627940059  0.8871679704154641  0.5022234370626347
  0.5559387315287951  0.7784120760077841  0.4964877511959996
  0.7765570689433167  0.8873984221274185  0.5021182055827859
  0.8874929412126886  0.7771754235832252  0.5031128966820951
  0.4443750897198758  0.5552876499728685  0.6480225537555117
 
  0.00000000E+00  0.00000000E+00  0.00000000E+00
  0.00000000E+00  0.00000000E+00  0.00000000E+00
  0.00000000E+00  0.00000000E+00  0.00000000E+00
  0.00000000E+00  0.00000000E+00  0.00000000E+00
  0.00000000E+00  0.00000000E+00  0.00000000E+00
  0.00000000E+00  0.00000000E+00  0.00000000E+00
  0.00000000E+00  0.00000000E+00  0.00000000E+00
  0.00000000E+00  0.00000000E+00  0.00000000E+00
  0.00000000E+00  0.00000000E+00  0.00000000E+00
  0.00000000E+00  0.00000000E+00  0.00000000E+00
  0.00000000E+00  0.00000000E+00  0.00000000E+00
  0.00000000E+00  0.00000000E+00  0.00000000E+00
  0.00000000E+00  0.00000000E+00  0.00000000E+00
  0.00000000E+00  0.00000000E+00  0.00000000E+00
  0.00000000E+00  0.00000000E+00  0.00000000E+00
  0.00000000E+00  0.00000000E+00  0.00000000E+00
  0.00000000E+00  0.00000000E+00  0.00000000E+00
  0.00000000E+00  0.00000000E+00  0.00000000E+00
  0.00000000E+00  0.00000000E+00  0.00000000E+00
  0.00000000E+00  0.00000000E+00  0.00000000E+00
  0.00000000E+00  0.00000000E+00  0.00000000E+00
  0.00000000E+00  0.00000000E+00  0.00000000E+00
  0.00000000E+00  0.00000000E+00  0.00000000E+00
  0.00000000E+00  0.00000000E+00  0.00000000E+00
  0.00000000E+00  0.00000000E+00  0.00000000E+00
  0.00000000E+00  0.00000000E+00  0.00000000E+00
  0.00000000E+00  0.00000000E+00  0.00000000E+00
  0.00000000E+00  0.00000000E+00  0.00000000E+00
  0.00000000E+00  0.00000000E+00  0.00000000E+00
  0.00000000E+00  0.00000000E+00  0.00000000E+00
  0.00000000E+00  0.00000000E+00  0.00000000E+00
  0.00000000E+00  0.00000000E+00  0.00000000E+00
  0.00000000E+00  0.00000000E+00  0.00000000E+00
  0.00000000E+00  0.00000000E+00  0.00000000E+00
  0.00000000E+00  0.00000000E+00  0.00000000E+00
  0.00000000E+00  0.00000000E+00  0.00000000E+00
  0.00000000E+00  0.00000000E+00  0.00000000E+00
