 Pd2 Se2 O6                             
   1.00000000000000     
     4.8813340644131866    0.0000000000000000    0.0000000000000000
     0.0000000000000000    4.8785950593791236    0.0000000000000000
     0.0000000000000000    0.0000000000000000   19.3710395623719975
   Pd   Se   O 
     2     2     6
Direct
  0.0084883052772970  0.5000693053876519  0.5000131386399985
  0.5083180575938174  0.9999975569636469  0.4999932935629933
  0.5075778196298362  0.4993293901972451  0.6155613032893014
  0.5094390764357235  0.5006758587908909  0.3844354846009285
  0.4408162224928408  0.8333419068737253  0.4053407211920059
  0.8417047455719160  0.4308860364507718  0.4054501437329026
  0.3377146074053398  0.3294199734843690  0.4558769469775852
  0.5758759731261616  0.1665997848704433  0.5946486787565123
  0.6790547028889581  0.6705421855257858  0.5440928416698729
  0.1752851774368531  0.5692280014554743  0.5945874475779017
 
  0.00000000E+00  0.00000000E+00  0.00000000E+00
  0.00000000E+00  0.00000000E+00  0.00000000E+00
  0.00000000E+00  0.00000000E+00  0.00000000E+00
  0.00000000E+00  0.00000000E+00  0.00000000E+00
  0.00000000E+00  0.00000000E+00  0.00000000E+00
  0.00000000E+00  0.00000000E+00  0.00000000E+00
  0.00000000E+00  0.00000000E+00  0.00000000E+00
  0.00000000E+00  0.00000000E+00  0.00000000E+00
  0.00000000E+00  0.00000000E+00  0.00000000E+00
  0.00000000E+00  0.00000000E+00  0.00000000E+00
