CONTCAR                                 
   1.00000000000000     
    14.0806999207000008    0.0000000000000000    0.0000000000000000
     0.0000000000000000   14.0806999207000008    0.0000000000000000
     0.0000000000000000    0.0000000000000000   21.7056999206999990
   Zr   Si   Se   O    H 
    32    32    32     1     1
Direct
  0.1248230443175078  0.9998591578237368  0.6002536325462243
  0.0000328129054395  0.1250434639631076  0.4004879620296830
  0.3749848885997066  0.9997463356805721  0.6006612445678444
  0.2501475539908062  0.1250177781536749  0.4009090667450058
  0.6251819374166763  0.9998669611928823  0.6002914073273283
  0.4998246341425623  0.1250149712460870  0.4009621318061410
  0.8749979435681231  0.0000832132160986  0.5998972333806709
  0.7498858043046106  0.1250705835943087  0.4005456625055566
  0.1248224304423197  0.2500816605917612  0.6002522756615873
  0.0000019543384258  0.3747794898612512  0.4003195488312318
  0.3749665952707609  0.2501475945562034  0.6006282349104919
  0.2502461090749663  0.3751031486103924  0.4010215242761000
  0.6251525495279673  0.2500899206336857  0.6003146937695593
  0.4997258400134421  0.3750991452585968  0.4010585337244471
  0.8750082600314508  0.2498978151331488  0.5999183712361027
  0.7499499383513368  0.3747428381990829  0.4003692902733273
  0.1233977826820849  0.4993722131436436  0.5995085692825466
  0.0001371927195762  0.6250377938126030  0.4001247334663148
  0.3749602267630342  0.5013620825672045  0.6025065669455839
  0.2502462111460757  0.6250002865881644  0.4012565685287264
  0.6266256312512073  0.4992993461284728  0.5995125888383144
  0.4997405234563942  0.6250107492165600  0.4013005763023238
  0.8749709078045209  0.4996649312674143  0.5998169606028332
  0.7498977523539551  0.6250419450644442  0.4001594980639113
  0.1233981405186050  0.7505692675661187  0.5995369054964726
  0.0000448377590403  0.8751450383068621  0.4003171385855672
  0.3750089796596202  0.7484929989144173  0.6027907882385575
  0.2502791881518064  0.8748264114886461  0.4010543320820854
  0.6266019721871778  0.7505659852304671  0.5995681084329832
  0.4997127174035996  0.8748261381262846  0.4010991744671993
  0.8749782272727257  0.7503115904030906  0.5998248172422652
  0.7499632985860788  0.8751501949673646  0.4003339948775254
 -0.0000387755912196  0.0000482700126858  0.5001677290577280
  0.1249517439801380  0.1249938673028327  0.5004548194018484
  0.2501371972224201  0.9998720029528267  0.5008004776379718
  0.3749477442776238  0.1250184168830125  0.5008553297799785
  0.4998617759303556  0.9998757257745458  0.5008048730920888
  0.6250488194233804  0.1250167673363455  0.5005218631333150
  0.7500250061509918  0.0000274591914908  0.5001873200427004
  0.8749930235437439  0.1249966959552936  0.5001202107907468
  0.9999584364540665  0.2499457311565059  0.5001714667478823
  0.1248586083686636  0.3747421336116629  0.5001702406364836
  0.2501219049471530  0.2501249770351758  0.5007855307489678
  0.3749818869471719  0.3754260527642052  0.5012581995401524
  0.4998643633782847  0.2501008301839348  0.5008402320610521
  0.6251367366561916  0.3747171037931383  0.5001997754472608
  0.7500898976597443  0.2498765781999460  0.5003149414523753
  0.8749987821398417  0.3746645892216213  0.4999762740459563
  0.9996707476314524  0.4999154046003960  0.4998440071772525
  0.1245978414409712  0.6249905147970135  0.4999832373786353
  0.2499628882939498  0.5000443439209725  0.5010294490561492
  0.3749592525825051  0.6250431959823254  0.5012968622837010
  0.5000372198460360  0.5000809904364558  0.5010000657773889
  0.6254507443508550  0.6250360938902193  0.5000070595350460
  0.7503463185552905  0.4998861399978085  0.4998375192023906
  0.8750137614711113  0.6249600745400953  0.4998915084792411
  0.9996268139118947  0.7500862171301719  0.4998409900055675
  0.1248622557787885  0.8752176435144736  0.5001816203652788
  0.2499879567791709  0.7499313201912109  0.5011245264823116
  0.3749845156189716  0.8745042271755656  0.5013115781801711
  0.5000078870696951  0.7499084869507464  0.5011476753989067
  0.6251516627057870  0.8751915728473935  0.5002157491096602
  0.7505365539249983  0.7500880923947334  0.4998414717358255
  0.8750201044820928  0.8753501580397934  0.4999627389619640
  0.9999330302771834  0.1250037268716499  0.6543097269673823
  0.1253669207678823  0.0000240983512012  0.3465142493183660
  0.2497646389461591  0.1249059215564730  0.6546442991171083
  0.3750190077804484  0.0000000193107393  0.3467245164641803
  0.5001862480542550  0.1249497318100607  0.6546597224280513
  0.6245609442468697  0.0000374936994957  0.3465207874680370
  0.7500670198177919  0.1249521165330730  0.6543992142307501
  0.8749275468710941  0.0002696437957114  0.3459944900263237
  0.9992490911337255  0.3746031847026590  0.6547599986285803
  0.1253849118892675  0.2499689782255809  0.3463127295593925
  0.2493751297406754  0.3748553148071961  0.6547435319088205
  0.3750577796666156  0.2499663235299187  0.3466007683439417
  0.5005416170378432  0.3749071487147690  0.6547725522552829
  0.6244443261304270  0.2499472990874898  0.3463669064837687
  0.7507922631852754  0.3744699139231040  0.6548481242739851
  0.8749898678292077  0.2498415242307797  0.3457624714145439
  0.9988633248518923  0.6250063708580779  0.6540589386539264
  0.1254126995279955  0.4999667533791707  0.3462946283330651
  0.2435538196096469  0.6249317694427388  0.6495565065213926
  0.3750297974363737  0.5000345552058015  0.3467140964716152
  0.5064282719529821  0.6248354729098226  0.6494232119323693
  0.6246272374321669  0.4999614835065430  0.3463899408746788
  0.7510469710233336  0.6248925041413453  0.6541642228023823
  0.8749552214059305  0.4998304700819901  0.3460725761697523
  0.9992498220000318  0.8754562106621387  0.6547882856744520
  0.1255521893538422  0.7500404255201787  0.3461042578869705
  0.2493529314111156  0.8750919285445865  0.6548104423937153
  0.3750381409467385  0.7499466313123329  0.3465883686651205
  0.5006338993871935  0.8750886046000667  0.6548441705296469
  0.6244355395127075  0.7500564112603900  0.3462569641789645
  0.7507880319842277  0.8754314710235657  0.6548172376883543
  0.8750761394098371  0.7502024805588194  0.3458499601843592
  0.3753304765913834  0.6273851866959107  0.7246873467132532
  0.3755155698441391  0.6280560648556408  0.7699169486469362
 
  0.00000000E+00  0.00000000E+00  0.00000000E+00
  0.00000000E+00  0.00000000E+00  0.00000000E+00
  0.00000000E+00  0.00000000E+00  0.00000000E+00
  0.00000000E+00  0.00000000E+00  0.00000000E+00
  0.00000000E+00  0.00000000E+00  0.00000000E+00
  0.00000000E+00  0.00000000E+00  0.00000000E+00
  0.00000000E+00  0.00000000E+00  0.00000000E+00
  0.00000000E+00  0.00000000E+00  0.00000000E+00
  0.00000000E+00  0.00000000E+00  0.00000000E+00
  0.00000000E+00  0.00000000E+00  0.00000000E+00
  0.00000000E+00  0.00000000E+00  0.00000000E+00
  0.00000000E+00  0.00000000E+00  0.00000000E+00
  0.00000000E+00  0.00000000E+00  0.00000000E+00
  0.00000000E+00  0.00000000E+00  0.00000000E+00
  0.00000000E+00  0.00000000E+00  0.00000000E+00
  0.00000000E+00  0.00000000E+00  0.00000000E+00
  0.00000000E+00  0.00000000E+00  0.00000000E+00
  0.00000000E+00  0.00000000E+00  0.00000000E+00
  0.00000000E+00  0.00000000E+00  0.00000000E+00
  0.00000000E+00  0.00000000E+00  0.00000000E+00
  0.00000000E+00  0.00000000E+00  0.00000000E+00
  0.00000000E+00  0.00000000E+00  0.00000000E+00
  0.00000000E+00  0.00000000E+00  0.00000000E+00
  0.00000000E+00  0.00000000E+00  0.00000000E+00
  0.00000000E+00  0.00000000E+00  0.00000000E+00
  0.00000000E+00  0.00000000E+00  0.00000000E+00
  0.00000000E+00  0.00000000E+00  0.00000000E+00
  0.00000000E+00  0.00000000E+00  0.00000000E+00
  0.00000000E+00  0.00000000E+00  0.00000000E+00
  0.00000000E+00  0.00000000E+00  0.00000000E+00
  0.00000000E+00  0.00000000E+00  0.00000000E+00
  0.00000000E+00  0.00000000E+00  0.00000000E+00
  0.00000000E+00  0.00000000E+00  0.00000000E+00
  0.00000000E+00  0.00000000E+00  0.00000000E+00
  0.00000000E+00  0.00000000E+00  0.00000000E+00
  0.00000000E+00  0.00000000E+00  0.00000000E+00
  0.00000000E+00  0.00000000E+00  0.00000000E+00
  0.00000000E+00  0.00000000E+00  0.00000000E+00
  0.00000000E+00  0.00000000E+00  0.00000000E+00
  0.00000000E+00  0.00000000E+00  0.00000000E+00
  0.00000000E+00  0.00000000E+00  0.00000000E+00
  0.00000000E+00  0.00000000E+00  0.00000000E+00
  0.00000000E+00  0.00000000E+00  0.00000000E+00
  0.00000000E+00  0.00000000E+00  0.00000000E+00
  0.00000000E+00  0.00000000E+00  0.00000000E+00
  0.00000000E+00  0.00000000E+00  0.00000000E+00
  0.00000000E+00  0.00000000E+00  0.00000000E+00
  0.00000000E+00  0.00000000E+00  0.00000000E+00
  0.00000000E+00  0.00000000E+00  0.00000000E+00
  0.00000000E+00  0.00000000E+00  0.00000000E+00
  0.00000000E+00  0.00000000E+00  0.00000000E+00
  0.00000000E+00  0.00000000E+00  0.00000000E+00
  0.00000000E+00  0.00000000E+00  0.00000000E+00
  0.00000000E+00  0.00000000E+00  0.00000000E+00
  0.00000000E+00  0.00000000E+00  0.00000000E+00
  0.00000000E+00  0.00000000E+00  0.00000000E+00
  0.00000000E+00  0.00000000E+00  0.00000000E+00
  0.00000000E+00  0.00000000E+00  0.00000000E+00
  0.00000000E+00  0.00000000E+00  0.00000000E+00
  0.00000000E+00  0.00000000E+00  0.00000000E+00
  0.00000000E+00  0.00000000E+00  0.00000000E+00
  0.00000000E+00  0.00000000E+00  0.00000000E+00
  0.00000000E+00  0.00000000E+00  0.00000000E+00
  0.00000000E+00  0.00000000E+00  0.00000000E+00
  0.00000000E+00  0.00000000E+00  0.00000000E+00
  0.00000000E+00  0.00000000E+00  0.00000000E+00
  0.00000000E+00  0.00000000E+00  0.00000000E+00
  0.00000000E+00  0.00000000E+00  0.00000000E+00
  0.00000000E+00  0.00000000E+00  0.00000000E+00
  0.00000000E+00  0.00000000E+00  0.00000000E+00
  0.00000000E+00  0.00000000E+00  0.00000000E+00
  0.00000000E+00  0.00000000E+00  0.00000000E+00
  0.00000000E+00  0.00000000E+00  0.00000000E+00
  0.00000000E+00  0.00000000E+00  0.00000000E+00
  0.00000000E+00  0.00000000E+00  0.00000000E+00
  0.00000000E+00  0.00000000E+00  0.00000000E+00
  0.00000000E+00  0.00000000E+00  0.00000000E+00
  0.00000000E+00  0.00000000E+00  0.00000000E+00
  0.00000000E+00  0.00000000E+00  0.00000000E+00
  0.00000000E+00  0.00000000E+00  0.00000000E+00
  0.00000000E+00  0.00000000E+00  0.00000000E+00
  0.00000000E+00  0.00000000E+00  0.00000000E+00
  0.00000000E+00  0.00000000E+00  0.00000000E+00
  0.00000000E+00  0.00000000E+00  0.00000000E+00
  0.00000000E+00  0.00000000E+00  0.00000000E+00
  0.00000000E+00  0.00000000E+00  0.00000000E+00
  0.00000000E+00  0.00000000E+00  0.00000000E+00
  0.00000000E+00  0.00000000E+00  0.00000000E+00
  0.00000000E+00  0.00000000E+00  0.00000000E+00
  0.00000000E+00  0.00000000E+00  0.00000000E+00
  0.00000000E+00  0.00000000E+00  0.00000000E+00
  0.00000000E+00  0.00000000E+00  0.00000000E+00
  0.00000000E+00  0.00000000E+00  0.00000000E+00
  0.00000000E+00  0.00000000E+00  0.00000000E+00
  0.00000000E+00  0.00000000E+00  0.00000000E+00
  0.00000000E+00  0.00000000E+00  0.00000000E+00
  0.00000000E+00  0.00000000E+00  0.00000000E+00
  0.00000000E+00  0.00000000E+00  0.00000000E+00
