CONTCAR\(14)                            
   1.00000000000000     
    11.5354003905999996    0.0000000000000000    0.0000000000000000
     0.0000000000000000   13.3458003997999999    0.0000000000000000
     0.0000000000000000    0.0000000000000000   18.6074008942000013
   Zr   Ti   Te   O 
     6     6    24     1
Direct
  0.1724792194202180  0.2529928605112701  0.5044114344749744
  0.5008551224467794  0.2490053028943251  0.4999105592315018
  0.8375926329751593  0.2462596438761651  0.4978266528292679
  0.1788519085027502  0.7229376355093606  0.5220608896402013
  0.5114486033306846  0.7541934036594924  0.5000938669388475
  0.8414829024002444  0.7559496863454314  0.5046789015515785
  0.0095299290446320  0.9994421092752717  0.5004050835922556
  0.3348093627927042  0.9986184399808948  0.5038464834647058
  0.6715620927457024  0.0035468854992118  0.5007067466338739
  0.9951892798696846  0.4899368708544785  0.5012044664558246
  0.3437609107249813  0.5140454325283486  0.5071969352003194
  0.6626828016748973  0.4919327225238135  0.4931235534074574
  0.1717237483284180  0.0774212679591670  0.5975933379387968
  0.1726146749033006  0.4270640787207256  0.4135302125605875
  0.9976021523858734  0.3280624021851608  0.5998104274491070
  0.0080638153905994  0.1611499734309945  0.4040629340284880
  0.5074613051456467  0.0808200292094483  0.5956119194518763
  0.5040281872906434  0.4217809283059140  0.4026705242698370
  0.3391669397821317  0.3432543526898186  0.5989371786130917
  0.3337744444750399  0.1612414879714521  0.4051393877459404
  0.8375203628463055  0.0788465208446922  0.5951279915980265
  0.8366996274864817  0.4215777678666583  0.4051796352567436
  0.6690126931371694  0.3377863798074259  0.5941870757749399
  0.6683719861243418  0.1595144348496405  0.4015427467717672
  0.0577871768191116  0.5844093859370858  0.6263189199391235
  0.1745559657879170  0.9077461135565486  0.4165063813740630
  0.0054319448247782  0.8452041724094528  0.6019273013442614
  0.0094700450323373  0.6590600866725822  0.4135867299575580
  0.5250257536831526  0.5805320387517270  0.5964379127057740
  0.5028413330486856  0.9236939111942064  0.4070849100244658
  0.3452538228257254  0.8394823037848909  0.6023446588893577
  0.3395204445789375  0.6669917990083150  0.4033955133005165
  0.8166527074600722  0.5852697023286950  0.6070438211480962
  0.8410488428702081  0.9216547891291285  0.4078198098036268
  0.6711101959495949  0.8433466882615264  0.5996379386706963
  0.6774944768680555  0.6645785202066534  0.4052850618905381
  0.2607226610270672  0.5972100854600129  0.5610318340719260
 
  0.00000000E+00  0.00000000E+00  0.00000000E+00
  0.00000000E+00  0.00000000E+00  0.00000000E+00
  0.00000000E+00  0.00000000E+00  0.00000000E+00
  0.00000000E+00  0.00000000E+00  0.00000000E+00
  0.00000000E+00  0.00000000E+00  0.00000000E+00
  0.00000000E+00  0.00000000E+00  0.00000000E+00
  0.00000000E+00  0.00000000E+00  0.00000000E+00
  0.00000000E+00  0.00000000E+00  0.00000000E+00
  0.00000000E+00  0.00000000E+00  0.00000000E+00
  0.00000000E+00  0.00000000E+00  0.00000000E+00
  0.00000000E+00  0.00000000E+00  0.00000000E+00
  0.00000000E+00  0.00000000E+00  0.00000000E+00
  0.00000000E+00  0.00000000E+00  0.00000000E+00
  0.00000000E+00  0.00000000E+00  0.00000000E+00
  0.00000000E+00  0.00000000E+00  0.00000000E+00
  0.00000000E+00  0.00000000E+00  0.00000000E+00
  0.00000000E+00  0.00000000E+00  0.00000000E+00
  0.00000000E+00  0.00000000E+00  0.00000000E+00
  0.00000000E+00  0.00000000E+00  0.00000000E+00
  0.00000000E+00  0.00000000E+00  0.00000000E+00
  0.00000000E+00  0.00000000E+00  0.00000000E+00
  0.00000000E+00  0.00000000E+00  0.00000000E+00
  0.00000000E+00  0.00000000E+00  0.00000000E+00
  0.00000000E+00  0.00000000E+00  0.00000000E+00
  0.00000000E+00  0.00000000E+00  0.00000000E+00
  0.00000000E+00  0.00000000E+00  0.00000000E+00
  0.00000000E+00  0.00000000E+00  0.00000000E+00
  0.00000000E+00  0.00000000E+00  0.00000000E+00
  0.00000000E+00  0.00000000E+00  0.00000000E+00
  0.00000000E+00  0.00000000E+00  0.00000000E+00
  0.00000000E+00  0.00000000E+00  0.00000000E+00
  0.00000000E+00  0.00000000E+00  0.00000000E+00
  0.00000000E+00  0.00000000E+00  0.00000000E+00
  0.00000000E+00  0.00000000E+00  0.00000000E+00
  0.00000000E+00  0.00000000E+00  0.00000000E+00
  0.00000000E+00  0.00000000E+00  0.00000000E+00
  0.00000000E+00  0.00000000E+00  0.00000000E+00
