CONTCAR\(16)                            
   1.00000000000000     
    14.3322000503999991    0.0000000000000000    0.0000000000000000
    -4.3750203917999997    9.5392837112999995    0.0000000000000000
     0.0000000000000000    0.0000000000000000   23.1357002258000009
   Ag   Bi   F 
     6    12    72
Direct
  0.2770299843018272  0.4543923329094487  0.5000229572124760
  0.6107131278712458  0.4551481398707296  0.4999694405632693
  0.9435176800563186  0.4547739679727812  0.5000185853782366
  0.2770299701949813  0.9543923149214918  0.5000229671850761
  0.6107131095994789  0.9551481284255428  0.4999694493482810
  0.9435176604115171  0.9547739543233240  0.5000186019552416
  0.0380337592420262  0.2555147849262955  0.6166719148328066
  0.1823528490957235  0.1536154636137353  0.3832908329365340
  0.3720579790156368  0.2552751193430065  0.6166917080922802
  0.5158706235861393  0.1546124686821401  0.3835444265685132
  0.7050062246054946  0.2555414838008566  0.6166428261089163
  0.8493499705617092  0.1539870366635381  0.3831714481593432
  0.0380337533154962  0.7555147840450044  0.6166719165946943
  0.1823528485060325  0.6536154709886732  0.3832908238763064
  0.3720579787723847  0.7552751224577462  0.6166917161431444
  0.5158706252932320  0.6546124810755762  0.3835444225478848
  0.7050062088889293  0.7555414739848586  0.6166428303127772
  0.8493499762347204  0.6539870389551644  0.3831714366660955
  0.1725572665932176  0.3048372300493670  0.4418791344433157
  0.0479620469574511  0.1042121101050061  0.5581274464505217
  0.3321652979356364  0.2791576414322088  0.3791595633395525
  0.0278930577608890  0.4192040879866645  0.6552569066496113
  0.1924906556121018  0.4896620818049312  0.3449344950798483
  0.1853484024529328  0.3656859298371870  0.5902531398406056
  0.0350759518400410  0.0434734566743486  0.4097358489862389
  0.0104090557502934  0.3248144420971260  0.5326636761317142
  0.2101324927197471  0.0842607096952029  0.4673007303328378
  0.0775833848780123  0.1876936336142908  0.6890153531696857
  0.1428245237841158  0.2209657135836773  0.3107770188621711
  0.2222143926495371  0.1299120704102873  0.6208301582730310
  0.5057291486783461  0.3055089230716013  0.4421127525389550
  0.3817449532009611  0.1042187419061631  0.5580227013304591
  0.6657478705939204  0.2798374496932129  0.3796506730815805
  0.3614484156423930  0.4189598177392231  0.6550378800457166
  0.5259727957556860  0.4905133863643076  0.3452728262414870
  0.5192202412170982  0.3660592238412729  0.5902164529301995
  0.3685515091251185  0.0437130863773391  0.4098096589313557
  0.3442398938272725  0.3248434189647758  0.5326830991547546
  0.5436842004942110  0.0851365414555186  0.4674893789511647
  0.4120777323357491  0.1882077921317553  0.6890892349413347
  0.4764776891598607  0.2222131468201502  0.3110649893829673
  0.5551410297292357  0.1301713272179436  0.6205780999417591
  0.8395476060045625  0.3054164357599231  0.4416855043939893
  0.7151129715569791  0.1044220534900861  0.5581049606019066
  0.9991501770120012  0.2794941130188753  0.3790026382554848
  0.6950492816464070  0.4196150390555498  0.6549954384574775
  0.8598259866253058  0.4903710384501005  0.3446679462777377
  0.8524777613993078  0.3656466761311605  0.5904853163641685
  0.7020648134962486  0.0439024737923292  0.4096144444521339
  0.6775039531632979  0.3249376984178050  0.5325966943358547
  0.8766716308381258  0.0846808230337620  0.4672910133963312
  0.7440371588410399  0.1874914571144120  0.6891046468604107
  0.8094786225797648  0.2212732811909974  0.3107710767666075
  0.8882756177529375  0.1296259550957340  0.6206948823991245
  0.1725572784282424  0.8048372353973516  0.4418791225123814
  0.0479620416889449  0.6042121141451584  0.5581274439819468
  0.3321652855829063  0.7791576578952329  0.3791595374735851
  0.0278930416646605  0.9192040941252678  0.6552568956826375
  0.1924906835172074  0.9896620886419435  0.3449345104012423
  0.1853483970214628  0.8656859164706796  0.5902531414786742
  0.0350759597236805  0.5434734698725270  0.4097358449414192
  0.0104090635922046  0.8248144574127106  0.5326636789625837
  0.2101324883518118  0.5842607194229639  0.4673007198589162
  0.0775833763664951  0.6876936772892465  0.6890153649209356
  0.1428245157868754  0.7209657178290824  0.3107770127372189
  0.2222143863214819  0.6299120688171757  0.6208301664711801
  0.5057291474114051  0.8055089265081143  0.4421127464223629
  0.3817449483358071  0.6042187644735064  0.5580226968784122
  0.6657478728812402  0.7798374672359807  0.3796506774175263
  0.3614483980454726  0.9189598082166659  0.6550378906755661
  0.5259728068138760  0.9905133798550658  0.3452728336500094
  0.5192202363420340  0.8660592277265048  0.5902164590943906
  0.3685515077633187  0.5437130941619066  0.4098096533267073
  0.3442399199811280  0.8248434504253485  0.5326831015796083
  0.5436841844618727  0.5851365317916533  0.4674893783299147
  0.4120777253379632  0.6882078046658954  0.6890892481204522
  0.4764777043638517  0.7222131651655830  0.3110649812527939
  0.5551409993616950  0.6301713124639028  0.6205781070503280
  0.8395476252675885  0.8054164282057482  0.4416855017339461
  0.7151129679408746  0.6044220702904498  0.5581049538375128
  0.9991501714506499  0.7794941566202340  0.3790026168668200
  0.6950492486039683  0.9196150165159754  0.6549954436759603
  0.8598259853565182  0.9903710377785185  0.3446679702795005
  0.8524777499627155  0.8656466718265211  0.5904853258735462
  0.7020648234707750  0.5439024523200784  0.4096144456731296
  0.6775039820496230  0.8249377362523501  0.5325966948844967
  0.8766716441788244  0.5846808466220090  0.4672910066447306
  0.7440371593507460  0.6874914906787590  0.6891046604847322
  0.8094786164252183  0.7212733005251699  0.3107710719521243
  0.8882756116341430  0.6296259509704978  0.6206948887987708
 
  0.00000000E+00  0.00000000E+00  0.00000000E+00
  0.00000000E+00  0.00000000E+00  0.00000000E+00
  0.00000000E+00  0.00000000E+00  0.00000000E+00
  0.00000000E+00  0.00000000E+00  0.00000000E+00
  0.00000000E+00  0.00000000E+00  0.00000000E+00
  0.00000000E+00  0.00000000E+00  0.00000000E+00
  0.00000000E+00  0.00000000E+00  0.00000000E+00
  0.00000000E+00  0.00000000E+00  0.00000000E+00
  0.00000000E+00  0.00000000E+00  0.00000000E+00
  0.00000000E+00  0.00000000E+00  0.00000000E+00
  0.00000000E+00  0.00000000E+00  0.00000000E+00
  0.00000000E+00  0.00000000E+00  0.00000000E+00
  0.00000000E+00  0.00000000E+00  0.00000000E+00
  0.00000000E+00  0.00000000E+00  0.00000000E+00
  0.00000000E+00  0.00000000E+00  0.00000000E+00
  0.00000000E+00  0.00000000E+00  0.00000000E+00
  0.00000000E+00  0.00000000E+00  0.00000000E+00
  0.00000000E+00  0.00000000E+00  0.00000000E+00
  0.00000000E+00  0.00000000E+00  0.00000000E+00
  0.00000000E+00  0.00000000E+00  0.00000000E+00
  0.00000000E+00  0.00000000E+00  0.00000000E+00
  0.00000000E+00  0.00000000E+00  0.00000000E+00
  0.00000000E+00  0.00000000E+00  0.00000000E+00
  0.00000000E+00  0.00000000E+00  0.00000000E+00
  0.00000000E+00  0.00000000E+00  0.00000000E+00
  0.00000000E+00  0.00000000E+00  0.00000000E+00
  0.00000000E+00  0.00000000E+00  0.00000000E+00
  0.00000000E+00  0.00000000E+00  0.00000000E+00
  0.00000000E+00  0.00000000E+00  0.00000000E+00
  0.00000000E+00  0.00000000E+00  0.00000000E+00
  0.00000000E+00  0.00000000E+00  0.00000000E+00
  0.00000000E+00  0.00000000E+00  0.00000000E+00
  0.00000000E+00  0.00000000E+00  0.00000000E+00
  0.00000000E+00  0.00000000E+00  0.00000000E+00
  0.00000000E+00  0.00000000E+00  0.00000000E+00
  0.00000000E+00  0.00000000E+00  0.00000000E+00
  0.00000000E+00  0.00000000E+00  0.00000000E+00
  0.00000000E+00  0.00000000E+00  0.00000000E+00
  0.00000000E+00  0.00000000E+00  0.00000000E+00
  0.00000000E+00  0.00000000E+00  0.00000000E+00
  0.00000000E+00  0.00000000E+00  0.00000000E+00
  0.00000000E+00  0.00000000E+00  0.00000000E+00
  0.00000000E+00  0.00000000E+00  0.00000000E+00
  0.00000000E+00  0.00000000E+00  0.00000000E+00
  0.00000000E+00  0.00000000E+00  0.00000000E+00
  0.00000000E+00  0.00000000E+00  0.00000000E+00
  0.00000000E+00  0.00000000E+00  0.00000000E+00
  0.00000000E+00  0.00000000E+00  0.00000000E+00
  0.00000000E+00  0.00000000E+00  0.00000000E+00
  0.00000000E+00  0.00000000E+00  0.00000000E+00
  0.00000000E+00  0.00000000E+00  0.00000000E+00
  0.00000000E+00  0.00000000E+00  0.00000000E+00
  0.00000000E+00  0.00000000E+00  0.00000000E+00
  0.00000000E+00  0.00000000E+00  0.00000000E+00
  0.00000000E+00  0.00000000E+00  0.00000000E+00
  0.00000000E+00  0.00000000E+00  0.00000000E+00
  0.00000000E+00  0.00000000E+00  0.00000000E+00
  0.00000000E+00  0.00000000E+00  0.00000000E+00
  0.00000000E+00  0.00000000E+00  0.00000000E+00
  0.00000000E+00  0.00000000E+00  0.00000000E+00
  0.00000000E+00  0.00000000E+00  0.00000000E+00
  0.00000000E+00  0.00000000E+00  0.00000000E+00
  0.00000000E+00  0.00000000E+00  0.00000000E+00
  0.00000000E+00  0.00000000E+00  0.00000000E+00
  0.00000000E+00  0.00000000E+00  0.00000000E+00
  0.00000000E+00  0.00000000E+00  0.00000000E+00
  0.00000000E+00  0.00000000E+00  0.00000000E+00
  0.00000000E+00  0.00000000E+00  0.00000000E+00
  0.00000000E+00  0.00000000E+00  0.00000000E+00
  0.00000000E+00  0.00000000E+00  0.00000000E+00
  0.00000000E+00  0.00000000E+00  0.00000000E+00
  0.00000000E+00  0.00000000E+00  0.00000000E+00
  0.00000000E+00  0.00000000E+00  0.00000000E+00
  0.00000000E+00  0.00000000E+00  0.00000000E+00
  0.00000000E+00  0.00000000E+00  0.00000000E+00
  0.00000000E+00  0.00000000E+00  0.00000000E+00
  0.00000000E+00  0.00000000E+00  0.00000000E+00
  0.00000000E+00  0.00000000E+00  0.00000000E+00
  0.00000000E+00  0.00000000E+00  0.00000000E+00
  0.00000000E+00  0.00000000E+00  0.00000000E+00
  0.00000000E+00  0.00000000E+00  0.00000000E+00
  0.00000000E+00  0.00000000E+00  0.00000000E+00
  0.00000000E+00  0.00000000E+00  0.00000000E+00
  0.00000000E+00  0.00000000E+00  0.00000000E+00
  0.00000000E+00  0.00000000E+00  0.00000000E+00
  0.00000000E+00  0.00000000E+00  0.00000000E+00
  0.00000000E+00  0.00000000E+00  0.00000000E+00
  0.00000000E+00  0.00000000E+00  0.00000000E+00
  0.00000000E+00  0.00000000E+00  0.00000000E+00
  0.00000000E+00  0.00000000E+00  0.00000000E+00
