 Cr3 Te4                                
   1.00000000000000     
     3.9345007994648444    0.0000000000000000    0.0000000000000000
    -1.9675985856438793    3.4073180263284981    0.0000000000000000
     0.0000000000000000    0.0000000000000000   24.2696437327740036
   Cr   Te
     3     4
Direct
 -0.0000000238120893  0.0000000136544722  0.4999994324110718
  0.0001929375664774  0.9998097068311126  0.6327223871266930
  0.9998070969568503  0.0001902636167759  0.3672796354891303
  0.3334784711046226  0.6665058118337487  0.6918295774102754
  0.3332057738141156  0.6667783738212983  0.4350522570514851
  0.6665215221599747  0.3334941974595231  0.3081706149650593
  0.6667942222100484  0.3332216327830693  0.5649460955462848
 
  0.00000000E+00  0.00000000E+00  0.00000000E+00
  0.00000000E+00  0.00000000E+00  0.00000000E+00
  0.00000000E+00  0.00000000E+00  0.00000000E+00
  0.00000000E+00  0.00000000E+00  0.00000000E+00
  0.00000000E+00  0.00000000E+00  0.00000000E+00
  0.00000000E+00  0.00000000E+00  0.00000000E+00
  0.00000000E+00  0.00000000E+00  0.00000000E+00
