CONTCAR\(13)                            
   1.00000000000000     
    11.2263002396000005    0.0000000000000000    0.0000000000000000
     0.0000000000000000   21.7961997986000000    0.0000000000000000
     0.0000000000000000    0.0000000000000000   19.3752994536999985
   Ta   Te   Pd   O    H 
     9    42     9     2     1
Direct
  0.1678891808983762  0.4769961512226733  0.5033959507563704
  0.1673880119584883  0.1227375325351183  0.4971906743084027
  0.1633906207734676  0.7757459907223103  0.5155797652141005
  0.5036096955217120  0.4752397370865953  0.5045518824515876
  0.4999662043279796  0.1230955154280626  0.4970169632906508
  0.4962708337059495  0.7755881182833335  0.5173261380428725
  0.8355503536460949  0.4751771751417384  0.5012897845147619
  0.8335469832730401  0.1231660368637982  0.4969473930585445
  0.8281122036753267  0.7751203508472305  0.5173300513601864
  0.0046771301269204  0.4094131251221865  0.4203639953526840
  0.1699809329888214  0.2385828663099964  0.4214245627679258
  0.1652400873176333  0.8910851621129180  0.5866220624632703
  0.9956999917013996  0.8412349732817588  0.4349931375038693
  0.0019785802988551  0.5512338599690269  0.4291154536709422
  0.0005736016476560  0.4791149736461897  0.6144936716230668
  0.1656225605205602  0.0026623013571545  0.4304394985243769
  0.9998663490125277  0.0558159048032335  0.5787523727953606
  0.1635165228295768  0.5941861037882811  0.5755345653710175
  0.0010552144822522  0.1967200206114663  0.5710652986785635
  0.1525329120765100  0.7015025992101377  0.4047004098470209
  0.0005960239081623  0.1195235756105294  0.3849469635884559
  0.9970442324044357  0.7407772566707054  0.6144448341451029
  0.1675514582151505  0.3583955375659222  0.5750767177725816
  0.3355184960845201  0.4087917227585833  0.4241007268349620
  0.5007873065930949  0.2399969429758466  0.4231635013128133
  0.4989990988970264  0.8910644335293446  0.5879647730810943
  0.3308307120807085  0.8413744094123149  0.4339041067176632
  0.3384955577138276  0.5527064458843639  0.4329141099024810
  0.3331558841180444  0.4795387215572469  0.6163075968160627
  0.4986344203604787  0.0033396160379831  0.4296265039143812
  0.3336380733148113  0.0545034397531173  0.5778806885342046
  0.4971011034147848  0.5923158635768399  0.5737623574083380
  0.3336734448351900  0.1968342258541764  0.5718758002024739
  0.4952077687031399  0.6976548422108365  0.4101305129597663
  0.3336657628210249  0.1203356622375196  0.3848604966980426
  0.3295538858900259  0.7418167703510198  0.6150646245769733
  0.5014807358885466  0.3570641286287335  0.5752112604857903
  0.6683680788016569  0.4090742053041829  0.4201568378622746
  0.8356542739016161  0.2404187141551967  0.4236722156589258
  0.8303185580603896  0.8913239024693745  0.5867490621483413
  0.6632698805640554  0.8405926597669068  0.4343643278595773
  0.6675085577466835  0.5494903226859169  0.4294178867827681
  0.6744844870648480  0.4730831016552564  0.6151950459020941
  0.8318595945857257  0.0031130542281261  0.4301779347221871
  0.6666783030462549  0.0552777439006005  0.5780790317815647
  0.8289149543632063  0.5907440519249347  0.5762084293811769
  0.6671292169360973  0.1961362276650362  0.5718172765434479
  0.8300204109851532  0.6982374017593715  0.4089441342334768
  0.6666664652764042  0.1212741646707835  0.3847006724531888
  0.6627969417617129  0.7407856643488329  0.6158548219753496
  0.8374355222848194  0.3568208879730089  0.5723030539286638
  0.9978096970513578  0.9464110001287823  0.5081437629030511
  0.0050322516089353  0.3008615083194707  0.4951828220090392
  0.9949987155322817  0.6602086380071271  0.5055984154482412
  0.3327380879644683  0.9460168713758004  0.5077602311326231
  0.3332516536328856  0.3007941852271577  0.4966148808839989
  0.3209580000647431  0.6651723705739875  0.5024351656475908
  0.6643068185969855  0.9460841543544382  0.5074388989059486
  0.6678756831817754  0.3008244981095267  0.4963655796967514
  0.6635456626336309  0.6607525668662479  0.5059113762105085
  0.5635272974355576  0.5817660729700482  0.6783593494626169
  0.4907781373109409  0.6202488822233680  0.7238932496719924
  0.4297705445816682  0.5907850813782303  0.7388167392478086
 
  0.00000000E+00  0.00000000E+00  0.00000000E+00
  0.00000000E+00  0.00000000E+00  0.00000000E+00
  0.00000000E+00  0.00000000E+00  0.00000000E+00
  0.00000000E+00  0.00000000E+00  0.00000000E+00
  0.00000000E+00  0.00000000E+00  0.00000000E+00
  0.00000000E+00  0.00000000E+00  0.00000000E+00
  0.00000000E+00  0.00000000E+00  0.00000000E+00
  0.00000000E+00  0.00000000E+00  0.00000000E+00
  0.00000000E+00  0.00000000E+00  0.00000000E+00
  0.00000000E+00  0.00000000E+00  0.00000000E+00
  0.00000000E+00  0.00000000E+00  0.00000000E+00
  0.00000000E+00  0.00000000E+00  0.00000000E+00
  0.00000000E+00  0.00000000E+00  0.00000000E+00
  0.00000000E+00  0.00000000E+00  0.00000000E+00
  0.00000000E+00  0.00000000E+00  0.00000000E+00
  0.00000000E+00  0.00000000E+00  0.00000000E+00
  0.00000000E+00  0.00000000E+00  0.00000000E+00
  0.00000000E+00  0.00000000E+00  0.00000000E+00
  0.00000000E+00  0.00000000E+00  0.00000000E+00
  0.00000000E+00  0.00000000E+00  0.00000000E+00
  0.00000000E+00  0.00000000E+00  0.00000000E+00
  0.00000000E+00  0.00000000E+00  0.00000000E+00
  0.00000000E+00  0.00000000E+00  0.00000000E+00
  0.00000000E+00  0.00000000E+00  0.00000000E+00
  0.00000000E+00  0.00000000E+00  0.00000000E+00
  0.00000000E+00  0.00000000E+00  0.00000000E+00
  0.00000000E+00  0.00000000E+00  0.00000000E+00
  0.00000000E+00  0.00000000E+00  0.00000000E+00
  0.00000000E+00  0.00000000E+00  0.00000000E+00
  0.00000000E+00  0.00000000E+00  0.00000000E+00
  0.00000000E+00  0.00000000E+00  0.00000000E+00
  0.00000000E+00  0.00000000E+00  0.00000000E+00
  0.00000000E+00  0.00000000E+00  0.00000000E+00
  0.00000000E+00  0.00000000E+00  0.00000000E+00
  0.00000000E+00  0.00000000E+00  0.00000000E+00
  0.00000000E+00  0.00000000E+00  0.00000000E+00
  0.00000000E+00  0.00000000E+00  0.00000000E+00
  0.00000000E+00  0.00000000E+00  0.00000000E+00
  0.00000000E+00  0.00000000E+00  0.00000000E+00
  0.00000000E+00  0.00000000E+00  0.00000000E+00
  0.00000000E+00  0.00000000E+00  0.00000000E+00
  0.00000000E+00  0.00000000E+00  0.00000000E+00
  0.00000000E+00  0.00000000E+00  0.00000000E+00
  0.00000000E+00  0.00000000E+00  0.00000000E+00
  0.00000000E+00  0.00000000E+00  0.00000000E+00
  0.00000000E+00  0.00000000E+00  0.00000000E+00
  0.00000000E+00  0.00000000E+00  0.00000000E+00
  0.00000000E+00  0.00000000E+00  0.00000000E+00
  0.00000000E+00  0.00000000E+00  0.00000000E+00
  0.00000000E+00  0.00000000E+00  0.00000000E+00
  0.00000000E+00  0.00000000E+00  0.00000000E+00
  0.00000000E+00  0.00000000E+00  0.00000000E+00
  0.00000000E+00  0.00000000E+00  0.00000000E+00
  0.00000000E+00  0.00000000E+00  0.00000000E+00
  0.00000000E+00  0.00000000E+00  0.00000000E+00
  0.00000000E+00  0.00000000E+00  0.00000000E+00
  0.00000000E+00  0.00000000E+00  0.00000000E+00
  0.00000000E+00  0.00000000E+00  0.00000000E+00
  0.00000000E+00  0.00000000E+00  0.00000000E+00
  0.00000000E+00  0.00000000E+00  0.00000000E+00
  0.00000000E+00  0.00000000E+00  0.00000000E+00
  0.00000000E+00  0.00000000E+00  0.00000000E+00
  0.00000000E+00  0.00000000E+00  0.00000000E+00
