CONTCAR\(23)                            
   1.00000000000000     
    10.2070999146000005    0.0000000000000000    0.0000000000000000
    -1.7011927660999999   18.1179073708000011    0.0000000000000000
     0.0000000000000000    0.0000000000000000   20.2910003661999987
   Ta   Co   Pd   Se
    12     6     3    36
Direct
  0.0252164272736763  0.1513001311275133  0.4665696128029140
  0.3081185028223246  0.8487058451943383  0.5334235399684317
  0.0680305587789789  0.4079198657090259  0.4709907216062490
  0.2652920607369822  0.5920816487106961  0.5290136821203504
  0.3585564202736791  0.1513001311275133  0.4665696128029140
  0.6414485078223180  0.8487058451943383  0.5334235399684317
  0.4013605637789794  0.4079198657090259  0.4709907216062490
  0.5986320747369831  0.5920816487106961  0.5290136821203504
  0.6918864132736786  0.1513001311275133  0.4665696128029140
  0.9747884748223186  0.8487058451943383  0.5334235399684317
  0.7347005537789855  0.4079198657090259  0.4709907216062490
  0.9319620907369810  0.5920816487106961  0.5290136821203504
  0.2142002073437155  0.2851545363104506  0.4401595798752282
  0.1191311935106611  0.7148502450100338  0.5598393550129543
  0.5475402203437199  0.2851545363104506  0.4401595798752282
  0.4524711725106627  0.7148502450100338  0.5598393550129543
  0.8808701433437136  0.2851545363104506  0.4401595798752282
  0.7858011885106606  0.7148502450100338  0.5598393550129543
  0.1666706108759541  0.0000020771646589  0.4999992395925190
  0.5000006158759547  0.0000020771646589  0.4999992395925190
  0.8333305858759559  0.0000020771646589  0.4999992395925190
  0.1863255022422976  0.1183116544990739  0.5595767721038243
  0.1470186629856016  0.8816909120910879  0.4404180059459719
  0.1006998378194339  0.6037759017842745  0.6224207764545184
  0.2326224543842983  0.3962261414322370  0.3775836314897845
  0.2410154811142462  0.4474062311225921  0.5624201160296636
  0.0923000780069643  0.5525917207151281  0.4375857157220935
  0.0396791700588466  0.2382965942881228  0.3695825500957781
  0.2936629403109876  0.7617040183171468  0.6304109061457766
  0.1788444406397574  0.0742951650477792  0.3977760463808835
  0.1544851952749582  0.9257020044600708  0.6022183153584209
  0.0468693770973232  0.2806602138259109  0.5244056964981993
  0.2864672127230108  0.7193346111898578  0.4755956547964502
  0.5196554842422998  0.1183116544990739  0.5595767721038243
  0.4803486679856022  0.8816909120910879  0.4404180059459719
  0.4340298308194335  0.6037759017842745  0.6224207764545184
  0.5659524353842968  0.3962261414322370  0.3775836314897845
  0.5743454741142457  0.4474062311225921  0.5624201160296636
  0.4256400680069632  0.5525917207151281  0.4375857157220935
  0.3730091860588516  0.2382965942881228  0.3695825500957781
  0.6269929683109865  0.7617040183171468  0.6304109061457766
  0.5121744686397562  0.0742951650477792  0.3977760463808835
  0.4878252212749601  0.9257020044600708  0.6022183153584209
  0.3802093940973208  0.2806602138259109  0.5244056964981993
  0.6197971947230059  0.7193346111898578  0.4755956547964502
  0.8529955442422974  0.1183116544990739  0.5595767721038243
  0.8136785909855959  0.8816909120910879  0.4404180059459719
  0.7673698448194344  0.6037759017842745  0.6224207764545184
  0.8992923563842936  0.3962261414322370  0.3775836314897845
  0.9076755371142440  0.4474062311225921  0.5624201160296636
  0.7589701320069651  0.5525917207151281  0.4375857157220935
  0.7063491530588450  0.2382965942881228  0.3695825500957781
  0.9603329353109871  0.7617040183171468  0.6304109061457766
  0.8455144356397568  0.0742951650477792  0.3977760463808835
  0.8211552142749596  0.9257020044600708  0.6022183153584209
  0.7135393870973203  0.2806602138259109  0.5244056964981993
  0.9531372077230102  0.7193346111898578  0.4755956547964502
 
  0.00000000E+00  0.00000000E+00  0.00000000E+00
  0.00000000E+00  0.00000000E+00  0.00000000E+00
  0.00000000E+00  0.00000000E+00  0.00000000E+00
  0.00000000E+00  0.00000000E+00  0.00000000E+00
  0.00000000E+00  0.00000000E+00  0.00000000E+00
  0.00000000E+00  0.00000000E+00  0.00000000E+00
  0.00000000E+00  0.00000000E+00  0.00000000E+00
  0.00000000E+00  0.00000000E+00  0.00000000E+00
  0.00000000E+00  0.00000000E+00  0.00000000E+00
  0.00000000E+00  0.00000000E+00  0.00000000E+00
  0.00000000E+00  0.00000000E+00  0.00000000E+00
  0.00000000E+00  0.00000000E+00  0.00000000E+00
  0.00000000E+00  0.00000000E+00  0.00000000E+00
  0.00000000E+00  0.00000000E+00  0.00000000E+00
  0.00000000E+00  0.00000000E+00  0.00000000E+00
  0.00000000E+00  0.00000000E+00  0.00000000E+00
  0.00000000E+00  0.00000000E+00  0.00000000E+00
  0.00000000E+00  0.00000000E+00  0.00000000E+00
  0.00000000E+00  0.00000000E+00  0.00000000E+00
  0.00000000E+00  0.00000000E+00  0.00000000E+00
  0.00000000E+00  0.00000000E+00  0.00000000E+00
  0.00000000E+00  0.00000000E+00  0.00000000E+00
  0.00000000E+00  0.00000000E+00  0.00000000E+00
  0.00000000E+00  0.00000000E+00  0.00000000E+00
  0.00000000E+00  0.00000000E+00  0.00000000E+00
  0.00000000E+00  0.00000000E+00  0.00000000E+00
  0.00000000E+00  0.00000000E+00  0.00000000E+00
  0.00000000E+00  0.00000000E+00  0.00000000E+00
  0.00000000E+00  0.00000000E+00  0.00000000E+00
  0.00000000E+00  0.00000000E+00  0.00000000E+00
  0.00000000E+00  0.00000000E+00  0.00000000E+00
  0.00000000E+00  0.00000000E+00  0.00000000E+00
  0.00000000E+00  0.00000000E+00  0.00000000E+00
  0.00000000E+00  0.00000000E+00  0.00000000E+00
  0.00000000E+00  0.00000000E+00  0.00000000E+00
  0.00000000E+00  0.00000000E+00  0.00000000E+00
  0.00000000E+00  0.00000000E+00  0.00000000E+00
  0.00000000E+00  0.00000000E+00  0.00000000E+00
  0.00000000E+00  0.00000000E+00  0.00000000E+00
  0.00000000E+00  0.00000000E+00  0.00000000E+00
  0.00000000E+00  0.00000000E+00  0.00000000E+00
  0.00000000E+00  0.00000000E+00  0.00000000E+00
  0.00000000E+00  0.00000000E+00  0.00000000E+00
  0.00000000E+00  0.00000000E+00  0.00000000E+00
  0.00000000E+00  0.00000000E+00  0.00000000E+00
  0.00000000E+00  0.00000000E+00  0.00000000E+00
  0.00000000E+00  0.00000000E+00  0.00000000E+00
  0.00000000E+00  0.00000000E+00  0.00000000E+00
  0.00000000E+00  0.00000000E+00  0.00000000E+00
  0.00000000E+00  0.00000000E+00  0.00000000E+00
  0.00000000E+00  0.00000000E+00  0.00000000E+00
  0.00000000E+00  0.00000000E+00  0.00000000E+00
  0.00000000E+00  0.00000000E+00  0.00000000E+00
  0.00000000E+00  0.00000000E+00  0.00000000E+00
  0.00000000E+00  0.00000000E+00  0.00000000E+00
  0.00000000E+00  0.00000000E+00  0.00000000E+00
  0.00000000E+00  0.00000000E+00  0.00000000E+00
