CONTCAR\(9)                             
   1.00000000000000     
    13.2433004379000003    0.0000000000000000    0.0000000000000000
    -6.6216502190000002   11.4690346091999995    0.0000000000000000
     0.0000000000000000    0.0000000000000000   21.5361995696999990
   Zr   H    Cl   O 
    32    32    32     1
Direct
  0.1667709045591937  0.0832666202883512  0.5691141195328787
  0.0833278006104192  0.1666176605316342  0.4311584618779559
  0.4165064755655570  0.0832660965465404  0.5691133597681121
  0.3332316286242987  0.1664720653549342  0.4310772357515555
  0.6666320565265669  0.0833233169504865  0.5691802603532072
  0.5832799355364734  0.1666169222876083  0.4311578793305270
  0.9167019460039492  0.0833238781434275  0.5691807039116914
  0.8333294224743265  0.1666679871319263  0.4312676730072375
  0.1667412235199930  0.3333757362330301  0.5687373603881014
  0.0833279178309147  0.4167173896662870  0.4311613813165075
  0.4167700678612911  0.3335296566764075  0.5687853607667578
  0.3333025177773384  0.4166629715911965  0.4309001326052657
  0.6666459535036879  0.3333762429669844  0.5687351091323223
  0.5833508869818597  0.4166627175162417  0.4308990765218316
  0.9166996743496115  0.3333882480120194  0.5691881913073725
  0.8333807536877891  0.4167173518151426  0.4311607410392860
  0.1667681278099598  0.5835044713980920  0.5691155187839421
  0.0833748510857646  0.6667579318435840  0.4312081898153894
  0.4167828068045532  0.5832472661567102  0.5687692612860785
  0.3332330096688744  0.6667624161232772  0.4310791835742984
  0.6664782381097408  0.5832489922156788  0.5687658777659336
  0.5833493317825559  0.6667086822912127  0.4308889339833019
  0.9167482941759586  0.5835044731879776  0.5691140743166621
  0.8335211213841590  0.6667626275842486  0.4310780047643172
  0.1666755840209816  0.8333410041515193  0.5692409118481832
  0.0833789753321332  0.9166250120480764  0.4312075863578019
  0.4165071327264484  0.8332498129857705  0.5691123113352266
  0.3332363270743473  0.9166241813911536  0.4312075570780481
  0.6666410591840193  0.8332706543871991  0.5687276428624020
  0.5832888906920166  0.9166735341719323  0.4311595244970083
  0.9167539569650354  0.8332508697615005  0.5691115680193253
  0.8333750996081180  0.9166738804449088  0.4311594120448949
  0.1666176598576706  0.0832363649775272  0.4741005049329948
  0.0832775229665176  0.1664696004446588  0.5261040349433945
  0.4166134633939339  0.0832365449365509  0.4740998912056290
  0.3332067379321365  0.1664076185146242  0.5260196839978419
  0.6666913269987873  0.0833498912482574  0.4741996884805592
  0.5831986557119991  0.1664691270993208  0.5261028256926328
  0.9166534936064856  0.0833500120925413  0.4742004898757761
  0.8333416963399664  0.1666760524379257  0.5262699885410848
  0.1664397376360928  0.3332235882743211  0.4739008392452305
  0.0832736839983774  0.4168097319540063  0.5261065705787581
  0.4166672621997318  0.3333395712275996  0.4737737449064610
  0.3331460111949398  0.4165785869098663  0.5255292142487673
  0.6667788530755944  0.3332234580853771  0.4738988389456992
  0.5834394651563206  0.4165785213213006  0.5255269161343148
  0.9166533327094097  0.3333113861666444  0.4742052203479855
  0.8335442795807173  0.4168102020765499  0.5261055541659482
  0.1666192869494436  0.5833865620644810  0.4741001978325364
  0.0833989864126318  0.6667909431251351  0.5262258489334078
  0.4166725688397045  0.5833391347887341  0.4737784377961749
  0.3332088693478025  0.6668022188896090  0.5260155839935469
  0.6666619486021831  0.5833395035190320  0.4737755684304450
  0.5834399862035896  0.6668741812144170  0.5255327999556254
  0.9167619661653205  0.5833865861872293  0.4740994136310114
  0.8336030431655943  0.6668042555123550  0.5260139996868806
  0.1666645155164121  0.8333343742736961  0.4742325604061704
  0.0834042011830233  0.9166117813912094  0.5262236348445423
  0.4166155207872617  0.8333835852512316  0.4740944859224229
  0.3332136200126402  0.9166113394706896  0.5262236574291786
  0.6667805881586066  0.8335661825247934  0.4739045194155193
  0.5832073269314020  0.9167355185376211  0.5261014124466907
  0.9167629686381424  0.8333838526210094  0.4740942612653371
  0.8335356455377992  0.9167364479291893  0.5261015808889251
  0.1665648692048071  0.0831937017141376  0.3486890025538955
  0.0836623174829841  0.1669524163385303  0.6513698917718702
  0.4166271925697330  0.0831914879062770  0.3486886983769096
  0.3335129333283816  0.1670184211318415  0.6512904620495569
  0.6667407741657925  0.0833760413496692  0.3487598385012453
  0.5832927699859562  0.1669547277751404  0.6513686596837960
  0.9166350226999556  0.0833765123206434  0.3487602140507426
  0.8333349690054679  0.1666689850897160  0.6515712014389916
  0.1664328537487039  0.3332184027279184  0.3486525614108170
  0.0836688187830885  0.4167219066436338  0.6513737784948948
  0.4165434634013620  0.3330887343790702  0.3485209642758004
  0.3335294608405016  0.4167616839212168  0.6501216109101543
  0.6667848162871638  0.3332184326504078  0.3486516600443831
  0.5832401648105418  0.4167671034903800  0.6501170543463027
  0.9166309378641747  0.3332617127918404  0.3487614387846102
  0.8330551377576862  0.4167231564833251  0.6513722924570775
  0.1665596162641586  0.5833710119390411  0.3486884858764377
  0.0832627634044147  0.6665255320998007  0.6516288291499265
  0.4165485948228589  0.5834596637111834  0.3485228636806636
  0.3335172556341593  0.6665130109574293  0.6512938747230944
  0.6669098500220935  0.5834600165682550  0.3485221540330056
  0.5832419340932127  0.6664706566996231  0.6501137763644476
  0.9168133346642037  0.5833709654777387  0.3486879187049972
  0.8330009487873178  0.6665122354266644  0.6512912611395688
  0.1666655214681599  0.8333324439933820  0.3486792409175812
  0.0832588306990828  0.9167456429656763  0.6516252495172837
  0.4166279726860481  0.8334412522719046  0.3486838488842509
  0.3334879125742146  0.9167462990021956  0.6516255913687873
  0.6667852998761649  0.8335712442561719  0.3486463007849740
  0.5832885304650175  0.9163415489726839  0.6513749436651445
  0.9168131543227855  0.8334424452001994  0.3486836413049886
  0.8330565666221087  0.9163418863768081  0.6513746365257426
  0.4999488100095520  0.4999019294449300  0.7568737301432357
 
  0.00000000E+00  0.00000000E+00  0.00000000E+00
  0.00000000E+00  0.00000000E+00  0.00000000E+00
  0.00000000E+00  0.00000000E+00  0.00000000E+00
  0.00000000E+00  0.00000000E+00  0.00000000E+00
  0.00000000E+00  0.00000000E+00  0.00000000E+00
  0.00000000E+00  0.00000000E+00  0.00000000E+00
  0.00000000E+00  0.00000000E+00  0.00000000E+00
  0.00000000E+00  0.00000000E+00  0.00000000E+00
  0.00000000E+00  0.00000000E+00  0.00000000E+00
  0.00000000E+00  0.00000000E+00  0.00000000E+00
  0.00000000E+00  0.00000000E+00  0.00000000E+00
  0.00000000E+00  0.00000000E+00  0.00000000E+00
  0.00000000E+00  0.00000000E+00  0.00000000E+00
  0.00000000E+00  0.00000000E+00  0.00000000E+00
  0.00000000E+00  0.00000000E+00  0.00000000E+00
  0.00000000E+00  0.00000000E+00  0.00000000E+00
  0.00000000E+00  0.00000000E+00  0.00000000E+00
  0.00000000E+00  0.00000000E+00  0.00000000E+00
  0.00000000E+00  0.00000000E+00  0.00000000E+00
  0.00000000E+00  0.00000000E+00  0.00000000E+00
  0.00000000E+00  0.00000000E+00  0.00000000E+00
  0.00000000E+00  0.00000000E+00  0.00000000E+00
  0.00000000E+00  0.00000000E+00  0.00000000E+00
  0.00000000E+00  0.00000000E+00  0.00000000E+00
  0.00000000E+00  0.00000000E+00  0.00000000E+00
  0.00000000E+00  0.00000000E+00  0.00000000E+00
  0.00000000E+00  0.00000000E+00  0.00000000E+00
  0.00000000E+00  0.00000000E+00  0.00000000E+00
  0.00000000E+00  0.00000000E+00  0.00000000E+00
  0.00000000E+00  0.00000000E+00  0.00000000E+00
  0.00000000E+00  0.00000000E+00  0.00000000E+00
  0.00000000E+00  0.00000000E+00  0.00000000E+00
  0.00000000E+00  0.00000000E+00  0.00000000E+00
  0.00000000E+00  0.00000000E+00  0.00000000E+00
  0.00000000E+00  0.00000000E+00  0.00000000E+00
  0.00000000E+00  0.00000000E+00  0.00000000E+00
  0.00000000E+00  0.00000000E+00  0.00000000E+00
  0.00000000E+00  0.00000000E+00  0.00000000E+00
  0.00000000E+00  0.00000000E+00  0.00000000E+00
  0.00000000E+00  0.00000000E+00  0.00000000E+00
  0.00000000E+00  0.00000000E+00  0.00000000E+00
  0.00000000E+00  0.00000000E+00  0.00000000E+00
  0.00000000E+00  0.00000000E+00  0.00000000E+00
  0.00000000E+00  0.00000000E+00  0.00000000E+00
  0.00000000E+00  0.00000000E+00  0.00000000E+00
  0.00000000E+00  0.00000000E+00  0.00000000E+00
  0.00000000E+00  0.00000000E+00  0.00000000E+00
  0.00000000E+00  0.00000000E+00  0.00000000E+00
  0.00000000E+00  0.00000000E+00  0.00000000E+00
  0.00000000E+00  0.00000000E+00  0.00000000E+00
  0.00000000E+00  0.00000000E+00  0.00000000E+00
  0.00000000E+00  0.00000000E+00  0.00000000E+00
  0.00000000E+00  0.00000000E+00  0.00000000E+00
  0.00000000E+00  0.00000000E+00  0.00000000E+00
  0.00000000E+00  0.00000000E+00  0.00000000E+00
  0.00000000E+00  0.00000000E+00  0.00000000E+00
  0.00000000E+00  0.00000000E+00  0.00000000E+00
  0.00000000E+00  0.00000000E+00  0.00000000E+00
  0.00000000E+00  0.00000000E+00  0.00000000E+00
  0.00000000E+00  0.00000000E+00  0.00000000E+00
  0.00000000E+00  0.00000000E+00  0.00000000E+00
  0.00000000E+00  0.00000000E+00  0.00000000E+00
  0.00000000E+00  0.00000000E+00  0.00000000E+00
  0.00000000E+00  0.00000000E+00  0.00000000E+00
  0.00000000E+00  0.00000000E+00  0.00000000E+00
  0.00000000E+00  0.00000000E+00  0.00000000E+00
  0.00000000E+00  0.00000000E+00  0.00000000E+00
  0.00000000E+00  0.00000000E+00  0.00000000E+00
  0.00000000E+00  0.00000000E+00  0.00000000E+00
  0.00000000E+00  0.00000000E+00  0.00000000E+00
  0.00000000E+00  0.00000000E+00  0.00000000E+00
  0.00000000E+00  0.00000000E+00  0.00000000E+00
  0.00000000E+00  0.00000000E+00  0.00000000E+00
  0.00000000E+00  0.00000000E+00  0.00000000E+00
  0.00000000E+00  0.00000000E+00  0.00000000E+00
  0.00000000E+00  0.00000000E+00  0.00000000E+00
  0.00000000E+00  0.00000000E+00  0.00000000E+00
  0.00000000E+00  0.00000000E+00  0.00000000E+00
  0.00000000E+00  0.00000000E+00  0.00000000E+00
  0.00000000E+00  0.00000000E+00  0.00000000E+00
  0.00000000E+00  0.00000000E+00  0.00000000E+00
  0.00000000E+00  0.00000000E+00  0.00000000E+00
  0.00000000E+00  0.00000000E+00  0.00000000E+00
  0.00000000E+00  0.00000000E+00  0.00000000E+00
  0.00000000E+00  0.00000000E+00  0.00000000E+00
  0.00000000E+00  0.00000000E+00  0.00000000E+00
  0.00000000E+00  0.00000000E+00  0.00000000E+00
  0.00000000E+00  0.00000000E+00  0.00000000E+00
  0.00000000E+00  0.00000000E+00  0.00000000E+00
  0.00000000E+00  0.00000000E+00  0.00000000E+00
  0.00000000E+00  0.00000000E+00  0.00000000E+00
  0.00000000E+00  0.00000000E+00  0.00000000E+00
  0.00000000E+00  0.00000000E+00  0.00000000E+00
  0.00000000E+00  0.00000000E+00  0.00000000E+00
  0.00000000E+00  0.00000000E+00  0.00000000E+00
  0.00000000E+00  0.00000000E+00  0.00000000E+00
  0.00000000E+00  0.00000000E+00  0.00000000E+00
