CONTCAR                                 
   1.00000000000000     
    13.3114004134999995    0.0000000000000000    0.0000000000000000
     0.0000000000000000   13.2841997146999997    0.0000000000000000
     0.0000000000000000    0.0000000000000000   29.9494991301999995
   Bi   I    O 
    54    12     1
Direct
  0.2364058812573973  0.6521204915474570  0.6498815483242026
  0.0860852273320347  0.3433068791611973  0.3484732339082086
  0.2528276312054487  0.3046239894410334  0.4173473827365726
  0.0690264783292633  0.7008715416196125  0.5834660379674474
  0.2519804595324118  0.0833710349522150  0.3867950054108320
  0.0871826322390561  0.9190618024861905  0.6178899026481091
  0.2653025559697326  0.9659457621819314  0.5567844144777823
  0.0865696661141868  0.0256106544789318  0.4528024321935717
  0.2535645824844437  0.1949214989482684  0.5776763944231078
  0.0715529514633104  0.8047708427475513  0.4212482099932942
  0.2445415215677045  0.7627348764189463  0.4865894929861696
  0.0893140094242710  0.2488908724445267  0.5098736564304076
  0.2524895415938317  0.5319115701982042  0.4695042394850049
  0.0853934563165737  0.4754251994834817  0.5339071981716259
  0.0865662780705136  0.5664153195899360  0.3727021766311438
  0.2371701358456804  0.4271347902613414  0.6314487419403534
  0.0713836260412677  0.3809699945162919  0.7000413930746916
  0.2511038428552297  0.6190234279810056  0.3037616124212690
  0.5867231519576990  0.6791994571499700  0.6626219565468148
  0.4192762034174677  0.3425322691077994  0.3478289772755261
  0.5840966125818525  0.3031102128142749  0.4173960805714430
  0.3763619050931339  0.6857737022651023  0.5713186417813603
  0.5865525791162156  0.0820767612447000  0.3867925384836681
  0.4394930115272686  0.9330078102060213  0.6263611241852374
  0.5918578947953179  0.9856386681704379  0.5532277959798080
  0.4190164155412504  0.0235454516662728  0.4515018935344344
  0.5875150007412131  0.2096955568254373  0.5779034993896914
  0.4189039493555811  0.8003111753015162  0.4222206482466220
  0.5781765808433335  0.7576923079601485  0.4941334319947828
  0.4184123037110012  0.2387544979120477  0.5093169889875639
  0.5869482449850949  0.5338751942053150  0.4672412596326225
  0.4249466493269125  0.4674706981506063  0.5330616950017912
  0.4170585548201871  0.5659478102428395  0.3721944394433407
  0.5696196825444630  0.4547508606799013  0.6308224941997480
  0.4087904750442419  0.3939037839101331  0.6999240969017819
  0.5832531856323655  0.6173790099598762  0.3038042324875931
  0.9107113929954025  0.6601859128720307  0.6545815598068927
  0.7514444865123195  0.3443159653772270  0.3489889395439647
  0.9189794925127615  0.3022459876003296  0.4169038488568120
  0.7431569310693504  0.7058773879056517  0.5875687217969485
  0.9187375289207580  0.0806843317354122  0.3879995805002565
  0.7605613950027461  0.9265652517070038  0.6171973062218044
  0.9258069971618994  0.9786735311032757  0.5502304369209625
  0.7514616943561379  0.0284946284132914  0.4533313410561632
  0.9211491207501936  0.2033594439319302  0.5763286453250842
  0.7440744817214622  0.8040338740334292  0.4267580092553658
  0.9143505193576615  0.7547747374605436  0.4919933411389437
  0.7531834783684062  0.2535979547267786  0.5098307332117926
  0.9182791356472393  0.5291588592305416  0.4675277893530563
  0.7527273657156002  0.4792652032422779  0.5340420019602519
  0.7512221617582213  0.5683215723295518  0.3718141560877299
  0.9076741376711226  0.4364587715439043  0.6305266991582386
  0.7373420638986801  0.3919480385388283  0.6969234946557066
  0.9196205827550159  0.6153477466640567  0.3041647014749245
  0.0747573584808237  0.5910900255299225  0.7418103453829090
  0.2503574317900501  0.4101992648709754  0.2603807777289546
  0.0798032482555158  0.1548111272492321  0.6700822089257201
  0.2507937383750232  0.8470746920218701  0.3321551657548980
  0.4039041719643350  0.5976416910279383  0.7434842106921593
  0.5826015679716647  0.4082310851310851  0.2607060202113232
  0.4180447106735912  0.1602097905720896  0.6723561761175603
  0.5865920470074713  0.8451132089127071  0.3323972983963586
  0.7356424246219930  0.6096882449644170  0.7412356629000456
  0.9191744536612632  0.4068673465566022  0.2612632103175443
  0.7462834979540744  0.1690055838003488  0.6713783623152807
  0.9180583962092328  0.8437529470336358  0.3324925888849180
  0.4762508141830466  0.7685898266825149  0.6179319481797947
 
  0.00000000E+00  0.00000000E+00  0.00000000E+00
  0.00000000E+00  0.00000000E+00  0.00000000E+00
  0.00000000E+00  0.00000000E+00  0.00000000E+00
  0.00000000E+00  0.00000000E+00  0.00000000E+00
  0.00000000E+00  0.00000000E+00  0.00000000E+00
  0.00000000E+00  0.00000000E+00  0.00000000E+00
  0.00000000E+00  0.00000000E+00  0.00000000E+00
  0.00000000E+00  0.00000000E+00  0.00000000E+00
  0.00000000E+00  0.00000000E+00  0.00000000E+00
  0.00000000E+00  0.00000000E+00  0.00000000E+00
  0.00000000E+00  0.00000000E+00  0.00000000E+00
  0.00000000E+00  0.00000000E+00  0.00000000E+00
  0.00000000E+00  0.00000000E+00  0.00000000E+00
  0.00000000E+00  0.00000000E+00  0.00000000E+00
  0.00000000E+00  0.00000000E+00  0.00000000E+00
  0.00000000E+00  0.00000000E+00  0.00000000E+00
  0.00000000E+00  0.00000000E+00  0.00000000E+00
  0.00000000E+00  0.00000000E+00  0.00000000E+00
  0.00000000E+00  0.00000000E+00  0.00000000E+00
  0.00000000E+00  0.00000000E+00  0.00000000E+00
  0.00000000E+00  0.00000000E+00  0.00000000E+00
  0.00000000E+00  0.00000000E+00  0.00000000E+00
  0.00000000E+00  0.00000000E+00  0.00000000E+00
  0.00000000E+00  0.00000000E+00  0.00000000E+00
  0.00000000E+00  0.00000000E+00  0.00000000E+00
  0.00000000E+00  0.00000000E+00  0.00000000E+00
  0.00000000E+00  0.00000000E+00  0.00000000E+00
  0.00000000E+00  0.00000000E+00  0.00000000E+00
  0.00000000E+00  0.00000000E+00  0.00000000E+00
  0.00000000E+00  0.00000000E+00  0.00000000E+00
  0.00000000E+00  0.00000000E+00  0.00000000E+00
  0.00000000E+00  0.00000000E+00  0.00000000E+00
  0.00000000E+00  0.00000000E+00  0.00000000E+00
  0.00000000E+00  0.00000000E+00  0.00000000E+00
  0.00000000E+00  0.00000000E+00  0.00000000E+00
  0.00000000E+00  0.00000000E+00  0.00000000E+00
  0.00000000E+00  0.00000000E+00  0.00000000E+00
  0.00000000E+00  0.00000000E+00  0.00000000E+00
  0.00000000E+00  0.00000000E+00  0.00000000E+00
  0.00000000E+00  0.00000000E+00  0.00000000E+00
  0.00000000E+00  0.00000000E+00  0.00000000E+00
  0.00000000E+00  0.00000000E+00  0.00000000E+00
  0.00000000E+00  0.00000000E+00  0.00000000E+00
  0.00000000E+00  0.00000000E+00  0.00000000E+00
  0.00000000E+00  0.00000000E+00  0.00000000E+00
  0.00000000E+00  0.00000000E+00  0.00000000E+00
  0.00000000E+00  0.00000000E+00  0.00000000E+00
  0.00000000E+00  0.00000000E+00  0.00000000E+00
  0.00000000E+00  0.00000000E+00  0.00000000E+00
  0.00000000E+00  0.00000000E+00  0.00000000E+00
  0.00000000E+00  0.00000000E+00  0.00000000E+00
  0.00000000E+00  0.00000000E+00  0.00000000E+00
  0.00000000E+00  0.00000000E+00  0.00000000E+00
  0.00000000E+00  0.00000000E+00  0.00000000E+00
  0.00000000E+00  0.00000000E+00  0.00000000E+00
  0.00000000E+00  0.00000000E+00  0.00000000E+00
  0.00000000E+00  0.00000000E+00  0.00000000E+00
  0.00000000E+00  0.00000000E+00  0.00000000E+00
  0.00000000E+00  0.00000000E+00  0.00000000E+00
  0.00000000E+00  0.00000000E+00  0.00000000E+00
  0.00000000E+00  0.00000000E+00  0.00000000E+00
  0.00000000E+00  0.00000000E+00  0.00000000E+00
  0.00000000E+00  0.00000000E+00  0.00000000E+00
  0.00000000E+00  0.00000000E+00  0.00000000E+00
  0.00000000E+00  0.00000000E+00  0.00000000E+00
  0.00000000E+00  0.00000000E+00  0.00000000E+00
  0.00000000E+00  0.00000000E+00  0.00000000E+00
