CONTCAR\(2)                             
   1.00000000000000     
    12.6485004424999996    0.0000000000000000    0.0000000000000000
    -1.2670761195000000   12.5961316350000008    0.0000000000000000
     0.0000000000000000    0.0000000000000000   18.5200004577999984
   Cr   P    S    O    H 
     4     8    28     1     1
Direct
  0.2463552965850440  0.2466488601638375  0.4990341500462065
  0.7498267642536476  0.2477124227933984  0.4970962927802134
  0.2571694716261845  0.7530229577591996  0.4999508984523686
  0.7541779945886375  0.7199458102962737  0.4881480019795248
  0.4748977462479544  0.3287167722392539  0.4750861155358947
  0.1687756735308312  0.0190655893559892  0.5333435327749996
  0.9777611352591222  0.3353736506511922  0.4641182782658717
  0.6747439607415799  0.0191321410959802  0.5296050767035254
  0.4867110878122816  0.8294689392389500  0.4714084987443456
  0.1671290428687584  0.5248365406307371  0.5189365911356276
  0.9784369843611813  0.8320121376855525  0.4780854199104780
  0.6186032288092065  0.4992724766979819  0.5809734663040800
  0.4139414665479606  0.2422068806255027  0.5597940998019695
  0.2092425710342098  0.3945052441127430  0.5715563214392745
  0.3517640379445552  0.3288406472449523  0.4046885314945499
  0.0080229491169206  0.5020198352196914  0.4775216708458174
  0.1711226594142232  0.1491107055541292  0.5985111803095293
  0.0991980893192022  0.2639559029196619  0.4198978472504962
  0.2441679217744905  0.0775365024646533  0.4424086881896585
  0.9169977285358755  0.2648190592637221  0.5566097305126760
  0.7447891767865116  0.4139813863079809  0.5691890738922822
  0.8502806425402127  0.3268904308668539  0.3971842810029784
  0.4995680373848970  0.4945128888140360  0.5021566563190660
  0.6707551752066365  0.1518082440661956  0.5932520234570688
  0.6044663725230279  0.2815066481795654  0.4236072553066279
  0.7610262880132979  0.0855301532782917  0.4434008088347525
  0.4235283432935546  0.7489063798164182  0.5593282268219113
  0.2387142669151885  0.8986821491660777  0.5803008834018613
  0.3587977120997579  0.8324447971998126  0.4043957752766900
  0.0018553648996331  0.9885398758155191  0.5219869219128697
  0.1672199554672247  0.6472655334409936  0.5902218719482946
  0.1093075022861427  0.7916759906207034  0.4254167990378122
  0.2608564069348276  0.5887108196407809  0.4376218890967110
  0.9120944122278871  0.7309965287068252  0.5558335180574687
  0.7286933867035117  0.8957695654003288  0.5780585438200205
  0.8540168414909957  0.8363817847510120  0.4090388651357344
  0.5135809945803871  0.9945652894064310  0.4933062014847067
  0.6637656105084204  0.6581264054694387  0.5939764692848541
  0.6053530662771038  0.7643011283190972  0.4184427096927479
  0.7539896493920679  0.5781587443738161  0.4408421585258964
  0.5546992966601394  0.4630465342070167  0.6537957230747438
  0.5963660324367055  0.4205653841394152  0.6850085821377760
 
  0.00000000E+00  0.00000000E+00  0.00000000E+00
  0.00000000E+00  0.00000000E+00  0.00000000E+00
  0.00000000E+00  0.00000000E+00  0.00000000E+00
  0.00000000E+00  0.00000000E+00  0.00000000E+00
  0.00000000E+00  0.00000000E+00  0.00000000E+00
  0.00000000E+00  0.00000000E+00  0.00000000E+00
  0.00000000E+00  0.00000000E+00  0.00000000E+00
  0.00000000E+00  0.00000000E+00  0.00000000E+00
  0.00000000E+00  0.00000000E+00  0.00000000E+00
  0.00000000E+00  0.00000000E+00  0.00000000E+00
  0.00000000E+00  0.00000000E+00  0.00000000E+00
  0.00000000E+00  0.00000000E+00  0.00000000E+00
  0.00000000E+00  0.00000000E+00  0.00000000E+00
  0.00000000E+00  0.00000000E+00  0.00000000E+00
  0.00000000E+00  0.00000000E+00  0.00000000E+00
  0.00000000E+00  0.00000000E+00  0.00000000E+00
  0.00000000E+00  0.00000000E+00  0.00000000E+00
  0.00000000E+00  0.00000000E+00  0.00000000E+00
  0.00000000E+00  0.00000000E+00  0.00000000E+00
  0.00000000E+00  0.00000000E+00  0.00000000E+00
  0.00000000E+00  0.00000000E+00  0.00000000E+00
  0.00000000E+00  0.00000000E+00  0.00000000E+00
  0.00000000E+00  0.00000000E+00  0.00000000E+00
  0.00000000E+00  0.00000000E+00  0.00000000E+00
  0.00000000E+00  0.00000000E+00  0.00000000E+00
  0.00000000E+00  0.00000000E+00  0.00000000E+00
  0.00000000E+00  0.00000000E+00  0.00000000E+00
  0.00000000E+00  0.00000000E+00  0.00000000E+00
  0.00000000E+00  0.00000000E+00  0.00000000E+00
  0.00000000E+00  0.00000000E+00  0.00000000E+00
  0.00000000E+00  0.00000000E+00  0.00000000E+00
  0.00000000E+00  0.00000000E+00  0.00000000E+00
  0.00000000E+00  0.00000000E+00  0.00000000E+00
  0.00000000E+00  0.00000000E+00  0.00000000E+00
  0.00000000E+00  0.00000000E+00  0.00000000E+00
  0.00000000E+00  0.00000000E+00  0.00000000E+00
  0.00000000E+00  0.00000000E+00  0.00000000E+00
  0.00000000E+00  0.00000000E+00  0.00000000E+00
  0.00000000E+00  0.00000000E+00  0.00000000E+00
  0.00000000E+00  0.00000000E+00  0.00000000E+00
  0.00000000E+00  0.00000000E+00  0.00000000E+00
  0.00000000E+00  0.00000000E+00  0.00000000E+00
