CONTCAR\(2)                             
   1.00000000000000     
    14.0806999207000008    0.0000000000000000    0.0000000000000000
     0.0000000000000000   14.0806999207000008    0.0000000000000000
     0.0000000000000000    0.0000000000000000   21.7063999175999989
   Zr   Si   Se   H 
    32    32    32     1
Direct
  0.1250231734013410  0.0000240784391515  0.5996500325871452
 -0.0000377951410892  0.1250094961839302  0.4002395389899955
  0.3750083491334152  0.0000238240987646  0.5997170418473228
  0.2501020326785084  0.1250958262959599  0.4004099402708333
  0.6250298915093080  0.0000179484284538  0.5996673213083830
  0.4998560004184976  0.1250505324783821  0.4003906156380880
  0.8749918409356350  0.0000269123855603  0.5995133004779516
  0.7500250853009454  0.1249843062182637  0.4002089850506099
  0.1248522901461095  0.2498430678543441  0.5995271821536973
 -0.0000019492311529  0.3750782648633286  0.4003946380429634
  0.3750502734538320  0.2510155039262432  0.6005495719867722
  0.2500465763242926  0.3750464636632274  0.4005853353936720
  0.6252722833087740  0.2498076988032522  0.5994983667200235
  0.4999402434054833  0.3750298253026052  0.4005562628338648
  0.8749706093505908  0.2500389653746162  0.5996736014484104
  0.7499825221541325  0.3750580642647258  0.4003558623380589
  0.1260399609049364  0.5000375134756805  0.6005410797481241
  0.0000013417616449  0.6249351484090674  0.4003864065340851
  0.3750786812005030  0.5000934121335023  0.6029118198341082
  0.2500412472356675  0.6249796064983056  0.4005751915195433
  0.6241396077565217  0.5000450589037103  0.6005016129213376
  0.4999552780748853  0.6249955374190389  0.4005450529470401
  0.8750086505111707  0.5000194882037110  0.5997004706960128
  0.7499902912212318  0.6249530494081526  0.4003462355353358
  0.1248317986521234  0.7502286825044854  0.5995075418342704
 -0.0000417616882082  0.8750245026964123  0.4002298406637138
  0.3750493789741197  0.7490581928759620  0.6005392339007751
  0.2501040992764072  0.8749337878437520  0.4003978074582807
  0.6253162237276839  0.7502664460618631  0.5994830748942861
  0.4998642837858404  0.8749664029812877  0.4003832372945850
  0.8749870524921566  0.7500054794235093  0.5996639190155280
  0.7500398324967612  0.8750384492677860  0.4002012301677226
  0.0001197399677972  0.0000145718965350  0.4998658800800997
  0.1249706708273110  0.1250756838696829  0.4999367012723474
  0.2501063571766754  0.0000101066035054  0.4999808418077983
  0.3749972813506068  0.1252233753383204  0.5001940388938163
  0.4998790156174152  0.0000022486219148  0.4999841177400195
  0.6250472952332508  0.1249919931431506  0.4999151022545184
  0.7499269436387281  0.0000119420481771  0.4998603908393394
  0.8750222828804057  0.1250643377264773  0.4998511561066290
  0.0000081752812737  0.2499393250066944  0.4999451601262015
  0.1251781266114983  0.3752123927919970  0.5001454287577066
  0.2503384198241348  0.2503342663396284  0.5001687314249761
  0.3750635777237722  0.3750167504668459  0.5004219007762118
  0.4998153412158282  0.2502066254554407  0.5001339157990995
  0.6248839841342954  0.3751577678991961  0.5001157909081512
  0.7500042273979369  0.2497176540457263  0.4998652152753435
  0.8749638579669143  0.3750774580617214  0.4999772161361808
  0.0001695664913964  0.5000061658226673  0.5001576416397289
  0.1251761919430902  0.6248117949330116  0.5001397149823563
  0.2499624821065290  0.5000171739268190  0.5004375041211642
  0.3750695399997965  0.6250232055162874  0.5004142144662045
  0.5001269167939306  0.5000206995196173  0.5003733923489638
  0.6248993729169188  0.6248754928227560  0.5001069647626828
  0.7498280816347298  0.5000089555272376  0.5001264038999468
  0.8749746405276652  0.6249297717382069  0.4999719437984460
  0.0000061571828726  0.7500793867860963  0.4999342825983447
  0.1249697871476155  0.8749506449750181  0.4999309025913246
  0.2503316092782613  0.7496910989106653  0.5001596337315164
  0.3749880739921562  0.8748016425214011  0.5001807079222618
  0.4998259664909503  0.7498366670784420  0.5001179119562739
  0.6250635215113814  0.8750284393480969  0.4998982678350407
  0.7500289301838055  0.7502990497660266  0.4998530009156865
  0.8750323479160410  0.8749633714536427  0.4998435498296478
 -0.0001181260124988  0.1249426043020228  0.6536976402516717
  0.1251329728443123  0.0000356309463693  0.3461689994082284
  0.2499471477506261  0.1247372624281569  0.6537345185547709
  0.3749666860346653  0.0000113657717561  0.3460887346518690
  0.5000886979285887  0.1247878757359494  0.6536244936980969
  0.6248710880481799  0.0000094694506181  0.3461095825385614
  0.7501542574381689  0.1248731023742340  0.6539011536180188
  0.8750011230391486  0.0000115728483789  0.3457717916840690
 -0.0002113522462831  0.3750024107852082  0.6536319881890795
  0.1251005712026186  0.2501942613988914  0.3461188296612588
  0.2483537304259639  0.3732085563930174  0.6548150122428620
  0.3749762552454813  0.2500334333954466  0.3461207101829829
  0.5019140789979379  0.3733489614909459  0.6546585486036495
  0.6247645920175389  0.2501833617288766  0.3460913822551048
  0.7503187274272852  0.3750062426658273  0.6537692827167600
  0.8750277126303309  0.2501120386545310  0.3459011025757107
 -0.0002150274605124  0.6250517034504381  0.6536344720143074
  0.1250543252393991  0.5000051463134246  0.3463073104027152
  0.2483399674353655  0.6269140714916902  0.6547984607407709
  0.3749892633408469  0.5000059376645373  0.3464817593812897
  0.5019314633866695  0.6267668360959239  0.6546381617241283
  0.6249517895519289  0.5000036048107033  0.3463061480647402
  0.7503478972042499  0.6250666636739756  0.6537736393468279
  0.8749955815593878  0.4999994167088128  0.3460736623758933
 -0.0001302320264627  0.8751140786236430  0.6536882770526834
  0.1250848740636936  0.7498477917029883  0.3461058989918137
  0.2499606848791774  0.8753893010552060  0.6537215280834420
  0.3749791455534882  0.7499791424341689  0.3461162698284176
  0.5000959014742328  0.8752521526188644  0.6536225765294368
  0.6247760968515510  0.7498326235940777  0.3460771972847481
  0.7501925620140889  0.8752299081681904  0.6538897721096828
  0.8750327639976582  0.7498945296497523  0.3458939934322722
  0.3756888996661188  0.5006273569253304  0.6896877851536508
 
  0.00000000E+00  0.00000000E+00  0.00000000E+00
  0.00000000E+00  0.00000000E+00  0.00000000E+00
  0.00000000E+00  0.00000000E+00  0.00000000E+00
  0.00000000E+00  0.00000000E+00  0.00000000E+00
  0.00000000E+00  0.00000000E+00  0.00000000E+00
  0.00000000E+00  0.00000000E+00  0.00000000E+00
  0.00000000E+00  0.00000000E+00  0.00000000E+00
  0.00000000E+00  0.00000000E+00  0.00000000E+00
  0.00000000E+00  0.00000000E+00  0.00000000E+00
  0.00000000E+00  0.00000000E+00  0.00000000E+00
  0.00000000E+00  0.00000000E+00  0.00000000E+00
  0.00000000E+00  0.00000000E+00  0.00000000E+00
  0.00000000E+00  0.00000000E+00  0.00000000E+00
  0.00000000E+00  0.00000000E+00  0.00000000E+00
  0.00000000E+00  0.00000000E+00  0.00000000E+00
  0.00000000E+00  0.00000000E+00  0.00000000E+00
  0.00000000E+00  0.00000000E+00  0.00000000E+00
  0.00000000E+00  0.00000000E+00  0.00000000E+00
  0.00000000E+00  0.00000000E+00  0.00000000E+00
  0.00000000E+00  0.00000000E+00  0.00000000E+00
  0.00000000E+00  0.00000000E+00  0.00000000E+00
  0.00000000E+00  0.00000000E+00  0.00000000E+00
  0.00000000E+00  0.00000000E+00  0.00000000E+00
  0.00000000E+00  0.00000000E+00  0.00000000E+00
  0.00000000E+00  0.00000000E+00  0.00000000E+00
  0.00000000E+00  0.00000000E+00  0.00000000E+00
  0.00000000E+00  0.00000000E+00  0.00000000E+00
  0.00000000E+00  0.00000000E+00  0.00000000E+00
  0.00000000E+00  0.00000000E+00  0.00000000E+00
  0.00000000E+00  0.00000000E+00  0.00000000E+00
  0.00000000E+00  0.00000000E+00  0.00000000E+00
  0.00000000E+00  0.00000000E+00  0.00000000E+00
  0.00000000E+00  0.00000000E+00  0.00000000E+00
  0.00000000E+00  0.00000000E+00  0.00000000E+00
  0.00000000E+00  0.00000000E+00  0.00000000E+00
  0.00000000E+00  0.00000000E+00  0.00000000E+00
  0.00000000E+00  0.00000000E+00  0.00000000E+00
  0.00000000E+00  0.00000000E+00  0.00000000E+00
  0.00000000E+00  0.00000000E+00  0.00000000E+00
  0.00000000E+00  0.00000000E+00  0.00000000E+00
  0.00000000E+00  0.00000000E+00  0.00000000E+00
  0.00000000E+00  0.00000000E+00  0.00000000E+00
  0.00000000E+00  0.00000000E+00  0.00000000E+00
  0.00000000E+00  0.00000000E+00  0.00000000E+00
  0.00000000E+00  0.00000000E+00  0.00000000E+00
  0.00000000E+00  0.00000000E+00  0.00000000E+00
  0.00000000E+00  0.00000000E+00  0.00000000E+00
  0.00000000E+00  0.00000000E+00  0.00000000E+00
  0.00000000E+00  0.00000000E+00  0.00000000E+00
  0.00000000E+00  0.00000000E+00  0.00000000E+00
  0.00000000E+00  0.00000000E+00  0.00000000E+00
  0.00000000E+00  0.00000000E+00  0.00000000E+00
  0.00000000E+00  0.00000000E+00  0.00000000E+00
  0.00000000E+00  0.00000000E+00  0.00000000E+00
  0.00000000E+00  0.00000000E+00  0.00000000E+00
  0.00000000E+00  0.00000000E+00  0.00000000E+00
  0.00000000E+00  0.00000000E+00  0.00000000E+00
  0.00000000E+00  0.00000000E+00  0.00000000E+00
  0.00000000E+00  0.00000000E+00  0.00000000E+00
  0.00000000E+00  0.00000000E+00  0.00000000E+00
  0.00000000E+00  0.00000000E+00  0.00000000E+00
  0.00000000E+00  0.00000000E+00  0.00000000E+00
  0.00000000E+00  0.00000000E+00  0.00000000E+00
  0.00000000E+00  0.00000000E+00  0.00000000E+00
  0.00000000E+00  0.00000000E+00  0.00000000E+00
  0.00000000E+00  0.00000000E+00  0.00000000E+00
  0.00000000E+00  0.00000000E+00  0.00000000E+00
  0.00000000E+00  0.00000000E+00  0.00000000E+00
  0.00000000E+00  0.00000000E+00  0.00000000E+00
  0.00000000E+00  0.00000000E+00  0.00000000E+00
  0.00000000E+00  0.00000000E+00  0.00000000E+00
  0.00000000E+00  0.00000000E+00  0.00000000E+00
  0.00000000E+00  0.00000000E+00  0.00000000E+00
  0.00000000E+00  0.00000000E+00  0.00000000E+00
  0.00000000E+00  0.00000000E+00  0.00000000E+00
  0.00000000E+00  0.00000000E+00  0.00000000E+00
  0.00000000E+00  0.00000000E+00  0.00000000E+00
  0.00000000E+00  0.00000000E+00  0.00000000E+00
  0.00000000E+00  0.00000000E+00  0.00000000E+00
  0.00000000E+00  0.00000000E+00  0.00000000E+00
  0.00000000E+00  0.00000000E+00  0.00000000E+00
  0.00000000E+00  0.00000000E+00  0.00000000E+00
  0.00000000E+00  0.00000000E+00  0.00000000E+00
  0.00000000E+00  0.00000000E+00  0.00000000E+00
  0.00000000E+00  0.00000000E+00  0.00000000E+00
  0.00000000E+00  0.00000000E+00  0.00000000E+00
  0.00000000E+00  0.00000000E+00  0.00000000E+00
  0.00000000E+00  0.00000000E+00  0.00000000E+00
  0.00000000E+00  0.00000000E+00  0.00000000E+00
  0.00000000E+00  0.00000000E+00  0.00000000E+00
  0.00000000E+00  0.00000000E+00  0.00000000E+00
  0.00000000E+00  0.00000000E+00  0.00000000E+00
  0.00000000E+00  0.00000000E+00  0.00000000E+00
  0.00000000E+00  0.00000000E+00  0.00000000E+00
  0.00000000E+00  0.00000000E+00  0.00000000E+00
  0.00000000E+00  0.00000000E+00  0.00000000E+00
  0.00000000E+00  0.00000000E+00  0.00000000E+00
