CONTCAR\(2)                             
   1.00000000000000     
    12.5215997695999999    0.0000000000000000    0.0000000000000000
    -6.2607811132000002   10.8440343342999999    0.0000000000000000
     0.0000000000000000    0.0000000000000000   23.0615997314000012
   Y    Ga   I 
    18    18    18
Direct
  0.0000000000000000  0.0000000000000000  0.5871599930000002
  0.0000000000000000  0.0000000000000000  0.4128400069999998
  0.3333299949999997  0.0000000000000000  0.5871599930000002
  0.3333299949999997  0.0000000000000000  0.4128400069999998
  0.6666700430000034  0.0000000000000000  0.5871599930000002
  0.6666700430000034  0.0000000000000000  0.4128400069999998
  0.9999999950000031  0.3333299940000032  0.5871599930000002
  0.9999999950000031  0.3333299940000032  0.4128400069999998
  0.3333299900000029  0.3333299940000032  0.5871599930000002
  0.3333299900000029  0.3333299940000032  0.4128400069999998
  0.6666700190000014  0.3333299940000032  0.5871599930000002
  0.6666700190000014  0.3333299940000032  0.4128400069999998
  0.9999999759999980  0.6666700150000011  0.5871599930000002
  0.9999999759999980  0.6666700150000011  0.4128400069999998
  0.3333299709999977  0.6666700150000011  0.5871599930000002
  0.3333299709999977  0.6666700150000011  0.4128400069999998
  0.6666700199999980  0.6666700150000011  0.5871599930000002
  0.6666700199999980  0.6666700150000011  0.4128400069999998
  0.1111099960000033  0.2222200109999974  0.5144799979999988
  0.2222200049999969  0.1111100050000005  0.4855300090000014
  0.4444400100000010  0.2222200109999974  0.5144799979999988
  0.5555600149999975  0.1111100050000005  0.4855300090000014
  0.7777800200000016  0.2222200109999974  0.5144799979999988
  0.8888900099999972  0.1111100050000005  0.4855300090000014
  0.1111099820000021  0.5555599650000005  0.5144799979999988
  0.2222199919999994  0.4444400220000020  0.4855300090000014
  0.4444399770000018  0.5555599650000005  0.5144799979999988
  0.5555600020000000  0.4444400220000020  0.4855300090000014
  0.7777799879999989  0.5555599650000005  0.5144799979999988
  0.8888900729999989  0.4444400220000020  0.4855300090000014
  0.1111099700000011  0.8888899820000020  0.5144799979999988
  0.2222199590000002  0.7777799759999979  0.4855300090000014
  0.4444399639999972  0.8888899820000020  0.5144799979999988
  0.5555599699999973  0.7777799759999979  0.4855300090000014
  0.7777799750000014  0.8888899820000020  0.5144799979999988
  0.8888900030000002  0.7777799759999979  0.4855300090000014
  0.2222200049999969  0.1111100050000005  0.6732299940000033
  0.1111099960000033  0.2222200109999974  0.3267799930000024
  0.5555600149999975  0.1111100050000005  0.6732299940000033
  0.4444400100000010  0.2222200109999974  0.3267799930000024
  0.8888900099999972  0.1111100050000005  0.6732299940000033
  0.7777800200000016  0.2222200109999974  0.3267799930000024
  0.2222199919999994  0.4444400220000020  0.6732299940000033
  0.1111099820000021  0.5555599650000005  0.3267799930000024
  0.5555600020000000  0.4444400220000020  0.6732299940000033
  0.4444399770000018  0.5555599650000005  0.3267799930000024
  0.8888900729999989  0.4444400220000020  0.6732299940000033
  0.7777799879999989  0.5555599650000005  0.3267799930000024
  0.2222199590000002  0.7777799759999979  0.6732299940000033
  0.1111099700000011  0.8888899820000020  0.3267799930000024
  0.5555599699999973  0.7777799759999979  0.6732299940000033
  0.4444399639999972  0.8888899820000020  0.3267799930000024
  0.8888900030000002  0.7777799759999979  0.6732299940000033
  0.7777799750000014  0.8888899820000020  0.3267799930000024
 
  0.00000000E+00  0.00000000E+00  0.00000000E+00
  0.00000000E+00  0.00000000E+00  0.00000000E+00
  0.00000000E+00  0.00000000E+00  0.00000000E+00
  0.00000000E+00  0.00000000E+00  0.00000000E+00
  0.00000000E+00  0.00000000E+00  0.00000000E+00
  0.00000000E+00  0.00000000E+00  0.00000000E+00
  0.00000000E+00  0.00000000E+00  0.00000000E+00
  0.00000000E+00  0.00000000E+00  0.00000000E+00
  0.00000000E+00  0.00000000E+00  0.00000000E+00
  0.00000000E+00  0.00000000E+00  0.00000000E+00
  0.00000000E+00  0.00000000E+00  0.00000000E+00
  0.00000000E+00  0.00000000E+00  0.00000000E+00
  0.00000000E+00  0.00000000E+00  0.00000000E+00
  0.00000000E+00  0.00000000E+00  0.00000000E+00
  0.00000000E+00  0.00000000E+00  0.00000000E+00
  0.00000000E+00  0.00000000E+00  0.00000000E+00
  0.00000000E+00  0.00000000E+00  0.00000000E+00
  0.00000000E+00  0.00000000E+00  0.00000000E+00
  0.00000000E+00  0.00000000E+00  0.00000000E+00
  0.00000000E+00  0.00000000E+00  0.00000000E+00
  0.00000000E+00  0.00000000E+00  0.00000000E+00
  0.00000000E+00  0.00000000E+00  0.00000000E+00
  0.00000000E+00  0.00000000E+00  0.00000000E+00
  0.00000000E+00  0.00000000E+00  0.00000000E+00
  0.00000000E+00  0.00000000E+00  0.00000000E+00
  0.00000000E+00  0.00000000E+00  0.00000000E+00
  0.00000000E+00  0.00000000E+00  0.00000000E+00
  0.00000000E+00  0.00000000E+00  0.00000000E+00
  0.00000000E+00  0.00000000E+00  0.00000000E+00
  0.00000000E+00  0.00000000E+00  0.00000000E+00
  0.00000000E+00  0.00000000E+00  0.00000000E+00
  0.00000000E+00  0.00000000E+00  0.00000000E+00
  0.00000000E+00  0.00000000E+00  0.00000000E+00
  0.00000000E+00  0.00000000E+00  0.00000000E+00
  0.00000000E+00  0.00000000E+00  0.00000000E+00
  0.00000000E+00  0.00000000E+00  0.00000000E+00
  0.00000000E+00  0.00000000E+00  0.00000000E+00
  0.00000000E+00  0.00000000E+00  0.00000000E+00
  0.00000000E+00  0.00000000E+00  0.00000000E+00
  0.00000000E+00  0.00000000E+00  0.00000000E+00
  0.00000000E+00  0.00000000E+00  0.00000000E+00
  0.00000000E+00  0.00000000E+00  0.00000000E+00
  0.00000000E+00  0.00000000E+00  0.00000000E+00
  0.00000000E+00  0.00000000E+00  0.00000000E+00
  0.00000000E+00  0.00000000E+00  0.00000000E+00
  0.00000000E+00  0.00000000E+00  0.00000000E+00
  0.00000000E+00  0.00000000E+00  0.00000000E+00
  0.00000000E+00  0.00000000E+00  0.00000000E+00
  0.00000000E+00  0.00000000E+00  0.00000000E+00
  0.00000000E+00  0.00000000E+00  0.00000000E+00
  0.00000000E+00  0.00000000E+00  0.00000000E+00
  0.00000000E+00  0.00000000E+00  0.00000000E+00
  0.00000000E+00  0.00000000E+00  0.00000000E+00
  0.00000000E+00  0.00000000E+00  0.00000000E+00
