CONTCAR\(8)                             
   1.00000000000000     
    13.7044000625999995    0.0000000000000000    0.0000000000000000
     6.8522000312999998   11.8683585978000004    0.0000000000000000
     0.0000000000000000    0.0000000000000000   18.4445991515999985
   Cr   Ge   Te
     8     8    23
Direct
  0.1687977568213149  0.1673045724746955  0.4999350587374388
  0.3361430715189578  0.3238187804518673  0.4915560252838421
  0.6675840737263045  0.1681878781161725  0.4987500057471568
  0.8321350301843878  0.3357596595239287  0.5002180276358008
  0.1600108828722654  0.6761798796019182  0.4915266201742363
  0.3358027922355813  0.8317819615730538  0.4987737886121952
  0.6678901234590763  0.6642497256051898  0.5002016243670355
  0.8361460211198846  0.8326874826428718  0.4999333097118213
 -0.0000670665973194  0.0035063221828226  0.4349341988269776
  0.0011241818105794 -0.0003026640193435  0.5660978041964172
  0.5034341576615882 -0.0035345672529989  0.4349271489244322
  0.5008422501446100  0.0002879201200269  0.5660889841021787
  0.0020126439390558  0.4999824186967932  0.4341846004512723
  0.0028674710063136  0.5000156246168744  0.5649217973549245
  0.4926077539870102  0.4999785515905723  0.4554358135507711
  0.4674369775013813  0.5000085474228135  0.5881926102360000
  0.3136416011699586 -0.0002603857868559  0.5937151628535497
  0.0009940391845081  0.1878877899305550  0.5940819870897058
  0.1932073025592618  0.3162486040957845  0.5936335022289613
  0.1905608314239828  0.4999828838801580  0.4047521322505144
  0.5024992001749599  0.3135567834793758  0.4035363531660658
  0.3137693146977238  0.1804559812754055  0.4009559131319093
  0.8133610683846220  0.0002783525201431  0.5937077403781978
  0.5000973104490503  0.1903152910555894  0.5921031221464815
  0.6810237869044447  0.3198823839903829  0.5911783656415125
  0.6783980741208544  0.5000000174943443  0.4104512123814074
  0.0004818921303375  0.3139622257923612  0.4053928402155025
  0.8130039731354874  0.1901263062779771  0.4048777824090177
  0.0094849577148389  0.6837639807399600  0.5936147197043915
  0.1904130348478842  0.8096693321436670  0.5921177930601110
  0.1887396583201609  0.0005926318235100  0.4052646586328531
  0.5030895459153576  0.8098801325103842  0.4048386395302576
  0.3161342935641246  0.6864265543015041  0.4035241098082237
  0.8155337850173258  0.5000083093797457  0.5954490595162438
  0.5009693351410203  0.6800799588621753  0.5912093482458163
  0.6889052620195308  0.8121054564136315  0.5940685975247167
  0.6893686524052057  0.9993244474174857  0.4052697230637513
  0.9942251505143289  0.8195478100942070  0.4009395472784962
  0.8144873118140189  0.6860450629612503  0.4053957588297775
 
  0.00000000E+00  0.00000000E+00  0.00000000E+00
  0.00000000E+00  0.00000000E+00  0.00000000E+00
  0.00000000E+00  0.00000000E+00  0.00000000E+00
  0.00000000E+00  0.00000000E+00  0.00000000E+00
  0.00000000E+00  0.00000000E+00  0.00000000E+00
  0.00000000E+00  0.00000000E+00  0.00000000E+00
  0.00000000E+00  0.00000000E+00  0.00000000E+00
  0.00000000E+00  0.00000000E+00  0.00000000E+00
  0.00000000E+00  0.00000000E+00  0.00000000E+00
  0.00000000E+00  0.00000000E+00  0.00000000E+00
  0.00000000E+00  0.00000000E+00  0.00000000E+00
  0.00000000E+00  0.00000000E+00  0.00000000E+00
  0.00000000E+00  0.00000000E+00  0.00000000E+00
  0.00000000E+00  0.00000000E+00  0.00000000E+00
  0.00000000E+00  0.00000000E+00  0.00000000E+00
  0.00000000E+00  0.00000000E+00  0.00000000E+00
  0.00000000E+00  0.00000000E+00  0.00000000E+00
  0.00000000E+00  0.00000000E+00  0.00000000E+00
  0.00000000E+00  0.00000000E+00  0.00000000E+00
  0.00000000E+00  0.00000000E+00  0.00000000E+00
  0.00000000E+00  0.00000000E+00  0.00000000E+00
  0.00000000E+00  0.00000000E+00  0.00000000E+00
  0.00000000E+00  0.00000000E+00  0.00000000E+00
  0.00000000E+00  0.00000000E+00  0.00000000E+00
  0.00000000E+00  0.00000000E+00  0.00000000E+00
  0.00000000E+00  0.00000000E+00  0.00000000E+00
  0.00000000E+00  0.00000000E+00  0.00000000E+00
  0.00000000E+00  0.00000000E+00  0.00000000E+00
  0.00000000E+00  0.00000000E+00  0.00000000E+00
  0.00000000E+00  0.00000000E+00  0.00000000E+00
  0.00000000E+00  0.00000000E+00  0.00000000E+00
  0.00000000E+00  0.00000000E+00  0.00000000E+00
  0.00000000E+00  0.00000000E+00  0.00000000E+00
  0.00000000E+00  0.00000000E+00  0.00000000E+00
  0.00000000E+00  0.00000000E+00  0.00000000E+00
  0.00000000E+00  0.00000000E+00  0.00000000E+00
  0.00000000E+00  0.00000000E+00  0.00000000E+00
  0.00000000E+00  0.00000000E+00  0.00000000E+00
  0.00000000E+00  0.00000000E+00  0.00000000E+00
