CONTCAR\(13)                            
   1.00000000000000     
    12.5135002136000004    0.0000000000000000    0.0000000000000000
     0.0000000000000000   15.7480001450000007    0.0000000000000000
     0.0000000000000000    0.0000000000000000   19.7180004119999985
   Nb   Fe   Te   O    H 
    16    16    32     1     1
Direct
  0.2351664907513207  0.1552038154224618  0.4917998218381913
  0.0102178113179478  0.4049114449843263  0.4906126968985778
  0.9847517318350489  0.0965698935622662  0.5071218180353610
  0.2603423798701964  0.3470996763696311  0.5061975210028209
  0.7349799200670332  0.1552137034307648  0.4912116118650670
  0.5101675433662916  0.4053745923681920  0.4906047945858824
  0.4848999729599403  0.0968277107000530  0.5072723921579658
  0.7593992740877501  0.3477970690376327  0.5064702503438330
  0.2358561903463161  0.6544851369482687  0.4899530255043836
  0.0086096957099995  0.9048247110642091  0.4904595336292171
  0.9854517061318365  0.5963969540757753  0.5044731441264313
  0.2586845397475794  0.8468336225337542  0.5063519983919228
  0.7361225257112554  0.6542976022646637  0.4835714560206733
  0.5089798199013247  0.9053492744682710  0.4909221655775609
  0.4888397063662031  0.5975968730474189  0.5039415950293945
  0.7583156533985674  0.8459903117519936  0.5059566178427690
  0.0691711958202718  0.2473061985067594  0.5376108124051293
  0.3186018501574800  0.0048812174829768  0.4610537242091553
  0.4262526119509130  0.2548923811819588  0.4606337308108760
  0.1745443039439508  0.9968539681579751  0.5377759270264343
  0.5697418397296382  0.2479357870101761  0.5375038074839208
  0.8186220378799567  0.0047797105621618  0.4603556239219615
  0.9256464410230120  0.2547839049919609  0.4607579519085415
  0.6750473458507845  0.9971448886871632  0.5371528921796183
  0.0680065039655274  0.7462745232566722  0.5360053474033946
  0.3197239105968174  0.5051532746674747  0.4588811524395042
  0.4250149953698524  0.7557489187326276  0.4601362875677797
  0.1761573453430599  0.4973289356137263  0.5359448900759373
  0.5689587506664988  0.7445771783366910  0.5374188608209354
  0.8195289256796050  0.5047047126015060  0.4597759118745888
  0.9249961307075262  0.7545169713709003  0.4589464538318261
  0.6748547979027835  0.5017388584602914  0.5391444020634432
  0.3677363111089338  0.3796942408096994  0.3807558064249251
  0.1236422231256354  0.0230490609512730  0.4103547847157664
  0.3699965072469460  0.9784957796416202  0.5878446187115545
  0.1184281012553914  0.3725003040820680  0.6158588707919894
  0.3741351795493768  0.2298880209264129  0.5879770814434852
  0.1212099640792677  0.2725185864466331  0.4101504090095857
  0.1270901879129837  0.1216790674940366  0.6168363253133886
  0.3772083777003946  0.1301605501365651  0.3819999907387931
  0.8676437832200309  0.3797524978944408  0.3811483753964553
  0.6231299039449795  0.0234805344824949  0.4100715499422901
  0.8699098111140242  0.9777980449442483  0.5874536887385069
  0.6174375437044843  0.3738421100794772  0.6159763977850218
  0.8734857147330822  0.2293674676126847  0.5877238656211383
  0.6213265708603203  0.2727596502743850  0.4099418950223669
  0.6277020716207843  0.1218199401285528  0.6165436261435776
  0.8775923877118912  0.1302839430120301  0.3815931772260951
  0.3657364638782252  0.8810707564236765  0.3811620467584483
  0.1247881928056863  0.5217418081466040  0.4083750841044077
  0.3721628071482448  0.4817167173818328  0.5859245301638051
  0.1151857469000930  0.8703302851689908  0.6157743792792696
  0.3736889846982159  0.7282050961926525  0.5868460355986929
  0.1206940323544645  0.7723982137426363  0.4092394667278036
  0.1269955557827070  0.6214532516303642  0.6147793124508316
  0.3797126723755136  0.6305497477468228  0.3803912936620649
  0.8663932938287798  0.8805729063816206  0.3806530355352102
  0.6260572969689495  0.5202200131427065  0.4083268818694560
  0.8709955541365321  0.4795866501923969  0.5865840056378763
  0.6163623212898893  0.8709918788885335  0.6156922045321696
  0.8694950277961121  0.7250590804092782  0.5849848186512263
  0.6189158746952373  0.7749447755454104  0.4087672182922893
  0.6303530451623320  0.6231802316261414  0.6191742620862781
  0.8795133027933204  0.6286427050727520  0.3784033140194355
  0.5062774171797083  0.5902116401957574  0.6882320829326246
  0.5366235961611433  0.5995602735445280  0.7333712668000788
 
  0.00000000E+00  0.00000000E+00  0.00000000E+00
  0.00000000E+00  0.00000000E+00  0.00000000E+00
  0.00000000E+00  0.00000000E+00  0.00000000E+00
  0.00000000E+00  0.00000000E+00  0.00000000E+00
  0.00000000E+00  0.00000000E+00  0.00000000E+00
  0.00000000E+00  0.00000000E+00  0.00000000E+00
  0.00000000E+00  0.00000000E+00  0.00000000E+00
  0.00000000E+00  0.00000000E+00  0.00000000E+00
  0.00000000E+00  0.00000000E+00  0.00000000E+00
  0.00000000E+00  0.00000000E+00  0.00000000E+00
  0.00000000E+00  0.00000000E+00  0.00000000E+00
  0.00000000E+00  0.00000000E+00  0.00000000E+00
  0.00000000E+00  0.00000000E+00  0.00000000E+00
  0.00000000E+00  0.00000000E+00  0.00000000E+00
  0.00000000E+00  0.00000000E+00  0.00000000E+00
  0.00000000E+00  0.00000000E+00  0.00000000E+00
  0.00000000E+00  0.00000000E+00  0.00000000E+00
  0.00000000E+00  0.00000000E+00  0.00000000E+00
  0.00000000E+00  0.00000000E+00  0.00000000E+00
  0.00000000E+00  0.00000000E+00  0.00000000E+00
  0.00000000E+00  0.00000000E+00  0.00000000E+00
  0.00000000E+00  0.00000000E+00  0.00000000E+00
  0.00000000E+00  0.00000000E+00  0.00000000E+00
  0.00000000E+00  0.00000000E+00  0.00000000E+00
  0.00000000E+00  0.00000000E+00  0.00000000E+00
  0.00000000E+00  0.00000000E+00  0.00000000E+00
  0.00000000E+00  0.00000000E+00  0.00000000E+00
  0.00000000E+00  0.00000000E+00  0.00000000E+00
  0.00000000E+00  0.00000000E+00  0.00000000E+00
  0.00000000E+00  0.00000000E+00  0.00000000E+00
  0.00000000E+00  0.00000000E+00  0.00000000E+00
  0.00000000E+00  0.00000000E+00  0.00000000E+00
  0.00000000E+00  0.00000000E+00  0.00000000E+00
  0.00000000E+00  0.00000000E+00  0.00000000E+00
  0.00000000E+00  0.00000000E+00  0.00000000E+00
  0.00000000E+00  0.00000000E+00  0.00000000E+00
  0.00000000E+00  0.00000000E+00  0.00000000E+00
  0.00000000E+00  0.00000000E+00  0.00000000E+00
  0.00000000E+00  0.00000000E+00  0.00000000E+00
  0.00000000E+00  0.00000000E+00  0.00000000E+00
  0.00000000E+00  0.00000000E+00  0.00000000E+00
  0.00000000E+00  0.00000000E+00  0.00000000E+00
  0.00000000E+00  0.00000000E+00  0.00000000E+00
  0.00000000E+00  0.00000000E+00  0.00000000E+00
  0.00000000E+00  0.00000000E+00  0.00000000E+00
  0.00000000E+00  0.00000000E+00  0.00000000E+00
  0.00000000E+00  0.00000000E+00  0.00000000E+00
  0.00000000E+00  0.00000000E+00  0.00000000E+00
  0.00000000E+00  0.00000000E+00  0.00000000E+00
  0.00000000E+00  0.00000000E+00  0.00000000E+00
  0.00000000E+00  0.00000000E+00  0.00000000E+00
  0.00000000E+00  0.00000000E+00  0.00000000E+00
  0.00000000E+00  0.00000000E+00  0.00000000E+00
  0.00000000E+00  0.00000000E+00  0.00000000E+00
  0.00000000E+00  0.00000000E+00  0.00000000E+00
  0.00000000E+00  0.00000000E+00  0.00000000E+00
  0.00000000E+00  0.00000000E+00  0.00000000E+00
  0.00000000E+00  0.00000000E+00  0.00000000E+00
  0.00000000E+00  0.00000000E+00  0.00000000E+00
  0.00000000E+00  0.00000000E+00  0.00000000E+00
  0.00000000E+00  0.00000000E+00  0.00000000E+00
  0.00000000E+00  0.00000000E+00  0.00000000E+00
  0.00000000E+00  0.00000000E+00  0.00000000E+00
  0.00000000E+00  0.00000000E+00  0.00000000E+00
  0.00000000E+00  0.00000000E+00  0.00000000E+00
  0.00000000E+00  0.00000000E+00  0.00000000E+00
