CONTCAR\(8)                             
   1.00000000000000     
    12.8318004608000003    0.0000000000000000    0.0000000000000000
     0.0000000000000000   12.8378000259000000    0.0000000000000000
     0.0000000000000000    0.0000000000000000   24.0013999939000016
   Nd   Te   Se   O    H 
    18    36    18     2     1
Direct
  0.1688142032670683  0.1684325343969297  0.5756292824499377
  0.0021652090963141  0.0016499034176311  0.4213408139104171
  0.5038823802553395  0.1623970874400028  0.5734497586995531
  0.3355160859598925  0.0011724530134987  0.4214478123406052
  0.8363769780073933  0.1680186978354314  0.5753439832014059
  0.6689652363718909  0.0009029367903311  0.4209251447126231
  0.1680241126429033  0.5004506241573839  0.5752643630719118
  0.0017268596956495  0.3346714074609177  0.4213378299251994
  0.5037284668628096  0.5070225443740016  0.5734495536389731
  0.3357193111002389  0.3348384969735584  0.4221447476470525
  0.8357119792349254  0.5016758390137620  0.5753141274202346
  0.6682237291626164  0.3346728653331731  0.4215945487767568
  0.1657071740359704  0.8348045391454383  0.5755377941191046
  0.0018582560746557  0.6681905064302379  0.4213591009484925
  0.5006780925294247  0.8348867727390749  0.5762104278311795
  0.3352115251165910  0.6679051693015755  0.4213629878875927
  0.8347109511191781  0.8347745272923087  0.5752910382524374
  0.6688942705541838  0.6684758582014603  0.4208848117666871
  0.1690691062038257  0.0018574646945537  0.3123707841928358
  0.0042631448579787  0.1695024751250733  0.6853870080660672
  0.0022961240808735  0.1685426463025547  0.3122840298674354
  0.1723737896312268  0.0029138144627407  0.6841721883153521
  0.5015007847171956  0.0010456884976750  0.3120338031065945
  0.3462760998478414  0.1715862760175657  0.6901777023781512
  0.3354838368230673  0.1680855878108276  0.3125405727918201
  0.5047961388215904  0.0026565948995561  0.6868020100304677
  0.8354900561465464  0.0015757465437204  0.3118478830684564
  0.6649781837786173  0.1725514205470798  0.6821967385700496
  0.6682882683999637  0.1676802399614061  0.3118069840332965
  0.8383301351224800  0.0017005152081294  0.6852932498531930
  0.1686568400958451  0.3351074809274135  0.3124691998474356
  0.0024463343529159  0.5020118416969460  0.6852847943674900
  0.0016130324891825  0.5009229459806585  0.3122298973605941
  0.1667667377281151  0.3334546789696698  0.6847193313034591
  0.5019805886014392  0.3349544870108134  0.3128481302506242
  0.3424081653232718  0.5001227121150965  0.6882643646762118
  0.3352419916555615  0.5015433380614466  0.3124232776763250
  0.4901841812268454  0.3365870806969141  0.7327060987982699
  0.8350370460355557  0.3342326051251104  0.3121782410450585
  0.6632779578360961  0.4945488241164100  0.6847314694081540
  0.6691446102433359  0.5016525880169173  0.3121841008738413
  0.8282303832684048  0.3356569080103235  0.6852563723376038
  0.1682673695964049  0.6677943037716149  0.3122555984672543
  0.9966057225667786  0.8358182987394245  0.6848585881698653
  0.0021192483699490  0.8349846911183013  0.3119754335227237
  0.1737440415585285  0.6647512611161249  0.6840282341361367
  0.5021646921981388  0.6683089923169644  0.3119472713969466
  0.3304318128822661  0.8360200890773124  0.6848649138510012
  0.3349712040053591  0.8341406286214783  0.3121493910322991
  0.5057579799444548  0.6692363693117327  0.6862552026429340
  0.8355827918464420  0.6682079905409444  0.3119290556632765
  0.6668149612983849  0.8332693015413091  0.6848241001621789
  0.6684988492731557  0.8347769380099475  0.3117180478088397
  0.8380219048507164  0.6665881794866610  0.6853683157812078
  0.1690856594922545  0.1687443546380126  0.4511456808166648
  0.0020722521693129  0.0022772635970428  0.5464591825576057
  0.5023524151651904  0.1668333176532405  0.4499836232475875
  0.3354094088509773  0.0020596132008668  0.5472991355753135
  0.8348175396061187  0.1682205902325699  0.4507671406331972
  0.6688334941278438  0.0002096223383077  0.5461633773693882
  0.1688956714468243  0.5006633420130168  0.4510481143687584
  0.0012150060438144  0.3348349782373471  0.5467086369766438
  0.5022385226329615  0.5027154547840985  0.4500286679399839
  0.3408478934748086  0.3347322607798145  0.5487379884115160
  0.8349838704664396  0.5010876163386783  0.4508464894100184
  0.6642945683005587  0.3353108191740637  0.5472781245873924
  0.1686261468413272  0.8349481312128018  0.4508299369261669
  0.0017460113084691  0.6675307233640757  0.5464928464040065
  0.5015948403985603  0.8345668276742859  0.4511898221419293
  0.3351456420269502  0.6674475109902079  0.5470854414158812
  0.8358057878992301  0.8346371031719149  0.4503707060913413
  0.6691074983569231  0.6687029268554094  0.5464158153628497
  0.3150531310705975  0.3879311609950160  0.8158742999822203
  0.4221330352784350  0.3516723520296181  0.8124624749028959
  0.3255327042770402  0.4616206649524777  0.8254222874250051
 
  0.00000000E+00  0.00000000E+00  0.00000000E+00
  0.00000000E+00  0.00000000E+00  0.00000000E+00
  0.00000000E+00  0.00000000E+00  0.00000000E+00
  0.00000000E+00  0.00000000E+00  0.00000000E+00
  0.00000000E+00  0.00000000E+00  0.00000000E+00
  0.00000000E+00  0.00000000E+00  0.00000000E+00
  0.00000000E+00  0.00000000E+00  0.00000000E+00
  0.00000000E+00  0.00000000E+00  0.00000000E+00
  0.00000000E+00  0.00000000E+00  0.00000000E+00
  0.00000000E+00  0.00000000E+00  0.00000000E+00
  0.00000000E+00  0.00000000E+00  0.00000000E+00
  0.00000000E+00  0.00000000E+00  0.00000000E+00
  0.00000000E+00  0.00000000E+00  0.00000000E+00
  0.00000000E+00  0.00000000E+00  0.00000000E+00
  0.00000000E+00  0.00000000E+00  0.00000000E+00
  0.00000000E+00  0.00000000E+00  0.00000000E+00
  0.00000000E+00  0.00000000E+00  0.00000000E+00
  0.00000000E+00  0.00000000E+00  0.00000000E+00
  0.00000000E+00  0.00000000E+00  0.00000000E+00
  0.00000000E+00  0.00000000E+00  0.00000000E+00
  0.00000000E+00  0.00000000E+00  0.00000000E+00
  0.00000000E+00  0.00000000E+00  0.00000000E+00
  0.00000000E+00  0.00000000E+00  0.00000000E+00
  0.00000000E+00  0.00000000E+00  0.00000000E+00
  0.00000000E+00  0.00000000E+00  0.00000000E+00
  0.00000000E+00  0.00000000E+00  0.00000000E+00
  0.00000000E+00  0.00000000E+00  0.00000000E+00
  0.00000000E+00  0.00000000E+00  0.00000000E+00
  0.00000000E+00  0.00000000E+00  0.00000000E+00
  0.00000000E+00  0.00000000E+00  0.00000000E+00
  0.00000000E+00  0.00000000E+00  0.00000000E+00
  0.00000000E+00  0.00000000E+00  0.00000000E+00
  0.00000000E+00  0.00000000E+00  0.00000000E+00
  0.00000000E+00  0.00000000E+00  0.00000000E+00
  0.00000000E+00  0.00000000E+00  0.00000000E+00
  0.00000000E+00  0.00000000E+00  0.00000000E+00
  0.00000000E+00  0.00000000E+00  0.00000000E+00
  0.00000000E+00  0.00000000E+00  0.00000000E+00
  0.00000000E+00  0.00000000E+00  0.00000000E+00
  0.00000000E+00  0.00000000E+00  0.00000000E+00
  0.00000000E+00  0.00000000E+00  0.00000000E+00
  0.00000000E+00  0.00000000E+00  0.00000000E+00
  0.00000000E+00  0.00000000E+00  0.00000000E+00
  0.00000000E+00  0.00000000E+00  0.00000000E+00
  0.00000000E+00  0.00000000E+00  0.00000000E+00
  0.00000000E+00  0.00000000E+00  0.00000000E+00
  0.00000000E+00  0.00000000E+00  0.00000000E+00
  0.00000000E+00  0.00000000E+00  0.00000000E+00
  0.00000000E+00  0.00000000E+00  0.00000000E+00
  0.00000000E+00  0.00000000E+00  0.00000000E+00
  0.00000000E+00  0.00000000E+00  0.00000000E+00
  0.00000000E+00  0.00000000E+00  0.00000000E+00
  0.00000000E+00  0.00000000E+00  0.00000000E+00
  0.00000000E+00  0.00000000E+00  0.00000000E+00
  0.00000000E+00  0.00000000E+00  0.00000000E+00
  0.00000000E+00  0.00000000E+00  0.00000000E+00
  0.00000000E+00  0.00000000E+00  0.00000000E+00
  0.00000000E+00  0.00000000E+00  0.00000000E+00
  0.00000000E+00  0.00000000E+00  0.00000000E+00
  0.00000000E+00  0.00000000E+00  0.00000000E+00
  0.00000000E+00  0.00000000E+00  0.00000000E+00
  0.00000000E+00  0.00000000E+00  0.00000000E+00
  0.00000000E+00  0.00000000E+00  0.00000000E+00
  0.00000000E+00  0.00000000E+00  0.00000000E+00
  0.00000000E+00  0.00000000E+00  0.00000000E+00
  0.00000000E+00  0.00000000E+00  0.00000000E+00
  0.00000000E+00  0.00000000E+00  0.00000000E+00
  0.00000000E+00  0.00000000E+00  0.00000000E+00
  0.00000000E+00  0.00000000E+00  0.00000000E+00
  0.00000000E+00  0.00000000E+00  0.00000000E+00
  0.00000000E+00  0.00000000E+00  0.00000000E+00
  0.00000000E+00  0.00000000E+00  0.00000000E+00
  0.00000000E+00  0.00000000E+00  0.00000000E+00
  0.00000000E+00  0.00000000E+00  0.00000000E+00
  0.00000000E+00  0.00000000E+00  0.00000000E+00
