 Cr8 Te24                               
   1.00000000000000     
    11.2504105634413243    0.0000000000000000    0.0000000000000000
     0.0000000000000000   11.4901498490651619    0.0000000000000000
     0.0000000000000000    0.0000000000000000   19.3135100328279989
   Cr   Te
     8    24
Direct
  0.0001687553285928  0.6738932847898995  0.5003280059910705
  0.5001687244999979  0.8261067240247171  0.4996720171122265
  0.9998312440545993  0.3261067203181852  0.4996720234131206
  0.4998312261214386  0.1738932342853318  0.5003279792719281
  0.2830623787599149  0.5005114548745503  0.5070689872826730
  0.7830623395389080  0.9994885093813558  0.4929310403999227
  0.7169376588461136  0.4994885456166764  0.4929310136913460
  0.2169375474802211  0.0005114644685896  0.5070690013420258
  0.9069034145009329  0.4997867462065562  0.5802655460856607
  0.4069033871373993  0.0002132970800980  0.4197344206495208
  0.0930966118847802  0.5002133072422377  0.4197344366723590
  0.5930966401175706  0.9997866863951008  0.5802655666000669
  0.3267626325777059  0.1516724051191837  0.5971533890884846
  0.8267626382319989  0.3483276166124248  0.4028466144558446
  0.6732373616665924  0.8483275923014538  0.4028466232139233
  0.1732374235380319  0.6516723929449008  0.5971534420020834
  0.1723194100044206  0.3492388030809163  0.5967306027489444
  0.6723194465982384  0.1507611784053883  0.4032694026684182
  0.8276806725058482  0.6507612300217990  0.4032694806285347
  0.3276805781518978  0.8492388129666689  0.5967306047269106
  0.6198601182454606  0.3323072506560225  0.5772058619276241
  0.1198600957148752  0.1676927521628782  0.4227940761624959
  0.3801398725124745  0.6676927586895258  0.4227941143505655
  0.8801399001397971  0.8323072063113204  0.5772058400980673
  0.4421751831220170  0.5003306568700157  0.6115333447007966
  0.9421751043199712  0.9996693547143107  0.3884666644343956
  0.5578248487942766  0.4996693723441337  0.3884666623754275
  0.0578247691921242  0.0003306418211469  0.6115333544617282
  0.6200867887641717  0.6675099727239406  0.5765587140696427
  0.1200868095398515  0.8324900449127319  0.4234411980746826
  0.3799132422772165  0.3324900136802504  0.4234412444687321
  0.8799131758325534  0.1675099689776894  0.5765587268307699
 
  0.00000000E+00  0.00000000E+00  0.00000000E+00
  0.00000000E+00  0.00000000E+00  0.00000000E+00
  0.00000000E+00  0.00000000E+00  0.00000000E+00
  0.00000000E+00  0.00000000E+00  0.00000000E+00
  0.00000000E+00  0.00000000E+00  0.00000000E+00
  0.00000000E+00  0.00000000E+00  0.00000000E+00
  0.00000000E+00  0.00000000E+00  0.00000000E+00
  0.00000000E+00  0.00000000E+00  0.00000000E+00
  0.00000000E+00  0.00000000E+00  0.00000000E+00
  0.00000000E+00  0.00000000E+00  0.00000000E+00
  0.00000000E+00  0.00000000E+00  0.00000000E+00
  0.00000000E+00  0.00000000E+00  0.00000000E+00
  0.00000000E+00  0.00000000E+00  0.00000000E+00
  0.00000000E+00  0.00000000E+00  0.00000000E+00
  0.00000000E+00  0.00000000E+00  0.00000000E+00
  0.00000000E+00  0.00000000E+00  0.00000000E+00
  0.00000000E+00  0.00000000E+00  0.00000000E+00
  0.00000000E+00  0.00000000E+00  0.00000000E+00
  0.00000000E+00  0.00000000E+00  0.00000000E+00
  0.00000000E+00  0.00000000E+00  0.00000000E+00
  0.00000000E+00  0.00000000E+00  0.00000000E+00
  0.00000000E+00  0.00000000E+00  0.00000000E+00
  0.00000000E+00  0.00000000E+00  0.00000000E+00
  0.00000000E+00  0.00000000E+00  0.00000000E+00
  0.00000000E+00  0.00000000E+00  0.00000000E+00
  0.00000000E+00  0.00000000E+00  0.00000000E+00
  0.00000000E+00  0.00000000E+00  0.00000000E+00
  0.00000000E+00  0.00000000E+00  0.00000000E+00
  0.00000000E+00  0.00000000E+00  0.00000000E+00
  0.00000000E+00  0.00000000E+00  0.00000000E+00
  0.00000000E+00  0.00000000E+00  0.00000000E+00
  0.00000000E+00  0.00000000E+00  0.00000000E+00
