CONTCAR\(2)                             
   1.00000000000000     
    10.1990995407000007    0.0000000000000000    0.0000000000000000
     0.0000000000000000   15.1191997528000002    0.0000000000000000
     0.0000000000000000    0.0000000000000000   19.1068992615000006
   Ta   Ni   S    O    H 
    12     6    30     2     1
Direct
 -0.0037496531898199  0.3614476163465500  0.5206380883200838
  0.1625617806947389  0.1455781668460608  0.4817619090503207
  0.1622704110810530  0.8614353134536109  0.4820016520704211
 -0.0030745763944260  0.6461339047874036  0.5205551203546118
  0.3294140037279076  0.3615726226013050  0.5203924151386373
  0.4956652043922531  0.1456059352408101  0.4816764376640018
  0.4958528789858819  0.8616168505232790  0.4817032930567520
  0.3294917478117962  0.6456647147067128  0.5208995413553558
  0.6626836615096804  0.3614425931149722  0.5205392276100772
  0.8292176501008276  0.1456550660717318  0.4820751425920124
  0.8289663912141233  0.8616427741569489  0.4822819839332919
  0.6622138575216010  0.6463924767995168  0.5197109478300324
 -0.0040968127968766  0.0038250872232493  0.4668080549778738
  0.1630246621788333  0.5036546806731133  0.5358424626602009
  0.3290275237721465  0.0034656359945654  0.4660107462855459
  0.4960930191164146  0.5036039062787002  0.5356951641732171
  0.6621354812896193  0.0037958003446103  0.4667137861195033
  0.8296569557522102  0.5038461339604042  0.5365560548295117
  0.1629187192292239  0.0035507143817192  0.5442370000752282
 -0.0041979513455650  0.5037602276297253  0.4584806311244311
 -0.0037177910653351  0.2028231797977089  0.5665298196661431
  0.1625179073862164  0.3043484793090848  0.4358172168892604
  0.1626738884695304  0.7026241271506379  0.4359142987751992
 -0.0040539938827911  0.8044895720376483  0.5667803145965754
  0.1628279631783628  0.6174811762927056  0.6093612331994978
 -0.0041406351645194  0.8897610399009268  0.3935136430150585
  0.9957012528779318  0.1175983771581519  0.3933176593622954
  0.1629258487145767  0.3895181444754462  0.6091073644307531
  0.4952099150480793  0.0036624932462171  0.5441529357854232
  0.3294325042645849  0.5037526918171862  0.4580412633592856
  0.3293904791935411  0.2029853691978793  0.5663488706226389
  0.4959699789940908  0.3044583838948624  0.4357455418693017
  0.4954876144925918  0.7027628732370188  0.4356079802019760
  0.3295031313666847  0.8042838203341942  0.5665233645296519
  0.4966106526629791  0.6175280251380321  0.6091017077735761
  0.3290209684627615  0.8891062627348244  0.3931371296629964
  0.3291149234915460  0.1177579182332975  0.3930021364163657
  0.4958372045195255  0.3896725515526003  0.6091080668785619
  0.8290429029377843  0.0037597804129440  0.5445610445976646
  0.6633499019372784  0.5036519226270620  0.4583314958431909
  0.6623198516452894  0.2028999743778148  0.5664689016657285
  0.8294084139777549  0.3045106388284877  0.4359757904170069
  0.8297243393619599  0.7030157188711155  0.4358849698978716
  0.6623491695177053  0.8045301879728042  0.5661649130072793
  0.8292520576268880  0.6180845578913745  0.6090969331769209
  0.6628286887187480  0.8898638687598994  0.3933198460489100
  0.6628988793621328  0.1176237351706810  0.3932475915619125
  0.8292365225080325  0.3892289983738927  0.6092706464820891
  0.7588220039078956  0.7857515077376069  0.7227547320145538
  0.7027119654232710  0.7109480322566776  0.7461417926461535
  0.7331381214133572  0.6641464810762214  0.7125914803850215
 
  0.00000000E+00  0.00000000E+00  0.00000000E+00
  0.00000000E+00  0.00000000E+00  0.00000000E+00
  0.00000000E+00  0.00000000E+00  0.00000000E+00
  0.00000000E+00  0.00000000E+00  0.00000000E+00
  0.00000000E+00  0.00000000E+00  0.00000000E+00
  0.00000000E+00  0.00000000E+00  0.00000000E+00
  0.00000000E+00  0.00000000E+00  0.00000000E+00
  0.00000000E+00  0.00000000E+00  0.00000000E+00
  0.00000000E+00  0.00000000E+00  0.00000000E+00
  0.00000000E+00  0.00000000E+00  0.00000000E+00
  0.00000000E+00  0.00000000E+00  0.00000000E+00
  0.00000000E+00  0.00000000E+00  0.00000000E+00
  0.00000000E+00  0.00000000E+00  0.00000000E+00
  0.00000000E+00  0.00000000E+00  0.00000000E+00
  0.00000000E+00  0.00000000E+00  0.00000000E+00
  0.00000000E+00  0.00000000E+00  0.00000000E+00
  0.00000000E+00  0.00000000E+00  0.00000000E+00
  0.00000000E+00  0.00000000E+00  0.00000000E+00
  0.00000000E+00  0.00000000E+00  0.00000000E+00
  0.00000000E+00  0.00000000E+00  0.00000000E+00
  0.00000000E+00  0.00000000E+00  0.00000000E+00
  0.00000000E+00  0.00000000E+00  0.00000000E+00
  0.00000000E+00  0.00000000E+00  0.00000000E+00
  0.00000000E+00  0.00000000E+00  0.00000000E+00
  0.00000000E+00  0.00000000E+00  0.00000000E+00
  0.00000000E+00  0.00000000E+00  0.00000000E+00
  0.00000000E+00  0.00000000E+00  0.00000000E+00
  0.00000000E+00  0.00000000E+00  0.00000000E+00
  0.00000000E+00  0.00000000E+00  0.00000000E+00
  0.00000000E+00  0.00000000E+00  0.00000000E+00
  0.00000000E+00  0.00000000E+00  0.00000000E+00
  0.00000000E+00  0.00000000E+00  0.00000000E+00
  0.00000000E+00  0.00000000E+00  0.00000000E+00
  0.00000000E+00  0.00000000E+00  0.00000000E+00
  0.00000000E+00  0.00000000E+00  0.00000000E+00
  0.00000000E+00  0.00000000E+00  0.00000000E+00
  0.00000000E+00  0.00000000E+00  0.00000000E+00
  0.00000000E+00  0.00000000E+00  0.00000000E+00
  0.00000000E+00  0.00000000E+00  0.00000000E+00
  0.00000000E+00  0.00000000E+00  0.00000000E+00
  0.00000000E+00  0.00000000E+00  0.00000000E+00
  0.00000000E+00  0.00000000E+00  0.00000000E+00
  0.00000000E+00  0.00000000E+00  0.00000000E+00
  0.00000000E+00  0.00000000E+00  0.00000000E+00
  0.00000000E+00  0.00000000E+00  0.00000000E+00
  0.00000000E+00  0.00000000E+00  0.00000000E+00
  0.00000000E+00  0.00000000E+00  0.00000000E+00
  0.00000000E+00  0.00000000E+00  0.00000000E+00
  0.00000000E+00  0.00000000E+00  0.00000000E+00
  0.00000000E+00  0.00000000E+00  0.00000000E+00
  0.00000000E+00  0.00000000E+00  0.00000000E+00
