CONTCAR\(6)                             
   1.00000000000000     
    12.5569000244000009    0.0000000000000000    0.0000000000000000
     0.0000000000000000   12.5685997009000001    0.0000000000000000
     0.0000000000000000    0.0000000000000000   19.2248001098999985
   Cu   Ag   Te   O    H 
    12    12    24     2     1
Direct
  0.1573391948394004 -0.0063468580699867  0.5303704849803119
  0.3674962857176113 -0.0027160491439734  0.5158796356063673
  0.6619901859841526 -0.0066592389438424  0.5251472135386551
  0.8751781829488103 -0.0062143930634133  0.5058258341098043
  0.1094193833250342  0.3266743983450007  0.5583339141932103
  0.3955309235365535  0.3237317058891976  0.5696123004677452
  0.6103508540541008  0.3240315651560209  0.5627660560896210
  0.9051086503429341  0.3268759910977009  0.5217145894098885
  0.1605877389660550  0.6593609152351638  0.5269408340480425
  0.3739347499857064  0.6575162709036226  0.5143312602857633
  0.6350789050455715  0.6498619799567614  0.5108528563068214
  0.8725509642961901  0.6588623154792023  0.5030037098017212
  0.0310178460901034  0.1544978697557531  0.4732060649481823
  0.2588667143945983  0.2073344755588490  0.4850666027265076
  0.4993770454476307  0.1720822883139162  0.4892381423945447
  0.7321178389026742  0.1926749323001553  0.4766404250316781
  0.0301303651483907  0.4993889612043482  0.4732865297009841
  0.2574073862812556  0.4470710911130765  0.4822755018206142
  0.5005051471533071  0.4652483300223909  0.4779133238610306
  0.7347458586997532  0.4541733467493479  0.4735868502438838
  0.0141289727689213  0.8284649289371494  0.4669619619497400
  0.2479095027033267  0.8287603220599856  0.4613952043477680
  0.5009590304403593  0.8443279045060692  0.4651453282258862
  0.7341397183245250  0.8197618314279294  0.4574230644230109
  0.9755446611806075  0.9970792624156586  0.3783036610348729
  0.1255202656218015  0.1485281297558608  0.6170431718357365
  0.2376507517449651  0.0215621824136001  0.3971576295588056
  0.3742437360164244  0.1380610320786806  0.6167558613738940
  0.4768962208633731  0.0230485676862783  0.3862803662797897
  0.6300541903968385  0.1424299950995943  0.6162174991595462
  0.7417824707685178  0.0086079289483602  0.3883220719495014
  0.8791167291679007  0.1532474456674552  0.5929619221578009
 -0.0047113310915176  0.3271607097900638  0.3870805058491061
  0.1272454403577574  0.5060247358376504  0.6151917159601301
  0.2799935436074781  0.3233863869336492  0.3644300614650506
  0.3773383545443725  0.5105811238442255  0.6116565007887217
  0.5062706973091989  0.3177686271554858  0.3730058995783717
  0.6309212679025661  0.5081982866695195  0.6104921167876228
  0.7699152152683143  0.3192215025203475  0.3629320297411405
  0.8784101293837749  0.5021251720627958  0.5920298624563231
  0.9840769550477060  0.6583834174034965  0.3781098725718158
  0.1220936428731597  0.8244726696032619  0.6051042739574084
  0.2424774615194946  0.6360592964298752  0.3971287273799064
  0.3821079630281968  0.8268081495030719  0.5966790174910501
  0.4915259521281172  0.6518200311046172  0.3967307386488947
  0.6252055060549224  0.8183379711731608  0.5968182289059432
  0.7499988877890686  0.6347614208294444  0.3831990137998399
  0.8791083331478909  0.8246485649893471  0.5887560052840827
  0.5186049304425570  0.4280014069807759  0.2852836958874975
  0.4199721601031374  0.4741459573376678  0.2632127594910897
  0.4202144474264383  0.5427150339756595  0.2887985930942893
 
  0.00000000E+00  0.00000000E+00  0.00000000E+00
  0.00000000E+00  0.00000000E+00  0.00000000E+00
  0.00000000E+00  0.00000000E+00  0.00000000E+00
  0.00000000E+00  0.00000000E+00  0.00000000E+00
  0.00000000E+00  0.00000000E+00  0.00000000E+00
  0.00000000E+00  0.00000000E+00  0.00000000E+00
  0.00000000E+00  0.00000000E+00  0.00000000E+00
  0.00000000E+00  0.00000000E+00  0.00000000E+00
  0.00000000E+00  0.00000000E+00  0.00000000E+00
  0.00000000E+00  0.00000000E+00  0.00000000E+00
  0.00000000E+00  0.00000000E+00  0.00000000E+00
  0.00000000E+00  0.00000000E+00  0.00000000E+00
  0.00000000E+00  0.00000000E+00  0.00000000E+00
  0.00000000E+00  0.00000000E+00  0.00000000E+00
  0.00000000E+00  0.00000000E+00  0.00000000E+00
  0.00000000E+00  0.00000000E+00  0.00000000E+00
  0.00000000E+00  0.00000000E+00  0.00000000E+00
  0.00000000E+00  0.00000000E+00  0.00000000E+00
  0.00000000E+00  0.00000000E+00  0.00000000E+00
  0.00000000E+00  0.00000000E+00  0.00000000E+00
  0.00000000E+00  0.00000000E+00  0.00000000E+00
  0.00000000E+00  0.00000000E+00  0.00000000E+00
  0.00000000E+00  0.00000000E+00  0.00000000E+00
  0.00000000E+00  0.00000000E+00  0.00000000E+00
  0.00000000E+00  0.00000000E+00  0.00000000E+00
  0.00000000E+00  0.00000000E+00  0.00000000E+00
  0.00000000E+00  0.00000000E+00  0.00000000E+00
  0.00000000E+00  0.00000000E+00  0.00000000E+00
  0.00000000E+00  0.00000000E+00  0.00000000E+00
  0.00000000E+00  0.00000000E+00  0.00000000E+00
  0.00000000E+00  0.00000000E+00  0.00000000E+00
  0.00000000E+00  0.00000000E+00  0.00000000E+00
  0.00000000E+00  0.00000000E+00  0.00000000E+00
  0.00000000E+00  0.00000000E+00  0.00000000E+00
  0.00000000E+00  0.00000000E+00  0.00000000E+00
  0.00000000E+00  0.00000000E+00  0.00000000E+00
  0.00000000E+00  0.00000000E+00  0.00000000E+00
  0.00000000E+00  0.00000000E+00  0.00000000E+00
  0.00000000E+00  0.00000000E+00  0.00000000E+00
  0.00000000E+00  0.00000000E+00  0.00000000E+00
  0.00000000E+00  0.00000000E+00  0.00000000E+00
  0.00000000E+00  0.00000000E+00  0.00000000E+00
  0.00000000E+00  0.00000000E+00  0.00000000E+00
  0.00000000E+00  0.00000000E+00  0.00000000E+00
  0.00000000E+00  0.00000000E+00  0.00000000E+00
  0.00000000E+00  0.00000000E+00  0.00000000E+00
  0.00000000E+00  0.00000000E+00  0.00000000E+00
  0.00000000E+00  0.00000000E+00  0.00000000E+00
  0.00000000E+00  0.00000000E+00  0.00000000E+00
  0.00000000E+00  0.00000000E+00  0.00000000E+00
  0.00000000E+00  0.00000000E+00  0.00000000E+00
