CONTCAR\(8)                             
   1.00000000000000     
    13.9019002914000005    0.0000000000000000    0.0000000000000000
     0.0000000000000000   11.8313999176000006    0.0000000000000000
     0.0000000000000000    0.0000000000000000   16.0608997345000013
   Cu   Au   O 
    10    10    21
Direct
  0.0999577039591902 -0.0001711552388319  0.4930212180122505
  0.2986948954165403  0.0003318066554560  0.5049807232498077
  0.5000000000000000  0.0078435486602873  0.5174273043733254
  0.7013051045834597  0.0003318066554560  0.5049807232498077
  0.9000422870408128 -0.0001711552388319  0.4930212180122505
  0.0996992647705718  0.5015493785691315  0.4862432612806984
  0.2982822683064606  0.5030273041502347  0.5056086550262896
  0.5000000000000000  0.4978114924002252  0.5210203305233747
  0.7017177316935392  0.5030273041502347  0.5056086550262896
  0.9003007262294379  0.5015493785691315  0.4862432612806984
 -0.0000000000000000  0.2487279039886300  0.4834036843195650
  0.1990594081849771  0.2508164791638339  0.4905827307296229
  0.3832156236393336  0.2516627293342413  0.5252170699739381
  0.6167844103606687  0.2516627293342413  0.5252170699739381
  0.8009405748150252  0.2508164791638339  0.4905827307296229
 -0.0000000000000000  0.7505286019852921  0.4896051668370131
  0.2003910450430603  0.7507524520423886  0.4964999837452444
  0.4001191893485859  0.7528107532406489  0.5117456124550364
  0.5998808446514167  0.7528107532406489  0.5117456124550364
  0.7996089379569420  0.7507524520423886  0.4964999837452444
 -0.0000000000000000  0.0880872632319355  0.4483452801141334
 -0.0000000000000000  0.4079283638446900  0.5219971863065747
  0.2024582335741451  0.0896405269187021  0.4554205064868468
  0.1949004758796105  0.4090549762286081  0.5313011828134255
  0.3969472499726697  0.0975270301486144  0.4769345521293102
  0.3897737836635524  0.4140869909869999  0.5589210717509474
  0.6030527840273330  0.0975270301486144  0.4769345521293102
  0.6102262503364502  0.4140869909869999  0.5589210717509474
  0.7975417494258570  0.0896405269187021  0.4554205064868468
  0.8050995071203918  0.4090549762286081  0.5313011828134255
 -0.0000000000000000  0.5933689445111094  0.4457392209173291
 -0.0000000000000000  0.9083759339678279  0.5319760582199803
  0.2038157959837927  0.5927795577552165  0.4545488014661083
  0.1971465429658656  0.9086371710762930  0.5382519115512012
  0.4025028491206539  0.5920932795261398  0.4765939428212750
  0.3978665674710085  0.9125165133750669  0.5501124188455871
  0.5974971848793487  0.5920932795261398  0.4765939428212750
  0.6021334665289942  0.9125165133750669  0.5501124188455871
  0.7961841870162094  0.5927795577552165  0.4545488014661083
  0.8028534400341365  0.9086371710762930  0.5382519115512012
  0.5000600250000033  0.2233164145444504  0.5936090897135748
 
  0.00000000E+00  0.00000000E+00  0.00000000E+00
  0.00000000E+00  0.00000000E+00  0.00000000E+00
  0.00000000E+00  0.00000000E+00  0.00000000E+00
  0.00000000E+00  0.00000000E+00  0.00000000E+00
  0.00000000E+00  0.00000000E+00  0.00000000E+00
  0.00000000E+00  0.00000000E+00  0.00000000E+00
  0.00000000E+00  0.00000000E+00  0.00000000E+00
  0.00000000E+00  0.00000000E+00  0.00000000E+00
  0.00000000E+00  0.00000000E+00  0.00000000E+00
  0.00000000E+00  0.00000000E+00  0.00000000E+00
  0.00000000E+00  0.00000000E+00  0.00000000E+00
  0.00000000E+00  0.00000000E+00  0.00000000E+00
  0.00000000E+00  0.00000000E+00  0.00000000E+00
  0.00000000E+00  0.00000000E+00  0.00000000E+00
  0.00000000E+00  0.00000000E+00  0.00000000E+00
  0.00000000E+00  0.00000000E+00  0.00000000E+00
  0.00000000E+00  0.00000000E+00  0.00000000E+00
  0.00000000E+00  0.00000000E+00  0.00000000E+00
  0.00000000E+00  0.00000000E+00  0.00000000E+00
  0.00000000E+00  0.00000000E+00  0.00000000E+00
  0.00000000E+00  0.00000000E+00  0.00000000E+00
  0.00000000E+00  0.00000000E+00  0.00000000E+00
  0.00000000E+00  0.00000000E+00  0.00000000E+00
  0.00000000E+00  0.00000000E+00  0.00000000E+00
  0.00000000E+00  0.00000000E+00  0.00000000E+00
  0.00000000E+00  0.00000000E+00  0.00000000E+00
  0.00000000E+00  0.00000000E+00  0.00000000E+00
  0.00000000E+00  0.00000000E+00  0.00000000E+00
  0.00000000E+00  0.00000000E+00  0.00000000E+00
  0.00000000E+00  0.00000000E+00  0.00000000E+00
  0.00000000E+00  0.00000000E+00  0.00000000E+00
  0.00000000E+00  0.00000000E+00  0.00000000E+00
  0.00000000E+00  0.00000000E+00  0.00000000E+00
  0.00000000E+00  0.00000000E+00  0.00000000E+00
  0.00000000E+00  0.00000000E+00  0.00000000E+00
  0.00000000E+00  0.00000000E+00  0.00000000E+00
  0.00000000E+00  0.00000000E+00  0.00000000E+00
  0.00000000E+00  0.00000000E+00  0.00000000E+00
  0.00000000E+00  0.00000000E+00  0.00000000E+00
  0.00000000E+00  0.00000000E+00  0.00000000E+00
  0.00000000E+00  0.00000000E+00  0.00000000E+00
