 Ti2 Br6                                
   1.00000000000000     
     6.3435359427944462    0.0000000000000000    0.0000000000000000
     3.1569077881798560    5.5425113416928795    0.0000000000000000
     0.0000000000000000    0.0000000000000000   18.1028862542720006
   Ti   Br
     2     6
Direct
  0.1668020776830375  0.6701986737598347  0.5000785202013560
  0.5144405847163753  0.9734745277238304  0.4999556644013339
  0.1835462829327739  0.9776079681388055  0.4142357114553192
  0.4981389971535535  0.6659991855065925  0.5858234444748405
  0.4974290096524783  0.3221107192506807  0.4200861831844520
  0.1837085638369587  0.3215083756863280  0.5798957155436781
  0.8421153836791149  0.9791423879381114  0.5851682613650624
  0.8389793963786047  0.6649595189473416  0.4147564993739579
 
  0.00000000E+00  0.00000000E+00  0.00000000E+00
  0.00000000E+00  0.00000000E+00  0.00000000E+00
  0.00000000E+00  0.00000000E+00  0.00000000E+00
  0.00000000E+00  0.00000000E+00  0.00000000E+00
  0.00000000E+00  0.00000000E+00  0.00000000E+00
  0.00000000E+00  0.00000000E+00  0.00000000E+00
  0.00000000E+00  0.00000000E+00  0.00000000E+00
  0.00000000E+00  0.00000000E+00  0.00000000E+00
