CONTCAR\(10)                            
   1.00000000000000     
     9.7571001052999993    0.0000000000000000    0.0000000000000000
    -3.0063686365000000   15.8319856181999992    0.0000000000000000
     0.0000000000000000    0.0000000000000000   18.2793006897000012
   V    P    S    O 
     4     8    26     1
Direct
  0.6034249982685966  0.6036083075033831  0.5173653104652602
  0.6174941037144145  0.1037225009640946  0.4944288354649126
  0.3735064726457663  0.3910544546420984  0.5032588297219639
  0.3966016783115365  0.8934923170601382  0.4931318575785282
  0.8255246682435418  0.2609183208294897  0.4905688332031422
  0.6864325697363836  0.4298279428444530  0.5406887915792598
  0.1706948260757656  0.7424252885781023  0.5072500584037188
  0.1672537556376332  0.2344855377759301  0.4905354827506970
  0.3059286508237966  0.0627558067283676  0.5300727226775811
  0.7106589673011484  0.9388012630607609  0.4492631561588810
  0.2868143776283842  0.5600204384468896  0.4707170663714156
  0.8238454882466254  0.7852996729918525  0.5141037370285029
  0.1113008980099132  0.1028478437004454  0.5157280350457994
  0.9040102575008550  0.8970702898086556  0.4496742761941830
  0.0013738370178357  0.7647663896912090  0.5745664736915275
  0.3955804841364123  0.0355578755876938  0.4323723480659219
  0.5345841147887147  0.3443865410633525  0.5872876441907388
  0.2249028226383137  0.4506161092669336  0.4168577243637823
  0.1895166314683543  0.3091990045103505  0.5789296517911480
  0.6126556786467657  0.6930348550152069  0.6003415766306032
  0.4440961770643447  0.6439111770922402  0.4263875983235370
  0.5981334043620845  0.4685807156260542  0.4465427012424962
  0.6591917210796262  0.2352329566368784  0.4240753908686197
  0.8807677387970637  0.3908521968321148  0.5239251450660771
  0.9972447827891887  0.2506518286564384  0.4210527778251750
  0.6258404096222672  0.9616101375631858  0.5505374888059953
  0.7650528785386865  0.6846680844947566  0.4410144392199363
  0.3674497734191099  0.5254928807392422  0.5686251590436544
  0.2054247957622674  0.8154316100421973  0.4179055142447386
  0.7409679818103042  0.5389986560580907  0.5983137339251161
  0.5510785512700532  0.8541435906313162  0.4042416311350734
  0.2509605592594487  0.9515243125426118  0.5815585140622258
  0.3406747252790032  0.7716189295976132  0.5726102922409824
  0.8007062995061008  0.1789364680361291  0.5740926334029263
  0.7533554940011631  0.0523605993779211  0.3992389034448109
  0.4576648248475264  0.1446918109504351  0.5813466932125458
  0.1008816871650349  0.6101240355291008  0.4859743294152984
  0.3350266312835419  0.2660530731949621  0.4254199755124480
  0.6328960843024213  0.7129563343293082  0.6792448216307917
 
  0.00000000E+00  0.00000000E+00  0.00000000E+00
  0.00000000E+00  0.00000000E+00  0.00000000E+00
  0.00000000E+00  0.00000000E+00  0.00000000E+00
  0.00000000E+00  0.00000000E+00  0.00000000E+00
  0.00000000E+00  0.00000000E+00  0.00000000E+00
  0.00000000E+00  0.00000000E+00  0.00000000E+00
  0.00000000E+00  0.00000000E+00  0.00000000E+00
  0.00000000E+00  0.00000000E+00  0.00000000E+00
  0.00000000E+00  0.00000000E+00  0.00000000E+00
  0.00000000E+00  0.00000000E+00  0.00000000E+00
  0.00000000E+00  0.00000000E+00  0.00000000E+00
  0.00000000E+00  0.00000000E+00  0.00000000E+00
  0.00000000E+00  0.00000000E+00  0.00000000E+00
  0.00000000E+00  0.00000000E+00  0.00000000E+00
  0.00000000E+00  0.00000000E+00  0.00000000E+00
  0.00000000E+00  0.00000000E+00  0.00000000E+00
  0.00000000E+00  0.00000000E+00  0.00000000E+00
  0.00000000E+00  0.00000000E+00  0.00000000E+00
  0.00000000E+00  0.00000000E+00  0.00000000E+00
  0.00000000E+00  0.00000000E+00  0.00000000E+00
  0.00000000E+00  0.00000000E+00  0.00000000E+00
  0.00000000E+00  0.00000000E+00  0.00000000E+00
  0.00000000E+00  0.00000000E+00  0.00000000E+00
  0.00000000E+00  0.00000000E+00  0.00000000E+00
  0.00000000E+00  0.00000000E+00  0.00000000E+00
  0.00000000E+00  0.00000000E+00  0.00000000E+00
  0.00000000E+00  0.00000000E+00  0.00000000E+00
  0.00000000E+00  0.00000000E+00  0.00000000E+00
  0.00000000E+00  0.00000000E+00  0.00000000E+00
  0.00000000E+00  0.00000000E+00  0.00000000E+00
  0.00000000E+00  0.00000000E+00  0.00000000E+00
  0.00000000E+00  0.00000000E+00  0.00000000E+00
  0.00000000E+00  0.00000000E+00  0.00000000E+00
  0.00000000E+00  0.00000000E+00  0.00000000E+00
  0.00000000E+00  0.00000000E+00  0.00000000E+00
  0.00000000E+00  0.00000000E+00  0.00000000E+00
  0.00000000E+00  0.00000000E+00  0.00000000E+00
  0.00000000E+00  0.00000000E+00  0.00000000E+00
  0.00000000E+00  0.00000000E+00  0.00000000E+00
