CONTCAR\(3)                             
   1.00000000000000     
    13.2069997787000002    0.0000000000000000    0.0000000000000000
     0.0000000000000000   13.2070999146000005    0.0000000000000000
     0.0000000000000000    0.0000000000000000   33.6773986816000033
   Nd   Te   O    H 
    36    90     2     1
Direct
  0.1660653681206553  0.0000622355464820  0.4240608081226750
  0.9993442592163728  0.1670400500302920  0.5753541249850733
  0.1651055903723386 -0.0000480152709259  0.7006337045274030
  0.9996788112368230  0.1669643657828873  0.2987087238893004
  0.4993673980064318  0.0002191147226230  0.4240418410966273
  0.3324402342254659  0.1670566949830821  0.5753900130443997
  0.4983703157962187  0.0007877555638390  0.7007638163627719
  0.3329745317123358  0.1667706899771611  0.2987989405006962
  0.8328499530436480  0.0001486760710090  0.4240635508791377
  0.6661470994493585  0.1670325503544492  0.5753855512897251
  0.8319203978344943  0.0004700077727508  0.7007044557684475
  0.6664527113263177  0.1667389696169725  0.2988088953337089
  0.1663017342826658  0.3334132766372566  0.4238972134051194
  0.9993724245903935  0.5003278369998404  0.5753895176284459
  0.1663849993218894  0.3332741069040053  0.7007036929933480
  0.9990010893301194  0.5003742125292314  0.2985422519234409
  0.4995157219982829  0.3334046404016450  0.4240715745879866
  0.3326722038499276  0.5001813618143320  0.5753107513562994
  0.4997603782339900  0.3338775910791490  0.7004299574774994
  0.3324268404855010  0.5000473718723562  0.2987443173691404
  0.8328881821393881  0.3334092288584778  0.4239519007936234
  0.6661653304775520  0.5002255345776009  0.5753423109479391
  0.8327810540933204  0.3337473303055704  0.7008119887986604
  0.6658000560239864  0.5000148817565657  0.2987339828875786
  0.1663356371906543  0.6667883470319353  0.4239179104200124
  0.9994392633625078  0.8335694437151583  0.5753502278891440
  0.1658335286448121  0.6666404636389306  0.7006427081972180
  0.9995931881428151  0.8335704890878636  0.2987148238559863
  0.4995622656937204  0.6668037184030615  0.4240856682983195
  0.3325067591562724  0.8336532207108500  0.5754042673666607
  0.4995007002712558  0.6679350728180976  0.7003812702587946
  0.3329345319946851  0.8333010188784536  0.2988008355826678
  0.8328169304818942  0.6668930646727308  0.4239457511599978
  0.6660928222626404  0.8336892668652099  0.5753136785455126
  0.8322302019638614  0.6670590918820646  0.7006909523599072
  0.6664171227515430  0.8332865114798979  0.2988212758113289
  0.1663000390958483  0.0000658039405332  0.3279035451418774
  0.9990114534398772  0.1671785303549622  0.6715518381513017
  0.1659078424406799  0.0004243035505492  0.6020023839725608
  0.9996043550184175  0.1666881342693943  0.3973630870126516
  0.1660166613951443  0.1657378628690782  0.7755810821131065
  0.9984711781839546  0.0006162939916532  0.2236840543141269
  0.1668352055212033  0.1665192981899540  0.2237792358094551
  0.9973218714916100  0.0019954928614235  0.7757487493527111
  0.1659047089907472  0.1667820518992275  0.4997028845703901
  0.9995539925436059  0.0001771329732474  0.4997838347881303
  0.4995890728205732  0.0001103462580806  0.3278054920148302
  0.3324312755574480  0.1669675881745126  0.6715490338631327
  0.4992259406968738  0.0003802609515096  0.6019414589053137
  0.3327383563779966  0.1667344699261710  0.3974343781180680
  0.4991773693866131  0.1686832075040356  0.7757720036394201
  0.3315898390742001  0.0000040795903043  0.2237047908371945
  0.5000499520586482  0.1673553267400807  0.2237920963628446
  0.3303872313225726  0.0004178220165013  0.7758533566104854
  0.4993710539835377  0.1668296280962884  0.4997054896545350
  0.3324852190913944  0.0001674570090835  0.4997498200490477
  0.8329532982902387  0.0001281073596819  0.3279232189970598
  0.6657296875423366  0.1669236092212474  0.6715559841638804
  0.8326856596655856  0.0003848370566249  0.6020172904176890
  0.6661050169318848  0.1667028354275501  0.3975091539978388
  0.8324553322810743  0.1673750068873026  0.7757633081131109
  0.6649435387205255 -0.0001862694594226  0.2238299294475301
  0.8333833694446652  0.1666215336574391  0.2237804644311213
  0.6636722560909881  0.9989552130520328  0.7757573777454496
  0.8329448783672032  0.1668340958861926  0.4996885535294633
  0.6662226468246143  0.0002936459767815  0.4996741267268256
  0.1658709826427531  0.3336825476332994  0.3277203502557666
  0.9991462885847632  0.5003076499944689  0.6715803595479330
  0.1658281533989480  0.3338248880768971  0.6019641621566610
  0.9995228270179556  0.5001338969451903  0.3972478490644923
  0.1638085110525446  0.4992067361829254  0.7756969558958308
  0.9999056899612448  0.3342005915930732  0.2235611541215822
  0.1649854158383810  0.4998785857299377  0.2235761047989150
  0.0006670106360098  0.3353563656931809  0.7757701415978687
  0.1663341183544442  0.5001403837159787  0.4995034416332861
  0.9995137462803412  0.3335445803723817  0.4995478237240170
  0.4994404758202893  0.3334183863222974  0.3279160943450137
  0.3326277316538790  0.5003730466537698  0.6714445327976741
  0.4993176375784928  0.3335376155477939  0.6019036285882753
  0.3331049383554369  0.5000727507360446  0.3973487833251391
  0.4972564964620577  0.5025358046087282  0.7755110699501522
  0.3332431681665713  0.3332159952661170  0.2237917682858773
  0.4984923793809740  0.5006509161849189  0.2237003876478064
  0.3346008197636247  0.3343036057775756  0.7755630239951252
  0.4996285911800604  0.5001369162093444  0.4997872729905256
  0.3329691290024305  0.3335618967475374  0.4996509939050008
  0.8329963075282133  0.3336141597020859  0.3277766806804647
  0.6658228717406758  0.5002965651653786  0.6714757088236710
  0.8327708080817652  0.3337813959884802  0.6020095858549156
  0.6661929765430274  0.5000859125811570  0.3973856012785451
  0.8298868616856072  0.5006327041756774  0.7758636601520537
  0.6666189611599918  0.3330582179704150  0.2237943448780201
  0.8315212376707308  0.4999930131708726  0.2234847918205986
  0.6668697527937343  0.3326447391695960  0.7759168572886926
  0.8327679208656902  0.5002388836435133  0.4995886837288560
  0.6660137876882104  0.3336160357698802  0.4997182189009518
  0.1659249186385766  0.6665998529460068  0.3277457828615367
  0.9990133530581036  0.8335558435168686  0.6715176936390503
  0.1658909399106597  0.6668929778147445  0.6019310223771243
  0.9995964146663125  0.8334627265753358  0.3973578615628881
  0.1672897266373700  0.8325126179093917  0.7757115907462961
  0.0000562127558237  0.6674533052181109  0.2235340206871781
  0.1666713544549631  0.8330630164018390  0.2237836107832194
  0.9989529829582450  0.6687403319652541  0.7757346189338250
  0.1658849713159189  0.8335455709303412  0.4997240976727555
  0.9994962515615655  0.6667485702312033  0.4995405953973273
  0.4994289261715044  0.6667737815408881  0.3279234063537750
  0.3324560580631142  0.8340254974690219  0.6715467284460519
  0.4993279331949729  0.6670160963209908  0.6018851781662308
  0.3329646915657141  0.8335910337856343  0.3974947849782533
  0.5008151299677398  0.8349667516086017  0.7757766695364163
  0.3334737648503555  0.6666607215938879  0.2237868944866083
  0.4998718818283238  0.8343169477957593  0.2238310076212177
  0.3327264411722133  0.6673857982670505  0.7752045080707100
  0.4994002106418288  0.8335866193947248  0.4996812551711363
  0.3329439708387711  0.6667675283022282  0.4996719404275409
  0.8329694145728527  0.6666593209373290  0.3277704989518166
  0.6657954139819553  0.8340357458882341  0.6714649789121363
  0.8327462806366459  0.6668877250488375  0.6019588796839267
  0.6661082970380793  0.8336292656271291  0.3975017694826852
  0.8339940249026321  0.8338695030587993  0.7755876864182619
  0.6667922887377444  0.6665922932252766  0.2237748901605111
  0.8331772108036830  0.8332330729863320  0.2237760584731801
  0.6656551814259856  0.6655282737228732  0.7756303656983133
  0.8330276457236129  0.8335632994661569  0.4996783371743911
  0.6660673872727305  0.6668407774583276  0.4997035920292316
  0.4320319277406067  0.6280666822738140  0.8721715226763948
  0.5023394019633761  0.5574439885218010  0.8608862354089569
  0.3730851063250443  0.5875917365657662  0.8808415484117006
 
  0.00000000E+00  0.00000000E+00  0.00000000E+00
  0.00000000E+00  0.00000000E+00  0.00000000E+00
  0.00000000E+00  0.00000000E+00  0.00000000E+00
  0.00000000E+00  0.00000000E+00  0.00000000E+00
  0.00000000E+00  0.00000000E+00  0.00000000E+00
  0.00000000E+00  0.00000000E+00  0.00000000E+00
  0.00000000E+00  0.00000000E+00  0.00000000E+00
  0.00000000E+00  0.00000000E+00  0.00000000E+00
  0.00000000E+00  0.00000000E+00  0.00000000E+00
  0.00000000E+00  0.00000000E+00  0.00000000E+00
  0.00000000E+00  0.00000000E+00  0.00000000E+00
  0.00000000E+00  0.00000000E+00  0.00000000E+00
  0.00000000E+00  0.00000000E+00  0.00000000E+00
  0.00000000E+00  0.00000000E+00  0.00000000E+00
  0.00000000E+00  0.00000000E+00  0.00000000E+00
  0.00000000E+00  0.00000000E+00  0.00000000E+00
  0.00000000E+00  0.00000000E+00  0.00000000E+00
  0.00000000E+00  0.00000000E+00  0.00000000E+00
  0.00000000E+00  0.00000000E+00  0.00000000E+00
  0.00000000E+00  0.00000000E+00  0.00000000E+00
  0.00000000E+00  0.00000000E+00  0.00000000E+00
  0.00000000E+00  0.00000000E+00  0.00000000E+00
  0.00000000E+00  0.00000000E+00  0.00000000E+00
  0.00000000E+00  0.00000000E+00  0.00000000E+00
  0.00000000E+00  0.00000000E+00  0.00000000E+00
  0.00000000E+00  0.00000000E+00  0.00000000E+00
  0.00000000E+00  0.00000000E+00  0.00000000E+00
  0.00000000E+00  0.00000000E+00  0.00000000E+00
  0.00000000E+00  0.00000000E+00  0.00000000E+00
  0.00000000E+00  0.00000000E+00  0.00000000E+00
  0.00000000E+00  0.00000000E+00  0.00000000E+00
  0.00000000E+00  0.00000000E+00  0.00000000E+00
  0.00000000E+00  0.00000000E+00  0.00000000E+00
  0.00000000E+00  0.00000000E+00  0.00000000E+00
  0.00000000E+00  0.00000000E+00  0.00000000E+00
  0.00000000E+00  0.00000000E+00  0.00000000E+00
  0.00000000E+00  0.00000000E+00  0.00000000E+00
  0.00000000E+00  0.00000000E+00  0.00000000E+00
  0.00000000E+00  0.00000000E+00  0.00000000E+00
  0.00000000E+00  0.00000000E+00  0.00000000E+00
  0.00000000E+00  0.00000000E+00  0.00000000E+00
  0.00000000E+00  0.00000000E+00  0.00000000E+00
  0.00000000E+00  0.00000000E+00  0.00000000E+00
  0.00000000E+00  0.00000000E+00  0.00000000E+00
  0.00000000E+00  0.00000000E+00  0.00000000E+00
  0.00000000E+00  0.00000000E+00  0.00000000E+00
  0.00000000E+00  0.00000000E+00  0.00000000E+00
  0.00000000E+00  0.00000000E+00  0.00000000E+00
  0.00000000E+00  0.00000000E+00  0.00000000E+00
  0.00000000E+00  0.00000000E+00  0.00000000E+00
  0.00000000E+00  0.00000000E+00  0.00000000E+00
  0.00000000E+00  0.00000000E+00  0.00000000E+00
  0.00000000E+00  0.00000000E+00  0.00000000E+00
  0.00000000E+00  0.00000000E+00  0.00000000E+00
  0.00000000E+00  0.00000000E+00  0.00000000E+00
  0.00000000E+00  0.00000000E+00  0.00000000E+00
  0.00000000E+00  0.00000000E+00  0.00000000E+00
  0.00000000E+00  0.00000000E+00  0.00000000E+00
  0.00000000E+00  0.00000000E+00  0.00000000E+00
  0.00000000E+00  0.00000000E+00  0.00000000E+00
  0.00000000E+00  0.00000000E+00  0.00000000E+00
  0.00000000E+00  0.00000000E+00  0.00000000E+00
  0.00000000E+00  0.00000000E+00  0.00000000E+00
  0.00000000E+00  0.00000000E+00  0.00000000E+00
  0.00000000E+00  0.00000000E+00  0.00000000E+00
  0.00000000E+00  0.00000000E+00  0.00000000E+00
  0.00000000E+00  0.00000000E+00  0.00000000E+00
  0.00000000E+00  0.00000000E+00  0.00000000E+00
  0.00000000E+00  0.00000000E+00  0.00000000E+00
  0.00000000E+00  0.00000000E+00  0.00000000E+00
  0.00000000E+00  0.00000000E+00  0.00000000E+00
  0.00000000E+00  0.00000000E+00  0.00000000E+00
  0.00000000E+00  0.00000000E+00  0.00000000E+00
  0.00000000E+00  0.00000000E+00  0.00000000E+00
  0.00000000E+00  0.00000000E+00  0.00000000E+00
  0.00000000E+00  0.00000000E+00  0.00000000E+00
  0.00000000E+00  0.00000000E+00  0.00000000E+00
  0.00000000E+00  0.00000000E+00  0.00000000E+00
  0.00000000E+00  0.00000000E+00  0.00000000E+00
  0.00000000E+00  0.00000000E+00  0.00000000E+00
  0.00000000E+00  0.00000000E+00  0.00000000E+00
  0.00000000E+00  0.00000000E+00  0.00000000E+00
  0.00000000E+00  0.00000000E+00  0.00000000E+00
  0.00000000E+00  0.00000000E+00  0.00000000E+00
  0.00000000E+00  0.00000000E+00  0.00000000E+00
  0.00000000E+00  0.00000000E+00  0.00000000E+00
  0.00000000E+00  0.00000000E+00  0.00000000E+00
  0.00000000E+00  0.00000000E+00  0.00000000E+00
  0.00000000E+00  0.00000000E+00  0.00000000E+00
  0.00000000E+00  0.00000000E+00  0.00000000E+00
  0.00000000E+00  0.00000000E+00  0.00000000E+00
  0.00000000E+00  0.00000000E+00  0.00000000E+00
  0.00000000E+00  0.00000000E+00  0.00000000E+00
  0.00000000E+00  0.00000000E+00  0.00000000E+00
  0.00000000E+00  0.00000000E+00  0.00000000E+00
  0.00000000E+00  0.00000000E+00  0.00000000E+00
  0.00000000E+00  0.00000000E+00  0.00000000E+00
  0.00000000E+00  0.00000000E+00  0.00000000E+00
  0.00000000E+00  0.00000000E+00  0.00000000E+00
  0.00000000E+00  0.00000000E+00  0.00000000E+00
  0.00000000E+00  0.00000000E+00  0.00000000E+00
  0.00000000E+00  0.00000000E+00  0.00000000E+00
  0.00000000E+00  0.00000000E+00  0.00000000E+00
  0.00000000E+00  0.00000000E+00  0.00000000E+00
  0.00000000E+00  0.00000000E+00  0.00000000E+00
  0.00000000E+00  0.00000000E+00  0.00000000E+00
  0.00000000E+00  0.00000000E+00  0.00000000E+00
  0.00000000E+00  0.00000000E+00  0.00000000E+00
  0.00000000E+00  0.00000000E+00  0.00000000E+00
  0.00000000E+00  0.00000000E+00  0.00000000E+00
  0.00000000E+00  0.00000000E+00  0.00000000E+00
  0.00000000E+00  0.00000000E+00  0.00000000E+00
  0.00000000E+00  0.00000000E+00  0.00000000E+00
  0.00000000E+00  0.00000000E+00  0.00000000E+00
  0.00000000E+00  0.00000000E+00  0.00000000E+00
  0.00000000E+00  0.00000000E+00  0.00000000E+00
  0.00000000E+00  0.00000000E+00  0.00000000E+00
  0.00000000E+00  0.00000000E+00  0.00000000E+00
  0.00000000E+00  0.00000000E+00  0.00000000E+00
  0.00000000E+00  0.00000000E+00  0.00000000E+00
  0.00000000E+00  0.00000000E+00  0.00000000E+00
  0.00000000E+00  0.00000000E+00  0.00000000E+00
  0.00000000E+00  0.00000000E+00  0.00000000E+00
  0.00000000E+00  0.00000000E+00  0.00000000E+00
  0.00000000E+00  0.00000000E+00  0.00000000E+00
  0.00000000E+00  0.00000000E+00  0.00000000E+00
  0.00000000E+00  0.00000000E+00  0.00000000E+00
  0.00000000E+00  0.00000000E+00  0.00000000E+00
  0.00000000E+00  0.00000000E+00  0.00000000E+00
