Repeated-UnitCell:     2    1    1      
   1.00000000000000     
     8.5753451980103836    0.0000000000000000    0.0000000000000000
     0.0000000000000000    7.1598230908373068    0.0000000000000000
     0.0000000000000000    0.0000000000000000   19.5570216443800007
   Ag   Au   S 
     4     8     8
Direct
  0.1230580962796186  0.6424102132403476  0.6016771280094236
  0.6230580962796185  0.6424102132403476  0.6016771280094236
  0.3769418713007678  0.1424102245401301  0.6016770380469755
  0.8769418713007678  0.1424102245401301  0.6016770380469755
  0.0512340834494214  0.9863450359978990  0.4881298591239580
  0.5512340834494214  0.9863450359978990  0.4881298591239580
  0.4487659647618341  0.4863452512074665  0.4881299055243739
  0.9487659647618341  0.4863452512074665  0.4881299055243739
  0.2504750185477856  0.7456024917143256  0.4037582527679903
  0.7504750185477855  0.7456024917143256  0.4037582527679903
  0.2495250021063275  0.2456024892271915  0.4037583348022453
  0.7495250021063276  0.2456024892271915  0.4037583348022453
  0.4169169997346747  0.9960901833750992  0.3846986330856231
  0.9169169997346747  0.9960901833750992  0.3846986330856231
  0.3701663999345171  0.4817399865133887  0.6027347880104551
  0.8701663999345171  0.4817399865133887  0.6027347880104551
  0.1298335639665227  0.9817399687004874  0.6027347610885664
  0.6298335639665227  0.9817399687004874  0.6027347610885664
  0.0830829999185307  0.4960901554836608  0.3846986719514581
  0.5830829999185307  0.4960901554836608  0.3846986719514581
 
  0.00000000E+00  0.00000000E+00  0.00000000E+00
  0.00000000E+00  0.00000000E+00  0.00000000E+00
  0.00000000E+00  0.00000000E+00  0.00000000E+00
  0.00000000E+00  0.00000000E+00  0.00000000E+00
  0.00000000E+00  0.00000000E+00  0.00000000E+00
  0.00000000E+00  0.00000000E+00  0.00000000E+00
  0.00000000E+00  0.00000000E+00  0.00000000E+00
  0.00000000E+00  0.00000000E+00  0.00000000E+00
  0.00000000E+00  0.00000000E+00  0.00000000E+00
  0.00000000E+00  0.00000000E+00  0.00000000E+00
  0.00000000E+00  0.00000000E+00  0.00000000E+00
  0.00000000E+00  0.00000000E+00  0.00000000E+00
  0.00000000E+00  0.00000000E+00  0.00000000E+00
  0.00000000E+00  0.00000000E+00  0.00000000E+00
  0.00000000E+00  0.00000000E+00  0.00000000E+00
  0.00000000E+00  0.00000000E+00  0.00000000E+00
  0.00000000E+00  0.00000000E+00  0.00000000E+00
  0.00000000E+00  0.00000000E+00  0.00000000E+00
  0.00000000E+00  0.00000000E+00  0.00000000E+00
  0.00000000E+00  0.00000000E+00  0.00000000E+00
