CONTCAR                                 
   1.00000000000000     
     9.7571001052999993    0.0000000000000000    0.0000000000000000
    -3.0063686365000000   15.8319856181999992    0.0000000000000000
     0.0000000000000000    0.0000000000000000   18.2793006897000012
   V    P    S    O    H 
     4     8    26     2     1
Direct
  0.6199042912306894  0.6036259266843729  0.4934185321384774
  0.6193683084654111  0.1037856061723303  0.4972324985097174
  0.3893309872947697  0.3935879175533117  0.4974967993719446
  0.3884009024101118  0.8940683224405674  0.4938569599354707
  0.8323456469864183  0.2600140652398224  0.4889789832858682
  0.7007775494652364  0.4334016586453302  0.5315788763091120
  0.1758001312433066  0.7373909577816420  0.5015169789350580
  0.1756326849428262  0.2378639805346339  0.4894659277758393
  0.3077193567044603  0.0644230194723860  0.5322536474464741
  0.7002739899392978  0.9334034086195260  0.4588364181643030
  0.3087603460544983  0.5640660276685523  0.4585642190874566
  0.8325568608619633  0.7600833706979913  0.5014897535071654
  0.1160852009994784  0.1073202396570849  0.5188518479862481
  0.8921700508837773  0.8905254617029357  0.4720775531713528
  0.0041049494863259  0.7485655942383218  0.5713846738814183
  0.3962510288141488  0.0370804252170345  0.4342196100303610
  0.5489278567463529  0.3519371171466901  0.5831982540496412
  0.2459877933422661  0.4517999275848297  0.4087481516074476
  0.2037369433014860  0.3167432688595966  0.5752277213096235
  0.6654107579325412  0.7316188092308167  0.5674635073069325
  0.4610151435676144  0.6454179075884312  0.4067399139108900
  0.6118611842854023  0.4608020043350649  0.4336788405022958
  0.6653816383414508  0.2311962437574522  0.4228260585561188
  0.8925670107382047  0.3906321379418216  0.5176924866352408
  0.0039090608409751  0.2485449828015547  0.4193349183736004
  0.6116240011203473  0.9606176254433194  0.5568189899443041
  0.8061905903447411  0.6810797114902556  0.4158248676397065
  0.3968296704138652  0.5368253909496801  0.5566722509586342
  0.2021692218792026  0.8167713615307193  0.4161520378126653
  0.7634668877567421  0.5455187898504477  0.5817294475817789
  0.5472724880866480  0.8522619674693885  0.4073204179707801
  0.2446992918689261  0.9523300433463220  0.5822827199242369
  0.3424123649645878  0.7659312233980557  0.5678527287616078
  0.8055574447015132  0.1812780887804450  0.5748209208292749
  0.7633162488827665  0.0455162806154732  0.4089376380266145
  0.4606967715249155  0.1456242865042228  0.5837484844587593
  0.1167338696049569  0.6069487508771019  0.4719443660628144
  0.3420906731416409  0.2663696223118492  0.4228407826616092
  0.3497165934815740  0.3992256205412872  0.7132576008669602
  0.2919831609215322  0.4142814616506882  0.7781990557818048
  0.2332309194269726  0.4565614956686517  0.7670146589303783
 
  0.00000000E+00  0.00000000E+00  0.00000000E+00
  0.00000000E+00  0.00000000E+00  0.00000000E+00
  0.00000000E+00  0.00000000E+00  0.00000000E+00
  0.00000000E+00  0.00000000E+00  0.00000000E+00
  0.00000000E+00  0.00000000E+00  0.00000000E+00
  0.00000000E+00  0.00000000E+00  0.00000000E+00
  0.00000000E+00  0.00000000E+00  0.00000000E+00
  0.00000000E+00  0.00000000E+00  0.00000000E+00
  0.00000000E+00  0.00000000E+00  0.00000000E+00
  0.00000000E+00  0.00000000E+00  0.00000000E+00
  0.00000000E+00  0.00000000E+00  0.00000000E+00
  0.00000000E+00  0.00000000E+00  0.00000000E+00
  0.00000000E+00  0.00000000E+00  0.00000000E+00
  0.00000000E+00  0.00000000E+00  0.00000000E+00
  0.00000000E+00  0.00000000E+00  0.00000000E+00
  0.00000000E+00  0.00000000E+00  0.00000000E+00
  0.00000000E+00  0.00000000E+00  0.00000000E+00
  0.00000000E+00  0.00000000E+00  0.00000000E+00
  0.00000000E+00  0.00000000E+00  0.00000000E+00
  0.00000000E+00  0.00000000E+00  0.00000000E+00
  0.00000000E+00  0.00000000E+00  0.00000000E+00
  0.00000000E+00  0.00000000E+00  0.00000000E+00
  0.00000000E+00  0.00000000E+00  0.00000000E+00
  0.00000000E+00  0.00000000E+00  0.00000000E+00
  0.00000000E+00  0.00000000E+00  0.00000000E+00
  0.00000000E+00  0.00000000E+00  0.00000000E+00
  0.00000000E+00  0.00000000E+00  0.00000000E+00
  0.00000000E+00  0.00000000E+00  0.00000000E+00
  0.00000000E+00  0.00000000E+00  0.00000000E+00
  0.00000000E+00  0.00000000E+00  0.00000000E+00
  0.00000000E+00  0.00000000E+00  0.00000000E+00
  0.00000000E+00  0.00000000E+00  0.00000000E+00
  0.00000000E+00  0.00000000E+00  0.00000000E+00
  0.00000000E+00  0.00000000E+00  0.00000000E+00
  0.00000000E+00  0.00000000E+00  0.00000000E+00
  0.00000000E+00  0.00000000E+00  0.00000000E+00
  0.00000000E+00  0.00000000E+00  0.00000000E+00
  0.00000000E+00  0.00000000E+00  0.00000000E+00
  0.00000000E+00  0.00000000E+00  0.00000000E+00
  0.00000000E+00  0.00000000E+00  0.00000000E+00
  0.00000000E+00  0.00000000E+00  0.00000000E+00
