CONTCAR\(14)                            
   1.00000000000000     
    12.3274002075000002    0.0000000000000000    0.0000000000000000
     0.0000000000000000   15.7540998459000008    0.0000000000000000
     0.0000000000000000    0.0000000000000000   20.2700004577999984
   Pr   Br
    12    30
Direct
  0.2500000000000000  0.6379762943766160  0.5199166474536243
  0.0833299940000032  0.3620236756233817  0.4800833995463760
  0.2500000000000000  0.1367588355274970  0.5273873415308051
  0.0833299940000032  0.8632411484725018  0.4726126584691948
  0.5833299940000032  0.6379762943766160  0.5199166474536243
  0.4166700059999968  0.3620236756233817  0.4800833995463760
  0.5833299940000032  0.1367588355274970  0.5273873415308051
  0.4166700059999968  0.8632411484725018  0.4726126584691948
  0.9166700450000036  0.6379762943766160  0.5199166474536243
  0.7500000000000000  0.3620236756233817  0.4800833995463760
  0.9166700450000036  0.1367588355274970  0.5273873415308051
  0.7500000000000000  0.8632411484725018  0.4726126584691948
  0.2500000000000000  0.8759110365477348  0.3702826507294876
  0.0833299940000032  0.1240889634522652  0.6297173732705145
  0.2500000000000000  0.4833475764446853  0.4224429260551095
  0.0833299940000032  0.5166524535553171  0.5775570739448904
  0.0833299940000032  0.0584359698962994  0.4372635939542087
  0.2500000000000000  0.9415640031037019  0.5627364060457913
  0.0833299940000032  0.7435517267640347  0.5928958036025190
  0.2500000000000000  0.2564482432359629  0.4071042433974812
  0.0833299940000032  0.6825204221823871  0.4184140299825578
  0.2500000000000000  0.3174796078176154  0.5815859700174423
  0.5833299940000032  0.8759110365477348  0.3702826507294876
  0.4166700059999968  0.1240889634522652  0.6297173732705145
  0.5833299940000032  0.4833475764446853  0.4224429260551095
  0.4166700059999968  0.5166524535553171  0.5775570739448904
  0.4166700059999968  0.0584359698962994  0.4372635939542087
  0.5833299940000032  0.9415640031037019  0.5627364060457913
  0.4166700059999968  0.7435517267640347  0.5928958036025190
  0.5833299940000032  0.2564482432359629  0.4071042433974812
  0.4166700059999968  0.6825204221823871  0.4184140299825578
  0.5833299940000032  0.3174796078176154  0.5815859700174423
  0.9166700450000036  0.8759110365477348  0.3702826507294876
  0.7500000000000000  0.1240889634522652  0.6297173732705145
  0.9166700450000036  0.4833475764446853  0.4224429260551095
  0.7500000000000000  0.5166524535553171  0.5775570739448904
  0.7500000000000000  0.0584359698962994  0.4372635939542087
  0.9166700450000036  0.9415640031037019  0.5627364060457913
  0.7500000000000000  0.7435517267640347  0.5928958036025190
  0.9166700450000036  0.2564482432359629  0.4071042433974812
  0.7500000000000000  0.6825204221823871  0.4184140299825578
  0.9166700450000036  0.3174796078176154  0.5815859700174423
 
  0.00000000E+00  0.00000000E+00  0.00000000E+00
  0.00000000E+00  0.00000000E+00  0.00000000E+00
  0.00000000E+00  0.00000000E+00  0.00000000E+00
  0.00000000E+00  0.00000000E+00  0.00000000E+00
  0.00000000E+00  0.00000000E+00  0.00000000E+00
  0.00000000E+00  0.00000000E+00  0.00000000E+00
  0.00000000E+00  0.00000000E+00  0.00000000E+00
  0.00000000E+00  0.00000000E+00  0.00000000E+00
  0.00000000E+00  0.00000000E+00  0.00000000E+00
  0.00000000E+00  0.00000000E+00  0.00000000E+00
  0.00000000E+00  0.00000000E+00  0.00000000E+00
  0.00000000E+00  0.00000000E+00  0.00000000E+00
  0.00000000E+00  0.00000000E+00  0.00000000E+00
  0.00000000E+00  0.00000000E+00  0.00000000E+00
  0.00000000E+00  0.00000000E+00  0.00000000E+00
  0.00000000E+00  0.00000000E+00  0.00000000E+00
  0.00000000E+00  0.00000000E+00  0.00000000E+00
  0.00000000E+00  0.00000000E+00  0.00000000E+00
  0.00000000E+00  0.00000000E+00  0.00000000E+00
  0.00000000E+00  0.00000000E+00  0.00000000E+00
  0.00000000E+00  0.00000000E+00  0.00000000E+00
  0.00000000E+00  0.00000000E+00  0.00000000E+00
  0.00000000E+00  0.00000000E+00  0.00000000E+00
  0.00000000E+00  0.00000000E+00  0.00000000E+00
  0.00000000E+00  0.00000000E+00  0.00000000E+00
  0.00000000E+00  0.00000000E+00  0.00000000E+00
  0.00000000E+00  0.00000000E+00  0.00000000E+00
  0.00000000E+00  0.00000000E+00  0.00000000E+00
  0.00000000E+00  0.00000000E+00  0.00000000E+00
  0.00000000E+00  0.00000000E+00  0.00000000E+00
  0.00000000E+00  0.00000000E+00  0.00000000E+00
  0.00000000E+00  0.00000000E+00  0.00000000E+00
  0.00000000E+00  0.00000000E+00  0.00000000E+00
  0.00000000E+00  0.00000000E+00  0.00000000E+00
  0.00000000E+00  0.00000000E+00  0.00000000E+00
  0.00000000E+00  0.00000000E+00  0.00000000E+00
  0.00000000E+00  0.00000000E+00  0.00000000E+00
  0.00000000E+00  0.00000000E+00  0.00000000E+00
  0.00000000E+00  0.00000000E+00  0.00000000E+00
  0.00000000E+00  0.00000000E+00  0.00000000E+00
  0.00000000E+00  0.00000000E+00  0.00000000E+00
  0.00000000E+00  0.00000000E+00  0.00000000E+00
