CONTCAR\(2)                             
   1.00000000000000     
    13.0186996460000000    0.0000000000000000    0.0000000000000000
     6.5093498230000000   11.2745246176999991    0.0000000000000000
     0.0000000000000000    0.0000000000000000   20.7136993408000016
   Nb   C    S    O 
    32    16    32     1
Direct
  0.1666699820000019  0.1666699980000033  0.5585107571823635
  0.0833189019294691  0.0833189079294696  0.4432790661332225
  0.4166139102573422  0.1676509546757273  0.5580826001003639
  0.3333522001410662  0.0833189079294696  0.4432790661332225
  0.6692718170091152  0.1614664739817680  0.5566276666917794
  0.5823879800863587  0.0833339989906442  0.4422891041840702
  0.9157451700669329  0.1676509546757273  0.5580826001003639
  0.8342679109229990  0.0833339989906442  0.4422891041840702
  0.1676509326757255  0.4166139382573374  0.5580826001003639
  0.0833189029294656  0.3333521951410693  0.4432790661332225
  0.4167544712311235  0.4167545052311192  0.5581792988599559
  0.3335514345596136  0.3335514385596139  0.4431639351116865
  0.6665010585377528  0.4167545052311192  0.5581792988599559
  0.5836852551250410  0.3326195267499215  0.4431047846304126
  0.9157451640669324  0.4166139382573374  0.5580826001003639
  0.8328870908807735  0.3335514385596139  0.4431639351116865
  0.1614664879817621  0.6692717740091152  0.5566276666917794
  0.0833339849906431  0.5823880300863629  0.4422891041840702
  0.4167544702311198  0.6665010215377533  0.5581792988599559
  0.3326195327499220  0.5836852401250433  0.4431047846304126
  0.6692718840091172  0.6692717740091152  0.5566276666917794
  0.5836851921250393  0.5836852401250433  0.4431047846304126
  0.9172773215769748  0.6654556128460462  0.5582768811680990
  0.8342679129229992  0.5823880300863629  0.4422891041840702
  0.1676509836757261  0.9157451710669365  0.5580826001003639
  0.0833339689906417  0.8342679199229962  0.4422891041840702
  0.4166139552573424  0.9157451710669365  0.5580826001003639
  0.3335514645596160  0.8328871078807714  0.4431639351116865
  0.6654556278460509  0.9172772555769765  0.5582768811680990
  0.5823880020863605  0.8342679199229962  0.4422891041840702
  0.9172772265769776  0.9172772555769765  0.5582768811680990
  0.8333298949999985  0.8333299549999964  0.4434456051020402
 -0.0000147995648810 -0.0000147995648810  0.5005147649515364
  0.2499388754018737  0.0001222491962527  0.5006879767591869
  0.5000295991297621 -0.0000147995648810  0.5005147649515364
  0.7494044990878854  0.0011910018242295  0.5008809620036394
  0.0001222481962561  0.2499388774018738  0.5006879767591869
  0.2499388744018771  0.2499388774018738  0.5006879767591869
  0.5009242292282277  0.2492915541794379  0.5005102641363067
  0.7497842165923416  0.2492915541794379  0.5005102641363067
 -0.0000148015648810  0.5000296021297588  0.5005147649515364
  0.2492915501794376  0.5009242332282209  0.5005102641363067
  0.4999999979999998  0.5000000029999967  0.5001694581616387
  0.7497842155923380  0.5009242332282209  0.5005102641363067
  0.0011909998242293  0.7494045040878823  0.5008809620036394
  0.2492915501794376  0.7497842225923350  0.5005102641363067
  0.5009242282282240  0.7497842225923350  0.5005102641363067
  0.7494044970878853  0.7494045040878823  0.5008809620036394
  0.1666699820000019  0.1666699980000033  0.3638400894418455
  0.0831891940224966  0.0831892000224971  0.6371922018906956
  0.4163691081435359  0.1670747332977437  0.3637822861361183
  0.3336116159550110  0.0831892000224971  0.6371922018906956
  0.6667220773504194  0.1665659532991590  0.3635611232805163
  0.5834177112267983  0.0849157080685314  0.6375516735178584
  0.9165661935587227  0.1670747332977437  0.3637822861361183
  0.8316564707046722  0.0849157080685314  0.6375516735178584
  0.1670747112977419  0.4163691361435311  0.3637822861361183
  0.0831891950224932  0.3336116109550142  0.6371922018906956
  0.4168430046306182  0.4168430386306139  0.3639647786665577
  0.3328453568072272  0.3328453608072275  0.6375280180326113
  0.6663239917387633  0.4168430386306139  0.3639647786665577
  0.5767716225364951  0.3464467919270136  0.6411326313561116
  0.9165661875587222  0.4163691361435311  0.3637822861361183
  0.8342992463855463  0.3328453608072275  0.6375280180326113
  0.1665659672991530  0.6667220343504194  0.3635611232805163
  0.0849156940685303  0.5834177612268024  0.6375516735178584
  0.4168430036306146  0.6663239547387638  0.3639647786665577
  0.3464467979270141  0.5767716075364974  0.6411326313561116
  0.6667221443504214  0.6667220343504194  0.3635611232805163
  0.5767715595364934  0.5767716075364974  0.6411326313561116
  0.9163782435567438  0.6672537688865081  0.3636067369391260
  0.8316564727046724  0.5834177612268024  0.6375516735178584
  0.1670747622977426  0.9165661945587263  0.3637822861361183
  0.0849156780685289  0.8316564797046694  0.6375516735178584
  0.4163691531435361  0.9165661945587263  0.3637822861361183
  0.3328453868072296  0.8342992633855442  0.6375280180326113
  0.6672537838865129  0.9163781775567454  0.3636067369391260
  0.5834177332268001  0.8316564797046694  0.6375516735178584
  0.9163781485567466  0.9163781775567454  0.3636067369391260
  0.8333298949999985  0.8333299549999964  0.6370952386088881
  0.4999199829999981  0.5000900029999968  0.6948206216296061
 
  0.00000000E+00  0.00000000E+00  0.00000000E+00
  0.00000000E+00  0.00000000E+00  0.00000000E+00
  0.00000000E+00  0.00000000E+00  0.00000000E+00
  0.00000000E+00  0.00000000E+00  0.00000000E+00
  0.00000000E+00  0.00000000E+00  0.00000000E+00
  0.00000000E+00  0.00000000E+00  0.00000000E+00
  0.00000000E+00  0.00000000E+00  0.00000000E+00
  0.00000000E+00  0.00000000E+00  0.00000000E+00
  0.00000000E+00  0.00000000E+00  0.00000000E+00
  0.00000000E+00  0.00000000E+00  0.00000000E+00
  0.00000000E+00  0.00000000E+00  0.00000000E+00
  0.00000000E+00  0.00000000E+00  0.00000000E+00
  0.00000000E+00  0.00000000E+00  0.00000000E+00
  0.00000000E+00  0.00000000E+00  0.00000000E+00
  0.00000000E+00  0.00000000E+00  0.00000000E+00
  0.00000000E+00  0.00000000E+00  0.00000000E+00
  0.00000000E+00  0.00000000E+00  0.00000000E+00
  0.00000000E+00  0.00000000E+00  0.00000000E+00
  0.00000000E+00  0.00000000E+00  0.00000000E+00
  0.00000000E+00  0.00000000E+00  0.00000000E+00
  0.00000000E+00  0.00000000E+00  0.00000000E+00
  0.00000000E+00  0.00000000E+00  0.00000000E+00
  0.00000000E+00  0.00000000E+00  0.00000000E+00
  0.00000000E+00  0.00000000E+00  0.00000000E+00
  0.00000000E+00  0.00000000E+00  0.00000000E+00
  0.00000000E+00  0.00000000E+00  0.00000000E+00
  0.00000000E+00  0.00000000E+00  0.00000000E+00
  0.00000000E+00  0.00000000E+00  0.00000000E+00
  0.00000000E+00  0.00000000E+00  0.00000000E+00
  0.00000000E+00  0.00000000E+00  0.00000000E+00
  0.00000000E+00  0.00000000E+00  0.00000000E+00
  0.00000000E+00  0.00000000E+00  0.00000000E+00
  0.00000000E+00  0.00000000E+00  0.00000000E+00
  0.00000000E+00  0.00000000E+00  0.00000000E+00
  0.00000000E+00  0.00000000E+00  0.00000000E+00
  0.00000000E+00  0.00000000E+00  0.00000000E+00
  0.00000000E+00  0.00000000E+00  0.00000000E+00
  0.00000000E+00  0.00000000E+00  0.00000000E+00
  0.00000000E+00  0.00000000E+00  0.00000000E+00
  0.00000000E+00  0.00000000E+00  0.00000000E+00
  0.00000000E+00  0.00000000E+00  0.00000000E+00
  0.00000000E+00  0.00000000E+00  0.00000000E+00
  0.00000000E+00  0.00000000E+00  0.00000000E+00
  0.00000000E+00  0.00000000E+00  0.00000000E+00
  0.00000000E+00  0.00000000E+00  0.00000000E+00
  0.00000000E+00  0.00000000E+00  0.00000000E+00
  0.00000000E+00  0.00000000E+00  0.00000000E+00
  0.00000000E+00  0.00000000E+00  0.00000000E+00
  0.00000000E+00  0.00000000E+00  0.00000000E+00
  0.00000000E+00  0.00000000E+00  0.00000000E+00
  0.00000000E+00  0.00000000E+00  0.00000000E+00
  0.00000000E+00  0.00000000E+00  0.00000000E+00
  0.00000000E+00  0.00000000E+00  0.00000000E+00
  0.00000000E+00  0.00000000E+00  0.00000000E+00
  0.00000000E+00  0.00000000E+00  0.00000000E+00
  0.00000000E+00  0.00000000E+00  0.00000000E+00
  0.00000000E+00  0.00000000E+00  0.00000000E+00
  0.00000000E+00  0.00000000E+00  0.00000000E+00
  0.00000000E+00  0.00000000E+00  0.00000000E+00
  0.00000000E+00  0.00000000E+00  0.00000000E+00
  0.00000000E+00  0.00000000E+00  0.00000000E+00
  0.00000000E+00  0.00000000E+00  0.00000000E+00
  0.00000000E+00  0.00000000E+00  0.00000000E+00
  0.00000000E+00  0.00000000E+00  0.00000000E+00
  0.00000000E+00  0.00000000E+00  0.00000000E+00
  0.00000000E+00  0.00000000E+00  0.00000000E+00
  0.00000000E+00  0.00000000E+00  0.00000000E+00
  0.00000000E+00  0.00000000E+00  0.00000000E+00
  0.00000000E+00  0.00000000E+00  0.00000000E+00
  0.00000000E+00  0.00000000E+00  0.00000000E+00
  0.00000000E+00  0.00000000E+00  0.00000000E+00
  0.00000000E+00  0.00000000E+00  0.00000000E+00
  0.00000000E+00  0.00000000E+00  0.00000000E+00
  0.00000000E+00  0.00000000E+00  0.00000000E+00
  0.00000000E+00  0.00000000E+00  0.00000000E+00
  0.00000000E+00  0.00000000E+00  0.00000000E+00
  0.00000000E+00  0.00000000E+00  0.00000000E+00
  0.00000000E+00  0.00000000E+00  0.00000000E+00
  0.00000000E+00  0.00000000E+00  0.00000000E+00
  0.00000000E+00  0.00000000E+00  0.00000000E+00
  0.00000000E+00  0.00000000E+00  0.00000000E+00
