CONTCAR                                 
   1.00000000000000     
    13.1778001785000001    0.0000000000000000    0.0000000000000000
    -6.5889000893000000   11.4123097205999997    0.0000000000000000
     0.0000000000000000    0.0000000000000000   18.1460990905999999
   W    Se
    16    32
Direct
  0.0833299949999997  0.1666699940000029  0.5000000000000000
  0.3333300039999969  0.1666699940000029  0.5000000000000000
  0.5833299669999974  0.1666699940000029  0.5000000000000000
  0.8333299490000030  0.1666699940000029  0.5000000000000000
  0.0833300030000004  0.4166699929999993  0.5000000000000000
  0.3333300119999976  0.4166699929999993  0.5000000000000000
  0.5833300119999976  0.4166699929999993  0.5000000000000000
  0.8333299940000032  0.4166699929999993  0.5000000000000000
  0.0833300050000005  0.6666700330000026  0.5000000000000000
  0.3333300230000020  0.6666700330000026  0.5000000000000000
  0.5833300050000005  0.6666700330000026  0.5000000000000000
  0.8333299869999991  0.6666700330000026  0.5000000000000000
  0.0833299560000000  0.9166699889999990  0.5000000000000000
  0.3333299740000015  0.9166699889999990  0.5000000000000000
  0.5833299560000000  0.9166699889999990  0.5000000000000000
  0.8333299379999985  0.9166699889999990  0.5000000000000000
  0.1666700019999965  0.0833299990000000  0.4069899859999992
  0.1666700019999965  0.0833299990000000  0.5930100140000008
  0.4166699660000006  0.0833299990000000  0.4069899859999992
  0.4166699660000006  0.0833299990000000  0.5930100140000008
  0.6666699840000021  0.0833299990000000  0.4069899859999992
  0.6666699840000021  0.0833299990000000  0.5930100140000008
  0.9166700379999995  0.0833299990000000  0.4069899859999992
  0.9166700379999995  0.0833299990000000  0.5930100140000008
  0.1666699949999995  0.3333300019999967  0.4069899859999992
  0.1666699949999995  0.3333300019999967  0.5930100140000008
  0.4166699769999980  0.3333300019999967  0.4069899859999992
  0.4166699769999980  0.3333300019999967  0.5930100140000008
  0.6666699949999995  0.3333300019999967  0.4069899859999992
  0.6666699949999995  0.3333300019999967  0.5930100140000008
  0.9166700849999998  0.3333300019999967  0.4069899859999992
  0.9166700849999998  0.3333300019999967  0.5930100140000008
  0.1666699820000019  0.5833299589999967  0.4069899859999992
  0.1666699820000019  0.5833299589999967  0.5930100140000008
  0.4166699640000004  0.5833299589999967  0.4069899859999992
  0.4166699640000004  0.5833299589999967  0.5930100140000008
  0.6666699820000019  0.5833299589999967  0.4069899859999992
  0.6666699820000019  0.5833299589999967  0.5930100140000008
  0.9166700359999993  0.5833299589999967  0.4069899859999992
  0.9166700359999993  0.5833299589999967  0.5930100140000008
  0.1666699900000026  0.8333299569999966  0.4069899859999992
  0.1666699900000026  0.8333299569999966  0.5930100140000008
  0.4166699720000011  0.8333299569999966  0.4069899859999992
  0.4166699720000011  0.8333299569999966  0.5930100140000008
  0.6666699900000026  0.8333299569999966  0.4069899859999992
  0.6666699900000026  0.8333299569999966  0.5930100140000008
  0.9166700450000036  0.8333299569999966  0.4069899859999992
  0.9166700450000036  0.8333299569999966  0.5930100140000008
 
  0.00000000E+00  0.00000000E+00  0.00000000E+00
  0.00000000E+00  0.00000000E+00  0.00000000E+00
  0.00000000E+00  0.00000000E+00  0.00000000E+00
  0.00000000E+00  0.00000000E+00  0.00000000E+00
  0.00000000E+00  0.00000000E+00  0.00000000E+00
  0.00000000E+00  0.00000000E+00  0.00000000E+00
  0.00000000E+00  0.00000000E+00  0.00000000E+00
  0.00000000E+00  0.00000000E+00  0.00000000E+00
  0.00000000E+00  0.00000000E+00  0.00000000E+00
  0.00000000E+00  0.00000000E+00  0.00000000E+00
  0.00000000E+00  0.00000000E+00  0.00000000E+00
  0.00000000E+00  0.00000000E+00  0.00000000E+00
  0.00000000E+00  0.00000000E+00  0.00000000E+00
  0.00000000E+00  0.00000000E+00  0.00000000E+00
  0.00000000E+00  0.00000000E+00  0.00000000E+00
  0.00000000E+00  0.00000000E+00  0.00000000E+00
  0.00000000E+00  0.00000000E+00  0.00000000E+00
  0.00000000E+00  0.00000000E+00  0.00000000E+00
  0.00000000E+00  0.00000000E+00  0.00000000E+00
  0.00000000E+00  0.00000000E+00  0.00000000E+00
  0.00000000E+00  0.00000000E+00  0.00000000E+00
  0.00000000E+00  0.00000000E+00  0.00000000E+00
  0.00000000E+00  0.00000000E+00  0.00000000E+00
  0.00000000E+00  0.00000000E+00  0.00000000E+00
  0.00000000E+00  0.00000000E+00  0.00000000E+00
  0.00000000E+00  0.00000000E+00  0.00000000E+00
  0.00000000E+00  0.00000000E+00  0.00000000E+00
  0.00000000E+00  0.00000000E+00  0.00000000E+00
  0.00000000E+00  0.00000000E+00  0.00000000E+00
  0.00000000E+00  0.00000000E+00  0.00000000E+00
  0.00000000E+00  0.00000000E+00  0.00000000E+00
  0.00000000E+00  0.00000000E+00  0.00000000E+00
  0.00000000E+00  0.00000000E+00  0.00000000E+00
  0.00000000E+00  0.00000000E+00  0.00000000E+00
  0.00000000E+00  0.00000000E+00  0.00000000E+00
  0.00000000E+00  0.00000000E+00  0.00000000E+00
  0.00000000E+00  0.00000000E+00  0.00000000E+00
  0.00000000E+00  0.00000000E+00  0.00000000E+00
  0.00000000E+00  0.00000000E+00  0.00000000E+00
  0.00000000E+00  0.00000000E+00  0.00000000E+00
  0.00000000E+00  0.00000000E+00  0.00000000E+00
  0.00000000E+00  0.00000000E+00  0.00000000E+00
  0.00000000E+00  0.00000000E+00  0.00000000E+00
  0.00000000E+00  0.00000000E+00  0.00000000E+00
  0.00000000E+00  0.00000000E+00  0.00000000E+00
  0.00000000E+00  0.00000000E+00  0.00000000E+00
  0.00000000E+00  0.00000000E+00  0.00000000E+00
  0.00000000E+00  0.00000000E+00  0.00000000E+00
