G   59   31    1    0.005     # Parameters to Generate KPOINTS (Don't Edit This Line)
     480
Reciprocal lattice
    0.000000000000    0.000000000000    0.000000000000       1
    0.016949152542    0.000000000000    0.000000000000       2
    0.033898305085    0.000000000000    0.000000000000       2
    0.050847457627    0.000000000000    0.000000000000       2
    0.067796610169    0.000000000000    0.000000000000       2
    0.084745762712    0.000000000000    0.000000000000       2
    0.101694915254    0.000000000000    0.000000000000       2
    0.118644067797    0.000000000000    0.000000000000       2
    0.135593220339    0.000000000000    0.000000000000       2
    0.152542372881    0.000000000000    0.000000000000       2
    0.169491525424    0.000000000000    0.000000000000       2
    0.186440677966    0.000000000000    0.000000000000       2
    0.203389830508    0.000000000000    0.000000000000       2
    0.220338983051    0.000000000000    0.000000000000       2
    0.237288135593    0.000000000000    0.000000000000       2
    0.254237288136    0.000000000000    0.000000000000       2
    0.271186440678    0.000000000000    0.000000000000       2
    0.288135593220    0.000000000000    0.000000000000       2
    0.305084745763    0.000000000000    0.000000000000       2
    0.322033898305    0.000000000000    0.000000000000       2
    0.338983050847    0.000000000000    0.000000000000       2
    0.355932203390    0.000000000000    0.000000000000       2
    0.372881355932    0.000000000000    0.000000000000       2
    0.389830508475    0.000000000000    0.000000000000       2
    0.406779661017    0.000000000000    0.000000000000       2
    0.423728813559    0.000000000000    0.000000000000       2
    0.440677966102    0.000000000000    0.000000000000       2
    0.457627118644    0.000000000000    0.000000000000       2
    0.474576271186    0.000000000000    0.000000000000       2
    0.491525423729    0.000000000000    0.000000000000       2
    0.000000000000    0.032258064516    0.000000000000       2
    0.016949152542    0.032258064516    0.000000000000       4
    0.033898305085    0.032258064516    0.000000000000       4
    0.050847457627    0.032258064516    0.000000000000       4
    0.067796610169    0.032258064516    0.000000000000       4
    0.084745762712    0.032258064516    0.000000000000       4
    0.101694915254    0.032258064516    0.000000000000       4
    0.118644067797    0.032258064516    0.000000000000       4
    0.135593220339    0.032258064516    0.000000000000       4
    0.152542372881    0.032258064516    0.000000000000       4
    0.169491525424    0.032258064516    0.000000000000       4
    0.186440677966    0.032258064516    0.000000000000       4
    0.203389830508    0.032258064516    0.000000000000       4
    0.220338983051    0.032258064516    0.000000000000       4
    0.237288135593    0.032258064516    0.000000000000       4
    0.254237288136    0.032258064516    0.000000000000       4
    0.271186440678    0.032258064516    0.000000000000       4
    0.288135593220    0.032258064516    0.000000000000       4
    0.305084745763    0.032258064516    0.000000000000       4
    0.322033898305    0.032258064516    0.000000000000       4
    0.338983050847    0.032258064516    0.000000000000       4
    0.355932203390    0.032258064516    0.000000000000       4
    0.372881355932    0.032258064516    0.000000000000       4
    0.389830508475    0.032258064516    0.000000000000       4
    0.406779661017    0.032258064516    0.000000000000       4
    0.423728813559    0.032258064516    0.000000000000       4
    0.440677966102    0.032258064516    0.000000000000       4
    0.457627118644    0.032258064516    0.000000000000       4
    0.474576271186    0.032258064516    0.000000000000       4
    0.491525423729    0.032258064516    0.000000000000       4
    0.000000000000    0.064516129032    0.000000000000       2
    0.016949152542    0.064516129032    0.000000000000       4
    0.033898305085    0.064516129032    0.000000000000       4
    0.050847457627    0.064516129032    0.000000000000       4
    0.067796610169    0.064516129032    0.000000000000       4
    0.084745762712    0.064516129032    0.000000000000       4
    0.101694915254    0.064516129032    0.000000000000       4
    0.118644067797    0.064516129032    0.000000000000       4
    0.135593220339    0.064516129032    0.000000000000       4
    0.152542372881    0.064516129032    0.000000000000       4
    0.169491525424    0.064516129032    0.000000000000       4
    0.186440677966    0.064516129032    0.000000000000       4
    0.203389830508    0.064516129032    0.000000000000       4
    0.220338983051    0.064516129032    0.000000000000       4
    0.237288135593    0.064516129032    0.000000000000       4
    0.254237288136    0.064516129032    0.000000000000       4
    0.271186440678    0.064516129032    0.000000000000       4
    0.288135593220    0.064516129032    0.000000000000       4
    0.305084745763    0.064516129032    0.000000000000       4
    0.322033898305    0.064516129032    0.000000000000       4
    0.338983050847    0.064516129032    0.000000000000       4
    0.355932203390    0.064516129032    0.000000000000       4
    0.372881355932    0.064516129032    0.000000000000       4
    0.389830508475    0.064516129032    0.000000000000       4
    0.406779661017    0.064516129032    0.000000000000       4
    0.423728813559    0.064516129032    0.000000000000       4
    0.440677966102    0.064516129032    0.000000000000       4
    0.457627118644    0.064516129032    0.000000000000       4
    0.474576271186    0.064516129032    0.000000000000       4
    0.491525423729    0.064516129032    0.000000000000       4
    0.000000000000    0.096774193548    0.000000000000       2
    0.016949152542    0.096774193548    0.000000000000       4
    0.033898305085    0.096774193548    0.000000000000       4
    0.050847457627    0.096774193548    0.000000000000       4
    0.067796610169    0.096774193548    0.000000000000       4
    0.084745762712    0.096774193548    0.000000000000       4
    0.101694915254    0.096774193548    0.000000000000       4
    0.118644067797    0.096774193548    0.000000000000       4
    0.135593220339    0.096774193548    0.000000000000       4
    0.152542372881    0.096774193548    0.000000000000       4
    0.169491525424    0.096774193548    0.000000000000       4
    0.186440677966    0.096774193548    0.000000000000       4
    0.203389830508    0.096774193548    0.000000000000       4
    0.220338983051    0.096774193548    0.000000000000       4
    0.237288135593    0.096774193548    0.000000000000       4
    0.254237288136    0.096774193548    0.000000000000       4
    0.271186440678    0.096774193548    0.000000000000       4
    0.288135593220    0.096774193548    0.000000000000       4
    0.305084745763    0.096774193548    0.000000000000       4
    0.322033898305    0.096774193548    0.000000000000       4
    0.338983050847    0.096774193548    0.000000000000       4
    0.355932203390    0.096774193548    0.000000000000       4
    0.372881355932    0.096774193548    0.000000000000       4
    0.389830508475    0.096774193548    0.000000000000       4
    0.406779661017    0.096774193548    0.000000000000       4
    0.423728813559    0.096774193548    0.000000000000       4
    0.440677966102    0.096774193548    0.000000000000       4
    0.457627118644    0.096774193548    0.000000000000       4
    0.474576271186    0.096774193548    0.000000000000       4
    0.491525423729    0.096774193548    0.000000000000       4
    0.000000000000    0.129032258065    0.000000000000       2
    0.016949152542    0.129032258065    0.000000000000       4
    0.033898305085    0.129032258065    0.000000000000       4
    0.050847457627    0.129032258065    0.000000000000       4
    0.067796610169    0.129032258065    0.000000000000       4
    0.084745762712    0.129032258065    0.000000000000       4
    0.101694915254    0.129032258065    0.000000000000       4
    0.118644067797    0.129032258065    0.000000000000       4
    0.135593220339    0.129032258065    0.000000000000       4
    0.152542372881    0.129032258065    0.000000000000       4
    0.169491525424    0.129032258065    0.000000000000       4
    0.186440677966    0.129032258065    0.000000000000       4
    0.203389830508    0.129032258065    0.000000000000       4
    0.220338983051    0.129032258065    0.000000000000       4
    0.237288135593    0.129032258065    0.000000000000       4
    0.254237288136    0.129032258065    0.000000000000       4
    0.271186440678    0.129032258065    0.000000000000       4
    0.288135593220    0.129032258065    0.000000000000       4
    0.305084745763    0.129032258065    0.000000000000       4
    0.322033898305    0.129032258065    0.000000000000       4
    0.338983050847    0.129032258065    0.000000000000       4
    0.355932203390    0.129032258065    0.000000000000       4
    0.372881355932    0.129032258065    0.000000000000       4
    0.389830508475    0.129032258065    0.000000000000       4
    0.406779661017    0.129032258065    0.000000000000       4
    0.423728813559    0.129032258065    0.000000000000       4
    0.440677966102    0.129032258065    0.000000000000       4
    0.457627118644    0.129032258065    0.000000000000       4
    0.474576271186    0.129032258065    0.000000000000       4
    0.491525423729    0.129032258065    0.000000000000       4
    0.000000000000    0.161290322581    0.000000000000       2
    0.016949152542    0.161290322581    0.000000000000       4
    0.033898305085    0.161290322581    0.000000000000       4
    0.050847457627    0.161290322581    0.000000000000       4
    0.067796610169    0.161290322581    0.000000000000       4
    0.084745762712    0.161290322581    0.000000000000       4
    0.101694915254    0.161290322581    0.000000000000       4
    0.118644067797    0.161290322581    0.000000000000       4
    0.135593220339    0.161290322581    0.000000000000       4
    0.152542372881    0.161290322581    0.000000000000       4
    0.169491525424    0.161290322581    0.000000000000       4
    0.186440677966    0.161290322581    0.000000000000       4
    0.203389830508    0.161290322581    0.000000000000       4
    0.220338983051    0.161290322581    0.000000000000       4
    0.237288135593    0.161290322581    0.000000000000       4
    0.254237288136    0.161290322581    0.000000000000       4
    0.271186440678    0.161290322581    0.000000000000       4
    0.288135593220    0.161290322581    0.000000000000       4
    0.305084745763    0.161290322581    0.000000000000       4
    0.322033898305    0.161290322581    0.000000000000       4
    0.338983050847    0.161290322581    0.000000000000       4
    0.355932203390    0.161290322581    0.000000000000       4
    0.372881355932    0.161290322581    0.000000000000       4
    0.389830508475    0.161290322581    0.000000000000       4
    0.406779661017    0.161290322581    0.000000000000       4
    0.423728813559    0.161290322581    0.000000000000       4
    0.440677966102    0.161290322581    0.000000000000       4
    0.457627118644    0.161290322581    0.000000000000       4
    0.474576271186    0.161290322581    0.000000000000       4
    0.491525423729    0.161290322581    0.000000000000       4
    0.000000000000    0.193548387097    0.000000000000       2
    0.016949152542    0.193548387097    0.000000000000       4
    0.033898305085    0.193548387097    0.000000000000       4
    0.050847457627    0.193548387097    0.000000000000       4
    0.067796610169    0.193548387097    0.000000000000       4
    0.084745762712    0.193548387097    0.000000000000       4
    0.101694915254    0.193548387097    0.000000000000       4
    0.118644067797    0.193548387097    0.000000000000       4
    0.135593220339    0.193548387097    0.000000000000       4
    0.152542372881    0.193548387097    0.000000000000       4
    0.169491525424    0.193548387097    0.000000000000       4
    0.186440677966    0.193548387097    0.000000000000       4
    0.203389830508    0.193548387097    0.000000000000       4
    0.220338983051    0.193548387097    0.000000000000       4
    0.237288135593    0.193548387097    0.000000000000       4
    0.254237288136    0.193548387097    0.000000000000       4
    0.271186440678    0.193548387097    0.000000000000       4
    0.288135593220    0.193548387097    0.000000000000       4
    0.305084745763    0.193548387097    0.000000000000       4
    0.322033898305    0.193548387097    0.000000000000       4
    0.338983050847    0.193548387097    0.000000000000       4
    0.355932203390    0.193548387097    0.000000000000       4
    0.372881355932    0.193548387097    0.000000000000       4
    0.389830508475    0.193548387097    0.000000000000       4
    0.406779661017    0.193548387097    0.000000000000       4
    0.423728813559    0.193548387097    0.000000000000       4
    0.440677966102    0.193548387097    0.000000000000       4
    0.457627118644    0.193548387097    0.000000000000       4
    0.474576271186    0.193548387097    0.000000000000       4
    0.491525423729    0.193548387097    0.000000000000       4
    0.000000000000    0.225806451613    0.000000000000       2
    0.016949152542    0.225806451613    0.000000000000       4
    0.033898305085    0.225806451613    0.000000000000       4
    0.050847457627    0.225806451613    0.000000000000       4
    0.067796610169    0.225806451613    0.000000000000       4
    0.084745762712    0.225806451613    0.000000000000       4
    0.101694915254    0.225806451613    0.000000000000       4
    0.118644067797    0.225806451613    0.000000000000       4
    0.135593220339    0.225806451613    0.000000000000       4
    0.152542372881    0.225806451613    0.000000000000       4
    0.169491525424    0.225806451613    0.000000000000       4
    0.186440677966    0.225806451613    0.000000000000       4
    0.203389830508    0.225806451613    0.000000000000       4
    0.220338983051    0.225806451613    0.000000000000       4
    0.237288135593    0.225806451613    0.000000000000       4
    0.254237288136    0.225806451613    0.000000000000       4
    0.271186440678    0.225806451613    0.000000000000       4
    0.288135593220    0.225806451613    0.000000000000       4
    0.305084745763    0.225806451613    0.000000000000       4
    0.322033898305    0.225806451613    0.000000000000       4
    0.338983050847    0.225806451613    0.000000000000       4
    0.355932203390    0.225806451613    0.000000000000       4
    0.372881355932    0.225806451613    0.000000000000       4
    0.389830508475    0.225806451613    0.000000000000       4
    0.406779661017    0.225806451613    0.000000000000       4
    0.423728813559    0.225806451613    0.000000000000       4
    0.440677966102    0.225806451613    0.000000000000       4
    0.457627118644    0.225806451613    0.000000000000       4
    0.474576271186    0.225806451613    0.000000000000       4
    0.491525423729    0.225806451613    0.000000000000       4
    0.000000000000    0.258064516129    0.000000000000       2
    0.016949152542    0.258064516129    0.000000000000       4
    0.033898305085    0.258064516129    0.000000000000       4
    0.050847457627    0.258064516129    0.000000000000       4
    0.067796610169    0.258064516129    0.000000000000       4
    0.084745762712    0.258064516129    0.000000000000       4
    0.101694915254    0.258064516129    0.000000000000       4
    0.118644067797    0.258064516129    0.000000000000       4
    0.135593220339    0.258064516129    0.000000000000       4
    0.152542372881    0.258064516129    0.000000000000       4
    0.169491525424    0.258064516129    0.000000000000       4
    0.186440677966    0.258064516129    0.000000000000       4
    0.203389830508    0.258064516129    0.000000000000       4
    0.220338983051    0.258064516129    0.000000000000       4
    0.237288135593    0.258064516129    0.000000000000       4
    0.254237288136    0.258064516129    0.000000000000       4
    0.271186440678    0.258064516129    0.000000000000       4
    0.288135593220    0.258064516129    0.000000000000       4
    0.305084745763    0.258064516129    0.000000000000       4
    0.322033898305    0.258064516129    0.000000000000       4
    0.338983050847    0.258064516129    0.000000000000       4
    0.355932203390    0.258064516129    0.000000000000       4
    0.372881355932    0.258064516129    0.000000000000       4
    0.389830508475    0.258064516129    0.000000000000       4
    0.406779661017    0.258064516129    0.000000000000       4
    0.423728813559    0.258064516129    0.000000000000       4
    0.440677966102    0.258064516129    0.000000000000       4
    0.457627118644    0.258064516129    0.000000000000       4
    0.474576271186    0.258064516129    0.000000000000       4
    0.491525423729    0.258064516129    0.000000000000       4
    0.000000000000    0.290322580645    0.000000000000       2
    0.016949152542    0.290322580645    0.000000000000       4
    0.033898305085    0.290322580645    0.000000000000       4
    0.050847457627    0.290322580645    0.000000000000       4
    0.067796610169    0.290322580645    0.000000000000       4
    0.084745762712    0.290322580645    0.000000000000       4
    0.101694915254    0.290322580645    0.000000000000       4
    0.118644067797    0.290322580645    0.000000000000       4
    0.135593220339    0.290322580645    0.000000000000       4
    0.152542372881    0.290322580645    0.000000000000       4
    0.169491525424    0.290322580645    0.000000000000       4
    0.186440677966    0.290322580645    0.000000000000       4
    0.203389830508    0.290322580645    0.000000000000       4
    0.220338983051    0.290322580645    0.000000000000       4
    0.237288135593    0.290322580645    0.000000000000       4
    0.254237288136    0.290322580645    0.000000000000       4
    0.271186440678    0.290322580645    0.000000000000       4
    0.288135593220    0.290322580645    0.000000000000       4
    0.305084745763    0.290322580645    0.000000000000       4
    0.322033898305    0.290322580645    0.000000000000       4
    0.338983050847    0.290322580645    0.000000000000       4
    0.355932203390    0.290322580645    0.000000000000       4
    0.372881355932    0.290322580645    0.000000000000       4
    0.389830508475    0.290322580645    0.000000000000       4
    0.406779661017    0.290322580645    0.000000000000       4
    0.423728813559    0.290322580645    0.000000000000       4
    0.440677966102    0.290322580645    0.000000000000       4
    0.457627118644    0.290322580645    0.000000000000       4
    0.474576271186    0.290322580645    0.000000000000       4
    0.491525423729    0.290322580645    0.000000000000       4
    0.000000000000    0.322580645161    0.000000000000       2
    0.016949152542    0.322580645161    0.000000000000       4
    0.033898305085    0.322580645161    0.000000000000       4
    0.050847457627    0.322580645161    0.000000000000       4
    0.067796610169    0.322580645161    0.000000000000       4
    0.084745762712    0.322580645161    0.000000000000       4
    0.101694915254    0.322580645161    0.000000000000       4
    0.118644067797    0.322580645161    0.000000000000       4
    0.135593220339    0.322580645161    0.000000000000       4
    0.152542372881    0.322580645161    0.000000000000       4
    0.169491525424    0.322580645161    0.000000000000       4
    0.186440677966    0.322580645161    0.000000000000       4
    0.203389830508    0.322580645161    0.000000000000       4
    0.220338983051    0.322580645161    0.000000000000       4
    0.237288135593    0.322580645161    0.000000000000       4
    0.254237288136    0.322580645161    0.000000000000       4
    0.271186440678    0.322580645161    0.000000000000       4
    0.288135593220    0.322580645161    0.000000000000       4
    0.305084745763    0.322580645161    0.000000000000       4
    0.322033898305    0.322580645161    0.000000000000       4
    0.338983050847    0.322580645161    0.000000000000       4
    0.355932203390    0.322580645161    0.000000000000       4
    0.372881355932    0.322580645161    0.000000000000       4
    0.389830508475    0.322580645161    0.000000000000       4
    0.406779661017    0.322580645161    0.000000000000       4
    0.423728813559    0.322580645161    0.000000000000       4
    0.440677966102    0.322580645161    0.000000000000       4
    0.457627118644    0.322580645161    0.000000000000       4
    0.474576271186    0.322580645161    0.000000000000       4
    0.491525423729    0.322580645161    0.000000000000       4
    0.000000000000    0.354838709677    0.000000000000       2
    0.016949152542    0.354838709677    0.000000000000       4
    0.033898305085    0.354838709677    0.000000000000       4
    0.050847457627    0.354838709677    0.000000000000       4
    0.067796610169    0.354838709677    0.000000000000       4
    0.084745762712    0.354838709677    0.000000000000       4
    0.101694915254    0.354838709677    0.000000000000       4
    0.118644067797    0.354838709677    0.000000000000       4
    0.135593220339    0.354838709677    0.000000000000       4
    0.152542372881    0.354838709677    0.000000000000       4
    0.169491525424    0.354838709677    0.000000000000       4
    0.186440677966    0.354838709677    0.000000000000       4
    0.203389830508    0.354838709677    0.000000000000       4
    0.220338983051    0.354838709677    0.000000000000       4
    0.237288135593    0.354838709677    0.000000000000       4
    0.254237288136    0.354838709677    0.000000000000       4
    0.271186440678    0.354838709677    0.000000000000       4
    0.288135593220    0.354838709677    0.000000000000       4
    0.305084745763    0.354838709677    0.000000000000       4
    0.322033898305    0.354838709677    0.000000000000       4
    0.338983050847    0.354838709677    0.000000000000       4
    0.355932203390    0.354838709677    0.000000000000       4
    0.372881355932    0.354838709677    0.000000000000       4
    0.389830508475    0.354838709677    0.000000000000       4
    0.406779661017    0.354838709677    0.000000000000       4
    0.423728813559    0.354838709677    0.000000000000       4
    0.440677966102    0.354838709677    0.000000000000       4
    0.457627118644    0.354838709677    0.000000000000       4
    0.474576271186    0.354838709677    0.000000000000       4
    0.491525423729    0.354838709677    0.000000000000       4
    0.000000000000    0.387096774194    0.000000000000       2
    0.016949152542    0.387096774194    0.000000000000       4
    0.033898305085    0.387096774194    0.000000000000       4
    0.050847457627    0.387096774194    0.000000000000       4
    0.067796610169    0.387096774194    0.000000000000       4
    0.084745762712    0.387096774194    0.000000000000       4
    0.101694915254    0.387096774194    0.000000000000       4
    0.118644067797    0.387096774194    0.000000000000       4
    0.135593220339    0.387096774194    0.000000000000       4
    0.152542372881    0.387096774194    0.000000000000       4
    0.169491525424    0.387096774194    0.000000000000       4
    0.186440677966    0.387096774194    0.000000000000       4
    0.203389830508    0.387096774194    0.000000000000       4
    0.220338983051    0.387096774194    0.000000000000       4
    0.237288135593    0.387096774194    0.000000000000       4
    0.254237288136    0.387096774194    0.000000000000       4
    0.271186440678    0.387096774194    0.000000000000       4
    0.288135593220    0.387096774194    0.000000000000       4
    0.305084745763    0.387096774194    0.000000000000       4
    0.322033898305    0.387096774194    0.000000000000       4
    0.338983050847    0.387096774194    0.000000000000       4
    0.355932203390    0.387096774194    0.000000000000       4
    0.372881355932    0.387096774194    0.000000000000       4
    0.389830508475    0.387096774194    0.000000000000       4
    0.406779661017    0.387096774194    0.000000000000       4
    0.423728813559    0.387096774194    0.000000000000       4
    0.440677966102    0.387096774194    0.000000000000       4
    0.457627118644    0.387096774194    0.000000000000       4
    0.474576271186    0.387096774194    0.000000000000       4
    0.491525423729    0.387096774194    0.000000000000       4
    0.000000000000    0.419354838710    0.000000000000       2
    0.016949152542    0.419354838710    0.000000000000       4
    0.033898305085    0.419354838710    0.000000000000       4
    0.050847457627    0.419354838710    0.000000000000       4
    0.067796610169    0.419354838710    0.000000000000       4
    0.084745762712    0.419354838710    0.000000000000       4
    0.101694915254    0.419354838710    0.000000000000       4
    0.118644067797    0.419354838710    0.000000000000       4
    0.135593220339    0.419354838710    0.000000000000       4
    0.152542372881    0.419354838710    0.000000000000       4
    0.169491525424    0.419354838710    0.000000000000       4
    0.186440677966    0.419354838710    0.000000000000       4
    0.203389830508    0.419354838710    0.000000000000       4
    0.220338983051    0.419354838710    0.000000000000       4
    0.237288135593    0.419354838710    0.000000000000       4
    0.254237288136    0.419354838710    0.000000000000       4
    0.271186440678    0.419354838710    0.000000000000       4
    0.288135593220    0.419354838710    0.000000000000       4
    0.305084745763    0.419354838710    0.000000000000       4
    0.322033898305    0.419354838710    0.000000000000       4
    0.338983050847    0.419354838710    0.000000000000       4
    0.355932203390    0.419354838710    0.000000000000       4
    0.372881355932    0.419354838710    0.000000000000       4
    0.389830508475    0.419354838710    0.000000000000       4
    0.406779661017    0.419354838710    0.000000000000       4
    0.423728813559    0.419354838710    0.000000000000       4
    0.440677966102    0.419354838710    0.000000000000       4
    0.457627118644    0.419354838710    0.000000000000       4
    0.474576271186    0.419354838710    0.000000000000       4
    0.491525423729    0.419354838710    0.000000000000       4
    0.000000000000    0.451612903226    0.000000000000       2
    0.016949152542    0.451612903226    0.000000000000       4
    0.033898305085    0.451612903226    0.000000000000       4
    0.050847457627    0.451612903226    0.000000000000       4
    0.067796610169    0.451612903226    0.000000000000       4
    0.084745762712    0.451612903226    0.000000000000       4
    0.101694915254    0.451612903226    0.000000000000       4
    0.118644067797    0.451612903226    0.000000000000       4
    0.135593220339    0.451612903226    0.000000000000       4
    0.152542372881    0.451612903226    0.000000000000       4
    0.169491525424    0.451612903226    0.000000000000       4
    0.186440677966    0.451612903226    0.000000000000       4
    0.203389830508    0.451612903226    0.000000000000       4
    0.220338983051    0.451612903226    0.000000000000       4
    0.237288135593    0.451612903226    0.000000000000       4
    0.254237288136    0.451612903226    0.000000000000       4
    0.271186440678    0.451612903226    0.000000000000       4
    0.288135593220    0.451612903226    0.000000000000       4
    0.305084745763    0.451612903226    0.000000000000       4
    0.322033898305    0.451612903226    0.000000000000       4
    0.338983050847    0.451612903226    0.000000000000       4
    0.355932203390    0.451612903226    0.000000000000       4
    0.372881355932    0.451612903226    0.000000000000       4
    0.389830508475    0.451612903226    0.000000000000       4
    0.406779661017    0.451612903226    0.000000000000       4
    0.423728813559    0.451612903226    0.000000000000       4
    0.440677966102    0.451612903226    0.000000000000       4
    0.457627118644    0.451612903226    0.000000000000       4
    0.474576271186    0.451612903226    0.000000000000       4
    0.491525423729    0.451612903226    0.000000000000       4
    0.000000000000    0.483870967742    0.000000000000       2
    0.016949152542    0.483870967742    0.000000000000       4
    0.033898305085    0.483870967742    0.000000000000       4
    0.050847457627    0.483870967742    0.000000000000       4
    0.067796610169    0.483870967742    0.000000000000       4
    0.084745762712    0.483870967742    0.000000000000       4
    0.101694915254    0.483870967742    0.000000000000       4
    0.118644067797    0.483870967742    0.000000000000       4
    0.135593220339    0.483870967742    0.000000000000       4
    0.152542372881    0.483870967742    0.000000000000       4
    0.169491525424    0.483870967742    0.000000000000       4
    0.186440677966    0.483870967742    0.000000000000       4
    0.203389830508    0.483870967742    0.000000000000       4
    0.220338983051    0.483870967742    0.000000000000       4
    0.237288135593    0.483870967742    0.000000000000       4
    0.254237288136    0.483870967742    0.000000000000       4
    0.271186440678    0.483870967742    0.000000000000       4
    0.288135593220    0.483870967742    0.000000000000       4
    0.305084745763    0.483870967742    0.000000000000       4
    0.322033898305    0.483870967742    0.000000000000       4
    0.338983050847    0.483870967742    0.000000000000       4
    0.355932203390    0.483870967742    0.000000000000       4
    0.372881355932    0.483870967742    0.000000000000       4
    0.389830508475    0.483870967742    0.000000000000       4