CONTCAR\(10)                            
   1.00000000000000     
    12.5135002136000004    0.0000000000000000    0.0000000000000000
     0.0000000000000000   15.7480001450000007    0.0000000000000000
     0.0000000000000000    0.0000000000000000   19.7180004119999985
   Nb   Fe   Te   O    H 
    16    16    32     1     1
Selective dynamics
Direct
  0.2373781265296699  0.1554269645310740  0.4938399258342372   F   F   F
  0.0104676048264096  0.4043733461312371  0.4940055307683409   F   F   F
  0.9873481757221398  0.0965621124877245  0.5095173261471118   F   F   F
  0.2612506798174863  0.3466814139414396  0.5093547587765954   F   F   F
  0.7378036339032477  0.1551461761083033  0.4936289996927528   F   F   F
  0.5119105864291171  0.4064006800387858  0.4938357978651098   F   F   F
  0.4875118821557791  0.0966487533328433  0.5094692366751516   F   F   F
  0.7634288925417323  0.3487139136699611  0.5092961792938482   F   F   F
  0.2360517120625190  0.6553217215481340  0.4942617686037494   F   F   F
  0.0114277374186855  0.9053903151675087  0.4938536329429795   F   F   F
  0.9841828393198142  0.5964533168273576  0.5111017836837703   F   F   F
  0.2614473836737332  0.8468434090639079  0.5094559804890864   F   F   F
  0.7373650480488720  0.6547799157013685  0.4924133104692814   F   F   F
  0.5113830185481092  0.9055007475133010  0.4936450915725104   F   F   F
  0.4879255745950104  0.5963060136751750  0.5092461475770662   F   F   F
  0.7613488092510039  0.8470980796193217  0.5089430696456674   F   F   F
  0.0714517277846412  0.2466951671156039  0.5398331037185287   F   F   F
  0.3212152853599051  0.0049805606162323  0.4632229676856312   F   F   F
  0.4280378085503358  0.2552536809311263  0.4634529456041534   F   F   F
  0.1774252539536363  0.9972027623314403  0.5399630329180027   F   F   F
  0.5719947559605174  0.2471364030061665  0.5402198383153944   F   F   F
  0.8213865496677215  0.0048702264648099  0.4631202386800695   F   F   F
  0.9277623417957628  0.2545759804685090  0.4629787583900509   F   F   F
  0.6775784771075095  0.9973476017318319  0.5397989442972673   F   F   F
  0.0707053069989385  0.7472965260162567  0.5399233479005048   F   F   F
  0.3201750349374848  0.5049144497769333  0.4636481611648620   F   F   F
  0.4274087069604349  0.7547767430686250  0.4630112125798433   F   F   F
  0.1771701281315714  0.4970214221878635  0.5407521778907309   F   F   F
  0.5713419727834506  0.7475106577435611  0.5394727868254776   F   F   F
  0.8183617545626163  0.5051540746236611  0.4584733710266349   F   F   F
  0.9269241231727392  0.7549349484483869  0.4631300884154257   F   F   F
  0.6808518656885312  0.4977363160812516  0.5404439906216538   F   F   F
  0.3691030848139505  0.3808093028375623  0.3844381771303560   F   F   F
  0.1262374332992451  0.0232222516857661  0.4127225759287754   F   F   F
  0.3726283790951825  0.9788420499634114  0.5904709997732240   F   F   F
  0.1195718020837333  0.3709719606305129  0.6190138527363018   F   F   F
  0.3761514276275122  0.2288784611963308  0.5904512531546047   F   F   F
  0.1225923373861804  0.2733712147232623  0.4125115783727153   F   F   F
  0.1297992860942827  0.1216290507531070  0.6191293314645705   F   F   F
  0.3798907856587093  0.1306331854995619  0.3843248545455111   F   F   F
  0.8687924283476249  0.3784224547658894  0.3830886112401473   F   F   F
  0.6261830706006037  0.0232339714107965  0.4126300676708539   F   F   F
  0.8724356467701853  0.9787772092650613  0.5905234264808854   F   F   F
  0.6179882107990196  0.3722538807215443  0.6187721088513811   F   F   F
  0.8763733676635894  0.2294006877825794  0.5902637659310841   F   F   F
  0.6229510442108861  0.2737094759852070  0.4131209656509469   F   F   F
  0.6301449125233560  0.1215471620669035  0.6190164781141618   F   F   F
  0.8801395452038605  0.1299861164093130  0.3839758165008291   F   F   F
  0.3687073398609400  0.8803779962606058  0.3841190167315247   F   F   F
  0.1245212547544838  0.5237284965580855  0.4140392551205423   F   F   F
  0.3728934080727058  0.4790196265193387  0.5906561839912285   F   F   F
  0.1189495308559856  0.8717077766289592  0.6191030187802511   F   F   F
  0.3762988711763882  0.7288063578091410  0.5902346378762218   F   F   F
  0.1223063317126005  0.7732121002080063  0.4128376219522352   F   F   F
  0.1293719938637992  0.6219297602135185  0.6195697539682641   F   F   F
  0.3784275811023363  0.6300493340949558  0.3845611397439157   F   F   F
  0.8695444069189833  0.8805937033683193  0.3839326493312996   F   F   F
  0.6243935963751568  0.5233635187453203  0.4113083952986827   F   F   F
  0.8707356058642617  0.4781553543970318  0.5875357240477115   F   F   F
  0.6191594755692051  0.8718270779177715  0.6188109741902252   F   F   F
  0.8748129738481296  0.7287709961104127  0.5901651400818722   F   F   F
  0.6224439664357533  0.7731804891693557  0.4121725717991822   F   F   F
  0.6301897951021473  0.6223714035420045  0.6184738922112984   F   F   F
  0.8808914351219741  0.6315583640021671  0.3834402058766031   F   F   F
  0.8874994762756430  0.4434950241608036  0.6904592912048386   T   T   T
  0.9202871546524065  0.4920692746277381  0.7126724449521313   T   T   T
 
  0.00000000E+00  0.00000000E+00  0.00000000E+00
  0.00000000E+00  0.00000000E+00  0.00000000E+00
  0.00000000E+00  0.00000000E+00  0.00000000E+00
  0.00000000E+00  0.00000000E+00  0.00000000E+00
  0.00000000E+00  0.00000000E+00  0.00000000E+00
  0.00000000E+00  0.00000000E+00  0.00000000E+00
  0.00000000E+00  0.00000000E+00  0.00000000E+00
  0.00000000E+00  0.00000000E+00  0.00000000E+00
  0.00000000E+00  0.00000000E+00  0.00000000E+00
  0.00000000E+00  0.00000000E+00  0.00000000E+00
  0.00000000E+00  0.00000000E+00  0.00000000E+00
  0.00000000E+00  0.00000000E+00  0.00000000E+00
  0.00000000E+00  0.00000000E+00  0.00000000E+00
  0.00000000E+00  0.00000000E+00  0.00000000E+00
  0.00000000E+00  0.00000000E+00  0.00000000E+00
  0.00000000E+00  0.00000000E+00  0.00000000E+00
  0.00000000E+00  0.00000000E+00  0.00000000E+00
  0.00000000E+00  0.00000000E+00  0.00000000E+00
  0.00000000E+00  0.00000000E+00  0.00000000E+00
  0.00000000E+00  0.00000000E+00  0.00000000E+00
  0.00000000E+00  0.00000000E+00  0.00000000E+00
  0.00000000E+00  0.00000000E+00  0.00000000E+00
  0.00000000E+00  0.00000000E+00  0.00000000E+00
  0.00000000E+00  0.00000000E+00  0.00000000E+00
  0.00000000E+00  0.00000000E+00  0.00000000E+00
  0.00000000E+00  0.00000000E+00  0.00000000E+00
  0.00000000E+00  0.00000000E+00  0.00000000E+00
  0.00000000E+00  0.00000000E+00  0.00000000E+00
  0.00000000E+00  0.00000000E+00  0.00000000E+00
  0.00000000E+00  0.00000000E+00  0.00000000E+00
  0.00000000E+00  0.00000000E+00  0.00000000E+00
  0.00000000E+00  0.00000000E+00  0.00000000E+00
  0.00000000E+00  0.00000000E+00  0.00000000E+00
  0.00000000E+00  0.00000000E+00  0.00000000E+00
  0.00000000E+00  0.00000000E+00  0.00000000E+00
  0.00000000E+00  0.00000000E+00  0.00000000E+00
  0.00000000E+00  0.00000000E+00  0.00000000E+00
  0.00000000E+00  0.00000000E+00  0.00000000E+00
  0.00000000E+00  0.00000000E+00  0.00000000E+00
  0.00000000E+00  0.00000000E+00  0.00000000E+00
  0.00000000E+00  0.00000000E+00  0.00000000E+00
  0.00000000E+00  0.00000000E+00  0.00000000E+00
  0.00000000E+00  0.00000000E+00  0.00000000E+00
  0.00000000E+00  0.00000000E+00  0.00000000E+00
  0.00000000E+00  0.00000000E+00  0.00000000E+00
  0.00000000E+00  0.00000000E+00  0.00000000E+00
  0.00000000E+00  0.00000000E+00  0.00000000E+00
  0.00000000E+00  0.00000000E+00  0.00000000E+00
  0.00000000E+00  0.00000000E+00  0.00000000E+00
  0.00000000E+00  0.00000000E+00  0.00000000E+00
  0.00000000E+00  0.00000000E+00  0.00000000E+00
  0.00000000E+00  0.00000000E+00  0.00000000E+00
  0.00000000E+00  0.00000000E+00  0.00000000E+00
  0.00000000E+00  0.00000000E+00  0.00000000E+00
  0.00000000E+00  0.00000000E+00  0.00000000E+00
  0.00000000E+00  0.00000000E+00  0.00000000E+00
  0.00000000E+00  0.00000000E+00  0.00000000E+00
  0.00000000E+00  0.00000000E+00  0.00000000E+00
  0.00000000E+00  0.00000000E+00  0.00000000E+00
  0.00000000E+00  0.00000000E+00  0.00000000E+00
  0.00000000E+00  0.00000000E+00  0.00000000E+00
  0.00000000E+00  0.00000000E+00  0.00000000E+00
  0.00000000E+00  0.00000000E+00  0.00000000E+00
  0.00000000E+00  0.00000000E+00  0.00000000E+00
  0.00000000E+00  0.00000000E+00  0.00000000E+00
  0.00000000E+00  0.00000000E+00  0.00000000E+00
