 Cr2 Ge2 Te6                            
   1.00000000000000     
     6.8521870487549732    0.0000000000000000    0.0000000000000000
     3.4260930287699849    5.9341633984970743    0.0000000000000000
     0.0000000000000000    0.0000000000000000   18.4445726473120004
   Cr   Ge   Te
     2     2     6
Direct
  0.3333333797474509  0.3333330892352464  0.4998201666425786
  0.6666666884229997  0.6666668340015747  0.5001792117684616
  0.9999991054758723  0.0000006461969804  0.4345556698624264
  0.0000008152676187  0.9999994977361411  0.5654455712964648
  0.6257374987944431  0.0004694090019157  0.5942379115400058
  0.0004696600195189  0.3737934174687894  0.5942379140688061
  0.3737939475278722  0.6257366369894513  0.5942378999420868
  0.3742764089055299  0.9995023037812771  0.4057618487523413
  0.9995022785836483  0.6262208414720831  0.4057619161110324
  0.6262202172550460  0.3742773241165480  0.4057618900158033
 
  0.00000000E+00  0.00000000E+00  0.00000000E+00
  0.00000000E+00  0.00000000E+00  0.00000000E+00
  0.00000000E+00  0.00000000E+00  0.00000000E+00
  0.00000000E+00  0.00000000E+00  0.00000000E+00
  0.00000000E+00  0.00000000E+00  0.00000000E+00
  0.00000000E+00  0.00000000E+00  0.00000000E+00
  0.00000000E+00  0.00000000E+00  0.00000000E+00
  0.00000000E+00  0.00000000E+00  0.00000000E+00
  0.00000000E+00  0.00000000E+00  0.00000000E+00
  0.00000000E+00  0.00000000E+00  0.00000000E+00
