CONTCAR                                 
   1.00000000000000     
    13.5033998488999991    0.0000000000000000    0.0000000000000000
     0.0000000000000000   19.6100006104000002    0.0000000000000000
     0.0000000000000000    0.0000000000000000   18.7679004668999987
   Nb   Se   O    H 
    32    48     1     1
Direct
  0.0624685526191151  0.4363462794555369  0.5012857909222930
  0.1845489350771290  0.0628238221784325  0.5030412097568647
  0.0619904606090544  0.2804970892841886  0.4505464564747062
  0.1869599408734116  0.2197128250237043  0.5528112663430643
  0.3131152275781219  0.4366336415516666  0.5007948611972004
  0.4365803696064204  0.0644295382913106  0.5021042344173127
  0.3117800497969291  0.2802205389195779  0.4505646174926918
  0.4367079652904980  0.2199111485361838  0.5527812929419060
  0.5607970237848882  0.4365744422512717  0.5009594275869902
  0.6894841129382937  0.0627799260940049  0.5029263007275744
  0.5624287493801150  0.2801897563362756  0.4506083317382053
  0.6871756894992705  0.2197774381073603  0.5528766475624161
  0.8113595525867346  0.4363543315288673  0.5015346549027005
  0.9370777027806068  0.0635039329295445  0.5027659310843046
  0.8122374553651864  0.2804474013825293  0.4506303710990123
  0.9369548081946224  0.2197116958746914  0.5526265400375331
  0.0620132136422061  0.9369413673667580  0.5026336396440841
  0.1881890349463353  0.5632253181353558  0.5003204004315832
  0.0619999229979040  0.7802526566763610  0.4504518505407590
  0.1858743888218371  0.7185894911104959  0.5518983654200021
  0.3012662664585929  0.9353878248754919  0.5039988205414289
  0.4371238346442650  0.5633992096019569  0.5006096844244629
  0.3119970464993366  0.7810145773646813  0.4504258815242520
  0.4368447860000403  0.7195188700725357  0.5521008308370012
  0.5727022915631202  0.9353146704558316  0.5035157849142919
  0.6855803010412418  0.5631746690326903  0.5005632085895121
  0.5618672578473940  0.7810609757429556  0.4503672857585891
  0.6879566818185801  0.7186070058551162  0.5519077392136931
  0.8119125578763940  0.9370411763300813  0.5027171341733346
  0.9367116427322978  0.5631336457427021  0.5005354010036535
  0.8117266947159962  0.7802070433513937  0.4504310496307568
  0.9367990813231158  0.7189406819918445  0.5521892870754859
  0.0613012809426007  0.0282677858813483  0.4043335432036468
  0.1875980810106090  0.4717903847873658  0.5984285572555880
  0.0615882136557819  0.1254147546260281  0.5964715515718568
  0.1872183554950564  0.3750357036060757  0.4077115589483135
  0.1869612694410737  0.1835895884186863  0.4203190691879758
  0.0619205977940396  0.3162461333445645  0.5831832802390930
  0.3109124519866290  0.0274000195855878  0.4058694483994946
  0.4369410846162023  0.4721367196575965  0.5990129157070443
  0.3116336150572660  0.1252122838208871  0.5955733908218858
  0.4370672442359377  0.3747465200270312  0.4072955087557784
  0.4371152637446513  0.1838784036796309  0.4197761577258461
  0.3119152228421156  0.3164208271315875  0.5830862711298657
  0.5630367642918931  0.0277279414914373  0.4059036837603472
  0.6860687502812743  0.4717062074136165  0.5987540935522563
  0.5622114343013382  0.1252486116380651  0.5953314855340339
  0.6870597729526514  0.3750422418584148  0.4078626280636948
  0.6873926335453937  0.1836081498279148  0.4203267767977850
  0.5619226501902862  0.3162006761316644  0.5831863131093786
  0.8126569794164301  0.0283241124658611  0.4042699867857252
  0.9370478208603441  0.4716437907694592  0.5986101228273143
  0.8122800187703036  0.1254746671699687  0.5966298956943462
  0.9369566586502024  0.3751235345990068  0.4078181699110333
  0.9372290706897405  0.1838690203433820  0.4199525967880322
  0.8121045937490244  0.3163513778697304  0.5832595498484262
  0.0620766864550145  0.5279700567543982  0.4033752581191001
  0.1831848589757702  0.9728233869769132  0.6032033869973541
  0.0619325735820995  0.6240725353548164  0.5943980572300122
  0.1862098867888015  0.8752708221690606  0.4072117126571950
  0.1871890747543828  0.6841363434822948  0.4188897389069474
  0.0615224703561811  0.8152088576992933  0.5833884187983985
  0.3124466623115126  0.5280943772226012  0.4024306538241986
  0.4365413509989856  0.9689809609860118  0.5896703901538575
  0.3121139146823775  0.6243826702407854  0.5943426283876565
  0.4369275866615755  0.8756064787987320  0.4102614443433302
  0.4369862200882237  0.6846051925049429  0.4193066033131153
  0.3103117260164696  0.8147353199947134  0.5841105146761011
  0.5615746233927708  0.5278601898598249  0.4025036208906214
  0.6904160418274188  0.9727049921136953  0.6031173003693148
  0.5617931293679819  0.6244697724022794  0.5943990609060253
  0.6878805168270122  0.8753527050926012  0.4071407326795322
  0.6865352115018010  0.6841398956753407  0.4188816697336836
  0.5633567787559614  0.8147715110233048  0.5839965315220577
  0.8115496959201040  0.5278713227373105  0.4034222622866229
  0.9371319383490855  0.9720940098768140  0.6009317827854237
  0.8118397976399183  0.6239812939244338  0.5945501665892069
  0.9368600025116064  0.8753394523321618  0.4089169926632455
  0.9368833849211525  0.6838747828740649  0.4192945126308558
  0.8122015633940398  0.8153355059102338  0.5833175317932235
  0.4299845897857983  0.9695147343148204  0.6916481157052747
  0.4940785317040651  0.9883299310822580  0.7064809624111718
 
  0.00000000E+00  0.00000000E+00  0.00000000E+00
  0.00000000E+00  0.00000000E+00  0.00000000E+00
  0.00000000E+00  0.00000000E+00  0.00000000E+00
  0.00000000E+00  0.00000000E+00  0.00000000E+00
  0.00000000E+00  0.00000000E+00  0.00000000E+00
  0.00000000E+00  0.00000000E+00  0.00000000E+00
  0.00000000E+00  0.00000000E+00  0.00000000E+00
  0.00000000E+00  0.00000000E+00  0.00000000E+00
  0.00000000E+00  0.00000000E+00  0.00000000E+00
  0.00000000E+00  0.00000000E+00  0.00000000E+00
  0.00000000E+00  0.00000000E+00  0.00000000E+00
  0.00000000E+00  0.00000000E+00  0.00000000E+00
  0.00000000E+00  0.00000000E+00  0.00000000E+00
  0.00000000E+00  0.00000000E+00  0.00000000E+00
  0.00000000E+00  0.00000000E+00  0.00000000E+00
  0.00000000E+00  0.00000000E+00  0.00000000E+00
  0.00000000E+00  0.00000000E+00  0.00000000E+00
  0.00000000E+00  0.00000000E+00  0.00000000E+00
  0.00000000E+00  0.00000000E+00  0.00000000E+00
  0.00000000E+00  0.00000000E+00  0.00000000E+00
  0.00000000E+00  0.00000000E+00  0.00000000E+00
  0.00000000E+00  0.00000000E+00  0.00000000E+00
  0.00000000E+00  0.00000000E+00  0.00000000E+00
  0.00000000E+00  0.00000000E+00  0.00000000E+00
  0.00000000E+00  0.00000000E+00  0.00000000E+00
  0.00000000E+00  0.00000000E+00  0.00000000E+00
  0.00000000E+00  0.00000000E+00  0.00000000E+00
  0.00000000E+00  0.00000000E+00  0.00000000E+00
  0.00000000E+00  0.00000000E+00  0.00000000E+00
  0.00000000E+00  0.00000000E+00  0.00000000E+00
  0.00000000E+00  0.00000000E+00  0.00000000E+00
  0.00000000E+00  0.00000000E+00  0.00000000E+00
  0.00000000E+00  0.00000000E+00  0.00000000E+00
  0.00000000E+00  0.00000000E+00  0.00000000E+00
  0.00000000E+00  0.00000000E+00  0.00000000E+00
  0.00000000E+00  0.00000000E+00  0.00000000E+00
  0.00000000E+00  0.00000000E+00  0.00000000E+00
  0.00000000E+00  0.00000000E+00  0.00000000E+00
  0.00000000E+00  0.00000000E+00  0.00000000E+00
  0.00000000E+00  0.00000000E+00  0.00000000E+00
  0.00000000E+00  0.00000000E+00  0.00000000E+00
  0.00000000E+00  0.00000000E+00  0.00000000E+00
  0.00000000E+00  0.00000000E+00  0.00000000E+00
  0.00000000E+00  0.00000000E+00  0.00000000E+00
  0.00000000E+00  0.00000000E+00  0.00000000E+00
  0.00000000E+00  0.00000000E+00  0.00000000E+00
  0.00000000E+00  0.00000000E+00  0.00000000E+00
  0.00000000E+00  0.00000000E+00  0.00000000E+00
  0.00000000E+00  0.00000000E+00  0.00000000E+00
  0.00000000E+00  0.00000000E+00  0.00000000E+00
  0.00000000E+00  0.00000000E+00  0.00000000E+00
  0.00000000E+00  0.00000000E+00  0.00000000E+00
  0.00000000E+00  0.00000000E+00  0.00000000E+00
  0.00000000E+00  0.00000000E+00  0.00000000E+00
  0.00000000E+00  0.00000000E+00  0.00000000E+00
  0.00000000E+00  0.00000000E+00  0.00000000E+00
  0.00000000E+00  0.00000000E+00  0.00000000E+00
  0.00000000E+00  0.00000000E+00  0.00000000E+00
  0.00000000E+00  0.00000000E+00  0.00000000E+00
  0.00000000E+00  0.00000000E+00  0.00000000E+00
  0.00000000E+00  0.00000000E+00  0.00000000E+00
  0.00000000E+00  0.00000000E+00  0.00000000E+00
  0.00000000E+00  0.00000000E+00  0.00000000E+00
  0.00000000E+00  0.00000000E+00  0.00000000E+00
  0.00000000E+00  0.00000000E+00  0.00000000E+00
  0.00000000E+00  0.00000000E+00  0.00000000E+00
  0.00000000E+00  0.00000000E+00  0.00000000E+00
  0.00000000E+00  0.00000000E+00  0.00000000E+00
  0.00000000E+00  0.00000000E+00  0.00000000E+00
  0.00000000E+00  0.00000000E+00  0.00000000E+00
  0.00000000E+00  0.00000000E+00  0.00000000E+00
  0.00000000E+00  0.00000000E+00  0.00000000E+00
  0.00000000E+00  0.00000000E+00  0.00000000E+00
  0.00000000E+00  0.00000000E+00  0.00000000E+00
  0.00000000E+00  0.00000000E+00  0.00000000E+00
  0.00000000E+00  0.00000000E+00  0.00000000E+00
  0.00000000E+00  0.00000000E+00  0.00000000E+00
  0.00000000E+00  0.00000000E+00  0.00000000E+00
  0.00000000E+00  0.00000000E+00  0.00000000E+00
  0.00000000E+00  0.00000000E+00  0.00000000E+00
  0.00000000E+00  0.00000000E+00  0.00000000E+00
  0.00000000E+00  0.00000000E+00  0.00000000E+00
