CONTCAR\(4)                             
   1.00000000000000     
    12.6408004761000008    0.0000000000000000    0.0000000000000000
    -6.3204002380000004   10.9472543365000003    0.0000000000000000
     0.0000000000000000    0.0000000000000000   17.9836006164999986
   V    S    O 
    16    32     1
Direct
  0.0804032327854321  0.1664104148744001  0.5023160664029875
  0.3360079059007207  0.1664004167302376  0.5022982412920880
  0.5846177505478474  0.1691119412074266  0.4999567750570617
  0.8344297377593021  0.1689986410089124  0.5000113688883633
  0.0832134364592747  0.4175817628801934  0.5034309436592878
  0.3303119342286311  0.4106147901806401  0.5176902545424552
  0.5843978811384263  0.4176132792171594  0.5033925736782513
  0.8342817527189661  0.4185393076242950  0.5002758478636089
  0.0840912157545741  0.6686668653089973  0.5001258114922190
  0.3350826903343163  0.6707158561495357  0.5013937995334409
  0.5856657493326594  0.6707214075394400  0.5014197160886331
  0.8345704189635326  0.6686443428687414  0.5001408126545547
  0.0853144597418450  0.9205839652371720  0.5003888176121510
  0.3345297057928894  0.9185198676561673  0.4987418734613430
  0.5846535481713556  0.9193265710471686  0.4986849322420434
  0.8339786793247637  0.9184848042865558  0.4987711584422204
  0.0017588770260452  0.0033669155847017  0.4173821938950499
  0.9957562473659078  0.9959398553221056  0.5835558787768346
  0.2516147308089945  0.0033351635728108  0.4173443850335886
  0.2502938684532690  0.9959838454045350  0.5835623171380125
  0.5019544750263346  0.0032774069455837  0.4163344163959661
  0.5013332359969055  0.0017606677560134  0.5818779073253123
  0.7512958232161201  0.0032243332103385  0.4163504178882091
  0.7503140650039472  0.0015937593448632  0.5819253293681264
  0.0028009946734856  0.2527577446668975  0.4184718795707114
  0.9994763438608505  0.2511781835087308  0.5850864173805831
  0.2527711936642842  0.2555480171710361  0.4249325124860428
  0.2347276452597996  0.2194258530433079  0.5926700450146787
  0.4999481644865562  0.2527967371312043  0.4184251669248413
  0.5017190753700921  0.2512549093526920  0.5850500118284815
  0.7512872086493294  0.2524889920847629  0.4171471097762452
  0.7508213066265380  0.2516653757508453  0.5830480830002654
  0.0021829085623114  0.5009345367958941  0.4181981165820385
  0.9991405350983388  0.5028154467639555  0.5841117536921492
  0.2541702062889998  0.4963669080985110  0.4262141926472618
  0.2457827943150127  0.5125698139267260  0.5865977356798295
  0.4921883167454415  0.4963898431576445  0.4262060377349210
  0.5168139822245398  0.5125711461850707  0.5865851279044361
  0.7488214761436677  0.5009525299086643  0.4181622004526919
  0.7536914806888085  0.5028052762290008  0.5840989193538629
  0.0013458202012175  0.7527129247573877  0.4175850854800497
  0.0011882085286031  0.7523156908580979  0.5827750534938942
  0.2510136994977645  0.7503798140021827  0.4170497096764762
  0.2508306607173592  0.7541677117796168  0.5829719129602073
  0.4999284014181933  0.7498354350902610  0.4173126679081074
  0.5024116213142835  0.7548377631667950  0.5834812746595026
  0.7493893605819817  0.7503782862387643  0.4170848171584162
  0.7533543090208226  0.7541331850931084  0.5830249868641024
  0.3011723012096834  0.3522216082808847  0.6277064710384044
 
  0.00000000E+00  0.00000000E+00  0.00000000E+00
  0.00000000E+00  0.00000000E+00  0.00000000E+00
  0.00000000E+00  0.00000000E+00  0.00000000E+00
  0.00000000E+00  0.00000000E+00  0.00000000E+00
  0.00000000E+00  0.00000000E+00  0.00000000E+00
  0.00000000E+00  0.00000000E+00  0.00000000E+00
  0.00000000E+00  0.00000000E+00  0.00000000E+00
  0.00000000E+00  0.00000000E+00  0.00000000E+00
  0.00000000E+00  0.00000000E+00  0.00000000E+00
  0.00000000E+00  0.00000000E+00  0.00000000E+00
  0.00000000E+00  0.00000000E+00  0.00000000E+00
  0.00000000E+00  0.00000000E+00  0.00000000E+00
  0.00000000E+00  0.00000000E+00  0.00000000E+00
  0.00000000E+00  0.00000000E+00  0.00000000E+00
  0.00000000E+00  0.00000000E+00  0.00000000E+00
  0.00000000E+00  0.00000000E+00  0.00000000E+00
  0.00000000E+00  0.00000000E+00  0.00000000E+00
  0.00000000E+00  0.00000000E+00  0.00000000E+00
  0.00000000E+00  0.00000000E+00  0.00000000E+00
  0.00000000E+00  0.00000000E+00  0.00000000E+00
  0.00000000E+00  0.00000000E+00  0.00000000E+00
  0.00000000E+00  0.00000000E+00  0.00000000E+00
  0.00000000E+00  0.00000000E+00  0.00000000E+00
  0.00000000E+00  0.00000000E+00  0.00000000E+00
  0.00000000E+00  0.00000000E+00  0.00000000E+00
  0.00000000E+00  0.00000000E+00  0.00000000E+00
  0.00000000E+00  0.00000000E+00  0.00000000E+00
  0.00000000E+00  0.00000000E+00  0.00000000E+00
  0.00000000E+00  0.00000000E+00  0.00000000E+00
  0.00000000E+00  0.00000000E+00  0.00000000E+00
  0.00000000E+00  0.00000000E+00  0.00000000E+00
  0.00000000E+00  0.00000000E+00  0.00000000E+00
  0.00000000E+00  0.00000000E+00  0.00000000E+00
  0.00000000E+00  0.00000000E+00  0.00000000E+00
  0.00000000E+00  0.00000000E+00  0.00000000E+00
  0.00000000E+00  0.00000000E+00  0.00000000E+00
  0.00000000E+00  0.00000000E+00  0.00000000E+00
  0.00000000E+00  0.00000000E+00  0.00000000E+00
  0.00000000E+00  0.00000000E+00  0.00000000E+00
  0.00000000E+00  0.00000000E+00  0.00000000E+00
  0.00000000E+00  0.00000000E+00  0.00000000E+00
  0.00000000E+00  0.00000000E+00  0.00000000E+00
  0.00000000E+00  0.00000000E+00  0.00000000E+00
  0.00000000E+00  0.00000000E+00  0.00000000E+00
  0.00000000E+00  0.00000000E+00  0.00000000E+00
  0.00000000E+00  0.00000000E+00  0.00000000E+00
  0.00000000E+00  0.00000000E+00  0.00000000E+00
  0.00000000E+00  0.00000000E+00  0.00000000E+00
  0.00000000E+00  0.00000000E+00  0.00000000E+00
