CONTCAR                                 
   1.00000000000000     
    10.1990995407000007    0.0000000000000000    0.0000000000000000
     0.0000000000000000   15.1191997528000002    0.0000000000000000
     0.0000000000000000    0.0000000000000000   19.1068992615000006
   Ta   Ni   S 
    12     6    30
Direct
  0.0000000000000000  0.3579181245408023  0.5191859117781021
  0.1666699900000026  0.1420818594591964  0.4808140882218979
  0.1666699900000026  0.8579181565408049  0.4808140882218979
  0.0000000000000000  0.6420818434591951  0.5191859117781021
  0.3333299980000035  0.3579181245408023  0.5191859117781021
  0.5000000000000000  0.1420818594591964  0.4808140882218979
  0.5000000000000000  0.8579181565408049  0.4808140882218979
  0.3333299980000035  0.6420818434591951  0.5191859117781021
  0.6666700020000036  0.3579181245408023  0.5191859117781021
  0.8333299519999997  0.1420818594591964  0.4808140882218979
  0.8333299519999997  0.8579181565408049  0.4808140882218979
  0.6666700020000036  0.6420818434591951  0.5191859117781021
  0.0000000000000000  0.0000000000000000  0.4653485193664864
  0.1666699900000026  0.5000000000000000  0.5346514806335136
  0.3333299980000035  0.0000000000000000  0.4653485193664864
  0.5000000000000000  0.5000000000000000  0.5346514806335136
  0.6666700020000036  0.0000000000000000  0.4653485193664864
  0.8333299519999997  0.5000000000000000  0.5346514806335136
  0.1666699900000026  0.0000000000000000  0.5431140323031514
  0.0000000000000000  0.5000000000000000  0.4568859676968486
  0.0000000000000000  0.1991859882638352  0.5654379696810850
  0.1666699900000026  0.3008140277361662  0.4345620303189150
  0.1666699900000026  0.6991859722638338  0.4345620303189150
  0.0000000000000000  0.8008140277361662  0.5654379696810850
  0.1666699900000026  0.6140007964422622  0.6078331354533049
  0.0000000000000000  0.8859891745577428  0.3921669145466993
  0.0000000000000000  0.1140107864422575  0.3921669145466993
  0.1666699900000026  0.3859892055577419  0.6078331354533049
  0.5000000000000000  0.0000000000000000  0.5431140323031514
  0.3333299980000035  0.5000000000000000  0.4568859676968486
  0.3333299980000035  0.1991859882638352  0.5654379696810850
  0.5000000000000000  0.3008140277361662  0.4345620303189150
  0.5000000000000000  0.6991859722638338  0.4345620303189150
  0.3333299980000035  0.8008140277361662  0.5654379696810850
  0.5000000000000000  0.6140007964422622  0.6078331354533049
  0.3333299980000035  0.8859891745577428  0.3921669145466993
  0.3333299980000035  0.1140107864422575  0.3921669145466993
  0.5000000000000000  0.3859892055577419  0.6078331354533049
  0.8333299519999997  0.0000000000000000  0.5431140323031514
  0.6666700020000036  0.5000000000000000  0.4568859676968486
  0.6666700020000036  0.1991859882638352  0.5654379696810850
  0.8333299519999997  0.3008140277361662  0.4345620303189150
  0.8333299519999997  0.6991859722638338  0.4345620303189150
  0.6666700020000036  0.8008140277361662  0.5654379696810850
  0.8333299519999997  0.6140007964422622  0.6078331354533049
  0.6666700020000036  0.8859891745577428  0.3921669145466993
  0.6666700020000036  0.1140107864422575  0.3921669145466993
  0.8333299519999997  0.3859892055577419  0.6078331354533049
 
  0.00000000E+00  0.00000000E+00  0.00000000E+00
  0.00000000E+00  0.00000000E+00  0.00000000E+00
  0.00000000E+00  0.00000000E+00  0.00000000E+00
  0.00000000E+00  0.00000000E+00  0.00000000E+00
  0.00000000E+00  0.00000000E+00  0.00000000E+00
  0.00000000E+00  0.00000000E+00  0.00000000E+00
  0.00000000E+00  0.00000000E+00  0.00000000E+00
  0.00000000E+00  0.00000000E+00  0.00000000E+00
  0.00000000E+00  0.00000000E+00  0.00000000E+00
  0.00000000E+00  0.00000000E+00  0.00000000E+00
  0.00000000E+00  0.00000000E+00  0.00000000E+00
  0.00000000E+00  0.00000000E+00  0.00000000E+00
  0.00000000E+00  0.00000000E+00  0.00000000E+00
  0.00000000E+00  0.00000000E+00  0.00000000E+00
  0.00000000E+00  0.00000000E+00  0.00000000E+00
  0.00000000E+00  0.00000000E+00  0.00000000E+00
  0.00000000E+00  0.00000000E+00  0.00000000E+00
  0.00000000E+00  0.00000000E+00  0.00000000E+00
  0.00000000E+00  0.00000000E+00  0.00000000E+00
  0.00000000E+00  0.00000000E+00  0.00000000E+00
  0.00000000E+00  0.00000000E+00  0.00000000E+00
  0.00000000E+00  0.00000000E+00  0.00000000E+00
  0.00000000E+00  0.00000000E+00  0.00000000E+00
  0.00000000E+00  0.00000000E+00  0.00000000E+00
  0.00000000E+00  0.00000000E+00  0.00000000E+00
  0.00000000E+00  0.00000000E+00  0.00000000E+00
  0.00000000E+00  0.00000000E+00  0.00000000E+00
  0.00000000E+00  0.00000000E+00  0.00000000E+00
  0.00000000E+00  0.00000000E+00  0.00000000E+00
  0.00000000E+00  0.00000000E+00  0.00000000E+00
  0.00000000E+00  0.00000000E+00  0.00000000E+00
  0.00000000E+00  0.00000000E+00  0.00000000E+00
  0.00000000E+00  0.00000000E+00  0.00000000E+00
  0.00000000E+00  0.00000000E+00  0.00000000E+00
  0.00000000E+00  0.00000000E+00  0.00000000E+00
  0.00000000E+00  0.00000000E+00  0.00000000E+00
  0.00000000E+00  0.00000000E+00  0.00000000E+00
  0.00000000E+00  0.00000000E+00  0.00000000E+00
  0.00000000E+00  0.00000000E+00  0.00000000E+00
  0.00000000E+00  0.00000000E+00  0.00000000E+00
  0.00000000E+00  0.00000000E+00  0.00000000E+00
  0.00000000E+00  0.00000000E+00  0.00000000E+00
  0.00000000E+00  0.00000000E+00  0.00000000E+00
  0.00000000E+00  0.00000000E+00  0.00000000E+00
  0.00000000E+00  0.00000000E+00  0.00000000E+00
  0.00000000E+00  0.00000000E+00  0.00000000E+00
  0.00000000E+00  0.00000000E+00  0.00000000E+00
  0.00000000E+00  0.00000000E+00  0.00000000E+00
