CONTCAR                                 
   1.00000000000000     
    14.0806999207000008    0.0000000000000000    0.0000000000000000
     0.0000000000000000   14.0806999207000008    0.0000000000000000
     0.0000000000000000    0.0000000000000000   21.7056999206999990
   Zr   Si   Se   O    H 
    32    32    32     1     1
Direct
  0.1251105531674099  0.0000110719326329  0.5997345003710066
  0.0004209396243269  0.1250451521220342  0.4000296628304412
  0.3753681869919561  0.0000080863639340  0.6000409852186834
  0.2505974169599412  0.1252099054983589  0.4005370309582474
  0.6257969818899909  0.0000000194737666  0.5996562794160312
  0.5002476894470291  0.1251773911207721  0.4004763842153096
  0.8754008863174860  0.0000075375162467  0.5994660078853187
  0.7504897877931782  0.1250440419960626  0.3999326271077095
  0.1233874376864961  0.2480224389427264  0.5996127455686917
  0.0006313403962679  0.3751756062663532  0.4005992110870622
  0.3756444565220747  0.2494765585182321  0.6011760638950605
  0.2508760162697001  0.3754298029143825  0.4021294785740110
  0.6273562969600945  0.2480428616006520  0.5995930647059495
  0.5000181870769325  0.3753968792193945  0.4020140789674969
  0.8753465471721711  0.2496081200154379  0.5997241017022859
  0.7502416891578960  0.3751973685769414  0.4005299131119173
  0.1246323477039297  0.5000299564962631  0.6011220298622746
  0.0006296360497160  0.6248541447150870  0.4005973790595192
  0.3748298786200408  0.4999914587181422  0.6129118704706826
  0.2508762036526662  0.6246041359806398  0.4021260607100388
  0.6256265862982318  0.4999961818067220  0.6012866927046261
  0.5000138346418268  0.6246184796817005  0.4020169935330316
  0.8752658573664149  0.5000077877704570  0.6000898080461141
  0.7502439524687787  0.6248208680839511  0.4005320520038040
  0.1233887498733068  0.7520015770726403  0.5996116640140770
  0.0004260366038551  0.8749847282519383  0.4000273616549634
  0.3756252358625574  0.7505153385645613  0.6011901859159892
  0.2505965599505871  0.8748228559806819  0.4005348637137871
  0.6273369967779487  0.7519432862615432  0.5996030131289558
  0.5002397417246556  0.8748339841254946  0.4004805987512086
  0.8753388720012438  0.7504119617202534  0.5997242129213589
  0.7504877113823341  0.8749701960172729  0.3999360679999953
  0.0002476842035009  0.0000105073557251  0.4997145699607515
  0.1253326416972129  0.1246884498723162  0.4998022714742163
  0.2503869139804422  0.0000232521365788  0.5001652681283844
  0.3754136151120164  0.1251672421067482  0.5004407130729973
  0.5003534219944967  0.0000014115932316  0.5001041774918136
  0.6255317172559955  0.1246563120611910  0.4997322551299135
  0.7505479436503890  0.0000050550517372  0.4995894731378954
  0.8753940279890813  0.1248283567155042  0.4996461513366341
  0.0000678762278952  0.2499267808186616  0.4998517088975944
  0.1253578635338073  0.3751451850062892  0.5008273014484175
  0.2507233333147596  0.2499028662896094  0.5008007693294942
  0.3755842307764041  0.3757291745182201  0.5029481926471533
  0.5003161287153972  0.2498216339470858  0.5007155087199351
  0.6255350342517048  0.3751415115697370  0.5007642421304439
  0.7508316632773955  0.2499115262223910  0.4997340452933940
  0.8753624081466072  0.3750629084867256  0.5001903721641199
  0.0005672079558394  0.5000116590790427  0.5005262976084879
  0.1253563163194258  0.6248796611634191  0.5008230382438015
  0.2515278954503586  0.5000151080665489  0.5032822982238088
  0.3755771289782572  0.6242857651611260  0.5029459639330867
  0.4995693948967599  0.5000048652000331  0.5029896518162928
  0.6255315401034238  0.6248678689900018  0.5007680317898959
  0.7501517736291277  0.5000063855085983  0.5005157315185613
  0.8753660611058791  0.6249556136784946  0.5001933049303062
  0.0000695975455685  0.7500940214718312  0.4998497998563138
  0.1253377041642452  0.8753373782320111  0.4998028803962029
  0.2507051545458765  0.7501314733387687  0.5008047555208606
  0.3754089870204425  0.8748520424106729  0.5004423571799563
  0.5003069174430692  0.7501870966243303  0.5007228919064701
  0.6255281394311183  0.8753457484050458  0.4997378556304710
  0.7508283815095353  0.7501013680410296  0.4997404097102063
  0.8753932440572356  0.8751881866743290  0.4996460898318560
  0.9997004960367804  0.1241917178137228  0.6544761495429725
  0.1256771859677670  0.0000177380977107  0.3460552131321037
  0.2500202702161758  0.1240192846356010  0.6543026855073677
  0.3753669501906387  0.0000176640970651  0.3462188623044469
  0.5008420434603025  0.1237718279475359  0.6541840092242239
  0.6251766145625268  0.0000092028616407  0.3459982091056659
  0.7511911381830814  0.1241586291593748  0.6544598294388280
  0.8755019257418084  0.0000081088797756  0.3454654023692285
  0.9993171735995858  0.3746042597837516  0.6542440671689391
  0.1260470169873642  0.2506216650917139  0.3465038323291338
  0.2438360241985151  0.3684147569895515  0.6539610610685571
  0.3754493418426179  0.2507210293741622  0.3468440250658702
  0.5069351753633669  0.3680705439647411  0.6537600739628999
  0.6248604502126582  0.2505740260036049  0.3464362258864426
  0.7513829606973488  0.3745833288755520  0.6542716730896174
  0.8755241445700221  0.2503904345048511  0.3459004244734345
  0.9993012594682895  0.6254363382615793  0.6542369009236282
  0.1260517380196831  0.5000294447431557  0.3470371573294457
  0.2438144087583538  0.6316135975490980  0.6539573889075712
  0.3752953354955082  0.5000072125563406  0.3476593795106808
  0.5069252590980184  0.6318854584150344  0.6537945893346659
  0.6247531653738889  0.5000079225162608  0.3468858304110469
  0.7513787592153705  0.6254235870841356  0.6542723263090053
  0.8754418689245753  0.5000102063022638  0.3463261852818462
  0.9997053359382093  0.8758396021762280  0.6544846268911186
  0.1260560171379979  0.7494259549123683  0.3464983057896660
  0.2500254528676180  0.8760198270336019  0.6543029888581700
  0.3754474181405598  0.7492984753751557  0.3468411539915337
  0.5008383625052133  0.8762216243660035  0.6541856374124393
  0.6248506649838390  0.7494421889601099  0.3464494868946701
  0.7511830560010040  0.8758446808010234  0.6544582450686107
  0.8755248935724822  0.7496297067254787  0.3459020284466163
  0.3802670031205651  0.5001627138006626  0.7076631022617832
  0.3263365278539041  0.4987610572188288  0.7355612251423267
 
  0.00000000E+00  0.00000000E+00  0.00000000E+00
  0.00000000E+00  0.00000000E+00  0.00000000E+00
  0.00000000E+00  0.00000000E+00  0.00000000E+00
  0.00000000E+00  0.00000000E+00  0.00000000E+00
  0.00000000E+00  0.00000000E+00  0.00000000E+00
  0.00000000E+00  0.00000000E+00  0.00000000E+00
  0.00000000E+00  0.00000000E+00  0.00000000E+00
  0.00000000E+00  0.00000000E+00  0.00000000E+00
  0.00000000E+00  0.00000000E+00  0.00000000E+00
  0.00000000E+00  0.00000000E+00  0.00000000E+00
  0.00000000E+00  0.00000000E+00  0.00000000E+00
  0.00000000E+00  0.00000000E+00  0.00000000E+00
  0.00000000E+00  0.00000000E+00  0.00000000E+00
  0.00000000E+00  0.00000000E+00  0.00000000E+00
  0.00000000E+00  0.00000000E+00  0.00000000E+00
  0.00000000E+00  0.00000000E+00  0.00000000E+00
  0.00000000E+00  0.00000000E+00  0.00000000E+00
  0.00000000E+00  0.00000000E+00  0.00000000E+00
  0.00000000E+00  0.00000000E+00  0.00000000E+00
  0.00000000E+00  0.00000000E+00  0.00000000E+00
  0.00000000E+00  0.00000000E+00  0.00000000E+00
  0.00000000E+00  0.00000000E+00  0.00000000E+00
  0.00000000E+00  0.00000000E+00  0.00000000E+00
  0.00000000E+00  0.00000000E+00  0.00000000E+00
  0.00000000E+00  0.00000000E+00  0.00000000E+00
  0.00000000E+00  0.00000000E+00  0.00000000E+00
  0.00000000E+00  0.00000000E+00  0.00000000E+00
  0.00000000E+00  0.00000000E+00  0.00000000E+00
  0.00000000E+00  0.00000000E+00  0.00000000E+00
  0.00000000E+00  0.00000000E+00  0.00000000E+00
  0.00000000E+00  0.00000000E+00  0.00000000E+00
  0.00000000E+00  0.00000000E+00  0.00000000E+00
  0.00000000E+00  0.00000000E+00  0.00000000E+00
  0.00000000E+00  0.00000000E+00  0.00000000E+00
  0.00000000E+00  0.00000000E+00  0.00000000E+00
  0.00000000E+00  0.00000000E+00  0.00000000E+00
  0.00000000E+00  0.00000000E+00  0.00000000E+00
  0.00000000E+00  0.00000000E+00  0.00000000E+00
  0.00000000E+00  0.00000000E+00  0.00000000E+00
  0.00000000E+00  0.00000000E+00  0.00000000E+00
  0.00000000E+00  0.00000000E+00  0.00000000E+00
  0.00000000E+00  0.00000000E+00  0.00000000E+00
  0.00000000E+00  0.00000000E+00  0.00000000E+00
  0.00000000E+00  0.00000000E+00  0.00000000E+00
  0.00000000E+00  0.00000000E+00  0.00000000E+00
  0.00000000E+00  0.00000000E+00  0.00000000E+00
  0.00000000E+00  0.00000000E+00  0.00000000E+00
  0.00000000E+00  0.00000000E+00  0.00000000E+00
  0.00000000E+00  0.00000000E+00  0.00000000E+00
  0.00000000E+00  0.00000000E+00  0.00000000E+00
  0.00000000E+00  0.00000000E+00  0.00000000E+00
  0.00000000E+00  0.00000000E+00  0.00000000E+00
  0.00000000E+00  0.00000000E+00  0.00000000E+00
  0.00000000E+00  0.00000000E+00  0.00000000E+00
  0.00000000E+00  0.00000000E+00  0.00000000E+00
  0.00000000E+00  0.00000000E+00  0.00000000E+00
  0.00000000E+00  0.00000000E+00  0.00000000E+00
  0.00000000E+00  0.00000000E+00  0.00000000E+00
  0.00000000E+00  0.00000000E+00  0.00000000E+00
  0.00000000E+00  0.00000000E+00  0.00000000E+00
  0.00000000E+00  0.00000000E+00  0.00000000E+00
  0.00000000E+00  0.00000000E+00  0.00000000E+00
  0.00000000E+00  0.00000000E+00  0.00000000E+00
  0.00000000E+00  0.00000000E+00  0.00000000E+00
  0.00000000E+00  0.00000000E+00  0.00000000E+00
  0.00000000E+00  0.00000000E+00  0.00000000E+00
  0.00000000E+00  0.00000000E+00  0.00000000E+00
  0.00000000E+00  0.00000000E+00  0.00000000E+00
  0.00000000E+00  0.00000000E+00  0.00000000E+00
  0.00000000E+00  0.00000000E+00  0.00000000E+00
  0.00000000E+00  0.00000000E+00  0.00000000E+00
  0.00000000E+00  0.00000000E+00  0.00000000E+00
  0.00000000E+00  0.00000000E+00  0.00000000E+00
  0.00000000E+00  0.00000000E+00  0.00000000E+00
  0.00000000E+00  0.00000000E+00  0.00000000E+00
  0.00000000E+00  0.00000000E+00  0.00000000E+00
  0.00000000E+00  0.00000000E+00  0.00000000E+00
  0.00000000E+00  0.00000000E+00  0.00000000E+00
  0.00000000E+00  0.00000000E+00  0.00000000E+00
  0.00000000E+00  0.00000000E+00  0.00000000E+00
  0.00000000E+00  0.00000000E+00  0.00000000E+00
  0.00000000E+00  0.00000000E+00  0.00000000E+00
  0.00000000E+00  0.00000000E+00  0.00000000E+00
  0.00000000E+00  0.00000000E+00  0.00000000E+00
  0.00000000E+00  0.00000000E+00  0.00000000E+00
  0.00000000E+00  0.00000000E+00  0.00000000E+00
  0.00000000E+00  0.00000000E+00  0.00000000E+00
  0.00000000E+00  0.00000000E+00  0.00000000E+00
  0.00000000E+00  0.00000000E+00  0.00000000E+00
  0.00000000E+00  0.00000000E+00  0.00000000E+00
  0.00000000E+00  0.00000000E+00  0.00000000E+00
  0.00000000E+00  0.00000000E+00  0.00000000E+00
  0.00000000E+00  0.00000000E+00  0.00000000E+00
  0.00000000E+00  0.00000000E+00  0.00000000E+00
  0.00000000E+00  0.00000000E+00  0.00000000E+00
  0.00000000E+00  0.00000000E+00  0.00000000E+00
  0.00000000E+00  0.00000000E+00  0.00000000E+00
  0.00000000E+00  0.00000000E+00  0.00000000E+00
