Gd2 Br2                                 
   1.00000000000000     
     3.8037584305256922   -0.0000000000000000   -0.0000000000000000
    -1.9018792152628461    3.2941514307662065    0.0000000000000000
    -0.0000000000000000    0.0000000000000000   10.0792491259900121
   Gd   Br
     2     2
Direct
  0.6666667029999971  0.3333333429999996  0.8581217331442549
  0.3333333429999996  0.6666666870000029  0.1418782558557407
  0.6666667029999971  0.3333333429999996  0.3358479443624451
  0.3333333429999996  0.6666666870000029  0.6641520556375549
 
  0.00000000E+00  0.00000000E+00  0.00000000E+00
  0.00000000E+00  0.00000000E+00  0.00000000E+00
  0.00000000E+00  0.00000000E+00  0.00000000E+00
  0.00000000E+00  0.00000000E+00  0.00000000E+00
