Layer                                   
   1.00000000000000     
     4.2196002007000004    0.0000000000000000    0.0000000000000000
    -2.1098352194999999    3.6546070191000002    0.0000000000000000
     0.0000000000000000    0.0000000000000000   37.0000000000000000
   H    O    Bi   Se
    12     8     6     6
Direct
  0.3034329365880472  0.2759915945863819  0.0792600868931192
  0.1348103081365347  0.5215004676917550  0.0609593573281150
  0.9708054940178593  0.3570177177492889  0.2154386726582000
  0.6490330123236787  0.9857746614227598  0.1624741626797502
  0.2289487817592596  0.3883544683225720  0.1786770794093620
  0.4093453723362838  0.8647001352788007  0.1257999360270754
  0.0465464031163218  0.0354851005139293  0.3041097974878993
  0.8825836409882800  0.1635835872225096  0.3362099258183568
  0.5611539837972845  0.5607839268237715  0.2667335146696644
  0.0573775316605343  0.5812208145265531  0.2642411517914275
  0.4481505252018232  0.6872090975863115  0.2997933368167384
  0.9932269912031957  0.8823801520186912  0.2320755914359841
  0.1192379742013151  0.2819932653982131  0.0636659264013685
  0.0152307464556354  0.2289744379683704  0.1938529847790871
  0.4704587609057218  0.7693770381034023  0.1465658289756749
  0.9022680583485797  0.9482607504730904  0.3264987637017306
  0.8846433927598851  0.6436259799022898  0.2460065091858809
  0.3134248305666262  0.5091016746052132  0.2804331512841329
  0.8120328222700102  0.6184657760144611  0.9616592655957535
  0.5880538307607583  0.0722946324107323  0.4283587757567917
  0.8649520138262030  0.4379092457053158  0.7154638721443081
  0.5328923573147804  0.7652708959842622  0.6666165671890421
  0.7962096877085267  0.3728092113377052  0.5574990382177514
  0.5535535312617755  0.7348863215599208  0.8251346783695920
  0.0658430673562900  0.0701128630907400  0.4536574236382995
  0.3100015627179669  0.0929741557594196  0.9317444601805731
  0.1647498352349246  0.0549275185870471  0.5981087096420730
  0.2448428975621230  0.0996808404422320  0.7825820227820400
  0.9435194093662850  0.4423314658938959  0.8785878430574836
  0.4832188327895708  0.7102793648366011  0.5096020645265646
  0.7494699826593119  0.5261474770585036  0.4032363741106009
  0.4543708835949816  0.6683856119880235  0.9809501291779352
 
 -0.15637921E-02 -0.52625315E-03 -0.47377039E-02
  0.35832108E-02 -0.25856146E-01  0.11694723E-01
 -0.76190363E-02  0.11450199E-01 -0.71018227E-02
 -0.15007154E-01 -0.30355479E-01 -0.37571780E-03
 -0.29861851E-01  0.24001362E-01 -0.17671452E-01
 -0.10959058E-01  0.33149815E-02 -0.13463271E-01
 -0.17941784E-01  0.41711061E-01  0.11827708E-01
  0.19580045E-01 -0.17699645E-01  0.17239228E-01
  0.36670293E-02 -0.22581511E-01  0.99624702E-02
 -0.39036117E-02 -0.15843540E-01 -0.21694785E-01
  0.29313309E-01 -0.19514508E-01  0.65730823E-03
  0.77200944E-02 -0.29580892E-01 -0.13737468E-01
  0.53776778E-03 -0.98755046E-03  0.52121804E-04
  0.28963035E-02 -0.37722121E-02  0.13853769E-02
 -0.46840466E-02 -0.54063632E-02 -0.36176534E-02
 -0.50558487E-02 -0.14226864E-02 -0.51124911E-03
  0.57558529E-02  0.28881530E-03  0.30953479E-03
  0.47109844E-02 -0.14234828E-02  0.98294447E-04
  0.11383352E-02  0.14473186E-02  0.35804374E-02
  0.10842996E-02  0.53236196E-03 -0.66068557E-03
 -0.32893631E-03 -0.97281442E-04  0.82002355E-03
 -0.16699559E-03  0.10878580E-04  0.12166311E-02
 -0.87806815E-03 -0.61980173E-03 -0.27375312E-03
 -0.29167639E-03  0.25506413E-03 -0.24912036E-03
 -0.41918464E-04 -0.37074965E-04 -0.65967703E-03
  0.16441509E-02  0.46834260E-03 -0.15357897E-03
 -0.47505247E-03 -0.52479228E-03 -0.71742228E-03
  0.14807144E-02 -0.12265432E-02 -0.95870729E-03
  0.11351732E-02 -0.11315100E-02  0.79833612E-03
 -0.86165425E-03  0.16265924E-02 -0.30889502E-04
 -0.15176412E-02  0.11788345E-02 -0.11131805E-02
 -0.59597807E-03  0.33389963E-02  0.38592363E-03
 
           1
   1.00000000000000     
  0.23904147E+02 -0.14696194E+00 -0.16823722E-17  0.00000000E+00
  0.30299033E+00  0.27584760E+00  0.79132041E-01
  0.13212196E+00  0.51442552E+00  0.61275431E-01
  0.97056643E+00  0.36015080E+00  0.21524673E+00
  0.64132337E+00  0.97746858E+00  0.16246401E+00
  0.22515561E+00  0.39492189E+00  0.17819947E+00
  0.40720174E+00  0.86560720E+00  0.12543606E+00
  0.48001129E-01  0.46898383E-01  0.30442947E+00
  0.88480231E+00  0.15874048E+00  0.33667585E+00
  0.55893352E+00  0.55460501E+00  0.26700277E+00
  0.54284769E-01  0.57688559E+00  0.26365481E+00
  0.45242757E+00  0.68186940E+00  0.29981110E+00
  0.99100943E+00  0.87428601E+00  0.23170431E+00
  0.11923031E+00  0.28172304E+00  0.63667335E-01
  0.15401041E-01  0.22794226E+00  0.19389043E+00
  0.46860902E+00  0.76789771E+00  0.14646805E+00
  0.90087523E+00  0.94787146E+00  0.32648495E+00
  0.88604698E+00  0.64370501E+00  0.24601487E+00
  0.31434653E+00  0.50871217E+00  0.28043581E+00
  0.81250061E+00  0.61886180E+00  0.96175603E+00
  0.58838363E+00  0.72440301E-01  0.42834092E+00
  0.86486075E+00  0.43788263E+00  0.71548603E+00
  0.53285427E+00  0.76527387E+00  0.66664945E+00
  0.79591680E+00  0.37263962E+00  0.55749164E+00
  0.55351930E+00  0.73495611E+00  0.82512795E+00
  0.65828061E-01  0.70102718E-01  0.45363959E+00
  0.31045529E+00  0.93102307E-01  0.93174031E+00
  0.16456545E+00  0.54783921E-01  0.59808932E+00
  0.24502600E+00  0.99345225E-01  0.78255611E+00
  0.94363362E+00  0.44202185E+00  0.87860942E+00
  0.48323717E+00  0.71072444E+00  0.50960123E+00
  0.74927160E+00  0.52647004E+00  0.40320629E+00
  0.45468647E+00  0.66929925E+00  0.98096056E+00
 -0.34143053E-03 -0.11820986E-02 -0.10030651E-03
 -0.33839558E-02 -0.64750144E-02  0.25298444E-03
 -0.95870747E-03  0.30142329E-02  0.31562366E-04
 -0.68755578E-02 -0.70470595E-02  0.83432060E-04
 -0.35915296E-02  0.58263491E-02 -0.51994624E-03
 -0.20237109E-02  0.57960555E-03 -0.33546435E-03
  0.12802997E-02  0.10614513E-01  0.27657818E-03
  0.17675971E-02 -0.32591642E-02  0.56095519E-03
 -0.13629587E-02 -0.58414972E-02  0.37427641E-03
 -0.38197428E-02 -0.56917397E-02 -0.45217526E-03
  0.45821821E-02 -0.52135073E-02 -0.54720449E-04
 -0.21090826E-02 -0.68891737E-02 -0.43737277E-03
  0.32871226E-04 -0.24006612E-03  0.36636558E-05
  0.23926672E-03 -0.97900418E-03  0.26462709E-04
 -0.19295723E-02 -0.15332214E-02 -0.10672779E-03
 -0.13386459E-02 -0.44626209E-03 -0.18687115E-04
  0.14039207E-02  0.90337985E-04  0.61159161E-05
  0.85848465E-03 -0.41010598E-03  0.14237431E-05
  0.37032174E-03  0.39181895E-03  0.98067812E-04
  0.27780839E-03  0.45622469E-04 -0.12544650E-04
 -0.91506134E-04 -0.26054976E-04  0.22137930E-04
 -0.38029652E-04  0.24842022E-05  0.32826409E-04
 -0.29396954E-03 -0.16980872E-03 -0.72631052E-05
 -0.35697872E-04  0.68362870E-04 -0.68828057E-05
 -0.16851372E-04 -0.97221088E-05 -0.18132156E-04
  0.45341705E-03  0.12944986E-03 -0.39158736E-05
 -0.17907439E-03 -0.14168860E-03 -0.20197093E-04
  0.18491203E-03 -0.33183003E-03 -0.26077509E-04
  0.11320833E-03 -0.31048548E-03  0.22155992E-04
  0.15746494E-04  0.44042126E-03 -0.46431213E-06
 -0.18061209E-03  0.34520761E-03 -0.30078758E-04
  0.33629711E-03  0.90977227E-03  0.94890707E-05
  0.00000000E+00  0.00000000E+00  0.00000000E+00
  0.00000000E+00  0.00000000E+00  0.00000000E+00
  0.00000000E+00  0.00000000E+00  0.00000000E+00
  0.00000000E+00  0.00000000E+00  0.00000000E+00
  0.00000000E+00  0.00000000E+00  0.00000000E+00
  0.00000000E+00  0.00000000E+00  0.00000000E+00
  0.00000000E+00  0.00000000E+00  0.00000000E+00
  0.00000000E+00  0.00000000E+00  0.00000000E+00
  0.00000000E+00  0.00000000E+00  0.00000000E+00
  0.00000000E+00  0.00000000E+00  0.00000000E+00
  0.00000000E+00  0.00000000E+00  0.00000000E+00
  0.00000000E+00  0.00000000E+00  0.00000000E+00
  0.00000000E+00  0.00000000E+00  0.00000000E+00
  0.00000000E+00  0.00000000E+00  0.00000000E+00
  0.00000000E+00  0.00000000E+00  0.00000000E+00
  0.00000000E+00  0.00000000E+00  0.00000000E+00
  0.00000000E+00  0.00000000E+00  0.00000000E+00
  0.00000000E+00  0.00000000E+00  0.00000000E+00
  0.00000000E+00  0.00000000E+00  0.00000000E+00
  0.00000000E+00  0.00000000E+00  0.00000000E+00
  0.00000000E+00  0.00000000E+00  0.00000000E+00
  0.00000000E+00  0.00000000E+00  0.00000000E+00
  0.00000000E+00  0.00000000E+00  0.00000000E+00
  0.00000000E+00  0.00000000E+00  0.00000000E+00
  0.00000000E+00  0.00000000E+00  0.00000000E+00
  0.00000000E+00  0.00000000E+00  0.00000000E+00
  0.00000000E+00  0.00000000E+00  0.00000000E+00
  0.00000000E+00  0.00000000E+00  0.00000000E+00
  0.00000000E+00  0.00000000E+00  0.00000000E+00
  0.00000000E+00  0.00000000E+00  0.00000000E+00
  0.00000000E+00  0.00000000E+00  0.00000000E+00
  0.00000000E+00  0.00000000E+00  0.00000000E+00
