CONTCAR\(10)                            
   1.00000000000000     
    11.2130002975000007    0.0000000000000000    0.0000000000000000
     0.0000000000000000   15.4723997115999996    0.0000000000000000
     0.0000000000000000    0.0000000000000000   19.4957008362000010
   Ta   Te   Pt
     6    30     6
Direct
 -0.0000000000000000  0.2500000000000000  0.5040743068954120
 -0.0000000000000000  0.7499999850000023  0.4959256931045878
  0.3333300019999967  0.2500000000000000  0.5040743068954120
  0.3333300019999967  0.7499999850000023  0.4959256931045878
  0.6666700399999996  0.2500000000000000  0.5040743068954120
  0.6666700399999996  0.7499999850000023  0.4959256931045878
  0.1666699980000033  0.2500000000000000  0.6154431691808819
  0.1666699980000033  0.7499999850000023  0.3845568308191182
 -0.0000000000000000  0.9163406137383741  0.4244864578823964
 -0.0000000000000000  0.0836593622616240  0.5755135421176035
  0.1666699980000033  0.1485713694576356  0.4267588094156928
  0.1666699980000033  0.8514386315423641  0.5732411905843072
  0.1666699980000033  0.6485713844576333  0.5732411905843072
  0.1666699980000033  0.3514386315423640  0.4267588094156928
 -0.0000000000000000  0.5836593552616269  0.4244864578823964
 -0.0000000000000000  0.4163406137383740  0.5755135421176035
  0.5000000000000000  0.2500000000000000  0.6154431691808819
  0.5000000000000000  0.7499999850000023  0.3845568308191182
  0.3333300019999967  0.9163406137383741  0.4244864578823964
  0.3333300019999967  0.0836593622616240  0.5755135421176035
  0.5000000000000000  0.1485713694576356  0.4267588094156928
  0.5000000000000000  0.8514386315423641  0.5732411905843072
  0.5000000000000000  0.6485713844576333  0.5732411905843072
  0.5000000000000000  0.3514386315423640  0.4267588094156928
  0.3333300019999967  0.5836593552616269  0.4244864578823964
  0.3333300019999967  0.4163406137383740  0.5755135421176035
  0.8333300019999967  0.2500000000000000  0.6154431691808819
  0.8333300019999967  0.7499999850000023  0.3845568308191182
  0.6666700399999996  0.9163406137383741  0.4244864578823964
  0.6666700399999996  0.0836593622616240  0.5755135421176035
  0.8333300019999967  0.1485713694576356  0.4267588094156928
  0.8333300019999967  0.8514386315423641  0.5732411905843072
  0.8333300019999967  0.6485713844576333  0.5732411905843072
  0.8333300019999967  0.3514386315423640  0.4267588094156928
  0.6666700399999996  0.5836593552616269  0.4244864578823964
  0.6666700399999996  0.4163406137383740  0.5755135421176035
  0.1666699980000033  0.0000000000000000  0.5000000000000000
  0.1666699980000033  0.5000000000000000  0.5000000000000000
  0.5000000000000000  0.0000000000000000  0.5000000000000000
  0.5000000000000000  0.5000000000000000  0.5000000000000000
  0.8333300019999967  0.0000000000000000  0.5000000000000000
  0.8333300019999967  0.5000000000000000  0.5000000000000000
 
  0.00000000E+00  0.00000000E+00  0.00000000E+00
  0.00000000E+00  0.00000000E+00  0.00000000E+00
  0.00000000E+00  0.00000000E+00  0.00000000E+00
  0.00000000E+00  0.00000000E+00  0.00000000E+00
  0.00000000E+00  0.00000000E+00  0.00000000E+00
  0.00000000E+00  0.00000000E+00  0.00000000E+00
  0.00000000E+00  0.00000000E+00  0.00000000E+00
  0.00000000E+00  0.00000000E+00  0.00000000E+00
  0.00000000E+00  0.00000000E+00  0.00000000E+00
  0.00000000E+00  0.00000000E+00  0.00000000E+00
  0.00000000E+00  0.00000000E+00  0.00000000E+00
  0.00000000E+00  0.00000000E+00  0.00000000E+00
  0.00000000E+00  0.00000000E+00  0.00000000E+00
  0.00000000E+00  0.00000000E+00  0.00000000E+00
  0.00000000E+00  0.00000000E+00  0.00000000E+00
  0.00000000E+00  0.00000000E+00  0.00000000E+00
  0.00000000E+00  0.00000000E+00  0.00000000E+00
  0.00000000E+00  0.00000000E+00  0.00000000E+00
  0.00000000E+00  0.00000000E+00  0.00000000E+00
  0.00000000E+00  0.00000000E+00  0.00000000E+00
  0.00000000E+00  0.00000000E+00  0.00000000E+00
  0.00000000E+00  0.00000000E+00  0.00000000E+00
  0.00000000E+00  0.00000000E+00  0.00000000E+00
  0.00000000E+00  0.00000000E+00  0.00000000E+00
  0.00000000E+00  0.00000000E+00  0.00000000E+00
  0.00000000E+00  0.00000000E+00  0.00000000E+00
  0.00000000E+00  0.00000000E+00  0.00000000E+00
  0.00000000E+00  0.00000000E+00  0.00000000E+00
  0.00000000E+00  0.00000000E+00  0.00000000E+00
  0.00000000E+00  0.00000000E+00  0.00000000E+00
  0.00000000E+00  0.00000000E+00  0.00000000E+00
  0.00000000E+00  0.00000000E+00  0.00000000E+00
  0.00000000E+00  0.00000000E+00  0.00000000E+00
  0.00000000E+00  0.00000000E+00  0.00000000E+00
  0.00000000E+00  0.00000000E+00  0.00000000E+00
  0.00000000E+00  0.00000000E+00  0.00000000E+00
  0.00000000E+00  0.00000000E+00  0.00000000E+00
  0.00000000E+00  0.00000000E+00  0.00000000E+00
  0.00000000E+00  0.00000000E+00  0.00000000E+00
  0.00000000E+00  0.00000000E+00  0.00000000E+00
  0.00000000E+00  0.00000000E+00  0.00000000E+00
  0.00000000E+00  0.00000000E+00  0.00000000E+00
