 V1 Ag1 P2 Se6                          
   1.00000000000000     
     6.3480973688140905    0.0000000000000000    0.0000000000000000
     3.1740486844070452    5.5083026814189360    0.0000000000000000
     0.0000000000000000    0.0000000000000000   18.4927657223940045
   V    Ag   P    Se
     1     1     2     6
Direct
  0.3277034171780357  0.3445903859667965  0.4999997341883216
  0.6660694340070066  0.6678620161154072  0.5000000273237504
  0.9976555079309222  0.0068892160353755  0.5600884354496785
  0.9954554462781644  0.0068890413175566  0.4399117159764927
  0.3102714352052516  0.6509798698649902  0.4063640605982073
  0.0387489344890497  0.6509797947600688  0.5936360652943975
  0.6403505592035472  0.3218512864014329  0.5930892015851370
  0.0377982344991921  0.3218512989795883  0.4069106192376850
  0.6390959120918396  0.0474580343384332  0.4075752654144225
  0.3134461191169891  0.0474580562203570  0.5924248749319077
 
  0.00000000E+00  0.00000000E+00  0.00000000E+00
  0.00000000E+00  0.00000000E+00  0.00000000E+00
  0.00000000E+00  0.00000000E+00  0.00000000E+00
  0.00000000E+00  0.00000000E+00  0.00000000E+00
  0.00000000E+00  0.00000000E+00  0.00000000E+00
  0.00000000E+00  0.00000000E+00  0.00000000E+00
  0.00000000E+00  0.00000000E+00  0.00000000E+00
  0.00000000E+00  0.00000000E+00  0.00000000E+00
  0.00000000E+00  0.00000000E+00  0.00000000E+00
  0.00000000E+00  0.00000000E+00  0.00000000E+00
