 Ta2 Ni2 Te10                           
   1.00000000000000     
     3.6834980485924955    0.0000000000000000    0.0000000000000000
     0.0000000000000000   15.0270055718943389    0.0000000000000000
     0.0000000000000000    0.0000000000000000   19.5721236722270007
   Ta   Ni   Te
     2     2    10
Direct
  0.0000000009184719  0.7500007601929765  0.4948408730100169
  0.0000000015648607  0.2500003928107871  0.5051619745388806
  0.4999999985516818  0.5000007576849905  0.5000033370821548
  0.4999999983346714 -0.0000019578322233  0.4999949072815922
  0.0000000010974932  0.4242088676310795  0.5718786670589096
  0.5000000012598832  0.3552172719559635  0.4282384545051583
 -0.0000000036884025  0.5757932574022320  0.4281281806738271
  0.0000000022387294  0.9242073647252614  0.4281194690278846
 -0.0000000043840808  0.0757871468448428  0.5718733128335118
  0.5000000006812619  0.7499917298643612  0.3835820771866599
  0.5000000011889056  0.8552194631836029  0.5717635250038733
  0.5000000004370981  0.2500047010765202  0.6164200815922446
  0.5000000007872285  0.1447841177657806  0.4282370233541512
  0.5000000010121998  0.6447861266938214  0.5717656580140847
 
  0.00000000E+00  0.00000000E+00  0.00000000E+00
  0.00000000E+00  0.00000000E+00  0.00000000E+00
  0.00000000E+00  0.00000000E+00  0.00000000E+00
  0.00000000E+00  0.00000000E+00  0.00000000E+00
  0.00000000E+00  0.00000000E+00  0.00000000E+00
  0.00000000E+00  0.00000000E+00  0.00000000E+00
  0.00000000E+00  0.00000000E+00  0.00000000E+00
  0.00000000E+00  0.00000000E+00  0.00000000E+00
  0.00000000E+00  0.00000000E+00  0.00000000E+00
  0.00000000E+00  0.00000000E+00  0.00000000E+00
  0.00000000E+00  0.00000000E+00  0.00000000E+00
  0.00000000E+00  0.00000000E+00  0.00000000E+00
  0.00000000E+00  0.00000000E+00  0.00000000E+00
  0.00000000E+00  0.00000000E+00  0.00000000E+00
