CONTCAR\(7)                             
   1.00000000000000     
    15.1381998061999994    0.0000000000000000    0.0000000000000000
     0.0000000000000000   18.7124004363999994    0.0000000000000000
     0.0000000000000000    0.0000000000000000   17.8572998046999984
   Cu   Te   O 
    16    16    49
Direct
  0.3461519061100944  0.2546631764832696  0.5228217806291084
  0.0991435669386576  0.4924934969269543  0.5209656535908280
  0.1549084930427824  0.2425987875497526  0.4722140414610863
  0.4047472245296007  0.0050002842348675  0.4778069755748788
  0.8464944959468426  0.2545775326349542  0.5240901000794551
  0.5973268308109354  0.4906159891613981  0.5200878614554583
  0.6562786592012273  0.2421242280866807  0.4719017635659526
  0.9044001146259575  0.0053484619428872  0.4773408089188393
  0.3432107041876122  0.7549833799675341  0.5270373343323840
  0.0953174889717872  0.9943650071918100  0.5287039370617066
  0.1530961579972825  0.7454402583899267  0.4756065219084391
  0.4061713375784350  0.4999405811934636  0.4689535974474310
  0.8468128294755388  0.7533257435694480  0.5285850735174478
  0.5956770680272214  0.9944046033378839  0.5294288506053064
  0.6545886975019641  0.7435128706906582  0.4792636701363620
  0.9055827546997435  0.5031952318765676  0.4724887904791260
  0.2766712513936866  0.1045677783864463  0.5772487444002721
  0.2253100135433357  0.3925138284588243  0.4175683325616006
  0.4758519935307604  0.3492158782333448  0.4185163231790838
  0.0271543122131845  0.1468642860655152  0.5765568516122102
  0.7768951546761684  0.1043110908223568  0.5774620705267850
  0.7259499457074270  0.3932273402866926  0.4199711632162177
  0.9750578218821531  0.3517133161545019  0.4208339994774732
  0.5271875586670447  0.1472971898286914  0.5757199672031135
  0.2786050356475300  0.6027812577337528  0.5692477625823287
  0.2230633889510329  0.8973807436394665  0.4269451116616381
  0.4732854075725896  0.8527438958475813  0.4290108278691847
  0.0275075367231423  0.6433815454240914  0.5749689736801642
  0.7762082112981048  0.6006131689906056  0.5757041021204401
  0.7229979097612542  0.8952857557557365  0.4289110672235807
  0.9722834511104566  0.8536064479562597  0.4272523956704504
  0.5239061985849389  0.6384910991341997  0.5751723630158878
  0.3049033313265070  0.0658597587093865  0.4834043394977598
  0.2617833588203169  0.2981860873307198  0.4514722673437035
  0.4007540845954551  0.1760523600933013  0.5760810886493317
  0.4896775716617512  0.0516389668148847  0.5468146959335272
  0.3514021393595499  0.4217575260601905  0.4158931245867095
  0.1505533780397883  0.0748828729842970  0.5787553623679074
  0.4466438717467227  0.3144990999782706  0.5138010020764554
  0.1970181090641887  0.4308060566091925  0.5114204912995675
  0.0119551538650668  0.4464537620901083  0.4537685566590497
  0.2394849182780945  0.1987696143442363  0.5434577557208939
  0.0553645475335998  0.1817109479684191  0.4810757322458912
  0.1006403779963208  0.3213571435002294  0.4182880017951121
  0.8050159529329548  0.0665387866968032  0.4831881985134103
  0.7631283810880092  0.2986069266794686  0.4525742504224581
  0.9008517820384441  0.1761485510398799  0.5775211419859971
  0.9893662438918653  0.0515681009290461  0.5467445226207417
  0.8511667499031290  0.4242544349023234  0.4188034944042300
  0.6506793398395629  0.0751158024359313  0.5790789653948778
  0.9463519556652003  0.3151800535982829  0.5155082565648144
  0.6969413292873341  0.4301110604358414  0.5144417107776604
  0.5131264934373903  0.4444220738028122  0.4487358128765067
  0.7398560233426892  0.1987021729962848  0.5441944488035659
  0.5563948779173984  0.1812243015237840  0.4800402801696109
  0.6018051825141626  0.3202657609688941  0.4179763462019253
  0.3071275861260503  0.5614078383251169  0.4767829654190265
  0.2593888475151829  0.8019281426549369  0.4570304727866770
  0.3951176309545943  0.6677719979381109  0.5665790423518686
  0.4911319825418232  0.5463709468845721  0.5354427512926279
  0.3498123156304871  0.9250308974130803  0.4268405737706189
  0.1544818703045863  0.5735462694552638  0.5704173584631533
  0.4432160800655183  0.8158591356823024  0.5232586656226204
  0.1944315546305333  0.9327012067551053  0.5221180045381217
  0.0100713105238626  0.9482469066733472  0.4592348379090652
  0.2368896689208881  0.6995395680033667  0.5464817729830997
  0.0540132929923089  0.6837640637710791  0.4814706215465563
  0.0989788566412102  0.8253075906442646  0.4248593008654922
  0.8060311929882502  0.5646067830276351  0.4811559225981981
  0.7606629749293887  0.8006246397171637  0.4610532409254162
  0.9010795723609135  0.6717742827332103  0.5785711387117871
  0.9925806392424548  0.5490451252215323  0.5402733117051142
  0.8493174611629044  0.9249032835802495  0.4271598610647303
  0.6489198195742247  0.5716182446545162  0.5744495804146510
  0.9451348784149758  0.8158121499088651  0.5218021495696519
  0.6951499683741531  0.9330057270583438  0.5232278529722976
  0.5105125730332887  0.9475331397281224  0.4607250195423802
  0.7403117822525047  0.6961465294271321  0.5459941774451309
  0.5548425328876689  0.6828018541851577  0.4850049636115656
  0.5996230887931588  0.8236775605169484  0.4290933065784444
  0.3130641630850377  0.5654698865918633  0.6581162916358281
 
  0.00000000E+00  0.00000000E+00  0.00000000E+00
  0.00000000E+00  0.00000000E+00  0.00000000E+00
  0.00000000E+00  0.00000000E+00  0.00000000E+00
  0.00000000E+00  0.00000000E+00  0.00000000E+00
  0.00000000E+00  0.00000000E+00  0.00000000E+00
  0.00000000E+00  0.00000000E+00  0.00000000E+00
  0.00000000E+00  0.00000000E+00  0.00000000E+00
  0.00000000E+00  0.00000000E+00  0.00000000E+00
  0.00000000E+00  0.00000000E+00  0.00000000E+00
  0.00000000E+00  0.00000000E+00  0.00000000E+00
  0.00000000E+00  0.00000000E+00  0.00000000E+00
  0.00000000E+00  0.00000000E+00  0.00000000E+00
  0.00000000E+00  0.00000000E+00  0.00000000E+00
  0.00000000E+00  0.00000000E+00  0.00000000E+00
  0.00000000E+00  0.00000000E+00  0.00000000E+00
  0.00000000E+00  0.00000000E+00  0.00000000E+00
  0.00000000E+00  0.00000000E+00  0.00000000E+00
  0.00000000E+00  0.00000000E+00  0.00000000E+00
  0.00000000E+00  0.00000000E+00  0.00000000E+00
  0.00000000E+00  0.00000000E+00  0.00000000E+00
  0.00000000E+00  0.00000000E+00  0.00000000E+00
  0.00000000E+00  0.00000000E+00  0.00000000E+00
  0.00000000E+00  0.00000000E+00  0.00000000E+00
  0.00000000E+00  0.00000000E+00  0.00000000E+00
  0.00000000E+00  0.00000000E+00  0.00000000E+00
  0.00000000E+00  0.00000000E+00  0.00000000E+00
  0.00000000E+00  0.00000000E+00  0.00000000E+00
  0.00000000E+00  0.00000000E+00  0.00000000E+00
  0.00000000E+00  0.00000000E+00  0.00000000E+00
  0.00000000E+00  0.00000000E+00  0.00000000E+00
  0.00000000E+00  0.00000000E+00  0.00000000E+00
  0.00000000E+00  0.00000000E+00  0.00000000E+00
  0.00000000E+00  0.00000000E+00  0.00000000E+00
  0.00000000E+00  0.00000000E+00  0.00000000E+00
  0.00000000E+00  0.00000000E+00  0.00000000E+00
  0.00000000E+00  0.00000000E+00  0.00000000E+00
  0.00000000E+00  0.00000000E+00  0.00000000E+00
  0.00000000E+00  0.00000000E+00  0.00000000E+00
  0.00000000E+00  0.00000000E+00  0.00000000E+00
  0.00000000E+00  0.00000000E+00  0.00000000E+00
  0.00000000E+00  0.00000000E+00  0.00000000E+00
  0.00000000E+00  0.00000000E+00  0.00000000E+00
  0.00000000E+00  0.00000000E+00  0.00000000E+00
  0.00000000E+00  0.00000000E+00  0.00000000E+00
  0.00000000E+00  0.00000000E+00  0.00000000E+00
  0.00000000E+00  0.00000000E+00  0.00000000E+00
  0.00000000E+00  0.00000000E+00  0.00000000E+00
  0.00000000E+00  0.00000000E+00  0.00000000E+00
  0.00000000E+00  0.00000000E+00  0.00000000E+00
  0.00000000E+00  0.00000000E+00  0.00000000E+00
  0.00000000E+00  0.00000000E+00  0.00000000E+00
  0.00000000E+00  0.00000000E+00  0.00000000E+00
  0.00000000E+00  0.00000000E+00  0.00000000E+00
  0.00000000E+00  0.00000000E+00  0.00000000E+00
  0.00000000E+00  0.00000000E+00  0.00000000E+00
  0.00000000E+00  0.00000000E+00  0.00000000E+00
  0.00000000E+00  0.00000000E+00  0.00000000E+00
  0.00000000E+00  0.00000000E+00  0.00000000E+00
  0.00000000E+00  0.00000000E+00  0.00000000E+00
  0.00000000E+00  0.00000000E+00  0.00000000E+00
  0.00000000E+00  0.00000000E+00  0.00000000E+00
  0.00000000E+00  0.00000000E+00  0.00000000E+00
  0.00000000E+00  0.00000000E+00  0.00000000E+00
  0.00000000E+00  0.00000000E+00  0.00000000E+00
  0.00000000E+00  0.00000000E+00  0.00000000E+00
  0.00000000E+00  0.00000000E+00  0.00000000E+00
  0.00000000E+00  0.00000000E+00  0.00000000E+00
  0.00000000E+00  0.00000000E+00  0.00000000E+00
  0.00000000E+00  0.00000000E+00  0.00000000E+00
  0.00000000E+00  0.00000000E+00  0.00000000E+00
  0.00000000E+00  0.00000000E+00  0.00000000E+00
  0.00000000E+00  0.00000000E+00  0.00000000E+00
  0.00000000E+00  0.00000000E+00  0.00000000E+00
  0.00000000E+00  0.00000000E+00  0.00000000E+00
  0.00000000E+00  0.00000000E+00  0.00000000E+00
  0.00000000E+00  0.00000000E+00  0.00000000E+00
  0.00000000E+00  0.00000000E+00  0.00000000E+00
  0.00000000E+00  0.00000000E+00  0.00000000E+00
  0.00000000E+00  0.00000000E+00  0.00000000E+00
  0.00000000E+00  0.00000000E+00  0.00000000E+00
  0.00000000E+00  0.00000000E+00  0.00000000E+00
