CONTCAR\(6)                             
   1.00000000000000     
    10.9605998993000000    0.0000000000000000    0.0000000000000000
     5.4620360536000003    9.5107522852000006    0.0000000000000000
     0.0000000000000000    0.0000000000000000   24.0680007935000013
   Cr   Ga   S    O    H 
     9    18    36     1     1
Direct
  0.3311900568138447  0.0044972016390258  0.5006097506554510
  0.6605990828776493  0.0115388917928131  0.5011932293657290
  0.9966900318991341  0.0066820970758355  0.5012341713960571
  0.3331104785013257  0.3419940559430823  0.5002685897326945
  0.6578974871816639  0.3453349503442825  0.4991860950129923
  0.9968089274689823  0.3385968427331719  0.5011239409766550
  0.3349921955696179  0.6685038923660762  0.4980580067434847
  0.6615931612390431  0.6707763558276916  0.4983971230691860
  0.0020394886817610  0.6699760452187323  0.5013043595397951
  0.1098819553119093  0.1139992027767352  0.3559745458504726
  0.2215425880424070  0.2221983233753020  0.6452724162444986
  0.4436118789640445  0.1151342874611728  0.3558492034996513
  0.5225559216175659  0.2877529796867028  0.6482513838714781
  0.7759932869911851  0.1152410177436153  0.3560496646363305
  0.8838075754190382  0.2262255923816807  0.6461817336589015
  0.1113076721927558  0.4474867060410658  0.3560565059825200
  0.2577062754507953  0.5243021146973241  0.6499211510651340
  0.4437570826908798  0.4483176737251926  0.3532171797996423
  0.5524774108181202  0.5116161705984726  0.6489265227140095
  0.7764012798027073  0.4479468771205232  0.3548130118938761
  0.8851721671120324  0.5553373824691359  0.6447456856377282
  0.1112428888079658  0.7798864331847102  0.3556039483320410
  0.2259813509379144  0.8787663709975100  0.6440815957437700
  0.4435449372956069  0.7807806244026988  0.3542497614489811
  0.5459865218692279  0.8920326388115369  0.6440612198002005
  0.7774379785244189  0.7806669853055979  0.3564780774475432
  0.8848173994356404  0.8968407276515303  0.6446698519935418
  0.1085471570786819  0.1164782786383900  0.4496685957392207
  0.2204326281649152  0.2284615338334126  0.5505068606253756
  0.1119674842814162  0.1050054487130329  0.6819860336193713
  0.2211832530222881  0.2253268108563188  0.3135540617558726
  0.4405464041445595  0.1187200740014196  0.4494192821582608
  0.5508793485469095  0.2343402425491660  0.5506485319335365
  0.4440246469809690  0.1150753279214165  0.6811483902679416
  0.5553374077539822  0.2244437939996182  0.3124236649427871
  0.7739076118044644  0.1199478358112418  0.4494946893855104
  0.8808967310387898  0.2317425898405640  0.5511307968011590
  0.7673364910333114  0.1195812251872575  0.6829953287775957
  0.8880159858575531  0.2250952486423860  0.3131505635516960
  0.1097523298554213  0.4491406029068346  0.4496173503402877
  0.2241757125674666  0.5607960916898111  0.5507999557294657
  0.1045632386688631  0.4435531503461688  0.6847889151004348
  0.2202793905988448  0.5590708213804554  0.3120985663832530
  0.4416878165848304  0.4504570575625773  0.4468033788470815
  0.5520336784777312  0.5638949396109769  0.5476410472176471
  0.4298884745721423  0.4529465457252996  0.7315244525406107
  0.5555759075098692  0.5593444009505789  0.3114015589879955
  0.7755357255517785  0.4494210955481511  0.4483436615252254
  0.8839343820940436  0.5615126683834143  0.5502942290660559
  0.7850941125542394  0.4423697576569411  0.6892239599685068
  0.8888738278646442  0.5592157550459791  0.3136157381694081
  0.1101119718428519  0.7826700484538779  0.4489640155058447
  0.2219638612284444  0.8894986428607641  0.5494378585780548
  0.1094884896834437  0.7723908090234023  0.6814335767777466
  0.2205664213527528  0.8925693972263962  0.3127592985386274
  0.4419425807775632  0.7826834810300839  0.4477184408924154
  0.5538300021115121  0.8923860853505220  0.5492752781462829
  0.4478579795989290  0.7661087233577417  0.6810018781098155
  0.5558261216299540  0.8927024911041245  0.3135887668851328
  0.7766051792008568  0.7842690871821562  0.4491954393819726
  0.8846916732823552  0.8948543314173455  0.5502004537968993
  0.7727251271943480  0.7816178442180565  0.6826740875332278
  0.8879272741235413  0.8925387856896827  0.3140990591783505
  0.4947304246015234  0.4825139921454389  0.7924813044591672
  0.4424157622469638  0.4696736337677943  0.8226920456697469
 
  0.00000000E+00  0.00000000E+00  0.00000000E+00
  0.00000000E+00  0.00000000E+00  0.00000000E+00
  0.00000000E+00  0.00000000E+00  0.00000000E+00
  0.00000000E+00  0.00000000E+00  0.00000000E+00
  0.00000000E+00  0.00000000E+00  0.00000000E+00
  0.00000000E+00  0.00000000E+00  0.00000000E+00
  0.00000000E+00  0.00000000E+00  0.00000000E+00
  0.00000000E+00  0.00000000E+00  0.00000000E+00
  0.00000000E+00  0.00000000E+00  0.00000000E+00
  0.00000000E+00  0.00000000E+00  0.00000000E+00
  0.00000000E+00  0.00000000E+00  0.00000000E+00
  0.00000000E+00  0.00000000E+00  0.00000000E+00
  0.00000000E+00  0.00000000E+00  0.00000000E+00
  0.00000000E+00  0.00000000E+00  0.00000000E+00
  0.00000000E+00  0.00000000E+00  0.00000000E+00
  0.00000000E+00  0.00000000E+00  0.00000000E+00
  0.00000000E+00  0.00000000E+00  0.00000000E+00
  0.00000000E+00  0.00000000E+00  0.00000000E+00
  0.00000000E+00  0.00000000E+00  0.00000000E+00
  0.00000000E+00  0.00000000E+00  0.00000000E+00
  0.00000000E+00  0.00000000E+00  0.00000000E+00
  0.00000000E+00  0.00000000E+00  0.00000000E+00
  0.00000000E+00  0.00000000E+00  0.00000000E+00
  0.00000000E+00  0.00000000E+00  0.00000000E+00
  0.00000000E+00  0.00000000E+00  0.00000000E+00
  0.00000000E+00  0.00000000E+00  0.00000000E+00
  0.00000000E+00  0.00000000E+00  0.00000000E+00
  0.00000000E+00  0.00000000E+00  0.00000000E+00
  0.00000000E+00  0.00000000E+00  0.00000000E+00
  0.00000000E+00  0.00000000E+00  0.00000000E+00
  0.00000000E+00  0.00000000E+00  0.00000000E+00
  0.00000000E+00  0.00000000E+00  0.00000000E+00
  0.00000000E+00  0.00000000E+00  0.00000000E+00
  0.00000000E+00  0.00000000E+00  0.00000000E+00
  0.00000000E+00  0.00000000E+00  0.00000000E+00
  0.00000000E+00  0.00000000E+00  0.00000000E+00
  0.00000000E+00  0.00000000E+00  0.00000000E+00
  0.00000000E+00  0.00000000E+00  0.00000000E+00
  0.00000000E+00  0.00000000E+00  0.00000000E+00
  0.00000000E+00  0.00000000E+00  0.00000000E+00
  0.00000000E+00  0.00000000E+00  0.00000000E+00
  0.00000000E+00  0.00000000E+00  0.00000000E+00
  0.00000000E+00  0.00000000E+00  0.00000000E+00
  0.00000000E+00  0.00000000E+00  0.00000000E+00
  0.00000000E+00  0.00000000E+00  0.00000000E+00
  0.00000000E+00  0.00000000E+00  0.00000000E+00
  0.00000000E+00  0.00000000E+00  0.00000000E+00
  0.00000000E+00  0.00000000E+00  0.00000000E+00
  0.00000000E+00  0.00000000E+00  0.00000000E+00
  0.00000000E+00  0.00000000E+00  0.00000000E+00
  0.00000000E+00  0.00000000E+00  0.00000000E+00
  0.00000000E+00  0.00000000E+00  0.00000000E+00
  0.00000000E+00  0.00000000E+00  0.00000000E+00
  0.00000000E+00  0.00000000E+00  0.00000000E+00
  0.00000000E+00  0.00000000E+00  0.00000000E+00
  0.00000000E+00  0.00000000E+00  0.00000000E+00
  0.00000000E+00  0.00000000E+00  0.00000000E+00
  0.00000000E+00  0.00000000E+00  0.00000000E+00
  0.00000000E+00  0.00000000E+00  0.00000000E+00
  0.00000000E+00  0.00000000E+00  0.00000000E+00
  0.00000000E+00  0.00000000E+00  0.00000000E+00
  0.00000000E+00  0.00000000E+00  0.00000000E+00
  0.00000000E+00  0.00000000E+00  0.00000000E+00
  0.00000000E+00  0.00000000E+00  0.00000000E+00
  0.00000000E+00  0.00000000E+00  0.00000000E+00
