CONTCAR\(3)                             
   1.00000000000000     
    14.8924999237000009    0.0000000000000000    0.0000000000000000
    -4.2028990813000000   18.5849939345999999    0.0000000000000000
     0.0000000000000000    0.0000000000000000   18.6902999877999996
   Mn   F    O 
    24    84     1
Direct
  0.0969482240994224  0.2895516725167621  0.5270628868883541
  0.2413013196970898  0.4624378716824535  0.5116683047543816
  0.0969803471290963  0.0393076029320126  0.4753810038190537
  0.2397619208308757  0.2118192489819455  0.4864919622018757
  0.4301601971831892  0.2891078719633023  0.5236104993920039
  0.5730306063109406  0.4615254486145986  0.5127671351814257
  0.4305140367723560  0.0389287736405856  0.4754957317959216
  0.5739093368072248  0.2119279559590559  0.4840979868255450
  0.7628146126381721  0.2892460552729434  0.5251692707287723
  0.9071809180446786  0.4619696193331871  0.5159207124833939
  0.7651260002496636  0.0405779809554919  0.4719848143444231
  0.9063927547282853  0.2114552991165063  0.4883259386803944
  0.0962980136516954  0.7894037028304399  0.5236256663581733
  0.2405294816049428  0.9621577584401200  0.5156131786295381
  0.0960597227426945  0.5390215922845955  0.4745701559239043
  0.2407397525501933  0.7124362169989319  0.4849033347427444
  0.4298723710437830  0.7891948137169746  0.5269843650231004
  0.5757058660933420  0.9623922398389783  0.5134244665217670
  0.4320513241703627  0.5403035039807480  0.4714582150708456
  0.5724829352587235  0.7109177271450557  0.4877355510367811
  0.7625734647820812  0.7888868865887267  0.5254483893899898
  0.9063180988078936  0.9618033809787314  0.5124500769700324
  0.7634756837088271  0.5389380265908768  0.4753679621605588
  0.9063376905611876  0.7118781649561133  0.4848604707373786
  0.0028945147100879  0.1947411294268552  0.5422216133067033
  0.1640190449652804  0.3786738856628257  0.4818005640192481
  0.1428705186420917  0.4942086192858750  0.5555178333141982
  0.3236990504333573  0.0489141827816448  0.5360983341287323
  0.0662120181102037  0.0788274074090598  0.3986810234439194
  0.0660002365096717  0.3292149279587049  0.6035644412594845
  0.1393897644678831  0.2430872963362837  0.4452916669755449
  0.2016181756555186  0.2584259949430344  0.5684215693867216
  0.2654849133527293  0.1711184118476158  0.4084730019522603
  0.2705734864253581  0.4232815820138355  0.5895263999592451
  0.0040868297720822  0.4440246878198719  0.4620090374926837
  0.2014605694621225  0.0085504249388517  0.4338755532672520
  0.1643520022515824  0.1285946502972085  0.5199116361537679
  0.3220927431427682  0.2987527221012377  0.4651384725139776
  0.3376028759303544  0.1944953389447961  0.5392504541032223
  0.4977165849989539  0.3781499933534869  0.4794316210592650
  0.4728719781062512  0.4930521356749644  0.5535138656999108
  0.6580752752882317  0.0502597081678594  0.5312987932714647
  0.3972104135120698  0.0778499661537083  0.3993953834623872
  0.3990385116030719  0.3287065742276718  0.6001161131484124
  0.4735939475412143  0.2430071231705924  0.4420204101621666
  0.5340968447571414  0.2580800902135797  0.5656945229785761
  0.6013782297039266  0.1714625248017340  0.4065276393233211
  0.5985118011257365  0.4212366225660931  0.5910146908062039
  0.3358026167370162  0.4442681811376757  0.4570311776544608
  0.5336065271506724  0.0072466066855717  0.4319364692900987
  0.4983591720250428  0.1283644877396263  0.5172443376920182
  0.6571382057233903  0.2990931566894443  0.4642983556205344
  0.6708017612644385  0.1947839777744899  0.5387382996234180
  0.8316027323059521  0.3782539951001995  0.4831415499785258
  0.8068988012051383  0.4935388518443474  0.5574260042255239
  0.9885765769325106  0.0491440584390761  0.5329975323826418
  0.7340869384808238  0.0801618011090835  0.3952937100569246
  0.7291232635787890  0.3285095834285529  0.6008961982702647
  0.8082960614473902  0.2428643416820240  0.4444963996102932
  0.8664937875895152  0.2600680339972246  0.5688317364600103
  0.9335657327043160  0.1698176122141075  0.4112725902701632
  0.9341331848423864  0.4220654581808992  0.5939890064964407
  0.6712061087348730  0.4442225396187973  0.4602133025233732
  0.8666325415066177  0.0079576434444529  0.4305241406850531
  0.8313476019988348  0.1306907478590661  0.5227619825290380
  0.9879580541114524  0.2978918528889731  0.4676534621996247
  0.0043736224011462  0.6947845859984932  0.5379678191126339
  0.1649986187830665  0.8787171760012278  0.4818835532988767
  0.1399533110011120  0.9932117666039663  0.5571357627890385
  0.3234520082171221  0.5500006667776929  0.5298753908406906
  0.0620139473806593  0.5775744992378532  0.3985012956805541
  0.0641182486257939  0.8282127584406146  0.6002274031628787
  0.1413877922690804  0.7442092193283264  0.4421308246990017
  0.1994790792510577  0.7576323656679139  0.5664381426531464
  0.2692948922640630  0.6730079513867432  0.4069950322593139
  0.2666923880465992  0.9213085699877404  0.5933708104020129
  0.0036128498465467  0.9444101542546613  0.4593838192011672
  0.1985979750579218  0.5075362794182199  0.4304892515986499
  0.1644880497262456  0.6285131284229480  0.5159878593631161
  0.3242763641709412  0.7999342673527329  0.4667436182669112
  0.3361710751726956  0.6941661828553439  0.5399903988658143
  0.4978069551186246  0.8789351712577944  0.4840244247601543
  0.4771097661670458  0.9942327522536337  0.5566257137067709
  0.6552508139017558  0.5486423862126705  0.5336370693607642
  0.4022605155851780  0.5807891707548722  0.3949732687633785
  0.3975496935227239  0.8276144757311944  0.6037616408660628
  0.4744524531669762  0.7426991939136507  0.4455587952665281
  0.5339620843452622  0.7593374643176288  0.5686943682718874
  0.5985033485565242  0.6691974862385023  0.4103733960748228
  0.6036444068918047  0.9238051222256549  0.5920524550794047
  0.3381710822709237  0.9447908230200256  0.4619720896368140
  0.5348033018564889  0.5077936600698979  0.4302180546816879
  0.4970205310862423  0.6300876246947738  0.5216155233429136
  0.6534228507581595  0.7969506308688894  0.4657965014045610
  0.6679081977865495  0.6925783156447194  0.5407157821454650
  0.8300330973510683  0.8784950581761838  0.4804922025488518
  0.8075014542836465  0.9936442090393622  0.5540385790520713
  0.9903818755433528  0.5492379077177478  0.5354478734422663
  0.7323686001835625  0.5779954790827194  0.3985141857719957
  0.7310817925661789  0.8280933081462014  0.6020989635703481
  0.8054325547527985  0.7426738615399813  0.4436700356476480
  0.8668925051841401  0.7575752735970126  0.5669156904227127
  0.9327987820719190  0.6717308847003485  0.4067585884252287
  0.9334341630250960  0.9215968928719079  0.5902960776256559
  0.6683867723469189  0.9419423562945722  0.4595694681768353
  0.8675846698488597  0.5075666395939071  0.4338576625825827
  0.8313379139753264  0.6281483116635785  0.5182037249080518
  0.9888131641857323  0.7991789371470145  0.4645051731448260
  0.4215714681793561  0.6073266262411759  0.6797827257085360
 
  0.00000000E+00  0.00000000E+00  0.00000000E+00
  0.00000000E+00  0.00000000E+00  0.00000000E+00
  0.00000000E+00  0.00000000E+00  0.00000000E+00
  0.00000000E+00  0.00000000E+00  0.00000000E+00
  0.00000000E+00  0.00000000E+00  0.00000000E+00
  0.00000000E+00  0.00000000E+00  0.00000000E+00
  0.00000000E+00  0.00000000E+00  0.00000000E+00
  0.00000000E+00  0.00000000E+00  0.00000000E+00
  0.00000000E+00  0.00000000E+00  0.00000000E+00
  0.00000000E+00  0.00000000E+00  0.00000000E+00
  0.00000000E+00  0.00000000E+00  0.00000000E+00
  0.00000000E+00  0.00000000E+00  0.00000000E+00
  0.00000000E+00  0.00000000E+00  0.00000000E+00
  0.00000000E+00  0.00000000E+00  0.00000000E+00
  0.00000000E+00  0.00000000E+00  0.00000000E+00
  0.00000000E+00  0.00000000E+00  0.00000000E+00
  0.00000000E+00  0.00000000E+00  0.00000000E+00
  0.00000000E+00  0.00000000E+00  0.00000000E+00
  0.00000000E+00  0.00000000E+00  0.00000000E+00
  0.00000000E+00  0.00000000E+00  0.00000000E+00
  0.00000000E+00  0.00000000E+00  0.00000000E+00
  0.00000000E+00  0.00000000E+00  0.00000000E+00
  0.00000000E+00  0.00000000E+00  0.00000000E+00
  0.00000000E+00  0.00000000E+00  0.00000000E+00
  0.00000000E+00  0.00000000E+00  0.00000000E+00
  0.00000000E+00  0.00000000E+00  0.00000000E+00
  0.00000000E+00  0.00000000E+00  0.00000000E+00
  0.00000000E+00  0.00000000E+00  0.00000000E+00
  0.00000000E+00  0.00000000E+00  0.00000000E+00
  0.00000000E+00  0.00000000E+00  0.00000000E+00
  0.00000000E+00  0.00000000E+00  0.00000000E+00
  0.00000000E+00  0.00000000E+00  0.00000000E+00
  0.00000000E+00  0.00000000E+00  0.00000000E+00
  0.00000000E+00  0.00000000E+00  0.00000000E+00
  0.00000000E+00  0.00000000E+00  0.00000000E+00
  0.00000000E+00  0.00000000E+00  0.00000000E+00
  0.00000000E+00  0.00000000E+00  0.00000000E+00
  0.00000000E+00  0.00000000E+00  0.00000000E+00
  0.00000000E+00  0.00000000E+00  0.00000000E+00
  0.00000000E+00  0.00000000E+00  0.00000000E+00
  0.00000000E+00  0.00000000E+00  0.00000000E+00
  0.00000000E+00  0.00000000E+00  0.00000000E+00
  0.00000000E+00  0.00000000E+00  0.00000000E+00
  0.00000000E+00  0.00000000E+00  0.00000000E+00
  0.00000000E+00  0.00000000E+00  0.00000000E+00
  0.00000000E+00  0.00000000E+00  0.00000000E+00
  0.00000000E+00  0.00000000E+00  0.00000000E+00
  0.00000000E+00  0.00000000E+00  0.00000000E+00
  0.00000000E+00  0.00000000E+00  0.00000000E+00
  0.00000000E+00  0.00000000E+00  0.00000000E+00
  0.00000000E+00  0.00000000E+00  0.00000000E+00
  0.00000000E+00  0.00000000E+00  0.00000000E+00
  0.00000000E+00  0.00000000E+00  0.00000000E+00
  0.00000000E+00  0.00000000E+00  0.00000000E+00
  0.00000000E+00  0.00000000E+00  0.00000000E+00
  0.00000000E+00  0.00000000E+00  0.00000000E+00
  0.00000000E+00  0.00000000E+00  0.00000000E+00
  0.00000000E+00  0.00000000E+00  0.00000000E+00
  0.00000000E+00  0.00000000E+00  0.00000000E+00
  0.00000000E+00  0.00000000E+00  0.00000000E+00
  0.00000000E+00  0.00000000E+00  0.00000000E+00
  0.00000000E+00  0.00000000E+00  0.00000000E+00
  0.00000000E+00  0.00000000E+00  0.00000000E+00
  0.00000000E+00  0.00000000E+00  0.00000000E+00
  0.00000000E+00  0.00000000E+00  0.00000000E+00
  0.00000000E+00  0.00000000E+00  0.00000000E+00
  0.00000000E+00  0.00000000E+00  0.00000000E+00
  0.00000000E+00  0.00000000E+00  0.00000000E+00
  0.00000000E+00  0.00000000E+00  0.00000000E+00
  0.00000000E+00  0.00000000E+00  0.00000000E+00
  0.00000000E+00  0.00000000E+00  0.00000000E+00
  0.00000000E+00  0.00000000E+00  0.00000000E+00
  0.00000000E+00  0.00000000E+00  0.00000000E+00
  0.00000000E+00  0.00000000E+00  0.00000000E+00
  0.00000000E+00  0.00000000E+00  0.00000000E+00
  0.00000000E+00  0.00000000E+00  0.00000000E+00
  0.00000000E+00  0.00000000E+00  0.00000000E+00
  0.00000000E+00  0.00000000E+00  0.00000000E+00
  0.00000000E+00  0.00000000E+00  0.00000000E+00
  0.00000000E+00  0.00000000E+00  0.00000000E+00
  0.00000000E+00  0.00000000E+00  0.00000000E+00
  0.00000000E+00  0.00000000E+00  0.00000000E+00
  0.00000000E+00  0.00000000E+00  0.00000000E+00
  0.00000000E+00  0.00000000E+00  0.00000000E+00
  0.00000000E+00  0.00000000E+00  0.00000000E+00
  0.00000000E+00  0.00000000E+00  0.00000000E+00
  0.00000000E+00  0.00000000E+00  0.00000000E+00
  0.00000000E+00  0.00000000E+00  0.00000000E+00
  0.00000000E+00  0.00000000E+00  0.00000000E+00
  0.00000000E+00  0.00000000E+00  0.00000000E+00
  0.00000000E+00  0.00000000E+00  0.00000000E+00
  0.00000000E+00  0.00000000E+00  0.00000000E+00
  0.00000000E+00  0.00000000E+00  0.00000000E+00
  0.00000000E+00  0.00000000E+00  0.00000000E+00
  0.00000000E+00  0.00000000E+00  0.00000000E+00
  0.00000000E+00  0.00000000E+00  0.00000000E+00
  0.00000000E+00  0.00000000E+00  0.00000000E+00
  0.00000000E+00  0.00000000E+00  0.00000000E+00
  0.00000000E+00  0.00000000E+00  0.00000000E+00
  0.00000000E+00  0.00000000E+00  0.00000000E+00
  0.00000000E+00  0.00000000E+00  0.00000000E+00
  0.00000000E+00  0.00000000E+00  0.00000000E+00
  0.00000000E+00  0.00000000E+00  0.00000000E+00
  0.00000000E+00  0.00000000E+00  0.00000000E+00
  0.00000000E+00  0.00000000E+00  0.00000000E+00
  0.00000000E+00  0.00000000E+00  0.00000000E+00
  0.00000000E+00  0.00000000E+00  0.00000000E+00
  0.00000000E+00  0.00000000E+00  0.00000000E+00
  0.00000000E+00  0.00000000E+00  0.00000000E+00
