CONTCAR\(3)                             
   1.00000000000000     
    14.8924999237000009    0.0000000000000000    0.0000000000000000
    -4.2028990813000000   18.5849939345999999    0.0000000000000000
     0.0000000000000000    0.0000000000000000   18.6902999877999996
   Mn   F    O 
    24    84     1
Direct
  0.0933448482985851  0.2898383881639065  0.5170445241351417
  0.2372992155983981  0.4620155483626104  0.5214021055508986
  0.0943114548106748  0.0400599563918534  0.4840256676509050
  0.2378336400115194  0.2124166395648201  0.4797027108367494
  0.4292714771092835  0.2893593474122078  0.5167288829693752
  0.5701978529748819  0.4607441575371978  0.5231706218588990
  0.4263113693654849  0.0385715785400882  0.4846644679776574
  0.5705025923509713  0.2098565129722716  0.4769803661610154
  0.7597614637775298  0.2884064437119513  0.5152302778624577
  0.9029638464201750  0.4609638875797337  0.5234478955437464
  0.7600949582017306  0.0387795903061574  0.4832114010245487
  0.9043703527444312  0.2108698786885938  0.4791661609184562
  0.0921517471683184  0.7891678217519492  0.5150641972359963
  0.2366799615519434  0.9615671627432634  0.5234073994599192
  0.0922039818408436  0.5391318211427973  0.4848545995216509
  0.2355550619461115  0.7114894877531751  0.4764915959884730
  0.4252786080510014  0.7887815482544848  0.5153300696171480
  0.5704913691774092  0.9607692586642622  0.5215259096173435
  0.4256505981879594  0.5395989191524091  0.4820680883048046
  0.5694677912465856  0.7112251997789577  0.4776352507401434
  0.7597407203490748  0.7887894563788151  0.5160950057605064
  0.9042194585765529  0.9611916150155126  0.5208140205177586
  0.7591193042520498  0.5378948728758604  0.4836647243766019
  0.9028134609845559  0.7113255245859684  0.4756121845016770
  0.0111343785696795  0.2024977794167890  0.5393803926414236
  0.1672671863564775  0.3734525058239325  0.4809453711963818
  0.1330144198695341  0.4926970131453016  0.5653564410653265
  0.3290194201418478  0.0555450143633685  0.5391166400202450
  0.0703480973593861  0.0827476473346507  0.4067786597927611
  0.0667430017623574  0.3319233472773612  0.5938895418549363
  0.1333828599571238  0.2429731993565082  0.4363802159311740
  0.1938499413624504  0.2593526125437557  0.5600377976054431
  0.2711854815238774  0.1730614317704297  0.4038661377413838
  0.2707076707695079  0.4215478999185046  0.5965330992139122
  0.0101962883377173  0.4517768570403710  0.4636784410182223
  0.1945260830505420  0.0089440228422770  0.4422456614987835
  0.1690891369017833  0.1227691561922008  0.5207862781839564
  0.3311227107054063  0.3068767683093577  0.4649242342967997
  0.3466224300426452  0.2047652613568666  0.5408986805566588
  0.5058875709312345  0.3690519867371567  0.4793460868749396
  0.4634650391143534  0.4919218792349369  0.5628288602777834
  0.6615249912089036  0.0544309278741939  0.5374563226438761
  0.3996276922843608  0.0803012058639756  0.4076043687250097
  0.4088881383830108  0.3343795023468698  0.5938983632923022
  0.4644845952022378  0.2391160896540772  0.4360849120042922
  0.5288047068921179  0.2578293028207014  0.5585572362078093
  0.6014950749756123  0.1696165008714043  0.4009560511042973
  0.6075050989516939  0.4172819487517563  0.6185485665096513
  0.3434427081234964  0.4533804727039549  0.4592470894632460
  0.5259322461933434  0.0077430929095117  0.4412047049981808
  0.5016558682734432  0.1216383123002380  0.5199033055358679
  0.6616181293816923  0.3035560509385125  0.4600992799361170
  0.6776479164432334  0.2009919008974178  0.5368078528919751
  0.8342778665436444  0.3722598561564059  0.4809147970726014
  0.7978887675091328  0.4915351949238999  0.5656404230690931
  0.9952569243561123  0.0559585352870923  0.5367088464202340
  0.7342504316098010  0.0813563675681091  0.4064484674729076
  0.7305006376626552  0.3305514292752936  0.5916200672976443
  0.8005481524260781  0.2415891485469517  0.4352180757809930
  0.8594249237946255  0.2579830325437950  0.5593408858097156
  0.9370415853339398  0.1711256972681565  0.4033524170583453
  0.9342126682037784  0.4211027018305945  0.5996877514485357
  0.6791829436791805  0.4503193088059124  0.4630104397674587
  0.8601953595610209  0.0079960114022041  0.4402141803623864
  0.8345060061449816  0.1220287066725017  0.5196866757873744
  0.9945350322134465  0.3050152812650290  0.4628679810189394
  0.0098970276804468  0.7014928401115913  0.5349553416795693
  0.1669935452645628  0.8730283287283193  0.4814023587058733
  0.1320121257899916  0.9922190682375361  0.5652219217648695
  0.3278119897941534  0.5555007360658579  0.5372764825258270
  0.0645346922255262  0.5803693063993358  0.4077422473650779
  0.0651740104436815  0.8293269400308936  0.5929654773377490
  0.1323884667109624  0.7432709030302325  0.4336087301375228
  0.1920608349720162  0.7582169346019202  0.5575482108073723
  0.2667812494856099  0.6717908312060568  0.4001827979945689
  0.2679449580727732  0.9217049862545533  0.5996573059651391
  0.0119961190884200  0.9533993785049667  0.4609580097307591
  0.1920101054295303  0.5089388031671527  0.4413573861249742
  0.1665603279952076  0.6229403927826466  0.5190833047520728
  0.3276581917944765  0.8054556091015233  0.4611367848622150
  0.3423484696196666  0.7017723555824874  0.5362982953290388
  0.5004703527395045  0.8722313740585265  0.4804967232094646
  0.4663483983539549  0.9911714347922163  0.5650428498447108
  0.6637353511006235  0.5560985586826110  0.5376811760101398
  0.3971352355807510  0.5837036025087585  0.4070407766402973
  0.3985783995815786  0.8301868980492493  0.5926023967877682
  0.4653571995194413  0.7422272809501773  0.4344639714432906
  0.5248617811627648  0.7576145897365714  0.5583929350939120
  0.6027616382274463  0.6720474227444971  0.4017027875098595
  0.6032203458095495  0.9207559045846945  0.5971569612013826
  0.3433552524955539  0.9517195567286344  0.4634662302796175
  0.5219740590860230  0.5110106825132398  0.4377408682067964
  0.5002992506050360  0.6220703506920807  0.5190088153365853
  0.6610948798595466  0.8054654631060965  0.4631362049804469
  0.6768811695731528  0.7023493076009282  0.5382423590258966
  0.8348027385874937  0.8717503174350113  0.4800413551445645
  0.7994954534345252  0.9911236370377716  0.5637234555578631
  0.9944115756731662  0.5550068354468951  0.5394022327019420
  0.7323213769431833  0.5782413430109614  0.4058608096541874
  0.7354169600357200  0.8309252762188503  0.5935630557096893
  0.7976209725264859  0.7414108111126440  0.4344770387835642
  0.8597458956166880  0.7569839589800011  0.5575590523123146
  0.9347400243018422  0.6729400202785194  0.3986672299303990
  0.9369933480647559  0.9218453929776783  0.5968535157126558
  0.6771346385851522  0.9519953343139175  0.4608834589772467
  0.8596122721694306  0.5077510578922851  0.4421427950764546
  0.8345164922763332  0.6213202668528847  0.5167258975985569
  0.9947718866031950  0.8062882551043511  0.4613034470848809
  0.6047653390166742  0.4647400063136444  0.6774372425219278
 
  0.00000000E+00  0.00000000E+00  0.00000000E+00
  0.00000000E+00  0.00000000E+00  0.00000000E+00
  0.00000000E+00  0.00000000E+00  0.00000000E+00
  0.00000000E+00  0.00000000E+00  0.00000000E+00
  0.00000000E+00  0.00000000E+00  0.00000000E+00
  0.00000000E+00  0.00000000E+00  0.00000000E+00
  0.00000000E+00  0.00000000E+00  0.00000000E+00
  0.00000000E+00  0.00000000E+00  0.00000000E+00
  0.00000000E+00  0.00000000E+00  0.00000000E+00
  0.00000000E+00  0.00000000E+00  0.00000000E+00
  0.00000000E+00  0.00000000E+00  0.00000000E+00
  0.00000000E+00  0.00000000E+00  0.00000000E+00
  0.00000000E+00  0.00000000E+00  0.00000000E+00
  0.00000000E+00  0.00000000E+00  0.00000000E+00
  0.00000000E+00  0.00000000E+00  0.00000000E+00
  0.00000000E+00  0.00000000E+00  0.00000000E+00
  0.00000000E+00  0.00000000E+00  0.00000000E+00
  0.00000000E+00  0.00000000E+00  0.00000000E+00
  0.00000000E+00  0.00000000E+00  0.00000000E+00
  0.00000000E+00  0.00000000E+00  0.00000000E+00
  0.00000000E+00  0.00000000E+00  0.00000000E+00
  0.00000000E+00  0.00000000E+00  0.00000000E+00
  0.00000000E+00  0.00000000E+00  0.00000000E+00
  0.00000000E+00  0.00000000E+00  0.00000000E+00
  0.00000000E+00  0.00000000E+00  0.00000000E+00
  0.00000000E+00  0.00000000E+00  0.00000000E+00
  0.00000000E+00  0.00000000E+00  0.00000000E+00
  0.00000000E+00  0.00000000E+00  0.00000000E+00
  0.00000000E+00  0.00000000E+00  0.00000000E+00
  0.00000000E+00  0.00000000E+00  0.00000000E+00
  0.00000000E+00  0.00000000E+00  0.00000000E+00
  0.00000000E+00  0.00000000E+00  0.00000000E+00
  0.00000000E+00  0.00000000E+00  0.00000000E+00
  0.00000000E+00  0.00000000E+00  0.00000000E+00
  0.00000000E+00  0.00000000E+00  0.00000000E+00
  0.00000000E+00  0.00000000E+00  0.00000000E+00
  0.00000000E+00  0.00000000E+00  0.00000000E+00
  0.00000000E+00  0.00000000E+00  0.00000000E+00
  0.00000000E+00  0.00000000E+00  0.00000000E+00
  0.00000000E+00  0.00000000E+00  0.00000000E+00
  0.00000000E+00  0.00000000E+00  0.00000000E+00
  0.00000000E+00  0.00000000E+00  0.00000000E+00
  0.00000000E+00  0.00000000E+00  0.00000000E+00
  0.00000000E+00  0.00000000E+00  0.00000000E+00
  0.00000000E+00  0.00000000E+00  0.00000000E+00
  0.00000000E+00  0.00000000E+00  0.00000000E+00
  0.00000000E+00  0.00000000E+00  0.00000000E+00
  0.00000000E+00  0.00000000E+00  0.00000000E+00
  0.00000000E+00  0.00000000E+00  0.00000000E+00
  0.00000000E+00  0.00000000E+00  0.00000000E+00
  0.00000000E+00  0.00000000E+00  0.00000000E+00
  0.00000000E+00  0.00000000E+00  0.00000000E+00
  0.00000000E+00  0.00000000E+00  0.00000000E+00
  0.00000000E+00  0.00000000E+00  0.00000000E+00
  0.00000000E+00  0.00000000E+00  0.00000000E+00
  0.00000000E+00  0.00000000E+00  0.00000000E+00
  0.00000000E+00  0.00000000E+00  0.00000000E+00
  0.00000000E+00  0.00000000E+00  0.00000000E+00
  0.00000000E+00  0.00000000E+00  0.00000000E+00
  0.00000000E+00  0.00000000E+00  0.00000000E+00
  0.00000000E+00  0.00000000E+00  0.00000000E+00
  0.00000000E+00  0.00000000E+00  0.00000000E+00
  0.00000000E+00  0.00000000E+00  0.00000000E+00
  0.00000000E+00  0.00000000E+00  0.00000000E+00
  0.00000000E+00  0.00000000E+00  0.00000000E+00
  0.00000000E+00  0.00000000E+00  0.00000000E+00
  0.00000000E+00  0.00000000E+00  0.00000000E+00
  0.00000000E+00  0.00000000E+00  0.00000000E+00
  0.00000000E+00  0.00000000E+00  0.00000000E+00
  0.00000000E+00  0.00000000E+00  0.00000000E+00
  0.00000000E+00  0.00000000E+00  0.00000000E+00
  0.00000000E+00  0.00000000E+00  0.00000000E+00
  0.00000000E+00  0.00000000E+00  0.00000000E+00
  0.00000000E+00  0.00000000E+00  0.00000000E+00
  0.00000000E+00  0.00000000E+00  0.00000000E+00
  0.00000000E+00  0.00000000E+00  0.00000000E+00
  0.00000000E+00  0.00000000E+00  0.00000000E+00
  0.00000000E+00  0.00000000E+00  0.00000000E+00
  0.00000000E+00  0.00000000E+00  0.00000000E+00
  0.00000000E+00  0.00000000E+00  0.00000000E+00
  0.00000000E+00  0.00000000E+00  0.00000000E+00
  0.00000000E+00  0.00000000E+00  0.00000000E+00
  0.00000000E+00  0.00000000E+00  0.00000000E+00
  0.00000000E+00  0.00000000E+00  0.00000000E+00
  0.00000000E+00  0.00000000E+00  0.00000000E+00
  0.00000000E+00  0.00000000E+00  0.00000000E+00
  0.00000000E+00  0.00000000E+00  0.00000000E+00
  0.00000000E+00  0.00000000E+00  0.00000000E+00
  0.00000000E+00  0.00000000E+00  0.00000000E+00
  0.00000000E+00  0.00000000E+00  0.00000000E+00
  0.00000000E+00  0.00000000E+00  0.00000000E+00
  0.00000000E+00  0.00000000E+00  0.00000000E+00
  0.00000000E+00  0.00000000E+00  0.00000000E+00
  0.00000000E+00  0.00000000E+00  0.00000000E+00
  0.00000000E+00  0.00000000E+00  0.00000000E+00
  0.00000000E+00  0.00000000E+00  0.00000000E+00
  0.00000000E+00  0.00000000E+00  0.00000000E+00
  0.00000000E+00  0.00000000E+00  0.00000000E+00
  0.00000000E+00  0.00000000E+00  0.00000000E+00
  0.00000000E+00  0.00000000E+00  0.00000000E+00
  0.00000000E+00  0.00000000E+00  0.00000000E+00
  0.00000000E+00  0.00000000E+00  0.00000000E+00
  0.00000000E+00  0.00000000E+00  0.00000000E+00
  0.00000000E+00  0.00000000E+00  0.00000000E+00
  0.00000000E+00  0.00000000E+00  0.00000000E+00
  0.00000000E+00  0.00000000E+00  0.00000000E+00
  0.00000000E+00  0.00000000E+00  0.00000000E+00
  0.00000000E+00  0.00000000E+00  0.00000000E+00
  0.00000000E+00  0.00000000E+00  0.00000000E+00
