CONTCAR\(5)                             
   1.00000000000000     
    11.1906995773000002    0.0000000000000000    0.0000000000000000
     0.0000000000000000   11.1906995773000002    0.0000000000000000
     0.0000000000000000    0.0000000000000000   22.0060005188000005
   Zr   Ge   Te
    18    18    18
Direct
  0.1666699900000026  0.0000000000000000  0.4017019474123902
 -0.0000000000000000  0.1666699900000026  0.5982980525876097
  0.5000000000000000 -0.0000000000000000  0.4017019474123902
  0.3333300099999974  0.1666699900000026  0.5982980525876097
  0.8333299669999974 -0.0000000000000000  0.4017019474123902
  0.6666700330000026  0.1666699900000026  0.5982980525876097
  0.1666699900000026  0.3333300099999974  0.4017019474123902
  0.0000000000000000  0.5000000000000000  0.5982980525876097
  0.5000000000000000  0.3333300099999974  0.4017019474123902
  0.3333300099999974  0.5000000000000000  0.5982980525876097
  0.8333299669999974  0.3333300099999974  0.4017019474123902
  0.6666700330000026  0.5000000000000000  0.5982980525876097
  0.1666699900000026  0.6666700330000026  0.4017019474123902
  0.0000000000000000  0.8333299669999974  0.5982980525876097
  0.5000000000000000  0.6666700330000026  0.4017019474123902
  0.3333300099999974  0.8333299669999974  0.5982980525876097
  0.8333299669999974  0.6666700330000026  0.4017019474123902
  0.6666700330000026  0.8333299669999974  0.5982980525876097
  0.1666699900000026  0.1666699900000026  0.5000000000000000
  0.0000000000000000  0.0000000000000000  0.5000000000000000
  0.5000000000000000  0.1666699900000026  0.5000000000000000
  0.3333300099999974  0.0000000000000000  0.5000000000000000
  0.8333299669999974  0.1666699900000026  0.5000000000000000
  0.6666700330000026 -0.0000000000000000  0.5000000000000000
  0.1666699900000026  0.5000000000000000  0.5000000000000000
  0.0000000000000000  0.3333300099999974  0.5000000000000000
  0.5000000000000000  0.5000000000000000  0.5000000000000000
  0.3333300099999974  0.3333300099999974  0.5000000000000000
  0.8333299669999974  0.5000000000000000  0.5000000000000000
  0.6666700330000026  0.3333300099999974  0.5000000000000000
  0.1666699900000026  0.8333299669999974  0.5000000000000000
  0.0000000000000000  0.6666700330000026  0.5000000000000000
  0.5000000000000000  0.8333299669999974  0.5000000000000000
  0.3333300099999974  0.6666700330000026  0.5000000000000000
  0.8333299669999974  0.8333299669999974  0.5000000000000000
  0.6666700330000026  0.6666700330000026  0.5000000000000000
  0.1666699900000026  0.0000000000000000  0.6596045076622432
  0.0000000000000000  0.1666699900000026  0.3403955133377550
  0.5000000000000000  0.0000000000000000  0.6596045076622432
  0.3333300099999974  0.1666699900000026  0.3403955133377550
  0.8333299669999974 -0.0000000000000000  0.6596045076622432
  0.6666700330000026  0.1666699900000026  0.3403955133377550
  0.1666699900000026  0.3333300099999974  0.6596045076622432
  0.0000000000000000  0.5000000000000000  0.3403955133377550
  0.5000000000000000  0.3333300099999974  0.6596045076622432
  0.3333300099999974  0.5000000000000000  0.3403955133377550
  0.8333299669999974  0.3333300099999974  0.6596045076622432
  0.6666700330000026  0.5000000000000000  0.3403955133377550
  0.1666699900000026  0.6666700330000026  0.6596045076622432
  0.0000000000000000  0.8333299669999974  0.3403955133377550
  0.5000000000000000  0.6666700330000026  0.6596045076622432
  0.3333300099999974  0.8333299669999974  0.3403955133377550
  0.8333299669999974  0.6666700330000026  0.6596045076622432
  0.6666700330000026  0.8333299669999974  0.3403955133377550
 
  0.00000000E+00  0.00000000E+00  0.00000000E+00
  0.00000000E+00  0.00000000E+00  0.00000000E+00
  0.00000000E+00  0.00000000E+00  0.00000000E+00
  0.00000000E+00  0.00000000E+00  0.00000000E+00
  0.00000000E+00  0.00000000E+00  0.00000000E+00
  0.00000000E+00  0.00000000E+00  0.00000000E+00
  0.00000000E+00  0.00000000E+00  0.00000000E+00
  0.00000000E+00  0.00000000E+00  0.00000000E+00
  0.00000000E+00  0.00000000E+00  0.00000000E+00
  0.00000000E+00  0.00000000E+00  0.00000000E+00
  0.00000000E+00  0.00000000E+00  0.00000000E+00
  0.00000000E+00  0.00000000E+00  0.00000000E+00
  0.00000000E+00  0.00000000E+00  0.00000000E+00
  0.00000000E+00  0.00000000E+00  0.00000000E+00
  0.00000000E+00  0.00000000E+00  0.00000000E+00
  0.00000000E+00  0.00000000E+00  0.00000000E+00
  0.00000000E+00  0.00000000E+00  0.00000000E+00
  0.00000000E+00  0.00000000E+00  0.00000000E+00
  0.00000000E+00  0.00000000E+00  0.00000000E+00
  0.00000000E+00  0.00000000E+00  0.00000000E+00
  0.00000000E+00  0.00000000E+00  0.00000000E+00
  0.00000000E+00  0.00000000E+00  0.00000000E+00
  0.00000000E+00  0.00000000E+00  0.00000000E+00
  0.00000000E+00  0.00000000E+00  0.00000000E+00
  0.00000000E+00  0.00000000E+00  0.00000000E+00
  0.00000000E+00  0.00000000E+00  0.00000000E+00
  0.00000000E+00  0.00000000E+00  0.00000000E+00
  0.00000000E+00  0.00000000E+00  0.00000000E+00
  0.00000000E+00  0.00000000E+00  0.00000000E+00
  0.00000000E+00  0.00000000E+00  0.00000000E+00
  0.00000000E+00  0.00000000E+00  0.00000000E+00
  0.00000000E+00  0.00000000E+00  0.00000000E+00
  0.00000000E+00  0.00000000E+00  0.00000000E+00
  0.00000000E+00  0.00000000E+00  0.00000000E+00
  0.00000000E+00  0.00000000E+00  0.00000000E+00
  0.00000000E+00  0.00000000E+00  0.00000000E+00
  0.00000000E+00  0.00000000E+00  0.00000000E+00
  0.00000000E+00  0.00000000E+00  0.00000000E+00
  0.00000000E+00  0.00000000E+00  0.00000000E+00
  0.00000000E+00  0.00000000E+00  0.00000000E+00
  0.00000000E+00  0.00000000E+00  0.00000000E+00
  0.00000000E+00  0.00000000E+00  0.00000000E+00
  0.00000000E+00  0.00000000E+00  0.00000000E+00
  0.00000000E+00  0.00000000E+00  0.00000000E+00
  0.00000000E+00  0.00000000E+00  0.00000000E+00
  0.00000000E+00  0.00000000E+00  0.00000000E+00
  0.00000000E+00  0.00000000E+00  0.00000000E+00
  0.00000000E+00  0.00000000E+00  0.00000000E+00
  0.00000000E+00  0.00000000E+00  0.00000000E+00
  0.00000000E+00  0.00000000E+00  0.00000000E+00
  0.00000000E+00  0.00000000E+00  0.00000000E+00
  0.00000000E+00  0.00000000E+00  0.00000000E+00
  0.00000000E+00  0.00000000E+00  0.00000000E+00
  0.00000000E+00  0.00000000E+00  0.00000000E+00
