CONTCAR                                 
   1.00000000000000     
    13.5033998488999991    0.0000000000000000    0.0000000000000000
     0.0000000000000000   19.6100006104000002    0.0000000000000000
     0.0000000000000000    0.0000000000000000   18.7679004668999987
   Nb   Se   O    H 
    32    48     2     1
Selective dynamics
Direct
  0.0659422577574134  0.4360187920295076  0.5003366771817213   F   F   F
  0.1883486175311333  0.0624901611500732  0.5019418410862286   F   F   F
  0.0653941236903179  0.2802840882692550  0.4496553346644205   F   F   F
  0.1904821011568032  0.2193876974322109  0.5519267199103695   F   F   F
  0.3163087495874919  0.4362811416867984  0.5002544477509190   F   F   F
  0.4408190082935945  0.0640269411389127  0.5018519338846374   F   F   F
  0.3151358327071847  0.2799439337615865  0.4498416590155472   F   F   F
  0.4405964872314740  0.2194797750711217  0.5522264748281884   F   F   F
  0.5647125884578017  0.4362326046214449  0.5002489082368200   F   F   F
  0.6927039550540854  0.0625549610541469  0.5023006097132665   F   F   F
  0.5659123906056891  0.2799877556767925  0.4498670690900468   F   F   F
  0.6908758594041160  0.2194982619657111  0.5519870518123184   F   F   F
  0.8150758316441227  0.4361837926780368  0.5004193624361832   F   F   F
  0.9404993378182382  0.0631611255226474  0.5014796666060661   F   F   F
  0.8154575669911210  0.2802917159148990  0.4497955247239531   F   F   F
  0.9406098200469444  0.2195614233175789  0.5518249053015083   F   F   F
  0.0647271710628914  0.9366229233884198  0.5009604200762396   F   F   F
  0.1927233510589730  0.5629602707408452  0.4995801923979286   F   F   F
  0.0657228312319020  0.7797048696849274  0.4494723051442335   F   F   F
  0.1891763058467362  0.7182380965862478  0.5510342537949455   F   F   F
  0.3037224434346797  0.9348369669041361  0.5026473475603694   F   F   F
  0.4410280171301011  0.5630797321996752  0.5001509405633797   F   F   F
  0.3158349237702254  0.7806753387283365  0.4496020464707371   F   F   F
  0.4405513804199472  0.7194119750550456  0.5515604809977575   F   F   F
  0.5772755104956673  0.9348710601601056  0.5029418566912156   F   F   F
  0.6885322414995017  0.5629991095993958  0.4997947890251666   F   F   F
  0.5654223266612348  0.7808048738729028  0.4497770771316070   F   F   F
  0.6920643334101584  0.7184490466046185  0.5512986454987612   F   F   F
  0.8169259351634466  0.9365512395643520  0.5012215942034857   F   F   F
  0.9400651933938704  0.5628602756503582  0.4995144348528271   F   F   F
  0.8151655993628424  0.7798103133755632  0.4496479869244254   F   F   F
  0.9406778502365327  0.7184905354449498  0.5513530472516379   F   F   F
  0.0649842013522175  0.0285487787942031  0.4030405619934356   F   F   F
  0.1908997040255258  0.4716074079436865  0.5976652445723829   F   F   F
  0.0650747563168466  0.1250829469654064  0.5953250347933050   F   F   F
  0.1908112574970957  0.3747329116889375  0.4067457661096086   F   F   F
  0.1902350458849611  0.1833001383432347  0.4193736846036700   F   F   F
  0.0656941181775110  0.3160816294085365  0.5821600340382460   F   F   F
  0.3149705159025586  0.0272190576205205  0.4052012026709448   F   F   F
  0.4406740060601138  0.4716106275705272  0.5982435058359172   F   F   F
  0.3152438531780319  0.1246554493644041  0.5944983526021090   F   F   F
  0.4404785165526803  0.3743734772565404  0.4067609042026703   F   F   F
  0.4405366938112749  0.1835408830026140  0.4193775271193161   F   F   F
  0.3154158327554057  0.3160615478409881  0.5823116348711821   F   F   F
  0.5667871263007385  0.0270270456484596  0.4053032605404425   F   F   F
  0.6898458944726968  0.4715707484773191  0.5978067628427226   F   F   F
  0.5662016333322555  0.1251535871431457  0.5946398605858576   F   F   F
  0.6904557740508608  0.3748082534212784  0.4068402580129202   F   F   F
  0.6905441200119213  0.1832920498334687  0.4194430173630863   F   F   F
  0.5658336180627543  0.3159463128086202  0.5824217040519386   F   F   F
  0.8160123668115702  0.0283562596356859  0.4031890130472107   F   F   F
  0.9406248962790684  0.4714219811200024  0.5976035250513689   F   F   F
  0.8163436123991232  0.1251507067160844  0.5955878495579299   F   F   F
  0.9403829116232956  0.3748892357349334  0.4069893609639976   F   F   F
  0.9404139611183879  0.1837331887451796  0.4191848565417331   F   F   F
  0.8156341187633771  0.3162618970382169  0.5823383328820313   F   F   F
  0.0660885223169743  0.5279321050730204  0.4027302935030690   F   F   F
  0.1860023842600427  0.9723217700803772  0.6018548154956846   F   F   F
  0.0654298669600237  0.6236394165705690  0.5935033714549860   F   F   F
  0.1899818504374835  0.8746722955426236  0.4057645916295485   F   F   F
  0.1911544932827027  0.6837883849102440  0.4180693975021725   F   F   F
  0.0650864017340353  0.8148846276532424  0.5823298865842403   F   F   F
  0.3164624744084747  0.5275824326379706  0.4017936076771846   F   F   F
  0.4398759147301377  0.9675495695847474  0.5885310397572425   F   F   F
  0.3157688168486033  0.6242057349774299  0.5936064639084080   F   F   F
  0.4407008764578748  0.8753144948861475  0.4094830911960869   F   F   F
  0.4407519533583795  0.6842249917159933  0.4189021689802885   F   F   F
  0.3136680234351559  0.8144901448640098  0.5832540897392917   F   F   F
  0.5651537653111802  0.5273864937018757  0.4017062728550087   F   F   F
  0.6957329411104212  0.9723404361409678  0.6020704886765103   F   F   F
  0.5654438418307635  0.6243533327241124  0.5938546903269213   F   F   F
  0.6913549299355424  0.8748854899821339  0.4061664438581474   F   F   F
  0.6898122507908724  0.6838202843893342  0.4183079224597037   F   F   F
  0.5673166954218587  0.8146442443873170  0.5834202979381331   F   F   F
  0.8148400209584423  0.5280147133772459  0.4025126192045789   F   F   F
  0.9410724349212671  0.9718148544855012  0.5998385447588461   F   F   F
  0.8155854794032749  0.6235924596014470  0.5936778215043574   F   F   F
  0.9404798843601370  0.8748186800314528  0.4074995074494083   F   F   F
  0.9404198276003441  0.6835633498631140  0.4183585629678745   F   F   F
  0.8162890060897467  0.8150184865710415  0.5825984528727020   F   F   F
  0.4360911524994364  0.9604809500847153  0.6983343447161587   T   T   T
  0.5054040887251716  0.0062967298220542  0.7300293972655538   T   T   T
  0.5667638499151408  0.9791661263687175  0.7294565770617241   T   T   T
 
  0.00000000E+00  0.00000000E+00  0.00000000E+00
  0.00000000E+00  0.00000000E+00  0.00000000E+00
  0.00000000E+00  0.00000000E+00  0.00000000E+00
  0.00000000E+00  0.00000000E+00  0.00000000E+00
  0.00000000E+00  0.00000000E+00  0.00000000E+00
  0.00000000E+00  0.00000000E+00  0.00000000E+00
  0.00000000E+00  0.00000000E+00  0.00000000E+00
  0.00000000E+00  0.00000000E+00  0.00000000E+00
  0.00000000E+00  0.00000000E+00  0.00000000E+00
  0.00000000E+00  0.00000000E+00  0.00000000E+00
  0.00000000E+00  0.00000000E+00  0.00000000E+00
  0.00000000E+00  0.00000000E+00  0.00000000E+00
  0.00000000E+00  0.00000000E+00  0.00000000E+00
  0.00000000E+00  0.00000000E+00  0.00000000E+00
  0.00000000E+00  0.00000000E+00  0.00000000E+00
  0.00000000E+00  0.00000000E+00  0.00000000E+00
  0.00000000E+00  0.00000000E+00  0.00000000E+00
  0.00000000E+00  0.00000000E+00  0.00000000E+00
  0.00000000E+00  0.00000000E+00  0.00000000E+00
  0.00000000E+00  0.00000000E+00  0.00000000E+00
  0.00000000E+00  0.00000000E+00  0.00000000E+00
  0.00000000E+00  0.00000000E+00  0.00000000E+00
  0.00000000E+00  0.00000000E+00  0.00000000E+00
  0.00000000E+00  0.00000000E+00  0.00000000E+00
  0.00000000E+00  0.00000000E+00  0.00000000E+00
  0.00000000E+00  0.00000000E+00  0.00000000E+00
  0.00000000E+00  0.00000000E+00  0.00000000E+00
  0.00000000E+00  0.00000000E+00  0.00000000E+00
  0.00000000E+00  0.00000000E+00  0.00000000E+00
  0.00000000E+00  0.00000000E+00  0.00000000E+00
  0.00000000E+00  0.00000000E+00  0.00000000E+00
  0.00000000E+00  0.00000000E+00  0.00000000E+00
  0.00000000E+00  0.00000000E+00  0.00000000E+00
  0.00000000E+00  0.00000000E+00  0.00000000E+00
  0.00000000E+00  0.00000000E+00  0.00000000E+00
  0.00000000E+00  0.00000000E+00  0.00000000E+00
  0.00000000E+00  0.00000000E+00  0.00000000E+00
  0.00000000E+00  0.00000000E+00  0.00000000E+00
  0.00000000E+00  0.00000000E+00  0.00000000E+00
  0.00000000E+00  0.00000000E+00  0.00000000E+00
  0.00000000E+00  0.00000000E+00  0.00000000E+00
  0.00000000E+00  0.00000000E+00  0.00000000E+00
  0.00000000E+00  0.00000000E+00  0.00000000E+00
  0.00000000E+00  0.00000000E+00  0.00000000E+00
  0.00000000E+00  0.00000000E+00  0.00000000E+00
  0.00000000E+00  0.00000000E+00  0.00000000E+00
  0.00000000E+00  0.00000000E+00  0.00000000E+00
  0.00000000E+00  0.00000000E+00  0.00000000E+00
  0.00000000E+00  0.00000000E+00  0.00000000E+00
  0.00000000E+00  0.00000000E+00  0.00000000E+00
  0.00000000E+00  0.00000000E+00  0.00000000E+00
  0.00000000E+00  0.00000000E+00  0.00000000E+00
  0.00000000E+00  0.00000000E+00  0.00000000E+00
  0.00000000E+00  0.00000000E+00  0.00000000E+00
  0.00000000E+00  0.00000000E+00  0.00000000E+00
  0.00000000E+00  0.00000000E+00  0.00000000E+00
  0.00000000E+00  0.00000000E+00  0.00000000E+00
  0.00000000E+00  0.00000000E+00  0.00000000E+00
  0.00000000E+00  0.00000000E+00  0.00000000E+00
  0.00000000E+00  0.00000000E+00  0.00000000E+00
  0.00000000E+00  0.00000000E+00  0.00000000E+00
  0.00000000E+00  0.00000000E+00  0.00000000E+00
  0.00000000E+00  0.00000000E+00  0.00000000E+00
  0.00000000E+00  0.00000000E+00  0.00000000E+00
  0.00000000E+00  0.00000000E+00  0.00000000E+00
  0.00000000E+00  0.00000000E+00  0.00000000E+00
  0.00000000E+00  0.00000000E+00  0.00000000E+00
  0.00000000E+00  0.00000000E+00  0.00000000E+00
  0.00000000E+00  0.00000000E+00  0.00000000E+00
  0.00000000E+00  0.00000000E+00  0.00000000E+00
  0.00000000E+00  0.00000000E+00  0.00000000E+00
  0.00000000E+00  0.00000000E+00  0.00000000E+00
  0.00000000E+00  0.00000000E+00  0.00000000E+00
  0.00000000E+00  0.00000000E+00  0.00000000E+00
  0.00000000E+00  0.00000000E+00  0.00000000E+00
  0.00000000E+00  0.00000000E+00  0.00000000E+00
  0.00000000E+00  0.00000000E+00  0.00000000E+00
  0.00000000E+00  0.00000000E+00  0.00000000E+00
  0.00000000E+00  0.00000000E+00  0.00000000E+00
  0.00000000E+00  0.00000000E+00  0.00000000E+00
  0.00000000E+00  0.00000000E+00  0.00000000E+00
  0.00000000E+00  0.00000000E+00  0.00000000E+00
  0.00000000E+00  0.00000000E+00  0.00000000E+00
