 Nb4 Se6                                
   1.00000000000000     
     3.3758640054639342    0.0000000000000000    0.0000000000000000
     0.0000000000000000    9.8050116363455881    0.0000000000000000
     0.0000000000000000    0.0000000000000000   18.7678719441919988
   Nb   Se
     4     6
Direct
  0.2499999986692768  0.8729986441279219  0.4997497684773716
  0.7500000037140724  0.1270018760927211  0.5002509425712370
  0.2499999900763042  0.5612438848368477  0.4489945479751015
  0.7500000085227057  0.4387554619162476  0.5510047586682523
  0.2500000033778640  0.0574580983258703  0.4023966350387216
  0.7499999984669692  0.9425446534236781  0.5976041716260814
  0.2500000047868509  0.2492475134176714  0.5939473059169643
  0.7499999957282373  0.7507498826507262  0.4060533631426570
  0.7499999916903023  0.3683882156765537  0.4182075486595593
  0.2500000049674179  0.6316117695317640  0.5817909579240540
 
  0.00000000E+00  0.00000000E+00  0.00000000E+00
  0.00000000E+00  0.00000000E+00  0.00000000E+00
  0.00000000E+00  0.00000000E+00  0.00000000E+00
  0.00000000E+00  0.00000000E+00  0.00000000E+00
  0.00000000E+00  0.00000000E+00  0.00000000E+00
  0.00000000E+00  0.00000000E+00  0.00000000E+00
  0.00000000E+00  0.00000000E+00  0.00000000E+00
  0.00000000E+00  0.00000000E+00  0.00000000E+00
  0.00000000E+00  0.00000000E+00  0.00000000E+00
  0.00000000E+00  0.00000000E+00  0.00000000E+00
