CONTCAR\(4)                             
   1.00000000000000     
    12.8708000183000006    0.0000000000000000    0.0000000000000000
     0.0000000000000000   12.8761997223000009    0.0000000000000000
     0.0000000000000000    0.0000000000000000   24.0524005890000012
   Pr   Te   Se   O 
    18    36    18     1
Direct
  0.1665363890937491  0.0018975552619475  0.5771957665410288
  0.9995386611711808  0.1665066595858186  0.4224639403028711
  0.5003454733868703  0.9993031282859282  0.5781260642761333
  0.3326410654899812  0.1659763417863473  0.4227429960923399
  0.8337950031903056  0.0002045326308240  0.5768028104691851
  0.6661211877384482  0.1657834476566797  0.4226172821069299
  0.1673658146871822  0.3342131468915161  0.5779808712806398
  0.9991354004009669  0.4993800744872143  0.4226165553427808
  0.4995563912933622  0.3304972065536382  0.5765619528427126
  0.3326747974536064  0.4995786274873975  0.4233351768853347
  0.8350207174144018  0.3328489925418803  0.5771937292635210
  0.6660041552381308  0.4997441197708009  0.4234212877631073
  0.1638639768780559  0.6664520130308814  0.5766842203154668
  0.9991139341949576  0.8328091696203316  0.4226731821281121
  0.5010668721233548  0.6676648966392309  0.5780698629835117
  0.3330067742173841  0.8328844045510773  0.4233411021897117
  0.8329260568415667  0.6668209273653605  0.5782253914398284
  0.6660154221887449  0.8326657584151226  0.4228526585368674
  0.1666732768079224  0.1675370298971658  0.6886210640234827
  0.9995828548638434  0.9995419985556074  0.3128338312715853
  0.1661701912832421  0.1663569157290822  0.3131332767716637
 -0.0002484540242324  0.0030666981884347  0.6871488106262925
  0.4993869735391664  0.1652383773938563  0.6885218631964601
  0.3326250418521594  0.9992472315672222  0.3133179644678213
  0.4991548646151009  0.1660325628722125  0.3130984207750853
  0.3344297998221884  0.0029451805768569  0.6885328981170680
  0.8374453011358304  0.1661899414553931  0.6870047825438326
  0.6657620324761975  0.9991394835302793  0.3131340148207842
  0.8325730470509553  0.1660001578857419  0.3129226087298341
  0.6696364475239990  0.0013054500744394  0.6880504680489773
  0.1700400935870638  0.5031118469527271  0.6887293422673619
  0.9992114933497295  0.3327866374737355  0.3129773264345836
  0.1659139624895349  0.4993629678722996  0.3132061314493907
  0.0013522505340768  0.3337258747614307  0.6883735158089171
  0.5138734230806814  0.4930549486979284  0.6924298983104140
  0.3327410766630867  0.3331522403025689  0.3134508453157834
  0.4995578364446839  0.4996682412779759  0.3138810671497599
  0.3363758605590509  0.3364318630840837  0.6888054177378251
  0.8359588985411661  0.5011918438420263  0.6885457990718495
  0.6659833625903950  0.3330468722454614  0.3133302267913504
  0.8324381691635452  0.4994535814197520  0.3132110924855322
  0.6725428209938651  0.3277185054152372  0.6878264677540010
  0.1616617024626128  0.8386583385487200  0.6879612707554038
  0.9991487100633806  0.6660345637213864  0.3130947939505795
  0.1662523236375019  0.8328458805009448  0.3134387803361286
  0.9984046137848309  0.6662022173240467  0.6886352447489223
  0.5010198309768547  0.8340168293679998  0.6900788352366672
  0.3327519973664427  0.6660975035007927  0.3137853405061355
  0.4992220922716211  0.8326617973653789  0.3134320074344164
  0.3274268622483853  0.6800662256187567  0.6924779238177845
  0.8344599279035707  0.8357480255442339  0.6883521227144329
  0.6661374054244797  0.6662439847250782  0.3135284666415825
  0.8327076950956869  0.8329456377893709  0.3132432626277011
  0.6669079180870046  0.6672434243889319  0.6897261172444591
  0.1662935372689750  0.9992737972897331  0.4522156190014739
  0.0008071491844715  0.1673149642762718  0.5484092181296691
  0.4992423551787433  0.9993151220452372  0.4527110816784145
  0.3332182702468564  0.1664649694310075  0.5490645949497152
  0.8328641043523094 -0.0003690408818445  0.4518507265107467
  0.6666280162850114  0.1660889988816585  0.5487611225770276
  0.1663543576262299  0.3333549919840677  0.4525856233151302
  0.9996378856670298  0.4999731269008417  0.5487815281041221
  0.4994252060513686  0.3325625583198188  0.4521833415539577
  0.3346484357499451  0.5013862510910151  0.5499257733890999
  0.8325655641088049  0.3331390550461659  0.4521311491929129
  0.6649907504485982  0.4993480449070204  0.5502206630323438
  0.1657941803440009  0.6661650702630734  0.4522384808038890
  0.9995471795889890  0.8334002770551664  0.5486901427136843
  0.4997732011977370  0.6665926822592685  0.4529066359813794
  0.3328915611729286  0.8316712563745196  0.5502186023401631
  0.8325881779620697  0.6659262933603056  0.4527629058267671
  0.6663309107224473  0.8329488878503090  0.5492711692908498
  0.4131795995756006  0.5792008455172364  0.7379665238647382
 
  0.00000000E+00  0.00000000E+00  0.00000000E+00
  0.00000000E+00  0.00000000E+00  0.00000000E+00
  0.00000000E+00  0.00000000E+00  0.00000000E+00
  0.00000000E+00  0.00000000E+00  0.00000000E+00
  0.00000000E+00  0.00000000E+00  0.00000000E+00
  0.00000000E+00  0.00000000E+00  0.00000000E+00
  0.00000000E+00  0.00000000E+00  0.00000000E+00
  0.00000000E+00  0.00000000E+00  0.00000000E+00
  0.00000000E+00  0.00000000E+00  0.00000000E+00
  0.00000000E+00  0.00000000E+00  0.00000000E+00
  0.00000000E+00  0.00000000E+00  0.00000000E+00
  0.00000000E+00  0.00000000E+00  0.00000000E+00
  0.00000000E+00  0.00000000E+00  0.00000000E+00
  0.00000000E+00  0.00000000E+00  0.00000000E+00
  0.00000000E+00  0.00000000E+00  0.00000000E+00
  0.00000000E+00  0.00000000E+00  0.00000000E+00
  0.00000000E+00  0.00000000E+00  0.00000000E+00
  0.00000000E+00  0.00000000E+00  0.00000000E+00
  0.00000000E+00  0.00000000E+00  0.00000000E+00
  0.00000000E+00  0.00000000E+00  0.00000000E+00
  0.00000000E+00  0.00000000E+00  0.00000000E+00
  0.00000000E+00  0.00000000E+00  0.00000000E+00
  0.00000000E+00  0.00000000E+00  0.00000000E+00
  0.00000000E+00  0.00000000E+00  0.00000000E+00
  0.00000000E+00  0.00000000E+00  0.00000000E+00
  0.00000000E+00  0.00000000E+00  0.00000000E+00
  0.00000000E+00  0.00000000E+00  0.00000000E+00
  0.00000000E+00  0.00000000E+00  0.00000000E+00
  0.00000000E+00  0.00000000E+00  0.00000000E+00
  0.00000000E+00  0.00000000E+00  0.00000000E+00
  0.00000000E+00  0.00000000E+00  0.00000000E+00
  0.00000000E+00  0.00000000E+00  0.00000000E+00
  0.00000000E+00  0.00000000E+00  0.00000000E+00
  0.00000000E+00  0.00000000E+00  0.00000000E+00
  0.00000000E+00  0.00000000E+00  0.00000000E+00
  0.00000000E+00  0.00000000E+00  0.00000000E+00
  0.00000000E+00  0.00000000E+00  0.00000000E+00
  0.00000000E+00  0.00000000E+00  0.00000000E+00
  0.00000000E+00  0.00000000E+00  0.00000000E+00
  0.00000000E+00  0.00000000E+00  0.00000000E+00
  0.00000000E+00  0.00000000E+00  0.00000000E+00
  0.00000000E+00  0.00000000E+00  0.00000000E+00
  0.00000000E+00  0.00000000E+00  0.00000000E+00
  0.00000000E+00  0.00000000E+00  0.00000000E+00
  0.00000000E+00  0.00000000E+00  0.00000000E+00
  0.00000000E+00  0.00000000E+00  0.00000000E+00
  0.00000000E+00  0.00000000E+00  0.00000000E+00
  0.00000000E+00  0.00000000E+00  0.00000000E+00
  0.00000000E+00  0.00000000E+00  0.00000000E+00
  0.00000000E+00  0.00000000E+00  0.00000000E+00
  0.00000000E+00  0.00000000E+00  0.00000000E+00
  0.00000000E+00  0.00000000E+00  0.00000000E+00
  0.00000000E+00  0.00000000E+00  0.00000000E+00
  0.00000000E+00  0.00000000E+00  0.00000000E+00
  0.00000000E+00  0.00000000E+00  0.00000000E+00
  0.00000000E+00  0.00000000E+00  0.00000000E+00
  0.00000000E+00  0.00000000E+00  0.00000000E+00
  0.00000000E+00  0.00000000E+00  0.00000000E+00
  0.00000000E+00  0.00000000E+00  0.00000000E+00
  0.00000000E+00  0.00000000E+00  0.00000000E+00
  0.00000000E+00  0.00000000E+00  0.00000000E+00
  0.00000000E+00  0.00000000E+00  0.00000000E+00
  0.00000000E+00  0.00000000E+00  0.00000000E+00
  0.00000000E+00  0.00000000E+00  0.00000000E+00
  0.00000000E+00  0.00000000E+00  0.00000000E+00
  0.00000000E+00  0.00000000E+00  0.00000000E+00
  0.00000000E+00  0.00000000E+00  0.00000000E+00
  0.00000000E+00  0.00000000E+00  0.00000000E+00
  0.00000000E+00  0.00000000E+00  0.00000000E+00
  0.00000000E+00  0.00000000E+00  0.00000000E+00
  0.00000000E+00  0.00000000E+00  0.00000000E+00
  0.00000000E+00  0.00000000E+00  0.00000000E+00
  0.00000000E+00  0.00000000E+00  0.00000000E+00
