CONTCAR\(14)                            
   1.00000000000000     
    11.7227001190000006    0.0000000000000000    0.0000000000000000
     1.9537737858999999   10.6868737691000000    0.0000000000000000
     0.0000000000000000    0.0000000000000000   24.3673000335999994
   Y    C    I    O 
    18     6    21     1
Direct
  0.3024555138842049  0.3248311758875439  0.6507236136945355
  0.2553929569354065  0.4611072629501340  0.4467278627134741
  0.2054344553164240  0.7656409128580397  0.4743032633614094
  0.1321329413534640  0.2356272216256249  0.5273380567256354
  0.0798436120145366  0.5390754206735059  0.5571831129091750
  0.0546278420707397  0.6663126117982300  0.3645524150912769
  0.5893877734852244  0.3242016122942172  0.6504171168387117
  0.5909522515868637  0.4607150131621486  0.4465079850050789
  0.5390927195064227  0.7654029810690516  0.4737606775244572
  0.4603259966706986  0.2373745615650780  0.5251123911701990
  0.4088247441780544  0.5428688355655169  0.5568053749838712
  0.3883505038095353  0.6669835390161034  0.3634185441735541
  0.9452846866533076  0.3277207052907747  0.6405263260419585
  0.9236845691204790  0.4596534034217255  0.4472098858854858
  0.8731573483898105  0.7627471719569499  0.4768395909439163
  0.7889867159770291  0.2351082575704982  0.5270245865019243
  0.7417128727760081  0.5375901366996909  0.5565690325144780
  0.7240119884198232  0.6670825379230533  0.3642386634887901
  0.2722457440686321  0.3784890480552605  0.5452696195987418
  0.0635401629163626  0.6197194090603927  0.4588916328433897
  0.6013939785690678  0.3772371513969290  0.5448775344353405
  0.3960960869644479  0.6219819005037922  0.4576356316337572
  0.9377897597342058  0.3743568243778561  0.5471288558949324
  0.7302141673035636  0.6192955188274076  0.4584810088728724
  0.1843957357578326  0.8841307135040803  0.3539995953402751
  0.1514089274863182  0.1153050858564438  0.6460411577381722
  0.2018478723320202  0.7555690928086268  0.5950749863717186
  0.1245049287975027  0.2527232260246970  0.4041644910463280
  0.9983859392110611  0.0025630459716304  0.5004242334938327
  0.2504579024039612  0.4932511946057556  0.3082540332176097
  0.0862313343247995  0.4987890104979111  0.6944804779953943
  0.5197792268322018  0.8838522061869234  0.3532907061312268
  0.4875865866651041  0.0718918246876958  0.6219377926000338
  0.5484246856686202  0.7472797478701649  0.5937763180246352
  0.4575623038497568  0.2545836644285386  0.4018813408730622
  0.3300967389880210  0.9985306233822061  0.4915554022750458
  0.5852577838855171  0.4940932995450461  0.3083806712127792
  0.4047936911834304  0.5688165545136393  0.6869595282090972
  0.8541205298290554  0.8847697599934345  0.3567101828853155
  0.8103897569310320  0.1143292189523728  0.6457439708405404
  0.8755531012704302  0.7441011101701475  0.5998919355615673
  0.7921156872514450  0.2529757454322330  0.4038366813266392
  0.6705024609243906  0.9978910581308588  0.4921475081343042
  0.9182843617567354  0.4918137005444529  0.3089549513740351
  0.7471393260442761  0.4981038903261234  0.6944223575113176
  0.4518220509021927  0.2903922710175110  0.6950189449900829
 
  0.00000000E+00  0.00000000E+00  0.00000000E+00
  0.00000000E+00  0.00000000E+00  0.00000000E+00
  0.00000000E+00  0.00000000E+00  0.00000000E+00
  0.00000000E+00  0.00000000E+00  0.00000000E+00
  0.00000000E+00  0.00000000E+00  0.00000000E+00
  0.00000000E+00  0.00000000E+00  0.00000000E+00
  0.00000000E+00  0.00000000E+00  0.00000000E+00
  0.00000000E+00  0.00000000E+00  0.00000000E+00
  0.00000000E+00  0.00000000E+00  0.00000000E+00
  0.00000000E+00  0.00000000E+00  0.00000000E+00
  0.00000000E+00  0.00000000E+00  0.00000000E+00
  0.00000000E+00  0.00000000E+00  0.00000000E+00
  0.00000000E+00  0.00000000E+00  0.00000000E+00
  0.00000000E+00  0.00000000E+00  0.00000000E+00
  0.00000000E+00  0.00000000E+00  0.00000000E+00
  0.00000000E+00  0.00000000E+00  0.00000000E+00
  0.00000000E+00  0.00000000E+00  0.00000000E+00
  0.00000000E+00  0.00000000E+00  0.00000000E+00
  0.00000000E+00  0.00000000E+00  0.00000000E+00
  0.00000000E+00  0.00000000E+00  0.00000000E+00
  0.00000000E+00  0.00000000E+00  0.00000000E+00
  0.00000000E+00  0.00000000E+00  0.00000000E+00
  0.00000000E+00  0.00000000E+00  0.00000000E+00
  0.00000000E+00  0.00000000E+00  0.00000000E+00
  0.00000000E+00  0.00000000E+00  0.00000000E+00
  0.00000000E+00  0.00000000E+00  0.00000000E+00
  0.00000000E+00  0.00000000E+00  0.00000000E+00
  0.00000000E+00  0.00000000E+00  0.00000000E+00
  0.00000000E+00  0.00000000E+00  0.00000000E+00
  0.00000000E+00  0.00000000E+00  0.00000000E+00
  0.00000000E+00  0.00000000E+00  0.00000000E+00
  0.00000000E+00  0.00000000E+00  0.00000000E+00
  0.00000000E+00  0.00000000E+00  0.00000000E+00
  0.00000000E+00  0.00000000E+00  0.00000000E+00
  0.00000000E+00  0.00000000E+00  0.00000000E+00
  0.00000000E+00  0.00000000E+00  0.00000000E+00
  0.00000000E+00  0.00000000E+00  0.00000000E+00
  0.00000000E+00  0.00000000E+00  0.00000000E+00
  0.00000000E+00  0.00000000E+00  0.00000000E+00
  0.00000000E+00  0.00000000E+00  0.00000000E+00
  0.00000000E+00  0.00000000E+00  0.00000000E+00
  0.00000000E+00  0.00000000E+00  0.00000000E+00
  0.00000000E+00  0.00000000E+00  0.00000000E+00
  0.00000000E+00  0.00000000E+00  0.00000000E+00
  0.00000000E+00  0.00000000E+00  0.00000000E+00
  0.00000000E+00  0.00000000E+00  0.00000000E+00
