Cu8 Se8 O24                             
   1.00000000000000     
     6.0197946461924516   -0.0000000000000000    0.0000000000000000
     0.0000000000000000    6.9752186543168930    0.0000000000000000
     0.0000000000000000    0.0000000000000000   12.3541173657855410
   Cu   Se   O 
     8     8    24
Direct
  0.8494255581633948  0.4225662073870248  0.4084987001641275
  0.3494255581633949  0.5774338576129768  0.0915012898358716
  0.6505744018366019  0.9225661423870232  0.5915012618358693
  0.1505744318366044  0.0774338166129771  0.9084987381641307
  0.1505744318366044  0.5774338576129768  0.5915012618358693
  0.6505744018366019  0.4225662073870248  0.9084987381641307
  0.3494255581633949  0.0774338166129771  0.4084987001641275
  0.8494255581633948  0.9225661423870232  0.0915012898358716
  0.8915970142515036  0.9445008730977772  0.3526456555668562
  0.3915970142515033  0.0554991399022202  0.1473543544331445
  0.6084029857484964  0.4445008730977773  0.6473543834331433
  0.1084030057484983  0.5554991269022228  0.8526456165668567
  0.1084030057484983  0.0554991399022202  0.6473543834331433
  0.6084029857484964  0.9445008730977772  0.8526456165668567
  0.3915970142515033  0.5554991269022228  0.3526456555668562
  0.8915970142515036  0.4445008730977773  0.1473543544331445
  0.0263283911250424  0.6462781268162674  0.0914771481975372
  0.5263283641250368  0.3537219061837313  0.4085228518024627
  0.4736715958749602  0.1462780938162686  0.9085228128024631
  0.9736716358749632  0.8537218731837326  0.5914771481975373
  0.9736716358749632  0.3537219061837313  0.9085228128024631
  0.4736715958749602  0.6462781268162674  0.5914771481975373
  0.5263283641250368  0.8537218731837326  0.0914771481975372
  0.0263283911250424  0.1462780938162686  0.4085228518024627
  0.6437915124415425  0.4466347348334078  0.0705690393964738
  0.1437915224415431  0.5533652651665923  0.4294309796035241
  0.8562084875584575  0.9466347348334077  0.9294309416035283
  0.3562084875584577  0.0533652611665921  0.5705690203964756
  0.3562084875584577  0.5533652651665923  0.9294309416035283
  0.8562084875584575  0.4466347348334077  0.5705690203964756
  0.1437915224415431  0.0533652611665921  0.0705690393964738
  0.6437915124415425  0.9466347348334077  0.4294309796035241
  0.7940510798793995  0.0449622587453597  0.2344516233381587
  0.2940510408793996  0.9550377492546408  0.2655483956618462
  0.7059489591206002  0.5449622507453592  0.7655483376618416
  0.2059489591206003  0.4550377492546411  0.7344516623381584
  0.2059489591206003  0.9550377492546408  0.7655483376618416
  0.7059489591206002  0.0449622587453597  0.7344516623381584
  0.2940510408793996  0.4550377492546411  0.2344516233381587
  0.7940510798793995  0.5449622507453592  0.2655483956618462
 
  0.00000000E+00  0.00000000E+00  0.00000000E+00
  0.00000000E+00  0.00000000E+00  0.00000000E+00
  0.00000000E+00  0.00000000E+00  0.00000000E+00
  0.00000000E+00  0.00000000E+00  0.00000000E+00
  0.00000000E+00  0.00000000E+00  0.00000000E+00
  0.00000000E+00  0.00000000E+00  0.00000000E+00
  0.00000000E+00  0.00000000E+00  0.00000000E+00
  0.00000000E+00  0.00000000E+00  0.00000000E+00
  0.00000000E+00  0.00000000E+00  0.00000000E+00
  0.00000000E+00  0.00000000E+00  0.00000000E+00
  0.00000000E+00  0.00000000E+00  0.00000000E+00
  0.00000000E+00  0.00000000E+00  0.00000000E+00
  0.00000000E+00  0.00000000E+00  0.00000000E+00
  0.00000000E+00  0.00000000E+00  0.00000000E+00
  0.00000000E+00  0.00000000E+00  0.00000000E+00
  0.00000000E+00  0.00000000E+00  0.00000000E+00
  0.00000000E+00  0.00000000E+00  0.00000000E+00
  0.00000000E+00  0.00000000E+00  0.00000000E+00
  0.00000000E+00  0.00000000E+00  0.00000000E+00
  0.00000000E+00  0.00000000E+00  0.00000000E+00
  0.00000000E+00  0.00000000E+00  0.00000000E+00
  0.00000000E+00  0.00000000E+00  0.00000000E+00
  0.00000000E+00  0.00000000E+00  0.00000000E+00
  0.00000000E+00  0.00000000E+00  0.00000000E+00
  0.00000000E+00  0.00000000E+00  0.00000000E+00
  0.00000000E+00  0.00000000E+00  0.00000000E+00
  0.00000000E+00  0.00000000E+00  0.00000000E+00
  0.00000000E+00  0.00000000E+00  0.00000000E+00
  0.00000000E+00  0.00000000E+00  0.00000000E+00
  0.00000000E+00  0.00000000E+00  0.00000000E+00
  0.00000000E+00  0.00000000E+00  0.00000000E+00
  0.00000000E+00  0.00000000E+00  0.00000000E+00
  0.00000000E+00  0.00000000E+00  0.00000000E+00
  0.00000000E+00  0.00000000E+00  0.00000000E+00
  0.00000000E+00  0.00000000E+00  0.00000000E+00
  0.00000000E+00  0.00000000E+00  0.00000000E+00
  0.00000000E+00  0.00000000E+00  0.00000000E+00
  0.00000000E+00  0.00000000E+00  0.00000000E+00
  0.00000000E+00  0.00000000E+00  0.00000000E+00
  0.00000000E+00  0.00000000E+00  0.00000000E+00
