CONTCAR\(7)                             
   1.00000000000000     
    11.3408002853000003    0.0000000000000000    0.0000000000000000
    -5.6704001427000001    9.8214211463000005    0.0000000000000000
     0.0000000000000000    0.0000000000000000   18.2716007233000006
   Si   Te   O 
     9    18     1
Selective dynamics
Direct
  0.0014074326360003  0.0012093617476054  0.4999160923674850   F   F   F
  0.3331354832463091  0.0010844292146999  0.4941991656054086   F   F   F
  0.6692462858160368  0.9998934719020625  0.5038997062355577   F   F   F
  0.0000082710906852  0.3336236368577872  0.4993762862026827   F   F   F
  0.3304127768274654  0.3331764947604228  0.4993009730882108   F   F   F
  0.6688203424480932  0.3320142076216328  0.5079411680899142   F   F   F
  0.9967486569778430  0.6665033167307399  0.4991290839766478   F   F   F
  0.3250578629262506  0.6774894625264807  0.4900144818309826   F   F   F
  0.6702117460399108  0.6668927975589867  0.5120226368257690   F   F   F
  0.1070002941498487  0.2217488504113305  0.5900017378860909   F   F   F
  0.2250941219433926  0.1186461150810771  0.4099801251529200   F   F   F
  0.4425838113722804  0.2225410235104093  0.5965081444198503   F   F   F
  0.5651155432904957  0.1152374962077687  0.4131827833150012   F   F   F
  0.7837309313946079  0.2224355138660741  0.5928748962810317   F   F   F
  0.8869216227875540  0.1096474006976891  0.4118459849492808   F   F   F
  0.1183922384992613  0.5595433603808431  0.5866140266306346   F   F   F
  0.2254836849880064  0.4459296793063245  0.4111370292038572   F   F   F
  0.4498833012830872  0.5446000607418853  0.6029395048428228   F   F   F
  0.5668915561657570  0.4499458525746860  0.4181712598889646   F   F   F
  0.7924529673856640  0.5580911432793982  0.5956523730278604   F   F   F
  0.8885891066685474  0.4448292310480539  0.4128049338849209   F   F   F
  0.1126403683469235  0.8893428672247978  0.5871060225560001   F   F   F
  0.2217203822216405  0.7868211335232047  0.4052908714732339   F   F   F
  0.4454165398420429  0.8849347038364712  0.5893776811461393   F   F   F
  0.5588309379538217  0.7722830257413165  0.4166170889445269   F   F   F
  0.7847486323216231  0.8951090580362973  0.5939217275714839   F   F   F
  0.8826045992383982  0.7763345090259079  0.4139108507235179   F   F   F
  0.5021102311384665  0.4146711645860462  0.6443724647438621   T   T   T
 
  0.00000000E+00  0.00000000E+00  0.00000000E+00
  0.00000000E+00  0.00000000E+00  0.00000000E+00
  0.00000000E+00  0.00000000E+00  0.00000000E+00
  0.00000000E+00  0.00000000E+00  0.00000000E+00
  0.00000000E+00  0.00000000E+00  0.00000000E+00
  0.00000000E+00  0.00000000E+00  0.00000000E+00
  0.00000000E+00  0.00000000E+00  0.00000000E+00
  0.00000000E+00  0.00000000E+00  0.00000000E+00
  0.00000000E+00  0.00000000E+00  0.00000000E+00
  0.00000000E+00  0.00000000E+00  0.00000000E+00
  0.00000000E+00  0.00000000E+00  0.00000000E+00
  0.00000000E+00  0.00000000E+00  0.00000000E+00
  0.00000000E+00  0.00000000E+00  0.00000000E+00
  0.00000000E+00  0.00000000E+00  0.00000000E+00
  0.00000000E+00  0.00000000E+00  0.00000000E+00
  0.00000000E+00  0.00000000E+00  0.00000000E+00
  0.00000000E+00  0.00000000E+00  0.00000000E+00
  0.00000000E+00  0.00000000E+00  0.00000000E+00
  0.00000000E+00  0.00000000E+00  0.00000000E+00
  0.00000000E+00  0.00000000E+00  0.00000000E+00
  0.00000000E+00  0.00000000E+00  0.00000000E+00
  0.00000000E+00  0.00000000E+00  0.00000000E+00
  0.00000000E+00  0.00000000E+00  0.00000000E+00
  0.00000000E+00  0.00000000E+00  0.00000000E+00
  0.00000000E+00  0.00000000E+00  0.00000000E+00
  0.00000000E+00  0.00000000E+00  0.00000000E+00
  0.00000000E+00  0.00000000E+00  0.00000000E+00
  0.00000000E+00  0.00000000E+00  0.00000000E+00
