CONTCAR\(6)                             
   1.00000000000000     
    11.4949998856000004    0.0000000000000000    0.0000000000000000
     0.0000000000000000   11.4948997498000001    0.0000000000000000
     0.0000000000000000    0.0000000000000000   21.0240001678000006
   Ca   Cu   Br   O 
    18     9    18    19
Direct
  0.9993296845894802  0.0006592685218390  0.5747537967600882
  0.0003156622656450  0.9996668796383610  0.4250823833928377
  0.3330726581013400  0.0001925765027070  0.5754594761124707
  0.3333373141611353  0.9996210253828185  0.4258227611988057
  0.6671457595322923  0.0006506389588882  0.5747392044731867
  0.6663452272888916  0.9996803326525048  0.4251504121456395
  0.9993123299596919  0.3328496992590695  0.5747378716185201
  0.0002999664594302  0.3336511698908648  0.4251518921475897
  0.3331418585103343  0.3333942710276508  0.5754889507904203
  0.3332491710554159  0.3337122829112979  0.4258967643668905
  0.6672060840751693  0.3327748808060657  0.5746785621797111
  0.6663487134690241  0.3336366704776456  0.4251982429972881
 -0.0002214528955281  0.6669345940505066  0.5754537822537436
  0.0003725581662198  0.6666529341364531  0.4258224934040717
  0.3329776288902141  0.6670140574678226  0.5780590379612357
  0.3332931301785522  0.6666900220004933  0.4275931049419466
  0.6666317898647475  0.6668388974151765  0.5754780800578078
  0.6662779577885850  0.6667361718977947  0.4258845394585277
  0.1666137880532407  0.1667440252652150  0.5003930434238234
  0.4999424520104493  0.1667759459605284  0.5004293535959272
  0.8332564489721856  0.1667326550178588  0.4992845607779717
  0.1665964031421421  0.5000524242396479  0.5012259365929038
  0.4999425469627111  0.5000538630609580  0.5011504317029448
  0.8332080015333611  0.5000554535700009  0.5004229503977232
  0.1665872376487677  0.8334101883046986  0.5012268872070974
  0.4999484289711312  0.8333882789882027  0.5012206076614053
  0.8332406136390420  0.8333774652399684  0.5003793079445800
  0.1664151724224770  0.1671730213895602  0.6448648121923882
  0.1671117634356933  0.1668309469946955  0.3555744634739487
  0.5000768626740485  0.1667807729560566  0.6445683059221491
  0.4998328440537136  0.1665998077746868  0.3558936667443113
  0.8328708508268594  0.1671103450934859  0.6446126861742861
  0.8331814297640981  0.1668077430522956  0.3551444246039383
  0.1626250898732375  0.4970366402354958  0.6452193679975379
  0.1667580336178977  0.5000878634099962  0.3560497972861293
  0.5037734173458736  0.4962465298350037  0.6455189045169104
  0.4998853531592373  0.5001030065299820  0.3563316519970803
  0.8331937926787414  0.4999009443702341  0.6445696123468795
  0.8334037320785361  0.5001796261116662  0.3558844345038303
  0.1622160350953613  0.8378085728004181  0.6445945683666363
  0.1671515885306916  0.8328442731368055  0.3561885426949192
  0.5031117110591046  0.8372359097515573  0.6452097832339145
  0.4999041856040944  0.8332405067910787  0.3560492776440138
  0.8328960376678879  0.8335534395453784  0.6448518855024854
  0.8331768570692205  0.8328905874289193  0.3555491165872163
  0.9998701507967188  0.1668612908388939  0.4996969916539225
  0.1664314073939481  0.0002167418717171  0.5000447575533462
  0.3332178116134963  0.1668701355327963  0.5007005949377713
  0.5003026378505688  0.0001415970212914  0.5002364074802571
  0.6667095331513766  0.1668564310662845  0.4997132489106998
  0.8331248857569582  0.0000981064480164  0.4997026427504617
  0.9998277192675066  0.4996880660130402  0.5002326013666879
  0.1664807939077149  0.3332739126944153  0.5003377530142256
  0.3332273042129004  0.4987135909277466  0.5007411395290331
  0.5001995730902054  0.3333226764128968  0.5003771084740485
  0.6666589135662913  0.4997774866401405  0.5003634974835680
  0.8331302414395410  0.3332674637253867  0.4997138594360398
  0.9997690415836962  0.8335611035820564  0.5000428968307362
  0.1653202619154923  0.6667600180042594  0.5005878719440993
  0.3332417060461126  0.8346710346366468  0.5005911155842856
  0.5012758777326785  0.6667549741099622  0.5007153605922893
  0.6667128098473329  0.8335060967684830  0.5003156902316063
  0.8331200923757177  0.6667623226506425  0.5006976165630440
  0.3390828911013308  0.6605996092029240  0.6875486903101458
 
  0.00000000E+00  0.00000000E+00  0.00000000E+00
  0.00000000E+00  0.00000000E+00  0.00000000E+00
  0.00000000E+00  0.00000000E+00  0.00000000E+00
  0.00000000E+00  0.00000000E+00  0.00000000E+00
  0.00000000E+00  0.00000000E+00  0.00000000E+00
  0.00000000E+00  0.00000000E+00  0.00000000E+00
  0.00000000E+00  0.00000000E+00  0.00000000E+00
  0.00000000E+00  0.00000000E+00  0.00000000E+00
  0.00000000E+00  0.00000000E+00  0.00000000E+00
  0.00000000E+00  0.00000000E+00  0.00000000E+00
  0.00000000E+00  0.00000000E+00  0.00000000E+00
  0.00000000E+00  0.00000000E+00  0.00000000E+00
  0.00000000E+00  0.00000000E+00  0.00000000E+00
  0.00000000E+00  0.00000000E+00  0.00000000E+00
  0.00000000E+00  0.00000000E+00  0.00000000E+00
  0.00000000E+00  0.00000000E+00  0.00000000E+00
  0.00000000E+00  0.00000000E+00  0.00000000E+00
  0.00000000E+00  0.00000000E+00  0.00000000E+00
  0.00000000E+00  0.00000000E+00  0.00000000E+00
  0.00000000E+00  0.00000000E+00  0.00000000E+00
  0.00000000E+00  0.00000000E+00  0.00000000E+00
  0.00000000E+00  0.00000000E+00  0.00000000E+00
  0.00000000E+00  0.00000000E+00  0.00000000E+00
  0.00000000E+00  0.00000000E+00  0.00000000E+00
  0.00000000E+00  0.00000000E+00  0.00000000E+00
  0.00000000E+00  0.00000000E+00  0.00000000E+00
  0.00000000E+00  0.00000000E+00  0.00000000E+00
  0.00000000E+00  0.00000000E+00  0.00000000E+00
  0.00000000E+00  0.00000000E+00  0.00000000E+00
  0.00000000E+00  0.00000000E+00  0.00000000E+00
  0.00000000E+00  0.00000000E+00  0.00000000E+00
  0.00000000E+00  0.00000000E+00  0.00000000E+00
  0.00000000E+00  0.00000000E+00  0.00000000E+00
  0.00000000E+00  0.00000000E+00  0.00000000E+00
  0.00000000E+00  0.00000000E+00  0.00000000E+00
  0.00000000E+00  0.00000000E+00  0.00000000E+00
  0.00000000E+00  0.00000000E+00  0.00000000E+00
  0.00000000E+00  0.00000000E+00  0.00000000E+00
  0.00000000E+00  0.00000000E+00  0.00000000E+00
  0.00000000E+00  0.00000000E+00  0.00000000E+00
  0.00000000E+00  0.00000000E+00  0.00000000E+00
  0.00000000E+00  0.00000000E+00  0.00000000E+00
  0.00000000E+00  0.00000000E+00  0.00000000E+00
  0.00000000E+00  0.00000000E+00  0.00000000E+00
  0.00000000E+00  0.00000000E+00  0.00000000E+00
  0.00000000E+00  0.00000000E+00  0.00000000E+00
  0.00000000E+00  0.00000000E+00  0.00000000E+00
  0.00000000E+00  0.00000000E+00  0.00000000E+00
  0.00000000E+00  0.00000000E+00  0.00000000E+00
  0.00000000E+00  0.00000000E+00  0.00000000E+00
  0.00000000E+00  0.00000000E+00  0.00000000E+00
  0.00000000E+00  0.00000000E+00  0.00000000E+00
  0.00000000E+00  0.00000000E+00  0.00000000E+00
  0.00000000E+00  0.00000000E+00  0.00000000E+00
  0.00000000E+00  0.00000000E+00  0.00000000E+00
  0.00000000E+00  0.00000000E+00  0.00000000E+00
  0.00000000E+00  0.00000000E+00  0.00000000E+00
  0.00000000E+00  0.00000000E+00  0.00000000E+00
  0.00000000E+00  0.00000000E+00  0.00000000E+00
  0.00000000E+00  0.00000000E+00  0.00000000E+00
  0.00000000E+00  0.00000000E+00  0.00000000E+00
  0.00000000E+00  0.00000000E+00  0.00000000E+00
  0.00000000E+00  0.00000000E+00  0.00000000E+00
  0.00000000E+00  0.00000000E+00  0.00000000E+00
