CONTCAR\(2)                             
   1.00000000000000     
    15.1086997986000000    0.0000000000000000    0.0000000000000000
     3.7771669926999998   12.0335217063000002    0.0000000000000000
     0.0000000000000000    0.0000000000000000   20.2071990966999984
   Au   Se   O 
    32    32     1
Direct
  0.2447294608237698  0.0096609535665308  0.6216313519708194
  0.0010480648134887  0.9967487748071591  0.3809477715664542
  0.0859700480890098  0.1487242936863353  0.5038004791857915
  0.1640580937871761  0.8494805697985726  0.5032726225657598
  0.4997518352783175  0.0104839283896894  0.6218407815393334
  0.2508173540224448  0.9964592845012277  0.3782993076049692
  0.3376045445499969  0.1486094428153280  0.4976986659113010
  0.4161830738788979  0.8355705342929127  0.4903644871185975
  0.7506031620426654  0.0000569843219722  0.6234259189209865
  0.5007168536359572  0.9963997030600851  0.3780128914155014
  0.5898823425048292  0.1488146576613616  0.5030955284736294
  0.6608539557832387  0.8506207011903300  0.5030384434210333
  0.0001370849763589  0.9985207541089736  0.6237467105646175
  0.7507739007783627  0.9963806630397585  0.3808242384934672
  0.8386902096148177  0.1472315685282410  0.5009689558963757
  0.9130092645636481  0.8488464639000384  0.5011604478421461
  0.2506427811677199  0.4947391974933026  0.6219464928970382
  0.9999894682664063  0.4980794513341138  0.3775639615239541
  0.0888872282548263  0.6475318635788128  0.5002884153218403
  0.1609240149534727  0.3492476601184151  0.4982549242321355
  0.5031689710814788  0.4921141816099919  0.6258899721755711
  0.2504845541820089  0.4975874141374987  0.3803584964718070
  0.3392934679546684  0.6438906389656793  0.5078078511886730
  0.4131764301192078  0.3489972965317705  0.5011496605315386
  0.7521849510422811  0.4975914299038990  0.6216815845251915
  0.5001958479463156  0.4985258500254872  0.3822247219424924
  0.5890917609309341  0.6445570446066711  0.5072189853901961
  0.6637724849471098  0.3497246407154577  0.5007513106672121
  0.9997349426238600  0.5012667488223883  0.6203015680410502
  0.7498784120474085  0.4987275993734954  0.3795391460957092
  0.8372155184801215  0.6486318209536392  0.4996958805580292
  0.9125529856356778  0.3502182288546720  0.4974378834977031
  0.0845664268558437  0.1428585111862901  0.6255379995094117
  0.1613422754551124  0.8633295436709147  0.6241422332652675
  0.0917164606367749  0.1356491579974133  0.3832032660609670
  0.1604106993875192  0.8573959612730491  0.3822546811075611
  0.3376267203932102  0.1475847606549863  0.6188033245495674
  0.4041699319309586  0.8812656311439824  0.6077693799219190
  0.3412843217319974  0.1355041588244461  0.3769048714746575
  0.4101123237154241  0.8576511228523316  0.3693188019900120
  0.5938466193578122  0.1442438022871713  0.6246847430386921
  0.6564725801796243  0.8651506691009558  0.6239258319791148
  0.5910538667740468  0.1352931034446527  0.3825632770531939
  0.6600968325112007  0.8574359957960738  0.3819381231757148
  0.8414728500659905  0.1373452578992342  0.6220775026819538
  0.9094362732830135  0.8599154200893508  0.6219935793079117
  0.8413020761357970  0.1355638158767789  0.3800375683238428
  0.9105450520921750  0.8576325146343038  0.3801017233412551
  0.0925736405650781  0.6374641875214806  0.6211871982804027
  0.1572566522865770  0.3591387846833811  0.6191193172854810
  0.0909672517754956  0.6366174931617365  0.3793843788640245
  0.1594863700508498  0.3589956302209814  0.3771708534802727
  0.3433611952372928  0.6294279972740782  0.6291517897682155
  0.4097083393169996  0.3572089221243999  0.6221245561441222
  0.3404756550667400  0.6366717863466107  0.3863300353370605
  0.4102755223194450  0.3588116315748522  0.3802189857554055
  0.5927294938505128  0.6319058193944969  0.6285632149578007
  0.6641190579990592  0.3575725070844200  0.6217417079142820
  0.5908148528610084  0.6373706206926286  0.3857489305742376
  0.6596523540472035  0.3595194626015683  0.3797632420067956
  0.8394657169146313  0.6396903567036389  0.6206408532975800
  0.9116640575236516  0.3606843362225405  0.6183710660336104
  0.8407152056869691  0.6373386699542110  0.3787473089930060
  0.9089730368275681  0.3593510014923496  0.3761669535971066
  0.4277735723879914  0.7775008175208313  0.6647733483786595
 
  0.00000000E+00  0.00000000E+00  0.00000000E+00
  0.00000000E+00  0.00000000E+00  0.00000000E+00
  0.00000000E+00  0.00000000E+00  0.00000000E+00
  0.00000000E+00  0.00000000E+00  0.00000000E+00
  0.00000000E+00  0.00000000E+00  0.00000000E+00
  0.00000000E+00  0.00000000E+00  0.00000000E+00
  0.00000000E+00  0.00000000E+00  0.00000000E+00
  0.00000000E+00  0.00000000E+00  0.00000000E+00
  0.00000000E+00  0.00000000E+00  0.00000000E+00
  0.00000000E+00  0.00000000E+00  0.00000000E+00
  0.00000000E+00  0.00000000E+00  0.00000000E+00
  0.00000000E+00  0.00000000E+00  0.00000000E+00
  0.00000000E+00  0.00000000E+00  0.00000000E+00
  0.00000000E+00  0.00000000E+00  0.00000000E+00
  0.00000000E+00  0.00000000E+00  0.00000000E+00
  0.00000000E+00  0.00000000E+00  0.00000000E+00
  0.00000000E+00  0.00000000E+00  0.00000000E+00
  0.00000000E+00  0.00000000E+00  0.00000000E+00
  0.00000000E+00  0.00000000E+00  0.00000000E+00
  0.00000000E+00  0.00000000E+00  0.00000000E+00
  0.00000000E+00  0.00000000E+00  0.00000000E+00
  0.00000000E+00  0.00000000E+00  0.00000000E+00
  0.00000000E+00  0.00000000E+00  0.00000000E+00
  0.00000000E+00  0.00000000E+00  0.00000000E+00
  0.00000000E+00  0.00000000E+00  0.00000000E+00
  0.00000000E+00  0.00000000E+00  0.00000000E+00
  0.00000000E+00  0.00000000E+00  0.00000000E+00
  0.00000000E+00  0.00000000E+00  0.00000000E+00
  0.00000000E+00  0.00000000E+00  0.00000000E+00
  0.00000000E+00  0.00000000E+00  0.00000000E+00
  0.00000000E+00  0.00000000E+00  0.00000000E+00
  0.00000000E+00  0.00000000E+00  0.00000000E+00
  0.00000000E+00  0.00000000E+00  0.00000000E+00
  0.00000000E+00  0.00000000E+00  0.00000000E+00
  0.00000000E+00  0.00000000E+00  0.00000000E+00
  0.00000000E+00  0.00000000E+00  0.00000000E+00
  0.00000000E+00  0.00000000E+00  0.00000000E+00
  0.00000000E+00  0.00000000E+00  0.00000000E+00
  0.00000000E+00  0.00000000E+00  0.00000000E+00
  0.00000000E+00  0.00000000E+00  0.00000000E+00
  0.00000000E+00  0.00000000E+00  0.00000000E+00
  0.00000000E+00  0.00000000E+00  0.00000000E+00
  0.00000000E+00  0.00000000E+00  0.00000000E+00
  0.00000000E+00  0.00000000E+00  0.00000000E+00
  0.00000000E+00  0.00000000E+00  0.00000000E+00
  0.00000000E+00  0.00000000E+00  0.00000000E+00
  0.00000000E+00  0.00000000E+00  0.00000000E+00
  0.00000000E+00  0.00000000E+00  0.00000000E+00
  0.00000000E+00  0.00000000E+00  0.00000000E+00
  0.00000000E+00  0.00000000E+00  0.00000000E+00
  0.00000000E+00  0.00000000E+00  0.00000000E+00
  0.00000000E+00  0.00000000E+00  0.00000000E+00
  0.00000000E+00  0.00000000E+00  0.00000000E+00
  0.00000000E+00  0.00000000E+00  0.00000000E+00
  0.00000000E+00  0.00000000E+00  0.00000000E+00
  0.00000000E+00  0.00000000E+00  0.00000000E+00
  0.00000000E+00  0.00000000E+00  0.00000000E+00
  0.00000000E+00  0.00000000E+00  0.00000000E+00
  0.00000000E+00  0.00000000E+00  0.00000000E+00
  0.00000000E+00  0.00000000E+00  0.00000000E+00
  0.00000000E+00  0.00000000E+00  0.00000000E+00
  0.00000000E+00  0.00000000E+00  0.00000000E+00
  0.00000000E+00  0.00000000E+00  0.00000000E+00
  0.00000000E+00  0.00000000E+00  0.00000000E+00
  0.00000000E+00  0.00000000E+00  0.00000000E+00
