CONTCAR\(4)                             
   1.00000000000000     
    11.0504999160999997    0.0000000000000000    0.0000000000000000
     0.0000000000000000   15.0270004272000008    0.0000000000000000
     0.0000000000000000    0.0000000000000000   19.5720996856999996
   Ta   Ni   Te   O 
     6     6    30     1
Direct
  0.0001327418244553  0.7530909258418712  0.4960174237672872
  0.9992930871796201  0.2517035615900898  0.5046621396327712
  0.3332949948579749  0.7526171812487332  0.4965020624443410
  0.3333635983171000  0.2512015695876529  0.5075020733953484
  0.6665387698681690  0.7529822566801601  0.4960047728642363
  0.6674318827654222  0.2517049078064204  0.5045660835074002
  0.1634774973657303  0.5045542756884400  0.4995692937827614
  0.1671467471365147  0.0022896593305472  0.5015401763264923
  0.5036117407808361  0.5044674391390113  0.4992593522593462
  0.4990830097178375  0.0021570669397327  0.5016157104969353
  0.8336477945729842  0.5025698415954564  0.4995514711330384
  0.8332989445994473  0.0024514196987615  0.4997685507820573
  0.0004250978510587  0.4252659799173062  0.5716706181717774
  0.1680866378219238  0.3572214530296902  0.4286692831834304
  0.9988346949747252  0.5809228723935596  0.4275136487435878
  0.0010200542533399  0.9266495410385007  0.4290084983542036
  0.9989137954302972  0.0784916553142438  0.5719093603936799
  0.1670473062625396  0.7537929344897951  0.3846027348298753
  0.1667820947683522  0.8574060797142735  0.5734539642912025
  0.1640088930348164  0.2503082562833095  0.6168277008599028
  0.1680365874982746  0.1461084209068846  0.4295832321766049
  0.1659523082441444  0.6471105451308959  0.5726564297663177
  0.3336652851476306  0.4323904252248479  0.5656862817710753
  0.4987046308544214  0.3569893472389397  0.4284189138953132
  0.3333851445590346  0.5806551546332256  0.4277015867799304
  0.3331926189933133  0.9258187520877207  0.4293128254886485
  0.3332393779445499  0.0781152766762708  0.5740549721927847
  0.4995091183192790  0.7538261332105221  0.3845752136624949
  0.4998643851572542  0.8571630602932143  0.5735059388026550
  0.5028378942129653  0.2502917236265521  0.6167317336832737
  0.4986048510714366  0.1459273432325702  0.4296545244834711
  0.5007229815531536  0.6468895606020876  0.5724549833490016
  0.6665247245565686  0.4252721698509306  0.5715710897815424
  0.8334611841864085  0.3573588406749958  0.4279512187981588
  0.6681554369678208  0.5809004998869893  0.4274074385492196
  0.6653939564776116  0.9265508285399924  0.4291991696094833
  0.6675568327266026  0.0785312763239943  0.5717725945763963
  0.8333550143404341  0.7537858930560827  0.3845163127513752
  0.8332958770641800  0.8576300152647135  0.5725178593867698
  0.8332680518672064  0.2514582240655142  0.6160844720667853
  0.8333747693478794  0.1470482668778276  0.4271123121288391
  0.8333959657340507  0.6472423758958906  0.5722257551546459
  0.3333731807926479  0.4601869053717747  0.6578100799255382
 
  0.00000000E+00  0.00000000E+00  0.00000000E+00
  0.00000000E+00  0.00000000E+00  0.00000000E+00
  0.00000000E+00  0.00000000E+00  0.00000000E+00
  0.00000000E+00  0.00000000E+00  0.00000000E+00
  0.00000000E+00  0.00000000E+00  0.00000000E+00
  0.00000000E+00  0.00000000E+00  0.00000000E+00
  0.00000000E+00  0.00000000E+00  0.00000000E+00
  0.00000000E+00  0.00000000E+00  0.00000000E+00
  0.00000000E+00  0.00000000E+00  0.00000000E+00
  0.00000000E+00  0.00000000E+00  0.00000000E+00
  0.00000000E+00  0.00000000E+00  0.00000000E+00
  0.00000000E+00  0.00000000E+00  0.00000000E+00
  0.00000000E+00  0.00000000E+00  0.00000000E+00
  0.00000000E+00  0.00000000E+00  0.00000000E+00
  0.00000000E+00  0.00000000E+00  0.00000000E+00
  0.00000000E+00  0.00000000E+00  0.00000000E+00
  0.00000000E+00  0.00000000E+00  0.00000000E+00
  0.00000000E+00  0.00000000E+00  0.00000000E+00
  0.00000000E+00  0.00000000E+00  0.00000000E+00
  0.00000000E+00  0.00000000E+00  0.00000000E+00
  0.00000000E+00  0.00000000E+00  0.00000000E+00
  0.00000000E+00  0.00000000E+00  0.00000000E+00
  0.00000000E+00  0.00000000E+00  0.00000000E+00
  0.00000000E+00  0.00000000E+00  0.00000000E+00
  0.00000000E+00  0.00000000E+00  0.00000000E+00
  0.00000000E+00  0.00000000E+00  0.00000000E+00
  0.00000000E+00  0.00000000E+00  0.00000000E+00
  0.00000000E+00  0.00000000E+00  0.00000000E+00
  0.00000000E+00  0.00000000E+00  0.00000000E+00
  0.00000000E+00  0.00000000E+00  0.00000000E+00
  0.00000000E+00  0.00000000E+00  0.00000000E+00
  0.00000000E+00  0.00000000E+00  0.00000000E+00
  0.00000000E+00  0.00000000E+00  0.00000000E+00
  0.00000000E+00  0.00000000E+00  0.00000000E+00
  0.00000000E+00  0.00000000E+00  0.00000000E+00
  0.00000000E+00  0.00000000E+00  0.00000000E+00
  0.00000000E+00  0.00000000E+00  0.00000000E+00
  0.00000000E+00  0.00000000E+00  0.00000000E+00
  0.00000000E+00  0.00000000E+00  0.00000000E+00
  0.00000000E+00  0.00000000E+00  0.00000000E+00
  0.00000000E+00  0.00000000E+00  0.00000000E+00
  0.00000000E+00  0.00000000E+00  0.00000000E+00
  0.00000000E+00  0.00000000E+00  0.00000000E+00
