CONTCAR\(4)                             
   1.00000000000000     
    13.2014999389999996    0.0000000000000000    0.0000000000000000
     0.0000000000000000   13.2058000564999993    0.0000000000000000
     0.0000000000000000    0.0000000000000000   24.5515995025999985
   La   Te   O 
    18    54     1
Direct
  0.1672299170893429  0.1671030774411496  0.5884737067114649
  0.9999703045100848 -0.0000283312557540  0.4126987500055276
  0.4995999630152844  0.1651654639703409  0.5878056726885387
  0.3331703031826784  0.9997473305896547  0.4131692917266394
  0.8342667147777666  0.1660890464234611  0.5871071539685644
  0.6664488790376609  0.9997133101130198  0.4129741930032315
  0.1651493132381091  0.4995395678384011  0.5878340976270416
  0.9997467759665105  0.3331689960929027  0.4131753480474629
  0.5014274665926975  0.5015141221198431  0.5892362481215773
  0.3332602098722878  0.3332739712941696  0.4140054382235683
  0.8333614222250457  0.4995539414940863  0.5881922039715312
  0.6663451137551571  0.3331533644157093  0.4134721435094846
  0.1660970644378857  0.8341888888467984  0.5870419776445807
  0.9996936856866374  0.6664346281242979  0.4129438505932219
  0.4995310966036260  0.8334330031489524  0.5882513449689326
  0.3331631331683592  0.6663607521686418  0.4134613281878654
  0.8333165022795648  0.8332980246764558  0.5870429552717932
  0.6663751731384356  0.6663926565031038  0.4132064096285397
  0.1668567808232529 -0.0002114676423050  0.3068365517234413
  0.9990743531404251  0.1700707313868872  0.6943108746573629
  0.1697701354954758  0.9987473060151516  0.6943279655871367
  0.9997548228799342  0.1668755525495297  0.3068504062940377
  0.1666674071882477  0.1666582132398998  0.4517803872010338
  0.0007474115485817  0.0007483804771328  0.5490798365750231
  0.4997153387950004  0.9998413150384171  0.3070702435521753
  0.3353553068533926  0.1657754202678543  0.6943298884314748
  0.5003669959478888  0.9992748992609932  0.6948175484770328
  0.3330343857488025  0.1666185488380559  0.3075782860802632
  0.4998071536565057  0.1663369754392647  0.4517735667815089
  0.3332985840523788  0.9997750034732588  0.5498169780828012
  0.8331412606911598  0.9998652835590981  0.3066384601416949
  0.6709867008164990  0.1586127140703494  0.6931506274078858
  0.8393005723551594  0.9994952063999192  0.6931183398627107
  0.6660701336578171  0.1663081854071942  0.3070849177551244
  0.8330421955879677  0.1664507811891910  0.4509791535525813
  0.6665321713584651  0.9993398545924780  0.5495609485030774
  0.1665938246012843  0.3330108665076132  0.3075726229618815
  0.9987841032348036  0.5007104653976030  0.6947320914530671
  0.1657932502794547  0.3349776847314356  0.6943602955670187
  0.9998341498721975  0.4997145232723117  0.3070973090654496
  0.1663269657255146  0.4998170586309997  0.4517852394114683
  0.9998028213958299  0.3333088157923266  0.5498362841253720
  0.4995579044508744  0.3330870289309796  0.3076800680455057
  0.3271810147474665  0.5157983318787298  0.6989056113338621
  0.5160299485775215  0.3275099242745471  0.6986949840386575
  0.3330687169158493  0.4996304369674310  0.3076882429862603
  0.4999503979931548  0.4999600535182171  0.4526320938110290
  0.3347933979742248  0.3347337644257894  0.5517390271891371
  0.8331227676383124  0.3334909887865152  0.3072359550194229
  0.6703455065054051  0.4986710265851644  0.6959113921196601
  0.8349815298079503  0.3333241717877605  0.6943937952766495
  0.6665411375335231  0.4996802578054996  0.3072771763899522
  0.8329732949056688  0.4997442062976271  0.4515795368947818
  0.6657124971167476  0.3331095141707910  0.5509462848925033
  0.1663115559535304  0.6660416034442729  0.3070530561711801
  0.9996577277659472  0.8392961435511632  0.6931313788044112
  0.1589024700179111  0.6707418898832253  0.6929830058205716
 -0.0001522979523951  0.8331298626564890  0.3066394251552234
  0.1664674139873713  0.8330519575531552  0.4509549405059223
  0.9993401481505650  0.6665115282295698  0.5495318714324917
  0.4996605589193661  0.6665489718319166  0.3072606013457569
  0.3330322788791298  0.8355094835153694  0.6943748721231880
  0.4988346058769008  0.6704312789260934  0.6958835267287405
  0.3334052066330631  0.8332137769417336  0.3072095020864938
  0.4997441658345872  0.8330087276531147  0.4516028090527838
  0.3331559318446239  0.6657149168187712  0.5509168882847610
  0.8328558586652638  0.6663936268068693  0.3070274731996877
  0.6665234762248471  0.8331193541159904  0.6936821823376773
  0.8336614552650568  0.6664760404324772  0.6936689096175848
  0.6663053546003770  0.8329130780340500  0.3070413566665163
  0.8332766462177443  0.8332576451320644  0.4509203178715183
  0.6661919080428577  0.6661887681392966  0.5501080300028646
  0.4071075516233967  0.4066279440054402  0.7383945096450517
 
  0.00000000E+00  0.00000000E+00  0.00000000E+00
  0.00000000E+00  0.00000000E+00  0.00000000E+00
  0.00000000E+00  0.00000000E+00  0.00000000E+00
  0.00000000E+00  0.00000000E+00  0.00000000E+00
  0.00000000E+00  0.00000000E+00  0.00000000E+00
  0.00000000E+00  0.00000000E+00  0.00000000E+00
  0.00000000E+00  0.00000000E+00  0.00000000E+00
  0.00000000E+00  0.00000000E+00  0.00000000E+00
  0.00000000E+00  0.00000000E+00  0.00000000E+00
  0.00000000E+00  0.00000000E+00  0.00000000E+00
  0.00000000E+00  0.00000000E+00  0.00000000E+00
  0.00000000E+00  0.00000000E+00  0.00000000E+00
  0.00000000E+00  0.00000000E+00  0.00000000E+00
  0.00000000E+00  0.00000000E+00  0.00000000E+00
  0.00000000E+00  0.00000000E+00  0.00000000E+00
  0.00000000E+00  0.00000000E+00  0.00000000E+00
  0.00000000E+00  0.00000000E+00  0.00000000E+00
  0.00000000E+00  0.00000000E+00  0.00000000E+00
  0.00000000E+00  0.00000000E+00  0.00000000E+00
  0.00000000E+00  0.00000000E+00  0.00000000E+00
  0.00000000E+00  0.00000000E+00  0.00000000E+00
  0.00000000E+00  0.00000000E+00  0.00000000E+00
  0.00000000E+00  0.00000000E+00  0.00000000E+00
  0.00000000E+00  0.00000000E+00  0.00000000E+00
  0.00000000E+00  0.00000000E+00  0.00000000E+00
  0.00000000E+00  0.00000000E+00  0.00000000E+00
  0.00000000E+00  0.00000000E+00  0.00000000E+00
  0.00000000E+00  0.00000000E+00  0.00000000E+00
  0.00000000E+00  0.00000000E+00  0.00000000E+00
  0.00000000E+00  0.00000000E+00  0.00000000E+00
  0.00000000E+00  0.00000000E+00  0.00000000E+00
  0.00000000E+00  0.00000000E+00  0.00000000E+00
  0.00000000E+00  0.00000000E+00  0.00000000E+00
  0.00000000E+00  0.00000000E+00  0.00000000E+00
  0.00000000E+00  0.00000000E+00  0.00000000E+00
  0.00000000E+00  0.00000000E+00  0.00000000E+00
  0.00000000E+00  0.00000000E+00  0.00000000E+00
  0.00000000E+00  0.00000000E+00  0.00000000E+00
  0.00000000E+00  0.00000000E+00  0.00000000E+00
  0.00000000E+00  0.00000000E+00  0.00000000E+00
  0.00000000E+00  0.00000000E+00  0.00000000E+00
  0.00000000E+00  0.00000000E+00  0.00000000E+00
  0.00000000E+00  0.00000000E+00  0.00000000E+00
  0.00000000E+00  0.00000000E+00  0.00000000E+00
  0.00000000E+00  0.00000000E+00  0.00000000E+00
  0.00000000E+00  0.00000000E+00  0.00000000E+00
  0.00000000E+00  0.00000000E+00  0.00000000E+00
  0.00000000E+00  0.00000000E+00  0.00000000E+00
  0.00000000E+00  0.00000000E+00  0.00000000E+00
  0.00000000E+00  0.00000000E+00  0.00000000E+00
  0.00000000E+00  0.00000000E+00  0.00000000E+00
  0.00000000E+00  0.00000000E+00  0.00000000E+00
  0.00000000E+00  0.00000000E+00  0.00000000E+00
  0.00000000E+00  0.00000000E+00  0.00000000E+00
  0.00000000E+00  0.00000000E+00  0.00000000E+00
  0.00000000E+00  0.00000000E+00  0.00000000E+00
  0.00000000E+00  0.00000000E+00  0.00000000E+00
  0.00000000E+00  0.00000000E+00  0.00000000E+00
  0.00000000E+00  0.00000000E+00  0.00000000E+00
  0.00000000E+00  0.00000000E+00  0.00000000E+00
  0.00000000E+00  0.00000000E+00  0.00000000E+00
  0.00000000E+00  0.00000000E+00  0.00000000E+00
  0.00000000E+00  0.00000000E+00  0.00000000E+00
  0.00000000E+00  0.00000000E+00  0.00000000E+00
  0.00000000E+00  0.00000000E+00  0.00000000E+00
  0.00000000E+00  0.00000000E+00  0.00000000E+00
  0.00000000E+00  0.00000000E+00  0.00000000E+00
  0.00000000E+00  0.00000000E+00  0.00000000E+00
  0.00000000E+00  0.00000000E+00  0.00000000E+00
  0.00000000E+00  0.00000000E+00  0.00000000E+00
  0.00000000E+00  0.00000000E+00  0.00000000E+00
  0.00000000E+00  0.00000000E+00  0.00000000E+00
  0.00000000E+00  0.00000000E+00  0.00000000E+00
