CONTCAR\(6)                             
   1.00000000000000     
    13.7187995910999998    0.0000000000000000    0.0000000000000000
    -4.5729412920000003   17.9978325079000001    0.0000000000000000
     0.0000000000000000    0.0000000000000000   21.4340000153000005
   Ag   Te   Mo   O 
     6    36    36     1
Direct
  0.9988354663319873  0.0005826703053082  0.4992631712988582
  0.3351693106938409 -0.0000180119434639  0.5007824385268504
  0.6660489405866740 -0.0002135826394148  0.5006382619354005
  0.9986129058527897  0.5005557461080548  0.5009952400578459
  0.3324849509851781  0.4997874087507559  0.4861227196132124
  0.6673784747965599  0.5004536266921085  0.5003056219036349
  0.2583498280524885  0.2752583423164470  0.6478264829034638
  0.1407978349585952  0.4161329147934703  0.5619939712959465
  0.1947802878813426  0.0841592823780077  0.4359778184898766
  0.0364933611411367  0.1087059760761849  0.5964471622032255
  0.2962357926218861  0.3876581037519208  0.3969485002116604
  0.0742619251364731  0.2253321934873879  0.3497626651316165
  0.5913207246551910  0.2744823712783465  0.6489068146342637
  0.4706352810794486  0.4160511969948409  0.5619891318424217
  0.5286151743358362  0.0844462671101672  0.4362226368583202
  0.3693275872009455  0.1090366105686149  0.5971764126209370
  0.6310918593132047  0.3922287919551118  0.4026647889691343
  0.4092015721737645  0.2243114352422314  0.3500290877632726
  0.9254366614607583  0.2742901998495071  0.6487370388643168
  0.8049664819011420  0.4150290925630761  0.5647054025451440
  0.8613289438831401  0.0854459168266555  0.4350727995063014
  0.7028612572997741  0.1085248209473957  0.5968348482012146
  0.9640413732978712  0.3927246776441766  0.4029234542035631
  0.7419932541824421  0.2270543894484436  0.3502545632080137
  0.2452517732710493  0.7760489888066603  0.6522313536641655
  0.1391501673416824  0.9164678575342570  0.5639301139485450
  0.1966247112439824  0.5855924356951929  0.4387349947704217
  0.0343182442521069  0.6086022408601016  0.5986726954008659
  0.2984318700767532  0.8912157234811436  0.4049123322638307
  0.0768693590704094  0.7256044247001565  0.3522499982545406
  0.6043684929366779  0.7747234426194677  0.6523873230063876
  0.4715198333129464  0.9135639194195869  0.5692076659271896
  0.5263863696848763  0.5853155630304578  0.4387255783107703
  0.3702251776769996  0.6019695952088038  0.6009459382291273
  0.6291278404877630  0.8912294984840493  0.4049718738353031
  0.4082689856158584  0.7245664110576611  0.3557852544665422
  0.9250985909839514  0.7749779870789725  0.6503124707249567
  0.8050565982035901  0.9161976639478032  0.5645572269583503
  0.8617480919926738  0.5854646476326946  0.4358411937301853
  0.7048311131275353  0.6083158719373591  0.5985210256996373
  0.9635845964834182  0.8917157661262357  0.4029597003999813
  0.7400755978488961  0.7256731957868519  0.3522345452213909
  0.1059279960615110  0.3178872278223159  0.4551678199976965
  0.2274909241995247  0.1823752287575262  0.5425664244736058
  0.0566831996810081  0.1708543303470685  0.4727143777494059
  0.2766714531879482  0.3292452872762137  0.5242545547677439
  0.0873479575634611  0.2617159751220451  0.5698350154383452
  0.2460054386831126  0.2377133318891141  0.4276830222978587
  0.4394863490841083  0.3175584941485108  0.4552694302972057
  0.5608773510608904  0.1823626248310347  0.5431978786262818
  0.3905377952078696  0.1706024120402624  0.4731987162714726
  0.6096111740020410  0.3295667423667945  0.5260202015747751
  0.4205779288177395  0.2616984964580834  0.5701366909446931
  0.5799105133685052  0.2389528111387306  0.4287873949255313
  0.7728313755467837  0.3184707679466161  0.4565846341181307
  0.8942141838602341  0.1824638852339451  0.5427710070471264
  0.7238396945650714  0.1713003111949452  0.4731303350623932
  0.9436412272723168  0.3297219846939212  0.5259842230168871
  0.7539175856586914  0.2613626253326155  0.5707966442472674
  0.9129355346429506  0.2394775470189597  0.4284645427913229
  0.1063203263785168  0.8184385046101510  0.4573975781522781
  0.2242662677222226  0.6817803693625545  0.5468597945295381
  0.0568100538868033  0.6708240992554019  0.4750797534013339
  0.2773297532573549  0.8290306260764159  0.5295914367118840
  0.0848974477002766  0.7624560438949659  0.5716580555133068
  0.2468356117389698  0.7391855953295000  0.4325668060434427
  0.4397847418497538  0.8188836084386317  0.4598518598882053
  0.5635292246698995  0.6812265560291607  0.5468522120703625
  0.3909999866032855  0.6736795294522143  0.4813269028383693
  0.6086800138432162  0.8287399447429568  0.5298665567859923
  0.4210529711513071  0.7627061813221171  0.5833731621966571
  0.5791622570506932  0.7389759801512749  0.4326165628294524
  0.7723256259452647  0.8181934883044015  0.4576541669640092
  0.8941467244028276  0.6825509645998185  0.5439337025768151
  0.7236588711683677  0.6707046391341859  0.4750267700701876
  0.9433939377462373  0.8302751753364247  0.5269221047378090
  0.7564662838889121  0.7621576120040067  0.5718395122174956
  0.9130719529364233  0.7392896391539696  0.4297724449956878
  0.3940942871622692  0.6896776032703681  0.6581853302287377
 
  0.00000000E+00  0.00000000E+00  0.00000000E+00
  0.00000000E+00  0.00000000E+00  0.00000000E+00
  0.00000000E+00  0.00000000E+00  0.00000000E+00
  0.00000000E+00  0.00000000E+00  0.00000000E+00
  0.00000000E+00  0.00000000E+00  0.00000000E+00
  0.00000000E+00  0.00000000E+00  0.00000000E+00
  0.00000000E+00  0.00000000E+00  0.00000000E+00
  0.00000000E+00  0.00000000E+00  0.00000000E+00
  0.00000000E+00  0.00000000E+00  0.00000000E+00
  0.00000000E+00  0.00000000E+00  0.00000000E+00
  0.00000000E+00  0.00000000E+00  0.00000000E+00
  0.00000000E+00  0.00000000E+00  0.00000000E+00
  0.00000000E+00  0.00000000E+00  0.00000000E+00
  0.00000000E+00  0.00000000E+00  0.00000000E+00
  0.00000000E+00  0.00000000E+00  0.00000000E+00
  0.00000000E+00  0.00000000E+00  0.00000000E+00
  0.00000000E+00  0.00000000E+00  0.00000000E+00
  0.00000000E+00  0.00000000E+00  0.00000000E+00
  0.00000000E+00  0.00000000E+00  0.00000000E+00
  0.00000000E+00  0.00000000E+00  0.00000000E+00
  0.00000000E+00  0.00000000E+00  0.00000000E+00
  0.00000000E+00  0.00000000E+00  0.00000000E+00
  0.00000000E+00  0.00000000E+00  0.00000000E+00
  0.00000000E+00  0.00000000E+00  0.00000000E+00
  0.00000000E+00  0.00000000E+00  0.00000000E+00
  0.00000000E+00  0.00000000E+00  0.00000000E+00
  0.00000000E+00  0.00000000E+00  0.00000000E+00
  0.00000000E+00  0.00000000E+00  0.00000000E+00
  0.00000000E+00  0.00000000E+00  0.00000000E+00
  0.00000000E+00  0.00000000E+00  0.00000000E+00
  0.00000000E+00  0.00000000E+00  0.00000000E+00
  0.00000000E+00  0.00000000E+00  0.00000000E+00
  0.00000000E+00  0.00000000E+00  0.00000000E+00
  0.00000000E+00  0.00000000E+00  0.00000000E+00
  0.00000000E+00  0.00000000E+00  0.00000000E+00
  0.00000000E+00  0.00000000E+00  0.00000000E+00
  0.00000000E+00  0.00000000E+00  0.00000000E+00
  0.00000000E+00  0.00000000E+00  0.00000000E+00
  0.00000000E+00  0.00000000E+00  0.00000000E+00
  0.00000000E+00  0.00000000E+00  0.00000000E+00
  0.00000000E+00  0.00000000E+00  0.00000000E+00
  0.00000000E+00  0.00000000E+00  0.00000000E+00
  0.00000000E+00  0.00000000E+00  0.00000000E+00
  0.00000000E+00  0.00000000E+00  0.00000000E+00
  0.00000000E+00  0.00000000E+00  0.00000000E+00
  0.00000000E+00  0.00000000E+00  0.00000000E+00
  0.00000000E+00  0.00000000E+00  0.00000000E+00
  0.00000000E+00  0.00000000E+00  0.00000000E+00
  0.00000000E+00  0.00000000E+00  0.00000000E+00
  0.00000000E+00  0.00000000E+00  0.00000000E+00
  0.00000000E+00  0.00000000E+00  0.00000000E+00
  0.00000000E+00  0.00000000E+00  0.00000000E+00
  0.00000000E+00  0.00000000E+00  0.00000000E+00
  0.00000000E+00  0.00000000E+00  0.00000000E+00
  0.00000000E+00  0.00000000E+00  0.00000000E+00
  0.00000000E+00  0.00000000E+00  0.00000000E+00
  0.00000000E+00  0.00000000E+00  0.00000000E+00
  0.00000000E+00  0.00000000E+00  0.00000000E+00
  0.00000000E+00  0.00000000E+00  0.00000000E+00
  0.00000000E+00  0.00000000E+00  0.00000000E+00
  0.00000000E+00  0.00000000E+00  0.00000000E+00
  0.00000000E+00  0.00000000E+00  0.00000000E+00
  0.00000000E+00  0.00000000E+00  0.00000000E+00
  0.00000000E+00  0.00000000E+00  0.00000000E+00
  0.00000000E+00  0.00000000E+00  0.00000000E+00
  0.00000000E+00  0.00000000E+00  0.00000000E+00
  0.00000000E+00  0.00000000E+00  0.00000000E+00
  0.00000000E+00  0.00000000E+00  0.00000000E+00
  0.00000000E+00  0.00000000E+00  0.00000000E+00
  0.00000000E+00  0.00000000E+00  0.00000000E+00
  0.00000000E+00  0.00000000E+00  0.00000000E+00
  0.00000000E+00  0.00000000E+00  0.00000000E+00
  0.00000000E+00  0.00000000E+00  0.00000000E+00
  0.00000000E+00  0.00000000E+00  0.00000000E+00
  0.00000000E+00  0.00000000E+00  0.00000000E+00
  0.00000000E+00  0.00000000E+00  0.00000000E+00
  0.00000000E+00  0.00000000E+00  0.00000000E+00
  0.00000000E+00  0.00000000E+00  0.00000000E+00
  0.00000000E+00  0.00000000E+00  0.00000000E+00
