G   45   15    1    0.005     # Parameters to Generate KPOINTS (Don't Edit This Line)
     184
Reciprocal lattice
    0.000000000000    0.000000000000    0.000000000000       1
    0.022222222222    0.000000000000    0.000000000000       2
    0.044444444444    0.000000000000    0.000000000000       2
    0.066666666667    0.000000000000    0.000000000000       2
    0.088888888889    0.000000000000    0.000000000000       2
    0.111111111111    0.000000000000    0.000000000000       2
    0.133333333333    0.000000000000    0.000000000000       2
    0.155555555556    0.000000000000    0.000000000000       2
    0.177777777778    0.000000000000    0.000000000000       2
    0.200000000000    0.000000000000    0.000000000000       2
    0.222222222222    0.000000000000    0.000000000000       2
    0.244444444444    0.000000000000    0.000000000000       2
    0.266666666667    0.000000000000    0.000000000000       2
    0.288888888889    0.000000000000    0.000000000000       2
    0.311111111111    0.000000000000    0.000000000000       2
    0.333333333333    0.000000000000    0.000000000000       2
    0.355555555556    0.000000000000    0.000000000000       2
    0.377777777778    0.000000000000    0.000000000000       2
    0.400000000000    0.000000000000    0.000000000000       2
    0.422222222222    0.000000000000    0.000000000000       2
    0.444444444444    0.000000000000    0.000000000000       2
    0.466666666667    0.000000000000    0.000000000000       2
    0.488888888889    0.000000000000    0.000000000000       2
    0.000000000000    0.066666666667    0.000000000000       2
    0.022222222222    0.066666666667    0.000000000000       4
    0.044444444444    0.066666666667    0.000000000000       4
    0.066666666667    0.066666666667    0.000000000000       4
    0.088888888889    0.066666666667    0.000000000000       4
    0.111111111111    0.066666666667    0.000000000000       4
    0.133333333333    0.066666666667    0.000000000000       4
    0.155555555556    0.066666666667    0.000000000000       4
    0.177777777778    0.066666666667    0.000000000000       4
    0.200000000000    0.066666666667    0.000000000000       4
    0.222222222222    0.066666666667    0.000000000000       4
    0.244444444444    0.066666666667    0.000000000000       4
    0.266666666667    0.066666666667    0.000000000000       4
    0.288888888889    0.066666666667    0.000000000000       4
    0.311111111111    0.066666666667    0.000000000000       4
    0.333333333333    0.066666666667    0.000000000000       4
    0.355555555556    0.066666666667    0.000000000000       4
    0.377777777778    0.066666666667    0.000000000000       4
    0.400000000000    0.066666666667    0.000000000000       4
    0.422222222222    0.066666666667    0.000000000000       4
    0.444444444444    0.066666666667    0.000000000000       4
    0.466666666667    0.066666666667    0.000000000000       4
    0.488888888889    0.066666666667    0.000000000000       4
    0.000000000000    0.133333333333    0.000000000000       2
    0.022222222222    0.133333333333    0.000000000000       4
    0.044444444444    0.133333333333    0.000000000000       4
    0.066666666667    0.133333333333    0.000000000000       4
    0.088888888889    0.133333333333    0.000000000000       4
    0.111111111111    0.133333333333    0.000000000000       4
    0.133333333333    0.133333333333    0.000000000000       4
    0.155555555556    0.133333333333    0.000000000000       4
    0.177777777778    0.133333333333    0.000000000000       4
    0.200000000000    0.133333333333    0.000000000000       4
    0.222222222222    0.133333333333    0.000000000000       4
    0.244444444444    0.133333333333    0.000000000000       4
    0.266666666667    0.133333333333    0.000000000000       4
    0.288888888889    0.133333333333    0.000000000000       4
    0.311111111111    0.133333333333    0.000000000000       4
    0.333333333333    0.133333333333    0.000000000000       4
    0.355555555556    0.133333333333    0.000000000000       4
    0.377777777778    0.133333333333    0.000000000000       4
    0.400000000000    0.133333333333    0.000000000000       4
    0.422222222222    0.133333333333    0.000000000000       4
    0.444444444444    0.133333333333    0.000000000000       4
    0.466666666667    0.133333333333    0.000000000000       4
    0.488888888889    0.133333333333    0.000000000000       4
    0.000000000000    0.200000000000    0.000000000000       2
    0.022222222222    0.200000000000    0.000000000000       4
    0.044444444444    0.200000000000    0.000000000000       4
    0.066666666667    0.200000000000    0.000000000000       4
    0.088888888889    0.200000000000    0.000000000000       4
    0.111111111111    0.200000000000    0.000000000000       4
    0.133333333333    0.200000000000    0.000000000000       4
    0.155555555556    0.200000000000    0.000000000000       4
    0.177777777778    0.200000000000    0.000000000000       4
    0.200000000000    0.200000000000    0.000000000000       4
    0.222222222222    0.200000000000    0.000000000000       4
    0.244444444444    0.200000000000    0.000000000000       4
    0.266666666667    0.200000000000    0.000000000000       4
    0.288888888889    0.200000000000    0.000000000000       4
    0.311111111111    0.200000000000    0.000000000000       4
    0.333333333333    0.200000000000    0.000000000000       4
    0.355555555556    0.200000000000    0.000000000000       4
    0.377777777778    0.200000000000    0.000000000000       4
    0.400000000000    0.200000000000    0.000000000000       4
    0.422222222222    0.200000000000    0.000000000000       4
    0.444444444444    0.200000000000    0.000000000000       4
    0.466666666667    0.200000000000    0.000000000000       4
    0.488888888889    0.200000000000    0.000000000000       4
    0.000000000000    0.266666666667    0.000000000000       2
    0.022222222222    0.266666666667    0.000000000000       4
    0.044444444444    0.266666666667    0.000000000000       4
    0.066666666667    0.266666666667    0.000000000000       4
    0.088888888889    0.266666666667    0.000000000000       4
    0.111111111111    0.266666666667    0.000000000000       4
    0.133333333333    0.266666666667    0.000000000000       4
    0.155555555556    0.266666666667    0.000000000000       4
    0.177777777778    0.266666666667    0.000000000000       4
    0.200000000000    0.266666666667    0.000000000000       4
    0.222222222222    0.266666666667    0.000000000000       4
    0.244444444444    0.266666666667    0.000000000000       4
    0.266666666667    0.266666666667    0.000000000000       4
    0.288888888889    0.266666666667    0.000000000000       4
    0.311111111111    0.266666666667    0.000000000000       4
    0.333333333333    0.266666666667    0.000000000000       4
    0.355555555556    0.266666666667    0.000000000000       4
    0.377777777778    0.266666666667    0.000000000000       4
    0.400000000000    0.266666666667    0.000000000000       4
    0.422222222222    0.266666666667    0.000000000000       4
    0.444444444444    0.266666666667    0.000000000000       4
    0.466666666667    0.266666666667    0.000000000000       4
    0.488888888889    0.266666666667    0.000000000000       4
    0.000000000000    0.333333333333    0.000000000000       2
    0.022222222222    0.333333333333    0.000000000000       4
    0.044444444444    0.333333333333    0.000000000000       4
    0.066666666667    0.333333333333    0.000000000000       4
    0.088888888889    0.333333333333    0.000000000000       4
    0.111111111111    0.333333333333    0.000000000000       4
    0.133333333333    0.333333333333    0.000000000000       4
    0.155555555556    0.333333333333    0.000000000000       4
    0.177777777778    0.333333333333    0.000000000000       4
    0.200000000000    0.333333333333    0.000000000000       4
    0.222222222222    0.333333333333    0.000000000000       4
    0.244444444444    0.333333333333    0.000000000000       4
    0.266666666667    0.333333333333    0.000000000000       4
    0.288888888889    0.333333333333    0.000000000000       4
    0.311111111111    0.333333333333    0.000000000000       4
    0.333333333333    0.333333333333    0.000000000000       4
    0.355555555556    0.333333333333    0.000000000000       4
    0.377777777778    0.333333333333    0.000000000000       4
    0.400000000000    0.333333333333    0.000000000000       4
    0.422222222222    0.333333333333    0.000000000000       4
    0.444444444444    0.333333333333    0.000000000000       4
    0.466666666667    0.333333333333    0.000000000000       4
    0.488888888889    0.333333333333    0.000000000000       4
    0.000000000000    0.400000000000    0.000000000000       2
    0.022222222222    0.400000000000    0.000000000000       4
    0.044444444444    0.400000000000    0.000000000000       4
    0.066666666667    0.400000000000    0.000000000000       4
    0.088888888889    0.400000000000    0.000000000000       4
    0.111111111111    0.400000000000    0.000000000000       4
    0.133333333333    0.400000000000    0.000000000000       4
    0.155555555556    0.400000000000    0.000000000000       4
    0.177777777778    0.400000000000    0.000000000000       4
    0.200000000000    0.400000000000    0.000000000000       4
    0.222222222222    0.400000000000    0.000000000000       4
    0.244444444444    0.400000000000    0.000000000000       4
    0.266666666667    0.400000000000    0.000000000000       4
    0.288888888889    0.400000000000    0.000000000000       4
    0.311111111111    0.400000000000    0.000000000000       4
    0.333333333333    0.400000000000    0.000000000000       4
    0.355555555556    0.400000000000    0.000000000000       4
    0.377777777778    0.400000000000    0.000000000000       4
    0.400000000000    0.400000000000    0.000000000000       4
    0.422222222222    0.400000000000    0.000000000000       4
    0.444444444444    0.400000000000    0.000000000000       4
    0.466666666667    0.400000000000    0.000000000000       4
    0.488888888889    0.400000000000    0.000000000000       4
    0.000000000000    0.466666666667    0.000000000000       2
    0.022222222222    0.466666666667    0.000000000000       4
    0.044444444444    0.466666666667    0.000000000000       4
    0.066666666667    0.466666666667    0.000000000000       4
    0.088888888889    0.466666666667    0.000000000000       4
    0.111111111111    0.466666666667    0.000000000000       4
    0.133333333333    0.466666666667    0.000000000000       4
    0.155555555556    0.466666666667    0.000000000000       4
    0.177777777778    0.466666666667    0.000000000000       4
    0.200000000000    0.466666666667    0.000000000000       4
    0.222222222222    0.466666666667    0.000000000000       4
    0.244444444444    0.466666666667    0.000000000000       4
    0.266666666667    0.466666666667    0.000000000000       4
    0.288888888889    0.466666666667    0.000000000000       4
    0.311111111111    0.466666666667    0.000000000000       4
    0.333333333333    0.466666666667    0.000000000000       4
    0.355555555556    0.466666666667    0.000000000000       4
    0.377777777778    0.466666666667    0.000000000000       4
    0.400000000000    0.466666666667    0.000000000000       4
    0.422222222222    0.466666666667    0.000000000000       4
    0.444444444444    0.466666666667    0.000000000000       4
    0.466666666667    0.466666666667    0.000000000000       4
    0.488888888889    0.466666666667    0.000000000000       4
