CONTCAR\(10)                            
   1.00000000000000     
    15.1086997986000000    0.0000000000000000    0.0000000000000000
     3.7771669926999998   12.0335217063000002    0.0000000000000000
     0.0000000000000000    0.0000000000000000   20.2071990966999984
   Au   Se   O    H 
    32    32     1     1
Direct
  0.2430602747122449  0.0144678657156804  0.6297009499632931
  0.0011276016265713  0.9948112719849885  0.3820010639344020
  0.0855621068634651  0.1508722197911004  0.5036661236284182
  0.1621827753216793  0.8519082151796248  0.5098707456341571
  0.5013546012513330  0.0166486882951485  0.6297614961663794
  0.2513531152484623  0.9934019096187856  0.3869460149476448
  0.3374403763242408  0.1498562052680597  0.5054408299557352
  0.4180723534835988  0.8255209287511753  0.5104941998733287
  0.7514134197679865  0.0058017929064306  0.6248566342602919
  0.5006464691821410  0.9936976277644203  0.3868851788301090
  0.5899578803606397  0.1512012016123577  0.5032922197595801
  0.6616288770617452  0.8527344760832400  0.5097634426464843
  0.9985140183896567  0.0048537071885814  0.6250347984761356
  0.7501656007886132  0.9951688232629438  0.3819594299451206
  0.8386482498228418  0.1485094760784962  0.4980835327184496
  0.9122468944171307  0.8510426856068306  0.5032609761108429
  0.2502093742837358  0.5010145221590951  0.6192828144490773
  0.0002366093291065  0.4953056461318385  0.3784630328054084
  0.0888593481641601  0.6484028702355811  0.4974577729840169
  0.1613664331983226  0.3514150172461840  0.5012490088427415
  0.5005153824730434  0.5017976442461483  0.6182839023921544
  0.2499561782703335  0.4949348889865386  0.3761719343592803
  0.3369925559030935  0.6420217916243410  0.4939004879202668
  0.4121152409755205  0.3509331017758557  0.4985460053229193
  0.7505433418629778  0.5035188325625436  0.6199021421616182
  0.5006676936668272  0.4945818569850161  0.3749307181828582
  0.5922052192145989  0.6429453331834826  0.4939141706534382
  0.6627513382425496  0.3517495858535284  0.4991937393566978
  0.9992519723625952  0.5067634359018841  0.6213543141016473
  0.7509530832904017  0.4947656157124096  0.3764554001598170
  0.8373502562899837  0.6490883608321957  0.4978642215370515
  0.9116570088679732  0.3521984297630604  0.5020677750769824
  0.0838826709900066  0.1485506696737161  0.6250230667459321
  0.1584346306699856  0.8680236338086196  0.6308785131408408
  0.0922991936213643  0.1331653889713208  0.3830535976879378
  0.1603119226448025  0.8553384817301936  0.3888573130669963
  0.3370253354260188  0.1544709880494731  0.6263790450788522
  0.4047516477813316  0.8866873059534377  0.6267004184052281
  0.3413544310590936  0.1324360252072296  0.3849103935600676
  0.4106078220151996  0.8543757666290673  0.3905016677409148
  0.5949940071498430  0.1499761542727366  0.6246974288536269
  0.6586872672653542  0.8698364610941883  0.6306215911088969
  0.5900952119006402  0.1336953312671420  0.3828470877009010
  0.6603288438323329  0.8556677534953461  0.3886921250840086
  0.8407403507494339  0.1444660563960157  0.6190928103700976
  0.9095916670743873  0.8644123933509735  0.6242352118235303
  0.8411918788421919  0.1335683808159671  0.3769183325746687
  0.9099235780325631  0.8565967986659049  0.3820548103559723
  0.0921931925888320  0.6429844344726976  0.6186235034339588
  0.1579018632068400  0.3653450971949199  0.6223071374543333
  0.0902546832619386  0.6346044222553495  0.3764373077553732
  0.1596042304852829  0.3560931703931787  0.3802429033380538
  0.3402969378862515  0.6380544583931852  0.6147053656685668
  0.4100447999992875  0.3626294863884017  0.6195891101104157
  0.3407640062018910  0.6336161269496839  0.3725863647353452
  0.4098042775516791  0.3558401599525283  0.3774474828776153
  0.5920183857121581  0.6403815184512882  0.6147321200510127
  0.6601727020784990  0.3638710369965342  0.6203873126869829
  0.5914235950605413  0.6334312255645067  0.3725378702227127
  0.6603966451682943  0.3556066288843426  0.3780924369435382
  0.8387691882699841  0.6451145915387114  0.6190182824953001
  0.9099062662470264  0.3666752758564247  0.6232357091167531
  0.8409438965247241  0.6344928752575389  0.3768455592329878
  0.9101365839726893  0.3559878715142413  0.3810064678012770
  0.4279132642357392  0.7883218738322455  0.6986963782754051
  0.4080497644762631  0.8365578804152641  0.7374103583455471
 
  0.00000000E+00  0.00000000E+00  0.00000000E+00
  0.00000000E+00  0.00000000E+00  0.00000000E+00
  0.00000000E+00  0.00000000E+00  0.00000000E+00
  0.00000000E+00  0.00000000E+00  0.00000000E+00
  0.00000000E+00  0.00000000E+00  0.00000000E+00
  0.00000000E+00  0.00000000E+00  0.00000000E+00
  0.00000000E+00  0.00000000E+00  0.00000000E+00
  0.00000000E+00  0.00000000E+00  0.00000000E+00
  0.00000000E+00  0.00000000E+00  0.00000000E+00
  0.00000000E+00  0.00000000E+00  0.00000000E+00
  0.00000000E+00  0.00000000E+00  0.00000000E+00
  0.00000000E+00  0.00000000E+00  0.00000000E+00
  0.00000000E+00  0.00000000E+00  0.00000000E+00
  0.00000000E+00  0.00000000E+00  0.00000000E+00
  0.00000000E+00  0.00000000E+00  0.00000000E+00
  0.00000000E+00  0.00000000E+00  0.00000000E+00
  0.00000000E+00  0.00000000E+00  0.00000000E+00
  0.00000000E+00  0.00000000E+00  0.00000000E+00
  0.00000000E+00  0.00000000E+00  0.00000000E+00
  0.00000000E+00  0.00000000E+00  0.00000000E+00
  0.00000000E+00  0.00000000E+00  0.00000000E+00
  0.00000000E+00  0.00000000E+00  0.00000000E+00
  0.00000000E+00  0.00000000E+00  0.00000000E+00
  0.00000000E+00  0.00000000E+00  0.00000000E+00
  0.00000000E+00  0.00000000E+00  0.00000000E+00
  0.00000000E+00  0.00000000E+00  0.00000000E+00
  0.00000000E+00  0.00000000E+00  0.00000000E+00
  0.00000000E+00  0.00000000E+00  0.00000000E+00
  0.00000000E+00  0.00000000E+00  0.00000000E+00
  0.00000000E+00  0.00000000E+00  0.00000000E+00
  0.00000000E+00  0.00000000E+00  0.00000000E+00
  0.00000000E+00  0.00000000E+00  0.00000000E+00
  0.00000000E+00  0.00000000E+00  0.00000000E+00
  0.00000000E+00  0.00000000E+00  0.00000000E+00
  0.00000000E+00  0.00000000E+00  0.00000000E+00
  0.00000000E+00  0.00000000E+00  0.00000000E+00
  0.00000000E+00  0.00000000E+00  0.00000000E+00
  0.00000000E+00  0.00000000E+00  0.00000000E+00
  0.00000000E+00  0.00000000E+00  0.00000000E+00
  0.00000000E+00  0.00000000E+00  0.00000000E+00
  0.00000000E+00  0.00000000E+00  0.00000000E+00
  0.00000000E+00  0.00000000E+00  0.00000000E+00
  0.00000000E+00  0.00000000E+00  0.00000000E+00
  0.00000000E+00  0.00000000E+00  0.00000000E+00
  0.00000000E+00  0.00000000E+00  0.00000000E+00
  0.00000000E+00  0.00000000E+00  0.00000000E+00
  0.00000000E+00  0.00000000E+00  0.00000000E+00
  0.00000000E+00  0.00000000E+00  0.00000000E+00
  0.00000000E+00  0.00000000E+00  0.00000000E+00
  0.00000000E+00  0.00000000E+00  0.00000000E+00
  0.00000000E+00  0.00000000E+00  0.00000000E+00
  0.00000000E+00  0.00000000E+00  0.00000000E+00
  0.00000000E+00  0.00000000E+00  0.00000000E+00
  0.00000000E+00  0.00000000E+00  0.00000000E+00
  0.00000000E+00  0.00000000E+00  0.00000000E+00
  0.00000000E+00  0.00000000E+00  0.00000000E+00
  0.00000000E+00  0.00000000E+00  0.00000000E+00
  0.00000000E+00  0.00000000E+00  0.00000000E+00
  0.00000000E+00  0.00000000E+00  0.00000000E+00
  0.00000000E+00  0.00000000E+00  0.00000000E+00
  0.00000000E+00  0.00000000E+00  0.00000000E+00
  0.00000000E+00  0.00000000E+00  0.00000000E+00
  0.00000000E+00  0.00000000E+00  0.00000000E+00
  0.00000000E+00  0.00000000E+00  0.00000000E+00
  0.00000000E+00  0.00000000E+00  0.00000000E+00
  0.00000000E+00  0.00000000E+00  0.00000000E+00
