 Y2 Cl2                                 
   1.00000000000000     
     3.7172416361969063    0.0000000000000000    0.0000000000000000
     1.8586208180984531    3.2192260442794085    0.0000000000000000
     0.0000000000000000    0.0000000000000000   21.2708473596999994
   Y    Cl
     2     2
Direct
  0.3333332226656549  0.3333332374983321  0.4344441863224044
  0.0000000715579773  0.0000000727102274  0.5655564772343112
  0.6666668850737695  0.6666669137911889  0.6472775148099353
  0.6666668207025949  0.6666667760002484  0.3527218216333490
 
  0.00000000E+00  0.00000000E+00  0.00000000E+00
  0.00000000E+00  0.00000000E+00  0.00000000E+00
  0.00000000E+00  0.00000000E+00  0.00000000E+00
  0.00000000E+00  0.00000000E+00  0.00000000E+00
