 Ni1 I2                                 
   1.00000000000000     
     3.9330774360522271    0.0000000000000000    0.0000000000000000
     1.9665392158869155    3.4061416083787548    0.0000000000000000
     0.0000000000000000    0.0000000000000000   18.0077052438300029
   Ni   I 
     1     2
Direct
  0.0000000018154793  0.0000000000712106  0.5000000002175398
  0.3333332311664066  0.3333332693857258  0.5842628934546354
  0.6666667670181070  0.6666667305430636  0.4157371063278248
 
  0.00000000E+00  0.00000000E+00  0.00000000E+00
  0.00000000E+00  0.00000000E+00  0.00000000E+00
  0.00000000E+00  0.00000000E+00  0.00000000E+00
