CONTCAR\(2)                             
   1.00000000000000     
    11.8599996566999994    0.0000000000000000    0.0000000000000000
     0.0000000000000000   16.8432006835999992    0.0000000000000000
     0.0000000000000000    0.0000000000000000   21.2530994415000016
   Y    C    I    O 
    24     6    30     1
Direct
  0.1666684105969617  0.9995765086477152  0.3874771607042139
  0.0000222294058833  0.0965278044540867  0.4986834495703860
  0.1634066111696827  0.5001569154903208  0.6119314172077296
  0.0000481161998687  0.4039102171285447  0.4993407539952271
  0.5000156536246703  0.9995811698016643  0.3876745540167763
  0.3327676936263695  0.0962956374509828  0.4988126780278680
  0.4999621253620468  0.5004884686806917  0.6810884494462952
  0.3385667205670848  0.4039829658704597  0.4991216412861699
  0.8333856984893413  0.9995823858684669  0.3874669334091707
  0.6672761980699151  0.0962934101279810  0.4988003201493922
  0.8365628424355841  0.5001593484117132  0.6119068094862494
  0.6615406386026588  0.4039753162527850  0.4990655029390095
  0.1648523312539048  0.4999070605975761  0.3884993906420512
  0.0000306016780814  0.5962917084229578  0.4991897695811474
  0.1666942230889587  0.0003462860871713  0.6104859534650533
  0.0000151686728259  0.9036499807270922  0.4990440585738353
  0.5000859707054173  0.4995886679900275  0.3817299457670597
  0.3386211278632810  0.5960963869978101  0.4989026178514583
  0.4999946014828561  0.0003236935718023  0.6104328561395387
  0.3327294426469923  0.9039060892385090  0.4991921838421574
  0.8352488421593351  0.4999295641987682  0.3884766839971371
  0.6614627191022444  0.5961045980513618  0.4988654581960890
  0.8333482953654182  0.0003588082752158  0.6104809212822538
  0.6672915159864956  0.9039016364743876  0.4991889940320739
  0.1664482790416311  0.0001961182297265  0.4989498223018701
  0.5000289530784968  0.0001713184455628  0.4990552023684129
  0.8335845774874028  0.0001895816267835  0.4989429910922347
  0.1729148544327219  0.5000715001899476  0.5007333100997068
  0.5000314122538190  0.4999903608232366  0.4893519659507295
  0.8271664003568544  0.5000796657904134  0.5007161463350090
  0.0000620785590202  0.1293758033875039  0.3521383988533829
  0.0001284538405503  0.3693194615009165  0.3534808998490336
  0.0000146509378213  0.1307175200487587  0.6447970298072353
  0.1672020861606307  0.2507202762816613  0.4977067801751588
  0.9999264609976677  0.3686101288659063  0.6449190589885435
  0.3333426189388443  0.1293681503046044  0.3522847125854754
  0.3310102165383372  0.3690352748939151  0.3522175308649225
  0.3334004376713379  0.1306929979612109  0.6448088885531501
  0.4999910032595632  0.2505526730632635  0.4974658875897310
  0.3294378360728993  0.3684927396200442  0.6434790744770649
  0.6666834856598065  0.1293892306779978  0.3522908605533757
  0.6692181755502697  0.3690583981600895  0.3521014825477811
  0.6666034423659611  0.1306941553646755  0.6447929857334597
  0.8328309770413188  0.2507110515252277  0.4976779926050117
  0.6705014403957563  0.3685024647661045  0.6434326561838273
  0.0000575942084151  0.6304455002833675  0.3530577513569994
  0.0000298261085980  0.8693712130306587  0.3529817251950069
  0.0000003003977662  0.6316376439805167  0.6448989780119219
  0.1671122317813790  0.7492677464131456  0.4979274783385668
  0.0000018441641813  0.8700633224608941  0.6449921824172413
  0.3313118228167091  0.6301795359626987  0.3518581637788840
  0.3334453908576087  0.8691700291705624  0.3534340080379880
  0.3291460301571530  0.6321431199130833  0.6431690377270374
  0.4999926757010118  0.7495063063928166  0.4977784771039608
  0.3333640073383728  0.8699096522576475  0.6449463858955634
  0.6687072719192244  0.6302461780138107  0.3517749713045877
  0.6665795734156215  0.8691783523406641  0.3534303067825402
  0.6708651906347056  0.6321293030205655  0.6431643533466516
  0.8328488951691797  0.7492749724705522  0.4978984520397078
  0.6666629562922671  0.8699468166606995  0.6449555858186694
  0.4996488942411889  0.5005666782827193  0.7672398627211803
 
  0.00000000E+00  0.00000000E+00  0.00000000E+00
  0.00000000E+00  0.00000000E+00  0.00000000E+00
  0.00000000E+00  0.00000000E+00  0.00000000E+00
  0.00000000E+00  0.00000000E+00  0.00000000E+00
  0.00000000E+00  0.00000000E+00  0.00000000E+00
  0.00000000E+00  0.00000000E+00  0.00000000E+00
  0.00000000E+00  0.00000000E+00  0.00000000E+00
  0.00000000E+00  0.00000000E+00  0.00000000E+00
  0.00000000E+00  0.00000000E+00  0.00000000E+00
  0.00000000E+00  0.00000000E+00  0.00000000E+00
  0.00000000E+00  0.00000000E+00  0.00000000E+00
  0.00000000E+00  0.00000000E+00  0.00000000E+00
  0.00000000E+00  0.00000000E+00  0.00000000E+00
  0.00000000E+00  0.00000000E+00  0.00000000E+00
  0.00000000E+00  0.00000000E+00  0.00000000E+00
  0.00000000E+00  0.00000000E+00  0.00000000E+00
  0.00000000E+00  0.00000000E+00  0.00000000E+00
  0.00000000E+00  0.00000000E+00  0.00000000E+00
  0.00000000E+00  0.00000000E+00  0.00000000E+00
  0.00000000E+00  0.00000000E+00  0.00000000E+00
  0.00000000E+00  0.00000000E+00  0.00000000E+00
  0.00000000E+00  0.00000000E+00  0.00000000E+00
  0.00000000E+00  0.00000000E+00  0.00000000E+00
  0.00000000E+00  0.00000000E+00  0.00000000E+00
  0.00000000E+00  0.00000000E+00  0.00000000E+00
  0.00000000E+00  0.00000000E+00  0.00000000E+00
  0.00000000E+00  0.00000000E+00  0.00000000E+00
  0.00000000E+00  0.00000000E+00  0.00000000E+00
  0.00000000E+00  0.00000000E+00  0.00000000E+00
  0.00000000E+00  0.00000000E+00  0.00000000E+00
  0.00000000E+00  0.00000000E+00  0.00000000E+00
  0.00000000E+00  0.00000000E+00  0.00000000E+00
  0.00000000E+00  0.00000000E+00  0.00000000E+00
  0.00000000E+00  0.00000000E+00  0.00000000E+00
  0.00000000E+00  0.00000000E+00  0.00000000E+00
  0.00000000E+00  0.00000000E+00  0.00000000E+00
  0.00000000E+00  0.00000000E+00  0.00000000E+00
  0.00000000E+00  0.00000000E+00  0.00000000E+00
  0.00000000E+00  0.00000000E+00  0.00000000E+00
  0.00000000E+00  0.00000000E+00  0.00000000E+00
  0.00000000E+00  0.00000000E+00  0.00000000E+00
  0.00000000E+00  0.00000000E+00  0.00000000E+00
  0.00000000E+00  0.00000000E+00  0.00000000E+00
  0.00000000E+00  0.00000000E+00  0.00000000E+00
  0.00000000E+00  0.00000000E+00  0.00000000E+00
  0.00000000E+00  0.00000000E+00  0.00000000E+00
  0.00000000E+00  0.00000000E+00  0.00000000E+00
  0.00000000E+00  0.00000000E+00  0.00000000E+00
  0.00000000E+00  0.00000000E+00  0.00000000E+00
  0.00000000E+00  0.00000000E+00  0.00000000E+00
  0.00000000E+00  0.00000000E+00  0.00000000E+00
  0.00000000E+00  0.00000000E+00  0.00000000E+00
  0.00000000E+00  0.00000000E+00  0.00000000E+00
  0.00000000E+00  0.00000000E+00  0.00000000E+00
  0.00000000E+00  0.00000000E+00  0.00000000E+00
  0.00000000E+00  0.00000000E+00  0.00000000E+00
  0.00000000E+00  0.00000000E+00  0.00000000E+00
  0.00000000E+00  0.00000000E+00  0.00000000E+00
  0.00000000E+00  0.00000000E+00  0.00000000E+00
  0.00000000E+00  0.00000000E+00  0.00000000E+00
  0.00000000E+00  0.00000000E+00  0.00000000E+00
