CONTCAR\(2)                             
   1.00000000000000     
     9.9650001526000000    0.0000000000000000    0.0000000000000000
    -2.5280754312000000   15.4221667323999991    0.0000000000000000
     0.0000000000000000    0.0000000000000000   27.0883007050000018
   Li   Nb   P    O 
    16     8    32   105
Direct
  0.1889770866651047  0.2464955725907965  0.5107174631834572
  0.1068596209994140  0.0740694579503585  0.4932427894992315
  0.3392524243003194  0.1864025908027959  0.7249106369816558
  0.4452554619964305  0.1287243266183688  0.2769027452252509
  0.6852374592529766  0.2459016068392004  0.5118249132309639
  0.5917365889224960  0.0766542785063191  0.4888280485696914
  0.8390014608338661  0.1862974976903674  0.7259556063562512
  0.9441547360560567  0.1289274165215117  0.2770481992756066
  0.1905516150396938  0.7386470540853722  0.5112919595200398
  0.0963155504643464  0.5715282673322282  0.4888046410609116
  0.3689266444934979  0.6913449573387692  0.7205629887790821
  0.4447522344069057  0.6306063497361507  0.2756887007501811
  0.6601943763543034  0.7334768217034677  0.5071608537106833
  0.5782877171134101  0.5675838497162775  0.4842595999695851
  0.8179219155341405  0.6916217140501584  0.7225263046449434
  0.9437388245582702  0.6307599966953907  0.2760670785394204
  0.4176546906083815  0.4746211667352242  0.3756592692305544
  0.3639999024612954  0.3431478717124414  0.6237669705143706
  0.9188696447797016  0.4755544129304951  0.3761191849884200
  0.8643102412487098  0.3452896141197135  0.6237240941695488
  0.4183254623508175  0.9746301647044779  0.3774466482659661
  0.3670103696947792  0.8337193392830250  0.6242121729867990
  0.9199170216668382  0.9755023876154244  0.3784303222716688
  0.8505963996544205  0.8365165220766850  0.6249116160480735
  0.1340665822290461  0.4415117210576618  0.5685072601218580
  0.4931680632318133  0.2859009983216116  0.3542086431250779
  0.3134902001190615  0.1554055452016350  0.4141431979772222
  0.4703964799032143  0.1615757963261197  0.5879566557045423
  0.1886836378572761  0.0695767171700211  0.3218221097631784
  0.1511852631752541  0.3798691608142064  0.4326785713950468
  0.2939777494007844  0.0283625318494483  0.6466818198400520
  0.0935926849112307  0.2485229694481297  0.6803723335418124
  0.6288135439476132  0.4385802832176925  0.5661977776120580
  0.9927327983242928  0.2862673465793208  0.3544691231989068
  0.8111717925180316  0.1563087336759183  0.4139734458233268
  0.9743654637364136  0.1648422181927973  0.5869168953109487
  0.6893481474181250  0.0700899882826861  0.3216783237638121
  0.6510204708673347  0.3801101071044431  0.4324518042836578
  0.7952564795168051  0.0333628737256283  0.6444170011791340
  0.5951262369374205  0.2476537710661181  0.6796534292665045
  0.1300348696597795  0.9356678693719270  0.5707151441513857
  0.4919908132295412  0.7861122421287525  0.3547069109857937
  0.3093105530344794  0.6544095335356118  0.4121044431790802
  0.4770472769832410  0.6627412931095825  0.5785597460321826
  0.1884407308131904  0.5693262891027104  0.3191418702512735
  0.1515294344374252  0.8773338034418994  0.4344675778375469
  0.2996947432406111  0.5359647159746164  0.6437103638686126
  0.0858309859977869  0.7443569064020440  0.6792907369925307
  0.6293941726725276  0.9418155851530561  0.5683778244799028
  0.9917353472251741  0.7859249839533266  0.3556215655114196
  0.8084345388327406  0.6544046154736699  0.4126609543093251
  0.9694350080244466  0.6606993765360120  0.5863754500749008
  0.6881842377312409  0.5695504888154647  0.3196025878892550
  0.6501791324385758  0.8801224112403145  0.4332063658677570
  0.7817041584119802  0.5331366011298488  0.6446312656901154
  0.6146448979893320  0.8144970224543433  0.7123565127452742
  0.2058158292965636  0.3620437409526393  0.5800390405436427
  0.2091345737165544  0.1343649199701772  0.3698137647901785
  0.4128329858040004  0.0901522451097819  0.4148462232306293
  0.2503356192662086  0.1139537915576724  0.2765377659024890
  0.1558511683948982  0.5030933287026553  0.6180017566381323
  0.1309340471427876  0.3180110620856854  0.3828082687880279
  0.4758766530718295  0.3999149502191318  0.5686212555876901
  0.3057562520514519  0.4130440532749998  0.4296459422530948
  0.2507619945581487  0.2746184071702522  0.6814613393471300
  0.0717597846415253  0.1811932312530513  0.6335844021072676
  0.3963467061423008  0.2471588809266844  0.3996352288039970
  0.3532826647897276  0.4525213232497006  0.6593303334024841
  0.2817948428578759  0.0909449675387992  0.6863782839794752
  0.5105767341082744  0.2229431027343771  0.3152874997271829
  0.0344810108787866  0.2063830608412388  0.7265523469696761
  0.2514602666915427  0.4899021003409679  0.3355979212123362
  0.1807934256461378  0.4925336311770231  0.5239261559399194
  0.3700507040066158  0.2262862413769489  0.5888781646441518
  0.0776977956194513  0.4581626573798751  0.4213287296882893
  0.0285915433136292  0.3271184275118492  0.6635345485241668
  0.1044148012092490  0.3259414077207671  0.4762284044372327
  0.2392928681471111  0.1642650966260749  0.4611310943583113
  0.3889313743039868  0.0688150413626131  0.6008054496480947
  0.0316768882886845  0.0439720957194373  0.3202221706317410
  0.4328982763581014  0.3653873375342812  0.3378785905226421
  0.0546120653471346  0.1578629517362367  0.5410844624911599
  0.7085192427452858  0.3626962179210984  0.5773502933797561
  0.7087115924231989  0.1362407552030868  0.3689248913265432
  0.9097105929383997  0.0905732242635921  0.4146007555893733
  0.7488576058853983  0.1137269964982612  0.2758738436177856
  0.6445184048147494  0.4984429376562521  0.6164733885325557
  0.6311595097302326  0.3184341468654269  0.3825337797750011
  0.9793702780605628  0.4085058921740810  0.5712794910531449
  0.8054274894135186  0.4138208567463278  0.4296991267614130
  0.7518053704323192  0.2747372599163723  0.6808622719071099
  0.5745016170782761  0.1812136753612728  0.6325329210920880
  0.8956923332035841  0.2478254617387442  0.3999024089897994
  0.8420061817082353  0.4527462966344138  0.6607045557250266
  0.7847748854131176  0.0969985738423963  0.6834911348085215
  0.0093303369381784  0.2232804606946068  0.3154567520368337
  0.5347572322433997  0.2054450142462953  0.7256180095860221
  0.7525084591550801  0.4906223626039530  0.3359335538467641
  0.6709957246655702  0.4942936723350578  0.5228883060644123
  0.8779287972841207  0.2320174601671804  0.5862088165478359
  0.5768679613708432  0.4581450931906128  0.4210358848645555
  0.5294727029534403  0.3259183765487823  0.6626289647450848
  0.6041369769694207  0.3259831129607492  0.4759243390958223
  0.7351348356094858  0.1653671848812339  0.4604921250340328
  0.8861903865878770  0.0732894967262493  0.5973945145391750
  0.5322606745328974  0.0430431027084589  0.3203237072659778
  0.9336232186149874  0.3662849683745626  0.3382876943353543
  0.5452044046532365  0.1562310668828638  0.5407177519626346
  0.2085865230861447  0.8591628152328136  0.5828514804154998
  0.2109128959259498  0.6364330337877924  0.3658033725081732
  0.4082648133147795  0.5888212975969664  0.4124670978031023
  0.2492877961979698  0.6121573235078172  0.2733020927890592
  0.1529257382365008  0.9991894394797540  0.6195844681621508
  0.1298317218732765  0.8157677472739142  0.3844998892051146
  0.4770149362225454  0.9040957840958421  0.5728618473781697
  0.3056279808574819  0.9125812906989297  0.4303107553795423
  0.2425348262919257  0.7724500897450803  0.6802208221757141
  0.0693595289887545  0.6774150175541997  0.6321903027762006
  0.3955128225158439  0.7464176810903355  0.4000282608745923
  0.3506718252112959  0.9465016403231781  0.6601607848423992
  0.2882431624839205  0.5971925699528956  0.6842675346044107
  0.5094632645616670  0.7236287610864079  0.3154655587544720
  0.0208349912668946  0.7023313134030522  0.7244431955684976
  0.2519652080405449  0.9897183996720486  0.3372520888968686
  0.1792869795443340  0.9881497689703242  0.5267082269731358
  0.3677547759986361  0.7276757824253508  0.5858471070406118
  0.0766190409781015  0.9551515748777348  0.4237090976499165
  0.0196237888537128  0.8220493963014636  0.6616937668600310
  0.1097398556290416  0.8230021436334174  0.4782633243178440
  0.2288102344670490  0.6612379809180684  0.4576754688798050
  0.3897799282764804  0.5714220225245894  0.5979222933565899
  0.0311678943567330  0.5437589176761818  0.3180537020216232
  0.4312918275174077  0.8656081636801636  0.3386707430170893
  0.0465217062858333  0.6513039338705060  0.5401432907156867
  0.7085174122551421  0.8659976364130465  0.5789459033807889
  0.7090627072246063  0.6360125016407263  0.3666432266269334
  0.9090984427531170  0.5899168087644336  0.4128343891143902
  0.7486328371473788  0.6130123594526765  0.2738752131541014
  0.6528049550485420  0.0030869281889152  0.6179653339586628
  0.6301055112363889  0.8185411150187955  0.3832051308653761
  0.9776078808576880  0.9018492757178791  0.5732655887724225
  0.8048381134060606  0.9131283240513126  0.4310691223519347
  0.7469779758732260  0.7907890488317499  0.6830472971621042
  0.5991296201331698  0.6876697043379655  0.6097244050239089
  0.8925235092796395  0.7471280575618940  0.4004430875057639
  0.8565882025658152  0.9531443444919115  0.6574243585173390
  0.7656224919743744  0.5958023736667213  0.6836325184910186
  0.0071301807896377  0.7236198490279152  0.3160904003241629
  0.5506807898235053  0.7328075839925114  0.7386469144535559
  0.7549136966974670  0.9916546402140594  0.3377935954302758
  0.6694846981877886  0.9948536484499995  0.5239796545194746
  0.8759886292029516  0.7292490324432649  0.5857884542601874
  0.5783015996462666  0.9591360016074600  0.4216257756361054
  0.5122628754881519  0.8218152349527925  0.6648082337754080
  0.6009814814214590  0.8270140507640483  0.4766985856310171
  0.7291318104072215  0.6599570552339724  0.4586755503976372
  0.8784365482410789  0.5705595516305124  0.5989086269443130
  0.5310583255165979  0.5432322882536620  0.3181469720893355
  0.9352854783120962  0.8671777356323632  0.3399528143455920
  0.4974640198750481  0.6496546842715929  0.5239433739480848
  0.6458747853028124  0.9000771205823648  0.7364804481562355
 
  0.00000000E+00  0.00000000E+00  0.00000000E+00
  0.00000000E+00  0.00000000E+00  0.00000000E+00
  0.00000000E+00  0.00000000E+00  0.00000000E+00
  0.00000000E+00  0.00000000E+00  0.00000000E+00
  0.00000000E+00  0.00000000E+00  0.00000000E+00
  0.00000000E+00  0.00000000E+00  0.00000000E+00
  0.00000000E+00  0.00000000E+00  0.00000000E+00
  0.00000000E+00  0.00000000E+00  0.00000000E+00
  0.00000000E+00  0.00000000E+00  0.00000000E+00
  0.00000000E+00  0.00000000E+00  0.00000000E+00
  0.00000000E+00  0.00000000E+00  0.00000000E+00
  0.00000000E+00  0.00000000E+00  0.00000000E+00
  0.00000000E+00  0.00000000E+00  0.00000000E+00
  0.00000000E+00  0.00000000E+00  0.00000000E+00
  0.00000000E+00  0.00000000E+00  0.00000000E+00
  0.00000000E+00  0.00000000E+00  0.00000000E+00
  0.00000000E+00  0.00000000E+00  0.00000000E+00
  0.00000000E+00  0.00000000E+00  0.00000000E+00
  0.00000000E+00  0.00000000E+00  0.00000000E+00
  0.00000000E+00  0.00000000E+00  0.00000000E+00
  0.00000000E+00  0.00000000E+00  0.00000000E+00
  0.00000000E+00  0.00000000E+00  0.00000000E+00
  0.00000000E+00  0.00000000E+00  0.00000000E+00
  0.00000000E+00  0.00000000E+00  0.00000000E+00
  0.00000000E+00  0.00000000E+00  0.00000000E+00
  0.00000000E+00  0.00000000E+00  0.00000000E+00
  0.00000000E+00  0.00000000E+00  0.00000000E+00
  0.00000000E+00  0.00000000E+00  0.00000000E+00
  0.00000000E+00  0.00000000E+00  0.00000000E+00
  0.00000000E+00  0.00000000E+00  0.00000000E+00
  0.00000000E+00  0.00000000E+00  0.00000000E+00
  0.00000000E+00  0.00000000E+00  0.00000000E+00
  0.00000000E+00  0.00000000E+00  0.00000000E+00
  0.00000000E+00  0.00000000E+00  0.00000000E+00
  0.00000000E+00  0.00000000E+00  0.00000000E+00
  0.00000000E+00  0.00000000E+00  0.00000000E+00
  0.00000000E+00  0.00000000E+00  0.00000000E+00
  0.00000000E+00  0.00000000E+00  0.00000000E+00
  0.00000000E+00  0.00000000E+00  0.00000000E+00
  0.00000000E+00  0.00000000E+00  0.00000000E+00
  0.00000000E+00  0.00000000E+00  0.00000000E+00
  0.00000000E+00  0.00000000E+00  0.00000000E+00
  0.00000000E+00  0.00000000E+00  0.00000000E+00
  0.00000000E+00  0.00000000E+00  0.00000000E+00
  0.00000000E+00  0.00000000E+00  0.00000000E+00
  0.00000000E+00  0.00000000E+00  0.00000000E+00
  0.00000000E+00  0.00000000E+00  0.00000000E+00
  0.00000000E+00  0.00000000E+00  0.00000000E+00
  0.00000000E+00  0.00000000E+00  0.00000000E+00
  0.00000000E+00  0.00000000E+00  0.00000000E+00
  0.00000000E+00  0.00000000E+00  0.00000000E+00
  0.00000000E+00  0.00000000E+00  0.00000000E+00
  0.00000000E+00  0.00000000E+00  0.00000000E+00
  0.00000000E+00  0.00000000E+00  0.00000000E+00
  0.00000000E+00  0.00000000E+00  0.00000000E+00
  0.00000000E+00  0.00000000E+00  0.00000000E+00
  0.00000000E+00  0.00000000E+00  0.00000000E+00
  0.00000000E+00  0.00000000E+00  0.00000000E+00
  0.00000000E+00  0.00000000E+00  0.00000000E+00
  0.00000000E+00  0.00000000E+00  0.00000000E+00
  0.00000000E+00  0.00000000E+00  0.00000000E+00
  0.00000000E+00  0.00000000E+00  0.00000000E+00
  0.00000000E+00  0.00000000E+00  0.00000000E+00
  0.00000000E+00  0.00000000E+00  0.00000000E+00
  0.00000000E+00  0.00000000E+00  0.00000000E+00
  0.00000000E+00  0.00000000E+00  0.00000000E+00
  0.00000000E+00  0.00000000E+00  0.00000000E+00
  0.00000000E+00  0.00000000E+00  0.00000000E+00
  0.00000000E+00  0.00000000E+00  0.00000000E+00
  0.00000000E+00  0.00000000E+00  0.00000000E+00
  0.00000000E+00  0.00000000E+00  0.00000000E+00
  0.00000000E+00  0.00000000E+00  0.00000000E+00
  0.00000000E+00  0.00000000E+00  0.00000000E+00
  0.00000000E+00  0.00000000E+00  0.00000000E+00
  0.00000000E+00  0.00000000E+00  0.00000000E+00
  0.00000000E+00  0.00000000E+00  0.00000000E+00
  0.00000000E+00  0.00000000E+00  0.00000000E+00
  0.00000000E+00  0.00000000E+00  0.00000000E+00
  0.00000000E+00  0.00000000E+00  0.00000000E+00
  0.00000000E+00  0.00000000E+00  0.00000000E+00
  0.00000000E+00  0.00000000E+00  0.00000000E+00
  0.00000000E+00  0.00000000E+00  0.00000000E+00
  0.00000000E+00  0.00000000E+00  0.00000000E+00
  0.00000000E+00  0.00000000E+00  0.00000000E+00
  0.00000000E+00  0.00000000E+00  0.00000000E+00
  0.00000000E+00  0.00000000E+00  0.00000000E+00
  0.00000000E+00  0.00000000E+00  0.00000000E+00
  0.00000000E+00  0.00000000E+00  0.00000000E+00
  0.00000000E+00  0.00000000E+00  0.00000000E+00
  0.00000000E+00  0.00000000E+00  0.00000000E+00
  0.00000000E+00  0.00000000E+00  0.00000000E+00
  0.00000000E+00  0.00000000E+00  0.00000000E+00
  0.00000000E+00  0.00000000E+00  0.00000000E+00
  0.00000000E+00  0.00000000E+00  0.00000000E+00
  0.00000000E+00  0.00000000E+00  0.00000000E+00
  0.00000000E+00  0.00000000E+00  0.00000000E+00
  0.00000000E+00  0.00000000E+00  0.00000000E+00
  0.00000000E+00  0.00000000E+00  0.00000000E+00
  0.00000000E+00  0.00000000E+00  0.00000000E+00
  0.00000000E+00  0.00000000E+00  0.00000000E+00
  0.00000000E+00  0.00000000E+00  0.00000000E+00
  0.00000000E+00  0.00000000E+00  0.00000000E+00
  0.00000000E+00  0.00000000E+00  0.00000000E+00
  0.00000000E+00  0.00000000E+00  0.00000000E+00
  0.00000000E+00  0.00000000E+00  0.00000000E+00
  0.00000000E+00  0.00000000E+00  0.00000000E+00
  0.00000000E+00  0.00000000E+00  0.00000000E+00
  0.00000000E+00  0.00000000E+00  0.00000000E+00
  0.00000000E+00  0.00000000E+00  0.00000000E+00
  0.00000000E+00  0.00000000E+00  0.00000000E+00
  0.00000000E+00  0.00000000E+00  0.00000000E+00
  0.00000000E+00  0.00000000E+00  0.00000000E+00
  0.00000000E+00  0.00000000E+00  0.00000000E+00
  0.00000000E+00  0.00000000E+00  0.00000000E+00
  0.00000000E+00  0.00000000E+00  0.00000000E+00
  0.00000000E+00  0.00000000E+00  0.00000000E+00
  0.00000000E+00  0.00000000E+00  0.00000000E+00
  0.00000000E+00  0.00000000E+00  0.00000000E+00
  0.00000000E+00  0.00000000E+00  0.00000000E+00
  0.00000000E+00  0.00000000E+00  0.00000000E+00
  0.00000000E+00  0.00000000E+00  0.00000000E+00
  0.00000000E+00  0.00000000E+00  0.00000000E+00
  0.00000000E+00  0.00000000E+00  0.00000000E+00
  0.00000000E+00  0.00000000E+00  0.00000000E+00
  0.00000000E+00  0.00000000E+00  0.00000000E+00
  0.00000000E+00  0.00000000E+00  0.00000000E+00
  0.00000000E+00  0.00000000E+00  0.00000000E+00
  0.00000000E+00  0.00000000E+00  0.00000000E+00
  0.00000000E+00  0.00000000E+00  0.00000000E+00
  0.00000000E+00  0.00000000E+00  0.00000000E+00
  0.00000000E+00  0.00000000E+00  0.00000000E+00
  0.00000000E+00  0.00000000E+00  0.00000000E+00
  0.00000000E+00  0.00000000E+00  0.00000000E+00
  0.00000000E+00  0.00000000E+00  0.00000000E+00
  0.00000000E+00  0.00000000E+00  0.00000000E+00
  0.00000000E+00  0.00000000E+00  0.00000000E+00
  0.00000000E+00  0.00000000E+00  0.00000000E+00
  0.00000000E+00  0.00000000E+00  0.00000000E+00
  0.00000000E+00  0.00000000E+00  0.00000000E+00
  0.00000000E+00  0.00000000E+00  0.00000000E+00
  0.00000000E+00  0.00000000E+00  0.00000000E+00
  0.00000000E+00  0.00000000E+00  0.00000000E+00
  0.00000000E+00  0.00000000E+00  0.00000000E+00
  0.00000000E+00  0.00000000E+00  0.00000000E+00
  0.00000000E+00  0.00000000E+00  0.00000000E+00
  0.00000000E+00  0.00000000E+00  0.00000000E+00
  0.00000000E+00  0.00000000E+00  0.00000000E+00
  0.00000000E+00  0.00000000E+00  0.00000000E+00
  0.00000000E+00  0.00000000E+00  0.00000000E+00
  0.00000000E+00  0.00000000E+00  0.00000000E+00
  0.00000000E+00  0.00000000E+00  0.00000000E+00
  0.00000000E+00  0.00000000E+00  0.00000000E+00
  0.00000000E+00  0.00000000E+00  0.00000000E+00
  0.00000000E+00  0.00000000E+00  0.00000000E+00
  0.00000000E+00  0.00000000E+00  0.00000000E+00
  0.00000000E+00  0.00000000E+00  0.00000000E+00
  0.00000000E+00  0.00000000E+00  0.00000000E+00
  0.00000000E+00  0.00000000E+00  0.00000000E+00
  0.00000000E+00  0.00000000E+00  0.00000000E+00
  0.00000000E+00  0.00000000E+00  0.00000000E+00
  0.00000000E+00  0.00000000E+00  0.00000000E+00
