CONTCAR\(19)                            
   1.00000000000000     
    13.9937000274999992    0.0000000000000000    0.0000000000000000
     0.0000000000000000   12.1743001938000006    0.0000000000000000
     0.0000000000000000    0.0000000000000000   22.0200004577999984
   Ta   Se
    16    48
Direct
  0.0625000000000000  0.9937167476679871  0.4171778061885575
  0.1875000089999972  0.8551280726738143  0.5829345373543643
  0.0625000000000000  0.5870976733141078  0.4761406459401043
  0.1875000089999972  0.2617333237966895  0.5239240751910647
  0.3124999910000028  0.9937167476679871  0.4171778061885575
  0.4375000089999972  0.8551280726738143  0.5829345373543643
  0.3124999910000028  0.5870976733141078  0.4761406459401043
  0.4375000089999972  0.2617333237966895  0.5239240751910647
  0.5624999910000028  0.9937167476679871  0.4171778061885575
  0.6874999739999978  0.8551280726738143  0.5829345373543643
  0.5624999910000028  0.5870976733141078  0.4761406459401043
  0.6874999739999978  0.2617333237966895  0.5239240751910647
  0.8125000260000022  0.9937167476679871  0.4171778061885575
  0.9375000089999972  0.8551280726738143  0.5829345373543643
  0.8125000260000022  0.5870976733141078  0.4761406459401043
  0.9375000089999972  0.2617333237966895  0.5239240751910647
  0.0625000000000000  0.8147764141292435  0.4940865945622333
  0.1875000089999972  0.0341288062483847  0.5059963363702961
  0.0625000000000000  0.9852710499874248  0.6389499993487789
  0.1875000089999972  0.8635345666828458  0.3611594974931290
  0.1875000089999972  0.4361955892025502  0.4405304118827763
  0.0625000000000000  0.4125538822583863  0.5595280761919068
  0.1875000089999972  0.6316373176584271  0.5645808596280347
  0.0625000000000000  0.2172506576270026  0.4354686253454513
  0.1875000089999972  0.0760832867812354  0.3411022555468623
  0.0625000000000000  0.7726993407180891  0.6589806420554443
  0.1875000089999972  0.6553878511042478  0.3942915906404923
  0.0625000000000000  0.1934354921495558  0.6057880062604977
  0.3124999910000028  0.8147764141292435  0.4940865945622333
  0.4375000089999972  0.0341288062483847  0.5059963363702961
  0.3124999910000028  0.9852710499874248  0.6389499993487789
  0.4375000089999972  0.8635345666828458  0.3611594974931290
  0.4375000089999972  0.4361955892025502  0.4405304118827763
  0.3124999910000028  0.4125538822583863  0.5595280761919068
  0.4375000089999972  0.6316373176584271  0.5645808596280347
  0.3124999910000028  0.2172506576270026  0.4354686253454513
  0.4375000089999972  0.0760832867812354  0.3411022555468623
  0.3124999910000028  0.7726993407180891  0.6589806420554443
  0.4375000089999972  0.6553878511042478  0.3942915906404923
  0.3124999910000028  0.1934354921495558  0.6057880062604977
  0.5624999910000028  0.8147764141292435  0.4940865945622333
  0.6874999739999978  0.0341288062483847  0.5059963363702961
  0.5624999910000028  0.9852710499874248  0.6389499993487789
  0.6874999739999978  0.8635345666828458  0.3611594974931290
  0.6874999739999978  0.4361955892025502  0.4405304118827763
  0.5624999910000028  0.4125538822583863  0.5595280761919068
  0.6874999739999978  0.6316373176584271  0.5645808596280347
  0.5624999910000028  0.2172506576270026  0.4354686253454513
  0.6874999739999978  0.0760832867812354  0.3411022555468623
  0.5624999910000028  0.7726993407180891  0.6589806420554443
  0.6874999739999978  0.6553878511042478  0.3942915906404923
  0.5624999910000028  0.1934354921495558  0.6057880062604977
  0.8125000260000022  0.8147764141292435  0.4940865945622333
  0.9375000089999972  0.0341288062483847  0.5059963363702961
  0.8125000260000022  0.9852710499874248  0.6389499993487789
  0.9375000089999972  0.8635345666828458  0.3611594974931290
  0.9375000089999972  0.4361955892025502  0.4405304118827763
  0.8125000260000022  0.4125538822583863  0.5595280761919068
  0.9375000089999972  0.6316373176584271  0.5645808596280347
  0.8125000260000022  0.2172506576270026  0.4354686253454513
  0.9375000089999972  0.0760832867812354  0.3411022555468623
  0.8125000260000022  0.7726993407180891  0.6589806420554443
  0.9375000089999972  0.6553878511042478  0.3942915906404923
  0.8125000260000022  0.1934354921495558  0.6057880062604977
 
  0.00000000E+00  0.00000000E+00  0.00000000E+00
  0.00000000E+00  0.00000000E+00  0.00000000E+00
  0.00000000E+00  0.00000000E+00  0.00000000E+00
  0.00000000E+00  0.00000000E+00  0.00000000E+00
  0.00000000E+00  0.00000000E+00  0.00000000E+00
  0.00000000E+00  0.00000000E+00  0.00000000E+00
  0.00000000E+00  0.00000000E+00  0.00000000E+00
  0.00000000E+00  0.00000000E+00  0.00000000E+00
  0.00000000E+00  0.00000000E+00  0.00000000E+00
  0.00000000E+00  0.00000000E+00  0.00000000E+00
  0.00000000E+00  0.00000000E+00  0.00000000E+00
  0.00000000E+00  0.00000000E+00  0.00000000E+00
  0.00000000E+00  0.00000000E+00  0.00000000E+00
  0.00000000E+00  0.00000000E+00  0.00000000E+00
  0.00000000E+00  0.00000000E+00  0.00000000E+00
  0.00000000E+00  0.00000000E+00  0.00000000E+00
  0.00000000E+00  0.00000000E+00  0.00000000E+00
  0.00000000E+00  0.00000000E+00  0.00000000E+00
  0.00000000E+00  0.00000000E+00  0.00000000E+00
  0.00000000E+00  0.00000000E+00  0.00000000E+00
  0.00000000E+00  0.00000000E+00  0.00000000E+00
  0.00000000E+00  0.00000000E+00  0.00000000E+00
  0.00000000E+00  0.00000000E+00  0.00000000E+00
  0.00000000E+00  0.00000000E+00  0.00000000E+00
  0.00000000E+00  0.00000000E+00  0.00000000E+00
  0.00000000E+00  0.00000000E+00  0.00000000E+00
  0.00000000E+00  0.00000000E+00  0.00000000E+00
  0.00000000E+00  0.00000000E+00  0.00000000E+00
  0.00000000E+00  0.00000000E+00  0.00000000E+00
  0.00000000E+00  0.00000000E+00  0.00000000E+00
  0.00000000E+00  0.00000000E+00  0.00000000E+00
  0.00000000E+00  0.00000000E+00  0.00000000E+00
  0.00000000E+00  0.00000000E+00  0.00000000E+00
  0.00000000E+00  0.00000000E+00  0.00000000E+00
  0.00000000E+00  0.00000000E+00  0.00000000E+00
  0.00000000E+00  0.00000000E+00  0.00000000E+00
  0.00000000E+00  0.00000000E+00  0.00000000E+00
  0.00000000E+00  0.00000000E+00  0.00000000E+00
  0.00000000E+00  0.00000000E+00  0.00000000E+00
  0.00000000E+00  0.00000000E+00  0.00000000E+00
  0.00000000E+00  0.00000000E+00  0.00000000E+00
  0.00000000E+00  0.00000000E+00  0.00000000E+00
  0.00000000E+00  0.00000000E+00  0.00000000E+00
  0.00000000E+00  0.00000000E+00  0.00000000E+00
  0.00000000E+00  0.00000000E+00  0.00000000E+00
  0.00000000E+00  0.00000000E+00  0.00000000E+00
  0.00000000E+00  0.00000000E+00  0.00000000E+00
  0.00000000E+00  0.00000000E+00  0.00000000E+00
  0.00000000E+00  0.00000000E+00  0.00000000E+00
  0.00000000E+00  0.00000000E+00  0.00000000E+00
  0.00000000E+00  0.00000000E+00  0.00000000E+00
  0.00000000E+00  0.00000000E+00  0.00000000E+00
  0.00000000E+00  0.00000000E+00  0.00000000E+00
  0.00000000E+00  0.00000000E+00  0.00000000E+00
  0.00000000E+00  0.00000000E+00  0.00000000E+00
  0.00000000E+00  0.00000000E+00  0.00000000E+00
  0.00000000E+00  0.00000000E+00  0.00000000E+00
  0.00000000E+00  0.00000000E+00  0.00000000E+00
  0.00000000E+00  0.00000000E+00  0.00000000E+00
  0.00000000E+00  0.00000000E+00  0.00000000E+00
  0.00000000E+00  0.00000000E+00  0.00000000E+00
  0.00000000E+00  0.00000000E+00  0.00000000E+00
  0.00000000E+00  0.00000000E+00  0.00000000E+00
  0.00000000E+00  0.00000000E+00  0.00000000E+00
