CONTCAR\(10)                            
   1.00000000000000     
    14.5429000853999995    0.0000000000000000    0.0000000000000000
     0.0000000000000000   10.6486997603999995    0.0000000000000000
     0.0000000000000000    0.0000000000000000   18.9185009002999998
   Ta   Ni   Te   O 
     8    16    24     1
Direct
  0.0625235961543993  0.7967498867331599  0.5085679078094429
  0.1859570312391199  0.2085523686989745  0.4908228289326360
  0.3117446283717200  0.7974996195519637  0.5112755957831538
  0.4363407758408400  0.2064552054983366  0.4918944954611106
  0.5624881145963343  0.7918741263571007  0.5241489467873990
  0.6886929835438451  0.2064374571621954  0.4918965353512164
  0.8133502834011281  0.7975840623807144  0.5112408335618213
  0.9390083488229877  0.2086259444943934  0.4908155912379542
  0.0624091147323895  0.4114664279943483  0.5005379785984871
  0.1872944286434972  0.5954990985739883  0.5010657473608831
  0.1864316792790106  0.9653566776168887  0.4608153221635760
  0.0624619336619929  0.0392952790804486  0.5391302685941213
  0.3121888082103865  0.4107875990022478  0.5000387682213443
  0.4440837212078605  0.5893507439710888  0.5064300319846282
  0.4378302798056026  0.9614153367813287  0.4649093098128816
  0.3087421851232008  0.0421947096045940  0.5380094291477846
  0.5625068233530683  0.3973973564000488  0.4964313617086731
  0.6809543245970318  0.5892760042997125  0.5063950741318450
  0.6871518331900077  0.9614378189071147  0.4648819104702611
  0.5624558968868385  0.0335565254254320  0.5428049474313781
  0.8129214090138035  0.4108515311241234  0.5000218742907236
  0.9377681119286407  0.5954288957885581  0.5010931824086455
  0.9384731996585316  0.9654446291748897  0.4608287257098098
  0.8161216300676557  0.0422974484751535  0.5379893546827006
  0.1893336042087412  0.7514109190752549  0.3996601781781237
  0.0624944140005894  0.2531027895957862  0.6012573444302731
  0.1868775875107715  0.4169077167978799  0.4069802477953601
  0.0624877532193082  0.5902900820723147  0.5946373875432798
  0.0624789184495782  0.0851430129687500  0.3934432498494900
  0.1861837707212999  0.9201623255709919  0.6065980869017196
  0.4416663917369164  0.7474727540878945  0.4059724263087645
  0.3106717836897843  0.2543585933942865  0.6009954878065926
  0.4352976012159218  0.4138940397443918  0.4061331885843913
  0.3134579059548344  0.5888724782310604  0.5947371629152229
  0.3133299085202310  0.0827672923007654  0.3953230565407111
  0.4286680030285908  0.9336732319595953  0.6085142275531865
  0.6833865253802145  0.7475019884392466  0.4059897749189503
  0.5625482614441637  0.2462919595380626  0.6023519608747350
  0.6896069661668349  0.4138798607058050  0.4061372101112326
  0.5625379844018852  0.5476564977309835  0.5999770638884598
  0.5625112135362187  0.0800628000681840  0.3975722971772981
  0.6963051197927399  0.9336029692418535  0.6084994638449075
  0.9357816552960188  0.7514544861239045  0.3996542976317343
  0.8143683011339320  0.2544045207961290  0.6010018998521929
  0.9380128854167040  0.4168924593327432  0.4068652600743619
  0.8115629824920418  0.5888914094715005  0.5946804172070657
  0.8116069789810822  0.0827858125352705  0.3952587444518301
  0.9387198945773392  0.9201429191905248  0.6065559756499326
  0.5624724377943195  0.7383124139300463  0.6228476422676721
 
  0.00000000E+00  0.00000000E+00  0.00000000E+00
  0.00000000E+00  0.00000000E+00  0.00000000E+00
  0.00000000E+00  0.00000000E+00  0.00000000E+00
  0.00000000E+00  0.00000000E+00  0.00000000E+00
  0.00000000E+00  0.00000000E+00  0.00000000E+00
  0.00000000E+00  0.00000000E+00  0.00000000E+00
  0.00000000E+00  0.00000000E+00  0.00000000E+00
  0.00000000E+00  0.00000000E+00  0.00000000E+00
  0.00000000E+00  0.00000000E+00  0.00000000E+00
  0.00000000E+00  0.00000000E+00  0.00000000E+00
  0.00000000E+00  0.00000000E+00  0.00000000E+00
  0.00000000E+00  0.00000000E+00  0.00000000E+00
  0.00000000E+00  0.00000000E+00  0.00000000E+00
  0.00000000E+00  0.00000000E+00  0.00000000E+00
  0.00000000E+00  0.00000000E+00  0.00000000E+00
  0.00000000E+00  0.00000000E+00  0.00000000E+00
  0.00000000E+00  0.00000000E+00  0.00000000E+00
  0.00000000E+00  0.00000000E+00  0.00000000E+00
  0.00000000E+00  0.00000000E+00  0.00000000E+00
  0.00000000E+00  0.00000000E+00  0.00000000E+00
  0.00000000E+00  0.00000000E+00  0.00000000E+00
  0.00000000E+00  0.00000000E+00  0.00000000E+00
  0.00000000E+00  0.00000000E+00  0.00000000E+00
  0.00000000E+00  0.00000000E+00  0.00000000E+00
  0.00000000E+00  0.00000000E+00  0.00000000E+00
  0.00000000E+00  0.00000000E+00  0.00000000E+00
  0.00000000E+00  0.00000000E+00  0.00000000E+00
  0.00000000E+00  0.00000000E+00  0.00000000E+00
  0.00000000E+00  0.00000000E+00  0.00000000E+00
  0.00000000E+00  0.00000000E+00  0.00000000E+00
  0.00000000E+00  0.00000000E+00  0.00000000E+00
  0.00000000E+00  0.00000000E+00  0.00000000E+00
  0.00000000E+00  0.00000000E+00  0.00000000E+00
  0.00000000E+00  0.00000000E+00  0.00000000E+00
  0.00000000E+00  0.00000000E+00  0.00000000E+00
  0.00000000E+00  0.00000000E+00  0.00000000E+00
  0.00000000E+00  0.00000000E+00  0.00000000E+00
  0.00000000E+00  0.00000000E+00  0.00000000E+00
  0.00000000E+00  0.00000000E+00  0.00000000E+00
  0.00000000E+00  0.00000000E+00  0.00000000E+00
  0.00000000E+00  0.00000000E+00  0.00000000E+00
  0.00000000E+00  0.00000000E+00  0.00000000E+00
  0.00000000E+00  0.00000000E+00  0.00000000E+00
  0.00000000E+00  0.00000000E+00  0.00000000E+00
  0.00000000E+00  0.00000000E+00  0.00000000E+00
  0.00000000E+00  0.00000000E+00  0.00000000E+00
  0.00000000E+00  0.00000000E+00  0.00000000E+00
  0.00000000E+00  0.00000000E+00  0.00000000E+00
  0.00000000E+00  0.00000000E+00  0.00000000E+00
