CONTCAR                                 
   1.00000000000000     
    15.2456998825000003    0.0000000000000000    0.0000000000000000
     7.6228095670000000   13.2074592144000000    0.0000000000000000
     0.0000000000000000    0.0000000000000000   19.0911998748999991
   Nb   I    O    H 
    12    32     1     1
Selective dynamics
Direct
  0.1968810473540614  0.4020369857164283  0.4922105454576453   F   F   F
  0.3941572955494337  0.4009031497986513  0.4969941284032018   F   F   F
  0.3935306330051702  0.2064291769058073  0.4961967965628915   F   F   F
  0.6951254206604460  0.4023192635046584  0.4964478773043197   F   F   F
  0.8939007059723778  0.4027913079127856  0.4958822214709713   F   F   F
  0.8938249943814682  0.2050077291004015  0.4961756426206989   F   F   F
  0.1964075543856296  0.9023589844357858  0.4966744409317769   F   F   F
  0.3938838963546445  0.9026969003474221  0.4968598159130622   F   F   F
  0.3937592027720456  0.7044152487936728  0.4968755084626864   F   F   F
  0.6954924452854527  0.9037291462525232  0.4964263890887963   F   F   F
  0.8940561832554650  0.9025659401452515  0.4961322177598362   F   F   F
  0.8940173400013478  0.7047043558956076  0.4959165903035654   F   F   F
  0.4952218279125162  0.2531571362274434  0.3966073862666875   F   F   F
  0.2456582231531996  0.2511406184939560  0.3951536096954626   F   F   F
  0.2459948931212566  0.5049475046845942  0.3961778919957908   F   F   F
  0.3258868393781640  0.0877775091327706  0.5773921264471440   F   F   F
  0.0795269310610180  0.0884090114211418  0.5765806455489226   F   F   F
  0.0807752566029976  0.3335158361031603  0.5744625271399499   F   F   F
  0.9927633873619399  0.5043635875096157  0.4176733497173046   F   F   F
  0.3314349406819019  0.3346236473350004  0.6081674531868728   F   F   F
  0.9936181169275784  0.2539219238405579  0.3960609483389561   F   F   F
  0.7450628897329423  0.2534191209642884  0.3963685703745909   F   F   F
  0.7440317715298335  0.5030995558668963  0.3966862043209218   F   F   F
  0.8250842728390424  0.0881695364073778  0.5765357453390223   F   F   F
  0.5795860180886763  0.0880895082132369  0.5768839476069161   F   F   F
  0.5802308626228410  0.3340593549306803  0.5770816189177879   F   F   F
  0.4948067965464489  0.5032268172229379  0.4200366998894722   F   F   F
  0.8278482656746391  0.3368522401539309  0.6079134586887847   F   F   F
  0.4937964562103261  0.7536234020134245  0.3970014725399764   F   F   F
  0.2450688544061137  0.7537204300901976  0.3967529623985655   F   F   F
  0.2451487216597457  0.0024234118287012  0.3968191130806815   F   F   F
  0.3261266840939712  0.5871723163416647  0.5776825350199175   F   F   F
  0.0807808231469451  0.5867258982628414  0.5747374964260885   F   F   F
  0.0796456178045943  0.8334708845383361  0.5767167026767552   F   F   F
  0.9949169518393788  0.0032873825479172  0.4195394462992326   F   F   F
  0.3279219862716474  0.8364611561005120  0.6086647225146464   F   F   F
  0.9938546392266474  0.7537063738165273  0.3960626534973173   F   F   F
  0.7442250581310503  0.7543316672052711  0.3966706023292872   F   F   F
  0.7451343683841927  0.0027569482650023  0.3962497335008379   F   F   F
  0.8256552312973469  0.5878989252925138  0.5765110215431335   F   F   F
  0.5795573885968963  0.5884455225462091  0.5766741748527124   F   F   F
  0.5798354130629306  0.8334132832755614  0.5767559901470776   F   F   F
  0.4949268126572477  0.0029342550658740  0.4198242641550820   F   F   F
  0.8281297962271097  0.8367021875162663  0.6079199996891163   F   F   F
  0.4527660085244136  0.2847250073746324  0.6947050264840229   T   T   T
  0.4443202512468858  0.2383803226020191  0.7249419117732548   T   T   T
 
  0.00000000E+00  0.00000000E+00  0.00000000E+00
  0.00000000E+00  0.00000000E+00  0.00000000E+00
  0.00000000E+00  0.00000000E+00  0.00000000E+00
  0.00000000E+00  0.00000000E+00  0.00000000E+00
  0.00000000E+00  0.00000000E+00  0.00000000E+00
  0.00000000E+00  0.00000000E+00  0.00000000E+00
  0.00000000E+00  0.00000000E+00  0.00000000E+00
  0.00000000E+00  0.00000000E+00  0.00000000E+00
  0.00000000E+00  0.00000000E+00  0.00000000E+00
  0.00000000E+00  0.00000000E+00  0.00000000E+00
  0.00000000E+00  0.00000000E+00  0.00000000E+00
  0.00000000E+00  0.00000000E+00  0.00000000E+00
  0.00000000E+00  0.00000000E+00  0.00000000E+00
  0.00000000E+00  0.00000000E+00  0.00000000E+00
  0.00000000E+00  0.00000000E+00  0.00000000E+00
  0.00000000E+00  0.00000000E+00  0.00000000E+00
  0.00000000E+00  0.00000000E+00  0.00000000E+00
  0.00000000E+00  0.00000000E+00  0.00000000E+00
  0.00000000E+00  0.00000000E+00  0.00000000E+00
  0.00000000E+00  0.00000000E+00  0.00000000E+00
  0.00000000E+00  0.00000000E+00  0.00000000E+00
  0.00000000E+00  0.00000000E+00  0.00000000E+00
  0.00000000E+00  0.00000000E+00  0.00000000E+00
  0.00000000E+00  0.00000000E+00  0.00000000E+00
  0.00000000E+00  0.00000000E+00  0.00000000E+00
  0.00000000E+00  0.00000000E+00  0.00000000E+00
  0.00000000E+00  0.00000000E+00  0.00000000E+00
  0.00000000E+00  0.00000000E+00  0.00000000E+00
  0.00000000E+00  0.00000000E+00  0.00000000E+00
  0.00000000E+00  0.00000000E+00  0.00000000E+00
  0.00000000E+00  0.00000000E+00  0.00000000E+00
  0.00000000E+00  0.00000000E+00  0.00000000E+00
  0.00000000E+00  0.00000000E+00  0.00000000E+00
  0.00000000E+00  0.00000000E+00  0.00000000E+00
  0.00000000E+00  0.00000000E+00  0.00000000E+00
  0.00000000E+00  0.00000000E+00  0.00000000E+00
  0.00000000E+00  0.00000000E+00  0.00000000E+00
  0.00000000E+00  0.00000000E+00  0.00000000E+00
  0.00000000E+00  0.00000000E+00  0.00000000E+00
  0.00000000E+00  0.00000000E+00  0.00000000E+00
  0.00000000E+00  0.00000000E+00  0.00000000E+00
  0.00000000E+00  0.00000000E+00  0.00000000E+00
  0.00000000E+00  0.00000000E+00  0.00000000E+00
  0.00000000E+00  0.00000000E+00  0.00000000E+00
  0.00000000E+00  0.00000000E+00  0.00000000E+00
  0.00000000E+00  0.00000000E+00  0.00000000E+00
