CONTCAR\(7)                             
   1.00000000000000     
    10.9294004440000005    0.0000000000000000    0.0000000000000000
    -5.4647012217000004    9.4654836332999999    0.0000000000000000
     0.0000000000000000    0.0000000000000000   27.0860996245999992
   Mn   Ga   S    O 
    18    18    45     1
Direct
  0.1099489820474567  0.2207567143058930  0.4438125075044133
  0.2214115506729505  0.1101389657591881  0.5552244186067218
  0.4434853776011290  0.2208892029897751  0.4438270075679834
  0.5548131789121215  0.1101783720715524  0.5551697652113126
  0.7762646403537736  0.2202961500184543  0.4454278099058062
  0.8881108846521484  0.1100904604128685  0.5551419595181512
  0.1140777435694759  0.5614291348939859  0.4433241380352531
  0.2320873003044019  0.4450570457850782  0.5556944514974174
  0.4486726620072419  0.5644245687771805  0.4424744899826684
  0.5467605057964855  0.4451874247856925  0.5557854403019321
  0.7804285961535123  0.5614945473189153  0.4433845256653001
  0.8874890300400691  0.4407341637384009  0.5547270031064639
  0.1100456706127957  0.8905927371540268  0.4445636309027427
  0.2231986925932171  0.7764403441531006  0.5529050146462754
  0.4429152355982013  0.8903048480045445  0.4442089019157031
  0.5490446534596911  0.7637264866404733  0.5550203464847612
  0.7764504940829682  0.8902786430148144  0.4442612135543982
  0.8876627801493754  0.7761992484691679  0.5529611401220669
  0.1154720401595868  0.2242162765979879  0.6849551714065346
  0.2220563889873855  0.1140340668942974  0.3135589913596690
  0.4463501125315139  0.2242570626352479  0.6849069577895968
  0.5553750479906100  0.1140422224648633  0.3140717079414801
  0.7783389936679601  0.2193407788040108  0.6851360110947726
  0.8886798593170094  0.1140351828153519  0.3141333175702972
  0.1162267865735067  0.5512614073964790  0.6829844086368033
  0.2222070170395765  0.4474674728764702  0.3143576767171614
  0.4453170438077100  0.5525948733123136  0.7586650109457314
  0.5554839212832161  0.4473863103556922  0.3143590476551501
  0.7725240827188163  0.5515341911750554  0.6830122593311757
  0.8886482743037696  0.4471043173731921  0.3150369098274530
  0.1119005278320910  0.8865654329836915  0.6832801603334443
  0.2218548285250731  0.7806984607815597  0.3134033643915395
  0.4466351987299849  0.8827122684223589  0.6836018931134421
  0.5554023398858643  0.7805038918621318  0.3128466655920370
  0.7733800156412638  0.8829070170092721  0.6835628626206897
  0.8891244606641039  0.7807111042809406  0.3134025910553191
 -0.0000182201314684 -0.0000605053375432  0.4983407575566121
  0.1105048178936186  0.2207358209469969  0.6026110015693895
  0.2231528601702187  0.1139715579309820  0.3953156649847290
  0.1106885825210493  0.2252410860681819  0.2756152459846408
  0.2223448731521644  0.1072767547435657  0.7215534703437977
  0.3326701318455065 -0.0000485072847526  0.4982879362896107
  0.4435455952967872  0.2206483819395886  0.6025807214626028
  0.5569841408616659  0.1145499203136096  0.3958695308758143
  0.4447039331665002  0.2252249220574801  0.2755673162352782
  0.5539723974573980  0.1063567001450334  0.7204655443347545
  0.6651804229369375 -0.0021519475826695  0.4991091525919106
  0.7767648354252034  0.2200597144178706  0.6027920395341267
  0.8896445080560952  0.1145993810135523  0.3959209161595830
  0.7777594368267220  0.2253308184677579  0.2759372088612608
  0.8897913696397892  0.1065116947572199  0.7204568956712240
  0.0029604572382864  0.3341869701868966  0.4994605311818729
  0.1135376243311341  0.5534135390596703  0.6000387868117005
  0.2229020605893301  0.4461905353430610  0.3960295058431644
  0.1101967500080766  0.5576417416419707  0.2758115058208903
  0.2076030052520627  0.4348885635284765  0.7256783441689780
  0.3330828628836945  0.3330916852656372  0.4982661639814933
  0.4439452841522195  0.5543215202741448  0.6026109492632347
  0.5557905215380647  0.4463046624071041  0.3960648408140273
  0.4439892496796908  0.5575802900542177  0.2752951302529659
  0.5649278453234674  0.4347322211844123  0.7256804550311196
  0.6644791298320987  0.3344663233574950  0.4994922054077578
  0.7742302531327395  0.5531736629235563  0.6000753470700877
  0.8887156569864967  0.4451423630944173  0.3968818295332142
  0.7777945884010421  0.5576061273310533  0.2758234871294049
  0.8913126443022455  0.4453336210955006  0.7190183463710783
  0.0005974477656384  0.6676115545954080  0.4982810511502229
  0.1096342999837354  0.8843556085138942  0.6008522209714905
  0.2217119797592698  0.7806983467994401  0.3949663723402159
  0.1112034341348053  0.8919948129994171  0.2748478376484650
  0.2227445373169543  0.7745791695527643  0.7199613462608815
  0.3346927733716950  0.6694507578723736  0.4969804805243987
  0.4445267972248009  0.8840964796373366  0.6007161204275890
  0.5562417928435082  0.7827655388012102  0.3943820291803081
  0.4442684603341222  0.8923464440053140  0.2750658588656813
  0.5631608674096982  0.7889449769390564  0.7247179766733631
  0.6680617799301213  0.6693927106105120  0.4970739334107531
  0.7745299699097170  0.8841456346436293  0.6007075486523126
  0.8890797763985552  0.7808447026548981  0.3949790114340653
  0.7783683236923031  0.8923928648424845  0.2750929554721301
  0.8890642971014627  0.7748214054709978  0.7199495903275198
  0.4453315797887176  0.5514383203827676  0.8213268916126344
 
  0.00000000E+00  0.00000000E+00  0.00000000E+00
  0.00000000E+00  0.00000000E+00  0.00000000E+00
  0.00000000E+00  0.00000000E+00  0.00000000E+00
  0.00000000E+00  0.00000000E+00  0.00000000E+00
  0.00000000E+00  0.00000000E+00  0.00000000E+00
  0.00000000E+00  0.00000000E+00  0.00000000E+00
  0.00000000E+00  0.00000000E+00  0.00000000E+00
  0.00000000E+00  0.00000000E+00  0.00000000E+00
  0.00000000E+00  0.00000000E+00  0.00000000E+00
  0.00000000E+00  0.00000000E+00  0.00000000E+00
  0.00000000E+00  0.00000000E+00  0.00000000E+00
  0.00000000E+00  0.00000000E+00  0.00000000E+00
  0.00000000E+00  0.00000000E+00  0.00000000E+00
  0.00000000E+00  0.00000000E+00  0.00000000E+00
  0.00000000E+00  0.00000000E+00  0.00000000E+00
  0.00000000E+00  0.00000000E+00  0.00000000E+00
  0.00000000E+00  0.00000000E+00  0.00000000E+00
  0.00000000E+00  0.00000000E+00  0.00000000E+00
  0.00000000E+00  0.00000000E+00  0.00000000E+00
  0.00000000E+00  0.00000000E+00  0.00000000E+00
  0.00000000E+00  0.00000000E+00  0.00000000E+00
  0.00000000E+00  0.00000000E+00  0.00000000E+00
  0.00000000E+00  0.00000000E+00  0.00000000E+00
  0.00000000E+00  0.00000000E+00  0.00000000E+00
  0.00000000E+00  0.00000000E+00  0.00000000E+00
  0.00000000E+00  0.00000000E+00  0.00000000E+00
  0.00000000E+00  0.00000000E+00  0.00000000E+00
  0.00000000E+00  0.00000000E+00  0.00000000E+00
  0.00000000E+00  0.00000000E+00  0.00000000E+00
  0.00000000E+00  0.00000000E+00  0.00000000E+00
  0.00000000E+00  0.00000000E+00  0.00000000E+00
  0.00000000E+00  0.00000000E+00  0.00000000E+00
  0.00000000E+00  0.00000000E+00  0.00000000E+00
  0.00000000E+00  0.00000000E+00  0.00000000E+00
  0.00000000E+00  0.00000000E+00  0.00000000E+00
  0.00000000E+00  0.00000000E+00  0.00000000E+00
  0.00000000E+00  0.00000000E+00  0.00000000E+00
  0.00000000E+00  0.00000000E+00  0.00000000E+00
  0.00000000E+00  0.00000000E+00  0.00000000E+00
  0.00000000E+00  0.00000000E+00  0.00000000E+00
  0.00000000E+00  0.00000000E+00  0.00000000E+00
  0.00000000E+00  0.00000000E+00  0.00000000E+00
  0.00000000E+00  0.00000000E+00  0.00000000E+00
  0.00000000E+00  0.00000000E+00  0.00000000E+00
  0.00000000E+00  0.00000000E+00  0.00000000E+00
  0.00000000E+00  0.00000000E+00  0.00000000E+00
  0.00000000E+00  0.00000000E+00  0.00000000E+00
  0.00000000E+00  0.00000000E+00  0.00000000E+00
  0.00000000E+00  0.00000000E+00  0.00000000E+00
  0.00000000E+00  0.00000000E+00  0.00000000E+00
  0.00000000E+00  0.00000000E+00  0.00000000E+00
  0.00000000E+00  0.00000000E+00  0.00000000E+00
  0.00000000E+00  0.00000000E+00  0.00000000E+00
  0.00000000E+00  0.00000000E+00  0.00000000E+00
  0.00000000E+00  0.00000000E+00  0.00000000E+00
  0.00000000E+00  0.00000000E+00  0.00000000E+00
  0.00000000E+00  0.00000000E+00  0.00000000E+00
  0.00000000E+00  0.00000000E+00  0.00000000E+00
  0.00000000E+00  0.00000000E+00  0.00000000E+00
  0.00000000E+00  0.00000000E+00  0.00000000E+00
  0.00000000E+00  0.00000000E+00  0.00000000E+00
  0.00000000E+00  0.00000000E+00  0.00000000E+00
  0.00000000E+00  0.00000000E+00  0.00000000E+00
  0.00000000E+00  0.00000000E+00  0.00000000E+00
  0.00000000E+00  0.00000000E+00  0.00000000E+00
  0.00000000E+00  0.00000000E+00  0.00000000E+00
  0.00000000E+00  0.00000000E+00  0.00000000E+00
  0.00000000E+00  0.00000000E+00  0.00000000E+00
  0.00000000E+00  0.00000000E+00  0.00000000E+00
  0.00000000E+00  0.00000000E+00  0.00000000E+00
  0.00000000E+00  0.00000000E+00  0.00000000E+00
  0.00000000E+00  0.00000000E+00  0.00000000E+00
  0.00000000E+00  0.00000000E+00  0.00000000E+00
  0.00000000E+00  0.00000000E+00  0.00000000E+00
  0.00000000E+00  0.00000000E+00  0.00000000E+00
  0.00000000E+00  0.00000000E+00  0.00000000E+00
  0.00000000E+00  0.00000000E+00  0.00000000E+00
  0.00000000E+00  0.00000000E+00  0.00000000E+00
  0.00000000E+00  0.00000000E+00  0.00000000E+00
  0.00000000E+00  0.00000000E+00  0.00000000E+00
  0.00000000E+00  0.00000000E+00  0.00000000E+00
  0.00000000E+00  0.00000000E+00  0.00000000E+00
