 Nb3 Cl8                                
   1.00000000000000     
     6.7441880213982968    0.0000000000000000    0.0000000000000000
    -3.3720945044244592    5.8407399317937649    0.0000000000000000
     0.0000000000000000    0.0000000000000000   18.4951645380869962
   Nb   Cl
     3     8
Direct
  0.1947125223573565  0.3894209089000000  0.4950051113258880
  0.1947068376939072  0.8052932589367572  0.4950047587922484
  0.6105768981396906  0.8052873316022797  0.4950053630663760
  0.3333240848150396  0.6666685928346254  0.5941452566609513
  0.0000021759795032  0.9999990123973959  0.4214746827658189
  0.8318005747565138  0.1681913315438663  0.5683128323488305
  0.3364057039220896  0.1682048453783054  0.5683134171317334
  0.8317943109089683  0.6636004057515379  0.5683128622221076
  0.4979718684450773  0.5020354813498145  0.4058745155531085
  0.0040637106300210  0.5020291994706128  0.4058722094248779
  0.4979753123518407  0.9959366318348017  0.4058735348021187
 
  0.00000000E+00  0.00000000E+00  0.00000000E+00
  0.00000000E+00  0.00000000E+00  0.00000000E+00
  0.00000000E+00  0.00000000E+00  0.00000000E+00
  0.00000000E+00  0.00000000E+00  0.00000000E+00
  0.00000000E+00  0.00000000E+00  0.00000000E+00
  0.00000000E+00  0.00000000E+00  0.00000000E+00
  0.00000000E+00  0.00000000E+00  0.00000000E+00
  0.00000000E+00  0.00000000E+00  0.00000000E+00
  0.00000000E+00  0.00000000E+00  0.00000000E+00
  0.00000000E+00  0.00000000E+00  0.00000000E+00
  0.00000000E+00  0.00000000E+00  0.00000000E+00
