CONTCAR\(6)                             
   1.00000000000000     
    12.9184999466000008    0.0000000000000000    0.0000000000000000
     0.0000000000000000   12.9184999466000008    0.0000000000000000
     0.0000000000000000    0.0000000000000000   24.0865993500000002
   Ho   Te   O    H 
    18    54     1     1
Direct
  0.1663297742402975 -0.0006868984737458  0.5834443848485525
  0.0005053747793875  0.1650135109683001  0.4138521163610453
  0.4996430459023063  0.9997703024403458  0.5837573338946633
  0.3334905602005668  0.1650445630631345  0.4139185042199653
  0.8333292996891188  0.9991628325057180  0.5837149225867524
  0.6666328245752932  0.1653290072550487  0.4138559801322805
  0.1669261301830837  0.3318645743840631  0.5838451197880363
  0.0000122164355575  0.4983243998737623  0.4139490645036736
  0.4989096467544649  0.3310232133697578  0.5835531121045009
  0.3335974399352103  0.4989648727344332  0.4149746029415334
  0.8334500855249691  0.3301220889319261  0.5840665796982963
  0.6672391874783600  0.4982637622282899  0.4139648756288689
  0.1594030066028697  0.6665811634144638  0.5818611791708139
 -0.0002558066764558  0.8320360078732661  0.4134578694859545
  0.5081225992214127  0.6652145261212373  0.5829720161420905
  0.3338249385094070  0.8312825070208035  0.4146899973463212
  0.8339200226620513  0.6644924539006168  0.5843754604018000
  0.6669862941409002  0.8321180437137039  0.4139300238117552
  0.0001583100071991  0.9988154304817575  0.3109334920495642
  0.1705118855361629  0.1666509080537497  0.6866220851131308
 -0.0002402030985144 -0.0002833425203607  0.6859646015477551
  0.1670550776956838  0.1652955531162413  0.3112105011646384
  0.1673119399975625  0.9975019250726532  0.4526592142607381
  0.0008478541662864  0.1654647185101648  0.5448117539546711
  0.3335527000828013  0.9981928391169689  0.3115188147107788
  0.5020934705332083  0.1648189166437485  0.6869222489224956
  0.3344544148614627  0.9947592830653624  0.6866907618132982
  0.4998219367418629  0.1652736173812362  0.3113184668510885
  0.4998695789017661  0.9984434991993977  0.4528939209315255
  0.3333161471952908  0.1649916290516319  0.5452256651869017
  0.6666463449306301  0.9982735969527844  0.3112676379536676
  0.8387143129497348  0.1636884551572096  0.6862622555871091
  0.6649632589662681 -0.0005733627808438  0.6862678447374135
  0.8332821131444077  0.1652787244777606  0.3111029413352450
  0.8332392607890705  0.9988451005648674  0.4524895097189670
  0.6664855461209893  0.1653558174547421  0.5451342248780774
  0.0002926953877869  0.3314900167620718  0.3113539776832862
  0.1705220676358992  0.5092320676607685  0.6877355635427700
  0.0017969241393477  0.3330116832007249  0.6862385457689798
  0.1667592212055317  0.4982442582053960  0.3116643267260091
  0.1674273593175886  0.3321945481329019  0.4528978251791790
 -0.0005100524586734  0.4978552573182604  0.5455636718366602
  0.3337529327325674  0.3324456582834162  0.3115871494011707
  0.5005904545865583  0.4995478995854850  0.6869145306126953
  0.3321103210842871  0.3323544451768604  0.6863641474862157
  0.5001851147206358  0.4989226562883268  0.3118141778000877
  0.4996709601649960  0.3320120902085379  0.4529141426378477
  0.3333221978939671  0.5031697453805201  0.5474805733816632
  0.6667700440056431  0.3319717688673048  0.3111792178841197
  0.8350704213065817  0.4961429440146456  0.6867883423713288
  0.6634090392554196  0.3345861750354222  0.6860670724125078
  0.8335206121473915  0.4983649097130050  0.3112511380968310
  0.8336517493158362  0.3316327898349580  0.4526858659028582
  0.6679681156869445  0.4975220942441464  0.5452852551360187
 -0.0001031824763343  0.6651187932589286  0.3111497697331617
  0.1699395758138773  0.8268293037486761  0.6831952626065778
  0.0024439600377184  0.6664275921807464  0.6882289352480072
  0.1668285716648000  0.8319576736942350  0.3111602399243081
  0.1658188824677813  0.6651895536419673  0.4520642488811458
  0.9982409423780806  0.8326536417344546  0.5446308261134392
  0.3332755043285824  0.6651190016280213  0.3119828127717347
  0.4971363802911234  0.8270116484653948  0.6894163628602682
  0.3427307417621953  0.6624254122487372  0.7261981040769510
  0.5001688762755740  0.8314779159145217  0.3115858498152982
  0.5014325972194541  0.6649994352944475  0.4528280192158180
  0.3344470087470426  0.8281538674712696  0.5470749043848524
  0.6668612861434392  0.6652858743281009  0.3113125775111218
  0.8318185587176686  0.8317578985043715  0.6864099488275853
  0.6703810566544364  0.6659543295884691  0.6878492100159969
  0.8334401872556066  0.8321172956503032  0.3109708106709698
  0.8333601534995525  0.6653539564319467  0.4529195074789137
  0.6670390685009916  0.8328136605086075  0.5455494884163581
  0.4149900742862540  0.6166051469154279  0.7975511180931022
  0.3843285406231973  0.6563523925544287  0.8280362807102728
 
  0.00000000E+00  0.00000000E+00  0.00000000E+00
  0.00000000E+00  0.00000000E+00  0.00000000E+00
  0.00000000E+00  0.00000000E+00  0.00000000E+00
  0.00000000E+00  0.00000000E+00  0.00000000E+00
  0.00000000E+00  0.00000000E+00  0.00000000E+00
  0.00000000E+00  0.00000000E+00  0.00000000E+00
  0.00000000E+00  0.00000000E+00  0.00000000E+00
  0.00000000E+00  0.00000000E+00  0.00000000E+00
  0.00000000E+00  0.00000000E+00  0.00000000E+00
  0.00000000E+00  0.00000000E+00  0.00000000E+00
  0.00000000E+00  0.00000000E+00  0.00000000E+00
  0.00000000E+00  0.00000000E+00  0.00000000E+00
  0.00000000E+00  0.00000000E+00  0.00000000E+00
  0.00000000E+00  0.00000000E+00  0.00000000E+00
  0.00000000E+00  0.00000000E+00  0.00000000E+00
  0.00000000E+00  0.00000000E+00  0.00000000E+00
  0.00000000E+00  0.00000000E+00  0.00000000E+00
  0.00000000E+00  0.00000000E+00  0.00000000E+00
  0.00000000E+00  0.00000000E+00  0.00000000E+00
  0.00000000E+00  0.00000000E+00  0.00000000E+00
  0.00000000E+00  0.00000000E+00  0.00000000E+00
  0.00000000E+00  0.00000000E+00  0.00000000E+00
  0.00000000E+00  0.00000000E+00  0.00000000E+00
  0.00000000E+00  0.00000000E+00  0.00000000E+00
  0.00000000E+00  0.00000000E+00  0.00000000E+00
  0.00000000E+00  0.00000000E+00  0.00000000E+00
  0.00000000E+00  0.00000000E+00  0.00000000E+00
  0.00000000E+00  0.00000000E+00  0.00000000E+00
  0.00000000E+00  0.00000000E+00  0.00000000E+00
  0.00000000E+00  0.00000000E+00  0.00000000E+00
  0.00000000E+00  0.00000000E+00  0.00000000E+00
  0.00000000E+00  0.00000000E+00  0.00000000E+00
  0.00000000E+00  0.00000000E+00  0.00000000E+00
  0.00000000E+00  0.00000000E+00  0.00000000E+00
  0.00000000E+00  0.00000000E+00  0.00000000E+00
  0.00000000E+00  0.00000000E+00  0.00000000E+00
  0.00000000E+00  0.00000000E+00  0.00000000E+00
  0.00000000E+00  0.00000000E+00  0.00000000E+00
  0.00000000E+00  0.00000000E+00  0.00000000E+00
  0.00000000E+00  0.00000000E+00  0.00000000E+00
  0.00000000E+00  0.00000000E+00  0.00000000E+00
  0.00000000E+00  0.00000000E+00  0.00000000E+00
  0.00000000E+00  0.00000000E+00  0.00000000E+00
  0.00000000E+00  0.00000000E+00  0.00000000E+00
  0.00000000E+00  0.00000000E+00  0.00000000E+00
  0.00000000E+00  0.00000000E+00  0.00000000E+00
  0.00000000E+00  0.00000000E+00  0.00000000E+00
  0.00000000E+00  0.00000000E+00  0.00000000E+00
  0.00000000E+00  0.00000000E+00  0.00000000E+00
  0.00000000E+00  0.00000000E+00  0.00000000E+00
  0.00000000E+00  0.00000000E+00  0.00000000E+00
  0.00000000E+00  0.00000000E+00  0.00000000E+00
  0.00000000E+00  0.00000000E+00  0.00000000E+00
  0.00000000E+00  0.00000000E+00  0.00000000E+00
  0.00000000E+00  0.00000000E+00  0.00000000E+00
  0.00000000E+00  0.00000000E+00  0.00000000E+00
  0.00000000E+00  0.00000000E+00  0.00000000E+00
  0.00000000E+00  0.00000000E+00  0.00000000E+00
  0.00000000E+00  0.00000000E+00  0.00000000E+00
  0.00000000E+00  0.00000000E+00  0.00000000E+00
  0.00000000E+00  0.00000000E+00  0.00000000E+00
  0.00000000E+00  0.00000000E+00  0.00000000E+00
  0.00000000E+00  0.00000000E+00  0.00000000E+00
  0.00000000E+00  0.00000000E+00  0.00000000E+00
  0.00000000E+00  0.00000000E+00  0.00000000E+00
  0.00000000E+00  0.00000000E+00  0.00000000E+00
  0.00000000E+00  0.00000000E+00  0.00000000E+00
  0.00000000E+00  0.00000000E+00  0.00000000E+00
  0.00000000E+00  0.00000000E+00  0.00000000E+00
  0.00000000E+00  0.00000000E+00  0.00000000E+00
  0.00000000E+00  0.00000000E+00  0.00000000E+00
  0.00000000E+00  0.00000000E+00  0.00000000E+00
  0.00000000E+00  0.00000000E+00  0.00000000E+00
  0.00000000E+00  0.00000000E+00  0.00000000E+00
