CONTCAR\(31)                            
   1.00000000000000     
    11.7456998825000003    0.0000000000000000    0.0000000000000000
     0.0000000000000000   17.6870002747000008    0.0000000000000000
     0.0000000000000000    0.0000000000000000   19.5771007537999999
   Ti   Ge   Te
     6     6    36
Direct
  0.0862999950226566  0.4797145459257237  0.5108819001175462
  0.2525015467714695  0.9534404306296054  0.4891470976081393
  0.4196400030226570  0.4797145459257237  0.5108819001175462
  0.5858315777714722  0.9534404306296054  0.4891470976081393
  0.7529699940226564  0.4797145459257237  0.5108819001175462
  0.9191715557714701  0.9534404306296054  0.4891470976081393
  0.2523494350804683  0.8034337384808197  0.4793614221236524
  0.0856257261470148  0.6297232063793672  0.5205958107609163
  0.5856894330804678  0.8034337384808197  0.4793614221236524
  0.4189557471470167  0.6297232063793672  0.5205958107609163
  0.9190194240804672  0.8034337384808197  0.4793614221236524
  0.7522857381470160  0.6297232063793672  0.5205958107609163
  0.0859430422522962  0.9251909487682326  0.3825171174209032
  0.2534556798673080  0.2573685674048249  0.5710198989549298
  0.2527830279082721  0.0642267439949862  0.3838034370883392
  0.0856683990595428  0.8972280427047394  0.5858037343046121
  0.2529918420958737  0.5080469907339378  0.6174727707978604
  0.0868793938721737  0.3689012264570195  0.6162173957757204
  0.0861738178351956  0.1758385409859002  0.4290426748003711
  0.2523755267371044  0.7067362810540061  0.5898204378708627
  0.0857144323874550  0.7264120285278821  0.4101388904382475
  0.2531015606893590  0.3815434946756184  0.4549665885341909
  0.0858531071957884  0.0515681438892628  0.5450052470620861
  0.2525434470780326  0.5359170593880762  0.4142055983416455
  0.4192730332522956  0.9251909487682326  0.3825171174209032
  0.5867857108673036  0.2573685674048249  0.5710198989549298
  0.5861129989082769  0.0642267439949862  0.3838034370883392
  0.4190083970595353  0.8972280427047394  0.5858037343046121
  0.5863318800958695  0.5080469907339378  0.6174727707978604
  0.4202194218721758  0.3689012264570195  0.6162173957757204
  0.4195138258351889  0.1758385409859002  0.4290426748003711
  0.5857055177371038  0.7067362810540061  0.5898204378708627
  0.4190544403874554  0.7264120285278821  0.4101388904382475
  0.5864415386893640  0.3815434946756184  0.4549665885341909
  0.4191831181957824  0.0515681438892628  0.5450052470620861
  0.5858734580780336  0.5359170593880762  0.4142055983416455
  0.7526130112522935  0.9251909487682326  0.3825171174209032
  0.9201256888673086  0.2573685674048249  0.5710198989549298
  0.9194530169082711  0.0642267439949862  0.3838034370883392
  0.7523384280595451  0.8972280427047394  0.5858037343046121
  0.9196618710958688  0.5080469907339378  0.6174727707978604
  0.7535493728721789  0.3689012264570195  0.6162173957757204
  0.7528437768351921  0.1758385409859002  0.4290426748003711
  0.9190355087371032  0.7067362810540061  0.5898204378708627
  0.7523844713874581  0.7264120285278821  0.4101388904382475
  0.9197716106893594  0.3815434946756184  0.4549665885341909
  0.7525231371957872  0.0515681438892628  0.5450052470620861
  0.9192133950780317  0.5359170593880762  0.4142055983416455
 
  0.00000000E+00  0.00000000E+00  0.00000000E+00
  0.00000000E+00  0.00000000E+00  0.00000000E+00
  0.00000000E+00  0.00000000E+00  0.00000000E+00
  0.00000000E+00  0.00000000E+00  0.00000000E+00
  0.00000000E+00  0.00000000E+00  0.00000000E+00
  0.00000000E+00  0.00000000E+00  0.00000000E+00
  0.00000000E+00  0.00000000E+00  0.00000000E+00
  0.00000000E+00  0.00000000E+00  0.00000000E+00
  0.00000000E+00  0.00000000E+00  0.00000000E+00
  0.00000000E+00  0.00000000E+00  0.00000000E+00
  0.00000000E+00  0.00000000E+00  0.00000000E+00
  0.00000000E+00  0.00000000E+00  0.00000000E+00
  0.00000000E+00  0.00000000E+00  0.00000000E+00
  0.00000000E+00  0.00000000E+00  0.00000000E+00
  0.00000000E+00  0.00000000E+00  0.00000000E+00
  0.00000000E+00  0.00000000E+00  0.00000000E+00
  0.00000000E+00  0.00000000E+00  0.00000000E+00
  0.00000000E+00  0.00000000E+00  0.00000000E+00
  0.00000000E+00  0.00000000E+00  0.00000000E+00
  0.00000000E+00  0.00000000E+00  0.00000000E+00
  0.00000000E+00  0.00000000E+00  0.00000000E+00
  0.00000000E+00  0.00000000E+00  0.00000000E+00
  0.00000000E+00  0.00000000E+00  0.00000000E+00
  0.00000000E+00  0.00000000E+00  0.00000000E+00
  0.00000000E+00  0.00000000E+00  0.00000000E+00
  0.00000000E+00  0.00000000E+00  0.00000000E+00
  0.00000000E+00  0.00000000E+00  0.00000000E+00
  0.00000000E+00  0.00000000E+00  0.00000000E+00
  0.00000000E+00  0.00000000E+00  0.00000000E+00
  0.00000000E+00  0.00000000E+00  0.00000000E+00
  0.00000000E+00  0.00000000E+00  0.00000000E+00
  0.00000000E+00  0.00000000E+00  0.00000000E+00
  0.00000000E+00  0.00000000E+00  0.00000000E+00
  0.00000000E+00  0.00000000E+00  0.00000000E+00
  0.00000000E+00  0.00000000E+00  0.00000000E+00
  0.00000000E+00  0.00000000E+00  0.00000000E+00
  0.00000000E+00  0.00000000E+00  0.00000000E+00
  0.00000000E+00  0.00000000E+00  0.00000000E+00
  0.00000000E+00  0.00000000E+00  0.00000000E+00
  0.00000000E+00  0.00000000E+00  0.00000000E+00
  0.00000000E+00  0.00000000E+00  0.00000000E+00
  0.00000000E+00  0.00000000E+00  0.00000000E+00
  0.00000000E+00  0.00000000E+00  0.00000000E+00
  0.00000000E+00  0.00000000E+00  0.00000000E+00
  0.00000000E+00  0.00000000E+00  0.00000000E+00
  0.00000000E+00  0.00000000E+00  0.00000000E+00
  0.00000000E+00  0.00000000E+00  0.00000000E+00
  0.00000000E+00  0.00000000E+00  0.00000000E+00
