 Ag1 Bi2 F12                            
   1.00000000000000     
     4.7773956066714494    0.0000000000000000    0.0000000000000000
    -2.1875030216511075    4.7696329047835562    0.0000000000000000
     0.0000000000000000    0.0000000000000000   23.1357392679619949
   Ag   Bi   F 
     1     2    12
Direct
  0.8313154045239602  0.9094876897906612  0.5000039991811382
  0.1148307507639597  0.5109433646846125  0.6158609618829753
  0.5476712907317378  0.3080005668486590  0.3841463947222789
  0.5142022383539276  0.6059184982451594  0.4433946016572665
  0.1484840132415729  0.2131092043302666  0.5565869214520391
  0.9977904291812788  0.5600712554683620  0.3818193247268683
  0.0837528128250748  0.8385433675411755  0.6544420269020238
  0.5789318826111803  0.9804795944185996  0.3455572575265298
  0.5593182034869915  0.7301924100312240  0.5906493949328622
  0.1032754872070205  0.0885477138490837  0.4093593110112267
  0.0406914947943708  0.6552568148648419  0.5318929445334292
  0.6220696468257972  0.1637905761140397  0.4681062527695249
  0.2265089611570239  0.3704819765311376  0.6884105481540405
  0.4361830471435095  0.4485539153403938  0.3115795942489562
  0.6648133371525802  0.2586150519417832  0.6181904662988164
 
  0.00000000E+00  0.00000000E+00  0.00000000E+00
  0.00000000E+00  0.00000000E+00  0.00000000E+00
  0.00000000E+00  0.00000000E+00  0.00000000E+00
  0.00000000E+00  0.00000000E+00  0.00000000E+00
  0.00000000E+00  0.00000000E+00  0.00000000E+00
  0.00000000E+00  0.00000000E+00  0.00000000E+00
  0.00000000E+00  0.00000000E+00  0.00000000E+00
  0.00000000E+00  0.00000000E+00  0.00000000E+00
  0.00000000E+00  0.00000000E+00  0.00000000E+00
  0.00000000E+00  0.00000000E+00  0.00000000E+00
  0.00000000E+00  0.00000000E+00  0.00000000E+00
  0.00000000E+00  0.00000000E+00  0.00000000E+00
  0.00000000E+00  0.00000000E+00  0.00000000E+00
  0.00000000E+00  0.00000000E+00  0.00000000E+00
  0.00000000E+00  0.00000000E+00  0.00000000E+00
