CONTCAR\(5)                             
   1.00000000000000     
    10.2070999146000005    0.0000000000000000    0.0000000000000000
    -1.7011927660999999   18.1179073708000011    0.0000000000000000
     0.0000000000000000    0.0000000000000000   20.2910003661999987
   Ta   Co   Pd   Se   O    H 
    12     6     3    36     1     1
Direct
  0.0186324501747001  0.1518964908887420  0.4667131152177713
  0.3018215524543482  0.8492995652287688  0.5290368577379521
  0.0613570807335298  0.4088080258785144  0.4721953116430490
  0.2644207539487540  0.5949375596925192  0.5324163358607276
  0.3517884969291050  0.1518447035186484  0.4666883115547009
  0.6376701715549418  0.8493825365576289  0.5291602957744417
  0.3939480426175955  0.4090309668947524  0.4735424881199796
  0.5899458234155038  0.5950633580348051  0.5316233952857711
  0.6849002381490396  0.1519016476496170  0.4666791647500818
  0.9696915394815115  0.8491593348622526  0.5304353040648970
  0.7271781020403375  0.4088473189883606  0.4723815389332551
  0.9275861341487632  0.5929818763174948  0.5273571202090238
  0.2075033606648632  0.2855294222217344  0.4410542135075751
  0.1129439231191849  0.7152909271606807  0.5567308106951209
  0.5407142003807598  0.2855113276083397  0.4412987610474865
  0.4476928636493455  0.7169868359671306  0.5529146482428613
  0.8744009345300892  0.2859995559467419  0.4410335779946470
  0.7813572438045954  0.7154921232500607  0.5570722167707872
  0.1603439201896051  0.0001661365777372  0.4981854958194126
  0.4940088818388684  0.0004778725027424  0.4976171757740146
  0.8278026385007724  0.0002512060277191  0.4982390292735796
  0.1792785797560751  0.1174234099609806  0.5595776130595495
  0.1410644913517952  0.8830160348440120  0.4365627100297214
  0.0917451045539574  0.6055266219254717  0.6222032420536051
  0.2268549522213384  0.3968428004803286  0.3793340531258035
  0.2345116098623044  0.4489810389448686  0.5637113115823710
  0.0893905227094334  0.5530754058670236  0.4386050436257658
  0.0331972930831603  0.2397409874776220  0.3701737581849560
  0.2912283802069884  0.7600804041391462  0.6254300672607731
  0.1722501353247679  0.0757955143357360  0.3968159971903068
  0.1496403649620764  0.9249017464690410  0.5999189008584073
  0.0399706191062925  0.2808224076018430  0.5252518255280011
  0.2783020222896734  0.7194598410859643  0.4713052416968138
  0.5127156384049883  0.1174803278513167  0.5594453507748683
  0.4756799002782012  0.8828905331937892  0.4365118319529191
  0.4253169665506932  0.5978757542686747  0.6286246947885459
  0.5585958361028910  0.3969126021996023  0.3794826520835859
  0.5681410682782793  0.4491599485058834  0.5637988731189340
  0.4183033710281404  0.5524125943002428  0.4395199072513675
  0.3666029124250851  0.2396653676403160  0.3702330346229415
  0.6178898595201873  0.7601782064411375  0.6256092386433046
  0.5059641835756922  0.0762011026681602  0.3964065316196228
  0.4823181995687665  0.9249281535464883  0.5986070742498675
  0.3730283171082221  0.2804372665309685  0.5254410611794541
  0.6174050487465212  0.7196798517029129  0.4713545673719128
  0.8461219313454156  0.1175214429603938  0.5594904705301000
  0.8097467798962212  0.8831132570201036  0.4366782687770233
  0.7632410930835539  0.6053014936675308  0.6217835197556529
  0.8927545868175876  0.3976490182083680  0.3790468095342120
  0.9017046996746733  0.4489066046244267  0.5633304225734898
  0.7485423409500739  0.5530512697022919  0.4387593114839300
  0.6996489310042384  0.2398828780813863  0.3702860744523972
  0.9553162308198945  0.7628898923297107  0.6277829814802165
  0.8390760191220678  0.0760066132742313  0.3968883327241470
  0.8151695145217390  0.9250547603225797  0.5999408571032201
  0.7071873587959490  0.2809516003141164  0.5253368508740059
  0.9476865125651153  0.7196718671280303  0.4728137384924507
  0.3952975130225873  0.5050718899451353  0.6793850652125465
  0.4708425420391545  0.5057194856651420  0.7092079728760363
 
  0.00000000E+00  0.00000000E+00  0.00000000E+00
  0.00000000E+00  0.00000000E+00  0.00000000E+00
  0.00000000E+00  0.00000000E+00  0.00000000E+00
  0.00000000E+00  0.00000000E+00  0.00000000E+00
  0.00000000E+00  0.00000000E+00  0.00000000E+00
  0.00000000E+00  0.00000000E+00  0.00000000E+00
  0.00000000E+00  0.00000000E+00  0.00000000E+00
  0.00000000E+00  0.00000000E+00  0.00000000E+00
  0.00000000E+00  0.00000000E+00  0.00000000E+00
  0.00000000E+00  0.00000000E+00  0.00000000E+00
  0.00000000E+00  0.00000000E+00  0.00000000E+00
  0.00000000E+00  0.00000000E+00  0.00000000E+00
  0.00000000E+00  0.00000000E+00  0.00000000E+00
  0.00000000E+00  0.00000000E+00  0.00000000E+00
  0.00000000E+00  0.00000000E+00  0.00000000E+00
  0.00000000E+00  0.00000000E+00  0.00000000E+00
  0.00000000E+00  0.00000000E+00  0.00000000E+00
  0.00000000E+00  0.00000000E+00  0.00000000E+00
  0.00000000E+00  0.00000000E+00  0.00000000E+00
  0.00000000E+00  0.00000000E+00  0.00000000E+00
  0.00000000E+00  0.00000000E+00  0.00000000E+00
  0.00000000E+00  0.00000000E+00  0.00000000E+00
  0.00000000E+00  0.00000000E+00  0.00000000E+00
  0.00000000E+00  0.00000000E+00  0.00000000E+00
  0.00000000E+00  0.00000000E+00  0.00000000E+00
  0.00000000E+00  0.00000000E+00  0.00000000E+00
  0.00000000E+00  0.00000000E+00  0.00000000E+00
  0.00000000E+00  0.00000000E+00  0.00000000E+00
  0.00000000E+00  0.00000000E+00  0.00000000E+00
  0.00000000E+00  0.00000000E+00  0.00000000E+00
  0.00000000E+00  0.00000000E+00  0.00000000E+00
  0.00000000E+00  0.00000000E+00  0.00000000E+00
  0.00000000E+00  0.00000000E+00  0.00000000E+00
  0.00000000E+00  0.00000000E+00  0.00000000E+00
  0.00000000E+00  0.00000000E+00  0.00000000E+00
  0.00000000E+00  0.00000000E+00  0.00000000E+00
  0.00000000E+00  0.00000000E+00  0.00000000E+00
  0.00000000E+00  0.00000000E+00  0.00000000E+00
  0.00000000E+00  0.00000000E+00  0.00000000E+00
  0.00000000E+00  0.00000000E+00  0.00000000E+00
  0.00000000E+00  0.00000000E+00  0.00000000E+00
  0.00000000E+00  0.00000000E+00  0.00000000E+00
  0.00000000E+00  0.00000000E+00  0.00000000E+00
  0.00000000E+00  0.00000000E+00  0.00000000E+00
  0.00000000E+00  0.00000000E+00  0.00000000E+00
  0.00000000E+00  0.00000000E+00  0.00000000E+00
  0.00000000E+00  0.00000000E+00  0.00000000E+00
  0.00000000E+00  0.00000000E+00  0.00000000E+00
  0.00000000E+00  0.00000000E+00  0.00000000E+00
  0.00000000E+00  0.00000000E+00  0.00000000E+00
  0.00000000E+00  0.00000000E+00  0.00000000E+00
  0.00000000E+00  0.00000000E+00  0.00000000E+00
  0.00000000E+00  0.00000000E+00  0.00000000E+00
  0.00000000E+00  0.00000000E+00  0.00000000E+00
  0.00000000E+00  0.00000000E+00  0.00000000E+00
  0.00000000E+00  0.00000000E+00  0.00000000E+00
  0.00000000E+00  0.00000000E+00  0.00000000E+00
  0.00000000E+00  0.00000000E+00  0.00000000E+00
  0.00000000E+00  0.00000000E+00  0.00000000E+00
