CONTCAR\(18)                            
   1.00000000000000     
    17.6217002869000012    0.0000000000000000    0.0000000000000000
    -8.8108499033999994   15.2599152229000001    0.0000000000000000
     0.0000000000000000    0.0000000000000000   22.3565006255999990
   Pr   Re   O 
     9    18    72
Direct
  0.0004100000000022  0.0001800000000003  0.4999899749999983
  0.3337400030000026  0.0001800000000003  0.4999899749999983
  0.6670800119999996  0.0001800000000003  0.4999899749999983
  0.0004099829999973  0.3335100110000013  0.4999899749999983
  0.3337399930000018  0.3335100110000013  0.4999899749999983
  0.6670799870000010  0.3335100110000013  0.4999899749999983
  0.0004100199999968  0.6668400349999999  0.4999899749999983
  0.3337400160000001  0.6668400349999999  0.4999899749999983
  0.6670800240000005  0.6668400349999999  0.4999899749999983
  0.1115769625058812  0.2225258322573943  0.4074583764032656
  0.2225630354941236  0.1111641577426092  0.5925316415967329
  0.4449069385058758  0.2225258322573943  0.4074583764032656
  0.5559030564941213  0.1111641577426092  0.5925316415967329
  0.7782469195058778  0.2225258322573943  0.4074583764032656
  0.8892329984941202  0.1111641577426092  0.5925316415967329
  0.1115769435058761  0.5558658242573934  0.4074583764032656
  0.2225630324941198  0.4444941577426055  0.5925316415967329
  0.4449069255058783  0.5558658242573934  0.4074583764032656
  0.5559030814941198  0.4444941577426055  0.5925316415967329
  0.7782469065058802  0.5558658242573934  0.4074583764032656
  0.8892330234941187  0.4444941577426055  0.5925316415967329
  0.1115769395058758  0.8891958482573920  0.4074583764032656
  0.2225630354941236  0.7778341807426038  0.5925316415967329
  0.4449069355058791  0.8891958482573920  0.4074583764032656
  0.5559030844941236  0.7778341807426038  0.5925316415967329
  0.7782469165058811  0.8891958482573920  0.4074583764032656
  0.8892330264941225  0.7778341807426038  0.5925316415967329
  0.0282550996843851  0.2422669853594546  0.4365819400412055
  0.2146142260879760  0.3057678605353910  0.4366375883119270
  0.1116159817106267  0.2225691887737505  0.3302441276913329
  0.2424399109708134  0.2142627365170946  0.5634002154339512
  0.0917000750291904  0.1194372684829026  0.4365697965660543
  0.2225940082893712  0.1111708122262449  0.6697458483086691
  0.1194957659120258  0.0279021384646104  0.5633824186880692
  0.3058848753156144  0.0914130126405464  0.5633980529587909
  0.3615850956843883  0.2422669853594546  0.4365819400412055
  0.5479442490879709  0.3057678605353910  0.4366375883119270
  0.4449559837106267  0.2225691887737505  0.3302441276913329
  0.5757799189708138  0.2142627365170946  0.5634002154339512
  0.4250300770291872  0.1194372684829026  0.4365697965660543
  0.5559240452893673  0.1111708122262449  0.6697458483086691
  0.4528357799120267  0.0279021384646104  0.5633824186880692
  0.6392148983156164  0.0914130126405464  0.5633980529587909
  0.6949251036843888  0.2422669853594546  0.4365819400412055
  0.8812842570879713  0.3057678605353910  0.4366375883119270
  0.7782859517106276  0.2225691887737505  0.3302441276913329
  0.9091098609708127  0.2142627365170946  0.5634002154339512
  0.7583600730291905  0.1194372684829026  0.4365697965660543
  0.8892639992893704  0.1111708122262449  0.6697458483086691
  0.7861657489120244  0.0279021384646104  0.5633824186880692
  0.9725549603156142  0.0914130126405464  0.5633980529587909
  0.0282551196843868  0.5755969783594541  0.4365819400412055
  0.2146142270879726  0.6391078525353902  0.4366375883119270
  0.1116159607106285  0.5558991657737556  0.3302441276913329
  0.2424399049708129  0.5475927285170974  0.5634002154339512
  0.0917000730291903  0.4527672844829076  0.4365697965660543
  0.2225940062893711  0.4445008132262452  0.6697458483086691
  0.1194957679120260  0.3612321624646090  0.5633824186880692
  0.3058848763156110  0.4247530046405454  0.5633980529587909
  0.3615850886843842  0.5755969783594541  0.4365819400412055
  0.5479442370879699  0.6391078525353902  0.4366375883119270
  0.4449559687106290  0.5558991657737556  0.3302441276913329
  0.5757799129708133  0.5475927285170974  0.5634002154339512
  0.4250300830291877  0.4527672844829076  0.4365697965660543
  0.5559240432893672  0.4445008132262452  0.6697458483086691
  0.4528357899120275  0.3612321624646090  0.5633824186880692
  0.6392148853156118  0.4247530046405454  0.5633980529587909
  0.6949250966843846  0.5755969783594541  0.4365819400412055
  0.8812842450879703  0.6391078525353902  0.4366375883119270
  0.7782859647106322  0.5558991657737556  0.3302441276913329
  0.9091098819708109  0.5475927285170974  0.5634002154339512
  0.7583600520291852  0.4527672844829076  0.4365697965660543
  0.8892640242893689  0.4445008132262452  0.6697458483086691
  0.7861657859120310  0.3612321624646090  0.5633824186880692
  0.9725548933156122  0.4247530046405454  0.5633980529587909
  0.0282550956843848  0.9089370013594522  0.4365819400412055
  0.2146142770879696  0.9724378765353958  0.4366375883119270
  0.1116159637106323  0.8892391887737537  0.3302441276913329
  0.2424399139708101  0.8809227525170960  0.5634002154339512
  0.0917000810291909  0.7860972764829037  0.4365697965660543
  0.2225940092893678  0.7778408362262504  0.6697458483086691
  0.1194957489120280  0.6945621544646048  0.5633824186880692
  0.3058848723156106  0.7580830286405440  0.5633980529587909
  0.3615850646843893  0.9089370013594522  0.4365819400412055
  0.5479442730879729  0.9724378765353958  0.4366375883119270
  0.4449559727106294  0.8892391887737537  0.3302441276913329
  0.5757799229708142  0.8809227525170960  0.5634002154339512
  0.4250300770291872  0.7860972764829037  0.4365697965660543
  0.5559240462893711  0.7778408362262504  0.6697458483086691
  0.4528357569120283  0.6945621544646048  0.5633824186880692
  0.6392148953156126  0.7580830286405440  0.5633980529587909
  0.6949250726843897  0.9089370013594522  0.4365819400412055
  0.8812842810879733  0.9724378765353958  0.4366375883119270
  0.7782859677106289  0.8892391887737537  0.3302441276913329
  0.9091098639708094  0.8809227525170960  0.5634002154339512
  0.7583600730291905  0.7860972764829037  0.4365697965660543
  0.8892639722893718  0.7778408362262504  0.6697458483086691
  0.7861657529120247  0.6945621544646048  0.5633824186880692
  0.9725549303156117  0.7580830286405440  0.5633980529587909
 
  0.00000000E+00  0.00000000E+00  0.00000000E+00
  0.00000000E+00  0.00000000E+00  0.00000000E+00
  0.00000000E+00  0.00000000E+00  0.00000000E+00
  0.00000000E+00  0.00000000E+00  0.00000000E+00
  0.00000000E+00  0.00000000E+00  0.00000000E+00
  0.00000000E+00  0.00000000E+00  0.00000000E+00
  0.00000000E+00  0.00000000E+00  0.00000000E+00
  0.00000000E+00  0.00000000E+00  0.00000000E+00
  0.00000000E+00  0.00000000E+00  0.00000000E+00
  0.00000000E+00  0.00000000E+00  0.00000000E+00
  0.00000000E+00  0.00000000E+00  0.00000000E+00
  0.00000000E+00  0.00000000E+00  0.00000000E+00
  0.00000000E+00  0.00000000E+00  0.00000000E+00
  0.00000000E+00  0.00000000E+00  0.00000000E+00
  0.00000000E+00  0.00000000E+00  0.00000000E+00
  0.00000000E+00  0.00000000E+00  0.00000000E+00
  0.00000000E+00  0.00000000E+00  0.00000000E+00
  0.00000000E+00  0.00000000E+00  0.00000000E+00
  0.00000000E+00  0.00000000E+00  0.00000000E+00
  0.00000000E+00  0.00000000E+00  0.00000000E+00
  0.00000000E+00  0.00000000E+00  0.00000000E+00
  0.00000000E+00  0.00000000E+00  0.00000000E+00
  0.00000000E+00  0.00000000E+00  0.00000000E+00
  0.00000000E+00  0.00000000E+00  0.00000000E+00
  0.00000000E+00  0.00000000E+00  0.00000000E+00
  0.00000000E+00  0.00000000E+00  0.00000000E+00
  0.00000000E+00  0.00000000E+00  0.00000000E+00
  0.00000000E+00  0.00000000E+00  0.00000000E+00
  0.00000000E+00  0.00000000E+00  0.00000000E+00
  0.00000000E+00  0.00000000E+00  0.00000000E+00
  0.00000000E+00  0.00000000E+00  0.00000000E+00
  0.00000000E+00  0.00000000E+00  0.00000000E+00
  0.00000000E+00  0.00000000E+00  0.00000000E+00
  0.00000000E+00  0.00000000E+00  0.00000000E+00
  0.00000000E+00  0.00000000E+00  0.00000000E+00
  0.00000000E+00  0.00000000E+00  0.00000000E+00
  0.00000000E+00  0.00000000E+00  0.00000000E+00
  0.00000000E+00  0.00000000E+00  0.00000000E+00
  0.00000000E+00  0.00000000E+00  0.00000000E+00
  0.00000000E+00  0.00000000E+00  0.00000000E+00
  0.00000000E+00  0.00000000E+00  0.00000000E+00
  0.00000000E+00  0.00000000E+00  0.00000000E+00
  0.00000000E+00  0.00000000E+00  0.00000000E+00
  0.00000000E+00  0.00000000E+00  0.00000000E+00
  0.00000000E+00  0.00000000E+00  0.00000000E+00
  0.00000000E+00  0.00000000E+00  0.00000000E+00
  0.00000000E+00  0.00000000E+00  0.00000000E+00
  0.00000000E+00  0.00000000E+00  0.00000000E+00
  0.00000000E+00  0.00000000E+00  0.00000000E+00
  0.00000000E+00  0.00000000E+00  0.00000000E+00
  0.00000000E+00  0.00000000E+00  0.00000000E+00
  0.00000000E+00  0.00000000E+00  0.00000000E+00
  0.00000000E+00  0.00000000E+00  0.00000000E+00
  0.00000000E+00  0.00000000E+00  0.00000000E+00
  0.00000000E+00  0.00000000E+00  0.00000000E+00
  0.00000000E+00  0.00000000E+00  0.00000000E+00
  0.00000000E+00  0.00000000E+00  0.00000000E+00
  0.00000000E+00  0.00000000E+00  0.00000000E+00
  0.00000000E+00  0.00000000E+00  0.00000000E+00
  0.00000000E+00  0.00000000E+00  0.00000000E+00
  0.00000000E+00  0.00000000E+00  0.00000000E+00
  0.00000000E+00  0.00000000E+00  0.00000000E+00
  0.00000000E+00  0.00000000E+00  0.00000000E+00
  0.00000000E+00  0.00000000E+00  0.00000000E+00
  0.00000000E+00  0.00000000E+00  0.00000000E+00
  0.00000000E+00  0.00000000E+00  0.00000000E+00
  0.00000000E+00  0.00000000E+00  0.00000000E+00
  0.00000000E+00  0.00000000E+00  0.00000000E+00
  0.00000000E+00  0.00000000E+00  0.00000000E+00
  0.00000000E+00  0.00000000E+00  0.00000000E+00
  0.00000000E+00  0.00000000E+00  0.00000000E+00
  0.00000000E+00  0.00000000E+00  0.00000000E+00
  0.00000000E+00  0.00000000E+00  0.00000000E+00
  0.00000000E+00  0.00000000E+00  0.00000000E+00
  0.00000000E+00  0.00000000E+00  0.00000000E+00
  0.00000000E+00  0.00000000E+00  0.00000000E+00
  0.00000000E+00  0.00000000E+00  0.00000000E+00
  0.00000000E+00  0.00000000E+00  0.00000000E+00
  0.00000000E+00  0.00000000E+00  0.00000000E+00
  0.00000000E+00  0.00000000E+00  0.00000000E+00
  0.00000000E+00  0.00000000E+00  0.00000000E+00
  0.00000000E+00  0.00000000E+00  0.00000000E+00
  0.00000000E+00  0.00000000E+00  0.00000000E+00
  0.00000000E+00  0.00000000E+00  0.00000000E+00
  0.00000000E+00  0.00000000E+00  0.00000000E+00
  0.00000000E+00  0.00000000E+00  0.00000000E+00
  0.00000000E+00  0.00000000E+00  0.00000000E+00
  0.00000000E+00  0.00000000E+00  0.00000000E+00
  0.00000000E+00  0.00000000E+00  0.00000000E+00
  0.00000000E+00  0.00000000E+00  0.00000000E+00
  0.00000000E+00  0.00000000E+00  0.00000000E+00
  0.00000000E+00  0.00000000E+00  0.00000000E+00
  0.00000000E+00  0.00000000E+00  0.00000000E+00
  0.00000000E+00  0.00000000E+00  0.00000000E+00
  0.00000000E+00  0.00000000E+00  0.00000000E+00
  0.00000000E+00  0.00000000E+00  0.00000000E+00
  0.00000000E+00  0.00000000E+00  0.00000000E+00
  0.00000000E+00  0.00000000E+00  0.00000000E+00
  0.00000000E+00  0.00000000E+00  0.00000000E+00
