CONTCAR\(4)                             
   1.00000000000000     
    13.4069995879999997    0.0000000000000000    0.0000000000000000
     0.0000000000000000   14.7997999190999998    0.0000000000000000
     0.0000000000000000    0.0000000000000000   22.4342994689999990
   Ta   S    O 
    24    72     1
Direct
  0.1887828903090692  0.0872791076360315  0.4403443807003971
  0.0598829395674649  0.9145211303391755  0.5594632801356192
  0.1866202402408174  0.7542664659707363  0.4238128006864818
  0.0697615563254925  0.2451621784061538  0.5704553051394251
  0.1887401307385429  0.5061844683854250  0.5802650106561225
  0.0616680442774303  0.4945277946731511  0.4172673021460727
  0.4362197954245502  0.0872796496037040  0.4403445518576152
  0.3125018020597139  0.9111717659905455  0.5566975078246869
  0.4383830371478682  0.7542663607390587  0.4238125391877196
  0.3125022477687835  0.2419475487654817  0.6593408564553361
  0.4362643390294226  0.5061854178638657  0.5802635856319989
  0.3125020634786679  0.4956966061699024  0.4180402517214095
  0.6873537369129219  0.0866921590863618  0.4379770294209289
  0.5651217449301534  0.9145215574623941  0.5594645705962997
  0.6878928449475399  0.7547364778049966  0.4248359172636976
  0.5552396317894723  0.2451622485876819  0.5704553768648774
  0.6875443899457405  0.5039058328878562  0.5806619407917946
  0.5633357315688934  0.4945278510228138  0.4172672304393433
  0.9376489999008830  0.0866917586316595  0.4379767576242709
  0.8125005978923170  0.9176217800545297  0.5609671906858648
  0.9371092291063843  0.7547368288847592  0.4248358823237747
  0.8125024071778171  0.2451379344701418  0.5701233171803243
  0.9374587340884677  0.5039059180105562  0.5806618130316490
  0.8125015833669522  0.4949672099933691  0.4170051646727622
  0.1863971863067007  0.9193980262371950  0.4754515093367685
  0.0629503560374618  0.0794369804758084  0.5215393278069237
  0.1875491974141626  0.9721869431990100  0.6319874965571565
  0.0636623994395643  0.0213014886837248  0.3670031807253907
  0.1871688033528695  0.8289093579837997  0.6201910881341959
  0.0637143420058474  0.1676428070667647  0.3755882683950191
  0.1691056137042792  0.1489079885172684  0.6394185103117176
  0.0614076333212951  0.8429830903235954  0.3676428101202888
  0.1795824294327197  0.3507929631604412  0.6296181880229573
  0.0614471604077069  0.6541070142623271  0.3715978061579773
  0.1877498062066356  0.2438297906816300  0.4893017369883336
  0.0616321594608415  0.7566765275439022  0.5086457547663489
  0.1878871298214223  0.4779798416295288  0.3349467161731567
  0.0622819536774436  0.5225537776141858  0.6637485413618317
  0.1866873233969973  0.5841429213619359  0.4758512832860866
  0.0632679517670705  0.4185736798873536  0.5210824017565644
  0.1871112751631682  0.3707329960179379  0.3986770175348731
  0.0611290211055896  0.6285186014532100  0.6022948160596792
  0.4386062263049326  0.9193982942698098  0.4754514754798832
  0.3125009024115926  0.0758386741819006  0.5235965112443048
  0.4374541898178221  0.9721868684345807  0.6319882741903392
  0.3125018243779323  0.0224218468662562  0.3672557084879889
  0.4378357268706016  0.8289086437794028  0.6201914308753487
  0.3125013370634449  0.1690214057841156  0.3767732712505132
  0.4558979213019713  0.1489090806534348  0.6394201090562428
  0.3125012035055690  0.8434553162816369  0.3679489874051248
  0.4454193936989562  0.3507932795492124  0.6296179326694803
  0.3125013443024827  0.6546688775636650  0.3713906724028935
  0.4372517330984600  0.2438300362028085  0.4893019468218637
  0.3125018719106336  0.7547182450621785  0.5076597696852015
  0.4371179435759528  0.4779791822120056  0.3349459426679004
  0.3125049229380679  0.5241600465445145  0.6639514840318373
  0.4383163412902158  0.5841435449395770  0.4758509743410677
  0.3125010954436007  0.4220687729088336  0.5203854823809153
  0.4378919415753091  0.3707333309314677  0.3986758891295715
  0.3125020714299751  0.6301473060100883  0.6021459812508727
  0.6883140654846780  0.9218922333665452  0.4758645629772802
  0.5620517796420328  0.0794373429052265  0.5215397418295958
  0.6875644043403831  0.9938268773151435  0.6282993871349601
  0.5613402564857995  0.0213023496921271  0.3670032420138654
  0.6880955331175707  0.8332551668016793  0.6211536686727905
  0.5612887669613377  0.1676422917134864  0.3755882269142802
  0.6889796703615594  0.1562803392532270  0.6283090068464814
  0.5635947604438273  0.8429824021275637  0.3676428479378032
  0.6870019493207904  0.3417658681416644  0.6243322875572440
  0.5635555061682663  0.6541058914569549  0.3715977802148897
  0.6864303876456120  0.2442761682356018  0.4877928229153166
  0.5633705686782600  0.7566776337680137  0.5086454990181085
  0.6875348426328732  0.4789846693845952  0.3335386046187116
  0.5627220821493261  0.5225537996375502  0.6637483778379315
  0.6878458512465757  0.5820359414764502  0.4768448556269157
  0.5617355295664016  0.4185726007547090  0.5210820551102545
  0.6877388868169659  0.3716165368720803  0.3945264565248645
  0.5638746948501172  0.6285180075007673  0.6022943021497903
  0.9366892164071718  0.9218917260666933  0.4758646040341945
  0.8125018949104756  0.0807724566766920  0.5203297407580167
  0.9374393910449278  0.9938223824108192  0.6282996299633167
  0.8125012122430419  0.0196256137753234  0.3664261827940120
  0.9369091062213335  0.8332565078493505  0.6211557466724296
  0.8125012331323660  0.1679560449768052  0.3746899661681690
  0.9360228761390013  0.1562811434500854  0.6283091969959100
  0.8125014932891474  0.8437384851155951  0.3677081711829205
  0.9380010462701778  0.3417668221367127  0.6243325901531444
  0.8125029555720005  0.6549065813812430  0.3718167310360442
  0.9385711613110487  0.2442765610025301  0.4877917029034645
  0.8125013384187341  0.7575366515856854  0.5093368049575147
  0.9374685065446026  0.4789848841732940  0.3335389126523813
  0.8125014015318470  0.5187617691257261  0.6639830365925885
  0.9371570968699841  0.5820361564923096  0.4768449600196981
  0.8125017142976034  0.4176536496341567  0.5205826086962906
  0.9372644488433012  0.3716169331789396  0.3945275403460750
  0.8125012753014786  0.6266610787219029  0.6036685876856132
  0.3125047568046782  0.2495858351272459  0.7364215405820231
 
  0.00000000E+00  0.00000000E+00  0.00000000E+00
  0.00000000E+00  0.00000000E+00  0.00000000E+00
  0.00000000E+00  0.00000000E+00  0.00000000E+00
  0.00000000E+00  0.00000000E+00  0.00000000E+00
  0.00000000E+00  0.00000000E+00  0.00000000E+00
  0.00000000E+00  0.00000000E+00  0.00000000E+00
  0.00000000E+00  0.00000000E+00  0.00000000E+00
  0.00000000E+00  0.00000000E+00  0.00000000E+00
  0.00000000E+00  0.00000000E+00  0.00000000E+00
  0.00000000E+00  0.00000000E+00  0.00000000E+00
  0.00000000E+00  0.00000000E+00  0.00000000E+00
  0.00000000E+00  0.00000000E+00  0.00000000E+00
  0.00000000E+00  0.00000000E+00  0.00000000E+00
  0.00000000E+00  0.00000000E+00  0.00000000E+00
  0.00000000E+00  0.00000000E+00  0.00000000E+00
  0.00000000E+00  0.00000000E+00  0.00000000E+00
  0.00000000E+00  0.00000000E+00  0.00000000E+00
  0.00000000E+00  0.00000000E+00  0.00000000E+00
  0.00000000E+00  0.00000000E+00  0.00000000E+00
  0.00000000E+00  0.00000000E+00  0.00000000E+00
  0.00000000E+00  0.00000000E+00  0.00000000E+00
  0.00000000E+00  0.00000000E+00  0.00000000E+00
  0.00000000E+00  0.00000000E+00  0.00000000E+00
  0.00000000E+00  0.00000000E+00  0.00000000E+00
  0.00000000E+00  0.00000000E+00  0.00000000E+00
  0.00000000E+00  0.00000000E+00  0.00000000E+00
  0.00000000E+00  0.00000000E+00  0.00000000E+00
  0.00000000E+00  0.00000000E+00  0.00000000E+00
  0.00000000E+00  0.00000000E+00  0.00000000E+00
  0.00000000E+00  0.00000000E+00  0.00000000E+00
  0.00000000E+00  0.00000000E+00  0.00000000E+00
  0.00000000E+00  0.00000000E+00  0.00000000E+00
  0.00000000E+00  0.00000000E+00  0.00000000E+00
  0.00000000E+00  0.00000000E+00  0.00000000E+00
  0.00000000E+00  0.00000000E+00  0.00000000E+00
  0.00000000E+00  0.00000000E+00  0.00000000E+00
  0.00000000E+00  0.00000000E+00  0.00000000E+00
  0.00000000E+00  0.00000000E+00  0.00000000E+00
  0.00000000E+00  0.00000000E+00  0.00000000E+00
  0.00000000E+00  0.00000000E+00  0.00000000E+00
  0.00000000E+00  0.00000000E+00  0.00000000E+00
  0.00000000E+00  0.00000000E+00  0.00000000E+00
  0.00000000E+00  0.00000000E+00  0.00000000E+00
  0.00000000E+00  0.00000000E+00  0.00000000E+00
  0.00000000E+00  0.00000000E+00  0.00000000E+00
  0.00000000E+00  0.00000000E+00  0.00000000E+00
  0.00000000E+00  0.00000000E+00  0.00000000E+00
  0.00000000E+00  0.00000000E+00  0.00000000E+00
  0.00000000E+00  0.00000000E+00  0.00000000E+00
  0.00000000E+00  0.00000000E+00  0.00000000E+00
  0.00000000E+00  0.00000000E+00  0.00000000E+00
  0.00000000E+00  0.00000000E+00  0.00000000E+00
  0.00000000E+00  0.00000000E+00  0.00000000E+00
  0.00000000E+00  0.00000000E+00  0.00000000E+00
  0.00000000E+00  0.00000000E+00  0.00000000E+00
  0.00000000E+00  0.00000000E+00  0.00000000E+00
  0.00000000E+00  0.00000000E+00  0.00000000E+00
  0.00000000E+00  0.00000000E+00  0.00000000E+00
  0.00000000E+00  0.00000000E+00  0.00000000E+00
  0.00000000E+00  0.00000000E+00  0.00000000E+00
  0.00000000E+00  0.00000000E+00  0.00000000E+00
  0.00000000E+00  0.00000000E+00  0.00000000E+00
  0.00000000E+00  0.00000000E+00  0.00000000E+00
  0.00000000E+00  0.00000000E+00  0.00000000E+00
  0.00000000E+00  0.00000000E+00  0.00000000E+00
  0.00000000E+00  0.00000000E+00  0.00000000E+00
  0.00000000E+00  0.00000000E+00  0.00000000E+00
  0.00000000E+00  0.00000000E+00  0.00000000E+00
  0.00000000E+00  0.00000000E+00  0.00000000E+00
  0.00000000E+00  0.00000000E+00  0.00000000E+00
  0.00000000E+00  0.00000000E+00  0.00000000E+00
  0.00000000E+00  0.00000000E+00  0.00000000E+00
  0.00000000E+00  0.00000000E+00  0.00000000E+00
  0.00000000E+00  0.00000000E+00  0.00000000E+00
  0.00000000E+00  0.00000000E+00  0.00000000E+00
  0.00000000E+00  0.00000000E+00  0.00000000E+00
  0.00000000E+00  0.00000000E+00  0.00000000E+00
  0.00000000E+00  0.00000000E+00  0.00000000E+00
  0.00000000E+00  0.00000000E+00  0.00000000E+00
  0.00000000E+00  0.00000000E+00  0.00000000E+00
  0.00000000E+00  0.00000000E+00  0.00000000E+00
  0.00000000E+00  0.00000000E+00  0.00000000E+00
  0.00000000E+00  0.00000000E+00  0.00000000E+00
  0.00000000E+00  0.00000000E+00  0.00000000E+00
  0.00000000E+00  0.00000000E+00  0.00000000E+00
  0.00000000E+00  0.00000000E+00  0.00000000E+00
  0.00000000E+00  0.00000000E+00  0.00000000E+00
  0.00000000E+00  0.00000000E+00  0.00000000E+00
  0.00000000E+00  0.00000000E+00  0.00000000E+00
  0.00000000E+00  0.00000000E+00  0.00000000E+00
  0.00000000E+00  0.00000000E+00  0.00000000E+00
  0.00000000E+00  0.00000000E+00  0.00000000E+00
  0.00000000E+00  0.00000000E+00  0.00000000E+00
  0.00000000E+00  0.00000000E+00  0.00000000E+00
  0.00000000E+00  0.00000000E+00  0.00000000E+00
  0.00000000E+00  0.00000000E+00  0.00000000E+00
  0.00000000E+00  0.00000000E+00  0.00000000E+00
