CONTCAR\(5)                             
   1.00000000000000     
    13.4693002700999998    0.0000000000000000    0.0000000000000000
     0.0000000000000000   11.7332000732000008    0.0000000000000000
     0.0000000000000000    0.0000000000000000   18.0195999146000005
   Ti   Nb   S 
     8     8    32
Direct
  0.1250000000000000  0.2500000000000000  0.5000000000000000
  0.3750000089999972  0.2500000000000000  0.5000000000000000
  0.6250000269999987  0.2500000000000000  0.5000000000000000
  0.8750000089999972  0.2500000000000000  0.5000000000000000
  0.1250000000000000  0.7500000000000000  0.5000000000000000
  0.3750000089999972  0.7500000000000000  0.5000000000000000
  0.6250000269999987  0.7500000000000000  0.5000000000000000
  0.8750000089999972  0.7500000000000000  0.5000000000000000
  0.0000000000000000 -0.0000000000000000  0.5000000000000000
  0.2500000000000000 -0.0000000000000000  0.5000000000000000
  0.5000000000000000 -0.0000000000000000  0.5000000000000000
  0.7500000180000015 -0.0000000000000000  0.5000000000000000
 -0.0000000000000000  0.5000000000000000  0.5000000000000000
  0.2500000000000000  0.5000000000000000  0.5000000000000000
  0.5000000000000000  0.5000000000000000  0.5000000000000000
  0.7500000180000015  0.5000000000000000  0.5000000000000000
  0.1250000000000000  0.0861825677977803  0.4163433864701145
 -0.0000000000000000  0.1682517310598884  0.5816658882816926
  0.0000000000000000  0.3317482589401108  0.4183441147183072
  0.1250000000000000  0.4138174322022197  0.5836566135298855
  0.3750000089999972  0.0861825677977803  0.4163433864701145
  0.2500000000000000  0.1682517310598884  0.5816658882816926
  0.2500000000000000  0.3317482589401108  0.4183441147183072
  0.3750000089999972  0.4138174322022197  0.5836566135298855
  0.6250000269999987  0.0861825677977803  0.4163433864701145
  0.5000000000000000  0.1682517310598884  0.5816658882816926
  0.5000000000000000  0.3317482589401108  0.4183441147183072
  0.6250000269999987  0.4138174322022197  0.5836566135298855
  0.8750000089999972  0.0861825677977803  0.4163433864701145
  0.7500000180000015  0.1682517310598884  0.5816658882816926
  0.7500000180000015  0.3317482589401108  0.4183441147183072
  0.8750000089999972  0.4138174322022197  0.5836566135298855
  0.1250000000000000  0.5861825677977803  0.4163433864701145
  0.0000000000000000  0.6682517210598875  0.5816658882816926
 -0.0000000000000000  0.8317483199401123  0.4183441147183072
  0.1250000000000000  0.9138174732022195  0.5836566135298855
  0.3750000089999972  0.5861825677977803  0.4163433864701145
  0.2500000000000000  0.6682517210598875  0.5816658882816926
  0.2500000000000000  0.8317483199401123  0.4183441147183072
  0.3750000089999972  0.9138174732022195  0.5836566135298855
  0.6250000269999987  0.5861825677977803  0.4163433864701145
  0.5000000000000000  0.6682517210598875  0.5816658882816926
  0.5000000000000000  0.8317483199401123  0.4183441147183072
  0.6250000269999987  0.9138174732022195  0.5836566135298855
  0.8750000089999972  0.5861825677977803  0.4163433864701145
  0.7500000180000015  0.6682517210598875  0.5816658882816926
  0.7500000180000015  0.8317483199401123  0.4183441147183072
  0.8750000089999972  0.9138174732022195  0.5836566135298855
 
  0.00000000E+00  0.00000000E+00  0.00000000E+00
  0.00000000E+00  0.00000000E+00  0.00000000E+00
  0.00000000E+00  0.00000000E+00  0.00000000E+00
  0.00000000E+00  0.00000000E+00  0.00000000E+00
  0.00000000E+00  0.00000000E+00  0.00000000E+00
  0.00000000E+00  0.00000000E+00  0.00000000E+00
  0.00000000E+00  0.00000000E+00  0.00000000E+00
  0.00000000E+00  0.00000000E+00  0.00000000E+00
  0.00000000E+00  0.00000000E+00  0.00000000E+00
  0.00000000E+00  0.00000000E+00  0.00000000E+00
  0.00000000E+00  0.00000000E+00  0.00000000E+00
  0.00000000E+00  0.00000000E+00  0.00000000E+00
  0.00000000E+00  0.00000000E+00  0.00000000E+00
  0.00000000E+00  0.00000000E+00  0.00000000E+00
  0.00000000E+00  0.00000000E+00  0.00000000E+00
  0.00000000E+00  0.00000000E+00  0.00000000E+00
  0.00000000E+00  0.00000000E+00  0.00000000E+00
  0.00000000E+00  0.00000000E+00  0.00000000E+00
  0.00000000E+00  0.00000000E+00  0.00000000E+00
  0.00000000E+00  0.00000000E+00  0.00000000E+00
  0.00000000E+00  0.00000000E+00  0.00000000E+00
  0.00000000E+00  0.00000000E+00  0.00000000E+00
  0.00000000E+00  0.00000000E+00  0.00000000E+00
  0.00000000E+00  0.00000000E+00  0.00000000E+00
  0.00000000E+00  0.00000000E+00  0.00000000E+00
  0.00000000E+00  0.00000000E+00  0.00000000E+00
  0.00000000E+00  0.00000000E+00  0.00000000E+00
  0.00000000E+00  0.00000000E+00  0.00000000E+00
  0.00000000E+00  0.00000000E+00  0.00000000E+00
  0.00000000E+00  0.00000000E+00  0.00000000E+00
  0.00000000E+00  0.00000000E+00  0.00000000E+00
  0.00000000E+00  0.00000000E+00  0.00000000E+00
  0.00000000E+00  0.00000000E+00  0.00000000E+00
  0.00000000E+00  0.00000000E+00  0.00000000E+00
  0.00000000E+00  0.00000000E+00  0.00000000E+00
  0.00000000E+00  0.00000000E+00  0.00000000E+00
  0.00000000E+00  0.00000000E+00  0.00000000E+00
  0.00000000E+00  0.00000000E+00  0.00000000E+00
  0.00000000E+00  0.00000000E+00  0.00000000E+00
  0.00000000E+00  0.00000000E+00  0.00000000E+00
  0.00000000E+00  0.00000000E+00  0.00000000E+00
  0.00000000E+00  0.00000000E+00  0.00000000E+00
  0.00000000E+00  0.00000000E+00  0.00000000E+00
  0.00000000E+00  0.00000000E+00  0.00000000E+00
  0.00000000E+00  0.00000000E+00  0.00000000E+00
  0.00000000E+00  0.00000000E+00  0.00000000E+00
  0.00000000E+00  0.00000000E+00  0.00000000E+00
  0.00000000E+00  0.00000000E+00  0.00000000E+00
