CONTCAR\(12)                            
   1.00000000000000     
    11.6387996674000007    0.0000000000000000    0.0000000000000000
     5.8194217944000002   10.1357943405000004    0.0000000000000000
     0.0000000000000000    0.0000000000000000   18.1699008942000013
   Li   Ni   P    S 
     4     4     8    24
Direct
  0.3332200239999992  0.3335500080000031  0.5000000000000000
  0.8332199419999995  0.3335500080000031  0.5000000000000000
  0.3332200270000030  0.8335500000000025  0.5000000000000000
  0.8332200270000030  0.8335500000000025  0.5000000000000000
  0.1673299919999991  0.1653400060000010  0.5000000000000000
  0.6673300539999971  0.1653400060000010  0.5000000000000000
  0.1673299630000002  0.6653400209999987  0.5000000000000000
  0.6673300449999999  0.6653400209999987  0.5000000000000000
  0.4993499690000007  0.4994600340000019  0.5599999829999973
  0.0011999930000002  0.4994600340000019  0.4399999910000005
  0.9993499690000007  0.4994600340000019  0.5599999829999973
  0.5011999930000002  0.4994600340000019  0.4399999910000005
  0.4993500429999997  0.9994600480000031  0.5599999829999973
  0.0011999849999995  0.9994600480000031  0.4399999910000005
  0.9993499610000001  0.9994600480000031  0.5599999829999973
  0.5011999849999995  0.9994600480000031  0.4399999910000005
  0.0137100009999997  0.3236100149999999  0.5872200020000022
  0.3214100080000009  0.1623499989999999  0.5854200300000016
  0.0162499919999988  0.1623499989999999  0.4145799960000005
  0.1626800129999992  0.3236100149999999  0.4127799979999978
  0.3238900030000025  0.0151400000000024  0.4125199799999990
  0.1609700010000026  0.0151400000000024  0.5874800200000010
  0.5137100219999979  0.3236100149999999  0.5872200020000022
  0.8214100080000009  0.1623499989999999  0.5854200300000016
  0.5162500329999986  0.1623499989999999  0.4145799960000005
  0.6626799719999994  0.3236100149999999  0.4127799979999978
  0.8238899830000008  0.0151400000000024  0.4125199799999990
  0.6609700010000026  0.0151400000000024  0.5874800200000010
  0.0137099490000026  0.8236100769999979  0.5872200020000022
  0.3214099879999992  0.6623500370000031  0.5854200300000016
  0.0162499710000006  0.6623500370000031  0.4145799960000005
  0.1626799399999967  0.8236100769999979  0.4127799979999978
  0.3238899839999974  0.5151399960000020  0.4125199799999990
  0.1609700019999991  0.5151399960000020  0.5874800200000010
  0.5137099900000024  0.8236100769999979  0.5872200020000022
  0.8214099879999992  0.6623500370000031  0.5854200300000016
  0.5162500120000004  0.6623500370000031  0.4145799960000005
  0.6626799399999967  0.8236100769999979  0.4127799979999978
  0.8238899839999974  0.5151399960000020  0.4125199799999990
  0.6609699609999993  0.5151399960000020  0.5874800200000010
 
  0.00000000E+00  0.00000000E+00  0.00000000E+00
  0.00000000E+00  0.00000000E+00  0.00000000E+00
  0.00000000E+00  0.00000000E+00  0.00000000E+00
  0.00000000E+00  0.00000000E+00  0.00000000E+00
  0.00000000E+00  0.00000000E+00  0.00000000E+00
  0.00000000E+00  0.00000000E+00  0.00000000E+00
  0.00000000E+00  0.00000000E+00  0.00000000E+00
  0.00000000E+00  0.00000000E+00  0.00000000E+00
  0.00000000E+00  0.00000000E+00  0.00000000E+00
  0.00000000E+00  0.00000000E+00  0.00000000E+00
  0.00000000E+00  0.00000000E+00  0.00000000E+00
  0.00000000E+00  0.00000000E+00  0.00000000E+00
  0.00000000E+00  0.00000000E+00  0.00000000E+00
  0.00000000E+00  0.00000000E+00  0.00000000E+00
  0.00000000E+00  0.00000000E+00  0.00000000E+00
  0.00000000E+00  0.00000000E+00  0.00000000E+00
  0.00000000E+00  0.00000000E+00  0.00000000E+00
  0.00000000E+00  0.00000000E+00  0.00000000E+00
  0.00000000E+00  0.00000000E+00  0.00000000E+00
  0.00000000E+00  0.00000000E+00  0.00000000E+00
  0.00000000E+00  0.00000000E+00  0.00000000E+00
  0.00000000E+00  0.00000000E+00  0.00000000E+00
  0.00000000E+00  0.00000000E+00  0.00000000E+00
  0.00000000E+00  0.00000000E+00  0.00000000E+00
  0.00000000E+00  0.00000000E+00  0.00000000E+00
  0.00000000E+00  0.00000000E+00  0.00000000E+00
  0.00000000E+00  0.00000000E+00  0.00000000E+00
  0.00000000E+00  0.00000000E+00  0.00000000E+00
  0.00000000E+00  0.00000000E+00  0.00000000E+00
  0.00000000E+00  0.00000000E+00  0.00000000E+00
  0.00000000E+00  0.00000000E+00  0.00000000E+00
  0.00000000E+00  0.00000000E+00  0.00000000E+00
  0.00000000E+00  0.00000000E+00  0.00000000E+00
  0.00000000E+00  0.00000000E+00  0.00000000E+00
  0.00000000E+00  0.00000000E+00  0.00000000E+00
  0.00000000E+00  0.00000000E+00  0.00000000E+00
  0.00000000E+00  0.00000000E+00  0.00000000E+00
  0.00000000E+00  0.00000000E+00  0.00000000E+00
  0.00000000E+00  0.00000000E+00  0.00000000E+00
  0.00000000E+00  0.00000000E+00  0.00000000E+00
