CONTCAR                                 
   1.00000000000000     
    11.1612997054999994    0.0000000000000000    0.0000000000000000
     0.0000000000000000   15.5193004608000003    0.0000000000000000
     0.0000000000000000    0.0000000000000000   19.4729003905999996
   Nb   Te   Pd   O    H 
     6    30     6     1     1
Direct
  0.1675176016544116  0.8427912957340802  0.4987198231631155
  0.1656006754345339  0.3432745477141530  0.5022367450353888
  0.4991970647048531  0.8427032281813989  0.4990075094767656
  0.5013945694051812  0.3433083739391993  0.5018592955928088
  0.8330739032933753  0.8439461337221824  0.5125142086031564
  0.8334679426379751  0.3440326009825222  0.4998211686559680
  0.0108435918008319  0.9541347820485838  0.5740033657347273
  0.0000156526146052  0.4466363972155850  0.4250038346369784
  0.1682089849915089  0.0065019464240821  0.4251868905964850
  0.1687139308831541  0.5069233456164107  0.5761369940598992
  0.9982601342067033  0.3425836586738861  0.6136507444572254
  0.9932244755114020  0.8425595518821869  0.3915779581131930
  0.0106112372236541  0.7351999900974565  0.5768998387369937
  0.9998288268460045  0.2437636582697921  0.4224778584345404
  0.1683210184107853  0.6782122843235802  0.4253870794844631
  0.1678689371345425  0.1785677596822747  0.5745798606645410
  0.3331558899106855  0.9429790797572077  0.5759590471056268
  0.3332887336303555  0.4423790098014400  0.4248115440669833
  0.4984591115405360  0.0064959655180249  0.4256690077384512
  0.4974587600177347  0.5067939775631225  0.5756223943857662
  0.3337133180779419  0.3422405691542392  0.6139297254005117
  0.3334606020511320  0.8411624388354239  0.3865260523586634
  0.3331000450041778  0.7429513191254710  0.5761829723401732
  0.3334378235711264  0.2437893064650811  0.4249118529234512
  0.4980639815099422  0.6783221005343636  0.4256438898194829
  0.4989045474685381  0.1787263191994847  0.5740907949269431
  0.6558242250708081  0.9544934846897551  0.5740006767170307
  0.6671829723228644  0.4466575388539247  0.4245419927273771
  0.8335486845568796  0.0040197634988694  0.4291696564993906
  0.8335418853340405  0.5064646149086357  0.5749113992356178
  0.6686820696113861  0.3422502558183224  0.6133525788591341
  0.6732029916518169  0.8424762600745771  0.3915157634944973
  0.6558716459049875  0.7344035563851616  0.5767465576744552
  0.6673213204320939  0.2438505834211250  0.4221696806519714
  0.8335108487376874  0.6823127187355132  0.4321917704014190
  0.8336290101766864  0.1798389792537678  0.5718736603077195
  0.0029618851279185  0.5920212287175669  0.5008748558347282
  0.0029890864832593  0.0959567169097193  0.4969417486370937
  0.3329868983786591  0.5925950964531389  0.5005054030106519
  0.3331792468695260  0.0929265679113933  0.4998412623905827
  0.6638092539696940  0.5917406529609092  0.5005804123371206
  0.6640564609844307  0.0961550861642078  0.4967768622469135
  0.8320658613961061  0.8602688981067411  0.6262689845609323
  0.8319943694554676  0.8061684136754262  0.6527166269010478
 
  0.00000000E+00  0.00000000E+00  0.00000000E+00
  0.00000000E+00  0.00000000E+00  0.00000000E+00
  0.00000000E+00  0.00000000E+00  0.00000000E+00
  0.00000000E+00  0.00000000E+00  0.00000000E+00
  0.00000000E+00  0.00000000E+00  0.00000000E+00
  0.00000000E+00  0.00000000E+00  0.00000000E+00
  0.00000000E+00  0.00000000E+00  0.00000000E+00
  0.00000000E+00  0.00000000E+00  0.00000000E+00
  0.00000000E+00  0.00000000E+00  0.00000000E+00
  0.00000000E+00  0.00000000E+00  0.00000000E+00
  0.00000000E+00  0.00000000E+00  0.00000000E+00
  0.00000000E+00  0.00000000E+00  0.00000000E+00
  0.00000000E+00  0.00000000E+00  0.00000000E+00
  0.00000000E+00  0.00000000E+00  0.00000000E+00
  0.00000000E+00  0.00000000E+00  0.00000000E+00
  0.00000000E+00  0.00000000E+00  0.00000000E+00
  0.00000000E+00  0.00000000E+00  0.00000000E+00
  0.00000000E+00  0.00000000E+00  0.00000000E+00
  0.00000000E+00  0.00000000E+00  0.00000000E+00
  0.00000000E+00  0.00000000E+00  0.00000000E+00
  0.00000000E+00  0.00000000E+00  0.00000000E+00
  0.00000000E+00  0.00000000E+00  0.00000000E+00
  0.00000000E+00  0.00000000E+00  0.00000000E+00
  0.00000000E+00  0.00000000E+00  0.00000000E+00
  0.00000000E+00  0.00000000E+00  0.00000000E+00
  0.00000000E+00  0.00000000E+00  0.00000000E+00
  0.00000000E+00  0.00000000E+00  0.00000000E+00
  0.00000000E+00  0.00000000E+00  0.00000000E+00
  0.00000000E+00  0.00000000E+00  0.00000000E+00
  0.00000000E+00  0.00000000E+00  0.00000000E+00
  0.00000000E+00  0.00000000E+00  0.00000000E+00
  0.00000000E+00  0.00000000E+00  0.00000000E+00
  0.00000000E+00  0.00000000E+00  0.00000000E+00
  0.00000000E+00  0.00000000E+00  0.00000000E+00
  0.00000000E+00  0.00000000E+00  0.00000000E+00
  0.00000000E+00  0.00000000E+00  0.00000000E+00
  0.00000000E+00  0.00000000E+00  0.00000000E+00
  0.00000000E+00  0.00000000E+00  0.00000000E+00
  0.00000000E+00  0.00000000E+00  0.00000000E+00
  0.00000000E+00  0.00000000E+00  0.00000000E+00
  0.00000000E+00  0.00000000E+00  0.00000000E+00
  0.00000000E+00  0.00000000E+00  0.00000000E+00
  0.00000000E+00  0.00000000E+00  0.00000000E+00
  0.00000000E+00  0.00000000E+00  0.00000000E+00
