CONTCAR\(3)                             
   1.00000000000000     
    12.9047002792000001    0.0000000000000000    0.0000000000000000
     0.0000000000000000   17.0116996765000010    0.0000000000000000
     0.0000000000000000    0.0000000000000000   20.7707004546999983
   Pr   I    O 
    12    30     1
Direct
  0.2512521040581353  0.1429867221365942  0.5196761492853688
  0.0839355162906681  0.8640572786877828  0.4802832648108177
  0.2374241873174414  0.6298516750092038  0.5270102115868184
  0.0826941275625085  0.3613159506365076  0.4649042799255965
  0.5826381346538014  0.1433731568165444  0.5198438512557518
  0.4161021151392549  0.8749996276403953  0.5406407562744261
  0.5978275445444067  0.6308890884263502  0.5273998349145597
  0.4177195906465109  0.3686499082358394  0.4635385113577242
  0.9164747344694023  0.1374262470735231  0.5166490173795367
  0.7482352896446874  0.8629319111799724  0.4816089233112343
  0.9154375186699872  0.6317131328923196  0.5273504034063728
  0.7513563552749196  0.3614125598758540  0.4647594376530562
  0.2494195679995721  0.3802270383030671  0.3545335741292487
  0.0763507223937419  0.6065769603484944  0.6396616269508621
  0.2579759968944526  0.9835234014182972  0.4308259404274652
  0.0822045409964592  0.0193499611595186  0.5835626212228425
  0.0781399025081763  0.5561616152167612  0.4269307703829079
  0.2482163761404206  0.4413614547308338  0.5614126703520247
  0.0813254954215406  0.2470816394038814  0.5936591477517966
  0.2477550707961445  0.7550383908405865  0.4102849832701245
  0.0844094989074303  0.1834074784251092  0.4085164057813320
  0.2070369660210224  0.7987113828221810  0.5959664402854936
  0.5851831012243516  0.3791964215952102  0.3539659361618976
  0.4166539769022101  0.6307528127782653  0.6294038368838730
  0.5755934264004695  0.9838976015634440  0.4315863442909767
  0.4169596930112536  0.0481711934792993  0.6014112900372774
  0.4175062838411479  0.5624866384579136  0.4310903387471660
  0.5863873814194157  0.4419696039164362  0.5615474334234680
  0.4171187474148452  0.2611584315169148  0.5901212042370337
  0.5830255189475720  0.7555764440415648  0.4114712232869965
  0.4170261655029451  0.1875470563942854  0.4100423307239374
  0.6246079886802252  0.7992609032024814  0.5979625656152971
  0.9172682730229932  0.3740810233040111  0.3536847521145916
  0.7575536710137055  0.6066260257424110  0.6404835273554647
  0.9156522553529574  0.9841651425251430  0.4169267600046542
  0.7512970037333075  0.0196121770222737  0.5842326361352589
  0.7549840470934885  0.5557399617579964  0.4265710969509860
  0.9170986132694758  0.4374228393661305  0.5606094147276053
  0.7526806687278279  0.2475598584459702  0.5937948159994582
  0.9159241066975257  0.7561108855673256  0.4034649411091569
  0.7495924102699384  0.1838329412238960  0.4085055394670481
  0.9168140919807546  0.8126867112601102  0.5866044664612728
  0.4139912291429048  0.8726389425593072  0.6353608895511832
 
  0.00000000E+00  0.00000000E+00  0.00000000E+00
  0.00000000E+00  0.00000000E+00  0.00000000E+00
  0.00000000E+00  0.00000000E+00  0.00000000E+00
  0.00000000E+00  0.00000000E+00  0.00000000E+00
  0.00000000E+00  0.00000000E+00  0.00000000E+00
  0.00000000E+00  0.00000000E+00  0.00000000E+00
  0.00000000E+00  0.00000000E+00  0.00000000E+00
  0.00000000E+00  0.00000000E+00  0.00000000E+00
  0.00000000E+00  0.00000000E+00  0.00000000E+00
  0.00000000E+00  0.00000000E+00  0.00000000E+00
  0.00000000E+00  0.00000000E+00  0.00000000E+00
  0.00000000E+00  0.00000000E+00  0.00000000E+00
  0.00000000E+00  0.00000000E+00  0.00000000E+00
  0.00000000E+00  0.00000000E+00  0.00000000E+00
  0.00000000E+00  0.00000000E+00  0.00000000E+00
  0.00000000E+00  0.00000000E+00  0.00000000E+00
  0.00000000E+00  0.00000000E+00  0.00000000E+00
  0.00000000E+00  0.00000000E+00  0.00000000E+00
  0.00000000E+00  0.00000000E+00  0.00000000E+00
  0.00000000E+00  0.00000000E+00  0.00000000E+00
  0.00000000E+00  0.00000000E+00  0.00000000E+00
  0.00000000E+00  0.00000000E+00  0.00000000E+00
  0.00000000E+00  0.00000000E+00  0.00000000E+00
  0.00000000E+00  0.00000000E+00  0.00000000E+00
  0.00000000E+00  0.00000000E+00  0.00000000E+00
  0.00000000E+00  0.00000000E+00  0.00000000E+00
  0.00000000E+00  0.00000000E+00  0.00000000E+00
  0.00000000E+00  0.00000000E+00  0.00000000E+00
  0.00000000E+00  0.00000000E+00  0.00000000E+00
  0.00000000E+00  0.00000000E+00  0.00000000E+00
  0.00000000E+00  0.00000000E+00  0.00000000E+00
  0.00000000E+00  0.00000000E+00  0.00000000E+00
  0.00000000E+00  0.00000000E+00  0.00000000E+00
  0.00000000E+00  0.00000000E+00  0.00000000E+00
  0.00000000E+00  0.00000000E+00  0.00000000E+00
  0.00000000E+00  0.00000000E+00  0.00000000E+00
  0.00000000E+00  0.00000000E+00  0.00000000E+00
  0.00000000E+00  0.00000000E+00  0.00000000E+00
  0.00000000E+00  0.00000000E+00  0.00000000E+00
  0.00000000E+00  0.00000000E+00  0.00000000E+00
  0.00000000E+00  0.00000000E+00  0.00000000E+00
  0.00000000E+00  0.00000000E+00  0.00000000E+00
  0.00000000E+00  0.00000000E+00  0.00000000E+00
