This file is generated by VASPKIT code  
   1.00000000000000     
    12.8979005813999983    0.0000000000000000    0.0000000000000000
    -6.4489502906999991   11.1699095588999988    0.0000000000000000
     0.0000000000000000    0.0000000000000000   22.5037994384999998
   La   P    I    O 
    18     9    18    18
Direct
  0.1361084694513309  0.2347225607256618  0.5729056972037111
  0.1361084694513309  0.5680558940589977  0.5729056972037111
  0.1361084694513309  0.9013892273923334  0.5729056972037111
  0.4694418027846666  0.2347225607256618  0.5729056972037111
  0.4694418027846666  0.5680558940589977  0.5729056972037111
  0.4694418027846666  0.9013892273923334  0.5729056972037111
  0.8027751361180021  0.2347225607256618  0.5729056972037111
  0.8027751361180021  0.5680558940589977  0.5729056972037111
  0.8027751361180021  0.9013892273923334  0.5729056972037111
  0.2480620836868952  0.1240293751767851  0.4219675188899639
  0.2480620836868952  0.4573627085101138  0.4219675188899639
  0.2480620836868952  0.7906960418434493  0.4219675188899639
  0.5813954170202311  0.1240293751767851  0.4219675188899639
  0.5813954170202311  0.4573627085101138  0.4219675188899639
  0.5813954170202311  0.7906960418434493  0.4219675188899639
  0.9147287503535668  0.1240293751767851  0.4219675188899639
  0.9147287503535668  0.4573627085101138  0.4219675188899639
  0.9147287503535668  0.7906960418434493  0.4219675188899639
  0.0242561161484909  0.0121280580742490  0.4979911363813190
  0.0242561161484909  0.3454613914075776  0.4979911363813190
  0.0242561161484909  0.6787947247409133  0.4979911363813190
  0.3575894494818266  0.0121280580742490  0.4979911363813190
  0.3575894494818266  0.3454613914075776  0.4979911363813190
  0.3575894494818266  0.6787947247409133  0.4979911363813190
  0.6909227828151623  0.0121280580742490  0.4979911363813190
  0.6909227828151623  0.3454613914075776  0.4979911363813190
  0.6909227828151623  0.6787947247409133  0.4979911363813190
  0.2461923882610222  0.1230945274638415  0.6706003112450087
  0.2461923882610222  0.4564278607971772  0.6706003112450087
  0.2461923882610222  0.7897611941305129  0.6706003112450087
  0.5795257215943507  0.1230945274638415  0.6706003112450087
  0.5795257215943507  0.4564278607971772  0.6706003112450087
  0.5795257215943507  0.7897611941305129  0.6706003112450087
  0.9128590549276864  0.1230945274638415  0.6706003112450087
  0.9128590549276864  0.4564278607971772  0.6706003112450087
  0.9128590549276864  0.7897611941305129  0.6706003112450087
  0.1292790005669046  0.2313078262834486  0.3229157604988807
  0.1292790005669046  0.5646411596167844  0.3229157604988807
  0.1292790005669046  0.8979744929501201  0.3229157604988807
  0.4626123339002331  0.2313078262834486  0.3229157604988807
  0.4626123339002331  0.5646411596167844  0.3229157604988807
  0.4626123339002331  0.8979744929501201  0.3229157604988807
  0.7959456672335690  0.2313078262834486  0.3229157604988807
  0.7959456672335690  0.5646411596167844  0.3229157604988807
  0.7959456672335690  0.8979744929501201  0.3229157604988807
  0.0927881863087813  0.2130590786543895  0.6708383026705507
  0.0927881863087813  0.5463924119877251  0.6708383026705507
  0.0927881863087813  0.8797257453210537  0.6708383026705507
  0.4261215196421099  0.2130590786543895  0.6708383026705507
  0.4261215196421099  0.5463924119877251  0.6708383026705507
  0.4261215196421099  0.8797257453210537  0.6708383026705507
  0.7594548529754456  0.2130590786543895  0.6708383026705507
  0.7594548529754456  0.5463924119877251  0.6708383026705507
  0.7594548529754456  0.8797257453210537  0.6708383026705507
  0.1191804272432434  0.0595918636216232  0.3427812941105641
  0.1191804272432434  0.3929251969549590  0.3427812941105641
  0.1191804272432434  0.7262585302882875  0.3427812941105641
  0.4525137605765790  0.0595918636216232  0.3427812941105641
  0.4525137605765790  0.3929251969549590  0.3427812941105641
  0.4525137605765790  0.7262585302882875  0.3427812941105641
  0.7858470939099149  0.0595918636216232  0.3427812941105641
  0.7858470939099149  0.3929251969549590  0.3427812941105641
  0.7858470939099149  0.7262585302882875  0.3427812941105641
 
  0.00000000E+00  0.00000000E+00  0.00000000E+00
  0.00000000E+00  0.00000000E+00  0.00000000E+00
  0.00000000E+00  0.00000000E+00  0.00000000E+00
  0.00000000E+00  0.00000000E+00  0.00000000E+00
  0.00000000E+00  0.00000000E+00  0.00000000E+00
  0.00000000E+00  0.00000000E+00  0.00000000E+00
  0.00000000E+00  0.00000000E+00  0.00000000E+00
  0.00000000E+00  0.00000000E+00  0.00000000E+00
  0.00000000E+00  0.00000000E+00  0.00000000E+00
  0.00000000E+00  0.00000000E+00  0.00000000E+00
  0.00000000E+00  0.00000000E+00  0.00000000E+00
  0.00000000E+00  0.00000000E+00  0.00000000E+00
  0.00000000E+00  0.00000000E+00  0.00000000E+00
  0.00000000E+00  0.00000000E+00  0.00000000E+00
  0.00000000E+00  0.00000000E+00  0.00000000E+00
  0.00000000E+00  0.00000000E+00  0.00000000E+00
  0.00000000E+00  0.00000000E+00  0.00000000E+00
  0.00000000E+00  0.00000000E+00  0.00000000E+00
  0.00000000E+00  0.00000000E+00  0.00000000E+00
  0.00000000E+00  0.00000000E+00  0.00000000E+00
  0.00000000E+00  0.00000000E+00  0.00000000E+00
  0.00000000E+00  0.00000000E+00  0.00000000E+00
  0.00000000E+00  0.00000000E+00  0.00000000E+00
  0.00000000E+00  0.00000000E+00  0.00000000E+00
  0.00000000E+00  0.00000000E+00  0.00000000E+00
  0.00000000E+00  0.00000000E+00  0.00000000E+00
  0.00000000E+00  0.00000000E+00  0.00000000E+00
  0.00000000E+00  0.00000000E+00  0.00000000E+00
  0.00000000E+00  0.00000000E+00  0.00000000E+00
  0.00000000E+00  0.00000000E+00  0.00000000E+00
  0.00000000E+00  0.00000000E+00  0.00000000E+00
  0.00000000E+00  0.00000000E+00  0.00000000E+00
  0.00000000E+00  0.00000000E+00  0.00000000E+00
  0.00000000E+00  0.00000000E+00  0.00000000E+00
  0.00000000E+00  0.00000000E+00  0.00000000E+00
  0.00000000E+00  0.00000000E+00  0.00000000E+00
  0.00000000E+00  0.00000000E+00  0.00000000E+00
  0.00000000E+00  0.00000000E+00  0.00000000E+00
  0.00000000E+00  0.00000000E+00  0.00000000E+00
  0.00000000E+00  0.00000000E+00  0.00000000E+00
  0.00000000E+00  0.00000000E+00  0.00000000E+00
  0.00000000E+00  0.00000000E+00  0.00000000E+00
  0.00000000E+00  0.00000000E+00  0.00000000E+00
  0.00000000E+00  0.00000000E+00  0.00000000E+00
  0.00000000E+00  0.00000000E+00  0.00000000E+00
  0.00000000E+00  0.00000000E+00  0.00000000E+00
  0.00000000E+00  0.00000000E+00  0.00000000E+00
  0.00000000E+00  0.00000000E+00  0.00000000E+00
  0.00000000E+00  0.00000000E+00  0.00000000E+00
  0.00000000E+00  0.00000000E+00  0.00000000E+00
  0.00000000E+00  0.00000000E+00  0.00000000E+00
  0.00000000E+00  0.00000000E+00  0.00000000E+00
  0.00000000E+00  0.00000000E+00  0.00000000E+00
  0.00000000E+00  0.00000000E+00  0.00000000E+00
  0.00000000E+00  0.00000000E+00  0.00000000E+00
  0.00000000E+00  0.00000000E+00  0.00000000E+00
  0.00000000E+00  0.00000000E+00  0.00000000E+00
  0.00000000E+00  0.00000000E+00  0.00000000E+00
  0.00000000E+00  0.00000000E+00  0.00000000E+00
  0.00000000E+00  0.00000000E+00  0.00000000E+00
  0.00000000E+00  0.00000000E+00  0.00000000E+00
  0.00000000E+00  0.00000000E+00  0.00000000E+00
  0.00000000E+00  0.00000000E+00  0.00000000E+00
