CONTCAR\(14)                            
   1.00000000000000     
    11.4961004256999999    0.0000000000000000    0.0000000000000000
     0.0000000000000000   11.5296001433999997    0.0000000000000000
     0.0000000000000000    0.0000000000000000   20.4391994476000001
   Sr   Co   Cl   O 
    18     9    18    19
Direct
  0.1667502415626460  0.1651347515862367  0.4133394745218540
  0.1659709539369224  0.1635436652003983  0.5884075588034963
  0.5000278441170519  0.1651917000847967  0.4134240224037625
  0.5008144717404569  0.1636144860966925  0.5883280277104773
  0.8334064594530578  0.1654619576250810  0.4132646736143086
  0.8334255388774386  0.1644770669175860  0.5884774344283494
  0.1669785176086794  0.4980390528419021  0.4149531942791344
  0.1692074329894877  0.4955893199127323  0.5914329721307042
  0.4997685031420775  0.4979058818886074  0.4150414213772313
  0.4974825054727413  0.4955066128130666  0.5914027822123532
  0.8333716037159831  0.4983115512266723  0.4136084928236962
  0.8334298137209774  0.4976079023275483  0.5886659435184064
  0.1666602483410636  0.8313001685136324  0.4136689233700218
  0.1642437558153976  0.8341724618718710  0.5869630956811805
  0.5001526062749719  0.8312199655373106  0.4136349183162717
  0.5024729631477050  0.8342184923067278  0.5870327992672227
  0.8333965115323401  0.8310134847488826  0.4135046253415316
  0.8334906565655845  0.8308157085250856  0.5881534671197322
  0.9994570619019399  0.9988290786109418  0.5004232599865550
  0.3333881077012857  0.9983612536125041  0.5007274629335086
  0.6674092668281258  0.9984418123726225  0.5003620725606416
  0.0001757052225960  0.3318894856978173  0.5011148234187623
  0.3330857269743333  0.3312282952496680  0.5012544453149193
  0.6668547105365867  0.3316550336082254  0.5011509302202838
  0.0004981653746706  0.6636990126350830  0.5014213009625013
  0.3333228097212952  0.6647758089437176  0.5033425847063595
  0.6661702547465752  0.6637521759069186  0.5015890929755461
  0.0001579505163259  0.9983962344348305  0.3463237567820675
  0.9990291275150138  0.3299507979017777  0.6559592611602628
  0.3334523199435556  0.9976671763818066  0.3465455116070770
  0.3333380927613135  0.3180666870729747  0.6557090097507531
  0.6666262246577753  0.9983953955431857  0.3464578509471844
  0.6678877332128857  0.3300135458025294  0.6559730377011020
  0.0002867937623181  0.3320936305955223  0.3465229152040100
  0.0019628416512810  0.6649464327984390  0.6556880749405791
  0.3333059545405788  0.3318615889333656  0.3466160343382202
  0.3334052544706189  0.7197185060474207  0.6827471840084754
  0.6665381180318615  0.3321318875784794  0.3464295413475728
  0.6648084563946627  0.6650785757990945  0.6556973272881406
  0.0006026657435263  0.6651471667526974  0.3466763606289025
  0.9992165416665297  0.9975404755076511  0.6559322401610912
  0.3335231401643678  0.6649062881509460  0.3479153309513486
  0.3333549062716376  0.9982344644735403  0.6563982613122754
  0.6662473458377949  0.6650357350688162  0.3467053450244301
  0.6676588025977268  0.9975886617932452  0.6559362893155077
  0.1662338532505810  0.9981049203619088  0.5003691882064788
  0.9996458168401809  0.1652236171763552  0.5006446008456849
  0.5005673886302880  0.9980253111414968  0.5003858289854429
  0.3332423651835887  0.1644682973285708  0.5003062581880874
  0.8333798533814686  0.9980354135537336  0.5007603667396251
  0.6672815664478224  0.1650315654875563  0.5006207393991197
  0.1666978293855940  0.3307580689060474  0.5012075060645489
 -0.0000116464688615  0.4977397291633243  0.5010804948748110
  0.4999564017612246  0.3307028477040057  0.5012292039518658
  0.3332007289840728  0.4978461333109397  0.5011916929052666
  0.8334603451863254  0.3315914703583829  0.5010706213478845
  0.6668717085039795  0.4976560524503946  0.5011468804894609
  0.1673879538243816  0.6650629630808413  0.5029819994141719
  0.9995125740880743  0.8312495538250194  0.5004297462884691
  0.4993707491317227  0.6650556750658653  0.5030517359500637
  0.3332695872868621  0.8314189652588106  0.5021996975651685
  0.8333266079849946  0.6642438245547329  0.5010435985859784
  0.6673042420133873  0.8311315350800417  0.5004800421230211
  0.3332670788225528  0.5838945608933437  0.6544066666070691
 
  0.00000000E+00  0.00000000E+00  0.00000000E+00
  0.00000000E+00  0.00000000E+00  0.00000000E+00
  0.00000000E+00  0.00000000E+00  0.00000000E+00
  0.00000000E+00  0.00000000E+00  0.00000000E+00
  0.00000000E+00  0.00000000E+00  0.00000000E+00
  0.00000000E+00  0.00000000E+00  0.00000000E+00
  0.00000000E+00  0.00000000E+00  0.00000000E+00
  0.00000000E+00  0.00000000E+00  0.00000000E+00
  0.00000000E+00  0.00000000E+00  0.00000000E+00
  0.00000000E+00  0.00000000E+00  0.00000000E+00
  0.00000000E+00  0.00000000E+00  0.00000000E+00
  0.00000000E+00  0.00000000E+00  0.00000000E+00
  0.00000000E+00  0.00000000E+00  0.00000000E+00
  0.00000000E+00  0.00000000E+00  0.00000000E+00
  0.00000000E+00  0.00000000E+00  0.00000000E+00
  0.00000000E+00  0.00000000E+00  0.00000000E+00
  0.00000000E+00  0.00000000E+00  0.00000000E+00
  0.00000000E+00  0.00000000E+00  0.00000000E+00
  0.00000000E+00  0.00000000E+00  0.00000000E+00
  0.00000000E+00  0.00000000E+00  0.00000000E+00
  0.00000000E+00  0.00000000E+00  0.00000000E+00
  0.00000000E+00  0.00000000E+00  0.00000000E+00
  0.00000000E+00  0.00000000E+00  0.00000000E+00
  0.00000000E+00  0.00000000E+00  0.00000000E+00
  0.00000000E+00  0.00000000E+00  0.00000000E+00
  0.00000000E+00  0.00000000E+00  0.00000000E+00
  0.00000000E+00  0.00000000E+00  0.00000000E+00
  0.00000000E+00  0.00000000E+00  0.00000000E+00
  0.00000000E+00  0.00000000E+00  0.00000000E+00
  0.00000000E+00  0.00000000E+00  0.00000000E+00
  0.00000000E+00  0.00000000E+00  0.00000000E+00
  0.00000000E+00  0.00000000E+00  0.00000000E+00
  0.00000000E+00  0.00000000E+00  0.00000000E+00
  0.00000000E+00  0.00000000E+00  0.00000000E+00
  0.00000000E+00  0.00000000E+00  0.00000000E+00
  0.00000000E+00  0.00000000E+00  0.00000000E+00
  0.00000000E+00  0.00000000E+00  0.00000000E+00
  0.00000000E+00  0.00000000E+00  0.00000000E+00
  0.00000000E+00  0.00000000E+00  0.00000000E+00
  0.00000000E+00  0.00000000E+00  0.00000000E+00
  0.00000000E+00  0.00000000E+00  0.00000000E+00
  0.00000000E+00  0.00000000E+00  0.00000000E+00
  0.00000000E+00  0.00000000E+00  0.00000000E+00
  0.00000000E+00  0.00000000E+00  0.00000000E+00
  0.00000000E+00  0.00000000E+00  0.00000000E+00
  0.00000000E+00  0.00000000E+00  0.00000000E+00
  0.00000000E+00  0.00000000E+00  0.00000000E+00
  0.00000000E+00  0.00000000E+00  0.00000000E+00
  0.00000000E+00  0.00000000E+00  0.00000000E+00
  0.00000000E+00  0.00000000E+00  0.00000000E+00
  0.00000000E+00  0.00000000E+00  0.00000000E+00
  0.00000000E+00  0.00000000E+00  0.00000000E+00
  0.00000000E+00  0.00000000E+00  0.00000000E+00
  0.00000000E+00  0.00000000E+00  0.00000000E+00
  0.00000000E+00  0.00000000E+00  0.00000000E+00
  0.00000000E+00  0.00000000E+00  0.00000000E+00
  0.00000000E+00  0.00000000E+00  0.00000000E+00
  0.00000000E+00  0.00000000E+00  0.00000000E+00
  0.00000000E+00  0.00000000E+00  0.00000000E+00
  0.00000000E+00  0.00000000E+00  0.00000000E+00
  0.00000000E+00  0.00000000E+00  0.00000000E+00
  0.00000000E+00  0.00000000E+00  0.00000000E+00
  0.00000000E+00  0.00000000E+00  0.00000000E+00
  0.00000000E+00  0.00000000E+00  0.00000000E+00
