CONTCAR\(10)                            
   1.00000000000000     
    11.3503999709999999    0.0000000000000000    0.0000000000000000
    -5.6751999854999999    9.8297347179999992    0.0000000000000000
     0.0000000000000000    0.0000000000000000   18.1851005553999983
   Zr   Se   O 
     9    18     1
Direct
  0.9937966943097468  0.9968983471548770  0.4973943692076342
  0.3262862524955785  0.9972190372626331  0.5013134863324482
  0.6682690315357239  0.0082894110520911  0.4964542971642615
  0.9982497678941421  0.3343531419781151  0.4998419919620392
  0.3262862514955748  0.3290672132329451  0.5013134863324482
  0.6606408437175171  0.3303154258587573  0.5045178343318759
  0.9982497878941367  0.6638966839160246  0.4998419919620392
  0.3330753017278679  0.6665426893639335  0.5240348897716957
  0.6682690505357290  0.6599796584836432  0.4964542971642615
  0.2148768601237193  0.1074384265618647  0.5879503211656407
  0.1079355123945791  0.2219687219329191  0.4114866000631224
  0.5510911499477947  0.1068885043071174  0.5886930680851614
  0.4390777129937607  0.2195388489968851  0.4145029982721553
  0.8850776918287185  0.1066689955760174  0.5867169987933460
  0.7726400874285030  0.2240634103425514  0.4121747678088384
  0.2027672179152119  0.4201464908362146  0.5934125815794503
  0.1145236929030446  0.5572668564515282  0.4192929128298022
  0.5510911319477932  0.4441926366406840  0.5886930680851614
  0.4356410315018638  0.5618215495500050  0.4231218508813605
  0.8840697616705978  0.4420298673353015  0.5884867584991671
  0.7726400854285028  0.5485766370859625  0.4121747678088384
  0.2027672039152108  0.7826207120789995  0.5934125815794503
  0.1079355433945781  0.8859668594616621  0.4114866000631224
  0.6051567509226948  0.8025783814613513  0.6021183328629980
  0.4356410435018648  0.8738295479518603  0.4231218508813605
  0.8850776588287194  0.7784086562527048  0.5867169987933460
  0.7719805923454357  0.8859903361727212  0.4109576791001447
  0.4204666304013986  0.7102233357006962  0.6217323646188251
 
  0.00000000E+00  0.00000000E+00  0.00000000E+00
  0.00000000E+00  0.00000000E+00  0.00000000E+00
  0.00000000E+00  0.00000000E+00  0.00000000E+00
  0.00000000E+00  0.00000000E+00  0.00000000E+00
  0.00000000E+00  0.00000000E+00  0.00000000E+00
  0.00000000E+00  0.00000000E+00  0.00000000E+00
  0.00000000E+00  0.00000000E+00  0.00000000E+00
  0.00000000E+00  0.00000000E+00  0.00000000E+00
  0.00000000E+00  0.00000000E+00  0.00000000E+00
  0.00000000E+00  0.00000000E+00  0.00000000E+00
  0.00000000E+00  0.00000000E+00  0.00000000E+00
  0.00000000E+00  0.00000000E+00  0.00000000E+00
  0.00000000E+00  0.00000000E+00  0.00000000E+00
  0.00000000E+00  0.00000000E+00  0.00000000E+00
  0.00000000E+00  0.00000000E+00  0.00000000E+00
  0.00000000E+00  0.00000000E+00  0.00000000E+00
  0.00000000E+00  0.00000000E+00  0.00000000E+00
  0.00000000E+00  0.00000000E+00  0.00000000E+00
  0.00000000E+00  0.00000000E+00  0.00000000E+00
  0.00000000E+00  0.00000000E+00  0.00000000E+00
  0.00000000E+00  0.00000000E+00  0.00000000E+00
  0.00000000E+00  0.00000000E+00  0.00000000E+00
  0.00000000E+00  0.00000000E+00  0.00000000E+00
  0.00000000E+00  0.00000000E+00  0.00000000E+00
  0.00000000E+00  0.00000000E+00  0.00000000E+00
  0.00000000E+00  0.00000000E+00  0.00000000E+00
  0.00000000E+00  0.00000000E+00  0.00000000E+00
  0.00000000E+00  0.00000000E+00  0.00000000E+00
