Repeated-UnitCell:     2    1    1      
   1.00000000000000     
     8.8556365967000001    0.0000000000000000    0.0000000000000000
     0.0000000000000000   13.2517385483000005    0.0000000000000000
     0.0000000000000000    0.0000000000000000   28.4766025543000012
   Bi   I 
    31     8
Direct
  0.0000000000000000  0.9508111999952985  0.5999172311347534
  0.5000000000000000  0.9438335595723364  0.6002433794354098
  0.0000000000000000  0.0664778251214728  0.4014786516132250
  0.5000000000000000  0.0644687997844865  0.4031616478180312
  0.2495443552307026  0.8006067887849972  0.3588414766772804
  0.7504556447692973  0.8006067887849972  0.3588414766772804
  0.2546765634798664  0.3418893236930429  0.4384098040799171
  0.7453234365201337  0.3418893236930429  0.4384098040799171
  0.0000000000000000  0.1770164850122871  0.5721736180909242
  0.5000000000000000  0.1664307212712293  0.5715316655159728
  0.0000000000000000  0.6246031693430857  0.4891285164036323
  0.5000000000000000  0.6204947910395814  0.4885359567712667
  0.0000000000000000  0.8428794415356649  0.4306959708106029
  0.5000000000000000  0.8405698506804211  0.4307672879996514
  0.0000000000000000  0.5268603227306524  0.3125373843792263
  0.5000000000000000  0.5296260432889196  0.3122692490290645
  0.2475905936081766  0.1197981169616685  0.4718350977250166
  0.7524094063918235  0.1197981169616685  0.4718350977250166
  0.2506484630320244  0.6692710547338764  0.5592143770996308
  0.7493515369679754  0.6692710547338764  0.5592143770996308
  0.0000000000000000  0.3928607104097104  0.5079294576091113
  0.5000000000000000  0.3912592293354457  0.5095008089377001
  0.2490003445536705  0.8938823607551712  0.5307828909074334
  0.7509996554463297  0.8938823607551712  0.5307828909074334
  0.2589526858288737  0.2104339615423090  0.6467120821047756
  0.7410473141711262  0.2104339615423090  0.6467120821047756
  0.2251854059389358  0.4234769255605638  0.6076721340997612
  0.7748145940610642  0.4234769255605638  0.6076721340997612
  0.2503097524661766  0.5771266594862771  0.3841399199520520
  0.7496902475338234  0.5771266594862771  0.3841399199520520
  0.0000000000000000  0.4828120020994923  0.6849545834112055
  0.0000000000000000  0.2807445380291746  0.7360900345546610
  0.5000000000000000  0.2417128855012555  0.7301491234317663
  0.0000000000000000  0.7363372345284849  0.2666101584218840
  0.5000000000000000  0.7377566403830702  0.2666118105568202
  0.0000000000000000  0.2980455380634108  0.3403589477203741
  0.5000000000000000  0.2996897091686925  0.3431076078512307
  0.0000000000000000  0.7151895081981229  0.6589925880148307
  0.5000000000000000  0.5189487418718914  0.6592010341969070
 
  0.00000000E+00  0.00000000E+00  0.00000000E+00
  0.00000000E+00  0.00000000E+00  0.00000000E+00
  0.00000000E+00  0.00000000E+00  0.00000000E+00
  0.00000000E+00  0.00000000E+00  0.00000000E+00
  0.00000000E+00  0.00000000E+00  0.00000000E+00
  0.00000000E+00  0.00000000E+00  0.00000000E+00
  0.00000000E+00  0.00000000E+00  0.00000000E+00
  0.00000000E+00  0.00000000E+00  0.00000000E+00
  0.00000000E+00  0.00000000E+00  0.00000000E+00
  0.00000000E+00  0.00000000E+00  0.00000000E+00
  0.00000000E+00  0.00000000E+00  0.00000000E+00
  0.00000000E+00  0.00000000E+00  0.00000000E+00
  0.00000000E+00  0.00000000E+00  0.00000000E+00
  0.00000000E+00  0.00000000E+00  0.00000000E+00
  0.00000000E+00  0.00000000E+00  0.00000000E+00
  0.00000000E+00  0.00000000E+00  0.00000000E+00
  0.00000000E+00  0.00000000E+00  0.00000000E+00
  0.00000000E+00  0.00000000E+00  0.00000000E+00
  0.00000000E+00  0.00000000E+00  0.00000000E+00
  0.00000000E+00  0.00000000E+00  0.00000000E+00
  0.00000000E+00  0.00000000E+00  0.00000000E+00
  0.00000000E+00  0.00000000E+00  0.00000000E+00
  0.00000000E+00  0.00000000E+00  0.00000000E+00
  0.00000000E+00  0.00000000E+00  0.00000000E+00
  0.00000000E+00  0.00000000E+00  0.00000000E+00
  0.00000000E+00  0.00000000E+00  0.00000000E+00
  0.00000000E+00  0.00000000E+00  0.00000000E+00
  0.00000000E+00  0.00000000E+00  0.00000000E+00
  0.00000000E+00  0.00000000E+00  0.00000000E+00
  0.00000000E+00  0.00000000E+00  0.00000000E+00
  0.00000000E+00  0.00000000E+00  0.00000000E+00
  0.00000000E+00  0.00000000E+00  0.00000000E+00
  0.00000000E+00  0.00000000E+00  0.00000000E+00
  0.00000000E+00  0.00000000E+00  0.00000000E+00
  0.00000000E+00  0.00000000E+00  0.00000000E+00
  0.00000000E+00  0.00000000E+00  0.00000000E+00
  0.00000000E+00  0.00000000E+00  0.00000000E+00
  0.00000000E+00  0.00000000E+00  0.00000000E+00
  0.00000000E+00  0.00000000E+00  0.00000000E+00
