CONTCAR\(12)                            
   1.00000000000000     
    12.2558002471999998    0.0000000000000000    0.0000000000000000
     6.1279165570999998   10.6146331497999995    0.0000000000000000
     0.0000000000000000    0.0000000000000000   18.0618000031000001
   Ni   P    Se   O 
     8     8    24     1
Direct
  0.1666633505044004  0.1666656691362078  0.4958999222113789
  0.3291073200398031  0.3383032690605319  0.4958575446286204
  0.6709034330869414  0.1674540535597799  0.4958286099181421
  0.8325897473085391  0.3291905443023566  0.4958313349880328
  0.1674078568397022  0.6617386775007290  0.4958541124229328
  0.3383456972314036  0.8326048215580428  0.4958887001862635
  0.6616761894970224  0.6709107029812316  0.4958480994750616
  0.8333283161814506  0.8333963672596809  0.4958574998127645
  0.0038219356657763  0.9962773443016886  0.4338278842678633
  0.5000672699867152  0.0030008607556127  0.5571565221908301
  0.4999071123077670  0.0038310025053434  0.4338339363535653
  0.0029994761477283  0.9970382643412989  0.5571261255360866
  0.9962396483255773  0.5000087569959391  0.4338329563621031
  0.4999944668912590  0.5000455069122722  0.6470949071153953
  0.5000019355994283  0.5000064717243689  0.4849237025524076
  0.9969481910164646  0.5000512717036685  0.5571411003283728
  0.3229240491493997  0.0017681895237089  0.4086675801454973
  0.1818336902005555  0.9971583386393945  0.5814143914555245
  0.1752946344942856  0.3228030688410115  0.4087013467317888
  0.0018233152533824  0.1752812784119939  0.4087041680666985
  0.3210184567754055  0.1817964702560815  0.5814066091431584
  0.5000417009690352  0.3304415488659487  0.5781818626059092
  0.8247571021666360  0.9981040701315820  0.4086383514828427
  0.6791055280482254  0.0029409598212098  0.5813297263892849
  0.6651542213620161  0.3348469442063120  0.4193480206589371
  0.4999734466846419  0.1888696986931606  0.4144077958718100
  0.8221884796511745  0.1778050059404634  0.5822268171375882
  0.9972201252147315  0.3209619720576811  0.5813988958715015
  0.3347632511121219  0.5000404846411399  0.4193128063185156
  0.1777188820954194  0.5000734705613610  0.5822185098534547
  0.1887978183714409  0.8112630299958212  0.4144388006375408
  0.9980265774811059  0.6771786461814884  0.4086474622680925
  0.3305121290378210  0.6695001836567656  0.5782052446024508
  0.5000283773422609  0.8221990262758752  0.5822393886900556
  0.8111492037564005  0.5000567138753595  0.4144183597939985
  0.6695761645941971  0.5000124146916818  0.5781711935583829
  0.6771205176800734  0.8248341571286630  0.4086496757675206
  0.5000647361936998  0.6652425344603117  0.4193360139050242
  0.8180398113045086  0.6790981192478540  0.5813020774787105
  0.0028743923608161  0.8181290787760958  0.5813747374957998
  0.5000407370706270  0.4999717425202590  0.7292566647201113
 
  0.00000000E+00  0.00000000E+00  0.00000000E+00
  0.00000000E+00  0.00000000E+00  0.00000000E+00
  0.00000000E+00  0.00000000E+00  0.00000000E+00
  0.00000000E+00  0.00000000E+00  0.00000000E+00
  0.00000000E+00  0.00000000E+00  0.00000000E+00
  0.00000000E+00  0.00000000E+00  0.00000000E+00
  0.00000000E+00  0.00000000E+00  0.00000000E+00
  0.00000000E+00  0.00000000E+00  0.00000000E+00
  0.00000000E+00  0.00000000E+00  0.00000000E+00
  0.00000000E+00  0.00000000E+00  0.00000000E+00
  0.00000000E+00  0.00000000E+00  0.00000000E+00
  0.00000000E+00  0.00000000E+00  0.00000000E+00
  0.00000000E+00  0.00000000E+00  0.00000000E+00
  0.00000000E+00  0.00000000E+00  0.00000000E+00
  0.00000000E+00  0.00000000E+00  0.00000000E+00
  0.00000000E+00  0.00000000E+00  0.00000000E+00
  0.00000000E+00  0.00000000E+00  0.00000000E+00
  0.00000000E+00  0.00000000E+00  0.00000000E+00
  0.00000000E+00  0.00000000E+00  0.00000000E+00
  0.00000000E+00  0.00000000E+00  0.00000000E+00
  0.00000000E+00  0.00000000E+00  0.00000000E+00
  0.00000000E+00  0.00000000E+00  0.00000000E+00
  0.00000000E+00  0.00000000E+00  0.00000000E+00
  0.00000000E+00  0.00000000E+00  0.00000000E+00
  0.00000000E+00  0.00000000E+00  0.00000000E+00
  0.00000000E+00  0.00000000E+00  0.00000000E+00
  0.00000000E+00  0.00000000E+00  0.00000000E+00
  0.00000000E+00  0.00000000E+00  0.00000000E+00
  0.00000000E+00  0.00000000E+00  0.00000000E+00
  0.00000000E+00  0.00000000E+00  0.00000000E+00
  0.00000000E+00  0.00000000E+00  0.00000000E+00
  0.00000000E+00  0.00000000E+00  0.00000000E+00
  0.00000000E+00  0.00000000E+00  0.00000000E+00
  0.00000000E+00  0.00000000E+00  0.00000000E+00
  0.00000000E+00  0.00000000E+00  0.00000000E+00
  0.00000000E+00  0.00000000E+00  0.00000000E+00
  0.00000000E+00  0.00000000E+00  0.00000000E+00
  0.00000000E+00  0.00000000E+00  0.00000000E+00
  0.00000000E+00  0.00000000E+00  0.00000000E+00
  0.00000000E+00  0.00000000E+00  0.00000000E+00
  0.00000000E+00  0.00000000E+00  0.00000000E+00
