 Te2 Os1 Cl12                           
   1.00000000000000     
     6.5256038202235276    0.0000000000000000    0.0000000000000000
     3.1694990887682102    6.1926018102186688    0.0000000000000000
     0.0000000000000000    0.0000000000000000   23.7280256790676845
   Te   Os   Cl
     2     1    12
Direct
  0.8152210423823334  0.3488148575456478  0.3926660664376840
  0.1870272442772816  0.6401430476464043  0.6073710901519433
  0.5011672313989308  0.9945620616310364  0.5000294452989777
  0.5561678358275941  0.4810890669996013  0.3158999774426974
  0.4461272206744198  0.5077756544392429  0.6841350356110993
  0.9986288200645674  0.5589916997851248  0.3670486036672216
  0.1015815479317439  0.2077055929093135  0.4947112696689189
  0.9007163412718313  0.7812816535241467  0.5053558357322459
  0.4574841755926258  0.8769269050522226  0.5894918585255979
  0.5448557996453687  0.1121175608644762  0.4105621609941110
  0.4566287945932643  0.7112021971625140  0.4582016539929228
  0.5457448880389606  0.2778012583864538  0.5418804273669764
  0.9259946854195320  0.9506037589617051  0.6561998084825120
  0.0762656054816944  0.0383338185350581  0.3438264415952830
  0.0036855409440335  0.4299312219033311  0.6329609138405630
 
  0.00000000E+00  0.00000000E+00  0.00000000E+00
  0.00000000E+00  0.00000000E+00  0.00000000E+00
  0.00000000E+00  0.00000000E+00  0.00000000E+00
  0.00000000E+00  0.00000000E+00  0.00000000E+00
  0.00000000E+00  0.00000000E+00  0.00000000E+00
  0.00000000E+00  0.00000000E+00  0.00000000E+00
  0.00000000E+00  0.00000000E+00  0.00000000E+00
  0.00000000E+00  0.00000000E+00  0.00000000E+00
  0.00000000E+00  0.00000000E+00  0.00000000E+00
  0.00000000E+00  0.00000000E+00  0.00000000E+00
  0.00000000E+00  0.00000000E+00  0.00000000E+00
  0.00000000E+00  0.00000000E+00  0.00000000E+00
  0.00000000E+00  0.00000000E+00  0.00000000E+00
  0.00000000E+00  0.00000000E+00  0.00000000E+00
  0.00000000E+00  0.00000000E+00  0.00000000E+00
