G   34   32    1    0.005     # Parameters to Generate KPOINTS (Don't Edit This Line)
     546
Reciprocal lattice
    0.000000000000    0.000000000000    0.000000000000       1
    0.029411764706    0.000000000000    0.000000000000       2
    0.058823529412    0.000000000000    0.000000000000       2
    0.088235294118    0.000000000000    0.000000000000       2
    0.117647058824    0.000000000000    0.000000000000       2
    0.147058823529    0.000000000000    0.000000000000       2
    0.176470588235    0.000000000000    0.000000000000       2
    0.205882352941    0.000000000000    0.000000000000       2
    0.235294117647    0.000000000000    0.000000000000       2
    0.264705882353    0.000000000000    0.000000000000       2
    0.294117647059    0.000000000000    0.000000000000       2
    0.323529411765    0.000000000000    0.000000000000       2
    0.352941176471    0.000000000000    0.000000000000       2
    0.382352941176    0.000000000000    0.000000000000       2
    0.411764705882    0.000000000000    0.000000000000       2
    0.441176470588    0.000000000000    0.000000000000       2
    0.470588235294    0.000000000000    0.000000000000       2
    0.500000000000    0.000000000000    0.000000000000       1
    0.000000000000    0.031250000000    0.000000000000       2
    0.029411764706    0.031250000000    0.000000000000       2
    0.058823529412    0.031250000000    0.000000000000       2
    0.088235294118    0.031250000000    0.000000000000       2
    0.117647058824    0.031250000000    0.000000000000       2
    0.147058823529    0.031250000000    0.000000000000       2
    0.176470588235    0.031250000000    0.000000000000       2
    0.205882352941    0.031250000000    0.000000000000       2
    0.235294117647    0.031250000000    0.000000000000       2
    0.264705882353    0.031250000000    0.000000000000       2
    0.294117647059    0.031250000000    0.000000000000       2
    0.323529411765    0.031250000000    0.000000000000       2
    0.352941176471    0.031250000000    0.000000000000       2
    0.382352941176    0.031250000000    0.000000000000       2
    0.411764705882    0.031250000000    0.000000000000       2
    0.441176470588    0.031250000000    0.000000000000       2
    0.470588235294    0.031250000000    0.000000000000       2
    0.500000000000    0.031250000000    0.000000000000       2
   -0.470588235294    0.031250000000    0.000000000000       2
   -0.441176470588    0.031250000000    0.000000000000       2
   -0.411764705882    0.031250000000    0.000000000000       2
   -0.382352941176    0.031250000000    0.000000000000       2
   -0.352941176471    0.031250000000    0.000000000000       2
   -0.323529411765    0.031250000000    0.000000000000       2
   -0.294117647059    0.031250000000    0.000000000000       2
   -0.264705882353    0.031250000000    0.000000000000       2
   -0.235294117647    0.031250000000    0.000000000000       2
   -0.205882352941    0.031250000000    0.000000000000       2
   -0.176470588235    0.031250000000    0.000000000000       2
   -0.147058823529    0.031250000000    0.000000000000       2
   -0.117647058824    0.031250000000    0.000000000000       2
   -0.088235294118    0.031250000000    0.000000000000       2
   -0.058823529412    0.031250000000    0.000000000000       2
   -0.029411764706    0.031250000000    0.000000000000       2
    0.000000000000    0.062500000000    0.000000000000       2
    0.029411764706    0.062500000000    0.000000000000       2
    0.058823529412    0.062500000000    0.000000000000       2
    0.088235294118    0.062500000000    0.000000000000       2
    0.117647058824    0.062500000000    0.000000000000       2
    0.147058823529    0.062500000000    0.000000000000       2
    0.176470588235    0.062500000000    0.000000000000       2
    0.205882352941    0.062500000000    0.000000000000       2
    0.235294117647    0.062500000000    0.000000000000       2
    0.264705882353    0.062500000000    0.000000000000       2
    0.294117647059    0.062500000000    0.000000000000       2
    0.323529411765    0.062500000000    0.000000000000       2
    0.352941176471    0.062500000000    0.000000000000       2
    0.382352941176    0.062500000000    0.000000000000       2
    0.411764705882    0.062500000000    0.000000000000       2
    0.441176470588    0.062500000000    0.000000000000       2
    0.470588235294    0.062500000000    0.000000000000       2
    0.500000000000    0.062500000000    0.000000000000       2
   -0.470588235294    0.062500000000    0.000000000000       2
   -0.441176470588    0.062500000000    0.000000000000       2
   -0.411764705882    0.062500000000    0.000000000000       2
   -0.382352941176    0.062500000000    0.000000000000       2
   -0.352941176471    0.062500000000    0.000000000000       2
   -0.323529411765    0.062500000000    0.000000000000       2
   -0.294117647059    0.062500000000    0.000000000000       2
   -0.264705882353    0.062500000000    0.000000000000       2
   -0.235294117647    0.062500000000    0.000000000000       2
   -0.205882352941    0.062500000000    0.000000000000       2
   -0.176470588235    0.062500000000    0.000000000000       2
   -0.147058823529    0.062500000000    0.000000000000       2
   -0.117647058824    0.062500000000    0.000000000000       2
   -0.088235294118    0.062500000000    0.000000000000       2
   -0.058823529412    0.062500000000    0.000000000000       2
   -0.029411764706    0.062500000000    0.000000000000       2
    0.000000000000    0.093750000000    0.000000000000       2
    0.029411764706    0.093750000000    0.000000000000       2
    0.058823529412    0.093750000000    0.000000000000       2
    0.088235294118    0.093750000000    0.000000000000       2
    0.117647058824    0.093750000000    0.000000000000       2
    0.147058823529    0.093750000000    0.000000000000       2
    0.176470588235    0.093750000000    0.000000000000       2
    0.205882352941    0.093750000000    0.000000000000       2
    0.235294117647    0.093750000000    0.000000000000       2
    0.264705882353    0.093750000000    0.000000000000       2
    0.294117647059    0.093750000000    0.000000000000       2
    0.323529411765    0.093750000000    0.000000000000       2
    0.352941176471    0.093750000000    0.000000000000       2
    0.382352941176    0.093750000000    0.000000000000       2
    0.411764705882    0.093750000000    0.000000000000       2
    0.441176470588    0.093750000000    0.000000000000       2
    0.470588235294    0.093750000000    0.000000000000       2
    0.500000000000    0.093750000000    0.000000000000       2
   -0.470588235294    0.093750000000    0.000000000000       2
   -0.441176470588    0.093750000000    0.000000000000       2
   -0.411764705882    0.093750000000    0.000000000000       2
   -0.382352941176    0.093750000000    0.000000000000       2
   -0.352941176471    0.093750000000    0.000000000000       2
   -0.323529411765    0.093750000000    0.000000000000       2
   -0.294117647059    0.093750000000    0.000000000000       2
   -0.264705882353    0.093750000000    0.000000000000       2
   -0.235294117647    0.093750000000    0.000000000000       2
   -0.205882352941    0.093750000000    0.000000000000       2
   -0.176470588235    0.093750000000    0.000000000000       2
   -0.147058823529    0.093750000000    0.000000000000       2
   -0.117647058824    0.093750000000    0.000000000000       2
   -0.088235294118    0.093750000000    0.000000000000       2
   -0.058823529412    0.093750000000    0.000000000000       2
   -0.029411764706    0.093750000000    0.000000000000       2
    0.000000000000    0.125000000000    0.000000000000       2
    0.029411764706    0.125000000000    0.000000000000       2
    0.058823529412    0.125000000000    0.000000000000       2
    0.088235294118    0.125000000000    0.000000000000       2
    0.117647058824    0.125000000000    0.000000000000       2
    0.147058823529    0.125000000000    0.000000000000       2
    0.176470588235    0.125000000000    0.000000000000       2
    0.205882352941    0.125000000000    0.000000000000       2
    0.235294117647    0.125000000000    0.000000000000       2
    0.264705882353    0.125000000000    0.000000000000       2
    0.294117647059    0.125000000000    0.000000000000       2
    0.323529411765    0.125000000000    0.000000000000       2
    0.352941176471    0.125000000000    0.000000000000       2
    0.382352941176    0.125000000000    0.000000000000       2
    0.411764705882    0.125000000000    0.000000000000       2
    0.441176470588    0.125000000000    0.000000000000       2
    0.470588235294    0.125000000000    0.000000000000       2
    0.500000000000    0.125000000000    0.000000000000       2
   -0.470588235294    0.125000000000    0.000000000000       2
   -0.441176470588    0.125000000000    0.000000000000       2
   -0.411764705882    0.125000000000    0.000000000000       2
   -0.382352941176    0.125000000000    0.000000000000       2
   -0.352941176471    0.125000000000    0.000000000000       2
   -0.323529411765    0.125000000000    0.000000000000       2
   -0.294117647059    0.125000000000    0.000000000000       2
   -0.264705882353    0.125000000000    0.000000000000       2
   -0.235294117647    0.125000000000    0.000000000000       2
   -0.205882352941    0.125000000000    0.000000000000       2
   -0.176470588235    0.125000000000    0.000000000000       2
   -0.147058823529    0.125000000000    0.000000000000       2
   -0.117647058824    0.125000000000    0.000000000000       2
   -0.088235294118    0.125000000000    0.000000000000       2
   -0.058823529412    0.125000000000    0.000000000000       2
   -0.029411764706    0.125000000000    0.000000000000       2
    0.000000000000    0.156250000000    0.000000000000       2
    0.029411764706    0.156250000000    0.000000000000       2
    0.058823529412    0.156250000000    0.000000000000       2
    0.088235294118    0.156250000000    0.000000000000       2
    0.117647058824    0.156250000000    0.000000000000       2
    0.147058823529    0.156250000000    0.000000000000       2
    0.176470588235    0.156250000000    0.000000000000       2
    0.205882352941    0.156250000000    0.000000000000       2
    0.235294117647    0.156250000000    0.000000000000       2
    0.264705882353    0.156250000000    0.000000000000       2
    0.294117647059    0.156250000000    0.000000000000       2
    0.323529411765    0.156250000000    0.000000000000       2
    0.352941176471    0.156250000000    0.000000000000       2
    0.382352941176    0.156250000000    0.000000000000       2
    0.411764705882    0.156250000000    0.000000000000       2
    0.441176470588    0.156250000000    0.000000000000       2
    0.470588235294    0.156250000000    0.000000000000       2
    0.500000000000    0.156250000000    0.000000000000       2
   -0.470588235294    0.156250000000    0.000000000000       2
   -0.441176470588    0.156250000000    0.000000000000       2
   -0.411764705882    0.156250000000    0.000000000000       2
   -0.382352941176    0.156250000000    0.000000000000       2
   -0.352941176471    0.156250000000    0.000000000000       2
   -0.323529411765    0.156250000000    0.000000000000       2
   -0.294117647059    0.156250000000    0.000000000000       2
   -0.264705882353    0.156250000000    0.000000000000       2
   -0.235294117647    0.156250000000    0.000000000000       2
   -0.205882352941    0.156250000000    0.000000000000       2
   -0.176470588235    0.156250000000    0.000000000000       2
   -0.147058823529    0.156250000000    0.000000000000       2
   -0.117647058824    0.156250000000    0.000000000000       2
   -0.088235294118    0.156250000000    0.000000000000       2
   -0.058823529412    0.156250000000    0.000000000000       2
   -0.029411764706    0.156250000000    0.000000000000       2
    0.000000000000    0.187500000000    0.000000000000       2
    0.029411764706    0.187500000000    0.000000000000       2
    0.058823529412    0.187500000000    0.000000000000       2
    0.088235294118    0.187500000000    0.000000000000       2
    0.117647058824    0.187500000000    0.000000000000       2
    0.147058823529    0.187500000000    0.000000000000       2
    0.176470588235    0.187500000000    0.000000000000       2
    0.205882352941    0.187500000000    0.000000000000       2
    0.235294117647    0.187500000000    0.000000000000       2
    0.264705882353    0.187500000000    0.000000000000       2
    0.294117647059    0.187500000000    0.000000000000       2
    0.323529411765    0.187500000000    0.000000000000       2
    0.352941176471    0.187500000000    0.000000000000       2
    0.382352941176    0.187500000000    0.000000000000       2
    0.411764705882    0.187500000000    0.000000000000       2
    0.441176470588    0.187500000000    0.000000000000       2
    0.470588235294    0.187500000000    0.000000000000       2
    0.500000000000    0.187500000000    0.000000000000       2
   -0.470588235294    0.187500000000    0.000000000000       2
   -0.441176470588    0.187500000000    0.000000000000       2
   -0.411764705882    0.187500000000    0.000000000000       2
   -0.382352941176    0.187500000000    0.000000000000       2
   -0.352941176471    0.187500000000    0.000000000000       2
   -0.323529411765    0.187500000000    0.000000000000       2
   -0.294117647059    0.187500000000    0.000000000000       2
   -0.264705882353    0.187500000000    0.000000000000       2
   -0.235294117647    0.187500000000    0.000000000000       2
   -0.205882352941    0.187500000000    0.000000000000       2
   -0.176470588235    0.187500000000    0.000000000000       2
   -0.147058823529    0.187500000000    0.000000000000       2
   -0.117647058824    0.187500000000    0.000000000000       2
   -0.088235294118    0.187500000000    0.000000000000       2
   -0.058823529412    0.187500000000    0.000000000000       2
   -0.029411764706    0.187500000000    0.000000000000       2
    0.000000000000    0.218750000000    0.000000000000       2
    0.029411764706    0.218750000000    0.000000000000       2
    0.058823529412    0.218750000000    0.000000000000       2
    0.088235294118    0.218750000000    0.000000000000       2
    0.117647058824    0.218750000000    0.000000000000       2
    0.147058823529    0.218750000000    0.000000000000       2
    0.176470588235    0.218750000000    0.000000000000       2
    0.205882352941    0.218750000000    0.000000000000       2
    0.235294117647    0.218750000000    0.000000000000       2
    0.264705882353    0.218750000000    0.000000000000       2
    0.294117647059    0.218750000000    0.000000000000       2
    0.323529411765    0.218750000000    0.000000000000       2
    0.352941176471    0.218750000000    0.000000000000       2
    0.382352941176    0.218750000000    0.000000000000       2
    0.411764705882    0.218750000000    0.000000000000       2
    0.441176470588    0.218750000000    0.000000000000       2
    0.470588235294    0.218750000000    0.000000000000       2
    0.500000000000    0.218750000000    0.000000000000       2
   -0.470588235294    0.218750000000    0.000000000000       2
   -0.441176470588    0.218750000000    0.000000000000       2
   -0.411764705882    0.218750000000    0.000000000000       2
   -0.382352941176    0.218750000000    0.000000000000       2
   -0.352941176471    0.218750000000    0.000000000000       2
   -0.323529411765    0.218750000000    0.000000000000       2
   -0.294117647059    0.218750000000    0.000000000000       2
   -0.264705882353    0.218750000000    0.000000000000       2
   -0.235294117647    0.218750000000    0.000000000000       2
   -0.205882352941    0.218750000000    0.000000000000       2
   -0.176470588235    0.218750000000    0.000000000000       2
   -0.147058823529    0.218750000000    0.000000000000       2
   -0.117647058824    0.218750000000    0.000000000000       2
   -0.088235294118    0.218750000000    0.000000000000       2
   -0.058823529412    0.218750000000    0.000000000000       2
   -0.029411764706    0.218750000000    0.000000000000       2
    0.000000000000    0.250000000000    0.000000000000       2
    0.029411764706    0.250000000000    0.000000000000       2
    0.058823529412    0.250000000000    0.000000000000       2
    0.088235294118    0.250000000000    0.000000000000       2
    0.117647058824    0.250000000000    0.000000000000       2
    0.147058823529    0.250000000000    0.000000000000       2
    0.176470588235    0.250000000000    0.000000000000       2
    0.205882352941    0.250000000000    0.000000000000       2
    0.235294117647    0.250000000000    0.000000000000       2
    0.264705882353    0.250000000000    0.000000000000       2
    0.294117647059    0.250000000000    0.000000000000       2
    0.323529411765    0.250000000000    0.000000000000       2
    0.352941176471    0.250000000000    0.000000000000       2
    0.382352941176    0.250000000000    0.000000000000       2
    0.411764705882    0.250000000000    0.000000000000       2
    0.441176470588    0.250000000000    0.000000000000       2
    0.470588235294    0.250000000000    0.000000000000       2
    0.500000000000    0.250000000000    0.000000000000       2
   -0.470588235294    0.250000000000    0.000000000000       2
   -0.441176470588    0.250000000000    0.000000000000       2
   -0.411764705882    0.250000000000    0.000000000000       2
   -0.382352941176    0.250000000000    0.000000000000       2
   -0.352941176471    0.250000000000    0.000000000000       2
   -0.323529411765    0.250000000000    0.000000000000       2
   -0.294117647059    0.250000000000    0.000000000000       2
   -0.264705882353    0.250000000000    0.000000000000       2
   -0.235294117647    0.250000000000    0.000000000000       2
   -0.205882352941    0.250000000000    0.000000000000       2
   -0.176470588235    0.250000000000    0.000000000000       2
   -0.147058823529    0.250000000000    0.000000000000       2
   -0.117647058824    0.250000000000    0.000000000000       2
   -0.088235294118    0.250000000000    0.000000000000       2
   -0.058823529412    0.250000000000    0.000000000000       2
   -0.029411764706    0.250000000000    0.000000000000       2
    0.000000000000    0.281250000000    0.000000000000       2
    0.029411764706    0.281250000000    0.000000000000       2
    0.058823529412    0.281250000000    0.000000000000       2
    0.088235294118    0.281250000000    0.000000000000       2
    0.117647058824    0.281250000000    0.000000000000       2
    0.147058823529    0.281250000000    0.000000000000       2
    0.176470588235    0.281250000000    0.000000000000       2
    0.205882352941    0.281250000000    0.000000000000       2
    0.235294117647    0.281250000000    0.000000000000       2
    0.264705882353    0.281250000000    0.000000000000       2
    0.294117647059    0.281250000000    0.000000000000       2
    0.323529411765    0.281250000000    0.000000000000       2
    0.352941176471    0.281250000000    0.000000000000       2
    0.382352941176    0.281250000000    0.000000000000       2
    0.411764705882    0.281250000000    0.000000000000       2
    0.441176470588    0.281250000000    0.000000000000       2
    0.470588235294    0.281250000000    0.000000000000       2
    0.500000000000    0.281250000000    0.000000000000       2
   -0.470588235294    0.281250000000    0.000000000000       2
   -0.441176470588    0.281250000000    0.000000000000       2
   -0.411764705882    0.281250000000    0.000000000000       2
   -0.382352941176    0.281250000000    0.000000000000       2
   -0.352941176471    0.281250000000    0.000000000000       2
   -0.323529411765    0.281250000000    0.000000000000       2
   -0.294117647059    0.281250000000    0.000000000000       2
   -0.264705882353    0.281250000000    0.000000000000       2
   -0.235294117647    0.281250000000    0.000000000000       2
   -0.205882352941    0.281250000000    0.000000000000       2
   -0.176470588235    0.281250000000    0.000000000000       2
   -0.147058823529    0.281250000000    0.000000000000       2
   -0.117647058824    0.281250000000    0.000000000000       2
   -0.088235294118    0.281250000000    0.000000000000       2
   -0.058823529412    0.281250000000    0.000000000000       2
   -0.029411764706    0.281250000000    0.000000000000       2
    0.000000000000    0.312500000000    0.000000000000       2
    0.029411764706    0.312500000000    0.000000000000       2
    0.058823529412    0.312500000000    0.000000000000       2
    0.088235294118    0.312500000000    0.000000000000       2
    0.117647058824    0.312500000000    0.000000000000       2
    0.147058823529    0.312500000000    0.000000000000       2
    0.176470588235    0.312500000000    0.000000000000       2
    0.205882352941    0.312500000000    0.000000000000       2
    0.235294117647    0.312500000000    0.000000000000       2
    0.264705882353    0.312500000000    0.000000000000       2
    0.294117647059    0.312500000000    0.000000000000       2
    0.323529411765    0.312500000000    0.000000000000       2
    0.352941176471    0.312500000000    0.000000000000       2
    0.382352941176    0.312500000000    0.000000000000       2
    0.411764705882    0.312500000000    0.000000000000       2
    0.441176470588    0.312500000000    0.000000000000       2
    0.470588235294    0.312500000000    0.000000000000       2
    0.500000000000    0.312500000000    0.000000000000       2
   -0.470588235294    0.312500000000    0.000000000000       2
   -0.441176470588    0.312500000000    0.000000000000       2
   -0.411764705882    0.312500000000    0.000000000000       2
   -0.382352941176    0.312500000000    0.000000000000       2
   -0.352941176471    0.312500000000    0.000000000000       2
   -0.323529411765    0.312500000000    0.000000000000       2
   -0.294117647059    0.312500000000    0.000000000000       2
   -0.264705882353    0.312500000000    0.000000000000       2
   -0.235294117647    0.312500000000    0.000000000000       2
   -0.205882352941    0.312500000000    0.000000000000       2
   -0.176470588235    0.312500000000    0.000000000000       2
   -0.147058823529    0.312500000000    0.000000000000       2
   -0.117647058824    0.312500000000    0.000000000000       2
   -0.088235294118    0.312500000000    0.000000000000       2
   -0.058823529412    0.312500000000    0.000000000000       2
   -0.029411764706    0.312500000000    0.000000000000       2
    0.000000000000    0.343750000000    0.000000000000       2
    0.029411764706    0.343750000000    0.000000000000       2
    0.058823529412    0.343750000000    0.000000000000       2
    0.088235294118    0.343750000000    0.000000000000       2
    0.117647058824    0.343750000000    0.000000000000       2
    0.147058823529    0.343750000000    0.000000000000       2
    0.176470588235    0.343750000000    0.000000000000       2
    0.205882352941    0.343750000000    0.000000000000       2
    0.235294117647    0.343750000000    0.000000000000       2
    0.264705882353    0.343750000000    0.000000000000       2
    0.294117647059    0.343750000000    0.000000000000       2
    0.323529411765    0.343750000000    0.000000000000       2
    0.352941176471    0.343750000000    0.000000000000       2
    0.382352941176    0.343750000000    0.000000000000       2
    0.411764705882    0.343750000000    0.000000000000       2
    0.441176470588    0.343750000000    0.000000000000       2
    0.470588235294    0.343750000000    0.000000000000       2
    0.500000000000    0.343750000000    0.000000000000       2
   -0.470588235294    0.343750000000    0.000000000000       2
   -0.441176470588    0.343750000000    0.000000000000       2
   -0.411764705882    0.343750000000    0.000000000000       2
   -0.382352941176    0.343750000000    0.000000000000       2
   -0.352941176471    0.343750000000    0.000000000000       2
   -0.323529411765    0.343750000000    0.000000000000       2
   -0.294117647059    0.343750000000    0.000000000000       2
   -0.264705882353    0.343750000000    0.000000000000       2
   -0.235294117647    0.343750000000    0.000000000000       2
   -0.205882352941    0.343750000000    0.000000000000       2
   -0.176470588235    0.343750000000    0.000000000000       2
   -0.147058823529    0.343750000000    0.000000000000       2
   -0.117647058824    0.343750000000    0.000000000000       2
   -0.088235294118    0.343750000000    0.000000000000       2
   -0.058823529412    0.343750000000    0.000000000000       2
   -0.029411764706    0.343750000000    0.000000000000       2
    0.000000000000    0.375000000000    0.000000000000       2
    0.029411764706    0.375000000000    0.000000000000       2
    0.058823529412    0.375000000000    0.000000000000       2
    0.088235294118    0.375000000000    0.000000000000       2
    0.117647058824    0.375000000000    0.000000000000       2
    0.147058823529    0.375000000000    0.000000000000       2
    0.176470588235    0.375000000000    0.000000000000       2
    0.205882352941    0.375000000000    0.000000000000       2
    0.235294117647    0.375000000000    0.000000000000       2
    0.264705882353    0.375000000000    0.000000000000       2
    0.294117647059    0.375000000000    0.000000000000       2
    0.323529411765    0.375000000000    0.000000000000       2
    0.352941176471    0.375000000000    0.000000000000       2
    0.382352941176    0.375000000000    0.000000000000       2
    0.411764705882    0.375000000000    0.000000000000       2
    0.441176470588    0.375000000000    0.000000000000       2
    0.470588235294    0.375000000000    0.000000000000       2
    0.500000000000    0.375000000000    0.000000000000       2
   -0.470588235294    0.375000000000    0.000000000000       2
   -0.441176470588    0.375000000000    0.000000000000       2
   -0.411764705882    0.375000000000    0.000000000000       2
   -0.382352941176    0.375000000000    0.000000000000       2
   -0.352941176471    0.375000000000    0.000000000000       2
   -0.323529411765    0.375000000000    0.000000000000       2
   -0.294117647059    0.375000000000    0.000000000000       2
   -0.264705882353    0.375000000000    0.000000000000       2
   -0.235294117647    0.375000000000    0.000000000000       2
   -0.205882352941    0.375000000000    0.000000000000       2
   -0.176470588235    0.375000000000    0.000000000000       2
   -0.147058823529    0.375000000000    0.000000000000       2
   -0.117647058824    0.375000000000    0.000000000000       2
   -0.088235294118    0.375000000000    0.000000000000       2
   -0.058823529412    0.375000000000    0.000000000000       2
   -0.029411764706    0.375000000000    0.000000000000       2
    0.000000000000    0.406250000000    0.000000000000       2
    0.029411764706    0.406250000000    0.000000000000       2
    0.058823529412    0.406250000000    0.000000000000       2
    0.088235294118    0.406250000000    0.000000000000       2
    0.117647058824    0.406250000000    0.000000000000       2
    0.147058823529    0.406250000000    0.000000000000       2
    0.176470588235    0.406250000000    0.000000000000       2
    0.205882352941    0.406250000000    0.000000000000       2
    0.235294117647    0.406250000000    0.000000000000       2
    0.264705882353    0.406250000000    0.000000000000       2
    0.294117647059    0.406250000000    0.000000000000       2
    0.323529411765    0.406250000000    0.000000000000       2
    0.352941176471    0.406250000000    0.000000000000       2
    0.382352941176    0.406250000000    0.000000000000       2
    0.411764705882    0.406250000000    0.000000000000       2
    0.441176470588    0.406250000000    0.000000000000       2
    0.470588235294    0.406250000000    0.000000000000       2
    0.500000000000    0.406250000000    0.000000000000       2
   -0.470588235294    0.406250000000    0.000000000000       2
   -0.441176470588    0.406250000000    0.000000000000       2
   -0.411764705882    0.406250000000    0.000000000000       2
   -0.382352941176    0.406250000000    0.000000000000       2
   -0.352941176471    0.406250000000    0.000000000000       2
   -0.323529411765    0.406250000000    0.000000000000       2
   -0.294117647059    0.406250000000    0.000000000000       2
   -0.264705882353    0.406250000000    0.000000000000       2
   -0.235294117647    0.406250000000    0.000000000000       2
   -0.205882352941    0.406250000000    0.000000000000       2
   -0.176470588235    0.406250000000    0.000000000000       2
   -0.147058823529    0.406250000000    0.000000000000       2
   -0.117647058824    0.406250000000    0.000000000000       2
   -0.088235294118    0.406250000000    0.000000000000       2
   -0.058823529412    0.406250000000    0.000000000000       2
   -0.029411764706    0.406250000000    0.000000000000       2
    0.000000000000    0.437500000000    0.000000000000       2
    0.029411764706    0.437500000000    0.000000000000       2
    0.058823529412    0.437500000000    0.000000000000       2
    0.088235294118    0.437500000000    0.000000000000       2
    0.117647058824    0.437500000000    0.000000000000       2
    0.147058823529    0.437500000000    0.000000000000       2
    0.176470588235    0.437500000000    0.000000000000       2
    0.205882352941    0.437500000000    0.000000000000       2
    0.235294117647    0.437500000000    0.000000000000       2
    0.264705882353    0.437500000000    0.000000000000       2
    0.294117647059    0.437500000000    0.000000000000       2
    0.323529411765    0.437500000000    0.000000000000       2
    0.352941176471    0.437500000000    0.000000000000       2
    0.382352941176    0.437500000000    0.000000000000       2