CONTCAR\(2)                             
   1.00000000000000     
    11.5354003905999996    0.0000000000000000    0.0000000000000000
     0.0000000000000000   13.3458003997999999    0.0000000000000000
     0.0000000000000000    0.0000000000000000   18.6074008942000013
   Zr   Ti   Te   O    H 
     6     6    24     2     1
Direct
  0.1534381612736294  0.2507987625699079  0.5045530391008546
  0.4912092008794666  0.2544440285259892  0.5024407198309531
  0.8277169378523550  0.2506047899491747  0.5043829838612598
  0.1578565101955513  0.7536191385893162  0.5031289848017207
  0.4906674656841651  0.7784209540527162  0.4991028751533277
  0.8234448531188994  0.7530969472051059  0.5028097622627501
  0.9905116113433238  0.9991290786235534  0.5037038809762596
  0.3214299786790243  0.0099980566148747  0.5031102552658225
  0.6598661438603498  0.0097818931181658  0.5030380601661517
  0.9899515282773249  0.5029710857512864  0.5028461272070770
  0.3014967942673785  0.4926856542484163  0.5011907664645616
  0.6795988608214097  0.4918264446659328  0.5012247987688814
  0.1584577209488425  0.0797179787010342  0.5990889019438930
  0.1512692541258153  0.4189068087030873  0.4045024662523983
  0.9905059051593882  0.3384655248307415  0.6025032130664948
  0.9906884686135426  0.1647663078837551  0.4058825117553340
  0.4908885756755130  0.0842698796795220  0.5974287720153542
  0.4905274977864360  0.4287774193963624  0.4127787425978372
  0.3230453154518630  0.3420537317516725  0.6010585778305675
  0.3231965452280323  0.1666862391389681  0.4055041955220057
  0.8230778639832486  0.0797357861005954  0.5990603405598234
  0.8304706638207177  0.4189257903121248  0.4042228026435038
  0.6585725568675327  0.3417335748009971  0.6011142665390332
  0.6581969514204044  0.1665518702977044  0.4052691571852275
  0.1531587083295291  0.5813762486834222  0.5984852557993959
  0.1560580326270280  0.9266029032692117  0.4087879357014235
  0.9904427703387377  0.8420846963981633  0.6011530313892576
  0.9907999756015672  0.6632468399341395  0.4058918468154927
  0.4919185558300001  0.5799618782698176  0.5683822773179398
  0.4907097546147473  0.9366902531375716  0.4029550974762313
  0.3232787773885749  0.8425176683380216  0.6007297596093073
  0.3259504979667333  0.6650579913446056  0.4104256371977927
  0.8269229348229012  0.5810474328138713  0.5986474027279917
  0.8249843419998381  0.9262332346957219  0.4087267989409388
  0.6581500216704227  0.8425181818458993  0.6006146783673467
  0.6552422390347664  0.6648764346050701  0.4101120056720676
  0.4034045787848021  0.6008918137200943  0.7154676256478190
  0.5054170325139852  0.5620896267302071  0.6790466400310250
  0.3553964771421939  0.5401072227031641  0.7190278185348808
 
  0.00000000E+00  0.00000000E+00  0.00000000E+00
  0.00000000E+00  0.00000000E+00  0.00000000E+00
  0.00000000E+00  0.00000000E+00  0.00000000E+00
  0.00000000E+00  0.00000000E+00  0.00000000E+00
  0.00000000E+00  0.00000000E+00  0.00000000E+00
  0.00000000E+00  0.00000000E+00  0.00000000E+00
  0.00000000E+00  0.00000000E+00  0.00000000E+00
  0.00000000E+00  0.00000000E+00  0.00000000E+00
  0.00000000E+00  0.00000000E+00  0.00000000E+00
  0.00000000E+00  0.00000000E+00  0.00000000E+00
  0.00000000E+00  0.00000000E+00  0.00000000E+00
  0.00000000E+00  0.00000000E+00  0.00000000E+00
  0.00000000E+00  0.00000000E+00  0.00000000E+00
  0.00000000E+00  0.00000000E+00  0.00000000E+00
  0.00000000E+00  0.00000000E+00  0.00000000E+00
  0.00000000E+00  0.00000000E+00  0.00000000E+00
  0.00000000E+00  0.00000000E+00  0.00000000E+00
  0.00000000E+00  0.00000000E+00  0.00000000E+00
  0.00000000E+00  0.00000000E+00  0.00000000E+00
  0.00000000E+00  0.00000000E+00  0.00000000E+00
  0.00000000E+00  0.00000000E+00  0.00000000E+00
  0.00000000E+00  0.00000000E+00  0.00000000E+00
  0.00000000E+00  0.00000000E+00  0.00000000E+00
  0.00000000E+00  0.00000000E+00  0.00000000E+00
  0.00000000E+00  0.00000000E+00  0.00000000E+00
  0.00000000E+00  0.00000000E+00  0.00000000E+00
  0.00000000E+00  0.00000000E+00  0.00000000E+00
  0.00000000E+00  0.00000000E+00  0.00000000E+00
  0.00000000E+00  0.00000000E+00  0.00000000E+00
  0.00000000E+00  0.00000000E+00  0.00000000E+00
  0.00000000E+00  0.00000000E+00  0.00000000E+00
  0.00000000E+00  0.00000000E+00  0.00000000E+00
  0.00000000E+00  0.00000000E+00  0.00000000E+00
  0.00000000E+00  0.00000000E+00  0.00000000E+00
  0.00000000E+00  0.00000000E+00  0.00000000E+00
  0.00000000E+00  0.00000000E+00  0.00000000E+00
  0.00000000E+00  0.00000000E+00  0.00000000E+00
  0.00000000E+00  0.00000000E+00  0.00000000E+00
  0.00000000E+00  0.00000000E+00  0.00000000E+00
