CONTCAR\(3)                             
   1.00000000000000     
    13.6564998627000005    0.0000000000000000    0.0000000000000000
     0.0000000000000000   10.3198995589999996    0.0000000000000000
     0.0000000000000000    0.0000000000000000   19.5949993133999989
   Ta   Fe   Te   O 
     8     8    24     1
Direct
  0.0589134048943479  0.2441760871034973  0.4879297256079823
  0.1842240551896011  0.6383147033334111  0.5159570835220791
  0.3124391621922175  0.2372534812291384  0.4910086534736092
  0.4408047810690401  0.6382630601832314  0.5159841632286384
  0.5660633263628997  0.2443435294542121  0.4879340765664473
  0.6886026569108611  0.6413680093895985  0.5145754891753214
  0.8124829159545636  0.2484001786726026  0.4881393895104409
  0.9363744543772268  0.6413300526015789  0.5145379086212473
  0.1913065433084871  0.0400473502202134  0.4941083750171811
  0.0589943316630107  0.8498879559553187  0.5119706868557427
  0.4337433296260161  0.0402345791967011  0.4942390550252095
  0.3124896488350493  0.8373727692411904  0.5123852959505024
  0.6894341180333858  0.0402741629930259  0.4902107904144887
  0.5659371701225518  0.8498453001835130  0.5120365857275458
  0.9356490877304041  0.0400203285196933  0.4900969157138669
  0.8127067112903010  0.8493121379287969  0.5116736548070783
  0.1612140326742107  0.3936541798895072  0.5890928961148335
  0.0608342870227633  0.5016382541165750  0.4224360353763086
  0.1862775023404140  0.8354984283403240  0.4158589419650626
  0.0612353980880399  0.0554463032780585  0.5892494505495812
  0.0604085721613278  0.7121302730372354  0.6205241051362247
  0.1872083093867520  0.1767031816689542  0.3841786840001465
  0.4639004185047585  0.3939015455468786  0.5892267407783085
  0.3124426830623271  0.4938023348123808  0.4285590278344282
  0.4386899035766995  0.8358080593833346  0.4159902286439423
  0.3124040242345948  0.0246010669449210  0.5923592565737392
  0.3124316716143852  0.6936608102379692  0.6208709751552656
  0.4376644089556914  0.1768157430087207  0.3843264963823302
  0.6890150022945291  0.3877143349029157  0.5834695149784873
  0.5640785972977626  0.5019008683446365  0.4223971251450723
  0.6885467245792622  0.8341977892931228  0.4126582402145437
  0.5639388853634515  0.0555373806654038  0.5892444328422120
  0.5646969154283416  0.7119715090999092  0.6206209716143104
  0.6884325265861643  0.1804896942462713  0.3819883185699341
  0.9359437346943479  0.3878355891234656  0.5833597309876409
  0.8124404125774096  0.5027923799964126  0.4218058812028650
  0.9366623272959332  0.8336865012218518  0.4124465624773411
  0.8125986158178772  0.0563541119966075  0.5896211337539834
  0.8125002674284748  0.7086818642406559  0.6201167796798751
  0.9364707275861243  0.1805027698671553  0.3820074005839482
  0.3125685018684211  0.3242613755310305  0.5813332112222356
 
  0.00000000E+00  0.00000000E+00  0.00000000E+00
  0.00000000E+00  0.00000000E+00  0.00000000E+00
  0.00000000E+00  0.00000000E+00  0.00000000E+00
  0.00000000E+00  0.00000000E+00  0.00000000E+00
  0.00000000E+00  0.00000000E+00  0.00000000E+00
  0.00000000E+00  0.00000000E+00  0.00000000E+00
  0.00000000E+00  0.00000000E+00  0.00000000E+00
  0.00000000E+00  0.00000000E+00  0.00000000E+00
  0.00000000E+00  0.00000000E+00  0.00000000E+00
  0.00000000E+00  0.00000000E+00  0.00000000E+00
  0.00000000E+00  0.00000000E+00  0.00000000E+00
  0.00000000E+00  0.00000000E+00  0.00000000E+00
  0.00000000E+00  0.00000000E+00  0.00000000E+00
  0.00000000E+00  0.00000000E+00  0.00000000E+00
  0.00000000E+00  0.00000000E+00  0.00000000E+00
  0.00000000E+00  0.00000000E+00  0.00000000E+00
  0.00000000E+00  0.00000000E+00  0.00000000E+00
  0.00000000E+00  0.00000000E+00  0.00000000E+00
  0.00000000E+00  0.00000000E+00  0.00000000E+00
  0.00000000E+00  0.00000000E+00  0.00000000E+00
  0.00000000E+00  0.00000000E+00  0.00000000E+00
  0.00000000E+00  0.00000000E+00  0.00000000E+00
  0.00000000E+00  0.00000000E+00  0.00000000E+00
  0.00000000E+00  0.00000000E+00  0.00000000E+00
  0.00000000E+00  0.00000000E+00  0.00000000E+00
  0.00000000E+00  0.00000000E+00  0.00000000E+00
  0.00000000E+00  0.00000000E+00  0.00000000E+00
  0.00000000E+00  0.00000000E+00  0.00000000E+00
  0.00000000E+00  0.00000000E+00  0.00000000E+00
  0.00000000E+00  0.00000000E+00  0.00000000E+00
  0.00000000E+00  0.00000000E+00  0.00000000E+00
  0.00000000E+00  0.00000000E+00  0.00000000E+00
  0.00000000E+00  0.00000000E+00  0.00000000E+00
  0.00000000E+00  0.00000000E+00  0.00000000E+00
  0.00000000E+00  0.00000000E+00  0.00000000E+00
  0.00000000E+00  0.00000000E+00  0.00000000E+00
  0.00000000E+00  0.00000000E+00  0.00000000E+00
  0.00000000E+00  0.00000000E+00  0.00000000E+00
  0.00000000E+00  0.00000000E+00  0.00000000E+00
  0.00000000E+00  0.00000000E+00  0.00000000E+00
  0.00000000E+00  0.00000000E+00  0.00000000E+00
