CONTCAR\(4)                             
   1.00000000000000     
    14.0314998627000005    0.0000000000000000    0.0000000000000000
     0.0000000000000000   12.8740997313999994    0.0000000000000000
     0.0000000000000000    0.0000000000000000   20.5195999146000005
   Ta   Ni   Te   O    H 
    16    32    32     1     1
Direct
  0.9997793358914464  0.2031221605644120  0.4793430739109752
  0.9999003811829610  0.4526103092254417  0.5219832160173823
  0.2489477060071934  0.2015265918717759  0.4791318042979427
  0.2506899923633199  0.4532547781138234  0.5223863498906880
  0.4993988020821902  0.2012225375492633  0.4776147430925803
  0.4983540031397169  0.4487792055269892  0.5214302013036516
  0.7497299422454589  0.2029160714193168  0.4782575358976686
  0.7484445581674493  0.4528423074085737  0.5222442113834305
  0.9993426822490292  0.7019177082815133  0.4791866906067241
  0.9991951759673867  0.9512531699948141  0.5216658641118599
  0.2510036437593541  0.7016133875465513  0.4800423520417922
  0.2492457482935251  0.9515336514808226  0.5219730468512509
  0.5009708637440013  0.7061446499150890  0.4775297428436716
  0.5009488310304420  0.9514152684168238  0.5201270390384707
  0.7492704819146283  0.6996307088209832  0.4779634896869354
  0.7504277212252077  0.9545201543378781  0.5194839327627889
  0.1238885853649876  0.1035539762563786  0.5564900236199009
  0.1264380006980019  0.3548290878278522  0.4450907075354138
  0.1249976582574988  0.3001052592148952  0.5567781068123807
  0.1238249380736889  0.0492713538144969  0.4447585562621583
  0.3754290434111027  0.1036399377288717  0.5555594583638808
  0.3734771750737664  0.3543198189607040  0.4439131899721147
  0.3743207775199053  0.2986432058955089  0.5553568035443490
  0.3734880731947641  0.0499621247481699  0.4439194612894681
  0.6242951512268107  0.1034689777465587  0.5547914939279508
  0.6247285083343073  0.3545560836897508  0.4440149491141554
  0.6243473793713719  0.2986267876383693  0.5553805238007143
  0.6251502661682622  0.0514373205957028  0.4424550565691518
  0.8750611738382688  0.1045724497110001  0.5556484956842169
  0.8741254278117978  0.3552909152546277  0.4449778000144207
  0.8740389073677477  0.3000320227476720  0.5564430265875089
  0.8762792187712307  0.0504271647078056  0.4437011158371718
  0.1264538252905538  0.6033127752297318  0.5561935577322004
  0.1244954201794428  0.8537941141905847  0.4448696268036869
  0.1237003704743671  0.7994919313388849  0.5564730906426476
  0.1242488191090843  0.5499502344385547  0.4445550170342116
  0.3908371411481824  0.6063336692886594  0.5587971688097468
  0.3730176937036020  0.8546260979067242  0.4446169513209384
  0.3798000731212170  0.7996076065461679  0.5570830174831940
  0.3735616000288289  0.5510286273112683  0.4461594646850529
  0.6067531079630157  0.6068457122695250  0.5599269722965872
  0.6255902386765655  0.8557567969992306  0.4410928965293905
  0.6318385752692137  0.8009523547867730  0.5518010814819405
  0.6248915733656730  0.5511897994574184  0.4465728743146897
  0.8704233410907278  0.6032466380591543  0.5558652765824874
  0.8736543463712536  0.8541861788353202  0.4439225900122707
  0.8704479404602807  0.7991465199339984  0.5558482750343572
  0.8761619813110855  0.5498869767436503  0.4441685408238030
  0.1240653736770199  0.4517627435520737  0.6345606788032470
  0.1243253616278110  0.2022761932609072  0.3671721391616671
  0.0003343680072803  0.4508275594578706  0.3775804889277836
  0.9994869560143869  0.2025780548296297  0.6234823142729908
  0.3740038154976872  0.4491961157240141  0.6340973715045379
  0.3735407824081491  0.2022841444767067  0.3662423005004811
  0.2497022113947409  0.4534982406885746  0.3772794553921912
  0.2499271625998460  0.2008614882308208  0.6231495831972609
  0.6254144619210962  0.4498687158527801  0.6339263621530904
  0.6245234788353997  0.2038367607454390  0.3653745365924763
  0.4993779037226531  0.4530348345432529  0.3782060003219456
  0.4995735133075669  0.2014242268100332  0.6220564886128344
  0.8762833959522212  0.4513885350963136  0.6342042432063195
  0.8748524615246112  0.2036831262045524  0.3666627909154698
  0.7496308712979882  0.4534405818777643  0.3779526876906729
  0.7492861713523453  0.2013165078608239  0.6225775832883258
  0.1235734772332862  0.9509988546104253  0.6342951832880033
  0.1257729186195249  0.7021200268802446  0.3675111077606203
  0.9998982057552723  0.9508825716746472  0.3770364266050237
  0.9979336188030246  0.7005047352838432  0.6218785069129495
  0.3729441237975379  0.9528060291591132  0.6334970577669381
  0.3744636724566277  0.7020831552783733  0.3667151214533746
  0.2486177269810170  0.9521239535141888  0.3771461160038427
  0.2525625035963870  0.6996950392893382  0.6211579932961087
  0.6230300687020360  0.9501840858795205  0.6320812332314603
  0.6251619998770295  0.7008694811417868  0.3653490903927334
  0.4985707285505825  0.9531324097439722  0.3765165522248211
  0.4988664117813784  0.7126694009204115  0.6365490300969867
  0.8732336108658032  0.9517462729555604  0.6331138649075001
  0.8752263506769538  0.7019781469269191  0.3663761186074268
  0.7506342257372793  0.9544440812536124  0.3753212609985042
  0.7445519973663153  0.6971301349378436  0.6222339030453981
  0.4381948136609708  0.6250684226487024  0.7154780373181282
  0.4760385870882615  0.6431706283417711  0.7539104632888325
 
  0.00000000E+00  0.00000000E+00  0.00000000E+00
  0.00000000E+00  0.00000000E+00  0.00000000E+00
  0.00000000E+00  0.00000000E+00  0.00000000E+00
  0.00000000E+00  0.00000000E+00  0.00000000E+00
  0.00000000E+00  0.00000000E+00  0.00000000E+00
  0.00000000E+00  0.00000000E+00  0.00000000E+00
  0.00000000E+00  0.00000000E+00  0.00000000E+00
  0.00000000E+00  0.00000000E+00  0.00000000E+00
  0.00000000E+00  0.00000000E+00  0.00000000E+00
  0.00000000E+00  0.00000000E+00  0.00000000E+00
  0.00000000E+00  0.00000000E+00  0.00000000E+00
  0.00000000E+00  0.00000000E+00  0.00000000E+00
  0.00000000E+00  0.00000000E+00  0.00000000E+00
  0.00000000E+00  0.00000000E+00  0.00000000E+00
  0.00000000E+00  0.00000000E+00  0.00000000E+00
  0.00000000E+00  0.00000000E+00  0.00000000E+00
  0.00000000E+00  0.00000000E+00  0.00000000E+00
  0.00000000E+00  0.00000000E+00  0.00000000E+00
  0.00000000E+00  0.00000000E+00  0.00000000E+00
  0.00000000E+00  0.00000000E+00  0.00000000E+00
  0.00000000E+00  0.00000000E+00  0.00000000E+00
  0.00000000E+00  0.00000000E+00  0.00000000E+00
  0.00000000E+00  0.00000000E+00  0.00000000E+00
  0.00000000E+00  0.00000000E+00  0.00000000E+00
  0.00000000E+00  0.00000000E+00  0.00000000E+00
  0.00000000E+00  0.00000000E+00  0.00000000E+00
  0.00000000E+00  0.00000000E+00  0.00000000E+00
  0.00000000E+00  0.00000000E+00  0.00000000E+00
  0.00000000E+00  0.00000000E+00  0.00000000E+00
  0.00000000E+00  0.00000000E+00  0.00000000E+00
  0.00000000E+00  0.00000000E+00  0.00000000E+00
  0.00000000E+00  0.00000000E+00  0.00000000E+00
  0.00000000E+00  0.00000000E+00  0.00000000E+00
  0.00000000E+00  0.00000000E+00  0.00000000E+00
  0.00000000E+00  0.00000000E+00  0.00000000E+00
  0.00000000E+00  0.00000000E+00  0.00000000E+00
  0.00000000E+00  0.00000000E+00  0.00000000E+00
  0.00000000E+00  0.00000000E+00  0.00000000E+00
  0.00000000E+00  0.00000000E+00  0.00000000E+00
  0.00000000E+00  0.00000000E+00  0.00000000E+00
  0.00000000E+00  0.00000000E+00  0.00000000E+00
  0.00000000E+00  0.00000000E+00  0.00000000E+00
  0.00000000E+00  0.00000000E+00  0.00000000E+00
  0.00000000E+00  0.00000000E+00  0.00000000E+00
  0.00000000E+00  0.00000000E+00  0.00000000E+00
  0.00000000E+00  0.00000000E+00  0.00000000E+00
  0.00000000E+00  0.00000000E+00  0.00000000E+00
  0.00000000E+00  0.00000000E+00  0.00000000E+00
  0.00000000E+00  0.00000000E+00  0.00000000E+00
  0.00000000E+00  0.00000000E+00  0.00000000E+00
  0.00000000E+00  0.00000000E+00  0.00000000E+00
  0.00000000E+00  0.00000000E+00  0.00000000E+00
  0.00000000E+00  0.00000000E+00  0.00000000E+00
  0.00000000E+00  0.00000000E+00  0.00000000E+00
  0.00000000E+00  0.00000000E+00  0.00000000E+00
  0.00000000E+00  0.00000000E+00  0.00000000E+00
  0.00000000E+00  0.00000000E+00  0.00000000E+00
  0.00000000E+00  0.00000000E+00  0.00000000E+00
  0.00000000E+00  0.00000000E+00  0.00000000E+00
  0.00000000E+00  0.00000000E+00  0.00000000E+00
  0.00000000E+00  0.00000000E+00  0.00000000E+00
  0.00000000E+00  0.00000000E+00  0.00000000E+00
  0.00000000E+00  0.00000000E+00  0.00000000E+00
  0.00000000E+00  0.00000000E+00  0.00000000E+00
  0.00000000E+00  0.00000000E+00  0.00000000E+00
  0.00000000E+00  0.00000000E+00  0.00000000E+00
  0.00000000E+00  0.00000000E+00  0.00000000E+00
  0.00000000E+00  0.00000000E+00  0.00000000E+00
  0.00000000E+00  0.00000000E+00  0.00000000E+00
  0.00000000E+00  0.00000000E+00  0.00000000E+00
  0.00000000E+00  0.00000000E+00  0.00000000E+00
  0.00000000E+00  0.00000000E+00  0.00000000E+00
  0.00000000E+00  0.00000000E+00  0.00000000E+00
  0.00000000E+00  0.00000000E+00  0.00000000E+00
  0.00000000E+00  0.00000000E+00  0.00000000E+00
  0.00000000E+00  0.00000000E+00  0.00000000E+00
  0.00000000E+00  0.00000000E+00  0.00000000E+00
  0.00000000E+00  0.00000000E+00  0.00000000E+00
  0.00000000E+00  0.00000000E+00  0.00000000E+00
  0.00000000E+00  0.00000000E+00  0.00000000E+00
  0.00000000E+00  0.00000000E+00  0.00000000E+00
  0.00000000E+00  0.00000000E+00  0.00000000E+00
