CONTCAR\(17)                            
   1.00000000000000     
    11.8264999389999996    0.0000000000000000    0.0000000000000000
    -5.9132499694999998   10.2420493849999996    0.0000000000000000
     0.0000000000000000    0.0000000000000000   18.5140991210999992
   Hf   Te
     9    18
Direct
  0.0000000000000000  0.0000000000000000  0.5000000000000000
  0.3333299999999966  0.0000000000000000  0.5000000000000000
  0.6666700399999996  0.0000000000000000  0.5000000000000000
  0.0000000029999967  0.3333300070000007  0.5000000000000000
  0.3333300039999969  0.3333300070000007  0.5000000000000000
  0.6666700430000034  0.3333300070000007  0.5000000000000000
  0.9999999919999993  0.6666700230000018  0.5000000000000000
  0.3333299920000030  0.6666700230000018  0.5000000000000000
  0.6666700319999990  0.6666700230000018  0.5000000000000000
  0.1111099949999996  0.2222199890000027  0.4037108242904921
  0.2222199970000034  0.1111099949999996  0.5962892267095086
  0.4444399950000033  0.2222199890000027  0.4037108242904921
  0.5555599970000031  0.1111099949999996  0.5962892267095086
  0.7777799540000032  0.2222199890000027  0.4037108242904921
  0.8888899969999997  0.1111099949999996  0.5962892267095086
  0.1111100130000011  0.5555600060000003  0.4037108242904921
  0.2222199890000027  0.4444399779999983  0.5962892267095086
  0.4444400229999985  0.5555600060000003  0.4037108242904921
  0.5555599679999972  0.4444399779999983  0.5962892267095086
  0.7777800029999966  0.5555600060000003  0.4037108242904921
  0.8888899889999990  0.4444399779999983  0.5962892267095086
  0.1111100059999970  0.8888900119999974  0.4037108242904921
  0.2222200180000016  0.7777799950000031  0.5962892267095086
  0.4444400069999972  0.8888900119999974  0.4037108242904921
  0.5555599970000031  0.7777799950000031  0.5962892267095086
  0.7777799659999971  0.8888900119999974  0.4037108242904921
  0.8888900379999995  0.7777799950000031  0.5962892267095086
 
  0.00000000E+00  0.00000000E+00  0.00000000E+00
  0.00000000E+00  0.00000000E+00  0.00000000E+00
  0.00000000E+00  0.00000000E+00  0.00000000E+00
  0.00000000E+00  0.00000000E+00  0.00000000E+00
  0.00000000E+00  0.00000000E+00  0.00000000E+00
  0.00000000E+00  0.00000000E+00  0.00000000E+00
  0.00000000E+00  0.00000000E+00  0.00000000E+00
  0.00000000E+00  0.00000000E+00  0.00000000E+00
  0.00000000E+00  0.00000000E+00  0.00000000E+00
  0.00000000E+00  0.00000000E+00  0.00000000E+00
  0.00000000E+00  0.00000000E+00  0.00000000E+00
  0.00000000E+00  0.00000000E+00  0.00000000E+00
  0.00000000E+00  0.00000000E+00  0.00000000E+00
  0.00000000E+00  0.00000000E+00  0.00000000E+00
  0.00000000E+00  0.00000000E+00  0.00000000E+00
  0.00000000E+00  0.00000000E+00  0.00000000E+00
  0.00000000E+00  0.00000000E+00  0.00000000E+00
  0.00000000E+00  0.00000000E+00  0.00000000E+00
  0.00000000E+00  0.00000000E+00  0.00000000E+00
  0.00000000E+00  0.00000000E+00  0.00000000E+00
  0.00000000E+00  0.00000000E+00  0.00000000E+00
  0.00000000E+00  0.00000000E+00  0.00000000E+00
  0.00000000E+00  0.00000000E+00  0.00000000E+00
  0.00000000E+00  0.00000000E+00  0.00000000E+00
  0.00000000E+00  0.00000000E+00  0.00000000E+00
  0.00000000E+00  0.00000000E+00  0.00000000E+00
  0.00000000E+00  0.00000000E+00  0.00000000E+00
