CONTCAR\(4)                             
   1.00000000000000     
    12.9882001877000004    0.0000000000000000    0.0000000000000000
     0.0000000000000000   20.1457004546999983    0.0000000000000000
     0.0000000000000000    0.0000000000000000   19.8038997650000006
   Ce   I    O 
    12    36     1
Direct
  0.1672463608481110  0.0012752003957530  0.5041063300599262
  0.0000053988997664  0.2473689563698827  0.4874291567790010
  0.4999544274821019  0.0017698910208779  0.5037855577658803
  0.3335481288581548  0.2537337057997320  0.4939269172331748
  0.8326597270139118  0.0013273666390390  0.5040225047764011
  0.6664624632804035  0.2537841257924711  0.4940870691368389
  0.1660408969568437  0.4989192097887596  0.5013760361194812
  0.0000724928600491  0.7522294947382520  0.4922631222308738
  0.5001776055488634  0.5054139510913558  0.5533027006526865
  0.3329061650185139  0.7510527429072056  0.4955262510934588
  0.8342868714268050  0.4989890397603460  0.5018282308411841
  0.6668385892756206  0.7509726723092811  0.4957675983845533
  0.9997895819802025  0.4083402728959840  0.4183816839951362
  0.1575492758540094  0.3375419262066970  0.5715646508785639
  0.1659381704402421  0.1576365782980886  0.5711748006302813
  0.0000007243899205  0.0912695497029503  0.4198255943557783
  0.9999032623997053  0.0020225738163475  0.6197022452716467
  0.1701261216458150  0.2502672739558562  0.3753803909937474
  0.3380290705650779  0.4086309137787367  0.4326914764342717
  0.4999323327566145  0.3398356751471212  0.5863742212871301
  0.4999225560375393  0.1592838605848357  0.5726317911082717
  0.3341565808236595  0.0927218529318452  0.4227411295503529
  0.3332468448176868  0.0024248574294461  0.6198989796970196
  0.5001011847970318  0.2521141537153184  0.3786966616528957
  0.6621489389868387  0.4086941818153207  0.4332089474772829
  0.8427501689514614  0.3374976526407281  0.5717580777850912
  0.8339165684083483  0.1575943048920720  0.5711670598311898
  0.6657440207440786  0.0927253953423843  0.4227380274040939
  0.6666202397118681  0.0024462270882637  0.6198802029927535
  0.8298383307109560  0.2502663131644951  0.3754620622547691
  0.9999956405933546  0.9094377902271233  0.4228293950741246
  0.1656253257026634  0.8450010216216626  0.5738044841030359
  0.1614561659659515  0.6635260158409579  0.5754176561307460
  0.9999921122621700  0.5929564814118251  0.4222028708651280
  0.0003732451938419  0.5006394587906797  0.6141923706798877
  0.1681866633354119  0.7500209790153036  0.3781912308383966
  0.3328228695291457  0.9098418204141012  0.4226007810317824
  0.4999045946103422  0.8481207847076817  0.5723931054768272
  0.4997501293734032  0.6705855157035074  0.5868326820607948
  0.3402210804679555  0.5924009349158652  0.4373804769066965
  0.2815681528781582  0.4945695294143988  0.6320303732557377
  0.5000527813642393  0.7497613779779471  0.3801913515690387
  0.6670577763119425  0.9099254317253340  0.4225346776846521
  0.8342498730862005  0.8450372785369922  0.5737488754382269
  0.8388675471511107  0.6636097278888471  0.5756721459487935
  0.6599334577776119  0.5923332568200621  0.4377661276297076
  0.7188620336353182  0.4946002669279466  0.6324184272901050
  0.8314201071973315  0.7499723021788611  0.3784548843435189
  0.5003174860736834  0.5188303528614426  0.6438785879990476
 
  0.00000000E+00  0.00000000E+00  0.00000000E+00
  0.00000000E+00  0.00000000E+00  0.00000000E+00
  0.00000000E+00  0.00000000E+00  0.00000000E+00
  0.00000000E+00  0.00000000E+00  0.00000000E+00
  0.00000000E+00  0.00000000E+00  0.00000000E+00
  0.00000000E+00  0.00000000E+00  0.00000000E+00
  0.00000000E+00  0.00000000E+00  0.00000000E+00
  0.00000000E+00  0.00000000E+00  0.00000000E+00
  0.00000000E+00  0.00000000E+00  0.00000000E+00
  0.00000000E+00  0.00000000E+00  0.00000000E+00
  0.00000000E+00  0.00000000E+00  0.00000000E+00
  0.00000000E+00  0.00000000E+00  0.00000000E+00
  0.00000000E+00  0.00000000E+00  0.00000000E+00
  0.00000000E+00  0.00000000E+00  0.00000000E+00
  0.00000000E+00  0.00000000E+00  0.00000000E+00
  0.00000000E+00  0.00000000E+00  0.00000000E+00
  0.00000000E+00  0.00000000E+00  0.00000000E+00
  0.00000000E+00  0.00000000E+00  0.00000000E+00
  0.00000000E+00  0.00000000E+00  0.00000000E+00
  0.00000000E+00  0.00000000E+00  0.00000000E+00
  0.00000000E+00  0.00000000E+00  0.00000000E+00
  0.00000000E+00  0.00000000E+00  0.00000000E+00
  0.00000000E+00  0.00000000E+00  0.00000000E+00
  0.00000000E+00  0.00000000E+00  0.00000000E+00
  0.00000000E+00  0.00000000E+00  0.00000000E+00
  0.00000000E+00  0.00000000E+00  0.00000000E+00
  0.00000000E+00  0.00000000E+00  0.00000000E+00
  0.00000000E+00  0.00000000E+00  0.00000000E+00
  0.00000000E+00  0.00000000E+00  0.00000000E+00
  0.00000000E+00  0.00000000E+00  0.00000000E+00
  0.00000000E+00  0.00000000E+00  0.00000000E+00
  0.00000000E+00  0.00000000E+00  0.00000000E+00
  0.00000000E+00  0.00000000E+00  0.00000000E+00
  0.00000000E+00  0.00000000E+00  0.00000000E+00
  0.00000000E+00  0.00000000E+00  0.00000000E+00
  0.00000000E+00  0.00000000E+00  0.00000000E+00
  0.00000000E+00  0.00000000E+00  0.00000000E+00
  0.00000000E+00  0.00000000E+00  0.00000000E+00
  0.00000000E+00  0.00000000E+00  0.00000000E+00
  0.00000000E+00  0.00000000E+00  0.00000000E+00
  0.00000000E+00  0.00000000E+00  0.00000000E+00
  0.00000000E+00  0.00000000E+00  0.00000000E+00
  0.00000000E+00  0.00000000E+00  0.00000000E+00
  0.00000000E+00  0.00000000E+00  0.00000000E+00
  0.00000000E+00  0.00000000E+00  0.00000000E+00
  0.00000000E+00  0.00000000E+00  0.00000000E+00
  0.00000000E+00  0.00000000E+00  0.00000000E+00
  0.00000000E+00  0.00000000E+00  0.00000000E+00
  0.00000000E+00  0.00000000E+00  0.00000000E+00
