CONTCAR\(6)                             
   1.00000000000000     
    12.9184999466000008    0.0000000000000000    0.0000000000000000
     0.0000000000000000   12.9184999466000008    0.0000000000000000
     0.0000000000000000    0.0000000000000000   24.0865993500000002
   Ho   Te   O 
    18    54     1
Direct
  0.1655376125469630  0.0027890551015446  0.5838720945674325
  0.9996727084663632  0.1663557123671353  0.4145105686618251
  0.4994286812180349  0.0000970674928240  0.5857239147528048
  0.3325944564310603  0.1657943617147239  0.4151810694762830
  0.8333399904280085  0.9999120654512126  0.5843472211904626
  0.6661254535773935  0.1657536254858769  0.4148119866888820
  0.1681489503275628  0.3348012567345009  0.5853055647961227
  0.9990964797690154  0.4993372610967057  0.4150530270076516
  0.5002605656913204  0.3298311587579548  0.5841242279833168
  0.3331515008052293  0.4997726196496544  0.4167193052809992
  0.8362418498369451  0.3321502098552571  0.5838959593418309
  0.6656076398998749  0.4997423532267788  0.4162926799263147
  0.1632864203564495  0.6668160654150270  0.5841024430483159
  0.9991171766309606  0.8326570237799160  0.4148180601558664
  0.5010715402211758  0.6678686363038011  0.5883710687792529
  0.3330142457437120  0.8323407628861759  0.4161366354040723
  0.8334901359590177  0.6661008297353277  0.5857999742367852
  0.6660290086055767  0.8326884236587446  0.4159662323241449
  0.9993744426905522  0.9993672698023488  0.3120031373882455
  0.1693182317981297  0.1690429423077973  0.6876557908339151
  0.9990174207032609  0.0058852384721888  0.6869307471138839
  0.1662265414041855  0.1662568948525021  0.3120659111180615
  0.1663103381558315  0.9988528926321152  0.4534662092557156
  0.0010474299374295  0.1677656080623606  0.5452847755774428
  0.3322005775573444  0.9990016733599489  0.3127277939670918
  0.5003229320381024  0.1655674212771743  0.6885149395958834
  0.3337789448594393  0.0022965333088010  0.6879752129999517
  0.4987194786727898  0.1656220919419837  0.3123565539813740
  0.4994646490240555  0.9993266146393935  0.4544201798945622
  0.3333211256898494  0.1664786337392599  0.5464392872914985
  0.6656792041706439  0.9987762522245873  0.3126789381249466
  0.8391310546659270  0.1654247669884938  0.6868672467435388
  0.6680841482098145  0.0016912725168154  0.6877590759488115
  0.8325406162301618  0.1658618521874260  0.3118099485292944
  0.8329891169741188  0.9996958409978234  0.4535644677173636
  0.6668897461941512  0.1651929652866002  0.5458124339022277
  0.9991241952759680  0.3329759951662723  0.3120547900993742
  0.1686614952157441  0.5051706417311124  0.6883193807813939
  0.0022998621208217  0.3359394429948495  0.6876938485391833
  0.1660165755071006  0.4992170579499273  0.3130743116888013
  0.1664925462147835  0.3333221357623017  0.4540867051719317
  0.9998312623266656  0.4999688914451141  0.5463447311303256
  0.3326842100219238  0.3330372214168094  0.3133269557619229
  0.5134161080631472  0.4955400535428183  0.6976393138623891
  0.3385752076005204  0.3354973660678056  0.6882649642431460
  0.4992870002008729  0.4995695240384279  0.3139050443986093
  0.4994707342189599  0.3320894863638557  0.4540249048399403
  0.3352108029337160  0.5016422505742781  0.5488078647629280
  0.6653753659398092  0.3324860679735551  0.3127448159681379
  0.8355973845596480  0.5005494686807026  0.6882172518619640
  0.6709787321288019  0.3295515372859867  0.6833572045736460
  0.8317653126755715  0.4993013656067760  0.3128382804844776
  0.8324090741031256  0.3330523957168410  0.4533948847917628
  0.6655715397474466  0.5000189073665098  0.5483029015661884
  0.9987279781986942  0.6655075347774257  0.3122864028403427
  0.1629866374955000  0.8374202734608147  0.6832192990575763
  0.9988077875977481  0.6671863426759828  0.6885782833636824
  0.1657607896382132  0.8322686479487018  0.3126760633978876
  0.1656100083464409  0.6659469094827415  0.4539383387723461
  0.9986185552937599  0.8334218734036867  0.5457919695843572
  0.3327739724297558  0.6657857742219875  0.3136839685419091
  0.5009120156496891  0.8358092141635893  0.6910541603341329
  0.3286230704331601  0.6797968495473086  0.6982520406835206
  0.4989895284510624  0.8325182945994101  0.3135194861161210
  0.4997346595636643  0.6664080090470677  0.4561135534506917
  0.3333083226820790  0.8320425489396825  0.5481030803517939
  0.6657851937017014  0.6661649808765446  0.3136280940701397
  0.8349492907126148  0.8347580181219527  0.6877918911609626
  0.6691893417288526  0.6680500728848386  0.6910575082290578
  0.8324151311240158  0.8326445626784889  0.3126687002202502
  0.8326314980272471  0.6659862050663818  0.4544236951569260
  0.6659738553703676  0.8326617264846661  0.5474852422734600
  0.4104740982104289  0.5764166586240265  0.7438642822625852
 
  0.00000000E+00  0.00000000E+00  0.00000000E+00
  0.00000000E+00  0.00000000E+00  0.00000000E+00
  0.00000000E+00  0.00000000E+00  0.00000000E+00
  0.00000000E+00  0.00000000E+00  0.00000000E+00
  0.00000000E+00  0.00000000E+00  0.00000000E+00
  0.00000000E+00  0.00000000E+00  0.00000000E+00
  0.00000000E+00  0.00000000E+00  0.00000000E+00
  0.00000000E+00  0.00000000E+00  0.00000000E+00
  0.00000000E+00  0.00000000E+00  0.00000000E+00
  0.00000000E+00  0.00000000E+00  0.00000000E+00
  0.00000000E+00  0.00000000E+00  0.00000000E+00
  0.00000000E+00  0.00000000E+00  0.00000000E+00
  0.00000000E+00  0.00000000E+00  0.00000000E+00
  0.00000000E+00  0.00000000E+00  0.00000000E+00
  0.00000000E+00  0.00000000E+00  0.00000000E+00
  0.00000000E+00  0.00000000E+00  0.00000000E+00
  0.00000000E+00  0.00000000E+00  0.00000000E+00
  0.00000000E+00  0.00000000E+00  0.00000000E+00
  0.00000000E+00  0.00000000E+00  0.00000000E+00
  0.00000000E+00  0.00000000E+00  0.00000000E+00
  0.00000000E+00  0.00000000E+00  0.00000000E+00
  0.00000000E+00  0.00000000E+00  0.00000000E+00
  0.00000000E+00  0.00000000E+00  0.00000000E+00
  0.00000000E+00  0.00000000E+00  0.00000000E+00
  0.00000000E+00  0.00000000E+00  0.00000000E+00
  0.00000000E+00  0.00000000E+00  0.00000000E+00
  0.00000000E+00  0.00000000E+00  0.00000000E+00
  0.00000000E+00  0.00000000E+00  0.00000000E+00
  0.00000000E+00  0.00000000E+00  0.00000000E+00
  0.00000000E+00  0.00000000E+00  0.00000000E+00
  0.00000000E+00  0.00000000E+00  0.00000000E+00
  0.00000000E+00  0.00000000E+00  0.00000000E+00
  0.00000000E+00  0.00000000E+00  0.00000000E+00
  0.00000000E+00  0.00000000E+00  0.00000000E+00
  0.00000000E+00  0.00000000E+00  0.00000000E+00
  0.00000000E+00  0.00000000E+00  0.00000000E+00
  0.00000000E+00  0.00000000E+00  0.00000000E+00
  0.00000000E+00  0.00000000E+00  0.00000000E+00
  0.00000000E+00  0.00000000E+00  0.00000000E+00
  0.00000000E+00  0.00000000E+00  0.00000000E+00
  0.00000000E+00  0.00000000E+00  0.00000000E+00
  0.00000000E+00  0.00000000E+00  0.00000000E+00
  0.00000000E+00  0.00000000E+00  0.00000000E+00
  0.00000000E+00  0.00000000E+00  0.00000000E+00
  0.00000000E+00  0.00000000E+00  0.00000000E+00
  0.00000000E+00  0.00000000E+00  0.00000000E+00
  0.00000000E+00  0.00000000E+00  0.00000000E+00
  0.00000000E+00  0.00000000E+00  0.00000000E+00
  0.00000000E+00  0.00000000E+00  0.00000000E+00
  0.00000000E+00  0.00000000E+00  0.00000000E+00
  0.00000000E+00  0.00000000E+00  0.00000000E+00
  0.00000000E+00  0.00000000E+00  0.00000000E+00
  0.00000000E+00  0.00000000E+00  0.00000000E+00
  0.00000000E+00  0.00000000E+00  0.00000000E+00
  0.00000000E+00  0.00000000E+00  0.00000000E+00
  0.00000000E+00  0.00000000E+00  0.00000000E+00
  0.00000000E+00  0.00000000E+00  0.00000000E+00
  0.00000000E+00  0.00000000E+00  0.00000000E+00
  0.00000000E+00  0.00000000E+00  0.00000000E+00
  0.00000000E+00  0.00000000E+00  0.00000000E+00
  0.00000000E+00  0.00000000E+00  0.00000000E+00
  0.00000000E+00  0.00000000E+00  0.00000000E+00
  0.00000000E+00  0.00000000E+00  0.00000000E+00
  0.00000000E+00  0.00000000E+00  0.00000000E+00
  0.00000000E+00  0.00000000E+00  0.00000000E+00
  0.00000000E+00  0.00000000E+00  0.00000000E+00
  0.00000000E+00  0.00000000E+00  0.00000000E+00
  0.00000000E+00  0.00000000E+00  0.00000000E+00
  0.00000000E+00  0.00000000E+00  0.00000000E+00
  0.00000000E+00  0.00000000E+00  0.00000000E+00
  0.00000000E+00  0.00000000E+00  0.00000000E+00
  0.00000000E+00  0.00000000E+00  0.00000000E+00
  0.00000000E+00  0.00000000E+00  0.00000000E+00
