CONTCAR\(8)                             
   1.00000000000000     
    13.7187995910999998    0.0000000000000000    0.0000000000000000
    -4.5729412920000003   17.9978325079000001    0.0000000000000000
     0.0000000000000000    0.0000000000000000   21.4340000153000005
   Ag   Te   Mo   O    H 
     6    36    36     2     1
Direct
  0.0017995210254985  0.0028076268801339  0.5001821191745546
  0.3350234845246451  0.0029871194064244  0.4993177796946464
  0.6671238196388480  0.0030242790288769  0.4999238471499032
  0.0042130961970663  0.5024864142108106  0.5007744101055732
  0.3273531764023571  0.5024711221774194  0.5017347293359758
  0.6701971844524869  0.5046966455238964  0.4957022570849288
  0.2587912967372777  0.2754524207666065  0.6491342658970365
  0.1384494928049478  0.4170568105128653  0.5663858641197034
  0.1954700843161709  0.0884311621463381  0.4345931833091449
  0.0361996496337556  0.1107777123027125  0.5962285662914577
  0.2984389995197052  0.3961081910067977  0.4035313519991919
  0.0767914468232233  0.2311795427070439  0.3501347444433659
  0.5914996705880819  0.2763522708932532  0.6483785787018365
  0.4732713643510263  0.4182537015679220  0.5633596597823658
  0.5287816057938657  0.0882646231197883  0.4341072069689259
  0.3700060052544146  0.1108176675929419  0.5959258884720974
  0.6310732335006733  0.3941199309905630  0.4012677813130763
  0.4089239322043304  0.2304955674967251  0.3496912857512725
  0.9242337767749935  0.2755475454203469  0.6490024076415187
  0.8049419656848633  0.4180895529613946  0.5637135141726721
  0.8625921863606967  0.0885445050916300  0.4346398201656685
  0.7031390960817827  0.1111040583600351  0.5961689080204780
  0.9648340528192334  0.3957672795317788  0.4033299598876341
  0.7433424313596145  0.2300044104915184  0.3497545743433541
  0.2585449252980565  0.7744129438437206  0.6496660622493943
  0.1402530661653466  0.9167307131337594  0.5649386682064668
  0.1959967546563776  0.5876342774283695  0.4349240999236443
  0.0355948561939118  0.6103596617217950  0.5970032107354575
  0.2985609821065167  0.8943055462538881  0.4034610383693126
  0.0772090362078957  0.7288953142799851  0.3506752272752501
  0.5937000064898211  0.7765995344946716  0.6492179554819998
  0.4723783199298345  0.9170118833072075  0.5649357269092476
  0.5320205682833830  0.5881070715607527  0.4370086354961243
  0.3731025499178922  0.6107011391042045  0.5974408183060049
  0.6308394682439137  0.8953418655493346  0.4031811953972574
  0.4100852175859606  0.7285989350636619  0.3509334789421243
  0.9254774795927916  0.7763541307483537  0.6491930975185318
  0.8074186139865590  0.9191366501342745  0.5641020536857755
  0.8612289595672440  0.5885993028538424  0.4353642667538892
  0.7064429173626798  0.6121447284531885  0.6005183961164032
  0.9671055755628075  0.8954623657181080  0.4030809897687445
  0.7447776540842103  0.7334643607810207  0.3493611376941373
  0.1068500199143010  0.3215634913138981  0.4570118269781205
  0.2278218471479312  0.1847498110242380  0.5425416446839670
  0.0576053127766407  0.1742874599404012  0.4726122917788866
  0.2772380914852764  0.3320977206846324  0.5266593267963955
  0.0875158224218910  0.2634314457236291  0.5708766033447206
  0.2470072579295204  0.2427773584639548  0.4285800505302387
  0.4399434087634281  0.3214308749748408  0.4560422144384382
  0.5611000565097628  0.1849221819367932  0.5420412811514330
  0.3906924156236318  0.1741349608941961  0.4722568767948905
  0.6102341303742833  0.3320651795681149  0.5256252913972724
  0.4208572383675239  0.2637834699675912  0.5701468901212606
  0.5801286868543409  0.2422175685871837  0.4278437292807568
  0.7733352731549553  0.3211773407031362  0.4560572526311259
  0.8944640958633683  0.1847867505690580  0.5425184577968341
  0.7242755053998257  0.1740282698548289  0.4723217128657548
  0.9433652154934091  0.3320373158027543  0.5265643557815171
  0.7539374362615314  0.2637825553962740  0.5702176482045618
  0.9139787237035585  0.2426516466805758  0.4284635494011232
  0.1075402011997232  0.8203023147863088  0.4570232381359660
  0.2284824741887949  0.6837267861161531  0.5433258233644663
  0.0573391815738248  0.6730387709314543  0.4733963917332337
  0.2774908574641990  0.8308407097386663  0.5271916033354392
  0.0871850016070184  0.7626418500541188  0.5712086938186870
  0.2477708483720324  0.7412627484098344  0.4293681712680912
  0.4404905200433009  0.8202781435948520  0.4571327299002555
  0.5644485205353569  0.6846362393503859  0.5441261591756331
  0.3925766086284386  0.6729774277744330  0.4737515993248942
  0.6112118693944968  0.8323294264029101  0.5265730611745045
  0.4222171698456648  0.7629404480234439  0.5712977074672676
  0.5812682916539622  0.7428572797509553  0.4291226689107733
  0.7747286187105780  0.8228232991683320  0.4563889137141731
  0.8933985647906634  0.6841830096560656  0.5433354958315063
  0.7260988312591982  0.6764952968049979  0.4705115132497947
  0.9449288662319442  0.8321818336168297  0.5263644300562734
  0.7557129788370396  0.7652986484588923  0.5702057084759206
  0.9153822036896896  0.7431251128903720  0.4287367745956659
  0.6738488536573476  0.6123524575950648  0.7434568230746486
  0.7447989269996844  0.6511278054702686  0.6978241517211315
  0.7061531501870647  0.5734964337015910  0.7574185560382269
 
  0.00000000E+00  0.00000000E+00  0.00000000E+00
  0.00000000E+00  0.00000000E+00  0.00000000E+00
  0.00000000E+00  0.00000000E+00  0.00000000E+00
  0.00000000E+00  0.00000000E+00  0.00000000E+00
  0.00000000E+00  0.00000000E+00  0.00000000E+00
  0.00000000E+00  0.00000000E+00  0.00000000E+00
  0.00000000E+00  0.00000000E+00  0.00000000E+00
  0.00000000E+00  0.00000000E+00  0.00000000E+00
  0.00000000E+00  0.00000000E+00  0.00000000E+00
  0.00000000E+00  0.00000000E+00  0.00000000E+00
  0.00000000E+00  0.00000000E+00  0.00000000E+00
  0.00000000E+00  0.00000000E+00  0.00000000E+00
  0.00000000E+00  0.00000000E+00  0.00000000E+00
  0.00000000E+00  0.00000000E+00  0.00000000E+00
  0.00000000E+00  0.00000000E+00  0.00000000E+00
  0.00000000E+00  0.00000000E+00  0.00000000E+00
  0.00000000E+00  0.00000000E+00  0.00000000E+00
  0.00000000E+00  0.00000000E+00  0.00000000E+00
  0.00000000E+00  0.00000000E+00  0.00000000E+00
  0.00000000E+00  0.00000000E+00  0.00000000E+00
  0.00000000E+00  0.00000000E+00  0.00000000E+00
  0.00000000E+00  0.00000000E+00  0.00000000E+00
  0.00000000E+00  0.00000000E+00  0.00000000E+00
  0.00000000E+00  0.00000000E+00  0.00000000E+00
  0.00000000E+00  0.00000000E+00  0.00000000E+00
  0.00000000E+00  0.00000000E+00  0.00000000E+00
  0.00000000E+00  0.00000000E+00  0.00000000E+00
  0.00000000E+00  0.00000000E+00  0.00000000E+00
  0.00000000E+00  0.00000000E+00  0.00000000E+00
  0.00000000E+00  0.00000000E+00  0.00000000E+00
  0.00000000E+00  0.00000000E+00  0.00000000E+00
  0.00000000E+00  0.00000000E+00  0.00000000E+00
  0.00000000E+00  0.00000000E+00  0.00000000E+00
  0.00000000E+00  0.00000000E+00  0.00000000E+00
  0.00000000E+00  0.00000000E+00  0.00000000E+00
  0.00000000E+00  0.00000000E+00  0.00000000E+00
  0.00000000E+00  0.00000000E+00  0.00000000E+00
  0.00000000E+00  0.00000000E+00  0.00000000E+00
  0.00000000E+00  0.00000000E+00  0.00000000E+00
  0.00000000E+00  0.00000000E+00  0.00000000E+00
  0.00000000E+00  0.00000000E+00  0.00000000E+00
  0.00000000E+00  0.00000000E+00  0.00000000E+00
  0.00000000E+00  0.00000000E+00  0.00000000E+00
  0.00000000E+00  0.00000000E+00  0.00000000E+00
  0.00000000E+00  0.00000000E+00  0.00000000E+00
  0.00000000E+00  0.00000000E+00  0.00000000E+00
  0.00000000E+00  0.00000000E+00  0.00000000E+00
  0.00000000E+00  0.00000000E+00  0.00000000E+00
  0.00000000E+00  0.00000000E+00  0.00000000E+00
  0.00000000E+00  0.00000000E+00  0.00000000E+00
  0.00000000E+00  0.00000000E+00  0.00000000E+00
  0.00000000E+00  0.00000000E+00  0.00000000E+00
  0.00000000E+00  0.00000000E+00  0.00000000E+00
  0.00000000E+00  0.00000000E+00  0.00000000E+00
  0.00000000E+00  0.00000000E+00  0.00000000E+00
  0.00000000E+00  0.00000000E+00  0.00000000E+00
  0.00000000E+00  0.00000000E+00  0.00000000E+00
  0.00000000E+00  0.00000000E+00  0.00000000E+00
  0.00000000E+00  0.00000000E+00  0.00000000E+00
  0.00000000E+00  0.00000000E+00  0.00000000E+00
  0.00000000E+00  0.00000000E+00  0.00000000E+00
  0.00000000E+00  0.00000000E+00  0.00000000E+00
  0.00000000E+00  0.00000000E+00  0.00000000E+00
  0.00000000E+00  0.00000000E+00  0.00000000E+00
  0.00000000E+00  0.00000000E+00  0.00000000E+00
  0.00000000E+00  0.00000000E+00  0.00000000E+00
  0.00000000E+00  0.00000000E+00  0.00000000E+00
  0.00000000E+00  0.00000000E+00  0.00000000E+00
  0.00000000E+00  0.00000000E+00  0.00000000E+00
  0.00000000E+00  0.00000000E+00  0.00000000E+00
  0.00000000E+00  0.00000000E+00  0.00000000E+00
  0.00000000E+00  0.00000000E+00  0.00000000E+00
  0.00000000E+00  0.00000000E+00  0.00000000E+00
  0.00000000E+00  0.00000000E+00  0.00000000E+00
  0.00000000E+00  0.00000000E+00  0.00000000E+00
  0.00000000E+00  0.00000000E+00  0.00000000E+00
  0.00000000E+00  0.00000000E+00  0.00000000E+00
  0.00000000E+00  0.00000000E+00  0.00000000E+00
  0.00000000E+00  0.00000000E+00  0.00000000E+00
  0.00000000E+00  0.00000000E+00  0.00000000E+00
  0.00000000E+00  0.00000000E+00  0.00000000E+00
