CONTCAR\(6)                             
   1.00000000000000     
    11.2666997910000006    0.0000000000000000    0.0000000000000000
     0.0000000000000000   10.8214998245000000    0.0000000000000000
     0.0000000000000000    0.0000000000000000   21.2649002074999984
   Zr   Se   O    H 
    12    36     2     1
Direct
  0.0821320836774225  0.3604779152813189  0.4303304033662905
  0.2488385214939034  0.1102603600691291  0.5711075896414238
  0.4154794411286391  0.3607138412118178  0.4302181905582549
  0.5820130747150608  0.1102704175475818  0.5709336797587335
  0.7488747344240682  0.3604747961735886  0.4303214768285342
  0.9152008656707097  0.1101022697257708  0.5709504213541096
  0.0821086340358689  0.8606108211463922  0.4303170974609099
  0.2483683490040791  0.6105643410176863  0.5705930797594706
  0.4154797749787383  0.8606490856222480  0.4302246416949677
  0.5823036791659341  0.6104875046798419  0.5706637118549543
  0.7488393065392692  0.8606043603142539  0.4302894148421382
  0.9150105427241898  0.6100732341616163  0.5709904875251597
  0.2486840806104273  0.2507708902357576  0.3531174873191437
  0.0816558080039984  0.2193955775101566  0.6485918403349558
  0.2488325230398876  0.4711492646469250  0.3535613577241309
  0.0818935477386207  0.9991049467281113  0.6472717926400182
  0.2490333790949498  0.3602790952485387  0.5245896533380742
  0.0822829406528506  0.1106083298502093  0.4768137726273340
  0.5817544091720203  0.2494739506489992  0.3541069380296274
  0.4156205564536060  0.2169011268422859  0.6502782013096300
  0.5825108681189393  0.4698286934625978  0.3527094682436677
  0.4154722131186009  0.9966349725698036  0.6456665200181249
  0.5820449674613758  0.3603244616059173  0.5243909692639023
  0.4152817939949159  0.1107196473838893  0.4767465444832669
  0.9151868888588718  0.2505191481271851  0.3532067653348837
  0.7485692836019674  0.2187262345578416  0.6487426464205542
  0.9157329198054611  0.4709199760516209  0.3534869480140995
  0.7482912210268009  0.9984022999584223  0.6468375502706382
  0.9155883092721522  0.3600968310181180  0.5245746724903133
  0.7488172796026956  0.1105400268437257  0.4767195630668603
  0.2486336116352706  0.7507789312616845  0.3530959855470104
  0.0817070307584778  0.7194065561553273  0.6484383839757254
  0.2488844095908683  0.9712132066135268  0.3535374852162337
  0.0821997437421521  0.4990902657310224  0.6472484891312544
  0.2489309405566330  0.8604148255575665  0.5245206227439820
  0.0818173653757463  0.6106294167941496  0.4766065215578140
  0.5817694117423592  0.7495743782653800  0.3540684936443444
  0.4154006281701699  0.7160262428949020  0.6500375033124616
  0.5824586680995288  0.9699285841447688  0.3526440828062650
  0.4158271935475664  0.4964357025638428  0.6442161773461517
  0.5819246606445492  0.8604189747283019  0.5244031262692699
  0.4153180404429722  0.6107902055894889  0.4764342104280628
  0.9151854088331205  0.7506917732492117  0.3531931417459889
  0.7484854864429066  0.7187011390035450  0.6487319236157416
  0.9157244539756033  0.9710928470908922  0.3534715826328432
  0.7480680473992546  0.4985246464720424  0.6467647592073303
  0.9155310877850199  0.8601393848825679  0.5245511021617388
  0.7490294735666035  0.6106651496780467  0.4765390818720758
  0.5107320049683823  0.4757081641321698  0.7713408394664285
  0.4271080871215830  0.5142292607527559  0.8129641555450400
  0.3828316784151463  0.4382756081974204  0.8240295102000460
 
  0.00000000E+00  0.00000000E+00  0.00000000E+00
  0.00000000E+00  0.00000000E+00  0.00000000E+00
  0.00000000E+00  0.00000000E+00  0.00000000E+00
  0.00000000E+00  0.00000000E+00  0.00000000E+00
  0.00000000E+00  0.00000000E+00  0.00000000E+00
  0.00000000E+00  0.00000000E+00  0.00000000E+00
  0.00000000E+00  0.00000000E+00  0.00000000E+00
  0.00000000E+00  0.00000000E+00  0.00000000E+00
  0.00000000E+00  0.00000000E+00  0.00000000E+00
  0.00000000E+00  0.00000000E+00  0.00000000E+00
  0.00000000E+00  0.00000000E+00  0.00000000E+00
  0.00000000E+00  0.00000000E+00  0.00000000E+00
  0.00000000E+00  0.00000000E+00  0.00000000E+00
  0.00000000E+00  0.00000000E+00  0.00000000E+00
  0.00000000E+00  0.00000000E+00  0.00000000E+00
  0.00000000E+00  0.00000000E+00  0.00000000E+00
  0.00000000E+00  0.00000000E+00  0.00000000E+00
  0.00000000E+00  0.00000000E+00  0.00000000E+00
  0.00000000E+00  0.00000000E+00  0.00000000E+00
  0.00000000E+00  0.00000000E+00  0.00000000E+00
  0.00000000E+00  0.00000000E+00  0.00000000E+00
  0.00000000E+00  0.00000000E+00  0.00000000E+00
  0.00000000E+00  0.00000000E+00  0.00000000E+00
  0.00000000E+00  0.00000000E+00  0.00000000E+00
  0.00000000E+00  0.00000000E+00  0.00000000E+00
  0.00000000E+00  0.00000000E+00  0.00000000E+00
  0.00000000E+00  0.00000000E+00  0.00000000E+00
  0.00000000E+00  0.00000000E+00  0.00000000E+00
  0.00000000E+00  0.00000000E+00  0.00000000E+00
  0.00000000E+00  0.00000000E+00  0.00000000E+00
  0.00000000E+00  0.00000000E+00  0.00000000E+00
  0.00000000E+00  0.00000000E+00  0.00000000E+00
  0.00000000E+00  0.00000000E+00  0.00000000E+00
  0.00000000E+00  0.00000000E+00  0.00000000E+00
  0.00000000E+00  0.00000000E+00  0.00000000E+00
  0.00000000E+00  0.00000000E+00  0.00000000E+00
  0.00000000E+00  0.00000000E+00  0.00000000E+00
  0.00000000E+00  0.00000000E+00  0.00000000E+00
  0.00000000E+00  0.00000000E+00  0.00000000E+00
  0.00000000E+00  0.00000000E+00  0.00000000E+00
  0.00000000E+00  0.00000000E+00  0.00000000E+00
  0.00000000E+00  0.00000000E+00  0.00000000E+00
  0.00000000E+00  0.00000000E+00  0.00000000E+00
  0.00000000E+00  0.00000000E+00  0.00000000E+00
  0.00000000E+00  0.00000000E+00  0.00000000E+00
  0.00000000E+00  0.00000000E+00  0.00000000E+00
  0.00000000E+00  0.00000000E+00  0.00000000E+00
  0.00000000E+00  0.00000000E+00  0.00000000E+00
  0.00000000E+00  0.00000000E+00  0.00000000E+00
  0.00000000E+00  0.00000000E+00  0.00000000E+00
  0.00000000E+00  0.00000000E+00  0.00000000E+00
