CONTCAR\(11)                            
   1.00000000000000     
    10.1990995407000007    0.0000000000000000    0.0000000000000000
     0.0000000000000000   15.1191997528000002    0.0000000000000000
     0.0000000000000000    0.0000000000000000   19.1068992615000006
   Ta   Ni   S    O 
    12     6    30     1
Direct
  0.0000323553522035  0.3565929871660584  0.5192792863749752
  0.1660671223902464  0.1415489206470126  0.4803644393158422
  0.1669511282319082  0.8568605059539158  0.4825138807062277
  0.0000182377526337  0.6408844150113687  0.5205701746402358
  0.3323255994443410  0.3570399080477005  0.5198402333070941
  0.5000101756699290  0.1474564937101442  0.4789428973997073
  0.5000065669109509  0.8537240999996426  0.4941185059175444
  0.3323425941186628  0.6393893504660105  0.5220701939081149
  0.6677503132629841  0.3570384860290605  0.5198227553278409
  0.8339478509907436  0.1415561003413274  0.4803687047830016
  0.8330638900770270  0.8568609649836521  0.4825212559686599
  0.6677093055523461  0.6393937298073910  0.5220577275256768
  0.0000008649317189  0.9990677183457158  0.4668391471719699
  0.1662048507493886  0.4982311136269000  0.5353050060169731
  0.3331966861053721  0.0000676552709536  0.4661211624321017
  0.5000419927846697  0.4986079362847121  0.5351258321704128
  0.6668111199205785  0.0000854307373079  0.4661173845065033
  0.8338409290299929  0.4982601352285617  0.5353207423734776
  0.1667990730138206  0.9997199061910121  0.5445601605315881
  0.0000280267672045  0.4988418064395506  0.4574096713930216
  0.0000126952775913  0.1981494893724903  0.5653855819884880
  0.1663570561383526  0.2998322438558284  0.4343912685936385
  0.1671712202958328  0.6976246995207316  0.4365635690218401
  0.0000188507865898  0.7988184583849252  0.5673281227349571
  0.1655411832356924  0.6107043547898451  0.6097857582388645
  0.0000047974047637  0.8842976371953407  0.3942027046468524
  0.0000091780703876  0.1115502400650764  0.3920003121186447
  0.1662764681164257  0.3843165969437379  0.6083738900939226
  0.5000171900340329  0.0088154170222049  0.5366655292828507
  0.3333370706679610  0.4993427182792171  0.4574412055503869
  0.3322967681325363  0.1993062276085709  0.5650997936072948
  0.5000074145324744  0.3018945093634606  0.4333455431609667
  0.5000066455796897  0.7013580331607105  0.4394485594335052
  0.3268572353659943  0.7960246849663430  0.5703371143888690
  0.5000186805736334  0.6108850955143886  0.6101697404814240
  0.3382069117762692  0.8809976057761030  0.3980590535310859
  0.3316505497443960  0.1124638702782406  0.3911411558584907
  0.5000390950764555  0.3840667162911064  0.6078678090832199
  0.8332244541175270  0.9997286900873292  0.5445586144223211
  0.6667451917662297  0.4993399189968256  0.4574239210645461
  0.6677368568160936  0.1993090035364323  0.5650993976086529
  0.8336844921675061  0.2998383435604629  0.4343856941705817
  0.8328548964186393  0.6976282061756827  0.4365588023322597
  0.6731706843420567  0.7960245777516577  0.5703370841273100
  0.8344900788353198  0.6107216867286679  0.6097819526474422
  0.6618333469959389  0.8810096679330677  0.3980574493147754
  0.6683806671264744  0.1124818560023954  0.3911429614350617
  0.8337584318540412  0.3843276854759921  0.6083753955317859
  0.5000427346944599  0.9443841760751713  0.5998031617589937
 
  0.00000000E+00  0.00000000E+00  0.00000000E+00
  0.00000000E+00  0.00000000E+00  0.00000000E+00
  0.00000000E+00  0.00000000E+00  0.00000000E+00
  0.00000000E+00  0.00000000E+00  0.00000000E+00
  0.00000000E+00  0.00000000E+00  0.00000000E+00
  0.00000000E+00  0.00000000E+00  0.00000000E+00
  0.00000000E+00  0.00000000E+00  0.00000000E+00
  0.00000000E+00  0.00000000E+00  0.00000000E+00
  0.00000000E+00  0.00000000E+00  0.00000000E+00
  0.00000000E+00  0.00000000E+00  0.00000000E+00
  0.00000000E+00  0.00000000E+00  0.00000000E+00
  0.00000000E+00  0.00000000E+00  0.00000000E+00
  0.00000000E+00  0.00000000E+00  0.00000000E+00
  0.00000000E+00  0.00000000E+00  0.00000000E+00
  0.00000000E+00  0.00000000E+00  0.00000000E+00
  0.00000000E+00  0.00000000E+00  0.00000000E+00
  0.00000000E+00  0.00000000E+00  0.00000000E+00
  0.00000000E+00  0.00000000E+00  0.00000000E+00
  0.00000000E+00  0.00000000E+00  0.00000000E+00
  0.00000000E+00  0.00000000E+00  0.00000000E+00
  0.00000000E+00  0.00000000E+00  0.00000000E+00
  0.00000000E+00  0.00000000E+00  0.00000000E+00
  0.00000000E+00  0.00000000E+00  0.00000000E+00
  0.00000000E+00  0.00000000E+00  0.00000000E+00
  0.00000000E+00  0.00000000E+00  0.00000000E+00
  0.00000000E+00  0.00000000E+00  0.00000000E+00
  0.00000000E+00  0.00000000E+00  0.00000000E+00
  0.00000000E+00  0.00000000E+00  0.00000000E+00
  0.00000000E+00  0.00000000E+00  0.00000000E+00
  0.00000000E+00  0.00000000E+00  0.00000000E+00
  0.00000000E+00  0.00000000E+00  0.00000000E+00
  0.00000000E+00  0.00000000E+00  0.00000000E+00
  0.00000000E+00  0.00000000E+00  0.00000000E+00
  0.00000000E+00  0.00000000E+00  0.00000000E+00
  0.00000000E+00  0.00000000E+00  0.00000000E+00
  0.00000000E+00  0.00000000E+00  0.00000000E+00
  0.00000000E+00  0.00000000E+00  0.00000000E+00
  0.00000000E+00  0.00000000E+00  0.00000000E+00
  0.00000000E+00  0.00000000E+00  0.00000000E+00
  0.00000000E+00  0.00000000E+00  0.00000000E+00
  0.00000000E+00  0.00000000E+00  0.00000000E+00
  0.00000000E+00  0.00000000E+00  0.00000000E+00
  0.00000000E+00  0.00000000E+00  0.00000000E+00
  0.00000000E+00  0.00000000E+00  0.00000000E+00
  0.00000000E+00  0.00000000E+00  0.00000000E+00
  0.00000000E+00  0.00000000E+00  0.00000000E+00
  0.00000000E+00  0.00000000E+00  0.00000000E+00
  0.00000000E+00  0.00000000E+00  0.00000000E+00
  0.00000000E+00  0.00000000E+00  0.00000000E+00
