CONTCAR\(10)                            
   1.00000000000000     
    14.1827001571999993    0.0000000000000000    0.0000000000000000
     0.0000000000000000   18.7943000793000010    0.0000000000000000
     0.0000000000000000    0.0000000000000000   21.0296001433999997
   Ta   Pt   Se   O 
    16     8    56     1
Selective dynamics
Direct
  0.1860511500177537  0.4235845514493590  0.5613828548235205   F   F   F
  0.0620465377309571  0.5770057735254426  0.4334579091241366   F   F   F
  0.0619566296476393  0.9020574456616473  0.4885752487016219   F   F   F
  0.1868174321511731  0.0944965125025021  0.5155126833002655   F   F   F
  0.4375624181487865  0.4249218609977916  0.5631760636092196   F   F   F
  0.3121230551634397  0.5766723804150828  0.4335757857147868   F   F   F
  0.3112277730831678  0.8994387175216332  0.4902616124351411   F   F   F
  0.4376405839659796  0.0858360201876565  0.5305311455619659   F   F   F
  0.6892926482432173  0.4236818225145953  0.5615943454665029   F   F   F
  0.5626879948603900  0.5766222832548848  0.4336146306031381   F   F   F
  0.5637676270190184  0.8993270663969781  0.4900954973290723   F   F   F
  0.6883957569839012  0.0946746318419969  0.5155297775095420   F   F   F
  0.9378078691315963  0.4223429830894432  0.5614521666856334   F   F   F
  0.8127632794838959  0.5768856526695743  0.4334141063345385   F   F   F
  0.8129093287928910  0.9021460914947639  0.4884089237196960   F   F   F
  0.9377404986212099  0.0942450131536177  0.5134844711916813   F   F   F
  0.0623792404112820  0.2248431122473775  0.5374516502691051   F   F   F
  0.1872821270651741  0.7726907772223939  0.4616106596248315   F   F   F
  0.3110871176426571  0.2284573285511797  0.5432697860820426   F   F   F
  0.4374897861423435  0.7724440397998578  0.4618625040833635   F   F   F
  0.5637603431064022  0.2287387620883550  0.5434170652574437   F   F   F
  0.6877080386143106  0.7725666098914772  0.4615241746863603   F   F   F
  0.8128236836726472  0.2249725156947022  0.5375743375383735   F   F   F
  0.9375351477483775  0.7730994503659474  0.4619157306633852   F   F   F
  0.0622121360973225  0.6950692375046899  0.5107415645356213   F   F   F
  0.1873305139659891  0.3019306968341198  0.4871369333677720   F   F   F
  0.0623345286341959  0.4344177270933756  0.4665420343730062   F   F   F
  0.1868896498404098  0.5657991826199265  0.5280563838197310   F   F   F
  0.1872364754198301  0.5233558801378848  0.3548071371634194   F   F   F
  0.0620359863776585  0.4768531131623348  0.6402500235922162   F   F   F
  0.1880770996638574  0.9828512637388798  0.4320286232674988   F   F   F
  0.0604021742436061  0.0127376035108782  0.5721563725432190   F   F   F
  0.0625621841538972  0.3368724144240076  0.6144086476963508   F   F   F
  0.1873370817049747  0.6631702057423894  0.3816628383691736   F   F   F
  0.1847506705659399  0.1718055336322379  0.6130661909255863   F   F   F
  0.0622398721609301  0.8278085812513893  0.3894985790124039   F   F   F
  0.0642735751503380  0.1434609022510784  0.4367497599171912   F   F   F
  0.1854174745868633  0.8486298436967417  0.5653347743146426   F   F   F
  0.3122658225289427  0.6947798035469361  0.5106416305397516   F   F   F
  0.4373662628968518  0.3024918791694375  0.4908923819924382   F   F   F
  0.3130039000293721  0.4342986581584185  0.4681047104288680   F   F   F
  0.4374827798975147  0.5660636224394722  0.5280176806070145   F   F   F
  0.4373860324111618  0.5235155519254064  0.3547087060975187   F   F   F
  0.3112979483659473  0.4808532961508973  0.6399274889867073   F   F   F
  0.4372499663252540  0.9853964534975432  0.4384834763252741   F   F   F
  0.3037867082534262  0.0061868699701648  0.5751956194250312   F   F   F
  0.3104918105660914  0.3421068537861700  0.6186347034199642   F   F   F
  0.4374389827312726  0.6627208917202481  0.3815959691525492   F   F   F
  0.4373629380763262  0.1973973699640368  0.6209005865500927   F   F   F
  0.3131063739121984  0.8280649735901235  0.3896397540091101   F   F   F
  0.3193579507340303  0.1407152491353116  0.4459723830813189   F   F   F
  0.4374645522936049  0.8483378032986053  0.5660961571384604   F   F   F
  0.5626333481693422  0.6949094975395766  0.5106318345800389   F   F   F
  0.6878234152068146  0.3020646797529523  0.4873683268645834   F   F   F
  0.5624340322302430  0.4342507145714123  0.4682257213090537   F   F   F
  0.6880997128995219  0.5658307865679788  0.5280571446041833   F   F   F
  0.6874710757575784  0.5230409213487448  0.3549862539937862   F   F   F
  0.5638046373004073  0.4811116718921440  0.6398426855643109   F   F   F
  0.6863853633456856  0.9829472989105383  0.4318961613917409   F   F   F
  0.5710371341729541  0.0059747326047770  0.5749575665192168   F   F   F
  0.5646423780146677  0.3422391258548956  0.6187484365524369   F   F   F
  0.6874016333005528  0.6630116437893250  0.3815598638160580   F   F   F
  0.6902222056637370  0.1719424445984714  0.6131179433611536   F   F   F
  0.5618744551619343  0.8278868716677152  0.3894993512039377   F   F   F
  0.5553834847736567  0.1409306970663096  0.4461226738838775   F   F   F
  0.6893214299734822  0.8487032796693796  0.5652077446807837   F   F   F
  0.8127788061226653  0.6948791441721909  0.5107178494933962   F   F   F
  0.9376214101099762  0.3015698328390002  0.4865973966793149   F   F   F
  0.8131898834215434  0.4343527030678160  0.4667858409348540   F   F   F
  0.9374019935501110  0.5651899445289601  0.5280845971258614   F   F   F
  0.9373603280966591  0.5239367677814144  0.3543139835417293   F   F   F
  0.8136572058868055  0.4766224551663427  0.6405454444812833   F   F   F
  0.9373706163987805  0.9828549291562325  0.4301322626151034   F   F   F
  0.8143303565692932  0.0128725911275538  0.5719830443704694   F   F   F
  0.8131082148108604  0.3370442655174770  0.6145720894142741   F   F   F
  0.9373453474674491  0.6634411917597518  0.3816414471030214   F   F   F
  0.9377086838547228  0.1713973283258383  0.6107528066099377   F   F   F
  0.8127142236094613  0.8276372017372324  0.3894467931270356   F   F   F
  0.8106349928070742  0.1433609010142121  0.4368676820550519   F   F   F
  0.9371832052148150  0.8509018245716859  0.5651147508952192   F   F   F
  0.4382033770731581  0.1012718949091109  0.6255845329371673   T   T   T
 
  0.00000000E+00  0.00000000E+00  0.00000000E+00
  0.00000000E+00  0.00000000E+00  0.00000000E+00
  0.00000000E+00  0.00000000E+00  0.00000000E+00
  0.00000000E+00  0.00000000E+00  0.00000000E+00
  0.00000000E+00  0.00000000E+00  0.00000000E+00
  0.00000000E+00  0.00000000E+00  0.00000000E+00
  0.00000000E+00  0.00000000E+00  0.00000000E+00
  0.00000000E+00  0.00000000E+00  0.00000000E+00
  0.00000000E+00  0.00000000E+00  0.00000000E+00
  0.00000000E+00  0.00000000E+00  0.00000000E+00
  0.00000000E+00  0.00000000E+00  0.00000000E+00
  0.00000000E+00  0.00000000E+00  0.00000000E+00
  0.00000000E+00  0.00000000E+00  0.00000000E+00
  0.00000000E+00  0.00000000E+00  0.00000000E+00
  0.00000000E+00  0.00000000E+00  0.00000000E+00
  0.00000000E+00  0.00000000E+00  0.00000000E+00
  0.00000000E+00  0.00000000E+00  0.00000000E+00
  0.00000000E+00  0.00000000E+00  0.00000000E+00
  0.00000000E+00  0.00000000E+00  0.00000000E+00
  0.00000000E+00  0.00000000E+00  0.00000000E+00
  0.00000000E+00  0.00000000E+00  0.00000000E+00
  0.00000000E+00  0.00000000E+00  0.00000000E+00
  0.00000000E+00  0.00000000E+00  0.00000000E+00
  0.00000000E+00  0.00000000E+00  0.00000000E+00
  0.00000000E+00  0.00000000E+00  0.00000000E+00
  0.00000000E+00  0.00000000E+00  0.00000000E+00
  0.00000000E+00  0.00000000E+00  0.00000000E+00
  0.00000000E+00  0.00000000E+00  0.00000000E+00
  0.00000000E+00  0.00000000E+00  0.00000000E+00
  0.00000000E+00  0.00000000E+00  0.00000000E+00
  0.00000000E+00  0.00000000E+00  0.00000000E+00
  0.00000000E+00  0.00000000E+00  0.00000000E+00
  0.00000000E+00  0.00000000E+00  0.00000000E+00
  0.00000000E+00  0.00000000E+00  0.00000000E+00
  0.00000000E+00  0.00000000E+00  0.00000000E+00
  0.00000000E+00  0.00000000E+00  0.00000000E+00
  0.00000000E+00  0.00000000E+00  0.00000000E+00
  0.00000000E+00  0.00000000E+00  0.00000000E+00
  0.00000000E+00  0.00000000E+00  0.00000000E+00
  0.00000000E+00  0.00000000E+00  0.00000000E+00
  0.00000000E+00  0.00000000E+00  0.00000000E+00
  0.00000000E+00  0.00000000E+00  0.00000000E+00
  0.00000000E+00  0.00000000E+00  0.00000000E+00
  0.00000000E+00  0.00000000E+00  0.00000000E+00
  0.00000000E+00  0.00000000E+00  0.00000000E+00
  0.00000000E+00  0.00000000E+00  0.00000000E+00
  0.00000000E+00  0.00000000E+00  0.00000000E+00
  0.00000000E+00  0.00000000E+00  0.00000000E+00
  0.00000000E+00  0.00000000E+00  0.00000000E+00
  0.00000000E+00  0.00000000E+00  0.00000000E+00
  0.00000000E+00  0.00000000E+00  0.00000000E+00
  0.00000000E+00  0.00000000E+00  0.00000000E+00
  0.00000000E+00  0.00000000E+00  0.00000000E+00
  0.00000000E+00  0.00000000E+00  0.00000000E+00
  0.00000000E+00  0.00000000E+00  0.00000000E+00
  0.00000000E+00  0.00000000E+00  0.00000000E+00
  0.00000000E+00  0.00000000E+00  0.00000000E+00
  0.00000000E+00  0.00000000E+00  0.00000000E+00
  0.00000000E+00  0.00000000E+00  0.00000000E+00
  0.00000000E+00  0.00000000E+00  0.00000000E+00
  0.00000000E+00  0.00000000E+00  0.00000000E+00
  0.00000000E+00  0.00000000E+00  0.00000000E+00
  0.00000000E+00  0.00000000E+00  0.00000000E+00
  0.00000000E+00  0.00000000E+00  0.00000000E+00
  0.00000000E+00  0.00000000E+00  0.00000000E+00
  0.00000000E+00  0.00000000E+00  0.00000000E+00
  0.00000000E+00  0.00000000E+00  0.00000000E+00
  0.00000000E+00  0.00000000E+00  0.00000000E+00
  0.00000000E+00  0.00000000E+00  0.00000000E+00
  0.00000000E+00  0.00000000E+00  0.00000000E+00
  0.00000000E+00  0.00000000E+00  0.00000000E+00
  0.00000000E+00  0.00000000E+00  0.00000000E+00
  0.00000000E+00  0.00000000E+00  0.00000000E+00
  0.00000000E+00  0.00000000E+00  0.00000000E+00
  0.00000000E+00  0.00000000E+00  0.00000000E+00
  0.00000000E+00  0.00000000E+00  0.00000000E+00
  0.00000000E+00  0.00000000E+00  0.00000000E+00
  0.00000000E+00  0.00000000E+00  0.00000000E+00
  0.00000000E+00  0.00000000E+00  0.00000000E+00
  0.00000000E+00  0.00000000E+00  0.00000000E+00
  0.00000000E+00  0.00000000E+00  0.00000000E+00
