CONTCAR\(3)                             
   1.00000000000000     
    13.9118995667000007    0.0000000000000000    0.0000000000000000
     6.9559656922000004   12.0482805079999995    0.0000000000000000
     0.0000000000000000    0.0000000000000000   17.6690006255999990
   Co   Cl   O 
    16    32     1
Direct
 -0.0028129531120551  0.0001405263618120  0.5033796372501161
  0.2364149233429685  0.0271701533140630  0.4930002506999749
  0.5026724267502435  0.0001405263618120  0.5033796372501161
  0.7520649497157087  0.9958701005685758  0.5044947782706786
  0.0078603409416380  0.2425812540745746  0.4966493320450769
  0.2495583899837968  0.2425812540745746  0.4966493320450769
  0.5032396196032338  0.2451869219416861  0.5023262784642459
  0.7515735024550837  0.2451869219416861  0.5023262784642459
  0.0000456891409211  0.4999086087181677  0.4986577683222198
  0.2515173568419585  0.4965761183775774  0.4994462792158882
  0.5053139275832363  0.4893720978335201  0.5028698994274186
  0.7519064777804640  0.4965761183775774  0.4994462792158882
  0.0005823361792877  0.7458099922779663  0.5021563082763641
  0.2547630693137640  0.7470635420447963  0.5026470945499714
  0.4981733876414431  0.7470635420447963  0.5026470945499714
  0.7536076705427492  0.7458099922779663  0.5021563082763641
  0.1640062706136551  0.1719974297726798  0.4098304766146001
  0.0859787774283019  0.0818606116532681  0.5777415123692552
  0.4194352408175423  0.1611737132119555  0.4238197445332385
  0.3321505999184292  0.0818606116532681  0.5777415123692552
  0.6692977606986328  0.1614145176027440  0.4265310657531965
  0.5849896212484131  0.0792769769368324  0.5815882548638357
  0.9194010509705017  0.1611737132119555  0.4238197445332385
  0.8357232718147548  0.0792769769368324  0.5815882548638357
  0.1682860441247540  0.4154913349292173  0.4223848753931306
  0.0851022569968293  0.3297854700063442  0.5731522409125606
  0.4199435464941291  0.4127321512053039  0.4240537187551048
  0.3335707364994077  0.3295650013056183  0.5746418680285352
  0.6673343173005613  0.4127321512053039  0.4240537187551048
  0.5852978769008255  0.3293941601983603  0.5808813131423561
  0.9162326359460226  0.4154913349292173  0.4223848753931306
  0.8368542451949731  0.3295650013056183  0.5746418680285352
  0.1728993731279306  0.6693702257338191  0.4274512587148513
  0.0854984027875784  0.5797765458822622  0.5772144316858687
  0.4141097075247073  0.6717905759505843  0.4311057098576687
  0.3323825555225399  0.5866357115420363  0.5733664357899552
  0.6577404611382512  0.6693702257338191  0.4274512587148513
  0.5809717619354197  0.5866357115420363  0.5733664357899552
  0.9171129238736867  0.6657842812526222  0.4226273667199599
  0.8347149433301617  0.5797765458822622  0.5772144316858687
  0.1751522150593079  0.9098292606392518  0.4328255242758384
  0.0968141555124055  0.8252625872512233  0.5749191203275656
  0.4150285613014425  0.9098292606392518  0.4328255242758384
  0.3400083957803125  0.8199732134393616  0.5716716977588663
  0.6681018258591335  0.9130504308271364  0.4270966814947713
  0.5779131602363704  0.8252625872512233  0.5749191203275656
  0.9188578493137277  0.9130504308271364  0.4270966814947713
  0.8358687750332582  0.8282521809334842  0.5804896586227670
  0.3532989319916043  0.7933821020167895  0.6565910918305157
 
  0.00000000E+00  0.00000000E+00  0.00000000E+00
  0.00000000E+00  0.00000000E+00  0.00000000E+00
  0.00000000E+00  0.00000000E+00  0.00000000E+00
  0.00000000E+00  0.00000000E+00  0.00000000E+00
  0.00000000E+00  0.00000000E+00  0.00000000E+00
  0.00000000E+00  0.00000000E+00  0.00000000E+00
  0.00000000E+00  0.00000000E+00  0.00000000E+00
  0.00000000E+00  0.00000000E+00  0.00000000E+00
  0.00000000E+00  0.00000000E+00  0.00000000E+00
  0.00000000E+00  0.00000000E+00  0.00000000E+00
  0.00000000E+00  0.00000000E+00  0.00000000E+00
  0.00000000E+00  0.00000000E+00  0.00000000E+00
  0.00000000E+00  0.00000000E+00  0.00000000E+00
  0.00000000E+00  0.00000000E+00  0.00000000E+00
  0.00000000E+00  0.00000000E+00  0.00000000E+00
  0.00000000E+00  0.00000000E+00  0.00000000E+00
  0.00000000E+00  0.00000000E+00  0.00000000E+00
  0.00000000E+00  0.00000000E+00  0.00000000E+00
  0.00000000E+00  0.00000000E+00  0.00000000E+00
  0.00000000E+00  0.00000000E+00  0.00000000E+00
  0.00000000E+00  0.00000000E+00  0.00000000E+00
  0.00000000E+00  0.00000000E+00  0.00000000E+00
  0.00000000E+00  0.00000000E+00  0.00000000E+00
  0.00000000E+00  0.00000000E+00  0.00000000E+00
  0.00000000E+00  0.00000000E+00  0.00000000E+00
  0.00000000E+00  0.00000000E+00  0.00000000E+00
  0.00000000E+00  0.00000000E+00  0.00000000E+00
  0.00000000E+00  0.00000000E+00  0.00000000E+00
  0.00000000E+00  0.00000000E+00  0.00000000E+00
  0.00000000E+00  0.00000000E+00  0.00000000E+00
  0.00000000E+00  0.00000000E+00  0.00000000E+00
  0.00000000E+00  0.00000000E+00  0.00000000E+00
  0.00000000E+00  0.00000000E+00  0.00000000E+00
  0.00000000E+00  0.00000000E+00  0.00000000E+00
  0.00000000E+00  0.00000000E+00  0.00000000E+00
  0.00000000E+00  0.00000000E+00  0.00000000E+00
  0.00000000E+00  0.00000000E+00  0.00000000E+00
  0.00000000E+00  0.00000000E+00  0.00000000E+00
  0.00000000E+00  0.00000000E+00  0.00000000E+00
  0.00000000E+00  0.00000000E+00  0.00000000E+00
  0.00000000E+00  0.00000000E+00  0.00000000E+00
  0.00000000E+00  0.00000000E+00  0.00000000E+00
  0.00000000E+00  0.00000000E+00  0.00000000E+00
  0.00000000E+00  0.00000000E+00  0.00000000E+00
  0.00000000E+00  0.00000000E+00  0.00000000E+00
  0.00000000E+00  0.00000000E+00  0.00000000E+00
  0.00000000E+00  0.00000000E+00  0.00000000E+00
  0.00000000E+00  0.00000000E+00  0.00000000E+00
  0.00000000E+00  0.00000000E+00  0.00000000E+00
