CONTCAR\(2)                             
   1.00000000000000     
    14.3102998734000000    0.0000000000000000    0.0000000000000000
     0.0000000000000000   14.3102998734000000    0.0000000000000000
     0.0000000000000000    0.0000000000000000   17.4472007751000007
   Fe   S    O    H 
    32    32     1     1
Direct
  0.1254581416478656  0.1254168942021822  0.5037859721529375
  0.0006607940334267  0.0006143991619994  0.5028608383357701
  0.3756614572508522  0.1256071031967308  0.5033244613416983
  0.2505408726209625  0.0005929805439008  0.5035683999931335
  0.6257657111352586  0.1254844802464318  0.5025380140920147
  0.5006783677629624  0.0005978360327785  0.5027153656384575
  0.8756156409010215  0.1254698419360010  0.5026409030794998
  0.7506898797764543  0.0005926624525754  0.5022064219795120
  0.1251253952169004  0.3752571163149968  0.5039079050032342
  0.0004928823955872  0.2504138586546572  0.5036354351872467
  0.3756295203121408  0.3743924391052970  0.5016460940835988
  0.2502319705916150  0.2501388726485810  0.5038462253709992
  0.6261138952241742  0.3753149173271297  0.5022415992518949
  0.5009215813896282  0.2502457047075033  0.5027330997301701
  0.8756309402449621  0.3754863704840021  0.5034775996316687
  0.7508560690605313  0.2503726547133713  0.5026851083163651
  0.1252410622435890  0.6258812677688471  0.5031366394566623
  0.0006215704262267  0.5006412923383596  0.5035520205872092
  0.3755685103170643  0.6268174571384687  0.5010666497469255
  0.2494306552761039  0.5006155073537137  0.5018348661788071
  0.6261515779491865  0.6259120469511996  0.5018978235378616
  0.5018565833925098  0.5005546265061678  0.5009300330817060
  0.8756069779296221  0.6256353380060258  0.5029144268664496
  0.7506571631627622  0.5006037726063159  0.5024473442304539
  0.1255060425294116  0.8757646854201543  0.5031909061389339
  0.0005740641535929  0.7507691209554600  0.5028669923681720
  0.3756833608058864  0.8755730154628240  0.5026941465207884
  0.2503539541201493  0.7510424283226607  0.5028029125195982
  0.6258243619708326  0.8758221937331139  0.5020315635294058
  0.5009718188797602  0.7510641511151139  0.5020553305627804
  0.8756753985185821  0.8757044492243155  0.5022408359540083
  0.7509200272220722  0.7508243311140141  0.5019846215759417
  0.0009552277837610  0.1257785688246907  0.4329415970732797
  0.1252773962767824  0.0003571722800893  0.5737433255169891
  0.2503655052824823  0.1253694702608985  0.4334252596535588
  0.3759410105131514  0.0003338233206846  0.5732516334118671
  0.5004253374987392  0.1253030608500561  0.4326220424487323
  0.6258277244248442  0.0004606092703517  0.5726967740605686
  0.7507415128213363  0.1256604817500764  0.4321646409599245
  0.8754332758319826  0.0003842098080457  0.5726791017964353
  0.0004126487703294  0.3754934474430346  0.4334507014260224
  0.1251042390872210  0.2501168406200532  0.5742585282353672
  0.2486209809612949  0.3737124557966062  0.4329651954699016
  0.3760836908701695  0.2505553338734293  0.5733477488113938
  0.5019282510727834  0.3738980419492169  0.4319453879076545
  0.6260843402901324  0.2503610374720588  0.5728803307770436
  0.7514667712335478  0.3753201981770742  0.4324408814636206
  0.8753382625321462  0.2501145986737073  0.5734303925565718
  0.0003874543912334  0.6254693711564245  0.4329241114231894
  0.1255812641796303  0.5009006401017065  0.5736201925200747
  0.2488077170672587  0.6270539085396619  0.4322569234171341
  0.3760812171633002  0.5009110803223161  0.5638571054804842
  0.5019979528531134  0.6270867880404358  0.4316274854320726
  0.6256467279837005  0.5007508725059139  0.5723265530033179
  0.7513665957595667  0.6255760999402488  0.4319970030054885
  0.8752133020855676  0.5007780577591137  0.5733244449537684
  0.0009396856278982  0.8757273033382023  0.4325086751273323
  0.1253245872789530  0.7509680349583179  0.5734032246735786
  0.2503852824054889  0.8762043812491739  0.4328002269433571
  0.3760136926702900  0.7505735365460408  0.5726086180516973
  0.5005230084818713  0.8761825995079734  0.4321033121684583
  0.6261511755774704  0.7509876651378102  0.5722461678514235
  0.7508402204864916  0.8758079996101242  0.4317271451806249
  0.8754682317981139  0.7508979066894602  0.5727944399811957
  0.3798421765569748  0.5043795441002784  0.6604908518663258
  0.3323272249206615  0.4604609683817906  0.6791998623076287
 
  0.00000000E+00  0.00000000E+00  0.00000000E+00
  0.00000000E+00  0.00000000E+00  0.00000000E+00
  0.00000000E+00  0.00000000E+00  0.00000000E+00
  0.00000000E+00  0.00000000E+00  0.00000000E+00
  0.00000000E+00  0.00000000E+00  0.00000000E+00
  0.00000000E+00  0.00000000E+00  0.00000000E+00
  0.00000000E+00  0.00000000E+00  0.00000000E+00
  0.00000000E+00  0.00000000E+00  0.00000000E+00
  0.00000000E+00  0.00000000E+00  0.00000000E+00
  0.00000000E+00  0.00000000E+00  0.00000000E+00
  0.00000000E+00  0.00000000E+00  0.00000000E+00
  0.00000000E+00  0.00000000E+00  0.00000000E+00
  0.00000000E+00  0.00000000E+00  0.00000000E+00
  0.00000000E+00  0.00000000E+00  0.00000000E+00
  0.00000000E+00  0.00000000E+00  0.00000000E+00
  0.00000000E+00  0.00000000E+00  0.00000000E+00
  0.00000000E+00  0.00000000E+00  0.00000000E+00
  0.00000000E+00  0.00000000E+00  0.00000000E+00
  0.00000000E+00  0.00000000E+00  0.00000000E+00
  0.00000000E+00  0.00000000E+00  0.00000000E+00
  0.00000000E+00  0.00000000E+00  0.00000000E+00
  0.00000000E+00  0.00000000E+00  0.00000000E+00
  0.00000000E+00  0.00000000E+00  0.00000000E+00
  0.00000000E+00  0.00000000E+00  0.00000000E+00
  0.00000000E+00  0.00000000E+00  0.00000000E+00
  0.00000000E+00  0.00000000E+00  0.00000000E+00
  0.00000000E+00  0.00000000E+00  0.00000000E+00
  0.00000000E+00  0.00000000E+00  0.00000000E+00
  0.00000000E+00  0.00000000E+00  0.00000000E+00
  0.00000000E+00  0.00000000E+00  0.00000000E+00
  0.00000000E+00  0.00000000E+00  0.00000000E+00
  0.00000000E+00  0.00000000E+00  0.00000000E+00
  0.00000000E+00  0.00000000E+00  0.00000000E+00
  0.00000000E+00  0.00000000E+00  0.00000000E+00
  0.00000000E+00  0.00000000E+00  0.00000000E+00
  0.00000000E+00  0.00000000E+00  0.00000000E+00
  0.00000000E+00  0.00000000E+00  0.00000000E+00
  0.00000000E+00  0.00000000E+00  0.00000000E+00
  0.00000000E+00  0.00000000E+00  0.00000000E+00
  0.00000000E+00  0.00000000E+00  0.00000000E+00
  0.00000000E+00  0.00000000E+00  0.00000000E+00
  0.00000000E+00  0.00000000E+00  0.00000000E+00
  0.00000000E+00  0.00000000E+00  0.00000000E+00
  0.00000000E+00  0.00000000E+00  0.00000000E+00
  0.00000000E+00  0.00000000E+00  0.00000000E+00
  0.00000000E+00  0.00000000E+00  0.00000000E+00
  0.00000000E+00  0.00000000E+00  0.00000000E+00
  0.00000000E+00  0.00000000E+00  0.00000000E+00
  0.00000000E+00  0.00000000E+00  0.00000000E+00
  0.00000000E+00  0.00000000E+00  0.00000000E+00
  0.00000000E+00  0.00000000E+00  0.00000000E+00
  0.00000000E+00  0.00000000E+00  0.00000000E+00
  0.00000000E+00  0.00000000E+00  0.00000000E+00
  0.00000000E+00  0.00000000E+00  0.00000000E+00
  0.00000000E+00  0.00000000E+00  0.00000000E+00
  0.00000000E+00  0.00000000E+00  0.00000000E+00
  0.00000000E+00  0.00000000E+00  0.00000000E+00
  0.00000000E+00  0.00000000E+00  0.00000000E+00
  0.00000000E+00  0.00000000E+00  0.00000000E+00
  0.00000000E+00  0.00000000E+00  0.00000000E+00
  0.00000000E+00  0.00000000E+00  0.00000000E+00
  0.00000000E+00  0.00000000E+00  0.00000000E+00
  0.00000000E+00  0.00000000E+00  0.00000000E+00
  0.00000000E+00  0.00000000E+00  0.00000000E+00
  0.00000000E+00  0.00000000E+00  0.00000000E+00
  0.00000000E+00  0.00000000E+00  0.00000000E+00
