CONTCAR\(5)                             
   1.00000000000000     
    12.7375001907000005    0.0000000000000000    0.0000000000000000
     0.0000000000000000   12.3023004532000009    0.0000000000000000
     0.0000000000000000    0.0000000000000000   21.0970993042000003
   Cu   O    F 
    24    49    24
Direct
  0.0000000000000000  0.3245516721233294  0.4133160037238143
  0.1150319545853326  0.0931944252873006  0.5556541807405377
  0.2601078279508466  0.2448638700503070  0.4110448649033179
  0.3563075933126309 -0.0081261485560630  0.5513573135267416
  0.5000000000000000  0.1454520734380639  0.3510816780069191
  0.6436924066873689 -0.0081261485560630  0.5513573135267416
  0.7398921910491461  0.2448638700503070  0.4110448649033179
  0.8849680174146654  0.0931944252873006  0.5556541807405377
  0.0000000000000000  0.4992403349069414  0.5564442083560495
  0.1432776627676161  0.3182361221324717  0.6547054770431899
  0.2232635196082128  0.5152437861067497  0.4324779694971130
  0.3706588146240827  0.4387658361762684  0.6132109150045318
  0.5000000000000000  0.6301970528804178  0.4424984159016406
  0.6293411853759114  0.4387658361762684  0.6132109150045318
  0.7767364993917865  0.5152437861067497  0.4324779694971130
  0.8567223092323820  0.3182361221324717  0.6547054770431899
  0.0000000000000000  0.0649869863014473  0.3519541655400725
  0.1477179610496166  0.7955102535764345  0.5618586678568667
  0.2473606778984087  0.7608060579526938  0.3906282207450715
  0.3631964266648312  0.7364757814054429  0.6201850353394368
  0.5000000000000000  0.8993995756143105  0.4140466654064632
  0.6368035733351692  0.7364757814054429  0.6201850353394368
  0.7526393411015904  0.7608060579526938  0.3906282207450715
  0.8522820109503813  0.7955102535764345  0.5618586678568667
  0.0000000000000000  0.3004216128400857  0.6259821271919210
  0.1255851773188480  0.2376091096906471  0.4544788455720737
  0.1312185252530841  0.2302512397639451  0.5167773811600040
  0.0000000000000000  0.0954957788153927  0.4419114519166123
  0.2332498241663583  0.4508159421289863  0.5614796621671401
  0.2958692934869169  0.1078974679675380  0.4468626150519481
  0.2863466203935986  0.1056010237279609  0.5099436328388623
  0.2577157740923233  0.8342055300140381  0.3055910460570279
  0.5000000000000000  0.2483110950569574  0.5317993294927146
  0.7041307065130825  0.1078974679675380  0.4468626150519481
  0.7136533796064017  0.1056010237279609  0.5099436328388623
  0.5000000000000000  0.0327930950387167  0.4559584471670701
  0.7667501948336397  0.4508159421289863  0.5614796621671401
  0.8744147946811494  0.2376091096906471  0.4544788455720737
  0.8687814467469135  0.2302512397639451  0.5167773811600040
  0.7422842449076751  0.8342055300140381  0.3055910460570279
  0.0000000000000000  0.7180599987004123  0.5686055619567494
  0.0815333138917436  0.5360882944281893  0.6451409019929544
  0.0964609076875206  0.4612785635502827  0.6860725977996546
  0.0000000000000000  0.3516270830418576  0.5682495415815608
  0.2371175148291047  0.6691860189684304  0.5349542416108717
  0.4136410941029309  0.5044445676051407  0.4874736189207428
  0.4118665173466218  0.5326171697029470  0.5460668093164869
  0.2387895492033269  0.4187886054744822  0.5021860160073093
  0.5000000000000000  0.7113716572486037  0.5739198559881744
  0.5863589058970690  0.5044445676051407  0.4874736189207428
  0.5881334826533849  0.5326171697029470  0.5460668093164869
  0.5000000000000000  0.2763685961934887  0.4754368400821813
  0.7628825041708931  0.6691860189684304  0.5349542416108717
  0.9184666581082543  0.5360882944281893  0.6451409019929544
  0.9035390643124771  0.4612785635502827  0.6860725977996546
  0.7612104697966711  0.4187886054744822  0.5021860160073093
  0.0000000000000000  0.0451166867814505  0.4974645608117082
  0.1039233871006301  0.7785088057307525  0.4334065303346951
  0.1021961933884258  0.8440805528828028  0.4808001410315517
  0.0000000000000000  0.6393064026375026  0.5247256462114228
  0.2585274993949284 -0.0641548099361948  0.3029090098376349
  0.3263812098886030  0.8736866447031283  0.4321284455611444
  0.3055461979087438  0.8727950948867709  0.4941321742883955
  0.2496320794137648  0.6500325554989448  0.4738260881410998
  0.5000000000000000  0.0224071720676275  0.5201834378814628
  0.6736187901113961  0.8736866447031283  0.4321284455611444
  0.6944538020912624  0.8727950948867709  0.4941321742883955
  0.5000000000000000  0.7373855312973039  0.5115998889770965
  0.7414725196050699 -0.0641548099361948  0.3029090098376349
  0.8960765848993676  0.7785088057307525  0.4334065303346951
  0.8978037786115722  0.8440805528828028  0.4808001410315517
  0.7503679395862339  0.6500325554989448  0.4738260881410998
  0.4999200000000030  0.3837263294878010  0.6324898176032877
  0.0000000000000000  0.2193591012234954  0.3448614627280256
  0.1711673015052186  0.1690335591233931  0.6307264441499414
  0.3813757343462972  0.2394176890499193  0.3582002155033813
  0.2860402587502058  0.3528277261062553  0.6714219800606779
  0.5000000000000000  0.9949410213325736  0.3351921752531419
  0.7139597412497939  0.3528277261062553  0.6714219800606779
  0.6186242846537008  0.2394176890499193  0.3582002155033813
  0.8288326704947787  0.1690335591233931  0.6307264441499414
  0.0000000000000000  0.4547393144322519  0.4617301250616407
  0.2149636979663676  0.7627290071543597  0.6403666270484281
  0.2114809914592058  0.3845024470021279  0.3818262099939541
  0.3608136813571380  0.5971757477112362  0.6538605236078535
  0.5000000000000000  0.5419965489264300  0.3741029295249952
  0.6391863186428617  0.5971757477112362  0.6538605236078535
  0.7885190275407928  0.3845024470021279  0.3818262099939541
  0.7850362740336296  0.7627290071543597  0.6403666270484281
  0.0000000000000000  0.9245999726747295  0.3330804105400498
  0.1321115754200470  0.9505194875703128  0.5880863734401860
  0.2178717783533029  0.6143805507927182  0.3617315589880251
  0.3861579659641192  0.8896223548957775  0.6158155176342424
  0.5000000000000000  0.7555426652857911  0.3864899255489961
  0.6138420340358796  0.8896223548957775  0.6158155176342424
  0.7821282406466942  0.6143805507927182  0.3617315589880251
  0.8678883965799511  0.9505194875703128  0.5880863734401860
 
  0.00000000E+00  0.00000000E+00  0.00000000E+00
  0.00000000E+00  0.00000000E+00  0.00000000E+00
  0.00000000E+00  0.00000000E+00  0.00000000E+00
  0.00000000E+00  0.00000000E+00  0.00000000E+00
  0.00000000E+00  0.00000000E+00  0.00000000E+00
  0.00000000E+00  0.00000000E+00  0.00000000E+00
  0.00000000E+00  0.00000000E+00  0.00000000E+00
  0.00000000E+00  0.00000000E+00  0.00000000E+00
  0.00000000E+00  0.00000000E+00  0.00000000E+00
  0.00000000E+00  0.00000000E+00  0.00000000E+00
  0.00000000E+00  0.00000000E+00  0.00000000E+00
  0.00000000E+00  0.00000000E+00  0.00000000E+00
  0.00000000E+00  0.00000000E+00  0.00000000E+00
  0.00000000E+00  0.00000000E+00  0.00000000E+00
  0.00000000E+00  0.00000000E+00  0.00000000E+00
  0.00000000E+00  0.00000000E+00  0.00000000E+00
  0.00000000E+00  0.00000000E+00  0.00000000E+00
  0.00000000E+00  0.00000000E+00  0.00000000E+00
  0.00000000E+00  0.00000000E+00  0.00000000E+00
  0.00000000E+00  0.00000000E+00  0.00000000E+00
  0.00000000E+00  0.00000000E+00  0.00000000E+00
  0.00000000E+00  0.00000000E+00  0.00000000E+00
  0.00000000E+00  0.00000000E+00  0.00000000E+00
  0.00000000E+00  0.00000000E+00  0.00000000E+00
  0.00000000E+00  0.00000000E+00  0.00000000E+00
  0.00000000E+00  0.00000000E+00  0.00000000E+00
  0.00000000E+00  0.00000000E+00  0.00000000E+00
  0.00000000E+00  0.00000000E+00  0.00000000E+00
  0.00000000E+00  0.00000000E+00  0.00000000E+00
  0.00000000E+00  0.00000000E+00  0.00000000E+00
  0.00000000E+00  0.00000000E+00  0.00000000E+00
  0.00000000E+00  0.00000000E+00  0.00000000E+00
  0.00000000E+00  0.00000000E+00  0.00000000E+00
  0.00000000E+00  0.00000000E+00  0.00000000E+00
  0.00000000E+00  0.00000000E+00  0.00000000E+00
  0.00000000E+00  0.00000000E+00  0.00000000E+00
  0.00000000E+00  0.00000000E+00  0.00000000E+00
  0.00000000E+00  0.00000000E+00  0.00000000E+00
  0.00000000E+00  0.00000000E+00  0.00000000E+00
  0.00000000E+00  0.00000000E+00  0.00000000E+00
  0.00000000E+00  0.00000000E+00  0.00000000E+00
  0.00000000E+00  0.00000000E+00  0.00000000E+00
  0.00000000E+00  0.00000000E+00  0.00000000E+00
  0.00000000E+00  0.00000000E+00  0.00000000E+00
  0.00000000E+00  0.00000000E+00  0.00000000E+00
  0.00000000E+00  0.00000000E+00  0.00000000E+00
  0.00000000E+00  0.00000000E+00  0.00000000E+00
  0.00000000E+00  0.00000000E+00  0.00000000E+00
  0.00000000E+00  0.00000000E+00  0.00000000E+00
  0.00000000E+00  0.00000000E+00  0.00000000E+00
  0.00000000E+00  0.00000000E+00  0.00000000E+00
  0.00000000E+00  0.00000000E+00  0.00000000E+00
  0.00000000E+00  0.00000000E+00  0.00000000E+00
  0.00000000E+00  0.00000000E+00  0.00000000E+00
  0.00000000E+00  0.00000000E+00  0.00000000E+00
  0.00000000E+00  0.00000000E+00  0.00000000E+00
  0.00000000E+00  0.00000000E+00  0.00000000E+00
  0.00000000E+00  0.00000000E+00  0.00000000E+00
  0.00000000E+00  0.00000000E+00  0.00000000E+00
  0.00000000E+00  0.00000000E+00  0.00000000E+00
  0.00000000E+00  0.00000000E+00  0.00000000E+00
  0.00000000E+00  0.00000000E+00  0.00000000E+00
  0.00000000E+00  0.00000000E+00  0.00000000E+00
  0.00000000E+00  0.00000000E+00  0.00000000E+00
  0.00000000E+00  0.00000000E+00  0.00000000E+00
  0.00000000E+00  0.00000000E+00  0.00000000E+00
  0.00000000E+00  0.00000000E+00  0.00000000E+00
  0.00000000E+00  0.00000000E+00  0.00000000E+00
  0.00000000E+00  0.00000000E+00  0.00000000E+00
  0.00000000E+00  0.00000000E+00  0.00000000E+00
  0.00000000E+00  0.00000000E+00  0.00000000E+00
  0.00000000E+00  0.00000000E+00  0.00000000E+00
  0.00000000E+00  0.00000000E+00  0.00000000E+00
  0.00000000E+00  0.00000000E+00  0.00000000E+00
  0.00000000E+00  0.00000000E+00  0.00000000E+00
  0.00000000E+00  0.00000000E+00  0.00000000E+00
  0.00000000E+00  0.00000000E+00  0.00000000E+00
  0.00000000E+00  0.00000000E+00  0.00000000E+00
  0.00000000E+00  0.00000000E+00  0.00000000E+00
  0.00000000E+00  0.00000000E+00  0.00000000E+00
  0.00000000E+00  0.00000000E+00  0.00000000E+00
  0.00000000E+00  0.00000000E+00  0.00000000E+00
  0.00000000E+00  0.00000000E+00  0.00000000E+00
  0.00000000E+00  0.00000000E+00  0.00000000E+00
  0.00000000E+00  0.00000000E+00  0.00000000E+00
  0.00000000E+00  0.00000000E+00  0.00000000E+00
  0.00000000E+00  0.00000000E+00  0.00000000E+00
  0.00000000E+00  0.00000000E+00  0.00000000E+00
  0.00000000E+00  0.00000000E+00  0.00000000E+00
  0.00000000E+00  0.00000000E+00  0.00000000E+00
  0.00000000E+00  0.00000000E+00  0.00000000E+00
  0.00000000E+00  0.00000000E+00  0.00000000E+00
  0.00000000E+00  0.00000000E+00  0.00000000E+00
  0.00000000E+00  0.00000000E+00  0.00000000E+00
  0.00000000E+00  0.00000000E+00  0.00000000E+00
  0.00000000E+00  0.00000000E+00  0.00000000E+00
  0.00000000E+00  0.00000000E+00  0.00000000E+00
