 Gd2 C1 Cl2                             
   1.00000000000000     
     3.7348499730564222    0.0000000000000000    0.0000000000000000
    -1.8674244919455361    3.2344756021209906    0.0000000000000000
     0.0000000000000000    0.0000000000000000   21.2590479658760003
   Gd   C    Cl
     2     1     2
Direct
  0.3333331650574252  0.6666668351236851  0.5643993265502729
  0.6666668382524605  0.3333331668748869  0.4356006738508640
  0.9999999989550687  0.9999999972407991  0.4999999995486419
  0.3333330782702006  0.6666669119927917  0.3529010584619527
  0.6666669194648449  0.3333330887678443  0.6470989415882684
 
  0.00000000E+00  0.00000000E+00  0.00000000E+00
  0.00000000E+00  0.00000000E+00  0.00000000E+00
  0.00000000E+00  0.00000000E+00  0.00000000E+00
  0.00000000E+00  0.00000000E+00  0.00000000E+00
  0.00000000E+00  0.00000000E+00  0.00000000E+00
