CONTCAR\(7)                             
   1.00000000000000     
    11.2299995421999999    0.0000000000000000    0.0000000000000000
     0.0000000000000000   11.2298002242999999    0.0000000000000000
     0.0000000000000000    0.0000000000000000   19.9979991912999999
   Na   Mn   As   O 
    18    18    18     1
Direct
  0.0000000000000000  0.1686976046300300  0.6392579729160980
  0.1642239929765666  0.9978292237280054  0.3631127756257900
  0.3468336777738109  0.1800914698171105  0.6427632998032804
  0.5000000000000000  0.9980530736674292  0.3626411414964444
  0.6531663432261874  0.1800914698171105  0.6427632998032804
  0.8357759960234360  0.9978292237280054  0.3631127756257900
  0.0000000000000000  0.4988569655247574  0.6394052429619094
  0.1645238216361472  0.3331159154972004  0.3626359026596297
  0.3470386536162645  0.4866828665511931  0.6426613903148173
  0.5000000000000000  0.3331152793622146  0.3652182999167720
  0.6529613673837337  0.4866828665511931  0.6426613903148173
  0.8354761673638552  0.3331159154972004  0.3626359026596297
  0.0000000000000000  0.8327639310594055  0.6376466828206749
  0.1643077404733212  0.6695978354518836  0.3630834287563581
  0.3339539915336924  0.8329069000791391  0.6395403119462393
  0.5000000000000000  0.6691046802222014  0.3625555574938676
  0.6660460294663060  0.8329069000791391  0.6395403119462393
  0.8356922485266816  0.6695978354518836  0.3630834287563581
  0.1665712429989671  0.1663132055981863  0.5014053589843530
  0.0000000000000000  0.3334932783771242  0.5008231534560905
  0.5000000000000000  0.1605232826017792  0.4974921612567400
  0.3275667999359349  0.3334210122750474  0.4972127761607223
  0.8334287460010354  0.1663132055981863  0.5014053589843530
  0.6724332210640628  0.3334210122750474  0.4972127761607223
  0.1665067366307683  0.5002348597462856  0.5010355920622575
  0.0000000000000000  0.6654136497696441  0.5040811583881190
  0.5000000000000000  0.5059814100158214  0.4971952843680277
  0.3330394042990216  0.6667785476658906  0.5012646178231072
  0.8334932523692344  0.5002348597462856  0.5010355920622575
  0.6669606167009765  0.6667785476658906  0.5012646178231072
  0.1678050384394020  0.8332442573728748  0.5042825065119562
  0.0000000000000000  0.0010281722030694  0.5043330248391128
  0.5000000000000000  0.8334961839163064  0.5010976025513001
  0.3330781104266322 -0.0001020010680608  0.5015172283840731
  0.8321949505606009  0.8332442573728748  0.5042825065119562
  0.6669219105733660 -0.0001020010680608  0.5015172283840731
  0.0000000000000000  0.1651649440060014  0.4263244326839365
  0.1699938958508435  0.0033821240569582  0.5792373567444575
  0.3298576334865004  0.1631400746855031  0.4233597024984297
  0.5000000000000000  0.9993745444395162  0.5774341070950538
  0.6701423875134978  0.1631400746855031  0.4233597024984297
  0.8300060931491592  0.0033821240569582  0.5792373567444575
  0.0000000000000000  0.5013853680040792  0.4257939836204239
  0.1666183622007441  0.3335777681524094  0.5768731822271720
  0.3297967453673332  0.5034602667216387  0.4230241561638854
  0.5000000000000000  0.3333045293281685  0.5624196740432883
  0.6702032756326652  0.5034602667216387  0.4230241561638854
  0.8333816267992585  0.3335777681524094  0.5768731822271720
  0.0000000000000000  0.8334974456147041  0.4299805536946520
  0.1700267352676226  0.6626096756641078  0.5789378316047813
  0.3324669100562421  0.8335381788595410  0.4263296689767575
  0.5000000000000000  0.6671704670525550  0.5770221085538458
  0.6675331109437561  0.8335381788595410  0.4263296689767575
  0.8299732537323802  0.6626096756641078  0.5789378316047813
  0.4999600020000017  0.3333306414953749  0.6555738353475383
 
  0.00000000E+00  0.00000000E+00  0.00000000E+00
  0.00000000E+00  0.00000000E+00  0.00000000E+00
  0.00000000E+00  0.00000000E+00  0.00000000E+00
  0.00000000E+00  0.00000000E+00  0.00000000E+00
  0.00000000E+00  0.00000000E+00  0.00000000E+00
  0.00000000E+00  0.00000000E+00  0.00000000E+00
  0.00000000E+00  0.00000000E+00  0.00000000E+00
  0.00000000E+00  0.00000000E+00  0.00000000E+00
  0.00000000E+00  0.00000000E+00  0.00000000E+00
  0.00000000E+00  0.00000000E+00  0.00000000E+00
  0.00000000E+00  0.00000000E+00  0.00000000E+00
  0.00000000E+00  0.00000000E+00  0.00000000E+00
  0.00000000E+00  0.00000000E+00  0.00000000E+00
  0.00000000E+00  0.00000000E+00  0.00000000E+00
  0.00000000E+00  0.00000000E+00  0.00000000E+00
  0.00000000E+00  0.00000000E+00  0.00000000E+00
  0.00000000E+00  0.00000000E+00  0.00000000E+00
  0.00000000E+00  0.00000000E+00  0.00000000E+00
  0.00000000E+00  0.00000000E+00  0.00000000E+00
  0.00000000E+00  0.00000000E+00  0.00000000E+00
  0.00000000E+00  0.00000000E+00  0.00000000E+00
  0.00000000E+00  0.00000000E+00  0.00000000E+00
  0.00000000E+00  0.00000000E+00  0.00000000E+00
  0.00000000E+00  0.00000000E+00  0.00000000E+00
  0.00000000E+00  0.00000000E+00  0.00000000E+00
  0.00000000E+00  0.00000000E+00  0.00000000E+00
  0.00000000E+00  0.00000000E+00  0.00000000E+00
  0.00000000E+00  0.00000000E+00  0.00000000E+00
  0.00000000E+00  0.00000000E+00  0.00000000E+00
  0.00000000E+00  0.00000000E+00  0.00000000E+00
  0.00000000E+00  0.00000000E+00  0.00000000E+00
  0.00000000E+00  0.00000000E+00  0.00000000E+00
  0.00000000E+00  0.00000000E+00  0.00000000E+00
  0.00000000E+00  0.00000000E+00  0.00000000E+00
  0.00000000E+00  0.00000000E+00  0.00000000E+00
  0.00000000E+00  0.00000000E+00  0.00000000E+00
  0.00000000E+00  0.00000000E+00  0.00000000E+00
  0.00000000E+00  0.00000000E+00  0.00000000E+00
  0.00000000E+00  0.00000000E+00  0.00000000E+00
  0.00000000E+00  0.00000000E+00  0.00000000E+00
  0.00000000E+00  0.00000000E+00  0.00000000E+00
  0.00000000E+00  0.00000000E+00  0.00000000E+00
  0.00000000E+00  0.00000000E+00  0.00000000E+00
  0.00000000E+00  0.00000000E+00  0.00000000E+00
  0.00000000E+00  0.00000000E+00  0.00000000E+00
  0.00000000E+00  0.00000000E+00  0.00000000E+00
  0.00000000E+00  0.00000000E+00  0.00000000E+00
  0.00000000E+00  0.00000000E+00  0.00000000E+00
  0.00000000E+00  0.00000000E+00  0.00000000E+00
  0.00000000E+00  0.00000000E+00  0.00000000E+00
  0.00000000E+00  0.00000000E+00  0.00000000E+00
  0.00000000E+00  0.00000000E+00  0.00000000E+00
  0.00000000E+00  0.00000000E+00  0.00000000E+00
  0.00000000E+00  0.00000000E+00  0.00000000E+00
  0.00000000E+00  0.00000000E+00  0.00000000E+00
