CONTCAR\(6)                             
   1.00000000000000     
    12.0179996490000001    0.0000000000000000    0.0000000000000000
     5.5443836140000000   17.3830097696000010    0.0000000000000000
     0.0000000000000000    0.0000000000000000   18.4081001282000010
   Nb   Ir   Se   O    H 
    16     4    40     2     1
Direct
  0.3158139712245169  0.4144370546605271  0.4998199336127317
  0.3709616880929241  0.2093383395036228  0.4994743875171996
  0.0450994833424617  0.0022978601563004  0.4958607200241362
  0.0864486715555248  0.3176763074564741  0.4938457563422783
  0.8151662516380832  0.4148703385853731  0.4996240166431047
  0.8718583657510183  0.2062223643217796  0.4998529198968176
  0.5461007951931252  0.0021385246021271  0.4950194370496920
  0.5879625389471934  0.3175255549858548  0.4951275247753193
  0.3147166437159015  0.9189087095708843  0.4954198307559147
  0.3773964432032197  0.6930288633853122  0.5020551400193123
  0.0446523609660278  0.4936985750422559  0.5033366388516122
  0.0815151087331318  0.8098985404182887  0.4961793833605912
  0.8147880162079131  0.9191820515257630  0.4951105797542961
  0.8772274211825865  0.6934054887434332  0.5022337410954598
  0.5444087446649124  0.4941968027341967  0.5034407456611588
  0.5812546124279870  0.8088378155580825  0.4964605947970292
  0.2118896281717339  0.0954117315399960  0.4973699447290871
  0.7122411889895628  0.0955500711291437  0.4968301227468114
  0.2142670872399074  0.5909086574359643  0.5013853781362066
  0.7140533740030297  0.5912696843717407  0.5013533344359808
  0.1859966497365174  0.0062621722117929  0.5956510219560057
  0.0441940524999444  0.1066500859237594  0.4097037317274460
  0.2655609379700576  0.3051909714552333  0.5879770315811584
  0.1537767348300425  0.4029007004437873  0.4038535779890206
  0.3810446516464555  0.0959311176430448  0.5807075991902260
  0.2230739569958833  0.2026658319780721  0.4072828033320412
  0.4769367695068612  0.4038478670299803  0.5964856742469801
  0.3545226230047736  0.0090139545616945  0.4064932542411090
  0.0715255100915313  0.1998333153079692  0.5716419624845087
  0.4310095534828774  0.3049053936503270  0.4081999101157152
  0.6861533543665839  0.0063957283319648  0.5952062432247545
  0.5440797281874211  0.1067822770928039  0.4093848373809438
  0.7673271318608231  0.3045437300566780  0.5877389886627827
  0.6535132574205970  0.4025981052345453  0.4042144308719533
  0.8799609068807590  0.0958153297305512  0.5825831590588552
  0.7235719155141617  0.2024443267850275  0.4072372588829443
  0.9766121951932959  0.4038279610006405  0.5960175053113914
  0.8548087243770035  0.0088883117944925  0.4060910418406778
  0.5715908735916505  0.1995746236586818  0.5715235171369117
  0.9295030405007254  0.3048480280518394  0.4079855571533268
  0.1864582908042569  0.5020861989753891  0.6010094124837217
  0.0440750828327436  0.6018886877440350  0.4153023879262748
  0.2707601885199591  0.8050186435533612  0.5803684471154285
  0.1527925194564658  0.8977714565987229  0.4074535010727601
  0.3770842667127751  0.5927735161606363  0.5908113231839200
  0.2260596548440447  0.6945700298336889  0.4094591648503034
  0.4797199209945702  0.9063301833076023  0.5902566408234045
  0.3555816572928825  0.5051076667912675  0.4118170226626218
  0.0723993887769272  0.6952182979692746  0.5759131193380729
  0.4281025047320033  0.8023032723563813  0.4082451042714588
  0.6862312094475771  0.5024353027473817  0.6010711552838665
  0.5442124106579210  0.6018538439898589  0.4150701679784806
  0.7707358279182714  0.8053158816995529  0.5803244133212410
  0.6530668458759264  0.8970462635180202  0.4075601756875064
  0.8771054603490054  0.5929049184295432  0.5906453245142612
  0.7263349385476415  0.6946240064550651  0.4092673270877584
  0.9792182181120630  0.9063012897599397  0.5905295299869205
  0.8552894233923534  0.5055773798100797  0.4117492331725836
  0.5721688102267399  0.6951152872841382  0.5765538638396233
  0.9286245231386431  0.8023915655664143  0.4081351547346715
  0.3992097775077947  0.1676238654904728  0.7491799012958228
  0.4216359897037601  0.2339840643727820  0.7343695211483929
  0.3883286652469526  0.1455835909163638  0.7005784236273523
 
  0.00000000E+00  0.00000000E+00  0.00000000E+00
  0.00000000E+00  0.00000000E+00  0.00000000E+00
  0.00000000E+00  0.00000000E+00  0.00000000E+00
  0.00000000E+00  0.00000000E+00  0.00000000E+00
  0.00000000E+00  0.00000000E+00  0.00000000E+00
  0.00000000E+00  0.00000000E+00  0.00000000E+00
  0.00000000E+00  0.00000000E+00  0.00000000E+00
  0.00000000E+00  0.00000000E+00  0.00000000E+00
  0.00000000E+00  0.00000000E+00  0.00000000E+00
  0.00000000E+00  0.00000000E+00  0.00000000E+00
  0.00000000E+00  0.00000000E+00  0.00000000E+00
  0.00000000E+00  0.00000000E+00  0.00000000E+00
  0.00000000E+00  0.00000000E+00  0.00000000E+00
  0.00000000E+00  0.00000000E+00  0.00000000E+00
  0.00000000E+00  0.00000000E+00  0.00000000E+00
  0.00000000E+00  0.00000000E+00  0.00000000E+00
  0.00000000E+00  0.00000000E+00  0.00000000E+00
  0.00000000E+00  0.00000000E+00  0.00000000E+00
  0.00000000E+00  0.00000000E+00  0.00000000E+00
  0.00000000E+00  0.00000000E+00  0.00000000E+00
  0.00000000E+00  0.00000000E+00  0.00000000E+00
  0.00000000E+00  0.00000000E+00  0.00000000E+00
  0.00000000E+00  0.00000000E+00  0.00000000E+00
  0.00000000E+00  0.00000000E+00  0.00000000E+00
  0.00000000E+00  0.00000000E+00  0.00000000E+00
  0.00000000E+00  0.00000000E+00  0.00000000E+00
  0.00000000E+00  0.00000000E+00  0.00000000E+00
  0.00000000E+00  0.00000000E+00  0.00000000E+00
  0.00000000E+00  0.00000000E+00  0.00000000E+00
  0.00000000E+00  0.00000000E+00  0.00000000E+00
  0.00000000E+00  0.00000000E+00  0.00000000E+00
  0.00000000E+00  0.00000000E+00  0.00000000E+00
  0.00000000E+00  0.00000000E+00  0.00000000E+00
  0.00000000E+00  0.00000000E+00  0.00000000E+00
  0.00000000E+00  0.00000000E+00  0.00000000E+00
  0.00000000E+00  0.00000000E+00  0.00000000E+00
  0.00000000E+00  0.00000000E+00  0.00000000E+00
  0.00000000E+00  0.00000000E+00  0.00000000E+00
  0.00000000E+00  0.00000000E+00  0.00000000E+00
  0.00000000E+00  0.00000000E+00  0.00000000E+00
  0.00000000E+00  0.00000000E+00  0.00000000E+00
  0.00000000E+00  0.00000000E+00  0.00000000E+00
  0.00000000E+00  0.00000000E+00  0.00000000E+00
  0.00000000E+00  0.00000000E+00  0.00000000E+00
  0.00000000E+00  0.00000000E+00  0.00000000E+00
  0.00000000E+00  0.00000000E+00  0.00000000E+00
  0.00000000E+00  0.00000000E+00  0.00000000E+00
  0.00000000E+00  0.00000000E+00  0.00000000E+00
  0.00000000E+00  0.00000000E+00  0.00000000E+00
  0.00000000E+00  0.00000000E+00  0.00000000E+00
  0.00000000E+00  0.00000000E+00  0.00000000E+00
  0.00000000E+00  0.00000000E+00  0.00000000E+00
  0.00000000E+00  0.00000000E+00  0.00000000E+00
  0.00000000E+00  0.00000000E+00  0.00000000E+00
  0.00000000E+00  0.00000000E+00  0.00000000E+00
  0.00000000E+00  0.00000000E+00  0.00000000E+00
  0.00000000E+00  0.00000000E+00  0.00000000E+00
  0.00000000E+00  0.00000000E+00  0.00000000E+00
  0.00000000E+00  0.00000000E+00  0.00000000E+00
  0.00000000E+00  0.00000000E+00  0.00000000E+00
  0.00000000E+00  0.00000000E+00  0.00000000E+00
  0.00000000E+00  0.00000000E+00  0.00000000E+00
  0.00000000E+00  0.00000000E+00  0.00000000E+00
