CONTCAR                                 
   1.00000000000000     
    11.3112001419000006    0.0000000000000000    0.0000000000000000
    -5.6555817499999996   10.5064091515999998    0.0000000000000000
     0.0000000000000000    0.0000000000000000   21.6791000366000013
   Tb   C    Br   O    H 
    18    18    18     1     1
Selective dynamics
Direct
  0.1250432197100793  0.2503303604034315  0.5678747872935475   F   F   F
  0.2089126715360976  0.0843039765158125  0.4326401294631594   F   F   F
  0.4584711178059138  0.2503659573298620  0.5678737698183269   F   F   F
  0.5411132053857557  0.0824034316470659  0.4322948396659214   F   F   F
  0.7911391485275345  0.2492657612411762  0.5672484092878989   F   F   F
  0.8746154475816468  0.0824975957219820  0.4322380610244352   F   F   F
  0.1242252584002514  0.5812255703286127  0.5679189326391381   F   F   F
  0.2081285082811135  0.4160988014595262  0.4325144080962602   F   F   F
  0.4577712869391277  0.5819703958206688  0.5711434987445756   F   F   F
  0.5414535480391578  0.4160773640407598  0.4323981041852605   F   F   F
  0.7904043993556726  0.5813406898204931  0.5677613348496990   F   F   F
  0.8749432864346431  0.4163999752758940  0.4319042913115112   F   F   F
  0.1245559043658560  0.9159666433122453  0.5675898858305715   F   F   F
  0.2085186909295658  0.7499256776678749  0.4328227604780395   F   F   F
  0.4583710366564091  0.9155536963743671  0.5681695888808704   F   F   F
  0.5407700889840541  0.7482397725790548  0.4334157907209288   F   F   F
  0.7904528517024829  0.9156042535079862  0.5679815725936450   F   F   F
  0.8748273976520338  0.7499967036120481  0.4326400189688258   F   F   F
  0.3598130785251712  0.3861912596474681  0.5180394826421022   F   F   F
  0.3077257901450778  0.2819743226985949  0.4828906486387297   F   F   F
  0.6930661127519002  0.3852589542470213  0.5164314789852966   F   F   F
  0.6401409643561990  0.2799395299772272  0.4822188028896548   F   F   F
  0.0254116810044138  0.3852465022551854  0.5165322083342687   F   F   F
  0.9730664185896316  0.2799300222587462  0.4823079629149092   F   F   F
  0.3593558440061173  0.7180354851999056  0.5177291871260508   F   F   F
  0.3067769533136726  0.6125580888785152  0.4836481827415113   F   F   F
  0.6920721481385144  0.7180623109968565  0.5175376979454711   F   F   F
  0.6392552203269943  0.6125581219973029  0.4834755711778271   F   F   F
  0.0261722363628536  0.7190848444661952  0.5167709507029983   F   F   F
  0.9733715278600599  0.6133781364576336  0.4827883553450221   F   F   F
  0.3595901358089009  0.0526704682147496  0.5171079669022589   F   F   F
  0.3070416773108136  0.9470364702115717  0.4830174475693880   F   F   F
  0.6927831859346512  0.0525712898974291  0.5164246454185530   F   F   F
  0.6397971497289348  0.9463741020918732  0.4828280014707289   F   F   F
  0.0264093980351134  0.0527349570808227  0.5169850360313859   F   F   F
  0.9734350670358012  0.9471087419329436  0.4828834172309229   F   F   F
  0.0943374824368917  0.1884046521103357  0.3453810689722587   F   F   F
  0.2382686324823879  0.1435716332420753  0.6543168085746416   F   F   F
  0.4275005261433833  0.1884426434613502  0.3452860944020344   F   F   F
  0.5721613878885705  0.1439653201756386  0.6542593711380675   F   F   F
  0.7605194754394731  0.1878952696888589  0.3451812808508024   F   F   F
  0.9046840296697098  0.1437735869461108  0.6541709895486321   F   F   F
  0.0951204042192799  0.5224960557058580  0.3454575224783696   F   F   F
  0.2342397350081455  0.4741212162802739  0.6535478440353515   F   F   F
  0.4277701072526412  0.5222510806188296  0.3456493994374696   F   F   F
  0.5736577466271129  0.4740797762658744  0.6535049001488957   F   F   F
  0.7608232120110969  0.5221447531991430  0.3452719191871338   F   F   F
  0.9047080992768599  0.4761354667384907  0.6542878117784667   F   F   F
  0.0946619622777689  0.8557057220240765  0.3459330148431263   F   F   F
  0.2380893466523517  0.8101370379559185  0.6543301225487852   F   F   F
  0.4274485940151322  0.8542160433830901  0.3457609354812305   F   F   F
  0.5740758817368459  0.8144401180923779  0.6536227703877984   F   F   F
  0.7598491116085455  0.8540825986195628  0.3456026721693064   F   F   F
  0.9050299879219068  0.8100440453831297  0.6542240966607551   F   F   F
  0.4650964127694550  0.5963236424377598  0.7426276295450123   T   T   T
  0.4650453530402671  0.5984077455022855  0.7870351172512952   T   T   T
 
  0.00000000E+00  0.00000000E+00  0.00000000E+00
  0.00000000E+00  0.00000000E+00  0.00000000E+00
  0.00000000E+00  0.00000000E+00  0.00000000E+00
  0.00000000E+00  0.00000000E+00  0.00000000E+00
  0.00000000E+00  0.00000000E+00  0.00000000E+00
  0.00000000E+00  0.00000000E+00  0.00000000E+00
  0.00000000E+00  0.00000000E+00  0.00000000E+00
  0.00000000E+00  0.00000000E+00  0.00000000E+00
  0.00000000E+00  0.00000000E+00  0.00000000E+00
  0.00000000E+00  0.00000000E+00  0.00000000E+00
  0.00000000E+00  0.00000000E+00  0.00000000E+00
  0.00000000E+00  0.00000000E+00  0.00000000E+00
  0.00000000E+00  0.00000000E+00  0.00000000E+00
  0.00000000E+00  0.00000000E+00  0.00000000E+00
  0.00000000E+00  0.00000000E+00  0.00000000E+00
  0.00000000E+00  0.00000000E+00  0.00000000E+00
  0.00000000E+00  0.00000000E+00  0.00000000E+00
  0.00000000E+00  0.00000000E+00  0.00000000E+00
  0.00000000E+00  0.00000000E+00  0.00000000E+00
  0.00000000E+00  0.00000000E+00  0.00000000E+00
  0.00000000E+00  0.00000000E+00  0.00000000E+00
  0.00000000E+00  0.00000000E+00  0.00000000E+00
  0.00000000E+00  0.00000000E+00  0.00000000E+00
  0.00000000E+00  0.00000000E+00  0.00000000E+00
  0.00000000E+00  0.00000000E+00  0.00000000E+00
  0.00000000E+00  0.00000000E+00  0.00000000E+00
  0.00000000E+00  0.00000000E+00  0.00000000E+00
  0.00000000E+00  0.00000000E+00  0.00000000E+00
  0.00000000E+00  0.00000000E+00  0.00000000E+00
  0.00000000E+00  0.00000000E+00  0.00000000E+00
  0.00000000E+00  0.00000000E+00  0.00000000E+00
  0.00000000E+00  0.00000000E+00  0.00000000E+00
  0.00000000E+00  0.00000000E+00  0.00000000E+00
  0.00000000E+00  0.00000000E+00  0.00000000E+00
  0.00000000E+00  0.00000000E+00  0.00000000E+00
  0.00000000E+00  0.00000000E+00  0.00000000E+00
  0.00000000E+00  0.00000000E+00  0.00000000E+00
  0.00000000E+00  0.00000000E+00  0.00000000E+00
  0.00000000E+00  0.00000000E+00  0.00000000E+00
  0.00000000E+00  0.00000000E+00  0.00000000E+00
  0.00000000E+00  0.00000000E+00  0.00000000E+00
  0.00000000E+00  0.00000000E+00  0.00000000E+00
  0.00000000E+00  0.00000000E+00  0.00000000E+00
  0.00000000E+00  0.00000000E+00  0.00000000E+00
  0.00000000E+00  0.00000000E+00  0.00000000E+00
  0.00000000E+00  0.00000000E+00  0.00000000E+00
  0.00000000E+00  0.00000000E+00  0.00000000E+00
  0.00000000E+00  0.00000000E+00  0.00000000E+00
  0.00000000E+00  0.00000000E+00  0.00000000E+00
  0.00000000E+00  0.00000000E+00  0.00000000E+00
  0.00000000E+00  0.00000000E+00  0.00000000E+00
  0.00000000E+00  0.00000000E+00  0.00000000E+00
  0.00000000E+00  0.00000000E+00  0.00000000E+00
  0.00000000E+00  0.00000000E+00  0.00000000E+00
  0.00000000E+00  0.00000000E+00  0.00000000E+00
  0.00000000E+00  0.00000000E+00  0.00000000E+00
