CONTCAR\(2)                             
   1.00000000000000     
    16.2672996521000002    0.0000000000000000    0.0000000000000000
     2.6171829271000000   16.2219330010999983    0.0000000000000000
     0.0000000000000000    0.0000000000000000   16.8505992888999998
   Ag   H    O 
    18    19    38
Direct
  0.1809539225208989  0.1377779208339074  0.5362645041311500
  0.0250398541545700  0.2970179125838570  0.5407635153019051
  0.5324860316502164  0.1339466422846539  0.5302988334564283
  0.3650295745214159  0.2998739051750157  0.5436562106888316
  0.8478201980143955  0.1353303811773778  0.5315073876516827
  0.6866636884178086  0.3040177065746684  0.5304791994812318
  0.1981689711641767  0.4702235272548394  0.5411865749893328
  0.0245522827114694  0.6388987436857085  0.5270216287816661
  0.5203625244593139  0.4585369774916623  0.5493962978534436
  0.3567570254426340  0.6225061235642187  0.5453920306625204
  0.8591277666040182  0.4651753692839611  0.5293200933048182
  0.6893379197372551  0.6194617112013453  0.5436553061579590
  0.1893874739038589  0.7994065917346198  0.5213759578775004
  0.0159131689335650  0.9630277949370871  0.5316657804161099
  0.5175703663414670  0.7930267953713533  0.5245994871030477
  0.3510442510061291  0.9679891129371606  0.5123733067766197
  0.8499212774457272  0.7993846343212165  0.5421868156081000
  0.6880483972825193  0.9635128269573933  0.5406292266296010
  0.1769109869135159  0.2864983048248020  0.5705627322065064
  0.2196931954138770  0.0247787846591971  0.4268773265790514
  0.5181173030144131  0.2863676650231613  0.5527948783316364
  0.5835973498005019  0.0172819480034833  0.4283050455974117
  0.8460799311133905  0.2912024288676219  0.5304637022148735
  0.8643167802474232  0.9883515058061315  0.4675177291316184
  0.1790011705329872  0.6239207183779908  0.5459622673372676
  0.2274107243007306  0.3325904984559446  0.4605737969703381
  0.5106837005629791  0.6111820200054568  0.5669979079372114
  0.5512631871251515  0.3437906416950133  0.4192132104811838
  0.8441200932818502  0.6183758523713985  0.5474632335431319
  0.9121564858721605  0.3435666195787270  0.4320716131326217
  0.1727589728942195  0.9580711980304067  0.5264473838535048
  0.2370036983593628  0.6620026803124236  0.4399179421121341
  0.5098700813115435  0.9508203513490293  0.5175470580575336
  0.5550052780105299  0.6489162293371318  0.4555286590847355
  0.8355135018985810  0.9485416058006855  0.5829921263271534
  0.8893353333258680  0.6794054013384757  0.4385297826789937
  0.4666161863693714  0.4047461859346778  0.2908689534159116
  0.1385857501175564  0.2498680447074493  0.5909328466254908
  0.0322352604293205  0.0933788602314712  0.5265403662257897
  0.2278747653729979  0.0224582954570332  0.4840328187326647
  0.3328442220760168  0.1697774340310361  0.5375531824534936
  0.4817184094928064  0.2463204531540496  0.5766992365758322
  0.3904192557867694  0.1130553207032244  0.5096958180695501
  0.5753550279272556  0.0140145637451718  0.4853268421221949
  0.6669326011024581  0.1793771867981270  0.5340953373297834
  0.8082022879656280  0.2580594794344128  0.5590895870987572
  0.7249680977747424  0.1306685142176051  0.4904122460000379
  0.8883086421030977  0.0089124482595108  0.5150341462490948
  0.9739602305476890  0.1439601285756027  0.5658712142930989
  0.1408142439209989  0.5875493954847001  0.5679661081111627
  0.0676619603342955  0.4421933596846255  0.5060180293507079
  0.2394664020531733  0.3444273448465739  0.5155756682008857
  0.3321034927794185  0.4870369508290946  0.5708915768762391
  0.4737198629005033  0.5745777169164842  0.5908854296433309
  0.3914139441543283  0.4319566480107385  0.5342205015271720
  0.5647556541910547  0.3435952176389420  0.5090355131474001
  0.6475890636351680  0.4771135139296006  0.5659342576109885
  0.8125032313622029  0.5796736262635734  0.5752512143813691
  0.7030550337365054  0.4273286364353174  0.5204002663532653
  0.9091815399275377  0.3455862529705619  0.4896748822186144
  0.0055460000184078  0.5018356124649589  0.4975922913997621
  0.1394899085762013  0.9186703256101443  0.5517566137984367
  0.0518633018736745  0.7750411799354365  0.5099767656914556
  0.2414671546826803  0.6760350026180546  0.4956601832100503
  0.3241525742732894  0.8209081312165634  0.5477560241984682
  0.4708768165627484  0.9157665001058697  0.5401751163378137
  0.3853395305694103  0.7604874584145459  0.5310972608570701
  0.5656860316026885  0.6668406020847821  0.5090684931467938
  0.6505214710656603  0.8166798985139573  0.5466245110469665
  0.7971849264087807  0.9093488342073892  0.5959044029690954
  0.7122391597967840  0.7604114676760859  0.5250099654139357
  0.8988867330948618  0.6826197882157904  0.4953350104564956
  0.9924859990146651  0.8329990874198180  0.5399839041494356
  0.5436237523781345  0.3411579686872286  0.3580765272217731
  0.4771887667306297  0.4119345323626438  0.3472788260407044
 
  0.00000000E+00  0.00000000E+00  0.00000000E+00
  0.00000000E+00  0.00000000E+00  0.00000000E+00
  0.00000000E+00  0.00000000E+00  0.00000000E+00
  0.00000000E+00  0.00000000E+00  0.00000000E+00
  0.00000000E+00  0.00000000E+00  0.00000000E+00
  0.00000000E+00  0.00000000E+00  0.00000000E+00
  0.00000000E+00  0.00000000E+00  0.00000000E+00
  0.00000000E+00  0.00000000E+00  0.00000000E+00
  0.00000000E+00  0.00000000E+00  0.00000000E+00
  0.00000000E+00  0.00000000E+00  0.00000000E+00
  0.00000000E+00  0.00000000E+00  0.00000000E+00
  0.00000000E+00  0.00000000E+00  0.00000000E+00
  0.00000000E+00  0.00000000E+00  0.00000000E+00
  0.00000000E+00  0.00000000E+00  0.00000000E+00
  0.00000000E+00  0.00000000E+00  0.00000000E+00
  0.00000000E+00  0.00000000E+00  0.00000000E+00
  0.00000000E+00  0.00000000E+00  0.00000000E+00
  0.00000000E+00  0.00000000E+00  0.00000000E+00
  0.00000000E+00  0.00000000E+00  0.00000000E+00
  0.00000000E+00  0.00000000E+00  0.00000000E+00
  0.00000000E+00  0.00000000E+00  0.00000000E+00
  0.00000000E+00  0.00000000E+00  0.00000000E+00
  0.00000000E+00  0.00000000E+00  0.00000000E+00
  0.00000000E+00  0.00000000E+00  0.00000000E+00
  0.00000000E+00  0.00000000E+00  0.00000000E+00
  0.00000000E+00  0.00000000E+00  0.00000000E+00
  0.00000000E+00  0.00000000E+00  0.00000000E+00
  0.00000000E+00  0.00000000E+00  0.00000000E+00
  0.00000000E+00  0.00000000E+00  0.00000000E+00
  0.00000000E+00  0.00000000E+00  0.00000000E+00
  0.00000000E+00  0.00000000E+00  0.00000000E+00
  0.00000000E+00  0.00000000E+00  0.00000000E+00
  0.00000000E+00  0.00000000E+00  0.00000000E+00
  0.00000000E+00  0.00000000E+00  0.00000000E+00
  0.00000000E+00  0.00000000E+00  0.00000000E+00
  0.00000000E+00  0.00000000E+00  0.00000000E+00
  0.00000000E+00  0.00000000E+00  0.00000000E+00
  0.00000000E+00  0.00000000E+00  0.00000000E+00
  0.00000000E+00  0.00000000E+00  0.00000000E+00
  0.00000000E+00  0.00000000E+00  0.00000000E+00
  0.00000000E+00  0.00000000E+00  0.00000000E+00
  0.00000000E+00  0.00000000E+00  0.00000000E+00
  0.00000000E+00  0.00000000E+00  0.00000000E+00
  0.00000000E+00  0.00000000E+00  0.00000000E+00
  0.00000000E+00  0.00000000E+00  0.00000000E+00
  0.00000000E+00  0.00000000E+00  0.00000000E+00
  0.00000000E+00  0.00000000E+00  0.00000000E+00
  0.00000000E+00  0.00000000E+00  0.00000000E+00
  0.00000000E+00  0.00000000E+00  0.00000000E+00
  0.00000000E+00  0.00000000E+00  0.00000000E+00
  0.00000000E+00  0.00000000E+00  0.00000000E+00
  0.00000000E+00  0.00000000E+00  0.00000000E+00
  0.00000000E+00  0.00000000E+00  0.00000000E+00
  0.00000000E+00  0.00000000E+00  0.00000000E+00
  0.00000000E+00  0.00000000E+00  0.00000000E+00
  0.00000000E+00  0.00000000E+00  0.00000000E+00
  0.00000000E+00  0.00000000E+00  0.00000000E+00
  0.00000000E+00  0.00000000E+00  0.00000000E+00
  0.00000000E+00  0.00000000E+00  0.00000000E+00
  0.00000000E+00  0.00000000E+00  0.00000000E+00
  0.00000000E+00  0.00000000E+00  0.00000000E+00
  0.00000000E+00  0.00000000E+00  0.00000000E+00
  0.00000000E+00  0.00000000E+00  0.00000000E+00
  0.00000000E+00  0.00000000E+00  0.00000000E+00
  0.00000000E+00  0.00000000E+00  0.00000000E+00
  0.00000000E+00  0.00000000E+00  0.00000000E+00
  0.00000000E+00  0.00000000E+00  0.00000000E+00
  0.00000000E+00  0.00000000E+00  0.00000000E+00
  0.00000000E+00  0.00000000E+00  0.00000000E+00
  0.00000000E+00  0.00000000E+00  0.00000000E+00
  0.00000000E+00  0.00000000E+00  0.00000000E+00
  0.00000000E+00  0.00000000E+00  0.00000000E+00
  0.00000000E+00  0.00000000E+00  0.00000000E+00
  0.00000000E+00  0.00000000E+00  0.00000000E+00
  0.00000000E+00  0.00000000E+00  0.00000000E+00
