 Cr2 S2 Br2                             
   1.00000000000000     
     3.5156864300243411    0.0000000000000000    0.0000000000000000
     0.0000000000000000    4.6729320769688556    0.0000000000000000
     0.0000000000000000    0.0000000000000000   20.6536515773759959
   Cr   S    Br
     2     2     2
Direct
  0.5000000001962495  0.0000000001801521  0.4496841818963497
 -0.0000000000940142  0.4999999996806667  0.5503156198251961
  0.4999999999463953  0.5000000001634128  0.4725180051405422
  0.0000000001378257  0.0000000000217628  0.5274818482045062
  0.0000000000472030 -0.0000000009634984  0.3625866544074151
  0.4999999997663411  0.5000000009175045  0.6374136905259912
 
  0.00000000E+00  0.00000000E+00  0.00000000E+00
  0.00000000E+00  0.00000000E+00  0.00000000E+00
  0.00000000E+00  0.00000000E+00  0.00000000E+00
  0.00000000E+00  0.00000000E+00  0.00000000E+00
  0.00000000E+00  0.00000000E+00  0.00000000E+00
  0.00000000E+00  0.00000000E+00  0.00000000E+00
