CONTCAR\(8)                             
   1.00000000000000     
    12.3274002075000002    0.0000000000000000    0.0000000000000000
     0.0000000000000000   15.7540998459000008    0.0000000000000000
     0.0000000000000000    0.0000000000000000   20.2700004577999984
   Pr   Br   O    H 
    12    30     1     1
Selective dynamics
Direct
  0.2520371283655649  0.6390650111386051  0.4854915237551296   F   F   F
  0.0831964962374698  0.3606127617283974  0.4664142417577324   F   F   F
  0.2436871280487836  0.1412028660583431  0.5285814902488468   F   F   F
  0.0650391431056860  0.8715616453994173  0.4739331135990241   F   F   F
  0.5816505502759384  0.6389347977851472  0.4856518343927618   F   F   F
  0.4167095807098562  0.3573592405012391  0.4605137392851475   F   F   F
  0.5896860985539121  0.1413230669572059  0.5284803931994375   F   F   F
  0.4170078438184674  0.9026845706016147  0.5699753509693437   F   F   F
  0.9168038439146784  0.6427047808411501  0.5059710934235611   F   F   F
  0.7503260242251173  0.3605714775983415  0.4663962824455936   F   F   F
  0.9166957219524932  0.1461911239451581  0.5259073119850655   F   F   F
  0.7686143405808110  0.8716102693504340  0.4739721689762675   F   F   F
  0.2834298977084444  0.8259693572160742  0.4437362456390375   F   F   F
  0.0767995766895666  0.1537924037410932  0.6321412473326831   F   F   F
  0.2417033746244215  0.4720483093745855  0.3978290310013080   F   F   F
  0.0934555638170735  0.5214322338852355  0.5542867266320712   F   F   F
  0.0837268537703011  0.0596251607142264  0.4352405918723932   F   F   F
  0.1965712640921069  0.9621406989929042  0.5844833053620846   F   F   F
  0.0930937970810675  0.7384390242797565  0.5788954166858318   F   F   F
  0.2493735447107426  0.2437136350683886  0.3994078954316365   F   F   F
  0.0701163109765517  0.6900809329526894  0.3987725868574898   F   F   F
  0.2545433011492548  0.3242142073107601  0.5686617233948681   F   F   F
  0.5501717307394003  0.8260621242898907  0.4438593465079563   F   F   F
  0.4167083369036249  0.1188286376517453  0.6293010733502840   F   F   F
  0.5918068748166831  0.4720169897985329  0.3978839103147109   F   F   F
  0.4166899395507286  0.5123734140556593  0.5452037527538778   F   F   F
  0.4166778833134899  0.0415823707499996  0.4550626546505043   F   F   F
  0.6372650293461106  0.9624823015002946  0.5843668648192093   F   F   F
  0.4168077799187486  0.7128777139287905  0.5817307337898470   F   F   F
  0.5840149351307033  0.2437462010126907  0.3993586689020603   F   F   F
  0.4170114743127087  0.6455353925330058  0.3817641355913040   F   F   F
  0.5788189398473449  0.3242742428663163  0.5686182992240703   F   F   F
  0.9168469666244903  0.8919195671029172  0.3629244492532706   F   F   F
  0.7565235565786352  0.1542396081744073  0.6321199746778063   F   F   F
  0.9167425543970396  0.4807933572406000  0.4073538546048212   F   F   F
  0.7402106091697576  0.5213435541400813  0.5543601857509302   F   F   F
  0.7498450205185492  0.0596319979298983  0.4351647188533789   F   F   F
  0.9167928029212931  0.9520107870750891  0.5702337576331544   F   F   F
  0.7406483261794392  0.7384641246169679  0.5789427348383072   F   F   F
  0.9168218309286473  0.2514845186774082  0.3984193135681124   F   F   F
  0.7634226159368964  0.6901252905211095  0.3987946756156688   F   F   F
  0.9167554927131931  0.3313496426319702  0.5697863610756784   F   F   F
  0.4182504283936623  0.8870994036281985  0.6726754895413052   T   T   T
  0.4218597623505715  0.8919607964336507  0.7194615165863555   T   T   T
 
  0.00000000E+00  0.00000000E+00  0.00000000E+00
  0.00000000E+00  0.00000000E+00  0.00000000E+00
  0.00000000E+00  0.00000000E+00  0.00000000E+00
  0.00000000E+00  0.00000000E+00  0.00000000E+00
  0.00000000E+00  0.00000000E+00  0.00000000E+00
  0.00000000E+00  0.00000000E+00  0.00000000E+00
  0.00000000E+00  0.00000000E+00  0.00000000E+00
  0.00000000E+00  0.00000000E+00  0.00000000E+00
  0.00000000E+00  0.00000000E+00  0.00000000E+00
  0.00000000E+00  0.00000000E+00  0.00000000E+00
  0.00000000E+00  0.00000000E+00  0.00000000E+00
  0.00000000E+00  0.00000000E+00  0.00000000E+00
  0.00000000E+00  0.00000000E+00  0.00000000E+00
  0.00000000E+00  0.00000000E+00  0.00000000E+00
  0.00000000E+00  0.00000000E+00  0.00000000E+00
  0.00000000E+00  0.00000000E+00  0.00000000E+00
  0.00000000E+00  0.00000000E+00  0.00000000E+00
  0.00000000E+00  0.00000000E+00  0.00000000E+00
  0.00000000E+00  0.00000000E+00  0.00000000E+00
  0.00000000E+00  0.00000000E+00  0.00000000E+00
  0.00000000E+00  0.00000000E+00  0.00000000E+00
  0.00000000E+00  0.00000000E+00  0.00000000E+00
  0.00000000E+00  0.00000000E+00  0.00000000E+00
  0.00000000E+00  0.00000000E+00  0.00000000E+00
  0.00000000E+00  0.00000000E+00  0.00000000E+00
  0.00000000E+00  0.00000000E+00  0.00000000E+00
  0.00000000E+00  0.00000000E+00  0.00000000E+00
  0.00000000E+00  0.00000000E+00  0.00000000E+00
  0.00000000E+00  0.00000000E+00  0.00000000E+00
  0.00000000E+00  0.00000000E+00  0.00000000E+00
  0.00000000E+00  0.00000000E+00  0.00000000E+00
  0.00000000E+00  0.00000000E+00  0.00000000E+00
  0.00000000E+00  0.00000000E+00  0.00000000E+00
  0.00000000E+00  0.00000000E+00  0.00000000E+00
  0.00000000E+00  0.00000000E+00  0.00000000E+00
  0.00000000E+00  0.00000000E+00  0.00000000E+00
  0.00000000E+00  0.00000000E+00  0.00000000E+00
  0.00000000E+00  0.00000000E+00  0.00000000E+00
  0.00000000E+00  0.00000000E+00  0.00000000E+00
  0.00000000E+00  0.00000000E+00  0.00000000E+00
  0.00000000E+00  0.00000000E+00  0.00000000E+00
  0.00000000E+00  0.00000000E+00  0.00000000E+00
  0.00000000E+00  0.00000000E+00  0.00000000E+00
  0.00000000E+00  0.00000000E+00  0.00000000E+00
