CONTCAR\(5)                             
   1.00000000000000     
    10.8315000533999992    0.0000000000000000    0.0000000000000000
     5.4156999588000003    9.3802674871999994    0.0000000000000000
     0.0000000000000000    0.0000000000000000   21.2775001525999983
   Ti   Te   P 
    18    18     9
Direct
  0.1111100079999972  0.1111099929999995  0.4380172375290883
  0.2222200169999979  0.2222199859999989  0.5619827624709117
  0.4444400140000013  0.1111099929999995  0.4380172375290883
  0.5555600049999967  0.2222199859999989  0.5619827624709117
  0.7777799799999983  0.1111099929999995  0.4380172375290883
  0.8888900660000019  0.2222199859999989  0.5619827624709117
  0.1111100159999978  0.4444399719999979  0.4380172375290883
  0.2222199750000016  0.5555599919999992  0.5619827624709117
  0.4444400329999993  0.4444399719999979  0.4380172375290883
  0.5555600289999987  0.5555599919999992  0.5619827624709117
  0.7777800429999999  0.4444399719999979  0.4380172375290883
  0.8888900460000002  0.5555599919999992  0.5619827624709117
  0.1111100090000008  0.7777799520000030  0.4380172375290883
  0.2222200189999981  0.8888900090000007  0.5619827624709117
  0.4444399819999987  0.7777799520000030  0.4380172375290883
  0.5555599850000021  0.8888900090000007  0.5619827624709117
  0.7777800360000029  0.7777799520000030  0.4380172375290883
  0.8888900899999967  0.8888900090000007  0.5619827624709117
  0.2222200169999979  0.2222199859999989  0.3512686539552305
  0.1111100079999972  0.1111099929999995  0.6487313010447693
  0.5555600049999967  0.2222199859999989  0.3512686539552305
  0.4444400140000013  0.1111099929999995  0.6487313010447693
  0.8888900660000019  0.2222199859999989  0.3512686539552305
  0.7777799799999983  0.1111099929999995  0.6487313010447693
  0.2222199750000016  0.5555599919999992  0.3512686539552305
  0.1111100159999978  0.4444399719999979  0.6487313010447693
  0.5555600289999987  0.5555599919999992  0.3512686539552305
  0.4444400329999993  0.4444399719999979  0.6487313010447693
  0.8888900460000002  0.5555599919999992  0.3512686539552305
  0.7777800429999999  0.4444399719999979  0.6487313010447693
  0.2222200189999981  0.8888900090000007  0.3512686539552305
  0.1111100090000008  0.7777799520000030  0.6487313010447693
  0.5555599850000021  0.8888900090000007  0.3512686539552305
  0.4444399819999987  0.7777799520000030  0.6487313010447693
  0.8888900899999967  0.8888900090000007  0.3512686539552305
  0.7777800360000029  0.7777799520000030  0.6487313010447693
  0.0000000000000000  0.0000000000000000  0.5000000000000000
  0.3333299949999997  0.0000000000000000  0.5000000000000000
  0.6666700270000021  0.0000000000000000  0.5000000000000000
  0.0000000020000002  0.3333299909999994  0.5000000000000000
  0.3333299860000025  0.3333299909999994  0.5000000000000000
  0.6666700399999996  0.3333299909999994  0.5000000000000000
  0.0000000149999977  0.6666699969999996  0.5000000000000000
  0.3333300099999974  0.6666699969999996  0.5000000000000000
  0.6666700199999980  0.6666699969999996  0.5000000000000000
 
  0.00000000E+00  0.00000000E+00  0.00000000E+00
  0.00000000E+00  0.00000000E+00  0.00000000E+00
  0.00000000E+00  0.00000000E+00  0.00000000E+00
  0.00000000E+00  0.00000000E+00  0.00000000E+00
  0.00000000E+00  0.00000000E+00  0.00000000E+00
  0.00000000E+00  0.00000000E+00  0.00000000E+00
  0.00000000E+00  0.00000000E+00  0.00000000E+00
  0.00000000E+00  0.00000000E+00  0.00000000E+00
  0.00000000E+00  0.00000000E+00  0.00000000E+00
  0.00000000E+00  0.00000000E+00  0.00000000E+00
  0.00000000E+00  0.00000000E+00  0.00000000E+00
  0.00000000E+00  0.00000000E+00  0.00000000E+00
  0.00000000E+00  0.00000000E+00  0.00000000E+00
  0.00000000E+00  0.00000000E+00  0.00000000E+00
  0.00000000E+00  0.00000000E+00  0.00000000E+00
  0.00000000E+00  0.00000000E+00  0.00000000E+00
  0.00000000E+00  0.00000000E+00  0.00000000E+00
  0.00000000E+00  0.00000000E+00  0.00000000E+00
  0.00000000E+00  0.00000000E+00  0.00000000E+00
  0.00000000E+00  0.00000000E+00  0.00000000E+00
  0.00000000E+00  0.00000000E+00  0.00000000E+00
  0.00000000E+00  0.00000000E+00  0.00000000E+00
  0.00000000E+00  0.00000000E+00  0.00000000E+00
  0.00000000E+00  0.00000000E+00  0.00000000E+00
  0.00000000E+00  0.00000000E+00  0.00000000E+00
  0.00000000E+00  0.00000000E+00  0.00000000E+00
  0.00000000E+00  0.00000000E+00  0.00000000E+00
  0.00000000E+00  0.00000000E+00  0.00000000E+00
  0.00000000E+00  0.00000000E+00  0.00000000E+00
  0.00000000E+00  0.00000000E+00  0.00000000E+00
  0.00000000E+00  0.00000000E+00  0.00000000E+00
  0.00000000E+00  0.00000000E+00  0.00000000E+00
  0.00000000E+00  0.00000000E+00  0.00000000E+00
  0.00000000E+00  0.00000000E+00  0.00000000E+00
  0.00000000E+00  0.00000000E+00  0.00000000E+00
  0.00000000E+00  0.00000000E+00  0.00000000E+00
  0.00000000E+00  0.00000000E+00  0.00000000E+00
  0.00000000E+00  0.00000000E+00  0.00000000E+00
  0.00000000E+00  0.00000000E+00  0.00000000E+00
  0.00000000E+00  0.00000000E+00  0.00000000E+00
  0.00000000E+00  0.00000000E+00  0.00000000E+00
  0.00000000E+00  0.00000000E+00  0.00000000E+00
  0.00000000E+00  0.00000000E+00  0.00000000E+00
  0.00000000E+00  0.00000000E+00  0.00000000E+00
  0.00000000E+00  0.00000000E+00  0.00000000E+00
