CONTCAR\(3)                             
   1.00000000000000     
    12.0853004455999997    0.0000000000000000    0.0000000000000000
     0.0000000000000000   13.7131004332999993    0.0000000000000000
     0.0000000000000000    0.0000000000000000   20.3784999846999995
   Zr   Te   O 
     6    30     1
Direct
  0.0024917347109147  0.5000162601167869  0.4473177811581369
  0.1682351015657666  0.9999874297951457  0.5479163875053080
  0.3396767739573421  0.5000599844862984  0.4453974741749596
  0.5010277386558253 -0.0000004453516536  0.5496852908976784
  0.6626880576754185  0.5000269023397670  0.4424940271680745
  0.8347462697214382 -0.0000072697983517  0.5484243844539369
  0.1712063759101096  0.5000950414444124  0.5561081802252233
  0.0010679018309056  0.9999567966222411  0.4381221256449967
  0.1692323916379503  0.6009686594316183  0.3644432818570495
  0.0017520458658022  0.8986471625623926  0.6304197648556482
  0.0018549758272721  0.1012026091390142  0.6304681902848581
  0.1691574215562223  0.3991433497202537  0.3644335340964620
  0.0025672996293238  0.3163444009584115  0.5260562915819328
  0.1692033084047875  0.1827345886009698  0.4688683987676486
  0.1692148481346331  0.8172475362474217  0.4688966628126928
  0.0025244014925761  0.6836601819001101  0.5260450503321225
  0.5026896344259286  0.4999557458076905  0.5587818330187452
  0.3362323515847742  0.0000024434489891  0.4389422839137566
  0.5006122198606338  0.6225161151492178  0.3721661875862091
  0.3340325940431076  0.8987023500480394  0.6313163347273717
  0.3340542356418638  0.1012861701432458  0.6312946552476537
  0.5003257640679577  0.3777484948085457  0.3720364681198523
  0.3346251111246403  0.3186535360592796  0.5278383536668428
  0.5033627827816698  0.1850105679431614  0.4730830140605617
  0.5032927271020318  0.8148445042867014  0.4731827197074978
  0.3345423578275841  0.6812836070286717  0.5279193390635926
  0.8353616651994301  0.5000063387940924  0.5564070410228743
  0.6674869623709738  0.0000530766074312  0.4392456463827991
  0.8374961883315649  0.6010883224215675  0.3638602029273592
  0.6682642323929835  0.8987515899789703  0.6314221059615939
  0.6682870314506573  0.1011889733827013  0.6314332092111392
  0.8374277389850353  0.3988654908986550  0.3639118876222948
  0.6706697531290977  0.3213836488412604  0.5287194002230536
  0.8344452388721991  0.1841670786958568  0.4700553894687364
  0.8343810100045942  0.8158734790794149  0.4700269823246430
  0.6708068816680519  0.6786205447585353  0.5287567680535509
  0.5912868745589134  0.5000746946031361  0.3402234918731808
 
  0.00000000E+00  0.00000000E+00  0.00000000E+00
  0.00000000E+00  0.00000000E+00  0.00000000E+00
  0.00000000E+00  0.00000000E+00  0.00000000E+00
  0.00000000E+00  0.00000000E+00  0.00000000E+00
  0.00000000E+00  0.00000000E+00  0.00000000E+00
  0.00000000E+00  0.00000000E+00  0.00000000E+00
  0.00000000E+00  0.00000000E+00  0.00000000E+00
  0.00000000E+00  0.00000000E+00  0.00000000E+00
  0.00000000E+00  0.00000000E+00  0.00000000E+00
  0.00000000E+00  0.00000000E+00  0.00000000E+00
  0.00000000E+00  0.00000000E+00  0.00000000E+00
  0.00000000E+00  0.00000000E+00  0.00000000E+00
  0.00000000E+00  0.00000000E+00  0.00000000E+00
  0.00000000E+00  0.00000000E+00  0.00000000E+00
  0.00000000E+00  0.00000000E+00  0.00000000E+00
  0.00000000E+00  0.00000000E+00  0.00000000E+00
  0.00000000E+00  0.00000000E+00  0.00000000E+00
  0.00000000E+00  0.00000000E+00  0.00000000E+00
  0.00000000E+00  0.00000000E+00  0.00000000E+00
  0.00000000E+00  0.00000000E+00  0.00000000E+00
  0.00000000E+00  0.00000000E+00  0.00000000E+00
  0.00000000E+00  0.00000000E+00  0.00000000E+00
  0.00000000E+00  0.00000000E+00  0.00000000E+00
  0.00000000E+00  0.00000000E+00  0.00000000E+00
  0.00000000E+00  0.00000000E+00  0.00000000E+00
  0.00000000E+00  0.00000000E+00  0.00000000E+00
  0.00000000E+00  0.00000000E+00  0.00000000E+00
  0.00000000E+00  0.00000000E+00  0.00000000E+00
  0.00000000E+00  0.00000000E+00  0.00000000E+00
  0.00000000E+00  0.00000000E+00  0.00000000E+00
  0.00000000E+00  0.00000000E+00  0.00000000E+00
  0.00000000E+00  0.00000000E+00  0.00000000E+00
  0.00000000E+00  0.00000000E+00  0.00000000E+00
  0.00000000E+00  0.00000000E+00  0.00000000E+00
  0.00000000E+00  0.00000000E+00  0.00000000E+00
  0.00000000E+00  0.00000000E+00  0.00000000E+00
  0.00000000E+00  0.00000000E+00  0.00000000E+00
