CONTCAR\(8)                             
   1.00000000000000     
    11.4949998856000004    0.0000000000000000    0.0000000000000000
     0.0000000000000000   11.4948997498000001    0.0000000000000000
     0.0000000000000000    0.0000000000000000   21.0240001678000006
   Ca   Cu   Br   O 
    18     9    18    18
Direct
  0.0000000000000000  0.0000000000000000  0.5746599880000005
  0.0000000000000000  0.0000000000000000  0.4253400119999995
  0.3333300010000002  0.0000000000000000  0.5746599880000005
  0.3333300010000002  0.0000000000000000  0.4253400119999995
  0.6666700410000033  0.0000000000000000  0.5746599880000005
  0.6666700410000033  0.0000000000000000  0.4253400119999995
  0.0000000000000000  0.3333300010000002  0.5746599880000005
  0.0000000000000000  0.3333300010000002  0.4253400119999995
  0.3333300010000002  0.3333300010000002  0.5746599880000005
  0.3333300010000002  0.3333300010000002  0.4253400119999995
  0.6666700410000033  0.3333300010000002  0.5746599880000005
  0.6666700410000033  0.3333300010000002  0.4253400119999995
  0.0000000000000000  0.6666700410000033  0.5746599880000005
  0.0000000000000000  0.6666700410000033  0.4253400119999995
  0.3333300010000002  0.6666700410000033  0.5746599880000005
  0.3333300010000002  0.6666700410000033  0.4253400119999995
  0.6666700410000033  0.6666700410000033  0.5746599880000005
  0.6666700410000033  0.6666700410000033  0.4253400119999995
  0.1666699989999998  0.1666699989999998  0.5000000000000000
  0.5000000000000000  0.1666699989999998  0.5000000000000000
  0.8333300010000002  0.1666699989999998  0.5000000000000000
  0.1666699989999998  0.5000000000000000  0.5000000000000000
  0.5000000000000000  0.5000000000000000  0.5000000000000000
  0.8333300010000002  0.5000000000000000  0.5000000000000000
  0.1666699989999998  0.8333299589999967  0.5000000000000000
  0.5000000000000000  0.8333299589999967  0.5000000000000000
  0.8333300010000002  0.8333299589999967  0.5000000000000000
  0.1666699989999998  0.1666699989999998  0.6444699549999982
  0.1666699989999998  0.1666699989999998  0.3555300000000017
  0.5000000000000000  0.1666699989999998  0.6444699549999982
  0.5000000000000000  0.1666699989999998  0.3555300000000017
  0.8333300010000002  0.1666699989999998  0.6444699549999982
  0.8333300010000002  0.1666699989999998  0.3555300000000017
  0.1666699989999998  0.5000000000000000  0.6444699549999982
  0.1666699989999998  0.5000000000000000  0.3555300000000017
  0.5000000000000000  0.5000000000000000  0.6444699549999982
  0.5000000000000000  0.5000000000000000  0.3555300000000017
  0.8333300010000002  0.5000000000000000  0.6444699549999982
  0.8333300010000002  0.5000000000000000  0.3555300000000017
  0.1666699989999998  0.8333299589999967  0.6444699549999982
  0.1666699989999998  0.8333299589999967  0.3555300000000017
  0.5000000000000000  0.8333299589999967  0.6444699549999982
  0.5000000000000000  0.8333299589999967  0.3555300000000017
  0.8333300010000002  0.8333299589999967  0.6444699549999982
  0.8333300010000002  0.8333299589999967  0.3555300000000017
  0.0000000000000000  0.1666699989999998  0.5000000000000000
  0.1666699989999998  0.0000000000000000  0.5000000000000000
  0.3333300010000002  0.1666699989999998  0.5000000000000000
  0.5000000000000000  0.0000000000000000  0.5000000000000000
  0.6666700410000033  0.1666699989999998  0.5000000000000000
  0.8333300010000002  0.0000000000000000  0.5000000000000000
  0.0000000000000000  0.5000000000000000  0.5000000000000000
  0.1666699989999998  0.3333300010000002  0.5000000000000000
  0.3333300010000002  0.5000000000000000  0.5000000000000000
  0.5000000000000000  0.3333300010000002  0.5000000000000000
  0.6666700410000033  0.5000000000000000  0.5000000000000000
  0.8333300010000002  0.3333300010000002  0.5000000000000000
  0.0000000000000000  0.8333299589999967  0.5000000000000000
  0.1666699989999998  0.6666700410000033  0.5000000000000000
  0.3333300010000002  0.8333299589999967  0.5000000000000000
  0.5000000000000000  0.6666700410000033  0.5000000000000000
  0.6666700410000033  0.8333299589999967  0.5000000000000000
  0.8333300010000002  0.6666700410000033  0.5000000000000000
 
  0.00000000E+00  0.00000000E+00  0.00000000E+00
  0.00000000E+00  0.00000000E+00  0.00000000E+00
  0.00000000E+00  0.00000000E+00  0.00000000E+00
  0.00000000E+00  0.00000000E+00  0.00000000E+00
  0.00000000E+00  0.00000000E+00  0.00000000E+00
  0.00000000E+00  0.00000000E+00  0.00000000E+00
  0.00000000E+00  0.00000000E+00  0.00000000E+00
  0.00000000E+00  0.00000000E+00  0.00000000E+00
  0.00000000E+00  0.00000000E+00  0.00000000E+00
  0.00000000E+00  0.00000000E+00  0.00000000E+00
  0.00000000E+00  0.00000000E+00  0.00000000E+00
  0.00000000E+00  0.00000000E+00  0.00000000E+00
  0.00000000E+00  0.00000000E+00  0.00000000E+00
  0.00000000E+00  0.00000000E+00  0.00000000E+00
  0.00000000E+00  0.00000000E+00  0.00000000E+00
  0.00000000E+00  0.00000000E+00  0.00000000E+00
  0.00000000E+00  0.00000000E+00  0.00000000E+00
  0.00000000E+00  0.00000000E+00  0.00000000E+00
  0.00000000E+00  0.00000000E+00  0.00000000E+00
  0.00000000E+00  0.00000000E+00  0.00000000E+00
  0.00000000E+00  0.00000000E+00  0.00000000E+00
  0.00000000E+00  0.00000000E+00  0.00000000E+00
  0.00000000E+00  0.00000000E+00  0.00000000E+00
  0.00000000E+00  0.00000000E+00  0.00000000E+00
  0.00000000E+00  0.00000000E+00  0.00000000E+00
  0.00000000E+00  0.00000000E+00  0.00000000E+00
  0.00000000E+00  0.00000000E+00  0.00000000E+00
  0.00000000E+00  0.00000000E+00  0.00000000E+00
  0.00000000E+00  0.00000000E+00  0.00000000E+00
  0.00000000E+00  0.00000000E+00  0.00000000E+00
  0.00000000E+00  0.00000000E+00  0.00000000E+00
  0.00000000E+00  0.00000000E+00  0.00000000E+00
  0.00000000E+00  0.00000000E+00  0.00000000E+00
  0.00000000E+00  0.00000000E+00  0.00000000E+00
  0.00000000E+00  0.00000000E+00  0.00000000E+00
  0.00000000E+00  0.00000000E+00  0.00000000E+00
  0.00000000E+00  0.00000000E+00  0.00000000E+00
  0.00000000E+00  0.00000000E+00  0.00000000E+00
  0.00000000E+00  0.00000000E+00  0.00000000E+00
  0.00000000E+00  0.00000000E+00  0.00000000E+00
  0.00000000E+00  0.00000000E+00  0.00000000E+00
  0.00000000E+00  0.00000000E+00  0.00000000E+00
  0.00000000E+00  0.00000000E+00  0.00000000E+00
  0.00000000E+00  0.00000000E+00  0.00000000E+00
  0.00000000E+00  0.00000000E+00  0.00000000E+00
  0.00000000E+00  0.00000000E+00  0.00000000E+00
  0.00000000E+00  0.00000000E+00  0.00000000E+00
  0.00000000E+00  0.00000000E+00  0.00000000E+00
  0.00000000E+00  0.00000000E+00  0.00000000E+00
  0.00000000E+00  0.00000000E+00  0.00000000E+00
  0.00000000E+00  0.00000000E+00  0.00000000E+00
  0.00000000E+00  0.00000000E+00  0.00000000E+00
  0.00000000E+00  0.00000000E+00  0.00000000E+00
  0.00000000E+00  0.00000000E+00  0.00000000E+00
  0.00000000E+00  0.00000000E+00  0.00000000E+00
  0.00000000E+00  0.00000000E+00  0.00000000E+00
  0.00000000E+00  0.00000000E+00  0.00000000E+00
  0.00000000E+00  0.00000000E+00  0.00000000E+00
  0.00000000E+00  0.00000000E+00  0.00000000E+00
  0.00000000E+00  0.00000000E+00  0.00000000E+00
  0.00000000E+00  0.00000000E+00  0.00000000E+00
  0.00000000E+00  0.00000000E+00  0.00000000E+00
  0.00000000E+00  0.00000000E+00  0.00000000E+00
