CONTCAR\(10)                            
   1.00000000000000     
    13.7902002335000002    0.0000000000000000    0.0000000000000000
     6.8951001167000001   11.9426637253999992    0.0000000000000000
     0.0000000000000000    0.0000000000000000   18.3700008391999994
   Nb   Se   O    H 
    16    32     2     1
Direct
  0.0841302161186022  0.0879387408990269  0.5020319958541464
  0.3281584823990045  0.0920506037036688  0.5017684750353908
  0.5837210862032336  0.0882894208303497  0.5019036640603431
  0.8352114985162586  0.0922957817261789  0.5027036178586854
  0.0878283165213531  0.3325160602805752  0.5021320305472941
  0.3247634589367294  0.3289139975401127  0.5011274888393800
  0.6021792484688788  0.3293458215860809  0.5020971603731468
  0.8353224129593784  0.3327223094663694  0.5023142236731815
  0.0840708457974841  0.5879354941000514  0.5023431854224043
  0.3252219777849987  0.6062683880261375  0.5016639605296120
  0.5840199387185834  0.5878106636115916  0.5018744577857746
  0.8330095499397174  0.5891772470393661  0.5030355380515772
  0.0879996341952420  0.8399186802859617  0.5025148768209391
  0.3282123231909253  0.8405847478681352  0.5015274650498682
  0.5849041374122166  0.8376399458353845  0.5023575801132196
  0.8330693523017416  0.8378395570549060  0.5028940345032851
  0.1664544233314871  0.1703722773194656  0.5956508278019896
  0.1660022430621311  0.1708148747529492  0.4082585472334870
  0.4175451513501685  0.1685395631702491  0.5946055616298196
  0.4183678024952826  0.1679970243762199  0.4088043922225779
  0.6690297870326418  0.1686030599079871  0.5951394671601093
  0.6696763845032550  0.1684399786703850  0.4095925960349192
  0.9196256249474715  0.1704938704634245  0.5958492702232547
  0.9187691506216780  0.1705056344595448  0.4088662897807609
  0.1643888516950440  0.4217949602806144  0.5947736941593504
  0.1632196000787900  0.4230328247792698  0.4090952780160961
  0.4152425304446155  0.4208966269237564  0.5763313314869336
  0.4177527878777525  0.4217186806118320  0.4228312296401313
  0.6693533576182062  0.4224669391044671  0.5950594439996024
  0.6698373181994981  0.4222205001451940  0.4091436499262571
  0.9177874815186229  0.4205273823853446  0.5924680855954705
  0.9170363459312298  0.4214926109892829  0.4125748766385016
  0.1646519265888458  0.6735795112918339  0.5952079524998624
  0.1638062759694563  0.6739590263581761  0.4097268087500652
  0.4178919437189563  0.6748434457835302  0.5943614351058883
  0.4183825050644998  0.6740240222828007  0.4090842883442676
  0.6663679469495776  0.6715084427166786  0.5944148360601460
  0.6677008054970131  0.6714050817346831  0.4105165767742989
  0.9178231876441387  0.6711967057992325  0.5945772258612720
  0.9168696891043666  0.6715679892002271  0.4110101658450205
  0.1666874260685702  0.9235930739524179  0.5958376665743543
  0.1659340839556336  0.9234613552940658  0.4083205604441886
  0.4163237879769142  0.9221815228060208  0.5920658269869463
  0.4172435110318347  0.9218479972224713  0.4117750239690992
  0.6664876581751287  0.9221322970264580  0.5942947289769265
  0.6676618409239197  0.9210003019415538  0.4104460652111754
  0.9177474382810118  0.9217248763080690  0.5926410423431037
  0.9172388403512031  0.9217232386638656  0.4128371364824588
  0.4015132938797450  0.4151224569613134  0.6796434018625277
  0.4403159744454967  0.4822262556549290  0.7158183372865423
  0.3709093502014866  0.5553493338078113  0.7189073735542451
 
  0.00000000E+00  0.00000000E+00  0.00000000E+00
  0.00000000E+00  0.00000000E+00  0.00000000E+00
  0.00000000E+00  0.00000000E+00  0.00000000E+00
  0.00000000E+00  0.00000000E+00  0.00000000E+00
  0.00000000E+00  0.00000000E+00  0.00000000E+00
  0.00000000E+00  0.00000000E+00  0.00000000E+00
  0.00000000E+00  0.00000000E+00  0.00000000E+00
  0.00000000E+00  0.00000000E+00  0.00000000E+00
  0.00000000E+00  0.00000000E+00  0.00000000E+00
  0.00000000E+00  0.00000000E+00  0.00000000E+00
  0.00000000E+00  0.00000000E+00  0.00000000E+00
  0.00000000E+00  0.00000000E+00  0.00000000E+00
  0.00000000E+00  0.00000000E+00  0.00000000E+00
  0.00000000E+00  0.00000000E+00  0.00000000E+00
  0.00000000E+00  0.00000000E+00  0.00000000E+00
  0.00000000E+00  0.00000000E+00  0.00000000E+00
  0.00000000E+00  0.00000000E+00  0.00000000E+00
  0.00000000E+00  0.00000000E+00  0.00000000E+00
  0.00000000E+00  0.00000000E+00  0.00000000E+00
  0.00000000E+00  0.00000000E+00  0.00000000E+00
  0.00000000E+00  0.00000000E+00  0.00000000E+00
  0.00000000E+00  0.00000000E+00  0.00000000E+00
  0.00000000E+00  0.00000000E+00  0.00000000E+00
  0.00000000E+00  0.00000000E+00  0.00000000E+00
  0.00000000E+00  0.00000000E+00  0.00000000E+00
  0.00000000E+00  0.00000000E+00  0.00000000E+00
  0.00000000E+00  0.00000000E+00  0.00000000E+00
  0.00000000E+00  0.00000000E+00  0.00000000E+00
  0.00000000E+00  0.00000000E+00  0.00000000E+00
  0.00000000E+00  0.00000000E+00  0.00000000E+00
  0.00000000E+00  0.00000000E+00  0.00000000E+00
  0.00000000E+00  0.00000000E+00  0.00000000E+00
  0.00000000E+00  0.00000000E+00  0.00000000E+00
  0.00000000E+00  0.00000000E+00  0.00000000E+00
  0.00000000E+00  0.00000000E+00  0.00000000E+00
  0.00000000E+00  0.00000000E+00  0.00000000E+00
  0.00000000E+00  0.00000000E+00  0.00000000E+00
  0.00000000E+00  0.00000000E+00  0.00000000E+00
  0.00000000E+00  0.00000000E+00  0.00000000E+00
  0.00000000E+00  0.00000000E+00  0.00000000E+00
  0.00000000E+00  0.00000000E+00  0.00000000E+00
  0.00000000E+00  0.00000000E+00  0.00000000E+00
  0.00000000E+00  0.00000000E+00  0.00000000E+00
  0.00000000E+00  0.00000000E+00  0.00000000E+00
  0.00000000E+00  0.00000000E+00  0.00000000E+00
  0.00000000E+00  0.00000000E+00  0.00000000E+00
  0.00000000E+00  0.00000000E+00  0.00000000E+00
  0.00000000E+00  0.00000000E+00  0.00000000E+00
  0.00000000E+00  0.00000000E+00  0.00000000E+00
  0.00000000E+00  0.00000000E+00  0.00000000E+00
  0.00000000E+00  0.00000000E+00  0.00000000E+00
