CONTCAR\(5)                             
   1.00000000000000     
    11.4826002120999995    0.0000000000000000    0.0000000000000000
     0.0000000000000000   22.3225002289000010    0.0000000000000000
     0.0000000000000000    0.0000000000000000   23.4783000946000016
   Y    C    I    O 
    42    18    36     7
Direct
  0.1673702645251009  0.9710119817674816  0.4333797191180513
  0.0012283768832735  0.6648193706997018  0.4005276493418392
  0.1668442104991500  0.7506179782487843  0.4918933247086559
  0.0010106162455534  0.6072150258194120  0.5302369030946296
  0.0005161907287106  0.1648991211092382  0.6014983603305946
  0.1663919987578367  0.2503663389511268  0.5115706796592566
  0.1713557947581549  0.4727923895755998  0.5738127161237128
  0.0002654769135249  0.8943319238772145  0.5297549238981275
  0.0004084971284594  0.1072055030668564  0.4713600239951625
  0.0011205385212832  0.8358295425776618  0.3999591330302972
  0.1671006575624577  0.5285156768908256  0.4314278782308967
  0.1669642504966870  0.0300157331517009  0.5675624031220885
  0.0009244395659727  0.3361391971706281  0.6038164607144114
 -0.0000056148438834  0.3950161301043751  0.4745507935666006
  0.5005345602018304  0.9709618275408858  0.4334708887013955
  0.3332605762692087  0.6630752116180587  0.4036715773329904
  0.5003810969894179  0.7505381028135413  0.4918285156426435
  0.3329380684763730  0.5978208859412173  0.5356195865925887
  0.3333579165607222  0.1646311724552158  0.6015563976592679
  0.4999600841679904  0.2503360840531736  0.5115080242668123
  0.4940840505043489  0.4728836075708017  0.5733393144407621
  0.3338988975705929  0.8941236015977800  0.5299800661567967
  0.3339739819905918  0.1069385215588730  0.4714156817984608
  0.3337423508122065  0.8350180959341420  0.4004502405114352
  0.4987327482954821  0.5286197730253893  0.4313275247805277
  0.5006365319748409  0.0299655200905875  0.5676788297596037
  0.3328331383969177  0.3353655000707222  0.6029233607465243
  0.3329022882115679  0.3941102996101807  0.4699578102179828
  0.8339074641527963  0.9712185951205953  0.4333158742482535
  0.6656485713025190  0.6648077582748368  0.4004881204648067
  0.8336823302594421  0.7513390546983326  0.4905620366045754
  0.6651676593449602  0.6072526336100929  0.5301819570569243
  0.6663124185127751  0.1648232216609959  0.6015729274751618
  0.8330936569737606  0.2503962326388794  0.5121454360212166
  0.8325722485855336  0.4724526277471809  0.5693911462382526
  0.6674268407113952  0.8943119517108713  0.5298468218036192
  0.6670564873362459  0.1072009394020063  0.4713735019126273
  0.6665944412910835  0.8358259487279236  0.4000664702237799
  0.8329534197894360  0.5299335526851676  0.4345040157882786
  0.8337346043231116  0.0302223961363779  0.5676253860619928
  0.6648880370650153  0.3361614912294211  0.6037106610078146
  0.6653356384556255  0.3950290245003679  0.4744165249749246
  0.1664357953134444  0.1375903791172881  0.5391644044285584
  0.1640400051162735  0.6359548184685503  0.4629270733802970
  0.0005659616792104  0.0007884572668350  0.5004143305087970
  0.1673717603572442  0.8635639507179598  0.4620014666823725
  0.9963506642507447  0.5010941555933759  0.5016963764023715
  0.1663668480986915  0.3645882921896572  0.5418199773494574
  0.5005536554273955  0.1374978052184718  0.5391778851436513
  0.5026380873507055  0.6360261601345195  0.4627549772860582
  0.3339013239173017  0.0006748507670836  0.5004707560312844
  0.5001744435508809  0.8635632695392355  0.4620663977645336
  0.3329143538711999  0.4982053750340730  0.4811745521894084
  0.4994416364394355  0.3645276487629051  0.5416316971954320
  0.8333669081720564  0.1379214240490068  0.5393060730493957
  0.8333690042405613  0.6369495651441525  0.4619280248125709
  0.6672228140044628  0.0007512657822998  0.5005073102921784
  0.8338844013422562  0.8637739651974462  0.4616810421470978
  0.6690460832635059  0.5011309289471022  0.5015536371018994
  0.8328294790508177  0.3651386921720943  0.5419678154224838
  0.1659141944115967  0.2461620853046305  0.6841547429596361
  0.9993983954006097  0.2496463352822788  0.4102647584923565
  0.0007630006014457  0.0567095817888209  0.6760895356100352
  0.1667932018387983  0.9070388547102356  0.6323232002299594
  0.1626061970138066  0.4033008182308317  0.3689350527183833
  0.0008836261762779  0.9446026087816126  0.3251553172594095
  0.9992751932350674  0.4469167524069289  0.6772457435669558
  0.1675993800694063  0.0948393820203698  0.3688144500511228
  0.9977437296646580  0.5566097861315757  0.3246877340479801
  0.9987678281369304  0.7549526986009901  0.5923876229327613
  0.1559729275492203  0.6070585991637298  0.6363173429034248
  0.1675402107525944  0.7493128708151745  0.3187344648214106
  0.5004150199419669  0.2461400402937930  0.6837661618523920
  0.3331799974300864  0.2494056225436959  0.4094135248261483
  0.3339097861662990  0.0560535505620719  0.6760412301080393
  0.5007114789485345  0.9069129491756881  0.6325427992751683
  0.5027355784812817  0.4036089441140860  0.3686978648591551
  0.3341095970290481  0.9436103551805308  0.3255081886156066
  0.3310575010988859  0.4215120143307857  0.6975020179826500
  0.5004348763547219  0.0944483302469633  0.3686034325530256
  0.3320696042617477  0.5589701396105419  0.3229096061723341
  0.3337098935140548  0.7547113009298817  0.5931837725366091
  0.5110437549080602  0.6067945904384443  0.6361933058219883
  0.4997451874663857  0.7496375725718749  0.3192254227694143
  0.8331357457179985  0.2510377102103258  0.6845591381196260
  0.6669521813913214  0.2496818445795954  0.4099790587237923
  0.6673671619321564  0.0566065559245264  0.6763644054944913
  0.8338653518034065  0.9074806093423321  0.6323657013662299
  0.8326658002493417  0.4053676290169094  0.3717215521420739
  0.6673889143965759  0.9443900116486623  0.3252146404493089
  0.6635312287063110  0.4469111544254109  0.6772096035444685
  0.8339036137193734  0.0950165296322467  0.3687063510131171
  0.6674027543957033  0.5565611578298933  0.3246299751047454
  0.6689414894033626  0.7550824420115274  0.5924449596232997
  0.8332226931324515  0.5962638763398300  0.6319877290665565
  0.8336135586346732  0.7506838883835577  0.3184098098138416
  0.0009708616108614  0.7504046524395164  0.4440882285115670
  0.9999509135185715  0.2514291752807151  0.5588028917037532
  0.3334635223153154  0.7494843628958049  0.4451460603429143
  0.3330926686569411  0.2504256692929509  0.5579480701667168
  0.6664792769339943  0.7503673644463558  0.4441212603094529
  0.6663649349203908  0.2513353612819643  0.5587772357396238
  0.3327287023955421  0.5144635586461016  0.5881118481862567
 
  0.00000000E+00  0.00000000E+00  0.00000000E+00
  0.00000000E+00  0.00000000E+00  0.00000000E+00
  0.00000000E+00  0.00000000E+00  0.00000000E+00
  0.00000000E+00  0.00000000E+00  0.00000000E+00
  0.00000000E+00  0.00000000E+00  0.00000000E+00
  0.00000000E+00  0.00000000E+00  0.00000000E+00
  0.00000000E+00  0.00000000E+00  0.00000000E+00
  0.00000000E+00  0.00000000E+00  0.00000000E+00
  0.00000000E+00  0.00000000E+00  0.00000000E+00
  0.00000000E+00  0.00000000E+00  0.00000000E+00
  0.00000000E+00  0.00000000E+00  0.00000000E+00
  0.00000000E+00  0.00000000E+00  0.00000000E+00
  0.00000000E+00  0.00000000E+00  0.00000000E+00
  0.00000000E+00  0.00000000E+00  0.00000000E+00
  0.00000000E+00  0.00000000E+00  0.00000000E+00
  0.00000000E+00  0.00000000E+00  0.00000000E+00
  0.00000000E+00  0.00000000E+00  0.00000000E+00
  0.00000000E+00  0.00000000E+00  0.00000000E+00
  0.00000000E+00  0.00000000E+00  0.00000000E+00
  0.00000000E+00  0.00000000E+00  0.00000000E+00
  0.00000000E+00  0.00000000E+00  0.00000000E+00
  0.00000000E+00  0.00000000E+00  0.00000000E+00
  0.00000000E+00  0.00000000E+00  0.00000000E+00
  0.00000000E+00  0.00000000E+00  0.00000000E+00
  0.00000000E+00  0.00000000E+00  0.00000000E+00
  0.00000000E+00  0.00000000E+00  0.00000000E+00
  0.00000000E+00  0.00000000E+00  0.00000000E+00
  0.00000000E+00  0.00000000E+00  0.00000000E+00
  0.00000000E+00  0.00000000E+00  0.00000000E+00
  0.00000000E+00  0.00000000E+00  0.00000000E+00
  0.00000000E+00  0.00000000E+00  0.00000000E+00
  0.00000000E+00  0.00000000E+00  0.00000000E+00
  0.00000000E+00  0.00000000E+00  0.00000000E+00
  0.00000000E+00  0.00000000E+00  0.00000000E+00
  0.00000000E+00  0.00000000E+00  0.00000000E+00
  0.00000000E+00  0.00000000E+00  0.00000000E+00
  0.00000000E+00  0.00000000E+00  0.00000000E+00
  0.00000000E+00  0.00000000E+00  0.00000000E+00
  0.00000000E+00  0.00000000E+00  0.00000000E+00
  0.00000000E+00  0.00000000E+00  0.00000000E+00
  0.00000000E+00  0.00000000E+00  0.00000000E+00
  0.00000000E+00  0.00000000E+00  0.00000000E+00
  0.00000000E+00  0.00000000E+00  0.00000000E+00
  0.00000000E+00  0.00000000E+00  0.00000000E+00
  0.00000000E+00  0.00000000E+00  0.00000000E+00
  0.00000000E+00  0.00000000E+00  0.00000000E+00
  0.00000000E+00  0.00000000E+00  0.00000000E+00
  0.00000000E+00  0.00000000E+00  0.00000000E+00
  0.00000000E+00  0.00000000E+00  0.00000000E+00
  0.00000000E+00  0.00000000E+00  0.00000000E+00
  0.00000000E+00  0.00000000E+00  0.00000000E+00
  0.00000000E+00  0.00000000E+00  0.00000000E+00
  0.00000000E+00  0.00000000E+00  0.00000000E+00
  0.00000000E+00  0.00000000E+00  0.00000000E+00
  0.00000000E+00  0.00000000E+00  0.00000000E+00
  0.00000000E+00  0.00000000E+00  0.00000000E+00
  0.00000000E+00  0.00000000E+00  0.00000000E+00
  0.00000000E+00  0.00000000E+00  0.00000000E+00
  0.00000000E+00  0.00000000E+00  0.00000000E+00
  0.00000000E+00  0.00000000E+00  0.00000000E+00
  0.00000000E+00  0.00000000E+00  0.00000000E+00
  0.00000000E+00  0.00000000E+00  0.00000000E+00
  0.00000000E+00  0.00000000E+00  0.00000000E+00
  0.00000000E+00  0.00000000E+00  0.00000000E+00
  0.00000000E+00  0.00000000E+00  0.00000000E+00
  0.00000000E+00  0.00000000E+00  0.00000000E+00
  0.00000000E+00  0.00000000E+00  0.00000000E+00
  0.00000000E+00  0.00000000E+00  0.00000000E+00
  0.00000000E+00  0.00000000E+00  0.00000000E+00
  0.00000000E+00  0.00000000E+00  0.00000000E+00
  0.00000000E+00  0.00000000E+00  0.00000000E+00
  0.00000000E+00  0.00000000E+00  0.00000000E+00
  0.00000000E+00  0.00000000E+00  0.00000000E+00
  0.00000000E+00  0.00000000E+00  0.00000000E+00
  0.00000000E+00  0.00000000E+00  0.00000000E+00
  0.00000000E+00  0.00000000E+00  0.00000000E+00
  0.00000000E+00  0.00000000E+00  0.00000000E+00
  0.00000000E+00  0.00000000E+00  0.00000000E+00
  0.00000000E+00  0.00000000E+00  0.00000000E+00
  0.00000000E+00  0.00000000E+00  0.00000000E+00
  0.00000000E+00  0.00000000E+00  0.00000000E+00
  0.00000000E+00  0.00000000E+00  0.00000000E+00
  0.00000000E+00  0.00000000E+00  0.00000000E+00
  0.00000000E+00  0.00000000E+00  0.00000000E+00
  0.00000000E+00  0.00000000E+00  0.00000000E+00
  0.00000000E+00  0.00000000E+00  0.00000000E+00
  0.00000000E+00  0.00000000E+00  0.00000000E+00
  0.00000000E+00  0.00000000E+00  0.00000000E+00
  0.00000000E+00  0.00000000E+00  0.00000000E+00
  0.00000000E+00  0.00000000E+00  0.00000000E+00
  0.00000000E+00  0.00000000E+00  0.00000000E+00
  0.00000000E+00  0.00000000E+00  0.00000000E+00
  0.00000000E+00  0.00000000E+00  0.00000000E+00
  0.00000000E+00  0.00000000E+00  0.00000000E+00
  0.00000000E+00  0.00000000E+00  0.00000000E+00
  0.00000000E+00  0.00000000E+00  0.00000000E+00
  0.00000000E+00  0.00000000E+00  0.00000000E+00
  0.00000000E+00  0.00000000E+00  0.00000000E+00
  0.00000000E+00  0.00000000E+00  0.00000000E+00
  0.00000000E+00  0.00000000E+00  0.00000000E+00
  0.00000000E+00  0.00000000E+00  0.00000000E+00
  0.00000000E+00  0.00000000E+00  0.00000000E+00
  0.00000000E+00  0.00000000E+00  0.00000000E+00
