CONTCAR                                 
   1.00000000000000     
    14.3248996734999992    0.0000000000000000    0.0000000000000000
    -7.1590188013000002   12.4195981305000007    0.0000000000000000
     0.0000000000000000    0.0000000000000000   17.6436004639000004
   Rb   O    H 
    24    14     1
Direct
  0.3411027065789582  0.3462665860846244  0.5660455633912918
  0.5046055465413630  0.3256106692418896  0.4153383871018548
  0.1708034835287435  0.1636009005230648  0.4175926040684246
  0.0147759239772114  0.1781891214925508  0.5767968498772262
  0.3342750653905000  0.9911388800734215  0.4257708623911043
  0.1911592804371693  0.5017276047488437  0.5780107431225190
  0.8353965849850695  0.3352332983214197  0.5888101982361320
  0.9972614125526533  0.3399826470002694  0.4268116598525182
  0.6710671508774269  0.1694191309249931  0.4317055380146968
  0.4970381642993331  0.1654146793762550  0.5805011965682567
  0.8450603695506800  0.0118060982472130  0.4250435921628011
  0.6490999529586290  0.5015755522039029  0.5759004411331432
  0.3379335675352451  0.8239241953599219  0.5763600000298297
  0.5083949995612613  0.8394927020504426  0.4164048980940933
  0.1580020316947213  0.6626137710081039  0.4264489337601205
  0.0007884138439636  0.6670037550215540  0.5885447340271455
  0.3325947212779354  0.5008328546708753  0.4033472133199183
  0.1740919756865864  0.0061384700427780  0.5805522657942035
  0.8324496395405774  0.8369511594810533  0.5795240511812594
  0.0032447087732592  0.8334084738843757  0.4314876158090257
  0.6798950533410917  0.6762757685127454  0.4142491986799115
  0.4962761998843419  0.6569192603068288  0.5647354328225518
  0.8312062360865298  0.5009596300493442  0.4350408227104552
  0.6691488453154122  0.9957970389703377  0.5797467201833513
  0.1675322072971284  0.3329279761653439  0.4823688821864280
  0.3366525488875141  0.1622902920450571  0.4936983482075235
  0.0056406330530905  0.0030023162884305  0.5038512759168867
  0.6664249122902106  0.3335688690150391  0.5096194636865121
  0.8371387289698760  0.1698089931177051  0.5094348448195163
  0.5038697166744797  0.9995927931403230  0.5037732637276733
  0.1683800167879212  0.8324679292010160  0.5095257711185752
  0.3356142186801634  0.6698735120719022  0.4810064721903515
  0.0006420248668064  0.5012389837030824  0.5116890031162100
  0.6757304420303782  0.8404192423844279  0.4918877840972442
  0.8340044925857626  0.6689438936014440  0.5088367395992037
  0.5054249293519248  0.5010810793844627  0.4684904056722488
  0.4511985728576562  0.5027935075672190  0.6938069361678174
  0.3486203797185965  0.5022436656921130  0.6735364259439365
  0.4469842927297947  0.5035356710256593  0.7489246182179699
 
  0.00000000E+00  0.00000000E+00  0.00000000E+00
  0.00000000E+00  0.00000000E+00  0.00000000E+00
  0.00000000E+00  0.00000000E+00  0.00000000E+00
  0.00000000E+00  0.00000000E+00  0.00000000E+00
  0.00000000E+00  0.00000000E+00  0.00000000E+00
  0.00000000E+00  0.00000000E+00  0.00000000E+00
  0.00000000E+00  0.00000000E+00  0.00000000E+00
  0.00000000E+00  0.00000000E+00  0.00000000E+00
  0.00000000E+00  0.00000000E+00  0.00000000E+00
  0.00000000E+00  0.00000000E+00  0.00000000E+00
  0.00000000E+00  0.00000000E+00  0.00000000E+00
  0.00000000E+00  0.00000000E+00  0.00000000E+00
  0.00000000E+00  0.00000000E+00  0.00000000E+00
  0.00000000E+00  0.00000000E+00  0.00000000E+00
  0.00000000E+00  0.00000000E+00  0.00000000E+00
  0.00000000E+00  0.00000000E+00  0.00000000E+00
  0.00000000E+00  0.00000000E+00  0.00000000E+00
  0.00000000E+00  0.00000000E+00  0.00000000E+00
  0.00000000E+00  0.00000000E+00  0.00000000E+00
  0.00000000E+00  0.00000000E+00  0.00000000E+00
  0.00000000E+00  0.00000000E+00  0.00000000E+00
  0.00000000E+00  0.00000000E+00  0.00000000E+00
  0.00000000E+00  0.00000000E+00  0.00000000E+00
  0.00000000E+00  0.00000000E+00  0.00000000E+00
  0.00000000E+00  0.00000000E+00  0.00000000E+00
  0.00000000E+00  0.00000000E+00  0.00000000E+00
  0.00000000E+00  0.00000000E+00  0.00000000E+00
  0.00000000E+00  0.00000000E+00  0.00000000E+00
  0.00000000E+00  0.00000000E+00  0.00000000E+00
  0.00000000E+00  0.00000000E+00  0.00000000E+00
  0.00000000E+00  0.00000000E+00  0.00000000E+00
  0.00000000E+00  0.00000000E+00  0.00000000E+00
  0.00000000E+00  0.00000000E+00  0.00000000E+00
  0.00000000E+00  0.00000000E+00  0.00000000E+00
  0.00000000E+00  0.00000000E+00  0.00000000E+00
  0.00000000E+00  0.00000000E+00  0.00000000E+00
  0.00000000E+00  0.00000000E+00  0.00000000E+00
  0.00000000E+00  0.00000000E+00  0.00000000E+00
  0.00000000E+00  0.00000000E+00  0.00000000E+00
