CONTCAR\(2)                             
   1.00000000000000     
    11.7119998931999998    0.0000000000000000    0.0000000000000000
    -5.1174287261000000   10.4860139793999991    0.0000000000000000
     0.0000000000000000    0.0000000000000000   18.3064994811999995
   Mo   Cl   O    H 
     8    24     1     1
Direct
  0.0607746836244800  0.4381757059971250  0.4971239205938431
  0.4289357301130536  0.0700955684628468  0.4971543570441028
  0.5608678621146765  0.4386024287571288  0.4985721067572157
  0.9283011697231416  0.0693972055099223  0.4976017737365765
  0.0600942782979956  0.9380574949361602  0.4975604018113202
  0.4293106838744620  0.5698044094907004  0.4986083784263329
  0.5600425102474418  0.9380310696170397  0.4968946383142168
  0.9288455326161937  0.5694732101532551  0.4971453049356711
  0.0767171737217183  0.0866253704957529  0.5904073537271088
  0.4093982384129262  0.4181278222252587  0.4068384026612009
  0.0704902172187047  0.2525382278779134  0.4257782899017855
  0.2445425447742480  0.4270941581281562  0.5685595849204077
  0.4184117984159528  0.2540598450447291  0.5687805905568837
  0.2434923808153187  0.0806857301335242  0.4259313611072884
  0.5781768645944894  0.0875591641390798  0.5894403671722159
  0.9118713788372901  0.4205665377778374  0.4044242059306455
  0.5723437701560670  0.2538915625237124  0.4259756906883538
  0.7453661380681638  0.4283331269624568  0.5694484912728157
  0.9179364973215840  0.2545299858235097  0.5689721166948942
  0.7438527595309665  0.0804578278382948  0.4257715197938481
  0.0782991678265788  0.5878857302398899  0.5894439678655345
  0.4113974968303822  0.9210959117914328  0.4041928636419314
  0.0711144823947549  0.7532529375816281  0.4257973880575818
  0.2452027420824763  0.9276244558430307  0.5688069580613089
  0.4188495628597622  0.7547372301494448  0.5692582663287169
  0.2443698278285140  0.5810365050833539  0.4259065353336453
  0.5760323227993780  0.5857336706471443  0.5883949047524339
  0.9107646222426311  0.9197094913396029  0.4050918914583974
  0.5690309089066190  0.7517739527090370  0.4249820661714381
  0.7439170934404515  0.9256727281060151  0.5684681182408582
  0.9169896331265051  0.7537582684241926  0.5688999977637650
  0.7428892860356981  0.5787871430860321  0.4252594727198087
  0.4855096161131343  0.4881637148313729  0.6963525276762468
  0.5467414020342289  0.5549624622734086  0.7279063878816245
 
  0.00000000E+00  0.00000000E+00  0.00000000E+00
  0.00000000E+00  0.00000000E+00  0.00000000E+00
  0.00000000E+00  0.00000000E+00  0.00000000E+00
  0.00000000E+00  0.00000000E+00  0.00000000E+00
  0.00000000E+00  0.00000000E+00  0.00000000E+00
  0.00000000E+00  0.00000000E+00  0.00000000E+00
  0.00000000E+00  0.00000000E+00  0.00000000E+00
  0.00000000E+00  0.00000000E+00  0.00000000E+00
  0.00000000E+00  0.00000000E+00  0.00000000E+00
  0.00000000E+00  0.00000000E+00  0.00000000E+00
  0.00000000E+00  0.00000000E+00  0.00000000E+00
  0.00000000E+00  0.00000000E+00  0.00000000E+00
  0.00000000E+00  0.00000000E+00  0.00000000E+00
  0.00000000E+00  0.00000000E+00  0.00000000E+00
  0.00000000E+00  0.00000000E+00  0.00000000E+00
  0.00000000E+00  0.00000000E+00  0.00000000E+00
  0.00000000E+00  0.00000000E+00  0.00000000E+00
  0.00000000E+00  0.00000000E+00  0.00000000E+00
  0.00000000E+00  0.00000000E+00  0.00000000E+00
  0.00000000E+00  0.00000000E+00  0.00000000E+00
  0.00000000E+00  0.00000000E+00  0.00000000E+00
  0.00000000E+00  0.00000000E+00  0.00000000E+00
  0.00000000E+00  0.00000000E+00  0.00000000E+00
  0.00000000E+00  0.00000000E+00  0.00000000E+00
  0.00000000E+00  0.00000000E+00  0.00000000E+00
  0.00000000E+00  0.00000000E+00  0.00000000E+00
  0.00000000E+00  0.00000000E+00  0.00000000E+00
  0.00000000E+00  0.00000000E+00  0.00000000E+00
  0.00000000E+00  0.00000000E+00  0.00000000E+00
  0.00000000E+00  0.00000000E+00  0.00000000E+00
  0.00000000E+00  0.00000000E+00  0.00000000E+00
  0.00000000E+00  0.00000000E+00  0.00000000E+00
  0.00000000E+00  0.00000000E+00  0.00000000E+00
  0.00000000E+00  0.00000000E+00  0.00000000E+00
