CONTCAR\(2)                             
   1.00000000000000     
    11.3158998488999991    0.0000000000000000    0.0000000000000000
     0.0000000000000000   12.4995002747000008    0.0000000000000000
     0.0000000000000000    0.0000000000000000   18.9974002838000011
   Ta   Te   Ir   O 
     6    24     6     1
Selective dynamics
Direct
  0.9995730550085682  0.0535827601407206  0.5022137350483789   F   F   F
  0.1637121227789251  0.7319557053441201  0.4984525204927692   F   F   F
  0.3303353225942516  0.0575538719898887  0.5029084674270337   F   F   F
  0.4964372737833216  0.7432637507389117  0.5160756865700051   F   F   F
  0.6693885442688625  0.0554156035252547  0.5035550090268970   F   F   F
  0.8345845821772215  0.7309312818057663  0.4984842776419924   F   F   F
  0.1638310962801057  0.1107664251164451  0.6038448950276063   F   F   F
  0.0004094990489492  0.8527075850822072  0.5803846825850698   F   F   F
  0.9996727611323166  0.6796889749843658  0.3958660738770305   F   F   F
  0.1663038957094969  0.4389100144812730  0.4266883596091731   F   F   F
  0.1661146916079517  0.9349073582865444  0.4205686880877124   F   F   F
  0.9999867601928187  0.1951348468324312  0.3964802493476682   F   F   F
  0.0010508331990025  0.3479464028416004  0.5690177926634519   F   F   F
  0.1662847337293627  0.5875955777704505  0.6022929213777672   F   F   F
  0.4997499424285508  0.1058114889808479  0.6044871029524259   F   F   F
  0.3201348191025701  0.8633232810876947  0.5827093616136239   F   F   F
  0.3415232190697353  0.6850883588842080  0.4046895627555855   F   F   F
  0.5020257924772196  0.4380466462388881  0.4295586358112544   F   F   F
  0.4994136138062686  0.9319217060277794  0.4263825664631540   F   F   F
  0.3351454576943382  0.1976945916693822  0.3969172321646894   F   F   F
  0.3309160240205671  0.3417100913089754  0.5709028385172275   F   F   F
  0.5009115907480748  0.5537265926702730  0.6019575189279394   F   F   F
  0.8354176581756931  0.1095055154452922  0.6043962414673985   F   F   F
  0.6796797063385256  0.8593961349445323  0.5830656283988631   F   F   F
  0.6560120985360598  0.6843097147670889  0.4054593788111802   F   F   F
  0.8357019615221333  0.4383160061385780  0.4274122956801776   F   F   F
  0.8332332595213288  0.9338730131111603  0.4206879799787586   F   F   F
  0.6666296191277823  0.1961351523641284  0.3978506904787409   F   F   F
  0.6701953368668825  0.3414273510316121  0.5716554311676916   F   F   F
  0.8372358186681694  0.5872434744503892  0.6028329284145357   F   F   F
  0.0014857501270313  0.5384326179177990  0.5031428256257655   F   F   F
  0.1657201709666793  0.2471407147363109  0.4936697882096368   F   F   F
  0.3334224896461961  0.5332336278045275  0.5059343278793946   F   F   F
  0.5007103356889573  0.2462889803324870  0.4962034201637522   F   F   F
  0.6705158638606576  0.5328710996824100  0.5067106026538042   F   F   F
  0.8355537546970382  0.2465664900899469  0.4944976675362938   F   F   F
  0.4906903553983781  0.7087670283757460  0.6214730358251314   T   T   T
 
  0.00000000E+00  0.00000000E+00  0.00000000E+00
  0.00000000E+00  0.00000000E+00  0.00000000E+00
  0.00000000E+00  0.00000000E+00  0.00000000E+00
  0.00000000E+00  0.00000000E+00  0.00000000E+00
  0.00000000E+00  0.00000000E+00  0.00000000E+00
  0.00000000E+00  0.00000000E+00  0.00000000E+00
  0.00000000E+00  0.00000000E+00  0.00000000E+00
  0.00000000E+00  0.00000000E+00  0.00000000E+00
  0.00000000E+00  0.00000000E+00  0.00000000E+00
  0.00000000E+00  0.00000000E+00  0.00000000E+00
  0.00000000E+00  0.00000000E+00  0.00000000E+00
  0.00000000E+00  0.00000000E+00  0.00000000E+00
  0.00000000E+00  0.00000000E+00  0.00000000E+00
  0.00000000E+00  0.00000000E+00  0.00000000E+00
  0.00000000E+00  0.00000000E+00  0.00000000E+00
  0.00000000E+00  0.00000000E+00  0.00000000E+00
  0.00000000E+00  0.00000000E+00  0.00000000E+00
  0.00000000E+00  0.00000000E+00  0.00000000E+00
  0.00000000E+00  0.00000000E+00  0.00000000E+00
  0.00000000E+00  0.00000000E+00  0.00000000E+00
  0.00000000E+00  0.00000000E+00  0.00000000E+00
  0.00000000E+00  0.00000000E+00  0.00000000E+00
  0.00000000E+00  0.00000000E+00  0.00000000E+00
  0.00000000E+00  0.00000000E+00  0.00000000E+00
  0.00000000E+00  0.00000000E+00  0.00000000E+00
  0.00000000E+00  0.00000000E+00  0.00000000E+00
  0.00000000E+00  0.00000000E+00  0.00000000E+00
  0.00000000E+00  0.00000000E+00  0.00000000E+00
  0.00000000E+00  0.00000000E+00  0.00000000E+00
  0.00000000E+00  0.00000000E+00  0.00000000E+00
  0.00000000E+00  0.00000000E+00  0.00000000E+00
  0.00000000E+00  0.00000000E+00  0.00000000E+00
  0.00000000E+00  0.00000000E+00  0.00000000E+00
  0.00000000E+00  0.00000000E+00  0.00000000E+00
  0.00000000E+00  0.00000000E+00  0.00000000E+00
  0.00000000E+00  0.00000000E+00  0.00000000E+00
  0.00000000E+00  0.00000000E+00  0.00000000E+00
