CONTCAR\(11)                            
   1.00000000000000     
    11.2875003814999992    0.0000000000000000    0.0000000000000000
    -5.6437736758000003   10.4440391513000002    0.0000000000000000
     0.0000000000000000    0.0000000000000000   21.6142997741999991
   Y    C    Br
    18    18    18
Direct
  0.2005953987404353  0.0679869105384891  0.5672771593801187
  0.1171575046619984  0.2342153060999670  0.4327162856229153
  0.5339353997404316  0.0679869105384891  0.5672771593801187
  0.4504975056620018  0.2342153060999670  0.4327162856229153
  0.8672654527404361  0.0679869105384891  0.5672771593801187
  0.7838275576620026  0.2342153060999670  0.4327162856229153
  0.2005954107404363  0.4013269195384931  0.5672771593801187
  0.1171574956620012  0.5675453050999670  0.4327162856229153
  0.5339354117404326  0.4013269195384931  0.5672771593801187
  0.4504974966619975  0.5675453050999670  0.4327162856229153
  0.8672654847404316  0.4013269195384931  0.5672771593801187
  0.7838275276620001  0.5675453050999670  0.4327162856229153
  0.2005954317404345  0.7346568965384913  0.5672771593801187
  0.1171575176620030  0.9008752810999687  0.4327162856229153
  0.5339354327404308  0.7346568965384913  0.5672771593801187
  0.4504975186619993  0.9008752810999687  0.4327162856229153
  0.8672654857404353  0.7346568965384913  0.5672771593801187
  0.7838275706620002  0.9008752810999687  0.4327162856229153
  0.2991494669039179  0.2649537679599925  0.5173684228875984
  0.0186215953413206  0.0372680493341820  0.4826370920315057
  0.6324794559039242  0.2649537679599925  0.5173684228875984
  0.3519615943413238  0.0372680493341820  0.4826370920315057
  0.9658095509039180  0.2649537679599925  0.5173684228875984
  0.6852915833413230  0.0372680493341820  0.4826370920315057
  0.2991494809039191  0.5982838119599928  0.5173684228875984
  0.0186216043413249  0.3705980453341782  0.4826370920315057
  0.6324794699039182  0.5982838119599928  0.5173684228875984
  0.3519616053413212  0.3705980453341782  0.4826370920315057
  0.9658095009039209  0.5982838119599928  0.5173684228875984
  0.6852915943413204  0.3705980453341782  0.4826370920315057
  0.2991494749039186  0.9316237869599940  0.5173684228875984
  0.0186216103413183  0.7039380433341778  0.4826370920315057
  0.6324794639039248  0.9316237869599940  0.5173684228875984
  0.3519616113413217  0.7039380433341778  0.4826370920315057
  0.9658095159039186  0.9316237869599940  0.5173684228875984
  0.6852916213413190  0.7039380433341778  0.4826370920315057
  0.0866750874413320  0.1733676731462452  0.6542412091595308
  0.2309709669109904  0.1285583209211299  0.3457597429183309
  0.4200050604413370  0.1733676731462452  0.6542412091595308
  0.5643009459109888  0.1285583209211299  0.3457597429183309
  0.7533350704413344  0.1733676731462452  0.6542412091595308
  0.8976410099109867  0.1285583209211299  0.3457597429183309
  0.0866751114413340  0.5066977061462410  0.6542412091595308
  0.2309709859109884  0.4618883539211328  0.3457597429183309
  0.4200050894413359  0.5066977061462410  0.6542412091595308
  0.5643009539109894  0.4618883539211328  0.3457597429183309
  0.7533350994413333  0.5066977061462410  0.6542412091595308
  0.8976410389109927  0.4618883539211328  0.3457597429183309
  0.0866750994413330  0.8400276361462389  0.6542412091595308
  0.2309709799109879  0.7952283289211268  0.3457597429183309
  0.4200050674413340  0.8400276361462389  0.6542412091595308
  0.5643009479109889  0.7952283289211268  0.3457597429183309
  0.7533350774413314  0.8400276361462389  0.6542412091595308
  0.8976410119109869  0.7952283289211268  0.3457597429183309
 
  0.00000000E+00  0.00000000E+00  0.00000000E+00
  0.00000000E+00  0.00000000E+00  0.00000000E+00
  0.00000000E+00  0.00000000E+00  0.00000000E+00
  0.00000000E+00  0.00000000E+00  0.00000000E+00
  0.00000000E+00  0.00000000E+00  0.00000000E+00
  0.00000000E+00  0.00000000E+00  0.00000000E+00
  0.00000000E+00  0.00000000E+00  0.00000000E+00
  0.00000000E+00  0.00000000E+00  0.00000000E+00
  0.00000000E+00  0.00000000E+00  0.00000000E+00
  0.00000000E+00  0.00000000E+00  0.00000000E+00
  0.00000000E+00  0.00000000E+00  0.00000000E+00
  0.00000000E+00  0.00000000E+00  0.00000000E+00
  0.00000000E+00  0.00000000E+00  0.00000000E+00
  0.00000000E+00  0.00000000E+00  0.00000000E+00
  0.00000000E+00  0.00000000E+00  0.00000000E+00
  0.00000000E+00  0.00000000E+00  0.00000000E+00
  0.00000000E+00  0.00000000E+00  0.00000000E+00
  0.00000000E+00  0.00000000E+00  0.00000000E+00
  0.00000000E+00  0.00000000E+00  0.00000000E+00
  0.00000000E+00  0.00000000E+00  0.00000000E+00
  0.00000000E+00  0.00000000E+00  0.00000000E+00
  0.00000000E+00  0.00000000E+00  0.00000000E+00
  0.00000000E+00  0.00000000E+00  0.00000000E+00
  0.00000000E+00  0.00000000E+00  0.00000000E+00
  0.00000000E+00  0.00000000E+00  0.00000000E+00
  0.00000000E+00  0.00000000E+00  0.00000000E+00
  0.00000000E+00  0.00000000E+00  0.00000000E+00
  0.00000000E+00  0.00000000E+00  0.00000000E+00
  0.00000000E+00  0.00000000E+00  0.00000000E+00
  0.00000000E+00  0.00000000E+00  0.00000000E+00
  0.00000000E+00  0.00000000E+00  0.00000000E+00
  0.00000000E+00  0.00000000E+00  0.00000000E+00
  0.00000000E+00  0.00000000E+00  0.00000000E+00
  0.00000000E+00  0.00000000E+00  0.00000000E+00
  0.00000000E+00  0.00000000E+00  0.00000000E+00
  0.00000000E+00  0.00000000E+00  0.00000000E+00
  0.00000000E+00  0.00000000E+00  0.00000000E+00
  0.00000000E+00  0.00000000E+00  0.00000000E+00
  0.00000000E+00  0.00000000E+00  0.00000000E+00
  0.00000000E+00  0.00000000E+00  0.00000000E+00
  0.00000000E+00  0.00000000E+00  0.00000000E+00
  0.00000000E+00  0.00000000E+00  0.00000000E+00
  0.00000000E+00  0.00000000E+00  0.00000000E+00
  0.00000000E+00  0.00000000E+00  0.00000000E+00
  0.00000000E+00  0.00000000E+00  0.00000000E+00
  0.00000000E+00  0.00000000E+00  0.00000000E+00
  0.00000000E+00  0.00000000E+00  0.00000000E+00
  0.00000000E+00  0.00000000E+00  0.00000000E+00
  0.00000000E+00  0.00000000E+00  0.00000000E+00
  0.00000000E+00  0.00000000E+00  0.00000000E+00
  0.00000000E+00  0.00000000E+00  0.00000000E+00
  0.00000000E+00  0.00000000E+00  0.00000000E+00
  0.00000000E+00  0.00000000E+00  0.00000000E+00
  0.00000000E+00  0.00000000E+00  0.00000000E+00
