CONTCAR\(4)                             
   1.00000000000000     
    11.0504999160999997    0.0000000000000000    0.0000000000000000
     0.0000000000000000   15.0270004272000008    0.0000000000000000
     0.0000000000000000    0.0000000000000000   19.5720996856999996
   Ta   Ni   Te   O 
     6     6    30     1
Direct
  0.0000860273852738  0.7479825132011381  0.4963627057907434
  0.9994488584739074  0.2462906172986717  0.5057604900224201
  0.3333450723068466  0.7478161175383888  0.4969075251913487
  0.3333271883241347  0.2460162293033867  0.5086166140493649
  0.6665758341305573  0.7480489894943810  0.4963969987835621
  0.6674366127242571  0.2464370124827253  0.5057909689930663
  0.1626888481038691  0.4993810952029235  0.5015961422827260
  0.1674001021753058  0.9968373391127968  0.5011067926612982
  0.5038679035520884  0.4996471066594708  0.5019540121017831
  0.4993851515614808  0.9969320890674762  0.5009791757480669
  0.8333630812319927  0.4970094262896745  0.5014881033693097
  0.8331616730571537  0.9967777423120896  0.4998879372820175
  0.0000633042133014  0.4194667460194586  0.5734065468105994
  0.1680031879946491  0.3524637841717388  0.4303820464648689
  0.9983132854886869  0.5751481834623907  0.4289310927441067
  0.0006983046467782  0.9210486318484408  0.4288183056466962
  0.9991417496271089  0.0724042069485707  0.5721720235777191
  0.1671154757440674  0.7472767091912842  0.3849148917323465
  0.1667656745428306  0.8530056935027371  0.5735514693734947
  0.1642664717892796  0.2441886828955938  0.6178168312620550
  0.1681109070361416  0.1413722747065378  0.4301192688854804
  0.1658689791700600  0.6430107494417587  0.5734385890393086
  0.3331935356845910  0.4274169929189349  0.5678629489325627
  0.4986999834147542  0.3527563316233160  0.4305381160432866
  0.3333803417658658  0.5748813053690274  0.4299897227679798
  0.3333469934616622  0.9202942471581054  0.4285993147485364
  0.3334178238203991  0.0720797879711685  0.5740035866931240
  0.4995529365566685  0.7473209151823165  0.3849486442063874
  0.4999420277551335  0.8532524483703779  0.5734662198180014
  0.5024673873402781  0.2445911585974276  0.6177947242544317
  0.4986309569986650  0.1417309218363305  0.4299512575280454
  0.5008016678686461  0.6432192173453105  0.5736339146109840
  0.6667097311144110  0.4195006501776287  0.5735156358304835
  0.8334517963322057  0.3523936687416608  0.4294455929177931
  0.6681684348772263  0.5751354117985573  0.4291921961367652
  0.6659149476547189  0.9209852736424518  0.4286677089270641
  0.6674847024779365  0.0725991650616386  0.5721481514134796
  0.8333229997155046  0.7472148415007811  0.3848220779908169
  0.8333496260919712  0.8528287178252192  0.5730199630453077
  0.8334734219021540  0.2448899115197745  0.6171144952960933
  0.8333455779632648  0.1421419726551612  0.4280955034368791
  0.8333122669291038  0.6428241549514458  0.5729746789962953
  0.3322887209950890  0.4561208916017105  0.6597868455933157
 
  0.00000000E+00  0.00000000E+00  0.00000000E+00
  0.00000000E+00  0.00000000E+00  0.00000000E+00
  0.00000000E+00  0.00000000E+00  0.00000000E+00
  0.00000000E+00  0.00000000E+00  0.00000000E+00
  0.00000000E+00  0.00000000E+00  0.00000000E+00
  0.00000000E+00  0.00000000E+00  0.00000000E+00
  0.00000000E+00  0.00000000E+00  0.00000000E+00
  0.00000000E+00  0.00000000E+00  0.00000000E+00
  0.00000000E+00  0.00000000E+00  0.00000000E+00
  0.00000000E+00  0.00000000E+00  0.00000000E+00
  0.00000000E+00  0.00000000E+00  0.00000000E+00
  0.00000000E+00  0.00000000E+00  0.00000000E+00
  0.00000000E+00  0.00000000E+00  0.00000000E+00
  0.00000000E+00  0.00000000E+00  0.00000000E+00
  0.00000000E+00  0.00000000E+00  0.00000000E+00
  0.00000000E+00  0.00000000E+00  0.00000000E+00
  0.00000000E+00  0.00000000E+00  0.00000000E+00
  0.00000000E+00  0.00000000E+00  0.00000000E+00
  0.00000000E+00  0.00000000E+00  0.00000000E+00
  0.00000000E+00  0.00000000E+00  0.00000000E+00
  0.00000000E+00  0.00000000E+00  0.00000000E+00
  0.00000000E+00  0.00000000E+00  0.00000000E+00
  0.00000000E+00  0.00000000E+00  0.00000000E+00
  0.00000000E+00  0.00000000E+00  0.00000000E+00
  0.00000000E+00  0.00000000E+00  0.00000000E+00
  0.00000000E+00  0.00000000E+00  0.00000000E+00
  0.00000000E+00  0.00000000E+00  0.00000000E+00
  0.00000000E+00  0.00000000E+00  0.00000000E+00
  0.00000000E+00  0.00000000E+00  0.00000000E+00
  0.00000000E+00  0.00000000E+00  0.00000000E+00
  0.00000000E+00  0.00000000E+00  0.00000000E+00
  0.00000000E+00  0.00000000E+00  0.00000000E+00
  0.00000000E+00  0.00000000E+00  0.00000000E+00
  0.00000000E+00  0.00000000E+00  0.00000000E+00
  0.00000000E+00  0.00000000E+00  0.00000000E+00
  0.00000000E+00  0.00000000E+00  0.00000000E+00
  0.00000000E+00  0.00000000E+00  0.00000000E+00
  0.00000000E+00  0.00000000E+00  0.00000000E+00
  0.00000000E+00  0.00000000E+00  0.00000000E+00
  0.00000000E+00  0.00000000E+00  0.00000000E+00
  0.00000000E+00  0.00000000E+00  0.00000000E+00
  0.00000000E+00  0.00000000E+00  0.00000000E+00
  0.00000000E+00  0.00000000E+00  0.00000000E+00
