CONTCAR\(2)                             
   1.00000000000000     
    11.3502998351999995    0.0000000000000000    0.0000000000000000
    -5.6751499175999998    9.8296479979000004    0.0000000000000000
     0.0000000000000000    0.0000000000000000   21.7800998688000007
   Gd   Br   O    H 
    18    18     1     1
Direct
  0.1067416972554284  0.2153224512947347  0.5598316827240788
  0.2238405250649031  0.1128981057783502  0.4255714929698977
  0.4409135297815921  0.2162552320324309  0.5593556104237809
  0.5553853412633998  0.1101679919083414  0.4286847773380910
  0.7775273935176372  0.2227834382046432  0.5589442141225414
  0.8897565703981180  0.1104965036164830  0.4290796911309566
  0.1072872630199041  0.5597337127450871  0.5595227902208921
  0.2155510332999797  0.4406047543839382  0.4337445929413357
  0.4437072588211932  0.5568996013589357  0.6428474166391592
  0.5606119404934941  0.4397376730459970  0.4326409166682590
  0.7840774326725980  0.5593102408723926  0.5593853285270891
  0.8902238169642028  0.4450556512834460  0.4287111408431125
  0.1107205965935294  0.8896505790393363  0.5586092802033414
  0.2237147168188118  0.7764532461700409  0.4254325157784188
  0.4404057272585117  0.8931672457894162  0.5594808964873690
  0.5596744910373100  0.7847242633761298  0.4337543659250183
  0.7851083223311492  0.8935849492575698  0.5598449379975473
  0.8874896454149191  0.7764152314464682  0.4255826900020313
  0.1122963232943108  0.2265668380889201  0.3378787612062370
  0.2231297855355053  0.1136483458499423  0.6513990551043902
  0.4489813567911151  0.2255483926546794  0.3372193425410954
  0.5538431584682081  0.1114393958270587  0.6493599503736212
  0.7786384621688988  0.2216809000346207  0.3388908355515781
  0.8888689960303241  0.1114677032342714  0.6499582595514354
  0.1130906172402647  0.5508265486666449  0.3375778420925776
  0.1670387575071142  0.4177590472464033  0.6573623705653571
  0.4452029635185710  0.5549330485053806  0.3504308095085151
  0.5818364903329115  0.4183497316360776  0.6572485990515358
  0.7747497227267222  0.5513149606106582  0.3371903964585044
  0.8889036129355115  0.4463321098220058  0.6494140862478226
  0.1117691569026408  0.8883961147077046  0.3353128557546903
  0.2222505311513595  0.7779601051454651  0.6513778815554152
  0.4495208521014138  0.8872713994595683  0.3376088774342062
  0.5825568023461671  0.8335600897185990  0.6571719625964912
  0.7738028935360024  0.8880105697830751  0.3379011157936317
  0.8865146151984138  0.7770433466020876  0.6514056141758379
  0.4433849031599663  0.5581666158546378  0.7349817304699394
  0.4422132150478917  0.5603542959484160  0.7793255410242091
 
  0.00000000E+00  0.00000000E+00  0.00000000E+00
  0.00000000E+00  0.00000000E+00  0.00000000E+00
  0.00000000E+00  0.00000000E+00  0.00000000E+00
  0.00000000E+00  0.00000000E+00  0.00000000E+00
  0.00000000E+00  0.00000000E+00  0.00000000E+00
  0.00000000E+00  0.00000000E+00  0.00000000E+00
  0.00000000E+00  0.00000000E+00  0.00000000E+00
  0.00000000E+00  0.00000000E+00  0.00000000E+00
  0.00000000E+00  0.00000000E+00  0.00000000E+00
  0.00000000E+00  0.00000000E+00  0.00000000E+00
  0.00000000E+00  0.00000000E+00  0.00000000E+00
  0.00000000E+00  0.00000000E+00  0.00000000E+00
  0.00000000E+00  0.00000000E+00  0.00000000E+00
  0.00000000E+00  0.00000000E+00  0.00000000E+00
  0.00000000E+00  0.00000000E+00  0.00000000E+00
  0.00000000E+00  0.00000000E+00  0.00000000E+00
  0.00000000E+00  0.00000000E+00  0.00000000E+00
  0.00000000E+00  0.00000000E+00  0.00000000E+00
  0.00000000E+00  0.00000000E+00  0.00000000E+00
  0.00000000E+00  0.00000000E+00  0.00000000E+00
  0.00000000E+00  0.00000000E+00  0.00000000E+00
  0.00000000E+00  0.00000000E+00  0.00000000E+00
  0.00000000E+00  0.00000000E+00  0.00000000E+00
  0.00000000E+00  0.00000000E+00  0.00000000E+00
  0.00000000E+00  0.00000000E+00  0.00000000E+00
  0.00000000E+00  0.00000000E+00  0.00000000E+00
  0.00000000E+00  0.00000000E+00  0.00000000E+00
  0.00000000E+00  0.00000000E+00  0.00000000E+00
  0.00000000E+00  0.00000000E+00  0.00000000E+00
  0.00000000E+00  0.00000000E+00  0.00000000E+00
  0.00000000E+00  0.00000000E+00  0.00000000E+00
  0.00000000E+00  0.00000000E+00  0.00000000E+00
  0.00000000E+00  0.00000000E+00  0.00000000E+00
  0.00000000E+00  0.00000000E+00  0.00000000E+00
  0.00000000E+00  0.00000000E+00  0.00000000E+00
  0.00000000E+00  0.00000000E+00  0.00000000E+00
  0.00000000E+00  0.00000000E+00  0.00000000E+00
  0.00000000E+00  0.00000000E+00  0.00000000E+00
