CONTCAR\(9)                             
   1.00000000000000     
    13.5033998488999991    0.0000000000000000    0.0000000000000000
     0.0000000000000000   19.6100006104000002    0.0000000000000000
     0.0000000000000000    0.0000000000000000   18.7679004668999987
   Nb   Se   O 
    32    48     1
Direct
  0.0584867486198100  0.4373532390364438  0.5009272532254804
  0.1858633536544140  0.0640637245618134  0.4998396877043367
  0.0609026606462001  0.2816334730111423  0.4488089664038365
  0.1859289689661644  0.2202903227317718  0.5506719978834089
  0.3134261735718617  0.4373620185913552  0.5010083691654637
  0.4352282896921328  0.0642152510458959  0.4994389085964138
  0.3108306879415562  0.2816840064151271  0.4488547793657569
  0.4359448535778499  0.2199233303300858  0.5505345398402413
  0.5592425502525795  0.4360117509872041  0.5003055265527240
  0.6859134547169468  0.0640449974927445  0.4995509409279086
  0.5609297002201106  0.2811468253683288  0.4485068201155832
  0.6858366288507156  0.2199129494404547  0.5503326210943456
  0.8127223837439821  0.4359978181662738  0.5001849903284399
  0.9365117883442717  0.0642061939541914  0.4997100114988212
  0.8108880503130895  0.2811206118029985  0.4484860575211152
  0.9358091609886631  0.2199009221204358  0.5505708306357656
  0.0615722632060642  0.9372883582143120  0.5004761468031272
  0.1856038228427999  0.5643969737915181  0.5008071265564779
  0.0609645656698293  0.7812685306442353  0.4498659764925551
  0.1860534220684950  0.7200401015082962  0.5518400140619162
  0.3108493595925609  0.9373030232682570  0.5001711927037864
  0.4365740176610558  0.5641336262619786  0.5010655594411914
  0.3108199951981916  0.7812075000101161  0.4497575624550937
  0.4360855115606019  0.7201033600192673  0.5519370638877464
  0.5605953383901520  0.9373607048093708  0.5003781692809246
  0.6863684590134712  0.5656771446127553  0.5017879002215334
  0.5610072497214885  0.7813333036247183  0.4500756859791048
  0.6859113438160399  0.7207686459278109  0.5524800281483752
  0.8107052157337699  0.9373487512497651  0.5006667226396941
  0.9354263460891222  0.5641346920354825  0.5012951754085191
  0.8111747926968593  0.7814438411853378  0.4502934792090368
  0.9358954729429434  0.7201362875071745  0.5521269560831349
  0.0610180020863286  0.0285733913757710  0.4021527196173643
  0.1859356416253007  0.4716970898265912  0.5974563629410879
  0.0612245851998095  0.1256049413522358  0.5934972697451399
  0.1859407136195809  0.3766411116009033  0.4071543483890110
  0.1859225817765840  0.1849478264782623  0.4179314459511378
  0.0605554929175240  0.3164890928857876  0.5815877553234473
  0.3106097101686929  0.0287112257937070  0.4019131355564955
  0.4372249181148091  0.4723659942717361  0.5992265290742107
  0.3107354573477437  0.1256215581297038  0.5933802525504919
  0.4359729901917763  0.3761188466488107  0.4058040733023296
  0.4355774302168586  0.1848763409490375  0.4176817729928965
  0.3113299972584269  0.3165128499324874  0.5816382044474493
  0.5605881946636559  0.0288013548041429  0.4021404436757573
  0.6860780648283795  0.4716459861649763  0.5941482754411049
  0.5610020456112391  0.1253659228809275  0.5931257979385033
  0.6858839474436620  0.3759613649794859  0.4061991802669789
  0.6858806666362999  0.1844334668234609  0.4175625878524840
  0.5609775621857784  0.3162325729499675  0.5815042353770385
  0.8113186608794100  0.0287276765136340  0.4023415028244767
  0.9346769212297181  0.4721680615610201  0.5992369524623298
  0.8107851556129405  0.1254001938997160  0.5932051293716420
  0.9358923099574457  0.3760624581997849  0.4056673245196439
  0.9361950641957858  0.1848057854074775  0.4177845425393431
  0.8108395589747478  0.3162327875157073  0.5814336902353132
  0.0603402709824042  0.5293847748534655  0.4034799407112234
  0.1862658185430196  0.9726450344723986  0.5980750026333396
  0.0610944803305976  0.6254101825312020  0.5948426505405460
  0.1859285633527304  0.8758492108328010  0.4065551643624016
  0.1858571497663713  0.6846149585744025  0.4192265145961791
  0.0610266019151535  0.8167871083557229  0.5824254000548076
  0.3113425481817625  0.5294064837789949  0.4035786424456613
  0.4356317292770168  0.9730430013173815  0.5976961010141606
  0.3110256324882740  0.6254171152979406  0.5946054509762602
  0.4359599410247335  0.8757490986659429  0.4067688317404864
  0.4361198662929944  0.6847603174522626  0.4192078327767177
  0.3110162530070225  0.8167876594646851  0.5823238841134760
  0.5618326689882769  0.5293484962313056  0.4035896325060948
  0.6856178955993938  0.9725720519313897  0.5979448482632516
  0.5612015491118051  0.6256063601582144  0.5951965773860223
  0.6860733822232729  0.8760031484618293  0.4070226634432007
  0.6862374001226951  0.6849823039077032  0.4196387877016765
  0.5604956686935055  0.8171035039536600  0.5826458109449651
  0.8105737117094322  0.5293104237269578  0.4034763010459478
  0.9362616577788203  0.9728795593199008  0.5977908891424195
  0.8108661985991819  0.6256431771147467  0.5953946097178670
  0.9360081521651570  0.8759044763326526  0.4071009430510318
  0.9359132097009129  0.6847971355754369  0.4193681585355538
  0.8114175313067582  0.8170505149078078  0.5829884830667623
  0.6863340357924500  0.4689032101091986  0.6837571806023905
 
  0.00000000E+00  0.00000000E+00  0.00000000E+00
  0.00000000E+00  0.00000000E+00  0.00000000E+00
  0.00000000E+00  0.00000000E+00  0.00000000E+00
  0.00000000E+00  0.00000000E+00  0.00000000E+00
  0.00000000E+00  0.00000000E+00  0.00000000E+00
  0.00000000E+00  0.00000000E+00  0.00000000E+00
  0.00000000E+00  0.00000000E+00  0.00000000E+00
  0.00000000E+00  0.00000000E+00  0.00000000E+00
  0.00000000E+00  0.00000000E+00  0.00000000E+00
  0.00000000E+00  0.00000000E+00  0.00000000E+00
  0.00000000E+00  0.00000000E+00  0.00000000E+00
  0.00000000E+00  0.00000000E+00  0.00000000E+00
  0.00000000E+00  0.00000000E+00  0.00000000E+00
  0.00000000E+00  0.00000000E+00  0.00000000E+00
  0.00000000E+00  0.00000000E+00  0.00000000E+00
  0.00000000E+00  0.00000000E+00  0.00000000E+00
  0.00000000E+00  0.00000000E+00  0.00000000E+00
  0.00000000E+00  0.00000000E+00  0.00000000E+00
  0.00000000E+00  0.00000000E+00  0.00000000E+00
  0.00000000E+00  0.00000000E+00  0.00000000E+00
  0.00000000E+00  0.00000000E+00  0.00000000E+00
  0.00000000E+00  0.00000000E+00  0.00000000E+00
  0.00000000E+00  0.00000000E+00  0.00000000E+00
  0.00000000E+00  0.00000000E+00  0.00000000E+00
  0.00000000E+00  0.00000000E+00  0.00000000E+00
  0.00000000E+00  0.00000000E+00  0.00000000E+00
  0.00000000E+00  0.00000000E+00  0.00000000E+00
  0.00000000E+00  0.00000000E+00  0.00000000E+00
  0.00000000E+00  0.00000000E+00  0.00000000E+00
  0.00000000E+00  0.00000000E+00  0.00000000E+00
  0.00000000E+00  0.00000000E+00  0.00000000E+00
  0.00000000E+00  0.00000000E+00  0.00000000E+00
  0.00000000E+00  0.00000000E+00  0.00000000E+00
  0.00000000E+00  0.00000000E+00  0.00000000E+00
  0.00000000E+00  0.00000000E+00  0.00000000E+00
  0.00000000E+00  0.00000000E+00  0.00000000E+00
  0.00000000E+00  0.00000000E+00  0.00000000E+00
  0.00000000E+00  0.00000000E+00  0.00000000E+00
  0.00000000E+00  0.00000000E+00  0.00000000E+00
  0.00000000E+00  0.00000000E+00  0.00000000E+00
  0.00000000E+00  0.00000000E+00  0.00000000E+00
  0.00000000E+00  0.00000000E+00  0.00000000E+00
  0.00000000E+00  0.00000000E+00  0.00000000E+00
  0.00000000E+00  0.00000000E+00  0.00000000E+00
  0.00000000E+00  0.00000000E+00  0.00000000E+00
  0.00000000E+00  0.00000000E+00  0.00000000E+00
  0.00000000E+00  0.00000000E+00  0.00000000E+00
  0.00000000E+00  0.00000000E+00  0.00000000E+00
  0.00000000E+00  0.00000000E+00  0.00000000E+00
  0.00000000E+00  0.00000000E+00  0.00000000E+00
  0.00000000E+00  0.00000000E+00  0.00000000E+00
  0.00000000E+00  0.00000000E+00  0.00000000E+00
  0.00000000E+00  0.00000000E+00  0.00000000E+00
  0.00000000E+00  0.00000000E+00  0.00000000E+00
  0.00000000E+00  0.00000000E+00  0.00000000E+00
  0.00000000E+00  0.00000000E+00  0.00000000E+00
  0.00000000E+00  0.00000000E+00  0.00000000E+00
  0.00000000E+00  0.00000000E+00  0.00000000E+00
  0.00000000E+00  0.00000000E+00  0.00000000E+00
  0.00000000E+00  0.00000000E+00  0.00000000E+00
  0.00000000E+00  0.00000000E+00  0.00000000E+00
  0.00000000E+00  0.00000000E+00  0.00000000E+00
  0.00000000E+00  0.00000000E+00  0.00000000E+00
  0.00000000E+00  0.00000000E+00  0.00000000E+00
  0.00000000E+00  0.00000000E+00  0.00000000E+00
  0.00000000E+00  0.00000000E+00  0.00000000E+00
  0.00000000E+00  0.00000000E+00  0.00000000E+00
  0.00000000E+00  0.00000000E+00  0.00000000E+00
  0.00000000E+00  0.00000000E+00  0.00000000E+00
  0.00000000E+00  0.00000000E+00  0.00000000E+00
  0.00000000E+00  0.00000000E+00  0.00000000E+00
  0.00000000E+00  0.00000000E+00  0.00000000E+00
  0.00000000E+00  0.00000000E+00  0.00000000E+00
  0.00000000E+00  0.00000000E+00  0.00000000E+00
  0.00000000E+00  0.00000000E+00  0.00000000E+00
  0.00000000E+00  0.00000000E+00  0.00000000E+00
  0.00000000E+00  0.00000000E+00  0.00000000E+00
  0.00000000E+00  0.00000000E+00  0.00000000E+00
  0.00000000E+00  0.00000000E+00  0.00000000E+00
  0.00000000E+00  0.00000000E+00  0.00000000E+00
  0.00000000E+00  0.00000000E+00  0.00000000E+00
