CONTCAR\(11)                            
   1.00000000000000     
    14.8280000686999998    0.0000000000000000    0.0000000000000000
    -7.4140000342999999   12.8414247467999996    0.0000000000000000
     0.0000000000000000    0.0000000000000000   18.1965999602999986
   Ti   Br   O 
    16    32     1
Direct
 -0.0096342009958825  0.9699559563288221  0.5028081271761944
  0.2470617297276206  0.0151977225100353  0.4979962910001113
  0.5290053427948175  0.0068343898845327  0.5022759595990539
  0.7294130084710687  0.0205870075289329  0.5002102989582865
 -0.0110567629064605  0.2563205055888839  0.4981390367711838
  0.2719096028358613  0.2492555503585141  0.5016736768219509
  0.4822695795585700  0.2677304344414312  0.4991317502769593
  0.7431656041154664  0.2209946612051832  0.5022759595990539
  0.0284334863065100  0.5076725766623619  0.5026781156629758
  0.2299995023087664  0.5200005096912345  0.5012377058451367
  0.5007444576414863  0.4780904071641395  0.5016736768219509
  0.7348023134899675  0.5029382782723801  0.4979962910001113
  0.9794005331401747  0.7705995318598271  0.5014728438764731
  0.2423274473376399  0.7215665666934908  0.5026781156629758
  0.4936795144111178  0.7610568139064607  0.4981390367711838
  0.7800440756711805  0.7596342499958831  0.5028081271761944
  0.0837190740861765  0.1626200741269132  0.4251155864094918
  0.1619006184994691  0.0855705515182039  0.5889220752529842
  0.3348318005552380  0.1685800673788367  0.4012132243082457
  0.4188281173803280  0.0912304564403750  0.5785249660844378
  0.5818732031377786  0.1681268108622228  0.4172962436609599
  0.6639656351061151  0.0860344318938872  0.6065231323726805
  0.8315504170682836  0.1662024264058126  0.4025206122225213
  0.9093274798625243  0.0823053441112517  0.5778768673272148
  0.0832239174382423  0.4174512433598433  0.4046266486454494
  0.1654484815687019  0.3377004118517710  0.5771792067099961
  0.3323081959426469  0.4176918160573541  0.4199937289218602
  0.4130168951351251  0.3369831188648761  0.5951982946324593
  0.5814199246211630  0.4151682174447635  0.4012132243082457
  0.6587695925596255  0.3311719146196747  0.5785249660844378
  0.8346084909551394  0.4133705740520034  0.4266116825639776
  0.9126662986156999  0.3365492560457657  0.5883037881977005
  0.0817568202482847  0.6682432127517141  0.4178799215003217
  0.1636760599376386  0.5863238960623652  0.6066867796180389
  0.3325487646401573  0.6667761195617572  0.4046266486454494
  0.4122995931482329  0.5845514834312987  0.5771792067099961
  0.5873799138730857  0.6662809689138233  0.4251155864094918
  0.6644294894818028  0.5880993475005349  0.5889220752529842
  0.8324574156862494  0.6667121192707032  0.4056265444326366
  0.9147357439124946  0.5888600755235158  0.5770575063722074
  0.0832879047292987  0.9175425673137456  0.4056265444326366
  0.1611398904764885  0.8352642310875069  0.5770575063722074
  0.3366294249480000  0.9153914960448559  0.4266116825639776
  0.4134507589542319  0.8373337173843014  0.5883037881977005
  0.5837975525941893  0.9184495919317136  0.4025206122225213
  0.6676947068887495  0.8406725541374714  0.5778768673272148
  0.8314952779412454  0.9185046960587524  0.4170532814530729
  0.9137724086959857  0.8362276083040121  0.6072481184950769
  0.4139052664037317  0.3360947685962676  0.6913376542720707
 
  0.00000000E+00  0.00000000E+00  0.00000000E+00
  0.00000000E+00  0.00000000E+00  0.00000000E+00
  0.00000000E+00  0.00000000E+00  0.00000000E+00
  0.00000000E+00  0.00000000E+00  0.00000000E+00
  0.00000000E+00  0.00000000E+00  0.00000000E+00
  0.00000000E+00  0.00000000E+00  0.00000000E+00
  0.00000000E+00  0.00000000E+00  0.00000000E+00
  0.00000000E+00  0.00000000E+00  0.00000000E+00
  0.00000000E+00  0.00000000E+00  0.00000000E+00
  0.00000000E+00  0.00000000E+00  0.00000000E+00
  0.00000000E+00  0.00000000E+00  0.00000000E+00
  0.00000000E+00  0.00000000E+00  0.00000000E+00
  0.00000000E+00  0.00000000E+00  0.00000000E+00
  0.00000000E+00  0.00000000E+00  0.00000000E+00
  0.00000000E+00  0.00000000E+00  0.00000000E+00
  0.00000000E+00  0.00000000E+00  0.00000000E+00
  0.00000000E+00  0.00000000E+00  0.00000000E+00
  0.00000000E+00  0.00000000E+00  0.00000000E+00
  0.00000000E+00  0.00000000E+00  0.00000000E+00
  0.00000000E+00  0.00000000E+00  0.00000000E+00
  0.00000000E+00  0.00000000E+00  0.00000000E+00
  0.00000000E+00  0.00000000E+00  0.00000000E+00
  0.00000000E+00  0.00000000E+00  0.00000000E+00
  0.00000000E+00  0.00000000E+00  0.00000000E+00
  0.00000000E+00  0.00000000E+00  0.00000000E+00
  0.00000000E+00  0.00000000E+00  0.00000000E+00
  0.00000000E+00  0.00000000E+00  0.00000000E+00
  0.00000000E+00  0.00000000E+00  0.00000000E+00
  0.00000000E+00  0.00000000E+00  0.00000000E+00
  0.00000000E+00  0.00000000E+00  0.00000000E+00
  0.00000000E+00  0.00000000E+00  0.00000000E+00
  0.00000000E+00  0.00000000E+00  0.00000000E+00
  0.00000000E+00  0.00000000E+00  0.00000000E+00
  0.00000000E+00  0.00000000E+00  0.00000000E+00
  0.00000000E+00  0.00000000E+00  0.00000000E+00
  0.00000000E+00  0.00000000E+00  0.00000000E+00
  0.00000000E+00  0.00000000E+00  0.00000000E+00
  0.00000000E+00  0.00000000E+00  0.00000000E+00
  0.00000000E+00  0.00000000E+00  0.00000000E+00
  0.00000000E+00  0.00000000E+00  0.00000000E+00
  0.00000000E+00  0.00000000E+00  0.00000000E+00
  0.00000000E+00  0.00000000E+00  0.00000000E+00
  0.00000000E+00  0.00000000E+00  0.00000000E+00
  0.00000000E+00  0.00000000E+00  0.00000000E+00
  0.00000000E+00  0.00000000E+00  0.00000000E+00
  0.00000000E+00  0.00000000E+00  0.00000000E+00
  0.00000000E+00  0.00000000E+00  0.00000000E+00
  0.00000000E+00  0.00000000E+00  0.00000000E+00
  0.00000000E+00  0.00000000E+00  0.00000000E+00
