CONTCAR\(4)                             
   1.00000000000000     
    13.1094999313000002    0.0000000000000000    0.0000000000000000
    -6.5547499657000001   11.3531599714000002    0.0000000000000000
     0.0000000000000000    0.0000000000000000   20.2374000549000002
   Na   Hf   N    O    H 
    32    16    32     2     1
Direct
  0.1669607936637476  0.0830246737358991  0.3742977482687593
  0.0844640552996907  0.1672133481993185  0.6272477388339084
  0.4174941840090582  0.0831172169671746  0.3744782683600363
  0.3341575233494467  0.1681335815176297  0.6272773461926278
  0.6674159478545647  0.0841589578735693  0.3742561479501063
  0.5836576851447859  0.1670928547566888  0.6284576401015300
  0.9166314054360711  0.0835742276096525  0.3742111586455010
  0.8338157121565217  0.1663985185086005  0.6283614866770861
  0.1654579319235054  0.3320329340743839  0.3735245929016813
  0.0858415504182020  0.4170230776730151  0.6277325589121219
  0.4171393920727766  0.3316729144426489  0.3734557755905996
  0.3391687195029078  0.4256772938394207  0.6301828850461746
  0.6677853317273659  0.3323976848675727  0.3742190947013029
  0.5793506435847675  0.4209988441021792  0.6291357220878879
  0.9160363567277656  0.3327623690873480  0.3742418193128998
  0.8331274518307481  0.4165907691909396  0.6284341239161577
  0.1658858367401095  0.5830231464849618  0.3738920467262119
  0.0848474497495459  0.6661662149934244  0.6277966075340657
  0.4169607076974486  0.5832448752675532  0.3727080144459478
  0.3413242399901364  0.6589752479265272  0.6303710888384586
  0.6685326704321852  0.5830384672630728  0.3734304993817403
  0.5747053161753755  0.6612591094916951  0.6301157058730382
  0.9171081227122855  0.5827093972757567  0.3744594664063570
  0.8321121521912502  0.6660504365981907  0.6272404064861163
  0.1672640750932501  0.8329692366917882  0.3745483600771706
  0.0837743575397241  0.9164828309749993  0.6279937541801530
  0.4172000414831771  0.8343905151020010  0.3738735609016715
  0.3340591789990484  0.9153286808548913  0.6277981703817233
  0.6681917106275463  0.8347902585837375  0.3734880419893543
  0.5831985074922414  0.9143095174099543  0.6277217471077563
  0.9172189612131589  0.8332686390235295  0.3742698904996402
  0.8330366012435348  0.9157348669987115  0.6272299449010745
  0.0003729185567352  0.9998491280756170  0.5008188273285086
  0.2505577220265636  0.9997799762298882  0.5011160604784166
  0.5004436318072152  0.9995491240581345  0.5013189171008818
  0.7500965764398302  0.9994424788295433  0.5010397366155175
  0.0007700769453649  0.2501245221034978  0.5010445729786994
  0.2510335978361056  0.2507557039571466  0.5009535265182450
  0.5003076344038107  0.2504720395508997  0.5012423113748383
  0.7503060938857402  0.2499033106799899  0.5016963572907329
  0.0006670256942627  0.4997722799517490  0.5012984553776505
  0.2513056513763914  0.5000267436050052  0.4997618355402622
  0.5001265574579890  0.5001056358712006  0.4992647631630689
  0.7497453419917690  0.4999043357707720  0.5012102101091216
  0.0004460620462723  0.7496635292644953  0.5010960440907155
  0.2510274654766746  0.7491948149584360  0.5016141801086178
  0.5001952396485478  0.7489182413723583  0.4997277015749972
  0.7494796105047214  0.7491860336737304  0.5009081076791304
  0.1672217347788276  0.0834091464274636  0.5580704016362930
  0.0830368085090214  0.1660894085680198  0.4438976315449352
  0.4170524637298243  0.0831540360400069  0.5584872435218600
  0.3336584475440389  0.1656998468462234  0.4438812538941974
  0.6668514544862205  0.0827487699923566  0.5587370175965773
  0.5840498171534207  0.1664665216463419  0.4446674901228391
  0.9170787752673988  0.0831392190303859  0.5582501117180527
  0.8334484647092282  0.1667721341391157  0.4445835210647289
  0.1682810608285479  0.3341342704695052  0.5576271873788983
  0.0824498030637386  0.4158894152904580  0.4433178704185252
  0.4168654974079899  0.3341333809655609  0.5566645940382315
  0.3327028385213850  0.4148241372638211  0.4414334866702418
  0.6662975628165455  0.3339291146841958  0.5588564005906775
  0.5845326465451208  0.4156660971763273  0.4427246911211640
  0.9174584994224944  0.3333720969702298  0.5587288889274760
  0.8337469486004210  0.4161532391122122  0.4446454989861266
  0.1686828353410803  0.5829555795542234  0.5581549657137757
  0.0835349930470386  0.6662272386457602  0.4444395133105843
  0.4175042284347157  0.5827516074435195  0.5511226014003725
  0.3329666691061846  0.6672653114036464  0.4420600046246363
  0.6661239524131446  0.5833773842921062  0.5566214143691539
  0.5853968999027188  0.6675128325677093  0.4414058746109930
  0.9170669990085685  0.5831657009288378  0.5584547761272276
  0.8345360612146422  0.6665608045302491  0.4438431752556298
  0.1672619893994849  0.8329558710451010  0.5583115821717755
  0.0838396322173622  0.9163964406010336  0.4442553711181247
  0.4172806410076078  0.8315348584256270  0.5581481843383571
  0.3339996537707322  0.9167073929716096  0.4444553631907837
  0.6661232003343400  0.8319509867198818  0.5575954807668637
  0.5843305153166014  0.9177775452061780  0.4433135243728046
  0.9168195818201070  0.8329869940908949  0.5580496064276446
  0.8341521851181426  0.9171957148923156  0.4438767396448569
  0.4193730575830870  0.5808433476411281  0.7110808013670464
  0.4868152428608497  0.5147617997746252  0.7163357391096383
  0.4914435555394192  0.5106335573041108  0.7642796422906386
 
  0.00000000E+00  0.00000000E+00  0.00000000E+00
  0.00000000E+00  0.00000000E+00  0.00000000E+00
  0.00000000E+00  0.00000000E+00  0.00000000E+00
  0.00000000E+00  0.00000000E+00  0.00000000E+00
  0.00000000E+00  0.00000000E+00  0.00000000E+00
  0.00000000E+00  0.00000000E+00  0.00000000E+00
  0.00000000E+00  0.00000000E+00  0.00000000E+00
  0.00000000E+00  0.00000000E+00  0.00000000E+00
  0.00000000E+00  0.00000000E+00  0.00000000E+00
  0.00000000E+00  0.00000000E+00  0.00000000E+00
  0.00000000E+00  0.00000000E+00  0.00000000E+00
  0.00000000E+00  0.00000000E+00  0.00000000E+00
  0.00000000E+00  0.00000000E+00  0.00000000E+00
  0.00000000E+00  0.00000000E+00  0.00000000E+00
  0.00000000E+00  0.00000000E+00  0.00000000E+00
  0.00000000E+00  0.00000000E+00  0.00000000E+00
  0.00000000E+00  0.00000000E+00  0.00000000E+00
  0.00000000E+00  0.00000000E+00  0.00000000E+00
  0.00000000E+00  0.00000000E+00  0.00000000E+00
  0.00000000E+00  0.00000000E+00  0.00000000E+00
  0.00000000E+00  0.00000000E+00  0.00000000E+00
  0.00000000E+00  0.00000000E+00  0.00000000E+00
  0.00000000E+00  0.00000000E+00  0.00000000E+00
  0.00000000E+00  0.00000000E+00  0.00000000E+00
  0.00000000E+00  0.00000000E+00  0.00000000E+00
  0.00000000E+00  0.00000000E+00  0.00000000E+00
  0.00000000E+00  0.00000000E+00  0.00000000E+00
  0.00000000E+00  0.00000000E+00  0.00000000E+00
  0.00000000E+00  0.00000000E+00  0.00000000E+00
  0.00000000E+00  0.00000000E+00  0.00000000E+00
  0.00000000E+00  0.00000000E+00  0.00000000E+00
  0.00000000E+00  0.00000000E+00  0.00000000E+00
  0.00000000E+00  0.00000000E+00  0.00000000E+00
  0.00000000E+00  0.00000000E+00  0.00000000E+00
  0.00000000E+00  0.00000000E+00  0.00000000E+00
  0.00000000E+00  0.00000000E+00  0.00000000E+00
  0.00000000E+00  0.00000000E+00  0.00000000E+00
  0.00000000E+00  0.00000000E+00  0.00000000E+00
  0.00000000E+00  0.00000000E+00  0.00000000E+00
  0.00000000E+00  0.00000000E+00  0.00000000E+00
  0.00000000E+00  0.00000000E+00  0.00000000E+00
  0.00000000E+00  0.00000000E+00  0.00000000E+00
  0.00000000E+00  0.00000000E+00  0.00000000E+00
  0.00000000E+00  0.00000000E+00  0.00000000E+00
  0.00000000E+00  0.00000000E+00  0.00000000E+00
  0.00000000E+00  0.00000000E+00  0.00000000E+00
  0.00000000E+00  0.00000000E+00  0.00000000E+00
  0.00000000E+00  0.00000000E+00  0.00000000E+00
  0.00000000E+00  0.00000000E+00  0.00000000E+00
  0.00000000E+00  0.00000000E+00  0.00000000E+00
  0.00000000E+00  0.00000000E+00  0.00000000E+00
  0.00000000E+00  0.00000000E+00  0.00000000E+00
  0.00000000E+00  0.00000000E+00  0.00000000E+00
  0.00000000E+00  0.00000000E+00  0.00000000E+00
  0.00000000E+00  0.00000000E+00  0.00000000E+00
  0.00000000E+00  0.00000000E+00  0.00000000E+00
  0.00000000E+00  0.00000000E+00  0.00000000E+00
  0.00000000E+00  0.00000000E+00  0.00000000E+00
  0.00000000E+00  0.00000000E+00  0.00000000E+00
  0.00000000E+00  0.00000000E+00  0.00000000E+00
  0.00000000E+00  0.00000000E+00  0.00000000E+00
  0.00000000E+00  0.00000000E+00  0.00000000E+00
  0.00000000E+00  0.00000000E+00  0.00000000E+00
  0.00000000E+00  0.00000000E+00  0.00000000E+00
  0.00000000E+00  0.00000000E+00  0.00000000E+00
  0.00000000E+00  0.00000000E+00  0.00000000E+00
  0.00000000E+00  0.00000000E+00  0.00000000E+00
  0.00000000E+00  0.00000000E+00  0.00000000E+00
  0.00000000E+00  0.00000000E+00  0.00000000E+00
  0.00000000E+00  0.00000000E+00  0.00000000E+00
  0.00000000E+00  0.00000000E+00  0.00000000E+00
  0.00000000E+00  0.00000000E+00  0.00000000E+00
  0.00000000E+00  0.00000000E+00  0.00000000E+00
  0.00000000E+00  0.00000000E+00  0.00000000E+00
  0.00000000E+00  0.00000000E+00  0.00000000E+00
  0.00000000E+00  0.00000000E+00  0.00000000E+00
  0.00000000E+00  0.00000000E+00  0.00000000E+00
  0.00000000E+00  0.00000000E+00  0.00000000E+00
  0.00000000E+00  0.00000000E+00  0.00000000E+00
  0.00000000E+00  0.00000000E+00  0.00000000E+00
  0.00000000E+00  0.00000000E+00  0.00000000E+00
  0.00000000E+00  0.00000000E+00  0.00000000E+00
  0.00000000E+00  0.00000000E+00  0.00000000E+00
