CONTCAR                                 
   1.00000000000000     
    16.2672996521000002    0.0000000000000000    0.0000000000000000
     2.6171829271000000   16.2219330010999983    0.0000000000000000
     0.0000000000000000    0.0000000000000000   16.8505992888999998
   Ag   H    O 
    18    19    38
Direct
  0.1833584346234513  0.1288292100563076  0.5477422587706714
  0.0307521492944870  0.2869217318327486  0.5676605494306367
  0.5348010845944249  0.1306066449931256  0.4915998049544032
  0.3525736726311305  0.2879620265629992  0.5240376106859415
  0.8450657054701050  0.1235833634514076  0.5171457972375553
  0.6868280574888722  0.3100391701887672  0.5126627176385540
  0.1764484083774060  0.4569157613634766  0.5336700589359722
  0.0159965823191154  0.6384867950052966  0.5132430844257611
  0.5094073100637538  0.4689128646469686  0.5707946450576408
  0.3540955944359088  0.6211254727904384  0.5823237085514696
  0.8678196002479382  0.4658051317384383  0.5358296002212564
  0.6829809596813764  0.6191513213321876  0.5505612598240054
  0.1975578234084855  0.7934988167960558  0.5297005835807699
  0.0151349040418631  0.9525148617835170  0.5349096570741322
  0.5125147524976018  0.7820827501450237  0.5179842974422223
  0.3532146791480015  0.9666125236490312  0.4890929313185914
  0.8373523208013003  0.8024110067623514  0.5466449249791482
  0.6860933176123831  0.9569032002811683  0.5397600156924253
  0.1795089115063558  0.2700852569238661  0.6042174892894366
  0.2102134816329449  0.0311738254061650  0.4257854528727266
  0.5103991912232990  0.2920386020573110  0.5101561383950604
  0.6007329279707496 -0.0005372927954654  0.4138283946540542
  0.8490264471681614  0.2807990022460675  0.5261783126813593
  0.8629780442305575 -0.0331224000811950  0.4736935881343123
  0.1759790280251416  0.6131381159726201  0.5343298883540872
  0.1948253940174163  0.3047289151711224  0.4816320493002916
  0.5003796210732288  0.6090028517672575  0.6254028781624061
  0.5589632479549514  0.3990190430643913  0.4455181518586965
  0.8386146821411585  0.6252673328359759  0.5337058904410938
  0.9347269357394962  0.3413017864559664  0.4552018396275165
  0.1720338303354589  0.9534199421892825  0.5230989014842146
  0.2695841637890307  0.6626118312091825  0.4592327073621329
  0.5158567968275486  0.9397008317214335  0.4920531753528970
  0.5323543599315579  0.6192970644971254  0.4975644359370543
  0.8274544506234108  0.9457554369714922  0.5968905091506087
  0.8790859296462148  0.6941792108212628  0.4312187732715058
  0.4755553422242775  0.4932412718376891  0.3549818383512007
  0.1419128661021866  0.2310531676513725  0.6190800998366985
  0.0296853535500571  0.0830682839052699  0.5234592923150163
  0.2256778724403237  0.0210768317365297  0.4811152051511103
  0.3355949749518088  0.1631814244263965  0.4758265668972593
  0.4786448743606510  0.2465548891280206  0.5241852684002369
  0.3962862088594498  0.1009901047824542  0.4843016575332253
  0.5828703733376062  0.0043324036350986  0.4690071843043724
  0.6619037461029901  0.1751242179267270  0.4690153708583868
  0.8040139765789073  0.2464301454644387  0.5342358892150748
  0.7264670107545743  0.1173723342461754  0.4552076707238813
  0.8868541571608402 -0.0048898432569170  0.5167907535103975
  0.9699744709110727  0.1321710249436581  0.5612217207073161
  0.1313452115914714  0.5795520915652760  0.5475834132460853
  0.0561060239637025  0.4465718692869720  0.4712262785817390
  0.2240589803814521  0.3314243743323561  0.5221278253552389
  0.3005711055663896  0.4668621779643758  0.5938524671578029
  0.4625623359110382  0.5707279084724766  0.6422645774847677
  0.3660912011820546  0.4117349986564207  0.5797285037545604
  0.5631552826875982  0.3697108945308578  0.4965752070719945
  0.6709069060723752  0.4924212145861257  0.5853489737847275
  0.8099814747149244  0.5842465802137723  0.5619470961148147
  0.7285904448965410  0.4330531030980617  0.5595121926127004
  0.9199391450287072  0.3413391753937765  0.5112537463036060
  0.9917118832306988  0.5057435338525189  0.4792539458537333
  0.1408328326904555  0.9130800169947583  0.5495649554615575
  0.0536990066364504  0.7637272807873762  0.5497287930742475
  0.2487955939462929  0.6677207891680638  0.5135467221438629
  0.3279428459095000  0.8250540466619886  0.4762051373550423
  0.4721789676607024  0.9062039423835793  0.5073428342583670
  0.3902620920812335  0.7640491542482649  0.4709451143462756
  0.5545925982906510  0.6559797032636185  0.5374205776398902
  0.6337597288935035  0.7991973904301996  0.5600975970633759
  0.7871770894307467  0.9086485780968271  0.6095200789113243
  0.6953924301471646  0.7468603111233000  0.5276935981521245
  0.8919227520532017  0.6934459028023674  0.4876143683612329
 -0.0053401364803956  0.8252455883813890  0.5676420607766538
  0.4827384837310522  0.5481932821714823  0.4528969441953978
  0.5234715278734278  0.5051190202936954  0.3857965589840754
 
  0.00000000E+00  0.00000000E+00  0.00000000E+00
  0.00000000E+00  0.00000000E+00  0.00000000E+00
  0.00000000E+00  0.00000000E+00  0.00000000E+00
  0.00000000E+00  0.00000000E+00  0.00000000E+00
  0.00000000E+00  0.00000000E+00  0.00000000E+00
  0.00000000E+00  0.00000000E+00  0.00000000E+00
  0.00000000E+00  0.00000000E+00  0.00000000E+00
  0.00000000E+00  0.00000000E+00  0.00000000E+00
  0.00000000E+00  0.00000000E+00  0.00000000E+00
  0.00000000E+00  0.00000000E+00  0.00000000E+00
  0.00000000E+00  0.00000000E+00  0.00000000E+00
  0.00000000E+00  0.00000000E+00  0.00000000E+00
  0.00000000E+00  0.00000000E+00  0.00000000E+00
  0.00000000E+00  0.00000000E+00  0.00000000E+00
  0.00000000E+00  0.00000000E+00  0.00000000E+00
  0.00000000E+00  0.00000000E+00  0.00000000E+00
  0.00000000E+00  0.00000000E+00  0.00000000E+00
  0.00000000E+00  0.00000000E+00  0.00000000E+00
  0.00000000E+00  0.00000000E+00  0.00000000E+00
  0.00000000E+00  0.00000000E+00  0.00000000E+00
  0.00000000E+00  0.00000000E+00  0.00000000E+00
  0.00000000E+00  0.00000000E+00  0.00000000E+00
  0.00000000E+00  0.00000000E+00  0.00000000E+00
  0.00000000E+00  0.00000000E+00  0.00000000E+00
  0.00000000E+00  0.00000000E+00  0.00000000E+00
  0.00000000E+00  0.00000000E+00  0.00000000E+00
  0.00000000E+00  0.00000000E+00  0.00000000E+00
  0.00000000E+00  0.00000000E+00  0.00000000E+00
  0.00000000E+00  0.00000000E+00  0.00000000E+00
  0.00000000E+00  0.00000000E+00  0.00000000E+00
  0.00000000E+00  0.00000000E+00  0.00000000E+00
  0.00000000E+00  0.00000000E+00  0.00000000E+00
  0.00000000E+00  0.00000000E+00  0.00000000E+00
  0.00000000E+00  0.00000000E+00  0.00000000E+00
  0.00000000E+00  0.00000000E+00  0.00000000E+00
  0.00000000E+00  0.00000000E+00  0.00000000E+00
  0.00000000E+00  0.00000000E+00  0.00000000E+00
  0.00000000E+00  0.00000000E+00  0.00000000E+00
  0.00000000E+00  0.00000000E+00  0.00000000E+00
  0.00000000E+00  0.00000000E+00  0.00000000E+00
  0.00000000E+00  0.00000000E+00  0.00000000E+00
  0.00000000E+00  0.00000000E+00  0.00000000E+00
  0.00000000E+00  0.00000000E+00  0.00000000E+00
  0.00000000E+00  0.00000000E+00  0.00000000E+00
  0.00000000E+00  0.00000000E+00  0.00000000E+00
  0.00000000E+00  0.00000000E+00  0.00000000E+00
  0.00000000E+00  0.00000000E+00  0.00000000E+00
  0.00000000E+00  0.00000000E+00  0.00000000E+00
  0.00000000E+00  0.00000000E+00  0.00000000E+00
  0.00000000E+00  0.00000000E+00  0.00000000E+00
  0.00000000E+00  0.00000000E+00  0.00000000E+00
  0.00000000E+00  0.00000000E+00  0.00000000E+00
  0.00000000E+00  0.00000000E+00  0.00000000E+00
  0.00000000E+00  0.00000000E+00  0.00000000E+00
  0.00000000E+00  0.00000000E+00  0.00000000E+00
  0.00000000E+00  0.00000000E+00  0.00000000E+00
  0.00000000E+00  0.00000000E+00  0.00000000E+00
  0.00000000E+00  0.00000000E+00  0.00000000E+00
  0.00000000E+00  0.00000000E+00  0.00000000E+00
  0.00000000E+00  0.00000000E+00  0.00000000E+00
  0.00000000E+00  0.00000000E+00  0.00000000E+00
  0.00000000E+00  0.00000000E+00  0.00000000E+00
  0.00000000E+00  0.00000000E+00  0.00000000E+00
  0.00000000E+00  0.00000000E+00  0.00000000E+00
  0.00000000E+00  0.00000000E+00  0.00000000E+00
  0.00000000E+00  0.00000000E+00  0.00000000E+00
  0.00000000E+00  0.00000000E+00  0.00000000E+00
  0.00000000E+00  0.00000000E+00  0.00000000E+00
  0.00000000E+00  0.00000000E+00  0.00000000E+00
  0.00000000E+00  0.00000000E+00  0.00000000E+00
  0.00000000E+00  0.00000000E+00  0.00000000E+00
  0.00000000E+00  0.00000000E+00  0.00000000E+00
  0.00000000E+00  0.00000000E+00  0.00000000E+00
  0.00000000E+00  0.00000000E+00  0.00000000E+00
  0.00000000E+00  0.00000000E+00  0.00000000E+00
