 Cu2 Sb2 S4                             
   1.00000000000000     
     3.7345385118994039    0.0000000000000000    0.0000000000000000
     0.0000000000000000    6.1015398505347811    0.0000000000000000
     0.0000000000000000    0.0000000000000000   20.4332590308159965
   Cu   Sb   S 
     2     2     4
Direct
 -0.0000000132105578  0.2569396490928424  0.5535369340104842
  0.0000000090021405  0.7569386567616144  0.4464630947840801
  0.5000000185217565  0.2563043486006829  0.3710828613479574
  0.4999999830369916  0.7563051284125037  0.6289171766502024
  0.5000000098709705  0.8713642862532154  0.3913216527341836
  0.4999999854957625  0.3713650079472695  0.6086782911372058
 -0.0000000158722218  0.8821328882915752  0.5510719745267094
  0.0000000231551586  0.3821320346402889  0.4489280148091780
 
  0.00000000E+00  0.00000000E+00  0.00000000E+00
  0.00000000E+00  0.00000000E+00  0.00000000E+00
  0.00000000E+00  0.00000000E+00  0.00000000E+00
  0.00000000E+00  0.00000000E+00  0.00000000E+00
  0.00000000E+00  0.00000000E+00  0.00000000E+00
  0.00000000E+00  0.00000000E+00  0.00000000E+00
  0.00000000E+00  0.00000000E+00  0.00000000E+00
  0.00000000E+00  0.00000000E+00  0.00000000E+00
