CONTCAR\(11)                            
   1.00000000000000     
    14.8263998031999993    0.0000000000000000    0.0000000000000000
     0.0000000000000000   11.8667001723999999    0.0000000000000000
     0.0000000000000000    0.0000000000000000   17.5359001160000005
   Cu   Te   O 
    10    10    40
Direct
  0.0001800000000003  0.2917522139098742  0.5000072912146272
  0.2001799969999993  0.2917522139098742  0.5000072912146272
  0.4001800200000005  0.2917522139098742  0.5000072912146272
  0.6001799619999986  0.2917522139098742  0.5000072912146272
  0.8001800010000011  0.2917522139098742  0.5000072912146272
  0.0001800000000003  0.7917521739098780  0.5000072912146272
  0.2001799969999993  0.7917521739098780  0.5000072912146272
  0.4001800200000005  0.7917521739098780  0.5000072912146272
  0.6001799619999986  0.7917521739098780  0.5000072912146272
  0.8001800010000011  0.7917521739098780  0.5000072912146272
  0.1001999989999973  0.0417557463959975  0.4999233480535940
  0.3001999729999980  0.0417557463959975  0.4999233480535940
  0.5001999790000013  0.0417557463959975  0.4999233480535940
  0.7002000499999994  0.0417557463959975  0.4999233480535940
  0.9002000240000001  0.0417557463959975  0.4999233480535940
  0.1001999989999973  0.5417557673959960  0.4999233480535940
  0.3001999729999980  0.5417557673959960  0.4999233480535940
  0.5001999790000013  0.5417557673959960  0.4999233480535940
  0.7002000499999994  0.5417557673959960  0.4999233480535940
  0.9002000240000001  0.5417557673959960  0.4999233480535940
  0.0001900000000035  0.0077725482442520  0.4281325878978371
  0.1001800020000019  0.1973692485452145  0.4659252759078661
  0.0001900000000035  0.0756064716572894  0.5717409810536941
  0.1001800020000019  0.3861437822473758  0.5340004718723846
  0.2001899999999992  0.0077725482442520  0.4281325878978371
  0.3001800010000011  0.1973692485452145  0.4659252759078661
  0.2001899999999992  0.0756064716572894  0.5717409810536941
  0.3001800010000011  0.3861437822473758  0.5340004718723846
  0.4001899900000012  0.0077725482442520  0.4281325878978371
  0.5001800069999973  0.1973692485452145  0.4659252759078661
  0.4001899900000012  0.0756064716572894  0.5717409810536941
  0.5001800069999973  0.3861437822473758  0.5340004718723846
  0.6001899959999974  0.0077725482442520  0.4281325878978371
  0.7001799809999980  0.1973692485452145  0.4659252759078661
  0.6001899959999974  0.0756064716572894  0.5717409810536941
  0.7001799809999980  0.3861437822473758  0.5340004718723846
  0.8001899710000018  0.0077725482442520  0.4281325878978371
  0.9001799560000023  0.1973692485452145  0.4659252759078661
  0.8001899710000018  0.0756064716572894  0.5717409810536941
  0.9001799560000023  0.3861437822473758  0.5340004718723846
  0.0001900000000035  0.5077625352442514  0.4281325878978371
  0.1001800020000019  0.6973693085452124  0.4659252759078661
  0.0001900000000035  0.5756064466572838  0.5717409810536941
  0.1001800020000019  0.8861437822473760  0.5340004718723846
  0.2001899999999992  0.5077625352442514  0.4281325878978371
  0.3001800010000011  0.6973693085452124  0.4659252759078661
  0.2001899999999992  0.5756064466572838  0.5717409810536941
  0.3001800010000011  0.8861437822473760  0.5340004718723846
  0.4001899900000012  0.5077625352442514  0.4281325878978371
  0.5001800069999973  0.6973693085452124  0.4659252759078661
  0.4001899900000012  0.5756064466572838  0.5717409810536941
  0.5001800069999973  0.8861437822473760  0.5340004718723846
  0.6001899959999974  0.5077625352442514  0.4281325878978371
  0.7001799809999980  0.6973693085452124  0.4659252759078661
  0.6001899959999974  0.5756064466572838  0.5717409810536941
  0.7001799809999980  0.8861437822473760  0.5340004718723846
  0.8001899710000018  0.5077625352442514  0.4281325878978371
  0.9001799560000023  0.6973693085452124  0.4659252759078661
  0.8001899710000018  0.5756064466572838  0.5717409810536941
  0.9001799560000023  0.8861437822473760  0.5340004718723846
 
  0.00000000E+00  0.00000000E+00  0.00000000E+00
  0.00000000E+00  0.00000000E+00  0.00000000E+00
  0.00000000E+00  0.00000000E+00  0.00000000E+00
  0.00000000E+00  0.00000000E+00  0.00000000E+00
  0.00000000E+00  0.00000000E+00  0.00000000E+00
  0.00000000E+00  0.00000000E+00  0.00000000E+00
  0.00000000E+00  0.00000000E+00  0.00000000E+00
  0.00000000E+00  0.00000000E+00  0.00000000E+00
  0.00000000E+00  0.00000000E+00  0.00000000E+00
  0.00000000E+00  0.00000000E+00  0.00000000E+00
  0.00000000E+00  0.00000000E+00  0.00000000E+00
  0.00000000E+00  0.00000000E+00  0.00000000E+00
  0.00000000E+00  0.00000000E+00  0.00000000E+00
  0.00000000E+00  0.00000000E+00  0.00000000E+00
  0.00000000E+00  0.00000000E+00  0.00000000E+00
  0.00000000E+00  0.00000000E+00  0.00000000E+00
  0.00000000E+00  0.00000000E+00  0.00000000E+00
  0.00000000E+00  0.00000000E+00  0.00000000E+00
  0.00000000E+00  0.00000000E+00  0.00000000E+00
  0.00000000E+00  0.00000000E+00  0.00000000E+00
  0.00000000E+00  0.00000000E+00  0.00000000E+00
  0.00000000E+00  0.00000000E+00  0.00000000E+00
  0.00000000E+00  0.00000000E+00  0.00000000E+00
  0.00000000E+00  0.00000000E+00  0.00000000E+00
  0.00000000E+00  0.00000000E+00  0.00000000E+00
  0.00000000E+00  0.00000000E+00  0.00000000E+00
  0.00000000E+00  0.00000000E+00  0.00000000E+00
  0.00000000E+00  0.00000000E+00  0.00000000E+00
  0.00000000E+00  0.00000000E+00  0.00000000E+00
  0.00000000E+00  0.00000000E+00  0.00000000E+00
  0.00000000E+00  0.00000000E+00  0.00000000E+00
  0.00000000E+00  0.00000000E+00  0.00000000E+00
  0.00000000E+00  0.00000000E+00  0.00000000E+00
  0.00000000E+00  0.00000000E+00  0.00000000E+00
  0.00000000E+00  0.00000000E+00  0.00000000E+00
  0.00000000E+00  0.00000000E+00  0.00000000E+00
  0.00000000E+00  0.00000000E+00  0.00000000E+00
  0.00000000E+00  0.00000000E+00  0.00000000E+00
  0.00000000E+00  0.00000000E+00  0.00000000E+00
  0.00000000E+00  0.00000000E+00  0.00000000E+00
  0.00000000E+00  0.00000000E+00  0.00000000E+00
  0.00000000E+00  0.00000000E+00  0.00000000E+00
  0.00000000E+00  0.00000000E+00  0.00000000E+00
  0.00000000E+00  0.00000000E+00  0.00000000E+00
  0.00000000E+00  0.00000000E+00  0.00000000E+00
  0.00000000E+00  0.00000000E+00  0.00000000E+00
  0.00000000E+00  0.00000000E+00  0.00000000E+00
  0.00000000E+00  0.00000000E+00  0.00000000E+00
  0.00000000E+00  0.00000000E+00  0.00000000E+00
  0.00000000E+00  0.00000000E+00  0.00000000E+00
  0.00000000E+00  0.00000000E+00  0.00000000E+00
  0.00000000E+00  0.00000000E+00  0.00000000E+00
  0.00000000E+00  0.00000000E+00  0.00000000E+00
  0.00000000E+00  0.00000000E+00  0.00000000E+00
  0.00000000E+00  0.00000000E+00  0.00000000E+00
  0.00000000E+00  0.00000000E+00  0.00000000E+00
  0.00000000E+00  0.00000000E+00  0.00000000E+00
  0.00000000E+00  0.00000000E+00  0.00000000E+00
  0.00000000E+00  0.00000000E+00  0.00000000E+00
  0.00000000E+00  0.00000000E+00  0.00000000E+00
