CONTCAR\(7)                             
   1.00000000000000     
    14.3652000426999997    0.0000000000000000    0.0000000000000000
     7.1792291409000004   12.4398023524999992    0.0000000000000000
     0.0000000000000000    0.0000000000000000   17.6567993164000008
   Co   Te   O 
    16    32     1
Direct
  0.9798786515349307  0.0165764200547826  0.4976225216515135
  0.2531647338016265  0.0038924725443430  0.4985987513066535
  0.4900695656918910  0.0060229466009163  0.5022791636344828
  0.7612727325677311  0.0131388432763357  0.5011672279716142
 -0.0001536309602867  0.2666732886894344  0.5001502047012419
  0.2646412740016844  0.2264952357268271  0.4964068202046368
  0.4937239344442119  0.2576276775905649  0.5174169364914801
  0.7651022999214783  0.2265250505257710  0.5000966155293713
  0.9995126635674619  0.4827425838602264  0.4960998761491300
  0.2411907967903649  0.5092393537139029  0.5106156809485224
  0.5235157920772064  0.5188465716459275  0.4982715018312639
  0.7269228867526423  0.5105922435536469  0.4933689117994220
  0.0242277328770016  0.7354453260661992  0.5039629183965073
  0.2409825571507332  0.7496689715002018  0.5106889897782634
  0.5103706167793587  0.7268212062400493  0.4929154989760980
  0.7528154848261580  0.7553230477013727  0.5001877515749658
  0.1646795124832043  0.1677514034745960  0.5858160295722789
  0.0801626120058824  0.0930115566034982  0.4220230674175131
  0.4154390464155693  0.1625868200942345  0.5932264734299605
  0.3403307240691630  0.0726386171299537  0.4055080757239054
  0.6670989498825093  0.1689194696567879  0.5928689635613559
  0.5810134404392353  0.0930312354292263  0.4296771600229567
  0.9254598274260226  0.1753305667685867  0.5858769066190074
  0.8322426161813627  0.0848936419312143  0.4009807988089802
  0.1651411835393222  0.4023401958510506  0.5800786258059241
  0.0985140826627093  0.3221507007418314  0.4103374064661313
  0.3903503683526949  0.4123470850823260  0.6042756818806848
  0.3342334884085188  0.3369048212611136  0.4290387193704045
  0.6869226641892467  0.3985139911026604  0.5812763685981883
  0.5793353459429404  0.3380745551348254  0.4362275927152045
  0.8932676533145885  0.4304436263519509  0.5840508318972384
  0.8321876350975949  0.3326902557133681  0.4192012119144334
  0.1680168786548817  0.6659246960185656  0.6021779913554614
  0.0843319986259277  0.5731130533526646  0.4190620621841618
  0.4088585333174476  0.6793366815945786  0.5886894105399068
  0.3407750170439612  0.5793211438193737  0.4303105358272473
  0.6702614509477492  0.6713874546421682  0.5820522253329289
  0.5852432774432307  0.5860271274806038  0.3939669210092285
  0.9245111761927669  0.6559814882355400  0.5764678963779498
  0.8290610299653305  0.5849891228109767  0.4173458976399639
  0.1544355081971852  0.9307173445505297  0.5786811038143792
  0.0829372232086301  0.8417796654728480  0.4203765171726976
  0.4213115901072531  0.9000046644554849  0.5808401894490207
  0.3289154539401379  0.8294186609641846  0.4244090995989713
  0.6682833558403507  0.9258653253374803  0.5764072329223719
  0.5823612843702092  0.8345082343724675  0.4210894185239058
  0.9253352033322690  0.9094958452354950  0.5848197569664031
  0.8461094283360950  0.8338905915518744  0.4257801253789548
  0.4652245582417737  0.5010885684874561  0.5990202511571522
 
  0.00000000E+00  0.00000000E+00  0.00000000E+00
  0.00000000E+00  0.00000000E+00  0.00000000E+00
  0.00000000E+00  0.00000000E+00  0.00000000E+00
  0.00000000E+00  0.00000000E+00  0.00000000E+00
  0.00000000E+00  0.00000000E+00  0.00000000E+00
  0.00000000E+00  0.00000000E+00  0.00000000E+00
  0.00000000E+00  0.00000000E+00  0.00000000E+00
  0.00000000E+00  0.00000000E+00  0.00000000E+00
  0.00000000E+00  0.00000000E+00  0.00000000E+00
  0.00000000E+00  0.00000000E+00  0.00000000E+00
  0.00000000E+00  0.00000000E+00  0.00000000E+00
  0.00000000E+00  0.00000000E+00  0.00000000E+00
  0.00000000E+00  0.00000000E+00  0.00000000E+00
  0.00000000E+00  0.00000000E+00  0.00000000E+00
  0.00000000E+00  0.00000000E+00  0.00000000E+00
  0.00000000E+00  0.00000000E+00  0.00000000E+00
  0.00000000E+00  0.00000000E+00  0.00000000E+00
  0.00000000E+00  0.00000000E+00  0.00000000E+00
  0.00000000E+00  0.00000000E+00  0.00000000E+00
  0.00000000E+00  0.00000000E+00  0.00000000E+00
  0.00000000E+00  0.00000000E+00  0.00000000E+00
  0.00000000E+00  0.00000000E+00  0.00000000E+00
  0.00000000E+00  0.00000000E+00  0.00000000E+00
  0.00000000E+00  0.00000000E+00  0.00000000E+00
  0.00000000E+00  0.00000000E+00  0.00000000E+00
  0.00000000E+00  0.00000000E+00  0.00000000E+00
  0.00000000E+00  0.00000000E+00  0.00000000E+00
  0.00000000E+00  0.00000000E+00  0.00000000E+00
  0.00000000E+00  0.00000000E+00  0.00000000E+00
  0.00000000E+00  0.00000000E+00  0.00000000E+00
  0.00000000E+00  0.00000000E+00  0.00000000E+00
  0.00000000E+00  0.00000000E+00  0.00000000E+00
  0.00000000E+00  0.00000000E+00  0.00000000E+00
  0.00000000E+00  0.00000000E+00  0.00000000E+00
  0.00000000E+00  0.00000000E+00  0.00000000E+00
  0.00000000E+00  0.00000000E+00  0.00000000E+00
  0.00000000E+00  0.00000000E+00  0.00000000E+00
  0.00000000E+00  0.00000000E+00  0.00000000E+00
  0.00000000E+00  0.00000000E+00  0.00000000E+00
  0.00000000E+00  0.00000000E+00  0.00000000E+00
  0.00000000E+00  0.00000000E+00  0.00000000E+00
  0.00000000E+00  0.00000000E+00  0.00000000E+00
  0.00000000E+00  0.00000000E+00  0.00000000E+00
  0.00000000E+00  0.00000000E+00  0.00000000E+00
  0.00000000E+00  0.00000000E+00  0.00000000E+00
  0.00000000E+00  0.00000000E+00  0.00000000E+00
  0.00000000E+00  0.00000000E+00  0.00000000E+00
  0.00000000E+00  0.00000000E+00  0.00000000E+00
  0.00000000E+00  0.00000000E+00  0.00000000E+00
