CONTCAR                                 
   1.00000000000000     
    13.0951995849999996    0.0000000000000000    0.0000000000000000
     0.0000000000000000   17.1203994751000010    0.0000000000000000
     0.0000000000000000    0.0000000000000000   20.8015995025999985
   La   I    O 
    12    30     1
Direct
  0.2501207334503289  0.1114210844194730  0.5194264954740967
  0.0844730561719202  0.8362202251424397  0.4819226047579228
  0.2467746044212244  0.6105842758431317  0.5264000180065868
  0.0836111195821321  0.3387162707024338  0.4709421778641759
  0.5827450073992789  0.1116769710514093  0.5189802428419633
  0.4167994318546119  0.8361387038771985  0.4808140352687082
  0.5862749978989029  0.6106700406339647  0.5264777977773022
  0.4165431260612176  0.3383320706533118  0.4703217495127177
  0.9168905943794893  0.1115022668459215  0.5194934424645291
  0.7488870696069142  0.8369093551509391  0.4818583414534419
  0.9164166894339598  0.6102375645521793  0.5297447313311509
  0.7493132954718663  0.3383462415617452  0.4711472696017126
  0.2498169600006123  0.3521231964092348  0.3600662273447930
  0.0837782966312175  0.5964934898209564  0.6393372459030494
  0.2497370445058093  0.9580673136946427  0.4170439713838923
  0.0839047088637909  0.9904315868967180  0.5841597421884318
  0.0809802420981578  0.5327257574375724  0.4307504660600289
  0.2518239842692506  0.4178112506906836  0.5684508773111205
  0.0839856683069986  0.2190615965491386  0.5969761180146829
  0.2498120399676536  0.7305237758537754  0.4014134261853506
  0.0839122022062806  0.1597246593728959  0.4116190662932390
  0.2519898930779965  0.7867552790566305  0.5883988392961627
  0.5837993261262697  0.3517525169374847  0.3601363800615520
  0.4171978332181802  0.5962616664795432  0.6428254653980942
  0.5830908231132683  0.9582607286940906  0.4165859365720744
  0.4168182667343898  0.9901680041632949  0.5832993214818800
  0.4166663571513179  0.5333693479683473  0.4314793432202374
  0.5807879788892181  0.4176172481980360  0.5684246340480582
  0.4161072181742035  0.2190861406037131  0.5968079971410575
  0.5843807274011240  0.7309726769240142  0.4015109090422439
  0.4160518688182481  0.1596928119811014  0.4111136776639611
  0.5813475365877104  0.7873763731196051  0.5881837604607373
  0.9162041179011488  0.3507184344753934  0.3606382428308566
  0.7486747138184012  0.5969535992615119  0.6395147287385960
  0.9170332784258354  0.9580753313688154  0.4176054501629601
  0.7489797838470031  0.9908430389124280  0.5839295958327206
  0.7517139249553042  0.5326073421532124  0.4310533352273663
  0.9165335947755991  0.4154942586286698  0.5677863060955053
  0.7491755700764039  0.2185001654970495  0.5970087260874900
  0.9163469284422875  0.7304760357648845  0.4039523063466013
  0.7502533180282187  0.1591724495805994  0.4114500173105216
  0.9163853617396286  0.7894238706235986  0.5896185491123327
  0.4203805751166247  0.6952047324482439  0.6829106658300640
 
  0.00000000E+00  0.00000000E+00  0.00000000E+00
  0.00000000E+00  0.00000000E+00  0.00000000E+00
  0.00000000E+00  0.00000000E+00  0.00000000E+00
  0.00000000E+00  0.00000000E+00  0.00000000E+00
  0.00000000E+00  0.00000000E+00  0.00000000E+00
  0.00000000E+00  0.00000000E+00  0.00000000E+00
  0.00000000E+00  0.00000000E+00  0.00000000E+00
  0.00000000E+00  0.00000000E+00  0.00000000E+00
  0.00000000E+00  0.00000000E+00  0.00000000E+00
  0.00000000E+00  0.00000000E+00  0.00000000E+00
  0.00000000E+00  0.00000000E+00  0.00000000E+00
  0.00000000E+00  0.00000000E+00  0.00000000E+00
  0.00000000E+00  0.00000000E+00  0.00000000E+00
  0.00000000E+00  0.00000000E+00  0.00000000E+00
  0.00000000E+00  0.00000000E+00  0.00000000E+00
  0.00000000E+00  0.00000000E+00  0.00000000E+00
  0.00000000E+00  0.00000000E+00  0.00000000E+00
  0.00000000E+00  0.00000000E+00  0.00000000E+00
  0.00000000E+00  0.00000000E+00  0.00000000E+00
  0.00000000E+00  0.00000000E+00  0.00000000E+00
  0.00000000E+00  0.00000000E+00  0.00000000E+00
  0.00000000E+00  0.00000000E+00  0.00000000E+00
  0.00000000E+00  0.00000000E+00  0.00000000E+00
  0.00000000E+00  0.00000000E+00  0.00000000E+00
  0.00000000E+00  0.00000000E+00  0.00000000E+00
  0.00000000E+00  0.00000000E+00  0.00000000E+00
  0.00000000E+00  0.00000000E+00  0.00000000E+00
  0.00000000E+00  0.00000000E+00  0.00000000E+00
  0.00000000E+00  0.00000000E+00  0.00000000E+00
  0.00000000E+00  0.00000000E+00  0.00000000E+00
  0.00000000E+00  0.00000000E+00  0.00000000E+00
  0.00000000E+00  0.00000000E+00  0.00000000E+00
  0.00000000E+00  0.00000000E+00  0.00000000E+00
  0.00000000E+00  0.00000000E+00  0.00000000E+00
  0.00000000E+00  0.00000000E+00  0.00000000E+00
  0.00000000E+00  0.00000000E+00  0.00000000E+00
  0.00000000E+00  0.00000000E+00  0.00000000E+00
  0.00000000E+00  0.00000000E+00  0.00000000E+00
  0.00000000E+00  0.00000000E+00  0.00000000E+00
  0.00000000E+00  0.00000000E+00  0.00000000E+00
  0.00000000E+00  0.00000000E+00  0.00000000E+00
  0.00000000E+00  0.00000000E+00  0.00000000E+00
  0.00000000E+00  0.00000000E+00  0.00000000E+00
