G   18   17    1    0.005     # Parameters to Generate KPOINTS (Don't Edit This Line)
      90
Reciprocal lattice
    0.000000000000    0.000000000000    0.000000000000       1
    0.055555555556    0.000000000000    0.000000000000       2
    0.111111111111    0.000000000000    0.000000000000       2
    0.166666666667    0.000000000000    0.000000000000       2
    0.222222222222    0.000000000000    0.000000000000       2
    0.277777777778    0.000000000000    0.000000000000       2
    0.333333333333    0.000000000000    0.000000000000       2
    0.388888888889    0.000000000000    0.000000000000       2
    0.444444444444    0.000000000000    0.000000000000       2
    0.500000000000    0.000000000000    0.000000000000       1
    0.000000000000    0.058823529412    0.000000000000       2
    0.055555555556    0.058823529412    0.000000000000       4
    0.111111111111    0.058823529412    0.000000000000       4
    0.166666666667    0.058823529412    0.000000000000       4
    0.222222222222    0.058823529412    0.000000000000       4
    0.277777777778    0.058823529412    0.000000000000       4
    0.333333333333    0.058823529412    0.000000000000       4
    0.388888888889    0.058823529412    0.000000000000       4
    0.444444444444    0.058823529412    0.000000000000       4
    0.500000000000    0.058823529412    0.000000000000       2
    0.000000000000    0.117647058824    0.000000000000       2
    0.055555555556    0.117647058824    0.000000000000       4
    0.111111111111    0.117647058824    0.000000000000       4
    0.166666666667    0.117647058824    0.000000000000       4
    0.222222222222    0.117647058824    0.000000000000       4
    0.277777777778    0.117647058824    0.000000000000       4
    0.333333333333    0.117647058824    0.000000000000       4
    0.388888888889    0.117647058824    0.000000000000       4
    0.444444444444    0.117647058824    0.000000000000       4
    0.500000000000    0.117647058824    0.000000000000       2
    0.000000000000    0.176470588235    0.000000000000       2
    0.055555555556    0.176470588235    0.000000000000       4
    0.111111111111    0.176470588235    0.000000000000       4
    0.166666666667    0.176470588235    0.000000000000       4
    0.222222222222    0.176470588235    0.000000000000       4
    0.277777777778    0.176470588235    0.000000000000       4
    0.333333333333    0.176470588235    0.000000000000       4
    0.388888888889    0.176470588235    0.000000000000       4
    0.444444444444    0.176470588235    0.000000000000       4
    0.500000000000    0.176470588235    0.000000000000       2
    0.000000000000    0.235294117647    0.000000000000       2
    0.055555555556    0.235294117647    0.000000000000       4
    0.111111111111    0.235294117647    0.000000000000       4
    0.166666666667    0.235294117647    0.000000000000       4
    0.222222222222    0.235294117647    0.000000000000       4
    0.277777777778    0.235294117647    0.000000000000       4
    0.333333333333    0.235294117647    0.000000000000       4
    0.388888888889    0.235294117647    0.000000000000       4
    0.444444444444    0.235294117647    0.000000000000       4
    0.500000000000    0.235294117647    0.000000000000       2
    0.000000000000    0.294117647059    0.000000000000       2
    0.055555555556    0.294117647059    0.000000000000       4
    0.111111111111    0.294117647059    0.000000000000       4
    0.166666666667    0.294117647059    0.000000000000       4
    0.222222222222    0.294117647059    0.000000000000       4
    0.277777777778    0.294117647059    0.000000000000       4
    0.333333333333    0.294117647059    0.000000000000       4
    0.388888888889    0.294117647059    0.000000000000       4
    0.444444444444    0.294117647059    0.000000000000       4
    0.500000000000    0.294117647059    0.000000000000       2
    0.000000000000    0.352941176471    0.000000000000       2
    0.055555555556    0.352941176471    0.000000000000       4
    0.111111111111    0.352941176471    0.000000000000       4
    0.166666666667    0.352941176471    0.000000000000       4
    0.222222222222    0.352941176471    0.000000000000       4
    0.277777777778    0.352941176471    0.000000000000       4
    0.333333333333    0.352941176471    0.000000000000       4
    0.388888888889    0.352941176471    0.000000000000       4
    0.444444444444    0.352941176471    0.000000000000       4
    0.500000000000    0.352941176471    0.000000000000       2
    0.000000000000    0.411764705882    0.000000000000       2
    0.055555555556    0.411764705882    0.000000000000       4
    0.111111111111    0.411764705882    0.000000000000       4
    0.166666666667    0.411764705882    0.000000000000       4
    0.222222222222    0.411764705882    0.000000000000       4
    0.277777777778    0.411764705882    0.000000000000       4
    0.333333333333    0.411764705882    0.000000000000       4
    0.388888888889    0.411764705882    0.000000000000       4
    0.444444444444    0.411764705882    0.000000000000       4
    0.500000000000    0.411764705882    0.000000000000       2
    0.000000000000    0.470588235294    0.000000000000       2
    0.055555555556    0.470588235294    0.000000000000       4
    0.111111111111    0.470588235294    0.000000000000       4
    0.166666666667    0.470588235294    0.000000000000       4
    0.222222222222    0.470588235294    0.000000000000       4
    0.277777777778    0.470588235294    0.000000000000       4
    0.333333333333    0.470588235294    0.000000000000       4
    0.388888888889    0.470588235294    0.000000000000       4
    0.444444444444    0.470588235294    0.000000000000       4
    0.500000000000    0.470588235294    0.000000000000       2
