CONTCAR\(2)                             
   1.00000000000000     
    11.2371997832999995    0.0000000000000000    0.0000000000000000
     0.0000000000000000   14.7250003814999992    0.0000000000000000
     0.0000000000000000    0.0000000000000000   22.6672992706000009
   Li   Cu   F    O    H 
    32    32    80     2     1
Selective dynamics
Direct
  0.1876244623006826  0.0670311336705609  0.5216417043934030   F   F   F
  0.1961818897340848  0.4277948260392037  0.6139670052796120   F   F   F
  0.0612511284566537  0.0753615016333100  0.3932816902074592   F   F   F
  0.0624469860195731  0.4305908010516859  0.4802959693176660   F   F   F
  0.4369170179692503  0.0674000834983985  0.5216357347457148   F   F   F
  0.4321778014353228  0.4291745675260472  0.6061697638445480   F   F   F
  0.3120665986128728  0.0740458390935217  0.3945606271227504   F   F   F
  0.3129397510946816  0.4318130605781718  0.4784575522222099   F   F   F
  0.6868201092706627  0.0697744296356220  0.5208503466568573   F   F   F
  0.6846653458464971  0.4260082282210007  0.6086492389775913   F   F   F
  0.5633908584481659  0.0755051405443652  0.3932502384593377   F   F   F
  0.5608119880699434  0.4329723120425442  0.4793828006040854   F   F   F
  0.9377479738917387  0.0698061492420265  0.5213256314063557   F   F   F
  0.9381711264384052  0.4227193434809209  0.6064008355791657   F   F   F
  0.8125249878211918  0.0766170079203476  0.3923800034499720   F   F   F
  0.8119947904587832  0.4300275938957796  0.4794931577534669   F   F   F
  0.1878496705410839  0.5662546143599627  0.5205236422643225   F   F   F
  0.1883093589189215  0.9207621811494491  0.6098958235012546   F   F   F
  0.0628102407272380  0.5755729075259737  0.3920426252028406   F   F   F
  0.0619092013410452  0.9298107446802817  0.4808505971519637   F   F   F
  0.4350614639637627  0.5736990367459640  0.5258797363432706   F   F   F
  0.4359260031949717  0.9184125525930042  0.6090631679540621   F   F   F
  0.3129074931718989  0.5768881016638119  0.3924307758262344   F   F   F
  0.3124762623667792  0.9272705204778333  0.4823744920614885   F   F   F
  0.6873931934884183  0.5687376285956915  0.5181224732473595   F   F   F
  0.6878102673244015  0.9228697253859934  0.6084979596035680   F   F   F
  0.5607693617200624  0.5775916559131389  0.3922496141021554   F   F   F
  0.5620370437028726  0.9300924537179256  0.4807804766492083   F   F   F
  0.9371460821229647  0.5687609762430981  0.5200404321784191   F   F   F
  0.9388780827381566  0.9224591355025566  0.6081881335243295   F   F   F
  0.8120282913433456  0.5756124221240597  0.3915760170657165   F   F   F
  0.8122135192939410  0.9315931128416821  0.4803739696858571   F   F   F
  0.0710882303123483  0.2509209250326663  0.5676947585603571   F   F   F
  0.0617931661614577  0.0829276722326213  0.6604185415271857   F   F   F
  0.1872963131401093  0.4166526570795455  0.3399912163131589   F   F   F
  0.1872243491520607  0.2492399723052685  0.4324982004587810   F   F   F
  0.3124825803747626  0.2502745237607016  0.5671332034130856   F   F   F
  0.3126624507925868  0.0822366884673116  0.6615749556326307   F   F   F
  0.4375593108755211  0.4170805887672984  0.3397688135163577   F   F   F
  0.4365570514240105  0.2495609870254825  0.4325830719207957   F   F   F
  0.5553340843317827  0.2510617557640771  0.5667976052633321   F   F   F
  0.5627781716287643  0.0822739283572531  0.6598601194464209   F   F   F
  0.6871414825309685  0.4172369871880122  0.3396662674947422   F   F   F
  0.6862899186526903  0.2502478522885170  0.4324358130102155   F   F   F
  0.8109197522726248  0.2504255572260732  0.5673725687615772   F   F   F
  0.8124783549587917  0.0829283256144393  0.6583298632766059   F   F   F
  0.9368451314761472  0.4163588295091714  0.3398237179796411   F   F   F
  0.9390804408606570  0.2496135558860999  0.4333893722131137   F   F   F
  0.0620528312804609  0.7486371666657448  0.5676891524514929   F   F   F
  0.0672907364776805  0.5771627117671585  0.6581836567681307   F   F   F
  0.1874938717784289  0.9164847330150749  0.3428720150989548   F   F   F
  0.1864112994379283  0.7483419258133353  0.4344528173947353   F   F   F
  0.3004496242111614  0.7398522639090146  0.5724271434156591   F   F   F
  0.3037874750836593  0.6013176674796270  0.7013501339585915   F   F   F
  0.4372875216512426  0.9164397491076599  0.3429389452093403   F   F   F
  0.4351586365084117  0.7484476710645254  0.4350239554946995   F   F   F
  0.5718685777209842  0.7502250495542171  0.5629903067688744   F   F   F
  0.5510261768759577  0.5899497950187040  0.6564809606602537   F   F   F
  0.6870236838713240  0.9165719487887998  0.3404159426300168   F   F   F
  0.6897626205297271  0.7495815291286902  0.4315047119767570   F   F   F
  0.8134828865486554  0.7497063117029867  0.5671054822487562   F   F   F
  0.8103158493588793  0.5827725614517405  0.6576824582172947   F   F   F
  0.9373856432137302  0.9163206909668631  0.3403678133375792   F   F   F
  0.9369411860732271  0.7492279079317186  0.4330883300331436   F   F   F
  0.0643282015324473  0.1587768326602372  0.5096112871742235   F   F   F
  0.0608118116693888  0.4946570638522516  0.5560101066971015   F   F   F
  0.0664201322518139  0.3452207657096977  0.6206333538153714   F   F   F
  0.1874454387730111  0.1638850378099974  0.6330912827797306   F   F   F
  0.1871021482379689  0.9972092285809424  0.6810222323720723   F   F   F
  0.0620718912045319  0.5011502844654032  0.3194600588157357   F   F   F
  0.0621010758169902  0.3355996243934953  0.3697110672970823   F   F   F
  0.1874943374970854  0.1545842819210890  0.3800739574200165   F   F   F
  0.1876228411189160  0.0043185533393029  0.4454588485721303   F   F   F
  0.1871444981959201  0.3403274709357262  0.4904413849256670   F   F   F
  0.3120771747339077  0.1576499547525287  0.5096564461888917   F   F   F
  0.3108667893350230  0.4904549282138788  0.5533065858600992   F   F   F
  0.3142403290080225  0.3415170307299036  0.6218370443659964   F   F   F
  0.4375865043412830  0.1631629316942877  0.6318240056513247   F   F   F
  0.4376569949781270  0.9961943409380112  0.6799637732572492   F   F   F
  0.3121940743257596  0.5016910098039702  0.3200034281249984   F   F   F
  0.3125427047745859  0.3361157568329460  0.3703984095593498   F   F   F
  0.4368685865201627  0.1543612293872485  0.3805115508565109   F   F   F
  0.4366337148779351  0.0034380118180479  0.4455067688803851   F   F   F
  0.4376006031091464  0.3413169466140928  0.4901969453749757   F   F   F
  0.5606293415372434  0.1592835875656959  0.5084580559544563   F   F   F
  0.5635333611181039  0.4962082641191259  0.5540425923861463   F   F   F
  0.5591726917765811  0.3458511138417748  0.6191549444740545   F   F   F
  0.6871808873599008  0.1626418809207024  0.6268572414855171   F   F   F
  0.6878817094633192  0.9983616261124979  0.6803222810270526   F   F   F
  0.5621024639671006  0.5025195951543466  0.3195905967299382   F   F   F
  0.5623322715087724  0.3350744804888706  0.3678964808153893   F   F   F
  0.6871702481424435  0.1568201230785107  0.3787173740942364   F   F   F
  0.6870123563397641  0.0065062748651243  0.4444811873612409   F   F   F
  0.6866376319927809  0.3399829357055779  0.4918239649458513   F   F   F
  0.8121796876999241  0.1600438668668929  0.5077558383564877   F   F   F
  0.8115989421489971  0.4939027523498751  0.5553081799129274   F   F   F
  0.8111492219711991  0.3440628247629078  0.6211675782474444   F   F   F
  0.9374863757565066  0.1624825478360989  0.6263247670820604   F   F   F
  0.9370796165400535  0.9982058731363992  0.6800031346178059   F   F   F
  0.8124768949436074  0.5015520439733336  0.3192122709789800   F   F   F
  0.8118569016112005  0.3368769765502435  0.3715273634665408   F   F   F
  0.9377442769981101  0.1570857296040842  0.3789588525505536   F   F   F
  0.9374918336404647  0.0067703611343433  0.4447021572406058   F   F   F
  0.9372787039115309  0.3392488403779410  0.4930986476611494   F   F   F
  0.0620579171201570  0.6597948612181597  0.5076417138697735   F   F   F
  0.0619486439037829  0.9920804692053409  0.5573439247744005   F   F   F
  0.0624175906636779  0.8402123077709263  0.6226433598928622   F   F   F
  0.2013597779470970  0.6505941618116822  0.6326923590995577   F   F   F
  0.1853967571152211  0.4964208542931132  0.6874455896045149   F   F   F
  0.0627825166551332  0.0008700499135941  0.3208048381245092   F   F   F
  0.0619230621426752  0.8368716104489451  0.3737243150626952   F   F   F
  0.1868474985175510  0.6574781147972359  0.3788525104386196   F   F   F
  0.1858977127615873  0.5056185777774260  0.4422471414927927   F   F   F
  0.1864396745273353  0.8385880701987105  0.4940340692154876   F   F   F
  0.3065554654004856  0.6603536708170807  0.5051576584186321   F   F   F
  0.3121916701293515  0.9909219947134815  0.5580743348674844   F   F   F
  0.3107752997465738  0.8377933335857080  0.6235707926030969   F   F   F
  0.4447259450332552  0.6605527745972779  0.6052846107171845   F   F   F
  0.4260176698129357  0.5058845897019140  0.6719789093234709   F   F   F
  0.3123286686144340  0.0004051036097223  0.3214243738966118   F   F   F
  0.3123815973303792  0.8372804441541817  0.3757820665166065   F   F   F
  0.4363909311320171  0.6593396213026779  0.3780027962838872   F   F   F
  0.4371135520206622  0.5075810057342451  0.4422461983181449   F   F   F
  0.4382736938003475  0.8370436644236534  0.4959695755604443   F   F   F
  0.5672831906247637  0.6621984571293495  0.5000823278968625   F   F   F
  0.5629054124839783  0.9933569484825000  0.5568479981445620   F   F   F
  0.5646275289497353  0.8406280233268859  0.6197069823768047   F   F   F
  0.6866886675674024  0.6640511175210690  0.6279581143319319   F   F   F
  0.6791444719845714  0.5045631834137936  0.6798585609511321   F   F   F
  0.5617026468754034  0.0009639512454740  0.3207442620507237   F   F   F
  0.5628010152976373  0.8371545267091207  0.3743557406029581   F   F   F
  0.6878755140175699  0.6566973382088008  0.3771870442108423   F   F   F
  0.6881247658799197  0.5052822695038870  0.4422203766235526   F   F   F
  0.6872612543334427  0.8399518656925622  0.4914213173197055   F   F   F
  0.8131656154605409  0.6600593027004606  0.5073612893523247   F   F   F
  0.8122749873984532  0.9937087840607717  0.5567182554564027   F   F   F
  0.8135428385823786  0.8421848206075424  0.6214653680716253   F   F   F
  0.9426931404113290  0.6578508041932949  0.6262542293382865   F   F   F
  0.9348084075218779  0.4984424456725449  0.6783275053884665   F   F   F
  0.8123603804933737  0.0013799099348617  0.3200147247431246   F   F   F
  0.8120781100344061  0.8359699500833315  0.3708182631063153   F   F   F
  0.9374257864453526  0.6565555283151667  0.3788006980351000   F   F   F
  0.9371059527356422  0.5053068036066151  0.4435938149119849   F   F   F
  0.9361548324010514  0.8403165971517410  0.4919437881887276   F   F   F
  0.3845606453243420  0.6399881521465929  0.7665379147166362   T   T   T
  0.5066117480433974  0.6548846902283358  0.7508657173146887   T   T   T
  0.5480553586340166  0.6288661156283554  0.7845270483372864   T   T   T
 
  0.00000000E+00  0.00000000E+00  0.00000000E+00
  0.00000000E+00  0.00000000E+00  0.00000000E+00
  0.00000000E+00  0.00000000E+00  0.00000000E+00
  0.00000000E+00  0.00000000E+00  0.00000000E+00
  0.00000000E+00  0.00000000E+00  0.00000000E+00
  0.00000000E+00  0.00000000E+00  0.00000000E+00
  0.00000000E+00  0.00000000E+00  0.00000000E+00
  0.00000000E+00  0.00000000E+00  0.00000000E+00
  0.00000000E+00  0.00000000E+00  0.00000000E+00
  0.00000000E+00  0.00000000E+00  0.00000000E+00
  0.00000000E+00  0.00000000E+00  0.00000000E+00
  0.00000000E+00  0.00000000E+00  0.00000000E+00
  0.00000000E+00  0.00000000E+00  0.00000000E+00
  0.00000000E+00  0.00000000E+00  0.00000000E+00
  0.00000000E+00  0.00000000E+00  0.00000000E+00
  0.00000000E+00  0.00000000E+00  0.00000000E+00
  0.00000000E+00  0.00000000E+00  0.00000000E+00
  0.00000000E+00  0.00000000E+00  0.00000000E+00
  0.00000000E+00  0.00000000E+00  0.00000000E+00
  0.00000000E+00  0.00000000E+00  0.00000000E+00
  0.00000000E+00  0.00000000E+00  0.00000000E+00
  0.00000000E+00  0.00000000E+00  0.00000000E+00
  0.00000000E+00  0.00000000E+00  0.00000000E+00
  0.00000000E+00  0.00000000E+00  0.00000000E+00
  0.00000000E+00  0.00000000E+00  0.00000000E+00
  0.00000000E+00  0.00000000E+00  0.00000000E+00
  0.00000000E+00  0.00000000E+00  0.00000000E+00
  0.00000000E+00  0.00000000E+00  0.00000000E+00
  0.00000000E+00  0.00000000E+00  0.00000000E+00
  0.00000000E+00  0.00000000E+00  0.00000000E+00
  0.00000000E+00  0.00000000E+00  0.00000000E+00
  0.00000000E+00  0.00000000E+00  0.00000000E+00
  0.00000000E+00  0.00000000E+00  0.00000000E+00
  0.00000000E+00  0.00000000E+00  0.00000000E+00
  0.00000000E+00  0.00000000E+00  0.00000000E+00
  0.00000000E+00  0.00000000E+00  0.00000000E+00
  0.00000000E+00  0.00000000E+00  0.00000000E+00
  0.00000000E+00  0.00000000E+00  0.00000000E+00
  0.00000000E+00  0.00000000E+00  0.00000000E+00
  0.00000000E+00  0.00000000E+00  0.00000000E+00
  0.00000000E+00  0.00000000E+00  0.00000000E+00
  0.00000000E+00  0.00000000E+00  0.00000000E+00
  0.00000000E+00  0.00000000E+00  0.00000000E+00
  0.00000000E+00  0.00000000E+00  0.00000000E+00
  0.00000000E+00  0.00000000E+00  0.00000000E+00
  0.00000000E+00  0.00000000E+00  0.00000000E+00
  0.00000000E+00  0.00000000E+00  0.00000000E+00
  0.00000000E+00  0.00000000E+00  0.00000000E+00
  0.00000000E+00  0.00000000E+00  0.00000000E+00
  0.00000000E+00  0.00000000E+00  0.00000000E+00
  0.00000000E+00  0.00000000E+00  0.00000000E+00
  0.00000000E+00  0.00000000E+00  0.00000000E+00
  0.00000000E+00  0.00000000E+00  0.00000000E+00
  0.00000000E+00  0.00000000E+00  0.00000000E+00
  0.00000000E+00  0.00000000E+00  0.00000000E+00
  0.00000000E+00  0.00000000E+00  0.00000000E+00
  0.00000000E+00  0.00000000E+00  0.00000000E+00
  0.00000000E+00  0.00000000E+00  0.00000000E+00
  0.00000000E+00  0.00000000E+00  0.00000000E+00
  0.00000000E+00  0.00000000E+00  0.00000000E+00
  0.00000000E+00  0.00000000E+00  0.00000000E+00
  0.00000000E+00  0.00000000E+00  0.00000000E+00
  0.00000000E+00  0.00000000E+00  0.00000000E+00
  0.00000000E+00  0.00000000E+00  0.00000000E+00
  0.00000000E+00  0.00000000E+00  0.00000000E+00
  0.00000000E+00  0.00000000E+00  0.00000000E+00
  0.00000000E+00  0.00000000E+00  0.00000000E+00
  0.00000000E+00  0.00000000E+00  0.00000000E+00
  0.00000000E+00  0.00000000E+00  0.00000000E+00
  0.00000000E+00  0.00000000E+00  0.00000000E+00
  0.00000000E+00  0.00000000E+00  0.00000000E+00
  0.00000000E+00  0.00000000E+00  0.00000000E+00
  0.00000000E+00  0.00000000E+00  0.00000000E+00
  0.00000000E+00  0.00000000E+00  0.00000000E+00
  0.00000000E+00  0.00000000E+00  0.00000000E+00
  0.00000000E+00  0.00000000E+00  0.00000000E+00
  0.00000000E+00  0.00000000E+00  0.00000000E+00
  0.00000000E+00  0.00000000E+00  0.00000000E+00
  0.00000000E+00  0.00000000E+00  0.00000000E+00
  0.00000000E+00  0.00000000E+00  0.00000000E+00
  0.00000000E+00  0.00000000E+00  0.00000000E+00
  0.00000000E+00  0.00000000E+00  0.00000000E+00
  0.00000000E+00  0.00000000E+00  0.00000000E+00
  0.00000000E+00  0.00000000E+00  0.00000000E+00
  0.00000000E+00  0.00000000E+00  0.00000000E+00
  0.00000000E+00  0.00000000E+00  0.00000000E+00
  0.00000000E+00  0.00000000E+00  0.00000000E+00
  0.00000000E+00  0.00000000E+00  0.00000000E+00
  0.00000000E+00  0.00000000E+00  0.00000000E+00
  0.00000000E+00  0.00000000E+00  0.00000000E+00
  0.00000000E+00  0.00000000E+00  0.00000000E+00
  0.00000000E+00  0.00000000E+00  0.00000000E+00
  0.00000000E+00  0.00000000E+00  0.00000000E+00
  0.00000000E+00  0.00000000E+00  0.00000000E+00
  0.00000000E+00  0.00000000E+00  0.00000000E+00
  0.00000000E+00  0.00000000E+00  0.00000000E+00
  0.00000000E+00  0.00000000E+00  0.00000000E+00
  0.00000000E+00  0.00000000E+00  0.00000000E+00
  0.00000000E+00  0.00000000E+00  0.00000000E+00
  0.00000000E+00  0.00000000E+00  0.00000000E+00
  0.00000000E+00  0.00000000E+00  0.00000000E+00
  0.00000000E+00  0.00000000E+00  0.00000000E+00
  0.00000000E+00  0.00000000E+00  0.00000000E+00
  0.00000000E+00  0.00000000E+00  0.00000000E+00
  0.00000000E+00  0.00000000E+00  0.00000000E+00
  0.00000000E+00  0.00000000E+00  0.00000000E+00
  0.00000000E+00  0.00000000E+00  0.00000000E+00
  0.00000000E+00  0.00000000E+00  0.00000000E+00
  0.00000000E+00  0.00000000E+00  0.00000000E+00
  0.00000000E+00  0.00000000E+00  0.00000000E+00
  0.00000000E+00  0.00000000E+00  0.00000000E+00
  0.00000000E+00  0.00000000E+00  0.00000000E+00
  0.00000000E+00  0.00000000E+00  0.00000000E+00
  0.00000000E+00  0.00000000E+00  0.00000000E+00
  0.00000000E+00  0.00000000E+00  0.00000000E+00
  0.00000000E+00  0.00000000E+00  0.00000000E+00
  0.00000000E+00  0.00000000E+00  0.00000000E+00
  0.00000000E+00  0.00000000E+00  0.00000000E+00
  0.00000000E+00  0.00000000E+00  0.00000000E+00
  0.00000000E+00  0.00000000E+00  0.00000000E+00
  0.00000000E+00  0.00000000E+00  0.00000000E+00
  0.00000000E+00  0.00000000E+00  0.00000000E+00
  0.00000000E+00  0.00000000E+00  0.00000000E+00
  0.00000000E+00  0.00000000E+00  0.00000000E+00
  0.00000000E+00  0.00000000E+00  0.00000000E+00
  0.00000000E+00  0.00000000E+00  0.00000000E+00
  0.00000000E+00  0.00000000E+00  0.00000000E+00
  0.00000000E+00  0.00000000E+00  0.00000000E+00
  0.00000000E+00  0.00000000E+00  0.00000000E+00
  0.00000000E+00  0.00000000E+00  0.00000000E+00
  0.00000000E+00  0.00000000E+00  0.00000000E+00
  0.00000000E+00  0.00000000E+00  0.00000000E+00
  0.00000000E+00  0.00000000E+00  0.00000000E+00
  0.00000000E+00  0.00000000E+00  0.00000000E+00
  0.00000000E+00  0.00000000E+00  0.00000000E+00
  0.00000000E+00  0.00000000E+00  0.00000000E+00
  0.00000000E+00  0.00000000E+00  0.00000000E+00
  0.00000000E+00  0.00000000E+00  0.00000000E+00
  0.00000000E+00  0.00000000E+00  0.00000000E+00
  0.00000000E+00  0.00000000E+00  0.00000000E+00
  0.00000000E+00  0.00000000E+00  0.00000000E+00
  0.00000000E+00  0.00000000E+00  0.00000000E+00
  0.00000000E+00  0.00000000E+00  0.00000000E+00
  0.00000000E+00  0.00000000E+00  0.00000000E+00
  0.00000000E+00  0.00000000E+00  0.00000000E+00
  0.00000000E+00  0.00000000E+00  0.00000000E+00
  0.00000000E+00  0.00000000E+00  0.00000000E+00
