CONTCAR                                 
   1.00000000000000     
    10.2920999526999992    0.0000000000000000    0.0000000000000000
     1.7153529658000000    9.6351993213000000    0.0000000000000000
     0.0000000000000000    0.0000000000000000   19.1306991577000005
   Nb   Te
     9    18
Direct
  0.9999999141901057  0.0000002719677070  0.5000002553157188
  0.1189928171440968  0.2863440672751167  0.4954940385194746
  0.2143625006743974  0.7136370491106732  0.5044946473708904
  0.3333127236959825  0.9999928421343114  0.5000110931284070
  0.4522842952403039  0.2863389591083489  0.4954980514038567
  0.5477148268547793  0.7136642008927083  0.5045023436379523
  0.6666875453013716  0.0000073528602158  0.4999892675034658
  0.7856362413013969  0.2863702177218812  0.4955057741204953
  0.8810049045002941  0.7136591422960379  0.5045058342418542
  0.1482602013011132  0.1098066643753342  0.6053472120131076
  0.1849754422392778  0.8901621415856553  0.3946685917847432
  0.2583227415677243  0.4504102350739743  0.5822023639782756
  0.0749459736778491  0.5496286245387054  0.4177847248929041
  0.0350976494230508  0.7901998898757228  0.6093678928307398
  0.2983224553668720  0.2097306413390001  0.3906341958240063
  0.4816964816127722  0.1096543680862112  0.6053076686925678
  0.5183033354376505  0.8903466670382230  0.3946924486061292
  0.5915879751942512  0.4503235893872670  0.5822027980441717
  0.4084121065267610  0.5496760814728958  0.4177969041323522
  0.3683572925382350  0.7901586113008889  0.6093770272422034
  0.6316430137801987  0.2098425377050077  0.3906241597337541
  0.8150244770754753  0.1098391669642353  0.6053313658140098
  0.8517401202375510  0.8901941986783228  0.3946529859000094
  0.9250533462055017  0.4503710243995442  0.5822151677489416
  0.7416725962051416  0.5496012401092614  0.4177927965392669
  0.7016773328278347  0.7902691332946290  0.6093666956912998
  0.9649018748800202  0.2098012374081080  0.3906337702893978
 
  0.00000000E+00  0.00000000E+00  0.00000000E+00
  0.00000000E+00  0.00000000E+00  0.00000000E+00
  0.00000000E+00  0.00000000E+00  0.00000000E+00
  0.00000000E+00  0.00000000E+00  0.00000000E+00
  0.00000000E+00  0.00000000E+00  0.00000000E+00
  0.00000000E+00  0.00000000E+00  0.00000000E+00
  0.00000000E+00  0.00000000E+00  0.00000000E+00
  0.00000000E+00  0.00000000E+00  0.00000000E+00
  0.00000000E+00  0.00000000E+00  0.00000000E+00
  0.00000000E+00  0.00000000E+00  0.00000000E+00
  0.00000000E+00  0.00000000E+00  0.00000000E+00
  0.00000000E+00  0.00000000E+00  0.00000000E+00
  0.00000000E+00  0.00000000E+00  0.00000000E+00
  0.00000000E+00  0.00000000E+00  0.00000000E+00
  0.00000000E+00  0.00000000E+00  0.00000000E+00
  0.00000000E+00  0.00000000E+00  0.00000000E+00
  0.00000000E+00  0.00000000E+00  0.00000000E+00
  0.00000000E+00  0.00000000E+00  0.00000000E+00
  0.00000000E+00  0.00000000E+00  0.00000000E+00
  0.00000000E+00  0.00000000E+00  0.00000000E+00
  0.00000000E+00  0.00000000E+00  0.00000000E+00
  0.00000000E+00  0.00000000E+00  0.00000000E+00
  0.00000000E+00  0.00000000E+00  0.00000000E+00
  0.00000000E+00  0.00000000E+00  0.00000000E+00
  0.00000000E+00  0.00000000E+00  0.00000000E+00
  0.00000000E+00  0.00000000E+00  0.00000000E+00
  0.00000000E+00  0.00000000E+00  0.00000000E+00
