CONTCAR\(2)                             
   1.00000000000000     
    13.1094999313000002    0.0000000000000000    0.0000000000000000
    -6.5547499657000001   11.3531599714000002    0.0000000000000000
     0.0000000000000000    0.0000000000000000   20.2374000549000002
   Na   Hf   N    O 
    32    16    32     1
Direct
  0.1662296184206952  0.0834896714700026  0.3736014218741730
  0.0848902072674349  0.1683071181282002  0.6268903712386907
  0.4172266349803103  0.0834526401050947  0.3736065323952906
  0.3369128867609562  0.1738699398173061  0.6275481483409986
  0.6671465822996649  0.0835540922072500  0.3734070076004652
  0.5834085620604594  0.1682698807965954  0.6268605280272701
  0.9164253107926860  0.0835751345438638  0.3734037338543840
  0.8333413842417725  0.1666561707710000  0.6270315612973332
  0.1654037357196496  0.3327140299297953  0.3731098219295507
  0.0848872773734747  0.4165421071237784  0.6268832681983368
  0.4162455473068873  0.3325157707378913  0.3728543146355638
  0.3477729229332435  0.4238675922190839  0.6336947455179228
  0.6673157299725088  0.3326879324480366  0.3730921757362212
  0.5763581057701854  0.4237581785205775  0.6336012883267120
  0.9164464254767519  0.3328543080800367  0.3734065188596937
  0.8317376171260491  0.4165883108944213  0.6268676453008585
  0.1662452886106389  0.5827530490059158  0.3736107764867215
  0.0833459301577479  0.6667335690449833  0.6267852251259076
  0.4162371238707373  0.5837403201582486  0.3728547333685914
  0.3369306808046545  0.6630788574796415  0.6275404889175389
  0.6674780505634721  0.5837427995819756  0.3728418024622703
  0.5763376636776668  0.6525241935069303  0.6336213088870910
  0.9165519296628050  0.5827714155791310  0.3735998761709031
  0.8261063822047714  0.6630757928737135  0.6275645373526165
  0.1666600468663458  0.8333262176558159  0.3740353140969905
  0.0833395789484883  0.9166443289903026  0.6268040828436281
  0.4172401256841440  0.8337547298630313  0.3736080191585246
  0.3332565779258077  0.9166395546315256  0.6267763778847150
  0.6672842245749943  0.8346068393679494  0.3730923014232261
  0.5834540717668100  0.9151333150635222  0.6268661799502900
  0.9165243414468339  0.8337757811692854  0.3735888678169734
  0.8317253296378103  0.9151374250299029  0.6268812507372187
  0.9999735051310132  0.0000321690341470  0.5004648335247051
  0.2502990207747520  0.0006037022177961  0.5004990717658607
  0.5000538967710373  0.0000244650661092  0.5004646829747721
  0.7497642193495043  0.9995193618078556  0.5004573620288646
  0.0004885268486665  0.2502409760744760  0.5004652633665471
  0.2510633679385783  0.2513410881459355  0.5004097519293608
  0.5002770941945806  0.2513316282344514  0.5003956431190464
  0.7497629581014627  0.2502382228792306  0.5004574598594740
  0.9999792494357196  0.4999441649967957  0.5004714611645178
  0.2510692937050371  0.4997229407074192  0.5004207811723620
  0.5000130621508759  0.5000065762339794  0.4991974588085870
  0.7486812356439226  0.4997293895213046  0.5003876741107713
  0.9993980728880362  0.7497014988489881  0.5005031156156791
  0.2502984567774376  0.7496994901789071  0.5005057298296463
  0.5002789361004049  0.7489432736164646  0.5004046666560573
  0.7486780775388120  0.7489493963199864  0.5003855033554138
  0.1673694003938659  0.0840270557201031  0.5578093223821249
  0.0823788237462412  0.1661609718166819  0.4432339249628556
  0.4166681614190069  0.0840130810390910  0.5577998272874732
  0.3327115780244407  0.1654646097097269  0.4425101214435044
  0.6664894331428594  0.0832346324481258  0.5579839943523077
  0.5837804500501157  0.1661682304107980  0.4432220858610665
  0.9167658938197567  0.0832423863094020  0.5579890565160492
  0.8333470078898492  0.1666731177143135  0.4437672721825235
  0.1681608222619526  0.3340932764414511  0.5573379374881559
  0.0823805269805512  0.4162009682547012  0.4432374830306099
  0.4168506550542715  0.3336531107228087  0.5530615106293389
  0.3318874468122902  0.4159302591110765  0.4411980497070547
  0.6659665756541504  0.3340424692659759  0.5573086898264054
  0.5840386614472257  0.4159625707220199  0.4411805272518459
  0.9167740100815056  0.3335133319124788  0.5579889572191974
  0.8338345875434089  0.4162196841214790  0.4432196241338192
  0.1673598963953130  0.5833553889816790  0.5578136001773215
  0.0832268420821228  0.6664559564489666  0.4437600090165338
  0.4168477394494396  0.5831835260480767  0.5530692439403389
  0.3327488597925450  0.6672522098084648  0.4425186916007832
  0.6663730702732752  0.5831841452263313  0.5530362562380721
  0.5840695138240777  0.6681160771110086  0.4411825136238622
  0.9159844888473175  0.5833312333472455  0.5578019530716860
  0.8345395696536718  0.6672902620652459  0.4424963847090083
  0.1666579050559795  0.8333343285901682  0.5575630471785915
  0.0832297389046027  0.9167737789987422  0.4437531559323392
  0.4166492551602300  0.8326436588842281  0.5578042581024333
  0.3335381175508786  0.9167684735295200  0.4437568520334810
  0.6659323657125542  0.8318696195166539  0.5573197281303008
  0.5837994958296927  0.9176289148547412  0.4432276046461971
  0.9159649375545345  0.8326277361767237  0.5578040311292831
  0.8338545543103254  0.9176365761487897  0.4432187995116763
  0.5003653120256980  0.5001194218645730  0.7022055295854255
 
  0.00000000E+00  0.00000000E+00  0.00000000E+00
  0.00000000E+00  0.00000000E+00  0.00000000E+00
  0.00000000E+00  0.00000000E+00  0.00000000E+00
  0.00000000E+00  0.00000000E+00  0.00000000E+00
  0.00000000E+00  0.00000000E+00  0.00000000E+00
  0.00000000E+00  0.00000000E+00  0.00000000E+00
  0.00000000E+00  0.00000000E+00  0.00000000E+00
  0.00000000E+00  0.00000000E+00  0.00000000E+00
  0.00000000E+00  0.00000000E+00  0.00000000E+00
  0.00000000E+00  0.00000000E+00  0.00000000E+00
  0.00000000E+00  0.00000000E+00  0.00000000E+00
  0.00000000E+00  0.00000000E+00  0.00000000E+00
  0.00000000E+00  0.00000000E+00  0.00000000E+00
  0.00000000E+00  0.00000000E+00  0.00000000E+00
  0.00000000E+00  0.00000000E+00  0.00000000E+00
  0.00000000E+00  0.00000000E+00  0.00000000E+00
  0.00000000E+00  0.00000000E+00  0.00000000E+00
  0.00000000E+00  0.00000000E+00  0.00000000E+00
  0.00000000E+00  0.00000000E+00  0.00000000E+00
  0.00000000E+00  0.00000000E+00  0.00000000E+00
  0.00000000E+00  0.00000000E+00  0.00000000E+00
  0.00000000E+00  0.00000000E+00  0.00000000E+00
  0.00000000E+00  0.00000000E+00  0.00000000E+00
  0.00000000E+00  0.00000000E+00  0.00000000E+00
  0.00000000E+00  0.00000000E+00  0.00000000E+00
  0.00000000E+00  0.00000000E+00  0.00000000E+00
  0.00000000E+00  0.00000000E+00  0.00000000E+00
  0.00000000E+00  0.00000000E+00  0.00000000E+00
  0.00000000E+00  0.00000000E+00  0.00000000E+00
  0.00000000E+00  0.00000000E+00  0.00000000E+00
  0.00000000E+00  0.00000000E+00  0.00000000E+00
  0.00000000E+00  0.00000000E+00  0.00000000E+00
  0.00000000E+00  0.00000000E+00  0.00000000E+00
  0.00000000E+00  0.00000000E+00  0.00000000E+00
  0.00000000E+00  0.00000000E+00  0.00000000E+00
  0.00000000E+00  0.00000000E+00  0.00000000E+00
  0.00000000E+00  0.00000000E+00  0.00000000E+00
  0.00000000E+00  0.00000000E+00  0.00000000E+00
  0.00000000E+00  0.00000000E+00  0.00000000E+00
  0.00000000E+00  0.00000000E+00  0.00000000E+00
  0.00000000E+00  0.00000000E+00  0.00000000E+00
  0.00000000E+00  0.00000000E+00  0.00000000E+00
  0.00000000E+00  0.00000000E+00  0.00000000E+00
  0.00000000E+00  0.00000000E+00  0.00000000E+00
  0.00000000E+00  0.00000000E+00  0.00000000E+00
  0.00000000E+00  0.00000000E+00  0.00000000E+00
  0.00000000E+00  0.00000000E+00  0.00000000E+00
  0.00000000E+00  0.00000000E+00  0.00000000E+00
  0.00000000E+00  0.00000000E+00  0.00000000E+00
  0.00000000E+00  0.00000000E+00  0.00000000E+00
  0.00000000E+00  0.00000000E+00  0.00000000E+00
  0.00000000E+00  0.00000000E+00  0.00000000E+00
  0.00000000E+00  0.00000000E+00  0.00000000E+00
  0.00000000E+00  0.00000000E+00  0.00000000E+00
  0.00000000E+00  0.00000000E+00  0.00000000E+00
  0.00000000E+00  0.00000000E+00  0.00000000E+00
  0.00000000E+00  0.00000000E+00  0.00000000E+00
  0.00000000E+00  0.00000000E+00  0.00000000E+00
  0.00000000E+00  0.00000000E+00  0.00000000E+00
  0.00000000E+00  0.00000000E+00  0.00000000E+00
  0.00000000E+00  0.00000000E+00  0.00000000E+00
  0.00000000E+00  0.00000000E+00  0.00000000E+00
  0.00000000E+00  0.00000000E+00  0.00000000E+00
  0.00000000E+00  0.00000000E+00  0.00000000E+00
  0.00000000E+00  0.00000000E+00  0.00000000E+00
  0.00000000E+00  0.00000000E+00  0.00000000E+00
  0.00000000E+00  0.00000000E+00  0.00000000E+00
  0.00000000E+00  0.00000000E+00  0.00000000E+00
  0.00000000E+00  0.00000000E+00  0.00000000E+00
  0.00000000E+00  0.00000000E+00  0.00000000E+00
  0.00000000E+00  0.00000000E+00  0.00000000E+00
  0.00000000E+00  0.00000000E+00  0.00000000E+00
  0.00000000E+00  0.00000000E+00  0.00000000E+00
  0.00000000E+00  0.00000000E+00  0.00000000E+00
  0.00000000E+00  0.00000000E+00  0.00000000E+00
  0.00000000E+00  0.00000000E+00  0.00000000E+00
  0.00000000E+00  0.00000000E+00  0.00000000E+00
  0.00000000E+00  0.00000000E+00  0.00000000E+00
  0.00000000E+00  0.00000000E+00  0.00000000E+00
  0.00000000E+00  0.00000000E+00  0.00000000E+00
  0.00000000E+00  0.00000000E+00  0.00000000E+00
