CONTCAR                                 
   1.00000000000000     
    10.9294004440000005    0.0000000000000000    0.0000000000000000
    -5.4647012217000004    9.4654836332999999    0.0000000000000000
     0.0000000000000000    0.0000000000000000   27.0860996245999992
   Mn   Ga   S    O    H 
    18    18    45     1     1
Selective dynamics
Direct
  0.1111774532919512  0.2223023538306563  0.4455139668000143   F   F   F
  0.2222143757913813  0.1110875538715206  0.5544523416547236   F   F   F
  0.4444830959318082  0.2222473864241579  0.4455094947812626   F   F   F
  0.5555729227726118  0.1109407069853248  0.5545904480695256   F   F   F
  0.7778989099285241  0.2224649065860334  0.4456104316290990   F   F   F
  0.8887138118285947  0.1110020337524702  0.5545783579134849   F   F   F
  0.1109548710999206  0.5555486793184130  0.4456007549902026   F   F   F
  0.2222252114776992  0.4445039076097075  0.5545663952216415   F   F   F
  0.4443997658668764  0.5555038429213042  0.4455257732734523   F   F   F
  0.5556631541443906  0.4445172530271790  0.5545753106204145   F   F   F
  0.7778770114580524  0.5555259220866517  0.4455984323188602   F   F   F
  0.8888555010797532  0.4443733786529691  0.5548495963983555   F   F   F
  0.1111077457323617  0.8889297788916863  0.4455130190197281   F   F   F
  0.2221690858685506  0.7775966221522737  0.5545758928693587   F   F   F
  0.4443912822428828  0.8890357464761038  0.4455385790788782   F   F   F
  0.5554881758926626  0.7776747558955819  0.5545408953723125   F   F   F
  0.7779649902294352  0.8890350474334525  0.4455336058298158   F   F   F
  0.8887870808975578  0.7776178750155225  0.5545583408182466   F   F   F
  0.1107063486049498  0.2224825407628117  0.6846091474812752   F   F   F
  0.2223596821254787  0.1113781990805620  0.3152513192218152   F   F   F
  0.4451377053324919  0.2224296703491007  0.6846148931762812   F   F   F
  0.5556809989260998  0.1114045923155800  0.3153430912137836   F   F   F
  0.7773847448073496  0.2213874865938834  0.6850407007753816   F   F   F
  0.8890561850602907  0.1114034709126841  0.3153433485871844   F   F   F
  0.1116934600942372  0.5556978218083941  0.6850498280981441   F   F   F
  0.2223236652857352  0.4446658011125848  0.3153483483813986   F   F   F
  0.4460873733661757  0.5587908816060221  0.6847636609325036   F   F   F
  0.5556912227877291  0.4446705513585343  0.3153471150964862   F   F   F
  0.7773485593408154  0.5556803803216965  0.6850480801161041   F   F   F
  0.8890174256411001  0.4446981908383236  0.3153896061195525   F   F   F
  0.1106349732459364  0.8878650179994665  0.6846150752605951   F   F   F
  0.2223179655138949  0.7780413210233448  0.3153440013576017   F   F   F
  0.4461693264582536  0.8869552519376924  0.6847743104414690   F   F   F
  0.5556866542814802  0.7780345249345757  0.3153865199701542   F   F   F
  0.7742232775381339  0.8869759882259984  0.6847203377986446   F   F   F
  0.8890632879628200  0.7780455298235012  0.3153410803817351   F   F   F
  0.0003046661498871  0.0003070741422704  0.4995814280687583   F   F   F
  0.1111176026579415  0.2220475379840039  0.6024295057583942   F   F   F
  0.2222513414404972  0.1111640995317487  0.3970578823562434   F   F   F
  0.1112258855793371  0.2225459260410574  0.2767561964924283   F   F   F
  0.2221131134440810  0.1108726132449007  0.7225339806610052   F   F   F
  0.3331227327857604  0.0001100132976219  0.4996030109276646   F   F   F
  0.4442729033538129  0.2220351284266826  0.6024391956429440   F   F   F
  0.5556539553746589  0.1112563402299003  0.3971767753421815   F   F   F
  0.4446570796342897  0.2225475729016608  0.2767545260785411   F   F   F
  0.5550869094581756  0.1104989619703218  0.7228008795776688   F   F   F
  0.6667978189486234  0.0003378769668316  0.4996433249229071   F   F   F
  0.7776888032646099  0.2220341803119368  0.6028072907512438   F   F   F
  0.8889351527787213  0.1112649363206657  0.3971762675985531   F   F   F
  0.7779436790917629  0.2225537347015205  0.2768195346603051   F   F   F
  0.8887948275589537  0.1104947933488916  0.7227866106192948   F   F   F
  0.0000066950452577  0.3334434382959941  0.4999622992976924   F   F   F
  0.1111439956531015  0.5555126714201180  0.6028179049536604   F   F   F
  0.2221679208963536  0.4444910767106265  0.3971813926616221   F   F   F
  0.1112094344781838  0.5558154547068810  0.2768249779228569   F   F   F
  0.2225629124177217  0.4442792952797561  0.7228244876536039   F   F   F
  0.3333925094952406  0.3331033478432985  0.4995874445090465   F   F   F
  0.4440854090464015  0.5548276325823309  0.6023033925211863   F   F   F
  0.5556389271652620  0.4444925542705533  0.3971766041823912   F   F   F
  0.4445939449922420  0.5558526101755135  0.2768313361538119   F   F   F
  0.5550722610742724  0.4442620065224148  0.7228247393654641   F   F   F
  0.6667882078679526  0.3333783100223755  0.4999626516024378   F   F   F
  0.7776973293679319  0.5555220545682147  0.6028164116701973   F   F   F
  0.8889146479204015  0.4445106667971999  0.3972392420050497   F   F   F
  0.7779477989764629  0.5558185603301169  0.2768215789508091   F   F   F
  0.8887916366825976  0.4442311229491978  0.7229675174739754   F   F   F
  0.9999115583354907  0.6665695399434739  0.4999607581922660   F   F   F
  0.1111194120749417  0.8889101627788847  0.6024464277025814   F   F   F
  0.2221812472719193  0.7777820292075930  0.3971761627782016   F   F   F
  0.1112275406189980  0.8891159923964338  0.2767546945731993   F   F   F
  0.2225836686462728  0.7779578332662211  0.7228213247692281   F   F   F
  0.3329903812727295  0.6665455084500920  0.4996494270237548   F   F   F
  0.4439770809923118  0.8889647742751094  0.6023428783251035   F   F   F
  0.5555919958369770  0.7778606254364746  0.3972232717997812   F   F   F
  0.4445928041354890  0.8891679955489948  0.2768300113088173   F   F   F
  0.5555282493449596  0.7775983758407676  0.7234480290481997   F   F   F
  0.6668519749010358  0.6665211752170777  0.4996386587246278   F   F   F
  0.7783873328122368  0.8890315227014369  0.6022894426442633   F   F   F
  0.8889304539811604  0.7777819352925093  0.3971745380376461   F   F   F
  0.7779086556391661  0.8891692194450798  0.2768282130682707   F   F   F
  0.8887509553533022  0.7779647943621839  0.7228092610261783   F   F   F
  0.5528356942712591  0.7743135422098248  0.8216257454039777   T   T   T
  0.5505942660032730  0.7737087447974957  0.8572075925327544   T   T   T
 
  0.00000000E+00  0.00000000E+00  0.00000000E+00
  0.00000000E+00  0.00000000E+00  0.00000000E+00
  0.00000000E+00  0.00000000E+00  0.00000000E+00
  0.00000000E+00  0.00000000E+00  0.00000000E+00
  0.00000000E+00  0.00000000E+00  0.00000000E+00
  0.00000000E+00  0.00000000E+00  0.00000000E+00
  0.00000000E+00  0.00000000E+00  0.00000000E+00
  0.00000000E+00  0.00000000E+00  0.00000000E+00
  0.00000000E+00  0.00000000E+00  0.00000000E+00
  0.00000000E+00  0.00000000E+00  0.00000000E+00
  0.00000000E+00  0.00000000E+00  0.00000000E+00
  0.00000000E+00  0.00000000E+00  0.00000000E+00
  0.00000000E+00  0.00000000E+00  0.00000000E+00
  0.00000000E+00  0.00000000E+00  0.00000000E+00
  0.00000000E+00  0.00000000E+00  0.00000000E+00
  0.00000000E+00  0.00000000E+00  0.00000000E+00
  0.00000000E+00  0.00000000E+00  0.00000000E+00
  0.00000000E+00  0.00000000E+00  0.00000000E+00
  0.00000000E+00  0.00000000E+00  0.00000000E+00
  0.00000000E+00  0.00000000E+00  0.00000000E+00
  0.00000000E+00  0.00000000E+00  0.00000000E+00
  0.00000000E+00  0.00000000E+00  0.00000000E+00
  0.00000000E+00  0.00000000E+00  0.00000000E+00
  0.00000000E+00  0.00000000E+00  0.00000000E+00
  0.00000000E+00  0.00000000E+00  0.00000000E+00
  0.00000000E+00  0.00000000E+00  0.00000000E+00
  0.00000000E+00  0.00000000E+00  0.00000000E+00
  0.00000000E+00  0.00000000E+00  0.00000000E+00
  0.00000000E+00  0.00000000E+00  0.00000000E+00
  0.00000000E+00  0.00000000E+00  0.00000000E+00
  0.00000000E+00  0.00000000E+00  0.00000000E+00
  0.00000000E+00  0.00000000E+00  0.00000000E+00
  0.00000000E+00  0.00000000E+00  0.00000000E+00
  0.00000000E+00  0.00000000E+00  0.00000000E+00
  0.00000000E+00  0.00000000E+00  0.00000000E+00
  0.00000000E+00  0.00000000E+00  0.00000000E+00
  0.00000000E+00  0.00000000E+00  0.00000000E+00
  0.00000000E+00  0.00000000E+00  0.00000000E+00
  0.00000000E+00  0.00000000E+00  0.00000000E+00
  0.00000000E+00  0.00000000E+00  0.00000000E+00
  0.00000000E+00  0.00000000E+00  0.00000000E+00
  0.00000000E+00  0.00000000E+00  0.00000000E+00
  0.00000000E+00  0.00000000E+00  0.00000000E+00
  0.00000000E+00  0.00000000E+00  0.00000000E+00
  0.00000000E+00  0.00000000E+00  0.00000000E+00
  0.00000000E+00  0.00000000E+00  0.00000000E+00
  0.00000000E+00  0.00000000E+00  0.00000000E+00
  0.00000000E+00  0.00000000E+00  0.00000000E+00
  0.00000000E+00  0.00000000E+00  0.00000000E+00
  0.00000000E+00  0.00000000E+00  0.00000000E+00
  0.00000000E+00  0.00000000E+00  0.00000000E+00
  0.00000000E+00  0.00000000E+00  0.00000000E+00
  0.00000000E+00  0.00000000E+00  0.00000000E+00
  0.00000000E+00  0.00000000E+00  0.00000000E+00
  0.00000000E+00  0.00000000E+00  0.00000000E+00
  0.00000000E+00  0.00000000E+00  0.00000000E+00
  0.00000000E+00  0.00000000E+00  0.00000000E+00
  0.00000000E+00  0.00000000E+00  0.00000000E+00
  0.00000000E+00  0.00000000E+00  0.00000000E+00
  0.00000000E+00  0.00000000E+00  0.00000000E+00
  0.00000000E+00  0.00000000E+00  0.00000000E+00
  0.00000000E+00  0.00000000E+00  0.00000000E+00
  0.00000000E+00  0.00000000E+00  0.00000000E+00
  0.00000000E+00  0.00000000E+00  0.00000000E+00
  0.00000000E+00  0.00000000E+00  0.00000000E+00
  0.00000000E+00  0.00000000E+00  0.00000000E+00
  0.00000000E+00  0.00000000E+00  0.00000000E+00
  0.00000000E+00  0.00000000E+00  0.00000000E+00
  0.00000000E+00  0.00000000E+00  0.00000000E+00
  0.00000000E+00  0.00000000E+00  0.00000000E+00
  0.00000000E+00  0.00000000E+00  0.00000000E+00
  0.00000000E+00  0.00000000E+00  0.00000000E+00
  0.00000000E+00  0.00000000E+00  0.00000000E+00
  0.00000000E+00  0.00000000E+00  0.00000000E+00
  0.00000000E+00  0.00000000E+00  0.00000000E+00
  0.00000000E+00  0.00000000E+00  0.00000000E+00
  0.00000000E+00  0.00000000E+00  0.00000000E+00
  0.00000000E+00  0.00000000E+00  0.00000000E+00
  0.00000000E+00  0.00000000E+00  0.00000000E+00
  0.00000000E+00  0.00000000E+00  0.00000000E+00
  0.00000000E+00  0.00000000E+00  0.00000000E+00
  0.00000000E+00  0.00000000E+00  0.00000000E+00
  0.00000000E+00  0.00000000E+00  0.00000000E+00
