CONTCAR\(2)                             
   1.00000000000000     
    13.4193000792999992    0.0000000000000000    0.0000000000000000
    -6.7096904058000000   11.6164658410000001    0.0000000000000000
     0.0000000000000000    0.0000000000000000   30.7367992401000016
   Bi   Te   Pb   O    H 
    18    45    18     2     1
Selective dynamics
Direct
  0.1070672565221642  0.2209540725077304  0.4348473927743228   F   F   F
  0.2178096221167323  0.1087388570955383  0.5647924729200824   F   F   F
  0.4403745091551983  0.2204811329142089  0.4344976790502741   F   F   F
  0.5497704188745374  0.1078158453086004  0.5642883491264286   F   F   F
  0.7740118042160304  0.2210747002502416  0.4345875921472100   F   F   F
  0.8846604272016876  0.1080058686035343  0.5646522244577525   F   F   F
  0.1071044474765017  0.5541379632691772  0.4345264283213552   F   F   F
  0.2182782288255893  0.4418938750544541  0.5641761076683167   F   F   F
  0.4406024357568228  0.5535296083626093  0.4347359883904147   F   F   F
  0.5498466233529342  0.4419094599324751  0.5645873819794929   F   F   F
  0.7742170305662128  0.5536009095340120  0.4345258236963474   F   F   F
  0.8821198536790789  0.4412194604636781  0.5635059046537094   F   F   F
  0.1070378544434263  0.8873034074132491  0.4346676037273127   F   F   F
  0.2182709589719920  0.7764294233469826  0.5641716862889368   F   F   F
  0.4406464485827897  0.8877240848050931  0.4347163165555870   F   F   F
  0.5512056998214234  0.7752861509271511  0.5639932949406585   F   F   F
  0.7744567517640064  0.8876807401520708  0.4347594971258530   F   F   F
  0.8845809647750897  0.7766389848505355  0.5646494691484421   F   F   F
  0.2175229084052503  0.1114260933729412  0.7587678766498982   F   F   F
  0.2179868722245857  0.1094396353846747  0.3800462460593508   F   F   F
  0.1073228262258539  0.2205670417302272  0.6197270163981869   F   F   F
  0.9962352966075230  0.9987608507782753  0.5000373502638240   F   F   F
  0.1092260208340008  0.2215992638581454  0.2408438692492538   F   F   F
  0.5522502627733061  0.1132443107932204  0.7595109568776692   F   F   F
  0.5517786030915772  0.1095304795062475  0.3798626439620207   F   F   F
  0.4400204042821869  0.2201147451721113  0.6197425531370868   F   F   F
  0.3290274227715457  0.9980494450505617  0.4999216753047833   F   F   F
  0.4417372973817919  0.2206452249979449  0.2406072903074588   F   F   F
  0.8871578303749459  0.1127317597725792  0.7600657883689053   F   F   F
  0.8853650809145037  0.1098146036979983  0.3799796958331356   F   F   F
  0.7722976065938170  0.2186012756207845  0.6195988407744366   F   F   F
  0.6629983943291293  0.9988059853842870  0.4999093553274463   F   F   F
  0.7748558926778557  0.2204291465312949  0.2411021069553669   F   F   F
  0.2173941525997805  0.4442580992763681  0.7589222527253412   F   F   F
  0.2180794916374253  0.4427526524222145  0.3799906786647185   F   F   F
  0.1051540169637661  0.5529698036664570  0.6185827653983580   F   F   F
  0.9950814428539871  0.3319265300132130  0.5002410896347911   F   F   F
  0.1083509210167719  0.5541824066717140  0.2411933353591778   F   F   F
  0.5532035653036829  0.4417553305811168  0.7600253331855029   F   F   F
  0.5518130777528398  0.4425798286934679  0.3798806491968136   F   F   F
  0.4400647043253798  0.5539799990506253  0.6195194847482526   F   F   F
  0.3291340719336020  0.3315304566033603  0.5000223409020350   F   F   F
  0.4420587092122545  0.5546373002378360  0.2411137471075975   F   F   F
  0.8853804792924294  0.4431892341250858  0.7583572713849520   F   F   F
  0.8849974796521209  0.4426516896458992  0.3795285071729069   F   F   F
  0.7721335347258886  0.5547912924511564  0.6198772993109927   F   F   F
  0.6620402151320945  0.3316176874939387  0.5000072863312255   F   F   F
  0.7747817441656153  0.5541489803309005  0.2411796151016787   F   F   F
  0.2171144129439710  0.7765232211789268  0.7594643744714489   F   F   F
  0.2182111543822529  0.7761184476773835  0.3799185917218324   F   F   F
  0.1072211663141402  0.8873345637971113  0.6197909518840916   F   F   F
  0.9950966009740512  0.6641383080569483  0.5002437764773333   F   F   F
  0.1094768776457684  0.8878346877821883  0.2407976317530611   F   F   F
  0.5451100505047179  0.7752621008155813  0.7518012962088321   F   F   F
  0.5517154374308859  0.7760785026378159  0.3801102367836009   F   F   F
  0.4403405665256273  0.8870213290767950  0.6193444801788317   F   F   F
  0.3291288795023632  0.6648725899322159  0.4998890926134862   F   F   F
  0.4423056993611141  0.8872700981229755  0.2411848739873577   F   F   F
  0.8877985484161144  0.7768013266178357  0.7596779683040822   F   F   F
  0.8851852968654370  0.7759161549087210  0.3799625395157022   F   F   F
  0.7734292332496935  0.8870727723219716  0.6195569575899427   F   F   F
  0.6629830766184455  0.6647690583199548  0.4999352254405238   F   F   F
  0.7762770305082185  0.8879672961115403  0.2412151096443296   F   F   F
  0.9996046476480984  0.9998146768350225  0.2933723753643065   F   F   F
  0.9950594783444302  0.9993137036292268  0.7059279699747449   F   F   F
  0.3316900992659484  0.9990408920709868  0.2934379116436432   F   F   F
  0.3287246783346021  0.9999080443292883  0.7064743000565841   F   F   F
  0.6647694455509736  0.9983815467957129  0.2936998065768677   F   F   F
  0.6707568512113014  0.0146070687252973  0.7066359577858137   F   F   F
  0.9973097469710979  0.3317741852415139  0.2934605661146676   F   F   F
  0.9958347818822730  0.3321313040567802  0.7055981924033858   F   F   F
  0.3315970162409769  0.3324024628308493  0.2933610335524079   F   F   F
  0.3314314132996756  0.3343323618056573  0.7062556945434011   F   F   F
  0.6635764235483421  0.3315903725839888  0.2933653672624033   F   F   F
  0.6642074068499326  0.3333123542525911  0.7054111435451844   F   F   F
  0.9973493238329567  0.6656784968031815  0.2934667102241804   F   F   F
  0.9959707733199750  0.6644956186680986  0.7056034507637676   F   F   F
  0.3306012269325649  0.6652259581217734  0.2938202434789758   F   F   F
  0.3121691810497040  0.6592745685206296  0.7032841876133844   F   F   F
  0.6642481750516183  0.6658660822760893  0.2937602295478214   F   F   F
  0.6693091263710613  0.6592218038010387  0.7078509145894785   F   F   F
  0.5067376470289844  0.7694015307050890  0.8178972254700909   T   T   T
  0.4498799090417478  0.6528358072230844  0.8339425060071406   T   T   T
  0.3680665468232363  0.6275440536600739  0.8282370668624067   T   T   T
 
  0.00000000E+00  0.00000000E+00  0.00000000E+00
  0.00000000E+00  0.00000000E+00  0.00000000E+00
  0.00000000E+00  0.00000000E+00  0.00000000E+00
  0.00000000E+00  0.00000000E+00  0.00000000E+00
  0.00000000E+00  0.00000000E+00  0.00000000E+00
  0.00000000E+00  0.00000000E+00  0.00000000E+00
  0.00000000E+00  0.00000000E+00  0.00000000E+00
  0.00000000E+00  0.00000000E+00  0.00000000E+00
  0.00000000E+00  0.00000000E+00  0.00000000E+00
  0.00000000E+00  0.00000000E+00  0.00000000E+00
  0.00000000E+00  0.00000000E+00  0.00000000E+00
  0.00000000E+00  0.00000000E+00  0.00000000E+00
  0.00000000E+00  0.00000000E+00  0.00000000E+00
  0.00000000E+00  0.00000000E+00  0.00000000E+00
  0.00000000E+00  0.00000000E+00  0.00000000E+00
  0.00000000E+00  0.00000000E+00  0.00000000E+00
  0.00000000E+00  0.00000000E+00  0.00000000E+00
  0.00000000E+00  0.00000000E+00  0.00000000E+00
  0.00000000E+00  0.00000000E+00  0.00000000E+00
  0.00000000E+00  0.00000000E+00  0.00000000E+00
  0.00000000E+00  0.00000000E+00  0.00000000E+00
  0.00000000E+00  0.00000000E+00  0.00000000E+00
  0.00000000E+00  0.00000000E+00  0.00000000E+00
  0.00000000E+00  0.00000000E+00  0.00000000E+00
  0.00000000E+00  0.00000000E+00  0.00000000E+00
  0.00000000E+00  0.00000000E+00  0.00000000E+00
  0.00000000E+00  0.00000000E+00  0.00000000E+00
  0.00000000E+00  0.00000000E+00  0.00000000E+00
  0.00000000E+00  0.00000000E+00  0.00000000E+00
  0.00000000E+00  0.00000000E+00  0.00000000E+00
  0.00000000E+00  0.00000000E+00  0.00000000E+00
  0.00000000E+00  0.00000000E+00  0.00000000E+00
  0.00000000E+00  0.00000000E+00  0.00000000E+00
  0.00000000E+00  0.00000000E+00  0.00000000E+00
  0.00000000E+00  0.00000000E+00  0.00000000E+00
  0.00000000E+00  0.00000000E+00  0.00000000E+00
  0.00000000E+00  0.00000000E+00  0.00000000E+00
  0.00000000E+00  0.00000000E+00  0.00000000E+00
  0.00000000E+00  0.00000000E+00  0.00000000E+00
  0.00000000E+00  0.00000000E+00  0.00000000E+00
  0.00000000E+00  0.00000000E+00  0.00000000E+00
  0.00000000E+00  0.00000000E+00  0.00000000E+00
  0.00000000E+00  0.00000000E+00  0.00000000E+00
  0.00000000E+00  0.00000000E+00  0.00000000E+00
  0.00000000E+00  0.00000000E+00  0.00000000E+00
  0.00000000E+00  0.00000000E+00  0.00000000E+00
  0.00000000E+00  0.00000000E+00  0.00000000E+00
  0.00000000E+00  0.00000000E+00  0.00000000E+00
  0.00000000E+00  0.00000000E+00  0.00000000E+00
  0.00000000E+00  0.00000000E+00  0.00000000E+00
  0.00000000E+00  0.00000000E+00  0.00000000E+00
  0.00000000E+00  0.00000000E+00  0.00000000E+00
  0.00000000E+00  0.00000000E+00  0.00000000E+00
  0.00000000E+00  0.00000000E+00  0.00000000E+00
  0.00000000E+00  0.00000000E+00  0.00000000E+00
  0.00000000E+00  0.00000000E+00  0.00000000E+00
  0.00000000E+00  0.00000000E+00  0.00000000E+00
  0.00000000E+00  0.00000000E+00  0.00000000E+00
  0.00000000E+00  0.00000000E+00  0.00000000E+00
  0.00000000E+00  0.00000000E+00  0.00000000E+00
  0.00000000E+00  0.00000000E+00  0.00000000E+00
  0.00000000E+00  0.00000000E+00  0.00000000E+00
  0.00000000E+00  0.00000000E+00  0.00000000E+00
  0.00000000E+00  0.00000000E+00  0.00000000E+00
  0.00000000E+00  0.00000000E+00  0.00000000E+00
  0.00000000E+00  0.00000000E+00  0.00000000E+00
  0.00000000E+00  0.00000000E+00  0.00000000E+00
  0.00000000E+00  0.00000000E+00  0.00000000E+00
  0.00000000E+00  0.00000000E+00  0.00000000E+00
  0.00000000E+00  0.00000000E+00  0.00000000E+00
  0.00000000E+00  0.00000000E+00  0.00000000E+00
  0.00000000E+00  0.00000000E+00  0.00000000E+00
  0.00000000E+00  0.00000000E+00  0.00000000E+00
  0.00000000E+00  0.00000000E+00  0.00000000E+00
  0.00000000E+00  0.00000000E+00  0.00000000E+00
  0.00000000E+00  0.00000000E+00  0.00000000E+00
  0.00000000E+00  0.00000000E+00  0.00000000E+00
  0.00000000E+00  0.00000000E+00  0.00000000E+00
  0.00000000E+00  0.00000000E+00  0.00000000E+00
  0.00000000E+00  0.00000000E+00  0.00000000E+00
  0.00000000E+00  0.00000000E+00  0.00000000E+00
  0.00000000E+00  0.00000000E+00  0.00000000E+00
  0.00000000E+00  0.00000000E+00  0.00000000E+00
  0.00000000E+00  0.00000000E+00  0.00000000E+00
