CONTCAR\(4)                             
   1.00000000000000     
    11.2371997832999995    0.0000000000000000    0.0000000000000000
     0.0000000000000000   14.7250003814999992    0.0000000000000000
     0.0000000000000000    0.0000000000000000   22.6672992706000009
   Li   Cu   F    O 
    32    32    80     1
Direct
  0.1885117910196247  0.0697171383020729  0.5175216982458845
  0.1929597699150417  0.4219370972565736  0.6032148125180434
  0.0625765140657555  0.0756542217958825  0.3909106657520209
  0.0618809247617455  0.4333304960949765  0.4788322181136143
  0.4384650935929141  0.0761673036202901  0.5256184243319704
  0.4377206386846416  0.3279114827156780  0.6730683342630268
  0.3130283544123122  0.0781017729725375  0.3924642539409828
  0.3137002750864917  0.4318254720196568  0.4817538072287850
  0.6883461168645203  0.0680848746541082  0.5175939230130708
  0.6815280103094093  0.4220792883372953  0.6028838725974315
  0.5621402671598510  0.0777849732738424  0.3924945707928181
  0.5605341450791547  0.4316337916388086  0.4818385717090662
  0.9378177328336971  0.0697711002552616  0.5191557955092685
  0.9376328196915706  0.4261875435173677  0.6050686442850345
  0.8121032499233252  0.0754948966136675  0.3906978740253014
  0.8124906002186475  0.4333933021763460  0.4788812742626725
  0.1858022936062627  0.5723398473272342  0.5195816143101727
  0.1951413370772154  0.9334085896600266  0.6102807396882183
  0.0620509038828496  0.5782587952545883  0.3914605451522521
  0.0631313564058167  0.9314532040262324  0.4809328358295136
  0.4370302118495087  0.5677564247454527  0.5246544460077688
  0.4378932367504464  0.9365455554704394  0.6117633692040375
  0.3121055078139743  0.5772660219211998  0.3937968360210631
  0.3146340007109203  0.9331470042103981  0.4808971564431841
  0.6885457601145754  0.5726928964099497  0.5192896231968359
  0.6804524728150981  0.9330476217244507  0.6106634048802573
  0.5627201908212566  0.5769455841360365  0.3934539687686621
  0.5610433815669260  0.9327969188829131  0.4806484704005641
  0.9371900270625004  0.5727259211653171  0.5199033291188498
  0.9370503860630667  0.9270993848328233  0.6072704565861613
  0.8126172681432813  0.5780428245078596  0.3910235812511011
  0.8125484039075953  0.9308081266930697  0.4805070082139610
  0.0631701511502743  0.2508455575282968  0.5637282073919540
  0.0675786555528093  0.0905214486834073  0.6559282104079963
  0.1874892931022920  0.4191764405456885  0.3391933058878870
  0.1838161787660512  0.2506593983876965  0.4289272063035605
  0.3021175151484052  0.2481387925175103  0.5618289482307027
  0.3207180438602873  0.1123916368325077  0.6835271461722451
  0.4367098517686199  0.4186791671352319  0.3413158332368073
  0.4385459623683364  0.2496091330553843  0.4305419722854239
  0.5769105165738304  0.2460896563379384  0.5631118577573068
  0.5534355165535848  0.1115719835170420  0.6842238439796104
  0.6867312616445368  0.4179642945481026  0.3397928779277509
  0.6905212158509278  0.2502030723669961  0.4300403250403957
  0.8114855877488442  0.2504120929391362  0.5655036355832271
  0.8084020752801357  0.0914014926172145  0.6578102074386306
  0.9376057547529297  0.4176293862093877  0.3384333833681973
  0.9359744954937462  0.2499056850730139  0.4304149690749908
  0.0666330553532829  0.7536643699124778  0.5720841013235921
  0.0641323820328442  0.5803406859242726  0.6596685292684443
  0.1877207094628128  0.9166780688206508  0.3428595070904614
  0.1878828672188779  0.7509561863456684  0.4358864412553062
  0.3148863063184044  0.7521747428091319  0.5707537928629924
  0.3163463406765694  0.5624199547117780  0.6554953183753207
  0.4374475368399571  0.9173448475321714  0.3429854854211012
  0.4375213635096395  0.7490826085805613  0.4349873911318208
  0.5608722387618008  0.7521024195932273  0.5702832125413658
  0.5572939141472892  0.5622715219205584  0.6543870637818063
  0.6873711244087849  0.9167134303165662  0.3424343662860925
  0.6870757767134505  0.7505359747053658  0.4337901508012841
  0.8061847737526980  0.7541657206593942  0.5709656709462685
  0.8102989073762727  0.5806257196572571  0.6584219855467606
  0.9376540285690614  0.9156197678190705  0.3419161788084143
  0.9378243890078590  0.7507534877494292  0.4370152335021665
  0.0612603396917957  0.1604809616435864  0.5050532736946978
  0.0595167547284927  0.4962844139816531  0.5542890343646625
  0.0625781632061659  0.3447448706198373  0.6166101498859567
  0.1929388027763208  0.1746802741793280  0.6338174530939120
  0.1989444612025787  0.0152616873049819  0.6791159599596791
  0.0620821161027732  0.5042490694405514  0.3193754305972819
  0.0630275003661984  0.3361688155197637  0.3673031450453281
  0.1859925493032553  0.1566308631370157  0.3752858268387955
  0.1865652374624626  0.0053643956576782  0.4419428046698839
  0.1869751183291978  0.3404927070700619  0.4896444393019485
  0.3007000408387127  0.1659506296340892  0.4947798209039127
  0.3026385089081987  0.4972863948864871  0.5545191544184073
  0.3115064167131392  0.3375195211347700  0.6199500832280374
  0.4384315088887672  0.1646667480017687  0.5881741072076437
  0.4378513058688103  0.0084963893182224  0.6816505867272661
  0.3126268182135226  0.5045650403798032  0.3207095327357611
  0.3113934316423450  0.3370298579238309  0.3696150492836861
  0.4378232522295373  0.1580640699316372  0.3753979513119414
  0.4379368364708549  0.0084842129950287  0.4431365358106473
  0.4369794196513067  0.3377244984558724  0.4909271975150011
  0.5775975130328497  0.1643693791248340  0.4961912815640363
  0.5715295152129527  0.4974838366626616  0.5544211720158758
  0.5637567976495749  0.3372162377592594  0.6199174550133026
  0.6840169349557803  0.1784869809827551  0.6414037472228132
  0.6764557726061865  0.0147198556211741  0.6789009276115173
  0.5618465749246019  0.5030127750199375  0.3207876586982445
  0.5619722958497544  0.3375503204647798  0.3718519669062123
  0.6887788460580920  0.1570849494496216  0.3757520073358055
  0.6891701734672945  0.0052933519424848  0.4417275488481245
  0.6875255371820931  0.3409151201073649  0.4900026773996583
  0.8144747277842692  0.1601194434262079  0.5070487845273122
  0.8148418365009835  0.4966436199457487  0.5541863628264243
  0.8122389341485869  0.3455797506909644  0.6171638921267436
  0.9379599217579542  0.1666336370768336  0.6242636350796148
  0.9376720214667797  0.0086439795153440  0.6754733565198512
  0.8122225213386205  0.5029262055442165  0.3193161793702378
  0.8119685554434670  0.3362246506558664  0.3681183488754732
  0.9371355351174134  0.1560528433235098  0.3771419860830321
  0.9377154968765105  0.0054764746710408  0.4431788709363028
  0.9372025952952775  0.3416593535698321  0.4884481558718023
  0.0622953909692133  0.6652025785421070  0.5111039023867013
  0.0630057331235944 -0.0023576167946251  0.5557835696587553
  0.0661952250441525  0.8498375219253829  0.6237190228982995
  0.1942904881443333  0.6543690743563598  0.6297415279961728
  0.1835480225721402  0.4890297984149101  0.6791356236385544
  0.0623750692842505 -0.0009637342242538  0.3193280856507033
  0.0626128865079846  0.8374335199321690  0.3750457302259265
  0.1875556358206005  0.6593507939626828  0.3808868084083245
  0.1867117579125410  0.5074082681725499  0.4427494155394301
  0.1879216160652376  0.8418571787565330  0.4944917370315173
  0.3128010750053649  0.6647600316823525  0.5091197420770732
  0.3111996805987352  0.9976490901196692  0.5540439769689721
  0.3153531970781706  0.8474118144459797  0.6228480916741185
  0.4365897699376638  0.6453374921773211  0.6235305110824541
  0.4372007808112544  0.4807074051185143  0.6873764694216903
  0.3123999939183731  0.0004209537797244  0.3206398096202993
  0.3128396177869962  0.8373376235596309  0.3745247132450586
  0.4374618831111936  0.6577042951200532  0.3798146171385565
  0.4371234288759320  0.5074260277212782  0.4452459768824605
  0.4377847680135847  0.8413789315278133  0.4926350515629341
  0.5614711009635733  0.6648268453290831  0.5085835040641771
  0.5649232827534189  0.9967355122764874  0.5541134173080779
  0.5600438678181530  0.8467787029702663  0.6227792713548759
  0.6798924961272583  0.6537220554286941  0.6269433969026683
  0.6905710880240667  0.4901304718787347  0.6784537282185279
  0.5625240322087004  0.0004634706938531  0.3205122526581581
  0.5622615308642473  0.8371420815497819  0.3739204976621444
  0.6871313275600679  0.6587310165503009  0.3788557058696685
  0.6877825452463261  0.5078517904746096  0.4426858263132314
  0.6873262292227638  0.8411493370967650  0.4927178945688334
  0.8121376648424019  0.6655318767795905  0.5100771938881666
  0.8129733928290734 -0.0037290694847718  0.5555684385125469
  0.8086818331912502  0.8489342154667043  0.6236737903412580
  0.9376942975632494  0.6637684788831317  0.6315209761446627
  0.9369939744426211  0.4982927000179977  0.6795505456973335
  0.8128601738819059 -0.0009433818901218  0.3191790989261471
  0.8124943129353925  0.8373030975325328  0.3745809629143309
  0.9373484391529996  0.6605075118643016  0.3809520963766728
  0.9373418748855316  0.5091126284639893  0.4427665377665522
  0.9378611160157478  0.8414835528515391  0.4961161303425692
  0.4367688286512246  0.1933096806354520  0.7050387819430284
 
  0.00000000E+00  0.00000000E+00  0.00000000E+00
  0.00000000E+00  0.00000000E+00  0.00000000E+00
  0.00000000E+00  0.00000000E+00  0.00000000E+00
  0.00000000E+00  0.00000000E+00  0.00000000E+00
  0.00000000E+00  0.00000000E+00  0.00000000E+00
  0.00000000E+00  0.00000000E+00  0.00000000E+00
  0.00000000E+00  0.00000000E+00  0.00000000E+00
  0.00000000E+00  0.00000000E+00  0.00000000E+00
  0.00000000E+00  0.00000000E+00  0.00000000E+00
  0.00000000E+00  0.00000000E+00  0.00000000E+00
  0.00000000E+00  0.00000000E+00  0.00000000E+00
  0.00000000E+00  0.00000000E+00  0.00000000E+00
  0.00000000E+00  0.00000000E+00  0.00000000E+00
  0.00000000E+00  0.00000000E+00  0.00000000E+00
  0.00000000E+00  0.00000000E+00  0.00000000E+00
  0.00000000E+00  0.00000000E+00  0.00000000E+00
  0.00000000E+00  0.00000000E+00  0.00000000E+00
  0.00000000E+00  0.00000000E+00  0.00000000E+00
  0.00000000E+00  0.00000000E+00  0.00000000E+00
  0.00000000E+00  0.00000000E+00  0.00000000E+00
  0.00000000E+00  0.00000000E+00  0.00000000E+00
  0.00000000E+00  0.00000000E+00  0.00000000E+00
  0.00000000E+00  0.00000000E+00  0.00000000E+00
  0.00000000E+00  0.00000000E+00  0.00000000E+00
  0.00000000E+00  0.00000000E+00  0.00000000E+00
  0.00000000E+00  0.00000000E+00  0.00000000E+00
  0.00000000E+00  0.00000000E+00  0.00000000E+00
  0.00000000E+00  0.00000000E+00  0.00000000E+00
  0.00000000E+00  0.00000000E+00  0.00000000E+00
  0.00000000E+00  0.00000000E+00  0.00000000E+00
  0.00000000E+00  0.00000000E+00  0.00000000E+00
  0.00000000E+00  0.00000000E+00  0.00000000E+00
  0.00000000E+00  0.00000000E+00  0.00000000E+00
  0.00000000E+00  0.00000000E+00  0.00000000E+00
  0.00000000E+00  0.00000000E+00  0.00000000E+00
  0.00000000E+00  0.00000000E+00  0.00000000E+00
  0.00000000E+00  0.00000000E+00  0.00000000E+00
  0.00000000E+00  0.00000000E+00  0.00000000E+00
  0.00000000E+00  0.00000000E+00  0.00000000E+00
  0.00000000E+00  0.00000000E+00  0.00000000E+00
  0.00000000E+00  0.00000000E+00  0.00000000E+00
  0.00000000E+00  0.00000000E+00  0.00000000E+00
  0.00000000E+00  0.00000000E+00  0.00000000E+00
  0.00000000E+00  0.00000000E+00  0.00000000E+00
  0.00000000E+00  0.00000000E+00  0.00000000E+00
  0.00000000E+00  0.00000000E+00  0.00000000E+00
  0.00000000E+00  0.00000000E+00  0.00000000E+00
  0.00000000E+00  0.00000000E+00  0.00000000E+00
  0.00000000E+00  0.00000000E+00  0.00000000E+00
  0.00000000E+00  0.00000000E+00  0.00000000E+00
  0.00000000E+00  0.00000000E+00  0.00000000E+00
  0.00000000E+00  0.00000000E+00  0.00000000E+00
  0.00000000E+00  0.00000000E+00  0.00000000E+00
  0.00000000E+00  0.00000000E+00  0.00000000E+00
  0.00000000E+00  0.00000000E+00  0.00000000E+00
  0.00000000E+00  0.00000000E+00  0.00000000E+00
  0.00000000E+00  0.00000000E+00  0.00000000E+00
  0.00000000E+00  0.00000000E+00  0.00000000E+00
  0.00000000E+00  0.00000000E+00  0.00000000E+00
  0.00000000E+00  0.00000000E+00  0.00000000E+00
  0.00000000E+00  0.00000000E+00  0.00000000E+00
  0.00000000E+00  0.00000000E+00  0.00000000E+00
  0.00000000E+00  0.00000000E+00  0.00000000E+00
  0.00000000E+00  0.00000000E+00  0.00000000E+00
  0.00000000E+00  0.00000000E+00  0.00000000E+00
  0.00000000E+00  0.00000000E+00  0.00000000E+00
  0.00000000E+00  0.00000000E+00  0.00000000E+00
  0.00000000E+00  0.00000000E+00  0.00000000E+00
  0.00000000E+00  0.00000000E+00  0.00000000E+00
  0.00000000E+00  0.00000000E+00  0.00000000E+00
  0.00000000E+00  0.00000000E+00  0.00000000E+00
  0.00000000E+00  0.00000000E+00  0.00000000E+00
  0.00000000E+00  0.00000000E+00  0.00000000E+00
  0.00000000E+00  0.00000000E+00  0.00000000E+00
  0.00000000E+00  0.00000000E+00  0.00000000E+00
  0.00000000E+00  0.00000000E+00  0.00000000E+00
  0.00000000E+00  0.00000000E+00  0.00000000E+00
  0.00000000E+00  0.00000000E+00  0.00000000E+00
  0.00000000E+00  0.00000000E+00  0.00000000E+00
  0.00000000E+00  0.00000000E+00  0.00000000E+00
  0.00000000E+00  0.00000000E+00  0.00000000E+00
  0.00000000E+00  0.00000000E+00  0.00000000E+00
  0.00000000E+00  0.00000000E+00  0.00000000E+00
  0.00000000E+00  0.00000000E+00  0.00000000E+00
  0.00000000E+00  0.00000000E+00  0.00000000E+00
  0.00000000E+00  0.00000000E+00  0.00000000E+00
  0.00000000E+00  0.00000000E+00  0.00000000E+00
  0.00000000E+00  0.00000000E+00  0.00000000E+00
  0.00000000E+00  0.00000000E+00  0.00000000E+00
  0.00000000E+00  0.00000000E+00  0.00000000E+00
  0.00000000E+00  0.00000000E+00  0.00000000E+00
  0.00000000E+00  0.00000000E+00  0.00000000E+00
  0.00000000E+00  0.00000000E+00  0.00000000E+00
  0.00000000E+00  0.00000000E+00  0.00000000E+00
  0.00000000E+00  0.00000000E+00  0.00000000E+00
  0.00000000E+00  0.00000000E+00  0.00000000E+00
  0.00000000E+00  0.00000000E+00  0.00000000E+00
  0.00000000E+00  0.00000000E+00  0.00000000E+00
  0.00000000E+00  0.00000000E+00  0.00000000E+00
  0.00000000E+00  0.00000000E+00  0.00000000E+00
  0.00000000E+00  0.00000000E+00  0.00000000E+00
  0.00000000E+00  0.00000000E+00  0.00000000E+00
  0.00000000E+00  0.00000000E+00  0.00000000E+00
  0.00000000E+00  0.00000000E+00  0.00000000E+00
  0.00000000E+00  0.00000000E+00  0.00000000E+00
  0.00000000E+00  0.00000000E+00  0.00000000E+00
  0.00000000E+00  0.00000000E+00  0.00000000E+00
  0.00000000E+00  0.00000000E+00  0.00000000E+00
  0.00000000E+00  0.00000000E+00  0.00000000E+00
  0.00000000E+00  0.00000000E+00  0.00000000E+00
  0.00000000E+00  0.00000000E+00  0.00000000E+00
  0.00000000E+00  0.00000000E+00  0.00000000E+00
  0.00000000E+00  0.00000000E+00  0.00000000E+00
  0.00000000E+00  0.00000000E+00  0.00000000E+00
  0.00000000E+00  0.00000000E+00  0.00000000E+00
  0.00000000E+00  0.00000000E+00  0.00000000E+00
  0.00000000E+00  0.00000000E+00  0.00000000E+00
  0.00000000E+00  0.00000000E+00  0.00000000E+00
  0.00000000E+00  0.00000000E+00  0.00000000E+00
  0.00000000E+00  0.00000000E+00  0.00000000E+00
  0.00000000E+00  0.00000000E+00  0.00000000E+00
  0.00000000E+00  0.00000000E+00  0.00000000E+00
  0.00000000E+00  0.00000000E+00  0.00000000E+00
  0.00000000E+00  0.00000000E+00  0.00000000E+00
  0.00000000E+00  0.00000000E+00  0.00000000E+00
  0.00000000E+00  0.00000000E+00  0.00000000E+00
  0.00000000E+00  0.00000000E+00  0.00000000E+00
  0.00000000E+00  0.00000000E+00  0.00000000E+00
  0.00000000E+00  0.00000000E+00  0.00000000E+00
  0.00000000E+00  0.00000000E+00  0.00000000E+00
  0.00000000E+00  0.00000000E+00  0.00000000E+00
  0.00000000E+00  0.00000000E+00  0.00000000E+00
  0.00000000E+00  0.00000000E+00  0.00000000E+00
  0.00000000E+00  0.00000000E+00  0.00000000E+00
  0.00000000E+00  0.00000000E+00  0.00000000E+00
  0.00000000E+00  0.00000000E+00  0.00000000E+00
  0.00000000E+00  0.00000000E+00  0.00000000E+00
  0.00000000E+00  0.00000000E+00  0.00000000E+00
  0.00000000E+00  0.00000000E+00  0.00000000E+00
  0.00000000E+00  0.00000000E+00  0.00000000E+00
  0.00000000E+00  0.00000000E+00  0.00000000E+00
  0.00000000E+00  0.00000000E+00  0.00000000E+00
  0.00000000E+00  0.00000000E+00  0.00000000E+00
  0.00000000E+00  0.00000000E+00  0.00000000E+00
  0.00000000E+00  0.00000000E+00  0.00000000E+00
