CONTCAR\(4)                             
   1.00000000000000     
    11.6593999863000004    0.0000000000000000    0.0000000000000000
    -5.8296999931000002   10.0973365810000004    0.0000000000000000
     0.0000000000000000    0.0000000000000000   24.5373001098999985
   Zn   In   S    O    H 
     9    18    36     1     1
Direct
  0.1105506895604194  0.2222580813293575  0.3328087209413226
  0.4430681250553334  0.2224622124549001  0.3327935644430227
  0.7769326010221604  0.2222185964990402  0.3303011337831521
  0.1100043472888927  0.5552785734909307  0.3296751936933333
  0.4431088337455549  0.5541332573600357  0.3324272534158652
  0.7773105468284029  0.5554622084061620  0.3296945499595765
  0.1100428848810253  0.8883177074467454  0.3295812463224905
  0.4430067931322981  0.8882382943132043  0.3302003768926340
  0.7770103085219091  0.8883674631265635  0.3302629648488420
  0.0024047802326024  0.9999626062643969  0.4872713894042775
  0.2231326815198926  0.1136989044016161  0.6530133738497312
  0.3334370855263913  0.0010348559065321  0.4867495806222522
  0.5548470049516254  0.1109847557077899  0.6496850668398011
  0.6672429978002725  0.9994435552505152  0.4864005112408307
  0.8886136601031538  0.1110437892112159  0.6498202169180516
  0.0019411161479184  0.3336487954113707  0.4869349324887793
  0.2232465020133745  0.4430413204691135  0.6529584714486916
  0.3345269625270504  0.3336205261238803  0.4945561369482689
  0.5526878796455961  0.4429967258727956  0.6534175459610836
  0.6678956251103969  0.3352557714707203  0.4872729694306415
  0.8886731891090847  0.4446005854975397  0.6502780870597178
  0.0019464023533544  0.6668614141193245  0.4870056452383125
  0.2215041463964980  0.7774260030379452  0.6502555551247937
  0.3329916852348873  0.6647647834869446  0.4869431719349393
  0.5549929081686571  0.7773425625039891  0.6497737202196916
  0.6674022149359544  0.6650338145627828  0.4870682631851722
  0.8887481180312946  0.7776278599867013  0.6502400489585725
  0.2214879932341631  0.1114183980164469  0.3117938950328210
  0.2187646485579720  0.1027450853668910  0.5524939595837353
  0.1158911169870365  0.2237895328762676  0.4382510043132513
  0.0925094966150581  0.2130366608354421  0.7038709909273635
  0.5540197070148878  0.1112410476729337  0.3123452368821305
  0.5563591619766513  0.1112439650884625  0.5510850059408767
  0.4437543915106303  0.2251253309555210  0.4382383873581901
  0.4531389578498022  0.2129233672116584  0.7040942931847454
  0.8886992516127563  0.1111838845306323  0.3119520426837994
  0.8889769121011213  0.1106416137853401  0.5511568481649007
  0.7785354942769942  0.2230043416075134  0.4365407753521140
  0.7771099266967951  0.2220160766628396  0.6952749745755824
  0.2214633727877171  0.4437676824495327  0.3115275010480971
  0.2183154696430378  0.4486844947130351  0.5524490166121510
  0.1112368060964357  0.5555349812718546  0.4355981858226059
  0.1095403378733764  0.5565515459238597  0.6973848481224891
  0.5544900130852355  0.4439138551845758  0.3114337702747676
  0.5647222420439135  0.4487902908691481  0.5528726807418138
  0.4433151150393044  0.5513133275202051  0.4380942339000953
  0.4529188857988586  0.5735603680726342  0.7040895749912224
  0.8879420221288754  0.4439364668603218  0.3100337313316999
  0.8901085074466550  0.4450739195165596  0.5515209539898933
  0.7801140693179960  0.5563872660550331  0.4357079551342551
  0.7800853630819020  0.5568529144684362  0.6974478652226139
  0.2213501575227497  0.7773950294962617  0.3098828576140349
  0.2227891968966560  0.7777672108601692  0.5514650998982802
  0.1113984715898297  0.8878569834597414  0.4356590953261872
  0.1095981342734191  0.8865359883671999  0.6972299103221218
  0.5541671547225988  0.7763866012519571  0.3121873985340855
  0.5560516732677883  0.7775620773630791  0.5511711148122842
  0.4438331188255731  0.8880741933816054  0.4364295232705899
  0.4441060242942001  0.8888005402936869  0.6952561304347711
  0.8879332036473002  0.7775585435549388  0.3099399509051253
  0.8897500045660891  0.7774014508617668  0.5514353884997121
  0.7790743754120939  0.8882277143296946  0.4365202435157371
  0.7772496245429323  0.8886235920340013  0.6953315325278240
  0.3330198627441376  0.3332491873846379  0.6414757828625639
  0.3326902680734918  0.3330303341339587  0.6816184521117066
 
  0.00000000E+00  0.00000000E+00  0.00000000E+00
  0.00000000E+00  0.00000000E+00  0.00000000E+00
  0.00000000E+00  0.00000000E+00  0.00000000E+00
  0.00000000E+00  0.00000000E+00  0.00000000E+00
  0.00000000E+00  0.00000000E+00  0.00000000E+00
  0.00000000E+00  0.00000000E+00  0.00000000E+00
  0.00000000E+00  0.00000000E+00  0.00000000E+00
  0.00000000E+00  0.00000000E+00  0.00000000E+00
  0.00000000E+00  0.00000000E+00  0.00000000E+00
  0.00000000E+00  0.00000000E+00  0.00000000E+00
  0.00000000E+00  0.00000000E+00  0.00000000E+00
  0.00000000E+00  0.00000000E+00  0.00000000E+00
  0.00000000E+00  0.00000000E+00  0.00000000E+00
  0.00000000E+00  0.00000000E+00  0.00000000E+00
  0.00000000E+00  0.00000000E+00  0.00000000E+00
  0.00000000E+00  0.00000000E+00  0.00000000E+00
  0.00000000E+00  0.00000000E+00  0.00000000E+00
  0.00000000E+00  0.00000000E+00  0.00000000E+00
  0.00000000E+00  0.00000000E+00  0.00000000E+00
  0.00000000E+00  0.00000000E+00  0.00000000E+00
  0.00000000E+00  0.00000000E+00  0.00000000E+00
  0.00000000E+00  0.00000000E+00  0.00000000E+00
  0.00000000E+00  0.00000000E+00  0.00000000E+00
  0.00000000E+00  0.00000000E+00  0.00000000E+00
  0.00000000E+00  0.00000000E+00  0.00000000E+00
  0.00000000E+00  0.00000000E+00  0.00000000E+00
  0.00000000E+00  0.00000000E+00  0.00000000E+00
  0.00000000E+00  0.00000000E+00  0.00000000E+00
  0.00000000E+00  0.00000000E+00  0.00000000E+00
  0.00000000E+00  0.00000000E+00  0.00000000E+00
  0.00000000E+00  0.00000000E+00  0.00000000E+00
  0.00000000E+00  0.00000000E+00  0.00000000E+00
  0.00000000E+00  0.00000000E+00  0.00000000E+00
  0.00000000E+00  0.00000000E+00  0.00000000E+00
  0.00000000E+00  0.00000000E+00  0.00000000E+00
  0.00000000E+00  0.00000000E+00  0.00000000E+00
  0.00000000E+00  0.00000000E+00  0.00000000E+00
  0.00000000E+00  0.00000000E+00  0.00000000E+00
  0.00000000E+00  0.00000000E+00  0.00000000E+00
  0.00000000E+00  0.00000000E+00  0.00000000E+00
  0.00000000E+00  0.00000000E+00  0.00000000E+00
  0.00000000E+00  0.00000000E+00  0.00000000E+00
  0.00000000E+00  0.00000000E+00  0.00000000E+00
  0.00000000E+00  0.00000000E+00  0.00000000E+00
  0.00000000E+00  0.00000000E+00  0.00000000E+00
  0.00000000E+00  0.00000000E+00  0.00000000E+00
  0.00000000E+00  0.00000000E+00  0.00000000E+00
  0.00000000E+00  0.00000000E+00  0.00000000E+00
  0.00000000E+00  0.00000000E+00  0.00000000E+00
  0.00000000E+00  0.00000000E+00  0.00000000E+00
  0.00000000E+00  0.00000000E+00  0.00000000E+00
  0.00000000E+00  0.00000000E+00  0.00000000E+00
  0.00000000E+00  0.00000000E+00  0.00000000E+00
  0.00000000E+00  0.00000000E+00  0.00000000E+00
  0.00000000E+00  0.00000000E+00  0.00000000E+00
  0.00000000E+00  0.00000000E+00  0.00000000E+00
  0.00000000E+00  0.00000000E+00  0.00000000E+00
  0.00000000E+00  0.00000000E+00  0.00000000E+00
  0.00000000E+00  0.00000000E+00  0.00000000E+00
  0.00000000E+00  0.00000000E+00  0.00000000E+00
  0.00000000E+00  0.00000000E+00  0.00000000E+00
  0.00000000E+00  0.00000000E+00  0.00000000E+00
  0.00000000E+00  0.00000000E+00  0.00000000E+00
  0.00000000E+00  0.00000000E+00  0.00000000E+00
  0.00000000E+00  0.00000000E+00  0.00000000E+00
