CONTCAR\(11)                            
   1.00000000000000     
    12.7552003860000003    0.0000000000000000    0.0000000000000000
     0.0000000000000000   11.8367004394999995    0.0000000000000000
     0.0000000000000000    0.0000000000000000   18.9375991821000014
   Cu   Te   O    H 
    24    24     1     1
Direct
  0.9982238558172131  0.1688240140515109  0.4848162537599525
  0.1238731465618532  0.0035244100880924  0.5140066891565904
  0.2505169820032656  0.1699576181986628  0.4874831971414466
  0.3757113417771102  0.0029806360085958  0.5167552673874860
  0.5014574318295189  0.1707919539380906  0.4892087728745900
  0.6233010958730117  0.0008596149520034  0.5178952061021380
  0.7480382751948695  0.1679874179022639  0.4884124526384800
  0.8749177991929393  0.0030246560186273  0.5148237254038230
  0.9964912862661528  0.5040876145686751  0.4807107830663402
  0.1189142534551790  0.3354778936058191  0.5121395306849817
  0.2438055766468448  0.5034921740673564  0.4821541906397320
  0.3730188118400786  0.3385232997733370  0.5173013954072478
  0.5050799536707749  0.5012673704045039  0.5005402538183095
  0.6309047157225552  0.3381129311883539  0.5209542340138443
  0.7581282129653547  0.5031070989747544  0.4837654196900665
  0.8778239677118946  0.3348960649731950  0.5145894045079452
  0.9985879383616214  0.8385038095490718  0.4834030261225017
  0.1197834621905774  0.6721376958895110  0.5105005162985174
  0.2504293709986382  0.8365514931266652  0.4857795693117652
  0.3731936276089348  0.6670201753846443  0.5159440055679192
  0.5004467603525192  0.8338450917732406  0.4886789652978955
  0.6271809573205029  0.6642201981218200  0.5203469147742235
  0.7468394016914931  0.8361342190548223  0.4874415551270878
  0.8754961894770495  0.6730856649659486  0.5125700835694129
 -0.0010948658452789  0.0047771403130672  0.3954639946455678
  0.1241576082164490  0.1707828451863249  0.6029324299394705
  0.2507167170271629  0.0042692829324508  0.3979010873067165
  0.3736747267226663  0.1705435185112058  0.6051349865156415
  0.4999767166531953  0.0020876392925196  0.3997631219141203
  0.6257858677417666  0.1667137791794681  0.6065769805380063
  0.7481470756490205  0.0026832651700555  0.3985405698862159
  0.8750461500282938  0.1698359947037817  0.6041373401900739
  0.9984139242670049  0.3346722921172534  0.3941678249291395
  0.1225678936426732  0.5050509835067991  0.5998200248238790
  0.2499749421608209  0.3338452383783952  0.3970543658573989
  0.3536765049134692  0.5030813058156151  0.6060031407359828
  0.5003250045745607  0.3420001653837895  0.4037785867622995
  0.6350991420692234  0.4916309108655206  0.6173208469269997
  0.7477491156147881  0.3334650076276612  0.3989426556205807
  0.8752339556527481  0.5061283936075656  0.6009762500204369
  0.9980429451066524  0.6728629777454928  0.3931574741911051
  0.1236317722475758  0.8358170049829267  0.6019305403267630
  0.2496458681635303  0.6718542444590161  0.3956543521401923
  0.3725716671744028  0.8346017581595848  0.6043683975177517
  0.5007040604570896  0.6610627233187648  0.4038303977576612
  0.6261265618870998  0.8325135162497184  0.6066021109474801
  0.7473656562047555  0.6708677171472024  0.3975365808784052
  0.8757152515569301  0.8367224041814155  0.6033876086930484
  0.5154168903559231  0.4175189352806777  0.6831658927743407
  0.5194843092274879  0.4584376653042216  0.7280315487983712
 
  0.00000000E+00  0.00000000E+00  0.00000000E+00
  0.00000000E+00  0.00000000E+00  0.00000000E+00
  0.00000000E+00  0.00000000E+00  0.00000000E+00
  0.00000000E+00  0.00000000E+00  0.00000000E+00
  0.00000000E+00  0.00000000E+00  0.00000000E+00
  0.00000000E+00  0.00000000E+00  0.00000000E+00
  0.00000000E+00  0.00000000E+00  0.00000000E+00
  0.00000000E+00  0.00000000E+00  0.00000000E+00
  0.00000000E+00  0.00000000E+00  0.00000000E+00
  0.00000000E+00  0.00000000E+00  0.00000000E+00
  0.00000000E+00  0.00000000E+00  0.00000000E+00
  0.00000000E+00  0.00000000E+00  0.00000000E+00
  0.00000000E+00  0.00000000E+00  0.00000000E+00
  0.00000000E+00  0.00000000E+00  0.00000000E+00
  0.00000000E+00  0.00000000E+00  0.00000000E+00
  0.00000000E+00  0.00000000E+00  0.00000000E+00
  0.00000000E+00  0.00000000E+00  0.00000000E+00
  0.00000000E+00  0.00000000E+00  0.00000000E+00
  0.00000000E+00  0.00000000E+00  0.00000000E+00
  0.00000000E+00  0.00000000E+00  0.00000000E+00
  0.00000000E+00  0.00000000E+00  0.00000000E+00
  0.00000000E+00  0.00000000E+00  0.00000000E+00
  0.00000000E+00  0.00000000E+00  0.00000000E+00
  0.00000000E+00  0.00000000E+00  0.00000000E+00
  0.00000000E+00  0.00000000E+00  0.00000000E+00
  0.00000000E+00  0.00000000E+00  0.00000000E+00
  0.00000000E+00  0.00000000E+00  0.00000000E+00
  0.00000000E+00  0.00000000E+00  0.00000000E+00
  0.00000000E+00  0.00000000E+00  0.00000000E+00
  0.00000000E+00  0.00000000E+00  0.00000000E+00
  0.00000000E+00  0.00000000E+00  0.00000000E+00
  0.00000000E+00  0.00000000E+00  0.00000000E+00
  0.00000000E+00  0.00000000E+00  0.00000000E+00
  0.00000000E+00  0.00000000E+00  0.00000000E+00
  0.00000000E+00  0.00000000E+00  0.00000000E+00
  0.00000000E+00  0.00000000E+00  0.00000000E+00
  0.00000000E+00  0.00000000E+00  0.00000000E+00
  0.00000000E+00  0.00000000E+00  0.00000000E+00
  0.00000000E+00  0.00000000E+00  0.00000000E+00
  0.00000000E+00  0.00000000E+00  0.00000000E+00
  0.00000000E+00  0.00000000E+00  0.00000000E+00
  0.00000000E+00  0.00000000E+00  0.00000000E+00
  0.00000000E+00  0.00000000E+00  0.00000000E+00
  0.00000000E+00  0.00000000E+00  0.00000000E+00
  0.00000000E+00  0.00000000E+00  0.00000000E+00
  0.00000000E+00  0.00000000E+00  0.00000000E+00
  0.00000000E+00  0.00000000E+00  0.00000000E+00
  0.00000000E+00  0.00000000E+00  0.00000000E+00
  0.00000000E+00  0.00000000E+00  0.00000000E+00
  0.00000000E+00  0.00000000E+00  0.00000000E+00
