CONTCAR\(9)                             
   1.00000000000000     
    10.2439002990999999    0.0000000000000000    0.0000000000000000
    -5.1219302098000004    8.8769157374999992    0.0000000000000000
     0.0000000000000000    0.0000000000000000   20.8738994598000005
   Zr   Cl   O    H 
    18    18     1     1
Selective dynamics
Direct
  0.0535552985276340  0.1085752044627881  0.5548060840624984   F   F   F
  0.1662801849286879  0.9988625811275327  0.4409045485791765   F   F   F
  0.3886281434631513  0.1086904719246888  0.5547715850973418   F   F   F
  0.5013594212574546  0.0000522360781403  0.4415443899542808   F   F   F
  0.7226061766420315  0.1115130912538191  0.5560666318152627   F   F   F
  0.8322087197203913  0.9999377973792392  0.4415643860972338   F   F   F
  0.0551757467944540  0.4452199291873526  0.5555800221411786   F   F   F
  0.1746845198017226  0.3371901997787106  0.4463257691077445   F   F   F
  0.3864316814454014  0.4405450807026483  0.5913927489203274   F   F   F
  0.4957870643923670  0.3372310271113861  0.4462786718960103   F   F   F
  0.7230361510659193  0.4450746787513822  0.5556158146355372   F   F   F
  0.8328881509930639  0.3324658744436277  0.4422143768661542   F   F   F
  0.0551566217352715  0.7769478683803115  0.5537418241391521   F   F   F
  0.1666495163008079  0.6663445634787806  0.4410763509334430   F   F   F
  0.3889727574017456  0.7786913983921195  0.5547381707535024   F   F   F
  0.4954240457338983  0.6573810018032731  0.4458325182215432   F   F   F
  0.7229914621501621  0.7784077572542287  0.5548297961857145   F   F   F
  0.8331105514589510  0.6662921728020947  0.4411148623712009   F   F   F
  0.2532672974275201  0.1727647423104202  0.6393972676647124   F   F   F
  0.2792181890874446  0.2252538756028315  0.3606523773676358   F   F   F
  0.6109162254415281  0.2221430835602618  0.6397141306097325   F   F   F
  0.6086396963300373  0.2248025577554742  0.3602286803756272   F   F   F
  0.9449909865462018  0.2223177344508827  0.6397391803435326   F   F   F
  0.9495577199393637  0.2248114196023394  0.3602435693147683   F   F   F
  0.2582820900168556  0.5804390887984070  0.6404694448301029   F   F   F
  0.2789222502715205  0.5527598479869340  0.3604276393738388   F   F   F
  0.6544190198564479  0.5796057787207829  0.6406525351945476   F   F   F
  0.6074022243427422  0.5529282594623268  0.3604189708181806   F   F   F
  0.9439102376117745  0.5548674613793381  0.6381586517407598   F   F   F
  0.9435919830081971  0.5536757826129346  0.3576323857529289   F   F   F
  0.2784226355776198  0.8885099860272021  0.6374184271536762   F   F   F
  0.2790839060335628  0.8889411637374991  0.3573069532379094   F   F   F
  0.6113358183256494  0.8892581351923283  0.6397311953266680   F   F   F
  0.6082471546345189  0.8829411630397104  0.3597108706968015   F   F   F
  0.9434407301286569  0.8883099761063136  0.6375022886344297   F   F   F
  0.9433733892514411  0.8889898396998177  0.3573688869129512   F   F   F
  0.3798160926642922  0.4286463413344634  0.6904523544272436   T   T   T
  0.4239169996915280  0.5193110153075721  0.7159970226873973   T   T   T
 
  0.00000000E+00  0.00000000E+00  0.00000000E+00
  0.00000000E+00  0.00000000E+00  0.00000000E+00
  0.00000000E+00  0.00000000E+00  0.00000000E+00
  0.00000000E+00  0.00000000E+00  0.00000000E+00
  0.00000000E+00  0.00000000E+00  0.00000000E+00
  0.00000000E+00  0.00000000E+00  0.00000000E+00
  0.00000000E+00  0.00000000E+00  0.00000000E+00
  0.00000000E+00  0.00000000E+00  0.00000000E+00
  0.00000000E+00  0.00000000E+00  0.00000000E+00
  0.00000000E+00  0.00000000E+00  0.00000000E+00
  0.00000000E+00  0.00000000E+00  0.00000000E+00
  0.00000000E+00  0.00000000E+00  0.00000000E+00
  0.00000000E+00  0.00000000E+00  0.00000000E+00
  0.00000000E+00  0.00000000E+00  0.00000000E+00
  0.00000000E+00  0.00000000E+00  0.00000000E+00
  0.00000000E+00  0.00000000E+00  0.00000000E+00
  0.00000000E+00  0.00000000E+00  0.00000000E+00
  0.00000000E+00  0.00000000E+00  0.00000000E+00
  0.00000000E+00  0.00000000E+00  0.00000000E+00
  0.00000000E+00  0.00000000E+00  0.00000000E+00
  0.00000000E+00  0.00000000E+00  0.00000000E+00
  0.00000000E+00  0.00000000E+00  0.00000000E+00
  0.00000000E+00  0.00000000E+00  0.00000000E+00
  0.00000000E+00  0.00000000E+00  0.00000000E+00
  0.00000000E+00  0.00000000E+00  0.00000000E+00
  0.00000000E+00  0.00000000E+00  0.00000000E+00
  0.00000000E+00  0.00000000E+00  0.00000000E+00
  0.00000000E+00  0.00000000E+00  0.00000000E+00
  0.00000000E+00  0.00000000E+00  0.00000000E+00
  0.00000000E+00  0.00000000E+00  0.00000000E+00
  0.00000000E+00  0.00000000E+00  0.00000000E+00
  0.00000000E+00  0.00000000E+00  0.00000000E+00
  0.00000000E+00  0.00000000E+00  0.00000000E+00
  0.00000000E+00  0.00000000E+00  0.00000000E+00
  0.00000000E+00  0.00000000E+00  0.00000000E+00
  0.00000000E+00  0.00000000E+00  0.00000000E+00
  0.00000000E+00  0.00000000E+00  0.00000000E+00
  0.00000000E+00  0.00000000E+00  0.00000000E+00
