CONTCAR\(2)                             
   1.00000000000000     
    18.0916004181000005    0.0000000000000000    0.0000000000000000
     1.9381108455000000   16.0410405593999990    0.0000000000000000
     0.0000000000000000    0.0000000000000000   22.7443008422999995
   Sc   C    I    O    H 
    24     8    44     2     1
Direct
  0.3740389259295272  0.5335697210194987  0.5523613717022422
  0.2072999797633528  0.6864399394093387  0.4470181531418088
  0.4609394841006208  0.3400235315879336  0.4945510176326585
  0.1191951030230650  0.8791377559796372  0.5052978363905508
  0.3433207997286683  0.3373167565128840  0.5976521153318054
  0.2365692758014683  0.8832473443024033  0.4021963299078416
  0.2138611064283584  0.4222327249259124  0.5181628535257486
  0.3663349135521493  0.7989965472353290  0.4820187591426487
  0.3314041418254975  0.4297186477707848  0.4159441946666897
  0.2488409045590405  0.7902761100600793  0.5837351634520020
  0.3066256197762200  0.2313718320082308  0.4628791079767165
  0.2724908847126632  0.9892056699855978  0.5370300884736894
  0.8727248684289899  0.5343829652044186  0.5520425733016644
  0.7052634105129487  0.6864930488275087  0.4492325267749984
  0.9612237209034448  0.3407755746686226  0.4941257867820683
  0.6205130199739510  0.8767079908440611  0.5117813306170090
  0.8440743019808408  0.3368135037823854  0.5976454785130080
  0.7348938110705435  0.8823900992742705  0.4059308732363257
  0.7142029382081350  0.4223789459684840  0.5190865533693283
  0.8632935704025673  0.7972207065633341  0.4866782052133369
  0.8305478033611770  0.4294574973757839  0.4160796832321634
  0.7517092850968833  0.7929275436255550  0.6079645572770201
  0.8067917487988485  0.2311442787623912  0.4634545653086276
  0.7737687625869875  0.9884916618766599  0.5391002581716480
  0.2348901207283831  0.7965490748808879  0.4822147874487173
  0.3456547370708479  0.4236680517431077  0.5174072756404802
  0.2510025495563212  0.8747985798945291  0.5034916687258179
  0.3287675636602856  0.3456270291905646  0.4962931558966656
  0.7333006585281245  0.7955925924479670  0.4862623805357028
  0.8461180558197146  0.4233588817935471  0.5175638470331784
  0.7516243215945247  0.8717560291659862  0.5094814071151899
  0.8292091062511211  0.3453401874515346  0.4964825817062034
  0.3788255697731277  0.4787977609662099  0.6710505035290387
  0.2032548234513341  0.7413684534741518  0.3281954242739972
  0.0308598228408525  0.4913843739320893  0.5352422114132251
  0.0509192864859015  0.7287414070530581  0.4626563009924362
  0.2142947299498922  0.6041892315848565  0.5675645313911202
  0.3672206104283813  0.6161348675462270  0.4321994647489758
  0.2701277043829087  0.0618297876707702  0.4162715921659745
  0.3081421368232144  0.1591598458647307  0.5833342398204407
  0.4601287941683105  0.1740864319947694  0.4448671774698531
  0.1190208260586520  0.0456374469353151  0.5554415154114617
  0.1436506898097586  0.2820612822148441  0.4758095658990769
  0.4347832493581510  0.9404172339823293  0.5241140055541604
  0.3863525721265808  0.8465153027062603  0.3628431314577527
  0.1939842082839024  0.3749521040046478  0.6375787344414150
  0.0862424049667821  0.9517432341583844  0.3907414461321991
  0.4928062676377630  0.2672656740742140  0.6093654900627888
  0.4001121819464474  0.7106962205545864  0.5952790604462580
  0.1801069711944049  0.5096007764342191  0.4048660732599216
  0.1015727035643514  0.8145241321969471  0.6241204235009209
  0.4788389452348498  0.4043635005307000  0.3755602117491914
  0.2882212625378395  0.9231653719881399  0.6567404128601428
  0.2911644336438063  0.2967048748685714  0.3430670310663878
  0.8795477997957822  0.4799926167242526  0.6717340381977361
  0.6993994363524598  0.7436786888198536  0.3309584686476361
  0.5309694154356256  0.4896869019838758  0.5358646081119460
  0.5484049453606523  0.7292691476712331  0.4670800370045548
  0.7128662725701096  0.5974432215585334  0.5661681231131606
  0.8649924287308401  0.6165150051380174  0.4321778302217142
  0.7702760008781449  0.0595419354287688  0.4182111991087891
  0.8103146201321424  0.1593830625860590  0.5834557948542065
  0.9603330299669146  0.1743401729206161  0.4446074041301128
  0.6202771799990860  0.0452072340386784  0.5575627330460899
  0.6437895635172272  0.2812174175287290  0.4770327883365018
  0.9359595400779173  0.9378108825288993  0.5250248449818269
  0.8842074616621780  0.8444369977486863  0.3662106986643268
  0.6953902755384794  0.3725931043703873  0.6386143996895457
  0.5856333320173897  0.9511853035815793  0.3961457567055257
  0.9942707802682272  0.2689542244003879  0.6088401768963736
  0.9066869248604128  0.7100781737453137  0.5920721503044348
  0.6792741802344775  0.5087523986694180  0.4048503591334505
  0.5947758645099200  0.8191021541306694  0.6266308578624733
  0.9778844725647382  0.4056433622164318  0.3752589016286190
  0.7919840820804855  0.9384766302046414  0.6618636200953191
  0.7907630466169250  0.2955313073226293  0.3436086778979170
  0.7639959791926513  0.7284766696506033  0.6762641404662190
  0.8020573818322342  0.7003284470507852  0.7281844501882941
  0.8053404024025514  0.6393342991057807  0.7231528478229320
 
  0.00000000E+00  0.00000000E+00  0.00000000E+00
  0.00000000E+00  0.00000000E+00  0.00000000E+00
  0.00000000E+00  0.00000000E+00  0.00000000E+00
  0.00000000E+00  0.00000000E+00  0.00000000E+00
  0.00000000E+00  0.00000000E+00  0.00000000E+00
  0.00000000E+00  0.00000000E+00  0.00000000E+00
  0.00000000E+00  0.00000000E+00  0.00000000E+00
  0.00000000E+00  0.00000000E+00  0.00000000E+00
  0.00000000E+00  0.00000000E+00  0.00000000E+00
  0.00000000E+00  0.00000000E+00  0.00000000E+00
  0.00000000E+00  0.00000000E+00  0.00000000E+00
  0.00000000E+00  0.00000000E+00  0.00000000E+00
  0.00000000E+00  0.00000000E+00  0.00000000E+00
  0.00000000E+00  0.00000000E+00  0.00000000E+00
  0.00000000E+00  0.00000000E+00  0.00000000E+00
  0.00000000E+00  0.00000000E+00  0.00000000E+00
  0.00000000E+00  0.00000000E+00  0.00000000E+00
  0.00000000E+00  0.00000000E+00  0.00000000E+00
  0.00000000E+00  0.00000000E+00  0.00000000E+00
  0.00000000E+00  0.00000000E+00  0.00000000E+00
  0.00000000E+00  0.00000000E+00  0.00000000E+00
  0.00000000E+00  0.00000000E+00  0.00000000E+00
  0.00000000E+00  0.00000000E+00  0.00000000E+00
  0.00000000E+00  0.00000000E+00  0.00000000E+00
  0.00000000E+00  0.00000000E+00  0.00000000E+00
  0.00000000E+00  0.00000000E+00  0.00000000E+00
  0.00000000E+00  0.00000000E+00  0.00000000E+00
  0.00000000E+00  0.00000000E+00  0.00000000E+00
  0.00000000E+00  0.00000000E+00  0.00000000E+00
  0.00000000E+00  0.00000000E+00  0.00000000E+00
  0.00000000E+00  0.00000000E+00  0.00000000E+00
  0.00000000E+00  0.00000000E+00  0.00000000E+00
  0.00000000E+00  0.00000000E+00  0.00000000E+00
  0.00000000E+00  0.00000000E+00  0.00000000E+00
  0.00000000E+00  0.00000000E+00  0.00000000E+00
  0.00000000E+00  0.00000000E+00  0.00000000E+00
  0.00000000E+00  0.00000000E+00  0.00000000E+00
  0.00000000E+00  0.00000000E+00  0.00000000E+00
  0.00000000E+00  0.00000000E+00  0.00000000E+00
  0.00000000E+00  0.00000000E+00  0.00000000E+00
  0.00000000E+00  0.00000000E+00  0.00000000E+00
  0.00000000E+00  0.00000000E+00  0.00000000E+00
  0.00000000E+00  0.00000000E+00  0.00000000E+00
  0.00000000E+00  0.00000000E+00  0.00000000E+00
  0.00000000E+00  0.00000000E+00  0.00000000E+00
  0.00000000E+00  0.00000000E+00  0.00000000E+00
  0.00000000E+00  0.00000000E+00  0.00000000E+00
  0.00000000E+00  0.00000000E+00  0.00000000E+00
  0.00000000E+00  0.00000000E+00  0.00000000E+00
  0.00000000E+00  0.00000000E+00  0.00000000E+00
  0.00000000E+00  0.00000000E+00  0.00000000E+00
  0.00000000E+00  0.00000000E+00  0.00000000E+00
  0.00000000E+00  0.00000000E+00  0.00000000E+00
  0.00000000E+00  0.00000000E+00  0.00000000E+00
  0.00000000E+00  0.00000000E+00  0.00000000E+00
  0.00000000E+00  0.00000000E+00  0.00000000E+00
  0.00000000E+00  0.00000000E+00  0.00000000E+00
  0.00000000E+00  0.00000000E+00  0.00000000E+00
  0.00000000E+00  0.00000000E+00  0.00000000E+00
  0.00000000E+00  0.00000000E+00  0.00000000E+00
  0.00000000E+00  0.00000000E+00  0.00000000E+00
  0.00000000E+00  0.00000000E+00  0.00000000E+00
  0.00000000E+00  0.00000000E+00  0.00000000E+00
  0.00000000E+00  0.00000000E+00  0.00000000E+00
  0.00000000E+00  0.00000000E+00  0.00000000E+00
  0.00000000E+00  0.00000000E+00  0.00000000E+00
  0.00000000E+00  0.00000000E+00  0.00000000E+00
  0.00000000E+00  0.00000000E+00  0.00000000E+00
  0.00000000E+00  0.00000000E+00  0.00000000E+00
  0.00000000E+00  0.00000000E+00  0.00000000E+00
  0.00000000E+00  0.00000000E+00  0.00000000E+00
  0.00000000E+00  0.00000000E+00  0.00000000E+00
  0.00000000E+00  0.00000000E+00  0.00000000E+00
  0.00000000E+00  0.00000000E+00  0.00000000E+00
  0.00000000E+00  0.00000000E+00  0.00000000E+00
  0.00000000E+00  0.00000000E+00  0.00000000E+00
  0.00000000E+00  0.00000000E+00  0.00000000E+00
  0.00000000E+00  0.00000000E+00  0.00000000E+00
  0.00000000E+00  0.00000000E+00  0.00000000E+00
