 Ta3 Te14 Pd3                           
   1.00000000000000     
     3.7421112347323229    0.0000000000000000    0.0000000000000000
     0.0000000000000000   21.7962264427775558    0.0000000000000000
     0.0000000000000000    0.0000000000000000   19.3752926856089971
   Ta   Te   Pd
     3    14     3
Direct
  0.4999999983970720  0.4771939877446598  0.4976915206107895
  0.5000000018226499  0.1242917157933418  0.4989102343413082
  0.4999999957388574  0.7762394068949736  0.5161710009439049
 -0.0000000004382624  0.4095863540183403  0.4169772070834148
  0.4999999984188181  0.2397035541274259  0.4221232055650974
  0.5000000012778500  0.8898549485389496  0.5922718361555073
 -0.0000000032771598  0.8443455699691647  0.4375838409650232
 -0.0000000022420161  0.5516833210395059  0.4244205977488276
 -0.0000000010189527  0.4810743794151376  0.6103278312386264
  0.5000000060010782  0.0030090241078247  0.4362461835916699
  0.0000000009318550  0.0577407259707704  0.5821271513303672
  0.4999999994368654  0.5931066925681310  0.5706736035713554
  0.0000000019024641  0.1993077066846429  0.5717208861814681
  0.5000000010887381  0.7016850435571390  0.4061358575139047
  0.0000000023509863  0.1184822575501388  0.3870643366085414
 -0.0000000057314660  0.7383325133822185  0.6131572606858213
  0.5000000013097337  0.3601276045826775  0.5714193828554024
  0.0000000031990718  0.9470298059917911  0.5148072841852854
 -0.0000000007549850  0.3021859558208859  0.4940665313754445
  0.0000000015868028  0.6617314322422923  0.5007069296661324
 
  0.00000000E+00  0.00000000E+00  0.00000000E+00
  0.00000000E+00  0.00000000E+00  0.00000000E+00
  0.00000000E+00  0.00000000E+00  0.00000000E+00
  0.00000000E+00  0.00000000E+00  0.00000000E+00
  0.00000000E+00  0.00000000E+00  0.00000000E+00
  0.00000000E+00  0.00000000E+00  0.00000000E+00
  0.00000000E+00  0.00000000E+00  0.00000000E+00
  0.00000000E+00  0.00000000E+00  0.00000000E+00
  0.00000000E+00  0.00000000E+00  0.00000000E+00
  0.00000000E+00  0.00000000E+00  0.00000000E+00
  0.00000000E+00  0.00000000E+00  0.00000000E+00
  0.00000000E+00  0.00000000E+00  0.00000000E+00
  0.00000000E+00  0.00000000E+00  0.00000000E+00
  0.00000000E+00  0.00000000E+00  0.00000000E+00
  0.00000000E+00  0.00000000E+00  0.00000000E+00
  0.00000000E+00  0.00000000E+00  0.00000000E+00
  0.00000000E+00  0.00000000E+00  0.00000000E+00
  0.00000000E+00  0.00000000E+00  0.00000000E+00
  0.00000000E+00  0.00000000E+00  0.00000000E+00
  0.00000000E+00  0.00000000E+00  0.00000000E+00
