 Cu6 O2 F10                             
   1.00000000000000     
     4.1951406883828328    0.0000000000000000    0.0000000000000000
     0.0000000000000000    5.1767574065176722    0.0000000000000000
     0.0000000000000000    0.0000000000000000   22.0041066470840008
   Cu   O    F 
     6     2    10
Direct
  0.0102836771230542  0.4326306590775439  0.3623097966062097
  0.5126010482935350  0.9497462410484468  0.3619641884647143
  1.0126920772634440  0.0503116956292175  0.6380541945643853
  0.5103675771208921  0.5673998809877409  0.6377475034826559
  0.4404513489479804  0.2588882936310591  0.4842061190990181
  0.9400453669403850  0.7408671569548660  0.5158135366621128
  0.8271252059125314  0.7618207574167427  0.6030795560334444
  0.3272468635279578  0.2383070334413063  0.3969270213026205
  0.8376777228109268  0.1442982444685900  0.3224712374954566
  0.1917626479162655  0.3539577976185772  0.6743716159788050
  0.6915188451377487  0.6459648706034696  0.3257004913832633
  0.3376280981230378  0.8555961682905801  0.6776089395318846
  0.6874871485221518  0.2623741382685868  0.6054583202473343
  0.1673540233208192  0.0620383343354205  0.5352568005352988
  0.3255998069706088  0.5529154528716516  0.5352174952109217
  0.6673707114833904  0.9378775458127458  0.4646961283909260
  0.8255242885205719  0.4470942580519373  0.4646217445154054
  0.1872615420647170  0.7379114714915366  0.3944953104955438
 
  0.00000000E+00  0.00000000E+00  0.00000000E+00
  0.00000000E+00  0.00000000E+00  0.00000000E+00
  0.00000000E+00  0.00000000E+00  0.00000000E+00
  0.00000000E+00  0.00000000E+00  0.00000000E+00
  0.00000000E+00  0.00000000E+00  0.00000000E+00
  0.00000000E+00  0.00000000E+00  0.00000000E+00
  0.00000000E+00  0.00000000E+00  0.00000000E+00
  0.00000000E+00  0.00000000E+00  0.00000000E+00
  0.00000000E+00  0.00000000E+00  0.00000000E+00
  0.00000000E+00  0.00000000E+00  0.00000000E+00
  0.00000000E+00  0.00000000E+00  0.00000000E+00
  0.00000000E+00  0.00000000E+00  0.00000000E+00
  0.00000000E+00  0.00000000E+00  0.00000000E+00
  0.00000000E+00  0.00000000E+00  0.00000000E+00
  0.00000000E+00  0.00000000E+00  0.00000000E+00
  0.00000000E+00  0.00000000E+00  0.00000000E+00
  0.00000000E+00  0.00000000E+00  0.00000000E+00
  0.00000000E+00  0.00000000E+00  0.00000000E+00
