CONTCAR\(12)                            
   1.00000000000000     
    13.8203001021999992    0.0000000000000000    0.0000000000000000
     1.7075399424000000   15.0073707208999991    0.0000000000000000
     0.0000000000000000    0.0000000000000000   18.4675998688000007
   Nb   Ir   Se   O    H 
    18     2    40     1     1
Selective dynamics
Direct
  0.0826760218305083  0.1869783645546406  0.5000611671483028   F   F   F
  0.0018541420091580  0.9830126999679791  0.4958530883813737   F   F   F
  0.3833682350330747  0.8058283131362387  0.4969315342086205   F   F   F
  0.2849080206162995  0.6250978879368319  0.4996537820876839   F   F   F
  0.2421628374192366  0.9901644691804492  0.4955012792927747   F   F   F
  0.1861588374187164  0.4263330841521835  0.5041109326540578   F   F   F
  0.1392698499977314  0.8064748857413093  0.4971875940422734   F   F   F
  0.0452386170860208  0.6245928857664325  0.4987427950774617   F   F   F
  0.4382815713361623  0.3833888282349278  0.5035012683243139   F   F   F
  0.5770093910751513  0.1902044776796998  0.5056163838546297   F   F   F
  0.4996244970474208  0.9826653977462314  0.4934867626022239   F   F   F
  0.9070452511670126  0.8040876704771307  0.4978130469848097   F   F   F
  0.7996272984052268  0.6237099378051028  0.5009011435884290   F   F   F
  0.7528759826968141  0.9859295557177532  0.4967884154328814   F   F   F
  0.6832277498683865  0.4249748218339207  0.5080497141553124   F   F   F
  0.6553781605381204  0.8060230045936692  0.4981739903102778   F   F   F
  0.5394311565247705  0.6259441202274232  0.5000865056952293   F   F   F
  0.9406236928394804  0.3851397896685356  0.4985044497538453   F   F   F
  0.3657203142904422  0.2130132500609818  0.4907374804461924   F   F   F
  0.8639135268393758  0.2138911642828347  0.4995017576806333   F   F   F
  0.4679695332279863  0.2705775874419984  0.6065188665043451   F   F   F
  0.0809247021695825  0.3375195445309771  0.4147081766732583   F   F   F
  0.3640893009654533  0.0765801758200695  0.5712538185799900   F   F   F
  0.4838896359461984  0.1324709265423465  0.4041800924460546   F   F   F
  0.2603921866427186  0.8716038269756652  0.5931652588965903   F   F   F
  0.2210798030401975  0.2691859170829076  0.5696216153789493   F   F   F
  0.3754038956919814  0.9370407163031089  0.4012085537731878   F   F   F
  0.3262079241749021  0.3414956722871381  0.4074720003049492   F   F   F
  0.1590888246158002  0.6782886373392003  0.5964340137826056   F   F   F
  0.1106881469498830  0.0629176627321399  0.5902827705899156   F   F   F
  0.2328191655682232  0.1416385503071567  0.4175792536211489   F   F   F
  0.2750804768513220  0.7416989821050706  0.4009477629437512   F   F   F
  0.0560002876967829  0.4778133825185975  0.5891273929129284   F   F   F
  0.0136083616002196  0.8689588098062231  0.5966994451465197   F   F   F
  0.1756147554167171  0.5448845338777204  0.4069333385609397   F   F   F
  0.1288908419374337  0.9355204227737062  0.3984887243219362   F   F   F
  0.4070915233668231  0.6760708616168145  0.5939814088987205   F   F   F
  0.0292540973279785  0.7405069750704811  0.3987773908136134   F   F   F
  0.3123261788931941  0.4777465272545172  0.5882036656735536   F   F   F
  0.4260210580263006  0.5363240691065414  0.4237068904679120   F   F   F
  0.9687449054671546  0.2688414833283872  0.5974405409349188   F   F   F
  0.5792813319638910  0.3386068202619441  0.4180488011834527   F   F   F
  0.8645170106402702  0.0746110769543975  0.5759704736038316   F   F   F
  0.9765231242932941  0.1315494863935882  0.4065276703331193   F   F   F
  0.7681022942776750  0.8679386189421834  0.5935464877879539   F   F   F
  0.7170677272942854  0.2692125476054130  0.5755282607188903   F   F   F
  0.8810369811586227  0.9348032777046882  0.4009983877536811   F   F   F
  0.8230773536950480  0.3389411738375685  0.4102403041791192   F   F   F
  0.6622698623298504  0.6750466517692715  0.5930694819082092   F   F   F
  0.6111111157054054  0.0588461157971665  0.5883220169701602   F   F   F
  0.7346759433952315  0.1440734494075926  0.4260925370980004   F   F   F
  0.7828347256336983  0.7416430532526661  0.4038872330908774   F   F   F
  0.5540920082735070  0.4781233255285642  0.5918169641257904   F   F   F
  0.5114763086240472  0.8655292101454677  0.5885052702788585   F   F   F
  0.6762909890654711  0.5453845782258426  0.4131079684569627   F   F   F
  0.6333438976810442  0.9376533123629045  0.4010614824929348   F   F   F
  0.9146052706470513  0.6759454419768005  0.5960247118716779   F   F   F
  0.5272750243579551  0.7449835450920474  0.4065449189385646   F   F   F
  0.8161233078981454  0.4756775245735128  0.5876684141461581   F   F   F
  0.9282255164899524  0.5367547997668041  0.4190584967321698   F   F   F
  0.5433077483733584  0.3204639663555753  0.6846200773001527   T   T   T
  0.5748815545862271  0.2685724524609726  0.7098839587598045   T   T   T
 
  0.00000000E+00  0.00000000E+00  0.00000000E+00
  0.00000000E+00  0.00000000E+00  0.00000000E+00
  0.00000000E+00  0.00000000E+00  0.00000000E+00
  0.00000000E+00  0.00000000E+00  0.00000000E+00
  0.00000000E+00  0.00000000E+00  0.00000000E+00
  0.00000000E+00  0.00000000E+00  0.00000000E+00
  0.00000000E+00  0.00000000E+00  0.00000000E+00
  0.00000000E+00  0.00000000E+00  0.00000000E+00
  0.00000000E+00  0.00000000E+00  0.00000000E+00
  0.00000000E+00  0.00000000E+00  0.00000000E+00
  0.00000000E+00  0.00000000E+00  0.00000000E+00
  0.00000000E+00  0.00000000E+00  0.00000000E+00
  0.00000000E+00  0.00000000E+00  0.00000000E+00
  0.00000000E+00  0.00000000E+00  0.00000000E+00
  0.00000000E+00  0.00000000E+00  0.00000000E+00
  0.00000000E+00  0.00000000E+00  0.00000000E+00
  0.00000000E+00  0.00000000E+00  0.00000000E+00
  0.00000000E+00  0.00000000E+00  0.00000000E+00
  0.00000000E+00  0.00000000E+00  0.00000000E+00
  0.00000000E+00  0.00000000E+00  0.00000000E+00
  0.00000000E+00  0.00000000E+00  0.00000000E+00
  0.00000000E+00  0.00000000E+00  0.00000000E+00
  0.00000000E+00  0.00000000E+00  0.00000000E+00
  0.00000000E+00  0.00000000E+00  0.00000000E+00
  0.00000000E+00  0.00000000E+00  0.00000000E+00
  0.00000000E+00  0.00000000E+00  0.00000000E+00
  0.00000000E+00  0.00000000E+00  0.00000000E+00
  0.00000000E+00  0.00000000E+00  0.00000000E+00
  0.00000000E+00  0.00000000E+00  0.00000000E+00
  0.00000000E+00  0.00000000E+00  0.00000000E+00
  0.00000000E+00  0.00000000E+00  0.00000000E+00
  0.00000000E+00  0.00000000E+00  0.00000000E+00
  0.00000000E+00  0.00000000E+00  0.00000000E+00
  0.00000000E+00  0.00000000E+00  0.00000000E+00
  0.00000000E+00  0.00000000E+00  0.00000000E+00
  0.00000000E+00  0.00000000E+00  0.00000000E+00
  0.00000000E+00  0.00000000E+00  0.00000000E+00
  0.00000000E+00  0.00000000E+00  0.00000000E+00
  0.00000000E+00  0.00000000E+00  0.00000000E+00
  0.00000000E+00  0.00000000E+00  0.00000000E+00
  0.00000000E+00  0.00000000E+00  0.00000000E+00
  0.00000000E+00  0.00000000E+00  0.00000000E+00
  0.00000000E+00  0.00000000E+00  0.00000000E+00
  0.00000000E+00  0.00000000E+00  0.00000000E+00
  0.00000000E+00  0.00000000E+00  0.00000000E+00
  0.00000000E+00  0.00000000E+00  0.00000000E+00
  0.00000000E+00  0.00000000E+00  0.00000000E+00
  0.00000000E+00  0.00000000E+00  0.00000000E+00
  0.00000000E+00  0.00000000E+00  0.00000000E+00
  0.00000000E+00  0.00000000E+00  0.00000000E+00
  0.00000000E+00  0.00000000E+00  0.00000000E+00
  0.00000000E+00  0.00000000E+00  0.00000000E+00
  0.00000000E+00  0.00000000E+00  0.00000000E+00
  0.00000000E+00  0.00000000E+00  0.00000000E+00
  0.00000000E+00  0.00000000E+00  0.00000000E+00
  0.00000000E+00  0.00000000E+00  0.00000000E+00
  0.00000000E+00  0.00000000E+00  0.00000000E+00
  0.00000000E+00  0.00000000E+00  0.00000000E+00
  0.00000000E+00  0.00000000E+00  0.00000000E+00
  0.00000000E+00  0.00000000E+00  0.00000000E+00
  0.00000000E+00  0.00000000E+00  0.00000000E+00
  0.00000000E+00  0.00000000E+00  0.00000000E+00
