CONTCAR\(8)                             
   1.00000000000000     
    10.2070999146000005    0.0000000000000000    0.0000000000000000
    -1.7011927660999999   18.1179073708000011    0.0000000000000000
     0.0000000000000000    0.0000000000000000   20.2910003661999987
   Ta   Co   Pd   Se   O 
    12     6     3    36     1
Direct
  0.0331467974489273  0.1493206343112472  0.4640715783148579
  0.2984789813591087  0.8450598071729717  0.5350194914939492
  0.0759835838895839  0.4057710110345303  0.4738349179798220
  0.2651723079817542  0.5895190922156547  0.5502848161709631
  0.3660454967777130  0.1488923308343146  0.4642890265233184
  0.6336044784174055  0.8483867815430006  0.5326286319089604
  0.4087781439098663  0.4045621930894531  0.4718496240959535
  0.5973186234863335  0.5896060344962215  0.5270064207925671
  0.6995579515671808  0.1500708445180800  0.4637654496436823
  0.9663756998192988  0.8489572626064864  0.5321521572551472
  0.7423271546068875  0.4064291887816621  0.4717967982001042
  0.9221319908108109  0.5895780539509273  0.5284942943137441
  0.2216573591358596  0.2829870355106598  0.4399914037844377
  0.1067786332133346  0.7126558516130007  0.5657587766913165
  0.5552912178998867  0.2837996373388595  0.4391485974003053
  0.4478627301259319  0.7121652517510179  0.5643148471907068
  0.8887059849548620  0.2849038076890452  0.4393937773490598
  0.7778193544467505  0.7171795691120970  0.5602655048155344
  0.1681983035573873  0.9970997040276404  0.4982998636847705
  0.4984692061809360  0.9976683596422020  0.4982188293434924
  0.8315727834371535 -0.0004230213073996  0.4965870069220183
  0.1935980640981669  0.1156273021313092  0.5572224864230459
  0.1408992745816462  0.8776000863360287  0.4400794420110812
  0.0547889251338648  0.6125952082403991  0.6369389147444798
  0.2368433362213780  0.3955797269690089  0.3794195929492452
  0.2491221831937283  0.4402140356711554  0.5653105973962771
  0.1077354878925570  0.5514383304442865  0.4499202920625526
  0.0473234767775739  0.2381825604116170  0.3684816091620349
  0.2865649604177523  0.7590268067374333  0.6339014809738920
  0.1865935516472454  0.0714435559755603  0.3958577875913174
  0.1460660795513668  0.9248044468129277  0.6015233785465219
  0.0528889568167586  0.2774087349350173  0.5241495488674344
  0.2783539844206708  0.7133356024880808  0.4828865539938300
  0.5277182755528688  0.1161951357936878  0.5569758855279283
  0.4686753505034422  0.8779239633144802  0.4406815998410851
  0.4680844997919001  0.6049183966448035  0.6285463815544365
  0.5714166120987935  0.3966638179348715  0.3783838496399287
  0.5795445661985210  0.4457308511440872  0.5632207764374871
  0.4187590163206679  0.5506736508788638  0.4448060208709471
  0.3803271090163075  0.2374341669375409  0.3685037389367684
  0.6232314510862984  0.7648915959609031  0.6317995519528021
  0.5202733814962365  0.0720269986387192  0.3957878801989542
  0.4786999686553623  0.9248080899541410  0.6012170581002160
  0.3885583610798626  0.2770737933917335  0.5240803601591063
  0.6099613386930265  0.7182885649920639  0.4765796383364499
  0.8602680575815408  0.1170413301513475  0.5566006259421856
  0.8051188860847915  0.8803281319517072  0.4386543376573831
  0.7699630884886653  0.6076868840831000  0.6235849270750735
  0.9074308865989474  0.3980747267077076  0.3792337445402568
  0.9093873526723009  0.4455763082352221  0.5646572716055527
  0.7632293160631227  0.5510072714903178  0.4359954357080864
  0.7146537811758827  0.2386803737929128  0.3679294456005757
  0.9482353761119056  0.7670275649906401  0.6320701466608186
  0.8532440912747813  0.0737973540864618  0.3943789090975908
  0.8128034798043047  0.9277369758010133  0.5995398050942811
  0.7208560818514961  0.2785768852427443  0.5233894167792279
  0.9489834642442814  0.7182137349664549  0.4774239231555450
  0.2148809707750161  0.5705063348299707  0.6420361499308306
 
  0.00000000E+00  0.00000000E+00  0.00000000E+00
  0.00000000E+00  0.00000000E+00  0.00000000E+00
  0.00000000E+00  0.00000000E+00  0.00000000E+00
  0.00000000E+00  0.00000000E+00  0.00000000E+00
  0.00000000E+00  0.00000000E+00  0.00000000E+00
  0.00000000E+00  0.00000000E+00  0.00000000E+00
  0.00000000E+00  0.00000000E+00  0.00000000E+00
  0.00000000E+00  0.00000000E+00  0.00000000E+00
  0.00000000E+00  0.00000000E+00  0.00000000E+00
  0.00000000E+00  0.00000000E+00  0.00000000E+00
  0.00000000E+00  0.00000000E+00  0.00000000E+00
  0.00000000E+00  0.00000000E+00  0.00000000E+00
  0.00000000E+00  0.00000000E+00  0.00000000E+00
  0.00000000E+00  0.00000000E+00  0.00000000E+00
  0.00000000E+00  0.00000000E+00  0.00000000E+00
  0.00000000E+00  0.00000000E+00  0.00000000E+00
  0.00000000E+00  0.00000000E+00  0.00000000E+00
  0.00000000E+00  0.00000000E+00  0.00000000E+00
  0.00000000E+00  0.00000000E+00  0.00000000E+00
  0.00000000E+00  0.00000000E+00  0.00000000E+00
  0.00000000E+00  0.00000000E+00  0.00000000E+00
  0.00000000E+00  0.00000000E+00  0.00000000E+00
  0.00000000E+00  0.00000000E+00  0.00000000E+00
  0.00000000E+00  0.00000000E+00  0.00000000E+00
  0.00000000E+00  0.00000000E+00  0.00000000E+00
  0.00000000E+00  0.00000000E+00  0.00000000E+00
  0.00000000E+00  0.00000000E+00  0.00000000E+00
  0.00000000E+00  0.00000000E+00  0.00000000E+00
  0.00000000E+00  0.00000000E+00  0.00000000E+00
  0.00000000E+00  0.00000000E+00  0.00000000E+00
  0.00000000E+00  0.00000000E+00  0.00000000E+00
  0.00000000E+00  0.00000000E+00  0.00000000E+00
  0.00000000E+00  0.00000000E+00  0.00000000E+00
  0.00000000E+00  0.00000000E+00  0.00000000E+00
  0.00000000E+00  0.00000000E+00  0.00000000E+00
  0.00000000E+00  0.00000000E+00  0.00000000E+00
  0.00000000E+00  0.00000000E+00  0.00000000E+00
  0.00000000E+00  0.00000000E+00  0.00000000E+00
  0.00000000E+00  0.00000000E+00  0.00000000E+00
  0.00000000E+00  0.00000000E+00  0.00000000E+00
  0.00000000E+00  0.00000000E+00  0.00000000E+00
  0.00000000E+00  0.00000000E+00  0.00000000E+00
  0.00000000E+00  0.00000000E+00  0.00000000E+00
  0.00000000E+00  0.00000000E+00  0.00000000E+00
  0.00000000E+00  0.00000000E+00  0.00000000E+00
  0.00000000E+00  0.00000000E+00  0.00000000E+00
  0.00000000E+00  0.00000000E+00  0.00000000E+00
  0.00000000E+00  0.00000000E+00  0.00000000E+00
  0.00000000E+00  0.00000000E+00  0.00000000E+00
  0.00000000E+00  0.00000000E+00  0.00000000E+00
  0.00000000E+00  0.00000000E+00  0.00000000E+00
  0.00000000E+00  0.00000000E+00  0.00000000E+00
  0.00000000E+00  0.00000000E+00  0.00000000E+00
  0.00000000E+00  0.00000000E+00  0.00000000E+00
  0.00000000E+00  0.00000000E+00  0.00000000E+00
  0.00000000E+00  0.00000000E+00  0.00000000E+00
  0.00000000E+00  0.00000000E+00  0.00000000E+00
  0.00000000E+00  0.00000000E+00  0.00000000E+00
