CONTCAR\(4)                             
   1.00000000000000     
    12.3274002075000002    0.0000000000000000    0.0000000000000000
     0.0000000000000000   15.7540998459000008    0.0000000000000000
     0.0000000000000000    0.0000000000000000   20.2700004577999984
   Pr   Br   O    H 
    12    30     2     1
Direct
  0.2501202001866193  0.6373364079127015  0.4839285580589008
  0.0821019788112294  0.3589482329533065  0.4655795339007990
  0.2429308657822805  0.1399476411226801  0.5276133626401871
  0.0639367305474478  0.8701106479244551  0.4719283488941116
  0.5800694798909016  0.6375103357058896  0.4843940046626392
  0.4152774177094806  0.3555759586379595  0.4593808120127863
  0.5885125791318561  0.1401397607268268  0.5272330381580387
  0.4163445324907946  0.9006140026269418  0.5649211091632348
  0.9149904223978851  0.6407226626194993  0.5047587785434171
  0.7481576364484435  0.3589028185370337  0.4653050675430572
  0.9153276951620893  0.1448624211588404  0.5244936043372554
  0.7672315936447932  0.8704216025075475  0.4720585449091313
  0.2813143950097127  0.8232958637136181  0.4398526775298358
  0.0754022316351708  0.1518909660513477  0.6304466128743857
  0.2401979393922389  0.4701002374542251  0.3964174547862399
  0.0922427321313786  0.5198595555117450  0.5534587345602000
  0.0825104373709611  0.0586194539590531  0.4342273339198359
  0.1965968301963137  0.9601555272039485  0.5821920507920684
  0.0913480121719954  0.7371398509933423  0.5768947299208002
  0.2481255507212744  0.2421887733743103  0.3983501997318794
  0.0678011877419206  0.6876583061462369  0.3973096084902162
  0.2533945356981908  0.3229020649981251  0.5677582760802488
  0.5489977845405738  0.8240326636581730  0.4410312498639535
  0.4162069774253365  0.1188376267835821  0.6293223440342885
  0.5904228611855151  0.4701595158762639  0.3963930691299461
  0.4152800090128143  0.5113854719018753  0.5436610372362760
  0.4155531510582012  0.0399161528441519  0.4538189115565954
  0.6358179607005747  0.9612036275199716  0.5817001581047202
  0.4142035051094823  0.7122950476415890  0.5808849617032262
  0.5825260887342519  0.2422422628432836  0.3980066548989727
  0.4157075918302826  0.6433169288636205  0.3804968895950125
  0.5772013513609823  0.3230328000757625  0.5676242568530884
  0.9154929555638152  0.8905968047379238  0.3611000314774435
  0.7555759786744511  0.1519581937429332  0.6305602231044332
  0.9152604327932917  0.4792934568027836  0.4068738860844197
  0.7380513654551807  0.5197672069846239  0.5532764016070101
  0.7489155910694257  0.0587421605961597  0.4336996943329747
  0.9159392817572488  0.9499420681699090  0.5684114482707067
  0.7389934911695434  0.7372767676128509  0.5770760786295696
  0.9152308827341030  0.2504989864591409  0.3969248399290167
  0.7620213481290102  0.6878526312839212  0.3974037179388558
  0.9150266980187541  0.3301303345870997  0.5687848359833103
  0.4238591244498484  0.8963628980881471  0.6681038453160220
  0.4469325761442327  0.9206575120539798  0.7345977921041078
  0.4437782788101786  0.9828754130326350  0.7308950627367750
 
  0.00000000E+00  0.00000000E+00  0.00000000E+00
  0.00000000E+00  0.00000000E+00  0.00000000E+00
  0.00000000E+00  0.00000000E+00  0.00000000E+00
  0.00000000E+00  0.00000000E+00  0.00000000E+00
  0.00000000E+00  0.00000000E+00  0.00000000E+00
  0.00000000E+00  0.00000000E+00  0.00000000E+00
  0.00000000E+00  0.00000000E+00  0.00000000E+00
  0.00000000E+00  0.00000000E+00  0.00000000E+00
  0.00000000E+00  0.00000000E+00  0.00000000E+00
  0.00000000E+00  0.00000000E+00  0.00000000E+00
  0.00000000E+00  0.00000000E+00  0.00000000E+00
  0.00000000E+00  0.00000000E+00  0.00000000E+00
  0.00000000E+00  0.00000000E+00  0.00000000E+00
  0.00000000E+00  0.00000000E+00  0.00000000E+00
  0.00000000E+00  0.00000000E+00  0.00000000E+00
  0.00000000E+00  0.00000000E+00  0.00000000E+00
  0.00000000E+00  0.00000000E+00  0.00000000E+00
  0.00000000E+00  0.00000000E+00  0.00000000E+00
  0.00000000E+00  0.00000000E+00  0.00000000E+00
  0.00000000E+00  0.00000000E+00  0.00000000E+00
  0.00000000E+00  0.00000000E+00  0.00000000E+00
  0.00000000E+00  0.00000000E+00  0.00000000E+00
  0.00000000E+00  0.00000000E+00  0.00000000E+00
  0.00000000E+00  0.00000000E+00  0.00000000E+00
  0.00000000E+00  0.00000000E+00  0.00000000E+00
  0.00000000E+00  0.00000000E+00  0.00000000E+00
  0.00000000E+00  0.00000000E+00  0.00000000E+00
  0.00000000E+00  0.00000000E+00  0.00000000E+00
  0.00000000E+00  0.00000000E+00  0.00000000E+00
  0.00000000E+00  0.00000000E+00  0.00000000E+00
  0.00000000E+00  0.00000000E+00  0.00000000E+00
  0.00000000E+00  0.00000000E+00  0.00000000E+00
  0.00000000E+00  0.00000000E+00  0.00000000E+00
  0.00000000E+00  0.00000000E+00  0.00000000E+00
  0.00000000E+00  0.00000000E+00  0.00000000E+00
  0.00000000E+00  0.00000000E+00  0.00000000E+00
  0.00000000E+00  0.00000000E+00  0.00000000E+00
  0.00000000E+00  0.00000000E+00  0.00000000E+00
  0.00000000E+00  0.00000000E+00  0.00000000E+00
  0.00000000E+00  0.00000000E+00  0.00000000E+00
  0.00000000E+00  0.00000000E+00  0.00000000E+00
  0.00000000E+00  0.00000000E+00  0.00000000E+00
  0.00000000E+00  0.00000000E+00  0.00000000E+00
  0.00000000E+00  0.00000000E+00  0.00000000E+00
  0.00000000E+00  0.00000000E+00  0.00000000E+00
