CONTCAR\(21)                            
   1.00000000000000     
    11.6593999863000004    0.0000000000000000    0.0000000000000000
    -5.8296999931000002   10.0973365810000004    0.0000000000000000
     0.0000000000000000    0.0000000000000000   24.5373001098999985
   Zn   In   S    O 
     9    18    36     1
Direct
  0.1109155150556628  0.2223122796216761  0.3278274553608981
  0.4441147140437537  0.2220817638582781  0.3279999084386441
  0.7776249677392637  0.2222428991787719  0.3270339249284448
  0.1115532430711399  0.5558080680950456  0.3268661711526769
  0.4445040204772240  0.5555589660309607  0.3275814012973862
  0.7777096914468674  0.5557318592992910  0.3264830277878884
  0.1110859496981558  0.8885199250070960  0.3255335874707556
  0.4448477024598702  0.8887355522248165  0.3258213907728639
  0.7781552908443899  0.8889525393342460  0.3258168325571340
  0.0020458046560215 -0.0001755041255707  0.4837687033237712
  0.1908007197825022  0.1083509326300943  0.6464130703288306
  0.3329460102592197 -0.0028397468116484  0.4839736122639854
  0.5554082347257071  0.1146771904197271  0.6495227406579795
  0.6681511181686735  0.0008932163883905  0.4845963762424467
  0.8771250959035856  0.1129118684078788  0.6482375040517592
 -0.0019063862670903  0.3336456950763393  0.4863873509141362
  0.2203255598375168  0.4468683049591380  0.6516250497952416
  0.3308799575839226  0.3335058027149654  0.4871137501236436
  0.5546690485353096  0.4517423054369833  0.6513121962531905
  0.6643148850185183  0.3330954677414026  0.4873190793333027
  0.8871638412724793  0.4490190803612289  0.6510069044694399
 -0.0015172239013053  0.6655985776055711  0.4861749238063823
  0.2237152984188086  0.7844674827912774  0.6492882259103666
  0.3335690597897169  0.6656401032720435  0.4863013701114696
  0.5527692895020062  0.7784397597542779  0.6493017435425962
  0.6675098925041162  0.6675211146505267  0.4862877301091052
  0.8895433454838797  0.7822258528942799  0.6499371768527628
  0.2221448895488757  0.1113308234208746  0.3110362790307591
  0.2192253702263176  0.1093424806015684  0.5494782688609341
  0.1099873961974772  0.2241168519772299  0.4355697920368640
  0.0939418272189422  0.2242272437846515  0.6975398809592792
  0.5553140650241887  0.1113576329842424  0.3109315898726500
  0.5537050489578914  0.1100595857142006  0.5513220541266226
  0.4424902704463552  0.2223386609220565  0.4365455725099821
  0.4844525177390795  0.2329649289406315  0.7130255816341050
  0.8889396181698165  0.1114682589628401  0.3106413523859407
  0.8876358793371442  0.1107511623142062  0.5503179642357763
  0.7765096550941156  0.2241622519753181  0.4358452315461150
  0.7771893915787843  0.2268844269277188  0.6978021217471997
  0.2224482166574767  0.4444928729535425  0.3110317442421514
  0.2209581241789880  0.4442204146199915  0.5527981771141465
  0.1111377168095668  0.5556080944255049  0.4362933999114856
  0.1108992731918700  0.5625448053127546  0.6964199544957433
  0.5552603592515631  0.4441039055966380  0.3111443635170716
  0.5544693762311841  0.4437021106881302  0.5527422532509930
  0.4445427988260718  0.5547458173207709  0.4362654713452235
  0.4426494970158735  0.5611885027747014  0.6985349305615371
  0.8891287788533236  0.4446591630860316  0.3111242588908218
  0.8873694746437041  0.4446055731362857  0.5523977641587983
  0.7765107264618939  0.5547821962644408  0.4361998754070081
  0.7803282802844732  0.5641321683113758  0.6976493661676040
  0.2225941848012815  0.7775472269513800  0.3099362127979647
  0.2216980315096402  0.7785274815656273  0.5509256246398310
  0.1104745932638606  0.8861214580642359  0.4343668407826621
  0.1136875355003599  0.8966272008721825  0.6969093488145667
  0.5557321329141800  0.7773001760798106  0.3102325103271178
  0.5558211187457323  0.7782772851784272  0.5509411025060906
  0.4452649048980030  0.8872322405750342  0.4351230288489598
  0.4446890207853227  0.8906580975670243  0.6958855520875001
  0.8888418063043312  0.7775166344736759  0.3095345368137427
  0.8901745191726945  0.7798571366598476  0.5514151813193853
  0.7783156614430108  0.8884604130057127  0.4350517576413588
  0.7756164746701005  0.8919938210862949  0.6955658868383146
  0.3751574249366023  0.2601303870879277  0.6767438147166924
 
  0.00000000E+00  0.00000000E+00  0.00000000E+00
  0.00000000E+00  0.00000000E+00  0.00000000E+00
  0.00000000E+00  0.00000000E+00  0.00000000E+00
  0.00000000E+00  0.00000000E+00  0.00000000E+00
  0.00000000E+00  0.00000000E+00  0.00000000E+00
  0.00000000E+00  0.00000000E+00  0.00000000E+00
  0.00000000E+00  0.00000000E+00  0.00000000E+00
  0.00000000E+00  0.00000000E+00  0.00000000E+00
  0.00000000E+00  0.00000000E+00  0.00000000E+00
  0.00000000E+00  0.00000000E+00  0.00000000E+00
  0.00000000E+00  0.00000000E+00  0.00000000E+00
  0.00000000E+00  0.00000000E+00  0.00000000E+00
  0.00000000E+00  0.00000000E+00  0.00000000E+00
  0.00000000E+00  0.00000000E+00  0.00000000E+00
  0.00000000E+00  0.00000000E+00  0.00000000E+00
  0.00000000E+00  0.00000000E+00  0.00000000E+00
  0.00000000E+00  0.00000000E+00  0.00000000E+00
  0.00000000E+00  0.00000000E+00  0.00000000E+00
  0.00000000E+00  0.00000000E+00  0.00000000E+00
  0.00000000E+00  0.00000000E+00  0.00000000E+00
  0.00000000E+00  0.00000000E+00  0.00000000E+00
  0.00000000E+00  0.00000000E+00  0.00000000E+00
  0.00000000E+00  0.00000000E+00  0.00000000E+00
  0.00000000E+00  0.00000000E+00  0.00000000E+00
  0.00000000E+00  0.00000000E+00  0.00000000E+00
  0.00000000E+00  0.00000000E+00  0.00000000E+00
  0.00000000E+00  0.00000000E+00  0.00000000E+00
  0.00000000E+00  0.00000000E+00  0.00000000E+00
  0.00000000E+00  0.00000000E+00  0.00000000E+00
  0.00000000E+00  0.00000000E+00  0.00000000E+00
  0.00000000E+00  0.00000000E+00  0.00000000E+00
  0.00000000E+00  0.00000000E+00  0.00000000E+00
  0.00000000E+00  0.00000000E+00  0.00000000E+00
  0.00000000E+00  0.00000000E+00  0.00000000E+00
  0.00000000E+00  0.00000000E+00  0.00000000E+00
  0.00000000E+00  0.00000000E+00  0.00000000E+00
  0.00000000E+00  0.00000000E+00  0.00000000E+00
  0.00000000E+00  0.00000000E+00  0.00000000E+00
  0.00000000E+00  0.00000000E+00  0.00000000E+00
  0.00000000E+00  0.00000000E+00  0.00000000E+00
  0.00000000E+00  0.00000000E+00  0.00000000E+00
  0.00000000E+00  0.00000000E+00  0.00000000E+00
  0.00000000E+00  0.00000000E+00  0.00000000E+00
  0.00000000E+00  0.00000000E+00  0.00000000E+00
  0.00000000E+00  0.00000000E+00  0.00000000E+00
  0.00000000E+00  0.00000000E+00  0.00000000E+00
  0.00000000E+00  0.00000000E+00  0.00000000E+00
  0.00000000E+00  0.00000000E+00  0.00000000E+00
  0.00000000E+00  0.00000000E+00  0.00000000E+00
  0.00000000E+00  0.00000000E+00  0.00000000E+00
  0.00000000E+00  0.00000000E+00  0.00000000E+00
  0.00000000E+00  0.00000000E+00  0.00000000E+00
  0.00000000E+00  0.00000000E+00  0.00000000E+00
  0.00000000E+00  0.00000000E+00  0.00000000E+00
  0.00000000E+00  0.00000000E+00  0.00000000E+00
  0.00000000E+00  0.00000000E+00  0.00000000E+00
  0.00000000E+00  0.00000000E+00  0.00000000E+00
  0.00000000E+00  0.00000000E+00  0.00000000E+00
  0.00000000E+00  0.00000000E+00  0.00000000E+00
  0.00000000E+00  0.00000000E+00  0.00000000E+00
  0.00000000E+00  0.00000000E+00  0.00000000E+00
  0.00000000E+00  0.00000000E+00  0.00000000E+00
  0.00000000E+00  0.00000000E+00  0.00000000E+00
  0.00000000E+00  0.00000000E+00  0.00000000E+00
