CONTCAR\(5)                             
   1.00000000000000     
    13.7474002837999993    0.0000000000000000    0.0000000000000000
     6.8496988029999999   13.0331533396000001    0.0000000000000000
     0.0000000000000000    0.0000000000000000   18.5631008147999985
   Li   Cu   C    O    H 
     9    18    18    56     1
Direct
  0.2335518075835878  0.0331066409278549  0.5133984227967119
  0.5375857375720869  0.0900514663996432  0.4753748726596356
  0.8661246789095642  0.0758930141773320  0.4653295206780754
  0.2558921240605585  0.3590997322502503  0.5562197470562680
  0.5441181192691076  0.3633730119833984  0.5329698047675180
  0.8792348352359909  0.4150838052819310  0.4410506292477905
  0.2062913191743334  0.7492229153547854  0.4637519665918219
  0.5703525755073784  0.7043390720919760  0.5001874417759851
  0.9144733755587353  0.6969800414375769  0.5220421040749557
  0.0886662315676361  0.2734516873640587  0.5622565176287608
  0.2775912962329627  0.1966802500351861  0.4112174916811284
  0.4711461573721394  0.2353502424481064  0.6424964396021267
  0.6328626925055616  0.2157746483915943  0.3992648397079179
  0.8031117490216602  0.2651691516418637  0.5657695572001415
  0.0177570886325711  0.1650822193549644  0.3993465558195979
  0.1481818989236316  0.5953775282345504  0.6058377337555712
  0.3303056877825554  0.5013513315034857  0.4333785334938725
  0.4227133087758901  0.6072696839300562  0.5698964365160748
  0.6248346567890053  0.5107767191643759  0.3921276284289732
  0.7889028067275348  0.5787712765178554  0.5591345316511465
  0.9957277605869521  0.5254070078338842  0.3674541076661342
  0.1070023114608958  0.9114941381582398  0.5785744404708524
  0.3366601414816230  0.8388069295325380  0.3837428239700813
  0.4685482427528882  0.9292980765461749  0.5897006639844307
  0.6343917340122047  0.8520076672953607  0.4091455881650035
  0.7976092563996175  0.9290942198943597  0.5768807370335622
  0.9459507414760608  0.8537357546272375  0.4138769360190224
  0.3224082913123141  0.1486871595434707  0.5989027014937562
  0.0917305005299269  0.3215548162402442  0.3768737038955123
  0.6677009470632669  0.1511416600212456  0.5558796262326453
  0.4041212082565053  0.3016688463620198  0.4453480156986274
  0.0016635359295378  0.1289758861311938  0.5657314321293470
  0.7777289379914691  0.2865560351912606  0.4017449573640306
  0.3459215073277733  0.4606676051237883  0.6158969682377844
  0.0977163247288075  0.6377939529101084  0.4240876985962814
  0.6571959180989850  0.4880156461151017  0.5607393555561160
  0.4185177471406192  0.6367211222441469  0.3904470434621032
  0.0234224230886753  0.4809766010403109  0.5477924651216384
  0.7563527099998169  0.6266898482911785  0.3991604631283394
  0.3418612621863275  0.8148745901492305  0.5488675210448832
  0.0932405678714545  0.9545745758745241  0.4110101782126563
  0.6812307578589767  0.8050282064607330  0.5679069434806152
  0.4216696584770361  0.9779051998328896  0.4171262500031006
  0.9951778248271452  0.8099116780767659  0.6031243553012899
  0.7417416397859853  0.9866844819228362  0.3994243021613784
  0.2398402999212692  0.1467495286958709  0.5671116914298580
  0.3291160491854512  0.2322673548798591  0.6053542838262231
  0.0968144391939205  0.0506327083781883  0.5646075270032753
  0.0045092415136381  0.0421353881429098  0.4124468454215915
  0.1112903276611519  0.2274297479011054  0.3936373437884981
  0.1771119769607665  0.3350865056161680  0.3723110682052564
  0.5735434568462381  0.1516247309360992  0.5628734166074523
  0.6719196953635844  0.2377102734534233  0.5593212428597170
  0.4013387276813631  0.0642869043397454  0.6262477714537198
  0.3245702631113687  0.0521731255092632  0.4287385601277265
  0.4083578115430839  0.2129180776219997  0.4379225205298738
  0.4907244416923362  0.3142806700048553  0.4336359585131291
  0.9121337845445510  0.1211230972765875  0.5603975253050564
  0.9871061369922245  0.2229764794628082  0.5719199893373741
  0.7549978539814362  0.0663224666067990  0.5423456391926536
  0.6496519170205914  0.0695062263370119  0.3993165744379326
  0.7817214133278867  0.1967896339232595  0.3989804436609603
  0.8667681602504729  0.2939774175308898  0.4106315084588417
  0.2562939294763211  0.4542299537300138  0.6281300914802515
  0.3312040646249201  0.5541296303447112  0.6054982944835317
  0.1094080877323549  0.3927173710577563  0.5543066580945890
  0.9933277702725363  0.3941761914154895  0.3688182911878002
  0.1017323298535899  0.5722514341827107  0.3775866667307497
  0.1876339441171382  0.6280940341417462  0.4537894865449346
  0.5687298141494921  0.4787439275687930  0.5547499424738405
  0.6492899294550227  0.5794429031676174  0.5632149859650113
  0.4397880127891440  0.3811142357721238  0.6111285577105647
  0.3152849756197469  0.3813431642459548  0.4658986800296390
  0.4341089018705233  0.5435706656798445  0.3991652373795489
  0.5049325484968534  0.6498728109652703  0.3830830956706421
  0.9319855352881774  0.4815015070944639  0.5279640539443946
  0.0271319232093248  0.5654372214861993  0.5591813482955317
  0.7539332021669125  0.4094548634056920  0.5637616598088186
  0.6814790701744258  0.3659342221484820  0.3966014088848908
  0.7555535049792610  0.5380453305661561  0.4025232157913052
  0.8439141600092768  0.6323606036202705  0.3824532042684439
  0.2503146996631784  0.8089193268287929  0.5481099186660643
  0.3419832410004346  0.9019540264878572  0.5538239629717481
  0.0951139724553300  0.7406971055893763  0.6086295988376449
  0.0037292147913490  0.7147377747590866  0.4439091138878908
  0.0861024411007421  0.8701343996419411  0.4195845454665772
  0.1868419728807922  0.9540714573071511  0.4032553725201424
  0.5891576799770704  0.7994765248640547  0.5686047242130954
  0.6748432655427976  0.8949594001460852  0.5764764658013917
  0.4325951922429070  0.7296522137713737  0.5436023968845447
  0.3216910226532192  0.7147775086068364  0.3900784361362426
  0.4370162528943666  0.8929676444716037  0.3873327751575530
  0.5091227608185278  0.9841609707493078  0.4362737492263946
  0.9128914978492020  0.7901924161564722  0.6002317713129912
  0.9709877161320151  0.9067348549637444  0.5975268960883326
  0.7717209975863284  0.7222310825026526  0.5574267701678082
  0.6673226144441671  0.7095546823121595  0.4157348807985528
  0.7501880745578404  0.8950192356303290  0.4051276328039890
  0.8346351714636384  0.9900409194520137  0.3957665905969137
  0.4632071124774555  0.1088586137365866  0.7529929310483539
  0.4947292986266660  0.1830970838610426  0.7358427116603750
  0.4416883209183240  0.0894667880416691  0.7050437632863762
 
  0.00000000E+00  0.00000000E+00  0.00000000E+00
  0.00000000E+00  0.00000000E+00  0.00000000E+00
  0.00000000E+00  0.00000000E+00  0.00000000E+00
  0.00000000E+00  0.00000000E+00  0.00000000E+00
  0.00000000E+00  0.00000000E+00  0.00000000E+00
  0.00000000E+00  0.00000000E+00  0.00000000E+00
  0.00000000E+00  0.00000000E+00  0.00000000E+00
  0.00000000E+00  0.00000000E+00  0.00000000E+00
  0.00000000E+00  0.00000000E+00  0.00000000E+00
  0.00000000E+00  0.00000000E+00  0.00000000E+00
  0.00000000E+00  0.00000000E+00  0.00000000E+00
  0.00000000E+00  0.00000000E+00  0.00000000E+00
  0.00000000E+00  0.00000000E+00  0.00000000E+00
  0.00000000E+00  0.00000000E+00  0.00000000E+00
  0.00000000E+00  0.00000000E+00  0.00000000E+00
  0.00000000E+00  0.00000000E+00  0.00000000E+00
  0.00000000E+00  0.00000000E+00  0.00000000E+00
  0.00000000E+00  0.00000000E+00  0.00000000E+00
  0.00000000E+00  0.00000000E+00  0.00000000E+00
  0.00000000E+00  0.00000000E+00  0.00000000E+00
  0.00000000E+00  0.00000000E+00  0.00000000E+00
  0.00000000E+00  0.00000000E+00  0.00000000E+00
  0.00000000E+00  0.00000000E+00  0.00000000E+00
  0.00000000E+00  0.00000000E+00  0.00000000E+00
  0.00000000E+00  0.00000000E+00  0.00000000E+00
  0.00000000E+00  0.00000000E+00  0.00000000E+00
  0.00000000E+00  0.00000000E+00  0.00000000E+00
  0.00000000E+00  0.00000000E+00  0.00000000E+00
  0.00000000E+00  0.00000000E+00  0.00000000E+00
  0.00000000E+00  0.00000000E+00  0.00000000E+00
  0.00000000E+00  0.00000000E+00  0.00000000E+00
  0.00000000E+00  0.00000000E+00  0.00000000E+00
  0.00000000E+00  0.00000000E+00  0.00000000E+00
  0.00000000E+00  0.00000000E+00  0.00000000E+00
  0.00000000E+00  0.00000000E+00  0.00000000E+00
  0.00000000E+00  0.00000000E+00  0.00000000E+00
  0.00000000E+00  0.00000000E+00  0.00000000E+00
  0.00000000E+00  0.00000000E+00  0.00000000E+00
  0.00000000E+00  0.00000000E+00  0.00000000E+00
  0.00000000E+00  0.00000000E+00  0.00000000E+00
  0.00000000E+00  0.00000000E+00  0.00000000E+00
  0.00000000E+00  0.00000000E+00  0.00000000E+00
  0.00000000E+00  0.00000000E+00  0.00000000E+00
  0.00000000E+00  0.00000000E+00  0.00000000E+00
  0.00000000E+00  0.00000000E+00  0.00000000E+00
  0.00000000E+00  0.00000000E+00  0.00000000E+00
  0.00000000E+00  0.00000000E+00  0.00000000E+00
  0.00000000E+00  0.00000000E+00  0.00000000E+00
  0.00000000E+00  0.00000000E+00  0.00000000E+00
  0.00000000E+00  0.00000000E+00  0.00000000E+00
  0.00000000E+00  0.00000000E+00  0.00000000E+00
  0.00000000E+00  0.00000000E+00  0.00000000E+00
  0.00000000E+00  0.00000000E+00  0.00000000E+00
  0.00000000E+00  0.00000000E+00  0.00000000E+00
  0.00000000E+00  0.00000000E+00  0.00000000E+00
  0.00000000E+00  0.00000000E+00  0.00000000E+00
  0.00000000E+00  0.00000000E+00  0.00000000E+00
  0.00000000E+00  0.00000000E+00  0.00000000E+00
  0.00000000E+00  0.00000000E+00  0.00000000E+00
  0.00000000E+00  0.00000000E+00  0.00000000E+00
  0.00000000E+00  0.00000000E+00  0.00000000E+00
  0.00000000E+00  0.00000000E+00  0.00000000E+00
  0.00000000E+00  0.00000000E+00  0.00000000E+00
  0.00000000E+00  0.00000000E+00  0.00000000E+00
  0.00000000E+00  0.00000000E+00  0.00000000E+00
  0.00000000E+00  0.00000000E+00  0.00000000E+00
  0.00000000E+00  0.00000000E+00  0.00000000E+00
  0.00000000E+00  0.00000000E+00  0.00000000E+00
  0.00000000E+00  0.00000000E+00  0.00000000E+00
  0.00000000E+00  0.00000000E+00  0.00000000E+00
  0.00000000E+00  0.00000000E+00  0.00000000E+00
  0.00000000E+00  0.00000000E+00  0.00000000E+00
  0.00000000E+00  0.00000000E+00  0.00000000E+00
  0.00000000E+00  0.00000000E+00  0.00000000E+00
  0.00000000E+00  0.00000000E+00  0.00000000E+00
  0.00000000E+00  0.00000000E+00  0.00000000E+00
  0.00000000E+00  0.00000000E+00  0.00000000E+00
  0.00000000E+00  0.00000000E+00  0.00000000E+00
  0.00000000E+00  0.00000000E+00  0.00000000E+00
  0.00000000E+00  0.00000000E+00  0.00000000E+00
  0.00000000E+00  0.00000000E+00  0.00000000E+00
  0.00000000E+00  0.00000000E+00  0.00000000E+00
  0.00000000E+00  0.00000000E+00  0.00000000E+00
  0.00000000E+00  0.00000000E+00  0.00000000E+00
  0.00000000E+00  0.00000000E+00  0.00000000E+00
  0.00000000E+00  0.00000000E+00  0.00000000E+00
  0.00000000E+00  0.00000000E+00  0.00000000E+00
  0.00000000E+00  0.00000000E+00  0.00000000E+00
  0.00000000E+00  0.00000000E+00  0.00000000E+00
  0.00000000E+00  0.00000000E+00  0.00000000E+00
  0.00000000E+00  0.00000000E+00  0.00000000E+00
  0.00000000E+00  0.00000000E+00  0.00000000E+00
  0.00000000E+00  0.00000000E+00  0.00000000E+00
  0.00000000E+00  0.00000000E+00  0.00000000E+00
  0.00000000E+00  0.00000000E+00  0.00000000E+00
  0.00000000E+00  0.00000000E+00  0.00000000E+00
  0.00000000E+00  0.00000000E+00  0.00000000E+00
  0.00000000E+00  0.00000000E+00  0.00000000E+00
  0.00000000E+00  0.00000000E+00  0.00000000E+00
  0.00000000E+00  0.00000000E+00  0.00000000E+00
  0.00000000E+00  0.00000000E+00  0.00000000E+00
  0.00000000E+00  0.00000000E+00  0.00000000E+00
