CONTCAR\(2)                             
   1.00000000000000     
    13.1708002089999994    0.0000000000000000    0.0000000000000000
     0.0000000000000000   13.1618003844999993    0.0000000000000000
     0.0000000000000000    0.0000000000000000   24.0960006713999988
   Ce   Te   O 
    18    54     1
Direct
  0.3070478711735959  0.1668387869915386  0.4130526998020158
  0.1403528768792539  0.0024931873689868  0.5865861715234054
  0.6401716566675559  0.1664691838911261  0.4131468897763151
  0.4736729616818236 -0.0000983269961025  0.5878087440011752
  0.9736497161105770  0.1668613539046364  0.4127125961675236
  0.8066945597314573  0.9997360698272798  0.5868075292473974
  0.3071578499669108  0.5003424336587857  0.4145865980917757
  0.1420647200321088  0.3346171214500009  0.5878588135278506
  0.6400584980303318  0.5002248579566950  0.4139211946414802
  0.4739544569468133  0.3324013850103604  0.5885344818532425
  0.9734006737547093  0.5001568368288233  0.4133554439643131
  0.8093007298702093  0.3332038009410491  0.5867110138578270
  0.3070564957484095  0.8329769813259869  0.4138463566031725
  0.1392248847636973  0.6664559562789832  0.5884940717214424
  0.6400677370760161  0.8332731203052415  0.4133099873851995
  0.4755234404783615  0.6682969597551672  0.5903654707845029
  0.9732324559225505  0.8331567384018747  0.4130666417271497
  0.8067738186246673  0.6665017397453968  0.5877504824887728
  0.3067340240582405  0.9996450984759837  0.3108597594978283
  0.1404642165010578  0.1669680570621954  0.3103329262327546
  0.1403754001549270  0.9999395512747689  0.4509960447904957
  0.1436332126847341  0.1694144718270055  0.6902280504987494
  0.3073445297997738  0.0024600044947481  0.6902168859993862
  0.3076411499365018  0.1671083199674682  0.5488572883214572
  0.6399164031911628  0.9998482679102536  0.3101305558945227
  0.4737234402423385  0.1666145616712938  0.3106636390636320
  0.4734144166314263  0.9998652641264573  0.4517806741277507
  0.4725406773158498  0.1643645719268659  0.6908279451891889
  0.6396560652200802  0.9987178021498649  0.6903845716452333
  0.6406047242066703  0.1661679049115374  0.5490747831379336
  0.9733705124497302  0.9999394459805369  0.3102642830587732
  0.8065901419076978  0.1664839493388116  0.3104391786429691
  0.8071013944208577  0.0000150537876952  0.4512330983428698
  0.8131972449658874  0.1650278883226444  0.6890303997732988
  0.9723871634786631  0.0063957322146857  0.6890929083849638
  0.9749193036918374  0.1676496675657405  0.5485945656618517
  0.3067904774987271  0.3340744386810162  0.3111549957481176
  0.1404026854181579  0.5001221342221108  0.3114997284616495
  0.1406258555433528  0.3336155168399970  0.4518306338697586
  0.1384903829040096  0.5013960813728141  0.6909749489416640
  0.3090069727972684  0.3308905102504247  0.6912402775656945
  0.3089102194565333  0.5021712727239678  0.5521795020856922
  0.6398976655423838  0.3335582991401827  0.3109893140945583
  0.4732217449550368  0.5001778165541119  0.3116095512923418
  0.4737992877298421  0.3334840720419006  0.4523569255821442
  0.4883951144148724  0.4926398854618804  0.6969620063032070
  0.6453275603135672  0.3261774598937914  0.6876045131158868
  0.6400308730551975  0.5000361227121451  0.5506281341005935
  0.9736598685021870  0.3336394567243012  0.3106192624653500
  0.8064749497158603  0.4999587530260414  0.3110661753685631
  0.8067957180925278  0.3334235631619729  0.4514377534836915
  0.8100680809275104  0.5002080372584732  0.6902951263400390
  0.9765715121619616  0.3364564150544135  0.6898936424878894
  0.9742373962391070  0.5006261259960998  0.5490705372213031
  0.3066750974003584  0.6662081042584811  0.3115681893776459
  0.1402122350672771  0.8330014284242980  0.3109184149831687
  0.1400023624693879  0.6667885297924631  0.4524939741826010
  0.1331141356164210  0.8376504851350052  0.6870508673153704
  0.2993680732998275  0.6811369243280894  0.6965450856867559
  0.3068245367291315  0.8324674154035356  0.5505805336791489
  0.6398913329708158  0.6665937438226784  0.3110695778378942
  0.4732148443127384  0.8330843749327986  0.3110093849873425
  0.4738626895319967  0.6666885318130943  0.4532527028308205
  0.4758116195097292  0.8369150593342012  0.6932075349727397
  0.6436297430532354  0.6690848578916867  0.6930897619723618
  0.6398288190407462  0.8329446769742397  0.5495557281654133
  0.9737207759858553  0.6664304319583216  0.3107467845923449
  0.8064611793891957  0.8335666723832389  0.3105383110595324
  0.8066408112333158  0.6665722719477901  0.4518294966162861
  0.8055326318222354  0.8327992455124137  0.6900605735231174
  0.9713294801219343  0.6654629404337852  0.6905982714811648
  0.9732531490967782  0.8333686868294861  0.5490935968604520
  0.3704101507644122  0.5635456090544315  0.7348253849194604
 
  0.00000000E+00  0.00000000E+00  0.00000000E+00
  0.00000000E+00  0.00000000E+00  0.00000000E+00
  0.00000000E+00  0.00000000E+00  0.00000000E+00
  0.00000000E+00  0.00000000E+00  0.00000000E+00
  0.00000000E+00  0.00000000E+00  0.00000000E+00
  0.00000000E+00  0.00000000E+00  0.00000000E+00
  0.00000000E+00  0.00000000E+00  0.00000000E+00
  0.00000000E+00  0.00000000E+00  0.00000000E+00
  0.00000000E+00  0.00000000E+00  0.00000000E+00
  0.00000000E+00  0.00000000E+00  0.00000000E+00
  0.00000000E+00  0.00000000E+00  0.00000000E+00
  0.00000000E+00  0.00000000E+00  0.00000000E+00
  0.00000000E+00  0.00000000E+00  0.00000000E+00
  0.00000000E+00  0.00000000E+00  0.00000000E+00
  0.00000000E+00  0.00000000E+00  0.00000000E+00
  0.00000000E+00  0.00000000E+00  0.00000000E+00
  0.00000000E+00  0.00000000E+00  0.00000000E+00
  0.00000000E+00  0.00000000E+00  0.00000000E+00
  0.00000000E+00  0.00000000E+00  0.00000000E+00
  0.00000000E+00  0.00000000E+00  0.00000000E+00
  0.00000000E+00  0.00000000E+00  0.00000000E+00
  0.00000000E+00  0.00000000E+00  0.00000000E+00
  0.00000000E+00  0.00000000E+00  0.00000000E+00
  0.00000000E+00  0.00000000E+00  0.00000000E+00
  0.00000000E+00  0.00000000E+00  0.00000000E+00
  0.00000000E+00  0.00000000E+00  0.00000000E+00
  0.00000000E+00  0.00000000E+00  0.00000000E+00
  0.00000000E+00  0.00000000E+00  0.00000000E+00
  0.00000000E+00  0.00000000E+00  0.00000000E+00
  0.00000000E+00  0.00000000E+00  0.00000000E+00
  0.00000000E+00  0.00000000E+00  0.00000000E+00
  0.00000000E+00  0.00000000E+00  0.00000000E+00
  0.00000000E+00  0.00000000E+00  0.00000000E+00
  0.00000000E+00  0.00000000E+00  0.00000000E+00
  0.00000000E+00  0.00000000E+00  0.00000000E+00
  0.00000000E+00  0.00000000E+00  0.00000000E+00
  0.00000000E+00  0.00000000E+00  0.00000000E+00
  0.00000000E+00  0.00000000E+00  0.00000000E+00
  0.00000000E+00  0.00000000E+00  0.00000000E+00
  0.00000000E+00  0.00000000E+00  0.00000000E+00
  0.00000000E+00  0.00000000E+00  0.00000000E+00
  0.00000000E+00  0.00000000E+00  0.00000000E+00
  0.00000000E+00  0.00000000E+00  0.00000000E+00
  0.00000000E+00  0.00000000E+00  0.00000000E+00
  0.00000000E+00  0.00000000E+00  0.00000000E+00
  0.00000000E+00  0.00000000E+00  0.00000000E+00
  0.00000000E+00  0.00000000E+00  0.00000000E+00
  0.00000000E+00  0.00000000E+00  0.00000000E+00
  0.00000000E+00  0.00000000E+00  0.00000000E+00
  0.00000000E+00  0.00000000E+00  0.00000000E+00
  0.00000000E+00  0.00000000E+00  0.00000000E+00
  0.00000000E+00  0.00000000E+00  0.00000000E+00
  0.00000000E+00  0.00000000E+00  0.00000000E+00
  0.00000000E+00  0.00000000E+00  0.00000000E+00
  0.00000000E+00  0.00000000E+00  0.00000000E+00
  0.00000000E+00  0.00000000E+00  0.00000000E+00
  0.00000000E+00  0.00000000E+00  0.00000000E+00
  0.00000000E+00  0.00000000E+00  0.00000000E+00
  0.00000000E+00  0.00000000E+00  0.00000000E+00
  0.00000000E+00  0.00000000E+00  0.00000000E+00
  0.00000000E+00  0.00000000E+00  0.00000000E+00
  0.00000000E+00  0.00000000E+00  0.00000000E+00
  0.00000000E+00  0.00000000E+00  0.00000000E+00
  0.00000000E+00  0.00000000E+00  0.00000000E+00
  0.00000000E+00  0.00000000E+00  0.00000000E+00
  0.00000000E+00  0.00000000E+00  0.00000000E+00
  0.00000000E+00  0.00000000E+00  0.00000000E+00
  0.00000000E+00  0.00000000E+00  0.00000000E+00
  0.00000000E+00  0.00000000E+00  0.00000000E+00
  0.00000000E+00  0.00000000E+00  0.00000000E+00
  0.00000000E+00  0.00000000E+00  0.00000000E+00
  0.00000000E+00  0.00000000E+00  0.00000000E+00
  0.00000000E+00  0.00000000E+00  0.00000000E+00
