 Nd1 I2                                 
   1.00000000000000     
     3.8573863845908019    0.0000000000000000    0.0000000000000000
     0.0000000000000000    3.8573858237184186    0.0000000000000000
     0.0000000000000000    0.0000000000000000   18.7881401467519993
   Nd   I 
     1     2
Direct
  0.0000000132490499  0.9999999783040394  0.4999999999398170
  0.5000000114279786  0.5000000143778891  0.3992633830112382
  0.4999999753229716  0.5000000073180644  0.6007366170489519
 
  0.00000000E+00  0.00000000E+00  0.00000000E+00
  0.00000000E+00  0.00000000E+00  0.00000000E+00
  0.00000000E+00  0.00000000E+00  0.00000000E+00
