CONTCAR\(5)                             
   1.00000000000000     
    12.4510002136000004    0.0000000000000000    0.0000000000000000
     6.2255001068000002   10.7828824875000002    0.0000000000000000
     0.0000000000000000    0.0000000000000000   35.7985992432000018
   Ge   Te   As   O    H 
    36    63    18     2     1
Direct
  0.0052664420637001  0.9986720377942575  0.6492001400472915
  0.2281974945265333  0.2180854454622505  0.4512423786027924
  0.1171141177145003  0.1065360907277224  0.5498955790376812
  0.0055536840545827  0.9955553438861031  0.3528176436788897
  0.3332269778708152  0.9992160119665385  0.6497222873340789
  0.5611477716291517  0.2173284001566032  0.4518890167032978
  0.4495369680662833  0.1063014201096379  0.5500862337134720
  0.3394826906150215  0.9951084961573642  0.3526127160825610
  0.6704054690676173  0.9973350937683847  0.6487530025528585
  0.8945971258243048  0.2178611373520880  0.4514816594306552
  0.7839143051402218  0.1054368899034941  0.5501086260906689
  0.6726202794394354  0.9952764946543908  0.3528399694196906
  0.0059714685924988  0.3254653133874257  0.6493097846797014
  0.2265068468894569  0.5518235045751041  0.4520568233025486
  0.1153931346270625  0.4409477424086887  0.5501434171556596
  0.0054255794566203  0.3293656542790089  0.3527954342094475
  0.3389386874782616  0.3301956822591805  0.6486073050687864
  0.5610275761978230  0.5514196813143641  0.4518925390605588
  0.4493849340340574  0.4404871296133521  0.5494309338418546
  0.3394298502499566  0.3289594584785576  0.3531181107809260
  0.6709285167981349  0.3302325090390994  0.6483603215178277
  0.8942976008432311  0.5517275708680742  0.4519213154138555
  0.7838508578927090  0.4406721325345018  0.5499743143295532
  0.6718989157808011  0.3289309809897247  0.3531587882057678
  0.0060474439063469  0.6615644131906606  0.6492238795011502
  0.2281950756662710  0.8843008802554166  0.4512983637529686
  0.1151999982902723  0.7746987390010460  0.5501535473476764
  0.0059087331053931  0.6621232962700816  0.3528422049463771
  0.3394924193531139  0.6617587147053428  0.6485812084629003
  0.5621184987704595  0.8841733255155688  0.4517634973419575
  0.4489885647916338  0.7753665981347737  0.5500471572550083
  0.3395293722981947  0.6615210947872185  0.3531071425758014
  0.6704155203242408  0.6628854644373092  0.6486109942873028
  0.8943258037194255  0.8841108931877883  0.4518267462105925
  0.7811275560465560  0.7743358066836734  0.5513533511640460
  0.6729575112152375  0.6614933906162292  0.3528150086032014
  0.9941788734440209  0.9992125387828423  0.7913194920636073
  0.1039787514927895  0.1115682923411114  0.6940207344755223
  0.2157888676064061  0.2220112634445996  0.3046335279461090
  0.9945790179923861  0.9992856923159295  0.2098804296815615
  0.9919708922474513  0.0001526975294013  0.5003825489469591
  0.1028561909669108  0.1111162590346950  0.4024386125278525
  0.2143154408168328  0.2225846569674985  0.5983464824469351
  0.3262777266203329  0.0006702505604821  0.7913361467222089
  0.4371608047200652  0.1121784419492187  0.6967992378063386
  0.5491495714819266  0.2218806679163876  0.3045255400005189
  0.3278515019653057  0.9991986117029086  0.2097341471891454
  0.3251402866097877  0.0003446337905899  0.5002687968937423
  0.4366096743863110  0.1109751883220937  0.4020933815447876
  0.5470748949328481  0.2230350598045803  0.5985042570715251
  0.6608530325456883  0.9996394972678573  0.7914557676197447
  0.7709272019354430  0.1111012462245355  0.6963045917542132
  0.8822962343741239  0.2217192712885776  0.3046491404041305
  0.6614293852382005  0.9989723200758647  0.2097605469693917
  0.6582653565790864  0.0006920983629115  0.5002348193983437
  0.7695796717257792  0.1113962626563563  0.4023593802938379
  0.8800336927005077  0.2230645979556201  0.5982062032283508
  0.9942600288457726  0.3337286655612459  0.7914303509229867
  0.1042069204623814  0.4446127665732860  0.6964749271447204
  0.2160367093093072  0.5550587746733555  0.3044807007635413
  0.9947201879592882  0.3322783191826346  0.2098328994840628
  0.9920399349871261  0.3336969848298921  0.5004034326942488
  0.1028536732186680  0.4446919917838486  0.4024374754483659
  0.2134451490214602  0.5562723006582289  0.5985978657002633
  0.3283253969883120  0.3348596321543127  0.7935646286978297
  0.4373752893414675  0.4446556449900854  0.6968081311066001
  0.5492008449031047  0.5548524347851966  0.3044894837067957
  0.3281645226892493  0.3323193509783451  0.2096759341359018
  0.3245006952100624  0.3337889103573275  0.5005118990430901
  0.4360047079309268  0.4449664976285632  0.4025220378064986
  0.5472543583218794  0.5558466063376812  0.5984093342222465
  0.6672720544703523  0.3299975531849526  0.7910884285939517
  0.7703412868227275  0.4452733963640014  0.6963040924178685
  0.8828018406916485  0.5548329130135627  0.3045429415613583
  0.6616384617757802  0.3322111681122095  0.2097172330959083
  0.6581076982584335  0.3338952471448877  0.5004271298358489
  0.7696491461966559  0.4446618518042840  0.4024314154716464
  0.8798095685326572  0.5569326606259892  0.5981915594098197
  0.9939992616896660  0.6664652293347615  0.7911979493351922
  0.1042586245030463  0.7779335176278437  0.6963943233708960
  0.2158525722444793  0.8883121461960073  0.3045935948030447
  0.9946572773816271  0.6659643364876757  0.2097034121685581
  0.9908385826367763  0.6673561611008978  0.5004435176768496
  0.1028967307262434  0.7780050858269760  0.4023858352619456
  0.2143726511560047  0.8885957523040346  0.5982825585443621
  0.3273709522722399  0.6658935455973563  0.7933238626985570
  0.4376365495555419  0.7769726516668314  0.6967985230097113
  0.5494549489284566  0.8881362479047468  0.3044905298416580
  0.3279388480288148  0.6656587882097895  0.2097736752544108
  0.3245610294434513  0.6672044829725365  0.5006082995221135
  0.4365861467736067  0.7778080128427831  0.4022415168031017
  0.5467103601786789  0.8898469760716736  0.5983009605305227
  0.6608263878559697  0.6672853493584086  0.7914154373093254
  0.7704814303087488  0.7783044083319481  0.6962966184393551
  0.8827628763353914  0.8881564267399895  0.3045485731421707
  0.6613904764709631  0.6654670294768437  0.2098012847884902
  0.6580747002114791  0.6673288407811029  0.5002482766310976
  0.7700571529361042  0.7776914856427766  0.4021403880834882
  0.8797350882550816  0.8894308778036475  0.5983448348483904
  0.1167973031665284  0.1066422830964697  0.2528246248908488
  0.2295002651668767  0.2181697275506167  0.7498734740783704
  0.4504138436190885  0.1064510077456049  0.2527866828175434
  0.5599869399333670  0.2174893056260530  0.7493414387247057
  0.7837203287081920  0.1070595948391144  0.2528378957818234
  0.8896402290137146  0.2204903072574496  0.7500327423713884
  0.1176999126977165  0.4399709495886412  0.2527539499750660
  0.2270425739308806  0.5514614398912911  0.7492327429685730
  0.4505388951924090  0.4396730270830176  0.2528079091523026
  0.5603931132565236  0.5544935933944899  0.7488832397225167
  0.7837410034869734  0.4401172006346030  0.2527681503351786
  0.8957173862139030  0.5506702654062821  0.7481003778551738
  0.1172272517613422  0.7732881678899233  0.2529414112812063
  0.2295299350431605  0.8809342568215683  0.7500096522491688
  0.4502890322565349  0.7726257477248382  0.2527319215457950
  0.5612161782596061  0.8856324825083703  0.7484364332676208
  0.7838366393311844  0.7738864268393115  0.2526080959013726
  0.8953974312160540  0.8847038156174136  0.7477555836351613
  0.4146085154830388  0.4536103318437554  0.8220307091290522
  0.4112723295801644  0.4522873832445171  0.8627070346172090
  0.4999989291311095  0.4017208156089325  0.8685040546789011
 
  0.00000000E+00  0.00000000E+00  0.00000000E+00
  0.00000000E+00  0.00000000E+00  0.00000000E+00
  0.00000000E+00  0.00000000E+00  0.00000000E+00
  0.00000000E+00  0.00000000E+00  0.00000000E+00
  0.00000000E+00  0.00000000E+00  0.00000000E+00
  0.00000000E+00  0.00000000E+00  0.00000000E+00
  0.00000000E+00  0.00000000E+00  0.00000000E+00
  0.00000000E+00  0.00000000E+00  0.00000000E+00
  0.00000000E+00  0.00000000E+00  0.00000000E+00
  0.00000000E+00  0.00000000E+00  0.00000000E+00
  0.00000000E+00  0.00000000E+00  0.00000000E+00
  0.00000000E+00  0.00000000E+00  0.00000000E+00
  0.00000000E+00  0.00000000E+00  0.00000000E+00
  0.00000000E+00  0.00000000E+00  0.00000000E+00
  0.00000000E+00  0.00000000E+00  0.00000000E+00
  0.00000000E+00  0.00000000E+00  0.00000000E+00
  0.00000000E+00  0.00000000E+00  0.00000000E+00
  0.00000000E+00  0.00000000E+00  0.00000000E+00
  0.00000000E+00  0.00000000E+00  0.00000000E+00
  0.00000000E+00  0.00000000E+00  0.00000000E+00
  0.00000000E+00  0.00000000E+00  0.00000000E+00
  0.00000000E+00  0.00000000E+00  0.00000000E+00
  0.00000000E+00  0.00000000E+00  0.00000000E+00
  0.00000000E+00  0.00000000E+00  0.00000000E+00
  0.00000000E+00  0.00000000E+00  0.00000000E+00
  0.00000000E+00  0.00000000E+00  0.00000000E+00
  0.00000000E+00  0.00000000E+00  0.00000000E+00
  0.00000000E+00  0.00000000E+00  0.00000000E+00
  0.00000000E+00  0.00000000E+00  0.00000000E+00
  0.00000000E+00  0.00000000E+00  0.00000000E+00
  0.00000000E+00  0.00000000E+00  0.00000000E+00
  0.00000000E+00  0.00000000E+00  0.00000000E+00
  0.00000000E+00  0.00000000E+00  0.00000000E+00
  0.00000000E+00  0.00000000E+00  0.00000000E+00
  0.00000000E+00  0.00000000E+00  0.00000000E+00
  0.00000000E+00  0.00000000E+00  0.00000000E+00
  0.00000000E+00  0.00000000E+00  0.00000000E+00
  0.00000000E+00  0.00000000E+00  0.00000000E+00
  0.00000000E+00  0.00000000E+00  0.00000000E+00
  0.00000000E+00  0.00000000E+00  0.00000000E+00
  0.00000000E+00  0.00000000E+00  0.00000000E+00
  0.00000000E+00  0.00000000E+00  0.00000000E+00
  0.00000000E+00  0.00000000E+00  0.00000000E+00
  0.00000000E+00  0.00000000E+00  0.00000000E+00
  0.00000000E+00  0.00000000E+00  0.00000000E+00
  0.00000000E+00  0.00000000E+00  0.00000000E+00
  0.00000000E+00  0.00000000E+00  0.00000000E+00
  0.00000000E+00  0.00000000E+00  0.00000000E+00
  0.00000000E+00  0.00000000E+00  0.00000000E+00
  0.00000000E+00  0.00000000E+00  0.00000000E+00
  0.00000000E+00  0.00000000E+00  0.00000000E+00
  0.00000000E+00  0.00000000E+00  0.00000000E+00
  0.00000000E+00  0.00000000E+00  0.00000000E+00
  0.00000000E+00  0.00000000E+00  0.00000000E+00
  0.00000000E+00  0.00000000E+00  0.00000000E+00
  0.00000000E+00  0.00000000E+00  0.00000000E+00
  0.00000000E+00  0.00000000E+00  0.00000000E+00
  0.00000000E+00  0.00000000E+00  0.00000000E+00
  0.00000000E+00  0.00000000E+00  0.00000000E+00
  0.00000000E+00  0.00000000E+00  0.00000000E+00
  0.00000000E+00  0.00000000E+00  0.00000000E+00
  0.00000000E+00  0.00000000E+00  0.00000000E+00
  0.00000000E+00  0.00000000E+00  0.00000000E+00
  0.00000000E+00  0.00000000E+00  0.00000000E+00
  0.00000000E+00  0.00000000E+00  0.00000000E+00
  0.00000000E+00  0.00000000E+00  0.00000000E+00
  0.00000000E+00  0.00000000E+00  0.00000000E+00
  0.00000000E+00  0.00000000E+00  0.00000000E+00
  0.00000000E+00  0.00000000E+00  0.00000000E+00
  0.00000000E+00  0.00000000E+00  0.00000000E+00
  0.00000000E+00  0.00000000E+00  0.00000000E+00
  0.00000000E+00  0.00000000E+00  0.00000000E+00
  0.00000000E+00  0.00000000E+00  0.00000000E+00
  0.00000000E+00  0.00000000E+00  0.00000000E+00
  0.00000000E+00  0.00000000E+00  0.00000000E+00
  0.00000000E+00  0.00000000E+00  0.00000000E+00
  0.00000000E+00  0.00000000E+00  0.00000000E+00
  0.00000000E+00  0.00000000E+00  0.00000000E+00
  0.00000000E+00  0.00000000E+00  0.00000000E+00
  0.00000000E+00  0.00000000E+00  0.00000000E+00
  0.00000000E+00  0.00000000E+00  0.00000000E+00
  0.00000000E+00  0.00000000E+00  0.00000000E+00
  0.00000000E+00  0.00000000E+00  0.00000000E+00
  0.00000000E+00  0.00000000E+00  0.00000000E+00
  0.00000000E+00  0.00000000E+00  0.00000000E+00
  0.00000000E+00  0.00000000E+00  0.00000000E+00
  0.00000000E+00  0.00000000E+00  0.00000000E+00
  0.00000000E+00  0.00000000E+00  0.00000000E+00
  0.00000000E+00  0.00000000E+00  0.00000000E+00
  0.00000000E+00  0.00000000E+00  0.00000000E+00
  0.00000000E+00  0.00000000E+00  0.00000000E+00
  0.00000000E+00  0.00000000E+00  0.00000000E+00
  0.00000000E+00  0.00000000E+00  0.00000000E+00
  0.00000000E+00  0.00000000E+00  0.00000000E+00
  0.00000000E+00  0.00000000E+00  0.00000000E+00
  0.00000000E+00  0.00000000E+00  0.00000000E+00
  0.00000000E+00  0.00000000E+00  0.00000000E+00
  0.00000000E+00  0.00000000E+00  0.00000000E+00
  0.00000000E+00  0.00000000E+00  0.00000000E+00
  0.00000000E+00  0.00000000E+00  0.00000000E+00
  0.00000000E+00  0.00000000E+00  0.00000000E+00
  0.00000000E+00  0.00000000E+00  0.00000000E+00
  0.00000000E+00  0.00000000E+00  0.00000000E+00
  0.00000000E+00  0.00000000E+00  0.00000000E+00
  0.00000000E+00  0.00000000E+00  0.00000000E+00
  0.00000000E+00  0.00000000E+00  0.00000000E+00
  0.00000000E+00  0.00000000E+00  0.00000000E+00
  0.00000000E+00  0.00000000E+00  0.00000000E+00
  0.00000000E+00  0.00000000E+00  0.00000000E+00
  0.00000000E+00  0.00000000E+00  0.00000000E+00
  0.00000000E+00  0.00000000E+00  0.00000000E+00
  0.00000000E+00  0.00000000E+00  0.00000000E+00
  0.00000000E+00  0.00000000E+00  0.00000000E+00
  0.00000000E+00  0.00000000E+00  0.00000000E+00
  0.00000000E+00  0.00000000E+00  0.00000000E+00
  0.00000000E+00  0.00000000E+00  0.00000000E+00
  0.00000000E+00  0.00000000E+00  0.00000000E+00
  0.00000000E+00  0.00000000E+00  0.00000000E+00
  0.00000000E+00  0.00000000E+00  0.00000000E+00
  0.00000000E+00  0.00000000E+00  0.00000000E+00
