 Ag2 Cl2 O4                             
   1.00000000000000     
     3.4682262934942041    0.0000000000000000    0.0000000000000000
     0.0000000000000000    3.9466413333707995    0.0000000000000000
     0.0000000000000000    0.0000000000000000   24.6360473401979974
   Ag   Cl   O 
     2     2     4
Direct
  0.2499999987621673  0.6006551129645927  0.4443885798819954
  0.7500000003447055  0.0958793738119906  0.5556170804318232
  0.7500000000729452  0.1006965727716932  0.4373334214502476
  0.2500000020108569  0.5958355812382964  0.5626715888051139
  0.2499999998542681  0.5918901562007358  0.3302701343233697
  0.2499999998133442  0.8557057511159004  0.3030859731980002
  0.7499999996114761  0.8408014649361265  0.6969159818546002
  0.7499999995302339  0.1045419869606780  0.6697172400548491
 
  0.00000000E+00  0.00000000E+00  0.00000000E+00
  0.00000000E+00  0.00000000E+00  0.00000000E+00
  0.00000000E+00  0.00000000E+00  0.00000000E+00
  0.00000000E+00  0.00000000E+00  0.00000000E+00
  0.00000000E+00  0.00000000E+00  0.00000000E+00
  0.00000000E+00  0.00000000E+00  0.00000000E+00
  0.00000000E+00  0.00000000E+00  0.00000000E+00
  0.00000000E+00  0.00000000E+00  0.00000000E+00
