CONTCAR\(3)                             
   1.00000000000000     
    13.1708002089999994    0.0000000000000000    0.0000000000000000
     0.0000000000000000   13.1618003844999993    0.0000000000000000
     0.0000000000000000    0.0000000000000000   24.0960006713999988
   Ce   Te   O    H 
    18    54     2     1
Direct
  0.3043794149551508  0.1680778645454513  0.4120088659630666
  0.1378643099204162  0.0010842289942888  0.5863576651604641
  0.6377584985064767  0.1681570640086762  0.4117591539552387
  0.4714168999130017  0.0007529516286918  0.5864471795415113
  0.9710757300730144  0.1680247691244179  0.4119082605198912
  0.8046625548827406  0.0010215789418554  0.5863994144017570
  0.3042122737289001  0.5013211513677314  0.4118524561968164
  0.1380414557758414  0.3347460928590552  0.5865045441797753
  0.6376200881858770  0.5016760289486611  0.4119732045114265
  0.4712336560627233  0.3340055058317129  0.5859000795516575
  0.9710494682027304  0.5016665521230689  0.4119584906144275
  0.8045033792146817  0.3347228893917200  0.5864890395979141
  0.3043904991572594  0.8349146034867576  0.4117606025904693
  0.1381233988129421  0.6678762905658376  0.5863187391259228
  0.6375870371013082  0.8345975725275199  0.4118144983837996
  0.4711609185291745  0.6681829231177707  0.5861704075924419
  0.9710367387347543  0.8346370098402640  0.4118574689384403
  0.8045366229172504  0.6679168327187076  0.5865328956314048
  0.3040950521293219  0.0017296817347880  0.3091882298087976
  0.1376786562638042  0.1684532987650871  0.3095635294236854
  0.1376608906245214  0.0015805845335616  0.4501978198255007
  0.1381970634469269  0.1681838501884712  0.6889901119522271
  0.3049655015431750  0.0010311052514683  0.6887256180053001
  0.3045159199294739  0.1675958791041972  0.5480184793067244
  0.6377389196101799  0.0016035921218031  0.3093055069284112
  0.4709902238887266  0.1683194185838229  0.3094763168876629
  0.4712072833286814  0.0016001811490195  0.4502080736203631
  0.4712764842519166  0.1679282617980935  0.6890662732208793
  0.6375764260021893  0.0008641104741998  0.6890921174991407
  0.6381530899062294  0.1678040358712099  0.5476988755113116
  0.9708200494515512  0.0015694108253393  0.3094143955365843
  0.8043617291737492  0.1682042731294212  0.3096923206248899
  0.8042577012722556  0.0019316919585209  0.4501218289382000
  0.8041626798725222  0.1679116407763412  0.6889056491622116
  0.9712621415326086  0.0012577644371231  0.6891673745136881
  0.9711324707129069  0.1680837245295799  0.5478171908928593
  0.3043021625753971  0.3349492994919276  0.3093527556013623
  0.1376005191638028  0.5014304473817262  0.3092662450993597
  0.1373421054708423  0.3344510486327010  0.4503014320301187
  0.1382479815550321  0.5017927270356013  0.6892660079042405
  0.3048458640887963  0.3351302577418246  0.6891853314178766
  0.3047220553066923  0.5011208204883610  0.5478908878934372
  0.6376209322423640  0.3348757793634328  0.3094717558692445
  0.4706374311059678  0.5013258543438578  0.3092136832041735
  0.4713922757940553  0.3342219600164723  0.4500744032726752
  0.4714603239180004  0.5018568707283824  0.6882702266191423
  0.6372472127210342  0.3348892419347483  0.6890242086269286
  0.6378718475075591  0.5011863429324470  0.5480584648861710
  0.9710011456208733  0.3346340449167502  0.3095901135463375
  0.8039602826098757  0.5017478735482267  0.3093946603559057
  0.8045247841964179  0.3344861113109606  0.4503592410304657
  0.8043690391775432  0.5015301810376296  0.6890621315674771
  0.9711987433823425  0.3344569188989568  0.6890338904744245
  0.9712159291076211  0.5013120513212909  0.5481024148309375
  0.3042902215075363  0.6679686752048850  0.3091853201863975
  0.1376414805212646  0.8348744125097955  0.3091998618092516
  0.1378935293821872  0.6681028453019173  0.4501502626287079
  0.1380801170658665  0.8343902201742626  0.6888719524884714
  0.3045294924821880  0.6677031562728849  0.6888854021020736
  0.3045768147505774  0.8348339019320440  0.5477036091086445
  0.6374142327121695  0.6681723099386730  0.3090869632892049
  0.4709948797194574  0.8345341057140000  0.3091933153422443
  0.4708055075111159  0.6680887483430614  0.4500943164511835
  0.4711014993678734  0.8331846395507898  0.6892853156725399
  0.6380923401107441  0.6680065177827206  0.6890702229171182
  0.6381506160393129  0.8345090816968840  0.5478878787960558
  0.9708589870790710  0.6682371461228100  0.3093270749575814
  0.8043280301740211  0.8350184432696943  0.3092759883979604
  0.8043041742200093  0.6680710759853813  0.4503016768554071
  0.8046315351518700  0.8346709999623778  0.6890802853132439
  0.9714043219506834  0.6680071573518622  0.6892593276532003
  0.9711802888379293  0.8344397168755429  0.5478753742928476
  0.3999026853097766  0.5799469274503156  0.8279211867639652
  0.4848151022038260  0.5912511987202255  0.7948082223727752
  0.4175477047432933  0.5223162364604298  0.8522158872559514
 
  0.00000000E+00  0.00000000E+00  0.00000000E+00
  0.00000000E+00  0.00000000E+00  0.00000000E+00
  0.00000000E+00  0.00000000E+00  0.00000000E+00
  0.00000000E+00  0.00000000E+00  0.00000000E+00
  0.00000000E+00  0.00000000E+00  0.00000000E+00
  0.00000000E+00  0.00000000E+00  0.00000000E+00
  0.00000000E+00  0.00000000E+00  0.00000000E+00
  0.00000000E+00  0.00000000E+00  0.00000000E+00
  0.00000000E+00  0.00000000E+00  0.00000000E+00
  0.00000000E+00  0.00000000E+00  0.00000000E+00
  0.00000000E+00  0.00000000E+00  0.00000000E+00
  0.00000000E+00  0.00000000E+00  0.00000000E+00
  0.00000000E+00  0.00000000E+00  0.00000000E+00
  0.00000000E+00  0.00000000E+00  0.00000000E+00
  0.00000000E+00  0.00000000E+00  0.00000000E+00
  0.00000000E+00  0.00000000E+00  0.00000000E+00
  0.00000000E+00  0.00000000E+00  0.00000000E+00
  0.00000000E+00  0.00000000E+00  0.00000000E+00
  0.00000000E+00  0.00000000E+00  0.00000000E+00
  0.00000000E+00  0.00000000E+00  0.00000000E+00
  0.00000000E+00  0.00000000E+00  0.00000000E+00
  0.00000000E+00  0.00000000E+00  0.00000000E+00
  0.00000000E+00  0.00000000E+00  0.00000000E+00
  0.00000000E+00  0.00000000E+00  0.00000000E+00
  0.00000000E+00  0.00000000E+00  0.00000000E+00
  0.00000000E+00  0.00000000E+00  0.00000000E+00
  0.00000000E+00  0.00000000E+00  0.00000000E+00
  0.00000000E+00  0.00000000E+00  0.00000000E+00
  0.00000000E+00  0.00000000E+00  0.00000000E+00
  0.00000000E+00  0.00000000E+00  0.00000000E+00
  0.00000000E+00  0.00000000E+00  0.00000000E+00
  0.00000000E+00  0.00000000E+00  0.00000000E+00
  0.00000000E+00  0.00000000E+00  0.00000000E+00
  0.00000000E+00  0.00000000E+00  0.00000000E+00
  0.00000000E+00  0.00000000E+00  0.00000000E+00
  0.00000000E+00  0.00000000E+00  0.00000000E+00
  0.00000000E+00  0.00000000E+00  0.00000000E+00
  0.00000000E+00  0.00000000E+00  0.00000000E+00
  0.00000000E+00  0.00000000E+00  0.00000000E+00
  0.00000000E+00  0.00000000E+00  0.00000000E+00
  0.00000000E+00  0.00000000E+00  0.00000000E+00
  0.00000000E+00  0.00000000E+00  0.00000000E+00
  0.00000000E+00  0.00000000E+00  0.00000000E+00
  0.00000000E+00  0.00000000E+00  0.00000000E+00
  0.00000000E+00  0.00000000E+00  0.00000000E+00
  0.00000000E+00  0.00000000E+00  0.00000000E+00
  0.00000000E+00  0.00000000E+00  0.00000000E+00
  0.00000000E+00  0.00000000E+00  0.00000000E+00
  0.00000000E+00  0.00000000E+00  0.00000000E+00
  0.00000000E+00  0.00000000E+00  0.00000000E+00
  0.00000000E+00  0.00000000E+00  0.00000000E+00
  0.00000000E+00  0.00000000E+00  0.00000000E+00
  0.00000000E+00  0.00000000E+00  0.00000000E+00
  0.00000000E+00  0.00000000E+00  0.00000000E+00
  0.00000000E+00  0.00000000E+00  0.00000000E+00
  0.00000000E+00  0.00000000E+00  0.00000000E+00
  0.00000000E+00  0.00000000E+00  0.00000000E+00
  0.00000000E+00  0.00000000E+00  0.00000000E+00
  0.00000000E+00  0.00000000E+00  0.00000000E+00
  0.00000000E+00  0.00000000E+00  0.00000000E+00
  0.00000000E+00  0.00000000E+00  0.00000000E+00
  0.00000000E+00  0.00000000E+00  0.00000000E+00
  0.00000000E+00  0.00000000E+00  0.00000000E+00
  0.00000000E+00  0.00000000E+00  0.00000000E+00
  0.00000000E+00  0.00000000E+00  0.00000000E+00
  0.00000000E+00  0.00000000E+00  0.00000000E+00
  0.00000000E+00  0.00000000E+00  0.00000000E+00
  0.00000000E+00  0.00000000E+00  0.00000000E+00
  0.00000000E+00  0.00000000E+00  0.00000000E+00
  0.00000000E+00  0.00000000E+00  0.00000000E+00
  0.00000000E+00  0.00000000E+00  0.00000000E+00
  0.00000000E+00  0.00000000E+00  0.00000000E+00
  0.00000000E+00  0.00000000E+00  0.00000000E+00
  0.00000000E+00  0.00000000E+00  0.00000000E+00
  0.00000000E+00  0.00000000E+00  0.00000000E+00
