CONTCAR\(15)                            
   1.00000000000000     
    12.6843996047999994    0.0000000000000000    0.0000000000000000
     0.0000000000000000   11.4939002990999999    0.0000000000000000
     0.0000000000000000    0.0000000000000000   18.8276996612999987
   Nb   Si   Te
    12     4    24
Direct
  0.0825755065637068  0.0855701957974873  0.5000000000000000
  0.3325855245637115  0.9144498212025098  0.5000000000000000
  0.3487853065425526  0.2144102205519971  0.5000000000000000
  0.0988052965425510  0.7855997564480006  0.5000000000000000
  0.4845156920982205  0.5617445869584401  0.5000000000000000
  0.2345156730982154  0.4382454140415604  0.5000000000000000
  0.5825755065637068  0.0855701957974873  0.5000000000000000
  0.8325855245637115  0.9144498212025098  0.5000000000000000
  0.8487853065425526  0.2144102205519971  0.5000000000000000
  0.5988052865425502  0.7855997564480006  0.5000000000000000
  0.9845157290982200  0.5617445869584401  0.5000000000000000
  0.7345156730982154  0.4382454140415604  0.5000000000000000
  0.0381727065339206  0.3244705050630685  0.5000000000000000
  0.2881827245339252  0.6755094569369291  0.5000000000000000
  0.5381727245339221  0.3244705050630685  0.5000000000000000
  0.7881827055339201  0.6755094569369291  0.5000000000000000
  0.4243445827077963  0.0665263044872972  0.6028942992640509
  0.1743546007078010  0.9334937075127030  0.3971057007359491
  0.1743546007078010  0.9334937075127030  0.6028942992640509
  0.4243445827077963  0.0665263044872972  0.3971057007359491
  0.3985295645807199  0.4044111907841810  0.5997669458221750
  0.1485395735807202  0.5955788112158231  0.4002330791778235
  0.1485395735807202  0.5955788112158231  0.5997669458221750
  0.3985295645807199  0.4044111907841810  0.4002330791778235
  0.1778012323422828  0.2475793093365866  0.5971303997677424
  0.4278012513422880  0.7524106726634088  0.4028795792322555
  0.4278012513422880  0.7524106726634088  0.5971204207677445
  0.1778012323422828  0.2475793093365866  0.4028695752322520
  0.9243446197078029  0.0665263044872972  0.6028942992640509
  0.6743546387077970  0.9334937075127030  0.3971057007359491
  0.6743546387077970  0.9334937075127030  0.6028942992640509
  0.9243446197078029  0.0665263044872972  0.3971057007359491
  0.8985295265807238  0.4044111907841810  0.5997669458221750
  0.6485395455807250  0.5955788112158231  0.4002330791778235
  0.6485395455807250  0.5955788112158231  0.5997669458221750
  0.8985295265807238  0.4044111907841810  0.4002330791778235
  0.6778012703422860  0.2475793093365866  0.5971303997677424
  0.9278012513422880  0.7524106726634088  0.4028795792322555
  0.9278012513422880  0.7524106726634088  0.5971204207677445
  0.6778012703422860  0.2475793093365866  0.4028695752322520
 
  0.00000000E+00  0.00000000E+00  0.00000000E+00
  0.00000000E+00  0.00000000E+00  0.00000000E+00
  0.00000000E+00  0.00000000E+00  0.00000000E+00
  0.00000000E+00  0.00000000E+00  0.00000000E+00
  0.00000000E+00  0.00000000E+00  0.00000000E+00
  0.00000000E+00  0.00000000E+00  0.00000000E+00
  0.00000000E+00  0.00000000E+00  0.00000000E+00
  0.00000000E+00  0.00000000E+00  0.00000000E+00
  0.00000000E+00  0.00000000E+00  0.00000000E+00
  0.00000000E+00  0.00000000E+00  0.00000000E+00
  0.00000000E+00  0.00000000E+00  0.00000000E+00
  0.00000000E+00  0.00000000E+00  0.00000000E+00
  0.00000000E+00  0.00000000E+00  0.00000000E+00
  0.00000000E+00  0.00000000E+00  0.00000000E+00
  0.00000000E+00  0.00000000E+00  0.00000000E+00
  0.00000000E+00  0.00000000E+00  0.00000000E+00
  0.00000000E+00  0.00000000E+00  0.00000000E+00
  0.00000000E+00  0.00000000E+00  0.00000000E+00
  0.00000000E+00  0.00000000E+00  0.00000000E+00
  0.00000000E+00  0.00000000E+00  0.00000000E+00
  0.00000000E+00  0.00000000E+00  0.00000000E+00
  0.00000000E+00  0.00000000E+00  0.00000000E+00
  0.00000000E+00  0.00000000E+00  0.00000000E+00
  0.00000000E+00  0.00000000E+00  0.00000000E+00
  0.00000000E+00  0.00000000E+00  0.00000000E+00
  0.00000000E+00  0.00000000E+00  0.00000000E+00
  0.00000000E+00  0.00000000E+00  0.00000000E+00
  0.00000000E+00  0.00000000E+00  0.00000000E+00
  0.00000000E+00  0.00000000E+00  0.00000000E+00
  0.00000000E+00  0.00000000E+00  0.00000000E+00
  0.00000000E+00  0.00000000E+00  0.00000000E+00
  0.00000000E+00  0.00000000E+00  0.00000000E+00
  0.00000000E+00  0.00000000E+00  0.00000000E+00
  0.00000000E+00  0.00000000E+00  0.00000000E+00
  0.00000000E+00  0.00000000E+00  0.00000000E+00
  0.00000000E+00  0.00000000E+00  0.00000000E+00
  0.00000000E+00  0.00000000E+00  0.00000000E+00
  0.00000000E+00  0.00000000E+00  0.00000000E+00
  0.00000000E+00  0.00000000E+00  0.00000000E+00
  0.00000000E+00  0.00000000E+00  0.00000000E+00
