 V2 Cl6                                 
   1.00000000000000     
     6.0051353247199941    0.0000000000000000    0.0000000000000000
     3.0025681551996004    5.2006221338052683    0.0000000000000000
     0.0000000000000000    0.0000000000000000   17.7192163277279988
   V    Cl
     2     6
Direct
  0.3333340950980954  0.3333336579768726  0.4999986802593668
  0.9999991102460228  0.9999995707819167  0.5000012789410917
  0.0203949053167420  0.3129561104548131  0.5773467485662920
  0.6666499711681695  0.0203920357297989  0.5773469389927328
  0.0203898513781269  0.6666548978652145  0.4226528087496462
  0.6666540114528701  0.3129557483129588  0.4226530175814176
  0.3129527010392508  0.0203908822134053  0.4226532708462969
  0.3129573543007211  0.6666490966650258  0.5773472560631561
 
  0.00000000E+00  0.00000000E+00  0.00000000E+00
  0.00000000E+00  0.00000000E+00  0.00000000E+00
  0.00000000E+00  0.00000000E+00  0.00000000E+00
  0.00000000E+00  0.00000000E+00  0.00000000E+00
  0.00000000E+00  0.00000000E+00  0.00000000E+00
  0.00000000E+00  0.00000000E+00  0.00000000E+00
  0.00000000E+00  0.00000000E+00  0.00000000E+00
  0.00000000E+00  0.00000000E+00  0.00000000E+00
