CONTCAR\(12)                            
   1.00000000000000     
    11.5354003905999996    0.0000000000000000    0.0000000000000000
     0.0000000000000000   13.3458003997999999    0.0000000000000000
     0.0000000000000000    0.0000000000000000   18.6074008942000013
   Zr   Ti   Te   O    H 
     6     6    24     1     1
Selective dynamics
Direct
  0.1539447686441093  0.2445754446312378  0.5008379845209419   F   F   F
  0.4906661520998981  0.2486313970507368  0.4995055065956038   F   F   F
  0.8277988666594567  0.2443180790058577  0.5008225398888726   F   F   F
  0.1573284022650512  0.7466565520033370  0.4999444989064088   F   F   F
  0.4901810058854466  0.7700868361915667  0.4949427079036113   F   F   F
  0.8237162927541135  0.7465226037592672  0.4999687314584804   F   F   F
  0.9905672437584698  0.9927640093094041  0.5005131328316992   F   F   F
  0.3216784398881884  0.0032960185673261  0.4995894137073904   F   F   F
  0.6594833235106634  0.0036081252970064  0.4997878274118648   F   F   F
  0.9912710387584838  0.4962691980581724  0.4998495190751129   F   F   F
  0.3005970456765965  0.4865809831009784  0.4983371480976047   F   F   F
  0.6808278789120621  0.4865269803728438  0.4978363784058928   F   F   F
  0.1586884941443714  0.0736410655448481  0.5956404043898971   F   F   F
  0.1511057716238611  0.4130243434328875  0.4009402108739621   F   F   F
  0.9907990295595539  0.3320069958279888  0.5989095520957406   F   F   F
  0.9908695370161951  0.1579152660226129  0.4023807857356516   F   F   F
  0.4906522861009179  0.0779910649361142  0.5941105848259483   F   F   F
  0.4908350585077557  0.4248108912099582  0.4108539943545679   F   F   F
  0.3224903564593831  0.3355744128385183  0.5979226734557272   F   F   F
  0.3237169863168106  0.1608039409987114  0.4020433164993662   F   F   F
  0.8227435517724047  0.0737462615017179  0.5957583582806265   F   F   F
  0.8306774042998342  0.4128231663958744  0.4009706866130145   F   F   F
  0.6588978983956864  0.3358317371461865  0.5975736859758314   F   F   F
  0.6576052792857041  0.1608231095176507  0.4021116431776974   F   F   F
  0.1544220568092030  0.5749566941832214  0.5958840247844748   F   F   F
  0.1563533552991814  0.9198480105259463  0.4055944231182664   F   F   F
  0.9905112926542188  0.8358410421953124  0.5983477146717817   F   F   F
  0.9906695764334614  0.6567879977184816  0.4026949562813300   F   F   F
  0.4895165240666941  0.5733382033154442  0.5663620557870601   F   F   F
  0.4907535888151102  0.9301282683388479  0.3998345462426869   F   F   F
  0.3240792333450173  0.8358700633235756  0.5971306845802786   F   F   F
  0.3244652441787537  0.6588452005407746  0.4062374383907041   F   F   F
  0.8275490601176756  0.5747017751376831  0.5957369428231658   F   F   F
  0.8246880199772804  0.9199094821563776  0.4057829900436687   F   F   F
  0.6571244230934994  0.8358522099756840  0.5972413641633452   F   F   F
  0.6563212939160081  0.6587923683007659  0.4064434980202520   F   F   F
  0.4800028131630256  0.5691003014701721  0.6744970713134890   T   T   T
  0.5247314648358740  0.6261000660969031  0.6917748928425335   T   T   T
 
  0.00000000E+00  0.00000000E+00  0.00000000E+00
  0.00000000E+00  0.00000000E+00  0.00000000E+00
  0.00000000E+00  0.00000000E+00  0.00000000E+00
  0.00000000E+00  0.00000000E+00  0.00000000E+00
  0.00000000E+00  0.00000000E+00  0.00000000E+00
  0.00000000E+00  0.00000000E+00  0.00000000E+00
  0.00000000E+00  0.00000000E+00  0.00000000E+00
  0.00000000E+00  0.00000000E+00  0.00000000E+00
  0.00000000E+00  0.00000000E+00  0.00000000E+00
  0.00000000E+00  0.00000000E+00  0.00000000E+00
  0.00000000E+00  0.00000000E+00  0.00000000E+00
  0.00000000E+00  0.00000000E+00  0.00000000E+00
  0.00000000E+00  0.00000000E+00  0.00000000E+00
  0.00000000E+00  0.00000000E+00  0.00000000E+00
  0.00000000E+00  0.00000000E+00  0.00000000E+00
  0.00000000E+00  0.00000000E+00  0.00000000E+00
  0.00000000E+00  0.00000000E+00  0.00000000E+00
  0.00000000E+00  0.00000000E+00  0.00000000E+00
  0.00000000E+00  0.00000000E+00  0.00000000E+00
  0.00000000E+00  0.00000000E+00  0.00000000E+00
  0.00000000E+00  0.00000000E+00  0.00000000E+00
  0.00000000E+00  0.00000000E+00  0.00000000E+00
  0.00000000E+00  0.00000000E+00  0.00000000E+00
  0.00000000E+00  0.00000000E+00  0.00000000E+00
  0.00000000E+00  0.00000000E+00  0.00000000E+00
  0.00000000E+00  0.00000000E+00  0.00000000E+00
  0.00000000E+00  0.00000000E+00  0.00000000E+00
  0.00000000E+00  0.00000000E+00  0.00000000E+00
  0.00000000E+00  0.00000000E+00  0.00000000E+00
  0.00000000E+00  0.00000000E+00  0.00000000E+00
  0.00000000E+00  0.00000000E+00  0.00000000E+00
  0.00000000E+00  0.00000000E+00  0.00000000E+00
  0.00000000E+00  0.00000000E+00  0.00000000E+00
  0.00000000E+00  0.00000000E+00  0.00000000E+00
  0.00000000E+00  0.00000000E+00  0.00000000E+00
  0.00000000E+00  0.00000000E+00  0.00000000E+00
  0.00000000E+00  0.00000000E+00  0.00000000E+00
  0.00000000E+00  0.00000000E+00  0.00000000E+00
