CONTCAR\(8)                             
   1.00000000000000     
    13.1094999313000002    0.0000000000000000    0.0000000000000000
    -6.5547499657000001   11.3531599714000002    0.0000000000000000
     0.0000000000000000    0.0000000000000000   20.2374000549000002
   Na   Hf   N    O    H 
    32    16    32     2     1
Direct
  0.1664329269960945  0.0821434663348271  0.3732998035731399
  0.0841083352123491  0.1665027475182370  0.6263050117453517
  0.4170848978456974  0.0823526412284252  0.3734442319159115
  0.3331693230930100  0.1665356312990554  0.6262872011700154
  0.6668982541136188  0.0831967193598047  0.3734181415474112
  0.5830432737443800  0.1658091338232168  0.6270651217006815
  0.9159597010864786  0.0823846619084492  0.3734155740449623
  0.8335447476880660  0.1657498436154370  0.6270750594758923
  0.1651414644165285  0.3312999157678789  0.3725131902854386
  0.0862540338338178  0.4168954322712608  0.6267054934062983
  0.4167403307621953  0.3312568810443040  0.3724975938388226
  0.3374323949689000  0.4241234888335228  0.6293091918347216
  0.6670552274555277  0.3317470407935659  0.3732382466290716
  0.5814368220981692  0.4170324177136848  0.6266145801266276
  0.9153458806174157  0.3317302610370376  0.3732561828098184
  0.8331089645701226  0.4155505695466317  0.6270620384285621
  0.1653324569434531  0.5821953587870539  0.3728532089378902
  0.0837763928949400  0.6653926097277818  0.6264654581246276
  0.4165583595413551  0.5825070669712815  0.3721331449924179
  0.3379123676972000  0.6610043011793536  0.6297798382558355
  0.6675217050366911  0.5821692573413202  0.3727490533721749
  0.5740711100177052  0.6611439347416166  0.6297048907496645
  0.9162963022572796  0.5817956952122145  0.3734992952001974
  0.8323036751732502  0.6653961764749852  0.6263981186452696
  0.1666651543227715  0.8321720761080229  0.3735483626601237
  0.0832372810619191  0.9158697321518687  0.6267532609216744
  0.4168596540442948  0.8335962387117561  0.3729832898582899
  0.3331735259214099  0.9151161590547403  0.6264895919017874
  0.6674202242335738  0.8336137324587867  0.3729040400404458
  0.5817897434551682  0.9126860197582403  0.6269816828514436
  0.9163360342346323  0.8322092475410727  0.3735098306923632
  0.8326394539721704  0.9151027272884562  0.6264437164286889
  0.9997916357442094  0.9990035162434836  0.4999368117075633
  0.2499156031104732  0.9990020623387679  0.4999823424330643
  0.4997776273193253  0.9984833301103038  0.5003567413280621
  0.7494058865717648  0.9984884900025151  0.5003031603828134
  0.0002806867288925  0.2493631053785634  0.5000253014087974
  0.2502984437827322  0.2499263221871502  0.4999598994435956
  0.4997687811918681  0.2493700329505728  0.5000153092178934
  0.7498415942448418  0.2489877315848048  0.5006167447288945
  0.0003115151626858  0.4990277364204658  0.5002004453471471
  0.2506414992979558  0.4993867715530769  0.4990347249937628
  0.4994240624060211  0.4993971518214764  0.4989833150150744
  0.7494123812456621  0.4990457912543391  0.5001358235078044
  0.9998009392218421  0.7488943566063355  0.5000778312192438
  0.2503540186799853  0.7484694955005651  0.5004942494836513
  0.4994035203525655  0.7481152866872165  0.4993096266166006
  0.7488279107861828  0.7484865124298423  0.5003852846642260
  0.1666366571002555  0.0825780681803820  0.5570468433202578
  0.0825968770629473  0.1652319027820255  0.4429613214900954
  0.4164562884691634  0.0823589532582858  0.5574321540777234
  0.3333037526210916  0.1652107239986833  0.4429833949335134
  0.6662527601898134  0.0817479537074348  0.5578951606997649
  0.5835417940727012  0.1657395269214064  0.4436035251343142
  0.9166358722954513  0.0823395922131809  0.5574087061463402
  0.8328853143456172  0.1657449949749505  0.4435877433244997
  0.1675478837111513  0.3331690829437406  0.5565979651734168
  0.0818844548457065  0.4150022821651760  0.4422212221405957
  0.4163488811113467  0.3331853650146925  0.5565657871037857
  0.3323665947540348  0.4141350819451048  0.4408728358934155
  0.6661374758903804  0.3326140735054040  0.5576499983270367
  0.5837741800190557  0.4150128577435908  0.4421842120358619
  0.9171585351354992  0.3325969597634639  0.5576879296733495
  0.8329816022171741  0.4152607557884380  0.4435732826951480
  0.1674788681883612  0.5822569074023178  0.5567857988383551
  0.0827546062750386  0.6655429614892086  0.4432426086495340
  0.4163448469312598  0.5819540231794491  0.5509003901783913
  0.3325132836800861  0.6664389614658788  0.4412143330065987
  0.6654808718026004  0.5822613854750571  0.5567039955051740
  0.5846208024979660  0.6664767315700644  0.4411514639939185
  0.9164772144161262  0.5822644517059459  0.5574639720699395
  0.8335092702411444  0.6655468620360665  0.4431790173822705
  0.1666030980683004  0.8322245297885829  0.5573631923960178
  0.0831569595199539  0.9155454343790836  0.4432519552608838
  0.4164629954886934  0.8312893003267021  0.5570045964937762
  0.3333599812607062  0.9160370862343257  0.4432604543701189
  0.6655497569543343  0.8312860229130266  0.5569421968098354
  0.5837865742005519  0.9168642027862077  0.4424699088202146
  0.9163016737826126  0.8322267717163285  0.5572966019241008
  0.8334067654422199  0.9160605028170465  0.4431784262001273
  0.4158662225949570  0.5800678437819329  0.7003565473962183
  0.4376330755147109  0.6223368127705697  0.7702728435201607
  0.4084385991418458  0.5481125725829230  0.7941092753514454
 
  0.00000000E+00  0.00000000E+00  0.00000000E+00
  0.00000000E+00  0.00000000E+00  0.00000000E+00
  0.00000000E+00  0.00000000E+00  0.00000000E+00
  0.00000000E+00  0.00000000E+00  0.00000000E+00
  0.00000000E+00  0.00000000E+00  0.00000000E+00
  0.00000000E+00  0.00000000E+00  0.00000000E+00
  0.00000000E+00  0.00000000E+00  0.00000000E+00
  0.00000000E+00  0.00000000E+00  0.00000000E+00
  0.00000000E+00  0.00000000E+00  0.00000000E+00
  0.00000000E+00  0.00000000E+00  0.00000000E+00
  0.00000000E+00  0.00000000E+00  0.00000000E+00
  0.00000000E+00  0.00000000E+00  0.00000000E+00
  0.00000000E+00  0.00000000E+00  0.00000000E+00
  0.00000000E+00  0.00000000E+00  0.00000000E+00
  0.00000000E+00  0.00000000E+00  0.00000000E+00
  0.00000000E+00  0.00000000E+00  0.00000000E+00
  0.00000000E+00  0.00000000E+00  0.00000000E+00
  0.00000000E+00  0.00000000E+00  0.00000000E+00
  0.00000000E+00  0.00000000E+00  0.00000000E+00
  0.00000000E+00  0.00000000E+00  0.00000000E+00
  0.00000000E+00  0.00000000E+00  0.00000000E+00
  0.00000000E+00  0.00000000E+00  0.00000000E+00
  0.00000000E+00  0.00000000E+00  0.00000000E+00
  0.00000000E+00  0.00000000E+00  0.00000000E+00
  0.00000000E+00  0.00000000E+00  0.00000000E+00
  0.00000000E+00  0.00000000E+00  0.00000000E+00
  0.00000000E+00  0.00000000E+00  0.00000000E+00
  0.00000000E+00  0.00000000E+00  0.00000000E+00
  0.00000000E+00  0.00000000E+00  0.00000000E+00
  0.00000000E+00  0.00000000E+00  0.00000000E+00
  0.00000000E+00  0.00000000E+00  0.00000000E+00
  0.00000000E+00  0.00000000E+00  0.00000000E+00
  0.00000000E+00  0.00000000E+00  0.00000000E+00
  0.00000000E+00  0.00000000E+00  0.00000000E+00
  0.00000000E+00  0.00000000E+00  0.00000000E+00
  0.00000000E+00  0.00000000E+00  0.00000000E+00
  0.00000000E+00  0.00000000E+00  0.00000000E+00
  0.00000000E+00  0.00000000E+00  0.00000000E+00
  0.00000000E+00  0.00000000E+00  0.00000000E+00
  0.00000000E+00  0.00000000E+00  0.00000000E+00
  0.00000000E+00  0.00000000E+00  0.00000000E+00
  0.00000000E+00  0.00000000E+00  0.00000000E+00
  0.00000000E+00  0.00000000E+00  0.00000000E+00
  0.00000000E+00  0.00000000E+00  0.00000000E+00
  0.00000000E+00  0.00000000E+00  0.00000000E+00
  0.00000000E+00  0.00000000E+00  0.00000000E+00
  0.00000000E+00  0.00000000E+00  0.00000000E+00
  0.00000000E+00  0.00000000E+00  0.00000000E+00
  0.00000000E+00  0.00000000E+00  0.00000000E+00
  0.00000000E+00  0.00000000E+00  0.00000000E+00
  0.00000000E+00  0.00000000E+00  0.00000000E+00
  0.00000000E+00  0.00000000E+00  0.00000000E+00
  0.00000000E+00  0.00000000E+00  0.00000000E+00
  0.00000000E+00  0.00000000E+00  0.00000000E+00
  0.00000000E+00  0.00000000E+00  0.00000000E+00
  0.00000000E+00  0.00000000E+00  0.00000000E+00
  0.00000000E+00  0.00000000E+00  0.00000000E+00
  0.00000000E+00  0.00000000E+00  0.00000000E+00
  0.00000000E+00  0.00000000E+00  0.00000000E+00
  0.00000000E+00  0.00000000E+00  0.00000000E+00
  0.00000000E+00  0.00000000E+00  0.00000000E+00
  0.00000000E+00  0.00000000E+00  0.00000000E+00
  0.00000000E+00  0.00000000E+00  0.00000000E+00
  0.00000000E+00  0.00000000E+00  0.00000000E+00
  0.00000000E+00  0.00000000E+00  0.00000000E+00
  0.00000000E+00  0.00000000E+00  0.00000000E+00
  0.00000000E+00  0.00000000E+00  0.00000000E+00
  0.00000000E+00  0.00000000E+00  0.00000000E+00
  0.00000000E+00  0.00000000E+00  0.00000000E+00
  0.00000000E+00  0.00000000E+00  0.00000000E+00
  0.00000000E+00  0.00000000E+00  0.00000000E+00
  0.00000000E+00  0.00000000E+00  0.00000000E+00
  0.00000000E+00  0.00000000E+00  0.00000000E+00
  0.00000000E+00  0.00000000E+00  0.00000000E+00
  0.00000000E+00  0.00000000E+00  0.00000000E+00
  0.00000000E+00  0.00000000E+00  0.00000000E+00
  0.00000000E+00  0.00000000E+00  0.00000000E+00
  0.00000000E+00  0.00000000E+00  0.00000000E+00
  0.00000000E+00  0.00000000E+00  0.00000000E+00
  0.00000000E+00  0.00000000E+00  0.00000000E+00
  0.00000000E+00  0.00000000E+00  0.00000000E+00
  0.00000000E+00  0.00000000E+00  0.00000000E+00
  0.00000000E+00  0.00000000E+00  0.00000000E+00
