CONTCAR\(5)                             
   1.00000000000000     
    13.6462001800999992    0.0000000000000000    0.0000000000000000
     1.7063387634000000   10.2396006658999994    0.0000000000000000
     0.0000000000000000    0.0000000000000000   19.9377994536999985
   Ta   Te   O 
    16    24     1
Selective dynamics
Direct
  0.1437112842686474  0.8551917464293908  0.4915882219493284   F   F   F
  0.1059986331628124  0.1496671882164762  0.5093688337583586   F   F   F
  0.1966387137723871  0.3960678884828397  0.5238995972931804   F   F   F
  0.0479217832592980  0.6100063794483432  0.4788810116332201   F   F   F
  0.3930247540684064  0.8594078176713467  0.4904928635617409   F   F   F
  0.3554290370495963  0.1522318529934097  0.5107620146056036   F   F   F
  0.4514725724276616  0.3917883981764447  0.5283354450657498   F   F   F
  0.2988361433411555  0.6093791229118608  0.4797028659851392   F   F   F
  0.6417982985045469  0.8565290054967321  0.4930732726276332   F   F   F
  0.6065237221357336  0.1519388745500336  0.5108666033419951   F   F   F
  0.7041554920143867  0.3959830998453242  0.5241901706471808   F   F   F
  0.5487362167465903  0.6081946405395158  0.4808822210350954   F   F   F
  0.8935944958587569  0.8547501143822060  0.4920629794281837   F   F   F
  0.8559787771734904  0.1483605183156200  0.5097856739131643   F   F   F
  0.9511391182860436  0.3932535742933112  0.5249376137136039   F   F   F
  0.7989384547510454  0.6104099717597649  0.4796032338288896   F   F   F
  0.1679690513558896  0.6518214713338111  0.5883103728317138   F   F   F
  0.0801452936273819  0.3545160826823732  0.4139093012204569   F   F   F
  0.1631017625731914  0.6991935736992758  0.3761680293064842   F   F   F
  0.0872650180250218  0.2983192234124417  0.6289339361614878   F   F   F
  0.0026019362055223  0.9811922930814418  0.5880205322803249   F   F   F
  0.2464818106388478  0.0263149314505711  0.4127509410363075   F   F   F
  0.4161812871402120  0.6682862228767306  0.5871172033198491   F   F   F
  0.3303826803356955  0.3567580755201547  0.4155846890338353   F   F   F
  0.4135849896998209  0.6993523691341608  0.3770280286327434   F   F   F
  0.3164285396900866  0.2931091618164601  0.6315799146715619   F   F   F
  0.2515355556275622  0.9801334068008671  0.5873495525346826   F   F   F
  0.4970296485178096  0.0290278004370208  0.4141187006315761   F   F   F
  0.6687764144914752  0.6519157458531168  0.5892255550008443   F   F   F
  0.5807159527822492  0.3563890625841069  0.4155873149529441   F   F   F
  0.6612819540740560  0.7002310200087294  0.3775246029908814   F   F   F
  0.6105993492228663  0.2918490908714375  0.6317089338218551   F   F   F
  0.5019069443603641  0.9850485991971212  0.5893719827245434   F   F   F
  0.7465396574780527  0.0231804303119389  0.4138858416032321   F   F   F
  0.9188033368970139  0.6509576607375678  0.5887420560382921   F   F   F
  0.8313014848190434  0.3539640494477823  0.4144673312380931   F   F   F
  0.9118187954901273  0.6999037991300625  0.3757539489351842   F   F   F
  0.8387868397046816  0.2983426602201860  0.6289591490251496   F   F   F
  0.7533699355046366  0.9781535171126379  0.5883197817602124   F   F   F
  0.9968241377184270  0.0234999479322440  0.4131492706068158   F   F   F
  0.4533398961994167  0.3807110178352105  0.6285981494555091   T   T   T
 
  0.00000000E+00  0.00000000E+00  0.00000000E+00
  0.00000000E+00  0.00000000E+00  0.00000000E+00
  0.00000000E+00  0.00000000E+00  0.00000000E+00
  0.00000000E+00  0.00000000E+00  0.00000000E+00
  0.00000000E+00  0.00000000E+00  0.00000000E+00
  0.00000000E+00  0.00000000E+00  0.00000000E+00
  0.00000000E+00  0.00000000E+00  0.00000000E+00
  0.00000000E+00  0.00000000E+00  0.00000000E+00
  0.00000000E+00  0.00000000E+00  0.00000000E+00
  0.00000000E+00  0.00000000E+00  0.00000000E+00
  0.00000000E+00  0.00000000E+00  0.00000000E+00
  0.00000000E+00  0.00000000E+00  0.00000000E+00
  0.00000000E+00  0.00000000E+00  0.00000000E+00
  0.00000000E+00  0.00000000E+00  0.00000000E+00
  0.00000000E+00  0.00000000E+00  0.00000000E+00
  0.00000000E+00  0.00000000E+00  0.00000000E+00
  0.00000000E+00  0.00000000E+00  0.00000000E+00
  0.00000000E+00  0.00000000E+00  0.00000000E+00
  0.00000000E+00  0.00000000E+00  0.00000000E+00
  0.00000000E+00  0.00000000E+00  0.00000000E+00
  0.00000000E+00  0.00000000E+00  0.00000000E+00
  0.00000000E+00  0.00000000E+00  0.00000000E+00
  0.00000000E+00  0.00000000E+00  0.00000000E+00
  0.00000000E+00  0.00000000E+00  0.00000000E+00
  0.00000000E+00  0.00000000E+00  0.00000000E+00
  0.00000000E+00  0.00000000E+00  0.00000000E+00
  0.00000000E+00  0.00000000E+00  0.00000000E+00
  0.00000000E+00  0.00000000E+00  0.00000000E+00
  0.00000000E+00  0.00000000E+00  0.00000000E+00
  0.00000000E+00  0.00000000E+00  0.00000000E+00
  0.00000000E+00  0.00000000E+00  0.00000000E+00
  0.00000000E+00  0.00000000E+00  0.00000000E+00
  0.00000000E+00  0.00000000E+00  0.00000000E+00
  0.00000000E+00  0.00000000E+00  0.00000000E+00
  0.00000000E+00  0.00000000E+00  0.00000000E+00
  0.00000000E+00  0.00000000E+00  0.00000000E+00
  0.00000000E+00  0.00000000E+00  0.00000000E+00
  0.00000000E+00  0.00000000E+00  0.00000000E+00
  0.00000000E+00  0.00000000E+00  0.00000000E+00
  0.00000000E+00  0.00000000E+00  0.00000000E+00
  0.00000000E+00  0.00000000E+00  0.00000000E+00
