CONTCAR                                 
   1.00000000000000     
    11.6387996674000007    0.0000000000000000    0.0000000000000000
     5.8194217944000002   10.1357943405000004    0.0000000000000000
     0.0000000000000000    0.0000000000000000   18.1699008942000013
   Li   Ni   P    S    O    H 
     4     4     8    24     2     1
Selective dynamics
Direct
  0.3265311691561905  0.3231448771786134  0.4984228970156153   F   F   F
  0.8322235925098980  0.3271515285940580  0.4975082395444730   F   F   F
  0.3291488732301673  0.8303799689586171  0.5023323168601053   F   F   F
  0.8299946690156688  0.8284758199814704  0.4839564506141940   F   F   F
  0.1613408223480164  0.1617355761770938  0.4925307176562441   F   F   F
  0.6699589949607514  0.1438959280550094  0.4898388655156580   F   F   F
  0.1593387398578088  0.6671816808518614  0.4968180670254085   F   F   F
  0.6677957959947705  0.6567194216804992  0.4986211761598156   F   F   F
  0.4947320685009089  0.5089426135067967  0.5751832696186767   F   F   F
  0.9948204846537436  0.4943306329594037  0.4310934038186716   F   F   F
  0.9954346588006260  0.4974635161336423  0.5510837471519210   F   F   F
  0.4962005362930100  0.4896422087311691  0.4539453292590920   F   F   F
  0.4962804494567763  0.9943219173097191  0.5536959526235279   F   F   F
  0.0009999055404819  0.9892126658868676  0.4286579930986463   F   F   F
  0.9914214496872802  0.9950794413311357  0.5485925061054076   F   F   F
  0.4962981911689326  0.9932103842543398  0.4338052694969079   F   F   F
  0.0119343053688397  0.3216748139949459  0.5811423332192049   F   F   F
  0.3186060501216801  0.1547786439786663  0.5813399994697477   F   F   F
  0.0139965286779358  0.1535395556930439  0.4048083640808073   F   F   F
  0.1575456446412744  0.3169717558229195  0.4061251305692366   F   F   F
  0.3189951069446053  0.0097498144112151  0.4070140509764997   F   F   F
  0.1474542200509319  0.0157040549969807  0.5814249802717910   F   F   F
  0.4989684263751286  0.3349805448587162  0.6203989138554107   F   F   F
  0.8107988110230266  0.1554782094306404  0.5736959077030903   F   F   F
  0.5114230110436324  0.1594966404307243  0.4128618030346658   F   F   F
  0.6541379082014558  0.3153532960387011  0.4208763889800338   F   F   F
  0.8337336769907751  0.9983418866188813  0.3931599812613484   F   F   F
  0.6585017074482167  0.0134422469866351  0.5772199148341173   F   F   F
  0.0041716780564016  0.8189738352672933  0.5761045583076907   F   F   F
  0.3202612954206501  0.6688353413920893  0.5974701640465199   F   F   F
  0.0087458036539019  0.6526955996895154  0.3999176183286721   F   F   F
  0.1721539878921661  0.8108364608551923  0.4129193551268244   F   F   F
  0.3192559805108743  0.5079073586865590  0.4225611071978932   F   F   F
  0.1542049938561476  0.5168915418561966  0.5801583007033955   F   F   F
  0.5152260110008768  0.8187492692011560  0.5845227161122608   F   F   F
  0.8193976045811908  0.6627139559477087  0.5769032233423559   F   F   F
  0.5128111645362310  0.6496487085538263  0.4219236870320557   F   F   F
  0.6545833414717350  0.8200151214265148  0.4037339385861358   F   F   F
  0.8157131034605527  0.5054245504948796  0.4107263750701193   F   F   F
  0.6674282859581098  0.5059132251825673  0.5939273482174627   F   F   F
  0.3867596941333815  0.4013657552198779  0.6864290369932817   T   T   T
  0.4472180713182041  0.4145855298296937  0.7570685451750450   T   T   T
  0.4556928370870351  0.3373950025446035  0.7827444608383726   T   T   T
 
  0.00000000E+00  0.00000000E+00  0.00000000E+00
  0.00000000E+00  0.00000000E+00  0.00000000E+00
  0.00000000E+00  0.00000000E+00  0.00000000E+00
  0.00000000E+00  0.00000000E+00  0.00000000E+00
  0.00000000E+00  0.00000000E+00  0.00000000E+00
  0.00000000E+00  0.00000000E+00  0.00000000E+00
  0.00000000E+00  0.00000000E+00  0.00000000E+00
  0.00000000E+00  0.00000000E+00  0.00000000E+00
  0.00000000E+00  0.00000000E+00  0.00000000E+00
  0.00000000E+00  0.00000000E+00  0.00000000E+00
  0.00000000E+00  0.00000000E+00  0.00000000E+00
  0.00000000E+00  0.00000000E+00  0.00000000E+00
  0.00000000E+00  0.00000000E+00  0.00000000E+00
  0.00000000E+00  0.00000000E+00  0.00000000E+00
  0.00000000E+00  0.00000000E+00  0.00000000E+00
  0.00000000E+00  0.00000000E+00  0.00000000E+00
  0.00000000E+00  0.00000000E+00  0.00000000E+00
  0.00000000E+00  0.00000000E+00  0.00000000E+00
  0.00000000E+00  0.00000000E+00  0.00000000E+00
  0.00000000E+00  0.00000000E+00  0.00000000E+00
  0.00000000E+00  0.00000000E+00  0.00000000E+00
  0.00000000E+00  0.00000000E+00  0.00000000E+00
  0.00000000E+00  0.00000000E+00  0.00000000E+00
  0.00000000E+00  0.00000000E+00  0.00000000E+00
  0.00000000E+00  0.00000000E+00  0.00000000E+00
  0.00000000E+00  0.00000000E+00  0.00000000E+00
  0.00000000E+00  0.00000000E+00  0.00000000E+00
  0.00000000E+00  0.00000000E+00  0.00000000E+00
  0.00000000E+00  0.00000000E+00  0.00000000E+00
  0.00000000E+00  0.00000000E+00  0.00000000E+00
  0.00000000E+00  0.00000000E+00  0.00000000E+00
  0.00000000E+00  0.00000000E+00  0.00000000E+00
  0.00000000E+00  0.00000000E+00  0.00000000E+00
  0.00000000E+00  0.00000000E+00  0.00000000E+00
  0.00000000E+00  0.00000000E+00  0.00000000E+00
  0.00000000E+00  0.00000000E+00  0.00000000E+00
  0.00000000E+00  0.00000000E+00  0.00000000E+00
  0.00000000E+00  0.00000000E+00  0.00000000E+00
  0.00000000E+00  0.00000000E+00  0.00000000E+00
  0.00000000E+00  0.00000000E+00  0.00000000E+00
  0.00000000E+00  0.00000000E+00  0.00000000E+00
  0.00000000E+00  0.00000000E+00  0.00000000E+00
  0.00000000E+00  0.00000000E+00  0.00000000E+00
