CONTCAR\(4)                             
   1.00000000000000     
    14.6900997162000007    0.0000000000000000    0.0000000000000000
     7.3450498581000003   12.7219995383000004    0.0000000000000000
     0.0000000000000000    0.0000000000000000   21.0473995209000009
   Er   H    Cl   O 
    32    32    32     1
Direct
  0.0002302800988575  0.0002329276128244  0.4332661433821565
  0.0833469661702783  0.0833492283594126  0.5601211418566999
  0.2513552580572810  0.9986997466656922  0.4341716839483960
  0.3338164583297993  0.0823750419616545  0.5613660489787445
  0.4999589079791452  0.9986850401124637  0.4341749136831742
  0.5833156290054582  0.0833775724765904  0.5600925873284175
  0.7495402604566518  0.0001701738458185  0.4332266438842801
  0.8335141347628661  0.0829437211917183  0.5603467542316826
  0.9987003270388672  0.2513528346147352  0.4341731669500656
  0.0823698545154054  0.3338305936532754  0.5613584065383512
  0.2499943930513926  0.2499937395566062  0.4346668850947167
  0.3338285046704636  0.3338339319752967  0.5613475763105255
  0.4999270749033281  0.2513594410188713  0.4341199078018768
  0.5839490264355125  0.3349557800437151  0.5617899189077195
  0.7487493790832283  0.2524599531718255  0.4344871384623267
  0.8310498858482801  0.3349883649443763  0.5618148160551801
  0.9986770327577531  0.4999739728973669  0.4341682580415797
  0.0833707935452637  0.5833250074269241  0.5600862555134757
  0.2513652365243678  0.4999260757120813  0.4341199028512122
  0.3349652930255854  0.5839454435760183  0.5617824810046322
  0.5023684904382946  0.5023549543509779  0.4384675154820856
  0.5834481805196245  0.5834385129338777  0.6909859166475893
  0.7452484616510109  0.5023555647512793  0.4384951173546698
  0.8310658445636607  0.5839003979175929  0.5618184034421480
  0.0001720244118442  0.7495569573052733  0.4332292235945095
  0.0829423780224277  0.8335232136311701  0.5603517694111434
  0.2524661335585477  0.7487525172212088  0.4344856700710672
  0.3349997394475059  0.8310404645283616  0.5618185020891778
  0.5023523065438191  0.7452491629734002  0.4384986471380894
  0.5839000589718188  0.8310703233724176  0.5618157053363853
  0.7487197643059319  0.7487119583285118  0.4345463666014310
  0.8335168826576745  0.8335110716939380  0.5603735993465438
 -0.0000344548540381 -0.0000277125108459  0.5348997284648600
  0.0835804693098388  0.0835743240061099  0.4582235504852649
  0.2509026055852597  0.9984042331953253  0.5363707372723472
  0.3334070396614754  0.0831903765497737  0.4593527890252176
  0.5006428766960028  0.9984120602447455  0.5363719315213727
  0.5828160372753423  0.0836082129077085  0.4581975564647612
  0.7499837584025280 -0.0000073884302842  0.5348593278646221
  0.8331163385654512  0.0836504197396213  0.4583450131294688
  0.9984074045841287  0.2508984434393027  0.5363682709577696
  0.0831819935668867  0.3334098726282674  0.4593482330591003
  0.2500027068951229  0.2500072774242555  0.5365429616341661
  0.3334105767562893  0.3334054136826279  0.4593263729392409
  0.5006634360088393  0.2509502406896266  0.5363163364469519
  0.5830589435326130  0.3338603638087093  0.4600114195844618
  0.7504830511410310  0.2490873664622174  0.5365224629774470
  0.8330469954014164  0.3338653720822783  0.4600975483019494
  0.9983946291775863  0.5006542076812336  0.5363676798134893
  0.0836061334185351  0.5828159840176390  0.4581982212267605
  0.2509433535855397  0.5006710309081605  0.5363183014228835
  0.3338630639779684  0.5830669322143227  0.4600074529582443
  0.4996566085391619  0.4996434248509668  0.5396989598536602
  0.5833114834922171  0.5833058428098284  0.4587662695118013
  0.7506457227301490  0.4996807842646734  0.5398187484947392
  0.8330668008694080  0.5830544816044220  0.4600771295046964
  0.0000058140425076  0.7499823180785687  0.5348609038008389
  0.0836424059913986  0.8331252185070015  0.4583429586348553
  0.2490893040184314  0.7504969080319392  0.5365217634530911
  0.3338756559981244  0.8330464019034524  0.4601030908895349
  0.4996794128541532  0.7506517375730055  0.5398202687755025
  0.5830571619806277  0.8330728225788715  0.4600741860339445
  0.7504780074553173  0.7504734451339548  0.5365334771597653
  0.8331536584631654  0.8331596052754303  0.4583685444822688
  0.1665424233120384  0.1665626747033817  0.6408807597416747
  0.1667419871274121  0.1667434887520513  0.3544654871481736
  0.4168516618782845  0.1665624732107436  0.6408805476941093
  0.4164800058790823  0.1667355670609208  0.3544506989291087
  0.6670072555300653  0.1634075620042969  0.6402569038522268
  0.6661433607875443  0.1675295777885384  0.3539439087205248
  0.9195449798396739  0.1633586190892482  0.6402948125487554
  0.9163191672244403  0.1675267600705728  0.3539914842327632
  0.1665564231025158  0.4168590904928427  0.6408794934747093
  0.1667362644610887  0.4164829714670296  0.3544497627644230
  0.4165997285256398  0.4165982923552771  0.6423697112090481
  0.4180871651261150  0.4180859155298158  0.3552074606192017
  0.6826932472926459  0.3844996570470312  0.6533143867248901
  0.6661016857655098  0.4178257170702933  0.3549056016310316
  0.9168357032657533  0.4165747513115167  0.6424501049676125
  0.9137575847025231  0.4181228824810228  0.3552817715213365
  0.1634060969762288  0.6670141224487673  0.6402545193107382
  0.1675294968736573  0.6661485859255657  0.3539479014194633
  0.3845031437455964  0.6826830258980515  0.6533121131679152
  0.4178301715976832  0.6661041518827668  0.3549102828980600
  0.6828789812413453  0.6828969002996871  0.6533386453204718
  0.6660569231614333  0.6660546111242105  0.3549156895608495
  0.9196246990559164  0.6670241562736331  0.6402727672030559
  0.9162593986722699  0.6661493514741536  0.3539590525373321
  0.1633609136773826  0.9195475418656032  0.6402996795223940
  0.1675169833886399  0.9163330402806269  0.3539924794018526
  0.4165818725299018  0.9168387908170149  0.6424551053166779
  0.4181278261212295  0.9137578843266602  0.3552857780025860
  0.6670277800010087  0.9196233797632118  0.6402769698256345
  0.6661357177529941  0.9162658582685362  0.3539635681255830
  0.9166673829828005  0.9166684018647113  0.6406094777080150
  0.9166598987278761  0.9166710513986821  0.3534067042935432
  0.5835798171993030  0.5835584354754618  0.7787967371211684
 
  0.00000000E+00  0.00000000E+00  0.00000000E+00
  0.00000000E+00  0.00000000E+00  0.00000000E+00
  0.00000000E+00  0.00000000E+00  0.00000000E+00
  0.00000000E+00  0.00000000E+00  0.00000000E+00
  0.00000000E+00  0.00000000E+00  0.00000000E+00
  0.00000000E+00  0.00000000E+00  0.00000000E+00
  0.00000000E+00  0.00000000E+00  0.00000000E+00
  0.00000000E+00  0.00000000E+00  0.00000000E+00
  0.00000000E+00  0.00000000E+00  0.00000000E+00
  0.00000000E+00  0.00000000E+00  0.00000000E+00
  0.00000000E+00  0.00000000E+00  0.00000000E+00
  0.00000000E+00  0.00000000E+00  0.00000000E+00
  0.00000000E+00  0.00000000E+00  0.00000000E+00
  0.00000000E+00  0.00000000E+00  0.00000000E+00
  0.00000000E+00  0.00000000E+00  0.00000000E+00
  0.00000000E+00  0.00000000E+00  0.00000000E+00
  0.00000000E+00  0.00000000E+00  0.00000000E+00
  0.00000000E+00  0.00000000E+00  0.00000000E+00
  0.00000000E+00  0.00000000E+00  0.00000000E+00
  0.00000000E+00  0.00000000E+00  0.00000000E+00
  0.00000000E+00  0.00000000E+00  0.00000000E+00
  0.00000000E+00  0.00000000E+00  0.00000000E+00
  0.00000000E+00  0.00000000E+00  0.00000000E+00
  0.00000000E+00  0.00000000E+00  0.00000000E+00
  0.00000000E+00  0.00000000E+00  0.00000000E+00
  0.00000000E+00  0.00000000E+00  0.00000000E+00
  0.00000000E+00  0.00000000E+00  0.00000000E+00
  0.00000000E+00  0.00000000E+00  0.00000000E+00
  0.00000000E+00  0.00000000E+00  0.00000000E+00
  0.00000000E+00  0.00000000E+00  0.00000000E+00
  0.00000000E+00  0.00000000E+00  0.00000000E+00
  0.00000000E+00  0.00000000E+00  0.00000000E+00
  0.00000000E+00  0.00000000E+00  0.00000000E+00
  0.00000000E+00  0.00000000E+00  0.00000000E+00
  0.00000000E+00  0.00000000E+00  0.00000000E+00
  0.00000000E+00  0.00000000E+00  0.00000000E+00
  0.00000000E+00  0.00000000E+00  0.00000000E+00
  0.00000000E+00  0.00000000E+00  0.00000000E+00
  0.00000000E+00  0.00000000E+00  0.00000000E+00
  0.00000000E+00  0.00000000E+00  0.00000000E+00
  0.00000000E+00  0.00000000E+00  0.00000000E+00
  0.00000000E+00  0.00000000E+00  0.00000000E+00
  0.00000000E+00  0.00000000E+00  0.00000000E+00
  0.00000000E+00  0.00000000E+00  0.00000000E+00
  0.00000000E+00  0.00000000E+00  0.00000000E+00
  0.00000000E+00  0.00000000E+00  0.00000000E+00
  0.00000000E+00  0.00000000E+00  0.00000000E+00
  0.00000000E+00  0.00000000E+00  0.00000000E+00
  0.00000000E+00  0.00000000E+00  0.00000000E+00
  0.00000000E+00  0.00000000E+00  0.00000000E+00
  0.00000000E+00  0.00000000E+00  0.00000000E+00
  0.00000000E+00  0.00000000E+00  0.00000000E+00
  0.00000000E+00  0.00000000E+00  0.00000000E+00
  0.00000000E+00  0.00000000E+00  0.00000000E+00
  0.00000000E+00  0.00000000E+00  0.00000000E+00
  0.00000000E+00  0.00000000E+00  0.00000000E+00
  0.00000000E+00  0.00000000E+00  0.00000000E+00
  0.00000000E+00  0.00000000E+00  0.00000000E+00
  0.00000000E+00  0.00000000E+00  0.00000000E+00
  0.00000000E+00  0.00000000E+00  0.00000000E+00
  0.00000000E+00  0.00000000E+00  0.00000000E+00
  0.00000000E+00  0.00000000E+00  0.00000000E+00
  0.00000000E+00  0.00000000E+00  0.00000000E+00
  0.00000000E+00  0.00000000E+00  0.00000000E+00
  0.00000000E+00  0.00000000E+00  0.00000000E+00
  0.00000000E+00  0.00000000E+00  0.00000000E+00
  0.00000000E+00  0.00000000E+00  0.00000000E+00
  0.00000000E+00  0.00000000E+00  0.00000000E+00
  0.00000000E+00  0.00000000E+00  0.00000000E+00
  0.00000000E+00  0.00000000E+00  0.00000000E+00
  0.00000000E+00  0.00000000E+00  0.00000000E+00
  0.00000000E+00  0.00000000E+00  0.00000000E+00
  0.00000000E+00  0.00000000E+00  0.00000000E+00
  0.00000000E+00  0.00000000E+00  0.00000000E+00
  0.00000000E+00  0.00000000E+00  0.00000000E+00
  0.00000000E+00  0.00000000E+00  0.00000000E+00
  0.00000000E+00  0.00000000E+00  0.00000000E+00
  0.00000000E+00  0.00000000E+00  0.00000000E+00
  0.00000000E+00  0.00000000E+00  0.00000000E+00
  0.00000000E+00  0.00000000E+00  0.00000000E+00
  0.00000000E+00  0.00000000E+00  0.00000000E+00
  0.00000000E+00  0.00000000E+00  0.00000000E+00
  0.00000000E+00  0.00000000E+00  0.00000000E+00
  0.00000000E+00  0.00000000E+00  0.00000000E+00
  0.00000000E+00  0.00000000E+00  0.00000000E+00
  0.00000000E+00  0.00000000E+00  0.00000000E+00
  0.00000000E+00  0.00000000E+00  0.00000000E+00
  0.00000000E+00  0.00000000E+00  0.00000000E+00
  0.00000000E+00  0.00000000E+00  0.00000000E+00
  0.00000000E+00  0.00000000E+00  0.00000000E+00
  0.00000000E+00  0.00000000E+00  0.00000000E+00
  0.00000000E+00  0.00000000E+00  0.00000000E+00
  0.00000000E+00  0.00000000E+00  0.00000000E+00
  0.00000000E+00  0.00000000E+00  0.00000000E+00
  0.00000000E+00  0.00000000E+00  0.00000000E+00
  0.00000000E+00  0.00000000E+00  0.00000000E+00
  0.00000000E+00  0.00000000E+00  0.00000000E+00
