Rb2 Mn2 P2                              
   1.00000000000000     
     3.8464421475552966    0.0000000000000000    0.0000000000000000
     0.0000000000000000    3.8464421475552966    0.0000000000000000
     0.0000000000000000    0.0000000000000000   11.4811861243619511
   Rb   Mn   P 
     2     2     2
Direct
  0.0000000000000000  0.5000000000000000  0.2842130265906649
  0.5000000000000000 -0.0000000000000000  0.7157869534093405
  0.0000000000000000  0.0000000000000000 -0.0000000000000000
  0.5000000000000000  0.5000000000000000 -0.0000000000000000
  0.0000000000000000  0.5000000000000000  0.8940947144656488
  0.5000000000000000  0.0000000000000000  0.1059052435343477
 
  0.00000000E+00  0.00000000E+00  0.00000000E+00
  0.00000000E+00  0.00000000E+00  0.00000000E+00
  0.00000000E+00  0.00000000E+00  0.00000000E+00
  0.00000000E+00  0.00000000E+00  0.00000000E+00
  0.00000000E+00  0.00000000E+00  0.00000000E+00
  0.00000000E+00  0.00000000E+00  0.00000000E+00
