CONTCAR\(5)                             
   1.00000000000000     
    12.4780998230000009    0.0000000000000000    0.0000000000000000
     0.0000000000000000   15.4434003830000002    0.0000000000000000
     0.0000000000000000    0.0000000000000000   19.6900997161999989
   Nb   Co   Te   O    H 
    16    16    32     2     1
Direct
  0.2374488332055729  0.1275310514764451  0.4935602909759063
  0.2551770317044116  0.3262030528656929  0.5043234844591189
  0.4871021746607407  0.0761614956125107  0.5062785524191583
  0.0057594219527806  0.3772218973672327  0.4922670968825342
  0.7373792769480134  0.1274667738088171  0.4935044935103648
  0.7542328037016361  0.3278134078018980  0.5053892990463750
  0.9874792411399901  0.0758826088654933  0.5060117535943321
  0.5055975921103424  0.3774490488404240  0.4919063294041236
  0.2375919774681459  0.6262234357924712  0.4923737813523666
  0.2539195617951314  0.8260694542674235  0.5054319201449011
  0.4914774900306482  0.5765345797218648  0.5018891530600494
  0.0039577344114501  0.8771339127341561  0.4925417225497424
  0.7372769095036986  0.6281889484621170  0.4866486299519058
  0.7529983275016976  0.8252714310882454  0.5048466879608074
  0.9885109726310332  0.5759030580424066  0.5035386263160960
  0.5044415548695103  0.8771364860047629  0.4936442169675276
  0.4242823918028431  0.2294331067036827  0.4580527622773666
  0.1725734764550072  0.4735992679150485  0.5393444717574392
  0.3183658393839792  0.4789422397061639  0.4565909450624893
  0.0693716951740817  0.2240470307852627  0.5405566864963788
  0.9241569272293534  0.2293820813720584  0.4582710546807513
  0.6729915145789355  0.4803148692160882  0.5422429926217951
  0.8188876372920040  0.4788977303159216  0.4578870363392893
  0.5693072185443726  0.2247197583865813  0.5405216369214577
  0.4222682486995601  0.7307817652192286  0.4586319129894336
  0.1730337162933566  0.9733503013644357  0.5406935444001970
  0.3185867865861048  0.9795918079007953  0.4587703858227296
  0.0691980642212663  0.7238837218876665  0.5395435099025363
  0.9236996025918663  0.7288008059570072  0.4567394119685567
  0.6722734143917497  0.9741848198077622  0.5405303106858592
  0.8176999991833255  0.9792928579621765  0.4582139948412641
  0.5680195742153632  0.7208902862820259  0.5420492198811241
  0.1240494198144350  0.4933247717306722  0.4095350833461477
  0.3693471968581350  0.3546567646067869  0.3794896632100595
  0.1205502524694567  0.3480487637426659  0.6175127014944255
  0.3740911495751929  0.2104313735283344  0.5868438684119750
  0.3735408263725520  0.1051349102601193  0.3810220935685046
  0.1233577022247851  0.0978038148629274  0.6183237630446357
  0.1188877080080092  0.2433825222870429  0.4112881645079363
  0.3700052029924031  0.4629278636438203  0.5838278309033846
  0.6264989449546933  0.4906442556458987  0.4094197183774819
  0.8692722923271118  0.3546747373092936  0.3803064340435551
  0.6185712969004263  0.3506210546827420  0.6171927486938898
  0.8737310157737502  0.2103578799813892  0.5864740349487738
  0.8736056477912429  0.1052026270868291  0.3809913479517495
  0.6232578379732653  0.0984124236962181  0.6184634483024580
  0.6193283570664300  0.2432425470811196  0.4115976712170912
  0.8689820315467575  0.4598939195236977  0.5858867302601883
  0.1234268613281384  0.9939695871429269  0.4119122288710388
  0.3677026391683494  0.8561636338230907  0.3808360477584372
  0.1169334700872848  0.8473207294476915  0.6177957546563386
  0.3731306888213082  0.7083494505576980  0.5862092284906233
  0.3769484488555666  0.6052923255620035  0.3799997688563082
  0.1225280340028121  0.5974607367633235  0.6169832402195091
  0.1183455646320918  0.7430194470803975  0.4108690462153914
  0.3679654254745571  0.9589404035699074  0.5874410764510121
  0.6229845888563826  0.9941331515750903  0.4120037637344861
  0.8677491758292410  0.8556636408856746  0.3802003692885724
  0.6184344839014739  0.8475880558213996  0.6179713732999241
  0.8715998948702725  0.7074555058812798  0.5842392940121260
  0.8736402273064214  0.6044233852839097  0.3781230512663059
  0.6337769239577195  0.6025454666890900  0.6211921379806735
  0.6157663211106938  0.7453159429263188  0.4103963182072097
  0.8676213410603273  0.9590677387431752  0.5864662863045412
  0.5206165678873855  0.5659788111788592  0.7541827322991138
  0.4937688603742120  0.5607117637871676  0.6824911154521217
  0.5422965905491453  0.5060871950775278  0.7636557871099648
 
  0.00000000E+00  0.00000000E+00  0.00000000E+00
  0.00000000E+00  0.00000000E+00  0.00000000E+00
  0.00000000E+00  0.00000000E+00  0.00000000E+00
  0.00000000E+00  0.00000000E+00  0.00000000E+00
  0.00000000E+00  0.00000000E+00  0.00000000E+00
  0.00000000E+00  0.00000000E+00  0.00000000E+00
  0.00000000E+00  0.00000000E+00  0.00000000E+00
  0.00000000E+00  0.00000000E+00  0.00000000E+00
  0.00000000E+00  0.00000000E+00  0.00000000E+00
  0.00000000E+00  0.00000000E+00  0.00000000E+00
  0.00000000E+00  0.00000000E+00  0.00000000E+00
  0.00000000E+00  0.00000000E+00  0.00000000E+00
  0.00000000E+00  0.00000000E+00  0.00000000E+00
  0.00000000E+00  0.00000000E+00  0.00000000E+00
  0.00000000E+00  0.00000000E+00  0.00000000E+00
  0.00000000E+00  0.00000000E+00  0.00000000E+00
  0.00000000E+00  0.00000000E+00  0.00000000E+00
  0.00000000E+00  0.00000000E+00  0.00000000E+00
  0.00000000E+00  0.00000000E+00  0.00000000E+00
  0.00000000E+00  0.00000000E+00  0.00000000E+00
  0.00000000E+00  0.00000000E+00  0.00000000E+00
  0.00000000E+00  0.00000000E+00  0.00000000E+00
  0.00000000E+00  0.00000000E+00  0.00000000E+00
  0.00000000E+00  0.00000000E+00  0.00000000E+00
  0.00000000E+00  0.00000000E+00  0.00000000E+00
  0.00000000E+00  0.00000000E+00  0.00000000E+00
  0.00000000E+00  0.00000000E+00  0.00000000E+00
  0.00000000E+00  0.00000000E+00  0.00000000E+00
  0.00000000E+00  0.00000000E+00  0.00000000E+00
  0.00000000E+00  0.00000000E+00  0.00000000E+00
  0.00000000E+00  0.00000000E+00  0.00000000E+00
  0.00000000E+00  0.00000000E+00  0.00000000E+00
  0.00000000E+00  0.00000000E+00  0.00000000E+00
  0.00000000E+00  0.00000000E+00  0.00000000E+00
  0.00000000E+00  0.00000000E+00  0.00000000E+00
  0.00000000E+00  0.00000000E+00  0.00000000E+00
  0.00000000E+00  0.00000000E+00  0.00000000E+00
  0.00000000E+00  0.00000000E+00  0.00000000E+00
  0.00000000E+00  0.00000000E+00  0.00000000E+00
  0.00000000E+00  0.00000000E+00  0.00000000E+00
  0.00000000E+00  0.00000000E+00  0.00000000E+00
  0.00000000E+00  0.00000000E+00  0.00000000E+00
  0.00000000E+00  0.00000000E+00  0.00000000E+00
  0.00000000E+00  0.00000000E+00  0.00000000E+00
  0.00000000E+00  0.00000000E+00  0.00000000E+00
  0.00000000E+00  0.00000000E+00  0.00000000E+00
  0.00000000E+00  0.00000000E+00  0.00000000E+00
  0.00000000E+00  0.00000000E+00  0.00000000E+00
  0.00000000E+00  0.00000000E+00  0.00000000E+00
  0.00000000E+00  0.00000000E+00  0.00000000E+00
  0.00000000E+00  0.00000000E+00  0.00000000E+00
  0.00000000E+00  0.00000000E+00  0.00000000E+00
  0.00000000E+00  0.00000000E+00  0.00000000E+00
  0.00000000E+00  0.00000000E+00  0.00000000E+00
  0.00000000E+00  0.00000000E+00  0.00000000E+00
  0.00000000E+00  0.00000000E+00  0.00000000E+00
  0.00000000E+00  0.00000000E+00  0.00000000E+00
  0.00000000E+00  0.00000000E+00  0.00000000E+00
  0.00000000E+00  0.00000000E+00  0.00000000E+00
  0.00000000E+00  0.00000000E+00  0.00000000E+00
  0.00000000E+00  0.00000000E+00  0.00000000E+00
  0.00000000E+00  0.00000000E+00  0.00000000E+00
  0.00000000E+00  0.00000000E+00  0.00000000E+00
  0.00000000E+00  0.00000000E+00  0.00000000E+00
  0.00000000E+00  0.00000000E+00  0.00000000E+00
  0.00000000E+00  0.00000000E+00  0.00000000E+00
  0.00000000E+00  0.00000000E+00  0.00000000E+00
