CONTCAR\(2)                             
   1.00000000000000     
    13.4954004288000000    0.0000000000000000    0.0000000000000000
    -3.3738461598999998   19.0216094057000014    0.0000000000000000
     0.0000000000000000    0.0000000000000000   18.9101009369000010
   Ta   Pd   Se   O 
    16     8    48     1
Direct
  0.0877581848392431  0.3511723380391129  0.5209626148085799
  0.1613312914496594  0.1465710710792701  0.4760151485948712
  0.3375531418639678  0.3513512605285770  0.5214109659364862
  0.4127341367165242  0.1477931698319661  0.4749765099239649
  0.5873758351730257  0.3523425167685785  0.5219786773224631
  0.6616265008877777  0.1488601287977645  0.4739817049535737
  0.8381356331020519  0.3519455699836272  0.5214692359673583
  0.9102300374589307  0.1475197125859922  0.4749767457571838
  0.0881363463319489  0.8502642501549118  0.5259130608826640
  0.1621688598878357  0.6475649346924531  0.4742075695403497
  0.3366205984361286  0.8502572331681126  0.5288301874539463
  0.4120939236784235  0.6485983434988788  0.4757189634539526
  0.5874094126369624  0.8482983018139588  0.5504636939557345
  0.6628731995312722  0.6488149775602408  0.4758824535898310
  0.8393024011235963  0.8503834068833708  0.5290212679863198
  0.9121095004164832  0.6477616192956391  0.4744386811247964
  0.0033847584752374  0.9982892111913281  0.5033753846562916
  0.2455728142608291  0.9979416796302958  0.5037661125977315
  0.4971024484091582  0.0039441561860186  0.4998169745192428
  0.7544568427397788  0.0037020721986108  0.5001766272645920
 -0.0000823801504214  0.4981050328666495  0.4974600871098152
  0.2487882772328315  0.4999406489273886  0.4965929543886151
  0.4984985730994956  0.4990734541527166  0.4990366472385017
  0.7515009841049212  0.5007615286027870  0.4967898557074331
  0.2298171514332801  0.4211604801014310  0.6004463638129393
  0.0179349687143090  0.0753596919202283  0.3981652264676350
  0.0604979968499890  0.2409749312453564  0.4253588461445870
  0.2229722105111513  0.3923220477912903  0.4230778285580074
  0.0264285655890277  0.1075359190894635  0.5741304757627081
  0.1889770972994977  0.2568970742141423  0.5708903829373965
  0.4787555382445788  0.4194096009618668  0.6029413389501133
  0.2686063922016653  0.0748582537690451  0.3986344974046300
  0.3095595324654372  0.2410969969221676  0.4254288944353447
  0.4725606604267905  0.3927341485836864  0.4238737584572863
  0.2771196421153911  0.1073472140066009  0.5742024678699202
  0.4389187405358245  0.2571227521744713  0.5707336211908179
  0.7306788355773781  0.4222138579255543  0.6007166539262067
  0.5203308752680637  0.0804640312881743  0.3933638848877070
  0.5600998447954580  0.2435565301090500  0.4256973735146272
  0.7226960114995362  0.3930480579079039  0.4236533444984491
  0.5277520448304182  0.1109350793957398  0.5734011500514414
  0.6892855992206417  0.2581988373460384  0.5706829648940963
  0.9805284738431418  0.4194581708216152  0.6019009026852412
  0.7685593539616468  0.0798802162924527  0.3937197892931799
  0.8106604853523338  0.2430803204571690  0.4251506593194253
  0.9727355629487595  0.3915700815099448  0.4229760904900463
  0.7770485719308062  0.1108523840374789  0.5735566464749278
  0.9391147982599555  0.2569159808761792  0.5702641967318629
  0.2273606941042754  0.9187000064788394  0.6084150028331385
  0.0195021616576522  0.5781356484806659  0.3945109229230114
  0.0610120209346849  0.7427742746765194  0.4270347259434495
  0.2238707106739874  0.8910351863307130  0.4295834693753944
  0.0263815354537699  0.6043921675146749  0.5715852912554161
  0.1865846280713397  0.7536754407957167  0.5732804577573249
  0.4687751897952747  0.9324801201362310  0.6058151318467120
  0.2707282187202305  0.5807012931214744  0.3935281689858662
  0.3122550042442359  0.7441572862191030  0.4282129666364475
  0.4760595903615306  0.8909683398042177  0.4365739438573464
  0.2757010209991602  0.6058723508577781  0.5720687834517703
  0.4270865397935277  0.7497411487541473  0.5796718645025020
  0.7484935511282094  0.9322468736600907  0.6060737602854770
  0.5201260924659500  0.5794430347399951  0.3964214660758345
  0.5618987195773147  0.7459626199686498  0.4370760364924150
  0.7204838412131084  0.8909876464787601  0.4365497647938615
  0.5265533063566454  0.6055342611207326  0.5735155691075013
  0.6985605834291747  0.7498374172530272  0.5800584195287305
  0.9835967240713689  0.9190710264196444  0.6080764218960996
  0.7699810064775090  0.5813359870639569  0.3934375719223684
  0.8104760546529830  0.7444535626743779  0.4284285139626950
  0.9727488555986643  0.8911147534825141  0.4297227319143018
  0.7777552735257982  0.6064515006882437  0.5724010726081382
  0.9412092011098626  0.7539337746240062  0.5735515980413093
  0.5850095540030027  0.8396067434706743  0.6472170935100290
 
  0.00000000E+00  0.00000000E+00  0.00000000E+00
  0.00000000E+00  0.00000000E+00  0.00000000E+00
  0.00000000E+00  0.00000000E+00  0.00000000E+00
  0.00000000E+00  0.00000000E+00  0.00000000E+00
  0.00000000E+00  0.00000000E+00  0.00000000E+00
  0.00000000E+00  0.00000000E+00  0.00000000E+00
  0.00000000E+00  0.00000000E+00  0.00000000E+00
  0.00000000E+00  0.00000000E+00  0.00000000E+00
  0.00000000E+00  0.00000000E+00  0.00000000E+00
  0.00000000E+00  0.00000000E+00  0.00000000E+00
  0.00000000E+00  0.00000000E+00  0.00000000E+00
  0.00000000E+00  0.00000000E+00  0.00000000E+00
  0.00000000E+00  0.00000000E+00  0.00000000E+00
  0.00000000E+00  0.00000000E+00  0.00000000E+00
  0.00000000E+00  0.00000000E+00  0.00000000E+00
  0.00000000E+00  0.00000000E+00  0.00000000E+00
  0.00000000E+00  0.00000000E+00  0.00000000E+00
  0.00000000E+00  0.00000000E+00  0.00000000E+00
  0.00000000E+00  0.00000000E+00  0.00000000E+00
  0.00000000E+00  0.00000000E+00  0.00000000E+00
  0.00000000E+00  0.00000000E+00  0.00000000E+00
  0.00000000E+00  0.00000000E+00  0.00000000E+00
  0.00000000E+00  0.00000000E+00  0.00000000E+00
  0.00000000E+00  0.00000000E+00  0.00000000E+00
  0.00000000E+00  0.00000000E+00  0.00000000E+00
  0.00000000E+00  0.00000000E+00  0.00000000E+00
  0.00000000E+00  0.00000000E+00  0.00000000E+00
  0.00000000E+00  0.00000000E+00  0.00000000E+00
  0.00000000E+00  0.00000000E+00  0.00000000E+00
  0.00000000E+00  0.00000000E+00  0.00000000E+00
  0.00000000E+00  0.00000000E+00  0.00000000E+00
  0.00000000E+00  0.00000000E+00  0.00000000E+00
  0.00000000E+00  0.00000000E+00  0.00000000E+00
  0.00000000E+00  0.00000000E+00  0.00000000E+00
  0.00000000E+00  0.00000000E+00  0.00000000E+00
  0.00000000E+00  0.00000000E+00  0.00000000E+00
  0.00000000E+00  0.00000000E+00  0.00000000E+00
  0.00000000E+00  0.00000000E+00  0.00000000E+00
  0.00000000E+00  0.00000000E+00  0.00000000E+00
  0.00000000E+00  0.00000000E+00  0.00000000E+00
  0.00000000E+00  0.00000000E+00  0.00000000E+00
  0.00000000E+00  0.00000000E+00  0.00000000E+00
  0.00000000E+00  0.00000000E+00  0.00000000E+00
  0.00000000E+00  0.00000000E+00  0.00000000E+00
  0.00000000E+00  0.00000000E+00  0.00000000E+00
  0.00000000E+00  0.00000000E+00  0.00000000E+00
  0.00000000E+00  0.00000000E+00  0.00000000E+00
  0.00000000E+00  0.00000000E+00  0.00000000E+00
  0.00000000E+00  0.00000000E+00  0.00000000E+00
  0.00000000E+00  0.00000000E+00  0.00000000E+00
  0.00000000E+00  0.00000000E+00  0.00000000E+00
  0.00000000E+00  0.00000000E+00  0.00000000E+00
  0.00000000E+00  0.00000000E+00  0.00000000E+00
  0.00000000E+00  0.00000000E+00  0.00000000E+00
  0.00000000E+00  0.00000000E+00  0.00000000E+00
  0.00000000E+00  0.00000000E+00  0.00000000E+00
  0.00000000E+00  0.00000000E+00  0.00000000E+00
  0.00000000E+00  0.00000000E+00  0.00000000E+00
  0.00000000E+00  0.00000000E+00  0.00000000E+00
  0.00000000E+00  0.00000000E+00  0.00000000E+00
  0.00000000E+00  0.00000000E+00  0.00000000E+00
  0.00000000E+00  0.00000000E+00  0.00000000E+00
  0.00000000E+00  0.00000000E+00  0.00000000E+00
  0.00000000E+00  0.00000000E+00  0.00000000E+00
  0.00000000E+00  0.00000000E+00  0.00000000E+00
  0.00000000E+00  0.00000000E+00  0.00000000E+00
  0.00000000E+00  0.00000000E+00  0.00000000E+00
  0.00000000E+00  0.00000000E+00  0.00000000E+00
  0.00000000E+00  0.00000000E+00  0.00000000E+00
  0.00000000E+00  0.00000000E+00  0.00000000E+00
  0.00000000E+00  0.00000000E+00  0.00000000E+00
  0.00000000E+00  0.00000000E+00  0.00000000E+00
  0.00000000E+00  0.00000000E+00  0.00000000E+00
