CONTCAR\(2)                             
   1.00000000000000     
    12.5194997787000002    0.0000000000000000    0.0000000000000000
    -6.2597454489000004   10.8416303779999996    0.0000000000000000
     0.0000000000000000    0.0000000000000000   15.0000000000000000
   Re
     1
Direct
  0.4645515551412061  0.5353998297456215  0.2368462535760472
 
  0.00000000E+00  0.00000000E+00  0.00000000E+00
