CONTCAR\(2)                             
   1.00000000000000     
    12.6478004455999997    0.0000000000000000    0.0000000000000000
    -6.3238812619999996   10.9533274348000003    0.0000000000000000
     0.0000000000000000    0.0000000000000000   18.1298007964999996
   Mo   S    H 
    16    32     1
Direct
  0.0828692159590497  0.1656987668950083  0.5004579574594346
  0.3328263510453430  0.1656732441087938  0.5004496729845613
  0.5832865058785593  0.1666405371222867  0.5001249637644847
  0.8333309355764983  0.1666523281721439  0.5001254233475571
  0.0835191250079298  0.4167488538926251  0.5005891580368660
  0.3339128855630987  0.4178088044746489  0.5014532952593518
  0.5831942545964783  0.4166989702405958  0.5005871182955998
  0.8333281798126928  0.4166622616440857  0.5001270553935586
  0.0828867227794503  0.6671609683518107  0.5004641966940653
  0.3339100827820859  0.6661105307845979  0.5014559758162495
  0.5822428851194883  0.6661198874762045  0.5014709211600209
  0.8342075557952547  0.6671416246016920  0.5004618463552837
  0.0832978440171751  0.9166407507262689  0.5002125715219824
  0.3328320926777605  0.9171420638304011  0.5004504472819892
  0.5832049385606309  0.9164939212616475  0.5005877794219988
  0.8342110014167110  0.9170603280393613  0.5004614141303159
  0.1663188835918892  0.0826502930731686  0.5869063025644172
  0.1665965683122274  0.0832235391401565  0.4137312411521064
  0.4170354099523753  0.0835154097736618  0.5869152626740037
  0.4165146752605198  0.0832544145142724  0.4136350637168717
  0.6667811316437595  0.0835901927839450  0.5867030654917841
  0.6663505296153962  0.0827242699384969  0.4137381199047418
  0.9164628977162181  0.0835020002645756  0.5868895620820799
  0.9167142973121666  0.0832343486197778  0.4136635350232161
  0.1648461288555487  0.3318250501496007  0.5875217397324087
  0.1677724454900564  0.3336519593396902  0.4144567200940665
  0.4169348036678944  0.3318156449407050  0.5875188140741270
  0.4158501953194265  0.3336477633267101  0.4144582020042844
  0.6667749267941411  0.3331904846563057  0.5867022950264900
  0.6663481548692770  0.3336161074357411  0.4137387458212810
  0.9164220905719398  0.3332021668686582  0.5867075720329877
  0.9172718954103239  0.3336312195948518  0.4137392060410917
  0.1648531965494671  0.5830018534698170  0.5875242218934082
  0.1677588412564645  0.5840954638320994  0.4144539600582197
  0.4169481924027810  0.5835149900553795  0.5865466632040399
  0.4167090585787187  0.5833567546362821  0.4134735435801762
  0.6680705382978578  0.5829742055572043  0.5875194313685529
  0.6662677774368893  0.5840042985537393  0.4144350063553829
  0.9164637009495434  0.5829502006308596  0.5868870196935926
  0.9167187667955957  0.5834725187340113  0.4136711983407453
  0.1663251068220157  0.8336636996928568  0.5869105899691457
  0.1666003373980325  0.8333604210652295  0.4137360885062343
  0.4169446077579027  0.8351110284852225  0.5875188631273333
  0.4158623963376870  0.8322054550159469  0.4144546945045856
  0.6680631494271850  0.8350762666965547  0.5875225650438595
  0.6662738130923949  0.8322477353789427  0.4144398978217343
  0.9173002283298386  0.8336436557368433  0.5869237290343062
  0.9167209566226638  0.8333541877812582  0.4137388277282342
  0.4194938789736243  0.5851578966353236  0.6640084614111695
 
  0.00000000E+00  0.00000000E+00  0.00000000E+00
  0.00000000E+00  0.00000000E+00  0.00000000E+00
  0.00000000E+00  0.00000000E+00  0.00000000E+00
  0.00000000E+00  0.00000000E+00  0.00000000E+00
  0.00000000E+00  0.00000000E+00  0.00000000E+00
  0.00000000E+00  0.00000000E+00  0.00000000E+00
  0.00000000E+00  0.00000000E+00  0.00000000E+00
  0.00000000E+00  0.00000000E+00  0.00000000E+00
  0.00000000E+00  0.00000000E+00  0.00000000E+00
  0.00000000E+00  0.00000000E+00  0.00000000E+00
  0.00000000E+00  0.00000000E+00  0.00000000E+00
  0.00000000E+00  0.00000000E+00  0.00000000E+00
  0.00000000E+00  0.00000000E+00  0.00000000E+00
  0.00000000E+00  0.00000000E+00  0.00000000E+00
  0.00000000E+00  0.00000000E+00  0.00000000E+00
  0.00000000E+00  0.00000000E+00  0.00000000E+00
  0.00000000E+00  0.00000000E+00  0.00000000E+00
  0.00000000E+00  0.00000000E+00  0.00000000E+00
  0.00000000E+00  0.00000000E+00  0.00000000E+00
  0.00000000E+00  0.00000000E+00  0.00000000E+00
  0.00000000E+00  0.00000000E+00  0.00000000E+00
  0.00000000E+00  0.00000000E+00  0.00000000E+00
  0.00000000E+00  0.00000000E+00  0.00000000E+00
  0.00000000E+00  0.00000000E+00  0.00000000E+00
  0.00000000E+00  0.00000000E+00  0.00000000E+00
  0.00000000E+00  0.00000000E+00  0.00000000E+00
  0.00000000E+00  0.00000000E+00  0.00000000E+00
  0.00000000E+00  0.00000000E+00  0.00000000E+00
  0.00000000E+00  0.00000000E+00  0.00000000E+00
  0.00000000E+00  0.00000000E+00  0.00000000E+00
  0.00000000E+00  0.00000000E+00  0.00000000E+00
  0.00000000E+00  0.00000000E+00  0.00000000E+00
  0.00000000E+00  0.00000000E+00  0.00000000E+00
  0.00000000E+00  0.00000000E+00  0.00000000E+00
  0.00000000E+00  0.00000000E+00  0.00000000E+00
  0.00000000E+00  0.00000000E+00  0.00000000E+00
  0.00000000E+00  0.00000000E+00  0.00000000E+00
  0.00000000E+00  0.00000000E+00  0.00000000E+00
  0.00000000E+00  0.00000000E+00  0.00000000E+00
  0.00000000E+00  0.00000000E+00  0.00000000E+00
  0.00000000E+00  0.00000000E+00  0.00000000E+00
  0.00000000E+00  0.00000000E+00  0.00000000E+00
  0.00000000E+00  0.00000000E+00  0.00000000E+00
  0.00000000E+00  0.00000000E+00  0.00000000E+00
  0.00000000E+00  0.00000000E+00  0.00000000E+00
  0.00000000E+00  0.00000000E+00  0.00000000E+00
  0.00000000E+00  0.00000000E+00  0.00000000E+00
  0.00000000E+00  0.00000000E+00  0.00000000E+00
  0.00000000E+00  0.00000000E+00  0.00000000E+00
