CONTCAR\(2)                             
   1.00000000000000     
    13.8733997344999995    0.0000000000000000    0.0000000000000000
    -5.2025367581999999   10.8861146155000004    0.0000000000000000
     0.0000000000000000    0.0000000000000000   17.9979991912999999
   Cu   Br   O 
    12    24     1
Direct
  0.0005890109777300  0.0016840646196894  0.5016825749404449
  0.2504202806294968  0.0000647121320243  0.5039989093943045
  0.4998133132505311  0.0007374441936432  0.5018943948821792
  0.7516348062144358  0.0024790587233752  0.5006024761855076
 -0.0000039601558711  0.3334377010709788  0.5019006013510695
  0.2396998185975827  0.3384668558875220  0.5008710456715180
  0.5141565914307510  0.3387276811808582  0.5008091732679314
  0.7501693109061183  0.3337197936098313  0.5021898729420075
  0.0012501205552184  0.6687186636920026  0.4995147597419031
  0.2518417569423178  0.6731456088056453  0.4974886005947451
  0.5063357113423980  0.6820816413119470  0.4933853746726273
  0.7526586727552370  0.6745970083570080  0.4968272937169887
  0.1028439702212176  0.9377166130136754  0.4169647664335650
  0.1509793130735374  0.0707675222384917  0.5870624285157696
  0.3504589059602239  0.9374430635448641  0.4167070483077885
  0.4020315531149936  0.0706065558365293  0.5873257975103670
  0.5986948649900450  0.9299771211380934  0.4170179908785306
  0.6521010382599397  0.0714640625815746  0.5849721206157596
  0.8501816927507685  0.9315594378608156  0.4167704883131205
  0.9022295237751490  0.0725485887934399  0.5851963090643996
  0.0949359958494744  0.2641647847443998  0.4134379611070447
  0.1505856127637968  0.4070825894564203  0.5877178361989747
  0.3554553295212468  0.2811983760454017  0.4317121576928064
  0.4012918265958975  0.4032780417239361  0.5863519249584688
  0.6031342651263379  0.2636906163243256  0.4138102943108571
  0.6542041431385802  0.4061630292604678  0.5882251901503973
  0.8485965141645878  0.2632022524302550  0.4180619154968824
  0.9020364168505042  0.4051333798747841  0.5857102117504097
  0.0995664500580264  0.6003478016159115  0.4145274891345609
  0.1525150134317976  0.7395403606898907  0.5832783434966645
  0.3502968769317412  0.6030591690602302  0.4131754313905647
  0.4029690220854170  0.7393113243657695  0.5815445935185033
  0.6015351066311172  0.6018628255557593  0.4128837727198336
  0.6510907163221383  0.7380066590584884  0.5821085777442989
  0.8506288239202294  0.5996224216138044  0.4150961085454781
  0.9019585010654722  0.7391023174489054  0.5827563838900514
  0.4286735929518076  0.4759122021392461  0.6715993778937039
 
  0.00000000E+00  0.00000000E+00  0.00000000E+00
  0.00000000E+00  0.00000000E+00  0.00000000E+00
  0.00000000E+00  0.00000000E+00  0.00000000E+00
  0.00000000E+00  0.00000000E+00  0.00000000E+00
  0.00000000E+00  0.00000000E+00  0.00000000E+00
  0.00000000E+00  0.00000000E+00  0.00000000E+00
  0.00000000E+00  0.00000000E+00  0.00000000E+00
  0.00000000E+00  0.00000000E+00  0.00000000E+00
  0.00000000E+00  0.00000000E+00  0.00000000E+00
  0.00000000E+00  0.00000000E+00  0.00000000E+00
  0.00000000E+00  0.00000000E+00  0.00000000E+00
  0.00000000E+00  0.00000000E+00  0.00000000E+00
  0.00000000E+00  0.00000000E+00  0.00000000E+00
  0.00000000E+00  0.00000000E+00  0.00000000E+00
  0.00000000E+00  0.00000000E+00  0.00000000E+00
  0.00000000E+00  0.00000000E+00  0.00000000E+00
  0.00000000E+00  0.00000000E+00  0.00000000E+00
  0.00000000E+00  0.00000000E+00  0.00000000E+00
  0.00000000E+00  0.00000000E+00  0.00000000E+00
  0.00000000E+00  0.00000000E+00  0.00000000E+00
  0.00000000E+00  0.00000000E+00  0.00000000E+00
  0.00000000E+00  0.00000000E+00  0.00000000E+00
  0.00000000E+00  0.00000000E+00  0.00000000E+00
  0.00000000E+00  0.00000000E+00  0.00000000E+00
  0.00000000E+00  0.00000000E+00  0.00000000E+00
  0.00000000E+00  0.00000000E+00  0.00000000E+00
  0.00000000E+00  0.00000000E+00  0.00000000E+00
  0.00000000E+00  0.00000000E+00  0.00000000E+00
  0.00000000E+00  0.00000000E+00  0.00000000E+00
  0.00000000E+00  0.00000000E+00  0.00000000E+00
  0.00000000E+00  0.00000000E+00  0.00000000E+00
  0.00000000E+00  0.00000000E+00  0.00000000E+00
  0.00000000E+00  0.00000000E+00  0.00000000E+00
  0.00000000E+00  0.00000000E+00  0.00000000E+00
  0.00000000E+00  0.00000000E+00  0.00000000E+00
  0.00000000E+00  0.00000000E+00  0.00000000E+00
  0.00000000E+00  0.00000000E+00  0.00000000E+00
