CONTCAR\(13)                            
   1.00000000000000     
    12.6978998183999998    0.0000000000000000    0.0000000000000000
     0.0000000000000000   11.4748001099000003    0.0000000000000000
     0.0000000000000000    0.0000000000000000   18.8323001862000012
   Ta   Si   Te   O 
    12     4    24     1
Direct
  0.3270359937723818  0.5921089239074648  0.5006628067393967
  0.0786439276968616  0.4152046357399822  0.5036501842711982
  0.4821026754273223  0.9380071962163101  0.5000142618948921
  0.2327251592570637  0.0640261439894968  0.5031845797959699
  0.3478398715248651  0.2911533779215799  0.5158364926214094
  0.0944455081124298  0.7163535313259276  0.5007672539429077
  0.8303638040740178  0.5844009291940230  0.5005212554635581
  0.5910359866895561  0.4194723652083107  0.5014632029606493
  0.9801067935343540  0.9388023841301777  0.5005145702349042
  0.7302533816002081  0.0624647412248104  0.5013188774905639
  0.8435988354237275  0.2862108151402630  0.5013531586227693
  0.5939425465740276  0.7152012399734629  0.5022325713753467
  0.2829541105456457  0.8276074930528845  0.4986701799177032
  0.0317974384485356  0.1750489198250327  0.5009069732195073
  0.7851429149934446  0.8245508678751829  0.5010487309686809
  0.5344820169475673  0.1765600766997489  0.5054407081632895
  0.3968022752379615  0.0802594744129158  0.6034187411861720
  0.1448917931052924  0.9088879976658588  0.4007588224876522
  0.1442480515538865  0.9053791647699040  0.6007040718838802
  0.3972231238750308  0.0996344321284979  0.4042104167588231
  0.4208142284441191  0.7576806386618011  0.5994318772959203
  0.1772686680782343  0.2558655443174180  0.4093480345000545
  0.1599008933860057  0.2444532645457063  0.6014127110131584
  0.4253468435908421  0.7478509168319062  0.4027429015477577
  0.4451057477436668  0.4759440876185285  0.6053500398221306
  0.1697847615549744  0.5659879152073410  0.3985431510303163
  0.1714773386112762  0.5691436928659774  0.6047008553237352
  0.4204619494785088  0.4300023477880802  0.4055847546991470
  0.8943091683004277  0.0946586586342329  0.6009308103168925
  0.6471247711701644  0.9046714480366267  0.4006443619146113
  0.6467308521287780  0.9052372559922300  0.6015834187243394
  0.8924917292778946  0.0947160804054208  0.4004428375443185
  0.9246399353014865  0.7473175011443107  0.5980987985670503
  0.6713807995365861  0.2519076456161523  0.4042559208343606
  0.6755388011592012  0.2551221589787189  0.6003186266108357
  0.9239966755043076  0.7473974362542248  0.4032581907551970
  0.9201645231071358  0.4326843169466773  0.6052198441811937
  0.6716387551034450  0.5708457980752899  0.3973398401967637
  0.6801762029731017  0.5740599440308839  0.6071815113536101
  0.9216926180771461  0.4321892969466980  0.3984304037928321
  0.3630684980785324  0.3266592346998942  0.6179334129764802
 
  0.00000000E+00  0.00000000E+00  0.00000000E+00
  0.00000000E+00  0.00000000E+00  0.00000000E+00
  0.00000000E+00  0.00000000E+00  0.00000000E+00
  0.00000000E+00  0.00000000E+00  0.00000000E+00
  0.00000000E+00  0.00000000E+00  0.00000000E+00
  0.00000000E+00  0.00000000E+00  0.00000000E+00
  0.00000000E+00  0.00000000E+00  0.00000000E+00
  0.00000000E+00  0.00000000E+00  0.00000000E+00
  0.00000000E+00  0.00000000E+00  0.00000000E+00
  0.00000000E+00  0.00000000E+00  0.00000000E+00
  0.00000000E+00  0.00000000E+00  0.00000000E+00
  0.00000000E+00  0.00000000E+00  0.00000000E+00
  0.00000000E+00  0.00000000E+00  0.00000000E+00
  0.00000000E+00  0.00000000E+00  0.00000000E+00
  0.00000000E+00  0.00000000E+00  0.00000000E+00
  0.00000000E+00  0.00000000E+00  0.00000000E+00
  0.00000000E+00  0.00000000E+00  0.00000000E+00
  0.00000000E+00  0.00000000E+00  0.00000000E+00
  0.00000000E+00  0.00000000E+00  0.00000000E+00
  0.00000000E+00  0.00000000E+00  0.00000000E+00
  0.00000000E+00  0.00000000E+00  0.00000000E+00
  0.00000000E+00  0.00000000E+00  0.00000000E+00
  0.00000000E+00  0.00000000E+00  0.00000000E+00
  0.00000000E+00  0.00000000E+00  0.00000000E+00
  0.00000000E+00  0.00000000E+00  0.00000000E+00
  0.00000000E+00  0.00000000E+00  0.00000000E+00
  0.00000000E+00  0.00000000E+00  0.00000000E+00
  0.00000000E+00  0.00000000E+00  0.00000000E+00
  0.00000000E+00  0.00000000E+00  0.00000000E+00
  0.00000000E+00  0.00000000E+00  0.00000000E+00
  0.00000000E+00  0.00000000E+00  0.00000000E+00
  0.00000000E+00  0.00000000E+00  0.00000000E+00
  0.00000000E+00  0.00000000E+00  0.00000000E+00
  0.00000000E+00  0.00000000E+00  0.00000000E+00
  0.00000000E+00  0.00000000E+00  0.00000000E+00
  0.00000000E+00  0.00000000E+00  0.00000000E+00
  0.00000000E+00  0.00000000E+00  0.00000000E+00
  0.00000000E+00  0.00000000E+00  0.00000000E+00
  0.00000000E+00  0.00000000E+00  0.00000000E+00
  0.00000000E+00  0.00000000E+00  0.00000000E+00
  0.00000000E+00  0.00000000E+00  0.00000000E+00
