CONTCAR\(5)                             
   1.00000000000000     
    15.2346000671000006    0.0000000000000000    0.0000000000000000
     0.0000000000000000   15.2346000671000006    0.0000000000000000
     0.0000000000000000    0.0000000000000000   23.7810993195000009
   Ca   Cu   Cl   O 
    48    32    32    65
Direct
  0.0000009692405527 -0.0000000000000000  0.4999948101509784
  0.0000008334091746 -0.0000000000000000  0.3666575096721608
  0.0000008154364579 -0.0000000000000000  0.6333681665828963
  0.2500928628768219 -0.0000000000000000  0.4999617498095904
  0.2500651408307716 -0.0000000000000000  0.3666176494464397
  0.2501214504622954 -0.0000000000000000  0.6332797739653296
  0.5000006640576729 -0.0000000000000000  0.5000654379868908
  0.5000003815921019 -0.0000000000000000  0.3666775430074001
  0.5000005854694010 -0.0000000000000000  0.6333836029370885
  0.7499078857630624 -0.0000000000000000  0.4999628955186114
  0.7499359036137022 -0.0000000000000000  0.3666173133104140
  0.7498796348646902 -0.0000000000000000  0.6332786652494443
  0.0000010332304186  0.2500926061095140  0.4999622848995503
  0.0000005147536797  0.2500647560389181  0.3666173431172128
  0.0000014081661064  0.2501204193622261  0.6332788474842582
  0.2502057372020844  0.2502048522908966  0.5000930092595519
  0.2501183134271493  0.2501172014228367  0.3666721340207676
  0.2496753671673455  0.2496742854298087  0.6334316074679719
  0.5000007424812551  0.2503195641356613  0.5006274609434613
  0.5000011961138853  0.2501649841852604  0.3671084073546950
  0.5000013600211943  0.2499340878347596  0.6341020226452254
  0.7497955116216445  0.2502052071353917  0.5000919677311808
  0.7498825451075910  0.2501183837463593  0.3666716565431901
  0.7503271796448379  0.2496733274712464  0.6334304958013376
  0.0000006846926794  0.5000000000000000  0.5000654537786676
  0.9999999652314600  0.5000000000000000  0.3666776169098203
  0.0000018078328097  0.5000000000000000  0.6333828649566313
  0.2503204530828030  0.5000000000000000  0.5006277012920379
  0.2501656623524361  0.5000000000000000  0.3671083344734740
  0.2499351386432523  0.5000000000000000  0.6341013502186736
  0.5000007196138725  0.5000000000000000  0.5030273769952314
  0.5000016551244570  0.5000000000000000  0.3683608963400177
  0.5000009151042875  0.5000000000000000  0.6387091636983458
  0.7496810369705328  0.5000000000000000  0.5006270761571856
  0.7498354718257764  0.5000000000000000  0.3671085619845471
  0.7500662235737819  0.5000000000000000  0.6341021770972428
  0.0000010332304186  0.7499073938904860  0.4999622848995503
  0.0000005147536797  0.7499352439610817  0.3666173431172128
  0.0000014081661064  0.7498795806377739  0.6332788474842582
  0.2502057372020844  0.7497951477091035  0.5000930092595519
  0.2501183134271493  0.7498827985771634  0.3666721340207676
  0.2496753671673455  0.7503257145701914  0.6334316074679719
  0.5000007424812551  0.7496804358643386  0.5006274609434613
  0.5000011961138853  0.7498350158147394  0.3671084073546950
  0.5000013600211943  0.7500659121652403  0.6341020226452254
  0.7497955116216445  0.7497947928646084  0.5000919677311808
  0.7498825451075910  0.7498816162536408  0.3666716565431901
  0.7503271796448379  0.7503266725287536  0.6334304958013376
  0.1250107574159006  0.1250083914284520  0.5631925423771058
  0.1250459817027524  0.1250454672870495  0.4366082497145403
  0.3750415251023343  0.1249719231795657  0.5632828855283772
  0.3750254924632776  0.1250451526976117  0.4366496897995165
  0.6249602202920086  0.1249697893803306  0.5632822292101064
  0.6249755980465201  0.1250457034480543  0.4366494122309563
  0.8749938278125525  0.1250084260511673  0.5631924103224826
  0.8749538194640063  0.1250469716932064  0.4366082828530527
  0.1249734931393225  0.3750400351352655  0.5632826308300490
  0.1250465951917572  0.3750246810536643  0.4366495587207242
  0.3750781188637589  0.3750744348051470  0.5647211261016024
  0.3750416053679725  0.3750421973308743  0.4372374372095305
  0.6249253907826671  0.3750780209270317  0.5647207518348693
  0.6249608510543713  0.3750393501984600  0.4372381324843015
  0.8750320848043667  0.3750413142983947  0.5632821360448940
  0.8749553037690748  0.3750254018922922  0.4366494146235100
  0.1249734931393225  0.6249599958647336  0.5632826308300490
  0.1250465951917572  0.6249753499463344  0.4366495587207242
  0.3750781188637589  0.6249255961948521  0.5647211261016024
  0.3750416053679725  0.6249578336691247  0.4372374372095305
  0.6249253907826671  0.6249220100729673  0.5647207518348693
  0.6249608510543713  0.6249606808015390  0.4372381324843015
  0.8750320848043667  0.6249587167016044  0.5632821360448940
  0.8749553037690748  0.6249746291077065  0.4366494146235100
  0.1250107574159006  0.8749915775715492  0.5631925423771058
  0.1250459817027524  0.8749545017129516  0.4366082497145403
  0.3750415251023343  0.8750280458204354  0.5632828855283772
  0.3750254924632776  0.8749548163023891  0.4366496897995165
  0.6249602202920086  0.8750301796196704  0.5632822292101064
  0.6249755980465201  0.8749542655519466  0.4366494122309563
  0.8749938278125525  0.8749915429488339  0.5631924103224826
  0.8749538194640063  0.8749529973067947  0.4366082828530527
  0.1248969037702540  0.1248958968258807  0.6860909410969219
  0.1249969014471611  0.1249956778799935  0.3138136951236875
  0.3748308890445672  0.1235195172530489  0.6857951481754511
  0.3750563752068280  0.1250759781650024  0.3138103521692262
  0.6251706267377484  0.1235172812648436  0.6857938580947901
  0.6249451622416624  0.1250762990608954  0.3138099233042187
  0.8751057341109059  0.1248956197911869  0.6860910422835579
  0.8750049894145429  0.1249955676766626  0.3138136265118690
  0.1235205353965562  0.3748301481516380  0.6857944115019093
  0.1250769864030679  0.3750552809402129  0.3138101000861926
  0.3693337000977989  0.3693334160355745  0.6857660037079607
  0.3755005723426962  0.3754994354435809  0.3145114740672982
  0.6306724751197010  0.3693280365491786  0.6857663690171232
  0.6245009011301248  0.3755000849996520  0.3145112754800680
  0.8764814040971721  0.3748298170488767  0.6857919650103027
  0.8749245574409890  0.3750558406580885  0.3138102007203248
  0.1235205353965562  0.6251698828483609  0.6857944115019093
  0.1250769864030679  0.6249447500597862  0.3138101000861926
  0.3693337000977989  0.6306666149644244  0.6857660037079607
  0.3755005723426962  0.6245005955564180  0.3145114740672982
  0.6306724751197010  0.6306719944508132  0.6857663690171232
  0.6245009011301248  0.6244999460003469  0.3145112754800680
  0.8764814040971721  0.6251702139511222  0.6857919650103027
  0.8749245574409890  0.6249441903419106  0.3138102007203248
  0.1248969037702540  0.8751040721741203  0.6860909410969219
  0.1249969014471611  0.8750042911200078  0.3138136951236875
  0.3748308890445672  0.8764804517469521  0.6857951481754511
  0.3750563752068280  0.8749239908349984  0.3138103521692262
  0.6251706267377484  0.8764826877351574  0.6857938580947901
  0.6249451622416624  0.8749236699391054  0.3138099233042187
  0.8751057341109059  0.8751043492088142  0.6860910422835579
  0.8750049894145429  0.8750044013233387  0.3138136265118690
  0.9999980015406251  0.1249024852360303  0.5676305133666539
  0.1249041268384398 -0.0000000000000000  0.5676307157269016
  0.1249855036140070 -0.0000000000000000  0.4322221093535844
  0.0000012809768108  0.1249877997463934  0.4322235041230044
  0.2499828491083180  0.1248235886179015  0.5674931530296796
  0.3750221147585625 -0.0000000000000000  0.5671470697933573
  0.3750116480979839 -0.0000000000000000  0.4320287861476436
  0.2500332704300118  0.1249882378183078  0.4321642159801549
  0.4999985913665199  0.1250498336025468  0.5679154074709770
  0.6249787391654448 -0.0000000000000000  0.5671460543020573
  0.6249907200588299 -0.0000000000000000  0.4320284382082454
  0.5000006456680168  0.1250153449591010  0.4324292844389120
  0.7500212274568725  0.1248235571893599  0.5674923188306586
  0.8750984947117192 -0.0000000000000000  0.5676305870140177
  0.8750134196274566 -0.0000000000000000  0.4322237205070635
  0.7499682048012748  0.1249875506800895  0.4321639316217266
  0.9999984178826793  0.3750218165272135  0.5671466279799519
  0.1248245651700455  0.2499809115677154  0.5674927733760164
  0.1249892361576532  0.2500319150755342  0.4321640984677622
  0.9999955286199125  0.3750111668649181  0.4320293781174447
  0.2498508792704848  0.3748111529114296  0.5672581709845359
  0.3748122020871945  0.2498496764277101  0.5672587113822998
  0.3749675561204983  0.2500597395565535  0.4321411481841810
  0.2500633813721492  0.3749666092979739  0.4321418377055952
  0.4999984371068891  0.3740312702175714  0.5692736228710239
  0.6251898792569265  0.2498500404330195  0.5672566033630970
  0.6250345448461273  0.2500607704297323  0.4321413983529698
  0.4999981157877897  0.3750093341162250  0.4335624044613117
  0.7501506152393254  0.3748112833243936  0.5672566625477542
  0.8751775804882614  0.2499804537726904  0.5674924810198470
  0.8750117646420955  0.2500335641712991  0.4321628214272942
  0.7499423008039032  0.3749661653594915  0.4321407076875818
  0.9999984178826793  0.6249782144727857  0.5671466279799519
  0.1250511044395007  0.5000000000000000  0.5679147581616631
  0.1250167245476120  0.5000000000000000  0.4324289164172384
  0.9999955286199125  0.6249888641350810  0.4320293781174447
  0.2498508792704848  0.6251888780885694  0.5672581709845359
  0.3740330661823776  0.5000000000000000  0.5692723997578647
  0.3750091434038831  0.5000000000000000  0.4335617787346057
  0.2500633813721492  0.6250334217020251  0.4321418377055952
  0.4999984371068891  0.6259687607824276  0.5692736228710239
  0.6259677853861874  0.5000000000000000  0.5692749936970366
  0.6249905171167532  0.5000000000000000  0.4335627486764712
  0.4999981157877897  0.6249906968837741  0.4335624044613117
  0.7501506152393254  0.6251887476756054  0.5672566625477542
  0.8749513419121930  0.5000000000000000  0.5679159142335947
  0.8749858935888937  0.5000000000000000  0.4324297074434127
  0.7499423008039032  0.6250338656405076  0.4321407076875818
  0.9999980015406251  0.8750974837639706  0.5676305133666539
  0.1248245651700455  0.7500190884322848  0.5674927733760164
  0.1249892361576532  0.7499680849244659  0.4321640984677622
  0.0000012809768108  0.8750121692536077  0.4322235041230044
  0.2499828491083180  0.8751763803820994  0.5674931530296796
  0.3748122020871945  0.7501503235722899  0.5672587113822998
  0.3749675561204983  0.7499402604434466  0.4321411481841810
  0.2500332704300118  0.8750117311816931  0.4321642159801549
  0.4999985913665199  0.8749501353974543  0.5679154074709770
  0.6251898792569265  0.7501499595669805  0.5672566033630970
  0.6250345448461273  0.7499392295702678  0.4321413983529698
  0.5000006456680168  0.8749846240408998  0.4324292844389120
  0.7500212274568725  0.8751764118106410  0.5674923188306586
  0.8751775804882614  0.7500195462273098  0.5674924810198470
  0.8750117646420955  0.7499664358287010  0.4321628214272942
  0.7499682048012748  0.8750124183199114  0.4321639316217266
  0.5000040850612635  0.4999800000000008  0.7357859936954266
 
  0.00000000E+00  0.00000000E+00  0.00000000E+00
  0.00000000E+00  0.00000000E+00  0.00000000E+00
  0.00000000E+00  0.00000000E+00  0.00000000E+00
  0.00000000E+00  0.00000000E+00  0.00000000E+00
  0.00000000E+00  0.00000000E+00  0.00000000E+00
  0.00000000E+00  0.00000000E+00  0.00000000E+00
  0.00000000E+00  0.00000000E+00  0.00000000E+00
  0.00000000E+00  0.00000000E+00  0.00000000E+00
  0.00000000E+00  0.00000000E+00  0.00000000E+00
  0.00000000E+00  0.00000000E+00  0.00000000E+00
  0.00000000E+00  0.00000000E+00  0.00000000E+00
  0.00000000E+00  0.00000000E+00  0.00000000E+00
  0.00000000E+00  0.00000000E+00  0.00000000E+00
  0.00000000E+00  0.00000000E+00  0.00000000E+00
  0.00000000E+00  0.00000000E+00  0.00000000E+00
  0.00000000E+00  0.00000000E+00  0.00000000E+00
  0.00000000E+00  0.00000000E+00  0.00000000E+00
  0.00000000E+00  0.00000000E+00  0.00000000E+00
  0.00000000E+00  0.00000000E+00  0.00000000E+00
  0.00000000E+00  0.00000000E+00  0.00000000E+00
  0.00000000E+00  0.00000000E+00  0.00000000E+00
  0.00000000E+00  0.00000000E+00  0.00000000E+00
  0.00000000E+00  0.00000000E+00  0.00000000E+00
  0.00000000E+00  0.00000000E+00  0.00000000E+00
  0.00000000E+00  0.00000000E+00  0.00000000E+00
  0.00000000E+00  0.00000000E+00  0.00000000E+00
  0.00000000E+00  0.00000000E+00  0.00000000E+00
  0.00000000E+00  0.00000000E+00  0.00000000E+00
  0.00000000E+00  0.00000000E+00  0.00000000E+00
  0.00000000E+00  0.00000000E+00  0.00000000E+00
  0.00000000E+00  0.00000000E+00  0.00000000E+00
  0.00000000E+00  0.00000000E+00  0.00000000E+00
  0.00000000E+00  0.00000000E+00  0.00000000E+00
  0.00000000E+00  0.00000000E+00  0.00000000E+00
  0.00000000E+00  0.00000000E+00  0.00000000E+00
  0.00000000E+00  0.00000000E+00  0.00000000E+00
  0.00000000E+00  0.00000000E+00  0.00000000E+00
  0.00000000E+00  0.00000000E+00  0.00000000E+00
  0.00000000E+00  0.00000000E+00  0.00000000E+00
  0.00000000E+00  0.00000000E+00  0.00000000E+00
  0.00000000E+00  0.00000000E+00  0.00000000E+00
  0.00000000E+00  0.00000000E+00  0.00000000E+00
  0.00000000E+00  0.00000000E+00  0.00000000E+00
  0.00000000E+00  0.00000000E+00  0.00000000E+00
  0.00000000E+00  0.00000000E+00  0.00000000E+00
  0.00000000E+00  0.00000000E+00  0.00000000E+00
  0.00000000E+00  0.00000000E+00  0.00000000E+00
  0.00000000E+00  0.00000000E+00  0.00000000E+00
  0.00000000E+00  0.00000000E+00  0.00000000E+00
  0.00000000E+00  0.00000000E+00  0.00000000E+00
  0.00000000E+00  0.00000000E+00  0.00000000E+00
  0.00000000E+00  0.00000000E+00  0.00000000E+00
  0.00000000E+00  0.00000000E+00  0.00000000E+00
  0.00000000E+00  0.00000000E+00  0.00000000E+00
  0.00000000E+00  0.00000000E+00  0.00000000E+00
  0.00000000E+00  0.00000000E+00  0.00000000E+00
  0.00000000E+00  0.00000000E+00  0.00000000E+00
  0.00000000E+00  0.00000000E+00  0.00000000E+00
  0.00000000E+00  0.00000000E+00  0.00000000E+00
  0.00000000E+00  0.00000000E+00  0.00000000E+00
  0.00000000E+00  0.00000000E+00  0.00000000E+00
  0.00000000E+00  0.00000000E+00  0.00000000E+00
  0.00000000E+00  0.00000000E+00  0.00000000E+00
  0.00000000E+00  0.00000000E+00  0.00000000E+00
  0.00000000E+00  0.00000000E+00  0.00000000E+00
  0.00000000E+00  0.00000000E+00  0.00000000E+00
  0.00000000E+00  0.00000000E+00  0.00000000E+00
  0.00000000E+00  0.00000000E+00  0.00000000E+00
  0.00000000E+00  0.00000000E+00  0.00000000E+00
  0.00000000E+00  0.00000000E+00  0.00000000E+00
  0.00000000E+00  0.00000000E+00  0.00000000E+00
  0.00000000E+00  0.00000000E+00  0.00000000E+00
  0.00000000E+00  0.00000000E+00  0.00000000E+00
  0.00000000E+00  0.00000000E+00  0.00000000E+00
  0.00000000E+00  0.00000000E+00  0.00000000E+00
  0.00000000E+00  0.00000000E+00  0.00000000E+00
  0.00000000E+00  0.00000000E+00  0.00000000E+00
  0.00000000E+00  0.00000000E+00  0.00000000E+00
  0.00000000E+00  0.00000000E+00  0.00000000E+00
  0.00000000E+00  0.00000000E+00  0.00000000E+00
  0.00000000E+00  0.00000000E+00  0.00000000E+00
  0.00000000E+00  0.00000000E+00  0.00000000E+00
  0.00000000E+00  0.00000000E+00  0.00000000E+00
  0.00000000E+00  0.00000000E+00  0.00000000E+00
  0.00000000E+00  0.00000000E+00  0.00000000E+00
  0.00000000E+00  0.00000000E+00  0.00000000E+00
  0.00000000E+00  0.00000000E+00  0.00000000E+00
  0.00000000E+00  0.00000000E+00  0.00000000E+00
  0.00000000E+00  0.00000000E+00  0.00000000E+00
  0.00000000E+00  0.00000000E+00  0.00000000E+00
  0.00000000E+00  0.00000000E+00  0.00000000E+00
  0.00000000E+00  0.00000000E+00  0.00000000E+00
  0.00000000E+00  0.00000000E+00  0.00000000E+00
  0.00000000E+00  0.00000000E+00  0.00000000E+00
  0.00000000E+00  0.00000000E+00  0.00000000E+00
  0.00000000E+00  0.00000000E+00  0.00000000E+00
  0.00000000E+00  0.00000000E+00  0.00000000E+00
  0.00000000E+00  0.00000000E+00  0.00000000E+00
  0.00000000E+00  0.00000000E+00  0.00000000E+00
  0.00000000E+00  0.00000000E+00  0.00000000E+00
  0.00000000E+00  0.00000000E+00  0.00000000E+00
  0.00000000E+00  0.00000000E+00  0.00000000E+00
  0.00000000E+00  0.00000000E+00  0.00000000E+00
  0.00000000E+00  0.00000000E+00  0.00000000E+00
  0.00000000E+00  0.00000000E+00  0.00000000E+00
  0.00000000E+00  0.00000000E+00  0.00000000E+00
  0.00000000E+00  0.00000000E+00  0.00000000E+00
  0.00000000E+00  0.00000000E+00  0.00000000E+00
  0.00000000E+00  0.00000000E+00  0.00000000E+00
  0.00000000E+00  0.00000000E+00  0.00000000E+00
  0.00000000E+00  0.00000000E+00  0.00000000E+00
  0.00000000E+00  0.00000000E+00  0.00000000E+00
  0.00000000E+00  0.00000000E+00  0.00000000E+00
  0.00000000E+00  0.00000000E+00  0.00000000E+00
  0.00000000E+00  0.00000000E+00  0.00000000E+00
  0.00000000E+00  0.00000000E+00  0.00000000E+00
  0.00000000E+00  0.00000000E+00  0.00000000E+00
  0.00000000E+00  0.00000000E+00  0.00000000E+00
  0.00000000E+00  0.00000000E+00  0.00000000E+00
  0.00000000E+00  0.00000000E+00  0.00000000E+00
  0.00000000E+00  0.00000000E+00  0.00000000E+00
  0.00000000E+00  0.00000000E+00  0.00000000E+00
  0.00000000E+00  0.00000000E+00  0.00000000E+00
  0.00000000E+00  0.00000000E+00  0.00000000E+00
  0.00000000E+00  0.00000000E+00  0.00000000E+00
  0.00000000E+00  0.00000000E+00  0.00000000E+00
  0.00000000E+00  0.00000000E+00  0.00000000E+00
  0.00000000E+00  0.00000000E+00  0.00000000E+00
  0.00000000E+00  0.00000000E+00  0.00000000E+00
  0.00000000E+00  0.00000000E+00  0.00000000E+00
  0.00000000E+00  0.00000000E+00  0.00000000E+00
  0.00000000E+00  0.00000000E+00  0.00000000E+00
  0.00000000E+00  0.00000000E+00  0.00000000E+00
  0.00000000E+00  0.00000000E+00  0.00000000E+00
  0.00000000E+00  0.00000000E+00  0.00000000E+00
  0.00000000E+00  0.00000000E+00  0.00000000E+00
  0.00000000E+00  0.00000000E+00  0.00000000E+00
  0.00000000E+00  0.00000000E+00  0.00000000E+00
  0.00000000E+00  0.00000000E+00  0.00000000E+00
  0.00000000E+00  0.00000000E+00  0.00000000E+00
  0.00000000E+00  0.00000000E+00  0.00000000E+00
  0.00000000E+00  0.00000000E+00  0.00000000E+00
  0.00000000E+00  0.00000000E+00  0.00000000E+00
  0.00000000E+00  0.00000000E+00  0.00000000E+00
  0.00000000E+00  0.00000000E+00  0.00000000E+00
  0.00000000E+00  0.00000000E+00  0.00000000E+00
  0.00000000E+00  0.00000000E+00  0.00000000E+00
  0.00000000E+00  0.00000000E+00  0.00000000E+00
  0.00000000E+00  0.00000000E+00  0.00000000E+00
  0.00000000E+00  0.00000000E+00  0.00000000E+00
  0.00000000E+00  0.00000000E+00  0.00000000E+00
  0.00000000E+00  0.00000000E+00  0.00000000E+00
  0.00000000E+00  0.00000000E+00  0.00000000E+00
  0.00000000E+00  0.00000000E+00  0.00000000E+00
  0.00000000E+00  0.00000000E+00  0.00000000E+00
  0.00000000E+00  0.00000000E+00  0.00000000E+00
  0.00000000E+00  0.00000000E+00  0.00000000E+00
  0.00000000E+00  0.00000000E+00  0.00000000E+00
  0.00000000E+00  0.00000000E+00  0.00000000E+00
  0.00000000E+00  0.00000000E+00  0.00000000E+00
  0.00000000E+00  0.00000000E+00  0.00000000E+00
  0.00000000E+00  0.00000000E+00  0.00000000E+00
  0.00000000E+00  0.00000000E+00  0.00000000E+00
  0.00000000E+00  0.00000000E+00  0.00000000E+00
  0.00000000E+00  0.00000000E+00  0.00000000E+00
  0.00000000E+00  0.00000000E+00  0.00000000E+00
  0.00000000E+00  0.00000000E+00  0.00000000E+00
  0.00000000E+00  0.00000000E+00  0.00000000E+00
  0.00000000E+00  0.00000000E+00  0.00000000E+00
  0.00000000E+00  0.00000000E+00  0.00000000E+00
  0.00000000E+00  0.00000000E+00  0.00000000E+00
  0.00000000E+00  0.00000000E+00  0.00000000E+00
  0.00000000E+00  0.00000000E+00  0.00000000E+00
  0.00000000E+00  0.00000000E+00  0.00000000E+00
  0.00000000E+00  0.00000000E+00  0.00000000E+00
  0.00000000E+00  0.00000000E+00  0.00000000E+00
  0.00000000E+00  0.00000000E+00  0.00000000E+00
