CONTCAR                                 
   1.00000000000000     
    13.3121995926000007    0.0000000000000000    0.0000000000000000
    -6.6560997963000004   11.5287030274000006    0.0000000000000000
     0.0000000000000000    0.0000000000000000   18.1287994384999998
   Nb   S    H 
    16    32     1
Direct
 -0.0004703161790695 -0.0038874035515568  0.5005963460810093
  0.2467884030083020 -0.0038070722073790  0.5006348708592949
  0.5016968931827893 -0.0029906674352191  0.5011744288703203
  0.7454292484700941 -0.0029672903035125  0.5011407754527155
 -0.0014904264814744  0.2500703320922523  0.5003699657345562
  0.2484640727195520  0.2467579848680425  0.4998229704560285
  0.5016259948216590  0.2501115665835583  0.5004939213670279
  0.7485667667097218  0.2470902007787493  0.5006371457629913
 -0.0014329644791729  0.4938469122077829  0.5002768431701770
  0.2369517643804456  0.4911457101641197  0.4997463482881511
  0.5044165472808014  0.4911390882708679  0.4998057508765766
  0.7454458774880971  0.4938861454017769  0.5002889796924026
 -0.0005822503254919  0.7487256166549396  0.5004746512229964
  0.2484450970612286  0.7470600093732932  0.5003903439956946
  0.5045185394722982  0.7589142355349370  0.5006292468532192
  0.7487871189080596  0.7470860687455672  0.5003978535032400
  0.1651571038111501  0.0801681719424041  0.4136535064554568
  0.1657012278788428  0.0812815768785559  0.5870767057106949
  0.4153694973551451  0.0800294969540277  0.4158702514790226
  0.4152919933909423  0.0807505244372028  0.5856876899042351
  0.6657966327037808  0.0814428607375936  0.4138352899273502
  0.6660413580120831  0.0819993207915781  0.5882548717279038
  0.9149198596107018  0.0799438520549750  0.4157965316876400
  0.9156062058203139  0.0807553975461335  0.5855953807130710
  0.1639743705811132  0.3282324261046250  0.4131258463110173
  0.1644359523707556  0.3287946357305429  0.5871644378535241
  0.4143899216510865  0.3282275471792669  0.4131394835713573
  0.4143833672113058  0.3287519146651698  0.5872415597595849
  0.6658115005209608  0.3294566233551757  0.4132817841570786
  0.6658267446413794  0.3297833570058641  0.5876570897247461
  0.9135631235355891  0.3294081140879990  0.4132345054536120
  0.9140025755221464  0.3297191530586849  0.5875848776203934
  0.1641986608162313  0.5815457492066254  0.4132806099363941
  0.1641052896303091  0.5806749130598177  0.5873990926169428
  0.4155909879072847  0.5808753996602530  0.4227925735087162
  0.4150974635955539  0.5800194465815048  0.5795472724797462
  0.6674634291357070  0.5815182298202723  0.4132896798654908
  0.6668026818590219  0.5807705538689327  0.5874122899794451
  0.9153542644970771  0.5804165994356145  0.4154586508130845
  0.9150823981105516  0.5799188886972289  0.5852689873152223
  0.1654838437546106  0.8303640911764633  0.4139071109128899
  0.1654439445940845  0.8300012636706086  0.5871322326754694
  0.4146401979566764  0.8317215685832845  0.4139116385257947
  0.4142951585676274  0.8312184369133954  0.5880325403525292
  0.6671222652212140  0.8316452840477754  0.4139116640624041
  0.6670545113431753  0.8313030254029077  0.5880501483917183
  0.9149608471284396  0.8302433949922828  0.4138617423827251
  0.9147374940523585  0.8300226292497140  0.5871496863839283
  0.4147448181749583  0.5794037559253212  0.6545437935544094
 
  0.00000000E+00  0.00000000E+00  0.00000000E+00
  0.00000000E+00  0.00000000E+00  0.00000000E+00
  0.00000000E+00  0.00000000E+00  0.00000000E+00
  0.00000000E+00  0.00000000E+00  0.00000000E+00
  0.00000000E+00  0.00000000E+00  0.00000000E+00
  0.00000000E+00  0.00000000E+00  0.00000000E+00
  0.00000000E+00  0.00000000E+00  0.00000000E+00
  0.00000000E+00  0.00000000E+00  0.00000000E+00
  0.00000000E+00  0.00000000E+00  0.00000000E+00
  0.00000000E+00  0.00000000E+00  0.00000000E+00
  0.00000000E+00  0.00000000E+00  0.00000000E+00
  0.00000000E+00  0.00000000E+00  0.00000000E+00
  0.00000000E+00  0.00000000E+00  0.00000000E+00
  0.00000000E+00  0.00000000E+00  0.00000000E+00
  0.00000000E+00  0.00000000E+00  0.00000000E+00
  0.00000000E+00  0.00000000E+00  0.00000000E+00
  0.00000000E+00  0.00000000E+00  0.00000000E+00
  0.00000000E+00  0.00000000E+00  0.00000000E+00
  0.00000000E+00  0.00000000E+00  0.00000000E+00
  0.00000000E+00  0.00000000E+00  0.00000000E+00
  0.00000000E+00  0.00000000E+00  0.00000000E+00
  0.00000000E+00  0.00000000E+00  0.00000000E+00
  0.00000000E+00  0.00000000E+00  0.00000000E+00
  0.00000000E+00  0.00000000E+00  0.00000000E+00
  0.00000000E+00  0.00000000E+00  0.00000000E+00
  0.00000000E+00  0.00000000E+00  0.00000000E+00
  0.00000000E+00  0.00000000E+00  0.00000000E+00
  0.00000000E+00  0.00000000E+00  0.00000000E+00
  0.00000000E+00  0.00000000E+00  0.00000000E+00
  0.00000000E+00  0.00000000E+00  0.00000000E+00
  0.00000000E+00  0.00000000E+00  0.00000000E+00
  0.00000000E+00  0.00000000E+00  0.00000000E+00
  0.00000000E+00  0.00000000E+00  0.00000000E+00
  0.00000000E+00  0.00000000E+00  0.00000000E+00
  0.00000000E+00  0.00000000E+00  0.00000000E+00
  0.00000000E+00  0.00000000E+00  0.00000000E+00
  0.00000000E+00  0.00000000E+00  0.00000000E+00
  0.00000000E+00  0.00000000E+00  0.00000000E+00
  0.00000000E+00  0.00000000E+00  0.00000000E+00
  0.00000000E+00  0.00000000E+00  0.00000000E+00
  0.00000000E+00  0.00000000E+00  0.00000000E+00
  0.00000000E+00  0.00000000E+00  0.00000000E+00
  0.00000000E+00  0.00000000E+00  0.00000000E+00
  0.00000000E+00  0.00000000E+00  0.00000000E+00
  0.00000000E+00  0.00000000E+00  0.00000000E+00
  0.00000000E+00  0.00000000E+00  0.00000000E+00
  0.00000000E+00  0.00000000E+00  0.00000000E+00
  0.00000000E+00  0.00000000E+00  0.00000000E+00
  0.00000000E+00  0.00000000E+00  0.00000000E+00
