 Nb3 I8                                 
   1.00000000000000     
     7.6564003408790846    0.0000000000000000    0.0000000000000000
     3.8281996704474226    6.6315049801071391    0.0000000000000000
     0.0000000000000000    0.0000000000000000   19.0911982183559985
   Nb   I 
     3     8
Direct
  0.4036402948015896  0.7981871949970956  0.4935277303854465
  0.7981689126324467  0.7981870986144078  0.4935279310040093
  0.7981619872461176  0.4036720017859698  0.4935315592931745
  0.9987847961104643  0.5006262053212504  0.3931741352062370
  0.5005879990953950  0.5006307586179970  0.3931751201221333
  0.5006112815025376  0.9987723201612738  0.3931772584886623
  0.6607122177309691  0.1696148041132244  0.5740424366865694
  0.1696777146099304  0.1696113587296530  0.5740412515602110
  0.1696490346825858  0.6607115340911822  0.5740351331687974
  0.0000143785095543  0.9999795072808354  0.4166303569953722
  0.6666603830784154  0.6666762162871165  0.6062529720286222
 
  0.00000000E+00  0.00000000E+00  0.00000000E+00
  0.00000000E+00  0.00000000E+00  0.00000000E+00
  0.00000000E+00  0.00000000E+00  0.00000000E+00
  0.00000000E+00  0.00000000E+00  0.00000000E+00
  0.00000000E+00  0.00000000E+00  0.00000000E+00
  0.00000000E+00  0.00000000E+00  0.00000000E+00
  0.00000000E+00  0.00000000E+00  0.00000000E+00
  0.00000000E+00  0.00000000E+00  0.00000000E+00
  0.00000000E+00  0.00000000E+00  0.00000000E+00
  0.00000000E+00  0.00000000E+00  0.00000000E+00
  0.00000000E+00  0.00000000E+00  0.00000000E+00
