CONTCAR\(6)                             
   1.00000000000000     
    11.7456998825000003    0.0000000000000000    0.0000000000000000
     0.0000000000000000   17.6870002747000008    0.0000000000000000
     0.0000000000000000    0.0000000000000000   19.5771007537999999
   Ti   Ge   Te   O    H 
     6     6    36     2     1
Direct
  0.0855830915604281  0.4805509465385072  0.5137963630533849
  0.2540495627197526  0.9552301955064436  0.4869198055801742
  0.4189072678520774  0.4807135240579724  0.5142035244725058
  0.5878039214335293  0.9556741683826553  0.4872350135235562
  0.7524353304036847  0.4806202554625543  0.5138569065578066
  0.9211108117015797  0.9554599482656962  0.4876004246047751
  0.2518750767765772  0.8042862048360553  0.4788883230952976
  0.0854392660927495  0.6308047563782793  0.5231975307507711
  0.5849935865757474  0.8046234044259393  0.4799782018338891
  0.4185360570950943  0.6311099754422435  0.5230214093305153
  0.9190651845639531  0.8051247290392144  0.4808230442069837
  0.7519340669078520  0.6308644127621229  0.5233578373768270
  0.0868412445669988  0.9253108055635220  0.3809123067194168
  0.2528997174229488  0.2581548361816940  0.5744929885984720
  0.2537275707841032  0.0637063198955397  0.3796085490656494
  0.0875629866291312  0.9009729490102921  0.5847149795867232
  0.2522632272236919  0.5091527381348282  0.6205010997228694
  0.0859166218908994  0.3698764128072591  0.6193468385569794
  0.0878329943349401  0.1765905208384851  0.4238065761335325
  0.2520443273866245  0.7092995464730867  0.5909735212990941
  0.0850206906625244  0.7263310894201201  0.4116327920313186
  0.2524762835432241  0.3820818677799879  0.4585253680690740
  0.0880804712629289  0.0544876051521555  0.5417388331605265
  0.2521490604492517  0.5364909141495594  0.4172941968087356
  0.4211946130781651  0.9251432076825420  0.3799084292264749
  0.5857637867934528  0.2581162289332167  0.5750731818221648
  0.5880993641006534  0.0638638577404894  0.3797016460330362
  0.4178926137637122  0.8963938748881132  0.5829396176105205
  0.5861318082994696  0.5091328401418260  0.6206142717053914
  0.4190079201068428  0.3699217526570591  0.6197272477789356
  0.4205046674172908  0.1764193345051090  0.4226682377827828
  0.5855477398622038  0.7088657417885866  0.5914986810577666
  0.4194777074139537  0.7259112802423473  0.4109705538468478
  0.5853436766842213  0.3822639053230181  0.4583985645816122
  0.4204892664621149  0.0545769892796644  0.5385371055747794
  0.5852734141340525  0.5363656031384977  0.4172912505251871
  0.7546527122457295  0.9254613539532669  0.3811799016049170
  0.9191216106904668  0.2583412416848894  0.5739790195252932
  0.9211464967398950  0.0637865569278838  0.3804307808697718
  0.7536745650016758  0.9009650329819839  0.5848408810619321
  0.9192477556741836  0.5089083043875725  0.6204931800979647
  0.7523777355726894  0.3700684680355912  0.6194454635909769
  0.7542765806043275  0.1765473397788285  0.4240527681860479
  0.9188938916690405  0.7088109984282552  0.5916376234716256
  0.7520007917350352  0.7269571003918472  0.4121536217571604
  0.9188769792239131  0.3819514422755660  0.4584389122398159
  0.7547135263946396  0.0548910370649502  0.5415947695510983
  0.9187244051675371  0.5365007487032716  0.4171814909467836
  0.4008786213007418  0.9389117802232404  0.6890851310398377
  0.3794227229592969  0.0182125844552705  0.6971043069660526
  0.4564369000643984  0.0383831868828711  0.7046072904063665
 
  0.00000000E+00  0.00000000E+00  0.00000000E+00
  0.00000000E+00  0.00000000E+00  0.00000000E+00
  0.00000000E+00  0.00000000E+00  0.00000000E+00
  0.00000000E+00  0.00000000E+00  0.00000000E+00
  0.00000000E+00  0.00000000E+00  0.00000000E+00
  0.00000000E+00  0.00000000E+00  0.00000000E+00
  0.00000000E+00  0.00000000E+00  0.00000000E+00
  0.00000000E+00  0.00000000E+00  0.00000000E+00
  0.00000000E+00  0.00000000E+00  0.00000000E+00
  0.00000000E+00  0.00000000E+00  0.00000000E+00
  0.00000000E+00  0.00000000E+00  0.00000000E+00
  0.00000000E+00  0.00000000E+00  0.00000000E+00
  0.00000000E+00  0.00000000E+00  0.00000000E+00
  0.00000000E+00  0.00000000E+00  0.00000000E+00
  0.00000000E+00  0.00000000E+00  0.00000000E+00
  0.00000000E+00  0.00000000E+00  0.00000000E+00
  0.00000000E+00  0.00000000E+00  0.00000000E+00
  0.00000000E+00  0.00000000E+00  0.00000000E+00
  0.00000000E+00  0.00000000E+00  0.00000000E+00
  0.00000000E+00  0.00000000E+00  0.00000000E+00
  0.00000000E+00  0.00000000E+00  0.00000000E+00
  0.00000000E+00  0.00000000E+00  0.00000000E+00
  0.00000000E+00  0.00000000E+00  0.00000000E+00
  0.00000000E+00  0.00000000E+00  0.00000000E+00
  0.00000000E+00  0.00000000E+00  0.00000000E+00
  0.00000000E+00  0.00000000E+00  0.00000000E+00
  0.00000000E+00  0.00000000E+00  0.00000000E+00
  0.00000000E+00  0.00000000E+00  0.00000000E+00
  0.00000000E+00  0.00000000E+00  0.00000000E+00
  0.00000000E+00  0.00000000E+00  0.00000000E+00
  0.00000000E+00  0.00000000E+00  0.00000000E+00
  0.00000000E+00  0.00000000E+00  0.00000000E+00
  0.00000000E+00  0.00000000E+00  0.00000000E+00
  0.00000000E+00  0.00000000E+00  0.00000000E+00
  0.00000000E+00  0.00000000E+00  0.00000000E+00
  0.00000000E+00  0.00000000E+00  0.00000000E+00
  0.00000000E+00  0.00000000E+00  0.00000000E+00
  0.00000000E+00  0.00000000E+00  0.00000000E+00
  0.00000000E+00  0.00000000E+00  0.00000000E+00
  0.00000000E+00  0.00000000E+00  0.00000000E+00
  0.00000000E+00  0.00000000E+00  0.00000000E+00
  0.00000000E+00  0.00000000E+00  0.00000000E+00
  0.00000000E+00  0.00000000E+00  0.00000000E+00
  0.00000000E+00  0.00000000E+00  0.00000000E+00
  0.00000000E+00  0.00000000E+00  0.00000000E+00
  0.00000000E+00  0.00000000E+00  0.00000000E+00
  0.00000000E+00  0.00000000E+00  0.00000000E+00
  0.00000000E+00  0.00000000E+00  0.00000000E+00
  0.00000000E+00  0.00000000E+00  0.00000000E+00
  0.00000000E+00  0.00000000E+00  0.00000000E+00
  0.00000000E+00  0.00000000E+00  0.00000000E+00
