CONTCAR\(4)                             
   1.00000000000000     
    11.9160003662000005    0.0000000000000000    0.0000000000000000
    -5.9580032889999996   10.3494530515999994    0.0000000000000000
     0.0000000000000000    0.0000000000000000   17.8166999817000011
   Hf   Fe   Cl   O    H 
     4     4    24     2     1
Direct
  0.1607566219303712  0.3284349546949206  0.4937587124068998
  0.6674109158765180  0.3463278260631623  0.4984218909597707
  0.1821678270401816  0.8403708113678885  0.4966525212576917
  0.6707065123822105  0.8331228342961932  0.5505856848029933
  0.4881791298211077  0.4932467938275884  0.5015995198678315
  0.0007426770162939  0.5058992076775949  0.4985427014112698
  0.5065416503482950  0.0137831172739713  0.5033820526871722
  0.0159484675221743  0.0110861211881056  0.4994729616162231
  0.1479034442743178  0.4906300417623013  0.5748797056976637
  0.3300303138502270  0.3304780290754478  0.5725445596587951
  0.0103125788579837  0.1607122962960394  0.5798402087992097
  0.1483499289159481  0.1612294295847588  0.4101248424052893
  0.9939620250088380  0.3449789836986885  0.4211401562690278
  0.3391276175387512  0.4950844450156799  0.4176224734793060
  0.6407137671958991  0.4928279229213968  0.5844903116312531
  0.8421915353173071  0.3594551205927276  0.5783337500042528
  0.5001133456917257  0.1722345938729166  0.5746801447191070
  0.6597624746066352  0.1693021556418192  0.4235598602469390
  0.5083086794471782  0.3563078170246298  0.4164056706825093
  0.8449671621752920  0.5125881467893620  0.4229447684212955
  0.1821163075580969  0.0150242184363938  0.5693060337434976
  0.3513272673744391  0.8594652012459761  0.5830232235158143
  0.0162306682700641  0.6681772964412416  0.5765072832538686
  0.1620161815158531  0.6593920113965698  0.4209819704186277
  0.0163260830013176  0.8547299108258373  0.4207201248227191
  0.3538361471596094  0.9951102327314508  0.4146322398630932
  0.6650187667455472  0.0355914904971025  0.5825036096413054
  0.8865383828346601  0.8588885899987939  0.5804933938951671
  0.4556417848089523  0.6309975685235244  0.5747923382462161
  0.6530838722599832  0.6691019526792835  0.4471120685294446
  0.5279513838444237  0.8575171228499674  0.4456110615737235
  0.8343430591901609  0.9844736392444914  0.4443343694998296
  0.6570710188038815  0.8490040900848610  0.6619732551297761
  0.6771937505008588  0.7365962600321087  0.6682707913576525
  0.5875481663149139  0.6658296633472091  0.6768758474847612
 
  0.00000000E+00  0.00000000E+00  0.00000000E+00
  0.00000000E+00  0.00000000E+00  0.00000000E+00
  0.00000000E+00  0.00000000E+00  0.00000000E+00
  0.00000000E+00  0.00000000E+00  0.00000000E+00
  0.00000000E+00  0.00000000E+00  0.00000000E+00
  0.00000000E+00  0.00000000E+00  0.00000000E+00
  0.00000000E+00  0.00000000E+00  0.00000000E+00
  0.00000000E+00  0.00000000E+00  0.00000000E+00
  0.00000000E+00  0.00000000E+00  0.00000000E+00
  0.00000000E+00  0.00000000E+00  0.00000000E+00
  0.00000000E+00  0.00000000E+00  0.00000000E+00
  0.00000000E+00  0.00000000E+00  0.00000000E+00
  0.00000000E+00  0.00000000E+00  0.00000000E+00
  0.00000000E+00  0.00000000E+00  0.00000000E+00
  0.00000000E+00  0.00000000E+00  0.00000000E+00
  0.00000000E+00  0.00000000E+00  0.00000000E+00
  0.00000000E+00  0.00000000E+00  0.00000000E+00
  0.00000000E+00  0.00000000E+00  0.00000000E+00
  0.00000000E+00  0.00000000E+00  0.00000000E+00
  0.00000000E+00  0.00000000E+00  0.00000000E+00
  0.00000000E+00  0.00000000E+00  0.00000000E+00
  0.00000000E+00  0.00000000E+00  0.00000000E+00
  0.00000000E+00  0.00000000E+00  0.00000000E+00
  0.00000000E+00  0.00000000E+00  0.00000000E+00
  0.00000000E+00  0.00000000E+00  0.00000000E+00
  0.00000000E+00  0.00000000E+00  0.00000000E+00
  0.00000000E+00  0.00000000E+00  0.00000000E+00
  0.00000000E+00  0.00000000E+00  0.00000000E+00
  0.00000000E+00  0.00000000E+00  0.00000000E+00
  0.00000000E+00  0.00000000E+00  0.00000000E+00
  0.00000000E+00  0.00000000E+00  0.00000000E+00
  0.00000000E+00  0.00000000E+00  0.00000000E+00
  0.00000000E+00  0.00000000E+00  0.00000000E+00
  0.00000000E+00  0.00000000E+00  0.00000000E+00
  0.00000000E+00  0.00000000E+00  0.00000000E+00
