CONTCAR\(8)                             
   1.00000000000000     
    10.2070999146000005    0.0000000000000000    0.0000000000000000
    -1.7011927660999999   18.1179073708000011    0.0000000000000000
     0.0000000000000000    0.0000000000000000   20.2910003661999987
   Ta   Co   Pd   Se   O 
    12     6     3    36     1
Direct
  0.0200584183109527  0.1500228369325285  0.4661985225971819
  0.3086278314514530  0.8465040229346457  0.5334429046914551
  0.0643026455027211  0.4067394683770971  0.4726534447758581
  0.2625547540281445  0.5904225506715122  0.5306366282957313
  0.3445925859901280  0.1508325181368448  0.4649330981970579
  0.6398475070565226  0.8465160437641117  0.5332856587223915
  0.3978969718144185  0.4062920810700987  0.4728755116915266
  0.5962367809764757  0.5903229873576166  0.5303730693610973
  0.6955536646070044  0.1506654502707221  0.4646921194529057
  0.9743001667950821  0.8478284190480991  0.5327497397369072
  0.7307275976300716  0.4064249452168411  0.4725390484772376
  0.9293736274829456  0.5909765545912151  0.5299295546560074
  0.2097371677136053  0.2838165651126587  0.4406673229299116
  0.1167464277181338  0.7134078447351939  0.5600799316154266
  0.5429556201043084  0.2836290030195912  0.4406323211691827
  0.4502940810039959  0.7125618093723318  0.5602979712963361
  0.8767116906907759  0.2839267651554920  0.4404148624767359
  0.7841440858572923  0.7133304516199104  0.5599421211131528
  0.1655316029562073  0.9997464842358994  0.4988049058669191
  0.4963852472020562  0.9920918452459873  0.5025665002308202
  0.8293249670883469  0.9999056820413088  0.4985587489674970
  0.1802386372498574  0.1173770577620132  0.5600667438155327
  0.1475536128451509  0.8808169151170446  0.4402136370327767
  0.0971928748692790  0.6028029843498501  0.6235971315587960
  0.2292419112172155  0.3956181758120891  0.3793331856343585
  0.2375529789429578  0.4456576127670431  0.5641410687491302
  0.0895877964675620  0.5507588695587629  0.4389354726362171
  0.0355751996534650  0.2381655983253026  0.3698256755071228
  0.2913483011960309  0.7598599229127672  0.6305480151461396
  0.1715199098542115  0.0729659797329063  0.3955847918205819
  0.1544942344599392  0.9253543268549720  0.6008210388047104
  0.0421919885540447  0.2788514592881768  0.5248441955123226
  0.2838118332587243  0.7168225706368219  0.4759990314238038
  0.5137086271015363  0.1136210884210911  0.5522273433504878
  0.4792570761375572  0.8755511842375014  0.4394664305883467
  0.4312478682486613  0.6021530264851336  0.6238426021972856
  0.5620301127918310  0.3954751568990886  0.3791489810769804
  0.5709642282842395  0.4456611368885248  0.5642069786700503
  0.4224394717433029  0.5504535791407292  0.4391587079179615
  0.3684804388645802  0.2387330779387113  0.3689258880327699
  0.6255927275636566  0.7598847139813145  0.6303984109583567
  0.5065886012933873  0.0714219563486864  0.4027870762013137
  0.4869301343105192  0.9202013804527809  0.6050428148727036
  0.3760666401347095  0.2783179731605046  0.5252127816622334
  0.6177396525045395  0.7168004445939502  0.4758426902409170
  0.8481711802490111  0.1173905185703532  0.5598743250082805
  0.8127028104504888  0.8809436280488896  0.4400647763063859
  0.7651932992383124  0.6026751443398908  0.6234442845757044
  0.8958698238742286  0.3955755078489460  0.3790209538911427
  0.9040847452771601  0.4460932683578989  0.5637511929455599
  0.7559761135465379  0.5508490435545141  0.4386971888948707
  0.7022885638518090  0.2386311012189921  0.3686907460390856
  0.9582848501313421  0.7614119505815893  0.6302233085711819
  0.8427330481543649  0.0730895077946485  0.3952927690909505
  0.8206789821487419  0.9255681681473362  0.6006922925649008
  0.7088733133959053  0.2784193193483944  0.5248953701997081
  0.9511615289980995  0.7177180888023500  0.4754772164775005
  0.5175532451563711  0.1338930048106945  0.6328712967024614
 
  0.00000000E+00  0.00000000E+00  0.00000000E+00
  0.00000000E+00  0.00000000E+00  0.00000000E+00
  0.00000000E+00  0.00000000E+00  0.00000000E+00
  0.00000000E+00  0.00000000E+00  0.00000000E+00
  0.00000000E+00  0.00000000E+00  0.00000000E+00
  0.00000000E+00  0.00000000E+00  0.00000000E+00
  0.00000000E+00  0.00000000E+00  0.00000000E+00
  0.00000000E+00  0.00000000E+00  0.00000000E+00
  0.00000000E+00  0.00000000E+00  0.00000000E+00
  0.00000000E+00  0.00000000E+00  0.00000000E+00
  0.00000000E+00  0.00000000E+00  0.00000000E+00
  0.00000000E+00  0.00000000E+00  0.00000000E+00
  0.00000000E+00  0.00000000E+00  0.00000000E+00
  0.00000000E+00  0.00000000E+00  0.00000000E+00
  0.00000000E+00  0.00000000E+00  0.00000000E+00
  0.00000000E+00  0.00000000E+00  0.00000000E+00
  0.00000000E+00  0.00000000E+00  0.00000000E+00
  0.00000000E+00  0.00000000E+00  0.00000000E+00
  0.00000000E+00  0.00000000E+00  0.00000000E+00
  0.00000000E+00  0.00000000E+00  0.00000000E+00
  0.00000000E+00  0.00000000E+00  0.00000000E+00
  0.00000000E+00  0.00000000E+00  0.00000000E+00
  0.00000000E+00  0.00000000E+00  0.00000000E+00
  0.00000000E+00  0.00000000E+00  0.00000000E+00
  0.00000000E+00  0.00000000E+00  0.00000000E+00
  0.00000000E+00  0.00000000E+00  0.00000000E+00
  0.00000000E+00  0.00000000E+00  0.00000000E+00
  0.00000000E+00  0.00000000E+00  0.00000000E+00
  0.00000000E+00  0.00000000E+00  0.00000000E+00
  0.00000000E+00  0.00000000E+00  0.00000000E+00
  0.00000000E+00  0.00000000E+00  0.00000000E+00
  0.00000000E+00  0.00000000E+00  0.00000000E+00
  0.00000000E+00  0.00000000E+00  0.00000000E+00
  0.00000000E+00  0.00000000E+00  0.00000000E+00
  0.00000000E+00  0.00000000E+00  0.00000000E+00
  0.00000000E+00  0.00000000E+00  0.00000000E+00
  0.00000000E+00  0.00000000E+00  0.00000000E+00
  0.00000000E+00  0.00000000E+00  0.00000000E+00
  0.00000000E+00  0.00000000E+00  0.00000000E+00
  0.00000000E+00  0.00000000E+00  0.00000000E+00
  0.00000000E+00  0.00000000E+00  0.00000000E+00
  0.00000000E+00  0.00000000E+00  0.00000000E+00
  0.00000000E+00  0.00000000E+00  0.00000000E+00
  0.00000000E+00  0.00000000E+00  0.00000000E+00
  0.00000000E+00  0.00000000E+00  0.00000000E+00
  0.00000000E+00  0.00000000E+00  0.00000000E+00
  0.00000000E+00  0.00000000E+00  0.00000000E+00
  0.00000000E+00  0.00000000E+00  0.00000000E+00
  0.00000000E+00  0.00000000E+00  0.00000000E+00
  0.00000000E+00  0.00000000E+00  0.00000000E+00
  0.00000000E+00  0.00000000E+00  0.00000000E+00
  0.00000000E+00  0.00000000E+00  0.00000000E+00
  0.00000000E+00  0.00000000E+00  0.00000000E+00
  0.00000000E+00  0.00000000E+00  0.00000000E+00
  0.00000000E+00  0.00000000E+00  0.00000000E+00
  0.00000000E+00  0.00000000E+00  0.00000000E+00
  0.00000000E+00  0.00000000E+00  0.00000000E+00
  0.00000000E+00  0.00000000E+00  0.00000000E+00
