CONTCAR\(4)                             
   1.00000000000000     
    12.3037004471000007    0.0000000000000000    0.0000000000000000
     6.1518502235000003   10.6553171476999999    0.0000000000000000
     0.0000000000000000    0.0000000000000000   24.8090991973999984
   Mn   In   Se   O    H 
     9    18    36     1     1
Direct
  0.2185787230348666  0.2191987678678231  0.3280644361922214
  0.5522528405196638  0.2185190154715784  0.3280048568919014
  0.8844291455325077  0.2190789259959942  0.3273072647322621
  0.2180920211835868  0.5526487925630974  0.3279645152584507
  0.5510712141833878  0.5515309796009049  0.3267435943529762
  0.8835584329731248  0.5531276236050928  0.3288609240660065
  0.2186425999259001  0.8850934450353023  0.3271401762896602
  0.5520411182422293  0.8849012218610284  0.3288435633078564
  0.8847467195261700  0.8850068055857037  0.3286215511624704
  0.9982053896010399  0.9982182245986877  0.4860719922779850
  0.1120351444760246  0.1123201843669293  0.6532654384291945
  0.3319325650087492  0.9976478911560278  0.4860358514209295
  0.4450183614805212  0.1050064003043403  0.6550454630884843
  0.6644248696347503  0.9959659728782029  0.4887021585164675
  0.7762019483492892  0.1169363278288955  0.6542288364705158
  0.9963927455845152  0.3341781007419158  0.4861197414873644
  0.1035916073992880  0.4462900370522007  0.6549325701995983
  0.3325733416156353  0.3329132794852541  0.4867652726703255
  0.4381075964197336  0.4436259614355933  0.6554756081631581
  0.6645317024298265  0.3314132530520837  0.4860406151788581
  0.7470412104581854  0.4803518108541240  0.6552045990961446
  0.9954251879061928  0.6650237536660626  0.4886095787343834
  0.1157880326116256  0.7791351926117684  0.6542092918648947
  0.3311525315241681  0.6646646059300991  0.4860796517406385
  0.4820946217783728  0.7479478306896254  0.6548339235337721
  0.6592898177155107  0.6614478737851570  0.4896575006662474
  0.7800942561595363  0.7800282053033456  0.6599526244496090
  0.9954883909990713  0.9960202065247685  0.2996579843282277
  0.9993151673094189  0.0023070734833297  0.7015857580400109
  0.2204927742773037  0.2214654196923078  0.4312259401546896
  0.1090970317715900  0.1103595467053751  0.5491507294810063
  0.3300521927450362  0.9967291968343019  0.2997278769007821
  0.3377804782061631  0.9868457153299630  0.6977674530275664
  0.5546625218772974  0.2180225068368458  0.4312260413230291
  0.4418165021844374  0.1105675799541217  0.5508256734562025
  0.6627652378588138  0.9960208411982876  0.2996741924191397
  0.6658516656309601  0.0069022994178169  0.7041772265552098
  0.8869711679702874  0.2202038401575024  0.4303277045323739
  0.7761241270241257  0.1089924599969407  0.5503805902692633
  0.9957712510660883  0.3309830428746778  0.3001364506361313
  0.9859707620066089  0.3382717774090125  0.6977275653458861
  0.2173405241830011  0.5552100552097272  0.4311905028631813
  0.1100211722888318  0.4427936928250062  0.5507275809809968
  0.3298436048334707  0.3302049479029137  0.2996132844770827
  0.3279885728586009  0.3296344296411320  0.7020334787626652
  0.5517196501905914  0.5519238762446648  0.4296907353497090
  0.4421907960484575  0.4428420814877256  0.5510836717603738
  0.6626136112013299  0.3291370446479931  0.2979068857798595
  0.6616811468982817  0.3378643623845292  0.7019568159008927
  0.8814308151737436  0.5578462148287784  0.4319727204897177
  0.7757194152948657  0.4388915652804286  0.5503251181325339
  0.9955047832064068  0.6630001510016328  0.2997016848933143
  0.0071088207210082  0.6672287078549317  0.7038333924838938
  0.2197330631959105  0.8869913883412934  0.4301890527598289
  0.1086883606038214  0.7767455582750955  0.5503995277729103
  0.3287102420009091  0.6630830246206543  0.2979324242696535
  0.3360989443032665  0.6658860704123768  0.7020387108452368
  0.5560104399262684  0.8835670797879942  0.4320474435718111
  0.4369794046410078  0.7773588988354945  0.5499935725355201
  0.6621065992605324  0.6633780531499269  0.2990358323789195
  0.6835779248240428  0.6778578531020969  0.7264438299295151
  0.8855123120552193  0.8863506513467669  0.4320049456805819
  0.7729218924503840  0.7734576500251436  0.5553449608322509
  0.7563487609537276  0.7263690856243628  0.7857264061872371
  0.7327466346847373  0.7008162384271728  0.8190646916503326
 
  0.00000000E+00  0.00000000E+00  0.00000000E+00
  0.00000000E+00  0.00000000E+00  0.00000000E+00
  0.00000000E+00  0.00000000E+00  0.00000000E+00
  0.00000000E+00  0.00000000E+00  0.00000000E+00
  0.00000000E+00  0.00000000E+00  0.00000000E+00
  0.00000000E+00  0.00000000E+00  0.00000000E+00
  0.00000000E+00  0.00000000E+00  0.00000000E+00
  0.00000000E+00  0.00000000E+00  0.00000000E+00
  0.00000000E+00  0.00000000E+00  0.00000000E+00
  0.00000000E+00  0.00000000E+00  0.00000000E+00
  0.00000000E+00  0.00000000E+00  0.00000000E+00
  0.00000000E+00  0.00000000E+00  0.00000000E+00
  0.00000000E+00  0.00000000E+00  0.00000000E+00
  0.00000000E+00  0.00000000E+00  0.00000000E+00
  0.00000000E+00  0.00000000E+00  0.00000000E+00
  0.00000000E+00  0.00000000E+00  0.00000000E+00
  0.00000000E+00  0.00000000E+00  0.00000000E+00
  0.00000000E+00  0.00000000E+00  0.00000000E+00
  0.00000000E+00  0.00000000E+00  0.00000000E+00
  0.00000000E+00  0.00000000E+00  0.00000000E+00
  0.00000000E+00  0.00000000E+00  0.00000000E+00
  0.00000000E+00  0.00000000E+00  0.00000000E+00
  0.00000000E+00  0.00000000E+00  0.00000000E+00
  0.00000000E+00  0.00000000E+00  0.00000000E+00
  0.00000000E+00  0.00000000E+00  0.00000000E+00
  0.00000000E+00  0.00000000E+00  0.00000000E+00
  0.00000000E+00  0.00000000E+00  0.00000000E+00
  0.00000000E+00  0.00000000E+00  0.00000000E+00
  0.00000000E+00  0.00000000E+00  0.00000000E+00
  0.00000000E+00  0.00000000E+00  0.00000000E+00
  0.00000000E+00  0.00000000E+00  0.00000000E+00
  0.00000000E+00  0.00000000E+00  0.00000000E+00
  0.00000000E+00  0.00000000E+00  0.00000000E+00
  0.00000000E+00  0.00000000E+00  0.00000000E+00
  0.00000000E+00  0.00000000E+00  0.00000000E+00
  0.00000000E+00  0.00000000E+00  0.00000000E+00
  0.00000000E+00  0.00000000E+00  0.00000000E+00
  0.00000000E+00  0.00000000E+00  0.00000000E+00
  0.00000000E+00  0.00000000E+00  0.00000000E+00
  0.00000000E+00  0.00000000E+00  0.00000000E+00
  0.00000000E+00  0.00000000E+00  0.00000000E+00
  0.00000000E+00  0.00000000E+00  0.00000000E+00
  0.00000000E+00  0.00000000E+00  0.00000000E+00
  0.00000000E+00  0.00000000E+00  0.00000000E+00
  0.00000000E+00  0.00000000E+00  0.00000000E+00
  0.00000000E+00  0.00000000E+00  0.00000000E+00
  0.00000000E+00  0.00000000E+00  0.00000000E+00
  0.00000000E+00  0.00000000E+00  0.00000000E+00
  0.00000000E+00  0.00000000E+00  0.00000000E+00
  0.00000000E+00  0.00000000E+00  0.00000000E+00
  0.00000000E+00  0.00000000E+00  0.00000000E+00
  0.00000000E+00  0.00000000E+00  0.00000000E+00
  0.00000000E+00  0.00000000E+00  0.00000000E+00
  0.00000000E+00  0.00000000E+00  0.00000000E+00
  0.00000000E+00  0.00000000E+00  0.00000000E+00
  0.00000000E+00  0.00000000E+00  0.00000000E+00
  0.00000000E+00  0.00000000E+00  0.00000000E+00
  0.00000000E+00  0.00000000E+00  0.00000000E+00
  0.00000000E+00  0.00000000E+00  0.00000000E+00
  0.00000000E+00  0.00000000E+00  0.00000000E+00
  0.00000000E+00  0.00000000E+00  0.00000000E+00
  0.00000000E+00  0.00000000E+00  0.00000000E+00
  0.00000000E+00  0.00000000E+00  0.00000000E+00
  0.00000000E+00  0.00000000E+00  0.00000000E+00
  0.00000000E+00  0.00000000E+00  0.00000000E+00
