CONTCAR                                 
   1.00000000000000     
    12.8863000870000004    0.0000000000000000    0.0000000000000000
     6.4431192937999997   11.1597653626000000    0.0000000000000000
     0.0000000000000000    0.0000000000000000   25.6977996825999995
   In   Te   O    H 
    27    36     1     1
Direct
  0.0052309653671522 -0.0079634211302729  0.4998886873587373
  0.1101560194474671  0.1092837783129517  0.3497102700166838
  0.2273149268037605  0.2166663143650985  0.6498420020840855
  0.3392121091254996 -0.0079461716560892  0.4991048503871227
  0.4453966816923084  0.1072263355698845  0.3493522459525330
  0.5585869727469893  0.2175077987163793  0.6487035731791853
  0.6717747885155090 -0.0080500508374096  0.5007217630834591
  0.7779198500855795  0.1059840532107550  0.3495429181825721
  0.8893435565341686  0.2181943981459044  0.6488772906007653
  0.0021939868256405  0.3272003941198072  0.4958389444203952
  0.1124414745668865  0.4405303049336117  0.3498530254142879
  0.2119284546424302  0.5362396311467144  0.6455544426119137
  0.3393864532717374  0.3249375314726983  0.4990515076405987
  0.4462762381165411  0.4412320591630668  0.3509283839804210
  0.5777903620240463  0.5395133385257069  0.6441112238510973
  0.6706022982725151  0.3246394866671560  0.4989037360309703
  0.7798437398675304  0.4404980793694467  0.3504915869655015
  0.8873511971621233  0.5537210783806321  0.6504493786916543
  0.0037551353847571  0.6604344461709927  0.5000909330150624
  0.1137136307121735  0.7728250465442754  0.3506582861370125
  0.2128564806182614  0.9107283549206717  0.6468793813738547
  0.3374336822900287  0.6597650774886958  0.5008075103841177
  0.4456094617517279  0.7730244808613822  0.3505284731570451
  0.5579939470479516  0.8820719117942702  0.6497061394589883
  0.6696673490199908  0.6624240746824530  0.4994858909676990
  0.7797753679440163  0.7742183250547315  0.3500860220051262
  0.8945852067171597  0.8832626984661780  0.6500941392341564
  0.0016557485436938 -0.0050574550772348  0.2930386261533633
  0.0006248159068629  0.9979463673251538  0.7089555825795399
  0.1156983026772873  0.1067582389652858  0.5670508209272784
  0.2274247966092029  0.2143846110603487  0.4304108871837429
  0.3335478498065495 -0.0045292594987281  0.2931192546939849
  0.3378613170000780  0.9964107140826820  0.7094065926511202
  0.4489211260589759  0.1031394709290231  0.5690237936906561
  0.5620960786326819  0.2115605428521652  0.4305776220590288
  0.6675643024376658 -0.0048883331672332  0.2917977988752675
  0.6699665616429228 -0.0055887081753882  0.7062817970919496
  0.7851556303514454  0.1021961500989021  0.5690074396113224
  0.8946082752754436  0.2127304910662680  0.4303767788978962
  0.0007223946946299  0.3304861793385582  0.2919603131116627
  0.0026002834677774  0.3285739614512699  0.7058814002851032
  0.1159143516419058  0.4333642188309714  0.5669757611740582
  0.2280976508401075  0.5481558878520456  0.4316144376674529
  0.3350630484059728  0.3303270715238037  0.2929419111898465
  0.3385966780746671  0.3260974642662765  0.7088222564414427
  0.4521586702099856  0.4325253198570909  0.5682237627607021
  0.5599911850139897  0.5478641167936877  0.4315399439005245
  0.6683559253119570  0.3295596555198764  0.2931850806022611
  0.6682926392367816  0.3285840576789568  0.7077391726527462
  0.7852438578214218  0.4351494641478039  0.5670038039362585
  0.8935873921574040  0.5490602461586037  0.4304922851616456
  0.0021129992809265  0.6627899524180476  0.2927246860849906
  0.0016706653427679  0.6615152340736936  0.7091400251198958
  0.1179074046937512  0.7684775370213288  0.5710501581028059
  0.2283245869500078  0.8791749402416659  0.4316190827640461
  0.3350781695941669  0.6623089403200587  0.2925550129246090
  0.3332838876013943  0.6619356415334471  0.6898764833350693
  0.4508890087479463  0.7704418253328297  0.5693814105402296
  0.5610400303567796  0.8816654805511238  0.4307680652952991
  0.6681093382051022  0.6626308806775855  0.2932076225181685
  0.6662507902581414  0.6610494638777487  0.7086880896586724
  0.7845025190799260  0.7678457549210347  0.5699352367156718
  0.8942486087984022  0.8805545723807868  0.4313322678687621
  0.3728597083266633  0.6346950344792776  0.7661608466411650
  0.3051643003906719  0.6356546098314725  0.7839208999467302
 
  0.00000000E+00  0.00000000E+00  0.00000000E+00
  0.00000000E+00  0.00000000E+00  0.00000000E+00
  0.00000000E+00  0.00000000E+00  0.00000000E+00
  0.00000000E+00  0.00000000E+00  0.00000000E+00
  0.00000000E+00  0.00000000E+00  0.00000000E+00
  0.00000000E+00  0.00000000E+00  0.00000000E+00
  0.00000000E+00  0.00000000E+00  0.00000000E+00
  0.00000000E+00  0.00000000E+00  0.00000000E+00
  0.00000000E+00  0.00000000E+00  0.00000000E+00
  0.00000000E+00  0.00000000E+00  0.00000000E+00
  0.00000000E+00  0.00000000E+00  0.00000000E+00
  0.00000000E+00  0.00000000E+00  0.00000000E+00
  0.00000000E+00  0.00000000E+00  0.00000000E+00
  0.00000000E+00  0.00000000E+00  0.00000000E+00
  0.00000000E+00  0.00000000E+00  0.00000000E+00
  0.00000000E+00  0.00000000E+00  0.00000000E+00
  0.00000000E+00  0.00000000E+00  0.00000000E+00
  0.00000000E+00  0.00000000E+00  0.00000000E+00
  0.00000000E+00  0.00000000E+00  0.00000000E+00
  0.00000000E+00  0.00000000E+00  0.00000000E+00
  0.00000000E+00  0.00000000E+00  0.00000000E+00
  0.00000000E+00  0.00000000E+00  0.00000000E+00
  0.00000000E+00  0.00000000E+00  0.00000000E+00
  0.00000000E+00  0.00000000E+00  0.00000000E+00
  0.00000000E+00  0.00000000E+00  0.00000000E+00
  0.00000000E+00  0.00000000E+00  0.00000000E+00
  0.00000000E+00  0.00000000E+00  0.00000000E+00
  0.00000000E+00  0.00000000E+00  0.00000000E+00
  0.00000000E+00  0.00000000E+00  0.00000000E+00
  0.00000000E+00  0.00000000E+00  0.00000000E+00
  0.00000000E+00  0.00000000E+00  0.00000000E+00
  0.00000000E+00  0.00000000E+00  0.00000000E+00
  0.00000000E+00  0.00000000E+00  0.00000000E+00
  0.00000000E+00  0.00000000E+00  0.00000000E+00
  0.00000000E+00  0.00000000E+00  0.00000000E+00
  0.00000000E+00  0.00000000E+00  0.00000000E+00
  0.00000000E+00  0.00000000E+00  0.00000000E+00
  0.00000000E+00  0.00000000E+00  0.00000000E+00
  0.00000000E+00  0.00000000E+00  0.00000000E+00
  0.00000000E+00  0.00000000E+00  0.00000000E+00
  0.00000000E+00  0.00000000E+00  0.00000000E+00
  0.00000000E+00  0.00000000E+00  0.00000000E+00
  0.00000000E+00  0.00000000E+00  0.00000000E+00
  0.00000000E+00  0.00000000E+00  0.00000000E+00
  0.00000000E+00  0.00000000E+00  0.00000000E+00
  0.00000000E+00  0.00000000E+00  0.00000000E+00
  0.00000000E+00  0.00000000E+00  0.00000000E+00
  0.00000000E+00  0.00000000E+00  0.00000000E+00
  0.00000000E+00  0.00000000E+00  0.00000000E+00
  0.00000000E+00  0.00000000E+00  0.00000000E+00
  0.00000000E+00  0.00000000E+00  0.00000000E+00
  0.00000000E+00  0.00000000E+00  0.00000000E+00
  0.00000000E+00  0.00000000E+00  0.00000000E+00
  0.00000000E+00  0.00000000E+00  0.00000000E+00
  0.00000000E+00  0.00000000E+00  0.00000000E+00
  0.00000000E+00  0.00000000E+00  0.00000000E+00
  0.00000000E+00  0.00000000E+00  0.00000000E+00
  0.00000000E+00  0.00000000E+00  0.00000000E+00
  0.00000000E+00  0.00000000E+00  0.00000000E+00
  0.00000000E+00  0.00000000E+00  0.00000000E+00
  0.00000000E+00  0.00000000E+00  0.00000000E+00
  0.00000000E+00  0.00000000E+00  0.00000000E+00
  0.00000000E+00  0.00000000E+00  0.00000000E+00
  0.00000000E+00  0.00000000E+00  0.00000000E+00
  0.00000000E+00  0.00000000E+00  0.00000000E+00
