CONTCAR                                 
   1.00000000000000     
    13.2014999389999996    0.0000000000000000    0.0000000000000000
     0.0000000000000000   13.2058000564999993    0.0000000000000000
     0.0000000000000000    0.0000000000000000   24.5515995025999985
   La   Te   O    H 
    18    54     2     1
Direct
  0.1643818372666792  0.1692267739618047  0.5894065639475700
  0.9994155516839094  0.0033162547752252  0.4135988804593127
  0.5010661030386289  0.1618357570975796  0.5850814617469861
  0.3320392331722862  0.0024164164943657  0.4129618061642144
  0.8315544970544297  0.1696296567036944  0.5883176211042165
  0.6662922623540328  0.0022779165793018  0.4125262885721544
  0.1642486606819971  0.5033296563845407  0.5892939822595606
  0.9992838465705541  0.3362345246960711  0.4137459806275330
  0.5015353050935298  0.5103616274712398  0.5851066118687984
  0.3330525220442400  0.3361301792894881  0.4134298280048361
  0.8319281894905792  0.5024901539491710  0.5882455598616413
  0.6659878599624002  0.3361476243022989  0.4131078558518515
  0.1623262025404801  0.8363406096972634  0.5886877792185837
  0.9994202361346193  0.6691320509975180  0.4135405993728662
  0.4968489010908865  0.8361942499121368  0.5877410522833767
  0.3321253740564382  0.6698685809981265  0.4129774133199782
  0.8316225153302456  0.8362121888179417  0.5881395146403625
  0.6663051325078704  0.6699312334930316  0.4125270987422551
  0.1655225788079434  0.0030087104039062  0.3073765691736876
 -0.0023520352406143  0.1697652087734203  0.6952850198683457
  0.1663655513740479  0.0019605408972082  0.6958681713514030
  0.9997893943893849  0.1702378984696024  0.3075650099834679
  0.1668868766501393  0.1706143911562548  0.4526121034236930
  0.9982064124952041  0.0034769401879906  0.5503681144550316
  0.4991579807243391  0.0029876233517299  0.3066836495126328
  0.3276664985100034  0.1633405623509261  0.6953188911825303
  0.5010674831495140  0.0011036596477846  0.6936017309276605
  0.3328902831954246  0.1695471743404706  0.3072240634090372
  0.4991401431274944  0.1688165681941523  0.4506153010408344
  0.3300490972196956  0.0014438304963165  0.5498466517800562
  0.8329541098993273  0.0026781678149829  0.3070970033810144
  0.6648404744892211  0.1710382706651848  0.6929839815891891
  0.8330602254489049  0.0025722988377003  0.6953139023320580
  0.6661044241112740  0.1691680950711366  0.3069653523829582
  0.8320898004100253  0.1696903000532888  0.4517190089752938
  0.6670563306236851  0.0006042531470496  0.5490306322526695
  0.1663903614813738  0.3360459406950634  0.3077293195339732
  0.9991022683218151  0.5018403306892900  0.6951195095451562
  0.1561623931060512  0.3362649074188248  0.6959058448062887
  0.9993296980840128  0.5028216608247499  0.3074610776211363
  0.1669254301899920  0.5017765245995587  0.4525972547138039
  0.9983062632324844  0.3360919427156197  0.5506121144380155
  0.4987848605446175  0.3365542342962879  0.3072616281816506
  0.3287937366998109  0.5081200588557280  0.6945701182895224
  0.4768933315190115  0.3372237258156627  0.6827024753546119
  0.3324803485902147  0.5025524453331064  0.3073479749602290
  0.4990550396118343  0.5035078145132634  0.4505958478313239
  0.3363657892603760  0.3362909414124688  0.5544830881519921
  0.8328033969345995  0.3358246723058116  0.3074690075105620
  0.6666686386012965  0.5033883088504425  0.6927802681793520
  0.8226821724185136  0.3355159302013424  0.6947070727533181
  0.6658619718915934  0.5028383425517524  0.3069225134702784
  0.8320169394819148  0.5027321613398814  0.4517428797083354
  0.6632194894309384  0.3360050611125602  0.5503118987730078
  0.1658205840645040  0.6691345785681678  0.3073631219811158
  0.9881803340050830  0.8362026118388842  0.6954267476725361
  0.1646029235128980  0.6726589133062507  0.6959925381663111
  0.9990688273566137  0.8365653274516219  0.3074556557385725
  0.1651726885504320  0.8360804027818430  0.4516432904681433
  0.9982133753076253  0.6689882843180638  0.5503095310298226
  0.4995784929329056  0.6700474264119999  0.3066711617853031
  0.3253692084041604  0.8357857577274957  0.6950148810590802
  0.5002261643733816  0.6710461666475546  0.6934923711725943
  0.3323657148342205  0.8359401090158568  0.3068229972123582
  0.4989012197943510  0.8361925722958797  0.4510614103095093
  0.3300059345952242  0.6707089782682706  0.5498466585297094
  0.8331137145129806  0.6692805545629054  0.3069757362751211
  0.6599618793748950  0.8370395661581947  0.6942382578162007
  0.8327529673336097  0.6695321206597600  0.6950807231347385
  0.6661173151942277  0.8359747054345978  0.3065585809980866
  0.8331593287289331  0.8361069665317402  0.4512349948331010
  0.6671713494868742  0.6721143780852483  0.5490134332780494
  0.4300359802227597  0.3315503624870357  0.8005940402523105
  0.5158201852462931  0.3521449194820259  0.7660739274166563
  0.3969398393087332  0.3984407769553534  0.8023288529805092
 
  0.00000000E+00  0.00000000E+00  0.00000000E+00
  0.00000000E+00  0.00000000E+00  0.00000000E+00
  0.00000000E+00  0.00000000E+00  0.00000000E+00
  0.00000000E+00  0.00000000E+00  0.00000000E+00
  0.00000000E+00  0.00000000E+00  0.00000000E+00
  0.00000000E+00  0.00000000E+00  0.00000000E+00
  0.00000000E+00  0.00000000E+00  0.00000000E+00
  0.00000000E+00  0.00000000E+00  0.00000000E+00
  0.00000000E+00  0.00000000E+00  0.00000000E+00
  0.00000000E+00  0.00000000E+00  0.00000000E+00
  0.00000000E+00  0.00000000E+00  0.00000000E+00
  0.00000000E+00  0.00000000E+00  0.00000000E+00
  0.00000000E+00  0.00000000E+00  0.00000000E+00
  0.00000000E+00  0.00000000E+00  0.00000000E+00
  0.00000000E+00  0.00000000E+00  0.00000000E+00
  0.00000000E+00  0.00000000E+00  0.00000000E+00
  0.00000000E+00  0.00000000E+00  0.00000000E+00
  0.00000000E+00  0.00000000E+00  0.00000000E+00
  0.00000000E+00  0.00000000E+00  0.00000000E+00
  0.00000000E+00  0.00000000E+00  0.00000000E+00
  0.00000000E+00  0.00000000E+00  0.00000000E+00
  0.00000000E+00  0.00000000E+00  0.00000000E+00
  0.00000000E+00  0.00000000E+00  0.00000000E+00
  0.00000000E+00  0.00000000E+00  0.00000000E+00
  0.00000000E+00  0.00000000E+00  0.00000000E+00
  0.00000000E+00  0.00000000E+00  0.00000000E+00
  0.00000000E+00  0.00000000E+00  0.00000000E+00
  0.00000000E+00  0.00000000E+00  0.00000000E+00
  0.00000000E+00  0.00000000E+00  0.00000000E+00
  0.00000000E+00  0.00000000E+00  0.00000000E+00
  0.00000000E+00  0.00000000E+00  0.00000000E+00
  0.00000000E+00  0.00000000E+00  0.00000000E+00
  0.00000000E+00  0.00000000E+00  0.00000000E+00
  0.00000000E+00  0.00000000E+00  0.00000000E+00
  0.00000000E+00  0.00000000E+00  0.00000000E+00
  0.00000000E+00  0.00000000E+00  0.00000000E+00
  0.00000000E+00  0.00000000E+00  0.00000000E+00
  0.00000000E+00  0.00000000E+00  0.00000000E+00
  0.00000000E+00  0.00000000E+00  0.00000000E+00
  0.00000000E+00  0.00000000E+00  0.00000000E+00
  0.00000000E+00  0.00000000E+00  0.00000000E+00
  0.00000000E+00  0.00000000E+00  0.00000000E+00
  0.00000000E+00  0.00000000E+00  0.00000000E+00
  0.00000000E+00  0.00000000E+00  0.00000000E+00
  0.00000000E+00  0.00000000E+00  0.00000000E+00
  0.00000000E+00  0.00000000E+00  0.00000000E+00
  0.00000000E+00  0.00000000E+00  0.00000000E+00
  0.00000000E+00  0.00000000E+00  0.00000000E+00
  0.00000000E+00  0.00000000E+00  0.00000000E+00
  0.00000000E+00  0.00000000E+00  0.00000000E+00
  0.00000000E+00  0.00000000E+00  0.00000000E+00
  0.00000000E+00  0.00000000E+00  0.00000000E+00
  0.00000000E+00  0.00000000E+00  0.00000000E+00
  0.00000000E+00  0.00000000E+00  0.00000000E+00
  0.00000000E+00  0.00000000E+00  0.00000000E+00
  0.00000000E+00  0.00000000E+00  0.00000000E+00
  0.00000000E+00  0.00000000E+00  0.00000000E+00
  0.00000000E+00  0.00000000E+00  0.00000000E+00
  0.00000000E+00  0.00000000E+00  0.00000000E+00
  0.00000000E+00  0.00000000E+00  0.00000000E+00
  0.00000000E+00  0.00000000E+00  0.00000000E+00
  0.00000000E+00  0.00000000E+00  0.00000000E+00
  0.00000000E+00  0.00000000E+00  0.00000000E+00
  0.00000000E+00  0.00000000E+00  0.00000000E+00
  0.00000000E+00  0.00000000E+00  0.00000000E+00
  0.00000000E+00  0.00000000E+00  0.00000000E+00
  0.00000000E+00  0.00000000E+00  0.00000000E+00
  0.00000000E+00  0.00000000E+00  0.00000000E+00
  0.00000000E+00  0.00000000E+00  0.00000000E+00
  0.00000000E+00  0.00000000E+00  0.00000000E+00
  0.00000000E+00  0.00000000E+00  0.00000000E+00
  0.00000000E+00  0.00000000E+00  0.00000000E+00
  0.00000000E+00  0.00000000E+00  0.00000000E+00
  0.00000000E+00  0.00000000E+00  0.00000000E+00
  0.00000000E+00  0.00000000E+00  0.00000000E+00
