CONTCAR\(3)                             
   1.00000000000000     
    13.0656995773000002    0.0000000000000000    0.0000000000000000
     6.5328497887000001   11.3152277522000002    0.0000000000000000
     0.0000000000000000    0.0000000000000000   20.6284008026000016
   Ta   C    S    O    H 
    32    16    32     2     1
Selective dynamics
Direct
  0.1659816922615605  0.1667840547137800  0.5576464633327234   F   F   F
  0.0827722756414317  0.0833940775594328  0.4425102135682053   F   F   F
  0.4160182300022939  0.1668082556084300  0.5575621977953560   F   F   F
  0.3327296968333755  0.0833734316503012  0.4424769455531319   F   F   F
  0.6661097483082230  0.1669001899699794  0.5575580958054189   F   F   F
  0.5827297148294264  0.0834344487607481  0.4424513510731032   F   F   F
  0.9159457442131398  0.1668526470374445  0.5576823784161604   F   F   F
  0.8327803887260217  0.0834286979801888  0.4424427848048325   F   F   F
  0.1660190426973145  0.4167872785001947  0.5576112684353731   F   F   F
  0.0827521271370202  0.3334391851082827  0.4424991939821297   F   F   F
  0.4160847122175824  0.4167970444610845  0.5575148646215311   F   F   F
  0.3326936522208399  0.3334035820672838  0.4424300304976185   F   F   F
  0.6660201885487211  0.4167581266479061  0.5576643352246577   F   F   F
  0.5827025759713678  0.3334694631967565  0.4423592744883180   F   F   F
  0.9159649680594555  0.4167247241502565  0.5576637693149777   F   F   F
  0.8327426623973722  0.3334181301943460  0.4424539990150791   F   F   F
  0.1660615123949185  0.6667338537405030  0.5576345991541487   F   F   F
  0.0827254387413134  0.5834398908419800  0.4424982863900553   F   F   F
  0.4161059042514950  0.6666947601997748  0.5576335328665536   F   F   F
  0.3326681695584313  0.5834773528571233  0.4424291965846123   F   F   F
  0.6660161958411024  0.6666858898572414  0.5576464448673306   F   F   F
  0.5827190247569902  0.5834466393260200  0.4424465563704132   F   F   F
  0.9160403171277167  0.6667411425175231  0.5576373995978585   F   F   F
  0.8327966354319756  0.5834282616915658  0.4424743381562379   F   F   F
  0.1660340571255148  0.9167535099031525  0.5576609471392331   F   F   F
  0.0827403770731650  0.8333702992881413  0.4424755050166382   F   F   F
  0.4161214397397401  0.9166837410079367  0.5576303395244011   F   F   F
  0.3327528388991610  0.8334095701296746  0.4424776469076122   F   F   F
  0.6660877228307243  0.9167270523931421  0.5576012396007712   F   F   F
  0.5828061193416829  0.8333833572224307  0.4424291735919184   F   F   F
  0.9160314267172112  0.9168226679875247  0.5576353744090028   F   F   F
  0.8328143915928479  0.8333762281305113  0.4424544036516025   F   F   F
  0.9993941696639865  0.0000598826190981  0.5000559275438121   F   F   F
  0.2493999295455964  0.0000669444492658  0.5001044596063267   F   F   F
  0.4994349381117615  0.0000486815599317  0.5000398607594860   F   F   F
  0.7494194402187162  0.0000952586245759  0.5000268314818683   F   F   F
  0.9993491469806699  0.2501664054900061  0.5000540441911667   F   F   F
  0.2493743204003991  0.2501181839263253  0.5000401613610848   F   F   F
  0.4993644681405058  0.2501325224753188  0.4999631097421613   F   F   F
  0.7493975754334343  0.2501134493511046  0.4999665561818532   F   F   F
  0.9993742743746168  0.5000990784340189  0.5000850461059372   F   F   F
  0.2494378994703439  0.5000658194600902  0.5000331182253461   F   F   F
  0.4993679693602928  0.5001232593563785  0.4999761091951740   F   F   F
  0.7493853575334057  0.5000835751232131  0.5000348307266549   F   F   F
  0.9993721219680793  0.7500901522405385  0.5000842528929610   F   F   F
  0.2493593746414859  0.7500666273418943  0.5000507012970203   F   F   F
  0.4994535075100899  0.7500746981991711  0.5000383207172092   F   F   F
  0.7494235178578990  0.7500875929536122  0.5000459657143850   F   F   F
  0.1661083867506221  0.1667596313249007  0.3634232727490456   F   F   F
  0.0826659655507385  0.0834525871443432  0.6367485989959789   F   F   F
  0.4160847496656146  0.1667516400144393  0.3633771449008094   F   F   F
  0.3327398183634926  0.0834116118119184  0.6366791680517636   F   F   F
  0.6661535315868434  0.1667345489274226  0.3633188675817536   F   F   F
  0.5827912064017440  0.0835127510338296  0.6366822112704611   F   F   F
  0.9161791575806006  0.1667537729754756  0.3634317148009885   F   F   F
  0.8326317538756669  0.0835175025942689  0.6367112259042642   F   F   F
  0.1660191227777261  0.4167960926211336  0.3634240579320149   F   F   F
  0.0826885837743347  0.3334222068803143  0.6367155467627228   F   F   F
  0.4160063841463710  0.4168019798521030  0.3633086631430444   F   F   F
  0.3328237181002578  0.3334444461038188  0.6366495182941136   F   F   F
  0.6661034600300155  0.4168176657524612  0.3633055088192449   F   F   F
  0.5828311522566381  0.3334175521298874  0.6363270626012252   F   F   F
  0.9161549546192376  0.4167712584505523  0.3634255527655625   F   F   F
  0.8326214560236451  0.3334520276466364  0.6367449997442023   F   F   F
  0.1660381158493962  0.6668102406248408  0.3633996243046980   F   F   F
  0.0827037700522553  0.5833966859522945  0.6366828839946237   F   F   F
  0.4160569863632659  0.6667792402976929  0.3633739354604657   F   F   F
  0.3328310270017951  0.5833106114072422  0.6366601851860807   F   F   F
  0.6661704834854234  0.6667453248640811  0.3634137380890579   F   F   F
  0.5827854983506171  0.5832563707018821  0.6367302033570539   F   F   F
  0.9161203058642826  0.6667637142685905  0.3633749523108776   F   F   F
  0.8326962800201585  0.5833635653979741  0.6367119443596962   F   F   F
  0.1661105143076398  0.9167804139966478  0.3634459179667289   F   F   F
  0.0826934394915213  0.8334040210493967  0.6367393085052413   F   F   F
  0.4161253910772658  0.9167558159168578  0.3634032869640578   F   F   F
  0.3327489638358117  0.8333899100465274  0.6366872336274838   F   F   F
  0.6661791433870619  0.9167279127261523  0.3634084878050174   F   F   F
  0.5827721783008926  0.8333718398027941  0.6367147085555942   F   F   F
  0.9161515999392549  0.9167459579323349  0.3633854860455088   F   F   F
  0.8327142229767901  0.8334399211103900  0.6367086322960986   F   F   F
  0.6511559511892386  0.3291000919030651  0.7763094707131444   T   T   T
  0.5637100512035715  0.3366589281588830  0.8145806219138265   T   T   T
  0.5835357880998444  0.2537217692737599  0.8209576318991788   T   T   T
 
  0.00000000E+00  0.00000000E+00  0.00000000E+00
  0.00000000E+00  0.00000000E+00  0.00000000E+00
  0.00000000E+00  0.00000000E+00  0.00000000E+00
  0.00000000E+00  0.00000000E+00  0.00000000E+00
  0.00000000E+00  0.00000000E+00  0.00000000E+00
  0.00000000E+00  0.00000000E+00  0.00000000E+00
  0.00000000E+00  0.00000000E+00  0.00000000E+00
  0.00000000E+00  0.00000000E+00  0.00000000E+00
  0.00000000E+00  0.00000000E+00  0.00000000E+00
  0.00000000E+00  0.00000000E+00  0.00000000E+00
  0.00000000E+00  0.00000000E+00  0.00000000E+00
  0.00000000E+00  0.00000000E+00  0.00000000E+00
  0.00000000E+00  0.00000000E+00  0.00000000E+00
  0.00000000E+00  0.00000000E+00  0.00000000E+00
  0.00000000E+00  0.00000000E+00  0.00000000E+00
  0.00000000E+00  0.00000000E+00  0.00000000E+00
  0.00000000E+00  0.00000000E+00  0.00000000E+00
  0.00000000E+00  0.00000000E+00  0.00000000E+00
  0.00000000E+00  0.00000000E+00  0.00000000E+00
  0.00000000E+00  0.00000000E+00  0.00000000E+00
  0.00000000E+00  0.00000000E+00  0.00000000E+00
  0.00000000E+00  0.00000000E+00  0.00000000E+00
  0.00000000E+00  0.00000000E+00  0.00000000E+00
  0.00000000E+00  0.00000000E+00  0.00000000E+00
  0.00000000E+00  0.00000000E+00  0.00000000E+00
  0.00000000E+00  0.00000000E+00  0.00000000E+00
  0.00000000E+00  0.00000000E+00  0.00000000E+00
  0.00000000E+00  0.00000000E+00  0.00000000E+00
  0.00000000E+00  0.00000000E+00  0.00000000E+00
  0.00000000E+00  0.00000000E+00  0.00000000E+00
  0.00000000E+00  0.00000000E+00  0.00000000E+00
  0.00000000E+00  0.00000000E+00  0.00000000E+00
  0.00000000E+00  0.00000000E+00  0.00000000E+00
  0.00000000E+00  0.00000000E+00  0.00000000E+00
  0.00000000E+00  0.00000000E+00  0.00000000E+00
  0.00000000E+00  0.00000000E+00  0.00000000E+00
  0.00000000E+00  0.00000000E+00  0.00000000E+00
  0.00000000E+00  0.00000000E+00  0.00000000E+00
  0.00000000E+00  0.00000000E+00  0.00000000E+00
  0.00000000E+00  0.00000000E+00  0.00000000E+00
  0.00000000E+00  0.00000000E+00  0.00000000E+00
  0.00000000E+00  0.00000000E+00  0.00000000E+00
  0.00000000E+00  0.00000000E+00  0.00000000E+00
  0.00000000E+00  0.00000000E+00  0.00000000E+00
  0.00000000E+00  0.00000000E+00  0.00000000E+00
  0.00000000E+00  0.00000000E+00  0.00000000E+00
  0.00000000E+00  0.00000000E+00  0.00000000E+00
  0.00000000E+00  0.00000000E+00  0.00000000E+00
  0.00000000E+00  0.00000000E+00  0.00000000E+00
  0.00000000E+00  0.00000000E+00  0.00000000E+00
  0.00000000E+00  0.00000000E+00  0.00000000E+00
  0.00000000E+00  0.00000000E+00  0.00000000E+00
  0.00000000E+00  0.00000000E+00  0.00000000E+00
  0.00000000E+00  0.00000000E+00  0.00000000E+00
  0.00000000E+00  0.00000000E+00  0.00000000E+00
  0.00000000E+00  0.00000000E+00  0.00000000E+00
  0.00000000E+00  0.00000000E+00  0.00000000E+00
  0.00000000E+00  0.00000000E+00  0.00000000E+00
  0.00000000E+00  0.00000000E+00  0.00000000E+00
  0.00000000E+00  0.00000000E+00  0.00000000E+00
  0.00000000E+00  0.00000000E+00  0.00000000E+00
  0.00000000E+00  0.00000000E+00  0.00000000E+00
  0.00000000E+00  0.00000000E+00  0.00000000E+00
  0.00000000E+00  0.00000000E+00  0.00000000E+00
  0.00000000E+00  0.00000000E+00  0.00000000E+00
  0.00000000E+00  0.00000000E+00  0.00000000E+00
  0.00000000E+00  0.00000000E+00  0.00000000E+00
  0.00000000E+00  0.00000000E+00  0.00000000E+00
  0.00000000E+00  0.00000000E+00  0.00000000E+00
  0.00000000E+00  0.00000000E+00  0.00000000E+00
  0.00000000E+00  0.00000000E+00  0.00000000E+00
  0.00000000E+00  0.00000000E+00  0.00000000E+00
  0.00000000E+00  0.00000000E+00  0.00000000E+00
  0.00000000E+00  0.00000000E+00  0.00000000E+00
  0.00000000E+00  0.00000000E+00  0.00000000E+00
  0.00000000E+00  0.00000000E+00  0.00000000E+00
  0.00000000E+00  0.00000000E+00  0.00000000E+00
  0.00000000E+00  0.00000000E+00  0.00000000E+00
  0.00000000E+00  0.00000000E+00  0.00000000E+00
  0.00000000E+00  0.00000000E+00  0.00000000E+00
  0.00000000E+00  0.00000000E+00  0.00000000E+00
  0.00000000E+00  0.00000000E+00  0.00000000E+00
  0.00000000E+00  0.00000000E+00  0.00000000E+00
