CONTCAR                                 
   1.00000000000000     
    13.5033998488999991    0.0000000000000000    0.0000000000000000
     0.0000000000000000   19.6100006104000002    0.0000000000000000
     0.0000000000000000    0.0000000000000000   18.7679004668999987
   Nb   Se   O    H 
    32    48     2     1
Direct
  0.0659422577574130  0.4360187920295071  0.5003366771817190
  0.1883486175311358  0.0624901611500727  0.5019418410862257
  0.0653941236903149  0.2802840882692563  0.4496553346644186
  0.1904821011568044  0.2193876974322107  0.5519267199103701
  0.3163087495874898  0.4362811416867962  0.5002544477509208
  0.4408190082935927  0.0640269411389157  0.5018519338846394
  0.3151358327071847  0.2799439337615832  0.4498416590155469
  0.4405964872314758  0.2194797750711190  0.5522264748281914
  0.5647125884578000  0.4362326046214420  0.5002489082368173
  0.6927039550540867  0.0625549610541459  0.5023006097132697
  0.5659123906056927  0.2799877556767896  0.4498670690900480
  0.6908758594041157  0.2194982619657090  0.5519870518123152
  0.8150758316441193  0.4361837926780395  0.5004193624361827
  0.9404993378182388  0.0631611255226503  0.5014796666060642
  0.8154575669911238  0.2802917159148983  0.4497955247239510
  0.9406098200469463  0.2195614233175755  0.5518249053015083
  0.0647271710628892  0.9366229233884180  0.5009604200762431
  0.1927233510589708  0.5629602707408485  0.4995801923979314
  0.0657228312318997  0.7797048696849306  0.4494723051442334
  0.1891763058467338  0.7182380965862513  0.5510342537949435
  0.3037224434346770  0.9348369669041352  0.5026473475603705
  0.4410280171300977  0.5630797321996742  0.5001509405633788
  0.3158349237702219  0.7806753387283357  0.4496020464707357
  0.4405513804199472  0.7194119750550476  0.5515604809977556
  0.5772755104956658  0.9348710601601050  0.5029418566912122
  0.6885322414995041  0.5629991095993989  0.4997947890251638
  0.5654223266612323  0.7808048738729053  0.4497770771316070
  0.6920643334101565  0.7184490466046153  0.5512986454987612
  0.8169259351634452  0.9365512395643556  0.5012215942034868
  0.9400651933938673  0.5628602756503610  0.4995144348528281
  0.8151655993628445  0.7798103133755655  0.4496479869244252
  0.9406778502365357  0.7184905354449497  0.5513530472516356
  0.0649842013522210  0.0285487787941998  0.4030405619934322
  0.1908997040255277  0.4716074079436844  0.5976652445723861
  0.0650747563168477  0.1250829469654047  0.5953250347933048
  0.1908112574970977  0.3747329116889344  0.4067457661096087
  0.1902350458849597  0.1833001383432369  0.4193736846036726
  0.0656941181775122  0.3160816294085350  0.5821600340382473
  0.3149705159025595  0.0272190576205185  0.4052012026709439
  0.4406740060601165  0.4716106275705282  0.5982435058359181
  0.3152438531780302  0.1246554493644053  0.5944983526021117
  0.4404785165526776  0.3743734772565368  0.4067609042026708
  0.4405366938112752  0.1835408830026118  0.4193775271193194
  0.3154158327554073  0.3160615478409865  0.5823116348711810
  0.5667871263007385  0.0270270456484604  0.4053032605404421
  0.6898458944726963  0.4715707484773186  0.5978067628427226
  0.5662016333322577  0.1251535871431448  0.5946398605858569
  0.6904557740508633  0.3748082534212798  0.4068402580129181
  0.6905441200119248  0.1832920498334715  0.4194430173630845
  0.5658336180627518  0.3159463128086200  0.5824217040519416
  0.8160123668115716  0.0283562596356886  0.4031890130472136
  0.9406248962790680  0.4714219811199989  0.5976035250513662
  0.8163436123991263  0.1251507067160845  0.5955878495579294
  0.9403829116232939  0.3748892357349313  0.4069893609639977
  0.9404139611183878  0.1837331887451783  0.4191848565417361
  0.8156341187633762  0.3162618970382205  0.5823383328820345
  0.0660885223169732  0.5279321050730204  0.4027302935030706
  0.1860023842600459  0.9723217700803750  0.6018548154956855
  0.0654298669600218  0.6236394165705659  0.5935033714549881
  0.1899818504374803  0.8746722955426204  0.4057645916295476
  0.1911544932827029  0.6837883849102467  0.4180693975021696
  0.0650864017340337  0.8148846276532457  0.5823298865842381
  0.3164624744084776  0.5275824326379682  0.4017936076771865
  0.4398759147301344  0.9675495695847488  0.5885310397572431
  0.3157688168486056  0.6242057349774305  0.5936064639084095
  0.4407008764578778  0.8753144948861452  0.4094830911960892
  0.4407519533583809  0.6842249917159962  0.4189021689802864
  0.3136680234351569  0.8144901448640117  0.5832540897392913
  0.5651537653111826  0.5273864937018787  0.4017062728550099
  0.6957329411104205  0.9723404361409691  0.6020704886765076
  0.5654438418307653  0.6243533327241135  0.5938546903269183
  0.6913549299355388  0.8748854899821348  0.4061664438581464
  0.6898122507908716  0.6838202843893333  0.4183079224597027
  0.5673166954218593  0.8146442443873148  0.5834202979381350
  0.8148400209584440  0.5280147133772468  0.4025126192045784
  0.9410724349212659  0.9718148544854992  0.5998385447588437
  0.8155854794032714  0.6235924596014474  0.5936778215043589
  0.9404798843601356  0.8748186800314529  0.4074995074494110
  0.9404198276003447  0.6835633498631158  0.4183585629678719
  0.8162890060897493  0.8150184865710415  0.5825984528727052
  0.4360911524994390  0.9604809500847173  0.6983343447161604
  0.5054040887251711  0.0062967298220577  0.7300293972655516
  0.5667638499151397  0.9791661263687191  0.7302558140369227
 
  0.00000000E+00  0.00000000E+00  0.00000000E+00
  0.00000000E+00  0.00000000E+00  0.00000000E+00
  0.00000000E+00  0.00000000E+00  0.00000000E+00
  0.00000000E+00  0.00000000E+00  0.00000000E+00
  0.00000000E+00  0.00000000E+00  0.00000000E+00
  0.00000000E+00  0.00000000E+00  0.00000000E+00
  0.00000000E+00  0.00000000E+00  0.00000000E+00
  0.00000000E+00  0.00000000E+00  0.00000000E+00
  0.00000000E+00  0.00000000E+00  0.00000000E+00
  0.00000000E+00  0.00000000E+00  0.00000000E+00
  0.00000000E+00  0.00000000E+00  0.00000000E+00
  0.00000000E+00  0.00000000E+00  0.00000000E+00
  0.00000000E+00  0.00000000E+00  0.00000000E+00
  0.00000000E+00  0.00000000E+00  0.00000000E+00
  0.00000000E+00  0.00000000E+00  0.00000000E+00
  0.00000000E+00  0.00000000E+00  0.00000000E+00
  0.00000000E+00  0.00000000E+00  0.00000000E+00
  0.00000000E+00  0.00000000E+00  0.00000000E+00
  0.00000000E+00  0.00000000E+00  0.00000000E+00
  0.00000000E+00  0.00000000E+00  0.00000000E+00
  0.00000000E+00  0.00000000E+00  0.00000000E+00
  0.00000000E+00  0.00000000E+00  0.00000000E+00
  0.00000000E+00  0.00000000E+00  0.00000000E+00
  0.00000000E+00  0.00000000E+00  0.00000000E+00
  0.00000000E+00  0.00000000E+00  0.00000000E+00
  0.00000000E+00  0.00000000E+00  0.00000000E+00
  0.00000000E+00  0.00000000E+00  0.00000000E+00
  0.00000000E+00  0.00000000E+00  0.00000000E+00
  0.00000000E+00  0.00000000E+00  0.00000000E+00
  0.00000000E+00  0.00000000E+00  0.00000000E+00
  0.00000000E+00  0.00000000E+00  0.00000000E+00
  0.00000000E+00  0.00000000E+00  0.00000000E+00
  0.00000000E+00  0.00000000E+00  0.00000000E+00
  0.00000000E+00  0.00000000E+00  0.00000000E+00
  0.00000000E+00  0.00000000E+00  0.00000000E+00
  0.00000000E+00  0.00000000E+00  0.00000000E+00
  0.00000000E+00  0.00000000E+00  0.00000000E+00
  0.00000000E+00  0.00000000E+00  0.00000000E+00
  0.00000000E+00  0.00000000E+00  0.00000000E+00
  0.00000000E+00  0.00000000E+00  0.00000000E+00
  0.00000000E+00  0.00000000E+00  0.00000000E+00
  0.00000000E+00  0.00000000E+00  0.00000000E+00
  0.00000000E+00  0.00000000E+00  0.00000000E+00
  0.00000000E+00  0.00000000E+00  0.00000000E+00
  0.00000000E+00  0.00000000E+00  0.00000000E+00
  0.00000000E+00  0.00000000E+00  0.00000000E+00
  0.00000000E+00  0.00000000E+00  0.00000000E+00
  0.00000000E+00  0.00000000E+00  0.00000000E+00
  0.00000000E+00  0.00000000E+00  0.00000000E+00
  0.00000000E+00  0.00000000E+00  0.00000000E+00
  0.00000000E+00  0.00000000E+00  0.00000000E+00
  0.00000000E+00  0.00000000E+00  0.00000000E+00
  0.00000000E+00  0.00000000E+00  0.00000000E+00
  0.00000000E+00  0.00000000E+00  0.00000000E+00
  0.00000000E+00  0.00000000E+00  0.00000000E+00
  0.00000000E+00  0.00000000E+00  0.00000000E+00
  0.00000000E+00  0.00000000E+00  0.00000000E+00
  0.00000000E+00  0.00000000E+00  0.00000000E+00
  0.00000000E+00  0.00000000E+00  0.00000000E+00
  0.00000000E+00  0.00000000E+00  0.00000000E+00
  0.00000000E+00  0.00000000E+00  0.00000000E+00
  0.00000000E+00  0.00000000E+00  0.00000000E+00
  0.00000000E+00  0.00000000E+00  0.00000000E+00
  0.00000000E+00  0.00000000E+00  0.00000000E+00
  0.00000000E+00  0.00000000E+00  0.00000000E+00
  0.00000000E+00  0.00000000E+00  0.00000000E+00
  0.00000000E+00  0.00000000E+00  0.00000000E+00
  0.00000000E+00  0.00000000E+00  0.00000000E+00
  0.00000000E+00  0.00000000E+00  0.00000000E+00
  0.00000000E+00  0.00000000E+00  0.00000000E+00
  0.00000000E+00  0.00000000E+00  0.00000000E+00
  0.00000000E+00  0.00000000E+00  0.00000000E+00
  0.00000000E+00  0.00000000E+00  0.00000000E+00
  0.00000000E+00  0.00000000E+00  0.00000000E+00
  0.00000000E+00  0.00000000E+00  0.00000000E+00
  0.00000000E+00  0.00000000E+00  0.00000000E+00
  0.00000000E+00  0.00000000E+00  0.00000000E+00
  0.00000000E+00  0.00000000E+00  0.00000000E+00
  0.00000000E+00  0.00000000E+00  0.00000000E+00
  0.00000000E+00  0.00000000E+00  0.00000000E+00
  0.00000000E+00  0.00000000E+00  0.00000000E+00
  0.00000000E+00  0.00000000E+00  0.00000000E+00
  0.00000000E+00  0.00000000E+00  0.00000000E+00
