CONTCAR\(10)                            
   1.00000000000000     
    13.7902002335000002    0.0000000000000000    0.0000000000000000
     6.8951001167000001   11.9426637253999992    0.0000000000000000
     0.0000000000000000    0.0000000000000000   18.3700008391999994
   Nb   Se   O    H 
    16    32     1     1
Direct
  0.0883892108046860  0.0844598639551234  0.5032133462024779
  0.3291694609873714  0.0843193347930300  0.5033167099777849
  0.5858627841001733  0.0820052907951433  0.5037392031777392
  0.8340324537224347  0.0822384161536140  0.5036364102832580
  0.0844848660547746  0.3329116017968667  0.5032469063954286
  0.3290781099026583  0.3367909091023431  0.5034328231948779
  0.5845083997039382  0.3331550656581669  0.5031574839839118
  0.8360129347283877  0.3368816046755503  0.5031780617625313
  0.0884863217074182  0.5772398540588126  0.5035572608446350
  0.3254032071381021  0.5739120902749270  0.5020738334451903
  0.6026916497513993  0.5738217706301791  0.5023262638126883
  0.8362755156922720  0.5772109930297287  0.5032364209217841
  0.0844300348940890  0.8330462763713358  0.5029457606604557
  0.3255514594825785  0.8511928351253979  0.5021248080117688
  0.5844721001382306  0.8327088855839756  0.5031808651560506
  0.8339450557282353  0.8338764447715928  0.5038166653136862
  0.1668557279347447  0.1680107208685969  0.5967229591595072
  0.1670855576508987  0.1680959706673819  0.4097431581262433
  0.4173368129364191  0.1663746727530798  0.5934192260314110
  0.4177490576831686  0.1663885723180675  0.4135462217510260
  0.6675826886101132  0.1669059727471616  0.5953849841763665
  0.6678609956602917  0.1659954759451119  0.4117349794215005
  0.9182400857440068  0.1665894619586990  0.5933178604322086
  0.9178675996131123  0.1663741108593857  0.4134211382326527
  0.1668848032773827  0.4150784610299428  0.5970159618673585
  0.1669655243927210  0.4153506090762260  0.4098502972673985
  0.4183961006500931  0.4139101946398952  0.5957838465782761
  0.4188781916858329  0.4125137512250340  0.4102112306846710
  0.6698473368546174  0.4138683081656959  0.5958943073121603
  0.6703686899801967  0.4125953386658086  0.4101486229596030
  0.9197444671567329  0.4151648977163679  0.5967815666255456
  0.9197228875563424  0.4151875474510227  0.4096753731319753
  0.1655766857258831  0.6668697506460418  0.5961204788170017
  0.1636766216368351  0.6675544016568160  0.4103627263748484
  0.4188525519944402  0.6657455930882986  0.5774479702220517
  0.4176375510490923  0.6664659617930835  0.4236794054547386
  0.6700818302462346  0.6664041885053056  0.5958479717257950
  0.6705190001562008  0.6674617936524833  0.4101854956454285
  0.9182739501916211  0.6653370782398761  0.5935121567714352
  0.9181895107058778  0.6659530213357819  0.4135867359759205
  0.1654399325183109  0.9181044774758242  0.5959263626183117
  0.1641505087016548  0.9187854186818492  0.4102024962626955
  0.4183793711529042  0.9180942672865213  0.5959469378271781
  0.4191301693787600  0.9188839104385341  0.4101356434759122
  0.6674558303796881  0.9156128391176478  0.5955509893599383
  0.6681250278192474  0.9162304811922408  0.4116603471166302
  0.9186872055744628  0.9157887274479063  0.5953867631768823
  0.9173720171843495  0.9162703188447883  0.4115770914511054
  0.4285596083613527  0.6604615965523095  0.6776121917728088
  0.3512712582996903  0.6946820331814796  0.6954643740490659
 
  0.00000000E+00  0.00000000E+00  0.00000000E+00
  0.00000000E+00  0.00000000E+00  0.00000000E+00
  0.00000000E+00  0.00000000E+00  0.00000000E+00
  0.00000000E+00  0.00000000E+00  0.00000000E+00
  0.00000000E+00  0.00000000E+00  0.00000000E+00
  0.00000000E+00  0.00000000E+00  0.00000000E+00
  0.00000000E+00  0.00000000E+00  0.00000000E+00
  0.00000000E+00  0.00000000E+00  0.00000000E+00
  0.00000000E+00  0.00000000E+00  0.00000000E+00
  0.00000000E+00  0.00000000E+00  0.00000000E+00
  0.00000000E+00  0.00000000E+00  0.00000000E+00
  0.00000000E+00  0.00000000E+00  0.00000000E+00
  0.00000000E+00  0.00000000E+00  0.00000000E+00
  0.00000000E+00  0.00000000E+00  0.00000000E+00
  0.00000000E+00  0.00000000E+00  0.00000000E+00
  0.00000000E+00  0.00000000E+00  0.00000000E+00
  0.00000000E+00  0.00000000E+00  0.00000000E+00
  0.00000000E+00  0.00000000E+00  0.00000000E+00
  0.00000000E+00  0.00000000E+00  0.00000000E+00
  0.00000000E+00  0.00000000E+00  0.00000000E+00
  0.00000000E+00  0.00000000E+00  0.00000000E+00
  0.00000000E+00  0.00000000E+00  0.00000000E+00
  0.00000000E+00  0.00000000E+00  0.00000000E+00
  0.00000000E+00  0.00000000E+00  0.00000000E+00
  0.00000000E+00  0.00000000E+00  0.00000000E+00
  0.00000000E+00  0.00000000E+00  0.00000000E+00
  0.00000000E+00  0.00000000E+00  0.00000000E+00
  0.00000000E+00  0.00000000E+00  0.00000000E+00
  0.00000000E+00  0.00000000E+00  0.00000000E+00
  0.00000000E+00  0.00000000E+00  0.00000000E+00
  0.00000000E+00  0.00000000E+00  0.00000000E+00
  0.00000000E+00  0.00000000E+00  0.00000000E+00
  0.00000000E+00  0.00000000E+00  0.00000000E+00
  0.00000000E+00  0.00000000E+00  0.00000000E+00
  0.00000000E+00  0.00000000E+00  0.00000000E+00
  0.00000000E+00  0.00000000E+00  0.00000000E+00
  0.00000000E+00  0.00000000E+00  0.00000000E+00
  0.00000000E+00  0.00000000E+00  0.00000000E+00
  0.00000000E+00  0.00000000E+00  0.00000000E+00
  0.00000000E+00  0.00000000E+00  0.00000000E+00
  0.00000000E+00  0.00000000E+00  0.00000000E+00
  0.00000000E+00  0.00000000E+00  0.00000000E+00
  0.00000000E+00  0.00000000E+00  0.00000000E+00
  0.00000000E+00  0.00000000E+00  0.00000000E+00
  0.00000000E+00  0.00000000E+00  0.00000000E+00
  0.00000000E+00  0.00000000E+00  0.00000000E+00
  0.00000000E+00  0.00000000E+00  0.00000000E+00
  0.00000000E+00  0.00000000E+00  0.00000000E+00
  0.00000000E+00  0.00000000E+00  0.00000000E+00
  0.00000000E+00  0.00000000E+00  0.00000000E+00
