CONTCAR\(5)                             
   1.00000000000000     
    11.7456998825000003    0.0000000000000000    0.0000000000000000
     0.0000000000000000   17.6870002747000008    0.0000000000000000
     0.0000000000000000    0.0000000000000000   19.5771007537999999
   Ti   Ge   Te   O    H 
     6     6    36     2     1
Direct
  0.0755373832974533  0.4753395058623522  0.5099019552153821
  0.2495382896080419  0.9512535685217315  0.4853892261329157
  0.4101427778915717  0.4786139206677770  0.5102657657453415
  0.5825050235303142  0.9518402733215167  0.4861967225063180
  0.7401732044371457  0.4769765314411903  0.5168034941679605
  0.9167303116591656  0.9515959197288463  0.4879493622372536
  0.2471259537562828  0.8010014196550419  0.4772696352493638
  0.0781115554337577  0.6261504606493760  0.5188957431069117
  0.5797485417045433  0.8020584453975926  0.4760868359860758
  0.4122468662091367  0.6284200386538491  0.5173124909957908
  0.9138919167844901  0.8010601579453773  0.4777096477766521
  0.7437845806885339  0.6275000994796355  0.5187028486040989
  0.0827573601490800  0.9222646352220270  0.3812072666769962
  0.2563501368727726  0.2559878669431366  0.5726985541532953
  0.2458231778047726  0.0617671746677722  0.3775755072059227
  0.0827462607217386  0.8932836973978959  0.5830282485396215
  0.2402207762353968  0.5043436920089301  0.6156576009858638
  0.0738275825677458  0.3579251205910721  0.6117599889499578
  0.0882966453476113  0.1743841808867365  0.4333402142026616
  0.2458852171521808  0.7049046804416450  0.5878413767946595
  0.0802622453490634  0.7236986852750068  0.4085454263954891
  0.2450512421935163  0.3782041696313354  0.4543151541978936
  0.0856970255071464  0.0485034433576172  0.5443542181269022
  0.2416104131902356  0.5318343044102110  0.4124486602609871
  0.4192751679780076  0.9217014727213835  0.3803691903567955
  0.5753247185419729  0.2559554688010013  0.5794034666862162
  0.5822580762203030  0.0610197294562130  0.3790995159702637
  0.4155512095337465  0.8971120064124194  0.5830237254481150
  0.5678796370286502  0.5173720360464996  0.6140863689899395
  0.4120899809517818  0.3749074332048161  0.6218703089736007
  0.4156163853148115  0.1728407275451587  0.4214715434737102
  0.5764178077364659  0.7069056270992010  0.5872934109063932
  0.4140587792409433  0.7256042889160974  0.4061987528345081
  0.5764738705102292  0.3764575847034536  0.4610811453640508
  0.4156929506371307  0.0507399928629115  0.5403171128606609
  0.5788642161456038  0.5289191352259234  0.4137307279338175
  0.7524287472061316  0.9239498564281783  0.3812846024070305
  0.9175997137226344  0.2470487857000576  0.5503094036230607
  0.9169231889948861  0.0645790532817512  0.3835179034114665
  0.7484170284659771  0.8955435596433726  0.5835834684530595
  0.9120841694449264  0.5047158822496354  0.6167319960570278
  0.7514597326795907  0.3590446905765272  0.6256965671091418
  0.7477624801379739  0.1748572513695201  0.4268590455348407
  0.9115782269262844  0.7036269690101450  0.5879756246416835
  0.7463230028015105  0.7245521487128186  0.4079419132306775
  0.9042794113176835  0.3814793986898241  0.4526181711627211
  0.7484516060442911  0.0495544338087240  0.5438316363287109
  0.9080616834098718  0.5379882850764478  0.4173823878575166
  0.6528564774912805  0.4065575042382893  0.7071298141962498
  0.6758595791551594  0.3636445692255834  0.7702272117663268
  0.7276880442704918  0.3984699598363461  0.7937394232081414
 
  0.00000000E+00  0.00000000E+00  0.00000000E+00
  0.00000000E+00  0.00000000E+00  0.00000000E+00
  0.00000000E+00  0.00000000E+00  0.00000000E+00
  0.00000000E+00  0.00000000E+00  0.00000000E+00
  0.00000000E+00  0.00000000E+00  0.00000000E+00
  0.00000000E+00  0.00000000E+00  0.00000000E+00
  0.00000000E+00  0.00000000E+00  0.00000000E+00
  0.00000000E+00  0.00000000E+00  0.00000000E+00
  0.00000000E+00  0.00000000E+00  0.00000000E+00
  0.00000000E+00  0.00000000E+00  0.00000000E+00
  0.00000000E+00  0.00000000E+00  0.00000000E+00
  0.00000000E+00  0.00000000E+00  0.00000000E+00
  0.00000000E+00  0.00000000E+00  0.00000000E+00
  0.00000000E+00  0.00000000E+00  0.00000000E+00
  0.00000000E+00  0.00000000E+00  0.00000000E+00
  0.00000000E+00  0.00000000E+00  0.00000000E+00
  0.00000000E+00  0.00000000E+00  0.00000000E+00
  0.00000000E+00  0.00000000E+00  0.00000000E+00
  0.00000000E+00  0.00000000E+00  0.00000000E+00
  0.00000000E+00  0.00000000E+00  0.00000000E+00
  0.00000000E+00  0.00000000E+00  0.00000000E+00
  0.00000000E+00  0.00000000E+00  0.00000000E+00
  0.00000000E+00  0.00000000E+00  0.00000000E+00
  0.00000000E+00  0.00000000E+00  0.00000000E+00
  0.00000000E+00  0.00000000E+00  0.00000000E+00
  0.00000000E+00  0.00000000E+00  0.00000000E+00
  0.00000000E+00  0.00000000E+00  0.00000000E+00
  0.00000000E+00  0.00000000E+00  0.00000000E+00
  0.00000000E+00  0.00000000E+00  0.00000000E+00
  0.00000000E+00  0.00000000E+00  0.00000000E+00
  0.00000000E+00  0.00000000E+00  0.00000000E+00
  0.00000000E+00  0.00000000E+00  0.00000000E+00
  0.00000000E+00  0.00000000E+00  0.00000000E+00
  0.00000000E+00  0.00000000E+00  0.00000000E+00
  0.00000000E+00  0.00000000E+00  0.00000000E+00
  0.00000000E+00  0.00000000E+00  0.00000000E+00
  0.00000000E+00  0.00000000E+00  0.00000000E+00
  0.00000000E+00  0.00000000E+00  0.00000000E+00
  0.00000000E+00  0.00000000E+00  0.00000000E+00
  0.00000000E+00  0.00000000E+00  0.00000000E+00
  0.00000000E+00  0.00000000E+00  0.00000000E+00
  0.00000000E+00  0.00000000E+00  0.00000000E+00
  0.00000000E+00  0.00000000E+00  0.00000000E+00
  0.00000000E+00  0.00000000E+00  0.00000000E+00
  0.00000000E+00  0.00000000E+00  0.00000000E+00
  0.00000000E+00  0.00000000E+00  0.00000000E+00
  0.00000000E+00  0.00000000E+00  0.00000000E+00
  0.00000000E+00  0.00000000E+00  0.00000000E+00
  0.00000000E+00  0.00000000E+00  0.00000000E+00
  0.00000000E+00  0.00000000E+00  0.00000000E+00
  0.00000000E+00  0.00000000E+00  0.00000000E+00
