CONTCAR\(4)                             
   1.00000000000000     
    10.8957996367999996    0.0000000000000000    0.0000000000000000
     0.0000000000000000   12.8001003265000008    0.0000000000000000
     0.0000000000000000    0.0000000000000000   21.8099994658999989
   Cu   Si   P    O    H 
    12    24    36     1     1
Direct
  0.9982431024100578  0.1092297382485086  0.4629640537823434
  0.0003732309507569  0.2831821137179489  0.3623178267757154
  0.3318281563142875  0.1101423278662281  0.4625583243665545
  0.3336332618467210  0.2827536736282852  0.3637028725694975
  0.6651113504176109  0.1094173785552073  0.4629532676501142
  0.6672713735969538  0.2836596932123001  0.3628726330362042
  0.9970555504251735  0.6091404503347491  0.4630323222471873
  0.9999952658364677  0.7834986108796542  0.3647748952500791
  0.3290358934580055  0.6084217328401209  0.4628003718555433
  0.3337853468478045  0.7836613465931350  0.3653492477765283
  0.6642089223212508  0.6086172830021397  0.4622265152001432
  0.6674483234264486  0.7834523160677165  0.3636671231893231
  0.1682132424484166  0.0431072600791751  0.3881211008022731
  0.1642041193630490  0.1995485767730898  0.6104081414613916
  0.1653356901339222  0.3552996166407141  0.4826981539400137
  0.9973933065867726  0.4464893764409155  0.6158544873910401
  0.5017099601066377  0.0433770056815277  0.3878629302230507
  0.4989469646263700  0.2001076355261304  0.6105938191062634
  0.4992327313944358  0.3554512314741984  0.4827266010931837
  0.3318379655676509  0.4470081129955332  0.6153344756846337
  0.8349555644627458  0.0433706341598779  0.3881859899004638
  0.8314821274081936  0.1978620270539508  0.6104404631442648
  0.8326444829914195  0.3554851584786363  0.4825378702917646
  0.6665331989102228  0.4466747813255338  0.6155725116308091
  0.1687710948182541  0.5421346391178616  0.3873309860397711
  0.1537304625383200  0.6927276849305102  0.6101474239389262
  0.1637405388346735  0.8563731667748087  0.4837787679030328
  0.9978179427976670  0.9476475066109558  0.6163074665586947
  0.5030577133798673  0.5422913974933152  0.3868941406422053
  0.5076354030355148  0.6925426198618823  0.6082664860309279
  0.4998324481519987  0.8561147793978350  0.4830229891961437
  0.3315131099054014  0.9582403438237179  0.6140712487505482
  0.8356585185140162  0.5426134996016785  0.3880266826996390
  0.8310923129489396  0.6976294877261822  0.6111152133605415
  0.8317501851515203  0.8553484209091806  0.4836169048068086
  0.6651533203658389  0.9477629732998594  0.6158796578760928
  0.0016742373936509  0.1158593947446320  0.3462449369162499
  0.1647889364960733  0.1891022475508493  0.5081079126800390
  0.1668671823657135  0.3706666534731227  0.3813312202155714
  0.9973410885004910  0.2794366255116572  0.6567267827371097
  0.9990075649413441  0.4509198586337675  0.5125803962705433
  0.1637686562146285  0.0358588980713606  0.6579848582097014
  0.3348608044261852  0.1158980764953981  0.3460011098207687
  0.4985489722971721  0.1892554098323558  0.5082512513720161
  0.5003765442596375  0.3707585453367273  0.3813311553891339
  0.3313689013686485  0.2801006287797350  0.6566807709716613
  0.3321458622154410  0.4505548096174579  0.5122572090245185
  0.4994494484560121  0.0356478867214847  0.6577789905023721
  0.6685020530175407  0.1163911582253050  0.3463422489047119
  0.8316588628593919  0.1893033274157432  0.5080592445251710
  0.8340914435603040  0.3710157773123157  0.3811687395527272
  0.6658755826197620  0.2799538489681339  0.6567584172349683
  0.6658945642285659  0.4508030878549434  0.5123134769587026
  0.8312546699457144  0.0337815005842970  0.6577973573679330
  0.0024710513393273  0.6167652693614372  0.3468183663900035
  0.1643724090802507  0.6899076492754617  0.5084869801295540
  0.1667260020756132  0.8713858001387820  0.3824657415525934
  0.9960655526701245  0.7800013226054361  0.6583428186402571
  0.9977713699585919  0.9515853991750163  0.5133465212073887
  0.1643108796927564  0.5316220112613692  0.6579923754107782
  0.3358674012715639  0.6169933680026318  0.3469254752876694
  0.4963576403573668  0.6891280460046900  0.5067331795091761
  0.5009603387734742  0.8716933521318566  0.3817450325813141
  0.3313463222196376  0.7807798581349488  0.6429505879748660
  0.3320296489962260  0.9514487441398316  0.5115246917084519
  0.4993649246697842  0.5323134550306179  0.6573073013672470
  0.6696235159691355  0.6165249348699433  0.3460197627175461
  0.8300376023358851  0.6891433076474129  0.5088493906827480
  0.8335597686066762  0.8717961617418766  0.3824077302389384
  0.6641980678124710  0.7799212883810469  0.6573373663970941
  0.6655171987852384  0.9514459959799808  0.5129632512417004
  0.8316958537208734  0.5334963604448362  0.6577030977818552
  0.3236023855813741  0.7761285663310105  0.7183487403918747
  0.3944550066240140  0.8086871660895127  0.7383517459633069
 
  0.00000000E+00  0.00000000E+00  0.00000000E+00
  0.00000000E+00  0.00000000E+00  0.00000000E+00
  0.00000000E+00  0.00000000E+00  0.00000000E+00
  0.00000000E+00  0.00000000E+00  0.00000000E+00
  0.00000000E+00  0.00000000E+00  0.00000000E+00
  0.00000000E+00  0.00000000E+00  0.00000000E+00
  0.00000000E+00  0.00000000E+00  0.00000000E+00
  0.00000000E+00  0.00000000E+00  0.00000000E+00
  0.00000000E+00  0.00000000E+00  0.00000000E+00
  0.00000000E+00  0.00000000E+00  0.00000000E+00
  0.00000000E+00  0.00000000E+00  0.00000000E+00
  0.00000000E+00  0.00000000E+00  0.00000000E+00
  0.00000000E+00  0.00000000E+00  0.00000000E+00
  0.00000000E+00  0.00000000E+00  0.00000000E+00
  0.00000000E+00  0.00000000E+00  0.00000000E+00
  0.00000000E+00  0.00000000E+00  0.00000000E+00
  0.00000000E+00  0.00000000E+00  0.00000000E+00
  0.00000000E+00  0.00000000E+00  0.00000000E+00
  0.00000000E+00  0.00000000E+00  0.00000000E+00
  0.00000000E+00  0.00000000E+00  0.00000000E+00
  0.00000000E+00  0.00000000E+00  0.00000000E+00
  0.00000000E+00  0.00000000E+00  0.00000000E+00
  0.00000000E+00  0.00000000E+00  0.00000000E+00
  0.00000000E+00  0.00000000E+00  0.00000000E+00
  0.00000000E+00  0.00000000E+00  0.00000000E+00
  0.00000000E+00  0.00000000E+00  0.00000000E+00
  0.00000000E+00  0.00000000E+00  0.00000000E+00
  0.00000000E+00  0.00000000E+00  0.00000000E+00
  0.00000000E+00  0.00000000E+00  0.00000000E+00
  0.00000000E+00  0.00000000E+00  0.00000000E+00
  0.00000000E+00  0.00000000E+00  0.00000000E+00
  0.00000000E+00  0.00000000E+00  0.00000000E+00
  0.00000000E+00  0.00000000E+00  0.00000000E+00
  0.00000000E+00  0.00000000E+00  0.00000000E+00
  0.00000000E+00  0.00000000E+00  0.00000000E+00
  0.00000000E+00  0.00000000E+00  0.00000000E+00
  0.00000000E+00  0.00000000E+00  0.00000000E+00
  0.00000000E+00  0.00000000E+00  0.00000000E+00
  0.00000000E+00  0.00000000E+00  0.00000000E+00
  0.00000000E+00  0.00000000E+00  0.00000000E+00
  0.00000000E+00  0.00000000E+00  0.00000000E+00
  0.00000000E+00  0.00000000E+00  0.00000000E+00
  0.00000000E+00  0.00000000E+00  0.00000000E+00
  0.00000000E+00  0.00000000E+00  0.00000000E+00
  0.00000000E+00  0.00000000E+00  0.00000000E+00
  0.00000000E+00  0.00000000E+00  0.00000000E+00
  0.00000000E+00  0.00000000E+00  0.00000000E+00
  0.00000000E+00  0.00000000E+00  0.00000000E+00
  0.00000000E+00  0.00000000E+00  0.00000000E+00
  0.00000000E+00  0.00000000E+00  0.00000000E+00
  0.00000000E+00  0.00000000E+00  0.00000000E+00
  0.00000000E+00  0.00000000E+00  0.00000000E+00
  0.00000000E+00  0.00000000E+00  0.00000000E+00
  0.00000000E+00  0.00000000E+00  0.00000000E+00
  0.00000000E+00  0.00000000E+00  0.00000000E+00
  0.00000000E+00  0.00000000E+00  0.00000000E+00
  0.00000000E+00  0.00000000E+00  0.00000000E+00
  0.00000000E+00  0.00000000E+00  0.00000000E+00
  0.00000000E+00  0.00000000E+00  0.00000000E+00
  0.00000000E+00  0.00000000E+00  0.00000000E+00
  0.00000000E+00  0.00000000E+00  0.00000000E+00
  0.00000000E+00  0.00000000E+00  0.00000000E+00
  0.00000000E+00  0.00000000E+00  0.00000000E+00
  0.00000000E+00  0.00000000E+00  0.00000000E+00
  0.00000000E+00  0.00000000E+00  0.00000000E+00
  0.00000000E+00  0.00000000E+00  0.00000000E+00
  0.00000000E+00  0.00000000E+00  0.00000000E+00
  0.00000000E+00  0.00000000E+00  0.00000000E+00
  0.00000000E+00  0.00000000E+00  0.00000000E+00
  0.00000000E+00  0.00000000E+00  0.00000000E+00
  0.00000000E+00  0.00000000E+00  0.00000000E+00
  0.00000000E+00  0.00000000E+00  0.00000000E+00
  0.00000000E+00  0.00000000E+00  0.00000000E+00
  0.00000000E+00  0.00000000E+00  0.00000000E+00
