CONTCAR\(2)                             
   1.00000000000000     
    12.3037004471000007    0.0000000000000000    0.0000000000000000
     6.1518502235000003   10.6553171476999999    0.0000000000000000
     0.0000000000000000    0.0000000000000000   24.8090991973999984
   Mn   In   Se   O    H 
     9    18    36     1     1
Direct
  0.2200836516581390  0.2184500843469328  0.3275021099326696
  0.5581526446067469  0.2150025748785162  0.3073168302889962
  0.8952403426982249  0.2185555988871644  0.3274707736333438
  0.2206823819163765  0.5625350619065771  0.3283618311766452
  0.5529162691895292  0.5603702517701917  0.3282016775628277
  0.8910748707197207  0.5533389389633342  0.3271232675349150
  0.2230071306584478  0.8900615183986755  0.3280446678218186
  0.5539109756903650  0.8796223231994861  0.3281431682434057
  0.9020721229606450  0.8798614251385525  0.3283897809034058
  1.0001307356515377  0.0000053744937038  0.4879714003584403
  0.1115216113718425  0.1124499106893111  0.6557353883258885
  0.3333723740081318 -0.0001802343736170  0.4879092748579465
  0.4449195035284009  0.1108225010459227  0.6507023127836569
  0.6650557175950542  0.0032800230783350  0.4777860506711317
  0.7785043466290185  0.1106590464147216  0.6507609421974980
  0.9985615764707445  0.3361094285788276  0.4879994931026571
  0.1100892662328521  0.4463284200250112  0.6532737150363125
  0.3376604475675974  0.3305354094552353  0.4778090140251652
  0.4450007246832466  0.4442867776560512  0.6508460096687612
  0.6646882908102493  0.3308231202847175  0.4779140204471721
  0.7784421759178901  0.4453333982400323  0.6532344744193939
  0.9992329273848234  0.6648133723902757  0.4883570235044227
  0.1120276874651903  0.7784854244468005  0.6562526851606497
  0.3334063944605916  0.6666012048459270  0.4881293648653273
  0.4431443939465337  0.7781760674689177  0.6562546558164056
  0.6695010646447338  0.6648225863121988  0.4882153289132161
  0.7785093670176992  0.7762445778604450  0.6532541303876144
  0.0024224465028719  0.9983398446908688  0.2966829357952073
  0.9979181984900348  0.0024439127342574  0.7028701121108992
  0.2183518890661871  0.2199494814527235  0.4299102001782507
  0.1107614794761013  0.1120291356612317  0.5518898186963167
  0.3350986151083775  0.9985698357247029  0.2964729985688014
  0.3347823758368928  0.0019286677063590  0.7030757066007119
  0.5560925296110650  0.2208614351075269  0.4185370277054365
  0.4475756729591599  0.1128823924843641  0.5467241952357426
  0.6774997530114227  0.9808276259772202  0.3113147165282565
  0.6666341681107140  0.0005882400072836  0.6999364605592854
  0.8948248929769415  0.2201182676204100  0.4299187903962515
  0.7727076179397624  0.1130687048515120  0.5467607979269560
  0.0008041319516522  0.3324270630524153  0.2961131519989186
 -0.0005782973205498  0.3358310133239938  0.7030739645919459
  0.2190363451672643  0.5612174616769086  0.4304673290117215
  0.1155012371535780  0.4419220230744784  0.5496559250284235
  0.3235767280821553  0.3394823144961061  0.3064912410961581
  0.3345007810652808  0.3327245192320288  0.6999345582054891
  0.5532316206829977  0.5611217911256107  0.4303322630147550
  0.4472998445407689  0.4384485050498867  0.5468804906458234
  0.6712123993842147  0.3375211521902989  0.3062585506837232
  0.6669016309944377  0.3324976743992802  0.6999688985159462
  0.8892132050767875  0.5555702277358121  0.4303183185935334
  0.7759440147465205  0.4419078249766200  0.5496265341364790
  0.0029490299869591  0.6620244652249035  0.2957895454688065
 -0.0006669244782480  0.6670117067725357  0.7032953110373965
  0.2224688441425173  0.8886938869693278  0.4316119465953772
  0.1111348477047953  0.7773182765917342  0.5524379623466421
  0.3335027076578569  0.6689434412145532  0.2968299688665333
  0.3352002394008915  0.6630276579389479  0.7036568520128565
  0.5534677654907899  0.8839076182617558  0.4303798395436005
  0.4450234597998706  0.7771441633130239  0.5524294905939475
  0.6701385031868357  0.6612741843541730  0.2961249242293881
  0.6675795472039127  0.6662267053405145  0.7031944630081086
  0.8963950834485667  0.8839338519695245  0.4305632242535221
  0.7760686336098180  0.7811952002277176  0.5496747383846782
  0.5621773178114096  0.2033429846030103  0.2342743969195691
  0.5077092069350730  0.2831331674640778  0.2161930122747854
 
  0.00000000E+00  0.00000000E+00  0.00000000E+00
  0.00000000E+00  0.00000000E+00  0.00000000E+00
  0.00000000E+00  0.00000000E+00  0.00000000E+00
  0.00000000E+00  0.00000000E+00  0.00000000E+00
  0.00000000E+00  0.00000000E+00  0.00000000E+00
  0.00000000E+00  0.00000000E+00  0.00000000E+00
  0.00000000E+00  0.00000000E+00  0.00000000E+00
  0.00000000E+00  0.00000000E+00  0.00000000E+00
  0.00000000E+00  0.00000000E+00  0.00000000E+00
  0.00000000E+00  0.00000000E+00  0.00000000E+00
  0.00000000E+00  0.00000000E+00  0.00000000E+00
  0.00000000E+00  0.00000000E+00  0.00000000E+00
  0.00000000E+00  0.00000000E+00  0.00000000E+00
  0.00000000E+00  0.00000000E+00  0.00000000E+00
  0.00000000E+00  0.00000000E+00  0.00000000E+00
  0.00000000E+00  0.00000000E+00  0.00000000E+00
  0.00000000E+00  0.00000000E+00  0.00000000E+00
  0.00000000E+00  0.00000000E+00  0.00000000E+00
  0.00000000E+00  0.00000000E+00  0.00000000E+00
  0.00000000E+00  0.00000000E+00  0.00000000E+00
  0.00000000E+00  0.00000000E+00  0.00000000E+00
  0.00000000E+00  0.00000000E+00  0.00000000E+00
  0.00000000E+00  0.00000000E+00  0.00000000E+00
  0.00000000E+00  0.00000000E+00  0.00000000E+00
  0.00000000E+00  0.00000000E+00  0.00000000E+00
  0.00000000E+00  0.00000000E+00  0.00000000E+00
  0.00000000E+00  0.00000000E+00  0.00000000E+00
  0.00000000E+00  0.00000000E+00  0.00000000E+00
  0.00000000E+00  0.00000000E+00  0.00000000E+00
  0.00000000E+00  0.00000000E+00  0.00000000E+00
  0.00000000E+00  0.00000000E+00  0.00000000E+00
  0.00000000E+00  0.00000000E+00  0.00000000E+00
  0.00000000E+00  0.00000000E+00  0.00000000E+00
  0.00000000E+00  0.00000000E+00  0.00000000E+00
  0.00000000E+00  0.00000000E+00  0.00000000E+00
  0.00000000E+00  0.00000000E+00  0.00000000E+00
  0.00000000E+00  0.00000000E+00  0.00000000E+00
  0.00000000E+00  0.00000000E+00  0.00000000E+00
  0.00000000E+00  0.00000000E+00  0.00000000E+00
  0.00000000E+00  0.00000000E+00  0.00000000E+00
  0.00000000E+00  0.00000000E+00  0.00000000E+00
  0.00000000E+00  0.00000000E+00  0.00000000E+00
  0.00000000E+00  0.00000000E+00  0.00000000E+00
  0.00000000E+00  0.00000000E+00  0.00000000E+00
  0.00000000E+00  0.00000000E+00  0.00000000E+00
  0.00000000E+00  0.00000000E+00  0.00000000E+00
  0.00000000E+00  0.00000000E+00  0.00000000E+00
  0.00000000E+00  0.00000000E+00  0.00000000E+00
  0.00000000E+00  0.00000000E+00  0.00000000E+00
  0.00000000E+00  0.00000000E+00  0.00000000E+00
  0.00000000E+00  0.00000000E+00  0.00000000E+00
  0.00000000E+00  0.00000000E+00  0.00000000E+00
  0.00000000E+00  0.00000000E+00  0.00000000E+00
  0.00000000E+00  0.00000000E+00  0.00000000E+00
  0.00000000E+00  0.00000000E+00  0.00000000E+00
  0.00000000E+00  0.00000000E+00  0.00000000E+00
  0.00000000E+00  0.00000000E+00  0.00000000E+00
  0.00000000E+00  0.00000000E+00  0.00000000E+00
  0.00000000E+00  0.00000000E+00  0.00000000E+00
  0.00000000E+00  0.00000000E+00  0.00000000E+00
  0.00000000E+00  0.00000000E+00  0.00000000E+00
  0.00000000E+00  0.00000000E+00  0.00000000E+00
  0.00000000E+00  0.00000000E+00  0.00000000E+00
  0.00000000E+00  0.00000000E+00  0.00000000E+00
  0.00000000E+00  0.00000000E+00  0.00000000E+00
