CONTCAR                                 
   1.00000000000000     
    12.9361000061000002    0.0000000000000000    0.0000000000000000
     0.0000000000000000   12.9357995986999992    0.0000000000000000
     0.0000000000000000    0.0000000000000000   24.1072998046999984
   Dy   Te   O    H 
    18    54     1     1
Selective dynamics
Direct
  0.1677552370505566  0.0004211885436050  0.5836152821287683   F   F   F
  0.0011852343898724  0.1673984088366325  0.4138532854808332   F   F   F
  0.5020903529740437  0.0008937419775137  0.5842988700780154   F   F   F
  0.3342900271195077  0.1667540782070631  0.4133370922961035   F   F   F
  0.8364247110313343  0.0004548486130034  0.5840174220269745   F   F   F
  0.6678397827436200  0.1669415633367990  0.4137942293308114   F   F   F
  0.1665540650682544  0.3334704812220295  0.5835723807181665   F   F   F
  0.0011808977691885  0.5004981538337461  0.4139408713205412   F   F   F
  0.4991337238571987  0.3268604103458799  0.5819396943863353   F   F   F
  0.3348146618380881  0.5006766052553644  0.4146706599847505   F   F   F
  0.8342209875193021  0.3339594527716798  0.5837818357898001   F   F   F
  0.6672895214582937  0.5004723548757113  0.4148814102513683   F   F   F
  0.1665429524960729  0.6668546795705979  0.5835953910383864   F   F   F
  0.0009812078106677  0.8336779670358112  0.4138059279316835   F   F   F
  0.5008509906047820  0.6748789712845280  0.5826430830582296   F   F   F
  0.3341589809485583  0.8340198800585839  0.4136105015441842   F   F   F
  0.8350504670987959  0.6661953746146381  0.5834805781228809   F   F   F
  0.6679563756747271  0.8341638289391398  0.4137624227419110   F   F   F
  0.0010179620679125  0.0002539535468244  0.3104274458555309   F   F   F
  0.1661836940018020  0.1667648203603065  0.6866238126132274   F   F   F
  0.0041346604364563  0.0047057252955085  0.6865525129648660   F   F   F
  0.1678094869285900  0.1670299779437627  0.3105911188044530   F   F   F
  0.1674383693507764  0.0003781201619262  0.4522650696256179   F   F   F
  0.0006900493292790  0.1678283864395382  0.5449298720806084   F   F   F
  0.3342990198697819  0.0002521626031395  0.3101890279046344   F   F   F
  0.4990646493010544  0.1689257578925805  0.6885950111316461   F   F   F
  0.3354974615923894  0.9981921441874135  0.6870203488044524   F   F   F
  0.5012441260299383  0.1669497677170497  0.3103443477342864   F   F   F
  0.5008038579277496  0.0003100686956472  0.4526612286043630   F   F   F
  0.3335708229424412  0.1655222569009069  0.5446228475541943   F   F   F
  0.6678125801820656  0.0003129437499823  0.3103850817370173   F   F   F
  0.8324098357781224  0.1685694303943563  0.6864221300238214   F   F   F
  0.6706355384098757  0.0021523955233178  0.6872322048227772   F   F   F
  0.8347180447769844  0.1670865199533864  0.3108659395917215   F   F   F
  0.8345061565267642  0.0007492275353869  0.4525845885812814   F   F   F
  0.6682091571628277  0.1666691902369735  0.5455895117579388   F   F   F
  0.0015599547129810  0.3338719159475545  0.3107960435607211   F   F   F
  0.1722179860082846  0.5015121283872546  0.6873789110785538   F   F   F
  0.9986518520635741  0.3368251948114249  0.6871641928121406   F   F   F
  0.1677823172699746  0.5003878060229852  0.3111002722235483   F   F   F
  0.1684367450567521  0.3342029247965783  0.4526750722651016   F   F   F
  0.0010450043374988  0.5002846505223033  0.5453871765201015   F   F   F
  0.3346717392030101  0.3338581507793421  0.3108469707692905   F   F   F
  0.5068105931373807  0.5075900437356751  0.7274991095610233   F   F   F
  0.3384130957522089  0.3371761169663117  0.6837471551789776   F   F   F
  0.5011260684732477  0.5003064308215031  0.3115424814435599   F   F   F
  0.5009548415588156  0.3327442262225446  0.4519104588143605   F   F   F
  0.3378704820145231  0.5015503479450985  0.5470859378782293   F   F   F
  0.6680700299790345  0.3336777862014202  0.3110233806043610   F   F   F
  0.8347276957041103  0.4989457336015803  0.6868975738733383   F   F   F
  0.6559093946996910  0.3377044362724675  0.6894102257119812   F   F   F
  0.8343048946369507  0.5003265040371474  0.3112541765294878   F   F   F
  0.8341796050909025  0.3343981075205207  0.4528229682530309   F   F   F
  0.6630434146120407  0.5003929829540965  0.5475847422029076   F   F   F
  0.0011175435757167  0.6668674797926428  0.3106977578815275   F   F   F
  0.1660414433087425  0.8322098300406466  0.6867760859715233   F   F   F
  0.0011116525589969  0.6687110182414386  0.6871451494491936   F   F   F
  0.1680062309063146  0.8334938479664160  0.3105764888315576   F   F   F
  0.1679765053767284  0.6669182587802425  0.4526813602062845   F   F   F
  0.0010987013846204  0.8335714304375657  0.5451613240744706   F   F   F
  0.3346931470718530  0.6668361183600027  0.3110041074134884   F   F   F
  0.4993780376177597  0.8367753937746940  0.6882972496834867   F   F   F
  0.3390800361916746  0.6632975469660707  0.6890845617484302   F   F   F
  0.5014055487554572  0.8336681395635992  0.3105224235426576   F   F   F
  0.5012885900401471  0.6683213884341868  0.4524447082709386   F   F   F
  0.3338148658140696  0.8344622238359207  0.5453499594084832   F   F   F
  0.6678473627668708  0.6668496915022075  0.3109681402331503   F   F   F
  0.8308934997329160  0.8307085848227658  0.6864895034620844   F   F   F
  0.6662636477453887  0.6681236487880966  0.6869943759346029   F   F   F
  0.8345956039188778  0.8337436504696498  0.3108210683790773   F   F   F
  0.8341425120181754  0.6665570969828210  0.4527731264815813   F   F   F
  0.6685268197863650  0.8352207093559443  0.5452098518897373   F   F   F
  0.5643773924369597  0.5717070328906004  0.7984527085502862   T   T   T
  0.5271995806136545  0.5407369449884030  0.8290871787132804   T   T   T
 
  0.00000000E+00  0.00000000E+00  0.00000000E+00
  0.00000000E+00  0.00000000E+00  0.00000000E+00
  0.00000000E+00  0.00000000E+00  0.00000000E+00
  0.00000000E+00  0.00000000E+00  0.00000000E+00
  0.00000000E+00  0.00000000E+00  0.00000000E+00
  0.00000000E+00  0.00000000E+00  0.00000000E+00
  0.00000000E+00  0.00000000E+00  0.00000000E+00
  0.00000000E+00  0.00000000E+00  0.00000000E+00
  0.00000000E+00  0.00000000E+00  0.00000000E+00
  0.00000000E+00  0.00000000E+00  0.00000000E+00
  0.00000000E+00  0.00000000E+00  0.00000000E+00
  0.00000000E+00  0.00000000E+00  0.00000000E+00
  0.00000000E+00  0.00000000E+00  0.00000000E+00
  0.00000000E+00  0.00000000E+00  0.00000000E+00
  0.00000000E+00  0.00000000E+00  0.00000000E+00
  0.00000000E+00  0.00000000E+00  0.00000000E+00
  0.00000000E+00  0.00000000E+00  0.00000000E+00
  0.00000000E+00  0.00000000E+00  0.00000000E+00
  0.00000000E+00  0.00000000E+00  0.00000000E+00
  0.00000000E+00  0.00000000E+00  0.00000000E+00
  0.00000000E+00  0.00000000E+00  0.00000000E+00
  0.00000000E+00  0.00000000E+00  0.00000000E+00
  0.00000000E+00  0.00000000E+00  0.00000000E+00
  0.00000000E+00  0.00000000E+00  0.00000000E+00
  0.00000000E+00  0.00000000E+00  0.00000000E+00
  0.00000000E+00  0.00000000E+00  0.00000000E+00
  0.00000000E+00  0.00000000E+00  0.00000000E+00
  0.00000000E+00  0.00000000E+00  0.00000000E+00
  0.00000000E+00  0.00000000E+00  0.00000000E+00
  0.00000000E+00  0.00000000E+00  0.00000000E+00
  0.00000000E+00  0.00000000E+00  0.00000000E+00
  0.00000000E+00  0.00000000E+00  0.00000000E+00
  0.00000000E+00  0.00000000E+00  0.00000000E+00
  0.00000000E+00  0.00000000E+00  0.00000000E+00
  0.00000000E+00  0.00000000E+00  0.00000000E+00
  0.00000000E+00  0.00000000E+00  0.00000000E+00
  0.00000000E+00  0.00000000E+00  0.00000000E+00
  0.00000000E+00  0.00000000E+00  0.00000000E+00
  0.00000000E+00  0.00000000E+00  0.00000000E+00
  0.00000000E+00  0.00000000E+00  0.00000000E+00
  0.00000000E+00  0.00000000E+00  0.00000000E+00
  0.00000000E+00  0.00000000E+00  0.00000000E+00
  0.00000000E+00  0.00000000E+00  0.00000000E+00
  0.00000000E+00  0.00000000E+00  0.00000000E+00
  0.00000000E+00  0.00000000E+00  0.00000000E+00
  0.00000000E+00  0.00000000E+00  0.00000000E+00
  0.00000000E+00  0.00000000E+00  0.00000000E+00
  0.00000000E+00  0.00000000E+00  0.00000000E+00
  0.00000000E+00  0.00000000E+00  0.00000000E+00
  0.00000000E+00  0.00000000E+00  0.00000000E+00
  0.00000000E+00  0.00000000E+00  0.00000000E+00
  0.00000000E+00  0.00000000E+00  0.00000000E+00
  0.00000000E+00  0.00000000E+00  0.00000000E+00
  0.00000000E+00  0.00000000E+00  0.00000000E+00
  0.00000000E+00  0.00000000E+00  0.00000000E+00
  0.00000000E+00  0.00000000E+00  0.00000000E+00
  0.00000000E+00  0.00000000E+00  0.00000000E+00
  0.00000000E+00  0.00000000E+00  0.00000000E+00
  0.00000000E+00  0.00000000E+00  0.00000000E+00
  0.00000000E+00  0.00000000E+00  0.00000000E+00
  0.00000000E+00  0.00000000E+00  0.00000000E+00
  0.00000000E+00  0.00000000E+00  0.00000000E+00
  0.00000000E+00  0.00000000E+00  0.00000000E+00
  0.00000000E+00  0.00000000E+00  0.00000000E+00
  0.00000000E+00  0.00000000E+00  0.00000000E+00
  0.00000000E+00  0.00000000E+00  0.00000000E+00
  0.00000000E+00  0.00000000E+00  0.00000000E+00
  0.00000000E+00  0.00000000E+00  0.00000000E+00
  0.00000000E+00  0.00000000E+00  0.00000000E+00
  0.00000000E+00  0.00000000E+00  0.00000000E+00
  0.00000000E+00  0.00000000E+00  0.00000000E+00
  0.00000000E+00  0.00000000E+00  0.00000000E+00
  0.00000000E+00  0.00000000E+00  0.00000000E+00
  0.00000000E+00  0.00000000E+00  0.00000000E+00
