CONTCAR\(11)                            
   1.00000000000000     
    14.0314998627000005    0.0000000000000000    0.0000000000000000
     0.0000000000000000   12.8740997313999994    0.0000000000000000
     0.0000000000000000    0.0000000000000000   20.5195999146000005
   Ta   Ni   Te
    16    32    32
Direct
  0.0000000000000000  0.2033238785447580  0.4787973799150507
  0.0000000000000000  0.4533238595447600  0.5212026200849493
  0.2500000000000000  0.2033238785447580  0.4787973799150507
  0.2500000000000000  0.4533238595447600  0.5212026200849493
  0.5000000000000000  0.2033238785447580  0.4787973799150507
  0.5000000000000000  0.4533238595447600  0.5212026200849493
  0.7499999659999972  0.2033238785447580  0.4787973799150507
  0.7499999659999972  0.4533238595447600  0.5212026200849493
  0.0000000000000000  0.7033238965447595  0.4787973799150507
  0.0000000000000000  0.9533238965447595  0.5212026200849493
  0.2500000000000000  0.7033238965447595  0.4787973799150507
  0.2500000000000000  0.9533238965447595  0.5212026200849493
  0.5000000000000000  0.7033238965447595  0.4787973799150507
  0.5000000000000000  0.9533238965447595  0.5212026200849493
  0.7499999659999972  0.7033238965447595  0.4787973799150507
  0.7499999659999972  0.9533238965447595  0.5212026200849493
  0.1250000000000000  0.1055808766683128  0.5558784295803321
  0.1250000000000000  0.3555708576683116  0.4441315634196670
  0.1250000000000000  0.3011425736596536  0.5558882600313453
  0.1250000000000000  0.0511425736596536  0.4441217319686572
  0.3749999830000021  0.1055808766683128  0.5558784295803321
  0.3749999830000021  0.3555708576683116  0.4441315634196670
  0.3749999830000021  0.3011425736596536  0.5558882600313453
  0.3749999830000021  0.0511425736596536  0.4441217319686572
  0.6250000169999979  0.1055808766683128  0.5558784295803321
  0.6250000169999979  0.3555708576683116  0.4441315634196670
  0.6250000169999979  0.3011425736596536  0.5558882600313453
  0.6250000169999979  0.0511425736596536  0.4441217319686572
  0.8749999830000021  0.1055808766683128  0.5558784295803321
  0.8749999830000021  0.3555708576683116  0.4441315634196670
  0.8749999830000021  0.3011425736596536  0.5558882600313453
  0.8749999830000021  0.0511425736596536  0.4441217319686572
  0.1250000000000000  0.6055808956683109  0.5558784295803321
  0.1250000000000000  0.8555709316683107  0.4441315634196670
  0.1250000000000000  0.8011425736596536  0.5558882600313453
  0.1250000000000000  0.5511426106596531  0.4441217319686572
  0.3749999830000021  0.6055808956683109  0.5558784295803321
  0.3749999830000021  0.8555709316683107  0.4441315634196670
  0.3749999830000021  0.8011425736596536  0.5558882600313453
  0.3749999830000021  0.5511426106596531  0.4441217319686572
  0.6250000169999979  0.6055808956683109  0.5558784295803321
  0.6250000169999979  0.8555709316683107  0.4441315634196670
  0.6250000169999979  0.8011425736596536  0.5558882600313453
  0.6250000169999979  0.5511426106596531  0.4441217319686572
  0.8749999830000021  0.6055808956683109  0.5558784295803321
  0.8749999830000021  0.8555709316683107  0.4441315634196670
  0.8749999830000021  0.8011425736596536  0.5558882600313453
  0.8749999830000021  0.5511426106596531  0.4441217319686572
  0.1250000000000000  0.4533278604179216  0.6335673669153508
  0.1250000000000000  0.2033178604179255  0.3664226170846447
  0.0000000000000000  0.4532647947093622  0.3769457671489178
  0.0000000000000000  0.2032747957093619  0.6230442178510813
  0.3749999830000021  0.4533278604179216  0.6335673669153508
  0.3749999830000021  0.2033178604179255  0.3664226170846447
  0.2500000000000000  0.4532647947093622  0.3769457671489178
  0.2500000000000000  0.2032747957093619  0.6230442178510813
  0.6250000169999979  0.4533278604179216  0.6335673669153508
  0.6250000169999979  0.2033178604179255  0.3664226170846447
  0.5000000000000000  0.4532647947093622  0.3769457671489178
  0.5000000000000000  0.2032747957093619  0.6230442178510813
  0.8749999830000021  0.4533278604179216  0.6335673669153508
  0.8749999830000021  0.2033178604179255  0.3664226170846447
  0.7499999659999972  0.4532647947093622  0.3769457671489178
  0.7499999659999972  0.2032747957093619  0.6230442178510813
  0.1250000000000000  0.9533278974179211  0.6335673669153508
  0.1250000000000000  0.7033178974179251  0.3664226170846447
  0.0000000000000000  0.9532648317093617  0.3769457671489178
  0.0000000000000000  0.7032748327093614  0.6230442178510813
  0.3749999830000021  0.9533278974179211  0.6335673669153508
  0.3749999830000021  0.7033178974179251  0.3664226170846447
  0.2500000000000000  0.9532648317093617  0.3769457671489178
  0.2500000000000000  0.7032748327093614  0.6230442178510813
  0.6250000169999979  0.9533278974179211  0.6335673669153508
  0.6250000169999979  0.7033178974179251  0.3664226170846447
  0.5000000000000000  0.9532648317093617  0.3769457671489178
  0.5000000000000000  0.7032748327093614  0.6230442178510813
  0.8749999830000021  0.9533278974179211  0.6335673669153508
  0.8749999830000021  0.7033178974179251  0.3664226170846447
  0.7499999659999972  0.9532648317093617  0.3769457671489178
  0.7499999659999972  0.7032748327093614  0.6230442178510813
 
  0.00000000E+00  0.00000000E+00  0.00000000E+00
  0.00000000E+00  0.00000000E+00  0.00000000E+00
  0.00000000E+00  0.00000000E+00  0.00000000E+00
  0.00000000E+00  0.00000000E+00  0.00000000E+00
  0.00000000E+00  0.00000000E+00  0.00000000E+00
  0.00000000E+00  0.00000000E+00  0.00000000E+00
  0.00000000E+00  0.00000000E+00  0.00000000E+00
  0.00000000E+00  0.00000000E+00  0.00000000E+00
  0.00000000E+00  0.00000000E+00  0.00000000E+00
  0.00000000E+00  0.00000000E+00  0.00000000E+00
  0.00000000E+00  0.00000000E+00  0.00000000E+00
  0.00000000E+00  0.00000000E+00  0.00000000E+00
  0.00000000E+00  0.00000000E+00  0.00000000E+00
  0.00000000E+00  0.00000000E+00  0.00000000E+00
  0.00000000E+00  0.00000000E+00  0.00000000E+00
  0.00000000E+00  0.00000000E+00  0.00000000E+00
  0.00000000E+00  0.00000000E+00  0.00000000E+00
  0.00000000E+00  0.00000000E+00  0.00000000E+00
  0.00000000E+00  0.00000000E+00  0.00000000E+00
  0.00000000E+00  0.00000000E+00  0.00000000E+00
  0.00000000E+00  0.00000000E+00  0.00000000E+00
  0.00000000E+00  0.00000000E+00  0.00000000E+00
  0.00000000E+00  0.00000000E+00  0.00000000E+00
  0.00000000E+00  0.00000000E+00  0.00000000E+00
  0.00000000E+00  0.00000000E+00  0.00000000E+00
  0.00000000E+00  0.00000000E+00  0.00000000E+00
  0.00000000E+00  0.00000000E+00  0.00000000E+00
  0.00000000E+00  0.00000000E+00  0.00000000E+00
  0.00000000E+00  0.00000000E+00  0.00000000E+00
  0.00000000E+00  0.00000000E+00  0.00000000E+00
  0.00000000E+00  0.00000000E+00  0.00000000E+00
  0.00000000E+00  0.00000000E+00  0.00000000E+00
  0.00000000E+00  0.00000000E+00  0.00000000E+00
  0.00000000E+00  0.00000000E+00  0.00000000E+00
  0.00000000E+00  0.00000000E+00  0.00000000E+00
  0.00000000E+00  0.00000000E+00  0.00000000E+00
  0.00000000E+00  0.00000000E+00  0.00000000E+00
  0.00000000E+00  0.00000000E+00  0.00000000E+00
  0.00000000E+00  0.00000000E+00  0.00000000E+00
  0.00000000E+00  0.00000000E+00  0.00000000E+00
  0.00000000E+00  0.00000000E+00  0.00000000E+00
  0.00000000E+00  0.00000000E+00  0.00000000E+00
  0.00000000E+00  0.00000000E+00  0.00000000E+00
  0.00000000E+00  0.00000000E+00  0.00000000E+00
  0.00000000E+00  0.00000000E+00  0.00000000E+00
  0.00000000E+00  0.00000000E+00  0.00000000E+00
  0.00000000E+00  0.00000000E+00  0.00000000E+00
  0.00000000E+00  0.00000000E+00  0.00000000E+00
  0.00000000E+00  0.00000000E+00  0.00000000E+00
  0.00000000E+00  0.00000000E+00  0.00000000E+00
  0.00000000E+00  0.00000000E+00  0.00000000E+00
  0.00000000E+00  0.00000000E+00  0.00000000E+00
  0.00000000E+00  0.00000000E+00  0.00000000E+00
  0.00000000E+00  0.00000000E+00  0.00000000E+00
  0.00000000E+00  0.00000000E+00  0.00000000E+00
  0.00000000E+00  0.00000000E+00  0.00000000E+00
  0.00000000E+00  0.00000000E+00  0.00000000E+00
  0.00000000E+00  0.00000000E+00  0.00000000E+00
  0.00000000E+00  0.00000000E+00  0.00000000E+00
  0.00000000E+00  0.00000000E+00  0.00000000E+00
  0.00000000E+00  0.00000000E+00  0.00000000E+00
  0.00000000E+00  0.00000000E+00  0.00000000E+00
  0.00000000E+00  0.00000000E+00  0.00000000E+00
  0.00000000E+00  0.00000000E+00  0.00000000E+00
  0.00000000E+00  0.00000000E+00  0.00000000E+00
  0.00000000E+00  0.00000000E+00  0.00000000E+00
  0.00000000E+00  0.00000000E+00  0.00000000E+00
  0.00000000E+00  0.00000000E+00  0.00000000E+00
  0.00000000E+00  0.00000000E+00  0.00000000E+00
  0.00000000E+00  0.00000000E+00  0.00000000E+00
  0.00000000E+00  0.00000000E+00  0.00000000E+00
  0.00000000E+00  0.00000000E+00  0.00000000E+00
  0.00000000E+00  0.00000000E+00  0.00000000E+00
  0.00000000E+00  0.00000000E+00  0.00000000E+00
  0.00000000E+00  0.00000000E+00  0.00000000E+00
  0.00000000E+00  0.00000000E+00  0.00000000E+00
  0.00000000E+00  0.00000000E+00  0.00000000E+00
  0.00000000E+00  0.00000000E+00  0.00000000E+00
  0.00000000E+00  0.00000000E+00  0.00000000E+00
  0.00000000E+00  0.00000000E+00  0.00000000E+00
