Repeated-UnitCell:     3    3    1      
   1.00000000000000     
    10.3426471251511032    0.0000000000000000    0.0000000000000000
     5.1713235625755516    8.9569925604243181    0.0000000000000000
     0.0000000000000000    0.0000000000000000   18.3699995863840009
   Nb   Se
     9    18
Direct
  0.1111111453387963  0.1111111575413801  0.5000162669846446
  0.4444444786721249  0.1111111575413801  0.5000162669846446
  0.7777778120054606  0.1111111575413801  0.5000162669846446
  0.1111111453387963  0.4444444908747158  0.5000162669846446
  0.4444444786721249  0.4444444908747158  0.5000162669846446
  0.7777778120054606  0.4444444908747158  0.5000162669846446
  0.1111111453387963  0.7777778242080515  0.5000162669846446
  0.4444444786721249  0.7777778242080515  0.5000162669846446
  0.7777778120054606  0.7777778242080515  0.5000162669846446
  0.2222222629935757  0.2222222533144418  0.5917031159581541
  0.5555555963269114  0.2222222533144418  0.5917031159581541
  0.8888889296602400  0.2222222533144418  0.5917031159581541
  0.2222222629935757  0.5555555866477775  0.5917031159581541
  0.5555555963269114  0.5555555866477775  0.5917031159581541
  0.8888889296602400  0.5555555866477775  0.5917031159581541
  0.2222222629935757  0.8888889199811132  0.5917031159581541
  0.5555555963269114  0.8888889199811132  0.5917031159581541
  0.8888889296602400  0.8888889199811132  0.5917031159581541
  0.2222222583342983  0.2222222558108413  0.4083302321747055
  0.5555555916676269  0.2222222558108413  0.4083302321747055
  0.8888889250009626  0.2222222558108413  0.4083302321747055
  0.2222222583342983  0.5555555891441699  0.4083302321747055
  0.5555555916676269  0.5555555891441699  0.4083302321747055
  0.8888889250009626  0.5555555891441699  0.4083302321747055
  0.2222222583342983  0.8888889224775056  0.4083302321747055
  0.5555555916676269  0.8888889224775056  0.4083302321747055
  0.8888889250009626  0.8888889224775056  0.4083302321747055
 
  0.00000000E+00  0.00000000E+00  0.00000000E+00
  0.00000000E+00  0.00000000E+00  0.00000000E+00
  0.00000000E+00  0.00000000E+00  0.00000000E+00
  0.00000000E+00  0.00000000E+00  0.00000000E+00
  0.00000000E+00  0.00000000E+00  0.00000000E+00
  0.00000000E+00  0.00000000E+00  0.00000000E+00
  0.00000000E+00  0.00000000E+00  0.00000000E+00
  0.00000000E+00  0.00000000E+00  0.00000000E+00
  0.00000000E+00  0.00000000E+00  0.00000000E+00
  0.00000000E+00  0.00000000E+00  0.00000000E+00
  0.00000000E+00  0.00000000E+00  0.00000000E+00
  0.00000000E+00  0.00000000E+00  0.00000000E+00
  0.00000000E+00  0.00000000E+00  0.00000000E+00
  0.00000000E+00  0.00000000E+00  0.00000000E+00
  0.00000000E+00  0.00000000E+00  0.00000000E+00
  0.00000000E+00  0.00000000E+00  0.00000000E+00
  0.00000000E+00  0.00000000E+00  0.00000000E+00
  0.00000000E+00  0.00000000E+00  0.00000000E+00
  0.00000000E+00  0.00000000E+00  0.00000000E+00
  0.00000000E+00  0.00000000E+00  0.00000000E+00
  0.00000000E+00  0.00000000E+00  0.00000000E+00
  0.00000000E+00  0.00000000E+00  0.00000000E+00
  0.00000000E+00  0.00000000E+00  0.00000000E+00
  0.00000000E+00  0.00000000E+00  0.00000000E+00
  0.00000000E+00  0.00000000E+00  0.00000000E+00
  0.00000000E+00  0.00000000E+00  0.00000000E+00
  0.00000000E+00  0.00000000E+00  0.00000000E+00
