CONTCAR\(4)                             
   1.00000000000000     
    11.8118000031000001    0.0000000000000000    0.0000000000000000
     0.0000000000000000   12.8071002959999998    0.0000000000000000
     0.0000000000000000    0.0000000000000000   20.7511997223000009
   Cu   Sb   Se   O    H 
    12    12    24     2     1
Direct
  0.1541137746673448  0.3649490658880241  0.4370051744699637
  0.1622941135745271  0.1226832570587127  0.5536816429117797
  0.4951614032337890  0.3662934989054963  0.4550936043242185
  0.5001236942725062  0.1202740198097546  0.5620076499640726
  0.8377231992449081  0.3655245911610399  0.4362133506131567
  0.8349601471841551  0.1174109787425101  0.5556369774887508
  0.1677513697609921  0.8662454803433608  0.4422720340998152
  0.1736509322593981  0.6110081051850282  0.5612229931913224
  0.4999205579361984  0.8676187757134725  0.4454169222066836
  0.4999187796792114  0.6164139152765121  0.5661313094380934
  0.8342734624632608  0.8667816945998524  0.4405002053116185
  0.8420823681266575  0.6165623034139222  0.5540485733866743
  0.0022303252123477  0.3595642513957727  0.6249341797675745
  0.9994735107558467  0.1136332328178193  0.3639057711319631
  0.3321006336325918  0.3712261857190702  0.6514243847084840
  0.3361807745838375  0.1200157549749612  0.3702768625638593
  0.6774139620268025  0.3689100366019008  0.6343561568421506
  0.6626348625942475  0.1201612698432301  0.3704118603782954
  0.0015506165636275  0.8663672782209505  0.6303123022851947
  0.0064521338526216  0.6181551377308485  0.3671798091122179
  0.3314370660572454  0.8711036713520145  0.6319321044571239
  0.3363924005243598  0.6138006224432736  0.3717086671948401
  0.6711002923486103  0.8675949713648647  0.6317585415470430
  0.6619667460673244  0.6145754412484756  0.3716026136641633
  0.1649357018834083  0.3086345689142919  0.5459955482288085
  0.9962374484528379  0.3113422808366947  0.3725529217234369
  0.0007071817282144  0.0620498730427913  0.6128963740440154
  0.1650267356001016  0.0539213700918617  0.4465915530815087
  0.4956729417159263  0.3088890507301386  0.5652787980322012
  0.3336393533804594  0.3142993196439546  0.3918917307080959
  0.3277808317975516  0.0658686884741831  0.6114736919704952
  0.4997736864800424  0.0557939692095918  0.4530578893649148
  0.8334452530400851  0.3051335530848790  0.5456679342194904
  0.6581396568014019  0.3143165099947833  0.3927519860258228
  0.6696927837405644  0.0636257432065872  0.6136788608580183
  0.8346135330484645  0.0547048358976636  0.4467241424756651
  0.1692035065165332  0.8010421011668680  0.5505029585032379
  0.0015443959921342  0.8140519930559100  0.3841798997989185
  0.0029986128085053  0.5591515503581742  0.6136265795353674
  0.1665651577309836  0.5526324469622441  0.4506854050253172
  0.5008940289698020  0.8047987069136495  0.5541164333491992
  0.3355538929164444  0.8107264651085810  0.3872578072745027
  0.3355493520381179  0.5671059222691929  0.6243950683815016
  0.4989595909154980  0.5550406757825773  0.4561260866182985
  0.8358718358031073  0.8045886152572228  0.5492271257507529
  0.6651269961730538  0.8110182444728995  0.3875020022914262
  0.6763866089007119  0.5643533796058997  0.6103615249883133
  0.8380656012994859  0.5532806376097384  0.4459873194428607
  0.4429825858274172  0.3727710012802046  0.7289741814784605
  0.5369262699198596  0.4503880333378517  0.7247180372166815
  0.5684695228969702  0.4427167648806797  0.7682144455536284
 
  0.00000000E+00  0.00000000E+00  0.00000000E+00
  0.00000000E+00  0.00000000E+00  0.00000000E+00
  0.00000000E+00  0.00000000E+00  0.00000000E+00
  0.00000000E+00  0.00000000E+00  0.00000000E+00
  0.00000000E+00  0.00000000E+00  0.00000000E+00
  0.00000000E+00  0.00000000E+00  0.00000000E+00
  0.00000000E+00  0.00000000E+00  0.00000000E+00
  0.00000000E+00  0.00000000E+00  0.00000000E+00
  0.00000000E+00  0.00000000E+00  0.00000000E+00
  0.00000000E+00  0.00000000E+00  0.00000000E+00
  0.00000000E+00  0.00000000E+00  0.00000000E+00
  0.00000000E+00  0.00000000E+00  0.00000000E+00
  0.00000000E+00  0.00000000E+00  0.00000000E+00
  0.00000000E+00  0.00000000E+00  0.00000000E+00
  0.00000000E+00  0.00000000E+00  0.00000000E+00
  0.00000000E+00  0.00000000E+00  0.00000000E+00
  0.00000000E+00  0.00000000E+00  0.00000000E+00
  0.00000000E+00  0.00000000E+00  0.00000000E+00
  0.00000000E+00  0.00000000E+00  0.00000000E+00
  0.00000000E+00  0.00000000E+00  0.00000000E+00
  0.00000000E+00  0.00000000E+00  0.00000000E+00
  0.00000000E+00  0.00000000E+00  0.00000000E+00
  0.00000000E+00  0.00000000E+00  0.00000000E+00
  0.00000000E+00  0.00000000E+00  0.00000000E+00
  0.00000000E+00  0.00000000E+00  0.00000000E+00
  0.00000000E+00  0.00000000E+00  0.00000000E+00
  0.00000000E+00  0.00000000E+00  0.00000000E+00
  0.00000000E+00  0.00000000E+00  0.00000000E+00
  0.00000000E+00  0.00000000E+00  0.00000000E+00
  0.00000000E+00  0.00000000E+00  0.00000000E+00
  0.00000000E+00  0.00000000E+00  0.00000000E+00
  0.00000000E+00  0.00000000E+00  0.00000000E+00
  0.00000000E+00  0.00000000E+00  0.00000000E+00
  0.00000000E+00  0.00000000E+00  0.00000000E+00
  0.00000000E+00  0.00000000E+00  0.00000000E+00
  0.00000000E+00  0.00000000E+00  0.00000000E+00
  0.00000000E+00  0.00000000E+00  0.00000000E+00
  0.00000000E+00  0.00000000E+00  0.00000000E+00
  0.00000000E+00  0.00000000E+00  0.00000000E+00
  0.00000000E+00  0.00000000E+00  0.00000000E+00
  0.00000000E+00  0.00000000E+00  0.00000000E+00
  0.00000000E+00  0.00000000E+00  0.00000000E+00
  0.00000000E+00  0.00000000E+00  0.00000000E+00
  0.00000000E+00  0.00000000E+00  0.00000000E+00
  0.00000000E+00  0.00000000E+00  0.00000000E+00
  0.00000000E+00  0.00000000E+00  0.00000000E+00
  0.00000000E+00  0.00000000E+00  0.00000000E+00
  0.00000000E+00  0.00000000E+00  0.00000000E+00
  0.00000000E+00  0.00000000E+00  0.00000000E+00
  0.00000000E+00  0.00000000E+00  0.00000000E+00
  0.00000000E+00  0.00000000E+00  0.00000000E+00
