CONTCAR                                 
   1.00000000000000     
    11.1498003006000008    0.0000000000000000    0.0000000000000000
     0.0000000000000000   12.2238998412999997    0.0000000000000000
     0.0000000000000000    0.0000000000000000   17.5557994842999996
   V    Cu   O 
     8     8    33
Direct
  0.1111518889362813  0.0005521322583861  0.5278080712058131
  0.3618530822566466  0.0009933518536781  0.4726758915565175
  0.6125479262492024  0.0022772355756720  0.5298912595079474
  0.8612873679441357 -0.0003034841152752  0.4723674743303475
  0.1110936180717778  0.5021675263535187  0.5294497374020327
  0.3639192774315308  0.5017052535757854  0.4725617239338342
  0.6127283787592025  0.5020326816448845  0.5293698715253247
  0.8619612979722077  0.5016726447200132  0.4737188105150663
  0.2490032080281744  0.2544082454521605  0.5107776172961467
  0.9965558643552772  0.2521190604507217  0.4981645899790418
  0.7473879926233509  0.2510104724891597  0.5007851206112740
  0.4984870265887057  0.2526103071574234  0.4981315789027654
  0.2476042422748837  0.7501300115301881  0.5026906270432285
 -0.0028283536811274  0.7513573431886872  0.5010048580856438
  0.7471287098871072  0.7500465616043549  0.5035745169750305
  0.4973769536098579  0.7518727669201766  0.5017561139766099
  0.3725024022779674  0.3431497861981572  0.4689389332137486
  0.5131213416774740  0.0138481738986385  0.4445339463080771
  0.0204008865556894  0.9758709969401765  0.5966714889861187
  0.2615808850849349 -0.0122992504623234  0.5573955434017518
  0.1222393404623669  0.3490686851316337  0.4844251416752058
  0.1187812051916428  0.1576119509027463  0.5243412465688961
  0.2721155940928955  0.0233116348902222  0.4029755679793829
  0.3766831792253614  0.1539194997648449  0.5158364602452763
  0.8706679854762903  0.3426805620694856  0.4701206132920628
  0.0110566329946630  0.0124538170458066  0.4423655932426741
  0.5236285244428865  0.9771647122929648  0.5994737725505668
  0.7630502082612114  0.9869987772208278  0.5582408789225015
  0.6239197125290045  0.3482784754018311  0.4818037599934825
  0.6212020958261031  0.1614884178643933  0.5301172817602616
  0.7699592438103903  0.0240347217637980  0.4038058944692973
  0.8730434088135715  0.1549809545908371  0.5165199662328831
  0.3712744334996173  0.8411823514236632  0.4720008325822084
  0.5139910357839508  0.5174708387470075  0.4436132494347346
  0.0197827086816133  0.4768861864438037  0.5977639322216428
  0.2630535934577536  0.4868025898464236  0.5580709592605939
  0.1233093668039303  0.8460282096452858  0.4832122755004002
  0.1210702226411184  0.6603852021845136  0.5318880533894981
  0.2738199978391902  0.5282763123360129  0.4037743605613784
  0.3735090008598174  0.6548971966771450  0.5201165664890902
  0.8703442850480844  0.8403719466584233  0.4715049442988649
  0.0125815665390954  0.5162262206389862  0.4442062748711438
  0.5213566983513409  0.4751757796233710  0.5973855896683292
  0.7626576346666079  0.4857205197481390  0.5587509474323193
  0.6233956834384381  0.8468329902165751  0.4847306180612012
  0.6207081535735077  0.6605739237942304  0.5330667643062590
  0.7709191535736234  0.5283155304392239  0.4054287453490875
  0.8733383474800120  0.6548057337940602  0.5206143024967695
  0.2684667117326142  0.3117845226095690  0.6131580623877069
 
  0.00000000E+00  0.00000000E+00  0.00000000E+00
  0.00000000E+00  0.00000000E+00  0.00000000E+00
  0.00000000E+00  0.00000000E+00  0.00000000E+00
  0.00000000E+00  0.00000000E+00  0.00000000E+00
  0.00000000E+00  0.00000000E+00  0.00000000E+00
  0.00000000E+00  0.00000000E+00  0.00000000E+00
  0.00000000E+00  0.00000000E+00  0.00000000E+00
  0.00000000E+00  0.00000000E+00  0.00000000E+00
  0.00000000E+00  0.00000000E+00  0.00000000E+00
  0.00000000E+00  0.00000000E+00  0.00000000E+00
  0.00000000E+00  0.00000000E+00  0.00000000E+00
  0.00000000E+00  0.00000000E+00  0.00000000E+00
  0.00000000E+00  0.00000000E+00  0.00000000E+00
  0.00000000E+00  0.00000000E+00  0.00000000E+00
  0.00000000E+00  0.00000000E+00  0.00000000E+00
  0.00000000E+00  0.00000000E+00  0.00000000E+00
  0.00000000E+00  0.00000000E+00  0.00000000E+00
  0.00000000E+00  0.00000000E+00  0.00000000E+00
  0.00000000E+00  0.00000000E+00  0.00000000E+00
  0.00000000E+00  0.00000000E+00  0.00000000E+00
  0.00000000E+00  0.00000000E+00  0.00000000E+00
  0.00000000E+00  0.00000000E+00  0.00000000E+00
  0.00000000E+00  0.00000000E+00  0.00000000E+00
  0.00000000E+00  0.00000000E+00  0.00000000E+00
  0.00000000E+00  0.00000000E+00  0.00000000E+00
  0.00000000E+00  0.00000000E+00  0.00000000E+00
  0.00000000E+00  0.00000000E+00  0.00000000E+00
  0.00000000E+00  0.00000000E+00  0.00000000E+00
  0.00000000E+00  0.00000000E+00  0.00000000E+00
  0.00000000E+00  0.00000000E+00  0.00000000E+00
  0.00000000E+00  0.00000000E+00  0.00000000E+00
  0.00000000E+00  0.00000000E+00  0.00000000E+00
  0.00000000E+00  0.00000000E+00  0.00000000E+00
  0.00000000E+00  0.00000000E+00  0.00000000E+00
  0.00000000E+00  0.00000000E+00  0.00000000E+00
  0.00000000E+00  0.00000000E+00  0.00000000E+00
  0.00000000E+00  0.00000000E+00  0.00000000E+00
  0.00000000E+00  0.00000000E+00  0.00000000E+00
  0.00000000E+00  0.00000000E+00  0.00000000E+00
  0.00000000E+00  0.00000000E+00  0.00000000E+00
  0.00000000E+00  0.00000000E+00  0.00000000E+00
  0.00000000E+00  0.00000000E+00  0.00000000E+00
  0.00000000E+00  0.00000000E+00  0.00000000E+00
  0.00000000E+00  0.00000000E+00  0.00000000E+00
  0.00000000E+00  0.00000000E+00  0.00000000E+00
  0.00000000E+00  0.00000000E+00  0.00000000E+00
  0.00000000E+00  0.00000000E+00  0.00000000E+00
  0.00000000E+00  0.00000000E+00  0.00000000E+00
  0.00000000E+00  0.00000000E+00  0.00000000E+00
