CONTCAR\(7)                             
   1.00000000000000     
    11.3408002853000003    0.0000000000000000    0.0000000000000000
    -5.6704001427000001    9.8214211463000005    0.0000000000000000
     0.0000000000000000    0.0000000000000000   18.2716007233000006
   Si   Te   O 
     9    18     1
Direct
  0.0014074326359982  0.0012093617476067  0.4999160923674862
  0.3331354832463070  0.0010844292147023  0.4941991656054091
  0.6692462858160347 -0.0001065280979347  0.5038997062355571
  0.0000082710906852  0.3336236368577872  0.4993762862026851
  0.3304127768274621  0.3331764947604250  0.4993009730882084
  0.6688203424480955  0.3320142076216298  0.5079411680899164
 -0.0032513430221555  0.6665033167307416  0.4991290839766475
  0.3250578629262529  0.6774894625264771  0.4900144818309846
  0.6702117460399135  0.6668927975589894  0.5120226368257723
  0.1070002941498465  0.2217488504113332  0.5900017378860889
  0.2250941219433958  0.1186461150810802  0.4099801251529212
  0.4425838113722814  0.2225410235104071  0.5965081444198523
  0.5651155432904980  0.1152374962077708  0.4131827833150003
  0.7837309313946050  0.2224355138660718  0.5928748962810303
  0.8869216227875545  0.1096474006976916  0.4118459849492810
  0.1183922384992640  0.5595433603808412  0.5866140266306369
  0.2254836849880095  0.4459296793063277  0.4111370292038587
  0.4498833012830845  0.5446000607418833  0.6029395048428253
  0.5668915561657563  0.4499458525746891  0.4181712598889622
  0.7924529673856661  0.5580911432793951  0.5956523730278622
  0.8885891066685447  0.4448292310480540  0.4128049338849186
  0.1126403683469246  0.8893428672247969  0.5871060225559983
  0.2217203822216387  0.7868211335232015  0.4052908714732331
  0.4454165398420463  0.8849347038364693  0.5893776811461386
  0.5588309379538200  0.7722830257413130  0.4166170889445300
  0.7847486323216215  0.8951090580362980  0.5939217275714805
  0.8826045992383952  0.7763345090259114  0.4139108507235211
  0.5021102311384665  0.4146711645860477  0.6451934108791897
 
  0.00000000E+00  0.00000000E+00  0.00000000E+00
  0.00000000E+00  0.00000000E+00  0.00000000E+00
  0.00000000E+00  0.00000000E+00  0.00000000E+00
  0.00000000E+00  0.00000000E+00  0.00000000E+00
  0.00000000E+00  0.00000000E+00  0.00000000E+00
  0.00000000E+00  0.00000000E+00  0.00000000E+00
  0.00000000E+00  0.00000000E+00  0.00000000E+00
  0.00000000E+00  0.00000000E+00  0.00000000E+00
  0.00000000E+00  0.00000000E+00  0.00000000E+00
  0.00000000E+00  0.00000000E+00  0.00000000E+00
  0.00000000E+00  0.00000000E+00  0.00000000E+00
  0.00000000E+00  0.00000000E+00  0.00000000E+00
  0.00000000E+00  0.00000000E+00  0.00000000E+00
  0.00000000E+00  0.00000000E+00  0.00000000E+00
  0.00000000E+00  0.00000000E+00  0.00000000E+00
  0.00000000E+00  0.00000000E+00  0.00000000E+00
  0.00000000E+00  0.00000000E+00  0.00000000E+00
  0.00000000E+00  0.00000000E+00  0.00000000E+00
  0.00000000E+00  0.00000000E+00  0.00000000E+00
  0.00000000E+00  0.00000000E+00  0.00000000E+00
  0.00000000E+00  0.00000000E+00  0.00000000E+00
  0.00000000E+00  0.00000000E+00  0.00000000E+00
  0.00000000E+00  0.00000000E+00  0.00000000E+00
  0.00000000E+00  0.00000000E+00  0.00000000E+00
  0.00000000E+00  0.00000000E+00  0.00000000E+00
  0.00000000E+00  0.00000000E+00  0.00000000E+00
  0.00000000E+00  0.00000000E+00  0.00000000E+00
  0.00000000E+00  0.00000000E+00  0.00000000E+00
