CONTCAR\(9)                             
   1.00000000000000     
    10.9605998993000000    0.0000000000000000    0.0000000000000000
     5.4620360536000003    9.5107522852000006    0.0000000000000000
     0.0000000000000000    0.0000000000000000   24.0680007935000013
   Cr   Ga   S 
     9    18    36
Direct
  0.3320299920000025  0.0043399999999991  0.4999799899999999
  0.6653599690000007  0.0043399999999991  0.4999799899999999
  0.9986900099999971  0.0043399999999991  0.4999799899999999
  0.3320299920000025  0.3376800180000004  0.4999799899999999
  0.6653599899999989  0.3376800180000004  0.4999799899999999
  0.9986899880000024  0.3376800180000004  0.4999799899999999
  0.3320299960000028  0.6710100310000016  0.4999799899999999
  0.6653599930000027  0.6710100310000016  0.4999799899999999
  0.9986899909999991  0.6710100310000016  0.4999799899999999
  0.1106600099999966  0.1125200050000004  0.3551799950000003
  0.2201000040000025  0.2292500089999976  0.6447900089999976
  0.4439899650000001  0.1125200050000004  0.3551799950000003
  0.5534399639999990  0.2292500089999976  0.6447900089999976
  0.7773300559999967  0.1125200050000004  0.3551799950000003
  0.8867699620000025  0.2292500089999976  0.6447900089999976
  0.1106600020000030  0.4458500430000001  0.3551799950000003
  0.2201000140000033  0.5625900499999972  0.6447900089999976
  0.4439899560000029  0.4458500430000001  0.3551799950000003
  0.5534400180000034  0.5625900499999972  0.6447900089999976
  0.7773299600000030  0.4458500430000001  0.3551799950000003
  0.8867699290000033  0.5625900499999972  0.6447900089999976
  0.1106600179999973  0.7791800310000028  0.3551799950000003
  0.2200999679999995  0.8959199880000028  0.6447900089999976
  0.4439899719999971  0.7791800310000028  0.3551799950000003
  0.5534399719999996  0.8959199880000028  0.6447900089999976
  0.7773300630000008  0.7791800310000028  0.3551799950000003
  0.8867699700000031  0.8959199880000028  0.6447900089999976
  0.1099499899999969  0.1151800049999991  0.4487199969999978
  0.2207600099999993  0.2268200119999975  0.5512499680000005
  0.1089600059999967  0.1179500040000008  0.6872900119999983
  0.2218100030000016  0.2238200110000008  0.3126800129999978
  0.4432899939999970  0.1151800049999991  0.4487199969999978
  0.5540900519999994  0.2268200119999975  0.5512499680000005
  0.4422999780000012  0.1179500040000008  0.6872900119999983
  0.5551400009999981  0.2238200110000008  0.3126800129999978
  0.7766199049999969  0.1151800049999991  0.4487199969999978
  0.8874200500000029  0.2268200119999975  0.5512499680000005
  0.7756300189999976  0.1179500040000008  0.6872900119999983
  0.8884800049999981  0.2238200110000008  0.3126800129999978
  0.1099500070000019  0.4485099930000018  0.4487199969999978
  0.2207599580000021  0.5601500499999972  0.5512499680000005
  0.1089599960000029  0.4512900189999982  0.6872900119999983
  0.2218100070000020  0.5571500240000020  0.3126800129999978
  0.4432900110000020  0.4485099930000018  0.4487199969999978
  0.5540900430000022  0.5601500499999972  0.5512499680000005
  0.4423000000000030  0.4512900189999982  0.6872900119999983
  0.5551400049999984  0.5571500240000020  0.3126800129999978
  0.7766199220000018  0.4485099930000018  0.4487199969999978
  0.8874200409999986  0.5601500499999972  0.5512499680000005
  0.7756299979999994  0.4512900189999982  0.6872900119999983
  0.8884800089999985  0.5571500240000020  0.3126800129999978
  0.1099499859999966  0.7818500079999993  0.4487199969999978
  0.2207599750000000  0.8934800379999999  0.5512499680000005
  0.1089600119999972  0.7846200070000009  0.6872900119999983
  0.2218100099999987  0.8904899890000024  0.3126800129999978
  0.4432899899999967  0.7818500079999993  0.4487199969999978
  0.5540900219999969  0.8934900650000017  0.5512499680000005
  0.4422999299999972  0.7846200070000009  0.6872900119999983
  0.5551400949999987  0.8904899890000024  0.3126800129999978
  0.7766199009999966  0.7818500079999993  0.4487199969999978
  0.8874200200000004  0.8934900650000017  0.5512499680000005
  0.7756300149999973  0.7846200070000009  0.6872900119999983
  0.8884800129999988  0.8904899890000024  0.3126800129999978
 
  0.00000000E+00  0.00000000E+00  0.00000000E+00
  0.00000000E+00  0.00000000E+00  0.00000000E+00
  0.00000000E+00  0.00000000E+00  0.00000000E+00
  0.00000000E+00  0.00000000E+00  0.00000000E+00
  0.00000000E+00  0.00000000E+00  0.00000000E+00
  0.00000000E+00  0.00000000E+00  0.00000000E+00
  0.00000000E+00  0.00000000E+00  0.00000000E+00
  0.00000000E+00  0.00000000E+00  0.00000000E+00
  0.00000000E+00  0.00000000E+00  0.00000000E+00
  0.00000000E+00  0.00000000E+00  0.00000000E+00
  0.00000000E+00  0.00000000E+00  0.00000000E+00
  0.00000000E+00  0.00000000E+00  0.00000000E+00
  0.00000000E+00  0.00000000E+00  0.00000000E+00
  0.00000000E+00  0.00000000E+00  0.00000000E+00
  0.00000000E+00  0.00000000E+00  0.00000000E+00
  0.00000000E+00  0.00000000E+00  0.00000000E+00
  0.00000000E+00  0.00000000E+00  0.00000000E+00
  0.00000000E+00  0.00000000E+00  0.00000000E+00
  0.00000000E+00  0.00000000E+00  0.00000000E+00
  0.00000000E+00  0.00000000E+00  0.00000000E+00
  0.00000000E+00  0.00000000E+00  0.00000000E+00
  0.00000000E+00  0.00000000E+00  0.00000000E+00
  0.00000000E+00  0.00000000E+00  0.00000000E+00
  0.00000000E+00  0.00000000E+00  0.00000000E+00
  0.00000000E+00  0.00000000E+00  0.00000000E+00
  0.00000000E+00  0.00000000E+00  0.00000000E+00
  0.00000000E+00  0.00000000E+00  0.00000000E+00
  0.00000000E+00  0.00000000E+00  0.00000000E+00
  0.00000000E+00  0.00000000E+00  0.00000000E+00
  0.00000000E+00  0.00000000E+00  0.00000000E+00
  0.00000000E+00  0.00000000E+00  0.00000000E+00
  0.00000000E+00  0.00000000E+00  0.00000000E+00
  0.00000000E+00  0.00000000E+00  0.00000000E+00
  0.00000000E+00  0.00000000E+00  0.00000000E+00
  0.00000000E+00  0.00000000E+00  0.00000000E+00
  0.00000000E+00  0.00000000E+00  0.00000000E+00
  0.00000000E+00  0.00000000E+00  0.00000000E+00
  0.00000000E+00  0.00000000E+00  0.00000000E+00
  0.00000000E+00  0.00000000E+00  0.00000000E+00
  0.00000000E+00  0.00000000E+00  0.00000000E+00
  0.00000000E+00  0.00000000E+00  0.00000000E+00
  0.00000000E+00  0.00000000E+00  0.00000000E+00
  0.00000000E+00  0.00000000E+00  0.00000000E+00
  0.00000000E+00  0.00000000E+00  0.00000000E+00
  0.00000000E+00  0.00000000E+00  0.00000000E+00
  0.00000000E+00  0.00000000E+00  0.00000000E+00
  0.00000000E+00  0.00000000E+00  0.00000000E+00
  0.00000000E+00  0.00000000E+00  0.00000000E+00
  0.00000000E+00  0.00000000E+00  0.00000000E+00
  0.00000000E+00  0.00000000E+00  0.00000000E+00
  0.00000000E+00  0.00000000E+00  0.00000000E+00
  0.00000000E+00  0.00000000E+00  0.00000000E+00
  0.00000000E+00  0.00000000E+00  0.00000000E+00
  0.00000000E+00  0.00000000E+00  0.00000000E+00
  0.00000000E+00  0.00000000E+00  0.00000000E+00
  0.00000000E+00  0.00000000E+00  0.00000000E+00
  0.00000000E+00  0.00000000E+00  0.00000000E+00
  0.00000000E+00  0.00000000E+00  0.00000000E+00
  0.00000000E+00  0.00000000E+00  0.00000000E+00
  0.00000000E+00  0.00000000E+00  0.00000000E+00
  0.00000000E+00  0.00000000E+00  0.00000000E+00
  0.00000000E+00  0.00000000E+00  0.00000000E+00
  0.00000000E+00  0.00000000E+00  0.00000000E+00
