CONTCAR\(7)                             
   1.00000000000000     
    10.9293003082000002    0.0000000000000000    0.0000000000000000
     0.0000000000000000   10.9293003082000002    0.0000000000000000
     0.0000000000000000    0.0000000000000000   18.0813007355000011
   Cu   Se   O    H 
    18    18     1     1
Direct
  0.0005395069146414  0.0051314901710952  0.5011197223036630
  0.1654599326304099  0.1704535386334402  0.5105737848723269
  0.3334292333122564  0.0081963175924192  0.5052242849042023
  0.5023122465660323  0.1680547643065902  0.5049483364626969
  0.6664476034786803 -0.0000068682386962  0.5060882206368276
  0.8327637147635311  0.1670556425735541  0.5041325134518629
 -0.0019965453010656  0.3335157904620809  0.5064152504958788
  0.1653569047706140  0.4966477660636822  0.5104148782447214
  0.3347905092719231  0.3335459480127033  0.5008530823584955
  0.5023167897004603  0.4990878404972138  0.5050016392297314
  0.6667626661606881  0.3334832026443653  0.5051203520154133
  0.8327990476121454  0.4998850190762099  0.5045693572901875
  0.0004535967769371  0.6620509901345237  0.5014899429176616
  0.1409392956642638  0.8334099531144513  0.4729299628378022
  0.3332947147791063  0.6588332148954554  0.5047731108428808
  0.4984324848396148  0.8334673001179906  0.5090287964297143
  0.6664195929114566  0.6669423752187856  0.5063597128579002
  0.8336854722075496  0.8334809968500809  0.4999863146157783
 -0.0045783041541673  0.1651313411780755  0.5959097671301055
  0.1748935368545042  0.0176514439908192  0.4114837233459862
  0.3366147370459815  0.1744610507135251  0.5958320100340789
  0.5004162744057215 -0.0029301686897509  0.4169450531983407
  0.6682829489997770  0.1677475833309747  0.5954309465565425
  0.8290246291754229  0.0033351535047107  0.4128817943855727
 -0.0042617567650215  0.5017970106206936  0.5960734781203951
  0.1634274152712111  0.3334206183601383  0.4161790336842514
  0.3363991118055323  0.4930391615293360  0.5956674188558173
  0.5036571513585459  0.3337591291291994  0.4134555501699227
  0.6680406300400731  0.4989678668774343  0.5956319365399276
  0.8333032867319518  0.3337307134318056  0.4145124733433503
  0.0037992786824693  0.8338576267321904  0.5865752714365088
  0.1743060444016934  0.6492039594454375  0.4113113597411415
  0.3145541384391138  0.8332966200298140  0.5861130785219592
  0.5007011659070021  0.6698400012968981  0.4168841801276917
  0.6741779264004848  0.8336758254731853  0.5949425033615051
  0.8288972232056563  0.6633752132675050  0.4131611084659759
  0.3816379039396258  0.8332518294933006  0.6812396563720975
  0.3102198841951731  0.8298126621587646  0.7139501118411002
 
  0.00000000E+00  0.00000000E+00  0.00000000E+00
  0.00000000E+00  0.00000000E+00  0.00000000E+00
  0.00000000E+00  0.00000000E+00  0.00000000E+00
  0.00000000E+00  0.00000000E+00  0.00000000E+00
  0.00000000E+00  0.00000000E+00  0.00000000E+00
  0.00000000E+00  0.00000000E+00  0.00000000E+00
  0.00000000E+00  0.00000000E+00  0.00000000E+00
  0.00000000E+00  0.00000000E+00  0.00000000E+00
  0.00000000E+00  0.00000000E+00  0.00000000E+00
  0.00000000E+00  0.00000000E+00  0.00000000E+00
  0.00000000E+00  0.00000000E+00  0.00000000E+00
  0.00000000E+00  0.00000000E+00  0.00000000E+00
  0.00000000E+00  0.00000000E+00  0.00000000E+00
  0.00000000E+00  0.00000000E+00  0.00000000E+00
  0.00000000E+00  0.00000000E+00  0.00000000E+00
  0.00000000E+00  0.00000000E+00  0.00000000E+00
  0.00000000E+00  0.00000000E+00  0.00000000E+00
  0.00000000E+00  0.00000000E+00  0.00000000E+00
  0.00000000E+00  0.00000000E+00  0.00000000E+00
  0.00000000E+00  0.00000000E+00  0.00000000E+00
  0.00000000E+00  0.00000000E+00  0.00000000E+00
  0.00000000E+00  0.00000000E+00  0.00000000E+00
  0.00000000E+00  0.00000000E+00  0.00000000E+00
  0.00000000E+00  0.00000000E+00  0.00000000E+00
  0.00000000E+00  0.00000000E+00  0.00000000E+00
  0.00000000E+00  0.00000000E+00  0.00000000E+00
  0.00000000E+00  0.00000000E+00  0.00000000E+00
  0.00000000E+00  0.00000000E+00  0.00000000E+00
  0.00000000E+00  0.00000000E+00  0.00000000E+00
  0.00000000E+00  0.00000000E+00  0.00000000E+00
  0.00000000E+00  0.00000000E+00  0.00000000E+00
  0.00000000E+00  0.00000000E+00  0.00000000E+00
  0.00000000E+00  0.00000000E+00  0.00000000E+00
  0.00000000E+00  0.00000000E+00  0.00000000E+00
  0.00000000E+00  0.00000000E+00  0.00000000E+00
  0.00000000E+00  0.00000000E+00  0.00000000E+00
  0.00000000E+00  0.00000000E+00  0.00000000E+00
  0.00000000E+00  0.00000000E+00  0.00000000E+00
