CONTCAR                                 
   1.00000000000000     
    13.8212003707999997    0.0000000000000000    0.0000000000000000
     2.2957132678000001   11.9646463987999994    0.0000000000000000
     0.0000000000000000    0.0000000000000000   19.5161991119000007
   Li   Cr   C    O 
     6     9    18    55
Direct
  0.0018192785259142  0.9985405038420797  0.5995352033910127
  0.2611133752944440  0.4461732298098343  0.4042678773867731
  0.3354066051442512  0.9706138072185806  0.6133683456582645
  0.5918805595838833  0.4512632313442397  0.4052302851225091
  0.6716615300711606  0.9995880827807219  0.5969695662998932
  0.9270975490957510  0.4468788918094276  0.4010809038076942
  0.1891948163063959  0.8850253920870045  0.5013404256787821
  0.2994362991218369  0.2204722343397095  0.5017164482663210
  0.0736682535133070  0.5575083620505386  0.4980979563538011
  0.5159795793109089  0.8889417796722374  0.4956863557525165
  0.6310745121981862  0.2262029715030202  0.5010129533087865
  0.4050093405793398  0.5625625113198194  0.5075721197358648
  0.8538893019559115  0.8884772138608032  0.4998416644899041
  0.9664549360553482  0.2223330282297416  0.5018455386205637
  0.7412478652973378  0.5573888008108869  0.4980047896757261
  0.1524308399613933  0.1105154732261593  0.5630942667867183
  0.2572075818960990  0.4437072982315203  0.5569064337983178
  0.1142703421813613  0.3300883312239371  0.4391768602455084
  0.0365247810802561  0.7757397633785377  0.5583304255347105
  0.2234396379447977  0.6703731049915337  0.4412105632430935
  0.0038710560859651  0.9990190372670604  0.4462281234157889
  0.4851668901684501  0.1148412194570923  0.5591168772110322
  0.5930897122404792  0.4475497822248379  0.5566568932196513
  0.4456379880292449  0.3354004820170171  0.4413396633589389
  0.3456622705944987  0.7565419292185013  0.5968472749692537
  0.5564829173004802  0.6708332661621572  0.4400093039852028
  0.3360006327167879 -0.0001383782123948  0.4411206240963487
  0.8165080766374536  0.1148437324724052  0.5624423302237629
  0.9260777780991150  0.4461199374931935  0.5547575732269040
  0.7814015675287146  0.3312430935632391  0.4389403247247113
  0.7034424789018805  0.7762784432117924  0.5555157017987638
  0.8896691319730186  0.6706414292273450  0.4387262805070305
  0.6684187591044692  0.0070335520108987  0.4428717042681883
  0.1627281401250347  0.4521279402780590  0.5529307596017633
  0.0989985541295701  0.9901414899679036  0.4483710893894949
  0.0767655796456075  0.2427792300007837  0.4438803810440753
  0.0590140591880316  0.4295228777293431  0.4329032387000941
  0.2068388547289506  0.0105324551615907  0.5671174218185612
  0.3140289481526187  0.3465560765724544  0.5581025487495790
  0.1904205019012356  0.1976195689273778  0.5599974702249293
  0.2945611336093649  0.5331557557184803  0.5594686253270086
  0.2668548554184294  0.7844311372977452  0.5578731374398967
  0.2093113402560704  0.3223456786174501  0.4375106207981213
  0.1832850654506751  0.5814838682497574  0.4351278730069173
  0.2976203952922963  0.9113698549914396  0.4450608208042249
  0.1671760053002104  0.7669504471767973  0.4411904083882796
  0.2811355455465457  0.0978310956202185  0.4433442211683505
  0.0933558105113838  0.6798309279766819  0.5549071394266505
  0.0759655427574275  0.8652713121118338  0.5625942634272640
  0.0568460109119550  0.1200255860574010  0.5653539033745302
  0.3176339023838816  0.6587038537302203  0.4450811976079736
  0.4985083400938104  0.4554126314441909  0.5576921089540411
  0.4310401658043679  0.9904164807929284  0.4343903033925937
  0.4084652844107787  0.2474893112038744  0.4434127470111035
  0.3907429454061612  0.4349591569178801  0.4386365521142371
  0.5456802028621420  0.0186224894657539  0.5579339083585291
  0.6496517800079432  0.3500046427318658  0.5573688294102533
  0.5199216337739633  0.2050718495197472  0.5585976853776973
  0.6311963989492939  0.5364229768378360  0.5539808655382074
  0.6090598685179216  0.7874602785679535  0.5525281713586145
  0.5409850079957785  0.3278692778315406  0.4384863347660650
  0.5133124320248476  0.5847140873628658  0.4417115113077033
  0.6251498353994006  0.9215445663914236  0.4429832479942152
  0.5016378522734253  0.7695279979120944  0.4383680326917312
  0.6149465516988104  0.1058225020577855  0.4402850746044490
  0.4129757519053188  0.6747379042727970  0.5740481318171547
  0.4269596681918182  0.8916860472829158  0.5472471500560474
  0.3909500374188847  0.1175248971653499  0.5629240411414008
  0.6503011729700442  0.6571408019609817  0.4361717366126919
  0.8314824688160400  0.4544908082879899  0.5533012752548464
  0.7629545153486224  0.9937344072754968  0.4457797496203422
  0.7435238877766475  0.2444800900988190  0.4437667885740582
  0.7261963609016689  0.4307653546700138  0.4328144110659168
  0.8699948358674690  0.0141747109827004  0.5667166519794715
  0.9825089288155093  0.3487321324082434  0.5573318133368220
  0.8559132328714563  0.2009753597020089  0.5600979572347363
  0.9639926942215519  0.5352603101263808  0.5530115999095310
  0.9421536252002086  0.7868731845901751  0.5597586409115560
  0.8766388691948670  0.3232862369881013  0.4371045643842779
  0.8488989425646891  0.5817913004500538  0.4340534809884954
  0.9649127241234462  0.9108844162974546  0.4449494025870105
  0.8337139211486236  0.7670947131181198  0.4417628825279059
  0.9485280221256231  0.0969147185980524  0.4460573876647697
  0.7597829406427059  0.6801801893729509  0.5549102157428238
  0.7433245664524643  0.8650703630199257  0.5617909964093221
  0.7211818980164364  0.1244023157816972  0.5640475262347527
  0.9841146129372467  0.6579129344597107  0.4378187118010114
  0.3533513304622751  0.8092076710233085  0.6511225858056154
 
  0.00000000E+00  0.00000000E+00  0.00000000E+00
  0.00000000E+00  0.00000000E+00  0.00000000E+00
  0.00000000E+00  0.00000000E+00  0.00000000E+00
  0.00000000E+00  0.00000000E+00  0.00000000E+00
  0.00000000E+00  0.00000000E+00  0.00000000E+00
  0.00000000E+00  0.00000000E+00  0.00000000E+00
  0.00000000E+00  0.00000000E+00  0.00000000E+00
  0.00000000E+00  0.00000000E+00  0.00000000E+00
  0.00000000E+00  0.00000000E+00  0.00000000E+00
  0.00000000E+00  0.00000000E+00  0.00000000E+00
  0.00000000E+00  0.00000000E+00  0.00000000E+00
  0.00000000E+00  0.00000000E+00  0.00000000E+00
  0.00000000E+00  0.00000000E+00  0.00000000E+00
  0.00000000E+00  0.00000000E+00  0.00000000E+00
  0.00000000E+00  0.00000000E+00  0.00000000E+00
  0.00000000E+00  0.00000000E+00  0.00000000E+00
  0.00000000E+00  0.00000000E+00  0.00000000E+00
  0.00000000E+00  0.00000000E+00  0.00000000E+00
  0.00000000E+00  0.00000000E+00  0.00000000E+00
  0.00000000E+00  0.00000000E+00  0.00000000E+00
  0.00000000E+00  0.00000000E+00  0.00000000E+00
  0.00000000E+00  0.00000000E+00  0.00000000E+00
  0.00000000E+00  0.00000000E+00  0.00000000E+00
  0.00000000E+00  0.00000000E+00  0.00000000E+00
  0.00000000E+00  0.00000000E+00  0.00000000E+00
  0.00000000E+00  0.00000000E+00  0.00000000E+00
  0.00000000E+00  0.00000000E+00  0.00000000E+00
  0.00000000E+00  0.00000000E+00  0.00000000E+00
  0.00000000E+00  0.00000000E+00  0.00000000E+00
  0.00000000E+00  0.00000000E+00  0.00000000E+00
  0.00000000E+00  0.00000000E+00  0.00000000E+00
  0.00000000E+00  0.00000000E+00  0.00000000E+00
  0.00000000E+00  0.00000000E+00  0.00000000E+00
  0.00000000E+00  0.00000000E+00  0.00000000E+00
  0.00000000E+00  0.00000000E+00  0.00000000E+00
  0.00000000E+00  0.00000000E+00  0.00000000E+00
  0.00000000E+00  0.00000000E+00  0.00000000E+00
  0.00000000E+00  0.00000000E+00  0.00000000E+00
  0.00000000E+00  0.00000000E+00  0.00000000E+00
  0.00000000E+00  0.00000000E+00  0.00000000E+00
  0.00000000E+00  0.00000000E+00  0.00000000E+00
  0.00000000E+00  0.00000000E+00  0.00000000E+00
  0.00000000E+00  0.00000000E+00  0.00000000E+00
  0.00000000E+00  0.00000000E+00  0.00000000E+00
  0.00000000E+00  0.00000000E+00  0.00000000E+00
  0.00000000E+00  0.00000000E+00  0.00000000E+00
  0.00000000E+00  0.00000000E+00  0.00000000E+00
  0.00000000E+00  0.00000000E+00  0.00000000E+00
  0.00000000E+00  0.00000000E+00  0.00000000E+00
  0.00000000E+00  0.00000000E+00  0.00000000E+00
  0.00000000E+00  0.00000000E+00  0.00000000E+00
  0.00000000E+00  0.00000000E+00  0.00000000E+00
  0.00000000E+00  0.00000000E+00  0.00000000E+00
  0.00000000E+00  0.00000000E+00  0.00000000E+00
  0.00000000E+00  0.00000000E+00  0.00000000E+00
  0.00000000E+00  0.00000000E+00  0.00000000E+00
  0.00000000E+00  0.00000000E+00  0.00000000E+00
  0.00000000E+00  0.00000000E+00  0.00000000E+00
  0.00000000E+00  0.00000000E+00  0.00000000E+00
  0.00000000E+00  0.00000000E+00  0.00000000E+00
  0.00000000E+00  0.00000000E+00  0.00000000E+00
  0.00000000E+00  0.00000000E+00  0.00000000E+00
  0.00000000E+00  0.00000000E+00  0.00000000E+00
  0.00000000E+00  0.00000000E+00  0.00000000E+00
  0.00000000E+00  0.00000000E+00  0.00000000E+00
  0.00000000E+00  0.00000000E+00  0.00000000E+00
  0.00000000E+00  0.00000000E+00  0.00000000E+00
  0.00000000E+00  0.00000000E+00  0.00000000E+00
  0.00000000E+00  0.00000000E+00  0.00000000E+00
  0.00000000E+00  0.00000000E+00  0.00000000E+00
  0.00000000E+00  0.00000000E+00  0.00000000E+00
  0.00000000E+00  0.00000000E+00  0.00000000E+00
  0.00000000E+00  0.00000000E+00  0.00000000E+00
  0.00000000E+00  0.00000000E+00  0.00000000E+00
  0.00000000E+00  0.00000000E+00  0.00000000E+00
  0.00000000E+00  0.00000000E+00  0.00000000E+00
  0.00000000E+00  0.00000000E+00  0.00000000E+00
  0.00000000E+00  0.00000000E+00  0.00000000E+00
  0.00000000E+00  0.00000000E+00  0.00000000E+00
  0.00000000E+00  0.00000000E+00  0.00000000E+00
  0.00000000E+00  0.00000000E+00  0.00000000E+00
  0.00000000E+00  0.00000000E+00  0.00000000E+00
  0.00000000E+00  0.00000000E+00  0.00000000E+00
  0.00000000E+00  0.00000000E+00  0.00000000E+00
  0.00000000E+00  0.00000000E+00  0.00000000E+00
  0.00000000E+00  0.00000000E+00  0.00000000E+00
  0.00000000E+00  0.00000000E+00  0.00000000E+00
  0.00000000E+00  0.00000000E+00  0.00000000E+00
