 Y6 C2 I7                               
   1.00000000000000     
     3.9075519331392226    0.0000000000000000    0.0000000000000000
     1.9537759665696113   10.6868353761467958    0.0000000000000000
     0.0000000000000000    0.0000000000000000   24.3673387487040038
   Y    C    I 
     6     2     7
Direct
  0.8350171071214677  0.3300008140424039  0.6361011173050453
  0.7691946432530575  0.4616293710391164  0.4446443439754804
  0.6181840143575852  0.7635594915814490  0.4759364113002438
  0.3818257011906258  0.2364167454417493  0.5240509006230539
  0.2307815452956405  0.5384197882848979  0.5553530924509287
  0.1649748647687194  0.6700119919973613  0.3639315468562307
  0.8110179190957717  0.3779509052747597  0.5419810613942724
  0.1889892690774239  0.6220409072393318  0.4580087826688624
  0.5560571582052297  0.8879535964419411  0.3571525418779126
  0.4439387884798951  0.1120547279328138  0.6428457332130744
  0.6268259483382776  0.7462973340838062  0.5986131257499442
  0.3731828266285495  0.2536844394798529  0.4013864367308340
  0.0000029215209609 -0.0000058454852071  0.5000038202462833
  0.7514202918325555  0.4969654114492578  0.3075775284082322
  0.2485870008342407  0.5030203211964660  0.6924135571996004
 
  0.00000000E+00  0.00000000E+00  0.00000000E+00
  0.00000000E+00  0.00000000E+00  0.00000000E+00
  0.00000000E+00  0.00000000E+00  0.00000000E+00
  0.00000000E+00  0.00000000E+00  0.00000000E+00
  0.00000000E+00  0.00000000E+00  0.00000000E+00
  0.00000000E+00  0.00000000E+00  0.00000000E+00
  0.00000000E+00  0.00000000E+00  0.00000000E+00
  0.00000000E+00  0.00000000E+00  0.00000000E+00
  0.00000000E+00  0.00000000E+00  0.00000000E+00
  0.00000000E+00  0.00000000E+00  0.00000000E+00
  0.00000000E+00  0.00000000E+00  0.00000000E+00
  0.00000000E+00  0.00000000E+00  0.00000000E+00
  0.00000000E+00  0.00000000E+00  0.00000000E+00
  0.00000000E+00  0.00000000E+00  0.00000000E+00
  0.00000000E+00  0.00000000E+00  0.00000000E+00
