CONTCAR\(2)                             
   1.00000000000000     
    12.9092998505000001    0.0000000000000000    0.0000000000000000
     0.0000000000000000   11.5581998825000003    0.0000000000000000
     0.0000000000000000    0.0000000000000000   18.7824001311999993
   Nb   Ge   Te   O 
    12     4    24     1
Direct
  0.3576108361714148  0.7088580190707138  0.5134475999542938
  0.0926233065601753  0.2746625760607762  0.5000489380055250
  0.4799482313053077  0.0636898502824060  0.5015022346515318
  0.2314193767367078  0.9271227438891584  0.5044150689398799
  0.3241864599600968  0.4102916727916213  0.5005219217204787
  0.0774268518233510  0.5748930904933076  0.5045574979411607
  0.8459066269069467  0.7115209752072884  0.5045584427376085
  0.5967220248703611  0.2818278292253239  0.5015585683297906
  0.9800333081658945  0.0580947655621658  0.5022359607267591
  0.7306281692221314  0.9344087579704629  0.5032478940253361
  0.8348793331191509  0.4141561195673679  0.5018592231745796
  0.6005826288377486  0.5848311672295365  0.5021765290142661
  0.2827395543574450  0.1672377103408645  0.4993348649111163
  0.0363933490377435  0.8175649481863146  0.5050711232246107
  0.7855037420204795  0.1719985315860496  0.5020878776835801
  0.5384206731746221  0.8268322178938329  0.5003936940867888
  0.4789581893440080  0.6102898113382936  0.6217259835994927
  0.1691722344832711  0.4276511970318272  0.3985153307923087
  0.1629045828487015  0.4207222677556489  0.6042152597920823
  0.4335908096167267  0.5649172771300217  0.4049637763203564
  0.3907542235074876  0.9129864986481713  0.6043042211706899
  0.1397537409168974  0.0790963968481450  0.4007170438355657
  0.1411257820471541  0.0862679947099161  0.6026159630502291
  0.3918083276142967  0.9001475696334154  0.4028714893487023
  0.1796078477733778  0.7362583888969778  0.6052642032032474
  0.4299680793547602  0.2548522122771671  0.4026382371137689
  0.4282973717222674  0.2569580002670239  0.5979505550214378
  0.1875989902150509  0.7281782853186222  0.4124841669073598
  0.9216556112808515  0.5618670685907196  0.6073844871701686
  0.6779786758883677  0.4295736302846597  0.3991401671007942
  0.6789504480713647  0.4259921019328604  0.6045387516049947
  0.9223937449179805  0.5650405712785980  0.4002747559009081
  0.8919353800942811  0.9070411264090907  0.6047755953050593
  0.6406595160798257  0.0886515330747243  0.4011022333293129
  0.6397836635911274  0.0906143450157888  0.6031427278325168
  0.8923608304455690  0.9025188505875387  0.4026383386479185
  0.6867909151206956  0.7480479432671665  0.6067491252088456
  0.9280523541203459  0.2500498040639216  0.4025315291147931
  0.9289589676818008  0.2508524975028981  0.6000132100988106
  0.6836902187378719  0.7437261603948557  0.4029348918668789
  0.3540953052563721  0.5365174833847246  0.5676607205364683
 
  0.00000000E+00  0.00000000E+00  0.00000000E+00
  0.00000000E+00  0.00000000E+00  0.00000000E+00
  0.00000000E+00  0.00000000E+00  0.00000000E+00
  0.00000000E+00  0.00000000E+00  0.00000000E+00
  0.00000000E+00  0.00000000E+00  0.00000000E+00
  0.00000000E+00  0.00000000E+00  0.00000000E+00
  0.00000000E+00  0.00000000E+00  0.00000000E+00
  0.00000000E+00  0.00000000E+00  0.00000000E+00
  0.00000000E+00  0.00000000E+00  0.00000000E+00
  0.00000000E+00  0.00000000E+00  0.00000000E+00
  0.00000000E+00  0.00000000E+00  0.00000000E+00
  0.00000000E+00  0.00000000E+00  0.00000000E+00
  0.00000000E+00  0.00000000E+00  0.00000000E+00
  0.00000000E+00  0.00000000E+00  0.00000000E+00
  0.00000000E+00  0.00000000E+00  0.00000000E+00
  0.00000000E+00  0.00000000E+00  0.00000000E+00
  0.00000000E+00  0.00000000E+00  0.00000000E+00
  0.00000000E+00  0.00000000E+00  0.00000000E+00
  0.00000000E+00  0.00000000E+00  0.00000000E+00
  0.00000000E+00  0.00000000E+00  0.00000000E+00
  0.00000000E+00  0.00000000E+00  0.00000000E+00
  0.00000000E+00  0.00000000E+00  0.00000000E+00
  0.00000000E+00  0.00000000E+00  0.00000000E+00
  0.00000000E+00  0.00000000E+00  0.00000000E+00
  0.00000000E+00  0.00000000E+00  0.00000000E+00
  0.00000000E+00  0.00000000E+00  0.00000000E+00
  0.00000000E+00  0.00000000E+00  0.00000000E+00
  0.00000000E+00  0.00000000E+00  0.00000000E+00
  0.00000000E+00  0.00000000E+00  0.00000000E+00
  0.00000000E+00  0.00000000E+00  0.00000000E+00
  0.00000000E+00  0.00000000E+00  0.00000000E+00
  0.00000000E+00  0.00000000E+00  0.00000000E+00
  0.00000000E+00  0.00000000E+00  0.00000000E+00
  0.00000000E+00  0.00000000E+00  0.00000000E+00
  0.00000000E+00  0.00000000E+00  0.00000000E+00
  0.00000000E+00  0.00000000E+00  0.00000000E+00
  0.00000000E+00  0.00000000E+00  0.00000000E+00
  0.00000000E+00  0.00000000E+00  0.00000000E+00
  0.00000000E+00  0.00000000E+00  0.00000000E+00
  0.00000000E+00  0.00000000E+00  0.00000000E+00
  0.00000000E+00  0.00000000E+00  0.00000000E+00
