CONTCAR\(15)                            
   1.00000000000000     
    12.4804000853999995    0.0000000000000000    0.0000000000000000
    -6.2402000426999997   10.8083435233999996    0.0000000000000000
     0.0000000000000000    0.0000000000000000   39.2775001525999983
   Ge   Te   As   O 
    45    72    18     1
Selective dynamics
Direct
  0.9958714854584869  0.9922599764243003  0.5000623006072971   F   F   F
  0.1101653365502528  0.2128946036818675  0.6798130553455835   F   F   F
  0.2189617482220640  0.1043222892651343  0.5890937110523922   F   F   F
  0.2198551434864555  0.1049116729953354  0.3212143627085169   F   F   F
  0.1081934562570339  0.2147170667902500  0.4107077085810715   F   F   F
  0.3303375549031458  0.9927930256590898  0.4999289415255603   F   F   F
  0.4417600128508496  0.2156750807244805  0.6790453226294275   F   F   F
  0.5531674444006072  0.1041670852686352  0.5890652721322738   F   F   F
  0.5522612504475504  0.1044842167045985  0.3212992323754520   F   F   F
  0.4410966652972945  0.2145931007666704  0.4110685857382919   F   F   F
  0.6640534947538725  0.9922413168240354  0.4999622643864114   F   F   F
  0.7699987869787606  0.2126140011378865  0.6798949089448030   F   F   F
  0.8852440877818424  0.1024023741545719  0.5890981923199803   F   F   F
  0.8862191350267139  0.1049627257276313  0.3211534073493993   F   F   F
  0.7741837543553629  0.2147647874684182  0.4106903389749732   F   F   F
  0.9967771657943914  0.3257529128958936  0.4996016458220041   F   F   F
  0.1051195821554529  0.5424651136818071  0.6781328448988617   F   F   F
  0.2177027210304203  0.4369160084220596  0.5893130927286236   F   F   F
  0.2199495010599435  0.4380385944654392  0.3212011802293375   F   F   F
  0.1077422326308337  0.5483909170713659  0.4107693665809649   F   F   F
  0.3298288584908349  0.3258912848393720  0.5001520915339839   F   F   F
  0.4423048017414928  0.5491329420448281  0.6788050994178718   F   F   F
  0.5522621971676287  0.4372133344448841  0.5893073624095564   F   F   F
  0.5527585091276634  0.4376683901881009  0.3210535824527696   F   F   F
  0.4415827253558504  0.5481572253094740  0.4107702500424537   F   F   F
  0.6635251129108397  0.3256811661112806  0.5001506876766229   F   F   F
  0.7750933356345939  0.5493647491399045  0.6788342542306580   F   F   F
  0.8867278736790425  0.4371455615877480  0.5893303258999936   F   F   F
  0.8863811806172279  0.4379966651773017  0.3212974686113697   F   F   F
  0.7738117197563312  0.5479794635125188  0.4108512634126882   F   F   F
  0.9965189936967676  0.6591680204977024  0.4999844409482179   F   F   F
  0.1091284798980112  0.8842882934846159  0.6788596415199493   F   F   F
  0.2202655879239614  0.7719545980014360  0.5890935449457189   F   F   F
  0.2196753740151962  0.7712960606311796  0.3212840757538089   F   F   F
  0.1073393583932329  0.8814936893039871  0.4109549504544532   F   F   F
  0.3304931522994465  0.6593362791036625  0.4998791673627636   F   F   F
  0.4423102785577058  0.8835423793074071  0.6788348119967651   F   F   F
  0.5511156796834413  0.7704060324704329  0.5894414653460558   F   F   F
  0.5521746051791823  0.7711852761155598  0.3211135114710686   F   F   F
  0.4412766999604969  0.8816289255438505  0.4108908521963883   F   F   F
  0.6627476032931767  0.6586998167244857  0.5003194830328468   F   F   F
  0.7741894963418332  0.8804213527598321  0.6795246350952908   F   F   F
  0.8867762008681765  0.7706150417951037  0.5894549527702750   F   F   F
  0.8863272391921129  0.7712588261512963  0.3210994308144990   F   F   F
  0.7742763318547432  0.8809953653747868  0.4105804455814805   F   F   F
  0.2258375434912097  0.1171129004780127  0.7231456499971216   F   F   F
  0.2256697491759709  0.1191544601477759  0.4554549542015280   F   F   F
  0.1142821144771915  0.2291723032503512  0.2774417860025906   F   F   F
  0.1142757987532832  0.2301971464994779  0.5445244254598265   F   F   F
  0.0035524160093914  0.0082780454649338  0.3663398790433305   F   F   F
  0.0031959533950001  0.0075891977421350  0.6335178852614689   F   F   F
  0.2252049252542818  0.1174691218654544  0.1911792237096179   F   F   F
  0.1138217397404091  0.2283596149849103  0.8090922763143951   F   F   F
  0.5568357401178403  0.1167877460192770  0.7231044140047231   F   F   F
  0.5590760424139347  0.1188811575948421  0.4554632412301487   F   F   F
  0.4474916747574440  0.2290372541334591  0.2773845328142173   F   F   F
  0.4475940091136152  0.2303659110948146  0.5446520144417732   F   F   F
  0.3366352677584743  0.0081557373146168  0.3664092608078775   F   F   F
  0.3369208260706742  0.0085270621048110  0.6338060865751842   F   F   F
  0.5583295856993473  0.1172553286891969  0.1911814232737541   F   F   F
  0.4644542430962346  0.2631517039136142  0.8145005418115403   F   F   F
  0.8908919759607272  0.1161095005171688  0.7228980629969328   F   F   F
  0.8924134643981247  0.1192843894817202  0.4554316647954550   F   F   F
  0.7808168132159992  0.2291416338015253  0.2774491253235283   F   F   F
  0.7813796376585316  0.2299124771860974  0.5446026034038027   F   F   F
  0.6703754626421059  0.0082995490549607  0.3663678400862835   F   F   F
  0.6702152593441681  0.0075343647572907  0.6334404367973150   F   F   F
  0.8915166628130251  0.1174082311890388  0.1912408375112449   F   F   F
  0.7805773220483445  0.2278543654752454  0.8090781779120420   F   F   F
  0.2234141572088504  0.4504750762219345  0.7215997681811572   F   F   F
  0.2256975609910867  0.4527781421702031  0.4554612988207367   F   F   F
  0.1142292484904033  0.5623698247804541  0.2775191768325982   F   F   F
  0.1154016948843477  0.5648668312432932  0.5446295082735020   F   F   F
  0.0037043952833216  0.3414599637018938  0.3664181647351654   F   F   F
  0.0019314700839175  0.3385117334311829  0.6332098610064349   F   F   F
  0.2253329290030095  0.4509895225757887  0.1912196392311785   F   F   F
  0.1112753452354696  0.5567838564487246  0.8095544523905858   F   F   F
  0.5586248476522471  0.4513611994261382  0.7226473871090349   F   F   F
  0.5584799760526522  0.4521620866490608  0.4554665811714287   F   F   F
  0.4472137463090604  0.5622323230381383  0.2775631041954938   F   F   F
  0.4472129117983599  0.5632488693554265  0.5444239505294561   F   F   F
  0.3367343108564285  0.3414187865123992  0.3663777470258722   F   F   F
  0.3364470054902000  0.3419610074506423  0.6337223594468782   F   F   F
  0.5585872821453108  0.4508329454897435  0.1913281327175298   F   F   F
  0.4464333954016908  0.5548954066680949  0.8102575908447065   F   F   F
  0.8936152756517615  0.4504467062652040  0.7215864928067006   F   F   F
  0.8922133687431000  0.4525479970387281  0.4555486019133852   F   F   F
  0.7808162526389211  0.5622781824242438  0.2773076997988113   F   F   F
  0.7811829074762642  0.5636476099581955  0.5444055158707641   F   F   F
  0.6700039416179990  0.3413826342091397  0.3662292873133310   F   F   F
  0.6706081802980037  0.3416659867800718  0.6338532665237793   F   F   F
  0.8920633184092637  0.4506829232589951  0.1913306311312439   F   F   F
  0.7738780488025299  0.5541064708434149  0.8104140757720089   F   F   F
  0.2217223417089755  0.7771077768520982  0.7216656472572680   F   F   F
  0.2259109971255810  0.7861928651185082  0.4554251954853896   F   F   F
  0.1142175820818281  0.8958364293116148  0.2774799597368087   F   F   F
  0.1148317565295756  0.8979722711630060  0.5443565226977682   F   F   F
  0.0034246703882843  0.6749147255960608  0.3663329280623202   F   F   F
  0.0046143199270929  0.6765011224788964  0.6334388912354143   F   F   F
  0.2250566814733190  0.7840322035716056  0.1912781936647079   F   F   F
  0.1114391959598535  0.8888644947886206  0.8086254805046806   F   F   F
  0.5576745179066052  0.7826754688843991  0.7229642071281219   F   F   F
  0.5590458365242199  0.7856642841445662  0.4553193275566088   F   F   F
  0.4474000178271851  0.8958185387418780  0.2774341305919421   F   F   F
  0.4487524519742507  0.8977667168105157  0.5443906687977531   F   F   F
  0.3366840857796234  0.6747420514492859  0.3664431070261429   F   F   F
  0.3375171105531294  0.6757622517297790  0.6333726637058845   F   F   F
  0.5585602977346014  0.7840768048446947  0.1913197188581606   F   F   F
  0.4433102317272812  0.8888541049698873  0.8087205476340245   F   F   F
  0.8911860444572000  0.7828164910806592  0.7230911336236261   F   F   F
  0.8920593229415488  0.7859706236626707  0.4553196260069754   F   F   F
  0.7808171944459019  0.8958767368700933  0.2775025479562814   F   F   F
  0.7806832862639155  0.8962327578052580  0.5441235154096731   F   F   F
  0.6698604120321150  0.6747339324123800  0.3661850640510664   F   F   F
  0.6703404263483890  0.6754875833526768  0.6335001841296375   F   F   F
  0.8918221040252661  0.7842812854301826  0.1914328045070945   F   F   F
  0.7798443587897737  0.8939985775141110  0.8089345638531782   F   F   F
  0.9980807639728297  0.9946708314976149  0.2303369722268229   F   F   F
  0.9957444115484222  0.9906936292431610  0.7694792957770531   F   F   F
  0.3313356984174263  0.9942211567695836  0.2303050528441588   F   F   F
  0.3168851141574791  0.9668146617816333  0.7680532075963953   F   F   F
  0.6644788872732548  0.9940887540359711  0.2302743583752260   F   F   F
  0.6626008728653616  0.9904222280727808  0.7696018743177291   F   F   F
  0.9972962301105284  0.3271939306214833  0.2303231432403692   F   F   F
  0.9961742089270231  0.3243036989976886  0.7699024021679719   F   F   F
  0.3309499158019378  0.3274154513530547  0.2300863539290319   F   F   F
  0.3287070585557004  0.3302457716375216  0.7702472074906908   F   F   F
  0.6645152744987968  0.3274154094785828  0.2302250200585405   F   F   F
  0.6685336648391456  0.3288315686601493  0.7701290194628498   F   F   F
  0.9985796019523860  0.6607964316415149  0.2303812670491396   F   F   F
  0.9877976451499464  0.6507045352879430  0.7717934013741115   F   F   F
  0.3312167848560321  0.6606176593596800  0.2302956183622911   F   F   F
  0.3299465405373851  0.6514863638953301  0.7715202739852813   F   F   F
  0.6652465160365324  0.6610387868745704  0.2303082787610862   F   F   F
  0.6629599280612126  0.6580868226150471  0.7699469564646009   F   F   F
  0.5435798729032372  0.4188520001410368  0.8368386816781302   T   T   T
 
  0.00000000E+00  0.00000000E+00  0.00000000E+00
  0.00000000E+00  0.00000000E+00  0.00000000E+00
  0.00000000E+00  0.00000000E+00  0.00000000E+00
  0.00000000E+00  0.00000000E+00  0.00000000E+00
  0.00000000E+00  0.00000000E+00  0.00000000E+00
  0.00000000E+00  0.00000000E+00  0.00000000E+00
  0.00000000E+00  0.00000000E+00  0.00000000E+00
  0.00000000E+00  0.00000000E+00  0.00000000E+00
  0.00000000E+00  0.00000000E+00  0.00000000E+00
  0.00000000E+00  0.00000000E+00  0.00000000E+00
  0.00000000E+00  0.00000000E+00  0.00000000E+00
  0.00000000E+00  0.00000000E+00  0.00000000E+00
  0.00000000E+00  0.00000000E+00  0.00000000E+00
  0.00000000E+00  0.00000000E+00  0.00000000E+00
  0.00000000E+00  0.00000000E+00  0.00000000E+00
  0.00000000E+00  0.00000000E+00  0.00000000E+00
  0.00000000E+00  0.00000000E+00  0.00000000E+00
  0.00000000E+00  0.00000000E+00  0.00000000E+00
  0.00000000E+00  0.00000000E+00  0.00000000E+00
  0.00000000E+00  0.00000000E+00  0.00000000E+00
  0.00000000E+00  0.00000000E+00  0.00000000E+00
  0.00000000E+00  0.00000000E+00  0.00000000E+00
  0.00000000E+00  0.00000000E+00  0.00000000E+00
  0.00000000E+00  0.00000000E+00  0.00000000E+00
  0.00000000E+00  0.00000000E+00  0.00000000E+00
  0.00000000E+00  0.00000000E+00  0.00000000E+00
  0.00000000E+00  0.00000000E+00  0.00000000E+00
  0.00000000E+00  0.00000000E+00  0.00000000E+00
  0.00000000E+00  0.00000000E+00  0.00000000E+00
  0.00000000E+00  0.00000000E+00  0.00000000E+00
  0.00000000E+00  0.00000000E+00  0.00000000E+00
  0.00000000E+00  0.00000000E+00  0.00000000E+00
  0.00000000E+00  0.00000000E+00  0.00000000E+00
  0.00000000E+00  0.00000000E+00  0.00000000E+00
  0.00000000E+00  0.00000000E+00  0.00000000E+00
  0.00000000E+00  0.00000000E+00  0.00000000E+00
  0.00000000E+00  0.00000000E+00  0.00000000E+00
  0.00000000E+00  0.00000000E+00  0.00000000E+00
  0.00000000E+00  0.00000000E+00  0.00000000E+00
  0.00000000E+00  0.00000000E+00  0.00000000E+00
  0.00000000E+00  0.00000000E+00  0.00000000E+00
  0.00000000E+00  0.00000000E+00  0.00000000E+00
  0.00000000E+00  0.00000000E+00  0.00000000E+00
  0.00000000E+00  0.00000000E+00  0.00000000E+00
  0.00000000E+00  0.00000000E+00  0.00000000E+00
  0.00000000E+00  0.00000000E+00  0.00000000E+00
  0.00000000E+00  0.00000000E+00  0.00000000E+00
  0.00000000E+00  0.00000000E+00  0.00000000E+00
  0.00000000E+00  0.00000000E+00  0.00000000E+00
  0.00000000E+00  0.00000000E+00  0.00000000E+00
  0.00000000E+00  0.00000000E+00  0.00000000E+00
  0.00000000E+00  0.00000000E+00  0.00000000E+00
  0.00000000E+00  0.00000000E+00  0.00000000E+00
  0.00000000E+00  0.00000000E+00  0.00000000E+00
  0.00000000E+00  0.00000000E+00  0.00000000E+00
  0.00000000E+00  0.00000000E+00  0.00000000E+00
  0.00000000E+00  0.00000000E+00  0.00000000E+00
  0.00000000E+00  0.00000000E+00  0.00000000E+00
  0.00000000E+00  0.00000000E+00  0.00000000E+00
  0.00000000E+00  0.00000000E+00  0.00000000E+00
  0.00000000E+00  0.00000000E+00  0.00000000E+00
  0.00000000E+00  0.00000000E+00  0.00000000E+00
  0.00000000E+00  0.00000000E+00  0.00000000E+00
  0.00000000E+00  0.00000000E+00  0.00000000E+00
  0.00000000E+00  0.00000000E+00  0.00000000E+00
  0.00000000E+00  0.00000000E+00  0.00000000E+00
  0.00000000E+00  0.00000000E+00  0.00000000E+00
  0.00000000E+00  0.00000000E+00  0.00000000E+00
  0.00000000E+00  0.00000000E+00  0.00000000E+00
  0.00000000E+00  0.00000000E+00  0.00000000E+00
  0.00000000E+00  0.00000000E+00  0.00000000E+00
  0.00000000E+00  0.00000000E+00  0.00000000E+00
  0.00000000E+00  0.00000000E+00  0.00000000E+00
  0.00000000E+00  0.00000000E+00  0.00000000E+00
  0.00000000E+00  0.00000000E+00  0.00000000E+00
  0.00000000E+00  0.00000000E+00  0.00000000E+00
  0.00000000E+00  0.00000000E+00  0.00000000E+00
  0.00000000E+00  0.00000000E+00  0.00000000E+00
  0.00000000E+00  0.00000000E+00  0.00000000E+00
  0.00000000E+00  0.00000000E+00  0.00000000E+00
  0.00000000E+00  0.00000000E+00  0.00000000E+00
  0.00000000E+00  0.00000000E+00  0.00000000E+00
  0.00000000E+00  0.00000000E+00  0.00000000E+00
  0.00000000E+00  0.00000000E+00  0.00000000E+00
  0.00000000E+00  0.00000000E+00  0.00000000E+00
  0.00000000E+00  0.00000000E+00  0.00000000E+00
  0.00000000E+00  0.00000000E+00  0.00000000E+00
  0.00000000E+00  0.00000000E+00  0.00000000E+00
  0.00000000E+00  0.00000000E+00  0.00000000E+00
  0.00000000E+00  0.00000000E+00  0.00000000E+00
  0.00000000E+00  0.00000000E+00  0.00000000E+00
  0.00000000E+00  0.00000000E+00  0.00000000E+00
  0.00000000E+00  0.00000000E+00  0.00000000E+00
  0.00000000E+00  0.00000000E+00  0.00000000E+00
  0.00000000E+00  0.00000000E+00  0.00000000E+00
  0.00000000E+00  0.00000000E+00  0.00000000E+00
  0.00000000E+00  0.00000000E+00  0.00000000E+00
  0.00000000E+00  0.00000000E+00  0.00000000E+00
  0.00000000E+00  0.00000000E+00  0.00000000E+00
  0.00000000E+00  0.00000000E+00  0.00000000E+00
  0.00000000E+00  0.00000000E+00  0.00000000E+00
  0.00000000E+00  0.00000000E+00  0.00000000E+00
  0.00000000E+00  0.00000000E+00  0.00000000E+00
  0.00000000E+00  0.00000000E+00  0.00000000E+00
  0.00000000E+00  0.00000000E+00  0.00000000E+00
  0.00000000E+00  0.00000000E+00  0.00000000E+00
  0.00000000E+00  0.00000000E+00  0.00000000E+00
  0.00000000E+00  0.00000000E+00  0.00000000E+00
  0.00000000E+00  0.00000000E+00  0.00000000E+00
  0.00000000E+00  0.00000000E+00  0.00000000E+00
  0.00000000E+00  0.00000000E+00  0.00000000E+00
  0.00000000E+00  0.00000000E+00  0.00000000E+00
  0.00000000E+00  0.00000000E+00  0.00000000E+00
  0.00000000E+00  0.00000000E+00  0.00000000E+00
  0.00000000E+00  0.00000000E+00  0.00000000E+00
  0.00000000E+00  0.00000000E+00  0.00000000E+00
  0.00000000E+00  0.00000000E+00  0.00000000E+00
  0.00000000E+00  0.00000000E+00  0.00000000E+00
  0.00000000E+00  0.00000000E+00  0.00000000E+00
  0.00000000E+00  0.00000000E+00  0.00000000E+00
  0.00000000E+00  0.00000000E+00  0.00000000E+00
  0.00000000E+00  0.00000000E+00  0.00000000E+00
  0.00000000E+00  0.00000000E+00  0.00000000E+00
  0.00000000E+00  0.00000000E+00  0.00000000E+00
  0.00000000E+00  0.00000000E+00  0.00000000E+00
  0.00000000E+00  0.00000000E+00  0.00000000E+00
  0.00000000E+00  0.00000000E+00  0.00000000E+00
  0.00000000E+00  0.00000000E+00  0.00000000E+00
  0.00000000E+00  0.00000000E+00  0.00000000E+00
  0.00000000E+00  0.00000000E+00  0.00000000E+00
  0.00000000E+00  0.00000000E+00  0.00000000E+00
  0.00000000E+00  0.00000000E+00  0.00000000E+00
  0.00000000E+00  0.00000000E+00  0.00000000E+00
  0.00000000E+00  0.00000000E+00  0.00000000E+00
  0.00000000E+00  0.00000000E+00  0.00000000E+00
  0.00000000E+00  0.00000000E+00  0.00000000E+00
