CONTCAR                                 
   1.00000000000000     
    11.2263002396000005    0.0000000000000000    0.0000000000000000
     0.0000000000000000   21.7961997986000000    0.0000000000000000
     0.0000000000000000    0.0000000000000000   19.3752994536999985
   Ta   Te   Pd   O 
     9    42     9     1
Direct
  0.1698636038822817  0.4763136259002609  0.5086002702806687
  0.1669114253412750  0.1237383753816149  0.4976647700463425
  0.1651941413485714  0.7765770125406376  0.5106601326384828
  0.5032933227527812  0.4778502730554260  0.5084479740481722
  0.4999725884102081  0.1235093842912461  0.4981138964614958
  0.4971525359639917  0.7776083615629086  0.5109626391579580
  0.8368229739780476  0.4780225517744849  0.5067394339452500
  0.8333679142584970  0.1242163525724653  0.4989492160332443
  0.8320647302404097  0.7779360182651253  0.5089383088107527
  0.0028400420228107  0.4089250746468783  0.4277275237061494
  0.1690380355733385  0.2412910943122029  0.4264158340659568
  0.1676558418873393  0.8915156143381214  0.5825782106085494
  0.0004307071834125  0.8437153053091896  0.4285234635460143
  0.0068798269666866  0.5533332747156247  0.4344930990766983
  0.0013426607400773  0.4815803496600569  0.6203678956545704
  0.1662736753206977  0.0059044169578234  0.4257258133414898
  0.0005007214375381  0.0541072983512677  0.5772091068616552
  0.1737341677312363  0.5940786430829407  0.5792465894172459
  0.0011750149968985  0.1965576140843720  0.5743374558577685
  0.1669241377237462  0.6963525382771834  0.4058602512698438
  0.9987688636061908  0.1247369283242502  0.3857565248556133
 -0.0012719965422222  0.7434703456849940  0.6086159831824182
  0.1683624875191771  0.3577963953019938  0.5796423103421817
  0.3369652321398959  0.4093032376537124  0.4276902355295867
  0.5008999108492742  0.2411797795335754  0.4266843808882006
  0.4965376537678701  0.8926923820742272  0.5822815987505926
  0.3316840310591084  0.8422173447316710  0.4278851257288674
  0.3360830133050403  0.5502133800148180  0.4339759780923146
  0.3365684904091010  0.4741161261514683  0.6240064904649910
  0.4998223493070976  0.0052759162663858  0.4269393847122636
  0.3328737371933592  0.0537500961625472  0.5768989378660828
  0.5082773589667041  0.5981911782464939  0.5745424288667956
  0.3336185702164896  0.1953382162602156  0.5747042360465987
  0.5010447513306312  0.6985633162290168  0.4049764706492308
  0.3339452407673065  0.1237292039269223  0.3854219963768538
  0.3318257975088995  0.7435840436010065  0.6101769452989751
  0.4976452668665600  0.3602394608219872  0.5817526618817912
  0.6690049224015427  0.4097148311653757  0.4267384288223518
  0.8325545684519901  0.2423593363565817  0.4287795882168248
  0.8338556236238955  0.8922538533750595  0.5819534184514016
  0.6642027307854560  0.8440864564393379  0.4293859975776209
  0.6692801682220040  0.5503072182542087  0.4316939302954849
  0.6712772099003076  0.4830680199332716  0.6195763989304838
  0.8326925813390380  0.0056987645926165  0.4285772195312033
  0.6666257836302957  0.0551549583589792  0.5788251637230603
  0.8387498301924368  0.5970116915838349  0.5745786186890044
  0.6659819981901509  0.1966072961065141  0.5741188944667347
  0.8221193598514486  0.7017117020454737  0.3999315074661798
  0.6673847182433028  0.1228012504116527  0.3863511799746499
  0.6670657296213516  0.7454993468211323  0.6090079542310206
  0.8364710416429809  0.3602009425354835  0.5794398750844887
  0.0012009408666779  0.9474172931303875  0.5039063450299514
  0.0022539439881608  0.3017035747471123  0.5010735448467287
  0.9927019777060895  0.6663721930116910  0.4980502558229158
  0.3314709941480854  0.9472501497021555  0.5023978607274175
  0.3353198641576527  0.3008195425737690  0.5015404831821867
  0.3347680875454184  0.6620734911012173  0.5029511763054718
  0.6652455976489582  0.9478659247862553  0.5050233699201964
  0.6657769461936719  0.3026962404509542  0.5023853729763921
  0.6689869179748926  0.6622096906650297  0.5019904318562052
  0.2933293766438825  0.5639457487868130  0.6508799005103340
 
  0.00000000E+00  0.00000000E+00  0.00000000E+00
  0.00000000E+00  0.00000000E+00  0.00000000E+00
  0.00000000E+00  0.00000000E+00  0.00000000E+00
  0.00000000E+00  0.00000000E+00  0.00000000E+00
  0.00000000E+00  0.00000000E+00  0.00000000E+00
  0.00000000E+00  0.00000000E+00  0.00000000E+00
  0.00000000E+00  0.00000000E+00  0.00000000E+00
  0.00000000E+00  0.00000000E+00  0.00000000E+00
  0.00000000E+00  0.00000000E+00  0.00000000E+00
  0.00000000E+00  0.00000000E+00  0.00000000E+00
  0.00000000E+00  0.00000000E+00  0.00000000E+00
  0.00000000E+00  0.00000000E+00  0.00000000E+00
  0.00000000E+00  0.00000000E+00  0.00000000E+00
  0.00000000E+00  0.00000000E+00  0.00000000E+00
  0.00000000E+00  0.00000000E+00  0.00000000E+00
  0.00000000E+00  0.00000000E+00  0.00000000E+00
  0.00000000E+00  0.00000000E+00  0.00000000E+00
  0.00000000E+00  0.00000000E+00  0.00000000E+00
  0.00000000E+00  0.00000000E+00  0.00000000E+00
  0.00000000E+00  0.00000000E+00  0.00000000E+00
  0.00000000E+00  0.00000000E+00  0.00000000E+00
  0.00000000E+00  0.00000000E+00  0.00000000E+00
  0.00000000E+00  0.00000000E+00  0.00000000E+00
  0.00000000E+00  0.00000000E+00  0.00000000E+00
  0.00000000E+00  0.00000000E+00  0.00000000E+00
  0.00000000E+00  0.00000000E+00  0.00000000E+00
  0.00000000E+00  0.00000000E+00  0.00000000E+00
  0.00000000E+00  0.00000000E+00  0.00000000E+00
  0.00000000E+00  0.00000000E+00  0.00000000E+00
  0.00000000E+00  0.00000000E+00  0.00000000E+00
  0.00000000E+00  0.00000000E+00  0.00000000E+00
  0.00000000E+00  0.00000000E+00  0.00000000E+00
  0.00000000E+00  0.00000000E+00  0.00000000E+00
  0.00000000E+00  0.00000000E+00  0.00000000E+00
  0.00000000E+00  0.00000000E+00  0.00000000E+00
  0.00000000E+00  0.00000000E+00  0.00000000E+00
  0.00000000E+00  0.00000000E+00  0.00000000E+00
  0.00000000E+00  0.00000000E+00  0.00000000E+00
  0.00000000E+00  0.00000000E+00  0.00000000E+00
  0.00000000E+00  0.00000000E+00  0.00000000E+00
  0.00000000E+00  0.00000000E+00  0.00000000E+00
  0.00000000E+00  0.00000000E+00  0.00000000E+00
  0.00000000E+00  0.00000000E+00  0.00000000E+00
  0.00000000E+00  0.00000000E+00  0.00000000E+00
  0.00000000E+00  0.00000000E+00  0.00000000E+00
  0.00000000E+00  0.00000000E+00  0.00000000E+00
  0.00000000E+00  0.00000000E+00  0.00000000E+00
  0.00000000E+00  0.00000000E+00  0.00000000E+00
  0.00000000E+00  0.00000000E+00  0.00000000E+00
  0.00000000E+00  0.00000000E+00  0.00000000E+00
  0.00000000E+00  0.00000000E+00  0.00000000E+00
  0.00000000E+00  0.00000000E+00  0.00000000E+00
  0.00000000E+00  0.00000000E+00  0.00000000E+00
  0.00000000E+00  0.00000000E+00  0.00000000E+00
  0.00000000E+00  0.00000000E+00  0.00000000E+00
  0.00000000E+00  0.00000000E+00  0.00000000E+00
  0.00000000E+00  0.00000000E+00  0.00000000E+00
  0.00000000E+00  0.00000000E+00  0.00000000E+00
  0.00000000E+00  0.00000000E+00  0.00000000E+00
  0.00000000E+00  0.00000000E+00  0.00000000E+00
  0.00000000E+00  0.00000000E+00  0.00000000E+00
