CONTCAR\(4)                             
   1.00000000000000     
    12.9882001877000004    0.0000000000000000    0.0000000000000000
     0.0000000000000000   20.1457004546999983    0.0000000000000000
     0.0000000000000000    0.0000000000000000   19.8038997650000006
   Ce   I    O 
    12    36     1
Direct
  0.1649218588413106  0.9984964374069918  0.5071217669835661
  0.0005886121677960  0.2499916751276459  0.4924353895808196
  0.5015644583820276  0.9986063292044136  0.5074455642523006
  0.3336417051045046  0.2499895552360982  0.4932771304423937
  0.8335409996330156  0.0006139713889013  0.5029595398663673
  0.6657974622466796  0.2500601478819107  0.4924204867408264
  0.1651799298999563  0.5014915428422952  0.5072335595455044
  0.9996888476403356  0.7498494052451790  0.4906342988864836
  0.5015269644059828  0.5013560846605003  0.5074456692453424
  0.3333402015016347  0.7500425084855280  0.5277038403738175
  0.8331822276062866  0.4995025466672942  0.5029619051716168
  0.6671607294732027  0.7499872969837824  0.4905998219341612
  0.0014203112450133  0.4069522231320164  0.4244951789278488
  0.1672632889557804  0.3411291965062162  0.5751024974896453
  0.1673320592750471  0.1587992725942371  0.5750371410054669
  0.0013614585552091  0.0931773142329746  0.4242818472808025
  0.9951289765276456  0.0042701335654627  0.6207202639877991
  0.1682510612968500  0.2499922378120729  0.3772403737988270
  0.3332141179735899  0.4093415185624636  0.4264164513134148
  0.4995153933700323  0.3409446134190262  0.5752408401375817
  0.4995229537878885  0.1589774797555421  0.5751261154224636
  0.3331520930020275  0.0905630079074342  0.4263346434934192
  0.3330054453766920  0.9981389843600539  0.6223153933696537
  0.4987343211406028  0.2499745724865221  0.3770910599632913
  0.6649932066347333  0.4068137155677718  0.4245302948139695
  0.8331272573953896  0.3402143363017132  0.5729302883925484
  0.8331795874864412  0.1597252076880764  0.5729208200093581
  0.6650292097675532  0.0931623800053174  0.4244991257128703
  0.6716400551856765  0.0045767834743842  0.6212478615966504
  0.8332255033680340  0.2500416376715577  0.3768138320610248
  0.9988707202747307  0.9115705686193323  0.4193922628114279
  0.1427797192025650  0.8464528400825131  0.5774875985014987
  0.1429121974636161  0.6534639471948083  0.5775583274673579
  0.9988616224120506  0.5884931067930452  0.4194397083644148
  0.9949645962778888  0.4957896459058801  0.6207774791372103
  0.1726851888646124  0.7499893352444005  0.3873027764363002
  0.3335450799869619  0.9071802593164193  0.4327697764507263
  0.5240770183557188  0.8465821164779399  0.5777190535005232
  0.5239797909467327  0.6534705657332154  0.5776670448415402
  0.3335885222835131  0.5927710365613805  0.4327016992874917
  0.3331219456714436  0.5018668348521729  0.6223083024235123
  0.4941449235869655  0.7500271641057878  0.3873858943600226
  0.6683023953273590  0.9117471380874349  0.4195954064006315
  0.8333616178071921  0.8422104857073762  0.5705377848777289
  0.8332554468747659  0.6577326789314810  0.5705578995558795
  0.6681272693184468  0.5883388561223200  0.4196204876065934
  0.6714106518881806  0.4953502366219880  0.6212158056165933
  0.8332835000071483  0.7500252937369893  0.3750430327567784
  0.3332276502032059  0.7500259737321642  0.6188166778039275
 
  0.00000000E+00  0.00000000E+00  0.00000000E+00
  0.00000000E+00  0.00000000E+00  0.00000000E+00
  0.00000000E+00  0.00000000E+00  0.00000000E+00
  0.00000000E+00  0.00000000E+00  0.00000000E+00
  0.00000000E+00  0.00000000E+00  0.00000000E+00
  0.00000000E+00  0.00000000E+00  0.00000000E+00
  0.00000000E+00  0.00000000E+00  0.00000000E+00
  0.00000000E+00  0.00000000E+00  0.00000000E+00
  0.00000000E+00  0.00000000E+00  0.00000000E+00
  0.00000000E+00  0.00000000E+00  0.00000000E+00
  0.00000000E+00  0.00000000E+00  0.00000000E+00
  0.00000000E+00  0.00000000E+00  0.00000000E+00
  0.00000000E+00  0.00000000E+00  0.00000000E+00
  0.00000000E+00  0.00000000E+00  0.00000000E+00
  0.00000000E+00  0.00000000E+00  0.00000000E+00
  0.00000000E+00  0.00000000E+00  0.00000000E+00
  0.00000000E+00  0.00000000E+00  0.00000000E+00
  0.00000000E+00  0.00000000E+00  0.00000000E+00
  0.00000000E+00  0.00000000E+00  0.00000000E+00
  0.00000000E+00  0.00000000E+00  0.00000000E+00
  0.00000000E+00  0.00000000E+00  0.00000000E+00
  0.00000000E+00  0.00000000E+00  0.00000000E+00
  0.00000000E+00  0.00000000E+00  0.00000000E+00
  0.00000000E+00  0.00000000E+00  0.00000000E+00
  0.00000000E+00  0.00000000E+00  0.00000000E+00
  0.00000000E+00  0.00000000E+00  0.00000000E+00
  0.00000000E+00  0.00000000E+00  0.00000000E+00
  0.00000000E+00  0.00000000E+00  0.00000000E+00
  0.00000000E+00  0.00000000E+00  0.00000000E+00
  0.00000000E+00  0.00000000E+00  0.00000000E+00
  0.00000000E+00  0.00000000E+00  0.00000000E+00
  0.00000000E+00  0.00000000E+00  0.00000000E+00
  0.00000000E+00  0.00000000E+00  0.00000000E+00
  0.00000000E+00  0.00000000E+00  0.00000000E+00
  0.00000000E+00  0.00000000E+00  0.00000000E+00
  0.00000000E+00  0.00000000E+00  0.00000000E+00
  0.00000000E+00  0.00000000E+00  0.00000000E+00
  0.00000000E+00  0.00000000E+00  0.00000000E+00
  0.00000000E+00  0.00000000E+00  0.00000000E+00
  0.00000000E+00  0.00000000E+00  0.00000000E+00
  0.00000000E+00  0.00000000E+00  0.00000000E+00
  0.00000000E+00  0.00000000E+00  0.00000000E+00
  0.00000000E+00  0.00000000E+00  0.00000000E+00
  0.00000000E+00  0.00000000E+00  0.00000000E+00
  0.00000000E+00  0.00000000E+00  0.00000000E+00
  0.00000000E+00  0.00000000E+00  0.00000000E+00
  0.00000000E+00  0.00000000E+00  0.00000000E+00
  0.00000000E+00  0.00000000E+00  0.00000000E+00
  0.00000000E+00  0.00000000E+00  0.00000000E+00
