CONTCAR\(5)                             
   1.00000000000000     
    11.2744998931999998    0.0000000000000000    0.0000000000000000
     0.0000000000000000   12.4884996414000007    0.0000000000000000
     0.0000000000000000    0.0000000000000000   19.0002002716000007
   Nb   Te   Ir   O 
     6    24     6     1
Direct
  0.0003480442963471  0.0478365218780196  0.5059224803048146
  0.1641441481533812  0.7216249495199386  0.4976840981895860
  0.3331913814975099  0.0487023555695672  0.5051642974062615
  0.5025092503065849  0.7218429707726134  0.4977113284596950
  0.6661780379045839  0.0478412944169362  0.5058359272187231
  0.8332466488032044  0.7314986091371680  0.4943490145998539
  0.1660633425188267  0.9279882455813572  0.4226245968924867
  0.0026056130800147  0.1892552274830852  0.4004811326522761
  0.9963004069611575  0.3510646227397031  0.5706885102061652
  0.1845870391688983  0.5828252509739579  0.6088320817819183
  0.1601499334651416  0.4363604269966475  0.4310840157500374
  0.9977527005523816  0.6791232692020899  0.3919489551668519
  0.0006614507273068  0.8448615264017901  0.5804340746402260
  0.1665054731443561  0.1055828061512366  0.6067223896898922
  0.5001876253027993  0.9280957914751470  0.4225352191378889
  0.3333098995618601  0.1962252861428636  0.4025026373117279
  0.3334210768413741  0.3432495888671233  0.5731291879443102
  0.4827697606381624  0.5828979349100565  0.6087280852783318
  0.5066552658170602  0.4363358859478167  0.4309954310484376
  0.3332071474320049  0.6736718852178250  0.3957661431318574
  0.3331592145803897  0.8429827677418288  0.5776049246705350
  0.5000249983303977  0.1056119694486153  0.6066089691317882
  0.8331839734415526  0.9335681252467793  0.4196852265927182
  0.6640459853258263  0.1892398295684404  0.4003793750278871
  0.6704476405963744  0.3509679878265395  0.5705973061090109
  0.8333166298318015  0.5891678450565461  0.6014917001436814
  0.8334023150560139  0.4164617493659792  0.4156719498186349
  0.6685418977962069  0.6790650991816316  0.3919071675051553
  0.6659367072386092  0.8449219866874642  0.5806252275401473
  0.8332044556486294  0.1048941577823192  0.6063784659786954
  0.9761232113401106  0.5341004620867281  0.4954905749115302
  0.1647623668854873  0.2454980692213074  0.4985983762851767
  0.3334658345680102  0.5322014465544666  0.5032259408570098
  0.5019538423176148  0.2454939178000672  0.4985100397766498
  0.6905297866670986  0.5340904021266002  0.4954764459804047
  0.8333549681034270  0.2419877830069591  0.4965720526726631
  0.3335121750994622  0.6165018649127660  0.6676366781869525
 
  0.00000000E+00  0.00000000E+00  0.00000000E+00
  0.00000000E+00  0.00000000E+00  0.00000000E+00
  0.00000000E+00  0.00000000E+00  0.00000000E+00
  0.00000000E+00  0.00000000E+00  0.00000000E+00
  0.00000000E+00  0.00000000E+00  0.00000000E+00
  0.00000000E+00  0.00000000E+00  0.00000000E+00
  0.00000000E+00  0.00000000E+00  0.00000000E+00
  0.00000000E+00  0.00000000E+00  0.00000000E+00
  0.00000000E+00  0.00000000E+00  0.00000000E+00
  0.00000000E+00  0.00000000E+00  0.00000000E+00
  0.00000000E+00  0.00000000E+00  0.00000000E+00
  0.00000000E+00  0.00000000E+00  0.00000000E+00
  0.00000000E+00  0.00000000E+00  0.00000000E+00
  0.00000000E+00  0.00000000E+00  0.00000000E+00
  0.00000000E+00  0.00000000E+00  0.00000000E+00
  0.00000000E+00  0.00000000E+00  0.00000000E+00
  0.00000000E+00  0.00000000E+00  0.00000000E+00
  0.00000000E+00  0.00000000E+00  0.00000000E+00
  0.00000000E+00  0.00000000E+00  0.00000000E+00
  0.00000000E+00  0.00000000E+00  0.00000000E+00
  0.00000000E+00  0.00000000E+00  0.00000000E+00
  0.00000000E+00  0.00000000E+00  0.00000000E+00
  0.00000000E+00  0.00000000E+00  0.00000000E+00
  0.00000000E+00  0.00000000E+00  0.00000000E+00
  0.00000000E+00  0.00000000E+00  0.00000000E+00
  0.00000000E+00  0.00000000E+00  0.00000000E+00
  0.00000000E+00  0.00000000E+00  0.00000000E+00
  0.00000000E+00  0.00000000E+00  0.00000000E+00
  0.00000000E+00  0.00000000E+00  0.00000000E+00
  0.00000000E+00  0.00000000E+00  0.00000000E+00
  0.00000000E+00  0.00000000E+00  0.00000000E+00
  0.00000000E+00  0.00000000E+00  0.00000000E+00
  0.00000000E+00  0.00000000E+00  0.00000000E+00
  0.00000000E+00  0.00000000E+00  0.00000000E+00
  0.00000000E+00  0.00000000E+00  0.00000000E+00
  0.00000000E+00  0.00000000E+00  0.00000000E+00
  0.00000000E+00  0.00000000E+00  0.00000000E+00
