CONTCAR\(9)                             
   1.00000000000000     
    11.7566995620999997    0.0000000000000000    0.0000000000000000
     0.0000000000000000   11.8254995346000005    0.0000000000000000
     0.0000000000000000    0.0000000000000000   21.8330993651999989
   Zr   Te   O    H 
    12    36     2     1
Direct
  0.0799468948345673  0.3320580245759610  0.5754575119962083
  0.2458849981931802  0.0821439829034143  0.4221274032241032
  0.4133156074284144  0.3315241125706386  0.5745702905430420
  0.5790532049460044  0.0824229658201214  0.4220302472546015
  0.7472699199446100  0.3312198560505930  0.5750941390435457
  0.9120555969082550  0.0815567620802200  0.4221826805028452
  0.0788217730779957  0.8316119188116878  0.5755132415863554
  0.2452765492118268  0.5822677045078465  0.4218170259708696
  0.4138702777144057  0.8328603695328800  0.5766233799939294
  0.5787066083217953  0.5816260319150246  0.4215513231895802
  0.7436128688181611  0.8324185530240575  0.5769370314449019
  0.9120816548851713  0.5815012618981280  0.4224582380546403
  0.2457471340788862  0.2115970109875044  0.6538128803792224
  0.2445910771370642  0.3319319465555065  0.4733185873188883
  0.0783016734285412  0.2007763703451521  0.3426920714394484
  0.0784500096621262  0.4635650518285159  0.3423470789837696
  0.2485587453864989  0.4495917511918519  0.6567993706593185
  0.0792087569332399  0.0820543632902192  0.5238346742998324
  0.5789020657151507  0.2221658205004995  0.6570187932150627
  0.5793558485257456  0.3319555145286487  0.4725387066162289
  0.4119445849409429  0.2010602868865546  0.3426241070574990
  0.4118273085054047  0.4637740198391349  0.3420952820724922
  0.5776126360511116  0.4651264453024756  0.6418750409511462
  0.4127799023280208  0.0825404767785174  0.5234249666290234
  0.9133532930797170  0.2127196641890469  0.6547669250647766
  0.9134420718786426  0.3309622957552290  0.4736762067639979
  0.7452090389699475  0.1999371891210940  0.3422676157312418
  0.7461034422110979  0.4626074954005876  0.3428795438072029
  0.9125346290225930  0.4498827519887269  0.6558261029367611
  0.7455939172959620  0.0823084002081192  0.5237202023226512
  0.2454266167401238  0.7118825699786289  0.6540879146725129
  0.2464151749780368  0.8324374017004034  0.4743396606714416
  0.0779425718665426  0.7011426666510924  0.3429889351606914
  0.0791125584757235  0.9632442992904494  0.3427439242908922
  0.2452636967430989  0.9494583457279054  0.6565056410924817
  0.0791977426068715  0.5819338579064410  0.5238497386078285
  0.5782247510208737  0.7195478384266165  0.6603531068039409
  0.5789154477588168  0.8319616817022047  0.4740808299716608
  0.4116352285393865  0.7013678255619742  0.3424320565499122
  0.4123932963228636  0.9635401706315818  0.3422295536965936
  0.5787411993999630  0.9600382175213914  0.6512623603780161
  0.4118848493150967  0.5835132967503863  0.5228328945763708
  0.9122442186977436  0.7126872812252137  0.6550429412402006
  0.9108546970684076  0.8317663848209733  0.4745347115863500
  0.7453497625882880  0.7001609122311908  0.3423340960287839
  0.7459456344966373  0.9625093829576946  0.3426464596313289
  0.9118407504636171  0.9499578757226960  0.6559654608203275
  0.7449677527015217  0.5826488499481615  0.5237550997058910
  0.5024298508046121  0.3746282087594855  0.7703778819639748
  0.5415173063809039  0.4755101496197620  0.7410203368834247
  0.4198145255958213  0.3775541694778028  0.7627762606141704
 
  0.00000000E+00  0.00000000E+00  0.00000000E+00
  0.00000000E+00  0.00000000E+00  0.00000000E+00
  0.00000000E+00  0.00000000E+00  0.00000000E+00
  0.00000000E+00  0.00000000E+00  0.00000000E+00
  0.00000000E+00  0.00000000E+00  0.00000000E+00
  0.00000000E+00  0.00000000E+00  0.00000000E+00
  0.00000000E+00  0.00000000E+00  0.00000000E+00
  0.00000000E+00  0.00000000E+00  0.00000000E+00
  0.00000000E+00  0.00000000E+00  0.00000000E+00
  0.00000000E+00  0.00000000E+00  0.00000000E+00
  0.00000000E+00  0.00000000E+00  0.00000000E+00
  0.00000000E+00  0.00000000E+00  0.00000000E+00
  0.00000000E+00  0.00000000E+00  0.00000000E+00
  0.00000000E+00  0.00000000E+00  0.00000000E+00
  0.00000000E+00  0.00000000E+00  0.00000000E+00
  0.00000000E+00  0.00000000E+00  0.00000000E+00
  0.00000000E+00  0.00000000E+00  0.00000000E+00
  0.00000000E+00  0.00000000E+00  0.00000000E+00
  0.00000000E+00  0.00000000E+00  0.00000000E+00
  0.00000000E+00  0.00000000E+00  0.00000000E+00
  0.00000000E+00  0.00000000E+00  0.00000000E+00
  0.00000000E+00  0.00000000E+00  0.00000000E+00
  0.00000000E+00  0.00000000E+00  0.00000000E+00
  0.00000000E+00  0.00000000E+00  0.00000000E+00
  0.00000000E+00  0.00000000E+00  0.00000000E+00
  0.00000000E+00  0.00000000E+00  0.00000000E+00
  0.00000000E+00  0.00000000E+00  0.00000000E+00
  0.00000000E+00  0.00000000E+00  0.00000000E+00
  0.00000000E+00  0.00000000E+00  0.00000000E+00
  0.00000000E+00  0.00000000E+00  0.00000000E+00
  0.00000000E+00  0.00000000E+00  0.00000000E+00
  0.00000000E+00  0.00000000E+00  0.00000000E+00
  0.00000000E+00  0.00000000E+00  0.00000000E+00
  0.00000000E+00  0.00000000E+00  0.00000000E+00
  0.00000000E+00  0.00000000E+00  0.00000000E+00
  0.00000000E+00  0.00000000E+00  0.00000000E+00
  0.00000000E+00  0.00000000E+00  0.00000000E+00
  0.00000000E+00  0.00000000E+00  0.00000000E+00
  0.00000000E+00  0.00000000E+00  0.00000000E+00
  0.00000000E+00  0.00000000E+00  0.00000000E+00
  0.00000000E+00  0.00000000E+00  0.00000000E+00
  0.00000000E+00  0.00000000E+00  0.00000000E+00
  0.00000000E+00  0.00000000E+00  0.00000000E+00
  0.00000000E+00  0.00000000E+00  0.00000000E+00
  0.00000000E+00  0.00000000E+00  0.00000000E+00
  0.00000000E+00  0.00000000E+00  0.00000000E+00
  0.00000000E+00  0.00000000E+00  0.00000000E+00
  0.00000000E+00  0.00000000E+00  0.00000000E+00
  0.00000000E+00  0.00000000E+00  0.00000000E+00
  0.00000000E+00  0.00000000E+00  0.00000000E+00
  0.00000000E+00  0.00000000E+00  0.00000000E+00
