CONTCAR\(12)                            
   1.00000000000000     
    12.2558002471999998    0.0000000000000000    0.0000000000000000
     6.1279165570999998   10.6146331497999995    0.0000000000000000
     0.0000000000000000    0.0000000000000000   18.0618000031000001
   Ni   P    Se   O 
     8     8    24     1
Direct
  0.1660059782489377  0.1659320618236530  0.5033818520113118
  0.3478337081542254  0.3273611047637967  0.5010374742797717
  0.6709097647880932  0.1647253565746051  0.4956875018199236
  0.8327253729191970  0.3318107798741761  0.5003873476376082
  0.1751681433640240  0.6726399431442580  0.5010255070681965
  0.3356422668830200  0.8352603827311251  0.4956421592630069
  0.6645607707197212  0.6682033300933643  0.5003822317989265
  0.8318679882868061  0.8341150227312414  0.5033360702393207
  0.0015347568344493  0.0005958914199748  0.4378972283088613
  0.5004789035322519  0.0019093042748131  0.5617550085373056
  0.5021232624263978  0.9994189394616558  0.4378477025305350
  0.0023946448251398  0.9980930678095574  0.5617960452526315
  0.0001832550783453  0.4999799091446969  0.4585727756411671
  0.5015738680137052  0.5000019244705700  0.5614380294815567
  0.5039397215723767  0.5000110057635161  0.4375267271854920
  0.9911923819871000  0.5000260353506717  0.5822752327081997
  0.3241931243485698 -0.0008678072938009  0.4122541263212331
  0.1843374512671504  0.9940647098322978  0.5852332385802190
  0.1782952082429509  0.3266603416982821  0.4250116924829869
  0.0022082114221552  0.1793629086514935  0.4143585055630088
  0.3219725472049982  0.1778129476296082  0.5876694366513301
  0.5140124925817564  0.3107534762777514  0.5817064740974393
  0.8232783373689345  0.0009440640087588  0.4123015376309764
  0.6784676429388198  0.0059212204823614  0.5851737639190102
  0.6815907504914612  0.3211172541622063  0.4113970064358401
  0.5040709891721051  0.1752029999937088  0.4095075547386338
  0.8210389499872887  0.1745374638525055  0.5854036277633389
  0.9904340235215494  0.3166130324230534  0.5917054195914827
  0.3273464147084372  0.5000045953239424  0.4108396508801158
  0.2065213140188456  0.4999953033086911  0.5764270298179169
  0.1792044429697035  0.8248017186606087  0.4094947225314178
  0.0050018862808438  0.6732792064729283  0.4250103895716961
  0.3247720310402198  0.6892099138306117  0.5817245822839165
  0.4955481010444091  0.8255118889321654  0.5854080509042364
  0.8272710651385790  0.4999962280940728  0.4183302720638687
  0.6779958204069152  0.4999938966191591  0.5875788084082411
  0.6815780313671383  0.8206366973567945  0.4143274270863624
  0.5028158012371433  0.6788213125688113  0.4113497257649016
  0.8070226676951742  0.6834081911067446  0.5916355595726530
  0.9997566560254290  0.8222102130148237  0.5876825542547577
  0.2596605588856438  0.4999449065607094  0.6617593963206293
 
  0.00000000E+00  0.00000000E+00  0.00000000E+00
  0.00000000E+00  0.00000000E+00  0.00000000E+00
  0.00000000E+00  0.00000000E+00  0.00000000E+00
  0.00000000E+00  0.00000000E+00  0.00000000E+00
  0.00000000E+00  0.00000000E+00  0.00000000E+00
  0.00000000E+00  0.00000000E+00  0.00000000E+00
  0.00000000E+00  0.00000000E+00  0.00000000E+00
  0.00000000E+00  0.00000000E+00  0.00000000E+00
  0.00000000E+00  0.00000000E+00  0.00000000E+00
  0.00000000E+00  0.00000000E+00  0.00000000E+00
  0.00000000E+00  0.00000000E+00  0.00000000E+00
  0.00000000E+00  0.00000000E+00  0.00000000E+00
  0.00000000E+00  0.00000000E+00  0.00000000E+00
  0.00000000E+00  0.00000000E+00  0.00000000E+00
  0.00000000E+00  0.00000000E+00  0.00000000E+00
  0.00000000E+00  0.00000000E+00  0.00000000E+00
  0.00000000E+00  0.00000000E+00  0.00000000E+00
  0.00000000E+00  0.00000000E+00  0.00000000E+00
  0.00000000E+00  0.00000000E+00  0.00000000E+00
  0.00000000E+00  0.00000000E+00  0.00000000E+00
  0.00000000E+00  0.00000000E+00  0.00000000E+00
  0.00000000E+00  0.00000000E+00  0.00000000E+00
  0.00000000E+00  0.00000000E+00  0.00000000E+00
  0.00000000E+00  0.00000000E+00  0.00000000E+00
  0.00000000E+00  0.00000000E+00  0.00000000E+00
  0.00000000E+00  0.00000000E+00  0.00000000E+00
  0.00000000E+00  0.00000000E+00  0.00000000E+00
  0.00000000E+00  0.00000000E+00  0.00000000E+00
  0.00000000E+00  0.00000000E+00  0.00000000E+00
  0.00000000E+00  0.00000000E+00  0.00000000E+00
  0.00000000E+00  0.00000000E+00  0.00000000E+00
  0.00000000E+00  0.00000000E+00  0.00000000E+00
  0.00000000E+00  0.00000000E+00  0.00000000E+00
  0.00000000E+00  0.00000000E+00  0.00000000E+00
  0.00000000E+00  0.00000000E+00  0.00000000E+00
  0.00000000E+00  0.00000000E+00  0.00000000E+00
  0.00000000E+00  0.00000000E+00  0.00000000E+00
  0.00000000E+00  0.00000000E+00  0.00000000E+00
  0.00000000E+00  0.00000000E+00  0.00000000E+00
  0.00000000E+00  0.00000000E+00  0.00000000E+00
  0.00000000E+00  0.00000000E+00  0.00000000E+00
