CONTCAR\(8)                             
   1.00000000000000     
    12.9361000061000002    0.0000000000000000    0.0000000000000000
     0.0000000000000000   12.9357995986999992    0.0000000000000000
     0.0000000000000000    0.0000000000000000   24.1072998046999984
   Dy   Te   O 
    18    54     1
Direct
  0.1645076820225114  0.0013214967904230  0.5840476398877129
  0.9980688443820432  0.1649299238448480  0.4144573946956276
  0.4985643045525744  0.9991384225081347  0.5856902968642167
  0.3310567453840528  0.1643461300591122  0.4149279585969690
  0.8324853524533005  0.9989987403072843  0.5844371801452457
  0.6647601843689527  0.1645220331128810  0.4147695568460701
  0.1671171979210745  0.3332466240743698  0.5853735069277247
  0.9975986849323615  0.4980081973283042  0.4149521404277290
  0.4988602942382008  0.3284834045592567  0.5837753180261512
  0.3314024080538349  0.4982188010403653  0.4162308530866615
  0.8353278623118008  0.3312091829468294  0.5842018583253704
  0.6642137190237012  0.4982849736262667  0.4160965256667870
  0.1621286816751533  0.6656385123991047  0.5839928384802106
  0.9974982402054315  0.8314723664769251  0.4146428106561097
  0.5000224703997482  0.6673344190696863  0.5871648230358002
  0.3315497791833458  0.8312764928767159  0.4157789116598090
  0.8323716766165948  0.6653129403021328  0.5857112846747273
  0.6646498927584731  0.8314781363821393  0.4156512165834312
  0.9974367622019927  0.9975972295361976  0.3113030136960744
  0.1680382542076412  0.1673414323763297  0.6885193430527934
  0.9990677425721859  0.0047682523777188  0.6876465375346925
  0.1642879462726305  0.1643739813913155  0.3115268299617089
  0.1646811602710700  0.9976942840974801  0.4533625721858487
  0.9998427341452908  0.1664921836956046  0.5454653368815301
  0.3308375152083730  0.9976389405237609  0.3119735585517361
  0.4986261302206313  0.1650034187639933  0.6888514437900423
  0.3330664878767338  0.0016291140137691  0.6886781777588803
  0.4974201674611139  0.1641717305886737  0.3117457452803837
  0.4981581549895319  0.9981542764579658  0.4542120281582412
  0.3320781894652550  0.1649515550298045  0.5462514832652751
  0.6640929980915818  0.9973765514628526  0.3120541588915424
  0.8379493915600384  0.1647177169418607  0.6875051661089431
  0.6674008684510111  0.0002568834583083  0.6883282919721850
  0.8308574781177568  0.1643525026484923  0.3115126651857700
  0.8315022371970364  0.9984116207848210  0.4534270432204685
  0.6659027439930176  0.1643908952976900  0.5459538568067589
  0.9975097133416843  0.3313843864058588  0.3115661412890682
  0.1678699560712102  0.5035464248989816  0.6887784937498317
  0.0016136979610072  0.3347431547312630  0.6883638679811175
  0.1643467455019015  0.4974313761999424  0.3122536467416203
  0.1649138268938305  0.3319870206387598  0.4539750060848752
  0.9988212351516840  0.4988759801091308  0.5464074858700410
  0.3307891112621171  0.3309133265447256  0.3123671780555187
  0.5136863983530108  0.4954190509473520  0.6944955635228521
  0.3373210844144212  0.3345944659630612  0.6884733598168341
  0.4974684011819357  0.4979132761727706  0.3128658711935442
  0.4979966166553604  0.3307533377228228  0.4537121213108881
  0.3336292276535938  0.5003454952786835  0.5482198046865143
  0.6640572558087240  0.3313302097566104  0.3122620114408664
  0.8349708692069673  0.4998591962380040  0.6887127035856804
  0.6708737896025250  0.3278436614248115  0.6852377864197993
  0.8305087960393870  0.4979662042677878  0.3122457578187220
  0.8309851110297979  0.3318714309883340  0.4535000074039556
  0.6644617523727664  0.4986045483797624  0.5483416464534864
  0.9974128809051090  0.6641075870287314  0.3118431129408747
  0.1623950974971466  0.8362590906461000  0.6849632436142539
  0.9973857887273243  0.6664059040212810  0.6889728427291815
  0.1643037525162435  0.8309628572143158  0.3120396584279530
  0.1641823790084190  0.6649768021339096  0.4536072576878141
  0.9976250260168168  0.8324408886286239  0.5458555931222818
  0.3311639438597647  0.6641859286985647  0.3127092846600620
  0.5007245102108914  0.8348468481844982  0.6909822730618065
  0.3278278191166130  0.6784635291521437  0.6969375492403287
  0.4975784130591501  0.8309174284386182  0.3125719576844899
  0.4982226413334278  0.6651726850872710  0.4553513532419480
  0.3319469649430670  0.8313815889737033  0.5479001305793043
  0.6640848982916266  0.6644924126976687  0.3129943008157656
  0.8346946566254566  0.8344147505798714  0.6884138641990062
  0.6687363027686871  0.6674946433486381  0.6910947320610215
  0.8304382240062864  0.8307472961586119  0.3119845156820895
  0.8311928363744633  0.6645655221821605  0.4543243216959257
  0.6651775243063694  0.8320004455530183  0.5472379061742962
  0.4107218261451420  0.5735782394522114  0.7413674780672214
 
  0.00000000E+00  0.00000000E+00  0.00000000E+00
  0.00000000E+00  0.00000000E+00  0.00000000E+00
  0.00000000E+00  0.00000000E+00  0.00000000E+00
  0.00000000E+00  0.00000000E+00  0.00000000E+00
  0.00000000E+00  0.00000000E+00  0.00000000E+00
  0.00000000E+00  0.00000000E+00  0.00000000E+00
  0.00000000E+00  0.00000000E+00  0.00000000E+00
  0.00000000E+00  0.00000000E+00  0.00000000E+00
  0.00000000E+00  0.00000000E+00  0.00000000E+00
  0.00000000E+00  0.00000000E+00  0.00000000E+00
  0.00000000E+00  0.00000000E+00  0.00000000E+00
  0.00000000E+00  0.00000000E+00  0.00000000E+00
  0.00000000E+00  0.00000000E+00  0.00000000E+00
  0.00000000E+00  0.00000000E+00  0.00000000E+00
  0.00000000E+00  0.00000000E+00  0.00000000E+00
  0.00000000E+00  0.00000000E+00  0.00000000E+00
  0.00000000E+00  0.00000000E+00  0.00000000E+00
  0.00000000E+00  0.00000000E+00  0.00000000E+00
  0.00000000E+00  0.00000000E+00  0.00000000E+00
  0.00000000E+00  0.00000000E+00  0.00000000E+00
  0.00000000E+00  0.00000000E+00  0.00000000E+00
  0.00000000E+00  0.00000000E+00  0.00000000E+00
  0.00000000E+00  0.00000000E+00  0.00000000E+00
  0.00000000E+00  0.00000000E+00  0.00000000E+00
  0.00000000E+00  0.00000000E+00  0.00000000E+00
  0.00000000E+00  0.00000000E+00  0.00000000E+00
  0.00000000E+00  0.00000000E+00  0.00000000E+00
  0.00000000E+00  0.00000000E+00  0.00000000E+00
  0.00000000E+00  0.00000000E+00  0.00000000E+00
  0.00000000E+00  0.00000000E+00  0.00000000E+00
  0.00000000E+00  0.00000000E+00  0.00000000E+00
  0.00000000E+00  0.00000000E+00  0.00000000E+00
  0.00000000E+00  0.00000000E+00  0.00000000E+00
  0.00000000E+00  0.00000000E+00  0.00000000E+00
  0.00000000E+00  0.00000000E+00  0.00000000E+00
  0.00000000E+00  0.00000000E+00  0.00000000E+00
  0.00000000E+00  0.00000000E+00  0.00000000E+00
  0.00000000E+00  0.00000000E+00  0.00000000E+00
  0.00000000E+00  0.00000000E+00  0.00000000E+00
  0.00000000E+00  0.00000000E+00  0.00000000E+00
  0.00000000E+00  0.00000000E+00  0.00000000E+00
  0.00000000E+00  0.00000000E+00  0.00000000E+00
  0.00000000E+00  0.00000000E+00  0.00000000E+00
  0.00000000E+00  0.00000000E+00  0.00000000E+00
  0.00000000E+00  0.00000000E+00  0.00000000E+00
  0.00000000E+00  0.00000000E+00  0.00000000E+00
  0.00000000E+00  0.00000000E+00  0.00000000E+00
  0.00000000E+00  0.00000000E+00  0.00000000E+00
  0.00000000E+00  0.00000000E+00  0.00000000E+00
  0.00000000E+00  0.00000000E+00  0.00000000E+00
  0.00000000E+00  0.00000000E+00  0.00000000E+00
  0.00000000E+00  0.00000000E+00  0.00000000E+00
  0.00000000E+00  0.00000000E+00  0.00000000E+00
  0.00000000E+00  0.00000000E+00  0.00000000E+00
  0.00000000E+00  0.00000000E+00  0.00000000E+00
  0.00000000E+00  0.00000000E+00  0.00000000E+00
  0.00000000E+00  0.00000000E+00  0.00000000E+00
  0.00000000E+00  0.00000000E+00  0.00000000E+00
  0.00000000E+00  0.00000000E+00  0.00000000E+00
  0.00000000E+00  0.00000000E+00  0.00000000E+00
  0.00000000E+00  0.00000000E+00  0.00000000E+00
  0.00000000E+00  0.00000000E+00  0.00000000E+00
  0.00000000E+00  0.00000000E+00  0.00000000E+00
  0.00000000E+00  0.00000000E+00  0.00000000E+00
  0.00000000E+00  0.00000000E+00  0.00000000E+00
  0.00000000E+00  0.00000000E+00  0.00000000E+00
  0.00000000E+00  0.00000000E+00  0.00000000E+00
  0.00000000E+00  0.00000000E+00  0.00000000E+00
  0.00000000E+00  0.00000000E+00  0.00000000E+00
  0.00000000E+00  0.00000000E+00  0.00000000E+00
  0.00000000E+00  0.00000000E+00  0.00000000E+00
  0.00000000E+00  0.00000000E+00  0.00000000E+00
  0.00000000E+00  0.00000000E+00  0.00000000E+00
