CONTCAR\(11)                            
   1.00000000000000     
    13.3212995528999993    0.0000000000000000    0.0000000000000000
    -6.6606497764999997   11.5365838241999992    0.0000000000000000
     0.0000000000000000    0.0000000000000000   18.1305007935000013
   Ta   S 
    16    32
Direct
  0.1666699840000021  0.0833299999999966  0.5000000000000000
  0.4166700019999965  0.0833299999999966  0.5000000000000000
  0.6666700199999980  0.0833299999999966  0.5000000000000000
  0.9166700379999995  0.0833299999999966  0.5000000000000000
  0.1666699940000029  0.3333300010000002  0.5000000000000000
  0.4166699940000029  0.3333300010000002  0.5000000000000000
  0.6666700119999973  0.3333300010000002  0.5000000000000000
  0.9166699940000029  0.3333300010000002  0.5000000000000000
  0.1666699940000029  0.5833299820000022  0.5000000000000000
  0.4166699940000029  0.5833299820000022  0.5000000000000000
  0.6666699940000029  0.5833299820000022  0.5000000000000000
  0.9166700110000008  0.5833299820000022  0.5000000000000000
  0.1666699929999993  0.8333299629999971  0.5000000000000000
  0.4166699929999993  0.8333299629999971  0.5000000000000000
  0.6666700110000008  0.8333299629999971  0.5000000000000000
  0.9166700290000023  0.8333299629999971  0.5000000000000000
 -0.0000000000000000  0.0000000000000000  0.5861863449652965
 -0.0000000000000000  0.0000000000000000  0.4138136290347084
  0.2500000000000000  0.0000000000000000  0.5861863449652965
  0.2500000000000000  0.0000000000000000  0.4138136290347084
  0.5000000000000000  0.0000000000000000  0.5861863449652965
  0.5000000000000000  0.0000000000000000  0.4138136290347084
  0.7499999819999985  0.0000000000000000  0.5861863449652965
  0.7499999819999985  0.0000000000000000  0.4138136290347084
  0.0000000009999965  0.2500000020000002  0.5861863449652965
  0.0000000009999965  0.2500000020000002  0.4138136290347084
  0.2500000009999965  0.2500000020000002  0.5861863449652965
  0.2500000009999965  0.2500000020000002  0.4138136290347084
  0.4999999919999993  0.2500000020000002  0.5861863449652965
  0.4999999919999993  0.2500000020000002  0.4138136290347084
  0.7500000100000008  0.2500000020000002  0.5861863449652965
  0.7500000100000008  0.2500000020000002  0.4138136290347084
  0.0000000020000002  0.5000000029999967  0.5861863449652965
  0.0000000020000002  0.5000000029999967  0.4138136290347084
  0.2500000020000002  0.5000000029999967  0.5861863449652965
  0.2500000020000002  0.5000000029999967  0.4138136290347084
  0.5000000020000002  0.5000000029999967  0.5861863449652965
  0.5000000020000002  0.5000000029999967  0.4138136290347084
  0.7499999659999972  0.5000000029999967  0.5861863449652965
  0.7499999659999972  0.5000000029999967  0.4138136290347084
  0.0000000220000018  0.7500000260000022  0.5861863449652965
  0.0000000220000018  0.7500000260000022  0.4138136290347084
  0.2500000220000018  0.7500000260000022  0.5861863449652965
  0.2500000220000018  0.7500000260000022  0.4138136290347084
  0.5000000220000018  0.7500000260000022  0.5861863449652965
  0.5000000220000018  0.7500000260000022  0.4138136290347084
  0.7500000040000003  0.7500000260000022  0.5861863449652965
  0.7500000040000003  0.7500000260000022  0.4138136290347084
 
  0.00000000E+00  0.00000000E+00  0.00000000E+00
  0.00000000E+00  0.00000000E+00  0.00000000E+00
  0.00000000E+00  0.00000000E+00  0.00000000E+00
  0.00000000E+00  0.00000000E+00  0.00000000E+00
  0.00000000E+00  0.00000000E+00  0.00000000E+00
  0.00000000E+00  0.00000000E+00  0.00000000E+00
  0.00000000E+00  0.00000000E+00  0.00000000E+00
  0.00000000E+00  0.00000000E+00  0.00000000E+00
  0.00000000E+00  0.00000000E+00  0.00000000E+00
  0.00000000E+00  0.00000000E+00  0.00000000E+00
  0.00000000E+00  0.00000000E+00  0.00000000E+00
  0.00000000E+00  0.00000000E+00  0.00000000E+00
  0.00000000E+00  0.00000000E+00  0.00000000E+00
  0.00000000E+00  0.00000000E+00  0.00000000E+00
  0.00000000E+00  0.00000000E+00  0.00000000E+00
  0.00000000E+00  0.00000000E+00  0.00000000E+00
  0.00000000E+00  0.00000000E+00  0.00000000E+00
  0.00000000E+00  0.00000000E+00  0.00000000E+00
  0.00000000E+00  0.00000000E+00  0.00000000E+00
  0.00000000E+00  0.00000000E+00  0.00000000E+00
  0.00000000E+00  0.00000000E+00  0.00000000E+00
  0.00000000E+00  0.00000000E+00  0.00000000E+00
  0.00000000E+00  0.00000000E+00  0.00000000E+00
  0.00000000E+00  0.00000000E+00  0.00000000E+00
  0.00000000E+00  0.00000000E+00  0.00000000E+00
  0.00000000E+00  0.00000000E+00  0.00000000E+00
  0.00000000E+00  0.00000000E+00  0.00000000E+00
  0.00000000E+00  0.00000000E+00  0.00000000E+00
  0.00000000E+00  0.00000000E+00  0.00000000E+00
  0.00000000E+00  0.00000000E+00  0.00000000E+00
  0.00000000E+00  0.00000000E+00  0.00000000E+00
  0.00000000E+00  0.00000000E+00  0.00000000E+00
  0.00000000E+00  0.00000000E+00  0.00000000E+00
  0.00000000E+00  0.00000000E+00  0.00000000E+00
  0.00000000E+00  0.00000000E+00  0.00000000E+00
  0.00000000E+00  0.00000000E+00  0.00000000E+00
  0.00000000E+00  0.00000000E+00  0.00000000E+00
  0.00000000E+00  0.00000000E+00  0.00000000E+00
  0.00000000E+00  0.00000000E+00  0.00000000E+00
  0.00000000E+00  0.00000000E+00  0.00000000E+00
  0.00000000E+00  0.00000000E+00  0.00000000E+00
  0.00000000E+00  0.00000000E+00  0.00000000E+00
  0.00000000E+00  0.00000000E+00  0.00000000E+00
  0.00000000E+00  0.00000000E+00  0.00000000E+00
  0.00000000E+00  0.00000000E+00  0.00000000E+00
  0.00000000E+00  0.00000000E+00  0.00000000E+00
  0.00000000E+00  0.00000000E+00  0.00000000E+00
  0.00000000E+00  0.00000000E+00  0.00000000E+00
