CONTCAR\(5)                             
   1.00000000000000     
    12.6589002608999994    0.0000000000000000    0.0000000000000000
    -6.3294555933999996   10.9637343354999999    0.0000000000000000
     0.0000000000000000    0.0000000000000000   35.9861984253000031
   Bi   Se   O    H 
    54    54     2     1
Direct
  0.2214031802971235  0.1100655315665904  0.5256190641869338
  0.1104767982366681  0.2203777724613687  0.4747706942947190
  0.2222594822485959  0.1111607236701317  0.3593300114272608
  0.1115722784729698  0.2226386786809940  0.6388831559799044
  0.0004956907320519  0.0006770230533206  0.2533979448294446
  0.9992080120465516  0.3346395527450738  0.7453668093108803
  0.5554287040511738  0.1113168273906737  0.5253596738779507
  0.4429492779302961  0.2210762654593452  0.4749715697697354
  0.5557098403619420  0.1118027018436294  0.3592853980900230
  0.4460503645850622  0.2259033425846937  0.6402061988295884
  0.3338966791755453  0.0001725560897086  0.2535037197404790
  0.3328582869222529  0.3356629264735034  0.7448558021694396
  0.8878159406922492  0.1114509781284809  0.5248353033092812
  0.7763891459559105  0.2221157272206327  0.4742595945168944
  0.8891515478069394  0.1113281787576028  0.3593418501191863
  0.7761449646806398  0.2235967151469893  0.6389067873651229
  0.6663063218506622  0.0001813188604913  0.2534906307576108
  0.6660137768406429  0.3338880659079635  0.7448629666316862
  0.2219541169781749  0.4437783168866076  0.5248210495192396
  0.1115966187844251  0.5559925478221004  0.4745733256490610
  0.2224804511087015  0.4448493018347506  0.3595755262542113
  0.1103595796828856  0.5576648025730790  0.6389213992690799
  0.0000398218720932  0.3339073536314743  0.2535420799205141
  0.9993599198004546  0.6678754335530357  0.7446642918051509
  0.5555006289346665  0.4444563611683492  0.5248050316535284
  0.4442192253121888  0.5556133059114217  0.4745265106928187
  0.5556102608668780  0.4447081833861475  0.3591581212153088
  0.4460972529004792  0.5576905661959017  0.6412669290802029
  0.3342462201987288  0.3342862593220914  0.2535384932713072
  0.3324649972511367  0.6660786484792141  0.7448955694603825
  0.8885606217628350  0.4443962633927683  0.5245935783971660
  0.7771656034878660  0.5550944079689444  0.4742807497444375
  0.8888365901035726  0.4445365611868866  0.3593484866532179
  0.7762231046791968  0.5589146401552014  0.6413744139421311
  0.6667940306971758  0.3335402104735650  0.2534224088295218
  0.6663038876731875  0.6717615729356510  0.7742329318570356
  0.2224892381088139  0.7770206680832032  0.5256579803307559
  0.1121588323498131  0.8884812055404083  0.4750167117306461
  0.2225774540723293  0.7781090879371320  0.3593872862248091
  0.1087824796260506  0.8894081738086399  0.6402133850814167
  0.0002093354726327  0.6663527888616727  0.2535350680110753
  0.9994786557890052  0.0029609787306555  0.7446906803745890
  0.5559619541813561  0.7775386290065995  0.5249924770124323
  0.4441537448092134  0.8889166771644881  0.4750695366106754
  0.5554546900319295  0.7782652324930268  0.3594813994999697
  0.4450874756127448  0.8881193636782783  0.6402897838821104
  0.3333653762538873  0.6666735637487733  0.2533875381436488
  0.3329545209394738  0.0006824429861396  0.7452380593487220
  0.8886371430061217  0.7769935576943183  0.5248579350310436
  0.7784200392165701  0.8891790325657993  0.4746726371480534
  0.8889960537297057  0.7779373335107209  0.3593713718812452
  0.7759741436049623  0.8875718190659114  0.6413043961235658
  0.6676170786040458  0.6675513426729864  0.2536030354078704
  0.6676099776083930  0.0016643953591640  0.7449756117319168
  0.0001704672795526  0.0000442478243272  0.4028770002750051
  0.3341621974144928  0.3360385743812770  0.5961120492375613
  0.2221607497102980  0.1117180572879661  0.6906512745231268
  0.1114479881662263  0.2226861052939242  0.3073029092581478
  0.2227722674328163  0.1119038452464522  0.2111598459821948
  0.1118183061623270  0.2228275620133360  0.7869577612951488
  0.3340320637736838  0.0004159527654721  0.4028994182767889
  0.6675686085499848  0.3370700961766389  0.5960452865838803
  0.5547604171763822  0.1118155620526196  0.6909328795344223
  0.4445410765521416  0.2223451203093632  0.3070969950109159
  0.5556141037173390  0.1112328561278417  0.2109711009458266
  0.4440335799218147  0.2232448389057851  0.7874544779316466
  0.6665309690952341  0.0006409820834890  0.4028819581438725
  0.9996370738197626  0.3344649877076407  0.5956498387953388
  0.8892147730779811  0.1139955552676213  0.6911695369520174
  0.7778087241907627  0.2224115060381067  0.3071201933184895
  0.8890770605854144  0.1114616754051170  0.2111770512049773
  0.7753297037230737  0.2224966453571255  0.7870651595076339
  0.0000390296631210  0.3339421834365126  0.4029335836927146
  0.3334461712964512  0.6664633782097837  0.5961832755093894
  0.2200462078355940  0.4442638863731858  0.6912702623204225
  0.1114864555346315  0.5559480157067327  0.3072562224390225
  0.2222067019004612  0.4442955664720998  0.2111140955751907
  0.1109349214964865  0.5583742023019127  0.7868926283374265
  0.3341403224273876  0.3340225540805122  0.4028547316451068
  0.6658992515483320  0.6676918907384746  0.5965280060813285
  0.5558201547264119  0.4466047032003004  0.6916885778214237
  0.4447964970192970  0.5565278129707565  0.3072351295667062
  0.5563912335663943  0.4455671011701128  0.2111445893676347
  0.4100581595236505  0.5393860222871467  0.7919659894136188
  0.6664344412655154  0.3336812631495150  0.4028036288457884
  0.9976480485044874  0.6667846377178108  0.5960784598551925
  0.8890938524059919  0.4450706550162380  0.6913088895207480
  0.7778954346669451  0.5555686760726744  0.3070968644755396
  0.8892114513002412  0.4446480009288507  0.2110534824460331
  0.7919392415602431  0.5404480171249020  0.7913978050997770
  0.0001667398026726  0.6663125239517598  0.4028492692030028
  0.3336556435898572  0.0007350622891877  0.5964760340102373
  0.2213674113364448  0.7791198819716456  0.6908923653384633
  0.1112921438880932  0.8890215079549790  0.3072893341646008
  0.2221161334796804  0.7779910141959476  0.2111020899408942
  0.1101397119100582  0.8899934962548244  0.7873691795085733
  0.3335465575913616  0.6672173998081874  0.4029469264225725
  0.6668594595939226  0.0002576665022858  0.5963076230329847
  0.5560028672870772  0.7776221830704344  0.6919533560456301
  0.4445009698842455  0.8891297820476396  0.3071666897151246
  0.5559513221938630  0.7780759049058972  0.2111555450164744
  0.4442875098540071  0.8892010017609095  0.7874408950979799
  0.6661170793991502  0.6662688131162326  0.4027914363033034
  0.9974271136265216  0.0000014210373678  0.5960139572672745
  0.8872987313730505  0.7785881383143973  0.6917529669059164
  0.7779981060601528  0.8893825649365894  0.3073143176306345
  0.8896445979846916  0.7784535703567386  0.2111518719909498
  0.7960315392891815  0.9267006425945823  0.7923477117632558
  0.6782349312997127  0.6965934137400751  0.8341691546925958
  0.6129694423981391  0.5779629534582398  0.8529624465167842
  0.6818644665681148  0.5697241127041508  0.8617926196476517
 
  0.00000000E+00  0.00000000E+00  0.00000000E+00
  0.00000000E+00  0.00000000E+00  0.00000000E+00
  0.00000000E+00  0.00000000E+00  0.00000000E+00
  0.00000000E+00  0.00000000E+00  0.00000000E+00
  0.00000000E+00  0.00000000E+00  0.00000000E+00
  0.00000000E+00  0.00000000E+00  0.00000000E+00
  0.00000000E+00  0.00000000E+00  0.00000000E+00
  0.00000000E+00  0.00000000E+00  0.00000000E+00
  0.00000000E+00  0.00000000E+00  0.00000000E+00
  0.00000000E+00  0.00000000E+00  0.00000000E+00
  0.00000000E+00  0.00000000E+00  0.00000000E+00
  0.00000000E+00  0.00000000E+00  0.00000000E+00
  0.00000000E+00  0.00000000E+00  0.00000000E+00
  0.00000000E+00  0.00000000E+00  0.00000000E+00
  0.00000000E+00  0.00000000E+00  0.00000000E+00
  0.00000000E+00  0.00000000E+00  0.00000000E+00
  0.00000000E+00  0.00000000E+00  0.00000000E+00
  0.00000000E+00  0.00000000E+00  0.00000000E+00
  0.00000000E+00  0.00000000E+00  0.00000000E+00
  0.00000000E+00  0.00000000E+00  0.00000000E+00
  0.00000000E+00  0.00000000E+00  0.00000000E+00
  0.00000000E+00  0.00000000E+00  0.00000000E+00
  0.00000000E+00  0.00000000E+00  0.00000000E+00
  0.00000000E+00  0.00000000E+00  0.00000000E+00
  0.00000000E+00  0.00000000E+00  0.00000000E+00
  0.00000000E+00  0.00000000E+00  0.00000000E+00
  0.00000000E+00  0.00000000E+00  0.00000000E+00
  0.00000000E+00  0.00000000E+00  0.00000000E+00
  0.00000000E+00  0.00000000E+00  0.00000000E+00
  0.00000000E+00  0.00000000E+00  0.00000000E+00
  0.00000000E+00  0.00000000E+00  0.00000000E+00
  0.00000000E+00  0.00000000E+00  0.00000000E+00
  0.00000000E+00  0.00000000E+00  0.00000000E+00
  0.00000000E+00  0.00000000E+00  0.00000000E+00
  0.00000000E+00  0.00000000E+00  0.00000000E+00
  0.00000000E+00  0.00000000E+00  0.00000000E+00
  0.00000000E+00  0.00000000E+00  0.00000000E+00
  0.00000000E+00  0.00000000E+00  0.00000000E+00
  0.00000000E+00  0.00000000E+00  0.00000000E+00
  0.00000000E+00  0.00000000E+00  0.00000000E+00
  0.00000000E+00  0.00000000E+00  0.00000000E+00
  0.00000000E+00  0.00000000E+00  0.00000000E+00
  0.00000000E+00  0.00000000E+00  0.00000000E+00
  0.00000000E+00  0.00000000E+00  0.00000000E+00
  0.00000000E+00  0.00000000E+00  0.00000000E+00
  0.00000000E+00  0.00000000E+00  0.00000000E+00
  0.00000000E+00  0.00000000E+00  0.00000000E+00
  0.00000000E+00  0.00000000E+00  0.00000000E+00
  0.00000000E+00  0.00000000E+00  0.00000000E+00
  0.00000000E+00  0.00000000E+00  0.00000000E+00
  0.00000000E+00  0.00000000E+00  0.00000000E+00
  0.00000000E+00  0.00000000E+00  0.00000000E+00
  0.00000000E+00  0.00000000E+00  0.00000000E+00
  0.00000000E+00  0.00000000E+00  0.00000000E+00
  0.00000000E+00  0.00000000E+00  0.00000000E+00
  0.00000000E+00  0.00000000E+00  0.00000000E+00
  0.00000000E+00  0.00000000E+00  0.00000000E+00
  0.00000000E+00  0.00000000E+00  0.00000000E+00
  0.00000000E+00  0.00000000E+00  0.00000000E+00
  0.00000000E+00  0.00000000E+00  0.00000000E+00
  0.00000000E+00  0.00000000E+00  0.00000000E+00
  0.00000000E+00  0.00000000E+00  0.00000000E+00
  0.00000000E+00  0.00000000E+00  0.00000000E+00
  0.00000000E+00  0.00000000E+00  0.00000000E+00
  0.00000000E+00  0.00000000E+00  0.00000000E+00
  0.00000000E+00  0.00000000E+00  0.00000000E+00
  0.00000000E+00  0.00000000E+00  0.00000000E+00
  0.00000000E+00  0.00000000E+00  0.00000000E+00
  0.00000000E+00  0.00000000E+00  0.00000000E+00
  0.00000000E+00  0.00000000E+00  0.00000000E+00
  0.00000000E+00  0.00000000E+00  0.00000000E+00
  0.00000000E+00  0.00000000E+00  0.00000000E+00
  0.00000000E+00  0.00000000E+00  0.00000000E+00
  0.00000000E+00  0.00000000E+00  0.00000000E+00
  0.00000000E+00  0.00000000E+00  0.00000000E+00
  0.00000000E+00  0.00000000E+00  0.00000000E+00
  0.00000000E+00  0.00000000E+00  0.00000000E+00
  0.00000000E+00  0.00000000E+00  0.00000000E+00
  0.00000000E+00  0.00000000E+00  0.00000000E+00
  0.00000000E+00  0.00000000E+00  0.00000000E+00
  0.00000000E+00  0.00000000E+00  0.00000000E+00
  0.00000000E+00  0.00000000E+00  0.00000000E+00
  0.00000000E+00  0.00000000E+00  0.00000000E+00
  0.00000000E+00  0.00000000E+00  0.00000000E+00
  0.00000000E+00  0.00000000E+00  0.00000000E+00
  0.00000000E+00  0.00000000E+00  0.00000000E+00
  0.00000000E+00  0.00000000E+00  0.00000000E+00
  0.00000000E+00  0.00000000E+00  0.00000000E+00
  0.00000000E+00  0.00000000E+00  0.00000000E+00
  0.00000000E+00  0.00000000E+00  0.00000000E+00
  0.00000000E+00  0.00000000E+00  0.00000000E+00
  0.00000000E+00  0.00000000E+00  0.00000000E+00
  0.00000000E+00  0.00000000E+00  0.00000000E+00
  0.00000000E+00  0.00000000E+00  0.00000000E+00
  0.00000000E+00  0.00000000E+00  0.00000000E+00
  0.00000000E+00  0.00000000E+00  0.00000000E+00
  0.00000000E+00  0.00000000E+00  0.00000000E+00
  0.00000000E+00  0.00000000E+00  0.00000000E+00
  0.00000000E+00  0.00000000E+00  0.00000000E+00
  0.00000000E+00  0.00000000E+00  0.00000000E+00
  0.00000000E+00  0.00000000E+00  0.00000000E+00
  0.00000000E+00  0.00000000E+00  0.00000000E+00
  0.00000000E+00  0.00000000E+00  0.00000000E+00
  0.00000000E+00  0.00000000E+00  0.00000000E+00
  0.00000000E+00  0.00000000E+00  0.00000000E+00
  0.00000000E+00  0.00000000E+00  0.00000000E+00
  0.00000000E+00  0.00000000E+00  0.00000000E+00
  0.00000000E+00  0.00000000E+00  0.00000000E+00
  0.00000000E+00  0.00000000E+00  0.00000000E+00
  0.00000000E+00  0.00000000E+00  0.00000000E+00
  0.00000000E+00  0.00000000E+00  0.00000000E+00
