Repeated-UnitCell:     2    1    1      
   1.00000000000000     
     8.5753450394000001    0.0000000000000000    0.0000000000000000
     0.0000000000000000    7.1598229407999998    0.0000000000000000
     0.0000000000000000    0.0000000000000000   19.5570220946999989
   Ag   Au   S 
     3     8     8
Direct
  0.1076969804043865  0.6593453565533808  0.5989913100658855
  0.3807599982795066  0.1787658172919608  0.5960401711710950
  0.8652294270711404  0.1381531975926754  0.5925671195910346
  0.0644146822882145  0.9928907184115333  0.4816848645991790
  0.5392152502692604  0.9607839731587708  0.4880757880907231
  0.4736163488674253  0.5205244727744358  0.5231774611957984
  0.9635428692439513  0.4813074460260280  0.4738525205798118
  0.2555498981890684  0.7343262189209665  0.3928057310491773
  0.7495057021927062  0.7319683041478799  0.4120522123587348
  0.2595602448769899  0.2341286467957425  0.3916276082549157
  0.7420624656380580  0.2284468873511226  0.4152715663647170
  0.4265705874770417  0.9823697141738956  0.3789971525426545
  0.9076224039491473  0.9842525262485946  0.3835267334375690
  0.3506069407583445  0.5065618491632846  0.6264123530667803
  0.8723120015258599  0.4779510588578878  0.5849759264023696
  0.1334643261138069  0.0041456327160387  0.5963813161879453
  0.6166777063138349  0.9843446519023381  0.6008122143521589
  0.0946798645009352  0.4828643956792616  0.3699701084942696
  0.5739296270403270  0.4832015262341954  0.4151013071952119
 
  0.00000000E+00  0.00000000E+00  0.00000000E+00
  0.00000000E+00  0.00000000E+00  0.00000000E+00
  0.00000000E+00  0.00000000E+00  0.00000000E+00
  0.00000000E+00  0.00000000E+00  0.00000000E+00
  0.00000000E+00  0.00000000E+00  0.00000000E+00
  0.00000000E+00  0.00000000E+00  0.00000000E+00
  0.00000000E+00  0.00000000E+00  0.00000000E+00
  0.00000000E+00  0.00000000E+00  0.00000000E+00
  0.00000000E+00  0.00000000E+00  0.00000000E+00
  0.00000000E+00  0.00000000E+00  0.00000000E+00
  0.00000000E+00  0.00000000E+00  0.00000000E+00
  0.00000000E+00  0.00000000E+00  0.00000000E+00
  0.00000000E+00  0.00000000E+00  0.00000000E+00
  0.00000000E+00  0.00000000E+00  0.00000000E+00
  0.00000000E+00  0.00000000E+00  0.00000000E+00
  0.00000000E+00  0.00000000E+00  0.00000000E+00
  0.00000000E+00  0.00000000E+00  0.00000000E+00
  0.00000000E+00  0.00000000E+00  0.00000000E+00
  0.00000000E+00  0.00000000E+00  0.00000000E+00
