CONTCAR\(10)                            
   1.00000000000000     
    12.3037004471000007    0.0000000000000000    0.0000000000000000
     6.1518502235000003   10.6553171476999999    0.0000000000000000
     0.0000000000000000    0.0000000000000000   24.8090991973999984
   Mn   In   Se   O    H 
     9    18    36     2     1
Selective dynamics
Direct
  0.2308360370737006  0.2165532616359158  0.3277783041076319   F   F   F
  0.5702242593759550  0.2202293325996507  0.2715599858754132   F   F   F
  0.9044531466301038  0.2146048558334073  0.3275571562932456   F   F   F
  0.2313560240621300  0.5527620700296580  0.3267178756968505   F   F   F
  0.5630898296429763  0.5537741008566215  0.3267711455910955   F   F   F
  0.8976333778390924  0.5530511892058527  0.3276660009771106   F   F   F
  0.2327497934698002  0.8846164479175727  0.3267221015594544   F   F   F
  0.5645381639177884  0.8875028458138701  0.3273388605117447   F   F   F
  0.8999278538986175  0.8863426428582670  0.3275251955226821   F   F   F
  0.0047127944128391  0.9982948482075074  0.4861936316873710   F   F   F
  0.1035657425549630  0.1150606179299842  0.6546259906723435   F   F   F
  0.3381064490791772  0.9986699398487033  0.4858337557103098   F   F   F
  0.4373921636615066  0.1149468375130809  0.6540435476409669   F   F   F
  0.6675987697873254  0.0073092986162635  0.4839482779820585   F   F   F
  0.7701271256291449  0.1151431678378430  0.6540684781388748   F   F   F
  0.0040065371343658  0.3334704702006732  0.4876035867893549   F   F   F
  0.1037590349150292  0.4483834601645640  0.6538504144799759   F   F   F
  0.3448112990995327  0.3294828487515460  0.4830677296793766   F   F   F
  0.4371725020279769  0.4483653323813144  0.6538176627930312   F   F   F
  0.6685357599824968  0.3292951620718725  0.4822695430498598   F   F   F
  0.7707154186360938  0.4481227967288604  0.6536136183482881   F   F   F
  0.0039014867611868  0.6651233252648154  0.4871578615356356   F   F   F
  0.1033752734977540  0.7817373163846995  0.6546130229714393   F   F   F
  0.3380186412068085  0.6645824153741131  0.4859083223454306   F   F   F
  0.4366827171950263  0.7819170247664147  0.6545864777493904   F   F   F
  0.6713159872840251  0.6662877231196873  0.4872022883111882   F   F   F
  0.7708054416602437  0.7813068625462378  0.6537611053329186   F   F   F
  0.0119619717531307  0.9949197963375127  0.2965124628380309   F   F   F
  0.9923527369504583  0.0040229606754636  0.7031410868555454   F   F   F
  0.2253452802868168  0.2216169903829908  0.4308475263592939   F   F   F
  0.1146078287357142  0.1100536878934264  0.5509359346532463   F   F   F
  0.3429970977875456  0.9959897348066846  0.2973249634550896   F   F   F
  0.3264823350884569  0.0041723654902555  0.7032016931313123   F   F   F
  0.5598106596644072  0.2216403471785071  0.4265365501558378   F   F   F
  0.4470595777090907  0.1110342992778897  0.5505528754303342   F   F   F
  0.6744447376285052  0.0034517441200066  0.3046523137897381   F   F   F
  0.6598465369275601  0.0033256460171955  0.7028088546724760   F   F   F
  0.8958240003760594  0.2208171345263139  0.4304613308580016   F   F   F
  0.7811444026078149  0.1113636414770269  0.5504991958595085   F   F   F
  0.0098225466640613  0.3301128524412249  0.2984267011626329   F   F   F
  0.9926462351178245  0.3376529306476073  0.7028131720263744   F   F   F
  0.2250757776495007  0.5555523342771735  0.4302348870290587   F   F   F
  0.1179277714539282  0.4422239126710323  0.5502914434967465   F   F   F
  0.3440780116661983  0.3272717840987767  0.3053256223163316   F   F   F
  0.3262469392121261  0.3372858612197405  0.7026325807957789   F   F   F
  0.5603236249829635  0.5561149229371054  0.4301379035078270   F   F   F
  0.4484866970903809  0.4433661075874724  0.5502789361432434   F   F   F
  0.6788816490509717  0.3266738692200590  0.3065743817884794   F   F   F
  0.6595138326810144  0.3374905567216402  0.7026502465618449   F   F   F
  0.8930933831638157  0.5545819143834834  0.4308304493372930   F   F   F
  0.7788110273665154  0.4426725114364842  0.5498937411156888   F   F   F
  0.0089322739744233  0.6639845187179532  0.2986793823069291   F   F   F
  0.9926631129580059  0.6701445317020358  0.7029783125660316   F   F   F
  0.2270345176219521  0.8874980891275897  0.4299842408199908   F   F   F
  0.1147878831047393  0.7767989963053381  0.5508794802193790   F   F   F
  0.3420833880286054  0.6632518052877217  0.2969178581567320   F   F   F
  0.3262746322891559  0.6700217585045678  0.7030650593732659   F   F   F
  0.5608305953008923  0.8878391834660135  0.4306471835197314   F   F   F
  0.4468016439089908  0.7774618210040813  0.5507828082365123   F   F   F
  0.6750734220726642  0.6645482400565328  0.2990781573094310   F   F   F
  0.6599255646762074  0.6701338837577282  0.7025771048492047   F   F   F
  0.8939316022449759  0.8869858487450912  0.4307208754569416   F   F   F
  0.7791454378287028  0.7811597396211525  0.5501043093223217   F   F   F
  0.5376890445611835  0.3004606945270751  0.2054079174228036   T   T   T
  0.5018952374331391  0.2077840671285927  0.1901893115778677   T   T   T
  0.4096558429458596  0.2556133297644081  0.1940620054223088   T   T   T
 
  0.00000000E+00  0.00000000E+00  0.00000000E+00
  0.00000000E+00  0.00000000E+00  0.00000000E+00
  0.00000000E+00  0.00000000E+00  0.00000000E+00
  0.00000000E+00  0.00000000E+00  0.00000000E+00
  0.00000000E+00  0.00000000E+00  0.00000000E+00
  0.00000000E+00  0.00000000E+00  0.00000000E+00
  0.00000000E+00  0.00000000E+00  0.00000000E+00
  0.00000000E+00  0.00000000E+00  0.00000000E+00
  0.00000000E+00  0.00000000E+00  0.00000000E+00
  0.00000000E+00  0.00000000E+00  0.00000000E+00
  0.00000000E+00  0.00000000E+00  0.00000000E+00
  0.00000000E+00  0.00000000E+00  0.00000000E+00
  0.00000000E+00  0.00000000E+00  0.00000000E+00
  0.00000000E+00  0.00000000E+00  0.00000000E+00
  0.00000000E+00  0.00000000E+00  0.00000000E+00
  0.00000000E+00  0.00000000E+00  0.00000000E+00
  0.00000000E+00  0.00000000E+00  0.00000000E+00
  0.00000000E+00  0.00000000E+00  0.00000000E+00
  0.00000000E+00  0.00000000E+00  0.00000000E+00
  0.00000000E+00  0.00000000E+00  0.00000000E+00
  0.00000000E+00  0.00000000E+00  0.00000000E+00
  0.00000000E+00  0.00000000E+00  0.00000000E+00
  0.00000000E+00  0.00000000E+00  0.00000000E+00
  0.00000000E+00  0.00000000E+00  0.00000000E+00
  0.00000000E+00  0.00000000E+00  0.00000000E+00
  0.00000000E+00  0.00000000E+00  0.00000000E+00
  0.00000000E+00  0.00000000E+00  0.00000000E+00
  0.00000000E+00  0.00000000E+00  0.00000000E+00
  0.00000000E+00  0.00000000E+00  0.00000000E+00
  0.00000000E+00  0.00000000E+00  0.00000000E+00
  0.00000000E+00  0.00000000E+00  0.00000000E+00
  0.00000000E+00  0.00000000E+00  0.00000000E+00
  0.00000000E+00  0.00000000E+00  0.00000000E+00
  0.00000000E+00  0.00000000E+00  0.00000000E+00
  0.00000000E+00  0.00000000E+00  0.00000000E+00
  0.00000000E+00  0.00000000E+00  0.00000000E+00
  0.00000000E+00  0.00000000E+00  0.00000000E+00
  0.00000000E+00  0.00000000E+00  0.00000000E+00
  0.00000000E+00  0.00000000E+00  0.00000000E+00
  0.00000000E+00  0.00000000E+00  0.00000000E+00
  0.00000000E+00  0.00000000E+00  0.00000000E+00
  0.00000000E+00  0.00000000E+00  0.00000000E+00
  0.00000000E+00  0.00000000E+00  0.00000000E+00
  0.00000000E+00  0.00000000E+00  0.00000000E+00
  0.00000000E+00  0.00000000E+00  0.00000000E+00
  0.00000000E+00  0.00000000E+00  0.00000000E+00
  0.00000000E+00  0.00000000E+00  0.00000000E+00
  0.00000000E+00  0.00000000E+00  0.00000000E+00
  0.00000000E+00  0.00000000E+00  0.00000000E+00
  0.00000000E+00  0.00000000E+00  0.00000000E+00
  0.00000000E+00  0.00000000E+00  0.00000000E+00
  0.00000000E+00  0.00000000E+00  0.00000000E+00
  0.00000000E+00  0.00000000E+00  0.00000000E+00
  0.00000000E+00  0.00000000E+00  0.00000000E+00
  0.00000000E+00  0.00000000E+00  0.00000000E+00
  0.00000000E+00  0.00000000E+00  0.00000000E+00
  0.00000000E+00  0.00000000E+00  0.00000000E+00
  0.00000000E+00  0.00000000E+00  0.00000000E+00
  0.00000000E+00  0.00000000E+00  0.00000000E+00
  0.00000000E+00  0.00000000E+00  0.00000000E+00
  0.00000000E+00  0.00000000E+00  0.00000000E+00
  0.00000000E+00  0.00000000E+00  0.00000000E+00
  0.00000000E+00  0.00000000E+00  0.00000000E+00
  0.00000000E+00  0.00000000E+00  0.00000000E+00
  0.00000000E+00  0.00000000E+00  0.00000000E+00
  0.00000000E+00  0.00000000E+00  0.00000000E+00
