CONTCAR\(5)                             
   1.00000000000000     
    14.5763998031999993    0.0000000000000000    0.0000000000000000
     0.0000000000000000   14.5763998031999993    0.0000000000000000
     0.0000000000000000    0.0000000000000000   17.7768993377999998
   Fe   Se   O    H 
    32    32     1     1
Direct
  0.9999356388003356  0.9999694761635758  0.4962934615122479
  0.1234733935199776  0.1240213539157415  0.4955287776785109
  0.2491955954950560  0.9980473158427747  0.4934559531121741
  0.3749612913337622  0.1245868627187509  0.4948428927162392
  0.5008427716512293  0.9995735970426255  0.4955169326576442
  0.6242188530675958  0.1242842905302372  0.4982127539436759
  0.7509581320838334  1.0004235781966642  0.4977874299205822
  0.8743089618784788  0.1236486956776823  0.4985927819514180
  0.9972825791956696  0.2485935405470980  0.4976829150312262
  0.1227495303306270  0.3731726913171636  0.5007223947094612
  0.2469538393357685  0.2477921985300422  0.4961476626366068
  0.3756789047457427  0.3692007884334773  0.5140366339323094
  0.4979735673967339  0.2475362146006486  0.4995733179309322
  0.6248286605952450  0.3741223752563416  0.5021245795956126
  0.7487325216500417  0.2489228861754697  0.4978218039396562
  0.8740896990202810  0.3739274531402937  0.4942320868541152
 -0.0002853846493453  0.4982841212386263  0.4963073810931123
  0.1231253061655262  0.6262621828424489  0.4989966843854119
  0.2469919702955501  0.5015631491179692  0.5189466751284344
  0.3761210951952291  0.6274226816238254  0.5242488353115240
  0.5020176211617610  0.5009726731545310  0.5223852805208423
  0.6278688346208726  0.6256524530481938  0.5028034407785221
  0.7509959759590145  0.4996931557810238  0.4956846267433543
  0.8759815281650616  0.6226808489772897  0.4950010175697747
  0.9999540112663967  0.7493199895320628  0.4968334927270136
  0.1258608923714239  0.8758224473129671  0.4959029165811792
  0.2477240097911702  0.7551611395016210  0.5019747298377712
  0.3768269559929431  0.8750529742237362  0.5012709816036248
  0.5037057541518012  0.7527383195830767  0.5035432549645977
  0.6276054561457324  0.8760210969320692  0.4969972417316528
  0.7523812914811466  0.7491361512805226  0.4989517652472182
  0.8761234427405213  0.8746355408792227  0.4966876958008812
  0.1229907392235131  1.0004481412045467  0.4107665505393401
 -0.0004023046564127  0.1246122211892048  0.5805666156737073
  0.3760184072738180  0.9969147330507278  0.4124805267542138
  0.2495479694441605  0.1215384866523858  0.5781115079410306
  0.6281773079463269  1.0000562673206301  0.4143665583214629
  0.4984097187549761  0.1207281924162010  0.5811584204401712
  0.8733764519235363 -0.0005594832543347  0.4150649017384476
  0.7494311264561813  0.1241146045713580  0.5798992802536044
  0.1214841933884582  0.2513631642698271  0.4141508823572717
  0.9944528854303925  0.3738048573689232  0.5805778859393936
  0.3709756845185933  0.2537965053643170  0.4143312155444778
  0.2382596320831654  0.3611653383898554  0.5912719573535822
  0.6226402710734125  0.2514564074342087  0.4146045938525300
  0.5094125914621792  0.3616115885314174  0.5925263689157581
  0.8719377978242784  0.2468170831607474  0.4147355594978506
  0.7527951102262815  0.3738853576003893  0.5813329768461379
  0.1318769731424628  0.4991898744640667  0.4202158383624078
  0.9974852433339118  0.6233456934520687  0.5806873510015498
  0.3767896442104226  0.5026095603353008  0.4322637715432330
  0.2346807731867215  0.6409897653166684  0.5920414120617737
  0.6181795732827042  0.5007931193232767  0.4217630763861814
  0.5158792501431106  0.6404704658249359  0.5945197698114143
  0.8759537551226677  0.4964287551238967  0.4104531226878573
  0.7550061336036735  0.6237868645963793  0.5817740822563600
  0.1263669900154683  0.7486696852724097  0.4136593311209896
  1.0007700029416355  0.8745934666951034  0.5811207596490989
  0.3766223069583428  0.7410379312042555  0.4250076409256366
  0.2522524859814837  0.8812574671894489  0.5846353855005814
  0.6250504171009829  0.7479743933338403  0.4169182440776087
  0.5041521411553928  0.8801022439996604  0.5827891888388489
  0.8756806814336668  0.7497256270946622  0.4121024412559224
  0.7532966039969538  0.8763476074883616  0.5799595927201795
  0.3754828259692046  0.5099534830466153  0.5880205871183148
  0.3749534820931519  0.5174178238509095  0.6428337995657988
 
  0.00000000E+00  0.00000000E+00  0.00000000E+00
  0.00000000E+00  0.00000000E+00  0.00000000E+00
  0.00000000E+00  0.00000000E+00  0.00000000E+00
  0.00000000E+00  0.00000000E+00  0.00000000E+00
  0.00000000E+00  0.00000000E+00  0.00000000E+00
  0.00000000E+00  0.00000000E+00  0.00000000E+00
  0.00000000E+00  0.00000000E+00  0.00000000E+00
  0.00000000E+00  0.00000000E+00  0.00000000E+00
  0.00000000E+00  0.00000000E+00  0.00000000E+00
  0.00000000E+00  0.00000000E+00  0.00000000E+00
  0.00000000E+00  0.00000000E+00  0.00000000E+00
  0.00000000E+00  0.00000000E+00  0.00000000E+00
  0.00000000E+00  0.00000000E+00  0.00000000E+00
  0.00000000E+00  0.00000000E+00  0.00000000E+00
  0.00000000E+00  0.00000000E+00  0.00000000E+00
  0.00000000E+00  0.00000000E+00  0.00000000E+00
  0.00000000E+00  0.00000000E+00  0.00000000E+00
  0.00000000E+00  0.00000000E+00  0.00000000E+00
  0.00000000E+00  0.00000000E+00  0.00000000E+00
  0.00000000E+00  0.00000000E+00  0.00000000E+00
  0.00000000E+00  0.00000000E+00  0.00000000E+00
  0.00000000E+00  0.00000000E+00  0.00000000E+00
  0.00000000E+00  0.00000000E+00  0.00000000E+00
  0.00000000E+00  0.00000000E+00  0.00000000E+00
  0.00000000E+00  0.00000000E+00  0.00000000E+00
  0.00000000E+00  0.00000000E+00  0.00000000E+00
  0.00000000E+00  0.00000000E+00  0.00000000E+00
  0.00000000E+00  0.00000000E+00  0.00000000E+00
  0.00000000E+00  0.00000000E+00  0.00000000E+00
  0.00000000E+00  0.00000000E+00  0.00000000E+00
  0.00000000E+00  0.00000000E+00  0.00000000E+00
  0.00000000E+00  0.00000000E+00  0.00000000E+00
  0.00000000E+00  0.00000000E+00  0.00000000E+00
  0.00000000E+00  0.00000000E+00  0.00000000E+00
  0.00000000E+00  0.00000000E+00  0.00000000E+00
  0.00000000E+00  0.00000000E+00  0.00000000E+00
  0.00000000E+00  0.00000000E+00  0.00000000E+00
  0.00000000E+00  0.00000000E+00  0.00000000E+00
  0.00000000E+00  0.00000000E+00  0.00000000E+00
  0.00000000E+00  0.00000000E+00  0.00000000E+00
  0.00000000E+00  0.00000000E+00  0.00000000E+00
  0.00000000E+00  0.00000000E+00  0.00000000E+00
  0.00000000E+00  0.00000000E+00  0.00000000E+00
  0.00000000E+00  0.00000000E+00  0.00000000E+00
  0.00000000E+00  0.00000000E+00  0.00000000E+00
  0.00000000E+00  0.00000000E+00  0.00000000E+00
  0.00000000E+00  0.00000000E+00  0.00000000E+00
  0.00000000E+00  0.00000000E+00  0.00000000E+00
  0.00000000E+00  0.00000000E+00  0.00000000E+00
  0.00000000E+00  0.00000000E+00  0.00000000E+00
  0.00000000E+00  0.00000000E+00  0.00000000E+00
  0.00000000E+00  0.00000000E+00  0.00000000E+00
  0.00000000E+00  0.00000000E+00  0.00000000E+00
  0.00000000E+00  0.00000000E+00  0.00000000E+00
  0.00000000E+00  0.00000000E+00  0.00000000E+00
  0.00000000E+00  0.00000000E+00  0.00000000E+00
  0.00000000E+00  0.00000000E+00  0.00000000E+00
  0.00000000E+00  0.00000000E+00  0.00000000E+00
  0.00000000E+00  0.00000000E+00  0.00000000E+00
  0.00000000E+00  0.00000000E+00  0.00000000E+00
  0.00000000E+00  0.00000000E+00  0.00000000E+00
  0.00000000E+00  0.00000000E+00  0.00000000E+00
  0.00000000E+00  0.00000000E+00  0.00000000E+00
  0.00000000E+00  0.00000000E+00  0.00000000E+00
  0.00000000E+00  0.00000000E+00  0.00000000E+00
  0.00000000E+00  0.00000000E+00  0.00000000E+00
