 Tm2 Te6                                
   1.00000000000000     
     4.2991342939062767    0.0000000000000000    0.0000000000000000
     0.0000000000000000    4.2990100150132324    0.0000000000000000
     0.0000000000000000    0.0000000000000000   24.0167176458860041
   Tm   Te
     2     6
Direct
  0.4999998109704791  0.9999999253561640  0.5843665040077184
  0.0000001660012217  0.5000000805188591  0.4156335259890156
  0.9999999999669242  0.9999999566335518  0.3122617779918215
  0.5000000086734389  0.5000000083965475  0.6877382518174429
  0.9999999990816875  0.0000000151745354  0.6877376999039555
  0.5000000240632474  0.4999999745838295  0.3122623408236791
  0.5000000643924594  0.0000000010651391  0.4538657979163219
  0.9999999268505420  0.5000000382713736  0.5461341015500452
 
  0.00000000E+00  0.00000000E+00  0.00000000E+00
  0.00000000E+00  0.00000000E+00  0.00000000E+00
  0.00000000E+00  0.00000000E+00  0.00000000E+00
  0.00000000E+00  0.00000000E+00  0.00000000E+00
  0.00000000E+00  0.00000000E+00  0.00000000E+00
  0.00000000E+00  0.00000000E+00  0.00000000E+00
  0.00000000E+00  0.00000000E+00  0.00000000E+00
  0.00000000E+00  0.00000000E+00  0.00000000E+00
