CONTCAR\(2)                             
   1.00000000000000     
    12.9184999466000008    0.0000000000000000    0.0000000000000000
     0.0000000000000000   12.9184999466000008    0.0000000000000000
     0.0000000000000000    0.0000000000000000   24.0865993500000002
   Ho   Te
    18    54
Direct
  0.1666699889999990 -0.0000000000000000  0.5852839107338468
  0.0000000000000000  0.1666699889999990  0.4147160502661534
  0.5000000000000000  0.0000000000000000  0.5852839107338468
  0.3333300110000010  0.1666699889999990  0.4147160502661534
  0.8333299740000015  0.0000000000000000  0.5852839107338468
  0.6666699889999990  0.1666699889999990  0.4147160502661534
  0.1666699889999990  0.3333300110000010  0.5852839107338468
  0.0000000000000000  0.5000000000000000  0.4147160502661534
  0.5000000000000000  0.3333300110000010  0.5852839107338468
  0.3333300110000010  0.5000000000000000  0.4147160502661534
  0.8333299740000015  0.3333300110000010  0.5852839107338468
  0.6666699889999990  0.5000000000000000  0.4147160502661534
  0.1666699889999990  0.6666699889999990  0.5852839107338468
  0.0000000000000000  0.8333299740000015  0.4147160502661534
  0.5000000000000000  0.6666699889999990  0.5852839107338468
  0.3333300110000010  0.8333299740000015  0.4147160502661534
  0.8333299740000015  0.6666699889999990  0.5852839107338468
  0.6666699889999990  0.8333299740000015  0.4147160502661534
  0.0000000000000000 -0.0000000000000000  0.3117603925393468
  0.1666699889999990  0.1666699889999990  0.6882395884606483
  0.0000000000000000 -0.0000000000000000  0.6882395884606483
  0.1666699889999990  0.1666699889999990  0.3117603925393468
  0.1666699889999990  0.0000000000000000  0.4535775129905878
  0.0000000000000000  0.1666699889999990  0.5464224870094120
  0.3333300110000010  0.0000000000000000  0.3117603925393468
  0.5000000000000000  0.1666699889999990  0.6882395884606483
  0.3333300110000010 -0.0000000000000000  0.6882395884606483
  0.5000000000000000  0.1666699889999990  0.3117603925393468
  0.5000000000000000  0.0000000000000000  0.4535775129905878
  0.3333300110000010  0.1666699889999990  0.5464224870094120
  0.6666699889999990 -0.0000000000000000  0.3117603925393468
  0.8333299740000015  0.1666699889999990  0.6882395884606483
  0.6666699889999990  0.0000000000000000  0.6882395884606483
  0.8333299740000015  0.1666699889999990  0.3117603925393468
  0.8333299740000015 -0.0000000000000000  0.4535775129905878
  0.6666699889999990  0.1666699889999990  0.5464224870094120
  0.0000000000000000  0.3333300110000010  0.3117603925393468
  0.1666699889999990  0.5000000000000000  0.6882395884606483
  0.0000000000000000  0.3333300110000010  0.6882395884606483
  0.1666699889999990  0.5000000000000000  0.3117603925393468
  0.1666699889999990  0.3333300110000010  0.4535775129905878
  0.0000000000000000  0.5000000000000000  0.5464224870094120
  0.3333300110000010  0.3333300110000010  0.3117603925393468
  0.5000000000000000  0.5000000000000000  0.6882395884606483
  0.3333300110000010  0.3333300110000010  0.6882395884606483
  0.5000000000000000  0.5000000000000000  0.3117603925393468
  0.5000000000000000  0.3333300110000010  0.4535775129905878
  0.3333300110000010  0.5000000000000000  0.5464224870094120
  0.6666699889999990  0.3333300110000010  0.3117603925393468
  0.8333299740000015  0.5000000000000000  0.6882395884606483
  0.6666699889999990  0.3333300110000010  0.6882395884606483
  0.8333299740000015  0.5000000000000000  0.3117603925393468
  0.8333299740000015  0.3333300110000010  0.4535775129905878
  0.6666699889999990  0.5000000000000000  0.5464224870094120
  0.0000000000000000  0.6666699889999990  0.3117603925393468
  0.1666699889999990  0.8333299740000015  0.6882395884606483
  0.0000000000000000  0.6666699889999990  0.6882395884606483
  0.1666699889999990  0.8333299740000015  0.3117603925393468
  0.1666699889999990  0.6666699889999990  0.4535775129905878
  0.0000000000000000  0.8333299740000015  0.5464224870094120
  0.3333300110000010  0.6666699889999990  0.3117603925393468
  0.5000000000000000  0.8333299740000015  0.6882395884606483
  0.3333300110000010  0.6666699889999990  0.6882395884606483
  0.5000000000000000  0.8333299740000015  0.3117603925393468
  0.5000000000000000  0.6666699889999990  0.4535775129905878
  0.3333300110000010  0.8333299740000015  0.5464224870094120
  0.6666699889999990  0.6666699889999990  0.3117603925393468
  0.8333299740000015  0.8333299740000015  0.6882395884606483
  0.6666699889999990  0.6666699889999990  0.6882395884606483
  0.8333299740000015  0.8333299740000015  0.3117603925393468
  0.8333299740000015  0.6666699889999990  0.4535775129905878
  0.6666699889999990  0.8333299740000015  0.5464224870094120
 
  0.00000000E+00  0.00000000E+00  0.00000000E+00
  0.00000000E+00  0.00000000E+00  0.00000000E+00
  0.00000000E+00  0.00000000E+00  0.00000000E+00
  0.00000000E+00  0.00000000E+00  0.00000000E+00
  0.00000000E+00  0.00000000E+00  0.00000000E+00
  0.00000000E+00  0.00000000E+00  0.00000000E+00
  0.00000000E+00  0.00000000E+00  0.00000000E+00
  0.00000000E+00  0.00000000E+00  0.00000000E+00
  0.00000000E+00  0.00000000E+00  0.00000000E+00
  0.00000000E+00  0.00000000E+00  0.00000000E+00
  0.00000000E+00  0.00000000E+00  0.00000000E+00
  0.00000000E+00  0.00000000E+00  0.00000000E+00
  0.00000000E+00  0.00000000E+00  0.00000000E+00
  0.00000000E+00  0.00000000E+00  0.00000000E+00
  0.00000000E+00  0.00000000E+00  0.00000000E+00
  0.00000000E+00  0.00000000E+00  0.00000000E+00
  0.00000000E+00  0.00000000E+00  0.00000000E+00
  0.00000000E+00  0.00000000E+00  0.00000000E+00
  0.00000000E+00  0.00000000E+00  0.00000000E+00
  0.00000000E+00  0.00000000E+00  0.00000000E+00
  0.00000000E+00  0.00000000E+00  0.00000000E+00
  0.00000000E+00  0.00000000E+00  0.00000000E+00
  0.00000000E+00  0.00000000E+00  0.00000000E+00
  0.00000000E+00  0.00000000E+00  0.00000000E+00
  0.00000000E+00  0.00000000E+00  0.00000000E+00
  0.00000000E+00  0.00000000E+00  0.00000000E+00
  0.00000000E+00  0.00000000E+00  0.00000000E+00
  0.00000000E+00  0.00000000E+00  0.00000000E+00
  0.00000000E+00  0.00000000E+00  0.00000000E+00
  0.00000000E+00  0.00000000E+00  0.00000000E+00
  0.00000000E+00  0.00000000E+00  0.00000000E+00
  0.00000000E+00  0.00000000E+00  0.00000000E+00
  0.00000000E+00  0.00000000E+00  0.00000000E+00
  0.00000000E+00  0.00000000E+00  0.00000000E+00
  0.00000000E+00  0.00000000E+00  0.00000000E+00
  0.00000000E+00  0.00000000E+00  0.00000000E+00
  0.00000000E+00  0.00000000E+00  0.00000000E+00
  0.00000000E+00  0.00000000E+00  0.00000000E+00
  0.00000000E+00  0.00000000E+00  0.00000000E+00
  0.00000000E+00  0.00000000E+00  0.00000000E+00
  0.00000000E+00  0.00000000E+00  0.00000000E+00
  0.00000000E+00  0.00000000E+00  0.00000000E+00
  0.00000000E+00  0.00000000E+00  0.00000000E+00
  0.00000000E+00  0.00000000E+00  0.00000000E+00
  0.00000000E+00  0.00000000E+00  0.00000000E+00
  0.00000000E+00  0.00000000E+00  0.00000000E+00
  0.00000000E+00  0.00000000E+00  0.00000000E+00
  0.00000000E+00  0.00000000E+00  0.00000000E+00
  0.00000000E+00  0.00000000E+00  0.00000000E+00
  0.00000000E+00  0.00000000E+00  0.00000000E+00
  0.00000000E+00  0.00000000E+00  0.00000000E+00
  0.00000000E+00  0.00000000E+00  0.00000000E+00
  0.00000000E+00  0.00000000E+00  0.00000000E+00
  0.00000000E+00  0.00000000E+00  0.00000000E+00
  0.00000000E+00  0.00000000E+00  0.00000000E+00
  0.00000000E+00  0.00000000E+00  0.00000000E+00
  0.00000000E+00  0.00000000E+00  0.00000000E+00
  0.00000000E+00  0.00000000E+00  0.00000000E+00
  0.00000000E+00  0.00000000E+00  0.00000000E+00
  0.00000000E+00  0.00000000E+00  0.00000000E+00
  0.00000000E+00  0.00000000E+00  0.00000000E+00
  0.00000000E+00  0.00000000E+00  0.00000000E+00
  0.00000000E+00  0.00000000E+00  0.00000000E+00
  0.00000000E+00  0.00000000E+00  0.00000000E+00
  0.00000000E+00  0.00000000E+00  0.00000000E+00
  0.00000000E+00  0.00000000E+00  0.00000000E+00
  0.00000000E+00  0.00000000E+00  0.00000000E+00
  0.00000000E+00  0.00000000E+00  0.00000000E+00
  0.00000000E+00  0.00000000E+00  0.00000000E+00
  0.00000000E+00  0.00000000E+00  0.00000000E+00
  0.00000000E+00  0.00000000E+00  0.00000000E+00
  0.00000000E+00  0.00000000E+00  0.00000000E+00
