CONTCAR\(11)                            
   1.00000000000000     
    13.2923002242999999    0.0000000000000000    0.0000000000000000
     6.5701190447000002   11.5675693128999999    0.0000000000000000
     0.0000000000000000    0.0000000000000000   18.3850994109999988
   Nb   Ir   S    O    H 
    12     4    32     1     1
Direct
  0.2499765232602849  0.0202615647333853  0.5068427751544503
  0.4924753842966612  0.0252579837189507  0.5019675058874131
  0.4756612344773924  0.2644116122571578  0.5017264611893258
  0.7402386881258854  0.0274078675156667  0.4987377914468739
  0.9810311957372988  0.0102936195007279  0.5070051153056674
  0.9760748217095486  0.2482831948780105  0.5117346975203577
  0.2330181422581751  0.5252075598734214  0.5010890436573862
  0.4771607767481039  0.5022410883226428  0.5011540175324791
  0.4816854005666248  0.7412247414993656  0.5013038804175308
  0.7558527595631878  0.5168165976514449  0.5023838126791788
 -0.0067736618921144  0.5207828351645366  0.5028526804919171
  0.9731281623773645  0.7644102505691298  0.5041022265838172
  0.2653004934099453  0.2327541235911648  0.5056415977567570
  0.7665640259486911  0.2299262805436449  0.4931739602495023
  0.2651656255332656  0.7322770864607715  0.5022766743898712
  0.7660530457360112  0.7348564766888984  0.5038638219155378
  0.3333917249639207  0.0838912034517580  0.4138735063742042
  0.0740426717580621  0.0926189092942384  0.4257469841746726
  0.0872527891966464  0.3278475663104484  0.4374953574874419
  0.3154678307761354  0.3400773097757899  0.4207690306857860
  0.1611451566163645  0.1784870507926503  0.5891547265437670
  0.4182014869768467  0.1683810107344504  0.5958269965386498
  0.3999631919300060  0.4247874840481417  0.5897667766787448
  0.1702141665365304  0.4088342047045993  0.5773467636134159
  0.8397092762331375  0.0765246598518282  0.4072655450332365
  0.5743544039834336  0.0973291562005046  0.4135450393214958
  0.5839683393602570  0.3314384558329665  0.4229169919423874
  0.8278901134753140  0.3367223600710800  0.4202234758055571
  0.6637737401489436  0.1819273186678230  0.5820330414357461
  0.9272823639963911  0.1552463456875094  0.6072017410026037
  0.9090253786053898  0.4272279666919248  0.5876704342976129
  0.6722724719778187  0.4049465764672205  0.5664761679710141
  0.3284789493821760  0.5847569403637868  0.4092231408787966
  0.0712044498860649  0.6006328709347548  0.4144807757015542
  0.0892815460307842  0.8325592044555693  0.4314407649849840
  0.3199703309716208  0.8401711997603162  0.4219859546938642
  0.1577168447528901  0.6801588659644748  0.5855576892487135
  0.4167480525377217  0.6592109540146179  0.5934601086639467
  0.4124675181529812  0.9219347017746760  0.5832968118911542
  0.1712643625841605  0.9063375361238880  0.5747790930195403
  0.8362574216112250  0.5854448054966731  0.4113126681954471
  0.5772714629909542  0.5860995689929799  0.4202145896748682
  0.5883021703568586  0.8303449422545944  0.4350033489854809
  0.8185110111383067  0.8408125948338678  0.4195445621496062
  0.6600564026477597  0.6767782869555874  0.5842563343222135
  0.9163189402064940  0.6686781847079096  0.5957954997052617
  0.8974453370659480  0.9268424816824226  0.5905661489258154
  0.6696203906818785  0.9114548309050534  0.5742594915048034
  0.0249083166070683  0.1135243470748074  0.6787889300812997
  0.0292378230035904  0.0436979881521761  0.6997655002882913
 
  0.00000000E+00  0.00000000E+00  0.00000000E+00
  0.00000000E+00  0.00000000E+00  0.00000000E+00
  0.00000000E+00  0.00000000E+00  0.00000000E+00
  0.00000000E+00  0.00000000E+00  0.00000000E+00
  0.00000000E+00  0.00000000E+00  0.00000000E+00
  0.00000000E+00  0.00000000E+00  0.00000000E+00
  0.00000000E+00  0.00000000E+00  0.00000000E+00
  0.00000000E+00  0.00000000E+00  0.00000000E+00
  0.00000000E+00  0.00000000E+00  0.00000000E+00
  0.00000000E+00  0.00000000E+00  0.00000000E+00
  0.00000000E+00  0.00000000E+00  0.00000000E+00
  0.00000000E+00  0.00000000E+00  0.00000000E+00
  0.00000000E+00  0.00000000E+00  0.00000000E+00
  0.00000000E+00  0.00000000E+00  0.00000000E+00
  0.00000000E+00  0.00000000E+00  0.00000000E+00
  0.00000000E+00  0.00000000E+00  0.00000000E+00
  0.00000000E+00  0.00000000E+00  0.00000000E+00
  0.00000000E+00  0.00000000E+00  0.00000000E+00
  0.00000000E+00  0.00000000E+00  0.00000000E+00
  0.00000000E+00  0.00000000E+00  0.00000000E+00
  0.00000000E+00  0.00000000E+00  0.00000000E+00
  0.00000000E+00  0.00000000E+00  0.00000000E+00
  0.00000000E+00  0.00000000E+00  0.00000000E+00
  0.00000000E+00  0.00000000E+00  0.00000000E+00
  0.00000000E+00  0.00000000E+00  0.00000000E+00
  0.00000000E+00  0.00000000E+00  0.00000000E+00
  0.00000000E+00  0.00000000E+00  0.00000000E+00
  0.00000000E+00  0.00000000E+00  0.00000000E+00
  0.00000000E+00  0.00000000E+00  0.00000000E+00
  0.00000000E+00  0.00000000E+00  0.00000000E+00
  0.00000000E+00  0.00000000E+00  0.00000000E+00
  0.00000000E+00  0.00000000E+00  0.00000000E+00
  0.00000000E+00  0.00000000E+00  0.00000000E+00
  0.00000000E+00  0.00000000E+00  0.00000000E+00
  0.00000000E+00  0.00000000E+00  0.00000000E+00
  0.00000000E+00  0.00000000E+00  0.00000000E+00
  0.00000000E+00  0.00000000E+00  0.00000000E+00
  0.00000000E+00  0.00000000E+00  0.00000000E+00
  0.00000000E+00  0.00000000E+00  0.00000000E+00
  0.00000000E+00  0.00000000E+00  0.00000000E+00
  0.00000000E+00  0.00000000E+00  0.00000000E+00
  0.00000000E+00  0.00000000E+00  0.00000000E+00
  0.00000000E+00  0.00000000E+00  0.00000000E+00
  0.00000000E+00  0.00000000E+00  0.00000000E+00
  0.00000000E+00  0.00000000E+00  0.00000000E+00
  0.00000000E+00  0.00000000E+00  0.00000000E+00
  0.00000000E+00  0.00000000E+00  0.00000000E+00
  0.00000000E+00  0.00000000E+00  0.00000000E+00
  0.00000000E+00  0.00000000E+00  0.00000000E+00
  0.00000000E+00  0.00000000E+00  0.00000000E+00
