CONTCAR\(6)                             
   1.00000000000000     
    13.2834997176999998    0.0000000000000000    0.0000000000000000
     0.0000000000000000   13.2517004013000008    0.0000000000000000
     0.0000000000000000    0.0000000000000000   28.4766006470000015
   Bi   I 
    48    12
Direct
  0.0000000000000000  0.9407027265469310  0.5987491389259745
  0.0000000000000000  0.0592872694530726  0.4012608070740313
  0.1666699989999998  0.7947900964532622  0.3579079267725689
  0.1666699989999998  0.3387296110362357  0.4419193936527108
  0.0000000000000000  0.1635829491995082  0.5697787816191777
  0.0000000000000000  0.6131741968044437  0.4876870233356740
  0.0000000000000000  0.8364270898004875  0.4302212183808223
  0.0000000000000000  0.5219211614156478  0.3122580261263153
  0.1666699989999998  0.1142977163089611  0.4703336230425137
  0.1666699989999998  0.6612804279637601  0.5580705933472885
  0.0000000000000000  0.3868358061955561  0.5123029636643253
  0.1666699989999998  0.8857022746910346  0.5296664109574891
  0.1666699989999998  0.2052099035467378  0.6420921062274303
  0.1666699989999998  0.4284788934014543  0.6161265740870192
  0.1666699989999998  0.5715210705985498  0.3838734589129800
  0.0000000000000000  0.4780688705843517  0.6877519208736871
  0.3333300190000017  0.9407027265469310  0.5987491389259745
  0.3333300190000017  0.0592872694530726  0.4012608070740313
  0.5000000000000000  0.7947900964532622  0.3579079267725689
  0.5000000000000000  0.3387296110362357  0.4419193936527108
  0.3333300190000017  0.1635829491995082  0.5697787816191777
  0.3333300190000017  0.6131741968044437  0.4876870233356740
  0.3333300190000017  0.8364270898004875  0.4302212183808223
  0.3333300190000017  0.5219211614156478  0.3122580261263153
  0.5000000000000000  0.1142977163089611  0.4703336230425137
  0.5000000000000000  0.6612804279637601  0.5580705933472885
  0.3333300190000017  0.3868358061955561  0.5123029636643253
  0.5000000000000000  0.8857022746910346  0.5296664109574891
  0.5000000000000000  0.2052099035467378  0.6420921062274303
  0.5000000000000000  0.4284788934014543  0.6161265740870192
  0.5000000000000000  0.5715210705985498  0.3838734589129800
  0.3333300190000017  0.4780688705843517  0.6877519208736871
  0.6666700170000013  0.9407027265469310  0.5987491389259745
  0.6666700170000013  0.0592872694530726  0.4012608070740313
  0.8333299470000028  0.7947900964532622  0.3579079267725689
  0.8333299470000028  0.3387296110362357  0.4419193936527108
  0.6666700170000013  0.1635829491995082  0.5697787816191777
  0.6666700170000013  0.6131741968044437  0.4876870233356740
  0.6666700170000013  0.8364270898004875  0.4302212183808223
  0.6666700170000013  0.5219211614156478  0.3122580261263153
  0.8333299470000028  0.1142977163089611  0.4703336230425137
  0.8333299470000028  0.6612804279637601  0.5580705933472885
  0.6666700170000013  0.3868358061955561  0.5123029636643253
  0.8333299470000028  0.8857022746910346  0.5296664109574891
  0.8333299470000028  0.2052099035467378  0.6420921062274303
  0.8333299470000028  0.4284788934014543  0.6161265740870192
  0.8333299470000028  0.5715210705985498  0.3838734589129800
  0.6666700170000013  0.4780688705843517  0.6877519208736871
  0.0000000000000000  0.2662953777221801  0.7337603957857652
  0.0000000000000000  0.7336845982778186  0.2662396042142348
  0.0000000000000000  0.2960018106698072  0.3427155733478884
  0.0000000000000000  0.7039981533301898  0.6572944066521131
  0.3333300190000017  0.2662953777221801  0.7337603957857652
  0.3333300190000017  0.7336845982778186  0.2662396042142348
  0.3333300190000017  0.2960018106698072  0.3427155733478884
  0.3333300190000017  0.7039981533301898  0.6572944066521131
  0.6666700170000013  0.2662953777221801  0.7337603957857652
  0.6666700170000013  0.7336845982778186  0.2662396042142348
  0.6666700170000013  0.2960018106698072  0.3427155733478884
  0.6666700170000013  0.7039981533301898  0.6572944066521131
 
  0.00000000E+00  0.00000000E+00  0.00000000E+00
  0.00000000E+00  0.00000000E+00  0.00000000E+00
  0.00000000E+00  0.00000000E+00  0.00000000E+00
  0.00000000E+00  0.00000000E+00  0.00000000E+00
  0.00000000E+00  0.00000000E+00  0.00000000E+00
  0.00000000E+00  0.00000000E+00  0.00000000E+00
  0.00000000E+00  0.00000000E+00  0.00000000E+00
  0.00000000E+00  0.00000000E+00  0.00000000E+00
  0.00000000E+00  0.00000000E+00  0.00000000E+00
  0.00000000E+00  0.00000000E+00  0.00000000E+00
  0.00000000E+00  0.00000000E+00  0.00000000E+00
  0.00000000E+00  0.00000000E+00  0.00000000E+00
  0.00000000E+00  0.00000000E+00  0.00000000E+00
  0.00000000E+00  0.00000000E+00  0.00000000E+00
  0.00000000E+00  0.00000000E+00  0.00000000E+00
  0.00000000E+00  0.00000000E+00  0.00000000E+00
  0.00000000E+00  0.00000000E+00  0.00000000E+00
  0.00000000E+00  0.00000000E+00  0.00000000E+00
  0.00000000E+00  0.00000000E+00  0.00000000E+00
  0.00000000E+00  0.00000000E+00  0.00000000E+00
  0.00000000E+00  0.00000000E+00  0.00000000E+00
  0.00000000E+00  0.00000000E+00  0.00000000E+00
  0.00000000E+00  0.00000000E+00  0.00000000E+00
  0.00000000E+00  0.00000000E+00  0.00000000E+00
  0.00000000E+00  0.00000000E+00  0.00000000E+00
  0.00000000E+00  0.00000000E+00  0.00000000E+00
  0.00000000E+00  0.00000000E+00  0.00000000E+00
  0.00000000E+00  0.00000000E+00  0.00000000E+00
  0.00000000E+00  0.00000000E+00  0.00000000E+00
  0.00000000E+00  0.00000000E+00  0.00000000E+00
  0.00000000E+00  0.00000000E+00  0.00000000E+00
  0.00000000E+00  0.00000000E+00  0.00000000E+00
  0.00000000E+00  0.00000000E+00  0.00000000E+00
  0.00000000E+00  0.00000000E+00  0.00000000E+00
  0.00000000E+00  0.00000000E+00  0.00000000E+00
  0.00000000E+00  0.00000000E+00  0.00000000E+00
  0.00000000E+00  0.00000000E+00  0.00000000E+00
  0.00000000E+00  0.00000000E+00  0.00000000E+00
  0.00000000E+00  0.00000000E+00  0.00000000E+00
  0.00000000E+00  0.00000000E+00  0.00000000E+00
  0.00000000E+00  0.00000000E+00  0.00000000E+00
  0.00000000E+00  0.00000000E+00  0.00000000E+00
  0.00000000E+00  0.00000000E+00  0.00000000E+00
  0.00000000E+00  0.00000000E+00  0.00000000E+00
  0.00000000E+00  0.00000000E+00  0.00000000E+00
  0.00000000E+00  0.00000000E+00  0.00000000E+00
  0.00000000E+00  0.00000000E+00  0.00000000E+00
  0.00000000E+00  0.00000000E+00  0.00000000E+00
  0.00000000E+00  0.00000000E+00  0.00000000E+00
  0.00000000E+00  0.00000000E+00  0.00000000E+00
  0.00000000E+00  0.00000000E+00  0.00000000E+00
  0.00000000E+00  0.00000000E+00  0.00000000E+00
  0.00000000E+00  0.00000000E+00  0.00000000E+00
  0.00000000E+00  0.00000000E+00  0.00000000E+00
  0.00000000E+00  0.00000000E+00  0.00000000E+00
  0.00000000E+00  0.00000000E+00  0.00000000E+00
  0.00000000E+00  0.00000000E+00  0.00000000E+00
  0.00000000E+00  0.00000000E+00  0.00000000E+00
  0.00000000E+00  0.00000000E+00  0.00000000E+00
  0.00000000E+00  0.00000000E+00  0.00000000E+00
