CONTCAR\(5)                             
   1.00000000000000     
    12.8863000870000004    0.0000000000000000    0.0000000000000000
     6.4431192937999997   11.1597653626000000    0.0000000000000000
     0.0000000000000000    0.0000000000000000   25.6977996825999995
   In   Te   O 
    27    36     1
Direct
  0.0012920959302963  0.9984594010849512  0.5003967726300048
  0.1136493805777418  0.1136667010716349  0.3505771056601065
  0.2199341358353940  0.2282096226490507  0.6514404313731881
  0.3448259424361199 -0.0019977018405818  0.4963718028309153
  0.4464116185581689  0.1150651148808261  0.3495014256377384
  0.5553067690513632  0.2247716707560570  0.6514290527547830
  0.6680276253828921  0.0010395046810099  0.5012117703917378
  0.7807172888581633  0.1109540743492599  0.3518716551562634
  0.9159409052852722  0.2134234474030482  0.6364841326711006
  0.0046116468693799  0.3298109504679297  0.4997739048186920
  0.1090830649590690  0.4485811387555991  0.3503157873092562
  0.2301885393177890  0.5569059288058754  0.6499812315951031
  0.3319604937989366  0.3360214287238283  0.5004619113437496
  0.4456397636299722  0.4463790112751199  0.3507989409771399
  0.5640073996396076  0.5684426673546575  0.6450341662078510
  0.6652327174210294  0.3340897239451888  0.5000346544518094
  0.7796333308346511  0.4452741502183528  0.3509839849823723
  0.8928872149887445  0.5649337730890677  0.6510992107903631
  0.9999039144027442  0.6665715768340488  0.5007313657388212
  0.1098550645439317  0.7800882807811125  0.3518677046397145
  0.2230766263322626  0.8869028114812342  0.6567856805905912
  0.3338849661125924  0.6664107003259984  0.5005400787019572
  0.4440665433544015  0.7786701165809716  0.3508396846235665
  0.5510065170695202  0.8986422121256550  0.6509054207573871
  0.6683736774844303  0.6677095848299966  0.4996663439321276
  0.7758294495868182  0.7806738143196328  0.3491622761027529
  0.8906229694989558  0.8919182111389569  0.6503220291032218
  0.0025069896778449  0.0016037567103156  0.2940196222070518
  0.9887670164532389  0.0158497933009796  0.7080971788001778
  0.1242008997378869  0.1001948130618779  0.5680438295405721
  0.2239033610576260  0.2197457270466773  0.4307081534613953
  0.3362182004695817  0.0011529493965550  0.2934133999540022
  0.3310878745816982  0.0076410944003856  0.7095534016718933
  0.4467982655532253  0.1100563629897199  0.5698365726338340
  0.5540414421487200  0.2205108299930320  0.4316717473032943
  0.6685427732783785  0.0034627150317293  0.2923747245729965
  0.6686865007885312  0.0024924615170304  0.7081544429571618
  0.7771180882499036  0.1134247934872012  0.5705687613671532
  0.8882010172172842  0.2201951361166878  0.4324705471683640
  0.0005514099746645  0.3349571281837185  0.2926369632147932
  0.9904190273093089  0.3397244126177847  0.7062307967416825
  0.1093152673767080  0.4418857524725248  0.5692633672596976
  0.2206086321002441  0.5552092508683781  0.4313760431585806
  0.3317945666927233  0.3379020094297303  0.2931870551530052
  0.3305083362500331  0.3370778081964653  0.7086977797264228
  0.4402335070584550  0.4436735894754178  0.5684091134686967
  0.5551656746896938  0.5547148889711793  0.4315379154313284
  0.6685408652257224  0.3333399404678647  0.2940567723678337
  0.6367380199480965  0.3601428080368991  0.7137079710131106
  0.7772871556510427  0.4419661080195528  0.5686045623319208
  0.8924929324716480  0.5500660571100454  0.4310009788425224
  0.9987077719043079  0.6703813117511791  0.2929079851004258
  0.0080943965153218  0.6705749501437253  0.7082066388823558
  0.1103443416880958  0.7761583221598787  0.5690920640826410
  0.2257383241175790  0.8869795163419837  0.4320105876886141
  0.3315970582517385  0.6691510130594860  0.2936939624613977
  0.3472379450272747  0.6577667541195793  0.7096996365374040
  0.4488330084075440  0.7752952156938314  0.5685916057761649
  0.5647365462571045  0.8841378122210674  0.4302531737907303
  0.6661136752449409  0.6668424749762027  0.2930591494184036
  0.6703865675906260  0.6760130393364583  0.7079371254773291
  0.7801846027703405  0.7758273587599532  0.5693109039172449
  0.8913864526324333  0.8868815001361897  0.4315126749231298
  0.4824930278702407  0.4608823083101983  0.7454837858243764
 
  0.00000000E+00  0.00000000E+00  0.00000000E+00
  0.00000000E+00  0.00000000E+00  0.00000000E+00
  0.00000000E+00  0.00000000E+00  0.00000000E+00
  0.00000000E+00  0.00000000E+00  0.00000000E+00
  0.00000000E+00  0.00000000E+00  0.00000000E+00
  0.00000000E+00  0.00000000E+00  0.00000000E+00
  0.00000000E+00  0.00000000E+00  0.00000000E+00
  0.00000000E+00  0.00000000E+00  0.00000000E+00
  0.00000000E+00  0.00000000E+00  0.00000000E+00
  0.00000000E+00  0.00000000E+00  0.00000000E+00
  0.00000000E+00  0.00000000E+00  0.00000000E+00
  0.00000000E+00  0.00000000E+00  0.00000000E+00
  0.00000000E+00  0.00000000E+00  0.00000000E+00
  0.00000000E+00  0.00000000E+00  0.00000000E+00
  0.00000000E+00  0.00000000E+00  0.00000000E+00
  0.00000000E+00  0.00000000E+00  0.00000000E+00
  0.00000000E+00  0.00000000E+00  0.00000000E+00
  0.00000000E+00  0.00000000E+00  0.00000000E+00
  0.00000000E+00  0.00000000E+00  0.00000000E+00
  0.00000000E+00  0.00000000E+00  0.00000000E+00
  0.00000000E+00  0.00000000E+00  0.00000000E+00
  0.00000000E+00  0.00000000E+00  0.00000000E+00
  0.00000000E+00  0.00000000E+00  0.00000000E+00
  0.00000000E+00  0.00000000E+00  0.00000000E+00
  0.00000000E+00  0.00000000E+00  0.00000000E+00
  0.00000000E+00  0.00000000E+00  0.00000000E+00
  0.00000000E+00  0.00000000E+00  0.00000000E+00
  0.00000000E+00  0.00000000E+00  0.00000000E+00
  0.00000000E+00  0.00000000E+00  0.00000000E+00
  0.00000000E+00  0.00000000E+00  0.00000000E+00
  0.00000000E+00  0.00000000E+00  0.00000000E+00
  0.00000000E+00  0.00000000E+00  0.00000000E+00
  0.00000000E+00  0.00000000E+00  0.00000000E+00
  0.00000000E+00  0.00000000E+00  0.00000000E+00
  0.00000000E+00  0.00000000E+00  0.00000000E+00
  0.00000000E+00  0.00000000E+00  0.00000000E+00
  0.00000000E+00  0.00000000E+00  0.00000000E+00
  0.00000000E+00  0.00000000E+00  0.00000000E+00
  0.00000000E+00  0.00000000E+00  0.00000000E+00
  0.00000000E+00  0.00000000E+00  0.00000000E+00
  0.00000000E+00  0.00000000E+00  0.00000000E+00
  0.00000000E+00  0.00000000E+00  0.00000000E+00
  0.00000000E+00  0.00000000E+00  0.00000000E+00
  0.00000000E+00  0.00000000E+00  0.00000000E+00
  0.00000000E+00  0.00000000E+00  0.00000000E+00
  0.00000000E+00  0.00000000E+00  0.00000000E+00
  0.00000000E+00  0.00000000E+00  0.00000000E+00
  0.00000000E+00  0.00000000E+00  0.00000000E+00
  0.00000000E+00  0.00000000E+00  0.00000000E+00
  0.00000000E+00  0.00000000E+00  0.00000000E+00
  0.00000000E+00  0.00000000E+00  0.00000000E+00
  0.00000000E+00  0.00000000E+00  0.00000000E+00
  0.00000000E+00  0.00000000E+00  0.00000000E+00
  0.00000000E+00  0.00000000E+00  0.00000000E+00
  0.00000000E+00  0.00000000E+00  0.00000000E+00
  0.00000000E+00  0.00000000E+00  0.00000000E+00
  0.00000000E+00  0.00000000E+00  0.00000000E+00
  0.00000000E+00  0.00000000E+00  0.00000000E+00
  0.00000000E+00  0.00000000E+00  0.00000000E+00
  0.00000000E+00  0.00000000E+00  0.00000000E+00
  0.00000000E+00  0.00000000E+00  0.00000000E+00
  0.00000000E+00  0.00000000E+00  0.00000000E+00
  0.00000000E+00  0.00000000E+00  0.00000000E+00
  0.00000000E+00  0.00000000E+00  0.00000000E+00
