 Sr2 Cu1 I2 O2                          
   1.00000000000000     
     4.0053845149145326    0.0000000000000000    0.0000000000000000
     0.0000000000000000    4.0053825866794694    0.0000000000000000
     0.0000000000000000    0.0000000000000000   21.8733913938550053
   Sr   Cu   I    O 
     2     1     2     2
Direct
  0.0000000630910506  0.0000000475414339  0.5767120182388794
  0.9999999542744860  0.9999999802025172  0.4231946779364222
  0.4999999449157286  0.4999999510585766  0.4999508734430194
  0.4999999848139112  0.4999999697451258  0.3417833004367239
  0.5000000232835617  0.5000000033262069  0.6581346405179431
  0.9999999941191362  0.5000000078873796  0.4999508868920230
  0.5000000355021186  0.0000000402387599  0.4999509007847038
 
  0.00000000E+00  0.00000000E+00  0.00000000E+00
  0.00000000E+00  0.00000000E+00  0.00000000E+00
  0.00000000E+00  0.00000000E+00  0.00000000E+00
  0.00000000E+00  0.00000000E+00  0.00000000E+00
  0.00000000E+00  0.00000000E+00  0.00000000E+00
  0.00000000E+00  0.00000000E+00  0.00000000E+00
  0.00000000E+00  0.00000000E+00  0.00000000E+00
