Repeated-UnitCell:     2    1    1      
   1.00000000000000     
    15.7592818194080575    0.0000000000000000    0.0000000000000000
     0.0000000000000000    7.8758371737296367    0.0000000000000000
     0.0000000000000000    0.0000000000000000   17.5345995325560011
   Fe   S 
    16    20
Direct
  0.4435930970777934  0.2681524856956849  0.4962576174281855
  0.9435930970777932  0.2681524856956849  0.4962576174281855
  0.3898240100078451  0.5713331910390781  0.4964085818850789
  0.8898240100078453  0.5713331910390781  0.4964085818850789
  0.3450965949040079  0.8757031336699531  0.5042073583881822
  0.8450965949040079  0.8757031336699531  0.5042073583881822
  0.2913796797684194  0.1788272574607540  0.5041635349242903
  0.7913796797684194  0.1788272574607540  0.5041635349242903
  0.0413826112958495  0.6788199658945552  0.4964593783374884
  0.5413826112958494  0.6788199658945552  0.4964593783374884
  0.0950965558592232  0.3757005298302287  0.4963815340508264
  0.5950965558592233  0.3757005298302287  0.4963815340508264
  0.1398569592681646  0.0713122125720210  0.5042842441507110
  0.6398569592681645  0.0713122125720210  0.5042842441507110
  0.1935459278809188  0.7681157890236320  0.5043024038323565
  0.6935459278809191  0.7681157890236320  0.5043024038323565
  0.4924344410377219  0.4734234315384211  0.5671890443999370
  0.9924344410377217  0.4734234315384211  0.5671890443999370
  0.3921987129024547  0.0815320186337435  0.5720516866501389
  0.8921987129024547  0.0815320186337435  0.5720516866501389
  0.3427888016502519  0.3656526121218850  0.4284228663106623
  0.8427888016502521  0.3656526121218850  0.4284228663106623
  0.2964411078434321  0.6740720359994585  0.5721371075561854
  0.7964411078434321  0.6740720359994585  0.5721371075561854
  0.2424335506528332  0.9734124743237021  0.4334492448082540
  0.7424335506528332  0.9734124743237021  0.4334492448082540
  0.0464987861296157  0.1739144273248470  0.4285062137396660
  0.5464987861296157  0.1739144273248470  0.4285062137396660
  0.0928309130869175  0.8656140283361546  0.5722158967122647
  0.5928309130869176  0.8656140283361546  0.5722158967122647
  0.1421041909235365  0.5815646729725906  0.4284836605704374
  0.6421041909235364  0.5815646729725906  0.4284836605704374
  0.1885530134374823  0.2730650603998390  0.5720682029513322
  0.6885530134374822  0.2730650603998390  0.5720682029513322
  0.4385250876217060  0.7729426731634460  0.4285401362513478
  0.9385250876217058  0.7729426731634460  0.4285401362513478
 
  0.00000000E+00  0.00000000E+00  0.00000000E+00
  0.00000000E+00  0.00000000E+00  0.00000000E+00
  0.00000000E+00  0.00000000E+00  0.00000000E+00
  0.00000000E+00  0.00000000E+00  0.00000000E+00
  0.00000000E+00  0.00000000E+00  0.00000000E+00
  0.00000000E+00  0.00000000E+00  0.00000000E+00
  0.00000000E+00  0.00000000E+00  0.00000000E+00
  0.00000000E+00  0.00000000E+00  0.00000000E+00
  0.00000000E+00  0.00000000E+00  0.00000000E+00
  0.00000000E+00  0.00000000E+00  0.00000000E+00
  0.00000000E+00  0.00000000E+00  0.00000000E+00
  0.00000000E+00  0.00000000E+00  0.00000000E+00
  0.00000000E+00  0.00000000E+00  0.00000000E+00
  0.00000000E+00  0.00000000E+00  0.00000000E+00
  0.00000000E+00  0.00000000E+00  0.00000000E+00
  0.00000000E+00  0.00000000E+00  0.00000000E+00
  0.00000000E+00  0.00000000E+00  0.00000000E+00
  0.00000000E+00  0.00000000E+00  0.00000000E+00
  0.00000000E+00  0.00000000E+00  0.00000000E+00
  0.00000000E+00  0.00000000E+00  0.00000000E+00
  0.00000000E+00  0.00000000E+00  0.00000000E+00
  0.00000000E+00  0.00000000E+00  0.00000000E+00
  0.00000000E+00  0.00000000E+00  0.00000000E+00
  0.00000000E+00  0.00000000E+00  0.00000000E+00
  0.00000000E+00  0.00000000E+00  0.00000000E+00
  0.00000000E+00  0.00000000E+00  0.00000000E+00
  0.00000000E+00  0.00000000E+00  0.00000000E+00
  0.00000000E+00  0.00000000E+00  0.00000000E+00
  0.00000000E+00  0.00000000E+00  0.00000000E+00
  0.00000000E+00  0.00000000E+00  0.00000000E+00
  0.00000000E+00  0.00000000E+00  0.00000000E+00
  0.00000000E+00  0.00000000E+00  0.00000000E+00
  0.00000000E+00  0.00000000E+00  0.00000000E+00
  0.00000000E+00  0.00000000E+00  0.00000000E+00
  0.00000000E+00  0.00000000E+00  0.00000000E+00
  0.00000000E+00  0.00000000E+00  0.00000000E+00
