CONTCAR\(10)                            
   1.00000000000000     
    10.9488000870000004    0.0000000000000000    0.0000000000000000
     0.0000000000000000   10.9488000870000004    0.0000000000000000
     0.0000000000000000    0.0000000000000000   22.0405998230000009
   Zr   Si   Te   O    H 
    18    18    18     2     1
Direct
  0.1610816688964904  0.0025775204200868  0.5977968972232246
  0.9947919936629745  0.1689614152754110  0.4043876862209062
  0.4942301348835585  0.0026076644256989  0.5979549182642927
  0.3275397982439840  0.1689705828653635  0.4043853807377196
  0.8278421461359040  0.0023530103619320  0.5979090716328194
  0.6612036174323602  0.1687436620560083  0.4045546170810698
  0.1609506368978771  0.3356076303005792  0.5980609303510052
  0.9949801031636014  0.5024520973419708  0.4045971963325312
  0.4905097449102683  0.3317013910690896  0.5969665756568874
  0.3274125756512902  0.5025359470946675  0.4045315954806080
  0.8316839973449870  0.3314583669307640  0.5970061875541707
  0.6612122493206740  0.5024324435032262  0.4053274357249590
  0.1607240357627048  0.6696375841094806  0.5979858861333980
  0.9947576847196424  0.8362019792573074  0.4043040675526251
  0.4902723857366714  0.6733690524799302  0.5968245468348438
  0.3276467182712931  0.8361552711851430  0.4043374824866524
  0.8316089523075417  0.6733565214655262  0.5969866844676046
  0.6611593986774594  0.8362936907373173  0.4044856940827694
  0.1609352266088618  0.1686278071844422  0.5013555550064316
  0.9949935339593612  0.0025731283561254  0.5012944439337554
  0.4942525699200565  0.1682210625967201  0.5009164504913487
  0.3270031905030725  0.0026255560724260  0.5013552301614005
  0.8278426831948853  0.1681330463305142  0.5008409298905127
  0.6610332463894868  0.0025914448506464  0.5011214049911671
  0.1610506805029464  0.5026381295695769  0.5012431413127751
  0.9954511760592560  0.3358297320655964  0.5009214671310758
  0.4936894616836553  0.5025531928339746  0.5014845654820936
  0.3267024882248799  0.3358439574348043  0.5009581079855717
  0.8281426939132854  0.5024950256651903  0.5015570438829657
  0.6610332686242828  0.3352079120711969  0.5015793367286546
  0.1609171177565689  0.8366268010507754  0.5013172285573978
  0.9952407721666821  0.6694306984064672  0.5008465732039710
  0.4943225919385949  0.8370827273681181  0.5007694095277528
  0.3266672542729788  0.6694607824339124  0.5009017278675642
  0.8277241502835542  0.8369074835447142  0.5007891827282513
  0.6609188662368616  0.6698564126797986  0.5014210117904506
  0.9952677194753382  0.1680226393433308  0.6623005615873991
  0.1613073280416069  0.0025618588149772  0.3409164696148487
  0.3269379272052728  0.1684503096624290  0.6624375790123297
  0.4945105604380107  0.0025990757654400  0.3408327199539682
  0.6612608846346856  0.1693407812599178  0.6620561151764447
  0.8279887822922855  0.0025097594840574  0.3408443132539082
  0.9935488383389977  0.5025906249904576  0.6623087017605102
  0.1612709335113258  0.3359361811292868  0.3408903209179513
  0.3282256523149220  0.5027868145475896  0.6624684027701354
  0.4947988810072565  0.3359568438431084  0.3416656532392348
  0.6611089518814063  0.5027380680333371  0.6466031405439635
  0.8278019106861878  0.3359852418001790  0.3416658539830221
  0.9950679352065399  0.8367972389095928  0.6624701825882531
  0.1613169769477021  0.6692110558085154  0.3408712079832483
  0.3266588025834129  0.8367210542625867  0.6623484173108507
  0.4948025903997932  0.6688095315305522  0.3416312944275124
  0.6608958693500330  0.8351691911459966  0.6623109693565900
  0.8277706323350797  0.6688424109098268  0.3416925385287947
  0.5799495638778884  0.4118438434078437  0.7675471885528925
  0.6551476012004857  0.5087038690133240  0.7436624829240837
  0.4996628620131768  0.4521128599431677  0.7704500770229030
 
  0.00000000E+00  0.00000000E+00  0.00000000E+00
  0.00000000E+00  0.00000000E+00  0.00000000E+00
  0.00000000E+00  0.00000000E+00  0.00000000E+00
  0.00000000E+00  0.00000000E+00  0.00000000E+00
  0.00000000E+00  0.00000000E+00  0.00000000E+00
  0.00000000E+00  0.00000000E+00  0.00000000E+00
  0.00000000E+00  0.00000000E+00  0.00000000E+00
  0.00000000E+00  0.00000000E+00  0.00000000E+00
  0.00000000E+00  0.00000000E+00  0.00000000E+00
  0.00000000E+00  0.00000000E+00  0.00000000E+00
  0.00000000E+00  0.00000000E+00  0.00000000E+00
  0.00000000E+00  0.00000000E+00  0.00000000E+00
  0.00000000E+00  0.00000000E+00  0.00000000E+00
  0.00000000E+00  0.00000000E+00  0.00000000E+00
  0.00000000E+00  0.00000000E+00  0.00000000E+00
  0.00000000E+00  0.00000000E+00  0.00000000E+00
  0.00000000E+00  0.00000000E+00  0.00000000E+00
  0.00000000E+00  0.00000000E+00  0.00000000E+00
  0.00000000E+00  0.00000000E+00  0.00000000E+00
  0.00000000E+00  0.00000000E+00  0.00000000E+00
  0.00000000E+00  0.00000000E+00  0.00000000E+00
  0.00000000E+00  0.00000000E+00  0.00000000E+00
  0.00000000E+00  0.00000000E+00  0.00000000E+00
  0.00000000E+00  0.00000000E+00  0.00000000E+00
  0.00000000E+00  0.00000000E+00  0.00000000E+00
  0.00000000E+00  0.00000000E+00  0.00000000E+00
  0.00000000E+00  0.00000000E+00  0.00000000E+00
  0.00000000E+00  0.00000000E+00  0.00000000E+00
  0.00000000E+00  0.00000000E+00  0.00000000E+00
  0.00000000E+00  0.00000000E+00  0.00000000E+00
  0.00000000E+00  0.00000000E+00  0.00000000E+00
  0.00000000E+00  0.00000000E+00  0.00000000E+00
  0.00000000E+00  0.00000000E+00  0.00000000E+00
  0.00000000E+00  0.00000000E+00  0.00000000E+00
  0.00000000E+00  0.00000000E+00  0.00000000E+00
  0.00000000E+00  0.00000000E+00  0.00000000E+00
  0.00000000E+00  0.00000000E+00  0.00000000E+00
  0.00000000E+00  0.00000000E+00  0.00000000E+00
  0.00000000E+00  0.00000000E+00  0.00000000E+00
  0.00000000E+00  0.00000000E+00  0.00000000E+00
  0.00000000E+00  0.00000000E+00  0.00000000E+00
  0.00000000E+00  0.00000000E+00  0.00000000E+00
  0.00000000E+00  0.00000000E+00  0.00000000E+00
  0.00000000E+00  0.00000000E+00  0.00000000E+00
  0.00000000E+00  0.00000000E+00  0.00000000E+00
  0.00000000E+00  0.00000000E+00  0.00000000E+00
  0.00000000E+00  0.00000000E+00  0.00000000E+00
  0.00000000E+00  0.00000000E+00  0.00000000E+00
  0.00000000E+00  0.00000000E+00  0.00000000E+00
  0.00000000E+00  0.00000000E+00  0.00000000E+00
  0.00000000E+00  0.00000000E+00  0.00000000E+00
  0.00000000E+00  0.00000000E+00  0.00000000E+00
  0.00000000E+00  0.00000000E+00  0.00000000E+00
  0.00000000E+00  0.00000000E+00  0.00000000E+00
  0.00000000E+00  0.00000000E+00  0.00000000E+00
  0.00000000E+00  0.00000000E+00  0.00000000E+00
  0.00000000E+00  0.00000000E+00  0.00000000E+00
