CONTCAR\(2)                             
   1.00000000000000     
    12.4127998351999995    0.0000000000000000    0.0000000000000000
     0.0000000000000000   15.8149003983000007    0.0000000000000000
     0.0000000000000000    0.0000000000000000   19.7098007202000005
   Nb   Ni   Te   O 
    16    16    32     1
Direct
  0.1270084507641155  0.4796565571543456  0.4984223360952212
  0.3783111480759887  0.0221697748080829  0.5013451710909351
  0.3785017970094710  0.2274949981728664  0.5013718588922398
  0.1268208102728338  0.2735724583811796  0.5028742667713365
  0.6268658258228532  0.4774352957668749  0.4987315602425355
  0.8772966336185591  0.0226797673926854  0.5014646248859610
  0.8765790390784819  0.2276499526672533  0.5007552094707222
  0.6259844697580357  0.2718319580459792  0.5017544145523741
  0.1271789467385738  0.9769769933643400  0.5025936886075060
  0.3696683306458286  0.5195911228537131  0.4993770293559944
  0.3695765278929399  0.7299655688841946  0.4997591010992328
  0.1260728522482482  0.7706846836554905  0.4995514782556274
  0.6258119839116636  0.9778185689004312  0.5018282598195952
  0.8740207773329643  0.5220739642145498  0.4991235699725224
  0.8732682639130357  0.7282657335807072  0.4986808186095273
  0.6267882837330206  0.7722269895652152  0.4984658299855575
  0.3043799977393157  0.3741877590101616  0.5438660048562530
  0.2000290327798165  0.1251976648454553  0.5456859118511811
  0.4482020683033907  0.3745103327724037  0.4557754611192086
  0.0561421202130262  0.1252073012960106  0.4580802963729781
  0.8048904811561897  0.3754054414786285  0.5449036215203017
  0.6995560210584379  0.1248936054428830  0.5448364802886653
  0.9483293927966566  0.3742602898847353  0.4576896939412395
  0.5561823169390081  0.1248516601068395  0.4569681857213214
  0.3041824728336586  0.8755234977970255  0.5440483483819684
  0.1933174989394418  0.6250718387583634  0.5388839147907368
  0.4479181056555988  0.8751688859349909  0.4558184138891995
  0.0506228868161834  0.6250885481811974  0.4519493203911171
  0.8047450529539388  0.8748070026267111  0.5448815785065952
  0.6952632765007157  0.6248717523545619  0.5443254937559135
  0.9482129328226079  0.8760690837418844  0.4578538167788707
  0.5516392610306835  0.6248466225936857  0.4568551549767819
  0.2509073300060697  0.3743903931287046  0.4148497523359190
  0.2535931836964288  0.1248376519467824  0.4168398283421099
  0.2545498880340289  0.5101194578712407  0.6227688482165691
  0.2537599895128611  0.2505880140949751  0.6209657892743445
  0.0040964308472491  0.3795471653393941  0.5862036929646834
  0.5031561846833783  0.1247455176432441  0.5867505382796085
  0.0040715590363260  0.0005804682695947  0.3828911590170500
  0.5030156982700366  0.2493358332509714  0.3818706542852230
  0.7513226545319751  0.3728319105925360  0.4155649660627730
  0.7540188743961505  0.1245654570001255  0.4159846212771385
  0.7498907472959818  0.5006351652104277  0.6188969602727441
  0.7533533609729142  0.2504397198963297  0.6200341316305022
  0.5011306522964685  0.3764706198570871  0.5851157870034154
  0.0021219319820745  0.1259115115905070  0.5865466448172838
  0.5028618498989359  0.0002064787286929  0.3819009198118222
  0.0042205485213717  0.2496540886318893  0.3827431500828116
  0.2505530417733087  0.8748777374074557  0.4152079683474277
  0.2501126991468797  0.6248241045904036  0.4123963755067878
  0.2537821165096351  0.9995535758052781  0.6209149036729917
  0.2547878147900883  0.7397957538394366  0.6231314917758002
  0.0038383940288570  0.8722993241975316  0.5866006796479608
  0.4960777681108286  0.6244159533384218  0.5836186791897805
  0.0009666938158622  0.4972414925486746  0.3805549947808058
  0.4994708748603601  0.7489977945450483  0.3810631616791335
  0.7511389213611993  0.8768801166831299  0.4155384808151429
  0.7488526459006264  0.6247441530407086  0.4143132037182213
  0.7530779778741425  0.9995807148643748  0.6202507755395011
  0.7493929396541870  0.7494962424534173  0.6186891751198691
  0.5009952339754509  0.8728797111875344  0.5850717544183212
  0.9986736910095825  0.6258757552311719  0.5832278326915089
  0.5003869272933156  0.5005048566440976  0.3810081152159793
  0.0012755222146074  0.7531536617233353  0.3808376823402752
  0.2758387873434731  0.6247837156140513  0.6758758560173053
 
  0.00000000E+00  0.00000000E+00  0.00000000E+00
  0.00000000E+00  0.00000000E+00  0.00000000E+00
  0.00000000E+00  0.00000000E+00  0.00000000E+00
  0.00000000E+00  0.00000000E+00  0.00000000E+00
  0.00000000E+00  0.00000000E+00  0.00000000E+00
  0.00000000E+00  0.00000000E+00  0.00000000E+00
  0.00000000E+00  0.00000000E+00  0.00000000E+00
  0.00000000E+00  0.00000000E+00  0.00000000E+00
  0.00000000E+00  0.00000000E+00  0.00000000E+00
  0.00000000E+00  0.00000000E+00  0.00000000E+00
  0.00000000E+00  0.00000000E+00  0.00000000E+00
  0.00000000E+00  0.00000000E+00  0.00000000E+00
  0.00000000E+00  0.00000000E+00  0.00000000E+00
  0.00000000E+00  0.00000000E+00  0.00000000E+00
  0.00000000E+00  0.00000000E+00  0.00000000E+00
  0.00000000E+00  0.00000000E+00  0.00000000E+00
  0.00000000E+00  0.00000000E+00  0.00000000E+00
  0.00000000E+00  0.00000000E+00  0.00000000E+00
  0.00000000E+00  0.00000000E+00  0.00000000E+00
  0.00000000E+00  0.00000000E+00  0.00000000E+00
  0.00000000E+00  0.00000000E+00  0.00000000E+00
  0.00000000E+00  0.00000000E+00  0.00000000E+00
  0.00000000E+00  0.00000000E+00  0.00000000E+00
  0.00000000E+00  0.00000000E+00  0.00000000E+00
  0.00000000E+00  0.00000000E+00  0.00000000E+00
  0.00000000E+00  0.00000000E+00  0.00000000E+00
  0.00000000E+00  0.00000000E+00  0.00000000E+00
  0.00000000E+00  0.00000000E+00  0.00000000E+00
  0.00000000E+00  0.00000000E+00  0.00000000E+00
  0.00000000E+00  0.00000000E+00  0.00000000E+00
  0.00000000E+00  0.00000000E+00  0.00000000E+00
  0.00000000E+00  0.00000000E+00  0.00000000E+00
  0.00000000E+00  0.00000000E+00  0.00000000E+00
  0.00000000E+00  0.00000000E+00  0.00000000E+00
  0.00000000E+00  0.00000000E+00  0.00000000E+00
  0.00000000E+00  0.00000000E+00  0.00000000E+00
  0.00000000E+00  0.00000000E+00  0.00000000E+00
  0.00000000E+00  0.00000000E+00  0.00000000E+00
  0.00000000E+00  0.00000000E+00  0.00000000E+00
  0.00000000E+00  0.00000000E+00  0.00000000E+00
  0.00000000E+00  0.00000000E+00  0.00000000E+00
  0.00000000E+00  0.00000000E+00  0.00000000E+00
  0.00000000E+00  0.00000000E+00  0.00000000E+00
  0.00000000E+00  0.00000000E+00  0.00000000E+00
  0.00000000E+00  0.00000000E+00  0.00000000E+00
  0.00000000E+00  0.00000000E+00  0.00000000E+00
  0.00000000E+00  0.00000000E+00  0.00000000E+00
  0.00000000E+00  0.00000000E+00  0.00000000E+00
  0.00000000E+00  0.00000000E+00  0.00000000E+00
  0.00000000E+00  0.00000000E+00  0.00000000E+00
  0.00000000E+00  0.00000000E+00  0.00000000E+00
  0.00000000E+00  0.00000000E+00  0.00000000E+00
  0.00000000E+00  0.00000000E+00  0.00000000E+00
  0.00000000E+00  0.00000000E+00  0.00000000E+00
  0.00000000E+00  0.00000000E+00  0.00000000E+00
  0.00000000E+00  0.00000000E+00  0.00000000E+00
  0.00000000E+00  0.00000000E+00  0.00000000E+00
  0.00000000E+00  0.00000000E+00  0.00000000E+00
  0.00000000E+00  0.00000000E+00  0.00000000E+00
  0.00000000E+00  0.00000000E+00  0.00000000E+00
  0.00000000E+00  0.00000000E+00  0.00000000E+00
  0.00000000E+00  0.00000000E+00  0.00000000E+00
  0.00000000E+00  0.00000000E+00  0.00000000E+00
  0.00000000E+00  0.00000000E+00  0.00000000E+00
  0.00000000E+00  0.00000000E+00  0.00000000E+00
