CONTCAR                                 
   1.00000000000000     
    13.2014999389999996    0.0000000000000000    0.0000000000000000
     0.0000000000000000   13.2058000564999993    0.0000000000000000
     0.0000000000000000    0.0000000000000000   24.5515995025999985
   La   Te   O    H 
    18    54     2     1
Selective dynamics
Direct
  0.1643818372666814  0.1692267739618032  0.5894065639475699   F   F   F
  0.9994155516839101  0.0033162547752283  0.4135988804593111   F   F   F
  0.5010661030386316  0.1618357570975775  0.5850814617469879   F   F   F
  0.3320392331722886  0.0024164164943627  0.4129618061642120   F   F   F
  0.8315544970544266  0.1696296567036910  0.5883176211042169   F   F   F
  0.6662922623540339  0.0022779165793025  0.4125262885721526   F   F   F
  0.1642486606819986  0.5033296563845440  0.5892939822595622   F   F   F
  0.9992838465705560  0.3362345246960743  0.4137459806275317   F   F   F
  0.5015353050935332  0.5103616274712408  0.5851066118687953   F   F   F
  0.3330525220442411  0.3361301792894906  0.4134298280048370   F   F   F
  0.8319281894905828  0.5024901539491680  0.5882455598616403   F   F   F
  0.6659878599623994  0.3361476243022992  0.4131078558518482   F   F   F
  0.1623262025404770  0.8363406096972668  0.5886877792185814   F   F   F
  0.9994202361346183  0.6691320509975185  0.4135405993728654   F   F   F
  0.4968489010908854  0.8361942499121398  0.5877410522833770   F   F   F
  0.3321253740564387  0.6698685809981271  0.4129774133199788   F   F   F
  0.8316225153302454  0.8362121888179388  0.5881395146403605   F   F   F
  0.6663051325078726  0.6699312334930312  0.4125270987422525   F   F   F
  0.1655225788079449  0.0030087104039040  0.3073765691736909   F   F   F
  0.9976479647593877  0.1697652087734198  0.6952850198683436   F   F   F
  0.1663655513740494  0.0019605408972083  0.6958681713513997   F   F   F
  0.9997893943893814  0.1702378984696011  0.3075650099834704   F   F   F
  0.1668868766501390  0.1706143911562563  0.4526121034236965   F   F   F
  0.9982064124952075  0.0034769401879871  0.5503681144550328   F   F   F
  0.4991579807243411  0.0029876233517285  0.3066836495126353   F   F   F
  0.3276664985100055  0.1633405623509248  0.6953188911825308   F   F   F
  0.5010674831495123  0.0011036596477823  0.6936017309276608   F   F   F
  0.3328902831954252  0.1695471743404724  0.3072240634090377   F   F   F
  0.4991401431274909  0.1688165681941527  0.4506153010408340   F   F   F
  0.3300490972196926  0.0014438304963136  0.5498466517800580   F   F   F
  0.8329541098993261  0.0026781678149845  0.3070970033810170   F   F   F
  0.6648404744892247  0.1710382706651856  0.6929839815891867   F   F   F
  0.8330602254489037  0.0025722988376984  0.6953139023320603   F   F   F
  0.6661044241112748  0.1691680950711358  0.3069653523829601   F   F   F
  0.8320898004100243  0.1696903000532899  0.4517190089752958   F   F   F
  0.6670563306236872  0.0006042531470527  0.5490306322526664   F   F   F
  0.1663903614813762  0.3360459406950653  0.3077293195339763   F   F   F
  0.9991022683218134  0.5018403306892907  0.6951195095451581   F   F   F
  0.1561623931060510  0.3362649074188226  0.6959058448062905   F   F   F
  0.9993296980840114  0.5028216608247504  0.3074610776211344   F   F   F
  0.1669254301899912  0.5017765245995562  0.4525972547138011   F   F   F
  0.9983062632324859  0.3360919427156190  0.5506121144380174   F   F   F
  0.4987848605446175  0.3365542342962868  0.3072616281816494   F   F   F
  0.3287937366998079  0.5081200588557309  0.6945701182895192   F   F   F
  0.4768933315190083  0.3372237258156616  0.6827024753546098   F   F   F
  0.3324803485902166  0.5025524453331087  0.3073479749602299   F   F   F
  0.4990550396118323  0.5035078145132630  0.4505958478313232   F   F   F
  0.3363657892603769  0.3362909414124715  0.5544830881519900   F   F   F
  0.8328033969346009  0.3358246723058116  0.3074690075105622   F   F   F
  0.6666686386012941  0.5033883088504396  0.6927802681793551   F   F   F
  0.8226821724185100  0.3355159302013391  0.6947070727533173   F   F   F
  0.6658619718915944  0.5028383425517546  0.3069225134702762   F   F   F
  0.8320169394819175  0.5027321613398783  0.4517428797083340   F   F   F
  0.6632194894309364  0.3360050611125587  0.5503118987730105   F   F   F
  0.1658205840645053  0.6691345785681690  0.3073631219811190   F   F   F
  0.9881803340050794  0.8362026118388854  0.6954267476725349   F   F   F
  0.1646029235128950  0.6726589133062504  0.6959925381663083   F   F   F
  0.9990688273566164  0.8365653274516234  0.3074556557385719   F   F   F
  0.1651726885504345  0.8360804027818460  0.4516432904681409   F   F   F
  0.9982133753076283  0.6689882843180612  0.5503095310298249   F   F   F
  0.4995784929329048  0.6700474264119975  0.3066711617853031   F   F   F
  0.3253692084041617  0.8357857577274928  0.6950148810590804   F   F   F
  0.5002261643733803  0.6710461666475567  0.6934923711725958   F   F   F
  0.3323657148342178  0.8359401090158585  0.3068229972123575   F   F   F
  0.4989012197943481  0.8361925722958787  0.4510614103095065   F   F   F
  0.3300059345952207  0.6707089782682729  0.5498466585297095   F   F   F
  0.8331137145129830  0.6692805545629028  0.3069757362751204   F   F   F
  0.6599618793748974  0.8370395661581966  0.6942382578162025   F   F   F
  0.8327529673336116  0.6695321206597598  0.6950807231347369   F   F   F
  0.6661173151942279  0.8359747054345945  0.3065585809980860   F   F   F
  0.8331593287289323  0.8361069665317373  0.4512349948331007   F   F   F
  0.6671713494868712  0.6721143780852472  0.5490134332780485   F   F   F
  0.4300359802227618  0.3315503624870360  0.8005940402523137   T   T   T
  0.5158201852462909  0.3521449194820292  0.7660739274166559   T   T   T
  0.3969398393087360  0.3984407769553542  0.8017178948228370   T   T   T
 
  0.00000000E+00  0.00000000E+00  0.00000000E+00
  0.00000000E+00  0.00000000E+00  0.00000000E+00
  0.00000000E+00  0.00000000E+00  0.00000000E+00
  0.00000000E+00  0.00000000E+00  0.00000000E+00
  0.00000000E+00  0.00000000E+00  0.00000000E+00
  0.00000000E+00  0.00000000E+00  0.00000000E+00
  0.00000000E+00  0.00000000E+00  0.00000000E+00
  0.00000000E+00  0.00000000E+00  0.00000000E+00
  0.00000000E+00  0.00000000E+00  0.00000000E+00
  0.00000000E+00  0.00000000E+00  0.00000000E+00
  0.00000000E+00  0.00000000E+00  0.00000000E+00
  0.00000000E+00  0.00000000E+00  0.00000000E+00
  0.00000000E+00  0.00000000E+00  0.00000000E+00
  0.00000000E+00  0.00000000E+00  0.00000000E+00
  0.00000000E+00  0.00000000E+00  0.00000000E+00
  0.00000000E+00  0.00000000E+00  0.00000000E+00
  0.00000000E+00  0.00000000E+00  0.00000000E+00
  0.00000000E+00  0.00000000E+00  0.00000000E+00
  0.00000000E+00  0.00000000E+00  0.00000000E+00
  0.00000000E+00  0.00000000E+00  0.00000000E+00
  0.00000000E+00  0.00000000E+00  0.00000000E+00
  0.00000000E+00  0.00000000E+00  0.00000000E+00
  0.00000000E+00  0.00000000E+00  0.00000000E+00
  0.00000000E+00  0.00000000E+00  0.00000000E+00
  0.00000000E+00  0.00000000E+00  0.00000000E+00
  0.00000000E+00  0.00000000E+00  0.00000000E+00
  0.00000000E+00  0.00000000E+00  0.00000000E+00
  0.00000000E+00  0.00000000E+00  0.00000000E+00
  0.00000000E+00  0.00000000E+00  0.00000000E+00
  0.00000000E+00  0.00000000E+00  0.00000000E+00
  0.00000000E+00  0.00000000E+00  0.00000000E+00
  0.00000000E+00  0.00000000E+00  0.00000000E+00
  0.00000000E+00  0.00000000E+00  0.00000000E+00
  0.00000000E+00  0.00000000E+00  0.00000000E+00
  0.00000000E+00  0.00000000E+00  0.00000000E+00
  0.00000000E+00  0.00000000E+00  0.00000000E+00
  0.00000000E+00  0.00000000E+00  0.00000000E+00
  0.00000000E+00  0.00000000E+00  0.00000000E+00
  0.00000000E+00  0.00000000E+00  0.00000000E+00
  0.00000000E+00  0.00000000E+00  0.00000000E+00
  0.00000000E+00  0.00000000E+00  0.00000000E+00
  0.00000000E+00  0.00000000E+00  0.00000000E+00
  0.00000000E+00  0.00000000E+00  0.00000000E+00
  0.00000000E+00  0.00000000E+00  0.00000000E+00
  0.00000000E+00  0.00000000E+00  0.00000000E+00
  0.00000000E+00  0.00000000E+00  0.00000000E+00
  0.00000000E+00  0.00000000E+00  0.00000000E+00
  0.00000000E+00  0.00000000E+00  0.00000000E+00
  0.00000000E+00  0.00000000E+00  0.00000000E+00
  0.00000000E+00  0.00000000E+00  0.00000000E+00
  0.00000000E+00  0.00000000E+00  0.00000000E+00
  0.00000000E+00  0.00000000E+00  0.00000000E+00
  0.00000000E+00  0.00000000E+00  0.00000000E+00
  0.00000000E+00  0.00000000E+00  0.00000000E+00
  0.00000000E+00  0.00000000E+00  0.00000000E+00
  0.00000000E+00  0.00000000E+00  0.00000000E+00
  0.00000000E+00  0.00000000E+00  0.00000000E+00
  0.00000000E+00  0.00000000E+00  0.00000000E+00
  0.00000000E+00  0.00000000E+00  0.00000000E+00
  0.00000000E+00  0.00000000E+00  0.00000000E+00
  0.00000000E+00  0.00000000E+00  0.00000000E+00
  0.00000000E+00  0.00000000E+00  0.00000000E+00
  0.00000000E+00  0.00000000E+00  0.00000000E+00
  0.00000000E+00  0.00000000E+00  0.00000000E+00
  0.00000000E+00  0.00000000E+00  0.00000000E+00
  0.00000000E+00  0.00000000E+00  0.00000000E+00
  0.00000000E+00  0.00000000E+00  0.00000000E+00
  0.00000000E+00  0.00000000E+00  0.00000000E+00
  0.00000000E+00  0.00000000E+00  0.00000000E+00
  0.00000000E+00  0.00000000E+00  0.00000000E+00
  0.00000000E+00  0.00000000E+00  0.00000000E+00
  0.00000000E+00  0.00000000E+00  0.00000000E+00
  0.00000000E+00  0.00000000E+00  0.00000000E+00
  0.00000000E+00  0.00000000E+00  0.00000000E+00
  0.00000000E+00  0.00000000E+00  0.00000000E+00
