CONTCAR\(2)                             
   1.00000000000000     
    13.5958003997999999    0.0000000000000000    0.0000000000000000
     0.0000000000000000   14.8882999419999997    0.0000000000000000
     0.0000000000000000    0.0000000000000000   20.6940002440999997
   Ti   S    O    H 
    24    72     2     1
Direct
  0.0623821288450299  0.0434077612267292  0.5640412560580408
  0.1873476125951453  0.2103208095346940  0.4340476333046572
  0.3122735634035266  0.0435478066700037  0.5642119240166541
  0.4373227966622961  0.2103734012042920  0.4341144703516779
  0.5622845648402127  0.0435851913684993  0.5641194027578565
  0.6873887906346554  0.2104506776429218  0.4340658178417697
  0.8123326702731726  0.0434536671697532  0.5639969922300395
  0.9373239608430465  0.2102998958763247  0.4340363370788808
  0.0618931048215865  0.3769121586840384  0.5642294056410196
  0.1866479190065210  0.5433924321022964  0.4338109703313009
  0.3116963797936715  0.3769474819084719  0.5641953335889479
  0.4366348093141820  0.5433752032993568  0.4339842165765390
  0.5620442892520811  0.3770896979419480  0.5643000944617067
  0.6867562805347529  0.5435069182981350  0.4340208831263761
  0.8119171322939390  0.3770364190396963  0.5642484446781523
  0.9366722618603125  0.5433157085683910  0.4338635376232789
  0.0614810954270008  0.7103007558948025  0.5637902162032811
  0.1869333539248365  0.8768986233230142  0.4336576834469814
  0.3108884656294388  0.7104316961912314  0.5637531802111356
  0.4369062701096557  0.8766973231566311  0.4338766635938024
  0.5624836883489345  0.7100360425578534  0.5636540620801010
  0.6870730027605627  0.8769252820463890  0.4336728246167766
  0.8118370612555534  0.7102523444409883  0.5639582619692695
  0.9369496065899969  0.8767430434991775  0.4337624127187039
  0.0622742589030096  0.1417041116996530  0.3612547431555245
  0.1872024725622180  0.1112509452120191  0.6375945703710446
  0.1874247875747076  0.0436815217531343  0.4779000478043151
  0.0622055847897486  0.2101797052955052  0.5202650199483757
  0.1867621111405317  0.3077767855006990  0.6365782495792690
  0.0626787427935429  0.2788274259830316  0.3611675953301224
  0.3123449604344467  0.1416918209607866  0.3613407380883750
  0.4373395245559573  0.1136006872097583  0.6357101227297627
  0.4372367512268679  0.0433148813282088  0.4779354575269792
  0.3122051418652882  0.2103884089451473  0.5203263027126857
  0.4367531512783179  0.3101943314074150  0.6385284041751909
  0.3127170445361657  0.2788015110197395  0.3611777208613811
  0.5621964942145088  0.1418637841977694  0.3612780231942053
  0.6873406978784433  0.1118255412241094  0.6370500789051704
  0.6873322157626629  0.0437197000084076  0.4778396413011849
  0.5623487726323250  0.2104469568503733  0.5203277876916435
  0.6869540617206986  0.3081273188343540  0.6368147589936299
  0.5625912659386076  0.2789823033715980  0.3612266083430629
  0.8122475867278368  0.1419953440561118  0.3611458419042519
  0.9372549382114883  0.1121815049035785  0.6365357634772553
  0.9372875456330607  0.0434053104649274  0.4778054731381522
  0.8123638054907445  0.2103378878054971  0.5202846434359731
  0.9368911723138539  0.3086687981602220  0.6372457191888888
  0.8125941759185420  0.2791170553886975  0.3613901312916985
  0.0615541176522702  0.4748508447386302  0.3607900453417655
  0.1869984928203210  0.4448852548653806  0.6376898558612847
  0.1868665148898850  0.3770081263662939  0.4779842142510601
  0.0616463733191972  0.5434475558087474  0.5200591607986323
  0.1859996850201291  0.6409839395038313  0.6358598580980438
  0.0616672877959534  0.6119512079093062  0.3611629752908261
  0.3115411178355442  0.4747217793806923  0.3610664637815317
  0.4367276689050616  0.4473579591270461  0.6356114626595838
  0.4369632429813923  0.3767788886356549  0.4781178484408378
  0.3115942097271086  0.5436124254923324  0.5201172377849304
  0.4357381418124546  0.6437227823532995  0.6394808885369634
  0.3116171040093153  0.6118653232945556  0.3609941348901187
  0.5615884885573859  0.4748325115811801  0.3613065200235734
  0.6868288270770834  0.4452535423614846  0.6375029585902069
  0.6869550964387985  0.3770329385634267  0.4780415013983037
  0.5618690926830997  0.5436503837454025  0.5202901342643508
  0.6867263030686250  0.6414514039527096  0.6366666484798984
  0.5616662528233666  0.6119400009137141  0.3611569247114030
  0.8113213836117456  0.4750669936962487  0.3608896142846467
  0.9369320566418186  0.4458014327762431  0.6368847355962116
  0.9369191874800863  0.3768542868579084  0.4780124660029688
  0.8118522642302461  0.5435237045153513  0.5201533418326285
  0.9367607290732779  0.6419960547742878  0.6369356200230342
  0.8114833061470969  0.6121469319788094  0.3612772616725117
  0.0620330080677272  0.8083731974559628  0.3607869936951157
  0.1867214338629497  0.7779508852512126  0.6373452235009441
  0.1866279052488505  0.7103358317005216  0.4775382618912354
  0.0619733460729834  0.8767523582585928  0.5199752051591070
  0.1875282619553280  0.9741892145176476  0.6363248162212047
  0.0618583132709002  0.9455176101755475  0.3610084306051097
  0.3121068109926027  0.8081830735167691  0.3609154056087807
  0.4372661517102013  0.7809843664630733  0.6338588986557194
  0.4367432355320955  0.7095730470874014  0.4779488196185476
  0.3116980579728606  0.8768086269431989  0.5199594504788007
  0.4374524814810724  0.9765020392575879  0.6383874540148624
  0.3119460531556419  0.9453228577304370  0.3609494159031527
  0.5618701208134680  0.8083490434418977  0.3608594602537395
  0.6866664164002190  0.7785890112779653  0.6369018322076668
  0.6868347356087352  0.7104773786262536  0.4776842497244776
  0.5621384935132304  0.8768504689572840  0.5199646640348004
  0.6875911288525329  0.9747219000524406  0.6366894618633830
  0.5617948596679085  0.9454787933385049  0.3610786165568922
  0.8120153283893802  0.8083671230460302  0.3607155364835069
  0.9365520112893018  0.7791036367241183  0.6364374519788598
  0.9365461244551956  0.7101100765418502  0.4776229598762847
  0.8118995739777679  0.8768169986583249  0.5199923575649493
  0.9376514774512197  0.9750946830821877  0.6370871205871628
  0.8119868349268671  0.9455013264929480  0.3610137724497182
  0.3231488651865932  0.6567278740742281  0.7778260720038559
  0.3121728950068596  0.7463200115136907  0.7744780903130160
  0.3608013534125714  0.6401482903953720  0.7376823924786190
 
  0.00000000E+00  0.00000000E+00  0.00000000E+00
  0.00000000E+00  0.00000000E+00  0.00000000E+00
  0.00000000E+00  0.00000000E+00  0.00000000E+00
  0.00000000E+00  0.00000000E+00  0.00000000E+00
  0.00000000E+00  0.00000000E+00  0.00000000E+00
  0.00000000E+00  0.00000000E+00  0.00000000E+00
  0.00000000E+00  0.00000000E+00  0.00000000E+00
  0.00000000E+00  0.00000000E+00  0.00000000E+00
  0.00000000E+00  0.00000000E+00  0.00000000E+00
  0.00000000E+00  0.00000000E+00  0.00000000E+00
  0.00000000E+00  0.00000000E+00  0.00000000E+00
  0.00000000E+00  0.00000000E+00  0.00000000E+00
  0.00000000E+00  0.00000000E+00  0.00000000E+00
  0.00000000E+00  0.00000000E+00  0.00000000E+00
  0.00000000E+00  0.00000000E+00  0.00000000E+00
  0.00000000E+00  0.00000000E+00  0.00000000E+00
  0.00000000E+00  0.00000000E+00  0.00000000E+00
  0.00000000E+00  0.00000000E+00  0.00000000E+00
  0.00000000E+00  0.00000000E+00  0.00000000E+00
  0.00000000E+00  0.00000000E+00  0.00000000E+00
  0.00000000E+00  0.00000000E+00  0.00000000E+00
  0.00000000E+00  0.00000000E+00  0.00000000E+00
  0.00000000E+00  0.00000000E+00  0.00000000E+00
  0.00000000E+00  0.00000000E+00  0.00000000E+00
  0.00000000E+00  0.00000000E+00  0.00000000E+00
  0.00000000E+00  0.00000000E+00  0.00000000E+00
  0.00000000E+00  0.00000000E+00  0.00000000E+00
  0.00000000E+00  0.00000000E+00  0.00000000E+00
  0.00000000E+00  0.00000000E+00  0.00000000E+00
  0.00000000E+00  0.00000000E+00  0.00000000E+00
  0.00000000E+00  0.00000000E+00  0.00000000E+00
  0.00000000E+00  0.00000000E+00  0.00000000E+00
  0.00000000E+00  0.00000000E+00  0.00000000E+00
  0.00000000E+00  0.00000000E+00  0.00000000E+00
  0.00000000E+00  0.00000000E+00  0.00000000E+00
  0.00000000E+00  0.00000000E+00  0.00000000E+00
  0.00000000E+00  0.00000000E+00  0.00000000E+00
  0.00000000E+00  0.00000000E+00  0.00000000E+00
  0.00000000E+00  0.00000000E+00  0.00000000E+00
  0.00000000E+00  0.00000000E+00  0.00000000E+00
  0.00000000E+00  0.00000000E+00  0.00000000E+00
  0.00000000E+00  0.00000000E+00  0.00000000E+00
  0.00000000E+00  0.00000000E+00  0.00000000E+00
  0.00000000E+00  0.00000000E+00  0.00000000E+00
  0.00000000E+00  0.00000000E+00  0.00000000E+00
  0.00000000E+00  0.00000000E+00  0.00000000E+00
  0.00000000E+00  0.00000000E+00  0.00000000E+00
  0.00000000E+00  0.00000000E+00  0.00000000E+00
  0.00000000E+00  0.00000000E+00  0.00000000E+00
  0.00000000E+00  0.00000000E+00  0.00000000E+00
  0.00000000E+00  0.00000000E+00  0.00000000E+00
  0.00000000E+00  0.00000000E+00  0.00000000E+00
  0.00000000E+00  0.00000000E+00  0.00000000E+00
  0.00000000E+00  0.00000000E+00  0.00000000E+00
  0.00000000E+00  0.00000000E+00  0.00000000E+00
  0.00000000E+00  0.00000000E+00  0.00000000E+00
  0.00000000E+00  0.00000000E+00  0.00000000E+00
  0.00000000E+00  0.00000000E+00  0.00000000E+00
  0.00000000E+00  0.00000000E+00  0.00000000E+00
  0.00000000E+00  0.00000000E+00  0.00000000E+00
  0.00000000E+00  0.00000000E+00  0.00000000E+00
  0.00000000E+00  0.00000000E+00  0.00000000E+00
  0.00000000E+00  0.00000000E+00  0.00000000E+00
  0.00000000E+00  0.00000000E+00  0.00000000E+00
  0.00000000E+00  0.00000000E+00  0.00000000E+00
  0.00000000E+00  0.00000000E+00  0.00000000E+00
  0.00000000E+00  0.00000000E+00  0.00000000E+00
  0.00000000E+00  0.00000000E+00  0.00000000E+00
  0.00000000E+00  0.00000000E+00  0.00000000E+00
  0.00000000E+00  0.00000000E+00  0.00000000E+00
  0.00000000E+00  0.00000000E+00  0.00000000E+00
  0.00000000E+00  0.00000000E+00  0.00000000E+00
  0.00000000E+00  0.00000000E+00  0.00000000E+00
  0.00000000E+00  0.00000000E+00  0.00000000E+00
  0.00000000E+00  0.00000000E+00  0.00000000E+00
  0.00000000E+00  0.00000000E+00  0.00000000E+00
  0.00000000E+00  0.00000000E+00  0.00000000E+00
  0.00000000E+00  0.00000000E+00  0.00000000E+00
  0.00000000E+00  0.00000000E+00  0.00000000E+00
  0.00000000E+00  0.00000000E+00  0.00000000E+00
  0.00000000E+00  0.00000000E+00  0.00000000E+00
  0.00000000E+00  0.00000000E+00  0.00000000E+00
  0.00000000E+00  0.00000000E+00  0.00000000E+00
  0.00000000E+00  0.00000000E+00  0.00000000E+00
  0.00000000E+00  0.00000000E+00  0.00000000E+00
  0.00000000E+00  0.00000000E+00  0.00000000E+00
  0.00000000E+00  0.00000000E+00  0.00000000E+00
  0.00000000E+00  0.00000000E+00  0.00000000E+00
  0.00000000E+00  0.00000000E+00  0.00000000E+00
  0.00000000E+00  0.00000000E+00  0.00000000E+00
  0.00000000E+00  0.00000000E+00  0.00000000E+00
  0.00000000E+00  0.00000000E+00  0.00000000E+00
  0.00000000E+00  0.00000000E+00  0.00000000E+00
  0.00000000E+00  0.00000000E+00  0.00000000E+00
  0.00000000E+00  0.00000000E+00  0.00000000E+00
  0.00000000E+00  0.00000000E+00  0.00000000E+00
  0.00000000E+00  0.00000000E+00  0.00000000E+00
  0.00000000E+00  0.00000000E+00  0.00000000E+00
  0.00000000E+00  0.00000000E+00  0.00000000E+00
