CONTCAR\(13)                            
   1.00000000000000     
    12.8629999160999997    0.0000000000000000    0.0000000000000000
     0.0000000000000000   14.3196001052999993    0.0000000000000000
     0.0000000000000000    0.0000000000000000   19.5569992064999987
   Ag   Au   S    O 
    12    24    24     1
Direct
  0.0965504773644992  0.3398204261801455  0.5988268822832362
  0.2540062578971617  0.0598082568109363  0.6005250329276723
  0.4161593559739150  0.2904363043402632  0.6018945558648334
  0.5705102972606133  0.0648988124038192  0.6014043672319126
  0.7414988948877171  0.3395365564337669  0.5979022321907641
  0.9135034746719281  0.1056879319356311  0.6006090688626557
  0.0766463375759027  0.8403490830742267  0.5982872813150824
  0.2694267206919194  0.5793393038655938  0.6077286283483903
  0.4171259888104062  0.7967109851050836  0.6086321672157351
  0.5606629834227149  0.5791654781885670  0.6114315211100850
  0.7594190858048757  0.8424373956421539  0.5987715043111055
  0.9126807071389661  0.5753429819494136  0.6046450800934761
  0.0372533546870494  0.5029660534339266  0.4954694221013388
  0.2959535360034263  0.2314855050615806  0.4853539126585336
  0.1669547524887681  0.3678205638745616  0.4034321759675029
  0.1630664163074164  0.1171336610358127  0.4038102373326122
  0.3659630211971266  0.4770620318415872  0.4923636684780813
  0.6385524653045340  0.2376216497963250  0.4891876325018938
  0.5029943313101910  0.3624514303411139  0.4047062457769163
  0.5024275899905143  0.1137013248198403  0.4053602148257609
  0.6907985898774935  0.5015839032191151  0.4920222555914072
  0.9682354608747752  0.2577292723254898  0.4882538396261560
  0.8299011168260191  0.3731671845985233  0.4077745938083323
  0.8377466439864710  0.1229670508698303  0.4015947111016806
  0.0254144691712757  0.0012401000566644  0.4909955038519815
  0.2947007980331283  0.7451083108564427  0.4840745782469694
  0.1638451107915141  0.8672809609051423  0.4007252057789045
  0.1691784070089624  0.6173988984132268  0.4038111085542960
  0.3643651941725213  0.9772297064724849  0.4881682311817850
  0.6394548961712776  0.7457399648212513  0.4935311027281889
  0.5045744467674007  0.8645228446830030  0.4051666998852680
  0.5028255535703033  0.6140122899750324  0.4096723018648629
  0.7049457014349860  0.0001478429665438  0.4901778432243892
  0.9678287276037472  0.7434964282084721  0.4874542445649637
  0.8357045463254966  0.8725844240433633  0.4041273200144354
  0.8306173631496810  0.6222981651309838  0.4078662027925562
  0.2805010644389332  0.4914802431286731  0.3881797401796060
  0.2390312170732807  0.2317287262044482  0.5988972612154965
  0.0974804537855736  0.5104273659858416  0.6080154947923192
  0.0544949950886449  0.2441900388808243  0.3838681004007791
  0.6127726558034408  0.4889062905648155  0.3853464600535042
  0.5910407021942587  0.2349912503606313  0.6045929180711197
  0.4182264446416053  0.4621170074648977  0.6058805451453516
  0.3918971796978423  0.2376664840819246  0.3844858522989042
  0.9430374372248272  0.4975251408040604  0.3940628309512724
  0.9160150797458910  0.2739983066460758  0.6021415037274608
  0.7359546953378794  0.5105435862522870  0.6074733608098458
  0.7234585539966936  0.2460852472878531  0.3841778432393830
  0.2752224518149150  0.9924588495039719  0.3852659568862841
  0.2325691502872982  0.7484665901730057  0.5963848580049154
  0.0720700253146987  0.0082372362755043  0.6062956365982479
  0.0552720427620998  0.7405063801144387  0.3831117305197973
  0.6150987810728604  0.9901626685957841  0.3869755600808490
  0.5994790529255648  0.7484556392167794  0.6095003504695270
  0.4178536564968076  0.9648543416347357  0.6021654809252617
  0.3947792740141946  0.7387374195893414  0.3853002891334998
  0.9485348198563612  0.9966148973809951  0.3836046687525426
  0.9149708985200583  0.7491764923526286  0.6016924453629169
  0.7586540274378494  0.0102494361385249  0.6043003012142043
  0.7218539922018330  0.7486497806266210  0.3873396218583066
  0.4160285287118611  0.6487078610554480  0.6149542160948358
 
  0.00000000E+00  0.00000000E+00  0.00000000E+00
  0.00000000E+00  0.00000000E+00  0.00000000E+00
  0.00000000E+00  0.00000000E+00  0.00000000E+00
  0.00000000E+00  0.00000000E+00  0.00000000E+00
  0.00000000E+00  0.00000000E+00  0.00000000E+00
  0.00000000E+00  0.00000000E+00  0.00000000E+00
  0.00000000E+00  0.00000000E+00  0.00000000E+00
  0.00000000E+00  0.00000000E+00  0.00000000E+00
  0.00000000E+00  0.00000000E+00  0.00000000E+00
  0.00000000E+00  0.00000000E+00  0.00000000E+00
  0.00000000E+00  0.00000000E+00  0.00000000E+00
  0.00000000E+00  0.00000000E+00  0.00000000E+00
  0.00000000E+00  0.00000000E+00  0.00000000E+00
  0.00000000E+00  0.00000000E+00  0.00000000E+00
  0.00000000E+00  0.00000000E+00  0.00000000E+00
  0.00000000E+00  0.00000000E+00  0.00000000E+00
  0.00000000E+00  0.00000000E+00  0.00000000E+00
  0.00000000E+00  0.00000000E+00  0.00000000E+00
  0.00000000E+00  0.00000000E+00  0.00000000E+00
  0.00000000E+00  0.00000000E+00  0.00000000E+00
  0.00000000E+00  0.00000000E+00  0.00000000E+00
  0.00000000E+00  0.00000000E+00  0.00000000E+00
  0.00000000E+00  0.00000000E+00  0.00000000E+00
  0.00000000E+00  0.00000000E+00  0.00000000E+00
  0.00000000E+00  0.00000000E+00  0.00000000E+00
  0.00000000E+00  0.00000000E+00  0.00000000E+00
  0.00000000E+00  0.00000000E+00  0.00000000E+00
  0.00000000E+00  0.00000000E+00  0.00000000E+00
  0.00000000E+00  0.00000000E+00  0.00000000E+00
  0.00000000E+00  0.00000000E+00  0.00000000E+00
  0.00000000E+00  0.00000000E+00  0.00000000E+00
  0.00000000E+00  0.00000000E+00  0.00000000E+00
  0.00000000E+00  0.00000000E+00  0.00000000E+00
  0.00000000E+00  0.00000000E+00  0.00000000E+00
  0.00000000E+00  0.00000000E+00  0.00000000E+00
  0.00000000E+00  0.00000000E+00  0.00000000E+00
  0.00000000E+00  0.00000000E+00  0.00000000E+00
  0.00000000E+00  0.00000000E+00  0.00000000E+00
  0.00000000E+00  0.00000000E+00  0.00000000E+00
  0.00000000E+00  0.00000000E+00  0.00000000E+00
  0.00000000E+00  0.00000000E+00  0.00000000E+00
  0.00000000E+00  0.00000000E+00  0.00000000E+00
  0.00000000E+00  0.00000000E+00  0.00000000E+00
  0.00000000E+00  0.00000000E+00  0.00000000E+00
  0.00000000E+00  0.00000000E+00  0.00000000E+00
  0.00000000E+00  0.00000000E+00  0.00000000E+00
  0.00000000E+00  0.00000000E+00  0.00000000E+00
  0.00000000E+00  0.00000000E+00  0.00000000E+00
  0.00000000E+00  0.00000000E+00  0.00000000E+00
  0.00000000E+00  0.00000000E+00  0.00000000E+00
  0.00000000E+00  0.00000000E+00  0.00000000E+00
  0.00000000E+00  0.00000000E+00  0.00000000E+00
  0.00000000E+00  0.00000000E+00  0.00000000E+00
  0.00000000E+00  0.00000000E+00  0.00000000E+00
  0.00000000E+00  0.00000000E+00  0.00000000E+00
  0.00000000E+00  0.00000000E+00  0.00000000E+00
  0.00000000E+00  0.00000000E+00  0.00000000E+00
  0.00000000E+00  0.00000000E+00  0.00000000E+00
  0.00000000E+00  0.00000000E+00  0.00000000E+00
  0.00000000E+00  0.00000000E+00  0.00000000E+00
  0.00000000E+00  0.00000000E+00  0.00000000E+00
