 Ge3 Bi2 Te6                            
   1.00000000000000     
     4.2718082587315482    0.0000000000000000    0.0000000000000000
     2.1359041293657741    3.6994540078777867    0.0000000000000000
     0.0000000000000000    0.0000000000000000   33.6823879713750003
   Ge   Bi   Te
     3     2     6
Direct
  0.3333308359977629  0.3333321484037468  0.2646124212305052
  0.6666677910058818  0.6666693839794083  0.7370281657788812
  0.6666685431160121  0.6666698358710580  0.3745801146573564
  0.0000013861879242 -0.0000001909459008  0.4941615591948796
  0.3333344467561677  0.3333358364105987  0.6183532995163331
  0.0000008170700006  0.0000018278342953  0.3323760008057172
  0.3333334716980210  0.3333352800449833  0.7787470499908340
  0.3333393451327212  0.3333287043398020  0.4404363101533554
  0.6666669340404204  0.6666681027650323  0.5559346811432300
  0.6666563525720449  0.6666570909322541  0.2231513537385148
  0.0000000764230437  0.0000019803647219  0.6715296746756609
 
  0.00000000E+00  0.00000000E+00  0.00000000E+00
  0.00000000E+00  0.00000000E+00  0.00000000E+00
  0.00000000E+00  0.00000000E+00  0.00000000E+00
  0.00000000E+00  0.00000000E+00  0.00000000E+00
  0.00000000E+00  0.00000000E+00  0.00000000E+00
  0.00000000E+00  0.00000000E+00  0.00000000E+00
  0.00000000E+00  0.00000000E+00  0.00000000E+00
  0.00000000E+00  0.00000000E+00  0.00000000E+00
  0.00000000E+00  0.00000000E+00  0.00000000E+00
  0.00000000E+00  0.00000000E+00  0.00000000E+00
  0.00000000E+00  0.00000000E+00  0.00000000E+00
