CONTCAR\(10)                            
   1.00000000000000     
    13.7902002335000002    0.0000000000000000    0.0000000000000000
     6.8951001167000001   11.9426637253999992    0.0000000000000000
     0.0000000000000000    0.0000000000000000   18.3700008391999994
   Nb   Se   O    H 
    16    32     2     1
Direct
  0.0841302161186010  0.0879387408990285  0.5020319958541462
  0.3281584823990021  0.0920506037036671  0.5017684750353913
  0.5837210862032342  0.0882894208303502  0.5019036640603421
  0.8352114985162573  0.0922957817261772  0.5027036178586850
  0.0878283165213497  0.3325160602805763  0.5021320305472929
  0.3247634589367280  0.3289139975401161  0.5011274888393782
  0.6021792484688788  0.3293458215860830  0.5020971603731500
  0.8353224129593759  0.3327223094663687  0.5023142236731813
  0.0840708457974842  0.5879354941000489  0.5023431854224066
  0.3252219777849969  0.6062683880261388  0.5016639605296117
  0.5840199387185836  0.5878106636115938  0.5018744577857754
  0.8330095499397179  0.5891772470393636  0.5030355380515736
  0.0879996341952389  0.8399186802859605  0.5025148768209420
  0.3282123231909251  0.8405847478681316  0.5015274650498696
  0.5849041374122139  0.8376399458353861  0.5023575801132214
  0.8330693523017422  0.8378395570549090  0.5028940345032866
  0.1664544233314856  0.1703722773194621  0.5956508278019895
  0.1660022430621327  0.1708148747529494  0.4082585472334878
  0.4175451513501681  0.1685395631702477  0.5946055616298229
  0.4183678024952842  0.1679970243762234  0.4088043922225768
  0.6690297870326384  0.1686030599079890  0.5951394671601121
  0.6696763845032545  0.1684399786703846  0.4095925960349213
  0.9196256249474717  0.1704938704634246  0.5958492702232534
  0.9187691506216765  0.1705056344595448  0.4088662897807615
  0.1643888516950418  0.4217949602806164  0.5947736941593507
  0.1632196000787869  0.4230328247792680  0.4090952780160995
  0.4152425304446175  0.4208966269237542  0.5763313314869318
  0.4177527878777555  0.4217186806118292  0.4228312296401303
  0.6693533576182087  0.4224669391044695  0.5950594439995990
  0.6698373181994993  0.4222205001451974  0.4091436499262546
  0.9177874815186213  0.4205273823853451  0.5924680855954689
  0.9170363459312333  0.4214926109892831  0.4125748766385030
  0.1646519265888429  0.6735795112918344  0.5952079524998591
  0.1638062759694580  0.6739590263581747  0.4097268087500655
  0.4178919437189584  0.6748434457835288  0.5943614351058906
  0.4183825050645000  0.6740240222828026  0.4090842883442684
  0.6663679469495759  0.6715084427166815  0.5944148360601446
  0.6677008054970126  0.6714050817346808  0.4105165767743023
  0.9178231876441404  0.6711967057992300  0.5945772258612740
  0.9168696891043652  0.6715679892002238  0.4110101658450209
  0.1666874260685682  0.9235930739524154  0.5958376665743544
  0.1659340839556311  0.9234613552940690  0.4083205604441870
  0.4163237879769111  0.9221815228060223  0.5920658269869447
  0.4172435110318338  0.9218479972224736  0.4117750239690997
  0.6664876581751317  0.9221322970264614  0.5942947289769299
  0.6676618409239206  0.9210003019415516  0.4104460652111789
  0.9177474382810129  0.9217248763080692  0.5926410423431022
  0.9172388403512013  0.9217232386638676  0.4128371364824598
  0.4015132938797422  0.4151224569613169  0.6796434018625243
  0.4403159744454988  0.4822262556549258  0.7158183372865442
  0.3709093502014888  0.5553493338078102  0.7189073735542446
 
  0.00000000E+00  0.00000000E+00  0.00000000E+00
  0.00000000E+00  0.00000000E+00  0.00000000E+00
  0.00000000E+00  0.00000000E+00  0.00000000E+00
  0.00000000E+00  0.00000000E+00  0.00000000E+00
  0.00000000E+00  0.00000000E+00  0.00000000E+00
  0.00000000E+00  0.00000000E+00  0.00000000E+00
  0.00000000E+00  0.00000000E+00  0.00000000E+00
  0.00000000E+00  0.00000000E+00  0.00000000E+00
  0.00000000E+00  0.00000000E+00  0.00000000E+00
  0.00000000E+00  0.00000000E+00  0.00000000E+00
  0.00000000E+00  0.00000000E+00  0.00000000E+00
  0.00000000E+00  0.00000000E+00  0.00000000E+00
  0.00000000E+00  0.00000000E+00  0.00000000E+00
  0.00000000E+00  0.00000000E+00  0.00000000E+00
  0.00000000E+00  0.00000000E+00  0.00000000E+00
  0.00000000E+00  0.00000000E+00  0.00000000E+00
  0.00000000E+00  0.00000000E+00  0.00000000E+00
  0.00000000E+00  0.00000000E+00  0.00000000E+00
  0.00000000E+00  0.00000000E+00  0.00000000E+00
  0.00000000E+00  0.00000000E+00  0.00000000E+00
  0.00000000E+00  0.00000000E+00  0.00000000E+00
  0.00000000E+00  0.00000000E+00  0.00000000E+00
  0.00000000E+00  0.00000000E+00  0.00000000E+00
  0.00000000E+00  0.00000000E+00  0.00000000E+00
  0.00000000E+00  0.00000000E+00  0.00000000E+00
  0.00000000E+00  0.00000000E+00  0.00000000E+00
  0.00000000E+00  0.00000000E+00  0.00000000E+00
  0.00000000E+00  0.00000000E+00  0.00000000E+00
  0.00000000E+00  0.00000000E+00  0.00000000E+00
  0.00000000E+00  0.00000000E+00  0.00000000E+00
  0.00000000E+00  0.00000000E+00  0.00000000E+00
  0.00000000E+00  0.00000000E+00  0.00000000E+00
  0.00000000E+00  0.00000000E+00  0.00000000E+00
  0.00000000E+00  0.00000000E+00  0.00000000E+00
  0.00000000E+00  0.00000000E+00  0.00000000E+00
  0.00000000E+00  0.00000000E+00  0.00000000E+00
  0.00000000E+00  0.00000000E+00  0.00000000E+00
  0.00000000E+00  0.00000000E+00  0.00000000E+00
  0.00000000E+00  0.00000000E+00  0.00000000E+00
  0.00000000E+00  0.00000000E+00  0.00000000E+00
  0.00000000E+00  0.00000000E+00  0.00000000E+00
  0.00000000E+00  0.00000000E+00  0.00000000E+00
  0.00000000E+00  0.00000000E+00  0.00000000E+00
  0.00000000E+00  0.00000000E+00  0.00000000E+00
  0.00000000E+00  0.00000000E+00  0.00000000E+00
  0.00000000E+00  0.00000000E+00  0.00000000E+00
  0.00000000E+00  0.00000000E+00  0.00000000E+00
  0.00000000E+00  0.00000000E+00  0.00000000E+00
  0.00000000E+00  0.00000000E+00  0.00000000E+00
  0.00000000E+00  0.00000000E+00  0.00000000E+00
  0.00000000E+00  0.00000000E+00  0.00000000E+00
