CONTCAR\(21)                            
   1.00000000000000     
    11.6593999863000004    0.0000000000000000    0.0000000000000000
    -5.8296999931000002   10.0973365810000004    0.0000000000000000
     0.0000000000000000    0.0000000000000000   24.5373001098999985
   Zn   In   S    O 
     9    18    36     1
Direct
  0.1059615834768456  0.2148171509517456  0.3247700461755022
  0.4423252799910340  0.2177913020708159  0.3216982131788172
  0.7768157660839223  0.2217378920419584  0.3250098544449497
  0.1059615904768426  0.5578144415250936  0.3247700461755022
  0.4290900139560718  0.5478850034780300  0.2994171614910498
  0.7787577441446256  0.5575307075289779  0.3209634804091892
  0.1111674140923754  0.8889187345461896  0.3243700706324918
  0.4423252999910357  0.8912040139202173  0.3216982131788172
  0.7787577581446268  0.8878970786156477  0.3209634804091892
 -0.0022558478848491  0.9979791929660857  0.4856183365225218
  0.2220133484549630  0.1111096791695304  0.6481798358306029
  0.3310512579342618 -0.0011393745328659  0.4843611126185673
  0.5556145952530029  0.1111373051265003  0.6477286417210257
  0.6640038893841026  0.9975655257746281  0.4838820563461163
  0.8880507639302759  0.1110417335018495  0.6482135126654998
 -0.0027923119078035  0.3319338530460955  0.4838184663151621
  0.2208164839225790  0.4437382524612886  0.6481165916871395
  0.3313856732672021  0.3340161146386153  0.4836260293907994
  0.5553556302926712  0.4441467594245267  0.6480906921331229
  0.6640038903841062  0.3330983396094800  0.4838820563461163
  0.8880507249302763  0.4436690084284251  0.6482135126654998
 -0.0022558488848456  0.6664349911490642  0.4856183365225218
  0.2220133564549637  0.7775736792854370  0.6481798358306029
  0.3313856702671983  0.6640395916285823  0.4836260293907994
  0.5553556362926717  0.7778689038681371  0.6480906921331229
  0.6620553422634038  0.6643626866317000  0.4832148267511023
  0.8888086481027924  0.7777393330513986  0.6484703286917265
  0.2212060756056187  0.1102639165980600  0.3054013958103201
  0.2213238285511741  0.1110752314951585  0.5499074940061540
  0.1074961372906360  0.2186447519658384  0.4345595961071326
  0.1103282729152833  0.2216278204728332  0.6950238702944607
  0.5563723981671965  0.1115162065835974  0.3039800127458794
  0.5549287353602649  0.1107943751801315  0.5495363803575007
  0.4416784343228382  0.2201686801991079  0.4341765188312539
  0.4442448259330603  0.2217913334441672  0.6947928584611396
  0.8859249262004013  0.1096613789528483  0.3058215005082119
  0.8863607954624071  0.1104985468465804  0.5499739159858820
  0.7749925389176989  0.2208262784588430  0.4336172693398935
  0.7767777382876019  0.2217188781438014  0.6953221726771931
  0.2146425372531293  0.4406512791265673  0.3190533355296500
  0.2182481552907765  0.4424540881453946  0.5499816013802981
  0.1074961442906330  0.5555213943247910  0.4345595961071326
  0.1103282799152803  0.5553704614424438  0.6950238702944607
  0.5526917888600548  0.4447304454335562  0.3260329985649253
  0.5540079198516806  0.4435163616117745  0.5499709932426058
  0.4409450495582572  0.5538125212791228  0.4343376871130841
  0.4436222326635468  0.5551511128317710  0.6945321953100039
  0.8859248872004016  0.4429235252475443  0.3058215005082119
  0.8863607564624074  0.4425222266158320  0.5499739159858820
  0.7777462992032721  0.5558071849042979  0.4346161310805386
  0.7774068105971859  0.5552820177353449  0.6951476016263090
  0.2212060836056193  0.7776121690075559  0.3054013958103201
  0.2213238365511748  0.7769186070560199  0.5499074940061540
  0.1090767954842783  0.8878734252421414  0.4343175077256075
  0.1111541130877547  0.8889120840438799  0.6950648969264746
  0.5526917948600553  0.7746213764265052  0.3260329985649253
  0.5540079258516811  0.7771515912399052  0.5499709932426058
  0.4416784543228398  0.8881797901237297  0.4341765188312539
  0.4442448459330620  0.8891235284888925  0.6947928584611396
  0.8901205790512482  0.7783952985256229  0.3056532156678939
  0.8859856236570574  0.7763278208285310  0.5502302307537572
  0.7777463132032733  0.8886091562989815  0.4346161310805386
  0.7774068245971869  0.8887948348618404  0.6951476016263090
  0.5638084658196467  0.6152292269098175  0.2460221727774476
 
  0.00000000E+00  0.00000000E+00  0.00000000E+00
  0.00000000E+00  0.00000000E+00  0.00000000E+00
  0.00000000E+00  0.00000000E+00  0.00000000E+00
  0.00000000E+00  0.00000000E+00  0.00000000E+00
  0.00000000E+00  0.00000000E+00  0.00000000E+00
  0.00000000E+00  0.00000000E+00  0.00000000E+00
  0.00000000E+00  0.00000000E+00  0.00000000E+00
  0.00000000E+00  0.00000000E+00  0.00000000E+00
  0.00000000E+00  0.00000000E+00  0.00000000E+00
  0.00000000E+00  0.00000000E+00  0.00000000E+00
  0.00000000E+00  0.00000000E+00  0.00000000E+00
  0.00000000E+00  0.00000000E+00  0.00000000E+00
  0.00000000E+00  0.00000000E+00  0.00000000E+00
  0.00000000E+00  0.00000000E+00  0.00000000E+00
  0.00000000E+00  0.00000000E+00  0.00000000E+00
  0.00000000E+00  0.00000000E+00  0.00000000E+00
  0.00000000E+00  0.00000000E+00  0.00000000E+00
  0.00000000E+00  0.00000000E+00  0.00000000E+00
  0.00000000E+00  0.00000000E+00  0.00000000E+00
  0.00000000E+00  0.00000000E+00  0.00000000E+00
  0.00000000E+00  0.00000000E+00  0.00000000E+00
  0.00000000E+00  0.00000000E+00  0.00000000E+00
  0.00000000E+00  0.00000000E+00  0.00000000E+00
  0.00000000E+00  0.00000000E+00  0.00000000E+00
  0.00000000E+00  0.00000000E+00  0.00000000E+00
  0.00000000E+00  0.00000000E+00  0.00000000E+00
  0.00000000E+00  0.00000000E+00  0.00000000E+00
  0.00000000E+00  0.00000000E+00  0.00000000E+00
  0.00000000E+00  0.00000000E+00  0.00000000E+00
  0.00000000E+00  0.00000000E+00  0.00000000E+00
  0.00000000E+00  0.00000000E+00  0.00000000E+00
  0.00000000E+00  0.00000000E+00  0.00000000E+00
  0.00000000E+00  0.00000000E+00  0.00000000E+00
  0.00000000E+00  0.00000000E+00  0.00000000E+00
  0.00000000E+00  0.00000000E+00  0.00000000E+00
  0.00000000E+00  0.00000000E+00  0.00000000E+00
  0.00000000E+00  0.00000000E+00  0.00000000E+00
  0.00000000E+00  0.00000000E+00  0.00000000E+00
  0.00000000E+00  0.00000000E+00  0.00000000E+00
  0.00000000E+00  0.00000000E+00  0.00000000E+00
  0.00000000E+00  0.00000000E+00  0.00000000E+00
  0.00000000E+00  0.00000000E+00  0.00000000E+00
  0.00000000E+00  0.00000000E+00  0.00000000E+00
  0.00000000E+00  0.00000000E+00  0.00000000E+00
  0.00000000E+00  0.00000000E+00  0.00000000E+00
  0.00000000E+00  0.00000000E+00  0.00000000E+00
  0.00000000E+00  0.00000000E+00  0.00000000E+00
  0.00000000E+00  0.00000000E+00  0.00000000E+00
  0.00000000E+00  0.00000000E+00  0.00000000E+00
  0.00000000E+00  0.00000000E+00  0.00000000E+00
  0.00000000E+00  0.00000000E+00  0.00000000E+00
  0.00000000E+00  0.00000000E+00  0.00000000E+00
  0.00000000E+00  0.00000000E+00  0.00000000E+00
  0.00000000E+00  0.00000000E+00  0.00000000E+00
  0.00000000E+00  0.00000000E+00  0.00000000E+00
  0.00000000E+00  0.00000000E+00  0.00000000E+00
  0.00000000E+00  0.00000000E+00  0.00000000E+00
  0.00000000E+00  0.00000000E+00  0.00000000E+00
  0.00000000E+00  0.00000000E+00  0.00000000E+00
  0.00000000E+00  0.00000000E+00  0.00000000E+00
  0.00000000E+00  0.00000000E+00  0.00000000E+00
  0.00000000E+00  0.00000000E+00  0.00000000E+00
  0.00000000E+00  0.00000000E+00  0.00000000E+00
  0.00000000E+00  0.00000000E+00  0.00000000E+00
