CONTCAR\(5)                             
   1.00000000000000     
    14.3102998734000000    0.0000000000000000    0.0000000000000000
     0.0000000000000000   14.3102998734000000    0.0000000000000000
     0.0000000000000000    0.0000000000000000   17.4472007751000007
   Fe   S    O    H 
    32    32     1     1
Direct
  0.1235923413335515  0.1238005685440690  0.4990028405808032
  0.9989046455037650  0.9987420793297486  0.4973288482873104
  0.3735807106973247  0.1210196869959036  0.4994261298641852
  0.2480932528543830  0.9978318373687705  0.4958617550578838
  0.6234706470316314  0.1239976899301921  0.4986965918891138
  0.4987153372814687  0.9982100695089920  0.4962438113115270
  0.8737693280263049  0.1239549555262385  0.4971688157354258
  0.7489420949413480  0.9990876644989753  0.4966779613582256
  0.1223483699495666  0.3752583942696858  0.5064916163052201
  0.9988212690065980  0.2485163248883365  0.4989491385357438
  0.3751866878889567  0.3763128897325796  0.5306820001524061
  0.2503317071696013  0.2472568513934486  0.5066694033133669
  0.6223854484486306  0.3732576578384080  0.5001029758086754
  0.4970062839623396  0.2471411190569826  0.5063418742849433
  0.8729534764890383  0.3731178829285269  0.4958273330096611
  0.7480978374148048  0.2486021223234169  0.4978957223283824
  0.1221283933398265  0.6220778431523240  0.5059598172989616
  0.9960758230708400  0.4986400963109882  0.4990572015776190
  0.3768649906128632  0.6270421616255892  0.5010697712447025
  0.2512897097160710  0.5002165048364472  0.5304261327768414
  0.6252633767589827  0.6247337173162865  0.4946999974437314
  0.5020258416659111  0.5019283741703547  0.5012558598438721
  0.8732739735190227  0.6237436092366675  0.4959235051347854
  0.7483776473906264  0.4984064940125849  0.4936804568430099
  0.1235901350715010  0.8731046638404998  0.4979376213887639
  0.9989600873996171  0.7484691704786687  0.4985646552334638
  0.3734368466732367  0.8733741616909336  0.4936713336968604
  0.2482080825244270  0.7473074586989448  0.4999517602746551
  0.6245289010580994  0.8744262448815523  0.4941639629994283
  0.4997604518774694  0.7502976368481257  0.4946429137613418
  0.8740391779201973  0.8739901289878210  0.4967459707719447
  0.7493822540935356  0.7495218240848774  0.4941016685088278
  0.9993789104894506  0.1241937754276845  0.4275208740659791
  0.1240514405443052  0.9979881067884109  0.5678017533823576
  0.2487340674718247  0.1271116422280986  0.4296946378456070
  0.3732225736883434  0.9948369807179500  0.5667427200923647
  0.4978937833266623  0.1261889313066640  0.4295395775342299
  0.6237159250899745  0.9972460456099992  0.5668221861596024
  0.7481513688186696  0.1242332456946604  0.4271472453948599
  0.8735989700622886  0.9987567866005259  0.5673825104951398
  0.0022232187854114  0.3736011483229238  0.4295911462432548
  0.1209721226236206  0.2460486852824187  0.5721685202403604
  0.2558939267154837  0.3806165293483645  0.4492617808410502
  0.3747683237777282  0.2352982664751916  0.5792985048669234
  0.4893543781369228  0.3729416569826803  0.4394682775395033
  0.6262035909230318  0.2477717844740064  0.5710097883119617
  0.7460994493722130  0.3718706455050058  0.4264196179566855
  0.8729734196025823  0.2490287926991187  0.5677508468474498
  0.0012182687976037  0.6230482626819487  0.4291572138436174
  0.1102274754373916  0.4998780261670380  0.5788749498750765
  0.2479892461389426  0.6143043983526513  0.4391848244089747
  0.3931413755666431  0.5184450119850094  0.5820061171770299
  0.4984902565876666  0.6234573328086411  0.4264703175311980
  0.6287080813650824  0.5013318599548690  0.5678486697508455
  0.7497863869021503  0.6243567320229586  0.4238764655430078
  0.8700341058546294  0.4983935537942329  0.5665508641198503
  0.9991967539658474  0.8732550343587847  0.4272172656161507
  0.1227027400601011  0.7510184064423545  0.5708680715909674
  0.2468548075952782  0.8710319769975019  0.4263853141254270
  0.3762358516972078  0.7536461868469305  0.5677260116977096
  0.4993670132915248  0.8749351647562371  0.4239067719394329
  0.6249194806156650  0.7498875352396825  0.5646988062592732
  0.7501952079898994  0.8752086837807874  0.4248058620663704
  0.8722361148497589  0.7485293612301042  0.5666983950496602
  0.2715305674525065  0.3966854283384842  0.6136591527089031
  0.2974756077120672  0.4226661204711339  0.6611059162574563
 
  0.00000000E+00  0.00000000E+00  0.00000000E+00
  0.00000000E+00  0.00000000E+00  0.00000000E+00
  0.00000000E+00  0.00000000E+00  0.00000000E+00
  0.00000000E+00  0.00000000E+00  0.00000000E+00
  0.00000000E+00  0.00000000E+00  0.00000000E+00
  0.00000000E+00  0.00000000E+00  0.00000000E+00
  0.00000000E+00  0.00000000E+00  0.00000000E+00
  0.00000000E+00  0.00000000E+00  0.00000000E+00
  0.00000000E+00  0.00000000E+00  0.00000000E+00
  0.00000000E+00  0.00000000E+00  0.00000000E+00
  0.00000000E+00  0.00000000E+00  0.00000000E+00
  0.00000000E+00  0.00000000E+00  0.00000000E+00
  0.00000000E+00  0.00000000E+00  0.00000000E+00
  0.00000000E+00  0.00000000E+00  0.00000000E+00
  0.00000000E+00  0.00000000E+00  0.00000000E+00
  0.00000000E+00  0.00000000E+00  0.00000000E+00
  0.00000000E+00  0.00000000E+00  0.00000000E+00
  0.00000000E+00  0.00000000E+00  0.00000000E+00
  0.00000000E+00  0.00000000E+00  0.00000000E+00
  0.00000000E+00  0.00000000E+00  0.00000000E+00
  0.00000000E+00  0.00000000E+00  0.00000000E+00
  0.00000000E+00  0.00000000E+00  0.00000000E+00
  0.00000000E+00  0.00000000E+00  0.00000000E+00
  0.00000000E+00  0.00000000E+00  0.00000000E+00
  0.00000000E+00  0.00000000E+00  0.00000000E+00
  0.00000000E+00  0.00000000E+00  0.00000000E+00
  0.00000000E+00  0.00000000E+00  0.00000000E+00
  0.00000000E+00  0.00000000E+00  0.00000000E+00
  0.00000000E+00  0.00000000E+00  0.00000000E+00
  0.00000000E+00  0.00000000E+00  0.00000000E+00
  0.00000000E+00  0.00000000E+00  0.00000000E+00
  0.00000000E+00  0.00000000E+00  0.00000000E+00
  0.00000000E+00  0.00000000E+00  0.00000000E+00
  0.00000000E+00  0.00000000E+00  0.00000000E+00
  0.00000000E+00  0.00000000E+00  0.00000000E+00
  0.00000000E+00  0.00000000E+00  0.00000000E+00
  0.00000000E+00  0.00000000E+00  0.00000000E+00
  0.00000000E+00  0.00000000E+00  0.00000000E+00
  0.00000000E+00  0.00000000E+00  0.00000000E+00
  0.00000000E+00  0.00000000E+00  0.00000000E+00
  0.00000000E+00  0.00000000E+00  0.00000000E+00
  0.00000000E+00  0.00000000E+00  0.00000000E+00
  0.00000000E+00  0.00000000E+00  0.00000000E+00
  0.00000000E+00  0.00000000E+00  0.00000000E+00
  0.00000000E+00  0.00000000E+00  0.00000000E+00
  0.00000000E+00  0.00000000E+00  0.00000000E+00
  0.00000000E+00  0.00000000E+00  0.00000000E+00
  0.00000000E+00  0.00000000E+00  0.00000000E+00
  0.00000000E+00  0.00000000E+00  0.00000000E+00
  0.00000000E+00  0.00000000E+00  0.00000000E+00
  0.00000000E+00  0.00000000E+00  0.00000000E+00
  0.00000000E+00  0.00000000E+00  0.00000000E+00
  0.00000000E+00  0.00000000E+00  0.00000000E+00
  0.00000000E+00  0.00000000E+00  0.00000000E+00
  0.00000000E+00  0.00000000E+00  0.00000000E+00
  0.00000000E+00  0.00000000E+00  0.00000000E+00
  0.00000000E+00  0.00000000E+00  0.00000000E+00
  0.00000000E+00  0.00000000E+00  0.00000000E+00
  0.00000000E+00  0.00000000E+00  0.00000000E+00
  0.00000000E+00  0.00000000E+00  0.00000000E+00
  0.00000000E+00  0.00000000E+00  0.00000000E+00
  0.00000000E+00  0.00000000E+00  0.00000000E+00
  0.00000000E+00  0.00000000E+00  0.00000000E+00
  0.00000000E+00  0.00000000E+00  0.00000000E+00
  0.00000000E+00  0.00000000E+00  0.00000000E+00
  0.00000000E+00  0.00000000E+00  0.00000000E+00
