CONTCAR\(9)                             
   1.00000000000000     
    12.6978998183999998    0.0000000000000000    0.0000000000000000
     0.0000000000000000   11.4748001099000003    0.0000000000000000
     0.0000000000000000    0.0000000000000000   18.8323001862000012
   Ta   Si   Te   O    H 
    12     4    24     2     1
Direct
  0.3317799514344967  0.5808059619791174  0.4992310911135176
  0.0933699047400179  0.4144500782037630  0.5011416135426348
  0.4867057955946862  0.9356831297791161  0.4991674718034864
  0.2384533943020845  0.0600666744870065  0.4997270456996169
  0.3495226835132924  0.2827605610322839  0.5005149080181004
  0.1007349175128056  0.7137123727129723  0.4996771297450552
  0.8345569916651580  0.5829568378365275  0.4998782093430412
  0.5845216945149001  0.4118757263606166  0.4997645928313044
  0.9865317031790114  0.9351113569168985  0.4992943306039601
  0.7380694894945692  0.0598343467635850  0.4995254227193690
  0.8513672719329080  0.2835839506256442  0.5000466856312891
  0.6008726309441919  0.7131752340053620  0.4995778828356061
  0.2903976870020215  0.8216339075006877  0.4993874884334131
  0.0406766043203767  0.1731246059632172  0.4943578738166849
  0.7906221546305576  0.8223315065383442  0.4996129167766822
  0.5405883016313824  0.1729227247754038  0.4997898580359496
  0.4032052374827541  0.0916548194073513  0.6000044733094148
  0.1513910716579908  0.9031961974505822  0.3993796154876614
  0.1510968753580498  0.9032390303973619  0.5993999114730250
  0.4019997828791673  0.0931830276868168  0.3992567094366621
  0.4290396722773900  0.7443349555901061  0.5963151423935082
  0.1813479760129364  0.2516163600108456  0.4001815500654424
  0.1784513004542227  0.2464053474977916  0.5965681068408856
  0.4294523176123575  0.7430831110753959  0.4024847222302144
  0.4267047687037133  0.4323334785211065  0.6020367514723206
  0.1767347780800323  0.5651597040731630  0.3954004076231327
  0.1774306296944017  0.5679979164589812  0.6044631467513710
  0.4261534433364280  0.4292953960473344  0.3970492732813694
  0.9028900837909063  0.0930631036878628  0.5989981176907332
  0.6511826285732215  0.9034589072254813  0.3993268885003940
  0.6511229698197556  0.9035301949729941  0.5994588708957905
  0.9018050802809450  0.0926589597451025  0.3988884882276096
  0.9295402262435526  0.7451321241425176  0.5970742208214752
  0.6803504255783646  0.2510846597740267  0.4025405369392762
  0.6803464904831334  0.2502816049549147  0.5969736328696221
  0.9297558280659658  0.7437200016096764  0.4022555502151373
  0.9283277880819139  0.4319466804972159  0.6016252276242818
  0.6763096008762091  0.5643096988486568  0.3972008664023122
  0.6762876162197848  0.5647718394310488  0.6023447197323967
  0.9291629812443032  0.4318198264909691  0.3988260575103508
  0.2339993386779838  0.2494372544250766  0.7129990995162575
  0.3368796073901403  0.2854075892268086  0.7335348706972039
  0.3262803227118948  0.3678991572701982  0.7459187610424383
 
  0.00000000E+00  0.00000000E+00  0.00000000E+00
  0.00000000E+00  0.00000000E+00  0.00000000E+00
  0.00000000E+00  0.00000000E+00  0.00000000E+00
  0.00000000E+00  0.00000000E+00  0.00000000E+00
  0.00000000E+00  0.00000000E+00  0.00000000E+00
  0.00000000E+00  0.00000000E+00  0.00000000E+00
  0.00000000E+00  0.00000000E+00  0.00000000E+00
  0.00000000E+00  0.00000000E+00  0.00000000E+00
  0.00000000E+00  0.00000000E+00  0.00000000E+00
  0.00000000E+00  0.00000000E+00  0.00000000E+00
  0.00000000E+00  0.00000000E+00  0.00000000E+00
  0.00000000E+00  0.00000000E+00  0.00000000E+00
  0.00000000E+00  0.00000000E+00  0.00000000E+00
  0.00000000E+00  0.00000000E+00  0.00000000E+00
  0.00000000E+00  0.00000000E+00  0.00000000E+00
  0.00000000E+00  0.00000000E+00  0.00000000E+00
  0.00000000E+00  0.00000000E+00  0.00000000E+00
  0.00000000E+00  0.00000000E+00  0.00000000E+00
  0.00000000E+00  0.00000000E+00  0.00000000E+00
  0.00000000E+00  0.00000000E+00  0.00000000E+00
  0.00000000E+00  0.00000000E+00  0.00000000E+00
  0.00000000E+00  0.00000000E+00  0.00000000E+00
  0.00000000E+00  0.00000000E+00  0.00000000E+00
  0.00000000E+00  0.00000000E+00  0.00000000E+00
  0.00000000E+00  0.00000000E+00  0.00000000E+00
  0.00000000E+00  0.00000000E+00  0.00000000E+00
  0.00000000E+00  0.00000000E+00  0.00000000E+00
  0.00000000E+00  0.00000000E+00  0.00000000E+00
  0.00000000E+00  0.00000000E+00  0.00000000E+00
  0.00000000E+00  0.00000000E+00  0.00000000E+00
  0.00000000E+00  0.00000000E+00  0.00000000E+00
  0.00000000E+00  0.00000000E+00  0.00000000E+00
  0.00000000E+00  0.00000000E+00  0.00000000E+00
  0.00000000E+00  0.00000000E+00  0.00000000E+00
  0.00000000E+00  0.00000000E+00  0.00000000E+00
  0.00000000E+00  0.00000000E+00  0.00000000E+00
  0.00000000E+00  0.00000000E+00  0.00000000E+00
  0.00000000E+00  0.00000000E+00  0.00000000E+00
  0.00000000E+00  0.00000000E+00  0.00000000E+00
  0.00000000E+00  0.00000000E+00  0.00000000E+00
  0.00000000E+00  0.00000000E+00  0.00000000E+00
  0.00000000E+00  0.00000000E+00  0.00000000E+00
  0.00000000E+00  0.00000000E+00  0.00000000E+00
