CONTCAR\(3)                             
   1.00000000000000     
    15.2456998825000003    0.0000000000000000    0.0000000000000000
     7.6228095670000000   13.2074592144000000    0.0000000000000000
     0.0000000000000000    0.0000000000000000   19.0911998748999991
   Nb   I    O 
    12    32     1
Direct
  0.1904980728516341  0.4032422099862956  0.4940080883090959
  0.3914057044774391  0.4029227348796177  0.5036439901965676
  0.3888672303894121  0.2045832359104608  0.4987718925837232
  0.7085288099658515  0.4001321459533274  0.4934400886855027
  0.8979730929633557  0.4027376028348655  0.4911105709402569
  0.8987692043852303  0.2066935842620926  0.4943165104310315
  0.1998692261688454  0.9004095596416192  0.4952928695085749
  0.3967510171530753  0.8993152427448072  0.4963208096750374
  0.3964803197896056  0.7019865637720096  0.4974276568343707
  0.6973317310515650  0.9042910801475732  0.4979554407614225
  0.8957776732759045  0.9013489987775301  0.4966947415333147
  0.8940162651441724  0.7071031430326707  0.4946146309876396
  0.4980589543292952  0.2530526584200936  0.4067643075012684
  0.2461914391835194  0.2525233529858002  0.3954263466780484
  0.2444229266665293  0.5038983882366782  0.3964018685843746
  0.3262216716607028  0.0842253407745247  0.5779080855955012
  0.0857099866047432  0.0888073737250219  0.5733020577566731
  0.0787258519164176  0.3340254678914146  0.5738725657735033
  0.9946419702153505  0.5061916657639224  0.4147506939685220
  0.3133792155312233  0.3358537138803381  0.6109429776599318
 -0.0000478788787330  0.2514687372487840  0.3924939273850386
  0.7563726676139791  0.2548613654691182  0.3869679697483150
  0.7497005732095540  0.5028762785803305  0.3895004184482077
  0.8506395214546866  0.0733597482137025  0.5870455275036819
  0.5775561871423446  0.0894900189996757  0.5814717139620539
  0.6504557525499713  0.2822923600690543  0.5657540598165224
  0.4991917273114103  0.4973420658108364  0.4249950246104859
  0.8396893311301206  0.3397372564375861  0.6072600903858838
  0.4989459345680639  0.7490207795253527  0.3979009290220680
  0.2498240638112585  0.7507727537526628  0.3955730896300322
  0.2502493878174175  0.9990663722234188  0.3948557786649575
  0.3175616546051250  0.5961440095436893  0.5777937553958804
  0.0779257763619941  0.5884790798635148  0.5747678120924404
  0.0837572983934586  0.8311109339874564  0.5750389246860573
  0.9978002717101270  0.0025281787243988  0.4191695501537125
  0.3301622890493391  0.8350060931681021  0.6083981749008615
  0.9933225528664839  0.7566837829825497  0.3943094809568676
  0.7437791325747696  0.7594171166041643  0.3953061142797361
  0.7448915193642958  0.0081343407379968  0.4002149261711401
  0.8256835296474561  0.5890975301837418  0.5723778843199906
  0.5828523734250989  0.5788837579992214  0.5792220697095347
  0.5820932395399673  0.8315458711222640  0.5773911019658204
  0.4960429615630581  0.0035372287703575  0.4214897078234935
  0.8305840645175775  0.8347877373573320  0.6088451818047648
  0.4903347549272556  0.3637829900040840  0.5725105135980992
 
  0.00000000E+00  0.00000000E+00  0.00000000E+00
  0.00000000E+00  0.00000000E+00  0.00000000E+00
  0.00000000E+00  0.00000000E+00  0.00000000E+00
  0.00000000E+00  0.00000000E+00  0.00000000E+00
  0.00000000E+00  0.00000000E+00  0.00000000E+00
  0.00000000E+00  0.00000000E+00  0.00000000E+00
  0.00000000E+00  0.00000000E+00  0.00000000E+00
  0.00000000E+00  0.00000000E+00  0.00000000E+00
  0.00000000E+00  0.00000000E+00  0.00000000E+00
  0.00000000E+00  0.00000000E+00  0.00000000E+00
  0.00000000E+00  0.00000000E+00  0.00000000E+00
  0.00000000E+00  0.00000000E+00  0.00000000E+00
  0.00000000E+00  0.00000000E+00  0.00000000E+00
  0.00000000E+00  0.00000000E+00  0.00000000E+00
  0.00000000E+00  0.00000000E+00  0.00000000E+00
  0.00000000E+00  0.00000000E+00  0.00000000E+00
  0.00000000E+00  0.00000000E+00  0.00000000E+00
  0.00000000E+00  0.00000000E+00  0.00000000E+00
  0.00000000E+00  0.00000000E+00  0.00000000E+00
  0.00000000E+00  0.00000000E+00  0.00000000E+00
  0.00000000E+00  0.00000000E+00  0.00000000E+00
  0.00000000E+00  0.00000000E+00  0.00000000E+00
  0.00000000E+00  0.00000000E+00  0.00000000E+00
  0.00000000E+00  0.00000000E+00  0.00000000E+00
  0.00000000E+00  0.00000000E+00  0.00000000E+00
  0.00000000E+00  0.00000000E+00  0.00000000E+00
  0.00000000E+00  0.00000000E+00  0.00000000E+00
  0.00000000E+00  0.00000000E+00  0.00000000E+00
  0.00000000E+00  0.00000000E+00  0.00000000E+00
  0.00000000E+00  0.00000000E+00  0.00000000E+00
  0.00000000E+00  0.00000000E+00  0.00000000E+00
  0.00000000E+00  0.00000000E+00  0.00000000E+00
  0.00000000E+00  0.00000000E+00  0.00000000E+00
  0.00000000E+00  0.00000000E+00  0.00000000E+00
  0.00000000E+00  0.00000000E+00  0.00000000E+00
  0.00000000E+00  0.00000000E+00  0.00000000E+00
  0.00000000E+00  0.00000000E+00  0.00000000E+00
  0.00000000E+00  0.00000000E+00  0.00000000E+00
  0.00000000E+00  0.00000000E+00  0.00000000E+00
  0.00000000E+00  0.00000000E+00  0.00000000E+00
  0.00000000E+00  0.00000000E+00  0.00000000E+00
  0.00000000E+00  0.00000000E+00  0.00000000E+00
  0.00000000E+00  0.00000000E+00  0.00000000E+00
  0.00000000E+00  0.00000000E+00  0.00000000E+00
  0.00000000E+00  0.00000000E+00  0.00000000E+00
