CONTCAR\(3)                             
   1.00000000000000     
    13.8212003707999997    0.0000000000000000    0.0000000000000000
     2.2957132678000001   11.9646463987999994    0.0000000000000000
     0.0000000000000000    0.0000000000000000   19.5161991119000007
   Li   Cr   C    O    H 
     6     9    18    55     1
Direct
  0.0028672341296385  0.0004807307282917  0.6002928106359207
  0.2580534777184482  0.4480241222926438  0.4045587727536386
  0.3363413686910164  0.0006711370377133  0.6011786500050107
  0.5917912366844504  0.4477995231382152  0.4025977586581604
  0.6699994862660787  0.9997462303745834  0.5995400224487994
  0.9264258014963147  0.4465994898189081  0.4013952148568904
  0.1881447580593161  0.8883952678183178  0.5034245351734654
  0.2977445796882989  0.2226636801548523  0.4990587046315227
  0.0746116491555782  0.5570324930736987  0.5022251785922194
  0.5214208362668558  0.8878033473038727  0.5022761603730501
  0.6308503838632760  0.2221156767840000  0.4983415800722071
  0.4061627635412890  0.5578297571696922  0.5010834772385238
  0.8552330901935434  0.8876531588950556  0.5024138791524564
  0.9642230908605356  0.2227571650195017  0.4996671125820740
  0.7406360824543583  0.5574405262542257  0.4990459165904682
  0.1494599828123384  0.1159345194621153  0.5620933327210835
  0.2601819030202890  0.4443499623245586  0.5595256940387969
  0.1121432162860714  0.3310474144671502  0.4381323655926721
  0.0392675467201968  0.7757458870427243  0.5625789385515674
  0.2222039583200797  0.6707665958925730  0.4427809399225140
  0.0028817786951763  0.9989124322425695  0.4466028489183245
  0.4826437399109622  0.1150147625216960  0.5610406624698427
  0.5931209307859575  0.4453090353866926  0.5543067844420762
  0.4451483433444636  0.3313197122239018  0.4372391070405186
  0.3723736840719241  0.7764618851857605  0.5619865809859661
  0.5556468152369334  0.6699778974323038  0.4411967051639749
  0.3359460560536576  0.9984745113456199  0.4464129380126280
  0.8156379352489509  0.1153672463415703  0.5618705934846915
  0.9258490628851064  0.4458686090731590  0.5550667853570985
  0.7791488465054925  0.3306913466356178  0.4372571841105000
  0.7058924230290842  0.7755806693094698  0.5606770884190695
  0.8907344885578965  0.6694082324945043  0.4415029915878534
  0.6695425582662438  0.9981646862964269  0.4456652536036927
  0.1644258641988330  0.4541658355303184  0.5532987263054210
  0.0974146421260826  0.9911337928671244  0.4483969426345666
  0.0738860617789214  0.2439411196836119  0.4406956662316972
  0.0576005632940948  0.4311467439530716  0.4349724429467230
  0.2045731151071664  0.0162563051097351  0.5682313356846365
  0.3159647502787877  0.3472836868465450  0.5527081919687120
  0.1869884113322158  0.2030027185603842  0.5569029912313610
  0.2990676258687515  0.5334987129849935  0.5572582936889816
  0.2778358140089097  0.7894035129114059  0.5637643556695551
  0.2073915038711789  0.3225833985371054  0.4355773115481867
  0.1814004739653754  0.5822745324340417  0.4377532542537637
  0.2978933052827770  0.9094817641239459  0.4476865206113274
  0.1661165437846250  0.7668987033994199  0.4467831950072849
  0.2794098869327328  0.0959487358172879  0.4450645427773807
  0.0949276206544170  0.6789793779818609  0.5598604939426295
  0.0799474179818063  0.8644850020960533  0.5675539782746455
  0.0541446748753316  0.1236070628624546  0.5642732325808595
  0.3165587594053747  0.6584074798214843  0.4414948067578663
  0.4985228987809904  0.4538196804436225  0.5537817276738934
  0.4304399941464609  0.9905494853077315  0.4474577349889088
  0.4069892411942391  0.2440435167643642  0.4395360277490710
  0.3905798724230252  0.4314178190549924  0.4344314045794846
  0.5380872287495677  0.0156178475733952  0.5670270455035222
  0.6492755884979147  0.3476968183698830  0.5538495013573552
  0.5198868530783756  0.2023948769179995  0.5560949088583556
  0.6315060534074775  0.5342790672608686  0.5547182470183998
  0.6114150913566121  0.7883429239477593  0.5621107631316349
  0.5405429432141204  0.3229766188953747  0.4347628868124715
  0.5143233989401352  0.5817077725622894  0.4367341409203576
  0.6314928069463619  0.9090865855458787  0.4466313149640371
  0.5001661721156552  0.7664909589024731  0.4452502224388653
  0.6130845490881640  0.0955823965504408  0.4435688630257673
  0.4277499364530257  0.6798781288403291  0.5579980400351161
  0.4134269999240487  0.8649901474697330  0.5667989434574920
  0.3874575014954615  0.1225261317577733  0.5631745183602490
  0.6500872892379235  0.6571155172328389  0.4393261671119149
  0.8312396201182466  0.4540445310350663  0.5534826830394195
  0.7641374324577512  0.9902094362714564  0.4475891193584900
  0.7412784793425189  0.2433447298189151  0.4401510616593569
  0.7241807482269564  0.4305792530986636  0.4334258267341866
  0.8707367446449226  0.0157319455194198  0.5678480002610300
  0.9822656262299247  0.3486046317153892  0.5550072739850833
  0.8533015799061161  0.2025837908946428  0.5576815062092280
  0.9639075058234141  0.5351064051625443  0.5562431848433960
  0.9448656585561608  0.7883623901747470  0.5628711227038821
  0.8743856547020172  0.3228584412105135  0.4354174960607580
  0.8496205613699033  0.5812395520134359  0.4355084837585039
  0.9649260670023452  0.9097584460820372  0.4473162152745687
  0.8351603323102239  0.7659161924405566  0.4450204405685980
  0.9462826976315739  0.0962260516366200  0.4451012303422957
  0.7614222204638850  0.6792047688283418  0.5563756197046956
  0.7468139658044350  0.8641080839292172  0.5662280160147830
  0.7203172318951303  0.1230929065492887  0.5634030891266022
  0.9852909391051838  0.6566972546446905  0.4417700451857911
  0.2388457745087749  0.4328708031235564  0.6745231339561073
  0.2309303762837587  0.5129977633903238  0.6850009779235009
 
  0.00000000E+00  0.00000000E+00  0.00000000E+00
  0.00000000E+00  0.00000000E+00  0.00000000E+00
  0.00000000E+00  0.00000000E+00  0.00000000E+00
  0.00000000E+00  0.00000000E+00  0.00000000E+00
  0.00000000E+00  0.00000000E+00  0.00000000E+00
  0.00000000E+00  0.00000000E+00  0.00000000E+00
  0.00000000E+00  0.00000000E+00  0.00000000E+00
  0.00000000E+00  0.00000000E+00  0.00000000E+00
  0.00000000E+00  0.00000000E+00  0.00000000E+00
  0.00000000E+00  0.00000000E+00  0.00000000E+00
  0.00000000E+00  0.00000000E+00  0.00000000E+00
  0.00000000E+00  0.00000000E+00  0.00000000E+00
  0.00000000E+00  0.00000000E+00  0.00000000E+00
  0.00000000E+00  0.00000000E+00  0.00000000E+00
  0.00000000E+00  0.00000000E+00  0.00000000E+00
  0.00000000E+00  0.00000000E+00  0.00000000E+00
  0.00000000E+00  0.00000000E+00  0.00000000E+00
  0.00000000E+00  0.00000000E+00  0.00000000E+00
  0.00000000E+00  0.00000000E+00  0.00000000E+00
  0.00000000E+00  0.00000000E+00  0.00000000E+00
  0.00000000E+00  0.00000000E+00  0.00000000E+00
  0.00000000E+00  0.00000000E+00  0.00000000E+00
  0.00000000E+00  0.00000000E+00  0.00000000E+00
  0.00000000E+00  0.00000000E+00  0.00000000E+00
  0.00000000E+00  0.00000000E+00  0.00000000E+00
  0.00000000E+00  0.00000000E+00  0.00000000E+00
  0.00000000E+00  0.00000000E+00  0.00000000E+00
  0.00000000E+00  0.00000000E+00  0.00000000E+00
  0.00000000E+00  0.00000000E+00  0.00000000E+00
  0.00000000E+00  0.00000000E+00  0.00000000E+00
  0.00000000E+00  0.00000000E+00  0.00000000E+00
  0.00000000E+00  0.00000000E+00  0.00000000E+00
  0.00000000E+00  0.00000000E+00  0.00000000E+00
  0.00000000E+00  0.00000000E+00  0.00000000E+00
  0.00000000E+00  0.00000000E+00  0.00000000E+00
  0.00000000E+00  0.00000000E+00  0.00000000E+00
  0.00000000E+00  0.00000000E+00  0.00000000E+00
  0.00000000E+00  0.00000000E+00  0.00000000E+00
  0.00000000E+00  0.00000000E+00  0.00000000E+00
  0.00000000E+00  0.00000000E+00  0.00000000E+00
  0.00000000E+00  0.00000000E+00  0.00000000E+00
  0.00000000E+00  0.00000000E+00  0.00000000E+00
  0.00000000E+00  0.00000000E+00  0.00000000E+00
  0.00000000E+00  0.00000000E+00  0.00000000E+00
  0.00000000E+00  0.00000000E+00  0.00000000E+00
  0.00000000E+00  0.00000000E+00  0.00000000E+00
  0.00000000E+00  0.00000000E+00  0.00000000E+00
  0.00000000E+00  0.00000000E+00  0.00000000E+00
  0.00000000E+00  0.00000000E+00  0.00000000E+00
  0.00000000E+00  0.00000000E+00  0.00000000E+00
  0.00000000E+00  0.00000000E+00  0.00000000E+00
  0.00000000E+00  0.00000000E+00  0.00000000E+00
  0.00000000E+00  0.00000000E+00  0.00000000E+00
  0.00000000E+00  0.00000000E+00  0.00000000E+00
  0.00000000E+00  0.00000000E+00  0.00000000E+00
  0.00000000E+00  0.00000000E+00  0.00000000E+00
  0.00000000E+00  0.00000000E+00  0.00000000E+00
  0.00000000E+00  0.00000000E+00  0.00000000E+00
  0.00000000E+00  0.00000000E+00  0.00000000E+00
  0.00000000E+00  0.00000000E+00  0.00000000E+00
  0.00000000E+00  0.00000000E+00  0.00000000E+00
  0.00000000E+00  0.00000000E+00  0.00000000E+00
  0.00000000E+00  0.00000000E+00  0.00000000E+00
  0.00000000E+00  0.00000000E+00  0.00000000E+00
  0.00000000E+00  0.00000000E+00  0.00000000E+00
  0.00000000E+00  0.00000000E+00  0.00000000E+00
  0.00000000E+00  0.00000000E+00  0.00000000E+00
  0.00000000E+00  0.00000000E+00  0.00000000E+00
  0.00000000E+00  0.00000000E+00  0.00000000E+00
  0.00000000E+00  0.00000000E+00  0.00000000E+00
  0.00000000E+00  0.00000000E+00  0.00000000E+00
  0.00000000E+00  0.00000000E+00  0.00000000E+00
  0.00000000E+00  0.00000000E+00  0.00000000E+00
  0.00000000E+00  0.00000000E+00  0.00000000E+00
  0.00000000E+00  0.00000000E+00  0.00000000E+00
  0.00000000E+00  0.00000000E+00  0.00000000E+00
  0.00000000E+00  0.00000000E+00  0.00000000E+00
  0.00000000E+00  0.00000000E+00  0.00000000E+00
  0.00000000E+00  0.00000000E+00  0.00000000E+00
  0.00000000E+00  0.00000000E+00  0.00000000E+00
  0.00000000E+00  0.00000000E+00  0.00000000E+00
  0.00000000E+00  0.00000000E+00  0.00000000E+00
  0.00000000E+00  0.00000000E+00  0.00000000E+00
  0.00000000E+00  0.00000000E+00  0.00000000E+00
  0.00000000E+00  0.00000000E+00  0.00000000E+00
  0.00000000E+00  0.00000000E+00  0.00000000E+00
  0.00000000E+00  0.00000000E+00  0.00000000E+00
  0.00000000E+00  0.00000000E+00  0.00000000E+00
  0.00000000E+00  0.00000000E+00  0.00000000E+00
