 Sr2 Cu1 Cl2 O2                         
   1.00000000000000     
     3.8966763551108681    0.0000000000000000    0.0000000000000000
     0.0000000000000000    3.8967502944011549    0.0000000000000000
     0.0000000000000000    0.0000000000000000   20.8931568319259995
   Sr   Cu   Cl   O 
     2     1     2     2
Direct
  0.0000000542131957  0.9999999422942167  0.4177103959090331
  0.9999999029909148  0.0000000778389619  0.5822895610759957
  0.4999999836097331  0.4999999955375145  0.4999999921484601
  0.4999998762838445  0.5000000392687269  0.3556318027324821
  0.5000001513085621  0.4999999693914674  0.6443682503309844
  0.0000000310890087  0.4999999996728164  0.5000000088913268
  0.5000000005047340  0.9999999759962890  0.4999999889117248
 
  0.00000000E+00  0.00000000E+00  0.00000000E+00
  0.00000000E+00  0.00000000E+00  0.00000000E+00
  0.00000000E+00  0.00000000E+00  0.00000000E+00
  0.00000000E+00  0.00000000E+00  0.00000000E+00
  0.00000000E+00  0.00000000E+00  0.00000000E+00
  0.00000000E+00  0.00000000E+00  0.00000000E+00
  0.00000000E+00  0.00000000E+00  0.00000000E+00
