CONTCAR                                 
   1.00000000000000     
    13.3114004134999995    0.0000000000000000    0.0000000000000000
     0.0000000000000000   13.2841997146999997    0.0000000000000000
     0.0000000000000000    0.0000000000000000   29.9494991301999995
   Bi   I    O 
    54    12     1
Direct
  0.2489606623314960  0.6574288314848353  0.6513348916653446
  0.0829122179799206  0.3400963806638568  0.3472724351564244
  0.2482368896024498  0.2978559357642876  0.4161918967400890
  0.0839476660217108  0.7070109650743329  0.5823229270358331
  0.2502948027837682  0.0773717318854041  0.3857732722766799
  0.0833720973015618  0.9246815994375620  0.6136618043320439
  0.2506760601006396  0.9778818526607795  0.5482432559797709
  0.0834687179632252  0.0212935210682388  0.4513256312153373
  0.2505567174856821  0.2006044762582331  0.5746323087259284
  0.0829293347528109  0.7985738553914115  0.4243788534024068
  0.2503919800479775  0.7500162144982233  0.4915162892628256
  0.0835968886108781  0.2469588665546548  0.5075389076082507
  0.2521854222012398  0.5264403045427574  0.4677755641189221
  0.0834920031873971  0.4683783501461940  0.5377431314614324
  0.0838902383732249  0.5626939891588741  0.3725618854014184
  0.2435419044511387  0.4383828556295361  0.6230395175183271
  0.0816907871889289  0.3867627237408071  0.6932180024567010
  0.2492743142778257  0.6135043275403792  0.3035853252694050
  0.5834632689579170  0.6640465219048599  0.6517970533122056
  0.4160253608849744  0.3400780452712220  0.3480018011404460
  0.5831112791082264  0.2986064746430429  0.4161822803600962
  0.4159788350509251  0.7058861181826087  0.5834595965941912
  0.5839257089447362  0.0785268308277728  0.3857643678699019
  0.4157074260454940  0.9244092443820735  0.6149868013023311
  0.5824955138169543  0.9802128107273446  0.5496167567684681
  0.4172274583587890  0.0236284034002109  0.4514432458914421
  0.5822922686353702  0.2036696864211754  0.5770507281440889
  0.4182950191303501  0.8001056432440967  0.4245859921995046
  0.5837757719605339  0.7521812218284626  0.4928593813950962
  0.4182502524032882  0.2496944743205064  0.5083003571614302
  0.5821923600464662  0.5289388261488457  0.4662386570681677
  0.4179516564189779  0.4735703937776128  0.5338456556283687
  0.4150277947504618  0.5635660451507762  0.3727350826782509
  0.5819289949033688  0.4425897245384844  0.6264672754460110
  0.4453715528185607  0.3870053058447156  0.7080200099151753
  0.5826114586293718  0.6145069565227481  0.3046354337182517
  0.9183602917647880  0.6584766806721726  0.6511443461015304
  0.7504315104276138  0.3415584661933956  0.3479287168590492
  0.9178230095786164  0.2987175781094019  0.4162735971124967
  0.7509600385657378  0.7062886999141968  0.5834637879200815
  0.9163281007040029  0.0781534589186059  0.3859344836375596
  0.7504635515294592  0.9253082566238398  0.6147395023024345
  0.9161979025210926  0.9779171467604816  0.5480348381626140
  0.7499056931140765  0.0241513844456598  0.4518079833434818
  0.9174546867293245  0.2002322393180710  0.5753071560365715
  0.7491022399047538  0.8005629435659859  0.4248931227699664
  0.9163811358450489  0.7492675243724304  0.4919927836338202
  0.7488982182465374  0.2493155354364285  0.5093995017714905
  0.9146023309342020  0.5254626104272162  0.4676564626140066
  0.7486175918178203  0.4738826869060973  0.5335955800266473
  0.7510242109690332  0.5650403836166926  0.3726557075494949
  0.9225442008119312  0.4398397402092803  0.6222296980435502
  0.7219636624917286  0.3870453556375217  0.7072407226158473
  0.9179572518835190  0.6151820508177959  0.3040338773693203
  0.0839062671077620  0.5959843131527049  0.7382294056637010
  0.2516347026818330  0.4047097565032581  0.2602519688388437
  0.0835111069092657  0.1605810051958153  0.6676726006954852
  0.2501911442676310  0.8388300030589007  0.3330882430757142
  0.4196525982752582  0.6079304024746626  0.7396038246808524
  0.5824567245427085  0.4056133777605104  0.2611961912198618
  0.4143533252400065  0.1689214843938208  0.6685684903672707
  0.5829130586050967  0.8405714022585126  0.3324220043582785
  0.7490121358528338  0.6076873987304011  0.7391534005851869
  0.9137256659391388  0.4062544614770570  0.2603246887186575
  0.7522074433618700  0.1688919236432477  0.6680329414596716
  0.9171660230288884  0.8405132559527113  0.3326445323558061
  0.5840832098217764  0.3603387428161551  0.7401236508901613
 
  0.00000000E+00  0.00000000E+00  0.00000000E+00
  0.00000000E+00  0.00000000E+00  0.00000000E+00
  0.00000000E+00  0.00000000E+00  0.00000000E+00
  0.00000000E+00  0.00000000E+00  0.00000000E+00
  0.00000000E+00  0.00000000E+00  0.00000000E+00
  0.00000000E+00  0.00000000E+00  0.00000000E+00
  0.00000000E+00  0.00000000E+00  0.00000000E+00
  0.00000000E+00  0.00000000E+00  0.00000000E+00
  0.00000000E+00  0.00000000E+00  0.00000000E+00
  0.00000000E+00  0.00000000E+00  0.00000000E+00
  0.00000000E+00  0.00000000E+00  0.00000000E+00
  0.00000000E+00  0.00000000E+00  0.00000000E+00
  0.00000000E+00  0.00000000E+00  0.00000000E+00
  0.00000000E+00  0.00000000E+00  0.00000000E+00
  0.00000000E+00  0.00000000E+00  0.00000000E+00
  0.00000000E+00  0.00000000E+00  0.00000000E+00
  0.00000000E+00  0.00000000E+00  0.00000000E+00
  0.00000000E+00  0.00000000E+00  0.00000000E+00
  0.00000000E+00  0.00000000E+00  0.00000000E+00
  0.00000000E+00  0.00000000E+00  0.00000000E+00
  0.00000000E+00  0.00000000E+00  0.00000000E+00
  0.00000000E+00  0.00000000E+00  0.00000000E+00
  0.00000000E+00  0.00000000E+00  0.00000000E+00
  0.00000000E+00  0.00000000E+00  0.00000000E+00
  0.00000000E+00  0.00000000E+00  0.00000000E+00
  0.00000000E+00  0.00000000E+00  0.00000000E+00
  0.00000000E+00  0.00000000E+00  0.00000000E+00
  0.00000000E+00  0.00000000E+00  0.00000000E+00
  0.00000000E+00  0.00000000E+00  0.00000000E+00
  0.00000000E+00  0.00000000E+00  0.00000000E+00
  0.00000000E+00  0.00000000E+00  0.00000000E+00
  0.00000000E+00  0.00000000E+00  0.00000000E+00
  0.00000000E+00  0.00000000E+00  0.00000000E+00
  0.00000000E+00  0.00000000E+00  0.00000000E+00
  0.00000000E+00  0.00000000E+00  0.00000000E+00
  0.00000000E+00  0.00000000E+00  0.00000000E+00
  0.00000000E+00  0.00000000E+00  0.00000000E+00
  0.00000000E+00  0.00000000E+00  0.00000000E+00
  0.00000000E+00  0.00000000E+00  0.00000000E+00
  0.00000000E+00  0.00000000E+00  0.00000000E+00
  0.00000000E+00  0.00000000E+00  0.00000000E+00
  0.00000000E+00  0.00000000E+00  0.00000000E+00
  0.00000000E+00  0.00000000E+00  0.00000000E+00
  0.00000000E+00  0.00000000E+00  0.00000000E+00
  0.00000000E+00  0.00000000E+00  0.00000000E+00
  0.00000000E+00  0.00000000E+00  0.00000000E+00
  0.00000000E+00  0.00000000E+00  0.00000000E+00
  0.00000000E+00  0.00000000E+00  0.00000000E+00
  0.00000000E+00  0.00000000E+00  0.00000000E+00
  0.00000000E+00  0.00000000E+00  0.00000000E+00
  0.00000000E+00  0.00000000E+00  0.00000000E+00
  0.00000000E+00  0.00000000E+00  0.00000000E+00
  0.00000000E+00  0.00000000E+00  0.00000000E+00
  0.00000000E+00  0.00000000E+00  0.00000000E+00
  0.00000000E+00  0.00000000E+00  0.00000000E+00
  0.00000000E+00  0.00000000E+00  0.00000000E+00
  0.00000000E+00  0.00000000E+00  0.00000000E+00
  0.00000000E+00  0.00000000E+00  0.00000000E+00
  0.00000000E+00  0.00000000E+00  0.00000000E+00
  0.00000000E+00  0.00000000E+00  0.00000000E+00
  0.00000000E+00  0.00000000E+00  0.00000000E+00
  0.00000000E+00  0.00000000E+00  0.00000000E+00
  0.00000000E+00  0.00000000E+00  0.00000000E+00
  0.00000000E+00  0.00000000E+00  0.00000000E+00
  0.00000000E+00  0.00000000E+00  0.00000000E+00
  0.00000000E+00  0.00000000E+00  0.00000000E+00
  0.00000000E+00  0.00000000E+00  0.00000000E+00
