CONTCAR\(2)                             
   1.00000000000000     
    11.3158998488999991    0.0000000000000000    0.0000000000000000
     0.0000000000000000   12.4995002747000008    0.0000000000000000
     0.0000000000000000    0.0000000000000000   18.9974002838000011
   Ta   Te   Ir   O 
     6    24     6     1
Direct
  0.0019626490212940  0.0506558820497457  0.5032096334774121
  0.1687992603224518  0.7308443508661930  0.4928834062415564
  0.3334600795748248  0.0501367603410236  0.5041152980375400
  0.4973442944992313  0.7309511791463413  0.4928687072001888
  0.6646295835997602  0.0506585227248358  0.5030929863030452
  0.8331904607694882  0.7275590680346391  0.4963693515371148
  0.1667493542423124  0.0954893676247137  0.6069142528969051
  0.0011941365374035  0.8435290135348770  0.5782532122178938
  0.9992090497105619  0.6729400721056141  0.3943732366268503
  0.1735202354212629  0.4340689692501734  0.4333201564035091
  0.1667008474840590  0.9363289711075305  0.4183617392879828
 -0.0002383136350476  0.1985697812615527  0.4006319254973664
  0.0003316517501330  0.3442864184537676  0.5738852228697801
  0.1725548288219604  0.5834426642049938  0.5974854616548938
  0.4996692348018453  0.0957039182652814  0.6068280330023099
  0.3332207883342742  0.8465513738853557  0.5782760476218779
  0.3329625214358882  0.6893806215532685  0.3865512043656092
  0.4930676225778653  0.4343311665024815  0.4331433750775408
  0.4998229726337604  0.9364542991976055  0.4182720826143277
  0.3330085242827988  0.1985925513369979  0.4034821925912785
  0.3339279350408486  0.3278164114428769  0.5855419466472276
  0.4940694556538210  0.5837323017500738  0.5974971638673194
  0.8330978216176896  0.1003517900202560  0.6047364279424694
  0.6650423359857015  0.8434656469450130  0.5782363997547237
  0.6669931798646019  0.6731452296203647  0.3944445710441731
  0.8332168422373699  0.4334479870392100  0.4301369038838264
  0.8332886839451480  0.9341333875706758  0.4210369503468509
  0.6671477745119441  0.1982460551506825  0.4003377564088896
  0.6659630844937634  0.3442381272480606  0.5736703710155645
  0.8331999466214398  0.5846388813530122  0.6008395077421553
  0.0001125284971748  0.5338897553334705  0.5037493945627687
  0.1663979453507680  0.2398381822422076  0.5017452262322062
  0.3333168593960338  0.5593168024721816  0.4969875159481727
  0.5001387872881502  0.2398932463085116  0.5013514524626239
  0.6663549013131113  0.5339282914674489  0.5037379251392420
  0.8332218461567019  0.2446730699059035  0.4989971253153460
  0.3375100938395907  0.2540197396830762  0.6714657961614960
 
  0.00000000E+00  0.00000000E+00  0.00000000E+00
  0.00000000E+00  0.00000000E+00  0.00000000E+00
  0.00000000E+00  0.00000000E+00  0.00000000E+00
  0.00000000E+00  0.00000000E+00  0.00000000E+00
  0.00000000E+00  0.00000000E+00  0.00000000E+00
  0.00000000E+00  0.00000000E+00  0.00000000E+00
  0.00000000E+00  0.00000000E+00  0.00000000E+00
  0.00000000E+00  0.00000000E+00  0.00000000E+00
  0.00000000E+00  0.00000000E+00  0.00000000E+00
  0.00000000E+00  0.00000000E+00  0.00000000E+00
  0.00000000E+00  0.00000000E+00  0.00000000E+00
  0.00000000E+00  0.00000000E+00  0.00000000E+00
  0.00000000E+00  0.00000000E+00  0.00000000E+00
  0.00000000E+00  0.00000000E+00  0.00000000E+00
  0.00000000E+00  0.00000000E+00  0.00000000E+00
  0.00000000E+00  0.00000000E+00  0.00000000E+00
  0.00000000E+00  0.00000000E+00  0.00000000E+00
  0.00000000E+00  0.00000000E+00  0.00000000E+00
  0.00000000E+00  0.00000000E+00  0.00000000E+00
  0.00000000E+00  0.00000000E+00  0.00000000E+00
  0.00000000E+00  0.00000000E+00  0.00000000E+00
  0.00000000E+00  0.00000000E+00  0.00000000E+00
  0.00000000E+00  0.00000000E+00  0.00000000E+00
  0.00000000E+00  0.00000000E+00  0.00000000E+00
  0.00000000E+00  0.00000000E+00  0.00000000E+00
  0.00000000E+00  0.00000000E+00  0.00000000E+00
  0.00000000E+00  0.00000000E+00  0.00000000E+00
  0.00000000E+00  0.00000000E+00  0.00000000E+00
  0.00000000E+00  0.00000000E+00  0.00000000E+00
  0.00000000E+00  0.00000000E+00  0.00000000E+00
  0.00000000E+00  0.00000000E+00  0.00000000E+00
  0.00000000E+00  0.00000000E+00  0.00000000E+00
  0.00000000E+00  0.00000000E+00  0.00000000E+00
  0.00000000E+00  0.00000000E+00  0.00000000E+00
  0.00000000E+00  0.00000000E+00  0.00000000E+00
  0.00000000E+00  0.00000000E+00  0.00000000E+00
  0.00000000E+00  0.00000000E+00  0.00000000E+00
