CONTCAR                                 
   1.00000000000000     
    12.3037004471000007    0.0000000000000000    0.0000000000000000
     6.1518502235000003   10.6553171476999999    0.0000000000000000
     0.0000000000000000    0.0000000000000000   24.8090991973999984
   Mn   In   Se   O 
     9    18    36     1
Direct
  0.2189499244306981  0.2174179450988801  0.3276238672036459
  0.5363726159666489  0.2620732656418990  0.3240626857532267
  0.8982244703350957  0.2180697898665220  0.3273359412695655
  0.2628622429540340  0.5355404685073580  0.3239705948846885
  0.5362513279113716  0.5352869828981718  0.3237280273700568
  0.8866761516876599  0.5624532310741543  0.3255137652931345
  0.2189845476524674  0.8976358747400595  0.3273574170417987
  0.5635247712710481  0.8855766672496925  0.3254557344090168
  0.8873516521350902  0.8864961798812231  0.3257724337883221
  0.0004556374504716  0.0000207527924614  0.4847565150810724
  0.1082974594703755  0.1109506297583871  0.6526319892997630
  0.3350805893709580 -0.0003570497622926  0.4845662020292102
  0.4425227845667530  0.1100242631186465  0.6527796644558884
  0.6688307010231268  0.0000807816734284  0.4853823767638179
  0.7745367471277400  0.1110535958245497  0.6530892949993558
  0.0003589162714393  0.3343033640325297  0.4846195931387443
  0.1082525582247643  0.4444924611536272  0.6526846392102317
  0.3368048756193233  0.3347498704812065  0.4832229210614264
  0.4412972487594997  0.4440571802011006  0.6532954988235491
  0.6643277481504880  0.3353133606908903  0.4837870067007663
  0.7747884877277691  0.4444076776018135  0.6519036884653949
  0.0021256141925846  0.6672243428937404  0.4855011294945938
  0.1075735301131949  0.7777318067262660  0.6528104166604622
  0.3367508268743497  0.6632254087535531  0.4827183643216520
  0.4417286097439260  0.7768255947855818  0.6515945765241759
  0.6684704904874234  0.6672588449909637  0.4825521941239621
  0.7747878000681141  0.7777152068357852  0.6530153933511184
  0.0005618648440948 -0.0009163098876624  0.2970723028707309
  0.9971133143171436  0.0001840460905253  0.7014944894042617
  0.2230920475614876  0.2221851642223604  0.4292320272009826
  0.1116771788344636  0.1111926388095718  0.5489038379669674
  0.3372001498963268  0.9984947421414314  0.2980207009230219
  0.3309597744131537  0.9985792462688766  0.7008237659600647
  0.5582193230990092  0.2201485831491803  0.4280690908879785
  0.4454188074347454  0.1118387140003448  0.5489996185110729
  0.6576464979464721  0.0210267586029097  0.3044467810937513
  0.6641316828203028 -0.0005359324579203  0.7020138343572364
  0.8894665664377487  0.2223735107433044  0.4290643938646801
  0.7776927682805288  0.1125193901409785  0.5492836650661436
  0.9998949157229400  0.3359465372354640  0.2982705147518628
  0.9967787095965606  0.3333847514896517  0.7009566726154155
  0.2215120246250581  0.5563935214566903  0.4278797782683496
  0.1131002993690060  0.4442130486846944  0.5489261055424983
  0.3219777427496913  0.3211772897735237  0.2884333323769236
  0.3304575084228741  0.3323906149887471  0.7015840055086560
  0.5578292939468456  0.5557614689274858  0.4273577978811630
  0.4448759555395359  0.4449783414319093  0.5497497169834019
  0.6914913368581388  0.3210284037716412  0.2880008683024764
  0.6640631638532279  0.3336846733155149  0.7014195144922853
  0.8912480704374728  0.5567547493429676  0.4289479527303751
  0.7770685830294707  0.4456338340542125  0.5482308429787475
  0.0217706503319312  0.6568569139831126  0.3042464355682880
  0.9970001601682608  0.6664309106517882  0.7016536576234159
  0.2227309235110916  0.8892182486156738  0.4289568216742173
  0.1135849968692450  0.7771917696916751  0.5490330619767725
  0.3218983750169108  0.6907169299516035  0.2880996621220149
  0.3302897167990447  0.6670155945488786  0.7012283936140704
  0.5575109071554512  0.8902632773973325  0.4288923901180794
  0.4464237314605061  0.7762762065823291  0.5479201343898696
  0.6571105049740853  0.6559679715607460  0.3045767626059358
  0.6634588640126435  0.6663110716040848  0.7009442871346991
  0.8898412413434907  0.8885114087452847  0.4293782681077674
  0.7785892558595908  0.7774769268292405  0.5493976153376203
  0.4451052928750653  0.4444070680316039  0.3363190236694840
 
  0.00000000E+00  0.00000000E+00  0.00000000E+00
  0.00000000E+00  0.00000000E+00  0.00000000E+00
  0.00000000E+00  0.00000000E+00  0.00000000E+00
  0.00000000E+00  0.00000000E+00  0.00000000E+00
  0.00000000E+00  0.00000000E+00  0.00000000E+00
  0.00000000E+00  0.00000000E+00  0.00000000E+00
  0.00000000E+00  0.00000000E+00  0.00000000E+00
  0.00000000E+00  0.00000000E+00  0.00000000E+00
  0.00000000E+00  0.00000000E+00  0.00000000E+00
  0.00000000E+00  0.00000000E+00  0.00000000E+00
  0.00000000E+00  0.00000000E+00  0.00000000E+00
  0.00000000E+00  0.00000000E+00  0.00000000E+00
  0.00000000E+00  0.00000000E+00  0.00000000E+00
  0.00000000E+00  0.00000000E+00  0.00000000E+00
  0.00000000E+00  0.00000000E+00  0.00000000E+00
  0.00000000E+00  0.00000000E+00  0.00000000E+00
  0.00000000E+00  0.00000000E+00  0.00000000E+00
  0.00000000E+00  0.00000000E+00  0.00000000E+00
  0.00000000E+00  0.00000000E+00  0.00000000E+00
  0.00000000E+00  0.00000000E+00  0.00000000E+00
  0.00000000E+00  0.00000000E+00  0.00000000E+00
  0.00000000E+00  0.00000000E+00  0.00000000E+00
  0.00000000E+00  0.00000000E+00  0.00000000E+00
  0.00000000E+00  0.00000000E+00  0.00000000E+00
  0.00000000E+00  0.00000000E+00  0.00000000E+00
  0.00000000E+00  0.00000000E+00  0.00000000E+00
  0.00000000E+00  0.00000000E+00  0.00000000E+00
  0.00000000E+00  0.00000000E+00  0.00000000E+00
  0.00000000E+00  0.00000000E+00  0.00000000E+00
  0.00000000E+00  0.00000000E+00  0.00000000E+00
  0.00000000E+00  0.00000000E+00  0.00000000E+00
  0.00000000E+00  0.00000000E+00  0.00000000E+00
  0.00000000E+00  0.00000000E+00  0.00000000E+00
  0.00000000E+00  0.00000000E+00  0.00000000E+00
  0.00000000E+00  0.00000000E+00  0.00000000E+00
  0.00000000E+00  0.00000000E+00  0.00000000E+00
  0.00000000E+00  0.00000000E+00  0.00000000E+00
  0.00000000E+00  0.00000000E+00  0.00000000E+00
  0.00000000E+00  0.00000000E+00  0.00000000E+00
  0.00000000E+00  0.00000000E+00  0.00000000E+00
  0.00000000E+00  0.00000000E+00  0.00000000E+00
  0.00000000E+00  0.00000000E+00  0.00000000E+00
  0.00000000E+00  0.00000000E+00  0.00000000E+00
  0.00000000E+00  0.00000000E+00  0.00000000E+00
  0.00000000E+00  0.00000000E+00  0.00000000E+00
  0.00000000E+00  0.00000000E+00  0.00000000E+00
  0.00000000E+00  0.00000000E+00  0.00000000E+00
  0.00000000E+00  0.00000000E+00  0.00000000E+00
  0.00000000E+00  0.00000000E+00  0.00000000E+00
  0.00000000E+00  0.00000000E+00  0.00000000E+00
  0.00000000E+00  0.00000000E+00  0.00000000E+00
  0.00000000E+00  0.00000000E+00  0.00000000E+00
  0.00000000E+00  0.00000000E+00  0.00000000E+00
  0.00000000E+00  0.00000000E+00  0.00000000E+00
  0.00000000E+00  0.00000000E+00  0.00000000E+00
  0.00000000E+00  0.00000000E+00  0.00000000E+00
  0.00000000E+00  0.00000000E+00  0.00000000E+00
  0.00000000E+00  0.00000000E+00  0.00000000E+00
  0.00000000E+00  0.00000000E+00  0.00000000E+00
  0.00000000E+00  0.00000000E+00  0.00000000E+00
  0.00000000E+00  0.00000000E+00  0.00000000E+00
  0.00000000E+00  0.00000000E+00  0.00000000E+00
  0.00000000E+00  0.00000000E+00  0.00000000E+00
  0.00000000E+00  0.00000000E+00  0.00000000E+00
