 Cr1 I2                                 
   1.00000000000000     
     3.9236821180767900    0.0000000000000000    0.0000000000000000
    -1.9618405619881130    3.7229527097896646    0.0000000000000000
     0.0000000000000000    0.0000000000000000   18.2658245571000037
   Cr   I 
     1     2
Direct
  0.0000000016816415  0.0000000042388777  0.5000000003656666
  0.3724877158078286  0.7448766911312816  0.5913374102994240
  0.6275122825105299  0.2551233046298336  0.4086625893349094
 
  0.00000000E+00  0.00000000E+00  0.00000000E+00
  0.00000000E+00  0.00000000E+00  0.00000000E+00
  0.00000000E+00  0.00000000E+00  0.00000000E+00
