G   58   54    1    0.005     # Parameters to Generate KPOINTS (Don't Edit This Line)
    1568
Reciprocal lattice
    0.000000000000    0.000000000000    0.000000000000       1
    0.017241379310    0.000000000000    0.000000000000       2
    0.034482758621    0.000000000000    0.000000000000       2
    0.051724137931    0.000000000000    0.000000000000       2
    0.068965517241    0.000000000000    0.000000000000       2
    0.086206896552    0.000000000000    0.000000000000       2
    0.103448275862    0.000000000000    0.000000000000       2
    0.120689655172    0.000000000000    0.000000000000       2
    0.137931034483    0.000000000000    0.000000000000       2
    0.155172413793    0.000000000000    0.000000000000       2
    0.172413793103    0.000000000000    0.000000000000       2
    0.189655172414    0.000000000000    0.000000000000       2
    0.206896551724    0.000000000000    0.000000000000       2
    0.224137931034    0.000000000000    0.000000000000       2
    0.241379310345    0.000000000000    0.000000000000       2
    0.258620689655    0.000000000000    0.000000000000       2
    0.275862068966    0.000000000000    0.000000000000       2
    0.293103448276    0.000000000000    0.000000000000       2
    0.310344827586    0.000000000000    0.000000000000       2
    0.327586206897    0.000000000000    0.000000000000       2
    0.344827586207    0.000000000000    0.000000000000       2
    0.362068965517    0.000000000000    0.000000000000       2
    0.379310344828    0.000000000000    0.000000000000       2
    0.396551724138    0.000000000000    0.000000000000       2
    0.413793103448    0.000000000000    0.000000000000       2
    0.431034482759    0.000000000000    0.000000000000       2
    0.448275862069    0.000000000000    0.000000000000       2
    0.465517241379    0.000000000000    0.000000000000       2
    0.482758620690    0.000000000000    0.000000000000       2
    0.500000000000    0.000000000000    0.000000000000       1
    0.000000000000    0.018518518519    0.000000000000       2
    0.017241379310    0.018518518519    0.000000000000       2
    0.034482758621    0.018518518519    0.000000000000       2
    0.051724137931    0.018518518519    0.000000000000       2
    0.068965517241    0.018518518519    0.000000000000       2
    0.086206896552    0.018518518519    0.000000000000       2
    0.103448275862    0.018518518519    0.000000000000       2
    0.120689655172    0.018518518519    0.000000000000       2
    0.137931034483    0.018518518519    0.000000000000       2
    0.155172413793    0.018518518519    0.000000000000       2
    0.172413793103    0.018518518519    0.000000000000       2
    0.189655172414    0.018518518519    0.000000000000       2
    0.206896551724    0.018518518519    0.000000000000       2
    0.224137931034    0.018518518519    0.000000000000       2
    0.241379310345    0.018518518519    0.000000000000       2
    0.258620689655    0.018518518519    0.000000000000       2
    0.275862068966    0.018518518519    0.000000000000       2
    0.293103448276    0.018518518519    0.000000000000       2
    0.310344827586    0.018518518519    0.000000000000       2
    0.327586206897    0.018518518519    0.000000000000       2
    0.344827586207    0.018518518519    0.000000000000       2
    0.362068965517    0.018518518519    0.000000000000       2
    0.379310344828    0.018518518519    0.000000000000       2
    0.396551724138    0.018518518519    0.000000000000       2
    0.413793103448    0.018518518519    0.000000000000       2
    0.431034482759    0.018518518519    0.000000000000       2
    0.448275862069    0.018518518519    0.000000000000       2
    0.465517241379    0.018518518519    0.000000000000       2
    0.482758620690    0.018518518519    0.000000000000       2
    0.500000000000    0.018518518519    0.000000000000       2
   -0.482758620690    0.018518518519    0.000000000000       2
   -0.465517241379    0.018518518519    0.000000000000       2
   -0.448275862069    0.018518518519    0.000000000000       2
   -0.431034482759    0.018518518519    0.000000000000       2
   -0.413793103448    0.018518518519    0.000000000000       2
   -0.396551724138    0.018518518519    0.000000000000       2
   -0.379310344828    0.018518518519    0.000000000000       2
   -0.362068965517    0.018518518519    0.000000000000       2
   -0.344827586207    0.018518518519    0.000000000000       2
   -0.327586206897    0.018518518519    0.000000000000       2
   -0.310344827586    0.018518518519    0.000000000000       2
   -0.293103448276    0.018518518519    0.000000000000       2
   -0.275862068966    0.018518518519    0.000000000000       2
   -0.258620689655    0.018518518519    0.000000000000       2
   -0.241379310345    0.018518518519    0.000000000000       2
   -0.224137931034    0.018518518519    0.000000000000       2
   -0.206896551724    0.018518518519    0.000000000000       2
   -0.189655172414    0.018518518519    0.000000000000       2
   -0.172413793103    0.018518518519    0.000000000000       2
   -0.155172413793    0.018518518519    0.000000000000       2
   -0.137931034483    0.018518518519    0.000000000000       2
   -0.120689655172    0.018518518519    0.000000000000       2
   -0.103448275862    0.018518518519    0.000000000000       2
   -0.086206896552    0.018518518519    0.000000000000       2
   -0.068965517241    0.018518518519    0.000000000000       2
   -0.051724137931    0.018518518519    0.000000000000       2
   -0.034482758621    0.018518518519    0.000000000000       2
   -0.017241379310    0.018518518519    0.000000000000       2
    0.000000000000    0.037037037037    0.000000000000       2
    0.017241379310    0.037037037037    0.000000000000       2
    0.034482758621    0.037037037037    0.000000000000       2
    0.051724137931    0.037037037037    0.000000000000       2
    0.068965517241    0.037037037037    0.000000000000       2
    0.086206896552    0.037037037037    0.000000000000       2
    0.103448275862    0.037037037037    0.000000000000       2
    0.120689655172    0.037037037037    0.000000000000       2
    0.137931034483    0.037037037037    0.000000000000       2
    0.155172413793    0.037037037037    0.000000000000       2
    0.172413793103    0.037037037037    0.000000000000       2
    0.189655172414    0.037037037037    0.000000000000       2
    0.206896551724    0.037037037037    0.000000000000       2
    0.224137931034    0.037037037037    0.000000000000       2
    0.241379310345    0.037037037037    0.000000000000       2
    0.258620689655    0.037037037037    0.000000000000       2
    0.275862068966    0.037037037037    0.000000000000       2
    0.293103448276    0.037037037037    0.000000000000       2
    0.310344827586    0.037037037037    0.000000000000       2
    0.327586206897    0.037037037037    0.000000000000       2
    0.344827586207    0.037037037037    0.000000000000       2
    0.362068965517    0.037037037037    0.000000000000       2
    0.379310344828    0.037037037037    0.000000000000       2
    0.396551724138    0.037037037037    0.000000000000       2
    0.413793103448    0.037037037037    0.000000000000       2
    0.431034482759    0.037037037037    0.000000000000       2
    0.448275862069    0.037037037037    0.000000000000       2
    0.465517241379    0.037037037037    0.000000000000       2
    0.482758620690    0.037037037037    0.000000000000       2
    0.500000000000    0.037037037037    0.000000000000       2
   -0.482758620690    0.037037037037    0.000000000000       2
   -0.465517241379    0.037037037037    0.000000000000       2
   -0.448275862069    0.037037037037    0.000000000000       2
   -0.431034482759    0.037037037037    0.000000000000       2
   -0.413793103448    0.037037037037    0.000000000000       2
   -0.396551724138    0.037037037037    0.000000000000       2
   -0.379310344828    0.037037037037    0.000000000000       2
   -0.362068965517    0.037037037037    0.000000000000       2
   -0.344827586207    0.037037037037    0.000000000000       2
   -0.327586206897    0.037037037037    0.000000000000       2
   -0.310344827586    0.037037037037    0.000000000000       2
   -0.293103448276    0.037037037037    0.000000000000       2
   -0.275862068966    0.037037037037    0.000000000000       2
   -0.258620689655    0.037037037037    0.000000000000       2
   -0.241379310345    0.037037037037    0.000000000000       2
   -0.224137931034    0.037037037037    0.000000000000       2
   -0.206896551724    0.037037037037    0.000000000000       2
   -0.189655172414    0.037037037037    0.000000000000       2
   -0.172413793103    0.037037037037    0.000000000000       2
   -0.155172413793    0.037037037037    0.000000000000       2
   -0.137931034483    0.037037037037    0.000000000000       2
   -0.120689655172    0.037037037037    0.000000000000       2
   -0.103448275862    0.037037037037    0.000000000000       2
   -0.086206896552    0.037037037037    0.000000000000       2
   -0.068965517241    0.037037037037    0.000000000000       2
   -0.051724137931    0.037037037037    0.000000000000       2
   -0.034482758621    0.037037037037    0.000000000000       2
   -0.017241379310    0.037037037037    0.000000000000       2
    0.000000000000    0.055555555556    0.000000000000       2
    0.017241379310    0.055555555556    0.000000000000       2
    0.034482758621    0.055555555556    0.000000000000       2
    0.051724137931    0.055555555556    0.000000000000       2
    0.068965517241    0.055555555556    0.000000000000       2
    0.086206896552    0.055555555556    0.000000000000       2
    0.103448275862    0.055555555556    0.000000000000       2
    0.120689655172    0.055555555556    0.000000000000       2
    0.137931034483    0.055555555556    0.000000000000       2
    0.155172413793    0.055555555556    0.000000000000       2
    0.172413793103    0.055555555556    0.000000000000       2
    0.189655172414    0.055555555556    0.000000000000       2
    0.206896551724    0.055555555556    0.000000000000       2
    0.224137931034    0.055555555556    0.000000000000       2
    0.241379310345    0.055555555556    0.000000000000       2
    0.258620689655    0.055555555556    0.000000000000       2
    0.275862068966    0.055555555556    0.000000000000       2
    0.293103448276    0.055555555556    0.000000000000       2
    0.310344827586    0.055555555556    0.000000000000       2
    0.327586206897    0.055555555556    0.000000000000       2
    0.344827586207    0.055555555556    0.000000000000       2
    0.362068965517    0.055555555556    0.000000000000       2
    0.379310344828    0.055555555556    0.000000000000       2
    0.396551724138    0.055555555556    0.000000000000       2
    0.413793103448    0.055555555556    0.000000000000       2
    0.431034482759    0.055555555556    0.000000000000       2
    0.448275862069    0.055555555556    0.000000000000       2
    0.465517241379    0.055555555556    0.000000000000       2
    0.482758620690    0.055555555556    0.000000000000       2
    0.500000000000    0.055555555556    0.000000000000       2
   -0.482758620690    0.055555555556    0.000000000000       2
   -0.465517241379    0.055555555556    0.000000000000       2
   -0.448275862069    0.055555555556    0.000000000000       2
   -0.431034482759    0.055555555556    0.000000000000       2
   -0.413793103448    0.055555555556    0.000000000000       2
   -0.396551724138    0.055555555556    0.000000000000       2
   -0.379310344828    0.055555555556    0.000000000000       2
   -0.362068965517    0.055555555556    0.000000000000       2
   -0.344827586207    0.055555555556    0.000000000000       2
   -0.327586206897    0.055555555556    0.000000000000       2
   -0.310344827586    0.055555555556    0.000000000000       2
   -0.293103448276    0.055555555556    0.000000000000       2
   -0.275862068966    0.055555555556    0.000000000000       2
   -0.258620689655    0.055555555556    0.000000000000       2
   -0.241379310345    0.055555555556    0.000000000000       2
   -0.224137931034    0.055555555556    0.000000000000       2
   -0.206896551724    0.055555555556    0.000000000000       2
   -0.189655172414    0.055555555556    0.000000000000       2
   -0.172413793103    0.055555555556    0.000000000000       2
   -0.155172413793    0.055555555556    0.000000000000       2
   -0.137931034483    0.055555555556    0.000000000000       2
   -0.120689655172    0.055555555556    0.000000000000       2
   -0.103448275862    0.055555555556    0.000000000000       2
   -0.086206896552    0.055555555556    0.000000000000       2
   -0.068965517241    0.055555555556    0.000000000000       2
   -0.051724137931    0.055555555556    0.000000000000       2
   -0.034482758621    0.055555555556    0.000000000000       2
   -0.017241379310    0.055555555556    0.000000000000       2
    0.000000000000    0.074074074074    0.000000000000       2
    0.017241379310    0.074074074074    0.000000000000       2
    0.034482758621    0.074074074074    0.000000000000       2
    0.051724137931    0.074074074074    0.000000000000       2
    0.068965517241    0.074074074074    0.000000000000       2
    0.086206896552    0.074074074074    0.000000000000       2
    0.103448275862    0.074074074074    0.000000000000       2
    0.120689655172    0.074074074074    0.000000000000       2
    0.137931034483    0.074074074074    0.000000000000       2
    0.155172413793    0.074074074074    0.000000000000       2
    0.172413793103    0.074074074074    0.000000000000       2
    0.189655172414    0.074074074074    0.000000000000       2
    0.206896551724    0.074074074074    0.000000000000       2
    0.224137931034    0.074074074074    0.000000000000       2
    0.241379310345    0.074074074074    0.000000000000       2
    0.258620689655    0.074074074074    0.000000000000       2
    0.275862068966    0.074074074074    0.000000000000       2
    0.293103448276    0.074074074074    0.000000000000       2
    0.310344827586    0.074074074074    0.000000000000       2
    0.327586206897    0.074074074074    0.000000000000       2
    0.344827586207    0.074074074074    0.000000000000       2
    0.362068965517    0.074074074074    0.000000000000       2
    0.379310344828    0.074074074074    0.000000000000       2
    0.396551724138    0.074074074074    0.000000000000       2
    0.413793103448    0.074074074074    0.000000000000       2
    0.431034482759    0.074074074074    0.000000000000       2
    0.448275862069    0.074074074074    0.000000000000       2
    0.465517241379    0.074074074074    0.000000000000       2
    0.482758620690    0.074074074074    0.000000000000       2
    0.500000000000    0.074074074074    0.000000000000       2
   -0.482758620690    0.074074074074    0.000000000000       2
   -0.465517241379    0.074074074074    0.000000000000       2
   -0.448275862069    0.074074074074    0.000000000000       2
   -0.431034482759    0.074074074074    0.000000000000       2
   -0.413793103448    0.074074074074    0.000000000000       2
   -0.396551724138    0.074074074074    0.000000000000       2
   -0.379310344828    0.074074074074    0.000000000000       2
   -0.362068965517    0.074074074074    0.000000000000       2
   -0.344827586207    0.074074074074    0.000000000000       2
   -0.327586206897    0.074074074074    0.000000000000       2
   -0.310344827586    0.074074074074    0.000000000000       2
   -0.293103448276    0.074074074074    0.000000000000       2
   -0.275862068966    0.074074074074    0.000000000000       2
   -0.258620689655    0.074074074074    0.000000000000       2
   -0.241379310345    0.074074074074    0.000000000000       2
   -0.224137931034    0.074074074074    0.000000000000       2
   -0.206896551724    0.074074074074    0.000000000000       2
   -0.189655172414    0.074074074074    0.000000000000       2
   -0.172413793103    0.074074074074    0.000000000000       2
   -0.155172413793    0.074074074074    0.000000000000       2
   -0.137931034483    0.074074074074    0.000000000000       2
   -0.120689655172    0.074074074074    0.000000000000       2
   -0.103448275862    0.074074074074    0.000000000000       2
   -0.086206896552    0.074074074074    0.000000000000       2
   -0.068965517241    0.074074074074    0.000000000000       2
   -0.051724137931    0.074074074074    0.000000000000       2
   -0.034482758621    0.074074074074    0.000000000000       2
   -0.017241379310    0.074074074074    0.000000000000       2
    0.000000000000    0.092592592593    0.000000000000       2
    0.017241379310    0.092592592593    0.000000000000       2
    0.034482758621    0.092592592593    0.000000000000       2
    0.051724137931    0.092592592593    0.000000000000       2
    0.068965517241    0.092592592593    0.000000000000       2
    0.086206896552    0.092592592593    0.000000000000       2
    0.103448275862    0.092592592593    0.000000000000       2
    0.120689655172    0.092592592593    0.000000000000       2
    0.137931034483    0.092592592593    0.000000000000       2
    0.155172413793    0.092592592593    0.000000000000       2
    0.172413793103    0.092592592593    0.000000000000       2
    0.189655172414    0.092592592593    0.000000000000       2
    0.206896551724    0.092592592593    0.000000000000       2
    0.224137931034    0.092592592593    0.000000000000       2
    0.241379310345    0.092592592593    0.000000000000       2
    0.258620689655    0.092592592593    0.000000000000       2
    0.275862068966    0.092592592593    0.000000000000       2
    0.293103448276    0.092592592593    0.000000000000       2
    0.310344827586    0.092592592593    0.000000000000       2
    0.327586206897    0.092592592593    0.000000000000       2
    0.344827586207    0.092592592593    0.000000000000       2
    0.362068965517    0.092592592593    0.000000000000       2
    0.379310344828    0.092592592593    0.000000000000       2
    0.396551724138    0.092592592593    0.000000000000       2
    0.413793103448    0.092592592593    0.000000000000       2
    0.431034482759    0.092592592593    0.000000000000       2
    0.448275862069    0.092592592593    0.000000000000       2
    0.465517241379    0.092592592593    0.000000000000       2
    0.482758620690    0.092592592593    0.000000000000       2
    0.500000000000    0.092592592593    0.000000000000       2
   -0.482758620690    0.092592592593    0.000000000000       2
   -0.465517241379    0.092592592593    0.000000000000       2
   -0.448275862069    0.092592592593    0.000000000000       2
   -0.431034482759    0.092592592593    0.000000000000       2
   -0.413793103448    0.092592592593    0.000000000000       2
   -0.396551724138    0.092592592593    0.000000000000       2
   -0.379310344828    0.092592592593    0.000000000000       2
   -0.362068965517    0.092592592593    0.000000000000       2
   -0.344827586207    0.092592592593    0.000000000000       2
   -0.327586206897    0.092592592593    0.000000000000       2
   -0.310344827586    0.092592592593    0.000000000000       2
   -0.293103448276    0.092592592593    0.000000000000       2
   -0.275862068966    0.092592592593    0.000000000000       2
   -0.258620689655    0.092592592593    0.000000000000       2
   -0.241379310345    0.092592592593    0.000000000000       2
   -0.224137931034    0.092592592593    0.000000000000       2
   -0.206896551724    0.092592592593    0.000000000000       2
   -0.189655172414    0.092592592593    0.000000000000       2
   -0.172413793103    0.092592592593    0.000000000000       2
   -0.155172413793    0.092592592593    0.000000000000       2
   -0.137931034483    0.092592592593    0.000000000000       2
   -0.120689655172    0.092592592593    0.000000000000       2
   -0.103448275862    0.092592592593    0.000000000000       2
   -0.086206896552    0.092592592593    0.000000000000       2
   -0.068965517241    0.092592592593    0.000000000000       2
   -0.051724137931    0.092592592593    0.000000000000       2
   -0.034482758621    0.092592592593    0.000000000000       2
   -0.017241379310    0.092592592593    0.000000000000       2
    0.000000000000    0.111111111111    0.000000000000       2
    0.017241379310    0.111111111111    0.000000000000       2
    0.034482758621    0.111111111111    0.000000000000       2
    0.051724137931    0.111111111111    0.000000000000       2
    0.068965517241    0.111111111111    0.000000000000       2
    0.086206896552    0.111111111111    0.000000000000       2
    0.103448275862    0.111111111111    0.000000000000       2
    0.120689655172    0.111111111111    0.000000000000       2
    0.137931034483    0.111111111111    0.000000000000       2
    0.155172413793    0.111111111111    0.000000000000       2
    0.172413793103    0.111111111111    0.000000000000       2
    0.189655172414    0.111111111111    0.000000000000       2
    0.206896551724    0.111111111111    0.000000000000       2
    0.224137931034    0.111111111111    0.000000000000       2
    0.241379310345    0.111111111111    0.000000000000       2
    0.258620689655    0.111111111111    0.000000000000       2
    0.275862068966    0.111111111111    0.000000000000       2
    0.293103448276    0.111111111111    0.000000000000       2
    0.310344827586    0.111111111111    0.000000000000       2
    0.327586206897    0.111111111111    0.000000000000       2
    0.344827586207    0.111111111111    0.000000000000       2
    0.362068965517    0.111111111111    0.000000000000       2
    0.379310344828    0.111111111111    0.000000000000       2
    0.396551724138    0.111111111111    0.000000000000       2
    0.413793103448    0.111111111111    0.000000000000       2
    0.431034482759    0.111111111111    0.000000000000       2
    0.448275862069    0.111111111111    0.000000000000       2
    0.465517241379    0.111111111111    0.000000000000       2
    0.482758620690    0.111111111111    0.000000000000       2
    0.500000000000    0.111111111111    0.000000000000       2
   -0.482758620690    0.111111111111    0.000000000000       2
   -0.465517241379    0.111111111111    0.000000000000       2
   -0.448275862069    0.111111111111    0.000000000000       2
   -0.431034482759    0.111111111111    0.000000000000       2
   -0.413793103448    0.111111111111    0.000000000000       2
   -0.396551724138    0.111111111111    0.000000000000       2
   -0.379310344828    0.111111111111    0.000000000000       2
   -0.362068965517    0.111111111111    0.000000000000       2
   -0.344827586207    0.111111111111    0.000000000000       2
   -0.327586206897    0.111111111111    0.000000000000       2
   -0.310344827586    0.111111111111    0.000000000000       2
   -0.293103448276    0.111111111111    0.000000000000       2
   -0.275862068966    0.111111111111    0.000000000000       2
   -0.258620689655    0.111111111111    0.000000000000       2
   -0.241379310345    0.111111111111    0.000000000000       2
   -0.224137931034    0.111111111111    0.000000000000       2
   -0.206896551724    0.111111111111    0.000000000000       2
   -0.189655172414    0.111111111111    0.000000000000       2
   -0.172413793103    0.111111111111    0.000000000000       2
   -0.155172413793    0.111111111111    0.000000000000       2
   -0.137931034483    0.111111111111    0.000000000000       2
   -0.120689655172    0.111111111111    0.000000000000       2
   -0.103448275862    0.111111111111    0.000000000000       2
   -0.086206896552    0.111111111111    0.000000000000       2
   -0.068965517241    0.111111111111    0.000000000000       2
   -0.051724137931    0.111111111111    0.000000000000       2
   -0.034482758621    0.111111111111    0.000000000000       2
   -0.017241379310    0.111111111111    0.000000000000       2
    0.000000000000    0.129629629630    0.000000000000       2
    0.017241379310    0.129629629630    0.000000000000       2
    0.034482758621    0.129629629630    0.000000000000       2
    0.051724137931    0.129629629630    0.000000000000       2
    0.068965517241    0.129629629630    0.000000000000       2
    0.086206896552    0.129629629630    0.000000000000       2
    0.103448275862    0.129629629630    0.000000000000       2
    0.120689655172    0.129629629630    0.000000000000       2
    0.137931034483    0.129629629630    0.000000000000       2
    0.155172413793    0.129629629630    0.000000000000       2
    0.172413793103    0.129629629630    0.000000000000       2
    0.189655172414    0.129629629630    0.000000000000       2
    0.206896551724    0.129629629630    0.000000000000       2
    0.224137931034    0.129629629630    0.000000000000       2
    0.241379310345    0.129629629630    0.000000000000       2
    0.258620689655    0.129629629630    0.000000000000       2
    0.275862068966    0.129629629630    0.000000000000       2
    0.293103448276    0.129629629630    0.000000000000       2
    0.310344827586    0.129629629630    0.000000000000       2
    0.327586206897    0.129629629630    0.000000000000       2
    0.344827586207    0.129629629630    0.000000000000       2
    0.362068965517    0.129629629630    0.000000000000       2
    0.379310344828    0.129629629630    0.000000000000       2
    0.396551724138    0.129629629630    0.000000000000       2
    0.413793103448    0.129629629630    0.000000000000       2
    0.431034482759    0.129629629630    0.000000000000       2
    0.448275862069    0.129629629630    0.000000000000       2
    0.465517241379    0.129629629630    0.000000000000       2
    0.482758620690    0.129629629630    0.000000000000       2
    0.500000000000    0.129629629630    0.000000000000       2
   -0.482758620690    0.129629629630    0.000000000000       2
   -0.465517241379    0.129629629630    0.000000000000       2
   -0.448275862069    0.129629629630    0.000000000000       2
   -0.431034482759    0.129629629630    0.000000000000       2
   -0.413793103448    0.129629629630    0.000000000000       2
   -0.396551724138    0.129629629630    0.000000000000       2
   -0.379310344828    0.129629629630    0.000000000000       2
   -0.362068965517    0.129629629630    0.000000000000       2
   -0.344827586207    0.129629629630    0.000000000000       2
   -0.327586206897    0.129629629630    0.000000000000       2
   -0.310344827586    0.129629629630    0.000000000000       2
   -0.293103448276    0.129629629630    0.000000000000       2
   -0.275862068966    0.129629629630    0.000000000000       2
   -0.258620689655    0.129629629630    0.000000000000       2
   -0.241379310345    0.129629629630    0.000000000000       2
   -0.224137931034    0.129629629630    0.000000000000       2
   -0.206896551724    0.129629629630    0.000000000000       2
   -0.189655172414    0.129629629630    0.000000000000       2
   -0.172413793103    0.129629629630    0.000000000000       2
   -0.155172413793    0.129629629630    0.000000000000       2
   -0.137931034483    0.129629629630    0.000000000000       2
   -0.120689655172    0.129629629630    0.000000000000       2
   -0.103448275862    0.129629629630    0.000000000000       2
   -0.086206896552    0.129629629630    0.000000000000       2
   -0.068965517241    0.129629629630    0.000000000000       2
   -0.051724137931    0.129629629630    0.000000000000       2
   -0.034482758621    0.129629629630    0.000000000000       2
   -0.017241379310    0.129629629630    0.000000000000       2
    0.000000000000    0.148148148148    0.000000000000       2
    0.017241379310    0.148148148148    0.000000000000       2
    0.034482758621    0.148148148148    0.000000000000       2
    0.051724137931    0.148148148148    0.000000000000       2
    0.068965517241    0.148148148148    0.000000000000       2
    0.086206896552    0.148148148148    0.000000000000       2
    0.103448275862    0.148148148148    0.000000000000       2
    0.120689655172    0.148148148148    0.000000000000       2
    0.137931034483    0.148148148148    0.000000000000       2
    0.155172413793    0.148148148148    0.000000000000       2
    0.172413793103    0.148148148148    0.000000000000       2
    0.189655172414    0.148148148148    0.000000000000       2
    0.206896551724    0.148148148148    0.000000000000       2
    0.224137931034    0.148148148148    0.000000000000       2
    0.241379310345    0.148148148148    0.000000000000       2
    0.258620689655    0.148148148148    0.000000000000       2
    0.275862068966    0.148148148148    0.000000000000       2
    0.293103448276    0.148148148148    0.000000000000       2
    0.310344827586    0.148148148148    0.000000000000       2
    0.327586206897    0.148148148148    0.000000000000       2
    0.344827586207    0.148148148148    0.000000000000       2
    0.362068965517    0.148148148148    0.000000000000       2
    0.379310344828    0.148148148148    0.000000000000       2
    0.396551724138    0.148148148148    0.000000000000       2
    0.413793103448    0.148148148148    0.000000000000       2
    0.431034482759    0.148148148148    0.000000000000       2
    0.448275862069    0.148148148148    0.000000000000       2
    0.465517241379    0.148148148148    0.000000000000       2
    0.482758620690    0.148148148148    0.000000000000       2
    0.500000000000    0.148148148148    0.000000000000       2
   -0.482758620690    0.148148148148    0.000000000000       2
   -0.465517241379    0.148148148148    0.000000000000       2
   -0.448275862069    0.148148148148    0.000000000000       2
   -0.431034482759    0.148148148148    0.000000000000       2
   -0.413793103448    0.148148148148    0.000000000000       2
   -0.396551724138    0.148148148148    0.000000000000       2
   -0.379310344828    0.148148148148    0.000000000000       2
   -0.362068965517    0.148148148148    0.000000000000       2