 Sm2 Te6                                
   1.00000000000000     
     4.3448965991332056    0.0000000000000000    0.0000000000000000
     0.0000000000000000    4.3448965280587402    0.0000000000000000
     0.0000000000000000    0.0000000000000000   24.3212619822999976
   Sm   Te
     2     6
Direct
  0.0000000325399085  0.4999999589568773  0.4135427766469917
  0.4999999551271088  0.0000000459947671  0.5864574353456362
  0.9999999757881994  0.5000000248597587  0.5472161952205568
  0.5000000232433166  0.9999999700481439  0.4527839312931832
  0.4999999916761553  0.5000000149245665  0.6910016465833664
  0.0000000179415025  0.9999999862087989  0.3089981848620269
  0.9999999884283142  0.0000000120716734  0.6910016476869600
  0.5000000152554875  0.4999999869354070  0.3089981823612646
 
  0.00000000E+00  0.00000000E+00  0.00000000E+00
  0.00000000E+00  0.00000000E+00  0.00000000E+00
  0.00000000E+00  0.00000000E+00  0.00000000E+00
  0.00000000E+00  0.00000000E+00  0.00000000E+00
  0.00000000E+00  0.00000000E+00  0.00000000E+00
  0.00000000E+00  0.00000000E+00  0.00000000E+00
  0.00000000E+00  0.00000000E+00  0.00000000E+00
  0.00000000E+00  0.00000000E+00  0.00000000E+00
