 Cu2 H4 S2 O10                          
   1.00000000000000     
     4.6696250176253891    0.0000000000000000    0.0000000000000000
     2.7594142251621427    6.7909253912734089    0.0000000000000000
     0.0000000000000000    0.0000000000000000   20.1938440917440047
   Cu   H    S    O 
     2     4     2    10
Direct
  0.4999946199726750  0.4999914214327745  0.4999981359084913
  0.0000143192233537  0.9999967132244052  0.5000049083004399
  0.7859336018053682  0.4269676323189060  0.3934693278046097
  0.2140640506785658  0.5730561592512728  0.6065263346530969
  0.0063588175733713  0.3309771460065960  0.4531078964841484
  0.9936322342086470  0.6690055256866358  0.5468864484715610
  0.3854772247224858  0.1978844089324312  0.5700207374509745
  0.6145035864210158  0.8021291303383222  0.4299798099159702
  0.6827565525694794  0.9819679764936353  0.4393262038530708
  0.3172697195634626  0.0180205651258944  0.5606818206379671
  0.2700470948851503  0.8597450650020306  0.4272411744277917
  0.7299525008574079  0.1402650376619903  0.5727631621443905
  0.7179356005873245  0.6794863827949698  0.4941220079239628
  0.2820562218651901  0.3205056919834632  0.5058754492285402
  0.7572310652590062  0.6847850136435198  0.3724387705104206
  0.2427795926002148  0.3152169197291599  0.6275639300464348
  0.1928054846433156  0.6618722496928271  0.5679953895651622
  0.8071877125639730  0.3381269606811514  0.4319984926729674
 
  0.00000000E+00  0.00000000E+00  0.00000000E+00
  0.00000000E+00  0.00000000E+00  0.00000000E+00
  0.00000000E+00  0.00000000E+00  0.00000000E+00
  0.00000000E+00  0.00000000E+00  0.00000000E+00
  0.00000000E+00  0.00000000E+00  0.00000000E+00
  0.00000000E+00  0.00000000E+00  0.00000000E+00
  0.00000000E+00  0.00000000E+00  0.00000000E+00
  0.00000000E+00  0.00000000E+00  0.00000000E+00
  0.00000000E+00  0.00000000E+00  0.00000000E+00
  0.00000000E+00  0.00000000E+00  0.00000000E+00
  0.00000000E+00  0.00000000E+00  0.00000000E+00
  0.00000000E+00  0.00000000E+00  0.00000000E+00
  0.00000000E+00  0.00000000E+00  0.00000000E+00
  0.00000000E+00  0.00000000E+00  0.00000000E+00
  0.00000000E+00  0.00000000E+00  0.00000000E+00
  0.00000000E+00  0.00000000E+00  0.00000000E+00
  0.00000000E+00  0.00000000E+00  0.00000000E+00
  0.00000000E+00  0.00000000E+00  0.00000000E+00
