G   46   29    1    0.005     # Parameters to Generate KPOINTS (Don't Edit This Line)
     668
Reciprocal lattice
    0.000000000000    0.000000000000    0.000000000000       1
    0.021739130435    0.000000000000    0.000000000000       2
    0.043478260870    0.000000000000    0.000000000000       2
    0.065217391304    0.000000000000    0.000000000000       2
    0.086956521739    0.000000000000    0.000000000000       2
    0.108695652174    0.000000000000    0.000000000000       2
    0.130434782609    0.000000000000    0.000000000000       2
    0.152173913043    0.000000000000    0.000000000000       2
    0.173913043478    0.000000000000    0.000000000000       2
    0.195652173913    0.000000000000    0.000000000000       2
    0.217391304348    0.000000000000    0.000000000000       2
    0.239130434783    0.000000000000    0.000000000000       2
    0.260869565217    0.000000000000    0.000000000000       2
    0.282608695652    0.000000000000    0.000000000000       2
    0.304347826087    0.000000000000    0.000000000000       2
    0.326086956522    0.000000000000    0.000000000000       2
    0.347826086957    0.000000000000    0.000000000000       2
    0.369565217391    0.000000000000    0.000000000000       2
    0.391304347826    0.000000000000    0.000000000000       2
    0.413043478261    0.000000000000    0.000000000000       2
    0.434782608696    0.000000000000    0.000000000000       2
    0.456521739130    0.000000000000    0.000000000000       2
    0.478260869565    0.000000000000    0.000000000000       2
    0.500000000000    0.000000000000    0.000000000000       1
    0.000000000000    0.034482758621    0.000000000000       2
    0.021739130435    0.034482758621    0.000000000000       2
    0.043478260870    0.034482758621    0.000000000000       2
    0.065217391304    0.034482758621    0.000000000000       2
    0.086956521739    0.034482758621    0.000000000000       2
    0.108695652174    0.034482758621    0.000000000000       2
    0.130434782609    0.034482758621    0.000000000000       2
    0.152173913043    0.034482758621    0.000000000000       2
    0.173913043478    0.034482758621    0.000000000000       2
    0.195652173913    0.034482758621    0.000000000000       2
    0.217391304348    0.034482758621    0.000000000000       2
    0.239130434783    0.034482758621    0.000000000000       2
    0.260869565217    0.034482758621    0.000000000000       2
    0.282608695652    0.034482758621    0.000000000000       2
    0.304347826087    0.034482758621    0.000000000000       2
    0.326086956522    0.034482758621    0.000000000000       2
    0.347826086957    0.034482758621    0.000000000000       2
    0.369565217391    0.034482758621    0.000000000000       2
    0.391304347826    0.034482758621    0.000000000000       2
    0.413043478261    0.034482758621    0.000000000000       2
    0.434782608696    0.034482758621    0.000000000000       2
    0.456521739130    0.034482758621    0.000000000000       2
    0.478260869565    0.034482758621    0.000000000000       2
    0.500000000000    0.034482758621    0.000000000000       2
   -0.478260869565    0.034482758621    0.000000000000       2
   -0.456521739130    0.034482758621    0.000000000000       2
   -0.434782608696    0.034482758621    0.000000000000       2
   -0.413043478261    0.034482758621    0.000000000000       2
   -0.391304347826    0.034482758621    0.000000000000       2
   -0.369565217391    0.034482758621    0.000000000000       2
   -0.347826086957    0.034482758621    0.000000000000       2
   -0.326086956522    0.034482758621    0.000000000000       2
   -0.304347826087    0.034482758621    0.000000000000       2
   -0.282608695652    0.034482758621    0.000000000000       2
   -0.260869565217    0.034482758621    0.000000000000       2
   -0.239130434783    0.034482758621    0.000000000000       2
   -0.217391304348    0.034482758621    0.000000000000       2
   -0.195652173913    0.034482758621    0.000000000000       2
   -0.173913043478    0.034482758621    0.000000000000       2
   -0.152173913043    0.034482758621    0.000000000000       2
   -0.130434782609    0.034482758621    0.000000000000       2
   -0.108695652174    0.034482758621    0.000000000000       2
   -0.086956521739    0.034482758621    0.000000000000       2
   -0.065217391304    0.034482758621    0.000000000000       2
   -0.043478260870    0.034482758621    0.000000000000       2
   -0.021739130435    0.034482758621    0.000000000000       2
    0.000000000000    0.068965517241    0.000000000000       2
    0.021739130435    0.068965517241    0.000000000000       2
    0.043478260870    0.068965517241    0.000000000000       2
    0.065217391304    0.068965517241    0.000000000000       2
    0.086956521739    0.068965517241    0.000000000000       2
    0.108695652174    0.068965517241    0.000000000000       2
    0.130434782609    0.068965517241    0.000000000000       2
    0.152173913043    0.068965517241    0.000000000000       2
    0.173913043478    0.068965517241    0.000000000000       2
    0.195652173913    0.068965517241    0.000000000000       2
    0.217391304348    0.068965517241    0.000000000000       2
    0.239130434783    0.068965517241    0.000000000000       2
    0.260869565217    0.068965517241    0.000000000000       2
    0.282608695652    0.068965517241    0.000000000000       2
    0.304347826087    0.068965517241    0.000000000000       2
    0.326086956522    0.068965517241    0.000000000000       2
    0.347826086957    0.068965517241    0.000000000000       2
    0.369565217391    0.068965517241    0.000000000000       2
    0.391304347826    0.068965517241    0.000000000000       2
    0.413043478261    0.068965517241    0.000000000000       2
    0.434782608696    0.068965517241    0.000000000000       2
    0.456521739130    0.068965517241    0.000000000000       2
    0.478260869565    0.068965517241    0.000000000000       2
    0.500000000000    0.068965517241    0.000000000000       2
   -0.478260869565    0.068965517241    0.000000000000       2
   -0.456521739130    0.068965517241    0.000000000000       2
   -0.434782608696    0.068965517241    0.000000000000       2
   -0.413043478261    0.068965517241    0.000000000000       2
   -0.391304347826    0.068965517241    0.000000000000       2
   -0.369565217391    0.068965517241    0.000000000000       2
   -0.347826086957    0.068965517241    0.000000000000       2
   -0.326086956522    0.068965517241    0.000000000000       2
   -0.304347826087    0.068965517241    0.000000000000       2
   -0.282608695652    0.068965517241    0.000000000000       2
   -0.260869565217    0.068965517241    0.000000000000       2
   -0.239130434783    0.068965517241    0.000000000000       2
   -0.217391304348    0.068965517241    0.000000000000       2
   -0.195652173913    0.068965517241    0.000000000000       2
   -0.173913043478    0.068965517241    0.000000000000       2
   -0.152173913043    0.068965517241    0.000000000000       2
   -0.130434782609    0.068965517241    0.000000000000       2
   -0.108695652174    0.068965517241    0.000000000000       2
   -0.086956521739    0.068965517241    0.000000000000       2
   -0.065217391304    0.068965517241    0.000000000000       2
   -0.043478260870    0.068965517241    0.000000000000       2
   -0.021739130435    0.068965517241    0.000000000000       2
    0.000000000000    0.103448275862    0.000000000000       2
    0.021739130435    0.103448275862    0.000000000000       2
    0.043478260870    0.103448275862    0.000000000000       2
    0.065217391304    0.103448275862    0.000000000000       2
    0.086956521739    0.103448275862    0.000000000000       2
    0.108695652174    0.103448275862    0.000000000000       2
    0.130434782609    0.103448275862    0.000000000000       2
    0.152173913043    0.103448275862    0.000000000000       2
    0.173913043478    0.103448275862    0.000000000000       2
    0.195652173913    0.103448275862    0.000000000000       2
    0.217391304348    0.103448275862    0.000000000000       2
    0.239130434783    0.103448275862    0.000000000000       2
    0.260869565217    0.103448275862    0.000000000000       2
    0.282608695652    0.103448275862    0.000000000000       2
    0.304347826087    0.103448275862    0.000000000000       2
    0.326086956522    0.103448275862    0.000000000000       2
    0.347826086957    0.103448275862    0.000000000000       2
    0.369565217391    0.103448275862    0.000000000000       2
    0.391304347826    0.103448275862    0.000000000000       2
    0.413043478261    0.103448275862    0.000000000000       2
    0.434782608696    0.103448275862    0.000000000000       2
    0.456521739130    0.103448275862    0.000000000000       2
    0.478260869565    0.103448275862    0.000000000000       2
    0.500000000000    0.103448275862    0.000000000000       2
   -0.478260869565    0.103448275862    0.000000000000       2
   -0.456521739130    0.103448275862    0.000000000000       2
   -0.434782608696    0.103448275862    0.000000000000       2
   -0.413043478261    0.103448275862    0.000000000000       2
   -0.391304347826    0.103448275862    0.000000000000       2
   -0.369565217391    0.103448275862    0.000000000000       2
   -0.347826086957    0.103448275862    0.000000000000       2
   -0.326086956522    0.103448275862    0.000000000000       2
   -0.304347826087    0.103448275862    0.000000000000       2
   -0.282608695652    0.103448275862    0.000000000000       2
   -0.260869565217    0.103448275862    0.000000000000       2
   -0.239130434783    0.103448275862    0.000000000000       2
   -0.217391304348    0.103448275862    0.000000000000       2
   -0.195652173913    0.103448275862    0.000000000000       2
   -0.173913043478    0.103448275862    0.000000000000       2
   -0.152173913043    0.103448275862    0.000000000000       2
   -0.130434782609    0.103448275862    0.000000000000       2
   -0.108695652174    0.103448275862    0.000000000000       2
   -0.086956521739    0.103448275862    0.000000000000       2
   -0.065217391304    0.103448275862    0.000000000000       2
   -0.043478260870    0.103448275862    0.000000000000       2
   -0.021739130435    0.103448275862    0.000000000000       2
    0.000000000000    0.137931034483    0.000000000000       2
    0.021739130435    0.137931034483    0.000000000000       2
    0.043478260870    0.137931034483    0.000000000000       2
    0.065217391304    0.137931034483    0.000000000000       2
    0.086956521739    0.137931034483    0.000000000000       2
    0.108695652174    0.137931034483    0.000000000000       2
    0.130434782609    0.137931034483    0.000000000000       2
    0.152173913043    0.137931034483    0.000000000000       2
    0.173913043478    0.137931034483    0.000000000000       2
    0.195652173913    0.137931034483    0.000000000000       2
    0.217391304348    0.137931034483    0.000000000000       2
    0.239130434783    0.137931034483    0.000000000000       2
    0.260869565217    0.137931034483    0.000000000000       2
    0.282608695652    0.137931034483    0.000000000000       2
    0.304347826087    0.137931034483    0.000000000000       2
    0.326086956522    0.137931034483    0.000000000000       2
    0.347826086957    0.137931034483    0.000000000000       2
    0.369565217391    0.137931034483    0.000000000000       2
    0.391304347826    0.137931034483    0.000000000000       2
    0.413043478261    0.137931034483    0.000000000000       2
    0.434782608696    0.137931034483    0.000000000000       2
    0.456521739130    0.137931034483    0.000000000000       2
    0.478260869565    0.137931034483    0.000000000000       2
    0.500000000000    0.137931034483    0.000000000000       2
   -0.478260869565    0.137931034483    0.000000000000       2
   -0.456521739130    0.137931034483    0.000000000000       2
   -0.434782608696    0.137931034483    0.000000000000       2
   -0.413043478261    0.137931034483    0.000000000000       2
   -0.391304347826    0.137931034483    0.000000000000       2
   -0.369565217391    0.137931034483    0.000000000000       2
   -0.347826086957    0.137931034483    0.000000000000       2
   -0.326086956522    0.137931034483    0.000000000000       2
   -0.304347826087    0.137931034483    0.000000000000       2
   -0.282608695652    0.137931034483    0.000000000000       2
   -0.260869565217    0.137931034483    0.000000000000       2
   -0.239130434783    0.137931034483    0.000000000000       2
   -0.217391304348    0.137931034483    0.000000000000       2
   -0.195652173913    0.137931034483    0.000000000000       2
   -0.173913043478    0.137931034483    0.000000000000       2
   -0.152173913043    0.137931034483    0.000000000000       2
   -0.130434782609    0.137931034483    0.000000000000       2
   -0.108695652174    0.137931034483    0.000000000000       2
   -0.086956521739    0.137931034483    0.000000000000       2
   -0.065217391304    0.137931034483    0.000000000000       2
   -0.043478260870    0.137931034483    0.000000000000       2
   -0.021739130435    0.137931034483    0.000000000000       2
    0.000000000000    0.172413793103    0.000000000000       2
    0.021739130435    0.172413793103    0.000000000000       2
    0.043478260870    0.172413793103    0.000000000000       2
    0.065217391304    0.172413793103    0.000000000000       2
    0.086956521739    0.172413793103    0.000000000000       2
    0.108695652174    0.172413793103    0.000000000000       2
    0.130434782609    0.172413793103    0.000000000000       2
    0.152173913043    0.172413793103    0.000000000000       2
    0.173913043478    0.172413793103    0.000000000000       2
    0.195652173913    0.172413793103    0.000000000000       2
    0.217391304348    0.172413793103    0.000000000000       2
    0.239130434783    0.172413793103    0.000000000000       2
    0.260869565217    0.172413793103    0.000000000000       2
    0.282608695652    0.172413793103    0.000000000000       2
    0.304347826087    0.172413793103    0.000000000000       2
    0.326086956522    0.172413793103    0.000000000000       2
    0.347826086957    0.172413793103    0.000000000000       2
    0.369565217391    0.172413793103    0.000000000000       2
    0.391304347826    0.172413793103    0.000000000000       2
    0.413043478261    0.172413793103    0.000000000000       2
    0.434782608696    0.172413793103    0.000000000000       2
    0.456521739130    0.172413793103    0.000000000000       2
    0.478260869565    0.172413793103    0.000000000000       2
    0.500000000000    0.172413793103    0.000000000000       2
   -0.478260869565    0.172413793103    0.000000000000       2
   -0.456521739130    0.172413793103    0.000000000000       2
   -0.434782608696    0.172413793103    0.000000000000       2
   -0.413043478261    0.172413793103    0.000000000000       2
   -0.391304347826    0.172413793103    0.000000000000       2
   -0.369565217391    0.172413793103    0.000000000000       2
   -0.347826086957    0.172413793103    0.000000000000       2
   -0.326086956522    0.172413793103    0.000000000000       2
   -0.304347826087    0.172413793103    0.000000000000       2
   -0.282608695652    0.172413793103    0.000000000000       2
   -0.260869565217    0.172413793103    0.000000000000       2
   -0.239130434783    0.172413793103    0.000000000000       2
   -0.217391304348    0.172413793103    0.000000000000       2
   -0.195652173913    0.172413793103    0.000000000000       2
   -0.173913043478    0.172413793103    0.000000000000       2
   -0.152173913043    0.172413793103    0.000000000000       2
   -0.130434782609    0.172413793103    0.000000000000       2
   -0.108695652174    0.172413793103    0.000000000000       2
   -0.086956521739    0.172413793103    0.000000000000       2
   -0.065217391304    0.172413793103    0.000000000000       2
   -0.043478260870    0.172413793103    0.000000000000       2
   -0.021739130435    0.172413793103    0.000000000000       2
    0.000000000000    0.206896551724    0.000000000000       2
    0.021739130435    0.206896551724    0.000000000000       2
    0.043478260870    0.206896551724    0.000000000000       2
    0.065217391304    0.206896551724    0.000000000000       2
    0.086956521739    0.206896551724    0.000000000000       2
    0.108695652174    0.206896551724    0.000000000000       2
    0.130434782609    0.206896551724    0.000000000000       2
    0.152173913043    0.206896551724    0.000000000000       2
    0.173913043478    0.206896551724    0.000000000000       2
    0.195652173913    0.206896551724    0.000000000000       2
    0.217391304348    0.206896551724    0.000000000000       2
    0.239130434783    0.206896551724    0.000000000000       2
    0.260869565217    0.206896551724    0.000000000000       2
    0.282608695652    0.206896551724    0.000000000000       2
    0.304347826087    0.206896551724    0.000000000000       2
    0.326086956522    0.206896551724    0.000000000000       2
    0.347826086957    0.206896551724    0.000000000000       2
    0.369565217391    0.206896551724    0.000000000000       2
    0.391304347826    0.206896551724    0.000000000000       2
    0.413043478261    0.206896551724    0.000000000000       2
    0.434782608696    0.206896551724    0.000000000000       2
    0.456521739130    0.206896551724    0.000000000000       2
    0.478260869565    0.206896551724    0.000000000000       2
    0.500000000000    0.206896551724    0.000000000000       2
   -0.478260869565    0.206896551724    0.000000000000       2
   -0.456521739130    0.206896551724    0.000000000000       2
   -0.434782608696    0.206896551724    0.000000000000       2
   -0.413043478261    0.206896551724    0.000000000000       2
   -0.391304347826    0.206896551724    0.000000000000       2
   -0.369565217391    0.206896551724    0.000000000000       2
   -0.347826086957    0.206896551724    0.000000000000       2
   -0.326086956522    0.206896551724    0.000000000000       2
   -0.304347826087    0.206896551724    0.000000000000       2
   -0.282608695652    0.206896551724    0.000000000000       2
   -0.260869565217    0.206896551724    0.000000000000       2
   -0.239130434783    0.206896551724    0.000000000000       2
   -0.217391304348    0.206896551724    0.000000000000       2
   -0.195652173913    0.206896551724    0.000000000000       2
   -0.173913043478    0.206896551724    0.000000000000       2
   -0.152173913043    0.206896551724    0.000000000000       2
   -0.130434782609    0.206896551724    0.000000000000       2
   -0.108695652174    0.206896551724    0.000000000000       2
   -0.086956521739    0.206896551724    0.000000000000       2
   -0.065217391304    0.206896551724    0.000000000000       2
   -0.043478260870    0.206896551724    0.000000000000       2
   -0.021739130435    0.206896551724    0.000000000000       2
    0.000000000000    0.241379310345    0.000000000000       2
    0.021739130435    0.241379310345    0.000000000000       2
    0.043478260870    0.241379310345    0.000000000000       2
    0.065217391304    0.241379310345    0.000000000000       2
    0.086956521739    0.241379310345    0.000000000000       2
    0.108695652174    0.241379310345    0.000000000000       2
    0.130434782609    0.241379310345    0.000000000000       2
    0.152173913043    0.241379310345    0.000000000000       2
    0.173913043478    0.241379310345    0.000000000000       2
    0.195652173913    0.241379310345    0.000000000000       2
    0.217391304348    0.241379310345    0.000000000000       2
    0.239130434783    0.241379310345    0.000000000000       2
    0.260869565217    0.241379310345    0.000000000000       2
    0.282608695652    0.241379310345    0.000000000000       2
    0.304347826087    0.241379310345    0.000000000000       2
    0.326086956522    0.241379310345    0.000000000000       2
    0.347826086957    0.241379310345    0.000000000000       2
    0.369565217391    0.241379310345    0.000000000000       2
    0.391304347826    0.241379310345    0.000000000000       2
    0.413043478261    0.241379310345    0.000000000000       2
    0.434782608696    0.241379310345    0.000000000000       2
    0.456521739130    0.241379310345    0.000000000000       2
    0.478260869565    0.241379310345    0.000000000000       2
    0.500000000000    0.241379310345    0.000000000000       2
   -0.478260869565    0.241379310345    0.000000000000       2
   -0.456521739130    0.241379310345    0.000000000000       2
   -0.434782608696    0.241379310345    0.000000000000       2
   -0.413043478261    0.241379310345    0.000000000000       2
   -0.391304347826    0.241379310345    0.000000000000       2
   -0.369565217391    0.241379310345    0.000000000000       2
   -0.347826086957    0.241379310345    0.000000000000       2
   -0.326086956522    0.241379310345    0.000000000000       2
   -0.304347826087    0.241379310345    0.000000000000       2
   -0.282608695652    0.241379310345    0.000000000000       2
   -0.260869565217    0.241379310345    0.000000000000       2
   -0.239130434783    0.241379310345    0.000000000000       2
   -0.217391304348    0.241379310345    0.000000000000       2
   -0.195652173913    0.241379310345    0.000000000000       2
   -0.173913043478    0.241379310345    0.000000000000       2
   -0.152173913043    0.241379310345    0.000000000000       2
   -0.130434782609    0.241379310345    0.000000000000       2
   -0.108695652174    0.241379310345    0.000000000000       2
   -0.086956521739    0.241379310345    0.000000000000       2
   -0.065217391304    0.241379310345    0.000000000000       2
   -0.043478260870    0.241379310345    0.000000000000       2
   -0.021739130435    0.241379310345    0.000000000000       2
    0.000000000000    0.275862068966    0.000000000000       2
    0.021739130435    0.275862068966    0.000000000000       2
    0.043478260870    0.275862068966    0.000000000000       2
    0.065217391304    0.275862068966    0.000000000000       2
    0.086956521739    0.275862068966    0.000000000000       2
    0.108695652174    0.275862068966    0.000000000000       2
    0.130434782609    0.275862068966    0.000000000000       2
    0.152173913043    0.275862068966    0.000000000000       2
    0.173913043478    0.275862068966    0.000000000000       2
    0.195652173913    0.275862068966    0.000000000000       2
    0.217391304348    0.275862068966    0.000000000000       2
    0.239130434783    0.275862068966    0.000000000000       2
    0.260869565217    0.275862068966    0.000000000000       2
    0.282608695652    0.275862068966    0.000000000000       2
    0.304347826087    0.275862068966    0.000000000000       2
    0.326086956522    0.275862068966    0.000000000000       2
    0.347826086957    0.275862068966    0.000000000000       2
    0.369565217391    0.275862068966    0.000000000000       2
    0.391304347826    0.275862068966    0.000000000000       2
    0.413043478261    0.275862068966    0.000000000000       2
    0.434782608696    0.275862068966    0.000000000000       2
    0.456521739130    0.275862068966    0.000000000000       2
    0.478260869565    0.275862068966    0.000000000000       2
    0.500000000000    0.275862068966    0.000000000000       2
   -0.478260869565    0.275862068966    0.000000000000       2
   -0.456521739130    0.275862068966    0.000000000000       2
   -0.434782608696    0.275862068966    0.000000000000       2
   -0.413043478261    0.275862068966    0.000000000000       2
   -0.391304347826    0.275862068966    0.000000000000       2
   -0.369565217391    0.275862068966    0.000000000000       2
   -0.347826086957    0.275862068966    0.000000000000       2
   -0.326086956522    0.275862068966    0.000000000000       2
   -0.304347826087    0.275862068966    0.000000000000       2
   -0.282608695652    0.275862068966    0.000000000000       2
   -0.260869565217    0.275862068966    0.000000000000       2
   -0.239130434783    0.275862068966    0.000000000000       2
   -0.217391304348    0.275862068966    0.000000000000       2
   -0.195652173913    0.275862068966    0.000000000000       2
   -0.173913043478    0.275862068966    0.000000000000       2
   -0.152173913043    0.275862068966    0.000000000000       2
   -0.130434782609    0.275862068966    0.000000000000       2
   -0.108695652174    0.275862068966    0.000000000000       2
   -0.086956521739    0.275862068966    0.000000000000       2
   -0.065217391304    0.275862068966    0.000000000000       2
   -0.043478260870    0.275862068966    0.000000000000       2
   -0.021739130435    0.275862068966    0.000000000000       2
    0.000000000000    0.310344827586    0.000000000000       2
    0.021739130435    0.310344827586    0.000000000000       2
    0.043478260870    0.310344827586    0.000000000000       2
    0.065217391304    0.310344827586    0.000000000000       2
    0.086956521739    0.310344827586    0.000000000000       2
    0.108695652174    0.310344827586    0.000000000000       2
    0.130434782609    0.310344827586    0.000000000000       2
    0.152173913043    0.310344827586    0.000000000000       2
    0.173913043478    0.310344827586    0.000000000000       2
    0.195652173913    0.310344827586    0.000000000000       2
    0.217391304348    0.310344827586    0.000000000000       2
    0.239130434783    0.310344827586    0.000000000000       2
    0.260869565217    0.310344827586    0.000000000000       2
    0.282608695652    0.310344827586    0.000000000000       2
    0.304347826087    0.310344827586    0.000000000000       2
    0.326086956522    0.310344827586    0.000000000000       2
    0.347826086957    0.310344827586    0.000000000000       2
    0.369565217391    0.310344827586    0.000000000000       2
    0.391304347826    0.310344827586    0.000000000000       2
    0.413043478261    0.310344827586    0.000000000000       2
    0.434782608696    0.310344827586    0.000000000000       2
    0.456521739130    0.310344827586    0.000000000000       2
    0.478260869565    0.310344827586    0.000000000000       2
    0.500000000000    0.310344827586    0.000000000000       2
   -0.478260869565    0.310344827586    0.000000000000       2
   -0.456521739130    0.310344827586    0.000000000000       2
   -0.434782608696    0.310344827586    0.000000000000       2
   -0.413043478261    0.310344827586    0.000000000000       2
   -0.391304347826    0.310344827586    0.000000000000       2
   -0.369565217391    0.310344827586    0.000000000000       2
   -0.347826086957    0.310344827586    0.000000000000       2
   -0.326086956522    0.310344827586    0.000000000000       2
   -0.304347826087    0.310344827586    0.000000000000       2
   -0.282608695652    0.310344827586    0.000000000000       2
   -0.260869565217    0.310344827586    0.000000000000       2
   -0.239130434783    0.310344827586    0.000000000000       2
   -0.217391304348    0.310344827586    0.000000000000       2
   -0.195652173913    0.310344827586    0.000000000000       2
   -0.173913043478    0.310344827586    0.000000000000       2
   -0.152173913043    0.310344827586    0.000000000000       2
   -0.130434782609    0.310344827586    0.000000000000       2
   -0.108695652174    0.310344827586    0.000000000000       2
   -0.086956521739    0.310344827586    0.000000000000       2
   -0.065217391304    0.310344827586    0.000000000000       2
   -0.043478260870    0.310344827586    0.000000000000       2
   -0.021739130435    0.310344827586    0.000000000000       2
    0.000000000000    0.344827586207    0.000000000000       2
    0.021739130435    0.344827586207    0.000000000000       2
    0.043478260870    0.344827586207    0.000000000000       2
    0.065217391304    0.344827586207    0.000000000000       2
    0.086956521739    0.344827586207    0.000000000000       2
    0.108695652174    0.344827586207    0.000000000000       2
    0.130434782609    0.344827586207    0.000000000000       2
    0.152173913043    0.344827586207    0.000000000000       2
    0.173913043478    0.344827586207    0.000000000000       2
    0.195652173913    0.344827586207    0.000000000000       2
    0.217391304348    0.344827586207    0.000000000000       2
    0.239130434783    0.344827586207    0.000000000000       2
    0.260869565217    0.344827586207    0.000000000000       2
    0.282608695652    0.344827586207    0.000000000000       2
    0.304347826087    0.344827586207    0.000000000000       2
    0.326086956522    0.344827586207    0.000000000000       2
    0.347826086957    0.344827586207    0.000000000000       2
    0.369565217391    0.344827586207    0.000000000000       2
    0.391304347826    0.344827586207    0.000000000000       2
    0.413043478261    0.344827586207    0.000000000000       2
    0.434782608696    0.344827586207    0.000000000000       2
    0.456521739130    0.344827586207    0.000000000000       2
    0.478260869565    0.344827586207    0.000000000000       2
    0.500000000000    0.344827586207    0.000000000000       2
   -0.478260869565    0.344827586207    0.000000000000       2
   -0.456521739130    0.344827586207    0.000000000000       2
   -0.434782608696    0.344827586207    0.000000000000       2
   -0.413043478261    0.344827586207    0.000000000000       2
   -0.391304347826    0.344827586207    0.000000000000       2
   -0.369565217391    0.344827586207    0.000000000000       2
   -0.347826086957    0.344827586207    0.000000000000       2
   -0.326086956522    0.344827586207    0.000000000000       2
   -0.304347826087    0.344827586207    0.000000000000       2
   -0.282608695652    0.344827586207    0.000000000000       2
   -0.260869565217    0.344827586207    0.000000000000       2
   -0.239130434783    0.344827586207    0.000000000000       2