CONTCAR\(10)                            
   1.00000000000000     
     9.7571001052999993    0.0000000000000000    0.0000000000000000
    -3.0063686365000000   15.8319856181999992    0.0000000000000000
     0.0000000000000000    0.0000000000000000   18.2793006897000012
   V    P    S    O 
     4     8    26     1
Direct
  0.5911085083554222  0.5877491452773072  0.4994602967177033
  0.6157509538333161  0.1037556114060283  0.5034066743320260
  0.3960649975907284  0.4124927604789954  0.5026270827392012
  0.3713302125257925  0.8941620062288496  0.4960459091203334
  0.8333299150597626  0.2596785812318400  0.4976142793579020
  0.6977215986709472  0.4313629144817640  0.5388443644290910
  0.1554680263328344  0.7376059741129489  0.5006862439741375
  0.1816749588634186  0.2477195216057845  0.4971383064045418
  0.3039554046042414  0.0678541113042016  0.5387943737495573
  0.6838203147677050  0.9301525036795716  0.4621636114108145
  0.2935402605985037  0.5667586324064169  0.4563493518976046
  0.8073672426481248  0.7509449797264939  0.5048427400572737
  0.1188041501195616  0.1174036960627773  0.5289363307322938
  0.8693702106370557  0.8816123165038505  0.4753108278233027
  0.9852029286439732  0.7445307259205028  0.5726139839166190
  0.3899130482918283  0.0415335336846750  0.4398999809360139
  0.5387909378584108  0.3548238990036355  0.5889040360948362
  0.2414341130447120  0.4519523780141311  0.4099802729580809
  0.2056339383781182  0.3313883524126363  0.5795363775684468
  0.6407205532011964  0.7212378515249174  0.5707683969913623
  0.4552336751390919  0.6436654548977935  0.4084023367497442
  0.6134429211018562  0.4569480348773398  0.4371976896196781
  0.6664462476221502  0.2321034982751883  0.4309351703010947
  0.8904427578464528  0.3894120851545121  0.5309961688034903
  0.0051256368775368  0.2521723805035800  0.4275646970916215
  0.5962291028779289  0.9571017798509025  0.5603250677415247
  0.7814476117357136  0.6706994016082567  0.4202485643807161
  0.3825351173749557  0.5392597875763880  0.5617234013433463
  0.1828049363424526  0.8210870171136859  0.4179458021001268
  0.7510711182316664  0.5452172583552111  0.5867448823861937
  0.5276278340629154  0.8535408163652424  0.4084891876436271
  0.2322106120980717  0.9544391431568287  0.5853444411872347
  0.3226505068990113  0.7654690456950674  0.5671138094566537
  0.8044599949171894  0.1781807586223209  0.5815665265330952
  0.7560918257482088  0.0431247133312519  0.4149438114290017
  0.4614393451637487  0.1438923742050083  0.5921317377494734
  0.0989205044143401  0.6091134850314847  0.4656532380631577
  0.3463496052714169  0.2756276882529796  0.4305830154597274
  0.3180181872496264  0.5604758750596313  0.6315271557493368
 
  0.00000000E+00  0.00000000E+00  0.00000000E+00
  0.00000000E+00  0.00000000E+00  0.00000000E+00
  0.00000000E+00  0.00000000E+00  0.00000000E+00
  0.00000000E+00  0.00000000E+00  0.00000000E+00
  0.00000000E+00  0.00000000E+00  0.00000000E+00
  0.00000000E+00  0.00000000E+00  0.00000000E+00
  0.00000000E+00  0.00000000E+00  0.00000000E+00
  0.00000000E+00  0.00000000E+00  0.00000000E+00
  0.00000000E+00  0.00000000E+00  0.00000000E+00
  0.00000000E+00  0.00000000E+00  0.00000000E+00
  0.00000000E+00  0.00000000E+00  0.00000000E+00
  0.00000000E+00  0.00000000E+00  0.00000000E+00
  0.00000000E+00  0.00000000E+00  0.00000000E+00
  0.00000000E+00  0.00000000E+00  0.00000000E+00
  0.00000000E+00  0.00000000E+00  0.00000000E+00
  0.00000000E+00  0.00000000E+00  0.00000000E+00
  0.00000000E+00  0.00000000E+00  0.00000000E+00
  0.00000000E+00  0.00000000E+00  0.00000000E+00
  0.00000000E+00  0.00000000E+00  0.00000000E+00
  0.00000000E+00  0.00000000E+00  0.00000000E+00
  0.00000000E+00  0.00000000E+00  0.00000000E+00
  0.00000000E+00  0.00000000E+00  0.00000000E+00
  0.00000000E+00  0.00000000E+00  0.00000000E+00
  0.00000000E+00  0.00000000E+00  0.00000000E+00
  0.00000000E+00  0.00000000E+00  0.00000000E+00
  0.00000000E+00  0.00000000E+00  0.00000000E+00
  0.00000000E+00  0.00000000E+00  0.00000000E+00
  0.00000000E+00  0.00000000E+00  0.00000000E+00
  0.00000000E+00  0.00000000E+00  0.00000000E+00
  0.00000000E+00  0.00000000E+00  0.00000000E+00
  0.00000000E+00  0.00000000E+00  0.00000000E+00
  0.00000000E+00  0.00000000E+00  0.00000000E+00
  0.00000000E+00  0.00000000E+00  0.00000000E+00
  0.00000000E+00  0.00000000E+00  0.00000000E+00
  0.00000000E+00  0.00000000E+00  0.00000000E+00
  0.00000000E+00  0.00000000E+00  0.00000000E+00
  0.00000000E+00  0.00000000E+00  0.00000000E+00
  0.00000000E+00  0.00000000E+00  0.00000000E+00
  0.00000000E+00  0.00000000E+00  0.00000000E+00
