CONTCAR                                 
   1.00000000000000     
    13.0951995849999996    0.0000000000000000    0.0000000000000000
     0.0000000000000000   17.1203994751000010    0.0000000000000000
     0.0000000000000000    0.0000000000000000   20.8015995025999985
   La   I    O 
    12    30     1
Direct
  0.2509692328282140  0.1154388104199042  0.5212039888367436
  0.0842562925242392  0.8374774645325408  0.4800979113387884
  0.2356385426227577  0.6019675611770672  0.5272799501840351
  0.0826037984817725  0.3355445062656571  0.4626737194939570
  0.5818888576039775  0.1154171761427195  0.5211443478008038
  0.4169779548333495  0.8444125284243637  0.5442511783036811
  0.5990098711552493  0.6024032917868466  0.5276534485442356
  0.4174102320705925  0.3423167838392506  0.4618085981462387
  0.9164956459625823  0.1105527020458551  0.5177898840337104
  0.7487412237499955  0.8366998897143714  0.4807100937422602
  0.9163415854623148  0.6035239378497629  0.5270439814176353
  0.7508205289264037  0.3353228168551065  0.4629838425367319
  0.2496447131028840  0.3511312150479751  0.3522293459510391
  0.0751849384558261  0.5778401901620347  0.6403032100500041
  0.2583472756750065  0.9570162973999405  0.4313429749111836
  0.0812905420526930  0.9924470184359280  0.5852002287018933
  0.0780860186115851  0.5291418324430839  0.4248102895111359
  0.2477822547622868  0.4141957632522799  0.5608751827339677
  0.0806574652092455  0.2216810688211376  0.5935293785827012
  0.2482439490598120  0.7278459826031680  0.4109479756086846
  0.0843352562925693  0.1553686962473010  0.4090851133364038
  0.2021930371211396  0.7713210312499645  0.5979504614552396
  0.5851912480279564  0.3511211392500596  0.3519903648768623
  0.4167640392630462  0.6075469693383764  0.6281251155731290
  0.5746900461932413  0.9569642885319479  0.4319169528349317
  0.4164543157816775  0.0220794596373678  0.6048514303375561
  0.4176552048139447  0.5355645679774476  0.4307439791208990
  0.5862113648430048  0.4140320394509426  0.5612156457698630
  0.4164970558627910  0.2350993194071939  0.5902068054985006
  0.5831705804572913  0.7285761258503517  0.4116916585461056
  0.4163385721357225  0.1595878546669360  0.4105565413485750
  0.6312747430865452  0.7714537379911379  0.5991519875050083
  0.9166229644083821  0.3453941750707258  0.3516364868884912
  0.7585115621028468  0.5774005933721745  0.6407915015178531
  0.9159005870772253  0.9580633036930040  0.4161881749566473
  0.7518070792596916  0.9921896681023129  0.5850289686370254
  0.7555930082726523  0.5291285323811822  0.4248583874451184
  0.9164900753213127  0.4097119662088836  0.5596627755870686
  0.7517393773399217  0.2214214910918198  0.5937776435783219
  0.9167322191110765  0.7292618473201916  0.4027456380223941
  0.7488134196553837  0.1552949300742951  0.4093805342516100
  0.9171594251858500  0.7852933214538689  0.5859919816254150
  0.4159837642359210  0.8418078154135381  0.6344925008575363
 
  0.00000000E+00  0.00000000E+00  0.00000000E+00
  0.00000000E+00  0.00000000E+00  0.00000000E+00
  0.00000000E+00  0.00000000E+00  0.00000000E+00
  0.00000000E+00  0.00000000E+00  0.00000000E+00
  0.00000000E+00  0.00000000E+00  0.00000000E+00
  0.00000000E+00  0.00000000E+00  0.00000000E+00
  0.00000000E+00  0.00000000E+00  0.00000000E+00
  0.00000000E+00  0.00000000E+00  0.00000000E+00
  0.00000000E+00  0.00000000E+00  0.00000000E+00
  0.00000000E+00  0.00000000E+00  0.00000000E+00
  0.00000000E+00  0.00000000E+00  0.00000000E+00
  0.00000000E+00  0.00000000E+00  0.00000000E+00
  0.00000000E+00  0.00000000E+00  0.00000000E+00
  0.00000000E+00  0.00000000E+00  0.00000000E+00
  0.00000000E+00  0.00000000E+00  0.00000000E+00
  0.00000000E+00  0.00000000E+00  0.00000000E+00
  0.00000000E+00  0.00000000E+00  0.00000000E+00
  0.00000000E+00  0.00000000E+00  0.00000000E+00
  0.00000000E+00  0.00000000E+00  0.00000000E+00
  0.00000000E+00  0.00000000E+00  0.00000000E+00
  0.00000000E+00  0.00000000E+00  0.00000000E+00
  0.00000000E+00  0.00000000E+00  0.00000000E+00
  0.00000000E+00  0.00000000E+00  0.00000000E+00
  0.00000000E+00  0.00000000E+00  0.00000000E+00
  0.00000000E+00  0.00000000E+00  0.00000000E+00
  0.00000000E+00  0.00000000E+00  0.00000000E+00
  0.00000000E+00  0.00000000E+00  0.00000000E+00
  0.00000000E+00  0.00000000E+00  0.00000000E+00
  0.00000000E+00  0.00000000E+00  0.00000000E+00
  0.00000000E+00  0.00000000E+00  0.00000000E+00
  0.00000000E+00  0.00000000E+00  0.00000000E+00
  0.00000000E+00  0.00000000E+00  0.00000000E+00
  0.00000000E+00  0.00000000E+00  0.00000000E+00
  0.00000000E+00  0.00000000E+00  0.00000000E+00
  0.00000000E+00  0.00000000E+00  0.00000000E+00
  0.00000000E+00  0.00000000E+00  0.00000000E+00
  0.00000000E+00  0.00000000E+00  0.00000000E+00
  0.00000000E+00  0.00000000E+00  0.00000000E+00
  0.00000000E+00  0.00000000E+00  0.00000000E+00
  0.00000000E+00  0.00000000E+00  0.00000000E+00
  0.00000000E+00  0.00000000E+00  0.00000000E+00
  0.00000000E+00  0.00000000E+00  0.00000000E+00
  0.00000000E+00  0.00000000E+00  0.00000000E+00
