 Ag2 F4                                 
   1.00000000000000     
     3.9717503142250536    0.0000000000000000    0.0000000000000000
     0.0000000000000000    5.7916125914230454    0.0000000000000000
     0.0000000000000000    0.0000000000000000   16.4783551746499981
   Ag   F 
     2     4
Direct
  0.4999999999865281  0.4999999994042312  0.5000000000200018
  0.9999999998013109  0.0000000004109353  0.4999999999587317
  0.1183602566898116  0.6888605445716820  0.5586521897169447
  0.6183646698464642  0.8111240751989399  0.4413388752181646
  0.3816353301418047  0.1888759245573723  0.5586611252063491
  0.8816397435341017  0.3111394558568463  0.4413478098798223
 
  0.00000000E+00  0.00000000E+00  0.00000000E+00
  0.00000000E+00  0.00000000E+00  0.00000000E+00
  0.00000000E+00  0.00000000E+00  0.00000000E+00
  0.00000000E+00  0.00000000E+00  0.00000000E+00
  0.00000000E+00  0.00000000E+00  0.00000000E+00
  0.00000000E+00  0.00000000E+00  0.00000000E+00
