 Ta2 Ni4 Te6                            
   1.00000000000000     
     3.6357251409071707    0.0000000000000000    0.0000000000000000
     0.0000000000000000   10.6487027632756934    0.0000000000000000
     0.0000000000000000    0.0000000000000000   18.9185124875878259
   Ta   Ni   Te
     2     4     6
Direct
  0.2499999970116430  0.7952441012173350  0.5068853208201676
  0.7500000004711719  0.2047875870287335  0.4931131474356323
  0.2500000031667047  0.4067108743825724  0.5011271319644770
  0.7500000026573568  0.5933224964564762  0.4988714820431378
  0.7499999988059629  0.9636391596371692  0.4606627532530367
  0.2499999984054065  0.0363992864732409  0.5393386618336762
  0.7499999958005806  0.7501715855186532  0.3973124531547776
  0.2500000007111570  0.2498513437213105  0.6026837216011548
  0.7500000029975814  0.4120588300426113  0.4076664127669996
  0.2500000028500237  0.5879680067556207  0.5923328597588429
  0.2499999994766320  0.0841944932672661  0.3950682488344429
  0.7499999976457815  0.9158372583133521  0.6049378065336533
 
  0.00000000E+00  0.00000000E+00  0.00000000E+00
  0.00000000E+00  0.00000000E+00  0.00000000E+00
  0.00000000E+00  0.00000000E+00  0.00000000E+00
  0.00000000E+00  0.00000000E+00  0.00000000E+00
  0.00000000E+00  0.00000000E+00  0.00000000E+00
  0.00000000E+00  0.00000000E+00  0.00000000E+00
  0.00000000E+00  0.00000000E+00  0.00000000E+00
  0.00000000E+00  0.00000000E+00  0.00000000E+00
  0.00000000E+00  0.00000000E+00  0.00000000E+00
  0.00000000E+00  0.00000000E+00  0.00000000E+00
  0.00000000E+00  0.00000000E+00  0.00000000E+00
  0.00000000E+00  0.00000000E+00  0.00000000E+00
