CONTCAR\(2)                             
   1.00000000000000     
    21.4713001251000009    0.0000000000000000    0.0000000000000000
    10.7356067371999995   19.1142855119999986    0.0000000000000000
     0.0000000000000000    0.0000000000000000   19.1464004516999999
   Ta   Te   O    H 
    36    72     1     1
Direct
  0.4023184431096496  0.3548917587691349  0.4999842215522818
  0.2585029091223703  0.1429254684300076  0.5000261967250523
  0.0959827744467958  0.1423379444735957  0.4993506882342587
  0.2405685972792355  0.3546624893642942  0.5000541506142184
  0.4260194550958261  0.1458126241834350  0.4987706862920476
  0.0719629589236135  0.3542813431985365  0.5020135383184154
  0.0980031866046147  0.9983531364023790  0.4999713719252199
  0.4012479747974425  0.9990442076847899  0.5015626041527810
  0.2496748272884162  0.9985631627701537  0.5007716716705843
  0.9026031416757903  0.3549541274740946  0.5000581405042013
  0.7586730515562365  0.1424940335591032  0.4993829411706372
  0.5958979904546666  0.1433524646843196  0.5000311768693706
  0.7399240541818912  0.3549343082477989  0.5000131208319587
  0.9272241177715799  0.1421784114535569  0.4967697600577736
  0.5712529958723849  0.3541727357951174  0.5018392660829747
  0.5966156838326313  0.9995502925860649  0.5015090431540941
  0.9004716109497508  0.9987643473715266  0.5000755154942027
  0.7492238551146286  0.9990471180910703  0.5008576468090027
  0.4034470824294516  0.8562151479986682  0.5027762336689321
  0.2595601760685895  0.6424439808183422  0.4986540531929720
  0.0952022756323956  0.6424718692908158  0.4987620866873854
  0.2408689720428754  0.8548987019679899  0.5007271528863981
  0.4306172715277725  0.6421225291391153  0.4950038400085006
  0.0713831731493926  0.8545021994235213  0.5027504119489024
  0.0981789535469559  0.4982129475357695  0.4991122345454215
  0.4009722265681503  0.4984440878054812  0.4989831375238083
  0.2496928200632169  0.4984071277451108  0.4994365227846416
  0.9013650678273493  0.8552132551411873  0.5009852408122484
  0.7606700997521685  0.6400836802436771  0.4949249880766828
  0.5969445224964360  0.6397979295947351  0.4942838078709144
  0.7374200165586444  0.8563235916931689  0.5029823057866452
  0.9242967466106720  0.6424103615060943  0.4957171003695748
  0.5667981240375681  0.8636844351922548  0.5068673747963786
  0.5979502410499720  0.4992838095712742  0.4978409107195745
  0.9002093722947890  0.4995127250485396  0.4982829656272116
  0.7496327872419499  0.4984731383132939  0.4974624827992997
  0.4707966469172433  0.2238094635930423  0.5811765800801041
  0.1948310407796967  0.2745434815605350  0.4198229443388044
  0.0282034438501384  0.2743109635407066  0.4200587564268119
  0.3030526716295725  0.2235515130870240  0.5810660792143310
  0.3612501621587256  0.2752403351248347  0.4160365657458840
  0.1362949406227827  0.2236094647828963  0.5819339157112466
  0.3564829014485582  0.4457573537960826  0.3908896852688315
  0.3022973777871485  0.0528851334611034  0.6092518564899336
  0.1417637236191212  0.0516871510966013  0.6084032522652691
  0.1952969207791782  0.1073159697723796  0.3942541759444680
  0.3038500587144810  0.3899171699771884  0.6058214119440137
  0.3602854948861989  0.1072531571572526  0.3970115005249113
  0.4680071726164954  0.3914169760127209  0.6038996587870713
  0.1382094614473033  0.3911632116250487  0.6039865514094984
  0.0309670929768231  0.1058116321349658  0.3951298869551039
  0.0233199485857654  0.4515429633369550  0.4032634422488002
  0.4747079725928600  0.0479119343230252  0.5969364691292327
  0.1955106759999978  0.4456523309291853  0.3911062533964937
  0.9702041596442896  0.2225357954754443  0.5790291948431374
  0.6948747611020352  0.2743524142859783  0.4199059012383231
  0.5279388918982804  0.2748370913188367  0.4195532941981810
  0.8039907166761324  0.2226741172480118  0.5792825511028781
  0.8621765375459489  0.2730623120899551  0.4183047992648525
  0.6373403168913399  0.2237003161669264  0.5823896082135178
  0.8579837340145957  0.4437352755904271  0.3900108941703593
  0.8035546609218969  0.0522298974797550  0.6087339071640017
  0.6420809943383148  0.0530169394596882  0.6090957874701743
  0.6945917451813344  0.1074463661924270  0.3941318702286765
  0.8034068860471493  0.3907296113136809  0.6050601295500471
  0.8600850700337190  0.1060295084145508  0.3949633876066727
  0.9674979545405407  0.3918649509425762  0.6035461147797960
  0.6380108980345867  0.3918619537243799  0.6033423960309108
  0.5298569987959851  0.1075267807367410  0.3969179765962494
  0.5226609536472111  0.4515802658322912  0.4031338164905733
  0.9761023134096263  0.0450336691246278  0.5957773901259458
  0.6963399320878310  0.4436359487128598  0.3898325764170067
  0.4721393400000977  0.7223400068334129  0.5785635834074014
  0.1949469680351967  0.7747666120212884  0.4205704995453985
  0.0272866192092636  0.7747823037910777  0.4208391928923660
  0.3060835262088943  0.7219431628210131  0.5777076060065909
  0.3632084148347587  0.7746582800143003  0.4191375740942576
  0.1370709184724035  0.7231398451977427  0.5804634475166210
  0.3571292100924310  0.9458464485069911  0.3928848074641067
  0.3038026520405026  0.5517798123521303  0.6076377696003661
  0.1420573437363686  0.5516469962605655  0.6075684577525422
  0.1945776055427189  0.6079851057007915  0.3936383271254513
  0.3035600683474584  0.8898323870714293  0.6072195997394658
  0.3606836402988165  0.6068324844564117  0.3945295920890217
  0.4658333257885374  0.8932430127547093  0.6090070367619234
  0.1390106346814903  0.8901608713137037  0.6044701453144370
  0.0295921223107172  0.6068489139549342  0.3949077809435266
  0.0227108129548910  0.9516979969538184  0.4039548790679675
  0.4764849572524312  0.5454957329010455  0.5943019903790159
  0.1958950618226183  0.9455093718443095  0.3918969598559627
  0.9693024914299713  0.7221937090578336  0.5781062467584306
  0.6915296744948094  0.7766657057481652  0.4229500259942398
  0.5295237954229890  0.7765527880812613  0.4232015897343260
  0.8029343346737434  0.7224304266084403  0.5789492749250797
  0.8593177055504100  0.7748781269397753  0.4194222300558579
  0.6354428312585298  0.7271776424458380  0.5652022842451530
  0.8558028830451860  0.9456450870008055  0.3919245734852908
  0.8020740422152173  0.5535312407148965  0.6064313527573333
  0.6416928476018953  0.5535617207697925  0.6059720422439483
  0.6968877054490790  0.6043635275769077  0.3892742211808766
  0.8035521796814891  0.8901849272496563  0.6072699594464055
  0.8611364278611688  0.6052181920241537  0.3910304241636808
  0.9679586543669174  0.8905996655248529  0.6046130599151596
  0.6377411932548256  0.8936274952230221  0.6089272141965836
  0.5313514144780029  0.6050311672714344  0.3905168857430610
  0.5215192037266476  0.9543446081191220  0.4033438417280166
  0.9755757822836912  0.5454098080843579  0.5946913696454388
  0.6943107102862740  0.9461269248993531  0.3932554191267670
  0.6483267328259004  0.7125414004916379  0.6700991002899954
  0.6011832562648820  0.7403145964302169  0.6914746038712281
 
  0.00000000E+00  0.00000000E+00  0.00000000E+00
  0.00000000E+00  0.00000000E+00  0.00000000E+00
  0.00000000E+00  0.00000000E+00  0.00000000E+00
  0.00000000E+00  0.00000000E+00  0.00000000E+00
  0.00000000E+00  0.00000000E+00  0.00000000E+00
  0.00000000E+00  0.00000000E+00  0.00000000E+00
  0.00000000E+00  0.00000000E+00  0.00000000E+00
  0.00000000E+00  0.00000000E+00  0.00000000E+00
  0.00000000E+00  0.00000000E+00  0.00000000E+00
  0.00000000E+00  0.00000000E+00  0.00000000E+00
  0.00000000E+00  0.00000000E+00  0.00000000E+00
  0.00000000E+00  0.00000000E+00  0.00000000E+00
  0.00000000E+00  0.00000000E+00  0.00000000E+00
  0.00000000E+00  0.00000000E+00  0.00000000E+00
  0.00000000E+00  0.00000000E+00  0.00000000E+00
  0.00000000E+00  0.00000000E+00  0.00000000E+00
  0.00000000E+00  0.00000000E+00  0.00000000E+00
  0.00000000E+00  0.00000000E+00  0.00000000E+00
  0.00000000E+00  0.00000000E+00  0.00000000E+00
  0.00000000E+00  0.00000000E+00  0.00000000E+00
  0.00000000E+00  0.00000000E+00  0.00000000E+00
  0.00000000E+00  0.00000000E+00  0.00000000E+00
  0.00000000E+00  0.00000000E+00  0.00000000E+00
  0.00000000E+00  0.00000000E+00  0.00000000E+00
  0.00000000E+00  0.00000000E+00  0.00000000E+00
  0.00000000E+00  0.00000000E+00  0.00000000E+00
  0.00000000E+00  0.00000000E+00  0.00000000E+00
  0.00000000E+00  0.00000000E+00  0.00000000E+00
  0.00000000E+00  0.00000000E+00  0.00000000E+00
  0.00000000E+00  0.00000000E+00  0.00000000E+00
  0.00000000E+00  0.00000000E+00  0.00000000E+00
  0.00000000E+00  0.00000000E+00  0.00000000E+00
  0.00000000E+00  0.00000000E+00  0.00000000E+00
  0.00000000E+00  0.00000000E+00  0.00000000E+00
  0.00000000E+00  0.00000000E+00  0.00000000E+00
  0.00000000E+00  0.00000000E+00  0.00000000E+00
  0.00000000E+00  0.00000000E+00  0.00000000E+00
  0.00000000E+00  0.00000000E+00  0.00000000E+00
  0.00000000E+00  0.00000000E+00  0.00000000E+00
  0.00000000E+00  0.00000000E+00  0.00000000E+00
  0.00000000E+00  0.00000000E+00  0.00000000E+00
  0.00000000E+00  0.00000000E+00  0.00000000E+00
  0.00000000E+00  0.00000000E+00  0.00000000E+00
  0.00000000E+00  0.00000000E+00  0.00000000E+00
  0.00000000E+00  0.00000000E+00  0.00000000E+00
  0.00000000E+00  0.00000000E+00  0.00000000E+00
  0.00000000E+00  0.00000000E+00  0.00000000E+00
  0.00000000E+00  0.00000000E+00  0.00000000E+00
  0.00000000E+00  0.00000000E+00  0.00000000E+00
  0.00000000E+00  0.00000000E+00  0.00000000E+00
  0.00000000E+00  0.00000000E+00  0.00000000E+00
  0.00000000E+00  0.00000000E+00  0.00000000E+00
  0.00000000E+00  0.00000000E+00  0.00000000E+00
  0.00000000E+00  0.00000000E+00  0.00000000E+00
  0.00000000E+00  0.00000000E+00  0.00000000E+00
  0.00000000E+00  0.00000000E+00  0.00000000E+00
  0.00000000E+00  0.00000000E+00  0.00000000E+00
  0.00000000E+00  0.00000000E+00  0.00000000E+00
  0.00000000E+00  0.00000000E+00  0.00000000E+00
  0.00000000E+00  0.00000000E+00  0.00000000E+00
  0.00000000E+00  0.00000000E+00  0.00000000E+00
  0.00000000E+00  0.00000000E+00  0.00000000E+00
  0.00000000E+00  0.00000000E+00  0.00000000E+00
  0.00000000E+00  0.00000000E+00  0.00000000E+00
  0.00000000E+00  0.00000000E+00  0.00000000E+00
  0.00000000E+00  0.00000000E+00  0.00000000E+00
  0.00000000E+00  0.00000000E+00  0.00000000E+00
  0.00000000E+00  0.00000000E+00  0.00000000E+00
  0.00000000E+00  0.00000000E+00  0.00000000E+00
  0.00000000E+00  0.00000000E+00  0.00000000E+00
  0.00000000E+00  0.00000000E+00  0.00000000E+00
  0.00000000E+00  0.00000000E+00  0.00000000E+00
  0.00000000E+00  0.00000000E+00  0.00000000E+00
  0.00000000E+00  0.00000000E+00  0.00000000E+00
  0.00000000E+00  0.00000000E+00  0.00000000E+00
  0.00000000E+00  0.00000000E+00  0.00000000E+00
  0.00000000E+00  0.00000000E+00  0.00000000E+00
  0.00000000E+00  0.00000000E+00  0.00000000E+00
  0.00000000E+00  0.00000000E+00  0.00000000E+00
  0.00000000E+00  0.00000000E+00  0.00000000E+00
  0.00000000E+00  0.00000000E+00  0.00000000E+00
  0.00000000E+00  0.00000000E+00  0.00000000E+00
  0.00000000E+00  0.00000000E+00  0.00000000E+00
  0.00000000E+00  0.00000000E+00  0.00000000E+00
  0.00000000E+00  0.00000000E+00  0.00000000E+00
  0.00000000E+00  0.00000000E+00  0.00000000E+00
  0.00000000E+00  0.00000000E+00  0.00000000E+00
  0.00000000E+00  0.00000000E+00  0.00000000E+00
  0.00000000E+00  0.00000000E+00  0.00000000E+00
  0.00000000E+00  0.00000000E+00  0.00000000E+00
  0.00000000E+00  0.00000000E+00  0.00000000E+00
  0.00000000E+00  0.00000000E+00  0.00000000E+00
  0.00000000E+00  0.00000000E+00  0.00000000E+00
  0.00000000E+00  0.00000000E+00  0.00000000E+00
  0.00000000E+00  0.00000000E+00  0.00000000E+00
  0.00000000E+00  0.00000000E+00  0.00000000E+00
  0.00000000E+00  0.00000000E+00  0.00000000E+00
  0.00000000E+00  0.00000000E+00  0.00000000E+00
  0.00000000E+00  0.00000000E+00  0.00000000E+00
  0.00000000E+00  0.00000000E+00  0.00000000E+00
  0.00000000E+00  0.00000000E+00  0.00000000E+00
  0.00000000E+00  0.00000000E+00  0.00000000E+00
  0.00000000E+00  0.00000000E+00  0.00000000E+00
  0.00000000E+00  0.00000000E+00  0.00000000E+00
  0.00000000E+00  0.00000000E+00  0.00000000E+00
  0.00000000E+00  0.00000000E+00  0.00000000E+00
  0.00000000E+00  0.00000000E+00  0.00000000E+00
  0.00000000E+00  0.00000000E+00  0.00000000E+00
  0.00000000E+00  0.00000000E+00  0.00000000E+00
  0.00000000E+00  0.00000000E+00  0.00000000E+00
