 Y2 C2 I2                               
   1.00000000000000     
     3.8747506579325197    0.0000000000000000    0.0000000000000000
     1.9373753289662599    3.6309308186226539    0.0000000000000000
     0.0000000000000000    0.0000000000000000   21.9749709552480006
   Y    C    I 
     2     2     2
Direct
  0.3139036165721901  0.3719384728063277  0.4373178841638360
  0.0476547557267782  0.9049446718300420  0.5626846950874640
  0.7605291602881512  0.4786524273723371  0.5147910889517260
  0.6010278470661454  0.7982320153562311  0.4852147317553858
  0.3846109537595649  0.2306977392849260  0.6582389843883690
  0.9769986665871755  0.0460826733501433  0.3417526156532191
 
  0.00000000E+00  0.00000000E+00  0.00000000E+00
  0.00000000E+00  0.00000000E+00  0.00000000E+00
  0.00000000E+00  0.00000000E+00  0.00000000E+00
  0.00000000E+00  0.00000000E+00  0.00000000E+00
  0.00000000E+00  0.00000000E+00  0.00000000E+00
  0.00000000E+00  0.00000000E+00  0.00000000E+00
