CONTCAR\(7)                             
   1.00000000000000     
    13.7100000381000005    0.0000000000000000    0.0000000000000000
    -6.8218533300999997   11.9299668931999996    0.0000000000000000
     0.0000000000000000    0.0000000000000000   18.6952991486000002
   Nb   Ir   Se   O 
    12     4    32     1
Selective dynamics
Direct
  0.4680928942885103  0.2503845472238524  0.5007081569293561   F   F   F
  0.4887633414903192  0.0222499111833088  0.4995526413905935   F   F   F
  0.2375110141864667  0.2287441774212056  0.4991312386488289   F   F   F
  0.9987424454795573  0.2274821466690327  0.5004516512824821   F   F   F
  0.9749709706270906  0.9901198842961279  0.5026031100135526   F   F   F
  0.7726911605873212  0.2395371300045923  0.5005278313118922   F   F   F
  0.4980110431629043  0.7279718506533612  0.5006605198276617   F   F   F
  0.4749500279207979  0.4921735719397091  0.5037718261131090   F   F   F
  0.2687365076893400  0.7418814413353019  0.5032198403120631   F   F   F
  0.9750017887564439  0.7505714226111948  0.5013906881222852   F   F   F
  0.9889600578579874  0.5218116722256099  0.5001125548666749   F   F   F
  0.7379399098963404  0.7278256644972885  0.4985170162977965   F   F   F
  0.2711972882348306  0.0251005059702578  0.4977832172856154   F   F   F
  0.7734177830498226  0.0240045171669578  0.5027699120343598   F   F   F
  0.2729742007736391  0.5254986652222087  0.5041689396359814   F   F   F
  0.7730505801476752  0.5282395238602220  0.4981174851825330   F   F   F
  0.4165344396971022  0.0962904595387784  0.5975910144209067   F   F   F
  0.3998497836838197  0.3313811310210397  0.5972563108047027   F   F   F
  0.1611744482167055  0.0723801915195565  0.5879356266284432   F   F   F
  0.1728111598174848  0.3467482932076180  0.5802106992078322   F   F   F
  0.3307837212616818  0.1710776994997829  0.3990991109468780   F   F   F
  0.3192388395376184  0.4152478378386490  0.4141305674757731   F   F   F
  0.0768438774852314  0.1524184517157323  0.4056217258988184   F   F   F
  0.0919117539508889  0.4256463429637947  0.4310525911632155   F   F   F
  0.9197667208745770  0.0865450015765461  0.6014351208846378   F   F   F
  0.9185061158164700  0.3318606057200384  0.5898278616800283   F   F   F
  0.6629813232521471  0.0785453116181571  0.5867880247666264   F   F   F
  0.6709276539582518  0.3407658339587201  0.5641022878236726   F   F   F
  0.8441796122593388  0.1679859426338197  0.4021652359005543   F   F   F
  0.8259580907921347  0.4147535193435132  0.4149699285102741   F   F   F
  0.5809567866411101  0.1759633813927479  0.4149484768214791   F   F   F
  0.5921077951206541  0.4266993175541245  0.4234536005475391   F   F   F
  0.4200191205077317  0.5888400295845457  0.6025110588370950   F   F   F
  0.4198022419445664  0.8334473069535733  0.5898434290324843   F   F   F
  0.1613894691669557  0.5783878060174246  0.5885017627748041   F   F   F
  0.1729050832089101  0.8450665384712721  0.5714543915326686   F   F   F
  0.3413323355813844  0.6701649900697433  0.4042809170136366   F   F   F
  0.3257379790008557  0.9144048471983552  0.4142848819461946   F   F   F
  0.0802039425349079  0.6717790281266289  0.4130119478586636   F   F   F
  0.0926511021550951  0.9250052375233793  0.4217971315091447   F   F   F
  0.9164856771919005  0.5945011545937220  0.5984814246252981   F   F   F
  0.9011401755869812  0.8299103365847174  0.5962527055497375   F   F   F
  0.6617441047724100  0.5733930002437262  0.5884823241054349   F   F   F
  0.6737631711434204  0.8460688057947294  0.5794033077023144   F   F   F
  0.8359924884172187  0.6754878337560157  0.3991422985972477   F   F   F
  0.8197608212414096  0.9133963669840597  0.4129832368601782   F   F   F
  0.5766803633698956  0.6535624778343490  0.4054637255558333   F   F   F
  0.5912913068716108  0.9257311582924146  0.4304800631232837   F   F   F
  0.6783978897904817  0.3522872515885069  0.6530084609080481   T   T   T
 
  0.00000000E+00  0.00000000E+00  0.00000000E+00
  0.00000000E+00  0.00000000E+00  0.00000000E+00
  0.00000000E+00  0.00000000E+00  0.00000000E+00
  0.00000000E+00  0.00000000E+00  0.00000000E+00
  0.00000000E+00  0.00000000E+00  0.00000000E+00
  0.00000000E+00  0.00000000E+00  0.00000000E+00
  0.00000000E+00  0.00000000E+00  0.00000000E+00
  0.00000000E+00  0.00000000E+00  0.00000000E+00
  0.00000000E+00  0.00000000E+00  0.00000000E+00
  0.00000000E+00  0.00000000E+00  0.00000000E+00
  0.00000000E+00  0.00000000E+00  0.00000000E+00
  0.00000000E+00  0.00000000E+00  0.00000000E+00
  0.00000000E+00  0.00000000E+00  0.00000000E+00
  0.00000000E+00  0.00000000E+00  0.00000000E+00
  0.00000000E+00  0.00000000E+00  0.00000000E+00
  0.00000000E+00  0.00000000E+00  0.00000000E+00
  0.00000000E+00  0.00000000E+00  0.00000000E+00
  0.00000000E+00  0.00000000E+00  0.00000000E+00
  0.00000000E+00  0.00000000E+00  0.00000000E+00
  0.00000000E+00  0.00000000E+00  0.00000000E+00
  0.00000000E+00  0.00000000E+00  0.00000000E+00
  0.00000000E+00  0.00000000E+00  0.00000000E+00
  0.00000000E+00  0.00000000E+00  0.00000000E+00
  0.00000000E+00  0.00000000E+00  0.00000000E+00
  0.00000000E+00  0.00000000E+00  0.00000000E+00
  0.00000000E+00  0.00000000E+00  0.00000000E+00
  0.00000000E+00  0.00000000E+00  0.00000000E+00
  0.00000000E+00  0.00000000E+00  0.00000000E+00
  0.00000000E+00  0.00000000E+00  0.00000000E+00
  0.00000000E+00  0.00000000E+00  0.00000000E+00
  0.00000000E+00  0.00000000E+00  0.00000000E+00
  0.00000000E+00  0.00000000E+00  0.00000000E+00
  0.00000000E+00  0.00000000E+00  0.00000000E+00
  0.00000000E+00  0.00000000E+00  0.00000000E+00
  0.00000000E+00  0.00000000E+00  0.00000000E+00
  0.00000000E+00  0.00000000E+00  0.00000000E+00
  0.00000000E+00  0.00000000E+00  0.00000000E+00
  0.00000000E+00  0.00000000E+00  0.00000000E+00
  0.00000000E+00  0.00000000E+00  0.00000000E+00
  0.00000000E+00  0.00000000E+00  0.00000000E+00
  0.00000000E+00  0.00000000E+00  0.00000000E+00
  0.00000000E+00  0.00000000E+00  0.00000000E+00
  0.00000000E+00  0.00000000E+00  0.00000000E+00
  0.00000000E+00  0.00000000E+00  0.00000000E+00
  0.00000000E+00  0.00000000E+00  0.00000000E+00
  0.00000000E+00  0.00000000E+00  0.00000000E+00
  0.00000000E+00  0.00000000E+00  0.00000000E+00
  0.00000000E+00  0.00000000E+00  0.00000000E+00
  0.00000000E+00  0.00000000E+00  0.00000000E+00
