 Ti1 Se2                                
   1.00000000000000     
     3.5199034049675846    0.0000000000000000    0.0000000000000000
    -1.7599517024837923    3.0483255708959414    0.0000000000000000
     0.0000000000000000    0.0000000000000000   18.0872420066360000
   Ti   Se
     1     2
Direct
  0.0000022325341362  0.0000007194458433  0.5000007433625555
  0.3333321439124788  0.6666662758207593  0.4137332627278241
  0.6666656235533921  0.3333330047333973  0.5862659939096133
 
  0.00000000E+00  0.00000000E+00  0.00000000E+00
  0.00000000E+00  0.00000000E+00  0.00000000E+00
  0.00000000E+00  0.00000000E+00  0.00000000E+00
