CONTCAR\(8)                             
   1.00000000000000     
    13.0193004608000003    0.0000000000000000    0.0000000000000000
    -1.6274128543999999    9.0662962906000004    0.0000000000000000
     0.0000000000000000    0.0000000000000000   18.6888999939000016
   Nb   Pd   S    O 
     8     4    24     1
Direct
  0.0397849604995980  0.2875566618758107  0.4757634536926130
  0.2182235867320929  0.7026982166091470  0.5234544620168445
  0.2903392443452255  0.2968232797725844  0.4767018428028437
  0.4657919610921243  0.7005557592836817  0.5253739034032253
  0.5406010286480009  0.2971340965930537  0.4778918133754717
  0.7158274410368560  0.6995040015399990  0.5262591031676273
  0.7900343892275548  0.2962917857503610  0.4778339282285314
  0.9640792631636894  0.7020638106764435  0.5241909495791891
  0.1289844418049911  0.9984865366824855  0.4991289036031521
  0.3792401423022146  0.9985716970849621  0.5010550199417526
  0.6285155279113723  0.0001481072248985  0.5010225824466426
  0.8754882548377113  0.9953746883010601  0.5018532839601494
  0.1006451671021849  0.7825159933146144  0.4316115031135268
  0.1548282647814973  0.2129950533290895  0.5691589957241461
  0.0671024953799683  0.5067434487136127  0.5641434875556741
  0.1858965573730245  0.4827263101460438  0.4323933523781509
  0.1503549107692969  0.1577755919341894  0.4002113925935446
  0.1086236887550172  0.8413401534998292  0.5981652616220496
  0.3517954995575283  0.7826541564407514  0.4315342893548339
  0.4037542802645261  0.2132656486267851  0.5701311615413518
  0.3146797344992108  0.5138373469960417  0.5700217362187761
  0.4383253310584467  0.4835165342440332  0.4329229791335685
  0.3992254212070236  0.1585967011930502  0.4027611845916705
  0.3590307858163193  0.8379130503018449  0.6000400013950012
  0.6016194417479545  0.7841142835444325  0.4327321393074281
  0.6551172074553907  0.2153175654660358  0.5708120247703574
  0.5669085485881994  0.5137072054470928  0.5705851219650699
  0.6895301287577702  0.4836888451497039  0.4334943285754053
  0.6480049083915165  0.1609827545565519  0.4023669729641277
  0.6080746270842112  0.8406350374836908  0.5995583898384421
  0.8496739152135369  0.7802966452194666  0.4322556944960786
  0.9048985718163833  0.2109953681077819  0.5700329329548739
  0.8203468318148205  0.5130673110752291  0.5710975859562981
  0.9409181978279421  0.4817463369537991  0.4333462363196093
  0.8949158168908008  0.1527248386635492  0.4028253960929808
  0.8568116957736518  0.8360418003016369  0.6013199032651688
  0.0679280014723569  0.4973937048966746  0.6445984160538289
 
  0.00000000E+00  0.00000000E+00  0.00000000E+00
  0.00000000E+00  0.00000000E+00  0.00000000E+00
  0.00000000E+00  0.00000000E+00  0.00000000E+00
  0.00000000E+00  0.00000000E+00  0.00000000E+00
  0.00000000E+00  0.00000000E+00  0.00000000E+00
  0.00000000E+00  0.00000000E+00  0.00000000E+00
  0.00000000E+00  0.00000000E+00  0.00000000E+00
  0.00000000E+00  0.00000000E+00  0.00000000E+00
  0.00000000E+00  0.00000000E+00  0.00000000E+00
  0.00000000E+00  0.00000000E+00  0.00000000E+00
  0.00000000E+00  0.00000000E+00  0.00000000E+00
  0.00000000E+00  0.00000000E+00  0.00000000E+00
  0.00000000E+00  0.00000000E+00  0.00000000E+00
  0.00000000E+00  0.00000000E+00  0.00000000E+00
  0.00000000E+00  0.00000000E+00  0.00000000E+00
  0.00000000E+00  0.00000000E+00  0.00000000E+00
  0.00000000E+00  0.00000000E+00  0.00000000E+00
  0.00000000E+00  0.00000000E+00  0.00000000E+00
  0.00000000E+00  0.00000000E+00  0.00000000E+00
  0.00000000E+00  0.00000000E+00  0.00000000E+00
  0.00000000E+00  0.00000000E+00  0.00000000E+00
  0.00000000E+00  0.00000000E+00  0.00000000E+00
  0.00000000E+00  0.00000000E+00  0.00000000E+00
  0.00000000E+00  0.00000000E+00  0.00000000E+00
  0.00000000E+00  0.00000000E+00  0.00000000E+00
  0.00000000E+00  0.00000000E+00  0.00000000E+00
  0.00000000E+00  0.00000000E+00  0.00000000E+00
  0.00000000E+00  0.00000000E+00  0.00000000E+00
  0.00000000E+00  0.00000000E+00  0.00000000E+00
  0.00000000E+00  0.00000000E+00  0.00000000E+00
  0.00000000E+00  0.00000000E+00  0.00000000E+00
  0.00000000E+00  0.00000000E+00  0.00000000E+00
  0.00000000E+00  0.00000000E+00  0.00000000E+00
  0.00000000E+00  0.00000000E+00  0.00000000E+00
  0.00000000E+00  0.00000000E+00  0.00000000E+00
  0.00000000E+00  0.00000000E+00  0.00000000E+00
  0.00000000E+00  0.00000000E+00  0.00000000E+00
