CONTCAR\(4)                             
   1.00000000000000     
    11.7709999084000003    0.0000000000000000    0.0000000000000000
    -5.8855350711999996   11.1688637170000007    0.0000000000000000
     0.0000000000000000    0.0000000000000000   18.2658004761000008
   Cr   I    O 
     9    18     1
Direct
 -0.0017381259669256 -0.0016428506921217  0.4914150696835713
  0.3236851421167950 -0.0067189033969788  0.4883409119632510
  0.6661755948612601 -0.0092488821247047  0.4895242642164639
 -0.0026315014059762  0.3253773396004974  0.4839374810637134
  0.3257953572199923  0.3235347929612891  0.4827421881851164
  0.6646442963181656  0.3298851893730407  0.4858260933864915
  0.0090439574687162  0.6814972690638640  0.5019115632575176
  0.3469606546358908  0.6883221569181454  0.6405754673022224
  0.6734269476144554  0.6806716231492428  0.5028659958852312
  0.1222430985560856  0.2451813737650010  0.5791685020062706
  0.2047808654766077  0.0924134518268521  0.3971578787636397
  0.4450479637112800  0.2257557471749437  0.5715127839682946
  0.5408335839804393  0.0816233883962925  0.4004476630716042
  0.7813599438047830  0.2294932459307112  0.5732436391084252
  0.8827965632698289  0.0918843343246873  0.3990377672821314
  0.1103597565763791  0.5663842770601890  0.5902225707605895
  0.2156391352290807  0.4325362287410210  0.4022990730135003
  0.4594042507371666  0.5637741272754726  0.5922442173606006
  0.5446624599085034  0.4249733687004809  0.3995628660346628
  0.7878743775955944  0.5727552556036065  0.5846268308237484
  0.8803923512856258  0.4258443178162104  0.3997519999440551
  0.1198077044457061  0.9147335195365008  0.5875579808454704
  0.2153121705592180  0.7754219824607591  0.4129339936383014
  0.4563674507948081  0.9123359947970302  0.5922472598720130
  0.5573657272657389  0.7716028097968843  0.4145508680806239
  0.7938040115139023  0.9144436508752295  0.5883251173519568
  0.8781794237724329  0.7570986866702545  0.4085627089089279
  0.3494467996544430  0.6918162193956244  0.7274770142216169
 
  0.00000000E+00  0.00000000E+00  0.00000000E+00
  0.00000000E+00  0.00000000E+00  0.00000000E+00
  0.00000000E+00  0.00000000E+00  0.00000000E+00
  0.00000000E+00  0.00000000E+00  0.00000000E+00
  0.00000000E+00  0.00000000E+00  0.00000000E+00
  0.00000000E+00  0.00000000E+00  0.00000000E+00
  0.00000000E+00  0.00000000E+00  0.00000000E+00
  0.00000000E+00  0.00000000E+00  0.00000000E+00
  0.00000000E+00  0.00000000E+00  0.00000000E+00
  0.00000000E+00  0.00000000E+00  0.00000000E+00
  0.00000000E+00  0.00000000E+00  0.00000000E+00
  0.00000000E+00  0.00000000E+00  0.00000000E+00
  0.00000000E+00  0.00000000E+00  0.00000000E+00
  0.00000000E+00  0.00000000E+00  0.00000000E+00
  0.00000000E+00  0.00000000E+00  0.00000000E+00
  0.00000000E+00  0.00000000E+00  0.00000000E+00
  0.00000000E+00  0.00000000E+00  0.00000000E+00
  0.00000000E+00  0.00000000E+00  0.00000000E+00
  0.00000000E+00  0.00000000E+00  0.00000000E+00
  0.00000000E+00  0.00000000E+00  0.00000000E+00
  0.00000000E+00  0.00000000E+00  0.00000000E+00
  0.00000000E+00  0.00000000E+00  0.00000000E+00
  0.00000000E+00  0.00000000E+00  0.00000000E+00
  0.00000000E+00  0.00000000E+00  0.00000000E+00
  0.00000000E+00  0.00000000E+00  0.00000000E+00
  0.00000000E+00  0.00000000E+00  0.00000000E+00
  0.00000000E+00  0.00000000E+00  0.00000000E+00
  0.00000000E+00  0.00000000E+00  0.00000000E+00
