SYSTEM =gra_geo_opt
PREC=Normal
ENCUT = 400
ISTART = 0 
ICHARG = 2        
EDIFF = 1E-05
LREAL = Auto     
EDIFFG = -2E-02   
NSW =1000
IBRION =2
ISIF = 2
ISMEAR = 0
#MAGMOM = 71*2 4 
SIGMA =0.2  
SYMPREC=1E-04
GGA = PE
ALGO=Fast
ISPIN = 2
NCORE=3
NELM=100
LWAVE=.FALSE.
LCHARG=.FALSE.
IVDW=11
