CONTCAR\(2)                             
   1.00000000000000     
    11.0116996764999993    0.0000000000000000    0.0000000000000000
     0.0000000000000000   11.6578998566000003    0.0000000000000000
     0.0000000000000000    0.0000000000000000   18.4538002014000000
   Cu   H    Cl   O 
    16    16    16    17
Direct
  0.3088216801286693  0.1786622652144858  0.5549299721719542
  0.4233355839024300  0.4241580634174535  0.4377379610787938
  0.1689004084973002  0.3195087997753461  0.4406305865490933
  0.0629940414599252  0.0712693906341327  0.5570741278154639
  0.8112195655804332  0.1824775407515241  0.5598171149634293
  0.9184361879712798  0.4363547365825313  0.4493918337278385
  0.6770298525865682  0.3162232742039067  0.4418929093845940
  0.5610320634902415  0.0695014143765239  0.5609442611477418
  0.3209479873318094  0.6745198829592842  0.5557734156627263
  0.4338554665827116  0.9266259527031669  0.4440109297721407
  0.1847150965663172  0.8164784133833237  0.4405248643263597
  0.0697606371141260  0.5716816653110719  0.5597746965743027
  0.8322457693000843  0.6995017479373471  0.5661760997885471
  0.9339471247447068  0.9346791694479896  0.4385762959984726
  0.6841704596227948  0.8195664137910734  0.4509678983398920
  0.5633529521262777  0.5546564276883329  0.5550127744566005
  0.2074955710910286  0.1025582541165976  0.4429478044134828
  0.0299791166211255  0.3572026710259424  0.5554629807371806
  0.2798184323038371  0.3938495784144224  0.5497057534969135
  0.4615828539716607  0.1416819567123255  0.4475492015843232
  0.7098475728964544  0.1023591938864388  0.4493082153245574
  0.5196502236473539  0.3424008179362195  0.5495416869619288
  0.7597720427494801  0.3935075986948104  0.5576201384306680
  0.9545005010909591  0.1489502760251821  0.4491103531892829
  0.2126335345079598  0.5996760429566942  0.4451371117665795
  0.0429036718902005  0.8606577160199989  0.5474159286678764
  0.2843145497389614  0.8908749544798457  0.5528544728866235
  0.4663462784755671  0.6420064656474839  0.4451504738103304
  0.7232420350589773  0.6090409738319090  0.4661023489597065
  0.5330768559853047  0.8528685335597312  0.5572273092588189
  0.7860384604381961  0.9095684768366940  0.5547904147473122
  0.9640948270431362  0.6509067373652220  0.4513079011751415
  0.4709901652041198  0.2146364303190982  0.6281877577376699
  0.2590191067264079  0.4618891507055647  0.3685159993581070
 -0.0003416960053222  0.2907318355136196  0.3746418262820567
  0.2268722099975460  0.0332135348041742  0.6267696712089889
  0.9798443551805900  0.2155653735060404  0.6279143315381215
  0.7544358457500010  0.4747568720215603  0.3802911052046257
  0.5158456999234152  0.2794629826586799  0.3680717621610839
  0.7257501792109253  0.0392165173181402  0.6323397720645272
  0.4818479450893833  0.7067831275878231  0.6285227911677689
  0.2744429461685096  0.9594198575026616  0.3695784505438640
  0.0167817785338622  0.7856876957838360  0.3717053900666504
  0.2344698139194061  0.5282414352612383  0.6270784145826861
  0.0071453778638325  0.7311594523035509  0.6288979470061805
  0.7641321913199530  0.9617590682404530  0.3720372001141675
  0.5247206412949785  0.7786017834533671  0.3775602325498169
  0.7748862256085555  0.5720409269352473  0.6591444599819165
  0.1807146876834348  0.1598976163218043  0.4791727127991900
  0.0534356333611736  0.4149793064320670  0.5185164579490282
  0.3014119119912476  0.3353177029771797  0.5127779445255896
  0.4344501521023534  0.0851339772129647  0.4842898186814217
  0.6826922939275617  0.1608268243944908  0.4848246929414922
  0.5469979062620938  0.3996797690806599  0.5132226198948943
  0.7995311930144043  0.3417261821469016  0.5213557854212141
  0.9300333626905261  0.0894519542453290  0.4847251648803712
  0.1902310809835159  0.6583133489338437  0.4817401950539023
  0.0674522574210775  0.9182062433321458  0.5105603226047953
  0.3116827118475155  0.8336153990619837  0.5166665243486839
  0.4396089655501520  0.5828995429657162  0.4805223113164563
  0.6909258338114554  0.6619130061500466  0.5035406108028071
  0.5596964976971430  0.9109280899146972  0.5211997274617444
  0.8163925267476995  0.8518824649892323  0.5196671064729658
  0.9356924408945859  0.5965198626018224  0.4889716657528154
  0.6764458907120247  0.4840171056369553  0.6200518233557478
 
  0.00000000E+00  0.00000000E+00  0.00000000E+00
  0.00000000E+00  0.00000000E+00  0.00000000E+00
  0.00000000E+00  0.00000000E+00  0.00000000E+00
  0.00000000E+00  0.00000000E+00  0.00000000E+00
  0.00000000E+00  0.00000000E+00  0.00000000E+00
  0.00000000E+00  0.00000000E+00  0.00000000E+00
  0.00000000E+00  0.00000000E+00  0.00000000E+00
  0.00000000E+00  0.00000000E+00  0.00000000E+00
  0.00000000E+00  0.00000000E+00  0.00000000E+00
  0.00000000E+00  0.00000000E+00  0.00000000E+00
  0.00000000E+00  0.00000000E+00  0.00000000E+00
  0.00000000E+00  0.00000000E+00  0.00000000E+00
  0.00000000E+00  0.00000000E+00  0.00000000E+00
  0.00000000E+00  0.00000000E+00  0.00000000E+00
  0.00000000E+00  0.00000000E+00  0.00000000E+00
  0.00000000E+00  0.00000000E+00  0.00000000E+00
  0.00000000E+00  0.00000000E+00  0.00000000E+00
  0.00000000E+00  0.00000000E+00  0.00000000E+00
  0.00000000E+00  0.00000000E+00  0.00000000E+00
  0.00000000E+00  0.00000000E+00  0.00000000E+00
  0.00000000E+00  0.00000000E+00  0.00000000E+00
  0.00000000E+00  0.00000000E+00  0.00000000E+00
  0.00000000E+00  0.00000000E+00  0.00000000E+00
  0.00000000E+00  0.00000000E+00  0.00000000E+00
  0.00000000E+00  0.00000000E+00  0.00000000E+00
  0.00000000E+00  0.00000000E+00  0.00000000E+00
  0.00000000E+00  0.00000000E+00  0.00000000E+00
  0.00000000E+00  0.00000000E+00  0.00000000E+00
  0.00000000E+00  0.00000000E+00  0.00000000E+00
  0.00000000E+00  0.00000000E+00  0.00000000E+00
  0.00000000E+00  0.00000000E+00  0.00000000E+00
  0.00000000E+00  0.00000000E+00  0.00000000E+00
  0.00000000E+00  0.00000000E+00  0.00000000E+00
  0.00000000E+00  0.00000000E+00  0.00000000E+00
  0.00000000E+00  0.00000000E+00  0.00000000E+00
  0.00000000E+00  0.00000000E+00  0.00000000E+00
  0.00000000E+00  0.00000000E+00  0.00000000E+00
  0.00000000E+00  0.00000000E+00  0.00000000E+00
  0.00000000E+00  0.00000000E+00  0.00000000E+00
  0.00000000E+00  0.00000000E+00  0.00000000E+00
  0.00000000E+00  0.00000000E+00  0.00000000E+00
  0.00000000E+00  0.00000000E+00  0.00000000E+00
  0.00000000E+00  0.00000000E+00  0.00000000E+00
  0.00000000E+00  0.00000000E+00  0.00000000E+00
  0.00000000E+00  0.00000000E+00  0.00000000E+00
  0.00000000E+00  0.00000000E+00  0.00000000E+00
  0.00000000E+00  0.00000000E+00  0.00000000E+00
  0.00000000E+00  0.00000000E+00  0.00000000E+00
  0.00000000E+00  0.00000000E+00  0.00000000E+00
  0.00000000E+00  0.00000000E+00  0.00000000E+00
  0.00000000E+00  0.00000000E+00  0.00000000E+00
  0.00000000E+00  0.00000000E+00  0.00000000E+00
  0.00000000E+00  0.00000000E+00  0.00000000E+00
  0.00000000E+00  0.00000000E+00  0.00000000E+00
  0.00000000E+00  0.00000000E+00  0.00000000E+00
  0.00000000E+00  0.00000000E+00  0.00000000E+00
  0.00000000E+00  0.00000000E+00  0.00000000E+00
  0.00000000E+00  0.00000000E+00  0.00000000E+00
  0.00000000E+00  0.00000000E+00  0.00000000E+00
  0.00000000E+00  0.00000000E+00  0.00000000E+00
  0.00000000E+00  0.00000000E+00  0.00000000E+00
  0.00000000E+00  0.00000000E+00  0.00000000E+00
  0.00000000E+00  0.00000000E+00  0.00000000E+00
  0.00000000E+00  0.00000000E+00  0.00000000E+00
  0.00000000E+00  0.00000000E+00  0.00000000E+00
