CONTCAR                                 
   1.00000000000000     
    11.4335002898999996    0.0000000000000000    0.0000000000000000
     5.7167501449999998    9.9017017052000007    0.0000000000000000
     0.0000000000000000    0.0000000000000000   21.6627006530999999
   Zr   Te   P    O    H 
    18    18     9     1     1
Selective dynamics
Direct
  0.1070614583310672  0.1119780659980023  0.5656298067411356   F   F   F
  0.9964220417233491  0.0013112580445380  0.4338795809656872   F   F   F
  0.4395457869404495  0.1134477225751809  0.5676343124776864   F   F   F
  0.3293026879738790  0.0019224964489482  0.4344202982138938   F   F   F
  0.7823087815248968  0.1053985879195665  0.5659439992552748   F   F   F
  0.6610485180905457  0.0046552411002310  0.4354054689236762   F   F   F
  0.1011851862425246  0.4486895905565760  0.5640443931528978   F   F   F
  0.9953312769192806  0.3362221990796854  0.4335623092598340   F   F   F
  0.4344696231077378  0.4472667232452281  0.5725757629516721   F   F   F
  0.3311156366827888  0.3339169257032424  0.4357470856584698   F   F   F
  0.7802152994568985  0.4491132876476485  0.5646711098178656   F   F   F
  0.6621306354591354  0.3352539895496491  0.4373619501281567   F   F   F
  0.1039016774225630  0.7809020539723051  0.5647605195981171   F   F   F
  0.9952995033761951  0.6695334362369678  0.4337477887061070   F   F   F
  0.4415339514899372  0.7792903424266981  0.5674171256734581   F   F   F
  0.3313320296073599  0.6672900744129890  0.4356330079739266   F   F   F
  0.7737320151928415  0.7802369955794433  0.5661706775704616   F   F   F
  0.6601477930218493  0.6685298513464062  0.4350844891526577   F   F   F
  0.0039836462195595  0.9944838756640664  0.6560141675278643   F   F   F
  0.1071735043815707  0.1132285725664275  0.3458529478176828   F   F   F
  0.3280777880749213  0.0019468493644084  0.6552142001011134   F   F   F
  0.4401885298232457  0.1140924812477664  0.3466129292631521   F   F   F
  0.6641258252264990  0.0044489272213326  0.6552888843574749   F   F   F
  0.7719165398080534  0.1150755078185597  0.3470063515980186   F   F   F
  0.0008002070734818  0.3336760677053690  0.6564680164099741   F   F   F
  0.1091609227620793  0.4458995184367538  0.3462664895022414   F   F   F
  0.3098112917921512  0.3331201590125161  0.6552805687043701   F   F   F
  0.4418589364989813  0.4452139858569879  0.3476984311010298   F   F   F
  0.7426806157503520  0.3019737685116581  0.6654529509122185   F   F   F
  0.7711134485301017  0.4466487669709096  0.3468378284343174   F   F   F
  0.9942745150824805  0.6693771759377185  0.6541978581534806   F   F   F
  0.1096202037769700  0.7783618501139458  0.3463183527910232   F   F   F
  0.3170899995789682  0.6823751655663486  0.6555213559795376   F   F   F
  0.4398852902000101  0.7791455051034788  0.3465249709188427   F   F   F
  0.6643775483354304  0.6679360465356012  0.6553379342321008   F   F   F
  0.7714223421050903  0.7811763800808720  0.3469528969267230   F   F   F
  0.2177461889253749  0.2236304301186252  0.5002754219154824   F   F   F
  0.5516555371607978  0.2259321722334349  0.5044721944575770   F   F   F
  0.8864536415952600  0.2236718015166801  0.4998848885948988   F   F   F
  0.2203639519870961  0.5557524531186502  0.5013510845667284   F   F   F
  0.5509663881570503  0.5548114111370595  0.5042191797416748   F   F   F
  0.8836055626378325  0.5605164302323331  0.4984300830340089   F   F   F
  0.2190983021965920  0.8903054367050203  0.5004107872288941   F   F   F
  0.5505285272590399  0.8917268802611176  0.5008915553468256   F   F   F
  0.8844571723419747  0.8902744704365517  0.4992209257921161   F   F   F
  0.5317580967801945  0.3773819968414571  0.6677033576425373   T   T   T
  0.4879516553756177  0.4468077958410034  0.6990012082868885   T   T   T
 
  0.00000000E+00  0.00000000E+00  0.00000000E+00
  0.00000000E+00  0.00000000E+00  0.00000000E+00
  0.00000000E+00  0.00000000E+00  0.00000000E+00
  0.00000000E+00  0.00000000E+00  0.00000000E+00
  0.00000000E+00  0.00000000E+00  0.00000000E+00
  0.00000000E+00  0.00000000E+00  0.00000000E+00
  0.00000000E+00  0.00000000E+00  0.00000000E+00
  0.00000000E+00  0.00000000E+00  0.00000000E+00
  0.00000000E+00  0.00000000E+00  0.00000000E+00
  0.00000000E+00  0.00000000E+00  0.00000000E+00
  0.00000000E+00  0.00000000E+00  0.00000000E+00
  0.00000000E+00  0.00000000E+00  0.00000000E+00
  0.00000000E+00  0.00000000E+00  0.00000000E+00
  0.00000000E+00  0.00000000E+00  0.00000000E+00
  0.00000000E+00  0.00000000E+00  0.00000000E+00
  0.00000000E+00  0.00000000E+00  0.00000000E+00
  0.00000000E+00  0.00000000E+00  0.00000000E+00
  0.00000000E+00  0.00000000E+00  0.00000000E+00
  0.00000000E+00  0.00000000E+00  0.00000000E+00
  0.00000000E+00  0.00000000E+00  0.00000000E+00
  0.00000000E+00  0.00000000E+00  0.00000000E+00
  0.00000000E+00  0.00000000E+00  0.00000000E+00
  0.00000000E+00  0.00000000E+00  0.00000000E+00
  0.00000000E+00  0.00000000E+00  0.00000000E+00
  0.00000000E+00  0.00000000E+00  0.00000000E+00
  0.00000000E+00  0.00000000E+00  0.00000000E+00
  0.00000000E+00  0.00000000E+00  0.00000000E+00
  0.00000000E+00  0.00000000E+00  0.00000000E+00
  0.00000000E+00  0.00000000E+00  0.00000000E+00
  0.00000000E+00  0.00000000E+00  0.00000000E+00
  0.00000000E+00  0.00000000E+00  0.00000000E+00
  0.00000000E+00  0.00000000E+00  0.00000000E+00
  0.00000000E+00  0.00000000E+00  0.00000000E+00
  0.00000000E+00  0.00000000E+00  0.00000000E+00
  0.00000000E+00  0.00000000E+00  0.00000000E+00
  0.00000000E+00  0.00000000E+00  0.00000000E+00
  0.00000000E+00  0.00000000E+00  0.00000000E+00
  0.00000000E+00  0.00000000E+00  0.00000000E+00
  0.00000000E+00  0.00000000E+00  0.00000000E+00
  0.00000000E+00  0.00000000E+00  0.00000000E+00
  0.00000000E+00  0.00000000E+00  0.00000000E+00
  0.00000000E+00  0.00000000E+00  0.00000000E+00
  0.00000000E+00  0.00000000E+00  0.00000000E+00
  0.00000000E+00  0.00000000E+00  0.00000000E+00
  0.00000000E+00  0.00000000E+00  0.00000000E+00
  0.00000000E+00  0.00000000E+00  0.00000000E+00
  0.00000000E+00  0.00000000E+00  0.00000000E+00
