CONTCAR                                 
   1.00000000000000     
    12.9062995910999998    0.0000000000000000    0.0000000000000000
     6.4531410738000003   11.1773039768999993    0.0000000000000000
     0.0000000000000000    0.0000000000000000   25.2430000304999993
   Bi   Se   O    H 
    27    36     2     1
Direct
  0.0001470931652953  0.0003399615415477  0.4986236927898468
  0.1108157013373284  0.1112317844083833  0.3542053530449600
  0.2224158760717804  0.2223799030809929  0.6441893776007669
  0.3346499265029695  0.9980984974763755  0.4993261710649398
  0.4442250402526432  0.1117953929149590  0.3549176143890188
  0.5556713557433631  0.2222364808587283  0.6430071336091159
  0.6665006363760180  0.0011710766856764  0.4983747621847625
  0.7782249188046053  0.1116100638567838  0.3534806357040059
  0.8896042414333418  0.2215606712015260  0.6430402912891029
  0.9974817850223264  0.3350289713408961  0.4992994327741405
  0.1111845991742778  0.4448425867884188  0.3548439447916713
  0.2224485331108089  0.5566798938644545  0.6432201608738130
  0.3347900562591420  0.3361469713191492  0.4992314252547964
  0.4445095509449145  0.4449241143453896  0.3545982501522306
  0.5584629070780786  0.5597300621941900  0.6813125041053969
  0.6663903683776627  0.3352644438455940  0.5004446046054954
  0.7783158447121904  0.4451453647535475  0.3549783955772052
  0.8901832908654582  0.5574131683791451  0.6433316524002654
  0.0000841009296211  0.6672549816919927  0.4982390835376798
  0.1110614904652833  0.7788414458712520  0.3535589724043048
  0.2220634197792656  0.8888721749359173  0.6431479443752198
  0.3350604002208580  0.6665315714089890  0.5004389561467074
  0.4446995627755482  0.7786390508317744  0.3550486414822302
  0.5565561839715394  0.8912125930451639  0.6431348002326638
  0.6663131040020710  0.6663367482560505  0.5013800679497949
  0.7771496327874563  0.7786100633766265  0.3541951683608137
  0.8895550490043229  0.8898510276710067  0.6428432471705841
  0.0002576895883140  0.0010361846867444  0.2971884396074815
  0.0006668695415118  0.0006393522389459  0.6991203580970978
  0.1107937738656949  0.1118183294208831  0.5639198550329841
  0.2223160693260613  0.2233324926394494  0.4332795457596451
  0.3345754712500980  0.9997287625313618  0.2982048144740506
  0.3343623179745003  0.9994910724051160  0.6994064994007830
  0.4445359073284174  0.1123341147093766  0.5637402919894939
  0.5558348120330427  0.2238504020585617  0.4329733861840794
  0.6652660994099373  0.0007348896839716  0.2978465709750340
  0.6667785449325920  0.0018844931694338  0.6991242104415828
  0.7781069784258946  0.1112674204279170  0.5639935067671689
  0.8887059558172979  0.2226820880261515  0.4329449853774605
  0.9994267806896322  0.3349127265783524  0.2980681855950958
  0.9991292498033790  0.3344760462254843  0.6992803012587403
  0.1113024501268994  0.4449744663707078  0.5636287994473350
  0.2227966184854555  0.5567134059001853  0.4330555965359381
  0.3336693353624006  0.3341421228754037  0.2981345446684023
  0.3337533736069376  0.3338605227675209  0.6996584210941733
  0.4457836478823460  0.4458650956147215  0.5647813926004921
  0.5561868672690806  0.5563317338979969  0.4339129161779217
  0.6664677400236618  0.3348846609238872  0.2980800994199724
  0.6804020393360054  0.3055021202133547  0.7053116068123365
  0.7764986421763621  0.4456881657412234  0.5652941845907935
  0.8880362920974108  0.5561994426335716  0.4333073261161174
  0.0000996442742429  0.6665363300096849  0.2979989410867938
  0.0015997673214194  0.6669953283262446  0.6990510864563897
  0.1110351204748844  0.7783227852783079  0.5639512907577350
  0.2228551040540036  0.8894035545182114  0.4331683492750984
  0.3341549365180215  0.6677357138707285  0.2982387825618177
  0.3047065398038970  0.6815749026271771  0.7058050768930546
  0.4452184506674230  0.7772968759685206  0.5650790824817093
  0.5559739017984836  0.8886401619361779  0.4334894703138312
  0.6670536180619118  0.6672412403019097  0.2982040576634388
  0.6843960816328027  0.6860806696819458  0.7065835231274882
  0.7787382523128923  0.7793052696287717  0.5639325472490815
  0.8892380066721703  0.8900392400046004  0.4328827288464181
  0.5718138282421604  0.5720032445016402  0.7665250562841316
  0.5101745842805743  0.5180422943353756  0.7938488029111991
  0.5788743233640251  0.4425444063257918  0.8059030667961292
 
  0.00000000E+00  0.00000000E+00  0.00000000E+00
  0.00000000E+00  0.00000000E+00  0.00000000E+00
  0.00000000E+00  0.00000000E+00  0.00000000E+00
  0.00000000E+00  0.00000000E+00  0.00000000E+00
  0.00000000E+00  0.00000000E+00  0.00000000E+00
  0.00000000E+00  0.00000000E+00  0.00000000E+00
  0.00000000E+00  0.00000000E+00  0.00000000E+00
  0.00000000E+00  0.00000000E+00  0.00000000E+00
  0.00000000E+00  0.00000000E+00  0.00000000E+00
  0.00000000E+00  0.00000000E+00  0.00000000E+00
  0.00000000E+00  0.00000000E+00  0.00000000E+00
  0.00000000E+00  0.00000000E+00  0.00000000E+00
  0.00000000E+00  0.00000000E+00  0.00000000E+00
  0.00000000E+00  0.00000000E+00  0.00000000E+00
  0.00000000E+00  0.00000000E+00  0.00000000E+00
  0.00000000E+00  0.00000000E+00  0.00000000E+00
  0.00000000E+00  0.00000000E+00  0.00000000E+00
  0.00000000E+00  0.00000000E+00  0.00000000E+00
  0.00000000E+00  0.00000000E+00  0.00000000E+00
  0.00000000E+00  0.00000000E+00  0.00000000E+00
  0.00000000E+00  0.00000000E+00  0.00000000E+00
  0.00000000E+00  0.00000000E+00  0.00000000E+00
  0.00000000E+00  0.00000000E+00  0.00000000E+00
  0.00000000E+00  0.00000000E+00  0.00000000E+00
  0.00000000E+00  0.00000000E+00  0.00000000E+00
  0.00000000E+00  0.00000000E+00  0.00000000E+00
  0.00000000E+00  0.00000000E+00  0.00000000E+00
  0.00000000E+00  0.00000000E+00  0.00000000E+00
  0.00000000E+00  0.00000000E+00  0.00000000E+00
  0.00000000E+00  0.00000000E+00  0.00000000E+00
  0.00000000E+00  0.00000000E+00  0.00000000E+00
  0.00000000E+00  0.00000000E+00  0.00000000E+00
  0.00000000E+00  0.00000000E+00  0.00000000E+00
  0.00000000E+00  0.00000000E+00  0.00000000E+00
  0.00000000E+00  0.00000000E+00  0.00000000E+00
  0.00000000E+00  0.00000000E+00  0.00000000E+00
  0.00000000E+00  0.00000000E+00  0.00000000E+00
  0.00000000E+00  0.00000000E+00  0.00000000E+00
  0.00000000E+00  0.00000000E+00  0.00000000E+00
  0.00000000E+00  0.00000000E+00  0.00000000E+00
  0.00000000E+00  0.00000000E+00  0.00000000E+00
  0.00000000E+00  0.00000000E+00  0.00000000E+00
  0.00000000E+00  0.00000000E+00  0.00000000E+00
  0.00000000E+00  0.00000000E+00  0.00000000E+00
  0.00000000E+00  0.00000000E+00  0.00000000E+00
  0.00000000E+00  0.00000000E+00  0.00000000E+00
  0.00000000E+00  0.00000000E+00  0.00000000E+00
  0.00000000E+00  0.00000000E+00  0.00000000E+00
  0.00000000E+00  0.00000000E+00  0.00000000E+00
  0.00000000E+00  0.00000000E+00  0.00000000E+00
  0.00000000E+00  0.00000000E+00  0.00000000E+00
  0.00000000E+00  0.00000000E+00  0.00000000E+00
  0.00000000E+00  0.00000000E+00  0.00000000E+00
  0.00000000E+00  0.00000000E+00  0.00000000E+00
  0.00000000E+00  0.00000000E+00  0.00000000E+00
  0.00000000E+00  0.00000000E+00  0.00000000E+00
  0.00000000E+00  0.00000000E+00  0.00000000E+00
  0.00000000E+00  0.00000000E+00  0.00000000E+00
  0.00000000E+00  0.00000000E+00  0.00000000E+00
  0.00000000E+00  0.00000000E+00  0.00000000E+00
  0.00000000E+00  0.00000000E+00  0.00000000E+00
  0.00000000E+00  0.00000000E+00  0.00000000E+00
  0.00000000E+00  0.00000000E+00  0.00000000E+00
  0.00000000E+00  0.00000000E+00  0.00000000E+00
  0.00000000E+00  0.00000000E+00  0.00000000E+00
  0.00000000E+00  0.00000000E+00  0.00000000E+00
