CONTCAR\(4)                             
   1.00000000000000     
    13.0656995773000002    0.0000000000000000    0.0000000000000000
     6.5328497887000001   11.3152277522000002    0.0000000000000000
     0.0000000000000000    0.0000000000000000   20.6284008026000016
   Ta   C    S    O 
    32    16    32     1
Selective dynamics
Direct
  0.1655835966980277  0.1688372298857317  0.5580547829153204   F   F   F
  0.0823187951823456  0.0853785042583652  0.4428824402388187   F   F   F
  0.4154242239509500  0.1685660670857985  0.5579933584113732   F   F   F
  0.3323033293273383  0.0853838043763773  0.4428785144655976   F   F   F
  0.6659737353128392  0.1680584657178414  0.5578685322673280   F   F   F
  0.5816750187712998  0.0854998134648781  0.4427689803494772   F   F   F
  0.9160047046937905  0.1685647457108033  0.5579929260258822   F   F   F
  0.8328185364258758  0.0855008751509203  0.4427638538929273   F   F   F
  0.1653783333685652  0.4185508073545705  0.5581343169960249   F   F   F
  0.0822649352084923  0.3354822720865229  0.4428706632884172   F   F   F
  0.4148844311347233  0.4190533175326436  0.5576547252754054   F   F   F
  0.3323982286508667  0.3347002222137760  0.4426900217423935   F   F   F
  0.6660611255474720  0.4190532584682032  0.5576500610885091   F   F   F
  0.5823208289697916  0.3353533415051757  0.4430374766417913   F   F   F
  0.9160610563964298  0.4185550811677743  0.5581257609923114   F   F   F
  0.8328995033036648  0.3346946183470294  0.4426836536463625   F   F   F
  0.1653861498779179  0.6690862826879567  0.5581484717621805   F   F   F
  0.0814567044896322  0.5858529319799430  0.4430764390559929   F   F   F
  0.4155113664559025  0.6689734142836272  0.5579435962070036   F   F   F
  0.3323565240954096  0.5859676871906103  0.4427031202606528   F   F   F
  0.6655242713293390  0.6690813385126972  0.5581473799013281   F   F   F
  0.5816721362754009  0.5859646770434424  0.4426995327587591   F   F   F
  0.9156485182773366  0.6687013043284367  0.5583141818419151   F   F   F
  0.8326867348292382  0.5858530636309496  0.4430685579497151   F   F   F
  0.1655623149676160  0.9186066069947216  0.5580640510460810   F   F   F
  0.0822120976282079  0.8353599856245708  0.4428963312184848   F   F   F
  0.4158251177288577  0.9186106024490002  0.5580605147587576   F   F   F
  0.3322827940847191  0.8354203172512555  0.4428755462490201   F   F   F
  0.6655338153853378  0.9183860832966957  0.5582096709479174   F   F   F
  0.5824290355228072  0.8353612113847788  0.4428931975870540   F   F   F
  0.9160792553976194  0.9183888058240655  0.5582094960371649   F   F   F
  0.8326817725138014  0.8346359672787997  0.4431275322369643   F   F   F
  0.9990217538767254  0.0020252519566881  0.5005090687251368   F   F   F
  0.2489797314744493  0.0020365139796041  0.5005355703940566   F   F   F
  0.4989512566262775  0.0020250140541975  0.5005099598762683   F   F   F
  0.7488597233151566  0.0022838033876837  0.5004497782055921   F   F   F
  0.9990498201986924  0.2520380337665742  0.5004592676990356   F   F   F
  0.2489113506065124  0.2520416137598858  0.5004594033701935   F   F   F
  0.4986268815140491  0.2516842963087811  0.5002149482859934   F   F   F
  0.7496878813129157  0.2516806324405323  0.5002113653967442   F   F   F
  0.9989934482012330  0.5020143771855174  0.5007616633578422   F   F   F
  0.2490729341784998  0.5019828461993754  0.5003105323925894   F   F   F
  0.4986134484597784  0.5027621422529407  0.5001344707813189   F   F   F
  0.7489431524213472  0.5019794554202193  0.5003034761396705   F   F   F
  0.9989836321757508  0.7521004848639024  0.5008015966849015   F   F   F
  0.2489337727885470  0.7521197349525650  0.5004614962205096   F   F   F
  0.4989383458127321  0.7521226557145226  0.5004591860212315   F   F   F
  0.7489166966880632  0.7520971086529187  0.5008004636928831   F   F   F
  0.1656575770562654  0.1686866751406839  0.3638725897988877   F   F   F
  0.0823671319831050  0.0853181201787194  0.6371874396604156   F   F   F
  0.4154808623828643  0.1684266520897353  0.3635192088685031   F   F   F
  0.3323106373011342  0.0853152338402197  0.6371903611980017   F   F   F
  0.6656032850708584  0.1687780020099865  0.3639785980374270   F   F   F
  0.5821600542276073  0.0859873457453162  0.6371412433318753   F   F   F
  0.9160986589171145  0.1684198465743663  0.3635173414167170   F   F   F
  0.8318484512710143  0.0859882422875913  0.6371449752514593   F   F   F
  0.1654674584290490  0.4189262568312628  0.3638670269734021   F   F   F
  0.0823689930675968  0.3352149188983162  0.6373458464396293   F   F   F
  0.4158120583344100  0.4185849714089187  0.3639434788817226   F   F   F
  0.3329805832036357  0.3352138504419173  0.6370792437631323   F   F   F
  0.6655928769018971  0.4185785081566138  0.3639406695132763   F   F   F
  0.5820684143300383  0.3358955157473602  0.6361377362893421   F   F   F
  0.9156101253620363  0.4189196825512553  0.3638650766422700   F   F   F
  0.8317952797808630  0.3352159397793883  0.6370736642540322   F   F   F
  0.1654934332229132  0.6686689175730649  0.3638760282484341   F   F   F
  0.0826013636340193  0.5851771904718177  0.6372046071126007   F   F   F
  0.4154444336651082  0.6690931285788935  0.3634792409926035   F   F   F
  0.3330472589083513  0.5846878022713469  0.6370746037225601   F   F   F
  0.6658315779542434  0.6686653320493505  0.3638766556622883   F   F   F
  0.5822680141337102  0.5846971422669114  0.6370671175127498   F   F   F
  0.9156217255640797  0.6687643538349377  0.3637262424248888   F   F   F
  0.8322204845523515  0.5851761759719238  0.6372019807605938   F   F   F
  0.1656017322231378  0.9186290830423331  0.3638806158717571   F   F   F
  0.0825022273858309  0.8353117013025937  0.6373880334046262   F   F   F
  0.4157605343815831  0.9186289352319577  0.3638826110584290   F   F   F
  0.3323522145728219  0.8352854064016242  0.6371570327473606   F   F   F
  0.6659114248102327  0.9185545804301256  0.3639167668428769   F   F   F
  0.5821780682504141  0.8353200051209413  0.6373812254838853   F   F   F
  0.9155343286310682  0.9185499641839243  0.3639166633848632   F   F   F
  0.8322488271850688  0.8355012142454967  0.6372592843623721   F   F   F
  0.5813472128532808  0.3373919673573695  0.7077897069571528   T   T   T
 
  0.00000000E+00  0.00000000E+00  0.00000000E+00
  0.00000000E+00  0.00000000E+00  0.00000000E+00
  0.00000000E+00  0.00000000E+00  0.00000000E+00
  0.00000000E+00  0.00000000E+00  0.00000000E+00
  0.00000000E+00  0.00000000E+00  0.00000000E+00
  0.00000000E+00  0.00000000E+00  0.00000000E+00
  0.00000000E+00  0.00000000E+00  0.00000000E+00
  0.00000000E+00  0.00000000E+00  0.00000000E+00
  0.00000000E+00  0.00000000E+00  0.00000000E+00
  0.00000000E+00  0.00000000E+00  0.00000000E+00
  0.00000000E+00  0.00000000E+00  0.00000000E+00
  0.00000000E+00  0.00000000E+00  0.00000000E+00
  0.00000000E+00  0.00000000E+00  0.00000000E+00
  0.00000000E+00  0.00000000E+00  0.00000000E+00
  0.00000000E+00  0.00000000E+00  0.00000000E+00
  0.00000000E+00  0.00000000E+00  0.00000000E+00
  0.00000000E+00  0.00000000E+00  0.00000000E+00
  0.00000000E+00  0.00000000E+00  0.00000000E+00
  0.00000000E+00  0.00000000E+00  0.00000000E+00
  0.00000000E+00  0.00000000E+00  0.00000000E+00
  0.00000000E+00  0.00000000E+00  0.00000000E+00
  0.00000000E+00  0.00000000E+00  0.00000000E+00
  0.00000000E+00  0.00000000E+00  0.00000000E+00
  0.00000000E+00  0.00000000E+00  0.00000000E+00
  0.00000000E+00  0.00000000E+00  0.00000000E+00
  0.00000000E+00  0.00000000E+00  0.00000000E+00
  0.00000000E+00  0.00000000E+00  0.00000000E+00
  0.00000000E+00  0.00000000E+00  0.00000000E+00
  0.00000000E+00  0.00000000E+00  0.00000000E+00
  0.00000000E+00  0.00000000E+00  0.00000000E+00
  0.00000000E+00  0.00000000E+00  0.00000000E+00
  0.00000000E+00  0.00000000E+00  0.00000000E+00
  0.00000000E+00  0.00000000E+00  0.00000000E+00
  0.00000000E+00  0.00000000E+00  0.00000000E+00
  0.00000000E+00  0.00000000E+00  0.00000000E+00
  0.00000000E+00  0.00000000E+00  0.00000000E+00
  0.00000000E+00  0.00000000E+00  0.00000000E+00
  0.00000000E+00  0.00000000E+00  0.00000000E+00
  0.00000000E+00  0.00000000E+00  0.00000000E+00
  0.00000000E+00  0.00000000E+00  0.00000000E+00
  0.00000000E+00  0.00000000E+00  0.00000000E+00
  0.00000000E+00  0.00000000E+00  0.00000000E+00
  0.00000000E+00  0.00000000E+00  0.00000000E+00
  0.00000000E+00  0.00000000E+00  0.00000000E+00
  0.00000000E+00  0.00000000E+00  0.00000000E+00
  0.00000000E+00  0.00000000E+00  0.00000000E+00
  0.00000000E+00  0.00000000E+00  0.00000000E+00
  0.00000000E+00  0.00000000E+00  0.00000000E+00
  0.00000000E+00  0.00000000E+00  0.00000000E+00
  0.00000000E+00  0.00000000E+00  0.00000000E+00
  0.00000000E+00  0.00000000E+00  0.00000000E+00
  0.00000000E+00  0.00000000E+00  0.00000000E+00
  0.00000000E+00  0.00000000E+00  0.00000000E+00
  0.00000000E+00  0.00000000E+00  0.00000000E+00
  0.00000000E+00  0.00000000E+00  0.00000000E+00
  0.00000000E+00  0.00000000E+00  0.00000000E+00
  0.00000000E+00  0.00000000E+00  0.00000000E+00
  0.00000000E+00  0.00000000E+00  0.00000000E+00
  0.00000000E+00  0.00000000E+00  0.00000000E+00
  0.00000000E+00  0.00000000E+00  0.00000000E+00
  0.00000000E+00  0.00000000E+00  0.00000000E+00
  0.00000000E+00  0.00000000E+00  0.00000000E+00
  0.00000000E+00  0.00000000E+00  0.00000000E+00
  0.00000000E+00  0.00000000E+00  0.00000000E+00
  0.00000000E+00  0.00000000E+00  0.00000000E+00
  0.00000000E+00  0.00000000E+00  0.00000000E+00
  0.00000000E+00  0.00000000E+00  0.00000000E+00
  0.00000000E+00  0.00000000E+00  0.00000000E+00
  0.00000000E+00  0.00000000E+00  0.00000000E+00
  0.00000000E+00  0.00000000E+00  0.00000000E+00
  0.00000000E+00  0.00000000E+00  0.00000000E+00
  0.00000000E+00  0.00000000E+00  0.00000000E+00
  0.00000000E+00  0.00000000E+00  0.00000000E+00
  0.00000000E+00  0.00000000E+00  0.00000000E+00
  0.00000000E+00  0.00000000E+00  0.00000000E+00
  0.00000000E+00  0.00000000E+00  0.00000000E+00
  0.00000000E+00  0.00000000E+00  0.00000000E+00
  0.00000000E+00  0.00000000E+00  0.00000000E+00
  0.00000000E+00  0.00000000E+00  0.00000000E+00
  0.00000000E+00  0.00000000E+00  0.00000000E+00
  0.00000000E+00  0.00000000E+00  0.00000000E+00
