 Mn2 Sb2 Se4 Br2                        
   1.00000000000000     
     3.7787866887400532    0.0000000000000000    0.0000000000000000
     0.0000000000000000   11.1918195681195076    0.0000000000000000
     0.0000000000000000    0.0000000000000000   20.5199037627959981
   Mn   Sb   Se   Br
     2     2     4     2
Direct
  0.5001747660510318  0.5066730589661645  0.5079770079288792
  0.5000895456794296  0.0062846668373382  0.4919506545834906
  0.0005253693933653  0.7931239103514685  0.6024330336511170
  0.9988738055861504  0.2927988843590441  0.3976607850883411
  0.9999820230128122  0.5183043752118621  0.4157545892476548
  0.4995168109334571  0.2483725457604180  0.4865767715471989
  0.5003822669887796  0.7486584010473578  0.5134979761783853
  0.0002699405709237  0.0185748841385660  0.5841526987049761
  0.0000904026825168  0.4778758253193729  0.5959986792278258
  0.0000950691014694  0.9772714480084801  0.4039978038420386
 
  0.00000000E+00  0.00000000E+00  0.00000000E+00
  0.00000000E+00  0.00000000E+00  0.00000000E+00
  0.00000000E+00  0.00000000E+00  0.00000000E+00
  0.00000000E+00  0.00000000E+00  0.00000000E+00
  0.00000000E+00  0.00000000E+00  0.00000000E+00
  0.00000000E+00  0.00000000E+00  0.00000000E+00
  0.00000000E+00  0.00000000E+00  0.00000000E+00
  0.00000000E+00  0.00000000E+00  0.00000000E+00
  0.00000000E+00  0.00000000E+00  0.00000000E+00
  0.00000000E+00  0.00000000E+00  0.00000000E+00
