CONTCAR\(10)                            
   1.00000000000000     
    14.1827001571999993    0.0000000000000000    0.0000000000000000
     0.0000000000000000   18.7943000793000010    0.0000000000000000
     0.0000000000000000    0.0000000000000000   21.0296001433999997
   Ta   Pt   Se   O 
    16     8    56     1
Direct
  0.1860511500177519  0.4235845514493610  0.5613828548235181
  0.0620465377309604  0.5770057735254424  0.4334579091241348
  0.0619566296476401  0.9020574456616486  0.4885752487016219
  0.1868174321511762  0.0944965125025049  0.5155126833002684
  0.4375624181487841  0.4249218609977926  0.5631760636092226
  0.3121230551634391  0.5766723804150802  0.4335757857147838
  0.3112277730831667  0.8994387175216297  0.4902616124351436
  0.4376405839659805  0.0858360201876574  0.5305311455619630
  0.6892926482432165  0.4236818225145942  0.5615943454665051
  0.5626879948603902  0.5766222832548840  0.4336146306031353
  0.5637676270190195  0.8993270663969753  0.4900954973290751
  0.6883957569839037  0.0946746318419958  0.5155297775095411
  0.9378078691315956  0.4223429830894436  0.5614521666856351
  0.8127632794838959  0.5768856526695709  0.4334141063345394
  0.8129093287928895  0.9021460914947617  0.4884089237196932
  0.9377404986212083  0.0942450131536196  0.5134844711916807
  0.0623792404112832  0.2248431122473777  0.5374516502691062
  0.1872821270651736  0.7726907772223974  0.4616106596248338
  0.3110871176426575  0.2284573285511828  0.5432697860820436
  0.4374897861423424  0.7724440397998554  0.4618625040833634
  0.5637603431064019  0.2287387620883566  0.5434170652574439
  0.6877080386143104  0.7725666098914743  0.4615241746863603
  0.8128236836726461  0.2249725156947004  0.5375743375383728
  0.9375351477483755  0.7730994503659474  0.4619157306633863
  0.0622121360973195  0.6950692375046924  0.5107415645356206
  0.1873305139659895  0.3019306968341194  0.4871369333677700
  0.0623345286341943  0.4344177270933786  0.4665420343730090
  0.1868896498404105  0.5657991826199299  0.5280563838197343
  0.1872364754198335  0.5233558801378841  0.3548071371634183
  0.0620359863776601  0.4768531131623368  0.6402500235922166
  0.1880770996638610  0.9828512637388803  0.4320286232674986
  0.0604021742436089  0.0127376035108764  0.5721563725432166
  0.0625621841538949  0.3368724144240081  0.6144086476963476
  0.1873370817049754  0.6631702057423875  0.3816628383691731
  0.1847506705659385  0.1718055336322387  0.6130661909255876
  0.0622398721609303  0.8278085812513897  0.3894985790124021
  0.0642735751503352  0.1434609022510752  0.4367497599171877
  0.1854174745868631  0.8486298436967440  0.5653347743146419
  0.3122658225289440  0.6947798035469385  0.5106416305397521
  0.4373662628968509  0.3024918791694405  0.4908923819924404
  0.3130039000293743  0.4342986581584170  0.4681047104288653
  0.4374827798975160  0.5660636224394721  0.5280176806070142
  0.4373860324111634  0.5235155519254043  0.3547087060975175
  0.3112979483659473  0.4808532961509006  0.6399274889867070
  0.4372499663252565  0.9853964534975422  0.4384834763252720
  0.3037867082534274  0.0061868699701625  0.5751956194250323
  0.3104918105660920  0.3421068537861702  0.6186347034199607
  0.4374389827312742  0.6627208917202473  0.3815959691525524
  0.4373629380763228  0.1973973699640395  0.6209005865500954
  0.3131063739121951  0.8280649735901237  0.3896397540091101
  0.3193579507340334  0.1407152491353098  0.4459723830813201
  0.4374645522936059  0.8483378032986085  0.5660961571384612
  0.5626333481693423  0.6949094975395800  0.5106318345800421
  0.6878234152068123  0.3020646797529530  0.4873683268645808
  0.5624340322302432  0.4342507145714124  0.4682257213090530
  0.6880997128995239  0.5658307865679776  0.5280571446041864
  0.6874710757575776  0.5230409213487436  0.3549862539937853
  0.5638046373004094  0.4811116718921470  0.6398426855643101
  0.6863853633456886  0.9829472989105363  0.4318961613917444
  0.5710371341729517  0.0059747326047752  0.5749575665192163
  0.5646423780146645  0.3422391258548985  0.6187484365524405
  0.6874016333005535  0.6630116437893252  0.3815598638160589
  0.6902222056637374  0.1719424445984717  0.6131179433611510
  0.5618744551619321  0.8278868716677188  0.3894993512039359
  0.5553834847736578  0.1409306970663064  0.4461226738838759
  0.6893214299734788  0.8487032796693780  0.5652077446807854
  0.8127788061226668  0.6948791441721928  0.5107178494933955
  0.9376214101099756  0.3015698328389976  0.4865973966793153
  0.8131898834215444  0.4343527030678154  0.4667858409348536
  0.9374019935501128  0.5651899445289607  0.5280845971258598
  0.9373603280966616  0.5239367677814118  0.3543139835417285
  0.8136572058868070  0.4766224551663409  0.6405454444812865
  0.9373706163987785  0.9828549291562341  0.4301322626151021
  0.8143303565692944  0.0128725911275546  0.5719830443704723
  0.8131082148108599  0.3370442655174776  0.6145720894142715
  0.9373453474674474  0.6634411917597504  0.3816414471030230
  0.9377086838547198  0.1713973283258394  0.6107528066099394
  0.8127142236094587  0.8276372017372295  0.3894467931270389
  0.8106349928070760  0.1433609010142090  0.4368676820550497
  0.9371832052148144  0.8509018245716864  0.5651147508952189
  0.4382033770731616  0.1012718949091086  0.6262978132609860
 
  0.00000000E+00  0.00000000E+00  0.00000000E+00
  0.00000000E+00  0.00000000E+00  0.00000000E+00
  0.00000000E+00  0.00000000E+00  0.00000000E+00
  0.00000000E+00  0.00000000E+00  0.00000000E+00
  0.00000000E+00  0.00000000E+00  0.00000000E+00
  0.00000000E+00  0.00000000E+00  0.00000000E+00
  0.00000000E+00  0.00000000E+00  0.00000000E+00
  0.00000000E+00  0.00000000E+00  0.00000000E+00
  0.00000000E+00  0.00000000E+00  0.00000000E+00
  0.00000000E+00  0.00000000E+00  0.00000000E+00
  0.00000000E+00  0.00000000E+00  0.00000000E+00
  0.00000000E+00  0.00000000E+00  0.00000000E+00
  0.00000000E+00  0.00000000E+00  0.00000000E+00
  0.00000000E+00  0.00000000E+00  0.00000000E+00
  0.00000000E+00  0.00000000E+00  0.00000000E+00
  0.00000000E+00  0.00000000E+00  0.00000000E+00
  0.00000000E+00  0.00000000E+00  0.00000000E+00
  0.00000000E+00  0.00000000E+00  0.00000000E+00
  0.00000000E+00  0.00000000E+00  0.00000000E+00
  0.00000000E+00  0.00000000E+00  0.00000000E+00
  0.00000000E+00  0.00000000E+00  0.00000000E+00
  0.00000000E+00  0.00000000E+00  0.00000000E+00
  0.00000000E+00  0.00000000E+00  0.00000000E+00
  0.00000000E+00  0.00000000E+00  0.00000000E+00
  0.00000000E+00  0.00000000E+00  0.00000000E+00
  0.00000000E+00  0.00000000E+00  0.00000000E+00
  0.00000000E+00  0.00000000E+00  0.00000000E+00
  0.00000000E+00  0.00000000E+00  0.00000000E+00
  0.00000000E+00  0.00000000E+00  0.00000000E+00
  0.00000000E+00  0.00000000E+00  0.00000000E+00
  0.00000000E+00  0.00000000E+00  0.00000000E+00
  0.00000000E+00  0.00000000E+00  0.00000000E+00
  0.00000000E+00  0.00000000E+00  0.00000000E+00
  0.00000000E+00  0.00000000E+00  0.00000000E+00
  0.00000000E+00  0.00000000E+00  0.00000000E+00
  0.00000000E+00  0.00000000E+00  0.00000000E+00
  0.00000000E+00  0.00000000E+00  0.00000000E+00
  0.00000000E+00  0.00000000E+00  0.00000000E+00
  0.00000000E+00  0.00000000E+00  0.00000000E+00
  0.00000000E+00  0.00000000E+00  0.00000000E+00
  0.00000000E+00  0.00000000E+00  0.00000000E+00
  0.00000000E+00  0.00000000E+00  0.00000000E+00
  0.00000000E+00  0.00000000E+00  0.00000000E+00
  0.00000000E+00  0.00000000E+00  0.00000000E+00
  0.00000000E+00  0.00000000E+00  0.00000000E+00
  0.00000000E+00  0.00000000E+00  0.00000000E+00
  0.00000000E+00  0.00000000E+00  0.00000000E+00
  0.00000000E+00  0.00000000E+00  0.00000000E+00
  0.00000000E+00  0.00000000E+00  0.00000000E+00
  0.00000000E+00  0.00000000E+00  0.00000000E+00
  0.00000000E+00  0.00000000E+00  0.00000000E+00
  0.00000000E+00  0.00000000E+00  0.00000000E+00
  0.00000000E+00  0.00000000E+00  0.00000000E+00
  0.00000000E+00  0.00000000E+00  0.00000000E+00
  0.00000000E+00  0.00000000E+00  0.00000000E+00
  0.00000000E+00  0.00000000E+00  0.00000000E+00
  0.00000000E+00  0.00000000E+00  0.00000000E+00
  0.00000000E+00  0.00000000E+00  0.00000000E+00
  0.00000000E+00  0.00000000E+00  0.00000000E+00
  0.00000000E+00  0.00000000E+00  0.00000000E+00
  0.00000000E+00  0.00000000E+00  0.00000000E+00
  0.00000000E+00  0.00000000E+00  0.00000000E+00
  0.00000000E+00  0.00000000E+00  0.00000000E+00
  0.00000000E+00  0.00000000E+00  0.00000000E+00
  0.00000000E+00  0.00000000E+00  0.00000000E+00
  0.00000000E+00  0.00000000E+00  0.00000000E+00
  0.00000000E+00  0.00000000E+00  0.00000000E+00
  0.00000000E+00  0.00000000E+00  0.00000000E+00
  0.00000000E+00  0.00000000E+00  0.00000000E+00
  0.00000000E+00  0.00000000E+00  0.00000000E+00
  0.00000000E+00  0.00000000E+00  0.00000000E+00
  0.00000000E+00  0.00000000E+00  0.00000000E+00
  0.00000000E+00  0.00000000E+00  0.00000000E+00
  0.00000000E+00  0.00000000E+00  0.00000000E+00
  0.00000000E+00  0.00000000E+00  0.00000000E+00
  0.00000000E+00  0.00000000E+00  0.00000000E+00
  0.00000000E+00  0.00000000E+00  0.00000000E+00
  0.00000000E+00  0.00000000E+00  0.00000000E+00
  0.00000000E+00  0.00000000E+00  0.00000000E+00
  0.00000000E+00  0.00000000E+00  0.00000000E+00
  0.00000000E+00  0.00000000E+00  0.00000000E+00
