CONTCAR                                 
   1.00000000000000     
    12.9092998505000001    0.0000000000000000    0.0000000000000000
     0.0000000000000000   11.5581998825000003    0.0000000000000000
     0.0000000000000000    0.0000000000000000   18.7824001311999993
   Nb   Ge   Te   O    H 
    12     4    24     2     1
Direct
  0.3500473682744440  0.7128352348401329  0.5013484004822116
  0.1016483505252143  0.2754636187704725  0.5017569527172356
  0.4870779446014572  0.0555953607187543  0.5008952943184427
  0.2363817816941816  0.9290974764581030  0.5010316727094796
  0.3361244877806986  0.4041750462147277  0.5018886894979043
  0.0896384040734482  0.5769470905157681  0.5021227774482313
  0.8511955913491464  0.7080384106727028  0.5019174251820596
  0.6022053474798178  0.2757830280739829  0.5018901901558251
  0.9856802740710894  0.0562637355006796  0.5010845902821912
  0.7364823642454231  0.9286010715766355  0.5013061841761594
  0.8386404823898543  0.4100196556625139  0.5021017240813234
  0.5988204304823772  0.5750528886332512  0.5025723180493863
  0.2915578068217325  0.1659744973027246  0.5010553542112579
  0.0410846419936041  0.8172295300719379  0.5010152028196911
  0.7916354164608337  0.1676711450862081  0.5012544762655387
  0.5426026184638651  0.8177975069277154  0.5008016365788818
  0.4298706526368151  0.5573739634043080  0.5919036716121436
  0.1791559210182359  0.4255353491694257  0.3999885961817156
  0.1774347942565239  0.4249855872218983  0.6041292808637040
  0.4325495766261458  0.5568866506534400  0.4026522133867366
  0.3967955776415880  0.9018822678925966  0.6020238344691904
  0.1459435920939217  0.0840370158811235  0.4003635216591639
  0.1459762596450530  0.0832731622215231  0.6018190915765244
  0.3969283371055314  0.9010186699027593  0.3998649505996074
  0.1858147474825977  0.7372691652053380  0.6001246161197752
  0.4363509120791818  0.2489176754268051  0.4032250619511876
  0.4363812773569955  0.2458173140536892  0.5997636154625529
  0.1856311512689393  0.7354780323935505  0.4026979958974043
  0.9303147544682978  0.5604294205826963  0.6038800223193573
  0.6812544799063569  0.4243894890084869  0.3992523403471441
  0.6824391049681685  0.4224352291604752  0.6053364031672456
  0.9301333827534890  0.5596806642170881  0.4001544412088536
  0.8972319572169357  0.9015013736917815  0.6019183361874714
  0.6469057005800677  0.0837412202523911  0.4003974412794302
  0.6467803584943214  0.0829758936757887  0.6020443759796766
  0.8967325075514853  0.9004042870078718  0.4005380666660609
  0.6867812544672821  0.7375288076080333  0.6007672785764048
  0.9355999435741719  0.2505910645082052  0.4036031156447923
  0.9354347609679847  0.2491366876529194  0.5995564005219900
  0.6864160558375230  0.7355380196127709  0.4026200073471512
  0.4047185956497510  0.5670592349091310  0.7035538030875274
  0.3910278381818758  0.4546411732117132  0.7351876607141450
  0.3157434614636307  0.4426172644478681  0.7295011501972417
 
  0.00000000E+00  0.00000000E+00  0.00000000E+00
  0.00000000E+00  0.00000000E+00  0.00000000E+00
  0.00000000E+00  0.00000000E+00  0.00000000E+00
  0.00000000E+00  0.00000000E+00  0.00000000E+00
  0.00000000E+00  0.00000000E+00  0.00000000E+00
  0.00000000E+00  0.00000000E+00  0.00000000E+00
  0.00000000E+00  0.00000000E+00  0.00000000E+00
  0.00000000E+00  0.00000000E+00  0.00000000E+00
  0.00000000E+00  0.00000000E+00  0.00000000E+00
  0.00000000E+00  0.00000000E+00  0.00000000E+00
  0.00000000E+00  0.00000000E+00  0.00000000E+00
  0.00000000E+00  0.00000000E+00  0.00000000E+00
  0.00000000E+00  0.00000000E+00  0.00000000E+00
  0.00000000E+00  0.00000000E+00  0.00000000E+00
  0.00000000E+00  0.00000000E+00  0.00000000E+00
  0.00000000E+00  0.00000000E+00  0.00000000E+00
  0.00000000E+00  0.00000000E+00  0.00000000E+00
  0.00000000E+00  0.00000000E+00  0.00000000E+00
  0.00000000E+00  0.00000000E+00  0.00000000E+00
  0.00000000E+00  0.00000000E+00  0.00000000E+00
  0.00000000E+00  0.00000000E+00  0.00000000E+00
  0.00000000E+00  0.00000000E+00  0.00000000E+00
  0.00000000E+00  0.00000000E+00  0.00000000E+00
  0.00000000E+00  0.00000000E+00  0.00000000E+00
  0.00000000E+00  0.00000000E+00  0.00000000E+00
  0.00000000E+00  0.00000000E+00  0.00000000E+00
  0.00000000E+00  0.00000000E+00  0.00000000E+00
  0.00000000E+00  0.00000000E+00  0.00000000E+00
  0.00000000E+00  0.00000000E+00  0.00000000E+00
  0.00000000E+00  0.00000000E+00  0.00000000E+00
  0.00000000E+00  0.00000000E+00  0.00000000E+00
  0.00000000E+00  0.00000000E+00  0.00000000E+00
  0.00000000E+00  0.00000000E+00  0.00000000E+00
  0.00000000E+00  0.00000000E+00  0.00000000E+00
  0.00000000E+00  0.00000000E+00  0.00000000E+00
  0.00000000E+00  0.00000000E+00  0.00000000E+00
  0.00000000E+00  0.00000000E+00  0.00000000E+00
  0.00000000E+00  0.00000000E+00  0.00000000E+00
  0.00000000E+00  0.00000000E+00  0.00000000E+00
  0.00000000E+00  0.00000000E+00  0.00000000E+00
  0.00000000E+00  0.00000000E+00  0.00000000E+00
  0.00000000E+00  0.00000000E+00  0.00000000E+00
  0.00000000E+00  0.00000000E+00  0.00000000E+00
