 C2                                     
   1.00000000000000     
     2.4636909726125191    0.0000000000000000    0.0000000000000000
    -1.2318459860498601    2.1336164132528603    0.0000000000000000
     0.0000000000000000    0.0000000000000000   15.0000000000000018
   C 
     2
Direct
  0.3333325087206358  0.6666674852142495  0.4999999999972545
  0.6666674912793642  0.3333325147857505  0.5000000000027455
 
  0.00000000E+00  0.00000000E+00  0.00000000E+00
  0.00000000E+00  0.00000000E+00  0.00000000E+00
