CONTCAR\(5)                             
   1.00000000000000     
     3.9223001003000002    0.0000000000000000    0.0000000000000000
     1.9611500502000001    3.3968115281000002    0.0000000000000000
     0.0000000000000000    0.0000000000000000   18.9503002167000005
   Te   Pt   O    H 
     2     2     2     2
Selective dynamics
Direct
  0.6596419470672927  0.6835837080399259  0.6062794226743975   F   F   F
  0.6566130440455993  0.6843919956730602  0.3953703227370440   F   F   F
  0.3191948258072941  0.3577440672066032  0.5434492030088265   F   F   F
  0.9840445243512619  0.0241329037481748  0.4579493143542734   F   F   F
  0.7759025316414849  0.5806127377334107  0.7115439296379193   T   T   T
  0.7441674962293376  0.5784569295902742  0.2896607929473802   T   T   T
  0.5246290347289033  0.6689988142687540  0.7358896936299786   T   T   T
  0.6361867501288501  0.8336988827397959  0.2649357878220414   T   T   T
 
  0.00000000E+00  0.00000000E+00  0.00000000E+00
  0.00000000E+00  0.00000000E+00  0.00000000E+00
  0.00000000E+00  0.00000000E+00  0.00000000E+00
  0.00000000E+00  0.00000000E+00  0.00000000E+00
  0.00000000E+00  0.00000000E+00  0.00000000E+00
  0.00000000E+00  0.00000000E+00  0.00000000E+00
  0.00000000E+00  0.00000000E+00  0.00000000E+00
  0.00000000E+00  0.00000000E+00  0.00000000E+00
