CONTCAR                                 
   1.00000000000000     
    11.6526002884000004    0.0000000000000000    0.0000000000000000
     0.0000000000000000   17.2355995178000008    0.0000000000000000
     0.0000000000000000    0.0000000000000000   19.4160995483000001
   Te   Pd   Pb   O    H 
    16    24    16     2     1
Direct
  0.2486088977755149  0.1466880133175769  0.6137177154281842
  0.9990398959075524  0.3965679639625934  0.3870060704355034
  0.2455262611514535  0.3600172098880992  0.6142609281020354
  0.9987892224250396  0.1085731537398252  0.3879176266206126
  0.7488075723137140  0.1469396599424744  0.6136296460506746
  0.4989024915647042  0.3978840766524681  0.3894892773962294
  0.7520911725323677  0.3598457919959318  0.6141143651247122
  0.4986565734362581  0.1091693561042602  0.3884893606971372
  0.2437072567657406  0.6474043288186256  0.6114008571508052
  0.9987936868962782  0.8973372623334425  0.3873889099382529
  0.2497073018479324  0.8582221838178493  0.6127871453527350
  0.9993912344414495  0.6092490371443984  0.3840389833118053
  0.7559534340186915  0.6480004188747973  0.6115027184134774
  0.4990357794590272  0.8961719864366244  0.3875561389434112
  0.7485676779719612  0.8585635483381800  0.6128764053156868
  0.4999809667201291  0.6078061589667324  0.3881125307471913
  0.1245250557208837  0.1279608582866111  0.5003228173511336
  0.9987446739829974  0.2526567734722231  0.4335758121547254
  0.1237821131875842  0.3775139098408647  0.5000072000612118
  0.3745138490705084  0.1278110272664101  0.5015037026010062
  0.3747280082121697  0.3773122776821566  0.5038977795798510
  0.2488889965720843  0.0026126621822875  0.5675770844783052
  0.6236514418392378  0.1277910473744346  0.5011404512738775
  0.4988468459743995  0.2533281772961190  0.4349526514979312
  0.6237872049105135  0.3774233147498851  0.5034106011840109
  0.8737143186674362  0.1279112251215027  0.5005869703620029
  0.8745529000381129  0.3779478694860919  0.5002264885011356
  0.7491272019583394  0.0027856308880907  0.5676150609795200
  0.1237364855450761  0.6276532719571976  0.4971272346925725
  0.9990777623624550  0.7529864070334259  0.4320941442775493
  0.1244934281251894  0.8774378670844124  0.4998756253894965
  0.3745042895196132  0.6282424161946978  0.5016645757882702
  0.3743722420498658  0.8775433014900031  0.5003425445822500
  0.2460753240050365  0.5032167767138063  0.5651120867786851
  0.6241927541464806  0.6284133460356058  0.5021782166942852
  0.4991319859358779  0.7522737872022783  0.4340359975868218
  0.6238191783556519  0.8775853101060803  0.5004295894665336
  0.8748550283371992  0.6270208390375928  0.4968671082182332
  0.8737424447789059  0.8773550070842732  0.5000896554021564
  0.7511020826043912  0.5034102137232563  0.5660013012699233
  0.2492457461419400  0.0021831309949908  0.4166936240486255
  0.9993551659967280  0.2522674522698521  0.5845089664019236
  0.2503829804795575  0.2538396113628099  0.4309128758974258
  0.9989344344121424  0.0021801621181689  0.5706530933129484
  0.7490126339667338  0.0021555657708508  0.4167221409461208
  0.4989232874531373  0.2528926066579866  0.5862311608268602
  0.7477232293273588  0.2538238225622673  0.4312543281624168
  0.4991328652076697  0.0018980317584824  0.5723360903882549
  0.2498795055802619  0.5013512081081256  0.4150086940581988
  0.0004165839407118  0.7520950148504285  0.5835588966222824
  0.2499778714187526  0.7515282198899134  0.4287484125082178
  0.9990284181471393  0.5033766479503982  0.5699257966242444
  0.7495156941634006  0.5015497590786783  0.4152322368449209
  0.4980809732297840  0.7486528977480322  0.5863250446165030
  0.7481265032254704  0.7517261908261154  0.4291778961470009
  0.4985068185783739  0.5056661250269174  0.5755754840749825
  0.4974156020043438  0.6050816164480832  0.7037512379106098
  0.4894109066109042  0.5216707280404872  0.6906669948025890
  0.5770857789878036  0.6093077618942369  0.7199139256059117
 
  0.00000000E+00  0.00000000E+00  0.00000000E+00
  0.00000000E+00  0.00000000E+00  0.00000000E+00
  0.00000000E+00  0.00000000E+00  0.00000000E+00
  0.00000000E+00  0.00000000E+00  0.00000000E+00
  0.00000000E+00  0.00000000E+00  0.00000000E+00
  0.00000000E+00  0.00000000E+00  0.00000000E+00
  0.00000000E+00  0.00000000E+00  0.00000000E+00
  0.00000000E+00  0.00000000E+00  0.00000000E+00
  0.00000000E+00  0.00000000E+00  0.00000000E+00
  0.00000000E+00  0.00000000E+00  0.00000000E+00
  0.00000000E+00  0.00000000E+00  0.00000000E+00
  0.00000000E+00  0.00000000E+00  0.00000000E+00
  0.00000000E+00  0.00000000E+00  0.00000000E+00
  0.00000000E+00  0.00000000E+00  0.00000000E+00
  0.00000000E+00  0.00000000E+00  0.00000000E+00
  0.00000000E+00  0.00000000E+00  0.00000000E+00
  0.00000000E+00  0.00000000E+00  0.00000000E+00
  0.00000000E+00  0.00000000E+00  0.00000000E+00
  0.00000000E+00  0.00000000E+00  0.00000000E+00
  0.00000000E+00  0.00000000E+00  0.00000000E+00
  0.00000000E+00  0.00000000E+00  0.00000000E+00
  0.00000000E+00  0.00000000E+00  0.00000000E+00
  0.00000000E+00  0.00000000E+00  0.00000000E+00
  0.00000000E+00  0.00000000E+00  0.00000000E+00
  0.00000000E+00  0.00000000E+00  0.00000000E+00
  0.00000000E+00  0.00000000E+00  0.00000000E+00
  0.00000000E+00  0.00000000E+00  0.00000000E+00
  0.00000000E+00  0.00000000E+00  0.00000000E+00
  0.00000000E+00  0.00000000E+00  0.00000000E+00
  0.00000000E+00  0.00000000E+00  0.00000000E+00
  0.00000000E+00  0.00000000E+00  0.00000000E+00
  0.00000000E+00  0.00000000E+00  0.00000000E+00
  0.00000000E+00  0.00000000E+00  0.00000000E+00
  0.00000000E+00  0.00000000E+00  0.00000000E+00
  0.00000000E+00  0.00000000E+00  0.00000000E+00
  0.00000000E+00  0.00000000E+00  0.00000000E+00
  0.00000000E+00  0.00000000E+00  0.00000000E+00
  0.00000000E+00  0.00000000E+00  0.00000000E+00
  0.00000000E+00  0.00000000E+00  0.00000000E+00
  0.00000000E+00  0.00000000E+00  0.00000000E+00
  0.00000000E+00  0.00000000E+00  0.00000000E+00
  0.00000000E+00  0.00000000E+00  0.00000000E+00
  0.00000000E+00  0.00000000E+00  0.00000000E+00
  0.00000000E+00  0.00000000E+00  0.00000000E+00
  0.00000000E+00  0.00000000E+00  0.00000000E+00
  0.00000000E+00  0.00000000E+00  0.00000000E+00
  0.00000000E+00  0.00000000E+00  0.00000000E+00
  0.00000000E+00  0.00000000E+00  0.00000000E+00
  0.00000000E+00  0.00000000E+00  0.00000000E+00
  0.00000000E+00  0.00000000E+00  0.00000000E+00
  0.00000000E+00  0.00000000E+00  0.00000000E+00
  0.00000000E+00  0.00000000E+00  0.00000000E+00
  0.00000000E+00  0.00000000E+00  0.00000000E+00
  0.00000000E+00  0.00000000E+00  0.00000000E+00
  0.00000000E+00  0.00000000E+00  0.00000000E+00
  0.00000000E+00  0.00000000E+00  0.00000000E+00
  0.00000000E+00  0.00000000E+00  0.00000000E+00
  0.00000000E+00  0.00000000E+00  0.00000000E+00
  0.00000000E+00  0.00000000E+00  0.00000000E+00
