CONTCAR\(4)                             
   1.00000000000000     
    13.2530002594000003    0.0000000000000000    0.0000000000000000
    -6.6264500618000000   11.4773481809000000    0.0000000000000000
     0.0000000000000000    0.0000000000000000   18.1800994873000015
   V    Se   H 
    16    32     1
Direct
 -0.0114675587682426 -0.0005522913874782  0.4996600502529495
  0.2543447711097365  0.0038181483971641  0.5014322359129070
  0.5016828908673694 -0.0050057527245807  0.5003467519168069
  0.7464464011276688  0.0034933252591764  0.4988537948780285
 -0.0101197231035706  0.2453508203196419  0.4999610650470615
  0.2214453517228129  0.2379867919157709  0.5015961813030175
  0.5127688052588892  0.2367743541005232  0.5031624024455554
  0.7563442705652047  0.2485923972393988  0.4996674551137190
  0.0020901703415413  0.5008293671033672  0.4999744454265577
  0.2511068276573396  0.5025926256933834  0.5016562242259339
  0.5143214186735859  0.5312895399651837  0.5042029043480093
  0.7487024469905190  0.4968553503546796  0.4996097552909989
  0.0012132695465604  0.7544691226680175  0.4992676425838266
  0.2540785870390029  0.7533736495976612  0.5007951327059811
  0.5034324657953266  0.7607999798743440  0.5004623749197995
  0.7533455582269091  0.7646129553832697  0.4993562718470062
  0.1580812173956229  0.0787417027946455  0.5884852167578515
  0.0764135412810216  0.1656550133094417  0.4091714150915603
  0.4186847860874279  0.0809847698588020  0.5910498628596749
  0.3365316423208083  0.1744481862095771  0.4209669232232331
  0.6676368328341044  0.0839408729131415  0.5887858510876841
  0.5855641801237990  0.1648642122381779  0.4102167712323315
  0.9112849479342245  0.0834511860001181  0.5889030226158353
  0.8325186198886597  0.1684850739955946  0.4081572336161238
  0.1572719041659016  0.3336327708052649  0.5894779772519257
  0.0848418394297128  0.4184830739414571  0.4138389986073513
  0.4411927343980063  0.3485330937754243  0.5872292585820832
  0.3369486811387229  0.4172993369555254  0.4216793081381111
  0.6730821311595296  0.3335942157405119  0.5898706045110454
  0.5794663867965806  0.4169406148956704  0.4198768443897483
  0.9162302579064482  0.3344765557589938  0.5891552383212608
  0.8346687235681987  0.4184518596344234  0.4127597268644385
  0.1663735382667800  0.5862047921733368  0.5885428481107144
  0.0848342756549823  0.6694598506240615  0.4138401904054366
  0.4184388313327468  0.5920123739571760  0.5909702403188321
  0.3338034537016286  0.6684885272070461  0.4136847419884273
  0.6751942745019096  0.5943969330135170  0.5884746476665194
  0.5855833492669386  0.6753241146466886  0.4097155662425896
  0.9183501535674792  0.5864115738505714  0.5862867548962043
  0.8328995016403538  0.6692806057633955  0.4148966884710550
  0.1666748979516001  0.8350834948984640  0.5877874000184111
  0.0849186791881750  0.9211791181271100  0.4146106384170430
  0.4174614661572681  0.8355768480099794  0.5906930805565892
  0.3334113175732893  0.9187720200541317  0.4132504482910457
  0.6678652955249227  0.8402214995502498  0.5889119122600978
  0.5822228160730418  0.9185502687270016  0.4087457987561448
  0.9156260000688162  0.8365401897971815  0.5880847143084208
  0.8323139394722805  0.9203176702525215  0.4081584397622093
  0.3068541795783604  0.2903274647612786  0.5950069591618459
 
  0.00000000E+00  0.00000000E+00  0.00000000E+00
  0.00000000E+00  0.00000000E+00  0.00000000E+00
  0.00000000E+00  0.00000000E+00  0.00000000E+00
  0.00000000E+00  0.00000000E+00  0.00000000E+00
  0.00000000E+00  0.00000000E+00  0.00000000E+00
  0.00000000E+00  0.00000000E+00  0.00000000E+00
  0.00000000E+00  0.00000000E+00  0.00000000E+00
  0.00000000E+00  0.00000000E+00  0.00000000E+00
  0.00000000E+00  0.00000000E+00  0.00000000E+00
  0.00000000E+00  0.00000000E+00  0.00000000E+00
  0.00000000E+00  0.00000000E+00  0.00000000E+00
  0.00000000E+00  0.00000000E+00  0.00000000E+00
  0.00000000E+00  0.00000000E+00  0.00000000E+00
  0.00000000E+00  0.00000000E+00  0.00000000E+00
  0.00000000E+00  0.00000000E+00  0.00000000E+00
  0.00000000E+00  0.00000000E+00  0.00000000E+00
  0.00000000E+00  0.00000000E+00  0.00000000E+00
  0.00000000E+00  0.00000000E+00  0.00000000E+00
  0.00000000E+00  0.00000000E+00  0.00000000E+00
  0.00000000E+00  0.00000000E+00  0.00000000E+00
  0.00000000E+00  0.00000000E+00  0.00000000E+00
  0.00000000E+00  0.00000000E+00  0.00000000E+00
  0.00000000E+00  0.00000000E+00  0.00000000E+00
  0.00000000E+00  0.00000000E+00  0.00000000E+00
  0.00000000E+00  0.00000000E+00  0.00000000E+00
  0.00000000E+00  0.00000000E+00  0.00000000E+00
  0.00000000E+00  0.00000000E+00  0.00000000E+00
  0.00000000E+00  0.00000000E+00  0.00000000E+00
  0.00000000E+00  0.00000000E+00  0.00000000E+00
  0.00000000E+00  0.00000000E+00  0.00000000E+00
  0.00000000E+00  0.00000000E+00  0.00000000E+00
  0.00000000E+00  0.00000000E+00  0.00000000E+00
  0.00000000E+00  0.00000000E+00  0.00000000E+00
  0.00000000E+00  0.00000000E+00  0.00000000E+00
  0.00000000E+00  0.00000000E+00  0.00000000E+00
  0.00000000E+00  0.00000000E+00  0.00000000E+00
  0.00000000E+00  0.00000000E+00  0.00000000E+00
  0.00000000E+00  0.00000000E+00  0.00000000E+00
  0.00000000E+00  0.00000000E+00  0.00000000E+00
  0.00000000E+00  0.00000000E+00  0.00000000E+00
  0.00000000E+00  0.00000000E+00  0.00000000E+00
  0.00000000E+00  0.00000000E+00  0.00000000E+00
  0.00000000E+00  0.00000000E+00  0.00000000E+00
  0.00000000E+00  0.00000000E+00  0.00000000E+00
  0.00000000E+00  0.00000000E+00  0.00000000E+00
  0.00000000E+00  0.00000000E+00  0.00000000E+00
  0.00000000E+00  0.00000000E+00  0.00000000E+00
  0.00000000E+00  0.00000000E+00  0.00000000E+00
  0.00000000E+00  0.00000000E+00  0.00000000E+00
