CONTCAR                                 
   1.00000000000000     
    14.1683998108000004    0.0000000000000000    0.0000000000000000
     0.0000000000000000   20.5298995972000000    0.0000000000000000
     0.0000000000000000    0.0000000000000000   19.1021003723000007
   Nb   Te   O    H 
    32    48     1     1
Selective dynamics
Direct
  0.0624352778656387  0.1362619277608985  0.5473427034843894   F   F   F
  0.1874083863445364  0.0759608430540339  0.4496226300424411   F   F   F
  0.0626982476904843  0.2943006477115020  0.4983868788137897   F   F   F
  0.1883770749198916  0.4176210245995478  0.5016374816778111   F   F   F
  0.3121745824495292  0.1361111939091728  0.5474836212953136   F   F   F
  0.4374701181064182  0.0758746113510256  0.4502705239659406   F   F   F
  0.3123955923660588  0.2936830993828465  0.4983164149058865   F   F   F
  0.4381179877806147  0.4163659030532543  0.5019354971317398   F   F   F
  0.5625767090008580  0.1359986316630994  0.5478586808603367   F   F   F
  0.6878234609979756  0.0758655160606452  0.4503727555858674   F   F   F
  0.5624934806801321  0.2932047724205304  0.4984263958104975   F   F   F
  0.6869789783372084  0.4163654363185003  0.5018933819003522   F   F   F
  0.8130999601432123  0.1362030749985763  0.5475947305859208   F   F   F
  0.9379705055795498  0.0760799026994903  0.4496573111084388   F   F   F
  0.8127793910516417  0.2937019192673276  0.4983112013282351   F   F   F
  0.9371202460953469  0.4175867514171472  0.5016728662997352   F   F   F
  0.0625434667015838  0.6353221463007159  0.5503023836059313   F   F   F
  0.1863605158339610  0.5754678945990435  0.4534543413097936   F   F   F
  0.0624776394667705  0.7942375074740156  0.4975351884959451   F   F   F
  0.1869641740879331  0.9183936141858382  0.4990947376302941   F   F   F
  0.3183643067093200  0.6354039710475519  0.5535727638429861   F   F   F
  0.4362872946856200  0.5755754042900776  0.4573417646498115   F   F   F
  0.3128643779865996  0.7951923570603014  0.4981761552948498   F   F   F
  0.4372402762831342  0.9190024370648615  0.5004404195691663   F   F   F
  0.5621779353635503  0.6366201982504336  0.5680523660532728   F   F   F
  0.6893034884253879  0.5754086462282260  0.4572449776588741   F   F   F
  0.5625028565163674  0.7949803626824590  0.5016830060892872   F   F   F
  0.6877466700201111  0.9190764859613623  0.5005489706224751   F   F   F
  0.8066662759983458  0.6352837609351312  0.5535309292937569   F   F   F
  0.9388416445153993  0.5754688383810418  0.4533923130348185   F   F   F
  0.8119449373909262  0.7950530341279602  0.4981645916019133   F   F   F
  0.9380953493568924  0.9182955423547412  0.4992329345149571   F   F   F
  0.1877571251314905  0.3292460784304865  0.3922365780514667   F   F   F
  0.0628123942571577  0.1748294779694817  0.4084097630574774   F   F   F
  0.1873507232096259  0.2317646794529509  0.5991552971914658   F   F   F
  0.0626948431868612  0.4801451184163028  0.4007608509114320   F   F   F
  0.0627324666853895  0.3836359936944405  0.6074030837498583   F   F   F
  0.1871437592563154  0.0379431281200340  0.5888794330483975   F   F   F
  0.4378030342932675  0.3281519983361108  0.3922873998172420   F   F   F
  0.3125795355719134  0.1741943888225350  0.4081858617194953   F   F   F
  0.4373397933077641  0.2312520207302882  0.5994781987687148   F   F   F
  0.3136563256208404  0.4807971337572781  0.4017236456299855   F   F   F
  0.3117468371363543  0.3818746161990703  0.6079091542321393   F   F   F
  0.4372635984634172  0.0381041443260131  0.5896976292812681   F   F   F
  0.6873567371159766  0.3281485620454774  0.3923093806566484   F   F   F
  0.5627466059935173  0.1740545140498710  0.4086132419743862   F   F   F
  0.6877708824132185  0.2312772278749620  0.5994279396666045   F   F   F
  0.5627168034851096  0.4806230355276782  0.4044412100093524   F   F   F
  0.5625480055834515  0.3809989680988153  0.6082073349424348   F   F   F
  0.6880335958801993  0.0382493622571261  0.5898790242468266   F   F   F
  0.9375491076188425  0.3291320454765767  0.3923002676613336   F   F   F
  0.8126703415148384  0.1742852531835837  0.4083459596630021   F   F   F
  0.9377342531061785  0.2319467021177815  0.5992705767661946   F   F   F
  0.8118467736080461  0.4806411540822637  0.4016569752763530   F   F   F
  0.8135091643066801  0.3819334648231774  0.6078129998551702   F   F   F
  0.9378392977149232  0.0378044005639850  0.5887741017716692   F   F   F
  0.1875240029563159  0.8285814074679081  0.3911299379584889   F   F   F
  0.0626532313574941  0.6736070719325653  0.4108167798113698   F   F   F
  0.1875238014777381  0.7326158684877768  0.5987516989738211   F   F   F
  0.0624955164323637  0.9802540604483525  0.3979294312907342   F   F   F
  0.0625734422877287  0.8839071980366171  0.6056673762790510   F   F   F
  0.1883372184721068  0.5374400835706012  0.5925136246113780   F   F   F
  0.4390862593936617  0.8282675523212006  0.3929721979190930   F   F   F
  0.3130346829696791  0.6732864337609357  0.4141036463711103   F   F   F
  0.4326034349854453  0.7386229318255815  0.6018179930989120   F   F   F
  0.3127697526561448  0.9801490953130028  0.3983194313282965   F   F   F
  0.3111052267238108  0.8854808587160932  0.6061761654243796   F   F   F
  0.4359925281655279  0.5314958141247104  0.5929826575116621   F   F   F
  0.6859053765513892  0.8285765030421857  0.3930142382528388   F   F   F
  0.5627776920606706  0.6733232817600125  0.4213374830846988   F   F   F
  0.6921533896284089  0.7383588400647270  0.6018611790310828   F   F   F
  0.5625883772051878  0.9801037223241877  0.3991589972892129   F   F   F
  0.5625127813178139  0.8863456207109977  0.6078408903719463   F   F   F
  0.6889854634177439  0.5314582588223828  0.5928723160378766   F   F   F
  0.9372939644991760  0.8286068116058871  0.3911726892705403   F   F   F
  0.8121986267400274  0.6733675061318394  0.4140817658729077   F   F   F
  0.9374022278307876  0.7324794637699696  0.5987291849587137   F   F   F
  0.8125086892856288  0.9801540775443840  0.3986398841009873   F   F   F
  0.8137185448943924  0.8851446011509267  0.6061339211480501   F   F   F
  0.9367674216216457  0.5373742069302310  0.5923855769310791   F   F   F
  0.5623269282482610  0.6409828645834068  0.6729721829206099   T   T   T
  0.5584292846085361  0.6030348665858226  0.7024971151753057   T   T   T
 
  0.00000000E+00  0.00000000E+00  0.00000000E+00
  0.00000000E+00  0.00000000E+00  0.00000000E+00
  0.00000000E+00  0.00000000E+00  0.00000000E+00
  0.00000000E+00  0.00000000E+00  0.00000000E+00
  0.00000000E+00  0.00000000E+00  0.00000000E+00
  0.00000000E+00  0.00000000E+00  0.00000000E+00
  0.00000000E+00  0.00000000E+00  0.00000000E+00
  0.00000000E+00  0.00000000E+00  0.00000000E+00
  0.00000000E+00  0.00000000E+00  0.00000000E+00
  0.00000000E+00  0.00000000E+00  0.00000000E+00
  0.00000000E+00  0.00000000E+00  0.00000000E+00
  0.00000000E+00  0.00000000E+00  0.00000000E+00
  0.00000000E+00  0.00000000E+00  0.00000000E+00
  0.00000000E+00  0.00000000E+00  0.00000000E+00
  0.00000000E+00  0.00000000E+00  0.00000000E+00
  0.00000000E+00  0.00000000E+00  0.00000000E+00
  0.00000000E+00  0.00000000E+00  0.00000000E+00
  0.00000000E+00  0.00000000E+00  0.00000000E+00
  0.00000000E+00  0.00000000E+00  0.00000000E+00
  0.00000000E+00  0.00000000E+00  0.00000000E+00
  0.00000000E+00  0.00000000E+00  0.00000000E+00
  0.00000000E+00  0.00000000E+00  0.00000000E+00
  0.00000000E+00  0.00000000E+00  0.00000000E+00
  0.00000000E+00  0.00000000E+00  0.00000000E+00
  0.00000000E+00  0.00000000E+00  0.00000000E+00
  0.00000000E+00  0.00000000E+00  0.00000000E+00
  0.00000000E+00  0.00000000E+00  0.00000000E+00
  0.00000000E+00  0.00000000E+00  0.00000000E+00
  0.00000000E+00  0.00000000E+00  0.00000000E+00
  0.00000000E+00  0.00000000E+00  0.00000000E+00
  0.00000000E+00  0.00000000E+00  0.00000000E+00
  0.00000000E+00  0.00000000E+00  0.00000000E+00
  0.00000000E+00  0.00000000E+00  0.00000000E+00
  0.00000000E+00  0.00000000E+00  0.00000000E+00
  0.00000000E+00  0.00000000E+00  0.00000000E+00
  0.00000000E+00  0.00000000E+00  0.00000000E+00
  0.00000000E+00  0.00000000E+00  0.00000000E+00
  0.00000000E+00  0.00000000E+00  0.00000000E+00
  0.00000000E+00  0.00000000E+00  0.00000000E+00
  0.00000000E+00  0.00000000E+00  0.00000000E+00
  0.00000000E+00  0.00000000E+00  0.00000000E+00
  0.00000000E+00  0.00000000E+00  0.00000000E+00
  0.00000000E+00  0.00000000E+00  0.00000000E+00
  0.00000000E+00  0.00000000E+00  0.00000000E+00
  0.00000000E+00  0.00000000E+00  0.00000000E+00
  0.00000000E+00  0.00000000E+00  0.00000000E+00
  0.00000000E+00  0.00000000E+00  0.00000000E+00
  0.00000000E+00  0.00000000E+00  0.00000000E+00
  0.00000000E+00  0.00000000E+00  0.00000000E+00
  0.00000000E+00  0.00000000E+00  0.00000000E+00
  0.00000000E+00  0.00000000E+00  0.00000000E+00
  0.00000000E+00  0.00000000E+00  0.00000000E+00
  0.00000000E+00  0.00000000E+00  0.00000000E+00
  0.00000000E+00  0.00000000E+00  0.00000000E+00
  0.00000000E+00  0.00000000E+00  0.00000000E+00
  0.00000000E+00  0.00000000E+00  0.00000000E+00
  0.00000000E+00  0.00000000E+00  0.00000000E+00
  0.00000000E+00  0.00000000E+00  0.00000000E+00
  0.00000000E+00  0.00000000E+00  0.00000000E+00
  0.00000000E+00  0.00000000E+00  0.00000000E+00
  0.00000000E+00  0.00000000E+00  0.00000000E+00
  0.00000000E+00  0.00000000E+00  0.00000000E+00
  0.00000000E+00  0.00000000E+00  0.00000000E+00
  0.00000000E+00  0.00000000E+00  0.00000000E+00
  0.00000000E+00  0.00000000E+00  0.00000000E+00
  0.00000000E+00  0.00000000E+00  0.00000000E+00
  0.00000000E+00  0.00000000E+00  0.00000000E+00
  0.00000000E+00  0.00000000E+00  0.00000000E+00
  0.00000000E+00  0.00000000E+00  0.00000000E+00
  0.00000000E+00  0.00000000E+00  0.00000000E+00
  0.00000000E+00  0.00000000E+00  0.00000000E+00
  0.00000000E+00  0.00000000E+00  0.00000000E+00
  0.00000000E+00  0.00000000E+00  0.00000000E+00
  0.00000000E+00  0.00000000E+00  0.00000000E+00
  0.00000000E+00  0.00000000E+00  0.00000000E+00
  0.00000000E+00  0.00000000E+00  0.00000000E+00
  0.00000000E+00  0.00000000E+00  0.00000000E+00
  0.00000000E+00  0.00000000E+00  0.00000000E+00
  0.00000000E+00  0.00000000E+00  0.00000000E+00
  0.00000000E+00  0.00000000E+00  0.00000000E+00
  0.00000000E+00  0.00000000E+00  0.00000000E+00
  0.00000000E+00  0.00000000E+00  0.00000000E+00
