CONTCAR\(7)                             
   1.00000000000000     
    13.7100000381000005    0.0000000000000000    0.0000000000000000
    -6.8218533300999997   11.9299668931999996    0.0000000000000000
     0.0000000000000000    0.0000000000000000   18.6952991486000002
   Nb   Ir   Se   O 
    12     4    32     1
Direct
  0.4769137422359440  0.2461535073330214  0.5020163971727799
  0.4897726222803345  0.0145008648926565  0.4997535875982845
  0.2406045847768387  0.2252283112145119  0.4972898108828762
  0.9993961960744411  0.2257535192582462  0.4985997591201796
  0.9746307526615945  0.9860369434231687  0.5040224979558310
  0.7676387281934040  0.2385324943306704  0.5016215359562549
  0.4934722833963942  0.7264101074969564  0.5040106288503212
  0.4698758376750495  0.4878361834187265  0.5063237022448888
  0.2693674261524646  0.7364710343576636  0.5001000952775871
  0.9742783968756662  0.7440376029053903  0.5014726921552952
  0.9904915016393377  0.5161929373913331  0.4951566501171323
  0.7310516890379231  0.7169034811174568  0.5020239234202568
  0.2732342131692569  0.0217579992666565  0.4984927140724055
  0.7746885744510731  0.0203187447317315  0.5036776839513496
  0.2744346066037957  0.5240926568435504  0.4952552306498049
  0.7790648868707930  0.5258102552018661  0.4938237635733142
  0.4199239774590520  0.0895939838539044  0.5979537409636917
  0.4029637419454057  0.3234198808463756  0.5971796811872073
  0.1645715650759726  0.0711703637054771  0.5878247128596892
  0.1782945777152500  0.3482752196902305  0.5747241630232401
  0.3364146952990386  0.1683380787884810  0.4000088323778987
  0.3230367638231945  0.4123449618761741  0.4105593321596410
  0.0774308841601189  0.1484514592294841  0.4050940304969515
  0.0879803298079055  0.4181268919970258  0.4243857194076072
  0.9225701071730303  0.0859759325989510  0.6013485859740697
  0.9201226353881476  0.3300582027867782  0.5873643744925481
  0.6629753637237511  0.0738552733715686  0.5874106905553379
  0.6751290800629626  0.3487597325783667  0.5700758605728405
  0.8406781496691347  0.1648413455237462  0.4039321639571888
  0.8251052822627418  0.4062789467218300  0.4109829776385039
  0.5792856919825288  0.1658426273520767  0.4129063321547908
  0.5926548429437557  0.4254898036577107  0.4267930377526575
  0.4328915655539358  0.5863545561430373  0.6100360699645297
  0.4159337735010909  0.8276461272228702  0.5913231061796426
  0.1645627777510449  0.5718686840716675  0.5839764939707345
  0.1729447701250005  0.8392671840486869  0.5705347346903213
  0.3459964975076125  0.6720285848693008  0.4000296278706120
  0.3258555655820989  0.9105989833109686  0.4137663668121594
  0.0810643751621386  0.6691787174878687  0.4101237000445572
  0.0932878952401216  0.9214476838390263  0.4235874412762910
  0.9157666557179872  0.5867683068218511  0.5954412387249155
  0.9019733935450605  0.8244225149820936  0.5967321177097729
  0.6476144368506974  0.5752045375060479  0.6036626081276451
  0.6741071745581896  0.8419317802441675  0.5811800219946118
  0.8338559437663328  0.6729373696282481  0.3997574103635139
  0.8185927868709719  0.9061738185723969  0.4158516292262390
  0.5736002942449726  0.6509509953174221  0.4083614704180616
  0.5935605150933184  0.9199093553765445  0.4306478591118702
  0.5687782383430997  0.6239315517960136  0.6639733759421130
 
  0.00000000E+00  0.00000000E+00  0.00000000E+00
  0.00000000E+00  0.00000000E+00  0.00000000E+00
  0.00000000E+00  0.00000000E+00  0.00000000E+00
  0.00000000E+00  0.00000000E+00  0.00000000E+00
  0.00000000E+00  0.00000000E+00  0.00000000E+00
  0.00000000E+00  0.00000000E+00  0.00000000E+00
  0.00000000E+00  0.00000000E+00  0.00000000E+00
  0.00000000E+00  0.00000000E+00  0.00000000E+00
  0.00000000E+00  0.00000000E+00  0.00000000E+00
  0.00000000E+00  0.00000000E+00  0.00000000E+00
  0.00000000E+00  0.00000000E+00  0.00000000E+00
  0.00000000E+00  0.00000000E+00  0.00000000E+00
  0.00000000E+00  0.00000000E+00  0.00000000E+00
  0.00000000E+00  0.00000000E+00  0.00000000E+00
  0.00000000E+00  0.00000000E+00  0.00000000E+00
  0.00000000E+00  0.00000000E+00  0.00000000E+00
  0.00000000E+00  0.00000000E+00  0.00000000E+00
  0.00000000E+00  0.00000000E+00  0.00000000E+00
  0.00000000E+00  0.00000000E+00  0.00000000E+00
  0.00000000E+00  0.00000000E+00  0.00000000E+00
  0.00000000E+00  0.00000000E+00  0.00000000E+00
  0.00000000E+00  0.00000000E+00  0.00000000E+00
  0.00000000E+00  0.00000000E+00  0.00000000E+00
  0.00000000E+00  0.00000000E+00  0.00000000E+00
  0.00000000E+00  0.00000000E+00  0.00000000E+00
  0.00000000E+00  0.00000000E+00  0.00000000E+00
  0.00000000E+00  0.00000000E+00  0.00000000E+00
  0.00000000E+00  0.00000000E+00  0.00000000E+00
  0.00000000E+00  0.00000000E+00  0.00000000E+00
  0.00000000E+00  0.00000000E+00  0.00000000E+00
  0.00000000E+00  0.00000000E+00  0.00000000E+00
  0.00000000E+00  0.00000000E+00  0.00000000E+00
  0.00000000E+00  0.00000000E+00  0.00000000E+00
  0.00000000E+00  0.00000000E+00  0.00000000E+00
  0.00000000E+00  0.00000000E+00  0.00000000E+00
  0.00000000E+00  0.00000000E+00  0.00000000E+00
  0.00000000E+00  0.00000000E+00  0.00000000E+00
  0.00000000E+00  0.00000000E+00  0.00000000E+00
  0.00000000E+00  0.00000000E+00  0.00000000E+00
  0.00000000E+00  0.00000000E+00  0.00000000E+00
  0.00000000E+00  0.00000000E+00  0.00000000E+00
  0.00000000E+00  0.00000000E+00  0.00000000E+00
  0.00000000E+00  0.00000000E+00  0.00000000E+00
  0.00000000E+00  0.00000000E+00  0.00000000E+00
  0.00000000E+00  0.00000000E+00  0.00000000E+00
  0.00000000E+00  0.00000000E+00  0.00000000E+00
  0.00000000E+00  0.00000000E+00  0.00000000E+00
  0.00000000E+00  0.00000000E+00  0.00000000E+00
  0.00000000E+00  0.00000000E+00  0.00000000E+00
