 Cu4 Se4 O12                            
   1.00000000000000     
     6.0176149830770580    0.0000000000000000    0.0000000000000000
     0.0000000000000000   12.2137613201393016    0.0000000000000000
     0.0000000000000000    0.0000000000000000   16.9626198425599988
   Cu   Se   O 
     4     4    12
Direct
  0.1656596250438401  0.9079590714476152  0.4848259560381269
  0.6664482233492159  0.5926291404598417  0.5151017745625363
  0.8343332074629941  0.0920407428172246  0.5151778444521021
  0.3335607812697248  0.4073722109421131  0.4848914767452465
  0.3859460371844216  0.1483099816667929  0.4789722490614013
  0.8855207163102073  0.3517681505629901  0.5210934531797782
  0.6140503832658489  0.8516874482760914  0.5210333152588732
  0.1145004478641957  0.6482428045210570  0.4789011855486818
  0.9658570891362103  0.5886243394119630  0.5550155830091842
  0.4657267462022034  0.9110758573144039  0.4447564500415977
  0.0341676161331149  0.4113690791070708  0.4449682381259223
  0.5342636639524797  0.0889131344554829  0.5552464291483480
  0.3630288455613040  0.5661385115104557  0.4837610545175797
  0.8614162947548566  0.9327994259308168  0.5171255994714640
  0.6369734535251642  0.4338596326247511  0.5162377725308187
  0.1385713465855871  0.0672012521329434  0.4828739381264353
  0.2842111405549799  0.2629037895024006  0.5260103906234510
  0.7840361324000815  0.2373260526881592  0.4742098177688377
  0.7157832803150169  0.7371027508913319  0.4739924080272059
  0.2159449691285677  0.7626766237364802  0.5258050637623931
 
  0.00000000E+00  0.00000000E+00  0.00000000E+00
  0.00000000E+00  0.00000000E+00  0.00000000E+00
  0.00000000E+00  0.00000000E+00  0.00000000E+00
  0.00000000E+00  0.00000000E+00  0.00000000E+00
  0.00000000E+00  0.00000000E+00  0.00000000E+00
  0.00000000E+00  0.00000000E+00  0.00000000E+00
  0.00000000E+00  0.00000000E+00  0.00000000E+00
  0.00000000E+00  0.00000000E+00  0.00000000E+00
  0.00000000E+00  0.00000000E+00  0.00000000E+00
  0.00000000E+00  0.00000000E+00  0.00000000E+00
  0.00000000E+00  0.00000000E+00  0.00000000E+00
  0.00000000E+00  0.00000000E+00  0.00000000E+00
  0.00000000E+00  0.00000000E+00  0.00000000E+00
  0.00000000E+00  0.00000000E+00  0.00000000E+00
  0.00000000E+00  0.00000000E+00  0.00000000E+00
  0.00000000E+00  0.00000000E+00  0.00000000E+00
  0.00000000E+00  0.00000000E+00  0.00000000E+00
  0.00000000E+00  0.00000000E+00  0.00000000E+00
  0.00000000E+00  0.00000000E+00  0.00000000E+00
  0.00000000E+00  0.00000000E+00  0.00000000E+00
