 In2 Se3                                
   1.00000000000000     
     3.9790917558931445    0.0000000000000000    0.0000000000000000
    -1.9895458779465722    3.4459945674221615    0.0000000000000000
     0.0000000000000000    0.0000000000000000   21.4567713018000035
   In   Se
     2     3
Direct
  0.6666666976186635  0.3333333211579984  0.4123764401403325
  0.3333333024305892  0.6666666793618700  0.5876235600124541
 -0.0000000000870203 -0.0000000007739903  0.5000000001012301
  0.6666666779357304  0.3333333380210997  0.6506390918217271
  0.3333333221020375  0.6666666622330224  0.3493609079242561
 
  0.00000000E+00  0.00000000E+00  0.00000000E+00
  0.00000000E+00  0.00000000E+00  0.00000000E+00
  0.00000000E+00  0.00000000E+00  0.00000000E+00
  0.00000000E+00  0.00000000E+00  0.00000000E+00
  0.00000000E+00  0.00000000E+00  0.00000000E+00
