CONTCAR\(3)                             
   1.00000000000000     
    13.5844001769999991    0.0000000000000000    0.0000000000000000
    -6.7922094263000004   11.7645458840000003    0.0000000000000000
     0.0000000000000000    0.0000000000000000   17.8367004394999995
   Ti   S    O    H 
    16    32     2     1
Direct
  0.0009354600706440 -0.0013501313001855  0.5026588144971960
  0.2461419604877781 -0.0019415356602954  0.5025035915317488
  0.5003816971465183 -0.0020083030922702  0.5022791366680410
  0.7462114317937434 -0.0014562987230853  0.5031535669043735
  0.0007190656258592  0.2440912611083718  0.5028645140088214
  0.2549360331364078  0.2523554512809198  0.5028275016392721
  0.5002905881211214  0.2432598656028500  0.5014102731659796
  0.7549411891590853  0.2523676289624463  0.5027177767526979
  0.0009476380164078  0.4985341928255997  0.5024393561127857
  0.2462407757759898  0.4985360375400686  0.5031226047013335
  0.4990520852349765  0.4977063119135379  0.5002435501867728
  0.7466999167977886  0.4973616908619308  0.4984054799526935
  0.0008935843464413  0.7439127989351908  0.5014749482332654
  0.2553345627645765  0.7527989035527096  0.5025486393239611
  0.5008311023923159  0.7439787824926107  0.5020470870061950
  0.7558279941721066  0.7543533813000809  0.5011373147879659
  0.0822737215307464  0.1650411064656546  0.4223853076332384
  0.1671709744853218  0.0801342266318361  0.5829825584559623
  0.3333918289542609  0.1648276288103651  0.4222008429282008
  0.4191325973258271  0.0835811187375821  0.5825036281326504
  0.5825463038816256  0.1643502789712969  0.4217025167300501
  0.6668915074038352  0.0803524250416692  0.5830247228841737
  0.8341471410039927  0.1649665548966409  0.4227724183225416
  0.9189437333836813  0.0830634620979216  0.5831295072419459
  0.0856139175640779  0.4164983029406250  0.4224212564587135
  0.1675167746044615  0.3318195567757660  0.5828668343249673
  0.3327831022758493  0.4130326941723143  0.4216623563424965
  0.4167806613337778  0.3326740505110033  0.5819230202792210
  0.5845349078511183  0.4160532150019709  0.4201588138338850
  0.6674614535090324  0.3329083686457304  0.5810963221988161
  0.8349709169426947  0.4128227317594612  0.4210971084864350
  0.9157478473766005  0.3323007126418754  0.5828824807717855
  0.0828470170545987  0.6647263545833472  0.4217385454026329
  0.1668691478330325  0.5802785914327296  0.5830216766380784
  0.3336850661210795  0.6649354934921436  0.4224985436743581
  0.4197328916744215  0.5829453383883422  0.5823012190871941
  0.5823558879641563  0.6654497423662546  0.4211845583890997
  0.6673280760414881  0.5793672969148118  0.5798696555627946
  0.8344518127042426  0.6659707912279274  0.4209346840309240
  0.9178244083917566  0.5828876977655099  0.5814998206713681
  0.0857307691534572  0.9174119571586028  0.4219492169696521
  0.1668523466140296  0.8314643346573113  0.5822674464404151
  0.3341620435311759  0.9136564456075050  0.4221391036439665
  0.4160736763849278  0.8319110834422083  0.5826825567074992
  0.5856567522078462  0.9171005869530146  0.4221828591218565
  0.6673845350928563  0.8310426699069349  0.5821265911222998
  0.8348018571462077  0.9150057894530610  0.4217622446677283
  0.9155564086788409  0.8314993201326808  0.5820902065874255
  0.6429177074514519  0.6412126654544473  0.7686701516419916
  0.6609581306492531  0.5555642737115138  0.7527426028106998
  0.6648479938365492  0.5544520726494461  0.6957044803318249
 
  0.00000000E+00  0.00000000E+00  0.00000000E+00
  0.00000000E+00  0.00000000E+00  0.00000000E+00
  0.00000000E+00  0.00000000E+00  0.00000000E+00
  0.00000000E+00  0.00000000E+00  0.00000000E+00
  0.00000000E+00  0.00000000E+00  0.00000000E+00
  0.00000000E+00  0.00000000E+00  0.00000000E+00
  0.00000000E+00  0.00000000E+00  0.00000000E+00
  0.00000000E+00  0.00000000E+00  0.00000000E+00
  0.00000000E+00  0.00000000E+00  0.00000000E+00
  0.00000000E+00  0.00000000E+00  0.00000000E+00
  0.00000000E+00  0.00000000E+00  0.00000000E+00
  0.00000000E+00  0.00000000E+00  0.00000000E+00
  0.00000000E+00  0.00000000E+00  0.00000000E+00
  0.00000000E+00  0.00000000E+00  0.00000000E+00
  0.00000000E+00  0.00000000E+00  0.00000000E+00
  0.00000000E+00  0.00000000E+00  0.00000000E+00
  0.00000000E+00  0.00000000E+00  0.00000000E+00
  0.00000000E+00  0.00000000E+00  0.00000000E+00
  0.00000000E+00  0.00000000E+00  0.00000000E+00
  0.00000000E+00  0.00000000E+00  0.00000000E+00
  0.00000000E+00  0.00000000E+00  0.00000000E+00
  0.00000000E+00  0.00000000E+00  0.00000000E+00
  0.00000000E+00  0.00000000E+00  0.00000000E+00
  0.00000000E+00  0.00000000E+00  0.00000000E+00
  0.00000000E+00  0.00000000E+00  0.00000000E+00
  0.00000000E+00  0.00000000E+00  0.00000000E+00
  0.00000000E+00  0.00000000E+00  0.00000000E+00
  0.00000000E+00  0.00000000E+00  0.00000000E+00
  0.00000000E+00  0.00000000E+00  0.00000000E+00
  0.00000000E+00  0.00000000E+00  0.00000000E+00
  0.00000000E+00  0.00000000E+00  0.00000000E+00
  0.00000000E+00  0.00000000E+00  0.00000000E+00
  0.00000000E+00  0.00000000E+00  0.00000000E+00
  0.00000000E+00  0.00000000E+00  0.00000000E+00
  0.00000000E+00  0.00000000E+00  0.00000000E+00
  0.00000000E+00  0.00000000E+00  0.00000000E+00
  0.00000000E+00  0.00000000E+00  0.00000000E+00
  0.00000000E+00  0.00000000E+00  0.00000000E+00
  0.00000000E+00  0.00000000E+00  0.00000000E+00
  0.00000000E+00  0.00000000E+00  0.00000000E+00
  0.00000000E+00  0.00000000E+00  0.00000000E+00
  0.00000000E+00  0.00000000E+00  0.00000000E+00
  0.00000000E+00  0.00000000E+00  0.00000000E+00
  0.00000000E+00  0.00000000E+00  0.00000000E+00
  0.00000000E+00  0.00000000E+00  0.00000000E+00
  0.00000000E+00  0.00000000E+00  0.00000000E+00
  0.00000000E+00  0.00000000E+00  0.00000000E+00
  0.00000000E+00  0.00000000E+00  0.00000000E+00
  0.00000000E+00  0.00000000E+00  0.00000000E+00
  0.00000000E+00  0.00000000E+00  0.00000000E+00
  0.00000000E+00  0.00000000E+00  0.00000000E+00
