CONTCAR\(19)                            
   1.00000000000000     
    10.8957996367999996    0.0000000000000000    0.0000000000000000
     0.0000000000000000   12.8001003265000008    0.0000000000000000
     0.0000000000000000    0.0000000000000000   21.8099994658999989
   Cu   Si   P 
    12    24    36
Direct
 -0.0000000000000000  0.1092749926390859  0.4613959023422776
 -0.0000000000000000  0.2862519651835186  0.3607628353937975
  0.3333300070000007  0.1092749926390859  0.4613959023422776
  0.3333300070000007  0.2862519651835186  0.3607628353937975
  0.6666700359999993  0.1092749926390859  0.4613959023422776
  0.6666700359999993  0.2862519651835186  0.3607628353937975
 -0.0000000000000000  0.6092749746390913  0.4613959023422776
 -0.0000000000000000  0.7862519651835184  0.3607628353937975
  0.3333300070000007  0.6092749746390913  0.4613959023422776
  0.3333300070000007  0.7862519651835184  0.3607628353937975
  0.6666700359999993  0.6092749746390913  0.4613959023422776
  0.6666700359999993  0.7862519651835184  0.3607628353937975
  0.1666699929999993  0.0452465201082460  0.3862787947569173
  0.1666699929999993  0.1969768306893737  0.6084252913877543
  0.1666699929999993  0.3556089081942067  0.4806643371052101
 -0.0000000000000000  0.4466521607111909  0.6138686369561118
  0.5000000000000000  0.0452465201082460  0.3862787947569173
  0.5000000000000000  0.1969768306893737  0.6084252913877543
  0.5000000000000000  0.3556089081942067  0.4806643371052101
  0.3333300070000007  0.4466521607111909  0.6138686369561118
  0.8333300070000007  0.0452465201082460  0.3862787947569173
  0.8333300070000007  0.1969768306893737  0.6084252913877543
  0.8333300070000007  0.3556089081942067  0.4806643371052101
  0.6666700359999993  0.4466521607111909  0.6138686369561118
  0.1666699929999993  0.5452465251082499  0.3862787947569173
  0.1666699929999993  0.6969768126893722  0.6084252913877543
  0.1666699929999993  0.8556089081942067  0.4806643371052101
 -0.0000000000000000  0.9466521607111908  0.6138686369561118
  0.5000000000000000  0.5452465251082499  0.3862787947569173
  0.5000000000000000  0.6969768126893722  0.6084252913877543
  0.5000000000000000  0.8556089081942067  0.4806643371052101
  0.3333300070000007  0.9466521607111908  0.6138686369561118
  0.8333300070000007  0.5452465251082499  0.3862787947569173
  0.8333300070000007  0.6969768126893722  0.6084252913877543
  0.8333300070000007  0.8556089081942067  0.4806643371052101
  0.6666700359999993  0.9466521607111908  0.6138686369561118
 -0.0000000000000000  0.1187241643851856  0.3447311974655244
  0.1666699929999993  0.1892051861106360  0.5058828886352523
  0.1666699929999993  0.3737423699501528  0.3794000060872570
 -0.0000000000000000  0.2787095129328698  0.6542999291730572
 -0.0000000000000000  0.4504814464899501  0.5106691788244071
  0.1666699929999993  0.0327759906055767  0.6552910328724232
  0.3333300070000007  0.1187241643851856  0.3447311974655244
  0.5000000000000000  0.1892051861106360  0.5058828886352523
  0.5000000000000000  0.3737423699501528  0.3794000060872570
  0.3333300070000007  0.2787095129328698  0.6542999291730572
  0.3333300070000007  0.4504814464899501  0.5106691788244071
  0.5000000000000000  0.0327759906055767  0.6552910328724232
  0.6666700359999993  0.1187241643851856  0.3447311974655244
  0.8333300070000007  0.1892051861106360  0.5058828886352523
  0.8333300070000007  0.3737423699501528  0.3794000060872570
  0.6666700359999993  0.2787095129328698  0.6542999291730572
  0.6666700359999993  0.4504814464899501  0.5106691788244071
  0.8333300070000007  0.0327759906055767  0.6552910328724232
 -0.0000000000000000  0.6187241543851847  0.3447311974655244
  0.1666699929999993  0.6892051861106362  0.5058828886352523
  0.1666699929999993  0.8737423329501532  0.3794000060872570
 -0.0000000000000000  0.7787094949328754  0.6542999291730572
 -0.0000000000000000  0.9504814094899506  0.5106691788244071
  0.1666699929999993  0.5327759666055819  0.6552910328724232
  0.3333300070000007  0.6187241543851847  0.3447311974655244
  0.5000000000000000  0.6892051861106362  0.5058828886352523
  0.5000000000000000  0.8737423329501532  0.3794000060872570
  0.3333300070000007  0.7787094949328754  0.6542999291730572
  0.3333300070000007  0.9504814094899506  0.5106691788244071
  0.5000000000000000  0.5327759666055819  0.6552910328724232
  0.6666700359999993  0.6187241543851847  0.3447311974655244
  0.8333300070000007  0.6892051861106362  0.5058828886352523
  0.8333300070000007  0.8737423329501532  0.3794000060872570
  0.6666700359999993  0.7787094949328754  0.6542999291730572
  0.6666700359999993  0.9504814094899506  0.5106691788244071
  0.8333300070000007  0.5327759666055819  0.6552910328724232
 
  0.00000000E+00  0.00000000E+00  0.00000000E+00
  0.00000000E+00  0.00000000E+00  0.00000000E+00
  0.00000000E+00  0.00000000E+00  0.00000000E+00
  0.00000000E+00  0.00000000E+00  0.00000000E+00
  0.00000000E+00  0.00000000E+00  0.00000000E+00
  0.00000000E+00  0.00000000E+00  0.00000000E+00
  0.00000000E+00  0.00000000E+00  0.00000000E+00
  0.00000000E+00  0.00000000E+00  0.00000000E+00
  0.00000000E+00  0.00000000E+00  0.00000000E+00
  0.00000000E+00  0.00000000E+00  0.00000000E+00
  0.00000000E+00  0.00000000E+00  0.00000000E+00
  0.00000000E+00  0.00000000E+00  0.00000000E+00
  0.00000000E+00  0.00000000E+00  0.00000000E+00
  0.00000000E+00  0.00000000E+00  0.00000000E+00
  0.00000000E+00  0.00000000E+00  0.00000000E+00
  0.00000000E+00  0.00000000E+00  0.00000000E+00
  0.00000000E+00  0.00000000E+00  0.00000000E+00
  0.00000000E+00  0.00000000E+00  0.00000000E+00
  0.00000000E+00  0.00000000E+00  0.00000000E+00
  0.00000000E+00  0.00000000E+00  0.00000000E+00
  0.00000000E+00  0.00000000E+00  0.00000000E+00
  0.00000000E+00  0.00000000E+00  0.00000000E+00
  0.00000000E+00  0.00000000E+00  0.00000000E+00
  0.00000000E+00  0.00000000E+00  0.00000000E+00
  0.00000000E+00  0.00000000E+00  0.00000000E+00
  0.00000000E+00  0.00000000E+00  0.00000000E+00
  0.00000000E+00  0.00000000E+00  0.00000000E+00
  0.00000000E+00  0.00000000E+00  0.00000000E+00
  0.00000000E+00  0.00000000E+00  0.00000000E+00
  0.00000000E+00  0.00000000E+00  0.00000000E+00
  0.00000000E+00  0.00000000E+00  0.00000000E+00
  0.00000000E+00  0.00000000E+00  0.00000000E+00
  0.00000000E+00  0.00000000E+00  0.00000000E+00
  0.00000000E+00  0.00000000E+00  0.00000000E+00
  0.00000000E+00  0.00000000E+00  0.00000000E+00
  0.00000000E+00  0.00000000E+00  0.00000000E+00
  0.00000000E+00  0.00000000E+00  0.00000000E+00
  0.00000000E+00  0.00000000E+00  0.00000000E+00
  0.00000000E+00  0.00000000E+00  0.00000000E+00
  0.00000000E+00  0.00000000E+00  0.00000000E+00
  0.00000000E+00  0.00000000E+00  0.00000000E+00
  0.00000000E+00  0.00000000E+00  0.00000000E+00
  0.00000000E+00  0.00000000E+00  0.00000000E+00
  0.00000000E+00  0.00000000E+00  0.00000000E+00
  0.00000000E+00  0.00000000E+00  0.00000000E+00
  0.00000000E+00  0.00000000E+00  0.00000000E+00
  0.00000000E+00  0.00000000E+00  0.00000000E+00
  0.00000000E+00  0.00000000E+00  0.00000000E+00
  0.00000000E+00  0.00000000E+00  0.00000000E+00
  0.00000000E+00  0.00000000E+00  0.00000000E+00
  0.00000000E+00  0.00000000E+00  0.00000000E+00
  0.00000000E+00  0.00000000E+00  0.00000000E+00
  0.00000000E+00  0.00000000E+00  0.00000000E+00
  0.00000000E+00  0.00000000E+00  0.00000000E+00
  0.00000000E+00  0.00000000E+00  0.00000000E+00
  0.00000000E+00  0.00000000E+00  0.00000000E+00
  0.00000000E+00  0.00000000E+00  0.00000000E+00
  0.00000000E+00  0.00000000E+00  0.00000000E+00
  0.00000000E+00  0.00000000E+00  0.00000000E+00
  0.00000000E+00  0.00000000E+00  0.00000000E+00
  0.00000000E+00  0.00000000E+00  0.00000000E+00
  0.00000000E+00  0.00000000E+00  0.00000000E+00
  0.00000000E+00  0.00000000E+00  0.00000000E+00
  0.00000000E+00  0.00000000E+00  0.00000000E+00
  0.00000000E+00  0.00000000E+00  0.00000000E+00
  0.00000000E+00  0.00000000E+00  0.00000000E+00
  0.00000000E+00  0.00000000E+00  0.00000000E+00
  0.00000000E+00  0.00000000E+00  0.00000000E+00
  0.00000000E+00  0.00000000E+00  0.00000000E+00
  0.00000000E+00  0.00000000E+00  0.00000000E+00
  0.00000000E+00  0.00000000E+00  0.00000000E+00
  0.00000000E+00  0.00000000E+00  0.00000000E+00
