CONTCAR\(4)                             
   1.00000000000000     
     6.8951997757000001    0.0000000000000000    0.0000000000000000
     3.4474999904999999    5.9712451425999999    0.0000000000000000
     0.0000000000000000    0.0000000000000000   18.3700008391999994
   Nb   Se   O 
     4     8     3
Direct
  0.1551309319900440  0.1852024476387655  0.5118277798251540
  0.6691588895788740  0.1419102661406555  0.4896976641631667
  0.1553806376973625  0.6932920194046233  0.4864609679801646
  0.6531976242598247  0.6601832828549448  0.5055215316540611
  0.3587748337371579  0.3748928492580248  0.5884414253788890
  0.3076755198298784  0.3321432444300854  0.4102294833718503
  0.7975576605678611  0.3265504088598163  0.5937486936052991
  0.8394153891807434  0.3338893667704497  0.4120723169988807
  0.3121161840492235  0.8225159543490221  0.5917330844412163
  0.3462605161316645  0.8916298948015182  0.4061952916876450
  0.8282448971874956  0.8299962867016717  0.5860907783131353
  0.8326625615392089  0.7363117699354902  0.3900533279504188
  0.2081117403918071  0.2394677294971430  0.6203959162612591
  0.7256234386420815  0.0316336144009668  0.3811501397920907
  0.1888587902167629  0.7537007719567868  0.3802017585767317
 
  0.00000000E+00  0.00000000E+00  0.00000000E+00
  0.00000000E+00  0.00000000E+00  0.00000000E+00
  0.00000000E+00  0.00000000E+00  0.00000000E+00
  0.00000000E+00  0.00000000E+00  0.00000000E+00
  0.00000000E+00  0.00000000E+00  0.00000000E+00
  0.00000000E+00  0.00000000E+00  0.00000000E+00
  0.00000000E+00  0.00000000E+00  0.00000000E+00
  0.00000000E+00  0.00000000E+00  0.00000000E+00
  0.00000000E+00  0.00000000E+00  0.00000000E+00
  0.00000000E+00  0.00000000E+00  0.00000000E+00
  0.00000000E+00  0.00000000E+00  0.00000000E+00
  0.00000000E+00  0.00000000E+00  0.00000000E+00
  0.00000000E+00  0.00000000E+00  0.00000000E+00
  0.00000000E+00  0.00000000E+00  0.00000000E+00
  0.00000000E+00  0.00000000E+00  0.00000000E+00
