 Tm2 Te6                                
   1.00000000000000     
     4.3370934462950679    0.0000000000000000    0.0000000000000000
     0.0000000000000000    4.3370447942082517    0.0000000000000000
     0.0000000000000000    0.0000000000000000   24.0167176458860041
   Tm   Te
     2     6
Direct
  0.4999998109704791  0.9999999253561640  0.5845202076101997
  0.0000001660012217  0.5000000805188591  0.4154798223865342
  0.9999999999669242  0.9999999566335518  0.3124149201111934
  0.5000000086734389  0.5000000083965475  0.6875851096980710
  0.9999999990816875  0.0000000151745354  0.6875848346442068
  0.5000000240632474  0.4999999745838295  0.3124152060834278
  0.5000000643924594  0.0000000010651391  0.4534308700246322
  0.9999999268505420  0.5000000382713736  0.5465690294417347
 
  0.00000000E+00  0.00000000E+00  0.00000000E+00
  0.00000000E+00  0.00000000E+00  0.00000000E+00
  0.00000000E+00  0.00000000E+00  0.00000000E+00
  0.00000000E+00  0.00000000E+00  0.00000000E+00
  0.00000000E+00  0.00000000E+00  0.00000000E+00
  0.00000000E+00  0.00000000E+00  0.00000000E+00
  0.00000000E+00  0.00000000E+00  0.00000000E+00
  0.00000000E+00  0.00000000E+00  0.00000000E+00
