 Rb2 Mn2 As2                            
   1.00000000000000     
     3.8788325946980402    0.0000000000000000    0.0000000000000000
     0.0000000000000000    3.8794437204249936    0.0000000000000000
     0.0000000000000000    0.0000000000000000   21.5164802047279977
   Rb   Mn   As
     2     2     2
Direct
  0.5000000179006179  0.0000037792176218  0.3400636161421332
  0.9999999874330001  0.5000029590644101  0.6599359389992955
  0.9999999944401878  0.0000056381522502  0.5000063867904407
  0.5000000022957281  0.4999880636934743  0.4999936077339677
  0.0000000031750815  0.4999551343119554  0.4335171101346047
  0.4999999947553846  0.0000444255602810  0.5664833401995509
 
  0.00000000E+00  0.00000000E+00  0.00000000E+00
  0.00000000E+00  0.00000000E+00  0.00000000E+00
  0.00000000E+00  0.00000000E+00  0.00000000E+00
  0.00000000E+00  0.00000000E+00  0.00000000E+00
  0.00000000E+00  0.00000000E+00  0.00000000E+00
  0.00000000E+00  0.00000000E+00  0.00000000E+00
