 V12 O26                                
   1.00000000000000     
     3.5950186088060936    0.0000000000000000    0.0000000000000000
     0.0000000000000000   11.5594601070408629    0.0000000000000000
     0.0000000000000000    0.0000000000000000   23.1808092453219992
   V    O 
    12    26
Direct
 -0.0000000000318206  0.3521683287855263  0.6569930021329101
  0.5000000002831889  0.8522054532013099  0.3430157122488216
  0.5000000000619023  0.8521709325585832  0.6569848126303419
  0.0000000002588432  0.6472259146162447  0.3430157487007568
  0.4999999999728402  0.1472329832354324  0.3430053123574429
  0.4999999997956696  0.1472002688603715  0.6569981154959024
  0.9999999998286547  0.3522045869899614  0.3430140235102243
  0.0000000001979467  0.6471918583798895  0.6569944551957253
  0.5000000000055358  0.8510217424965644  0.4999994143595852
  0.0000000001498403  0.6483865878856523  0.5000036033196629
 -0.0000000002359088  0.3510185935877903  0.5000030754784152
  0.4999999997173877  0.1483950165027440  0.4999994891932614
  0.5000000002098369  0.8545428461007950  0.4142465904431086
  0.5000000000759394  0.8545208197417156  0.5857542231641243
  0.9999999997957176  0.3545306580685205  0.4142421687532894
  0.9999999998687482  0.3545092313777016  0.5857657753581791
  0.0000000002415859  0.6448269245248103  0.5857649995294938
  0.0000000002347806  0.6448535828675896  0.4142401376649547
  0.4999999997474651  0.1448524185972079  0.5857660969964533
  0.4999999998492110  0.1448782200100771  0.4142355010685709
  0.9999999997584637  0.1760194797843752  0.5000003356753100
  1.0000000000430185  0.8234008444544441  0.5000013697138742
  0.5000000001178857  0.6760215962265924  0.5000025554502540
  0.4999999997867911  0.3234040643343046  0.5000039875458341
 -0.0000000000436441  0.1814360984784954  0.3228870023576540
  0.5000000002733932  0.6814311734610861  0.3229022420052123
  0.4999999998647852  0.3179932511889106  0.3229013376133190
  0.0000000002798590  0.8179851625658757  0.3229086063739148
  0.0000000000836116  0.8179496486210114  0.6770904433701750
 -0.0000000001568010  0.1813942692842131  0.6771150114308354
  0.4999999998953336  0.3179523634326675  0.6771050294802673
  0.5000000001434333  0.6813962211183489  0.6771026353972904
  0.5000000001914818  0.9997060942596472  0.3199019230463319
  0.4999999998771117  0.9996669583207950  0.6800991351721350
  0.0000000000980498  0.4996676247151199  0.6801071253800922
  1.0000000000013864  0.4997070183975236  0.3199007053372488
  0.4999999998752505  0.9997123674559287  0.4999993133071392
 -0.0000000001167881  0.4997047955121883  0.5000031412213486
 
  0.00000000E+00  0.00000000E+00  0.00000000E+00
  0.00000000E+00  0.00000000E+00  0.00000000E+00
  0.00000000E+00  0.00000000E+00  0.00000000E+00
  0.00000000E+00  0.00000000E+00  0.00000000E+00
  0.00000000E+00  0.00000000E+00  0.00000000E+00
  0.00000000E+00  0.00000000E+00  0.00000000E+00
  0.00000000E+00  0.00000000E+00  0.00000000E+00
  0.00000000E+00  0.00000000E+00  0.00000000E+00
  0.00000000E+00  0.00000000E+00  0.00000000E+00
  0.00000000E+00  0.00000000E+00  0.00000000E+00
  0.00000000E+00  0.00000000E+00  0.00000000E+00
  0.00000000E+00  0.00000000E+00  0.00000000E+00
  0.00000000E+00  0.00000000E+00  0.00000000E+00
  0.00000000E+00  0.00000000E+00  0.00000000E+00
  0.00000000E+00  0.00000000E+00  0.00000000E+00
  0.00000000E+00  0.00000000E+00  0.00000000E+00
  0.00000000E+00  0.00000000E+00  0.00000000E+00
  0.00000000E+00  0.00000000E+00  0.00000000E+00
  0.00000000E+00  0.00000000E+00  0.00000000E+00
  0.00000000E+00  0.00000000E+00  0.00000000E+00
  0.00000000E+00  0.00000000E+00  0.00000000E+00
  0.00000000E+00  0.00000000E+00  0.00000000E+00
  0.00000000E+00  0.00000000E+00  0.00000000E+00
  0.00000000E+00  0.00000000E+00  0.00000000E+00
  0.00000000E+00  0.00000000E+00  0.00000000E+00
  0.00000000E+00  0.00000000E+00  0.00000000E+00
  0.00000000E+00  0.00000000E+00  0.00000000E+00
  0.00000000E+00  0.00000000E+00  0.00000000E+00
  0.00000000E+00  0.00000000E+00  0.00000000E+00
  0.00000000E+00  0.00000000E+00  0.00000000E+00
  0.00000000E+00  0.00000000E+00  0.00000000E+00
  0.00000000E+00  0.00000000E+00  0.00000000E+00
  0.00000000E+00  0.00000000E+00  0.00000000E+00
  0.00000000E+00  0.00000000E+00  0.00000000E+00
  0.00000000E+00  0.00000000E+00  0.00000000E+00
  0.00000000E+00  0.00000000E+00  0.00000000E+00
  0.00000000E+00  0.00000000E+00  0.00000000E+00
  0.00000000E+00  0.00000000E+00  0.00000000E+00
