CONTCAR\(2)                             
   1.00000000000000     
    11.8893995285000003    0.0000000000000000    0.0000000000000000
     0.0000000000000000   11.8893995285000003    0.0000000000000000
     0.0000000000000000    0.0000000000000000   25.3729991912999999
   Ce   Bi   S    O    H 
    18    18    36    19     1
Selective dynamics
Direct
  0.0006320222444174  0.0000807233494982  0.4503700008859965   F   F   F
  0.1678236142223284  0.1670374767659624  0.5498322999742413   F   F   F
  0.3332589393613148  0.0000683011212459  0.4499221115714533   F   F   F
  0.4987817031768031  0.1668027682852440  0.5498925267288541   F   F   F
  0.6660285768395582  0.0000860165791678  0.4503622067267443   F   F   F
  0.8333892285459967  0.1658102996421960  0.5494287340619266   F   F   F
  0.0004134796694188  0.3339259018862322  0.4513099265414979   F   F   F
  0.1682986805952709  0.5000861376932946  0.5520979984964640   F   F   F
  0.3334489794822346  0.3342758674545578  0.4518711407440321   F   F   F
  0.4982368832485662  0.5000785368315093  0.5529194250791178   F   F   F
  0.6660812340442916  0.3340654515161106  0.4515360970828297   F   F   F
  0.8335434037506957  0.5000811350142627  0.5501913053005936   F   F   F
  0.0004312309994603  0.6661898200624208  0.4513134029873740   F   F   F
  0.1678337953349072  0.8331230223986026  0.5498273659696338   F   F   F
  0.3334384363015062  0.6658639021439967  0.4518762043647513   F   F   F
  0.4988091703790900  0.8333197999184634  0.5498519615755058   F   F   F
  0.6660819223963230  0.6660544402759925  0.4515184942059349   F   F   F
  0.8333893525260692  0.8343330287365518  0.5494167521382209   F   F   F
  0.0031651304460638  0.0000215974922000  0.7005538490215457   F   F   F
  0.1665996105832193  0.1669037851694881  0.3009804479869018   F   F   F
  0.3327470720193091  0.0000405237997612  0.7003128766129549   F   F   F
  0.5000015707942538  0.1669510101975433  0.3009724580151456   F   F   F
  0.6616764818844558  0.0000155382660054  0.7007845677661493   F   F   F
  0.8332867448920567  0.1668038335263375  0.3010007883479631   F   F   F
  0.9993943073187239  0.3326152688916366  0.6991512416879502   F   F   F
  0.1666874481443443  0.5000085357329382  0.3010923391397924   F   F   F
  0.3296065626256706  0.3483141362767412  0.7038646872918690   F   F   F
  0.4999421486492537  0.5000031935568501  0.3010968883017640   F   F   F
  0.6663560112240035  0.3322641564209476  0.6988259682292934   F   F   F
  0.8332707060107154  0.4999945394434917  0.3011228471292711   F   F   F
  0.9993765611264323  0.6674311532523163  0.6991425567982859   F   F   F
  0.1666202394867682  0.8331415613912583  0.3009555915431790   F   F   F
  0.3296711328413622  0.6517245699461967  0.7038915956000196   F   F   F
  0.5000004654482240  0.8330683730358501  0.3009698626245694   F   F   F
  0.6663962057507433  0.6677608829287536  0.6988257636188990   F   F   F
  0.8332965984777445  0.8332341474299838  0.3010216150911447   F   F   F
  0.0008669141211328  0.0001084535216407  0.6003163925808934   F   F   F
  0.0000396102026343  0.0000308644402693  0.2968346844339678   F   F   F
  0.1665471288389853  0.1678869195348938  0.4010604889729450   F   F   F
  0.1657487683064574  0.1686165635212546  0.7084182664586081   F   F   F
  0.3331972763295923  0.0000402368579486  0.5999986114860789   F   F   F
  0.3333730917694666  0.0000207494857989  0.2982701175846643   F   F   F
  0.5001672566525954  0.1680485927698285  0.4010956382032234   F   F   F
  0.4998968889085518  0.1664116592611649  0.7085813471608944   F   F   F
  0.6657222303058177  0.0000693602098778  0.6004499869783757   F   F   F
  0.6664287696832147  0.0000128180183054  0.2969275917442360   F   F   F
  0.8332197003417079  0.1674934792466232  0.4011209508602178   F   F   F
  0.8345673224681107  0.1701244461044595  0.7073966751674448   F   F   F
  0.9962948398901190  0.3283109932823649  0.5991441631481393   F   F   F
  0.9998407459883083  0.3332965405790134  0.2956263956156917   F   F   F
  0.1668131236276977  0.5000263680501149  0.4013677346538671   F   F   F
  0.1669573093184553  0.5000557478094620  0.6730978690006637   F   F   F
  0.3340427324551953  0.3260439455395456  0.5992073874221191   F   F   F
  0.3332032311535400  0.3335789192047116  0.2953509585322820   F   F   F
  0.4999711956987696  0.5000214223506205  0.4013780383293906   F   F   F
  0.5011366412213221  0.5001229270920575  0.6773107428906187   F   F   F
  0.6700019473568020  0.3280184109833471  0.5989683673588360   F   F   F
  0.6666768236398610  0.3335183847291461  0.2953855852118679   F   F   F
  0.8331575199702854  0.5000260275228001  0.4013806281296937   F   F   F
  0.8316907105846028  0.5001149229613873  0.7027959578610705   F   F   F
  0.9963375922067002  0.6719087974519695  0.5991373778749747   F   F   F
  0.9998946358004446  0.6667579241797057  0.2956885693280213   F   F   F
  0.1665410517115404  0.8322006213564777  0.4010437018444932   F   F   F
  0.1657450677311587  0.8315194985893939  0.7083623205809531   F   F   F
  0.3341809934205742  0.6741265474851517  0.5990872452478513   F   F   F
  0.3332107532013353  0.6664395308743849  0.2953614011181642   F   F   F
  0.5001479920594321  0.8320740781134646  0.4010957161724775   F   F   F
  0.4999435665475218  0.8337652143604259  0.7087094802605165   F   F   F
  0.6700159743819114  0.6721481818750163  0.5989665816317498   F   F   F
  0.6667204800569593  0.6665125750375651  0.2954781025535240   F   F   F
  0.8332458028381922  0.8327382518525042  0.4011681835520378   F   F   F
  0.8346595995673809  0.8301034221719945  0.7074327645680469   F   F   F
  0.0001872082640730  0.1662201095411859  0.5000531611100101   F   F   F
  0.1670360502777015  0.0000628163810390  0.5000203979521984   F   F   F
  0.3332936835791358  0.1658757458718867  0.4994969590969447   F   F   F
  0.4995951474904317  0.0000446278748711  0.4999842446326710   F   F   F
  0.6664661041527680  0.1661025877683926  0.5000687452887007   F   F   F
  0.8332727661153569  0.0000807504426916  0.5000014322041153   F   F   F
  0.9997950016900390  0.5000498174967021  0.5013294319511132   F   F   F
  0.1662822255945500  0.3332925811229757  0.5005792737680181   F   F   F
  0.3335851926676128  0.5000477236345162  0.5011337102849680   F   F   F
  0.5004021176062068  0.3335036944744445  0.5007872075561650   F   F   F
  0.6666612631272244  0.5000692595875975  0.5016550236466273   F   F   F
  0.8333307123854254  0.3333052412870217  0.5002677053158635   F   F   F
  0.0002031812329690  0.8339414453595424  0.5000539544110794   F   F   F
  0.1662703021580185  0.6668649998355747  0.5005666938009341   F   F   F
  0.3333022670785724  0.8342888097801691  0.4994736445589254   F   F   F
  0.5004435684390316  0.6666453840939965  0.5007587006055090   F   F   F
  0.6664572738149204  0.8340235306548749  0.5000553348353947   F   F   F
  0.8333149208044190  0.6668199523084937  0.5002655487919938   F   F   F
  0.3116964421472161  0.5003218895964778  0.7701853365896554   T   T   T
  0.3736435031764458  0.5004460820292920  0.7948834442193605   T   T   T
 
  0.00000000E+00  0.00000000E+00  0.00000000E+00
  0.00000000E+00  0.00000000E+00  0.00000000E+00
  0.00000000E+00  0.00000000E+00  0.00000000E+00
  0.00000000E+00  0.00000000E+00  0.00000000E+00
  0.00000000E+00  0.00000000E+00  0.00000000E+00
  0.00000000E+00  0.00000000E+00  0.00000000E+00
  0.00000000E+00  0.00000000E+00  0.00000000E+00
  0.00000000E+00  0.00000000E+00  0.00000000E+00
  0.00000000E+00  0.00000000E+00  0.00000000E+00
  0.00000000E+00  0.00000000E+00  0.00000000E+00
  0.00000000E+00  0.00000000E+00  0.00000000E+00
  0.00000000E+00  0.00000000E+00  0.00000000E+00
  0.00000000E+00  0.00000000E+00  0.00000000E+00
  0.00000000E+00  0.00000000E+00  0.00000000E+00
  0.00000000E+00  0.00000000E+00  0.00000000E+00
  0.00000000E+00  0.00000000E+00  0.00000000E+00
  0.00000000E+00  0.00000000E+00  0.00000000E+00
  0.00000000E+00  0.00000000E+00  0.00000000E+00
  0.00000000E+00  0.00000000E+00  0.00000000E+00
  0.00000000E+00  0.00000000E+00  0.00000000E+00
  0.00000000E+00  0.00000000E+00  0.00000000E+00
  0.00000000E+00  0.00000000E+00  0.00000000E+00
  0.00000000E+00  0.00000000E+00  0.00000000E+00
  0.00000000E+00  0.00000000E+00  0.00000000E+00
  0.00000000E+00  0.00000000E+00  0.00000000E+00
  0.00000000E+00  0.00000000E+00  0.00000000E+00
  0.00000000E+00  0.00000000E+00  0.00000000E+00
  0.00000000E+00  0.00000000E+00  0.00000000E+00
  0.00000000E+00  0.00000000E+00  0.00000000E+00
  0.00000000E+00  0.00000000E+00  0.00000000E+00
  0.00000000E+00  0.00000000E+00  0.00000000E+00
  0.00000000E+00  0.00000000E+00  0.00000000E+00
  0.00000000E+00  0.00000000E+00  0.00000000E+00
  0.00000000E+00  0.00000000E+00  0.00000000E+00
  0.00000000E+00  0.00000000E+00  0.00000000E+00
  0.00000000E+00  0.00000000E+00  0.00000000E+00
  0.00000000E+00  0.00000000E+00  0.00000000E+00
  0.00000000E+00  0.00000000E+00  0.00000000E+00
  0.00000000E+00  0.00000000E+00  0.00000000E+00
  0.00000000E+00  0.00000000E+00  0.00000000E+00
  0.00000000E+00  0.00000000E+00  0.00000000E+00
  0.00000000E+00  0.00000000E+00  0.00000000E+00
  0.00000000E+00  0.00000000E+00  0.00000000E+00
  0.00000000E+00  0.00000000E+00  0.00000000E+00
  0.00000000E+00  0.00000000E+00  0.00000000E+00
  0.00000000E+00  0.00000000E+00  0.00000000E+00
  0.00000000E+00  0.00000000E+00  0.00000000E+00
  0.00000000E+00  0.00000000E+00  0.00000000E+00
  0.00000000E+00  0.00000000E+00  0.00000000E+00
  0.00000000E+00  0.00000000E+00  0.00000000E+00
  0.00000000E+00  0.00000000E+00  0.00000000E+00
  0.00000000E+00  0.00000000E+00  0.00000000E+00
  0.00000000E+00  0.00000000E+00  0.00000000E+00
  0.00000000E+00  0.00000000E+00  0.00000000E+00
  0.00000000E+00  0.00000000E+00  0.00000000E+00
  0.00000000E+00  0.00000000E+00  0.00000000E+00
  0.00000000E+00  0.00000000E+00  0.00000000E+00
  0.00000000E+00  0.00000000E+00  0.00000000E+00
  0.00000000E+00  0.00000000E+00  0.00000000E+00
  0.00000000E+00  0.00000000E+00  0.00000000E+00
  0.00000000E+00  0.00000000E+00  0.00000000E+00
  0.00000000E+00  0.00000000E+00  0.00000000E+00
  0.00000000E+00  0.00000000E+00  0.00000000E+00
  0.00000000E+00  0.00000000E+00  0.00000000E+00
  0.00000000E+00  0.00000000E+00  0.00000000E+00
  0.00000000E+00  0.00000000E+00  0.00000000E+00
  0.00000000E+00  0.00000000E+00  0.00000000E+00
  0.00000000E+00  0.00000000E+00  0.00000000E+00
  0.00000000E+00  0.00000000E+00  0.00000000E+00
  0.00000000E+00  0.00000000E+00  0.00000000E+00
  0.00000000E+00  0.00000000E+00  0.00000000E+00
  0.00000000E+00  0.00000000E+00  0.00000000E+00
  0.00000000E+00  0.00000000E+00  0.00000000E+00
  0.00000000E+00  0.00000000E+00  0.00000000E+00
  0.00000000E+00  0.00000000E+00  0.00000000E+00
  0.00000000E+00  0.00000000E+00  0.00000000E+00
  0.00000000E+00  0.00000000E+00  0.00000000E+00
  0.00000000E+00  0.00000000E+00  0.00000000E+00
  0.00000000E+00  0.00000000E+00  0.00000000E+00
  0.00000000E+00  0.00000000E+00  0.00000000E+00
  0.00000000E+00  0.00000000E+00  0.00000000E+00
  0.00000000E+00  0.00000000E+00  0.00000000E+00
  0.00000000E+00  0.00000000E+00  0.00000000E+00
  0.00000000E+00  0.00000000E+00  0.00000000E+00
  0.00000000E+00  0.00000000E+00  0.00000000E+00
  0.00000000E+00  0.00000000E+00  0.00000000E+00
  0.00000000E+00  0.00000000E+00  0.00000000E+00
  0.00000000E+00  0.00000000E+00  0.00000000E+00
  0.00000000E+00  0.00000000E+00  0.00000000E+00
  0.00000000E+00  0.00000000E+00  0.00000000E+00
  0.00000000E+00  0.00000000E+00  0.00000000E+00
  0.00000000E+00  0.00000000E+00  0.00000000E+00
