SYSTEM =Ru_double_gra
PREC=Normal
ENCUT = 400
ISTART = 0
ICHARG = 1
EDIFF = 1E-05
LREAL = Auto
EDIFFG = -2E-02
NSW =1
IBRION =5
NFREE = 2
ISIF = 2
ISMEAR = 0
NBANDS=600
MAGMOM = 18*2 18*3 36*-1 19*0 1*1
SIGMA =0.2
GGA = PE
ALGO=Normal
ISPIN = 2
#NCORE=4
NELM=150
LWAVE=.FALSE.
LCHARG=.FALSE.
#NPAR=4
IVDW=11
AMIX=0.2
BMIX=0.0001
