CONTCAR\(3)                             
   1.00000000000000     
    11.3112001419000006    0.0000000000000000    0.0000000000000000
    -5.6555817499999996   10.5064091515999998    0.0000000000000000
     0.0000000000000000    0.0000000000000000   21.6791000366000013
   Tb   C    Br   O 
    18    18    18     1
Direct
  0.1218062961856143  0.2489428383219926  0.5679495569921768
  0.2111988273435697  0.0892330806703122  0.4344830108395381
  0.4604955986875032  0.2487890711385571  0.5679634795303364
  0.5398256287114328  0.0819081212156344  0.4314035635324563
  0.7918398742319229  0.2502858288545073  0.5658462103793814
  0.8752201248391372  0.0818599803904801  0.4314518572901325
  0.1224082687258467  0.5783773172566180  0.5678212286615764
  0.2036285387063760  0.4154078115512491  0.4320161234318322
  0.4626254273469385  0.5906655492411819  0.6064025530388817
  0.5450066049853959  0.4153841834480995  0.4320540979741626
  0.7895700421810969  0.5782805706435149  0.5678717708229303
  0.8744498876401647  0.4155795111948761  0.4300416801220488
  0.1241488762144703  0.9150458388126517  0.5665457732431867
  0.2075612249216217  0.7523794699204095  0.4322238383591598
  0.4572969371120809  0.9194847570219613  0.5668745788320824
  0.5364624347967776  0.7395153572079403  0.4402090579036703
  0.7952940502720225  0.9195100493368797  0.5669452376788784
  0.8780403510787994  0.7522274499092121  0.4323619833222945
  0.3611426363546669  0.3886329395699759  0.5259041778629658
  0.3142873221717852  0.2952995272133258  0.4852719339664831
  0.6941347895294316  0.3849898471191956  0.5148455144093733
  0.6410771437522594  0.2797955408124472  0.4805706414753224
  0.0243154130598624  0.3849929133872739  0.5148597581499547
  0.9719852931233049  0.2797996928740114  0.4805646425081690
  0.3559618438331341  0.7148408621899888  0.5197867878909771
  0.3014038782433107  0.6124650402721488  0.4847714083843225
  0.6920725805467601  0.7147272752392224  0.5199489884184719
  0.6443718607124590  0.6123686542860258  0.4849101755066864
  0.0253087414804580  0.7170988922776841  0.5164141980538099
  0.9732772865191256  0.6130043685846689  0.4814863747795244
  0.3594396542156131  0.0546524976541370  0.5153770709168741
  0.3053973678304954  0.9462848139427095  0.4826352482751713
  0.6936294722369311  0.0541383535963346  0.5140881390225467
  0.6383764708860962  0.9435842884738453  0.4844622615717474
  0.0284611210620306  0.0546929737554639  0.5154313721530350
  0.9740555495380778  0.9462415559082192  0.4827713043948674
  0.0959714214075011  0.1901505820547267  0.3455112758156790
  0.2372684373047786  0.1413013725500775  0.6534651806664532
  0.4272024999986892  0.1900478121675604  0.3454291351901832
  0.5728690565516980  0.1426948523030917  0.6531961906990880
  0.7597771843182821  0.1863366635175523  0.3441507946646359
  0.9034584883313582  0.1430563556988181  0.6532251300785724
  0.0956965694466657  0.5236017389526184  0.3442853521900683
  0.1958171532905692  0.4522350330459439  0.6567130802402710
  0.4278509832048046  0.5227431981327522  0.3476216327645089
  0.5904108932172195  0.4514037022875810  0.6567504665558827
  0.7606691274761184  0.5231572348538343  0.3442894534947017
  0.9051116930730746  0.4762917248292367  0.6538291153863938
  0.0963470615921608  0.8596989680051924  0.3453388548313272
  0.2382047130685329  0.8093470971648277  0.6535127918195113
  0.4294651293781667  0.8503662500133179  0.3480165148138556
  0.5934322705669126  0.8539845320285107  0.6556234513999515
  0.7545544335377062  0.8502573276161557  0.3480768301380326
  0.9043197873031015  0.8094739643710154  0.6535037932868218
  0.4663947808561188  0.5965334391144143  0.6951658102690118
 
  0.00000000E+00  0.00000000E+00  0.00000000E+00
  0.00000000E+00  0.00000000E+00  0.00000000E+00
  0.00000000E+00  0.00000000E+00  0.00000000E+00
  0.00000000E+00  0.00000000E+00  0.00000000E+00
  0.00000000E+00  0.00000000E+00  0.00000000E+00
  0.00000000E+00  0.00000000E+00  0.00000000E+00
  0.00000000E+00  0.00000000E+00  0.00000000E+00
  0.00000000E+00  0.00000000E+00  0.00000000E+00
  0.00000000E+00  0.00000000E+00  0.00000000E+00
  0.00000000E+00  0.00000000E+00  0.00000000E+00
  0.00000000E+00  0.00000000E+00  0.00000000E+00
  0.00000000E+00  0.00000000E+00  0.00000000E+00
  0.00000000E+00  0.00000000E+00  0.00000000E+00
  0.00000000E+00  0.00000000E+00  0.00000000E+00
  0.00000000E+00  0.00000000E+00  0.00000000E+00
  0.00000000E+00  0.00000000E+00  0.00000000E+00
  0.00000000E+00  0.00000000E+00  0.00000000E+00
  0.00000000E+00  0.00000000E+00  0.00000000E+00
  0.00000000E+00  0.00000000E+00  0.00000000E+00
  0.00000000E+00  0.00000000E+00  0.00000000E+00
  0.00000000E+00  0.00000000E+00  0.00000000E+00
  0.00000000E+00  0.00000000E+00  0.00000000E+00
  0.00000000E+00  0.00000000E+00  0.00000000E+00
  0.00000000E+00  0.00000000E+00  0.00000000E+00
  0.00000000E+00  0.00000000E+00  0.00000000E+00
  0.00000000E+00  0.00000000E+00  0.00000000E+00
  0.00000000E+00  0.00000000E+00  0.00000000E+00
  0.00000000E+00  0.00000000E+00  0.00000000E+00
  0.00000000E+00  0.00000000E+00  0.00000000E+00
  0.00000000E+00  0.00000000E+00  0.00000000E+00
  0.00000000E+00  0.00000000E+00  0.00000000E+00
  0.00000000E+00  0.00000000E+00  0.00000000E+00
  0.00000000E+00  0.00000000E+00  0.00000000E+00
  0.00000000E+00  0.00000000E+00  0.00000000E+00
  0.00000000E+00  0.00000000E+00  0.00000000E+00
  0.00000000E+00  0.00000000E+00  0.00000000E+00
  0.00000000E+00  0.00000000E+00  0.00000000E+00
  0.00000000E+00  0.00000000E+00  0.00000000E+00
  0.00000000E+00  0.00000000E+00  0.00000000E+00
  0.00000000E+00  0.00000000E+00  0.00000000E+00
  0.00000000E+00  0.00000000E+00  0.00000000E+00
  0.00000000E+00  0.00000000E+00  0.00000000E+00
  0.00000000E+00  0.00000000E+00  0.00000000E+00
  0.00000000E+00  0.00000000E+00  0.00000000E+00
  0.00000000E+00  0.00000000E+00  0.00000000E+00
  0.00000000E+00  0.00000000E+00  0.00000000E+00
  0.00000000E+00  0.00000000E+00  0.00000000E+00
  0.00000000E+00  0.00000000E+00  0.00000000E+00
  0.00000000E+00  0.00000000E+00  0.00000000E+00
  0.00000000E+00  0.00000000E+00  0.00000000E+00
  0.00000000E+00  0.00000000E+00  0.00000000E+00
  0.00000000E+00  0.00000000E+00  0.00000000E+00
  0.00000000E+00  0.00000000E+00  0.00000000E+00
  0.00000000E+00  0.00000000E+00  0.00000000E+00
  0.00000000E+00  0.00000000E+00  0.00000000E+00
