CONTCAR\(3)                             
   1.00000000000000     
    13.5844001769999991    0.0000000000000000    0.0000000000000000
    -6.7922094263000004   11.7645458840000003    0.0000000000000000
     0.0000000000000000    0.0000000000000000   17.8367004394999995
   Ti   S    O 
    16    32     1
Selective dynamics
Direct
  0.0036133595304051  0.9980526969428780  0.4963497504779397   F   F   F
  0.2496476021437317  0.0004043464290575  0.4988318537315379   F   F   F
  0.4993528708543664  0.9957252451587451  0.4996297804239518   F   F   F
  0.7498236218084600  0.0037951801432854  0.5036543193867900   F   F   F
  0.9949050056696365  0.2448143304704047  0.5009902554092918   F   F   F
  0.2451712510612225  0.2515451561499944  0.5020480583426448   F   F   F
  0.4939846425160184  0.2449118497596672  0.5037236363512534   F   F   F
  0.7451642043389484  0.2508087482686321  0.5026097609960019   F   F   F
  0.0035953976081444  0.4964239750326556  0.4978225245964154   F   F   F
  0.2490284442314348  0.4999112062649118  0.4992218494519136   F   F   F
  0.4996465089580724  0.4972346331996746  0.5239609604670221   F   F   F
  0.7543692251570988  0.4974075587753077  0.4967885557675942   F   F   F
  0.9945642576365827  0.7449743155563198  0.4957090685905143   F   F   F
  0.2450584475558628  0.7518171819350599  0.4976215243492916   F   F   F
  0.4943842674267813  0.7461120680350177  0.5047272870979285   F   F   F
  0.7524866515038440  0.7608335804550990  0.5003884043670510   F   F   F
  0.0830076976962175  0.1686536657309574  0.4194185942228259   F   F   F
  0.1614288191546080  0.0767150298005390  0.5796123299420231   F   F   F
  0.3347367265087868  0.1672863595372078  0.4207801087334175   F   F   F
  0.4117329718821878  0.0796587539430220  0.5813982950933365   F   F   F
  0.5807590709577610  0.1667958799633027  0.4219556088716701   F   F   F
  0.6620653921119484  0.0801699049026752  0.5822456065119539   F   F   F
  0.8302406607911124  0.1622990378265428  0.4210732449847754   F   F   F
  0.9155797553125709  0.0833124929026638  0.5806463572456693   F   F   F
  0.0803292862720042  0.4151387874890204  0.4181480182962858   F   F   F
  0.1622610936069506  0.3302009355024040  0.5812547519518390   F   F   F
  0.3370875896265701  0.4174213270481673  0.4279842476902687   F   F   F
  0.4031865036534370  0.3170217213066024  0.5874091752310662   F   F   F
  0.5770675016345521  0.4225218792094623  0.4324633281334016   F   F   F
  0.6674862223424611  0.3317280500700832  0.5825663873378417   F   F   F
  0.8285957343197694  0.4103265854778257  0.4188169426059289   F   F   F
  0.9164054627714791  0.3345806702865133  0.5796559096274052   F   F   F
  0.0827234489725086  0.6657322829736785  0.4165617415047436   F   F   F
  0.1600755717898110  0.5822028525521219  0.5793351364369670   F   F   F
  0.3351977243033915  0.6645920993195631  0.4203305125610370   F   F   F
  0.3978192546650519  0.5857118038330285  0.5868032467199882   F   F   F
  0.5797109313346880  0.6572904829209918  0.4329978194454753   F   F   F
  0.7052764939133311  0.5984671040477281  0.5958838003199602   F   F   F
  0.8303527362239791  0.6637359386773625  0.4184762239897708   F   F   F
  0.9174879634242288  0.5865754472707110  0.5782673653998813   F   F   F
  0.0828952847102755  0.9181995073040881  0.4163275312502392   F   F   F
  0.1650542546349598  0.8309630504153347  0.5778042054993620   F   F   F
  0.3317013109065741  0.9151747906747758  0.4183693256225141   F   F   F
  0.4123420828165010  0.8337014455219887  0.5811783096872603   F   F   F
  0.5804539583316100  0.9135630854562109  0.4223775919530439   F   F   F
  0.6676690562157717  0.8316678033466616  0.5833698988704086   F   F   F
  0.8301476073078149  0.9159224316552681  0.4198526993422220   F   F   F
  0.9225815816492755  0.8374479205187981  0.5787150658237508   F   F   F
  0.5718136531572071  0.5506379259380126  0.6175120485730849   T   T   T
 
  0.00000000E+00  0.00000000E+00  0.00000000E+00
  0.00000000E+00  0.00000000E+00  0.00000000E+00
  0.00000000E+00  0.00000000E+00  0.00000000E+00
  0.00000000E+00  0.00000000E+00  0.00000000E+00
  0.00000000E+00  0.00000000E+00  0.00000000E+00
  0.00000000E+00  0.00000000E+00  0.00000000E+00
  0.00000000E+00  0.00000000E+00  0.00000000E+00
  0.00000000E+00  0.00000000E+00  0.00000000E+00
  0.00000000E+00  0.00000000E+00  0.00000000E+00
  0.00000000E+00  0.00000000E+00  0.00000000E+00
  0.00000000E+00  0.00000000E+00  0.00000000E+00
  0.00000000E+00  0.00000000E+00  0.00000000E+00
  0.00000000E+00  0.00000000E+00  0.00000000E+00
  0.00000000E+00  0.00000000E+00  0.00000000E+00
  0.00000000E+00  0.00000000E+00  0.00000000E+00
  0.00000000E+00  0.00000000E+00  0.00000000E+00
  0.00000000E+00  0.00000000E+00  0.00000000E+00
  0.00000000E+00  0.00000000E+00  0.00000000E+00
  0.00000000E+00  0.00000000E+00  0.00000000E+00
  0.00000000E+00  0.00000000E+00  0.00000000E+00
  0.00000000E+00  0.00000000E+00  0.00000000E+00
  0.00000000E+00  0.00000000E+00  0.00000000E+00
  0.00000000E+00  0.00000000E+00  0.00000000E+00
  0.00000000E+00  0.00000000E+00  0.00000000E+00
  0.00000000E+00  0.00000000E+00  0.00000000E+00
  0.00000000E+00  0.00000000E+00  0.00000000E+00
  0.00000000E+00  0.00000000E+00  0.00000000E+00
  0.00000000E+00  0.00000000E+00  0.00000000E+00
  0.00000000E+00  0.00000000E+00  0.00000000E+00
  0.00000000E+00  0.00000000E+00  0.00000000E+00
  0.00000000E+00  0.00000000E+00  0.00000000E+00
  0.00000000E+00  0.00000000E+00  0.00000000E+00
  0.00000000E+00  0.00000000E+00  0.00000000E+00
  0.00000000E+00  0.00000000E+00  0.00000000E+00
  0.00000000E+00  0.00000000E+00  0.00000000E+00
  0.00000000E+00  0.00000000E+00  0.00000000E+00
  0.00000000E+00  0.00000000E+00  0.00000000E+00
  0.00000000E+00  0.00000000E+00  0.00000000E+00
  0.00000000E+00  0.00000000E+00  0.00000000E+00
  0.00000000E+00  0.00000000E+00  0.00000000E+00
  0.00000000E+00  0.00000000E+00  0.00000000E+00
  0.00000000E+00  0.00000000E+00  0.00000000E+00
  0.00000000E+00  0.00000000E+00  0.00000000E+00
  0.00000000E+00  0.00000000E+00  0.00000000E+00
  0.00000000E+00  0.00000000E+00  0.00000000E+00
  0.00000000E+00  0.00000000E+00  0.00000000E+00
  0.00000000E+00  0.00000000E+00  0.00000000E+00
  0.00000000E+00  0.00000000E+00  0.00000000E+00
  0.00000000E+00  0.00000000E+00  0.00000000E+00
