CONTCAR\(4)                             
   1.00000000000000     
    13.8203001021999992    0.0000000000000000    0.0000000000000000
     1.7075399424000000   15.0073707208999991    0.0000000000000000
     0.0000000000000000    0.0000000000000000   18.4675998688000007
   Nb   Ir   Se   O 
    18     2    40     1
Selective dynamics
Direct
  0.0876799581002743  0.1815473689371885  0.5034596660767505   F   F   F
  0.9926040572352406  0.9796471544403289  0.4941870269928899   F   F   F
  0.4163592978855561  0.7981437827550408  0.5026743880319202   F   F   F
  0.2905036529449632  0.6222607695690456  0.5236945450054407   F   F   F
  0.2561146354403547  0.9818684160016886  0.4994823203491379   F   F   F
  0.1988448097383895  0.4242551103913499  0.5131592761354682   F   F   F
  0.1325298744964272  0.8044829990300997  0.5037093722869699   F   F   F
  0.0255225571601372  0.6137804691498658  0.5019502888592768   F   F   F
  0.4546653163677092  0.3813110855184192  0.4990821952011615   F   F   F
  0.5880402289686870  0.1812677874891619  0.5034627789378732   F   F   F
  0.5149682019984212  0.9798191355943970  0.4962312722473285   F   F   F
  0.8865369557670704  0.8023633804038255  0.4977867112123988   F   F   F
  0.7973439149389137  0.6217549265021916  0.4965987806053249   F   F   F
  0.7471666863119069  0.9828779900843116  0.4978925128396270   F   F   F
  0.7003492815383510  0.4244019567190591  0.5019915766708607   F   F   F
  0.6601409064957195  0.8042795338429158  0.4980639350942653   F   F   F
  0.5690679222261892  0.6191100477847442  0.4992175946046586   F   F   F
  0.9521624471230652  0.3806520380551390  0.4989600588093595   F   F   F
  0.3713055443377726  0.2099809033377937  0.4998448478074735   F   F   F
  0.8704322278970622  0.2091597022603651  0.4984609479971880   F   F   F
  0.4746522657382997  0.2652630380212173  0.5989238440263378   F   F   F
  0.0848276369577547  0.3335064985548613  0.4159579959802784   F   F   F
  0.3708840096852484  0.0699887092945488  0.5754329044740842   F   F   F
  0.4843684748388881  0.1278148907537542  0.4073347614107590   F   F   F
  0.2693382785024099  0.8607884980477820  0.5923240370238432   F   F   F
  0.2229167084519972  0.2633430540356585  0.5747442625144927   F   F   F
  0.3864934717328339  0.9285021426534783  0.4063937080808273   F   F   F
  0.3236988512803194  0.3391510349024358  0.4152902212171341   F   F   F
  0.1266648575149674  0.6897588524260456  0.6070951204497561   F   F   F
  0.1123764416827555  0.0558953868409446  0.5894300991529704   F   F   F
  0.2442795659540238  0.1389584157985340  0.4254470892066564   F   F   F
  0.2814528222641854  0.7350446734237366  0.4214116602485092   F   F   F
  0.0542107413447255  0.4710404643574506  0.5922928330322463   F   F   F
  0.0021547172335232  0.8715925727340874  0.5961291091957577   F   F   F
  0.1834105643484776  0.5463466641554291  0.4222320480067268   F   F   F
  0.1346182742619249  0.9343639786851625  0.4067159801536846   F   F   F
  0.4383588396920572  0.6663388265836900  0.5960944308763416   F   F   F
  0.0292731010167913  0.7358922066141815  0.4073166986858183   F   F   F
  0.3209972490402251  0.4646325212965934  0.5981746004850521   F   F   F
  0.4265846786383918  0.5404740556259569  0.4356223420266332   F   F   F
  0.9713066817293452  0.2644859135904625  0.5981078902772126   F   F   F
  0.5812453596297331  0.3321443686818171  0.4118753503140269   F   F   F
  0.8653857244689007  0.0716694131943001  0.5766265294947459   F   F   F
  0.9848281863016410  0.1290594374301861  0.4061215472013799   F   F   F
  0.7656678497154488  0.8684821485389094  0.5986411469161226   F   F   F
  0.7223782803069625  0.2675906371626482  0.5714666017097940   F   F   F
  0.8777167474911991  0.9317466062524034  0.3990389901911797   F   F   F
  0.8271741008279534  0.3344613213979954  0.4107592648685667   F   F   F
  0.6725132018814648  0.6756868600457295  0.5973512724730554   F   F   F
  0.6166092302686010  0.0585820218151625  0.5941068588906617   F   F   F
  0.7416831160457349  0.1398690673949901  0.4231756554917681   F   F   F
  0.7826663420771354  0.7384018407559125  0.3969134949667321   F   F   F
  0.5639821716952866  0.4710558933239426  0.5872389570628300   F   F   F
  0.5235432584077486  0.8656784603826111  0.5963868625364483   F   F   F
  0.6859202817816481  0.5385537323965863  0.4024861553160832   F   F   F
  0.6366888608096986  0.9311044557143475  0.3968660822809227   F   F   F
  0.9045271876874210  0.6752129416256096  0.5980483700988160   F   F   F
  0.5368962786787748  0.7369696333635858  0.4031190691937212   F   F   F
  0.8169160086257250  0.4746236948942908  0.5877079884299548   F   F   F
  0.9304300575085378  0.5311548556679924  0.4137411607558761   F   F   F
  0.2528408759090866  0.6439960846980243  0.6259449031943598   T   T   T
 
  0.00000000E+00  0.00000000E+00  0.00000000E+00
  0.00000000E+00  0.00000000E+00  0.00000000E+00
  0.00000000E+00  0.00000000E+00  0.00000000E+00
  0.00000000E+00  0.00000000E+00  0.00000000E+00
  0.00000000E+00  0.00000000E+00  0.00000000E+00
  0.00000000E+00  0.00000000E+00  0.00000000E+00
  0.00000000E+00  0.00000000E+00  0.00000000E+00
  0.00000000E+00  0.00000000E+00  0.00000000E+00
  0.00000000E+00  0.00000000E+00  0.00000000E+00
  0.00000000E+00  0.00000000E+00  0.00000000E+00
  0.00000000E+00  0.00000000E+00  0.00000000E+00
  0.00000000E+00  0.00000000E+00  0.00000000E+00
  0.00000000E+00  0.00000000E+00  0.00000000E+00
  0.00000000E+00  0.00000000E+00  0.00000000E+00
  0.00000000E+00  0.00000000E+00  0.00000000E+00
  0.00000000E+00  0.00000000E+00  0.00000000E+00
  0.00000000E+00  0.00000000E+00  0.00000000E+00
  0.00000000E+00  0.00000000E+00  0.00000000E+00
  0.00000000E+00  0.00000000E+00  0.00000000E+00
  0.00000000E+00  0.00000000E+00  0.00000000E+00
  0.00000000E+00  0.00000000E+00  0.00000000E+00
  0.00000000E+00  0.00000000E+00  0.00000000E+00
  0.00000000E+00  0.00000000E+00  0.00000000E+00
  0.00000000E+00  0.00000000E+00  0.00000000E+00
  0.00000000E+00  0.00000000E+00  0.00000000E+00
  0.00000000E+00  0.00000000E+00  0.00000000E+00
  0.00000000E+00  0.00000000E+00  0.00000000E+00
  0.00000000E+00  0.00000000E+00  0.00000000E+00
  0.00000000E+00  0.00000000E+00  0.00000000E+00
  0.00000000E+00  0.00000000E+00  0.00000000E+00
  0.00000000E+00  0.00000000E+00  0.00000000E+00
  0.00000000E+00  0.00000000E+00  0.00000000E+00
  0.00000000E+00  0.00000000E+00  0.00000000E+00
  0.00000000E+00  0.00000000E+00  0.00000000E+00
  0.00000000E+00  0.00000000E+00  0.00000000E+00
  0.00000000E+00  0.00000000E+00  0.00000000E+00
  0.00000000E+00  0.00000000E+00  0.00000000E+00
  0.00000000E+00  0.00000000E+00  0.00000000E+00
  0.00000000E+00  0.00000000E+00  0.00000000E+00
  0.00000000E+00  0.00000000E+00  0.00000000E+00
  0.00000000E+00  0.00000000E+00  0.00000000E+00
  0.00000000E+00  0.00000000E+00  0.00000000E+00
  0.00000000E+00  0.00000000E+00  0.00000000E+00
  0.00000000E+00  0.00000000E+00  0.00000000E+00
  0.00000000E+00  0.00000000E+00  0.00000000E+00
  0.00000000E+00  0.00000000E+00  0.00000000E+00
  0.00000000E+00  0.00000000E+00  0.00000000E+00
  0.00000000E+00  0.00000000E+00  0.00000000E+00
  0.00000000E+00  0.00000000E+00  0.00000000E+00
  0.00000000E+00  0.00000000E+00  0.00000000E+00
  0.00000000E+00  0.00000000E+00  0.00000000E+00
  0.00000000E+00  0.00000000E+00  0.00000000E+00
  0.00000000E+00  0.00000000E+00  0.00000000E+00
  0.00000000E+00  0.00000000E+00  0.00000000E+00
  0.00000000E+00  0.00000000E+00  0.00000000E+00
  0.00000000E+00  0.00000000E+00  0.00000000E+00
  0.00000000E+00  0.00000000E+00  0.00000000E+00
  0.00000000E+00  0.00000000E+00  0.00000000E+00
  0.00000000E+00  0.00000000E+00  0.00000000E+00
  0.00000000E+00  0.00000000E+00  0.00000000E+00
  0.00000000E+00  0.00000000E+00  0.00000000E+00
