CONTCAR\(13)                            
   1.00000000000000     
    12.8629999160999997    0.0000000000000000    0.0000000000000000
     0.0000000000000000   14.3196001052999993    0.0000000000000000
     0.0000000000000000    0.0000000000000000   19.5569992064999987
   Ag   Au   S    O 
    12    24    24     1
Direct
  0.0965504773645023  0.3398204261801467  0.5988268822832339
  0.2540062578971600  0.0598082568109390  0.6005250329276706
  0.4161593559739174  0.2904363043402611  0.6018945558648312
  0.5705102972606113  0.0648988124038183  0.6014043672319147
  0.7414988948877195  0.3395365564337638  0.5979022321907621
  0.9135034746719271  0.1056879319356341  0.6006090688626529
  0.0766463375759017  0.8403490830742300  0.5982872813150806
  0.2694267206919179  0.5793393038655950  0.6077286283483900
  0.4171259888104046  0.7967109851050864  0.6086321672157382
  0.5606629834227164  0.5791654781885640  0.6114315211100845
  0.7594190858048790  0.8424373956421505  0.5987715043111024
  0.9126807071389678  0.5753429819494116  0.6046450800934764
  0.0372533546870528  0.5029660534339300  0.4954694221013369
  0.2959535360034238  0.2314855050615776  0.4853539126585318
  0.1669547524887705  0.3678205638745595  0.4034321759675024
  0.1630664163074158  0.1171336610358154  0.4038102373326140
  0.3659630211971248  0.4770620318415837  0.4923636684780845
  0.6385524653045351  0.2376216497963242  0.4891876325018956
  0.5029943313101910  0.3624514303411104  0.4047062457769144
  0.5024275899905177  0.1137013248198429  0.4053602148257625
  0.6907985898774953  0.5015839032191138  0.4920222555914080
  0.9682354608747730  0.2577292723254914  0.4882538396261538
  0.8299011168260222  0.3731671845985218  0.4077745938083339
  0.8377466439864705  0.1229670508698320  0.4015947111016800
  0.0254144691712739  0.0012401000566626  0.4909955038519840
  0.2947007980331264  0.7451083108564447  0.4840745782469682
  0.1638451107915131  0.8672809609051413  0.4007252057789046
  0.1691784070089639  0.6173988984132279  0.4038111085542937
  0.3643651941725210  0.9772297064724853  0.4881682311817883
  0.6394548961712800  0.7457399648212544  0.4935311027281912
  0.5045744467673998  0.8645228446830018  0.4051666998852710
  0.5028255535703039  0.6140122899750295  0.4096723018648660
  0.7049457014349869  0.0001478429665411  0.4901778432243873
  0.9678287276037452  0.7434964282084735  0.4874542445649652
  0.8357045463254948  0.8725844240433602  0.4041273200144389
  0.8306173631496776  0.6222981651309851  0.4078662027925546
  0.2805010644389299  0.4914802431286702  0.3881797401796092
  0.2390312170732827  0.2317287262044516  0.5988972612154981
  0.0974804537855718  0.5104273659858407  0.6080154947923191
  0.0544949950886462  0.2441900388808236  0.3838681004007825
  0.6127726558034396  0.4889062905648132  0.3853464600535048
  0.5910407021942561  0.2349912503606291  0.6045929180711198
  0.4182264446416042  0.4621170074648973  0.6058805451453537
  0.3918971796978425  0.2376664840819274  0.3844858522989014
  0.9430374372248238  0.4975251408040577  0.3940628309512704
  0.9160150797458897  0.2739983066460780  0.6021415037274593
  0.7359546953378810  0.5105435862522896  0.6074733608098484
  0.7234585539966929  0.2460852472878514  0.3841778432393852
  0.2752224518149120  0.9924588495039686  0.3852659568862862
  0.2325691502872971  0.7484665901730025  0.5963848580049174
  0.0720700253147015  0.0082372362755052  0.6062956365982473
  0.0552720427620983  0.7405063801144394  0.3831117305198006
  0.6150987810728594  0.9901626685957865  0.3869755600808489
  0.5994790529255667  0.7484556392167789  0.6095003504695242
  0.4178536564968098  0.9648543416347337  0.6021654809252652
  0.3947792740141978  0.7387374195893415  0.3853002891334967
  0.9485348198563628  0.9966148973809936  0.3836046687525396
  0.9149708985200604  0.7491764923526318  0.6016924453629144
  0.7586540274378493  0.0102494361385226  0.6043003012142023
  0.7218539922018294  0.7486497806266215  0.3873396218583096
  0.4160285287118626  0.6487078610554491  0.6149542160948371
 
  0.00000000E+00  0.00000000E+00  0.00000000E+00
  0.00000000E+00  0.00000000E+00  0.00000000E+00
  0.00000000E+00  0.00000000E+00  0.00000000E+00
  0.00000000E+00  0.00000000E+00  0.00000000E+00
  0.00000000E+00  0.00000000E+00  0.00000000E+00
  0.00000000E+00  0.00000000E+00  0.00000000E+00
  0.00000000E+00  0.00000000E+00  0.00000000E+00
  0.00000000E+00  0.00000000E+00  0.00000000E+00
  0.00000000E+00  0.00000000E+00  0.00000000E+00
  0.00000000E+00  0.00000000E+00  0.00000000E+00
  0.00000000E+00  0.00000000E+00  0.00000000E+00
  0.00000000E+00  0.00000000E+00  0.00000000E+00
  0.00000000E+00  0.00000000E+00  0.00000000E+00
  0.00000000E+00  0.00000000E+00  0.00000000E+00
  0.00000000E+00  0.00000000E+00  0.00000000E+00
  0.00000000E+00  0.00000000E+00  0.00000000E+00
  0.00000000E+00  0.00000000E+00  0.00000000E+00
  0.00000000E+00  0.00000000E+00  0.00000000E+00
  0.00000000E+00  0.00000000E+00  0.00000000E+00
  0.00000000E+00  0.00000000E+00  0.00000000E+00
  0.00000000E+00  0.00000000E+00  0.00000000E+00
  0.00000000E+00  0.00000000E+00  0.00000000E+00
  0.00000000E+00  0.00000000E+00  0.00000000E+00
  0.00000000E+00  0.00000000E+00  0.00000000E+00
  0.00000000E+00  0.00000000E+00  0.00000000E+00
  0.00000000E+00  0.00000000E+00  0.00000000E+00
  0.00000000E+00  0.00000000E+00  0.00000000E+00
  0.00000000E+00  0.00000000E+00  0.00000000E+00
  0.00000000E+00  0.00000000E+00  0.00000000E+00
  0.00000000E+00  0.00000000E+00  0.00000000E+00
  0.00000000E+00  0.00000000E+00  0.00000000E+00
  0.00000000E+00  0.00000000E+00  0.00000000E+00
  0.00000000E+00  0.00000000E+00  0.00000000E+00
  0.00000000E+00  0.00000000E+00  0.00000000E+00
  0.00000000E+00  0.00000000E+00  0.00000000E+00
  0.00000000E+00  0.00000000E+00  0.00000000E+00
  0.00000000E+00  0.00000000E+00  0.00000000E+00
  0.00000000E+00  0.00000000E+00  0.00000000E+00
  0.00000000E+00  0.00000000E+00  0.00000000E+00
  0.00000000E+00  0.00000000E+00  0.00000000E+00
  0.00000000E+00  0.00000000E+00  0.00000000E+00
  0.00000000E+00  0.00000000E+00  0.00000000E+00
  0.00000000E+00  0.00000000E+00  0.00000000E+00
  0.00000000E+00  0.00000000E+00  0.00000000E+00
  0.00000000E+00  0.00000000E+00  0.00000000E+00
  0.00000000E+00  0.00000000E+00  0.00000000E+00
  0.00000000E+00  0.00000000E+00  0.00000000E+00
  0.00000000E+00  0.00000000E+00  0.00000000E+00
  0.00000000E+00  0.00000000E+00  0.00000000E+00
  0.00000000E+00  0.00000000E+00  0.00000000E+00
  0.00000000E+00  0.00000000E+00  0.00000000E+00
  0.00000000E+00  0.00000000E+00  0.00000000E+00
  0.00000000E+00  0.00000000E+00  0.00000000E+00
  0.00000000E+00  0.00000000E+00  0.00000000E+00
  0.00000000E+00  0.00000000E+00  0.00000000E+00
  0.00000000E+00  0.00000000E+00  0.00000000E+00
  0.00000000E+00  0.00000000E+00  0.00000000E+00
  0.00000000E+00  0.00000000E+00  0.00000000E+00
  0.00000000E+00  0.00000000E+00  0.00000000E+00
  0.00000000E+00  0.00000000E+00  0.00000000E+00
  0.00000000E+00  0.00000000E+00  0.00000000E+00
