CONTCAR\(14)                            
   1.00000000000000     
    14.9264001846000003    0.0000000000000000    0.0000000000000000
     0.0000000000000000   14.9455995559999995    0.0000000000000000
     0.0000000000000000    0.0000000000000000   18.3726005553999983
   Li   H    Pt   O 
    50    51    25     2
Selective dynamics
Direct
  0.1001670162227128  0.9998280490698974  0.4230440540585931   F   F   F
  0.1001691494794272  0.9997000550786765  0.5809106365235763   F   F   F
  0.3013978010841853  0.9991143318397988  0.4235510478357583   F   F   F
  0.3020427445814775  0.9978168425280600  0.5802365263588101   F   F   F
  0.5007372115874844  0.9999972316307790  0.4229023071856304   F   F   F
  0.5015032365361947  0.9955802590147300  0.5801552245307491   F   F   F
  0.6993484372242946  0.9999815703876820  0.4230380306045021   F   F   F
  0.6984894250585754  0.9959527354182356  0.5799271392485963   F   F   F
  0.8990188996778627  0.9993553587276978  0.4233198023923208   F   F   F
  0.8984957012850074  0.9981885381367803  0.5804137620532970   F   F   F
  0.1001656318221151  0.2000626188801817  0.4231780583992517   F   F   F
  0.1001516345511035  0.2000753488136269  0.5806279392853426   F   F   F
  0.3009453695582351  0.2000390376045189  0.4234272691352388   F   F   F
  0.3004931120891072  0.2000550558559340  0.5810273042852785   F   F   F
  0.5005258347443160  0.2000224634013961  0.4236471625958842   F   F   F
  0.5001921938965808  0.2000272346098271  0.5818563530707692   F   F   F
  0.6997217966070437  0.2000254983758083  0.4236701534392679   F   F   F
  0.7000378671667846  0.2000269576826383  0.5818087822654547   F   F   F
  0.8992793516008462  0.2000473887944239  0.4232944518043880   F   F   F
  0.8997643543013751  0.2000486773332142  0.5811324912850822   F   F   F
  0.1001484082918225  0.4003071304633536  0.4230372816411005   F   F   F
  0.1001541579622085  0.4004185331835757  0.5809006327419297   F   F   F
  0.3014027680911582  0.4009811719447711  0.4235420722778684   F   F   F
  0.3020320719481475  0.4022607736067059  0.5802295015699244   F   F   F
  0.5007410504390819  0.4000523693737037  0.4229098259639912   F   F   F
  0.5014972316910189  0.4044575503373835  0.5801524770664486   F   F   F
  0.6993375800580850  0.4000677945447180  0.4230387683529102   F   F   F
  0.6984844348395924  0.4040904197619923  0.5799230693656412   F   F   F
  0.8990018532280857  0.4007444590867735  0.4233071517516294   F   F   F
  0.8984790308031165  0.4019090573203741  0.5804212694341899   F   F   F
  0.1000526211193247  0.5999915748310798  0.4227631359402650   F   F   F
  0.1001750782213406  0.6001951121127860  0.5812292776733727   F   F   F
  0.2993337128042270  0.5999547791170912  0.4217052668869172   F   F   F
  0.3036010338260837  0.6019727514356461  0.5795800196426697   F   F   F
  0.4983117072909593  0.5982884481235544  0.4124064987222269   F   F   F
  0.5072692105224093  0.6135046021076960  0.5908529071317190   F   F   F
  0.7025064183833436  0.5978165374639843  0.4127774208378909   F   F   F
  0.6927406170750814  0.6100367581688104  0.5860587007028570   F   F   F
  0.9011383282054837  0.5998893654914639  0.4217704899220607   F   F   F
  0.8974196128301983  0.6015793831883443  0.5796065920037705   F   F   F
  0.1000510557179481  0.8001170522258221  0.4227573409320016   F   F   F
  0.1001758549057001  0.7999096477236520  0.5812319878297387   F   F   F
  0.2993220034489212  0.8001389262622780  0.4217046809401239   F   F   F
  0.3035904734065795  0.7981040269228004  0.5795743155550781   F   F   F
  0.4983079491603988  0.8017600757250278  0.4124049131971219   F   F   F
  0.5072730905431513  0.7865353857208319  0.5908537474385014   F   F   F
  0.7025130572642482  0.8022282855787211  0.4127833400439798   F   F   F
  0.6927401879602186  0.7900046931026736  0.5860513775646652   F   F   F
  0.9011422893283836  0.8002035694678895  0.4217778793514384   F   F   F
  0.8974269408575921  0.7985151720945538  0.5795995879367126   F   F   F
  0.9997209903753941  0.0995838216063873  0.5935860904833845   F   F   F
  0.9994500624591822  0.0995909599663207  0.4109299903675137   F   F   F
  0.2005733948738353  0.0995112657154635  0.5936071275595296   F   F   F
  0.2009222861681437  0.0995167713157556  0.4109704116504957   F   F   F
  0.4007928027763370  0.0986663066205011  0.5940090719533444   F   F   F
  0.4011728447078440  0.0997169518726011  0.4113775274122276   F   F   F
  0.6000623672675758  0.0977672683476527  0.5943583766705345   F   F   F
  0.6000281979662887  0.1003847733998526  0.4117159210214112   F   F   F
  0.7994761076778332  0.0987078451369570  0.5940323580324147   F   F   F
  0.7990704882901554  0.0997234093714070  0.4113695906462880   F   F   F
  0.9997013009715658  0.3005474805124422  0.5935946809777377   F   F   F
  0.9994182371276921  0.3005297722043707  0.4109373723306433   F   F   F
  0.2005488834600513  0.3006143341807785  0.5935800272423961   F   F   F
  0.2009061305865742  0.3005903946159592  0.4109435926938190   F   F   F
  0.4007689482967791  0.3013998082684850  0.5939932232224407   F   F   F
  0.4011643990647542  0.3003396423858575  0.4113622060083628   F   F   F
  0.6000559128623593  0.3022554780764111  0.5943567138428421   F   F   F
  0.6000249586490511  0.2996463286272544  0.4117141292097841   F   F   F
  0.7994802053037517  0.3013604548115723  0.5940368208768945   F   F   F
  0.7990632176467827  0.3003501040562568  0.4113727191186456   F   F   F
  0.9991818608154759  0.5007960474360189  0.5935484831322455   F   F   F
  0.9999137086278296  0.5004890291530018  0.4108401827075951   F   F   F
  0.2010834533619956  0.5009368229399129  0.5934835648914856   F   F   F
  0.2003977213351646  0.5005854817279314  0.4108423254107478   F   F   F
  0.4030223967525330  0.5042504580694853  0.5918699566370123   F   F   F
  0.4011647595285197  0.5006278581688122  0.4093618804682251   F   F   F
  0.6000127795702284  0.5076520838572947  0.5898492509225832   F   F   F
  0.5998022755186483  0.4984675625748665  0.4076005675617935   F   F   F
  0.7972191352277846  0.5041206713111990  0.5922621086488817   F   F   F
  0.7995341388214428  0.5002456464406535  0.4096280504861340   F   F   F
  0.9985078639313230  0.7000500102819629  0.5934915740811775   F   F   F
  0.0011223284854296  0.7000509891690143  0.4107782165206544   F   F   F
  0.2017506532565747  0.7000405836240802  0.5932980791030218   F   F   F
  0.1990569632101966  0.7000477436762225  0.4106555316832612   F   F   F
  0.4012464005053076  0.7000375547022486  0.5865597282453052   F   F   F
  0.3992298059385249  0.7000398957796889  0.4045204780999470   F   F   F
  0.6004810550365249  0.7000175398027224  0.5664799422650475   F   F   F
  0.5994009009887762  0.7000148509279711  0.3869824629796028   F   F   F
  0.7980745477380395  0.7000314442316125  0.5880305271332489   F   F   F
  0.8021836554721844  0.7000289405304372  0.4057144929553615   F   F   F
  0.9991928137551866  0.8993111308349171  0.5935493140871273   F   F   F
  0.9999333733982922  0.8996286620955019  0.4108409438452654   F   F   F
  0.2010690321834900  0.8991523874922578  0.5935004971503943   F   F   F
  0.2003859283820049  0.8995217086412879  0.4108584498831718   F   F   F
  0.4030169759313011  0.8958159720787080  0.5918655045765888   F   F   F
  0.4011475984795112  0.8994431874337252  0.4093573660208207   F   F   F
  0.6000135069556691  0.8923842032792209  0.5898428156226316   F   F   F
  0.5997981790358011  0.9015690076378817  0.4075937014513258   F   F   F
  0.7972232827520855  0.8959392063626979  0.5922676016716295   F   F   F
  0.7995427603095848  0.8998188612805720  0.4096351916877552   F   F   F
  0.6530013142832232  0.7000027687839747  0.7256499685771587   T   T   T
  0.9996419971837724  0.0996402423437104  0.5023148613133444   F   F   F
  0.2006612322262313  0.0995940308080918  0.5023370599406860   F   F   F
  0.4010136065768890  0.0991621194467811  0.5027910586711215   F   F   F
  0.6000313502731771  0.0990711535628463  0.5031265744365143   F   F   F
  0.7993144128962157  0.0992051992572200  0.5027881426523138   F   F   F
  0.9995806803597986  0.3004715280145334  0.5022986456094856   F   F   F
  0.2006681235928127  0.3005529469791597  0.5023138435746901   F   F   F
  0.4009736458981550  0.3008602767762483  0.5027715758667171   F   F   F
  0.6000220104006857  0.3009286735575074  0.5031136074639733   F   F   F
  0.7993150646526175  0.3008666820013062  0.5027869578679045   F   F   F
  0.9995418263837195  0.5006526189299620  0.5022801604905140   F   F   F
  0.2007963897556948  0.5007952610110706  0.5022824625524436   F   F   F
  0.4027447130380395  0.5032112587220681  0.5008621601602243   F   F   F
  0.5997516122001727  0.5046919852561231  0.4987763115619828   F   F   F
  0.7977873818669963  0.5027992436492852  0.5011171790895190   F   F   F
  0.9998528749028708  0.7000480678888792  0.5021368720169406   F   F   F
  0.2004815300185498  0.7000352865989612  0.5019818651058827   F   F   F
  0.4026558228549959  0.7000303412776461  0.4959027391371293   F   F   F
  0.6006579685927491  0.7000305773729494  0.4804653369798046   F   F   F
  0.7980255127001499  0.7000628485611813  0.4969202184240302   F   F   F
  0.9995717192410041  0.8994970443649350  0.5022822381027652   F   F   F
  0.2007847240348397  0.8992916276734348  0.5022766395390335   F   F   F
  0.4027569744497157  0.8968524484009563  0.5008492574537797   F   F   F
  0.5997614844918999  0.8953559225606469  0.4987561887196179   F   F   F
  0.7978160647706360  0.8972862575218556  0.5011323838082191   F   F   F
  0.5422454281472326  0.7000156244764426  0.6704788022913633   T   T   T
  0.6440157120711802  0.7000098578961554  0.6721937274234886   T   T   T
 
  0.00000000E+00  0.00000000E+00  0.00000000E+00
  0.00000000E+00  0.00000000E+00  0.00000000E+00
  0.00000000E+00  0.00000000E+00  0.00000000E+00
  0.00000000E+00  0.00000000E+00  0.00000000E+00
  0.00000000E+00  0.00000000E+00  0.00000000E+00
  0.00000000E+00  0.00000000E+00  0.00000000E+00
  0.00000000E+00  0.00000000E+00  0.00000000E+00
  0.00000000E+00  0.00000000E+00  0.00000000E+00
  0.00000000E+00  0.00000000E+00  0.00000000E+00
  0.00000000E+00  0.00000000E+00  0.00000000E+00
  0.00000000E+00  0.00000000E+00  0.00000000E+00
  0.00000000E+00  0.00000000E+00  0.00000000E+00
  0.00000000E+00  0.00000000E+00  0.00000000E+00
  0.00000000E+00  0.00000000E+00  0.00000000E+00
  0.00000000E+00  0.00000000E+00  0.00000000E+00
  0.00000000E+00  0.00000000E+00  0.00000000E+00
  0.00000000E+00  0.00000000E+00  0.00000000E+00
  0.00000000E+00  0.00000000E+00  0.00000000E+00
  0.00000000E+00  0.00000000E+00  0.00000000E+00
  0.00000000E+00  0.00000000E+00  0.00000000E+00
  0.00000000E+00  0.00000000E+00  0.00000000E+00
  0.00000000E+00  0.00000000E+00  0.00000000E+00
  0.00000000E+00  0.00000000E+00  0.00000000E+00
  0.00000000E+00  0.00000000E+00  0.00000000E+00
  0.00000000E+00  0.00000000E+00  0.00000000E+00
  0.00000000E+00  0.00000000E+00  0.00000000E+00
  0.00000000E+00  0.00000000E+00  0.00000000E+00
  0.00000000E+00  0.00000000E+00  0.00000000E+00
  0.00000000E+00  0.00000000E+00  0.00000000E+00
  0.00000000E+00  0.00000000E+00  0.00000000E+00
  0.00000000E+00  0.00000000E+00  0.00000000E+00
  0.00000000E+00  0.00000000E+00  0.00000000E+00
  0.00000000E+00  0.00000000E+00  0.00000000E+00
  0.00000000E+00  0.00000000E+00  0.00000000E+00
  0.00000000E+00  0.00000000E+00  0.00000000E+00
  0.00000000E+00  0.00000000E+00  0.00000000E+00
  0.00000000E+00  0.00000000E+00  0.00000000E+00
  0.00000000E+00  0.00000000E+00  0.00000000E+00
  0.00000000E+00  0.00000000E+00  0.00000000E+00
  0.00000000E+00  0.00000000E+00  0.00000000E+00
  0.00000000E+00  0.00000000E+00  0.00000000E+00
  0.00000000E+00  0.00000000E+00  0.00000000E+00
  0.00000000E+00  0.00000000E+00  0.00000000E+00
  0.00000000E+00  0.00000000E+00  0.00000000E+00
  0.00000000E+00  0.00000000E+00  0.00000000E+00
  0.00000000E+00  0.00000000E+00  0.00000000E+00
  0.00000000E+00  0.00000000E+00  0.00000000E+00
  0.00000000E+00  0.00000000E+00  0.00000000E+00
  0.00000000E+00  0.00000000E+00  0.00000000E+00
  0.00000000E+00  0.00000000E+00  0.00000000E+00
  0.00000000E+00  0.00000000E+00  0.00000000E+00
  0.00000000E+00  0.00000000E+00  0.00000000E+00
  0.00000000E+00  0.00000000E+00  0.00000000E+00
  0.00000000E+00  0.00000000E+00  0.00000000E+00
  0.00000000E+00  0.00000000E+00  0.00000000E+00
  0.00000000E+00  0.00000000E+00  0.00000000E+00
  0.00000000E+00  0.00000000E+00  0.00000000E+00
  0.00000000E+00  0.00000000E+00  0.00000000E+00
  0.00000000E+00  0.00000000E+00  0.00000000E+00
  0.00000000E+00  0.00000000E+00  0.00000000E+00
  0.00000000E+00  0.00000000E+00  0.00000000E+00
  0.00000000E+00  0.00000000E+00  0.00000000E+00
  0.00000000E+00  0.00000000E+00  0.00000000E+00
  0.00000000E+00  0.00000000E+00  0.00000000E+00
  0.00000000E+00  0.00000000E+00  0.00000000E+00
  0.00000000E+00  0.00000000E+00  0.00000000E+00
  0.00000000E+00  0.00000000E+00  0.00000000E+00
  0.00000000E+00  0.00000000E+00  0.00000000E+00
  0.00000000E+00  0.00000000E+00  0.00000000E+00
  0.00000000E+00  0.00000000E+00  0.00000000E+00
  0.00000000E+00  0.00000000E+00  0.00000000E+00
  0.00000000E+00  0.00000000E+00  0.00000000E+00
  0.00000000E+00  0.00000000E+00  0.00000000E+00
  0.00000000E+00  0.00000000E+00  0.00000000E+00
  0.00000000E+00  0.00000000E+00  0.00000000E+00
  0.00000000E+00  0.00000000E+00  0.00000000E+00
  0.00000000E+00  0.00000000E+00  0.00000000E+00
  0.00000000E+00  0.00000000E+00  0.00000000E+00
  0.00000000E+00  0.00000000E+00  0.00000000E+00
  0.00000000E+00  0.00000000E+00  0.00000000E+00
  0.00000000E+00  0.00000000E+00  0.00000000E+00
  0.00000000E+00  0.00000000E+00  0.00000000E+00
  0.00000000E+00  0.00000000E+00  0.00000000E+00
  0.00000000E+00  0.00000000E+00  0.00000000E+00
  0.00000000E+00  0.00000000E+00  0.00000000E+00
  0.00000000E+00  0.00000000E+00  0.00000000E+00
  0.00000000E+00  0.00000000E+00  0.00000000E+00
  0.00000000E+00  0.00000000E+00  0.00000000E+00
  0.00000000E+00  0.00000000E+00  0.00000000E+00
  0.00000000E+00  0.00000000E+00  0.00000000E+00
  0.00000000E+00  0.00000000E+00  0.00000000E+00
  0.00000000E+00  0.00000000E+00  0.00000000E+00
  0.00000000E+00  0.00000000E+00  0.00000000E+00
  0.00000000E+00  0.00000000E+00  0.00000000E+00
  0.00000000E+00  0.00000000E+00  0.00000000E+00
  0.00000000E+00  0.00000000E+00  0.00000000E+00
  0.00000000E+00  0.00000000E+00  0.00000000E+00
  0.00000000E+00  0.00000000E+00  0.00000000E+00
  0.00000000E+00  0.00000000E+00  0.00000000E+00
  0.00000000E+00  0.00000000E+00  0.00000000E+00
  0.00000000E+00  0.00000000E+00  0.00000000E+00
  0.00000000E+00  0.00000000E+00  0.00000000E+00
  0.00000000E+00  0.00000000E+00  0.00000000E+00
  0.00000000E+00  0.00000000E+00  0.00000000E+00
  0.00000000E+00  0.00000000E+00  0.00000000E+00
  0.00000000E+00  0.00000000E+00  0.00000000E+00
  0.00000000E+00  0.00000000E+00  0.00000000E+00
  0.00000000E+00  0.00000000E+00  0.00000000E+00
  0.00000000E+00  0.00000000E+00  0.00000000E+00
  0.00000000E+00  0.00000000E+00  0.00000000E+00
  0.00000000E+00  0.00000000E+00  0.00000000E+00
  0.00000000E+00  0.00000000E+00  0.00000000E+00
  0.00000000E+00  0.00000000E+00  0.00000000E+00
  0.00000000E+00  0.00000000E+00  0.00000000E+00
  0.00000000E+00  0.00000000E+00  0.00000000E+00
  0.00000000E+00  0.00000000E+00  0.00000000E+00
  0.00000000E+00  0.00000000E+00  0.00000000E+00
  0.00000000E+00  0.00000000E+00  0.00000000E+00
  0.00000000E+00  0.00000000E+00  0.00000000E+00
  0.00000000E+00  0.00000000E+00  0.00000000E+00
  0.00000000E+00  0.00000000E+00  0.00000000E+00
  0.00000000E+00  0.00000000E+00  0.00000000E+00
  0.00000000E+00  0.00000000E+00  0.00000000E+00
  0.00000000E+00  0.00000000E+00  0.00000000E+00
  0.00000000E+00  0.00000000E+00  0.00000000E+00
  0.00000000E+00  0.00000000E+00  0.00000000E+00
  0.00000000E+00  0.00000000E+00  0.00000000E+00
  0.00000000E+00  0.00000000E+00  0.00000000E+00
