 Cr4 P4 O20                             
   1.00000000000000     
     4.8328964371794134    0.0000000000000000    0.0000000000000000
    -0.1925872503220933    7.8857248294107922    0.0000000000000000
     0.0000000000000000    0.0000000000000000   25.2446567678719944
   Cr   P    O 
     4     4    20
Direct
  0.0667402093127336  0.6621546827145508  0.3425792103622314
  0.7336692618257885  0.7472925944879449  0.5197425370030757
  0.2663239430399642  0.2527106448530390  0.4802586517073379
  0.9332719730314452  0.3378373816306706  0.6574209716596044
  0.2236630517712186  0.8774542447372156  0.4456124939104740
  0.7577090098414629  0.4377202894508301  0.4322427339053121
  0.2422985491789760  0.5622765299020145  0.5677556907918273
  0.7763349723921422  0.1225450350701891  0.5543858609308856
  0.2405406479427370  0.8000259537220842  0.3878372077140142
  0.9225086337961699  0.8738918363840469  0.4646343021199755
  0.9053361914314380  0.7657317115051612  0.2993829278643219
  0.4024749224191879  0.7680137488094587  0.4807684739655969
  0.6598577722824785  0.9412001365851026  0.5599568704294953
  0.8236669092794315  0.5432618312252160  0.3803547627028578
  0.2836872552920582  0.5464183721137630  0.3142404308597904
  0.5452723570993641  0.6180158658848356  0.5740434741200957
  0.7948193381986144  0.5561271862566812  0.4795859359504391
  0.9503758679280949  0.2878879796734140  0.4372523320585842
  0.0496171211741583  0.7121208555900793  0.5627455329569528
  0.2051799586752452  0.4438831090411384  0.5204175023132152
  0.4547264483106090  0.3819892511685055  0.4259554553910263
  0.7163178183129659  0.4535611489630469  0.6857666578476866
  0.1763158179895754  0.4567452433061092  0.6196470863239227
  0.3401403461737260  0.0588000125127195  0.4400426902761936
  0.5975277073643355  0.2319868649323311  0.5192304499948435
  0.0946862262986627  0.2342536038421557  0.7006122262530923
  0.0774833273687108  0.1261081970065661  0.5353654293942895
  0.7594543622686984  0.1999856886311235  0.6121621011928440
 
  0.00000000E+00  0.00000000E+00  0.00000000E+00
  0.00000000E+00  0.00000000E+00  0.00000000E+00
  0.00000000E+00  0.00000000E+00  0.00000000E+00
  0.00000000E+00  0.00000000E+00  0.00000000E+00
  0.00000000E+00  0.00000000E+00  0.00000000E+00
  0.00000000E+00  0.00000000E+00  0.00000000E+00
  0.00000000E+00  0.00000000E+00  0.00000000E+00
  0.00000000E+00  0.00000000E+00  0.00000000E+00
  0.00000000E+00  0.00000000E+00  0.00000000E+00
  0.00000000E+00  0.00000000E+00  0.00000000E+00
  0.00000000E+00  0.00000000E+00  0.00000000E+00
  0.00000000E+00  0.00000000E+00  0.00000000E+00
  0.00000000E+00  0.00000000E+00  0.00000000E+00
  0.00000000E+00  0.00000000E+00  0.00000000E+00
  0.00000000E+00  0.00000000E+00  0.00000000E+00
  0.00000000E+00  0.00000000E+00  0.00000000E+00
  0.00000000E+00  0.00000000E+00  0.00000000E+00
  0.00000000E+00  0.00000000E+00  0.00000000E+00
  0.00000000E+00  0.00000000E+00  0.00000000E+00
  0.00000000E+00  0.00000000E+00  0.00000000E+00
  0.00000000E+00  0.00000000E+00  0.00000000E+00
  0.00000000E+00  0.00000000E+00  0.00000000E+00
  0.00000000E+00  0.00000000E+00  0.00000000E+00
  0.00000000E+00  0.00000000E+00  0.00000000E+00
  0.00000000E+00  0.00000000E+00  0.00000000E+00
  0.00000000E+00  0.00000000E+00  0.00000000E+00
  0.00000000E+00  0.00000000E+00  0.00000000E+00
  0.00000000E+00  0.00000000E+00  0.00000000E+00
