SYSTEM =gra_geo_opt
PREC=Normal
ENCUT = 400
ISTART = 1
ICHARG = 2
EDIFF = 1E-05
LREAL = Auto
EDIFFG = -1E-08
#NSW =1000
IBRION =-1
ADDGRID= .TRUE.  
ISIF = 2
ISMEAR = 0
#MAGMOM = 71*2 4
SIGMA =0.2
#SYMPREC=1E-04
GGA = PE
ALGO=Normal
#ISPIN = 2
#NCORE=4
NELM=150
#LWAVE=.FALSE.
#LCHARG=.FALSE.
LAECHG=.TRUE.
IVDW=11
LORBIT =  11           (PAW radii for projected DOS)
NEDOS  =  2001         (DOSCAR points)
