CONTCAR\(9)                             
   1.00000000000000     
    13.8964004516999999    0.0000000000000000    0.0000000000000000
     0.0991868080000000   15.6682861384999992    0.0000000000000000
     0.0000000000000000    0.0000000000000000   19.4270992279000012
   Ta   Ni   Se   O 
    16     8    40     1
Selective dynamics
Direct
  0.0624146358881319  0.1087531899025365  0.4777367065236078   F   F   F
  0.0602600929842083  0.3918045284657694  0.4836328622733888   F   F   F
  0.1849911121768670  0.8934884995181491  0.5182166586007355   F   F   F
  0.1903901143572497  0.6118104332271983  0.5273255948338686   F   F   F
  0.3125955866636048  0.1059891114713238  0.4758398145063865   F   F   F
  0.3083662590109597  0.3833562904127845  0.4798659125035911   F   F   F
  0.4367309109955073  0.8923013741942469  0.5193449024430805   F   F   F
  0.4391283581435772  0.6203311365920570  0.5456477113943023   F   F   F
  0.5640297311517486  0.1061483543735520  0.4749461322675828   F   F   F
  0.5636070660511976  0.3823325774474782  0.4783927226621003   F   F   F
  0.6886373866554649  0.8937780717017745  0.5179216649787648   F   F   F
  0.6880074809344094  0.6124385262106529  0.5272166681446819   F   F   F
  0.8141720944550030  0.1086047171956679  0.4774573630248611   F   F   F
  0.8112168661535222  0.3920108251909014  0.4834731549625673   F   F   F
  0.9370882453940581  0.8915002007954342  0.5191494902088678   F   F   F
  0.9393544604778938  0.6096078959219113  0.5205150377163648   F   F   F
  0.1851494324169209  0.2489887317808552  0.4655874344996604   F   F   F
  0.0611692566430406  0.7515409488224876  0.5347633262027784   F   F   F
  0.4367779682636055  0.2473026688724360  0.4669584703901464   F   F   F
  0.3091291303757941  0.7569176879670465  0.5367322392511511   F   F   F
  0.6895967365394569  0.2488794819336917  0.4646106691389278   F   F   F
  0.5664285903603883  0.7573139865957188  0.5366258965217767   F   F   F
  0.9373295993994475  0.2515245576559693  0.4660072016042847   F   F   F
  0.8142667400797450  0.7517573400769848  0.5344285536956548   F   F   F
  0.1853056730018636  0.1402172686433047  0.3828153347461907   F   F   F
  0.1847661988915092  0.3624879390369173  0.3863870465362211   F   F   F
  0.0633026609517842  0.8638554307890089  0.6140171058210484   F   F   F
  0.0575359918422080  0.6418250291179106  0.6173071204012999   F   F   F
  0.0621770059471203  0.9496155430743798  0.4273325136419501   F   F   F
  0.0654015520867617  0.5513832147272524  0.4339873808136900   F   F   F
  0.1866689708406994  0.0513267059206584  0.5680645208105730   F   F   F
  0.1904740862421761  0.4484701064925929  0.5731286075998838   F   F   F
  0.0616765115008491  0.2484694232560543  0.5500551960830862   F   F   F
  0.1876114068667150  0.7482060740289143  0.4519263048881683   F   F   F
  0.4366009565433515  0.1399199112793212  0.3826633417927923   F   F   F
  0.4376036868630564  0.3590546052333963  0.3857135102734688   F   F   F
  0.3124532204260859  0.8705112534677752  0.6140402972764676   F   F   F
  0.2983312207297857  0.6583397136414035  0.6266493933311068   F   F   F
  0.3126919884535013  0.9479071664116532  0.4269236362763493   F   F   F
  0.3202317005121245  0.5478259610729808  0.4476784213178604   F   F   F
  0.4375264548886406  0.0521682535373884  0.5666194897579260   F   F   F
  0.4395500532557435  0.4027155930097450  0.5793742856823911   F   F   F
  0.3084753894469259  0.2435106658628641  0.5503686514749333   F   F   F
  0.4376960708277053  0.7473821131994427  0.4555372850148842   F   F   F
  0.6888329343295396  0.1397916882157872  0.3820842176239125   F   F   F
  0.6921607340560314  0.3626941204281096  0.3856576495532877   F   F   F
  0.5642923662641763  0.8712021540440418  0.6137321510264044   F   F   F
  0.5739131619409648  0.6593271493680888  0.6272203787560429   F   F   F
  0.5632401576385604  0.9479649998397619  0.4266711698814234   F   F   F
  0.5511640649754952  0.5479194220560331  0.4498880211795893   F   F   F
  0.6877230835213410  0.0516031674411934  0.5676723532714334   F   F   F
  0.6861057734041935  0.4489156714279474  0.5723864886211061   F   F   F
  0.5665820076206955  0.2433531348862488  0.5499138937490287   F   F   F
  0.6877377957371564  0.7484234930094189  0.4516333269967205   F   F   F
  0.9371862715383301  0.1423361122241502  0.3834586459575320   F   F   F
  0.9383449492817562  0.3654072092431946  0.3881495313599359   F   F   F
  0.8135427442457512  0.8640593370067577  0.6136964379670218   F   F   F
  0.8152555633218626  0.6420923772944960  0.6173568897203410   F   F   F
  0.8143627990184328  0.9495609773575708  0.4273339658097512   F   F   F
  0.8074119471196397  0.5516756738614106  0.4341930116742034   F   F   F
  0.9371975743033047  0.0509512886438586  0.5684807031018408   F   F   F
  0.9380468448612902  0.4507380328002597  0.5734353650523474   F   F   F
  0.8125801150021914  0.2484308626919898  0.5495113407751262   F   F   F
  0.9379170035829176  0.7497186637775570  0.4497945851819765   F   F   F
  0.4371737635459069  0.5150522252524964  0.5958812735208033   T   T   T
 
  0.00000000E+00  0.00000000E+00  0.00000000E+00
  0.00000000E+00  0.00000000E+00  0.00000000E+00
  0.00000000E+00  0.00000000E+00  0.00000000E+00
  0.00000000E+00  0.00000000E+00  0.00000000E+00
  0.00000000E+00  0.00000000E+00  0.00000000E+00
  0.00000000E+00  0.00000000E+00  0.00000000E+00
  0.00000000E+00  0.00000000E+00  0.00000000E+00
  0.00000000E+00  0.00000000E+00  0.00000000E+00
  0.00000000E+00  0.00000000E+00  0.00000000E+00
  0.00000000E+00  0.00000000E+00  0.00000000E+00
  0.00000000E+00  0.00000000E+00  0.00000000E+00
  0.00000000E+00  0.00000000E+00  0.00000000E+00
  0.00000000E+00  0.00000000E+00  0.00000000E+00
  0.00000000E+00  0.00000000E+00  0.00000000E+00
  0.00000000E+00  0.00000000E+00  0.00000000E+00
  0.00000000E+00  0.00000000E+00  0.00000000E+00
  0.00000000E+00  0.00000000E+00  0.00000000E+00
  0.00000000E+00  0.00000000E+00  0.00000000E+00
  0.00000000E+00  0.00000000E+00  0.00000000E+00
  0.00000000E+00  0.00000000E+00  0.00000000E+00
  0.00000000E+00  0.00000000E+00  0.00000000E+00
  0.00000000E+00  0.00000000E+00  0.00000000E+00
  0.00000000E+00  0.00000000E+00  0.00000000E+00
  0.00000000E+00  0.00000000E+00  0.00000000E+00
  0.00000000E+00  0.00000000E+00  0.00000000E+00
  0.00000000E+00  0.00000000E+00  0.00000000E+00
  0.00000000E+00  0.00000000E+00  0.00000000E+00
  0.00000000E+00  0.00000000E+00  0.00000000E+00
  0.00000000E+00  0.00000000E+00  0.00000000E+00
  0.00000000E+00  0.00000000E+00  0.00000000E+00
  0.00000000E+00  0.00000000E+00  0.00000000E+00
  0.00000000E+00  0.00000000E+00  0.00000000E+00
  0.00000000E+00  0.00000000E+00  0.00000000E+00
  0.00000000E+00  0.00000000E+00  0.00000000E+00
  0.00000000E+00  0.00000000E+00  0.00000000E+00
  0.00000000E+00  0.00000000E+00  0.00000000E+00
  0.00000000E+00  0.00000000E+00  0.00000000E+00
  0.00000000E+00  0.00000000E+00  0.00000000E+00
  0.00000000E+00  0.00000000E+00  0.00000000E+00
  0.00000000E+00  0.00000000E+00  0.00000000E+00
  0.00000000E+00  0.00000000E+00  0.00000000E+00
  0.00000000E+00  0.00000000E+00  0.00000000E+00
  0.00000000E+00  0.00000000E+00  0.00000000E+00
  0.00000000E+00  0.00000000E+00  0.00000000E+00
  0.00000000E+00  0.00000000E+00  0.00000000E+00
  0.00000000E+00  0.00000000E+00  0.00000000E+00
  0.00000000E+00  0.00000000E+00  0.00000000E+00
  0.00000000E+00  0.00000000E+00  0.00000000E+00
  0.00000000E+00  0.00000000E+00  0.00000000E+00
  0.00000000E+00  0.00000000E+00  0.00000000E+00
  0.00000000E+00  0.00000000E+00  0.00000000E+00
  0.00000000E+00  0.00000000E+00  0.00000000E+00
  0.00000000E+00  0.00000000E+00  0.00000000E+00
  0.00000000E+00  0.00000000E+00  0.00000000E+00
  0.00000000E+00  0.00000000E+00  0.00000000E+00
  0.00000000E+00  0.00000000E+00  0.00000000E+00
  0.00000000E+00  0.00000000E+00  0.00000000E+00
  0.00000000E+00  0.00000000E+00  0.00000000E+00
  0.00000000E+00  0.00000000E+00  0.00000000E+00
  0.00000000E+00  0.00000000E+00  0.00000000E+00
  0.00000000E+00  0.00000000E+00  0.00000000E+00
  0.00000000E+00  0.00000000E+00  0.00000000E+00
  0.00000000E+00  0.00000000E+00  0.00000000E+00
  0.00000000E+00  0.00000000E+00  0.00000000E+00
  0.00000000E+00  0.00000000E+00  0.00000000E+00
