CONTCAR                                 
   1.00000000000000     
    11.6593999863000004    0.0000000000000000    0.0000000000000000
    -5.8296999931000002   10.0973365810000004    0.0000000000000000
     0.0000000000000000    0.0000000000000000   24.5373001098999985
   Zn   In   S    O    H 
     9    18    36     2     1
Direct
  0.1088566181271702  0.2180752653083786  0.3248526112371408
  0.4403367555672517  0.2137600277551428  0.3226529728415031
  0.7733377235687371  0.2146725563684555  0.3236893316214093
  0.1116310382806489  0.5518364159738951  0.3236553370752233
  0.4399766963317617  0.5517124757258927  0.3225062505158007
  0.7738640503110403  0.5484794169040228  0.3033094952560589
  0.1133113159025285  0.8865629452783281  0.3249605419984078
  0.4416113781891227  0.8834209257586778  0.3214225242272093
  0.7727997894489249  0.8868287800588845  0.3253599592041994
  0.9976537085336901  0.9954244615411056  0.4834609150646259
  0.2213735118766564  0.1100371918357723  0.6473735023562810
  0.3314257298343151  0.9951016681605225  0.4835827127398105
  0.5549748489482127  0.1099980466756207  0.6474129027583686
  0.6636128710521731  0.9950880812258731  0.4836451643279318
  0.8883489914910783  0.1099770707120342  0.6473755368441019
  0.9976892073705557  0.3289868399331084  0.4833297318063714
  0.2215671638086860  0.4432729476752186  0.6473922957155338
  0.3316945731600995  0.3288473030491161  0.4833127952027212
  0.5546082998224762  0.4430816639897657  0.6475365261411028
  0.6651207418196421  0.3301799729482511  0.4827907159003217
  0.8884816310497712  0.4431008932251927  0.6474954715559988
  0.9960038331169656  0.6611414971141727  0.4831407769841292
  0.2213296649940517  0.7769928103955195  0.6472702183053656
  0.3315554823664044  0.6624809866428834  0.4836219936425294
  0.5548006212670629  0.7769598529902808  0.6472491309820896
  0.6650144557374702  0.6599635622538926  0.4827269849005447
  0.8881155852293219  0.7770042605738965  0.6474183077395281
  0.2191880761947260  0.1068433376777378  0.3061796732761835
  0.2199670760812751  0.1073514369585098  0.5489608646112245
  0.1090146972710357  0.2177985406631819  0.4331613240251500
  0.1103952785600342  0.2210360148552368  0.6943366626700893
  0.5528381488726026  0.1055450861044207  0.3049246229256113
  0.5540798671221410  0.1080153892910616  0.5490796725535034
  0.4414166537754909  0.2158671083760666  0.4335279423659557
  0.4434174982830896  0.2207257875012161  0.6942904577244988
  0.8870276549424716  0.1071059000777694  0.3068702555506917
  0.8872758576849549  0.1075058670225815  0.5489190973800149
  0.7747978484653970  0.2161414820560452  0.4335459416880170
  0.7771567642511457  0.2208276655645136  0.6943154824552451
  0.2191914991204698  0.4389268812725859  0.3052217963198700
  0.2202030739936234  0.4401380843915703  0.5490633047829121
  0.1099313791240704  0.5516500786517042  0.4335574796748389
  0.1108222007794524  0.5548592193782866  0.6942205698186967
  0.5521813467247583  0.4387800841542173  0.3199768835945633
  0.5529859209071333  0.4396292830053667  0.5492232723515116
  0.4415238135926387  0.5513976388451027  0.4335110639409905
  0.4438222658900699  0.5547425134071915  0.6941895767634634
  0.8869484477682263  0.4391499050316341  0.3171565044716473
  0.8874461078233367  0.4402332765095380  0.5492468718674317
  0.7761605712752910  0.5509984002339081  0.4331211710127292
  0.7771050966340667  0.5543496084381445  0.6940652772692246
  0.2193384379062593  0.7726655299868668  0.3053491705326294
  0.2199017079899974  0.7740446036610749  0.5488419039786052
  0.1091210078319165  0.8845578497250060  0.4332536830147973
  0.1103348133357329  0.8878725043770288  0.6943121348863173
  0.5532205326009318  0.7727447947867816  0.3049896549607638
  0.5544841415318658  0.7738612985476294  0.5488616037325400
  0.4422004294218311  0.8842579628816480  0.4329015151367486
  0.4434415115102084  0.8875804488237691  0.6941634490689381
  0.8881668260723714  0.7771973965591812  0.3106406333734952
  0.8873753605914487  0.7748384476256120  0.5491121891113551
  0.7751749629546296  0.8842327315703216  0.4333752304869805
  0.7768567926081076  0.8878522603054222  0.6942789988562552
  0.7715309136599586  0.5625160749797828  0.2128801907397317
  0.8297317839358840  0.6878135346130207  0.1947832873731485
  0.8632178997055888  0.7445688970153412  0.2304957587094378
 
  0.00000000E+00  0.00000000E+00  0.00000000E+00
  0.00000000E+00  0.00000000E+00  0.00000000E+00
  0.00000000E+00  0.00000000E+00  0.00000000E+00
  0.00000000E+00  0.00000000E+00  0.00000000E+00
  0.00000000E+00  0.00000000E+00  0.00000000E+00
  0.00000000E+00  0.00000000E+00  0.00000000E+00
  0.00000000E+00  0.00000000E+00  0.00000000E+00
  0.00000000E+00  0.00000000E+00  0.00000000E+00
  0.00000000E+00  0.00000000E+00  0.00000000E+00
  0.00000000E+00  0.00000000E+00  0.00000000E+00
  0.00000000E+00  0.00000000E+00  0.00000000E+00
  0.00000000E+00  0.00000000E+00  0.00000000E+00
  0.00000000E+00  0.00000000E+00  0.00000000E+00
  0.00000000E+00  0.00000000E+00  0.00000000E+00
  0.00000000E+00  0.00000000E+00  0.00000000E+00
  0.00000000E+00  0.00000000E+00  0.00000000E+00
  0.00000000E+00  0.00000000E+00  0.00000000E+00
  0.00000000E+00  0.00000000E+00  0.00000000E+00
  0.00000000E+00  0.00000000E+00  0.00000000E+00
  0.00000000E+00  0.00000000E+00  0.00000000E+00
  0.00000000E+00  0.00000000E+00  0.00000000E+00
  0.00000000E+00  0.00000000E+00  0.00000000E+00
  0.00000000E+00  0.00000000E+00  0.00000000E+00
  0.00000000E+00  0.00000000E+00  0.00000000E+00
  0.00000000E+00  0.00000000E+00  0.00000000E+00
  0.00000000E+00  0.00000000E+00  0.00000000E+00
  0.00000000E+00  0.00000000E+00  0.00000000E+00
  0.00000000E+00  0.00000000E+00  0.00000000E+00
  0.00000000E+00  0.00000000E+00  0.00000000E+00
  0.00000000E+00  0.00000000E+00  0.00000000E+00
  0.00000000E+00  0.00000000E+00  0.00000000E+00
  0.00000000E+00  0.00000000E+00  0.00000000E+00
  0.00000000E+00  0.00000000E+00  0.00000000E+00
  0.00000000E+00  0.00000000E+00  0.00000000E+00
  0.00000000E+00  0.00000000E+00  0.00000000E+00
  0.00000000E+00  0.00000000E+00  0.00000000E+00
  0.00000000E+00  0.00000000E+00  0.00000000E+00
  0.00000000E+00  0.00000000E+00  0.00000000E+00
  0.00000000E+00  0.00000000E+00  0.00000000E+00
  0.00000000E+00  0.00000000E+00  0.00000000E+00
  0.00000000E+00  0.00000000E+00  0.00000000E+00
  0.00000000E+00  0.00000000E+00  0.00000000E+00
  0.00000000E+00  0.00000000E+00  0.00000000E+00
  0.00000000E+00  0.00000000E+00  0.00000000E+00
  0.00000000E+00  0.00000000E+00  0.00000000E+00
  0.00000000E+00  0.00000000E+00  0.00000000E+00
  0.00000000E+00  0.00000000E+00  0.00000000E+00
  0.00000000E+00  0.00000000E+00  0.00000000E+00
  0.00000000E+00  0.00000000E+00  0.00000000E+00
  0.00000000E+00  0.00000000E+00  0.00000000E+00
  0.00000000E+00  0.00000000E+00  0.00000000E+00
  0.00000000E+00  0.00000000E+00  0.00000000E+00
  0.00000000E+00  0.00000000E+00  0.00000000E+00
  0.00000000E+00  0.00000000E+00  0.00000000E+00
  0.00000000E+00  0.00000000E+00  0.00000000E+00
  0.00000000E+00  0.00000000E+00  0.00000000E+00
  0.00000000E+00  0.00000000E+00  0.00000000E+00
  0.00000000E+00  0.00000000E+00  0.00000000E+00
  0.00000000E+00  0.00000000E+00  0.00000000E+00
  0.00000000E+00  0.00000000E+00  0.00000000E+00
  0.00000000E+00  0.00000000E+00  0.00000000E+00
  0.00000000E+00  0.00000000E+00  0.00000000E+00
  0.00000000E+00  0.00000000E+00  0.00000000E+00
  0.00000000E+00  0.00000000E+00  0.00000000E+00
  0.00000000E+00  0.00000000E+00  0.00000000E+00
  0.00000000E+00  0.00000000E+00  0.00000000E+00
