CONTCAR                                 
   1.00000000000000     
    13.9573001861999995    0.0000000000000000    0.0000000000000000
     0.0000000000000000   20.3449993133999989    0.0000000000000000
     0.0000000000000000    0.0000000000000000   22.8059997559000003
   Nb   Cr   Se   O 
    16    16    80     1
Direct
  0.1866543512194951  0.2269664875136144  0.5830967413165169
  0.0574249702593335  0.2702819471671773  0.4117988644990902
  0.4377512229990970  0.2267941009673038  0.5831522646408516
  0.3123118383840335  0.2702676454156290  0.4124129814025324
  0.6876207273461077  0.2279638623263835  0.5834402985803280
  0.5669031343731632  0.2701016993735124  0.4118907374906158
  0.9366057745686547  0.2281231462857249  0.5833783499967140
  0.8121164285705973  0.2716959788599169  0.4129922532214536
  0.1836822984321245  0.7379560415577515  0.5906972299600426
  0.0623372855163069  0.7677549664976837  0.4172153600101964
  0.4419240715302308  0.7379288507265116  0.5907473927955635
  0.3127130708128547  0.7680423750092302  0.4184635216501604
  0.6900947452610779  0.7343027158237234  0.5893200747295282
  0.5630786355116228  0.7676781041912193  0.4172179893255645
  0.9355782905246741  0.7342323866179186  0.5893153863189013
  0.8127206206798832  0.7675531451030011  0.4163644156859334
  0.0615121383703396  0.0653993873579282  0.5235420705618026
  0.1768918692187000  0.4303102503474747  0.4708291232733828
  0.3118886351379473  0.0652039600618011  0.5236279489825151
  0.4483234293682870  0.4301928126435755  0.4708925057176216
  0.5635022302051382  0.0652957918355241  0.5236031670398376
  0.6828655159545747  0.4337679845615980  0.4741423554390849
  0.8120359529082677  0.0657792302952984  0.5238564027192751
  0.9418780031462219  0.4339478003040043  0.4740281680514755
  0.0636091431140073  0.5693618771928541  0.5366834531738220
  0.1868648515527127  0.9340713807531031  0.4690116910065072
  0.3129257648700872  0.5741340551505445  0.5475055084000289
  0.4385047425444881  0.9338885316231469  0.4690642689611479
  0.5618971303607552  0.5692759950974633  0.5369798932905852
  0.6881799336973415  0.9331878610231641  0.4692012113994792
  0.8124889797225947  0.5682504626662421  0.5337849715198288
  0.9372955825333165  0.9331423312826317  0.4692110247887413
  0.1848155961521911  0.3104585231190100  0.4898576776172447
  0.0641598764920275  0.4485651110523321  0.5538777611947552
  0.0605891575575512  0.1851818704973383  0.5045009350916914
  0.1859817268553030  0.1818339867073959  0.3706072729147394
  0.0626878373652318  0.3168310602259297  0.6252104722309042
  0.0620205469682773  0.2101546322321113  0.6689506478731460
  0.0580317803928239  0.4050280600625911  0.3942556287583372
  0.1863840040828535  0.2885885290855228  0.3273510217087932
  0.1864678670284121  0.0933561474499527  0.5985568527289189
  0.1868700008269002  0.0517419653600584  0.4449322936103002
  0.4395311372985589  0.3103493688407895  0.4900038042625354
  0.3125633992160317  0.4216624433493479  0.5427878779256403
  0.3122121824056165  0.1847957360883470  0.5044984451844101
  0.4383983736180994  0.1814432131300521  0.3708204745906940
  0.3123126239454237  0.3157184206583636  0.6233932192041465
  0.3120914871649987  0.2066472519200602  0.6686971602267633
  0.3126830294974212  0.4052302453113654  0.3993274279900092
  0.4380475587222037  0.2881358002661116  0.3272748881889953
  0.4377845267931804  0.0931302785527421  0.5983127545345184
  0.4376985388294514  0.0516289795295108  0.4453152217653837
  0.6868870046367377  0.3134453025390016  0.4916870950553687
  0.5609025646908847  0.4483887702077141  0.5540952748163051
  0.5636821736429667  0.1850348140416997  0.5045402155431091
  0.6892244711279574  0.1808390962081106  0.3703013293810500
  0.5617803419476246  0.3165634283052583  0.6254591837537404
  0.5621125826639286  0.2098026007580245  0.6690241659469010
  0.5668531982769380  0.4047852618356700  0.3942032287247130
  0.6889180350976005  0.2865507148627415  0.3252670709463175
  0.6876511209178915  0.0939958269435763  0.5992609448151356
  0.6878839252253215  0.0511103838370346  0.4449667500787555
  0.9373523638646262  0.3136022799848703  0.4915701113077304
  0.8124940823197377  0.4477777005387793  0.5502035955408786
  0.8121870646308054  0.1858638250920492  0.5047606081165767
  0.9350830721860532  0.1809372961903577  0.3702626111380027
  0.8120633580926579  0.3180334961392361  0.6247365570131009
  0.8120392489871264  0.2117438650540677  0.6696331617623770
  0.8123396630809552  0.4069091431729035  0.4001162567784391
  0.9352742917541974  0.2866172630569608  0.3252052688428009
  0.9369398541084450  0.0941370288032815  0.5989573102011576
  0.9365428512304419  0.0510374798204083  0.4451974057320953
  0.1864969188526118  0.8156077757784175  0.4935931200794954
  0.0621911516426934  0.9482215435779935  0.5472333947217010
  0.0635656783786942  0.6885993704256990  0.5134639999066550
  0.1880207392461344  0.6756900887782322  0.3814383366138827
  0.0585244157695968  0.8281395111748822  0.6276400475858566
  0.0605010673506712  0.7243395716775325  0.6769140622115941
  0.0623070627396842  0.9012383434313520  0.3952312404717020
  0.1884080459341249  0.7791073646818063  0.3313330363096298
  0.1803762309138150  0.6065424359490308  0.6149808877192129
  0.1913263124502222  0.5504533941833003  0.4617810338976867
  0.4391022687804380  0.8154843132626652  0.4936219994180462
  0.3127033421595939  0.9480221691793602  0.5468055587141905
  0.3127671292365761  0.6910960889073436  0.5158159014970991
  0.4372109633574723  0.6756106319449913  0.3813988007947131
  0.3128030025294279  0.8285748459886335  0.6274008234941704
  0.3128924338518217  0.7242026098721155  0.6755566216839739
  0.3126839322165793  0.9011157309544302  0.3957925811804159
  0.4368973858131895  0.7790343256459380  0.3313343026054199
  0.4450501552289126  0.6065841617708543  0.6152015802266320
  0.4345453075941847  0.5503864666445679  0.4617980391531802
  0.6886501498600666  0.8142024269757826  0.4932312998899917
  0.5631926143818831  0.9481106981150660  0.5472681462290652
  0.5620482740429580  0.6885061104536447  0.5135575719107237
  0.6873118280483226  0.6760789639253488  0.3789032853989838
  0.5670467941304196  0.8281582605867257  0.6276310709779267
  0.5653741943389718  0.7243204411514057  0.6769141602294511
  0.5631380821223075  0.9009750933705831  0.3953172271166210
  0.6874001347989207  0.7807121300974771  0.3302917414766782
  0.6899823000081398  0.6001092815103206  0.6097554107105836
  0.6850822166613284  0.5536936428009014  0.4573901778075395
  0.9368098897263337  0.8141801419798966  0.4932554944200689
  0.8127902190473932  0.9482846754181651  0.5474791604206359
  0.8128082631983560  0.6875156594356611  0.5119379544877205
  0.9379105978765168  0.6759769744083073  0.3789862782580187
  0.8129207642738194  0.8257597424877332  0.6283764640452745
  0.8128306055144421  0.7216024511947197  0.6765929390507779
  0.8127260990891898  0.9011502656740618  0.3951777542279373
  0.9382676114207129  0.7805916149498060  0.3303190876088564
  0.9356094435616242  0.6001194664866887  0.6096176557636497
  0.9398747133435705  0.5538049752543870  0.4573089621185105
  0.3127573931187442  0.4933260284309142  0.5881246785200673
 
  0.00000000E+00  0.00000000E+00  0.00000000E+00
  0.00000000E+00  0.00000000E+00  0.00000000E+00
  0.00000000E+00  0.00000000E+00  0.00000000E+00
  0.00000000E+00  0.00000000E+00  0.00000000E+00
  0.00000000E+00  0.00000000E+00  0.00000000E+00
  0.00000000E+00  0.00000000E+00  0.00000000E+00
  0.00000000E+00  0.00000000E+00  0.00000000E+00
  0.00000000E+00  0.00000000E+00  0.00000000E+00
  0.00000000E+00  0.00000000E+00  0.00000000E+00
  0.00000000E+00  0.00000000E+00  0.00000000E+00
  0.00000000E+00  0.00000000E+00  0.00000000E+00
  0.00000000E+00  0.00000000E+00  0.00000000E+00
  0.00000000E+00  0.00000000E+00  0.00000000E+00
  0.00000000E+00  0.00000000E+00  0.00000000E+00
  0.00000000E+00  0.00000000E+00  0.00000000E+00
  0.00000000E+00  0.00000000E+00  0.00000000E+00
  0.00000000E+00  0.00000000E+00  0.00000000E+00
  0.00000000E+00  0.00000000E+00  0.00000000E+00
  0.00000000E+00  0.00000000E+00  0.00000000E+00
  0.00000000E+00  0.00000000E+00  0.00000000E+00
  0.00000000E+00  0.00000000E+00  0.00000000E+00
  0.00000000E+00  0.00000000E+00  0.00000000E+00
  0.00000000E+00  0.00000000E+00  0.00000000E+00
  0.00000000E+00  0.00000000E+00  0.00000000E+00
  0.00000000E+00  0.00000000E+00  0.00000000E+00
  0.00000000E+00  0.00000000E+00  0.00000000E+00
  0.00000000E+00  0.00000000E+00  0.00000000E+00
  0.00000000E+00  0.00000000E+00  0.00000000E+00
  0.00000000E+00  0.00000000E+00  0.00000000E+00
  0.00000000E+00  0.00000000E+00  0.00000000E+00
  0.00000000E+00  0.00000000E+00  0.00000000E+00
  0.00000000E+00  0.00000000E+00  0.00000000E+00
  0.00000000E+00  0.00000000E+00  0.00000000E+00
  0.00000000E+00  0.00000000E+00  0.00000000E+00
  0.00000000E+00  0.00000000E+00  0.00000000E+00
  0.00000000E+00  0.00000000E+00  0.00000000E+00
  0.00000000E+00  0.00000000E+00  0.00000000E+00
  0.00000000E+00  0.00000000E+00  0.00000000E+00
  0.00000000E+00  0.00000000E+00  0.00000000E+00
  0.00000000E+00  0.00000000E+00  0.00000000E+00
  0.00000000E+00  0.00000000E+00  0.00000000E+00
  0.00000000E+00  0.00000000E+00  0.00000000E+00
  0.00000000E+00  0.00000000E+00  0.00000000E+00
  0.00000000E+00  0.00000000E+00  0.00000000E+00
  0.00000000E+00  0.00000000E+00  0.00000000E+00
  0.00000000E+00  0.00000000E+00  0.00000000E+00
  0.00000000E+00  0.00000000E+00  0.00000000E+00
  0.00000000E+00  0.00000000E+00  0.00000000E+00
  0.00000000E+00  0.00000000E+00  0.00000000E+00
  0.00000000E+00  0.00000000E+00  0.00000000E+00
  0.00000000E+00  0.00000000E+00  0.00000000E+00
  0.00000000E+00  0.00000000E+00  0.00000000E+00
  0.00000000E+00  0.00000000E+00  0.00000000E+00
  0.00000000E+00  0.00000000E+00  0.00000000E+00
  0.00000000E+00  0.00000000E+00  0.00000000E+00
  0.00000000E+00  0.00000000E+00  0.00000000E+00
  0.00000000E+00  0.00000000E+00  0.00000000E+00
  0.00000000E+00  0.00000000E+00  0.00000000E+00
  0.00000000E+00  0.00000000E+00  0.00000000E+00
  0.00000000E+00  0.00000000E+00  0.00000000E+00
  0.00000000E+00  0.00000000E+00  0.00000000E+00
  0.00000000E+00  0.00000000E+00  0.00000000E+00
  0.00000000E+00  0.00000000E+00  0.00000000E+00
  0.00000000E+00  0.00000000E+00  0.00000000E+00
  0.00000000E+00  0.00000000E+00  0.00000000E+00
  0.00000000E+00  0.00000000E+00  0.00000000E+00
  0.00000000E+00  0.00000000E+00  0.00000000E+00
  0.00000000E+00  0.00000000E+00  0.00000000E+00
  0.00000000E+00  0.00000000E+00  0.00000000E+00
  0.00000000E+00  0.00000000E+00  0.00000000E+00
  0.00000000E+00  0.00000000E+00  0.00000000E+00
  0.00000000E+00  0.00000000E+00  0.00000000E+00
  0.00000000E+00  0.00000000E+00  0.00000000E+00
  0.00000000E+00  0.00000000E+00  0.00000000E+00
  0.00000000E+00  0.00000000E+00  0.00000000E+00
  0.00000000E+00  0.00000000E+00  0.00000000E+00
  0.00000000E+00  0.00000000E+00  0.00000000E+00
  0.00000000E+00  0.00000000E+00  0.00000000E+00
  0.00000000E+00  0.00000000E+00  0.00000000E+00
  0.00000000E+00  0.00000000E+00  0.00000000E+00
  0.00000000E+00  0.00000000E+00  0.00000000E+00
  0.00000000E+00  0.00000000E+00  0.00000000E+00
  0.00000000E+00  0.00000000E+00  0.00000000E+00
  0.00000000E+00  0.00000000E+00  0.00000000E+00
  0.00000000E+00  0.00000000E+00  0.00000000E+00
  0.00000000E+00  0.00000000E+00  0.00000000E+00
  0.00000000E+00  0.00000000E+00  0.00000000E+00
  0.00000000E+00  0.00000000E+00  0.00000000E+00
  0.00000000E+00  0.00000000E+00  0.00000000E+00
  0.00000000E+00  0.00000000E+00  0.00000000E+00
  0.00000000E+00  0.00000000E+00  0.00000000E+00
  0.00000000E+00  0.00000000E+00  0.00000000E+00
  0.00000000E+00  0.00000000E+00  0.00000000E+00
  0.00000000E+00  0.00000000E+00  0.00000000E+00
  0.00000000E+00  0.00000000E+00  0.00000000E+00
  0.00000000E+00  0.00000000E+00  0.00000000E+00
  0.00000000E+00  0.00000000E+00  0.00000000E+00
  0.00000000E+00  0.00000000E+00  0.00000000E+00
  0.00000000E+00  0.00000000E+00  0.00000000E+00
  0.00000000E+00  0.00000000E+00  0.00000000E+00
  0.00000000E+00  0.00000000E+00  0.00000000E+00
  0.00000000E+00  0.00000000E+00  0.00000000E+00
  0.00000000E+00  0.00000000E+00  0.00000000E+00
  0.00000000E+00  0.00000000E+00  0.00000000E+00
  0.00000000E+00  0.00000000E+00  0.00000000E+00
  0.00000000E+00  0.00000000E+00  0.00000000E+00
  0.00000000E+00  0.00000000E+00  0.00000000E+00
  0.00000000E+00  0.00000000E+00  0.00000000E+00
  0.00000000E+00  0.00000000E+00  0.00000000E+00
  0.00000000E+00  0.00000000E+00  0.00000000E+00
  0.00000000E+00  0.00000000E+00  0.00000000E+00
  0.00000000E+00  0.00000000E+00  0.00000000E+00
  0.00000000E+00  0.00000000E+00  0.00000000E+00
