Repeated-UnitCell:     3    3    1      
   1.00000000000000     
    10.3819953354643388    0.0000000000000000    0.0000000000000000
    -5.1909961731573349    8.9910703352747987    0.0000000000000000
     0.0000000000000000    0.0000000000000000   18.3542601784720034
   Ta   Se
     9    18
Direct
  0.9999999190221089  0.0000000739699644  0.4999999999731486
  0.3333332523554446  0.0000000739699644  0.4999999999731486
  0.6666665856887803  0.0000000739699644  0.4999999999731486
  0.9999999190221089  0.3333334073033001  0.4999999999731486
  0.3333332523554446  0.3333334073033001  0.4999999999731486
  0.6666665856887803  0.3333334073033001  0.4999999999731486
  0.9999999190221089  0.6666667406366287  0.4999999999731486
  0.3333332523554446  0.6666667406366287  0.4999999999731486
  0.6666665856887803  0.6666667406366287  0.4999999999731486
  0.1111110404934905  0.2222222964009219  0.4085321899183398
  0.4444443738268262  0.2222222964009219  0.4085321899183398
  0.7777777071601548  0.2222222964009219  0.4085321899183398
  0.1111110404934905  0.5555556297342576  0.4085321899183398
  0.4444443738268262  0.5555556297342576  0.4085321899183398
  0.7777777071601548  0.5555556297342576  0.4085321899183398
  0.1111110404934905  0.8888889630675934  0.4085321899183398
  0.4444443738268262  0.8888889630675934  0.4085321899183398
  0.7777777071601548  0.8888889630675934  0.4085321899183398
  0.1111110404844027  0.2222222962957758  0.5914678101085187
  0.4444443738177313  0.2222222962957758  0.5914678101085187
  0.7777777071510670  0.2222222962957758  0.5914678101085187
  0.1111110404844027  0.5555556296291115  0.5914678101085187
  0.4444443738177313  0.5555556296291115  0.5914678101085187
  0.7777777071510670  0.5555556296291115  0.5914678101085187
  0.1111110404844027  0.8888889629624401  0.5914678101085187
  0.4444443738177313  0.8888889629624401  0.5914678101085187
  0.7777777071510670  0.8888889629624401  0.5914678101085187
 
  0.00000000E+00  0.00000000E+00  0.00000000E+00
  0.00000000E+00  0.00000000E+00  0.00000000E+00
  0.00000000E+00  0.00000000E+00  0.00000000E+00
  0.00000000E+00  0.00000000E+00  0.00000000E+00
  0.00000000E+00  0.00000000E+00  0.00000000E+00
  0.00000000E+00  0.00000000E+00  0.00000000E+00
  0.00000000E+00  0.00000000E+00  0.00000000E+00
  0.00000000E+00  0.00000000E+00  0.00000000E+00
  0.00000000E+00  0.00000000E+00  0.00000000E+00
  0.00000000E+00  0.00000000E+00  0.00000000E+00
  0.00000000E+00  0.00000000E+00  0.00000000E+00
  0.00000000E+00  0.00000000E+00  0.00000000E+00
  0.00000000E+00  0.00000000E+00  0.00000000E+00
  0.00000000E+00  0.00000000E+00  0.00000000E+00
  0.00000000E+00  0.00000000E+00  0.00000000E+00
  0.00000000E+00  0.00000000E+00  0.00000000E+00
  0.00000000E+00  0.00000000E+00  0.00000000E+00
  0.00000000E+00  0.00000000E+00  0.00000000E+00
  0.00000000E+00  0.00000000E+00  0.00000000E+00
  0.00000000E+00  0.00000000E+00  0.00000000E+00
  0.00000000E+00  0.00000000E+00  0.00000000E+00
  0.00000000E+00  0.00000000E+00  0.00000000E+00
  0.00000000E+00  0.00000000E+00  0.00000000E+00
  0.00000000E+00  0.00000000E+00  0.00000000E+00
  0.00000000E+00  0.00000000E+00  0.00000000E+00
  0.00000000E+00  0.00000000E+00  0.00000000E+00
  0.00000000E+00  0.00000000E+00  0.00000000E+00
