CONTCAR\(4)                             
   1.00000000000000     
    13.0193004608000003    0.0000000000000000    0.0000000000000000
    -1.6274128543999999    9.0662962906000004    0.0000000000000000
     0.0000000000000000    0.0000000000000000   18.6888999939000016
   Nb   Pd   S    O    H 
     8     4    24     1     1
Direct
  0.0296835233606187  0.3005436541697786  0.4781955029869911
  0.1981213866588691  0.7037072404280043  0.5240764385617471
  0.2809034384977233  0.3092578562589092  0.4771437086230845
  0.4640961209161716  0.7055608995239675  0.5241907899882485
  0.5316012356967060  0.3065815883244093  0.4766034598290205
  0.7085710911975078  0.7059178773134888  0.5260828235320604
  0.7808447410077636  0.3010458427863401  0.4789167527452184
  0.9546975444924299  0.7044436113369265  0.5262854850201995
  0.1191910634545123  0.0003219453163295  0.5030123551200881
  0.3692387007686948  0.0240695216105173  0.4992931043826182
  0.6165076186635661  0.0008906945204162  0.5031211113771304
  0.8688096862683931  0.0043231002026231  0.5021255173652704
  0.0884952894054322  0.7865170425914441  0.4320769398159351
  0.1463923303662125  0.2179602745433723  0.5704266273420376
  0.0555427128256988  0.5155666845541956  0.5708378263407374
  0.1761830030409474  0.4893033587320915  0.4311961285114284
  0.1386311551665229  0.1612316926120236  0.4051709107778871
  0.0976099428805936  0.8390973407784930  0.6024383502726131
  0.3422124402881326  0.7976924713871225  0.4366045267622243
  0.3970623555652659  0.2340840933454603  0.5700726443102658
  0.3082265420785859  0.5253215692167218  0.5702425386724034
  0.4312650220522157  0.4950580910287674  0.4314658279164205
  0.3891547966087063  0.1774089144928077  0.3993984443371186
  0.3491288450329788  0.8566438401601950  0.5877641498916005
  0.5936643302112422  0.7877426418086477  0.4320928905067647
  0.6433319019370382  0.2173605264454400  0.5708453883379915
  0.5602124790625254  0.5178027993053166  0.5707831838288762
  0.6811536691978833  0.4896181142960179  0.4327349975188093
  0.6381974835107054  0.1608340561760749  0.4049092666149757
  0.5990684994704666  0.8405323230635824  0.6027326506859081
  0.8419806218074258  0.7894613894876656  0.4330577695464209
  0.8954036621772429  0.2194445422679217  0.5715643654977908
  0.8075113768027068  0.5182596763964492  0.5718987286818348
  0.9279799468781587  0.4878665261510248  0.4332658280372571
  0.8879944925408534  0.1644488269776673  0.4032780075576561
  0.8491375131689782  0.8451826290373703  0.6009642478152628
  0.3500839912629462 -0.0922162857329952  0.6721523495936744
  0.3981797396775765  0.0026333490854092  0.6764480292944003
 
  0.00000000E+00  0.00000000E+00  0.00000000E+00
  0.00000000E+00  0.00000000E+00  0.00000000E+00
  0.00000000E+00  0.00000000E+00  0.00000000E+00
  0.00000000E+00  0.00000000E+00  0.00000000E+00
  0.00000000E+00  0.00000000E+00  0.00000000E+00
  0.00000000E+00  0.00000000E+00  0.00000000E+00
  0.00000000E+00  0.00000000E+00  0.00000000E+00
  0.00000000E+00  0.00000000E+00  0.00000000E+00
  0.00000000E+00  0.00000000E+00  0.00000000E+00
  0.00000000E+00  0.00000000E+00  0.00000000E+00
  0.00000000E+00  0.00000000E+00  0.00000000E+00
  0.00000000E+00  0.00000000E+00  0.00000000E+00
  0.00000000E+00  0.00000000E+00  0.00000000E+00
  0.00000000E+00  0.00000000E+00  0.00000000E+00
  0.00000000E+00  0.00000000E+00  0.00000000E+00
  0.00000000E+00  0.00000000E+00  0.00000000E+00
  0.00000000E+00  0.00000000E+00  0.00000000E+00
  0.00000000E+00  0.00000000E+00  0.00000000E+00
  0.00000000E+00  0.00000000E+00  0.00000000E+00
  0.00000000E+00  0.00000000E+00  0.00000000E+00
  0.00000000E+00  0.00000000E+00  0.00000000E+00
  0.00000000E+00  0.00000000E+00  0.00000000E+00
  0.00000000E+00  0.00000000E+00  0.00000000E+00
  0.00000000E+00  0.00000000E+00  0.00000000E+00
  0.00000000E+00  0.00000000E+00  0.00000000E+00
  0.00000000E+00  0.00000000E+00  0.00000000E+00
  0.00000000E+00  0.00000000E+00  0.00000000E+00
  0.00000000E+00  0.00000000E+00  0.00000000E+00
  0.00000000E+00  0.00000000E+00  0.00000000E+00
  0.00000000E+00  0.00000000E+00  0.00000000E+00
  0.00000000E+00  0.00000000E+00  0.00000000E+00
  0.00000000E+00  0.00000000E+00  0.00000000E+00
  0.00000000E+00  0.00000000E+00  0.00000000E+00
  0.00000000E+00  0.00000000E+00  0.00000000E+00
  0.00000000E+00  0.00000000E+00  0.00000000E+00
  0.00000000E+00  0.00000000E+00  0.00000000E+00
  0.00000000E+00  0.00000000E+00  0.00000000E+00
  0.00000000E+00  0.00000000E+00  0.00000000E+00
