CONTCAR\(6)                             
   1.00000000000000     
    12.0179996490000001    0.0000000000000000    0.0000000000000000
     5.5443836140000000   17.3830097696000010    0.0000000000000000
     0.0000000000000000    0.0000000000000000   18.4081001282000010
   Nb   Ir   Se   O    H 
    16     4    40     2     1
Selective dynamics
Direct
  0.3175750290400075  0.4176948839548444  0.5052830422134988   F   F   F
  0.3635281121806671  0.1916163134053050  0.5044555991531254   F   F   F
  0.0381320168750463  0.9950472296182795  0.5047924351520408   F   F   F
  0.0785981720582214  0.3082645849240606  0.5002574249657457   F   F   F
  0.8122634575004426  0.4181663423526132  0.5020957587696913   F   F   F
  0.8830537755966077  0.1872048366252841  0.5013674075530545   F   F   F
  0.5417373760659387  0.9913202730628257  0.5047496636385986   F   F   F
  0.6022662968167296  0.3245104270797796  0.4995393513411344   F   F   F
  0.3080531910579865  0.9154666047424982  0.5009147187478931   F   F   F
  0.3798419149246044  0.6903945698380269  0.5014689275374025   F   F   F
  0.0419475500299455  0.4999250205312933  0.5032071418925526   F   F   F
  0.0909051687168798  0.8174529010942777  0.4999057178080264   F   F   F
  0.8117947504356735  0.9128258750723361  0.5016035974980184   F   F   F
  0.8690631281817716  0.7040652227454487  0.5061197230393191   F   F   F
  0.5423036767600919  0.4972636548122793  0.5055483559428779   F   F   F
  0.5789390234619987  0.8128421469620477  0.4951072893306758   F   F   F
  0.2106973826250211  0.0894924791378884  0.5027017053227141   F   F   F
  0.7103309137166107  0.0917630629066508  0.5024831245914569   F   F   F
  0.2093595168171660  0.5922548061992643  0.5031200780165292   F   F   F
  0.7135212494121603  0.5927307713208805  0.5029963940273703   F   F   F
  0.1803361253589841  0.0016901080832383  0.6027680096021300   F   F   F
  0.0429083489079360  0.0996547127231082  0.4138189441515649   F   F   F
  0.2688300266204209  0.3020109565774618  0.5868095120978012   F   F   F
  0.1559689988767943  0.3955005770680486  0.4159739139924312   F   F   F
  0.3736525230336412  0.0885974531233629  0.5924699466350418   F   F   F
  0.2161822202021710  0.1946919565144540  0.4105599038209107   F   F   F
  0.4813684084984331  0.4061253443295669  0.6004018136079594   F   F   F
  0.3513781349645768  0.0042691626083027  0.4119331011586667   F   F   F
  0.0714392278984306  0.1927463794335580  0.5794962456832522   F   F   F
  0.4349080444538274  0.2986601434007454  0.4251161425789363   F   F   F
  0.6833039777817618  0.0008536787580766  0.6020070483205870   F   F   F
  0.5367548366637322  0.1009625955293885  0.4180585888696555   F   F   F
  0.7757727675360968  0.3008881130892718  0.5859975136135915   F   F   F
  0.6514336031476589  0.4071892933506120  0.4035868096411974   F   F   F
  0.8724903253735405  0.0916880240637283  0.5929258637113790   F   F   F
  0.7254528048898479  0.1969529772926037  0.4123188292605846   F   F   F
  0.9766115129448423  0.4029930833932625  0.5969633361745537   F   F   F
  0.8507039359747708  0.0036121815275720  0.4135030355373885   F   F   F
  0.5647683743213463  0.2010826255780458  0.5597358120248259   F   F   F
  0.9244356389652069  0.3036927294816962  0.4124606307232028   F   F   F
  0.1831768792075508  0.5041771828277462  0.6032501989243997   F   F   F
  0.0425787515707157  0.6022362188472101  0.4154741119574226   F   F   F
  0.2717622382612461  0.8013390853113265  0.5846670682541344   F   F   F
  0.1479404215462878  0.9013055126209721  0.4053008530022950   F   F   F
  0.3725423095719691  0.5946409583852343  0.5929945592677939   F   F   F
  0.2234082146417364  0.6966258135515133  0.4118581616504997   F   F   F
  0.4719329495796316  0.9016019592159381  0.5964810749486560   F   F   F
  0.3531468534035227  0.5049119982021395  0.4137168716365380   F   F   F
  0.0687048088257001  0.6985803521613150  0.5753054894292831   F   F   F
  0.4233986449206242  0.8031615492694755  0.4102839684265902   F   F   F
  0.6838327799834119  0.5057164162961811  0.6032489262171339   F   F   F
  0.5448883304843193  0.6032374499740953  0.4150958342438287   F   F   F
  0.7614772330997397  0.8034837714436236  0.5905416608908496   F   F   F
  0.6526416093148981  0.8981757601109663  0.4074334428036224   F   F   F
  0.8790075648898892  0.5934259325660705  0.5895993578995231   F   F   F
  0.7229161000548174  0.6981951199835734  0.4117900490111381   F   F   F
  0.9747280112728802  0.9028412045793388  0.5985893244680582   F   F   F
  0.8542896811856338  0.5065080276844753  0.4120428709934885   F   F   F
  0.5703796051812589  0.6967721213950000  0.5763453630113347   F   F   F
  0.9323481628364547  0.7998065414687900  0.4145538920682412   F   F   F
  0.5295031797599279  0.1544345687909612  0.7009047917075506   T   T   T
  0.5803051593749373  0.2059041338858592  0.6628076007379562   T   T   T
  0.4493194703452517  0.1881625971161185  0.7082466870315580   T   T   T
 
  0.00000000E+00  0.00000000E+00  0.00000000E+00
  0.00000000E+00  0.00000000E+00  0.00000000E+00
  0.00000000E+00  0.00000000E+00  0.00000000E+00
  0.00000000E+00  0.00000000E+00  0.00000000E+00
  0.00000000E+00  0.00000000E+00  0.00000000E+00
  0.00000000E+00  0.00000000E+00  0.00000000E+00
  0.00000000E+00  0.00000000E+00  0.00000000E+00
  0.00000000E+00  0.00000000E+00  0.00000000E+00
  0.00000000E+00  0.00000000E+00  0.00000000E+00
  0.00000000E+00  0.00000000E+00  0.00000000E+00
  0.00000000E+00  0.00000000E+00  0.00000000E+00
  0.00000000E+00  0.00000000E+00  0.00000000E+00
  0.00000000E+00  0.00000000E+00  0.00000000E+00
  0.00000000E+00  0.00000000E+00  0.00000000E+00
  0.00000000E+00  0.00000000E+00  0.00000000E+00
  0.00000000E+00  0.00000000E+00  0.00000000E+00
  0.00000000E+00  0.00000000E+00  0.00000000E+00
  0.00000000E+00  0.00000000E+00  0.00000000E+00
  0.00000000E+00  0.00000000E+00  0.00000000E+00
  0.00000000E+00  0.00000000E+00  0.00000000E+00
  0.00000000E+00  0.00000000E+00  0.00000000E+00
  0.00000000E+00  0.00000000E+00  0.00000000E+00
  0.00000000E+00  0.00000000E+00  0.00000000E+00
  0.00000000E+00  0.00000000E+00  0.00000000E+00
  0.00000000E+00  0.00000000E+00  0.00000000E+00
  0.00000000E+00  0.00000000E+00  0.00000000E+00
  0.00000000E+00  0.00000000E+00  0.00000000E+00
  0.00000000E+00  0.00000000E+00  0.00000000E+00
  0.00000000E+00  0.00000000E+00  0.00000000E+00
  0.00000000E+00  0.00000000E+00  0.00000000E+00
  0.00000000E+00  0.00000000E+00  0.00000000E+00
  0.00000000E+00  0.00000000E+00  0.00000000E+00
  0.00000000E+00  0.00000000E+00  0.00000000E+00
  0.00000000E+00  0.00000000E+00  0.00000000E+00
  0.00000000E+00  0.00000000E+00  0.00000000E+00
  0.00000000E+00  0.00000000E+00  0.00000000E+00
  0.00000000E+00  0.00000000E+00  0.00000000E+00
  0.00000000E+00  0.00000000E+00  0.00000000E+00
  0.00000000E+00  0.00000000E+00  0.00000000E+00
  0.00000000E+00  0.00000000E+00  0.00000000E+00
  0.00000000E+00  0.00000000E+00  0.00000000E+00
  0.00000000E+00  0.00000000E+00  0.00000000E+00
  0.00000000E+00  0.00000000E+00  0.00000000E+00
  0.00000000E+00  0.00000000E+00  0.00000000E+00
  0.00000000E+00  0.00000000E+00  0.00000000E+00
  0.00000000E+00  0.00000000E+00  0.00000000E+00
  0.00000000E+00  0.00000000E+00  0.00000000E+00
  0.00000000E+00  0.00000000E+00  0.00000000E+00
  0.00000000E+00  0.00000000E+00  0.00000000E+00
  0.00000000E+00  0.00000000E+00  0.00000000E+00
  0.00000000E+00  0.00000000E+00  0.00000000E+00
  0.00000000E+00  0.00000000E+00  0.00000000E+00
  0.00000000E+00  0.00000000E+00  0.00000000E+00
  0.00000000E+00  0.00000000E+00  0.00000000E+00
  0.00000000E+00  0.00000000E+00  0.00000000E+00
  0.00000000E+00  0.00000000E+00  0.00000000E+00
  0.00000000E+00  0.00000000E+00  0.00000000E+00
  0.00000000E+00  0.00000000E+00  0.00000000E+00
  0.00000000E+00  0.00000000E+00  0.00000000E+00
  0.00000000E+00  0.00000000E+00  0.00000000E+00
  0.00000000E+00  0.00000000E+00  0.00000000E+00
  0.00000000E+00  0.00000000E+00  0.00000000E+00
  0.00000000E+00  0.00000000E+00  0.00000000E+00
