 Hf3 Te2                                
   1.00000000000000     
     3.6740694154341154    0.0000000000000000    0.0000000000000000
     0.0000000000000000    3.6740686494576669    0.0000000000000000
     0.0000000000000000    0.0000000000000000   21.0878767493700039
   Hf   Te
     3     2
Direct
  0.5000000257287822  0.5000000532716260  0.5799962006641334
  0.4999999593902784  0.4999999214103468  0.4200037953845445
  0.0000000292247556  0.0000000119565579  0.5000000025031018
  0.0000000198483658  0.0000000175649352  0.6440918209574151
 -0.0000000341921819 -0.0000000042034659  0.3559081804908051
 
  0.00000000E+00  0.00000000E+00  0.00000000E+00
  0.00000000E+00  0.00000000E+00  0.00000000E+00
  0.00000000E+00  0.00000000E+00  0.00000000E+00
  0.00000000E+00  0.00000000E+00  0.00000000E+00
  0.00000000E+00  0.00000000E+00  0.00000000E+00
