CONTCAR\(5)                             
   1.00000000000000     
    10.2070999146000005    0.0000000000000000    0.0000000000000000
    -1.7011927660999999   18.1179073708000011    0.0000000000000000
     0.0000000000000000    0.0000000000000000   20.2910003661999987
   Ta   Co   Pd   Se   O    H 
    12     6     3    36     1     1
Direct
  0.0276934728588209  0.1524833886013355  0.4684350861836107
  0.3085488789887512  0.8453387165308768  0.5376680717325838
  0.0699752567227992  0.4095497680289473  0.4731354646695513
  0.2658791842368425  0.5901222084798445  0.5313718961694337
  0.3491970090687470  0.1540052815167100  0.4668822920499461
  0.6423660012480896  0.8455081585034734  0.5375944124928791
  0.4035013962531884  0.4092830356315081  0.4734533768018517
  0.5996628012637114  0.5901553857001871  0.5313342370821225
  0.7067526758269180  0.1541684049029972  0.4675735197542941
  0.9757103625087725  0.8483407110581036  0.5365317029641063
  0.7366517427647902  0.4092882366062145  0.4733826584155114
  0.9329535624582052  0.5912096737502475  0.5305751159897524
  0.2161939266450670  0.2847868699381497  0.4413762978880941
  0.1197708771144850  0.7145597415096919  0.5627199097316447
  0.5494488724776007  0.2837245626922371  0.4419529682190417
  0.4528153305693951  0.7126971670052115  0.5634418047006844
  0.8828898981606487  0.2846324780981067  0.4413117775346910
  0.7871667470402430  0.7144606769672694  0.5627393840013386
  0.1721676683687428  0.0018216466385832  0.5025401355744415
  0.4998547472339103 -0.0103915694604243  0.5079833484239747
  0.8324835369843658  0.0020901243044942  0.5019947493809153
  0.1874025186617228  0.1199918410339311  0.5632282587193909
  0.1495675367335283  0.8826249227957034  0.4443811945662174
  0.1006530645047221  0.6025748262357105  0.6243338864318320
  0.2343993070077931  0.3966249035854039  0.3798147709584279
  0.2417099304137283  0.4465178138045295  0.5652860769782223
  0.0937956447060083  0.5522925297415305  0.4388353558416980
  0.0419520674272296  0.2391124477405839  0.3707842915892871
  0.2931684146624273  0.7583297494012106  0.6345634656216249
  0.1787213849356519  0.0743159976007754  0.3985646283349488
  0.1563278560140760  0.9262633367753614  0.6043012180425795
  0.0492136046134990  0.2812834968183226  0.5256499238191882
  0.2873217261853845  0.7175283531510284  0.4785579622675649
  0.5205420505276247  0.1129901408116264  0.5498888858207401
  0.4806029601802571  0.8757827751647990  0.4443475050797546
  0.4346438520191182  0.6010010635185661  0.6248061257358348
  0.5674878700389097  0.3956294892245854  0.3800877024582038
  0.5757882266140717  0.4467421761101884  0.5654858541487088
  0.4269603881114436  0.5518220342897525  0.4393256579593149
  0.3748833769676726  0.2394868808092803  0.3696461691685329
  0.6282522940046571  0.7583430084405789  0.6343279452971715
  0.5146906240173811  0.0718122099617251  0.4087821745094676
  0.4873702769229282  0.9172391225879272  0.6098202323776353
  0.3825675623179840  0.2811658215780527  0.5263553732570415
  0.6201137242142066  0.7176139617190672  0.4785088887333971
  0.8575634312613128  0.1200712413279890  0.5629751305515968
  0.8139242799390136  0.8824985706960643  0.4442547470826245
  0.7692571001683782  0.6024601273021504  0.6243177374692204
  0.9005889133495960  0.3963044141196629  0.3796575167921508
  0.9093032035189563  0.4473926298871848  0.5649673773958522
  0.7601553224283434  0.5522120988297138  0.4388670266143242
  0.7087220257346110  0.2392848715040716  0.3698991157239385
  0.9612205056332757  0.7612074637178687  0.6335451939276875
  0.8502775229438013  0.0750131484152580  0.3983010413402837
  0.8216904091875589  0.9267861982368022  0.6039237065927006
  0.7156778047845674  0.2814352787869365  0.5265240031024363
  0.9541914746331838  0.7192817233361576  0.4780877905620327
  0.5277958705133451  0.1414071592566235  0.6371646994137513
  0.4360117263079385  0.1350902646795181  0.6523335749540903
 
  0.00000000E+00  0.00000000E+00  0.00000000E+00
  0.00000000E+00  0.00000000E+00  0.00000000E+00
  0.00000000E+00  0.00000000E+00  0.00000000E+00
  0.00000000E+00  0.00000000E+00  0.00000000E+00
  0.00000000E+00  0.00000000E+00  0.00000000E+00
  0.00000000E+00  0.00000000E+00  0.00000000E+00
  0.00000000E+00  0.00000000E+00  0.00000000E+00
  0.00000000E+00  0.00000000E+00  0.00000000E+00
  0.00000000E+00  0.00000000E+00  0.00000000E+00
  0.00000000E+00  0.00000000E+00  0.00000000E+00
  0.00000000E+00  0.00000000E+00  0.00000000E+00
  0.00000000E+00  0.00000000E+00  0.00000000E+00
  0.00000000E+00  0.00000000E+00  0.00000000E+00
  0.00000000E+00  0.00000000E+00  0.00000000E+00
  0.00000000E+00  0.00000000E+00  0.00000000E+00
  0.00000000E+00  0.00000000E+00  0.00000000E+00
  0.00000000E+00  0.00000000E+00  0.00000000E+00
  0.00000000E+00  0.00000000E+00  0.00000000E+00
  0.00000000E+00  0.00000000E+00  0.00000000E+00
  0.00000000E+00  0.00000000E+00  0.00000000E+00
  0.00000000E+00  0.00000000E+00  0.00000000E+00
  0.00000000E+00  0.00000000E+00  0.00000000E+00
  0.00000000E+00  0.00000000E+00  0.00000000E+00
  0.00000000E+00  0.00000000E+00  0.00000000E+00
  0.00000000E+00  0.00000000E+00  0.00000000E+00
  0.00000000E+00  0.00000000E+00  0.00000000E+00
  0.00000000E+00  0.00000000E+00  0.00000000E+00
  0.00000000E+00  0.00000000E+00  0.00000000E+00
  0.00000000E+00  0.00000000E+00  0.00000000E+00
  0.00000000E+00  0.00000000E+00  0.00000000E+00
  0.00000000E+00  0.00000000E+00  0.00000000E+00
  0.00000000E+00  0.00000000E+00  0.00000000E+00
  0.00000000E+00  0.00000000E+00  0.00000000E+00
  0.00000000E+00  0.00000000E+00  0.00000000E+00
  0.00000000E+00  0.00000000E+00  0.00000000E+00
  0.00000000E+00  0.00000000E+00  0.00000000E+00
  0.00000000E+00  0.00000000E+00  0.00000000E+00
  0.00000000E+00  0.00000000E+00  0.00000000E+00
  0.00000000E+00  0.00000000E+00  0.00000000E+00
  0.00000000E+00  0.00000000E+00  0.00000000E+00
  0.00000000E+00  0.00000000E+00  0.00000000E+00
  0.00000000E+00  0.00000000E+00  0.00000000E+00
  0.00000000E+00  0.00000000E+00  0.00000000E+00
  0.00000000E+00  0.00000000E+00  0.00000000E+00
  0.00000000E+00  0.00000000E+00  0.00000000E+00
  0.00000000E+00  0.00000000E+00  0.00000000E+00
  0.00000000E+00  0.00000000E+00  0.00000000E+00
  0.00000000E+00  0.00000000E+00  0.00000000E+00
  0.00000000E+00  0.00000000E+00  0.00000000E+00
  0.00000000E+00  0.00000000E+00  0.00000000E+00
  0.00000000E+00  0.00000000E+00  0.00000000E+00
  0.00000000E+00  0.00000000E+00  0.00000000E+00
  0.00000000E+00  0.00000000E+00  0.00000000E+00
  0.00000000E+00  0.00000000E+00  0.00000000E+00
  0.00000000E+00  0.00000000E+00  0.00000000E+00
  0.00000000E+00  0.00000000E+00  0.00000000E+00
  0.00000000E+00  0.00000000E+00  0.00000000E+00
  0.00000000E+00  0.00000000E+00  0.00000000E+00
  0.00000000E+00  0.00000000E+00  0.00000000E+00
