CONTCAR\(2)                             
   1.00000000000000     
    10.4272003174000005    0.0000000000000000    0.0000000000000000
     0.0000000000000000   15.5413999556999993    0.0000000000000000
     0.0000000000000000    0.0000000000000000   22.9932003021000000
   Nb   Se   O    H 
    18    54     2     1
Direct
  0.0826448955663758  0.4910231620316254  0.4131294937756462
  0.2493819365929459  0.5056646110398985  0.5846030158649264
  0.0823670005709571  0.2460945073115930  0.5708805139040442
  0.2492685673500798  0.7505490746101617  0.4268085415835934
  0.0820960974892227  0.9140813087209119  0.5642677934080745
  0.2482994286273456  0.0825239144288064  0.4332988091954073
  0.4159157540281719  0.4909125076343569  0.4131300439026366
  0.5826183737373425  0.5053571946280881  0.5846315959522236
  0.4149496906709311  0.2460413619517746  0.5706292660440352
  0.5824309275468674  0.7505884265222866  0.4269257697473932
  0.4154252054351187  0.9146225716088169  0.5646225642230637
  0.5817278909939455  0.0824871543154377  0.4333975988320426
  0.7491924441688196  0.4909370374375624  0.4131635200501438
  0.9160931081482625  0.5056027986514519  0.5845787605029648
  0.7494462959640172  0.2460524082939647  0.5706450614672975
  0.9158466165816231  0.7505732254467252  0.4268868987265255
  0.7491361333046370  0.9143338870379077  0.5643651245170351
  0.9154907964299127  0.0825399984251542  0.4332403073829011
  0.0827446642864566  0.6317422819014000  0.6058582029277114
  0.2491857777223694  0.3649133674024596  0.3918184286064970
  0.0825524001710778  0.4164901914099737  0.5217105416935315
  0.2492169126313445  0.5800730233093342  0.4759889173221796
  0.0829496130560888  0.5118701034489493  0.6723411001849889
  0.2493594644793275  0.4848505638607671  0.3253505021107186
  0.2489001324085664  0.9177191168160725  0.4768455987636044
  0.0819435236495621  0.0787081761650886  0.5208885171770997
  0.2485600808175371  0.9881734096858248  0.6365283915395875
  0.0818697052148335  0.0085587173664319  0.3608315602252983
  0.2489577170968927  0.8261030279774436  0.6275362572682771
  0.0816568407466247  0.1710851477822660  0.3701282266232965
  0.2489145139026809  0.1599653612119145  0.6345935704280681
  0.0826625432105023  0.8368975105942967  0.3631651410291085
  0.2490002773388598  0.3437942887203069  0.6297372433849656
  0.0825756990658497  0.6528971655119561  0.3678963766818447
  0.2486501322625608  0.2421267431584638  0.4836747272939277
  0.0822882444328382  0.7543746628765428  0.5137750989372073
  0.4161577229044223  0.6316181646307323  0.6059525053933944
  0.5825609240840035  0.3648283183301171  0.3918716610451644
  0.4156817723591102  0.4164137235307577  0.5217319463844076
  0.5824057660360665  0.5798646982003364  0.4761274714893804
  0.4162178162674069  0.5117435651726822  0.6723838881427950
  0.5826900919459881  0.4847870359982630  0.3253987118062746
  0.5819422788866063  0.9177710290319578  0.4769584956225459
  0.4148643833988472  0.0788989884019527  0.5208361732149303
  0.5830503460755949  0.9914776986051196  0.6354016987209182
  0.4151416251977093  0.0087396935075729  0.3609281883793782
  0.5825673471093634  0.8254308247926991  0.6275602964412197
  0.4149995728385446  0.1710731807457654  0.3702708931331826
  0.5820451630140814  0.1602709060621471  0.6349379366707807
  0.4160772675150532  0.8369233399220997  0.3631881300512114
  0.5822018015396042  0.3431161916872167  0.6297213156259597
  0.4160362619922392  0.6528214065924871  0.3679803885380949
  0.5821774054301126  0.2420376817486500  0.4837810974029675
  0.4152488320819095  0.7545713682313654  0.5139200476579689
  0.7492824780867772  0.6315471698020508  0.6058800853480386
  0.9158786457341715  0.3649448104784204  0.3918547108714991
  0.7493154521053698  0.4163624184700017  0.5217456900614501
  0.9158396977455648  0.5800490413753434  0.4759892107059193
  0.7496154915937574  0.5117687834266034  0.6723627583503630
  0.9159887686406967  0.4848711512605535  0.3253879904398420
  0.9154165005351668  0.9178494792642409  0.4767669142265843
  0.7488841922629983  0.0788573685691984  0.5207720359734600
  0.9159568645088386  0.9881344408809974  0.6367751074135439
  0.7484147682060577  0.0086717012721162  0.3610262350275437
  0.9157480038991900  0.8258077339726584  0.6274082035047225
  0.7482922743993493  0.1710969277589237  0.3703409846023324
  0.9155505605679626  0.1598894092765599  0.6345535416873961
  0.7492275981714674  0.8369422502517453  0.3632591056106009
  0.9157981537547980  0.3437661405545716  0.6297386385694912
  0.7491406885460055  0.6528641206054161  0.3680323120236259
  0.9157430957572529  0.2420957807920557  0.4837146393148344
  0.7488154433263862  0.7544646664189958  0.5138839180393869
  0.4363219271981956  0.8918315100927587  0.7577826158102678
  0.4031572659009788  0.9754235701364040  0.7510664204175357
  0.4917959656818303  0.8780255178524853  0.7233650270031144
 
  0.00000000E+00  0.00000000E+00  0.00000000E+00
  0.00000000E+00  0.00000000E+00  0.00000000E+00
  0.00000000E+00  0.00000000E+00  0.00000000E+00
  0.00000000E+00  0.00000000E+00  0.00000000E+00
  0.00000000E+00  0.00000000E+00  0.00000000E+00
  0.00000000E+00  0.00000000E+00  0.00000000E+00
  0.00000000E+00  0.00000000E+00  0.00000000E+00
  0.00000000E+00  0.00000000E+00  0.00000000E+00
  0.00000000E+00  0.00000000E+00  0.00000000E+00
  0.00000000E+00  0.00000000E+00  0.00000000E+00
  0.00000000E+00  0.00000000E+00  0.00000000E+00
  0.00000000E+00  0.00000000E+00  0.00000000E+00
  0.00000000E+00  0.00000000E+00  0.00000000E+00
  0.00000000E+00  0.00000000E+00  0.00000000E+00
  0.00000000E+00  0.00000000E+00  0.00000000E+00
  0.00000000E+00  0.00000000E+00  0.00000000E+00
  0.00000000E+00  0.00000000E+00  0.00000000E+00
  0.00000000E+00  0.00000000E+00  0.00000000E+00
  0.00000000E+00  0.00000000E+00  0.00000000E+00
  0.00000000E+00  0.00000000E+00  0.00000000E+00
  0.00000000E+00  0.00000000E+00  0.00000000E+00
  0.00000000E+00  0.00000000E+00  0.00000000E+00
  0.00000000E+00  0.00000000E+00  0.00000000E+00
  0.00000000E+00  0.00000000E+00  0.00000000E+00
  0.00000000E+00  0.00000000E+00  0.00000000E+00
  0.00000000E+00  0.00000000E+00  0.00000000E+00
  0.00000000E+00  0.00000000E+00  0.00000000E+00
  0.00000000E+00  0.00000000E+00  0.00000000E+00
  0.00000000E+00  0.00000000E+00  0.00000000E+00
  0.00000000E+00  0.00000000E+00  0.00000000E+00
  0.00000000E+00  0.00000000E+00  0.00000000E+00
  0.00000000E+00  0.00000000E+00  0.00000000E+00
  0.00000000E+00  0.00000000E+00  0.00000000E+00
  0.00000000E+00  0.00000000E+00  0.00000000E+00
  0.00000000E+00  0.00000000E+00  0.00000000E+00
  0.00000000E+00  0.00000000E+00  0.00000000E+00
  0.00000000E+00  0.00000000E+00  0.00000000E+00
  0.00000000E+00  0.00000000E+00  0.00000000E+00
  0.00000000E+00  0.00000000E+00  0.00000000E+00
  0.00000000E+00  0.00000000E+00  0.00000000E+00
  0.00000000E+00  0.00000000E+00  0.00000000E+00
  0.00000000E+00  0.00000000E+00  0.00000000E+00
  0.00000000E+00  0.00000000E+00  0.00000000E+00
  0.00000000E+00  0.00000000E+00  0.00000000E+00
  0.00000000E+00  0.00000000E+00  0.00000000E+00
  0.00000000E+00  0.00000000E+00  0.00000000E+00
  0.00000000E+00  0.00000000E+00  0.00000000E+00
  0.00000000E+00  0.00000000E+00  0.00000000E+00
  0.00000000E+00  0.00000000E+00  0.00000000E+00
  0.00000000E+00  0.00000000E+00  0.00000000E+00
  0.00000000E+00  0.00000000E+00  0.00000000E+00
  0.00000000E+00  0.00000000E+00  0.00000000E+00
  0.00000000E+00  0.00000000E+00  0.00000000E+00
  0.00000000E+00  0.00000000E+00  0.00000000E+00
  0.00000000E+00  0.00000000E+00  0.00000000E+00
  0.00000000E+00  0.00000000E+00  0.00000000E+00
  0.00000000E+00  0.00000000E+00  0.00000000E+00
  0.00000000E+00  0.00000000E+00  0.00000000E+00
  0.00000000E+00  0.00000000E+00  0.00000000E+00
  0.00000000E+00  0.00000000E+00  0.00000000E+00
  0.00000000E+00  0.00000000E+00  0.00000000E+00
  0.00000000E+00  0.00000000E+00  0.00000000E+00
  0.00000000E+00  0.00000000E+00  0.00000000E+00
  0.00000000E+00  0.00000000E+00  0.00000000E+00
  0.00000000E+00  0.00000000E+00  0.00000000E+00
  0.00000000E+00  0.00000000E+00  0.00000000E+00
  0.00000000E+00  0.00000000E+00  0.00000000E+00
  0.00000000E+00  0.00000000E+00  0.00000000E+00
  0.00000000E+00  0.00000000E+00  0.00000000E+00
  0.00000000E+00  0.00000000E+00  0.00000000E+00
  0.00000000E+00  0.00000000E+00  0.00000000E+00
  0.00000000E+00  0.00000000E+00  0.00000000E+00
  0.00000000E+00  0.00000000E+00  0.00000000E+00
  0.00000000E+00  0.00000000E+00  0.00000000E+00
  0.00000000E+00  0.00000000E+00  0.00000000E+00
