CONTCAR\(9)                             
   1.00000000000000     
    14.6658000945999998    0.0000000000000000    0.0000000000000000
    -6.3303146519000002   14.2892752829000003    0.0000000000000000
     0.0000000000000000    0.0000000000000000   22.6324005126999985
   Ag   Sb   F    O 
     9    18   108     1
Direct
  0.2688187398519950  0.3015297242458183  0.4995891407976590
  0.6015973790176697  0.3013899555315564  0.4997216057562546
  0.9349601064722950  0.3019001291349355  0.4999103786385711
  0.2683912704414932  0.6354018055417985  0.4997534151785348
  0.6018444441485056  0.6349573575402085  0.5000524279248264
  0.9353970199047229  0.6351870291419116  0.4997877548553182
  0.2690160407555279  0.9689258885998558  0.4998663989013329
  0.6015674775487374  0.9684794457091979  0.5001132246846037
  0.9356352713053128  0.9687891044511689  0.4997350963030521
  0.0304613766012962  0.1676246770325179  0.6103880039942746
  0.1733638241146331  0.1025276244339316  0.3888507199485712
  0.3636678131528671  0.1677949416156910  0.6108753592807304
  0.5068882404589686  0.1028912122842863  0.3889792175136045
  0.6964503090084467  0.1669809302210856  0.6108956293795731
  0.8400737448675819  0.1027232697801849  0.3891890952040156
  0.0302185654188762  0.5005560200207787  0.6105119690255841
  0.1735422069388429  0.4360443262008094  0.3891886730357018
  0.3618583124881231  0.4999512724279052  0.6103496691378298
  0.5068301964964510  0.4361995600931197  0.3890760021757118
  0.6976913120934685  0.5000174912999797  0.6108387088584391
  0.8401606739289642  0.4362167512894936  0.3891237691620428
  0.0304802921514494  0.8344663450536053  0.6106822119154897
  0.1733182036625473  0.7699337829720587  0.3891673821173529
  0.3635163551549436  0.8339929812278413  0.6108930940607604
  0.5067086077894807  0.7697754075322334  0.3894903695575253
  0.6981892992990197  0.8348251544434735  0.6117640679873019
  0.8397540409026284  0.7695983484092086  0.3894200097972473
  0.1604236438505363  0.1981130832457902  0.4429973091020558
  0.0431269793614967  0.0718526340070725  0.5562064109230573
  0.3107648821554208  0.1806259260110152  0.3863360471767596
  0.0176474664589283  0.2690852882523458  0.6483719967320415
  0.1859249782287221  0.0009701038267526  0.3508834280081010
  0.1669602811351544  0.2381871294231511  0.5890339211780428
  0.0368879614250819  0.0315747648197746  0.4100499000771550
  0.0043335298982644  0.2145678371314104  0.5316019934141980
  0.1992606855697395  0.0557334430716397  0.4679333042833388
  0.0652756450556924  0.1191263534184204  0.6782926192413574
  0.1388102499893864  0.1515183584832846  0.3210705436481314
  0.2262183772365364  0.0899350540180041  0.6134791698068901
  0.4939136409332828  0.1987386995009293  0.4431606395017721
  0.3764201409777853  0.0719348182833707  0.5567991844924016
  0.6443310042223516  0.1810047336295801  0.3866721395757852
  0.3510704478909554  0.2694748265127701  0.6489217714158821
  0.5194102654177364  0.0012940827559435  0.3510211561299192
  0.5001310721047548  0.2387421198886712  0.5897290683246674
  0.3702884878857742  0.0322630075572984  0.4100877015608743
  0.3378866579239355  0.2145794724134767  0.5318597915668517
  0.5322387383501913  0.0560009019295129  0.4679036264534344
  0.3981698314204895  0.1188958584477315  0.6787052125184672
  0.4727217376668895  0.1521078325130080  0.3211801349063497
  0.5590658933050341  0.0887408519497635  0.6136381886399582
  0.8275977441540570  0.1985001537468949  0.4435618079347042
  0.7091700061336003  0.0710084647245453  0.5567745675172854
  0.9775354464743499  0.1806131888628150  0.3866743177264859
  0.6836252577082947  0.2683423860329675  0.6490039225771568
  0.8523272743180170  0.0010135445473956  0.3512303543648035
  0.8328422698076392  0.2379121748729492  0.5895661327788260
  0.7035817468202469  0.0322210611562429  0.4105373432109252
  0.6703531600452602  0.2138082800963124  0.5320134625619641
  0.8655622437570972  0.0554438057820155  0.4681636446703061
  0.7314473917053432  0.1182134521800010  0.6786494632062388
  0.8056545844227012  0.1518586627490122  0.3214433956552053
  0.8930128922901902  0.0894787974614857  0.6131547477406633
  0.1609690109547912  0.5319226706184840  0.4435113425714356
  0.0430990038704323  0.4047375848779929  0.5564531507385819
  0.3109592411705598  0.5141152121920527  0.3867318147702246
  0.0177379574785017  0.6022714050676060  0.6483668567229166
  0.1860348894902937  0.3343982298327847  0.3512888985336683
  0.1668518883535047  0.5709364178123358  0.5893017749761217
  0.0370872285694386  0.3655218656653546  0.4105338146709612
  0.0044989498891640  0.5475761890419126  0.5316500327773077
  0.1992280461212792  0.3887190233195048  0.4681416912597712
  0.0649339502971442  0.4519473897478585  0.6784259767890047
  0.1390701865511440  0.4852409153736126  0.3214878279645062
  0.2255335821453256  0.4197510783899752  0.6151172195543475
  0.4938075107553289  0.5316222838648231  0.4434170455849194
  0.3772602190647479  0.4047829055140493  0.5578727962579095
  0.6442346904549238  0.5143732305348314  0.3867572072645376
  0.3469668323039440  0.6011533492708835  0.6476454571694831
  0.5196472479970742  0.3347897210750412  0.3510857185202617
  0.4987803190223135  0.5736489581030741  0.5902763864216135
  0.3703364965965948  0.3652436536608301  0.4103215712498320
  0.3354295664863664  0.5451573818045726  0.5316094668253132
  0.5324931233285434  0.3890488634260616  0.4681028832488868
  0.4012228874584099  0.4578226355491264  0.6798708939685973
  0.4723159099334802  0.4853824733579342  0.3213605962023630
  0.5598868705343875  0.4232822181492790  0.6144452017319443
  0.8275404759854366  0.5320684701752750  0.4433863844725605
  0.7096498434766890  0.4042967341962677  0.5566649730149793
  0.9775810804059500  0.5142759683544036  0.3866145505610822
  0.6855799152434348  0.6017620698170910  0.6492420652522775
  0.8527604162070906  0.3345160088088134  0.3513687332635168
  0.8338970559831176  0.5715759644699174  0.5894999321653924
  0.7037132232214239  0.3655876209259474  0.4104199422278874
  0.6705226985634751  0.5471461805172388  0.5324575387353174
  0.8658119454575849  0.3893078397007448  0.4681859328342131
  0.7324478465746097  0.4513806685361071  0.6787005156820682
  0.8056493317794167  0.4851909181095796  0.3213365924860849
  0.8927800958525058  0.4225137139657874  0.6131294529360686
  0.1610480228544865  0.8659835884527944  0.4433250897860058
  0.0426657374566750  0.7384840770085416  0.5565054662794542
  0.3108212292894341  0.8476994310729412  0.3864363291726041
  0.0178679449736685  0.9361178028166088  0.6485817557886177
  0.1856593787905982  0.6680552621607760  0.3514591085761247
  0.1669592700088404  0.9052000168524136  0.5894586882737146
  0.0368153792258708  0.6992632470031962  0.4104915866637468
  0.0042544486188650  0.8811713128195983  0.5317925649316624
  0.1991586053375448  0.7231475600736654  0.4681728652434853
  0.0649442370165017  0.7855184157684805  0.6785189798427698
  0.1385830210663200  0.8185979652775421  0.3213120705220212
  0.2260653104840032  0.7559796126950811  0.6135416144589991
  0.4938337303955717  0.8654567616461497  0.4438392351592618
  0.3762271935568794  0.7380130263646524  0.5567365241303586
  0.6441994722725319  0.8477089346445692  0.3875498282099014
  0.3511758562213915  0.9354449184383244  0.6491486001860968
  0.5193314514127683  0.6682713483218397  0.3514810728678136
  0.5003837455018697  0.9039371937329792  0.5900280546482592
  0.3701011787299744  0.6990553826776227  0.4104542407525138
  0.3381223556066916  0.8813756736771399  0.5321834071234235
  0.5318123710178663  0.7220561099618316  0.4684459019968625
  0.3978331273201076  0.7844829817805201  0.6786278879628255
  0.4727563282034682  0.8190257021209484  0.3216381177120343
  0.5603742152898368  0.7555195318066061  0.6178515788801446
  0.8272762499695340  0.8652686641001903  0.4439294204906676
  0.7085097419913841  0.7376165162256751  0.5584900532839802
  0.9772064151655609  0.8474866477046545  0.3869130283453353
  0.6847116797619804  0.9358317036219073  0.6498794960189126
  0.8521607339634037  0.6679889781072180  0.3514217335306516
  0.8341836703286949  0.9053483077096849  0.5902142101809291
  0.7032497029694991  0.6989556384582829  0.4107493776306906
  0.6688731535159737  0.8791144093928135  0.5335135997558851
  0.8652738613379191  0.7221631841268814  0.4683138847209578
  0.7324244524083952  0.7862171571785653  0.6801218869767381
  0.8052164370810276  0.8186570998028304  0.3216777537666355
  0.8929216461305067  0.7565868625109803  0.6136579552645099
  0.5352455510700967  0.6402898265203436  0.7055723446453790
 
  0.00000000E+00  0.00000000E+00  0.00000000E+00
  0.00000000E+00  0.00000000E+00  0.00000000E+00
  0.00000000E+00  0.00000000E+00  0.00000000E+00
  0.00000000E+00  0.00000000E+00  0.00000000E+00
  0.00000000E+00  0.00000000E+00  0.00000000E+00
  0.00000000E+00  0.00000000E+00  0.00000000E+00
  0.00000000E+00  0.00000000E+00  0.00000000E+00
  0.00000000E+00  0.00000000E+00  0.00000000E+00
  0.00000000E+00  0.00000000E+00  0.00000000E+00
  0.00000000E+00  0.00000000E+00  0.00000000E+00
  0.00000000E+00  0.00000000E+00  0.00000000E+00
  0.00000000E+00  0.00000000E+00  0.00000000E+00
  0.00000000E+00  0.00000000E+00  0.00000000E+00
  0.00000000E+00  0.00000000E+00  0.00000000E+00
  0.00000000E+00  0.00000000E+00  0.00000000E+00
  0.00000000E+00  0.00000000E+00  0.00000000E+00
  0.00000000E+00  0.00000000E+00  0.00000000E+00
  0.00000000E+00  0.00000000E+00  0.00000000E+00
  0.00000000E+00  0.00000000E+00  0.00000000E+00
  0.00000000E+00  0.00000000E+00  0.00000000E+00
  0.00000000E+00  0.00000000E+00  0.00000000E+00
  0.00000000E+00  0.00000000E+00  0.00000000E+00
  0.00000000E+00  0.00000000E+00  0.00000000E+00
  0.00000000E+00  0.00000000E+00  0.00000000E+00
  0.00000000E+00  0.00000000E+00  0.00000000E+00
  0.00000000E+00  0.00000000E+00  0.00000000E+00
  0.00000000E+00  0.00000000E+00  0.00000000E+00
  0.00000000E+00  0.00000000E+00  0.00000000E+00
  0.00000000E+00  0.00000000E+00  0.00000000E+00
  0.00000000E+00  0.00000000E+00  0.00000000E+00
  0.00000000E+00  0.00000000E+00  0.00000000E+00
  0.00000000E+00  0.00000000E+00  0.00000000E+00
  0.00000000E+00  0.00000000E+00  0.00000000E+00
  0.00000000E+00  0.00000000E+00  0.00000000E+00
  0.00000000E+00  0.00000000E+00  0.00000000E+00
  0.00000000E+00  0.00000000E+00  0.00000000E+00
  0.00000000E+00  0.00000000E+00  0.00000000E+00
  0.00000000E+00  0.00000000E+00  0.00000000E+00
  0.00000000E+00  0.00000000E+00  0.00000000E+00
  0.00000000E+00  0.00000000E+00  0.00000000E+00
  0.00000000E+00  0.00000000E+00  0.00000000E+00
  0.00000000E+00  0.00000000E+00  0.00000000E+00
  0.00000000E+00  0.00000000E+00  0.00000000E+00
  0.00000000E+00  0.00000000E+00  0.00000000E+00
  0.00000000E+00  0.00000000E+00  0.00000000E+00
  0.00000000E+00  0.00000000E+00  0.00000000E+00
  0.00000000E+00  0.00000000E+00  0.00000000E+00
  0.00000000E+00  0.00000000E+00  0.00000000E+00
  0.00000000E+00  0.00000000E+00  0.00000000E+00
  0.00000000E+00  0.00000000E+00  0.00000000E+00
  0.00000000E+00  0.00000000E+00  0.00000000E+00
  0.00000000E+00  0.00000000E+00  0.00000000E+00
  0.00000000E+00  0.00000000E+00  0.00000000E+00
  0.00000000E+00  0.00000000E+00  0.00000000E+00
  0.00000000E+00  0.00000000E+00  0.00000000E+00
  0.00000000E+00  0.00000000E+00  0.00000000E+00
  0.00000000E+00  0.00000000E+00  0.00000000E+00
  0.00000000E+00  0.00000000E+00  0.00000000E+00
  0.00000000E+00  0.00000000E+00  0.00000000E+00
  0.00000000E+00  0.00000000E+00  0.00000000E+00
  0.00000000E+00  0.00000000E+00  0.00000000E+00
  0.00000000E+00  0.00000000E+00  0.00000000E+00
  0.00000000E+00  0.00000000E+00  0.00000000E+00
  0.00000000E+00  0.00000000E+00  0.00000000E+00
  0.00000000E+00  0.00000000E+00  0.00000000E+00
  0.00000000E+00  0.00000000E+00  0.00000000E+00
  0.00000000E+00  0.00000000E+00  0.00000000E+00
  0.00000000E+00  0.00000000E+00  0.00000000E+00
  0.00000000E+00  0.00000000E+00  0.00000000E+00
  0.00000000E+00  0.00000000E+00  0.00000000E+00
  0.00000000E+00  0.00000000E+00  0.00000000E+00
  0.00000000E+00  0.00000000E+00  0.00000000E+00
  0.00000000E+00  0.00000000E+00  0.00000000E+00
  0.00000000E+00  0.00000000E+00  0.00000000E+00
  0.00000000E+00  0.00000000E+00  0.00000000E+00
  0.00000000E+00  0.00000000E+00  0.00000000E+00
  0.00000000E+00  0.00000000E+00  0.00000000E+00
  0.00000000E+00  0.00000000E+00  0.00000000E+00
  0.00000000E+00  0.00000000E+00  0.00000000E+00
  0.00000000E+00  0.00000000E+00  0.00000000E+00
  0.00000000E+00  0.00000000E+00  0.00000000E+00
  0.00000000E+00  0.00000000E+00  0.00000000E+00
  0.00000000E+00  0.00000000E+00  0.00000000E+00
  0.00000000E+00  0.00000000E+00  0.00000000E+00
  0.00000000E+00  0.00000000E+00  0.00000000E+00
  0.00000000E+00  0.00000000E+00  0.00000000E+00
  0.00000000E+00  0.00000000E+00  0.00000000E+00
  0.00000000E+00  0.00000000E+00  0.00000000E+00
  0.00000000E+00  0.00000000E+00  0.00000000E+00
  0.00000000E+00  0.00000000E+00  0.00000000E+00
  0.00000000E+00  0.00000000E+00  0.00000000E+00
  0.00000000E+00  0.00000000E+00  0.00000000E+00
  0.00000000E+00  0.00000000E+00  0.00000000E+00
  0.00000000E+00  0.00000000E+00  0.00000000E+00
  0.00000000E+00  0.00000000E+00  0.00000000E+00
  0.00000000E+00  0.00000000E+00  0.00000000E+00
  0.00000000E+00  0.00000000E+00  0.00000000E+00
  0.00000000E+00  0.00000000E+00  0.00000000E+00
  0.00000000E+00  0.00000000E+00  0.00000000E+00
  0.00000000E+00  0.00000000E+00  0.00000000E+00
  0.00000000E+00  0.00000000E+00  0.00000000E+00
  0.00000000E+00  0.00000000E+00  0.00000000E+00
  0.00000000E+00  0.00000000E+00  0.00000000E+00
  0.00000000E+00  0.00000000E+00  0.00000000E+00
  0.00000000E+00  0.00000000E+00  0.00000000E+00
  0.00000000E+00  0.00000000E+00  0.00000000E+00
  0.00000000E+00  0.00000000E+00  0.00000000E+00
  0.00000000E+00  0.00000000E+00  0.00000000E+00
  0.00000000E+00  0.00000000E+00  0.00000000E+00
  0.00000000E+00  0.00000000E+00  0.00000000E+00
  0.00000000E+00  0.00000000E+00  0.00000000E+00
  0.00000000E+00  0.00000000E+00  0.00000000E+00
  0.00000000E+00  0.00000000E+00  0.00000000E+00
  0.00000000E+00  0.00000000E+00  0.00000000E+00
  0.00000000E+00  0.00000000E+00  0.00000000E+00
  0.00000000E+00  0.00000000E+00  0.00000000E+00
  0.00000000E+00  0.00000000E+00  0.00000000E+00
  0.00000000E+00  0.00000000E+00  0.00000000E+00
  0.00000000E+00  0.00000000E+00  0.00000000E+00
  0.00000000E+00  0.00000000E+00  0.00000000E+00
  0.00000000E+00  0.00000000E+00  0.00000000E+00
  0.00000000E+00  0.00000000E+00  0.00000000E+00
  0.00000000E+00  0.00000000E+00  0.00000000E+00
  0.00000000E+00  0.00000000E+00  0.00000000E+00
  0.00000000E+00  0.00000000E+00  0.00000000E+00
  0.00000000E+00  0.00000000E+00  0.00000000E+00
  0.00000000E+00  0.00000000E+00  0.00000000E+00
  0.00000000E+00  0.00000000E+00  0.00000000E+00
  0.00000000E+00  0.00000000E+00  0.00000000E+00
  0.00000000E+00  0.00000000E+00  0.00000000E+00
  0.00000000E+00  0.00000000E+00  0.00000000E+00
  0.00000000E+00  0.00000000E+00  0.00000000E+00
  0.00000000E+00  0.00000000E+00  0.00000000E+00
  0.00000000E+00  0.00000000E+00  0.00000000E+00
  0.00000000E+00  0.00000000E+00  0.00000000E+00
  0.00000000E+00  0.00000000E+00  0.00000000E+00
