CONTCAR                                 
   1.00000000000000     
    11.9334001540999992    0.0000000000000000    0.0000000000000000
    -5.9667003860000003   10.3361284282000003    0.0000000000000000
     0.0000000000000000    0.0000000000000000   17.6816005706999988
   Ru   Cl   O 
     8    24     1
Direct
  0.3226064545472476  0.1468792391691391  0.5016025623792841
  0.1648745121382145  0.3212458661103199  0.5132000305928600
  0.8321815524248998  0.1682441211037967  0.5004983602952553
  0.6613062499614937  0.3340177041345376  0.5036307495302662
  0.3482017163229127  0.6854257595594003  0.5104098580859099
  0.1643196308935201  0.8401185373146552  0.5008319508480110
  0.8277491071723759  0.6727526025858150  0.5026827998870351
  0.6798611879450399  0.8617113992525914  0.4976054901775183
  0.1482524047041742  0.1345816185053993  0.5727823397084818
  0.1681995177513916  0.9957590586098100  0.4170507266486091
  0.0025038865528615  0.1852632875593476  0.4229838752776854
  0.3222181720464955  0.3171036214484110  0.4338997703925406
  0.9936379135791799  0.3221373456907495  0.5809347144578013
  0.3234942623294773  0.9924675481215922  0.5820027987113756
  0.6786904738848288  0.1820699655242137  0.5789779135484708
  0.6836994388261501  0.0165414003040177  0.4132938371817425
  0.4992305418944604  0.1716758350320281  0.4277064077078525
  0.8281516341105399  0.3348987407870747  0.4294440142672907
  0.4875713021908982  0.3084297029578973  0.5802371565794914
  0.8353105321170808  0.0116633760177486  0.5795272815805701
  0.1737607157757434  0.6833273626769384  0.5785902895909442
  0.1919093885245202  0.5025390873165366  0.4436604165010926
 -0.0046713475317839  0.6746325261431163  0.4288285121428297
  0.3175854500064140  0.8261985521346717  0.4216823870597459
  0.9959528321784368  0.8255224664157015  0.5786644441677625
  0.2957032997815082  0.4239882449298649  0.6085175934315326
  0.6727912803783658  0.6946832130468459  0.5757823690809262
  0.6660467205850851  0.5019401505773333  0.4295565223281984
  0.5071310027665997  0.6955667455845863  0.4268971348439900
  0.8295693477142870  0.8331440357021499  0.4243675137275122
  0.5185421579373826  0.8786747847652230  0.5660870321983177
  0.8122831050983277  0.5047523806538328  0.5809910953601775
  0.3845751203918779  0.6183734482646687  0.5892121557089048
 
  0.00000000E+00  0.00000000E+00  0.00000000E+00
  0.00000000E+00  0.00000000E+00  0.00000000E+00
  0.00000000E+00  0.00000000E+00  0.00000000E+00
  0.00000000E+00  0.00000000E+00  0.00000000E+00
  0.00000000E+00  0.00000000E+00  0.00000000E+00
  0.00000000E+00  0.00000000E+00  0.00000000E+00
  0.00000000E+00  0.00000000E+00  0.00000000E+00
  0.00000000E+00  0.00000000E+00  0.00000000E+00
  0.00000000E+00  0.00000000E+00  0.00000000E+00
  0.00000000E+00  0.00000000E+00  0.00000000E+00
  0.00000000E+00  0.00000000E+00  0.00000000E+00
  0.00000000E+00  0.00000000E+00  0.00000000E+00
  0.00000000E+00  0.00000000E+00  0.00000000E+00
  0.00000000E+00  0.00000000E+00  0.00000000E+00
  0.00000000E+00  0.00000000E+00  0.00000000E+00
  0.00000000E+00  0.00000000E+00  0.00000000E+00
  0.00000000E+00  0.00000000E+00  0.00000000E+00
  0.00000000E+00  0.00000000E+00  0.00000000E+00
  0.00000000E+00  0.00000000E+00  0.00000000E+00
  0.00000000E+00  0.00000000E+00  0.00000000E+00
  0.00000000E+00  0.00000000E+00  0.00000000E+00
  0.00000000E+00  0.00000000E+00  0.00000000E+00
  0.00000000E+00  0.00000000E+00  0.00000000E+00
  0.00000000E+00  0.00000000E+00  0.00000000E+00
  0.00000000E+00  0.00000000E+00  0.00000000E+00
  0.00000000E+00  0.00000000E+00  0.00000000E+00
  0.00000000E+00  0.00000000E+00  0.00000000E+00
  0.00000000E+00  0.00000000E+00  0.00000000E+00
  0.00000000E+00  0.00000000E+00  0.00000000E+00
  0.00000000E+00  0.00000000E+00  0.00000000E+00
  0.00000000E+00  0.00000000E+00  0.00000000E+00
  0.00000000E+00  0.00000000E+00  0.00000000E+00
  0.00000000E+00  0.00000000E+00  0.00000000E+00
