CONTCAR\(2)                             
   1.00000000000000     
    16.2672996521000002    0.0000000000000000    0.0000000000000000
     2.6171829271000000   16.2219330010999983    0.0000000000000000
     0.0000000000000000    0.0000000000000000   16.8505992888999998
   Ag   H    O 
    18    18    37
Direct
  0.1845041244157656  0.1242039420832402  0.5449592547685673
  0.0223763505526114  0.3039600535870424  0.5189186527636540
  0.5156294900642360  0.1302125133434187  0.5244855438161905
  0.3557146551299420  0.2810864080911273  0.5706188399224700
  0.8660107788619813  0.1284216661544115  0.5084358374654241
  0.6920390624791602  0.2904128771173862  0.5360047910784330
  0.1895248078105996  0.4712942137063283  0.5457119016417360
  0.0166660612608139  0.6289100060381946  0.5276712021797751
  0.5296226066734832  0.4613357701072700  0.5443230606706347
  0.3653308334492649  0.6337535194162111  0.5367192533754074
  0.8506135897288835  0.4688300957798337  0.5450581362723844
  0.6971258607852335  0.6249952646080973  0.5499077695269795
  0.1840275301223276  0.7985798381273889  0.5623874829996207
  0.0225686200353022  0.9525249405270612  0.5533933054635061
  0.5398087891355580  0.7998748329948123  0.4973660056175751
  0.3599182675893662  0.9613198924850622  0.5297546007801154
  0.8437068516852312  0.7918303759522619  0.4962246078980286
  0.6841193216154814  0.9759824889700355  0.4656793177793114
  0.1787406475642766  0.2828611159067781  0.5471710912355033
  0.2005952079801555  0.9703767918424795  0.5001926555329685
  0.5089646537102933  0.2598438692155498  0.6077968120942329
  0.5500359107861386  0.0508326396373684  0.3881681930155045
  0.8477365906105145  0.2897242473777794  0.5150929346889112
  0.9351126880093947  0.0001643452989832  0.4278009190489626
  0.1764487115950677  0.6294745371782013  0.5380209244557047
  0.2481277553076390  0.3424816813258660  0.4651390572740923
  0.5256764295683072  0.6158224976291834  0.5317757866337062
  0.5312299227296051  0.3125992079560159  0.4973396231131964
  0.8425817322546456  0.6134942687138470  0.5940258192070506
  0.8986840545517685  0.3687283308758046  0.4256180324672522
  0.1648051198726223  0.9415962618684567  0.6156992794259671
  0.2378862459609826  0.6975370941726438  0.4481717070408269
  0.5106785762331436  0.9613871345120851  0.4813703323318999
  0.5995490855714649  0.6607941342824758  0.4312933487285296
  0.8442865466625492  0.9480067217104554  0.4945349643134346
  0.8670995938232019  0.6313269942245556  0.4637590569561405
  0.1367397389823518  0.2462006605912034  0.5594654190094429
  0.0590882121560167  0.1004404220023786  0.5178106008380683
  0.2291929274041295 -0.0036068608347465  0.5417901742331558
  0.3120925253254579  0.1404592602167936  0.5592721204810579
  0.4713082983480776  0.2186364978738281  0.6094591179710104
  0.3645863668998901  0.0921813376216482  0.5108822370448710
  0.5602304268403548  0.0346866889414970  0.4432187039860369
  0.6744865438063966  0.1605853700297987  0.5335901722998752
  0.8167270699797644  0.2478113453583872  0.5396601474504868
  0.7290842977219192  0.1112798686508753  0.4900022379091776
  0.9181082523900359  0.0036964971077850  0.4832548685360237
  0.9961497891412767  0.1601043327947974  0.5322906048210760
  0.1382220248909729  0.5937944254727657  0.5622907106096263
  0.0655543906525211  0.4482279664576894  0.5112742933006313
  0.2426791662744321  0.3468582527834203  0.5226120569012774
  0.3037294363201662  0.5106331736972340  0.5824870204519859
  0.4893292970076119  0.5840890853540320  0.5636139369219859
  0.3683178722103812  0.4459442509374877  0.5833823301157178
  0.5639619225123379  0.3330980460982914  0.5393670283628128
  0.6500695664886209  0.4665212732129887  0.5819727847529851
  0.8047546067839563  0.5754071334929477  0.6103350453310350
  0.7064936478932220  0.4194610671599275  0.5362835891582990
  0.9010479220040337  0.3593887488300363  0.4825988233949894
  0.0052337102838858  0.5014732978486505  0.5464028370908658
  0.1250803157482336  0.9026460182479015  0.6221648690533504
  0.0280461340677468  0.7561867562406978  0.5102100685246400
  0.2416855426526466  0.6900206291336554  0.5054054464166869
  0.3491612603500814  0.8323792259780227  0.5641387769305743
  0.4845509102570794  0.9205400177390384  0.5126976700076870
  0.4087552568399886  0.7715807695205381  0.5477718703521015
  0.5877539050892557  0.6717841560835559  0.4872565777132931
  0.6620983638716533  0.8306974538520754  0.4390879962212288
  0.7983112864823237  0.9142166842415903  0.4999222497512897
  0.7268394116612031  0.7716442599437685  0.4380826198895260
  0.8896112341689910  0.6649714946346134  0.5034271019052406
  0.9655865803579404  0.8072347223921629  0.5435112187051176
  0.4115044479480628  0.4407561574749354  0.5099071219730142
 
  0.00000000E+00  0.00000000E+00  0.00000000E+00
  0.00000000E+00  0.00000000E+00  0.00000000E+00
  0.00000000E+00  0.00000000E+00  0.00000000E+00
  0.00000000E+00  0.00000000E+00  0.00000000E+00
  0.00000000E+00  0.00000000E+00  0.00000000E+00
  0.00000000E+00  0.00000000E+00  0.00000000E+00
  0.00000000E+00  0.00000000E+00  0.00000000E+00
  0.00000000E+00  0.00000000E+00  0.00000000E+00
  0.00000000E+00  0.00000000E+00  0.00000000E+00
  0.00000000E+00  0.00000000E+00  0.00000000E+00
  0.00000000E+00  0.00000000E+00  0.00000000E+00
  0.00000000E+00  0.00000000E+00  0.00000000E+00
  0.00000000E+00  0.00000000E+00  0.00000000E+00
  0.00000000E+00  0.00000000E+00  0.00000000E+00
  0.00000000E+00  0.00000000E+00  0.00000000E+00
  0.00000000E+00  0.00000000E+00  0.00000000E+00
  0.00000000E+00  0.00000000E+00  0.00000000E+00
  0.00000000E+00  0.00000000E+00  0.00000000E+00
  0.00000000E+00  0.00000000E+00  0.00000000E+00
  0.00000000E+00  0.00000000E+00  0.00000000E+00
  0.00000000E+00  0.00000000E+00  0.00000000E+00
  0.00000000E+00  0.00000000E+00  0.00000000E+00
  0.00000000E+00  0.00000000E+00  0.00000000E+00
  0.00000000E+00  0.00000000E+00  0.00000000E+00
  0.00000000E+00  0.00000000E+00  0.00000000E+00
  0.00000000E+00  0.00000000E+00  0.00000000E+00
  0.00000000E+00  0.00000000E+00  0.00000000E+00
  0.00000000E+00  0.00000000E+00  0.00000000E+00
  0.00000000E+00  0.00000000E+00  0.00000000E+00
  0.00000000E+00  0.00000000E+00  0.00000000E+00
  0.00000000E+00  0.00000000E+00  0.00000000E+00
  0.00000000E+00  0.00000000E+00  0.00000000E+00
  0.00000000E+00  0.00000000E+00  0.00000000E+00
  0.00000000E+00  0.00000000E+00  0.00000000E+00
  0.00000000E+00  0.00000000E+00  0.00000000E+00
  0.00000000E+00  0.00000000E+00  0.00000000E+00
  0.00000000E+00  0.00000000E+00  0.00000000E+00
  0.00000000E+00  0.00000000E+00  0.00000000E+00
  0.00000000E+00  0.00000000E+00  0.00000000E+00
  0.00000000E+00  0.00000000E+00  0.00000000E+00
  0.00000000E+00  0.00000000E+00  0.00000000E+00
  0.00000000E+00  0.00000000E+00  0.00000000E+00
  0.00000000E+00  0.00000000E+00  0.00000000E+00
  0.00000000E+00  0.00000000E+00  0.00000000E+00
  0.00000000E+00  0.00000000E+00  0.00000000E+00
  0.00000000E+00  0.00000000E+00  0.00000000E+00
  0.00000000E+00  0.00000000E+00  0.00000000E+00
  0.00000000E+00  0.00000000E+00  0.00000000E+00
  0.00000000E+00  0.00000000E+00  0.00000000E+00
  0.00000000E+00  0.00000000E+00  0.00000000E+00
  0.00000000E+00  0.00000000E+00  0.00000000E+00
  0.00000000E+00  0.00000000E+00  0.00000000E+00
  0.00000000E+00  0.00000000E+00  0.00000000E+00
  0.00000000E+00  0.00000000E+00  0.00000000E+00
  0.00000000E+00  0.00000000E+00  0.00000000E+00
  0.00000000E+00  0.00000000E+00  0.00000000E+00
  0.00000000E+00  0.00000000E+00  0.00000000E+00
  0.00000000E+00  0.00000000E+00  0.00000000E+00
  0.00000000E+00  0.00000000E+00  0.00000000E+00
  0.00000000E+00  0.00000000E+00  0.00000000E+00
  0.00000000E+00  0.00000000E+00  0.00000000E+00
  0.00000000E+00  0.00000000E+00  0.00000000E+00
  0.00000000E+00  0.00000000E+00  0.00000000E+00
  0.00000000E+00  0.00000000E+00  0.00000000E+00
  0.00000000E+00  0.00000000E+00  0.00000000E+00
  0.00000000E+00  0.00000000E+00  0.00000000E+00
  0.00000000E+00  0.00000000E+00  0.00000000E+00
  0.00000000E+00  0.00000000E+00  0.00000000E+00
  0.00000000E+00  0.00000000E+00  0.00000000E+00
  0.00000000E+00  0.00000000E+00  0.00000000E+00
  0.00000000E+00  0.00000000E+00  0.00000000E+00
  0.00000000E+00  0.00000000E+00  0.00000000E+00
  0.00000000E+00  0.00000000E+00  0.00000000E+00
