CONTCAR\(4)                             
   1.00000000000000     
    10.8512001038000001    0.0000000000000000    0.0000000000000000
     5.4260522376999996    9.3985392002000001    0.0000000000000000
     0.0000000000000000    0.0000000000000000   22.4130992888999998
   Eu   Re   O 
     4     8    33
Direct
  0.5008291414670945  0.0021245858527465  0.5001642595261663
  0.0017192248446873  0.9970818198790805  0.4999746046086092
  0.5002579513753473  0.4995670002080273  0.4985969840967319
  0.9971456542899697  0.5011707846436275  0.5002165965616625
  0.3320613536289537  0.3340122626097521  0.4052476761366854
  0.1666127300864778  0.1666959424059261  0.5956284636594694
  0.8340060260740111  0.3320091305530529  0.4052449650709892
  0.6663964104499034  0.1668765461803704  0.5935851745780756
  0.3340835293939478  0.8337580271844506  0.4052585198651263
  0.1673583241431014  0.6667386460814232  0.5933971043800285
  0.8325480390578095  0.8335252756051241  0.4053251499765148
  0.6667362927418208  0.6664125821880379  0.5935830950898610
  0.1784410496117698  0.3381628506936281  0.4338287705166239
  0.3368838830382004  0.4847996429267657  0.4314341376359994
  0.3294917507380288  0.3335656301723932  0.3284161690026453
  0.0174256554761822  0.3224810479419845  0.5684166434500719
  0.4836196167261972  0.1795124483451288  0.4318893470416860
  0.1666935034999614  0.1664213583019396  0.6724513312927982
  0.1600819834343098  0.0176520620016955  0.5681842124093963
  0.3221902255618774  0.1604380914385999  0.5683509335338581
  0.6785214759579181  0.3365993297299198  0.4314811200555300
  0.8371815563868681  0.4833728217438342  0.4319608835062080
  0.8367456903267678  0.3297390463187655  0.3284137896207602
  0.5163100105252041  0.3160496472170448  0.5628152476494193
  0.9836115346654780  0.1782445169066836  0.4336325952848044
  0.6612039228815965  0.1767180037124796  0.6704040984065123
  0.6656243956276129  0.0127839321045726  0.5690457566053083
  0.8210376206621361  0.1624494463609880  0.5662447916115172
  0.1794149582793237  0.8369083724567200  0.4318208216876228
  0.3382406374669654  0.9832349183313833  0.4337914447750066
  0.3339323236140307  0.8366273749424449  0.3284292702174991
  0.0130549976693411  0.8213927224969296  0.5688444898312219
  0.4847696050474160  0.6781327185815600  0.4315189785101005
  0.1775816676407334  0.6626447296348301  0.6702116662891875
  0.1628858453717649  0.5163438356804411  0.5663463894854370
  0.3163271511272130  0.6676808825922815  0.5624161657451286
  0.6782371960994323  0.8371952630275116  0.4326935097576403
  0.8364710375234709  0.9839349810900662  0.4328148654435402
  0.8324681737028244  0.8337853336201313  0.3284829389796082
  0.5166145839594153  0.8215341237023915  0.5665479160278359
  0.9831597945001790  0.6790755093163959  0.4326112404633884
  0.6622744236757767  0.6601624433676340  0.6703844068695546
  0.6674679395743012  0.5167741941626318  0.5624431567986574
  0.8217444882661266  0.6656501085709912  0.5692070358916863
  0.4998761088084083  0.5005104671176429  0.6880532810538482
 
  0.00000000E+00  0.00000000E+00  0.00000000E+00
  0.00000000E+00  0.00000000E+00  0.00000000E+00
  0.00000000E+00  0.00000000E+00  0.00000000E+00
  0.00000000E+00  0.00000000E+00  0.00000000E+00
  0.00000000E+00  0.00000000E+00  0.00000000E+00
  0.00000000E+00  0.00000000E+00  0.00000000E+00
  0.00000000E+00  0.00000000E+00  0.00000000E+00
  0.00000000E+00  0.00000000E+00  0.00000000E+00
  0.00000000E+00  0.00000000E+00  0.00000000E+00
  0.00000000E+00  0.00000000E+00  0.00000000E+00
  0.00000000E+00  0.00000000E+00  0.00000000E+00
  0.00000000E+00  0.00000000E+00  0.00000000E+00
  0.00000000E+00  0.00000000E+00  0.00000000E+00
  0.00000000E+00  0.00000000E+00  0.00000000E+00
  0.00000000E+00  0.00000000E+00  0.00000000E+00
  0.00000000E+00  0.00000000E+00  0.00000000E+00
  0.00000000E+00  0.00000000E+00  0.00000000E+00
  0.00000000E+00  0.00000000E+00  0.00000000E+00
  0.00000000E+00  0.00000000E+00  0.00000000E+00
  0.00000000E+00  0.00000000E+00  0.00000000E+00
  0.00000000E+00  0.00000000E+00  0.00000000E+00
  0.00000000E+00  0.00000000E+00  0.00000000E+00
  0.00000000E+00  0.00000000E+00  0.00000000E+00
  0.00000000E+00  0.00000000E+00  0.00000000E+00
  0.00000000E+00  0.00000000E+00  0.00000000E+00
  0.00000000E+00  0.00000000E+00  0.00000000E+00
  0.00000000E+00  0.00000000E+00  0.00000000E+00
  0.00000000E+00  0.00000000E+00  0.00000000E+00
  0.00000000E+00  0.00000000E+00  0.00000000E+00
  0.00000000E+00  0.00000000E+00  0.00000000E+00
  0.00000000E+00  0.00000000E+00  0.00000000E+00
  0.00000000E+00  0.00000000E+00  0.00000000E+00
  0.00000000E+00  0.00000000E+00  0.00000000E+00
  0.00000000E+00  0.00000000E+00  0.00000000E+00
  0.00000000E+00  0.00000000E+00  0.00000000E+00
  0.00000000E+00  0.00000000E+00  0.00000000E+00
  0.00000000E+00  0.00000000E+00  0.00000000E+00
  0.00000000E+00  0.00000000E+00  0.00000000E+00
  0.00000000E+00  0.00000000E+00  0.00000000E+00
  0.00000000E+00  0.00000000E+00  0.00000000E+00
  0.00000000E+00  0.00000000E+00  0.00000000E+00
  0.00000000E+00  0.00000000E+00  0.00000000E+00
  0.00000000E+00  0.00000000E+00  0.00000000E+00
  0.00000000E+00  0.00000000E+00  0.00000000E+00
  0.00000000E+00  0.00000000E+00  0.00000000E+00
