G   33   30    1    0.005     # Parameters to Generate KPOINTS (Don't Edit This Line)
     496
Reciprocal lattice
    0.000000000000    0.000000000000    0.000000000000       1
    0.030303030303    0.000000000000    0.000000000000       2
    0.060606060606    0.000000000000    0.000000000000       2
    0.090909090909    0.000000000000    0.000000000000       2
    0.121212121212    0.000000000000    0.000000000000       2
    0.151515151515    0.000000000000    0.000000000000       2
    0.181818181818    0.000000000000    0.000000000000       2
    0.212121212121    0.000000000000    0.000000000000       2
    0.242424242424    0.000000000000    0.000000000000       2
    0.272727272727    0.000000000000    0.000000000000       2
    0.303030303030    0.000000000000    0.000000000000       2
    0.333333333333    0.000000000000    0.000000000000       2
    0.363636363636    0.000000000000    0.000000000000       2
    0.393939393939    0.000000000000    0.000000000000       2
    0.424242424242    0.000000000000    0.000000000000       2
    0.454545454545    0.000000000000    0.000000000000       2
    0.484848484848    0.000000000000    0.000000000000       2
    0.000000000000    0.033333333333    0.000000000000       2
    0.030303030303    0.033333333333    0.000000000000       2
    0.060606060606    0.033333333333    0.000000000000       2
    0.090909090909    0.033333333333    0.000000000000       2
    0.121212121212    0.033333333333    0.000000000000       2
    0.151515151515    0.033333333333    0.000000000000       2
    0.181818181818    0.033333333333    0.000000000000       2
    0.212121212121    0.033333333333    0.000000000000       2
    0.242424242424    0.033333333333    0.000000000000       2
    0.272727272727    0.033333333333    0.000000000000       2
    0.303030303030    0.033333333333    0.000000000000       2
    0.333333333333    0.033333333333    0.000000000000       2
    0.363636363636    0.033333333333    0.000000000000       2
    0.393939393939    0.033333333333    0.000000000000       2
    0.424242424242    0.033333333333    0.000000000000       2
    0.454545454545    0.033333333333    0.000000000000       2
    0.484848484848    0.033333333333    0.000000000000       2
   -0.484848484848    0.033333333333    0.000000000000       2
   -0.454545454545    0.033333333333    0.000000000000       2
   -0.424242424242    0.033333333333    0.000000000000       2
   -0.393939393939    0.033333333333    0.000000000000       2
   -0.363636363636    0.033333333333    0.000000000000       2
   -0.333333333333    0.033333333333    0.000000000000       2
   -0.303030303030    0.033333333333    0.000000000000       2
   -0.272727272727    0.033333333333    0.000000000000       2
   -0.242424242424    0.033333333333    0.000000000000       2
   -0.212121212121    0.033333333333    0.000000000000       2
   -0.181818181818    0.033333333333    0.000000000000       2
   -0.151515151515    0.033333333333    0.000000000000       2
   -0.121212121212    0.033333333333    0.000000000000       2
   -0.090909090909    0.033333333333    0.000000000000       2
   -0.060606060606    0.033333333333    0.000000000000       2
   -0.030303030303    0.033333333333    0.000000000000       2
    0.000000000000    0.066666666667    0.000000000000       2
    0.030303030303    0.066666666667    0.000000000000       2
    0.060606060606    0.066666666667    0.000000000000       2
    0.090909090909    0.066666666667    0.000000000000       2
    0.121212121212    0.066666666667    0.000000000000       2
    0.151515151515    0.066666666667    0.000000000000       2
    0.181818181818    0.066666666667    0.000000000000       2
    0.212121212121    0.066666666667    0.000000000000       2
    0.242424242424    0.066666666667    0.000000000000       2
    0.272727272727    0.066666666667    0.000000000000       2
    0.303030303030    0.066666666667    0.000000000000       2
    0.333333333333    0.066666666667    0.000000000000       2
    0.363636363636    0.066666666667    0.000000000000       2
    0.393939393939    0.066666666667    0.000000000000       2
    0.424242424242    0.066666666667    0.000000000000       2
    0.454545454545    0.066666666667    0.000000000000       2
    0.484848484848    0.066666666667    0.000000000000       2
   -0.484848484848    0.066666666667    0.000000000000       2
   -0.454545454545    0.066666666667    0.000000000000       2
   -0.424242424242    0.066666666667    0.000000000000       2
   -0.393939393939    0.066666666667    0.000000000000       2
   -0.363636363636    0.066666666667    0.000000000000       2
   -0.333333333333    0.066666666667    0.000000000000       2
   -0.303030303030    0.066666666667    0.000000000000       2
   -0.272727272727    0.066666666667    0.000000000000       2
   -0.242424242424    0.066666666667    0.000000000000       2
   -0.212121212121    0.066666666667    0.000000000000       2
   -0.181818181818    0.066666666667    0.000000000000       2
   -0.151515151515    0.066666666667    0.000000000000       2
   -0.121212121212    0.066666666667    0.000000000000       2
   -0.090909090909    0.066666666667    0.000000000000       2
   -0.060606060606    0.066666666667    0.000000000000       2
   -0.030303030303    0.066666666667    0.000000000000       2
    0.000000000000    0.100000000000    0.000000000000       2
    0.030303030303    0.100000000000    0.000000000000       2
    0.060606060606    0.100000000000    0.000000000000       2
    0.090909090909    0.100000000000    0.000000000000       2
    0.121212121212    0.100000000000    0.000000000000       2
    0.151515151515    0.100000000000    0.000000000000       2
    0.181818181818    0.100000000000    0.000000000000       2
    0.212121212121    0.100000000000    0.000000000000       2
    0.242424242424    0.100000000000    0.000000000000       2
    0.272727272727    0.100000000000    0.000000000000       2
    0.303030303030    0.100000000000    0.000000000000       2
    0.333333333333    0.100000000000    0.000000000000       2
    0.363636363636    0.100000000000    0.000000000000       2
    0.393939393939    0.100000000000    0.000000000000       2
    0.424242424242    0.100000000000    0.000000000000       2
    0.454545454545    0.100000000000    0.000000000000       2
    0.484848484848    0.100000000000    0.000000000000       2
   -0.484848484848    0.100000000000    0.000000000000       2
   -0.454545454545    0.100000000000    0.000000000000       2
   -0.424242424242    0.100000000000    0.000000000000       2
   -0.393939393939    0.100000000000    0.000000000000       2
   -0.363636363636    0.100000000000    0.000000000000       2
   -0.333333333333    0.100000000000    0.000000000000       2
   -0.303030303030    0.100000000000    0.000000000000       2
   -0.272727272727    0.100000000000    0.000000000000       2
   -0.242424242424    0.100000000000    0.000000000000       2
   -0.212121212121    0.100000000000    0.000000000000       2
   -0.181818181818    0.100000000000    0.000000000000       2
   -0.151515151515    0.100000000000    0.000000000000       2
   -0.121212121212    0.100000000000    0.000000000000       2
   -0.090909090909    0.100000000000    0.000000000000       2
   -0.060606060606    0.100000000000    0.000000000000       2
   -0.030303030303    0.100000000000    0.000000000000       2
    0.000000000000    0.133333333333    0.000000000000       2
    0.030303030303    0.133333333333    0.000000000000       2
    0.060606060606    0.133333333333    0.000000000000       2
    0.090909090909    0.133333333333    0.000000000000       2
    0.121212121212    0.133333333333    0.000000000000       2
    0.151515151515    0.133333333333    0.000000000000       2
    0.181818181818    0.133333333333    0.000000000000       2
    0.212121212121    0.133333333333    0.000000000000       2
    0.242424242424    0.133333333333    0.000000000000       2
    0.272727272727    0.133333333333    0.000000000000       2
    0.303030303030    0.133333333333    0.000000000000       2
    0.333333333333    0.133333333333    0.000000000000       2
    0.363636363636    0.133333333333    0.000000000000       2
    0.393939393939    0.133333333333    0.000000000000       2
    0.424242424242    0.133333333333    0.000000000000       2
    0.454545454545    0.133333333333    0.000000000000       2
    0.484848484848    0.133333333333    0.000000000000       2
   -0.484848484848    0.133333333333    0.000000000000       2
   -0.454545454545    0.133333333333    0.000000000000       2
   -0.424242424242    0.133333333333    0.000000000000       2
   -0.393939393939    0.133333333333    0.000000000000       2
   -0.363636363636    0.133333333333    0.000000000000       2
   -0.333333333333    0.133333333333    0.000000000000       2
   -0.303030303030    0.133333333333    0.000000000000       2
   -0.272727272727    0.133333333333    0.000000000000       2
   -0.242424242424    0.133333333333    0.000000000000       2
   -0.212121212121    0.133333333333    0.000000000000       2
   -0.181818181818    0.133333333333    0.000000000000       2
   -0.151515151515    0.133333333333    0.000000000000       2
   -0.121212121212    0.133333333333    0.000000000000       2
   -0.090909090909    0.133333333333    0.000000000000       2
   -0.060606060606    0.133333333333    0.000000000000       2
   -0.030303030303    0.133333333333    0.000000000000       2
    0.000000000000    0.166666666667    0.000000000000       2
    0.030303030303    0.166666666667    0.000000000000       2
    0.060606060606    0.166666666667    0.000000000000       2
    0.090909090909    0.166666666667    0.000000000000       2
    0.121212121212    0.166666666667    0.000000000000       2
    0.151515151515    0.166666666667    0.000000000000       2
    0.181818181818    0.166666666667    0.000000000000       2
    0.212121212121    0.166666666667    0.000000000000       2
    0.242424242424    0.166666666667    0.000000000000       2
    0.272727272727    0.166666666667    0.000000000000       2
    0.303030303030    0.166666666667    0.000000000000       2
    0.333333333333    0.166666666667    0.000000000000       2
    0.363636363636    0.166666666667    0.000000000000       2
    0.393939393939    0.166666666667    0.000000000000       2
    0.424242424242    0.166666666667    0.000000000000       2
    0.454545454545    0.166666666667    0.000000000000       2
    0.484848484848    0.166666666667    0.000000000000       2
   -0.484848484848    0.166666666667    0.000000000000       2
   -0.454545454545    0.166666666667    0.000000000000       2
   -0.424242424242    0.166666666667    0.000000000000       2
   -0.393939393939    0.166666666667    0.000000000000       2
   -0.363636363636    0.166666666667    0.000000000000       2
   -0.333333333333    0.166666666667    0.000000000000       2
   -0.303030303030    0.166666666667    0.000000000000       2
   -0.272727272727    0.166666666667    0.000000000000       2
   -0.242424242424    0.166666666667    0.000000000000       2
   -0.212121212121    0.166666666667    0.000000000000       2
   -0.181818181818    0.166666666667    0.000000000000       2
   -0.151515151515    0.166666666667    0.000000000000       2
   -0.121212121212    0.166666666667    0.000000000000       2
   -0.090909090909    0.166666666667    0.000000000000       2
   -0.060606060606    0.166666666667    0.000000000000       2
   -0.030303030303    0.166666666667    0.000000000000       2
    0.000000000000    0.200000000000    0.000000000000       2
    0.030303030303    0.200000000000    0.000000000000       2
    0.060606060606    0.200000000000    0.000000000000       2
    0.090909090909    0.200000000000    0.000000000000       2
    0.121212121212    0.200000000000    0.000000000000       2
    0.151515151515    0.200000000000    0.000000000000       2
    0.181818181818    0.200000000000    0.000000000000       2
    0.212121212121    0.200000000000    0.000000000000       2
    0.242424242424    0.200000000000    0.000000000000       2
    0.272727272727    0.200000000000    0.000000000000       2
    0.303030303030    0.200000000000    0.000000000000       2
    0.333333333333    0.200000000000    0.000000000000       2
    0.363636363636    0.200000000000    0.000000000000       2
    0.393939393939    0.200000000000    0.000000000000       2
    0.424242424242    0.200000000000    0.000000000000       2
    0.454545454545    0.200000000000    0.000000000000       2
    0.484848484848    0.200000000000    0.000000000000       2
   -0.484848484848    0.200000000000    0.000000000000       2
   -0.454545454545    0.200000000000    0.000000000000       2
   -0.424242424242    0.200000000000    0.000000000000       2
   -0.393939393939    0.200000000000    0.000000000000       2
   -0.363636363636    0.200000000000    0.000000000000       2
   -0.333333333333    0.200000000000    0.000000000000       2
   -0.303030303030    0.200000000000    0.000000000000       2
   -0.272727272727    0.200000000000    0.000000000000       2
   -0.242424242424    0.200000000000    0.000000000000       2
   -0.212121212121    0.200000000000    0.000000000000       2
   -0.181818181818    0.200000000000    0.000000000000       2
   -0.151515151515    0.200000000000    0.000000000000       2
   -0.121212121212    0.200000000000    0.000000000000       2
   -0.090909090909    0.200000000000    0.000000000000       2
   -0.060606060606    0.200000000000    0.000000000000       2
   -0.030303030303    0.200000000000    0.000000000000       2
    0.000000000000    0.233333333333    0.000000000000       2
    0.030303030303    0.233333333333    0.000000000000       2
    0.060606060606    0.233333333333    0.000000000000       2
    0.090909090909    0.233333333333    0.000000000000       2
    0.121212121212    0.233333333333    0.000000000000       2
    0.151515151515    0.233333333333    0.000000000000       2
    0.181818181818    0.233333333333    0.000000000000       2
    0.212121212121    0.233333333333    0.000000000000       2
    0.242424242424    0.233333333333    0.000000000000       2
    0.272727272727    0.233333333333    0.000000000000       2
    0.303030303030    0.233333333333    0.000000000000       2
    0.333333333333    0.233333333333    0.000000000000       2
    0.363636363636    0.233333333333    0.000000000000       2
    0.393939393939    0.233333333333    0.000000000000       2
    0.424242424242    0.233333333333    0.000000000000       2
    0.454545454545    0.233333333333    0.000000000000       2
    0.484848484848    0.233333333333    0.000000000000       2
   -0.484848484848    0.233333333333    0.000000000000       2
   -0.454545454545    0.233333333333    0.000000000000       2
   -0.424242424242    0.233333333333    0.000000000000       2
   -0.393939393939    0.233333333333    0.000000000000       2
   -0.363636363636    0.233333333333    0.000000000000       2
   -0.333333333333    0.233333333333    0.000000000000       2
   -0.303030303030    0.233333333333    0.000000000000       2
   -0.272727272727    0.233333333333    0.000000000000       2
   -0.242424242424    0.233333333333    0.000000000000       2
   -0.212121212121    0.233333333333    0.000000000000       2
   -0.181818181818    0.233333333333    0.000000000000       2
   -0.151515151515    0.233333333333    0.000000000000       2
   -0.121212121212    0.233333333333    0.000000000000       2
   -0.090909090909    0.233333333333    0.000000000000       2
   -0.060606060606    0.233333333333    0.000000000000       2
   -0.030303030303    0.233333333333    0.000000000000       2
    0.000000000000    0.266666666667    0.000000000000       2
    0.030303030303    0.266666666667    0.000000000000       2
    0.060606060606    0.266666666667    0.000000000000       2
    0.090909090909    0.266666666667    0.000000000000       2
    0.121212121212    0.266666666667    0.000000000000       2
    0.151515151515    0.266666666667    0.000000000000       2
    0.181818181818    0.266666666667    0.000000000000       2
    0.212121212121    0.266666666667    0.000000000000       2
    0.242424242424    0.266666666667    0.000000000000       2
    0.272727272727    0.266666666667    0.000000000000       2
    0.303030303030    0.266666666667    0.000000000000       2
    0.333333333333    0.266666666667    0.000000000000       2
    0.363636363636    0.266666666667    0.000000000000       2
    0.393939393939    0.266666666667    0.000000000000       2
    0.424242424242    0.266666666667    0.000000000000       2
    0.454545454545    0.266666666667    0.000000000000       2
    0.484848484848    0.266666666667    0.000000000000       2
   -0.484848484848    0.266666666667    0.000000000000       2
   -0.454545454545    0.266666666667    0.000000000000       2
   -0.424242424242    0.266666666667    0.000000000000       2
   -0.393939393939    0.266666666667    0.000000000000       2
   -0.363636363636    0.266666666667    0.000000000000       2
   -0.333333333333    0.266666666667    0.000000000000       2
   -0.303030303030    0.266666666667    0.000000000000       2
   -0.272727272727    0.266666666667    0.000000000000       2
   -0.242424242424    0.266666666667    0.000000000000       2
   -0.212121212121    0.266666666667    0.000000000000       2
   -0.181818181818    0.266666666667    0.000000000000       2
   -0.151515151515    0.266666666667    0.000000000000       2
   -0.121212121212    0.266666666667    0.000000000000       2
   -0.090909090909    0.266666666667    0.000000000000       2
   -0.060606060606    0.266666666667    0.000000000000       2
   -0.030303030303    0.266666666667    0.000000000000       2
    0.000000000000    0.300000000000    0.000000000000       2
    0.030303030303    0.300000000000    0.000000000000       2
    0.060606060606    0.300000000000    0.000000000000       2
    0.090909090909    0.300000000000    0.000000000000       2
    0.121212121212    0.300000000000    0.000000000000       2
    0.151515151515    0.300000000000    0.000000000000       2
    0.181818181818    0.300000000000    0.000000000000       2
    0.212121212121    0.300000000000    0.000000000000       2
    0.242424242424    0.300000000000    0.000000000000       2
    0.272727272727    0.300000000000    0.000000000000       2
    0.303030303030    0.300000000000    0.000000000000       2
    0.333333333333    0.300000000000    0.000000000000       2
    0.363636363636    0.300000000000    0.000000000000       2
    0.393939393939    0.300000000000    0.000000000000       2
    0.424242424242    0.300000000000    0.000000000000       2
    0.454545454545    0.300000000000    0.000000000000       2
    0.484848484848    0.300000000000    0.000000000000       2
   -0.484848484848    0.300000000000    0.000000000000       2
   -0.454545454545    0.300000000000    0.000000000000       2
   -0.424242424242    0.300000000000    0.000000000000       2
   -0.393939393939    0.300000000000    0.000000000000       2
   -0.363636363636    0.300000000000    0.000000000000       2
   -0.333333333333    0.300000000000    0.000000000000       2
   -0.303030303030    0.300000000000    0.000000000000       2
   -0.272727272727    0.300000000000    0.000000000000       2
   -0.242424242424    0.300000000000    0.000000000000       2
   -0.212121212121    0.300000000000    0.000000000000       2
   -0.181818181818    0.300000000000    0.000000000000       2
   -0.151515151515    0.300000000000    0.000000000000       2
   -0.121212121212    0.300000000000    0.000000000000       2
   -0.090909090909    0.300000000000    0.000000000000       2
   -0.060606060606    0.300000000000    0.000000000000       2
   -0.030303030303    0.300000000000    0.000000000000       2
    0.000000000000    0.333333333333    0.000000000000       2
    0.030303030303    0.333333333333    0.000000000000       2
    0.060606060606    0.333333333333    0.000000000000       2
    0.090909090909    0.333333333333    0.000000000000       2
    0.121212121212    0.333333333333    0.000000000000       2
    0.151515151515    0.333333333333    0.000000000000       2
    0.181818181818    0.333333333333    0.000000000000       2
    0.212121212121    0.333333333333    0.000000000000       2
    0.242424242424    0.333333333333    0.000000000000       2
    0.272727272727    0.333333333333    0.000000000000       2
    0.303030303030    0.333333333333    0.000000000000       2
    0.333333333333    0.333333333333    0.000000000000       2
    0.363636363636    0.333333333333    0.000000000000       2
    0.393939393939    0.333333333333    0.000000000000       2
    0.424242424242    0.333333333333    0.000000000000       2
    0.454545454545    0.333333333333    0.000000000000       2
    0.484848484848    0.333333333333    0.000000000000       2
   -0.484848484848    0.333333333333    0.000000000000       2
   -0.454545454545    0.333333333333    0.000000000000       2
   -0.424242424242    0.333333333333    0.000000000000       2
   -0.393939393939    0.333333333333    0.000000000000       2
   -0.363636363636    0.333333333333    0.000000000000       2
   -0.333333333333    0.333333333333    0.000000000000       2
   -0.303030303030    0.333333333333    0.000000000000       2
   -0.272727272727    0.333333333333    0.000000000000       2
   -0.242424242424    0.333333333333    0.000000000000       2
   -0.212121212121    0.333333333333    0.000000000000       2
   -0.181818181818    0.333333333333    0.000000000000       2
   -0.151515151515    0.333333333333    0.000000000000       2
   -0.121212121212    0.333333333333    0.000000000000       2
   -0.090909090909    0.333333333333    0.000000000000       2
   -0.060606060606    0.333333333333    0.000000000000       2
   -0.030303030303    0.333333333333    0.000000000000       2
    0.000000000000    0.366666666667    0.000000000000       2
    0.030303030303    0.366666666667    0.000000000000       2
    0.060606060606    0.366666666667    0.000000000000       2
    0.090909090909    0.366666666667    0.000000000000       2
    0.121212121212    0.366666666667    0.000000000000       2
    0.151515151515    0.366666666667    0.000000000000       2
    0.181818181818    0.366666666667    0.000000000000       2
    0.212121212121    0.366666666667    0.000000000000       2
    0.242424242424    0.366666666667    0.000000000000       2
    0.272727272727    0.366666666667    0.000000000000       2
    0.303030303030    0.366666666667    0.000000000000       2
    0.333333333333    0.366666666667    0.000000000000       2
    0.363636363636    0.366666666667    0.000000000000       2
    0.393939393939    0.366666666667    0.000000000000       2
    0.424242424242    0.366666666667    0.000000000000       2
    0.454545454545    0.366666666667    0.000000000000       2
    0.484848484848    0.366666666667    0.000000000000       2
   -0.484848484848    0.366666666667    0.000000000000       2
   -0.454545454545    0.366666666667    0.000000000000       2
   -0.424242424242    0.366666666667    0.000000000000       2
   -0.393939393939    0.366666666667    0.000000000000       2
   -0.363636363636    0.366666666667    0.000000000000       2
   -0.333333333333    0.366666666667    0.000000000000       2
   -0.303030303030    0.366666666667    0.000000000000       2
   -0.272727272727    0.366666666667    0.000000000000       2
   -0.242424242424    0.366666666667    0.000000000000       2
   -0.212121212121    0.366666666667    0.000000000000       2
   -0.181818181818    0.366666666667    0.000000000000       2
   -0.151515151515    0.366666666667    0.000000000000       2
   -0.121212121212    0.366666666667    0.000000000000       2
   -0.090909090909    0.366666666667    0.000000000000       2
   -0.060606060606    0.366666666667    0.000000000000       2
   -0.030303030303    0.366666666667    0.000000000000       2
    0.000000000000    0.400000000000    0.000000000000       2
    0.030303030303    0.400000000000    0.000000000000       2
    0.060606060606    0.400000000000    0.000000000000       2
    0.090909090909    0.400000000000    0.000000000000       2
    0.121212121212    0.400000000000    0.000000000000       2
    0.151515151515    0.400000000000    0.000000000000       2
    0.181818181818    0.400000000000    0.000000000000       2
    0.212121212121    0.400000000000    0.000000000000       2
    0.242424242424    0.400000000000    0.000000000000       2
    0.272727272727    0.400000000000    0.000000000000       2
    0.303030303030    0.400000000000    0.000000000000       2
    0.333333333333    0.400000000000    0.000000000000       2
    0.363636363636    0.400000000000    0.000000000000       2
    0.393939393939    0.400000000000    0.000000000000       2
    0.424242424242    0.400000000000    0.000000000000       2
    0.454545454545    0.400000000000    0.000000000000       2
    0.484848484848    0.400000000000    0.000000000000       2
   -0.484848484848    0.400000000000    0.000000000000       2
   -0.454545454545    0.400000000000    0.000000000000       2
   -0.424242424242    0.400000000000    0.000000000000       2
   -0.393939393939    0.400000000000    0.000000000000       2
   -0.363636363636    0.400000000000    0.000000000000       2
   -0.333333333333    0.400000000000    0.000000000000       2
   -0.303030303030    0.400000000000    0.000000000000       2
   -0.272727272727    0.400000000000    0.000000000000       2
   -0.242424242424    0.400000000000    0.000000000000       2
   -0.212121212121    0.400000000000    0.000000000000       2
   -0.181818181818    0.400000000000    0.000000000000       2
   -0.151515151515    0.400000000000    0.000000000000       2
   -0.121212121212    0.400000000000    0.000000000000       2
   -0.090909090909    0.400000000000    0.000000000000       2
   -0.060606060606    0.400000000000    0.000000000000       2
   -0.030303030303    0.400000000000    0.000000000000       2
    0.000000000000    0.433333333333    0.000000000000       2
    0.030303030303    0.433333333333    0.000000000000       2
    0.060606060606    0.433333333333    0.000000000000       2
    0.090909090909    0.433333333333    0.000000000000       2
    0.121212121212    0.433333333333    0.000000000000       2
    0.151515151515    0.433333333333    0.000000000000       2
    0.181818181818    0.433333333333    0.000000000000       2
    0.212121212121    0.433333333333    0.000000000000       2
    0.242424242424    0.433333333333    0.000000000000       2
    0.272727272727    0.433333333333    0.000000000000       2
    0.303030303030    0.433333333333    0.000000000000       2
    0.333333333333    0.433333333333    0.000000000000       2
    0.363636363636    0.433333333333    0.000000000000       2
    0.393939393939    0.433333333333    0.000000000000       2
    0.424242424242    0.433333333333    0.000000000000       2
    0.454545454545    0.433333333333    0.000000000000       2
    0.484848484848    0.433333333333    0.000000000000       2
   -0.484848484848    0.433333333333    0.000000000000       2
   -0.454545454545    0.433333333333    0.000000000000       2
   -0.424242424242    0.433333333333    0.000000000000       2
   -0.393939393939    0.433333333333    0.000000000000       2
   -0.363636363636    0.433333333333    0.000000000000       2
   -0.333333333333    0.433333333333    0.000000000000       2
   -0.303030303030    0.433333333333    0.000000000000       2
   -0.272727272727    0.433333333333    0.000000000000       2
   -0.242424242424    0.433333333333    0.000000000000       2
   -0.212121212121    0.433333333333    0.000000000000       2
   -0.181818181818    0.433333333333    0.000000000000       2
   -0.151515151515    0.433333333333    0.000000000000       2
   -0.121212121212    0.433333333333    0.000000000000       2
   -0.090909090909    0.433333333333    0.000000000000       2
   -0.060606060606    0.433333333333    0.000000000000       2
   -0.030303030303    0.433333333333    0.000000000000       2
    0.000000000000    0.466666666667    0.000000000000       2
    0.030303030303    0.466666666667    0.000000000000       2
    0.060606060606    0.466666666667    0.000000000000       2
    0.090909090909    0.466666666667    0.000000000000       2
    0.121212121212    0.466666666667    0.000000000000       2
    0.151515151515    0.466666666667    0.000000000000       2
    0.181818181818    0.466666666667    0.000000000000       2
    0.212121212121    0.466666666667    0.000000000000       2
    0.242424242424    0.466666666667    0.000000000000       2
    0.272727272727    0.466666666667    0.000000000000       2
    0.303030303030    0.466666666667    0.000000000000       2
    0.333333333333    0.466666666667    0.000000000000       2
    0.363636363636    0.466666666667    0.000000000000       2
    0.393939393939    0.466666666667    0.000000000000       2
    0.424242424242    0.466666666667    0.000000000000       2
    0.454545454545    0.466666666667    0.000000000000       2
    0.484848484848    0.466666666667    0.000000000000       2
   -0.484848484848    0.466666666667    0.000000000000       2
   -0.454545454545    0.466666666667    0.000000000000       2
   -0.424242424242    0.466666666667    0.000000000000       2
   -0.393939393939    0.466666666667    0.000000000000       2
   -0.363636363636    0.466666666667    0.000000000000       2
   -0.333333333333    0.466666666667    0.000000000000       2
   -0.303030303030    0.466666666667    0.000000000000       2
   -0.272727272727    0.466666666667    0.000000000000       2
   -0.242424242424    0.466666666667    0.000000000000       2
   -0.212121212121    0.466666666667    0.000000000000       2
   -0.181818181818    0.466666666667    0.000000000000       2