CONTCAR\(14)                            
   1.00000000000000     
    11.7566995620999997    0.0000000000000000    0.0000000000000000
     0.0000000000000000   11.8254995346000005    0.0000000000000000
     0.0000000000000000    0.0000000000000000   21.8330993651999989
   Zr   Te
    12    36
Direct
  0.0833331311426804  0.3388314947081953  0.5764193842274016
  0.2500000000000000  0.0888645600501345  0.4236333015930373
  0.4166668638573227  0.3388314947081953  0.5764193842274016
  0.5833331072536859  0.0888645249708041  0.4236334174609389
  0.7500000200000017  0.3388314554572368  0.5764195186098772
  0.9166668517463142  0.0888645249708041  0.4236334174609389
  0.0833331311426804  0.8388315347081988  0.5764193842274016
  0.2500000000000000  0.5888645800501361  0.4236333015930373
  0.4166668638573227  0.8388315347081988  0.5764193842274016
  0.5833331072536859  0.5888645449708056  0.4236334174609389
  0.7500000200000017  0.8388314954572401  0.5764195186098772
  0.9166668517463142  0.5888645449708056  0.4236334174609389
  0.2500000000000000  0.2193891307960130  0.6554800370912269
  0.2500000000000000  0.3390066433824489  0.4749661005095490
  0.0833331655202223  0.2084124883753136  0.3444340867776621
  0.0833331753849322  0.4712307599368898  0.3430991893491411
  0.2500000000000000  0.4567777589735437  0.6569059349155760
  0.0833333201115711  0.0886771683322037  0.5250617014490482
  0.5833331101614341  0.2193890401079979  0.6554800806808323
  0.5833333151465834  0.3390067163788897  0.4749662188848025
  0.4166668294797808  0.2084124883753136  0.3444340867776621
  0.4166668196150709  0.4712307599368898  0.3430991893491411
  0.5833331828610095  0.4567777775174599  0.6569059708101026
  0.4166666748884321  0.0886771683322037  0.5250617014490482
  0.9166668488385661  0.2193890401079979  0.6554800806808323
  0.9166666438534168  0.3390067163788897  0.4749662188848025
  0.7500000200000017  0.2084124836000337  0.3444340942559485
  0.7500000200000017  0.4712307999190656  0.3430992271177393
  0.9166667761389906  0.4567777775174599  0.6569059708101026
  0.7500000200000017  0.0886771611660375  0.5250618156271665
  0.2500000000000000  0.7193891107960113  0.6554800370912269
  0.2500000000000000  0.8390066843824487  0.4749661005095490
  0.0833331655202223  0.7084125093753119  0.3444340867776621
  0.0833331753849322  0.9712307599368898  0.3430991893491411
  0.2500000000000000  0.9567777189735402  0.6569059349155760
  0.0833333201115711  0.5886771883322054  0.5250617014490482
  0.5833331101614341  0.7193890201079962  0.6554800806808323
  0.5833333151465834  0.8390067573788896  0.4749662188848025
  0.4166668294797808  0.7084125093753119  0.3444340867776621
  0.4166668196150709  0.9712307599368898  0.3430991893491411
  0.5833331828610095  0.9567777375174567  0.6569059708101026
  0.4166666748884321  0.5886771883322054  0.5250617014490482
  0.9166668488385661  0.7193890201079962  0.6554800806808323
  0.9166666438534168  0.8390067573788896  0.4749662188848025
  0.7500000200000017  0.7084125046000320  0.3444340942559485
  0.7500000200000017  0.9712307999190656  0.3430992271177393
  0.9166667761389906  0.9567777375174567  0.6569059708101026
  0.7500000200000017  0.5886771811660393  0.5250618156271665
 
  0.00000000E+00  0.00000000E+00  0.00000000E+00
  0.00000000E+00  0.00000000E+00  0.00000000E+00
  0.00000000E+00  0.00000000E+00  0.00000000E+00
  0.00000000E+00  0.00000000E+00  0.00000000E+00
  0.00000000E+00  0.00000000E+00  0.00000000E+00
  0.00000000E+00  0.00000000E+00  0.00000000E+00
  0.00000000E+00  0.00000000E+00  0.00000000E+00
  0.00000000E+00  0.00000000E+00  0.00000000E+00
  0.00000000E+00  0.00000000E+00  0.00000000E+00
  0.00000000E+00  0.00000000E+00  0.00000000E+00
  0.00000000E+00  0.00000000E+00  0.00000000E+00
  0.00000000E+00  0.00000000E+00  0.00000000E+00
  0.00000000E+00  0.00000000E+00  0.00000000E+00
  0.00000000E+00  0.00000000E+00  0.00000000E+00
  0.00000000E+00  0.00000000E+00  0.00000000E+00
  0.00000000E+00  0.00000000E+00  0.00000000E+00
  0.00000000E+00  0.00000000E+00  0.00000000E+00
  0.00000000E+00  0.00000000E+00  0.00000000E+00
  0.00000000E+00  0.00000000E+00  0.00000000E+00
  0.00000000E+00  0.00000000E+00  0.00000000E+00
  0.00000000E+00  0.00000000E+00  0.00000000E+00
  0.00000000E+00  0.00000000E+00  0.00000000E+00
  0.00000000E+00  0.00000000E+00  0.00000000E+00
  0.00000000E+00  0.00000000E+00  0.00000000E+00
  0.00000000E+00  0.00000000E+00  0.00000000E+00
  0.00000000E+00  0.00000000E+00  0.00000000E+00
  0.00000000E+00  0.00000000E+00  0.00000000E+00
  0.00000000E+00  0.00000000E+00  0.00000000E+00
  0.00000000E+00  0.00000000E+00  0.00000000E+00
  0.00000000E+00  0.00000000E+00  0.00000000E+00
  0.00000000E+00  0.00000000E+00  0.00000000E+00
  0.00000000E+00  0.00000000E+00  0.00000000E+00
  0.00000000E+00  0.00000000E+00  0.00000000E+00
  0.00000000E+00  0.00000000E+00  0.00000000E+00
  0.00000000E+00  0.00000000E+00  0.00000000E+00
  0.00000000E+00  0.00000000E+00  0.00000000E+00
  0.00000000E+00  0.00000000E+00  0.00000000E+00
  0.00000000E+00  0.00000000E+00  0.00000000E+00
  0.00000000E+00  0.00000000E+00  0.00000000E+00
  0.00000000E+00  0.00000000E+00  0.00000000E+00
  0.00000000E+00  0.00000000E+00  0.00000000E+00
  0.00000000E+00  0.00000000E+00  0.00000000E+00
  0.00000000E+00  0.00000000E+00  0.00000000E+00
  0.00000000E+00  0.00000000E+00  0.00000000E+00
  0.00000000E+00  0.00000000E+00  0.00000000E+00
  0.00000000E+00  0.00000000E+00  0.00000000E+00
  0.00000000E+00  0.00000000E+00  0.00000000E+00
  0.00000000E+00  0.00000000E+00  0.00000000E+00
