Layer                                   
   1.00000000000000     
     3.5271000861999999    0.0000000000000000    0.0000000000000000
     1.7537552164000001    9.5587496525999995    0.0000000000000000
     0.0000000000000000    0.0000000000000000   15.5000000000000000
   H    O    Ta   Te
    16    10     3     6
Direct
  0.3800236432382327  0.1937220209552242  0.3443724411230863
  0.2420116137945048  0.8972601994174606  0.4354612124381600
  0.9413035700130035  0.6348489142388528  0.3960257085015262
  0.8513024152362575  0.3011986539941055  0.5126608741036256
  0.1425824562503464  0.5450298994233057  0.5316035940368238
  0.5773477455967109  0.7330096151401370  0.3530489877240785
  0.4562417880840473  0.2823492645292606  0.4167975092377645
  0.4219956764666853  0.3859158966692481  0.2905413290369029
  0.7691042254113872  0.1442224384236010  0.5207925855398392
  0.4374352772260056  0.9477536417883476  0.3573194394368773
  0.0530814706655975  0.5100580974624952  0.6573272260076928
  0.3281845063747151  0.3838421242293428  0.5891445523430854
  0.0405179911834023  0.7036419653296899  0.5110673680509215
  0.3752382844323832  0.4883839751547947  0.2019773803366495
  0.8021604288437476  0.3456229633998671  0.1703019139946846
  0.6492855562244531  0.5732240309497892  0.3095686838124810
  0.3107343985375237  0.8761561259822083  0.3761502161340897
  0.7793076953155860  0.6509100318469008  0.3393273193917034
  0.1695051160069976  0.6195811204166115  0.4834133687313084
  0.3198935319731527  0.2916590993957859  0.3622818190202775
  0.6684001827350936  0.2412949997754959  0.5072810164359651
  0.1009340188837610  0.4524739164110897  0.6010371523578445
  0.1604338810019825  0.5532294249619278  0.1184890607220074
  0.5278445063573838  0.4572606351854571  0.2533863092199701
  0.7534390273884233  0.2933667778716645  0.1155717123586223
  0.0768197911002116  0.5957683849160260  0.7353291349891297
  0.5298059381272731  0.7748748726677697  0.9400970714729682
  0.2251953678846957  0.2783266591338970  0.8938006050860896
  0.8627265123982946  0.0152486528065222  0.8860132019909246
  0.5300794073868295  0.8531890003749336  0.7727079746198343
  0.3301141177575361  0.0484888815509984  0.0260856439604974
  0.1285618396995199  0.5740100977862312  0.8548818510783139
  0.0228501506966654  0.7435554439618728  0.0877411887194487
  0.7655654612852634  0.2367119612396827  0.7512587363699758
  0.6663686275376119  0.4121482742456959  0.0121290976169967
 
 -0.21028240E-01 -0.94897704E-02 -0.15449547E-01
 -0.21354921E-01  0.52388051E-02  0.21035741E-02
 -0.84891792E-02  0.33345069E-01 -0.83903453E-02
 -0.86173571E-02 -0.14796432E-02 -0.24537854E-01
 -0.16805538E-01 -0.10201481E-01 -0.10464883E-01
 -0.93802185E-02 -0.22249986E-01 -0.23529166E-01
  0.11928256E-01 -0.24996694E-01  0.38398853E-02
 -0.38570756E-02 -0.71193274E-02  0.36953677E-03
  0.25063800E-01  0.25960661E-01  0.90211322E-02
 -0.25509629E-02  0.10257461E-01 -0.11783386E-01
  0.37206609E-02  0.31590925E-01  0.31990742E-02
 -0.16231106E-01  0.67704552E-02  0.96490294E-02
 -0.90621421E-02  0.10503130E-01  0.32775334E-01
  0.15507235E-01  0.75824188E-02  0.20218975E-01
  0.22723351E-01  0.92600960E-02 -0.23822704E-01
 -0.72979457E-02 -0.16039239E-01 -0.57635261E-02
  0.45261159E-02 -0.51928808E-02 -0.37094560E-02
 -0.31056925E-02  0.10339386E-02 -0.57965304E-02
  0.60664588E-02  0.45299390E-02 -0.18843903E-02
 -0.30752258E-02  0.47695985E-02  0.44656286E-02
  0.16171312E-02  0.28898495E-02 -0.24256022E-02
 -0.10152014E-01  0.10763342E-02 -0.13710139E-02
  0.15193281E-02 -0.22923909E-02  0.69584603E-02
 -0.23646593E-02 -0.33618364E-02 -0.63663557E-03
  0.10956651E-02 -0.85385297E-02  0.21491108E-03
 -0.19835937E-02  0.19914726E-02 -0.13868687E-02
  0.32678491E-03  0.10332854E-03  0.24843014E-03
 -0.28975240E-03  0.62830345E-04 -0.22073699E-03
 -0.44224628E-03 -0.33762940E-03 -0.14022297E-03
 -0.13005148E-02  0.68421126E-03  0.75036006E-03
  0.22851626E-03 -0.33083018E-03  0.60514734E-03
  0.25838921E-03 -0.10701368E-02  0.84408337E-04
 -0.12563057E-02  0.22040022E-03 -0.15948189E-03
  0.18696920E-02 -0.15165123E-03 -0.71339602E-03
  0.18676037E-02  0.89570624E-03  0.62474012E-03
 
           1
   1.00000000000000     
  0.41578888E+01  0.88324585E-02  0.28081426E-17  0.00000000E+00
  0.37455537E+00  0.19272924E+00  0.34337570E+00
  0.23568458E+00  0.89780826E+00  0.43559693E+00
  0.93716220E+00  0.63833735E+00  0.39548440E+00
  0.84893620E+00  0.30104386E+00  0.51107779E+00
  0.13834842E+00  0.54396266E+00  0.53092844E+00
  0.57584567E+00  0.73068191E+00  0.35153098E+00
  0.46092394E+00  0.27973421E+00  0.41704524E+00
  0.42127245E+00  0.38517110E+00  0.29056517E+00
  0.77485988E+00  0.14693834E+00  0.52137459E+00
  0.43617846E+00  0.94882674E+00  0.35655922E+00
  0.52493066E-01  0.51336302E+00  0.65753362E+00
  0.32323050E+00  0.38455042E+00  0.58976707E+00
  0.37402354E-01  0.70474076E+00  0.51318191E+00
  0.37924046E+00  0.48917722E+00  0.20328183E+00
  0.80812124E+00  0.34659172E+00  0.16876497E+00
  0.64805077E+00  0.57154607E+00  0.30919684E+00
  0.31228776E+00  0.87561287E+00  0.37591090E+00
  0.77837339E+00  0.65101820E+00  0.33895335E+00
  0.17098944E+00  0.62005503E+00  0.48329180E+00
  0.31877354E+00  0.29215808E+00  0.36256992E+00
  0.66870835E+00  0.24159732E+00  0.50712453E+00
  0.97999741E-01  0.45258652E+00  0.60094870E+00
  0.16098388E+00  0.55298960E+00  0.11893799E+00
  0.52734896E+00  0.45690893E+00  0.25334524E+00
  0.75419382E+00  0.29247351E+00  0.11558558E+00
  0.76153813E-01  0.59597673E+00  0.73523966E+00
  0.52989321E+00  0.77488568E+00  0.94011310E+00
  0.22510995E+00  0.27833323E+00  0.89378636E+00
  0.86261869E+00  0.15213331E-01  0.88600416E+00
  0.52967510E+00  0.85326058E+00  0.77275638E+00
  0.33019612E+00  0.48454271E-01  0.26124686E-01
  0.12869076E+00  0.57389814E+00  0.85488730E+00
  0.22482499E-01  0.74357850E+00  0.87730900E-01
  0.76610344E+00  0.23669610E+00  0.75121271E+00
  0.66685154E+00  0.41224198E+00  0.12169403E-01
 -0.50252141E-02 -0.11564775E-02 -0.87009722E-03
 -0.62549669E-02  0.55248144E-03  0.26005019E-04
 -0.44310873E-02  0.39648786E-02 -0.66918793E-03
 -0.40760397E-02 -0.32449271E-03 -0.16695986E-02
 -0.40101704E-02 -0.12276579E-02 -0.52295420E-03
 -0.33320116E-03 -0.28845812E-02 -0.15840438E-02
  0.37869088E-02 -0.27347580E-02 -0.11454063E-03
 -0.69085274E-03 -0.82786578E-03 -0.28714975E-04
  0.52387179E-02  0.26738224E-02  0.55433428E-03
 -0.23624659E-02  0.46512481E-03 -0.56836984E-03
 -0.21292606E-02  0.36719827E-02  0.15895622E-03
 -0.60463527E-02  0.90652238E-03  0.38693891E-03
 -0.28955282E-02  0.81082816E-03  0.20470895E-02
  0.52527409E-02  0.50325501E-03  0.14113953E-02
  0.65956166E-02  0.94037437E-03 -0.13640809E-02
 -0.18682739E-02 -0.13821444E-02 -0.36193092E-03
  0.16147312E-02 -0.50397814E-03 -0.24163660E-03
 -0.97029126E-03  0.12095599E-03 -0.36631600E-03
  0.14990003E-02  0.47938152E-03 -0.10848946E-03
 -0.10651878E-02  0.52015262E-03  0.31159437E-03
  0.43839822E-03  0.30822412E-03 -0.15927944E-03
 -0.28043842E-02  0.10525295E-03 -0.74445271E-04
  0.56504940E-03 -0.22123134E-03  0.45183506E-03
 -0.61085594E-03 -0.35002142E-03 -0.61787261E-04
  0.73253629E-03 -0.88701459E-03  0.10253732E-04
 -0.65116933E-03  0.18945956E-03 -0.84857564E-04
  0.89450457E-04  0.11813672E-04  0.16449367E-04
 -0.91572809E-04  0.10090551E-04 -0.13896817E-04
 -0.10927967E-03 -0.35972041E-04 -0.92089724E-05
 -0.39687187E-03  0.69171728E-04  0.49698526E-04
  0.78855603E-04 -0.36711099E-04  0.40639770E-04
  0.13060884E-03 -0.11145101E-03  0.38029951E-05
 -0.36918320E-03  0.21235378E-04 -0.10251843E-04
  0.53969907E-03 -0.15419012E-04 -0.48911567E-04
  0.48273930E-03  0.92103091E-04  0.39813035E-04
  0.00000000E+00  0.00000000E+00  0.00000000E+00
  0.00000000E+00  0.00000000E+00  0.00000000E+00
  0.00000000E+00  0.00000000E+00  0.00000000E+00
  0.00000000E+00  0.00000000E+00  0.00000000E+00
  0.00000000E+00  0.00000000E+00  0.00000000E+00
  0.00000000E+00  0.00000000E+00  0.00000000E+00
  0.00000000E+00  0.00000000E+00  0.00000000E+00
  0.00000000E+00  0.00000000E+00  0.00000000E+00
  0.00000000E+00  0.00000000E+00  0.00000000E+00
  0.00000000E+00  0.00000000E+00  0.00000000E+00
  0.00000000E+00  0.00000000E+00  0.00000000E+00
  0.00000000E+00  0.00000000E+00  0.00000000E+00
  0.00000000E+00  0.00000000E+00  0.00000000E+00
  0.00000000E+00  0.00000000E+00  0.00000000E+00
  0.00000000E+00  0.00000000E+00  0.00000000E+00
  0.00000000E+00  0.00000000E+00  0.00000000E+00
  0.00000000E+00  0.00000000E+00  0.00000000E+00
  0.00000000E+00  0.00000000E+00  0.00000000E+00
  0.00000000E+00  0.00000000E+00  0.00000000E+00
  0.00000000E+00  0.00000000E+00  0.00000000E+00
  0.00000000E+00  0.00000000E+00  0.00000000E+00
  0.00000000E+00  0.00000000E+00  0.00000000E+00
  0.00000000E+00  0.00000000E+00  0.00000000E+00
  0.00000000E+00  0.00000000E+00  0.00000000E+00
  0.00000000E+00  0.00000000E+00  0.00000000E+00
  0.00000000E+00  0.00000000E+00  0.00000000E+00
  0.00000000E+00  0.00000000E+00  0.00000000E+00
  0.00000000E+00  0.00000000E+00  0.00000000E+00
  0.00000000E+00  0.00000000E+00  0.00000000E+00
  0.00000000E+00  0.00000000E+00  0.00000000E+00
  0.00000000E+00  0.00000000E+00  0.00000000E+00
  0.00000000E+00  0.00000000E+00  0.00000000E+00
  0.00000000E+00  0.00000000E+00  0.00000000E+00
  0.00000000E+00  0.00000000E+00  0.00000000E+00
  0.00000000E+00  0.00000000E+00  0.00000000E+00
