CONTCAR                                 
   1.00000000000000     
    10.9738998412999997    0.0000000000000000    0.0000000000000000
     0.0000000000000000   10.9738998412999997    0.0000000000000000
     0.0000000000000000    0.0000000000000000   19.0231990814000014
   Li   Co   As   O    H 
    18    18    18     2     1
Selective dynamics
Direct
  0.1655616871683065  0.0048496511136662  0.6050874154383195   F   F   F
  0.9951809962983731  0.1705303574939521  0.3942919681494104   F   F   F
  0.4961701350449559  0.0049734394653456  0.6050814825839552   F   F   F
  0.3311686809346952  0.1685592778072333  0.3932689866898400   F   F   F
  0.8311125052698571  0.0047859693503085  0.6066110156976521   F   F   F
  0.6663331231954288  0.1706629694288750  0.3946335638885188   F   F   F
  0.2054188879048553  0.3496898856467752  0.6370923523335463   F   F   F
  0.9933391665211388  0.5045886689226435  0.3926457059057071   F   F   F
  0.4784455935742926  0.3459953400778133  0.6299162487409191   F   F   F
  0.3309712690343716  0.5058001143667710  0.3929452987701438   F   F   F
  0.8315444543515085  0.3382949860668916  0.6056806828520394   F   F   F
  0.6680209196543885  0.5044622187141243  0.3935608596364730   F   F   F
  0.1678987224931205  0.6693066666406580  0.6052301755631646   F   F   F
  0.9947910997446883  0.8393172045207891  0.3943417427099689   F   F   F
  0.4922327056839535  0.6656998760950827  0.6094445961764237   F   F   F
  0.3310562626153555  0.8418105074867981  0.3912569068953715   F   F   F
  0.8313416601476717  0.6704264159617495  0.6057989680089690   F   F   F
  0.6666546008019765  0.8389991886208747  0.3943483184863865   F   F   F
  0.1630914837688877  0.1721629086113836  0.4988974811090898   F   F   F
  0.9972791003066916  0.0043254639346344  0.5009670842453247   F   F   F
  0.4987940157447355  0.1718012860301457  0.4993989693919403   F   F   F
  0.3308831255407370  0.0028926231936381  0.4992104384765383   F   F   F
  0.8313558230219087  0.1704121019552147  0.5015299940238478   F   F   F
  0.6648508543922986  0.0041006249433480  0.5011168251786344   F   F   F
  0.1602329625791086  0.5053919107213503  0.4940188499690663   F   F   F
  0.9997632521535493  0.3373292298798773  0.5007285272048989   F   F   F
  0.5009380031031654  0.5052106692982861  0.4952834989926131   F   F   F
  0.3305604360021590  0.3363148503708260  0.4944761471460666   F   F   F
  0.8316260172306045  0.5043073022498490  0.5023146490817894   F   F   F
  0.6629537728294537  0.3372192777229230  0.5007096260138368   F   F   F
  0.1635554775379120  0.8370671155264944  0.4995705983666525   F   F   F
  0.9981037990659871  0.6706227513069791  0.5003664103694376   F   F   F
  0.4984524509087080  0.8366799518417736  0.4997460996851615   F   F   F
  0.3306977379409304  0.6765562787718338  0.4923242066380453   F   F   F
  0.8309040457412920  0.8375775578754556  0.5006581507442007   F   F   F
  0.6636942385960225  0.6706973583583320  0.5004656391324573   F   F   F
  0.0000159171005478  0.1724232472825378  0.5777747102540971   F   F   F
  0.1627672929940260  0.0045744982266598  0.4235411559609688   F   F   F
  0.3304135378968098  0.1715092509422362  0.5723620658350086   F   F   F
  0.4993404539422954  0.0043873057612203  0.4237767956730139   F   F   F
  0.6629326711435368  0.1721157682394647  0.5777764299388721   F   F   F
  0.8308999135696880  0.0046548390081469  0.4244272165312921   F   F   F
  0.0015183627342310  0.5029144730476105  0.5771598526415289   F   F   F
  0.1620717386638546  0.3364769130568419  0.4194048913632713   F   F   F
  0.3297600943821166  0.5086485091757780  0.5627542503057015   F   F   F
  0.4995920516548367  0.3367287126397827  0.4201303527157165   F   F   F
  0.6622581564882140  0.5034315656820425  0.5767549253769744   F   F   F
  0.8311424815951938  0.3375917544372840  0.4259303612172900   F   F   F
  0.9980308370728181  0.8370363580325417  0.5775623064176187   F   F   F
  0.1604147209492837  0.6739473177065562  0.4190489046136037   F   F   F
  0.3310301428649680  0.8363508121076393  0.5756762796719883   F   F   F
  0.5010890191258000  0.6732629868125386  0.4194427474293434   F   F   F
  0.6637724390795228  0.8366928772136646  0.5778189533160045   F   F   F
  0.8307967470436850  0.6707222542763418  0.4248099059010215   F   F   F
  0.3694838841618093  0.4855943112141148  0.7218895168683872   T   T   T
  0.3481149065075400  0.3576248170525105  0.6954751759360960   T   T   T
  0.3857452061260744  0.4679590217117777  0.7706453368268016   T   T   T
 
  0.00000000E+00  0.00000000E+00  0.00000000E+00
  0.00000000E+00  0.00000000E+00  0.00000000E+00
  0.00000000E+00  0.00000000E+00  0.00000000E+00
  0.00000000E+00  0.00000000E+00  0.00000000E+00
  0.00000000E+00  0.00000000E+00  0.00000000E+00
  0.00000000E+00  0.00000000E+00  0.00000000E+00
  0.00000000E+00  0.00000000E+00  0.00000000E+00
  0.00000000E+00  0.00000000E+00  0.00000000E+00
  0.00000000E+00  0.00000000E+00  0.00000000E+00
  0.00000000E+00  0.00000000E+00  0.00000000E+00
  0.00000000E+00  0.00000000E+00  0.00000000E+00
  0.00000000E+00  0.00000000E+00  0.00000000E+00
  0.00000000E+00  0.00000000E+00  0.00000000E+00
  0.00000000E+00  0.00000000E+00  0.00000000E+00
  0.00000000E+00  0.00000000E+00  0.00000000E+00
  0.00000000E+00  0.00000000E+00  0.00000000E+00
  0.00000000E+00  0.00000000E+00  0.00000000E+00
  0.00000000E+00  0.00000000E+00  0.00000000E+00
  0.00000000E+00  0.00000000E+00  0.00000000E+00
  0.00000000E+00  0.00000000E+00  0.00000000E+00
  0.00000000E+00  0.00000000E+00  0.00000000E+00
  0.00000000E+00  0.00000000E+00  0.00000000E+00
  0.00000000E+00  0.00000000E+00  0.00000000E+00
  0.00000000E+00  0.00000000E+00  0.00000000E+00
  0.00000000E+00  0.00000000E+00  0.00000000E+00
  0.00000000E+00  0.00000000E+00  0.00000000E+00
  0.00000000E+00  0.00000000E+00  0.00000000E+00
  0.00000000E+00  0.00000000E+00  0.00000000E+00
  0.00000000E+00  0.00000000E+00  0.00000000E+00
  0.00000000E+00  0.00000000E+00  0.00000000E+00
  0.00000000E+00  0.00000000E+00  0.00000000E+00
  0.00000000E+00  0.00000000E+00  0.00000000E+00
  0.00000000E+00  0.00000000E+00  0.00000000E+00
  0.00000000E+00  0.00000000E+00  0.00000000E+00
  0.00000000E+00  0.00000000E+00  0.00000000E+00
  0.00000000E+00  0.00000000E+00  0.00000000E+00
  0.00000000E+00  0.00000000E+00  0.00000000E+00
  0.00000000E+00  0.00000000E+00  0.00000000E+00
  0.00000000E+00  0.00000000E+00  0.00000000E+00
  0.00000000E+00  0.00000000E+00  0.00000000E+00
  0.00000000E+00  0.00000000E+00  0.00000000E+00
  0.00000000E+00  0.00000000E+00  0.00000000E+00
  0.00000000E+00  0.00000000E+00  0.00000000E+00
  0.00000000E+00  0.00000000E+00  0.00000000E+00
  0.00000000E+00  0.00000000E+00  0.00000000E+00
  0.00000000E+00  0.00000000E+00  0.00000000E+00
  0.00000000E+00  0.00000000E+00  0.00000000E+00
  0.00000000E+00  0.00000000E+00  0.00000000E+00
  0.00000000E+00  0.00000000E+00  0.00000000E+00
  0.00000000E+00  0.00000000E+00  0.00000000E+00
  0.00000000E+00  0.00000000E+00  0.00000000E+00
  0.00000000E+00  0.00000000E+00  0.00000000E+00
  0.00000000E+00  0.00000000E+00  0.00000000E+00
  0.00000000E+00  0.00000000E+00  0.00000000E+00
  0.00000000E+00  0.00000000E+00  0.00000000E+00
  0.00000000E+00  0.00000000E+00  0.00000000E+00
  0.00000000E+00  0.00000000E+00  0.00000000E+00
