CONTCAR\(5)                             
   1.00000000000000     
    13.0608997344999995    0.0000000000000000    0.0000000000000000
    -3.2652307411999999   18.2355734656999999    0.0000000000000000
     0.0000000000000000    0.0000000000000000   18.6539993286000012
   Ta   Pd   S    O    H 
    16     8    48     2     1
Selective dynamics
Direct
  0.0879289608475560  0.3497880824339674  0.5282065781634842   F   F   F
  0.1628605424457064  0.1512313645647509  0.4780723842107264   F   F   F
  0.3379497658985713  0.3493038814931211  0.5282468732184498   F   F   F
  0.4131951330778847  0.1512761443009794  0.4779677135587761   F   F   F
  0.5882221795436777  0.3496930474952293  0.5281885682559562   F   F   F
  0.6630816200863663  0.1515726688629115  0.4778764781637932   F   F   F
  0.8381618136165940  0.3503889591607745  0.5281934558361812   F   F   F
  0.9129889778285047  0.1514600580406551  0.4780737059406874   F   F   F
  0.0893950931879530  0.8516888693739446  0.5272935073719651   F   F   F
  0.1643070988788864  0.6505556431637274  0.4821443218630890   F   F   F
  0.3372204181645841  0.8546964635317451  0.5250540003862056   F   F   F
  0.4149764824474289  0.6455787758031875  0.4794860908091252   F   F   F
  0.5942599457091475  0.8533560193435079  0.5219013558745260   F   F   F
  0.6653954480750244  0.6497885097158971  0.4799663316232383   F   F   F
  0.8406422152202069  0.8513972086556407  0.5262579812668022   F   F   F
  0.9149437257641679  0.6506781458902324  0.4809522577586023   F   F   F
  0.0012225779796537  0.0007434871862273  0.5021860418159605   F   F   F
  0.2512585350996446  0.0014867784850239  0.5017971025985872   F   F   F
  0.5016776118036361  0.0010683697772791  0.5009847922055002   F   F   F
  0.7513325097168035  0.0011975357894372  0.5004642459130437   F   F   F
  0.0020731428997465  0.5012440237726494  0.5049277479635492   F   F   F
  0.2511433355584103  0.4991300813841377  0.5049202816967551   F   F   F
  0.5014225734846036  0.4989988878762190  0.5042651977836954   F   F   F
  0.7514790592800651  0.5008360548576860  0.5045129374092951   F   F   F
  0.1894465727770935  0.2571118020080974  0.5727899260088378   F   F   F
  0.0274617242162165  0.1086671532510906  0.5702740165779048   F   F   F
  0.2234362445897204  0.3920761145487006  0.4361320461182672   F   F   F
  0.0611836501465461  0.2437890852989923  0.4334049266867552   F   F   F
  0.2305012065751555  0.4186569127124855  0.6028152582990884   F   F   F
  0.0203266563693560  0.0813925821936792  0.4040842838666094   F   F   F
  0.4397766903388245  0.2570315360659663  0.5728507195877128   F   F   F
  0.2776629184729913  0.1088516159720356  0.5701770251117466   F   F   F
  0.4731862389928594  0.3916440642737058  0.4359731871854322   F   F   F
  0.3112436676200190  0.2436869931413241  0.4334661313498103   F   F   F
  0.4805841009586800  0.4188256027360850  0.6025541997236346   F   F   F
  0.2705723523953552  0.0818689193342905  0.4036561646584502   F   F   F
  0.6899476727222549  0.2575800715223409  0.5728288877122907   F   F   F
  0.5277220653305079  0.1085372794512907  0.5699198841874136   F   F   F
  0.7235323848968278  0.3930808612595982  0.4361024935066098   F   F   F
  0.5613448698881101  0.2439708065188881  0.4334256261898020   F   F   F
  0.7306883781862297  0.4198586437030372  0.6023125627121786   F   F   F
  0.5209474540500167  0.0821580340628358  0.4033422633028820   F   F   F
  0.9395117453508206  0.2576726573405423  0.5729097247741066   F   F   F
  0.7774305316301380  0.1082169222752611  0.5697877927504109   F   F   F
  0.9737541228234434  0.3935277073447097  0.4362776053114104   F   F   F
  0.8114600410417907  0.2441932132829834  0.4336299721410271   F   F   F
  0.9810417070344357  0.4198974901374442  0.6023655605991678   F   F   F
  0.7709166606994202  0.0826617972178667  0.4031080407864209   F   F   F
  0.1931223626533409  0.7608650339813252  0.5734372299227246   F   F   F
  0.0298137021918450  0.6093309426951379  0.5740224440643900   F   F   F
  0.2232314082441604  0.8933666193514256  0.4330830589171555   F   F   F
  0.0641397760604079  0.7424848178472416  0.4358390695916086   F   F   F
  0.2315583392339704  0.9222046989439008  0.6010752953386103   F   F   F
  0.0229942654688600  0.5820149476114196  0.4068117653244698   F   F   F
  0.4406003438152766  0.7576951460626660  0.5635281129628424   F   F   F
  0.2796813622277483  0.6068734310048853  0.5734915187740697   F   F   F
  0.4737213222508387  0.8931146698402799  0.4324482878258351   F   F   F
  0.3165576827825944  0.7424185165420809  0.4379774421923344   F   F   F
  0.4835469038715559  0.9198700574361069  0.5991883299452780   F   F   F
  0.2700221362950543  0.5797303350639353  0.4065530351296616   F   F   F
  0.6897205734182492  0.7597862616027911  0.5713156203251017   F   F   F
  0.5300644707957574  0.6072075247350739  0.5724709965486525   F   F   F
  0.7269131920118852  0.8932187098757112  0.4311528812545049   F   F   F
  0.5612731383395300  0.7405349023624836  0.4330674170559305   F   F   F
  0.7324698649735879  0.9212256586718723  0.5991150657489470   F   F   F
  0.5235841695031098  0.5786368053489070  0.4052914073427161   F   F   F
  0.9413883793720998  0.7596325955673677  0.5730649089095152   F   F   F
  0.7793916844069457  0.6089332897528976  0.5731372464687468   F   F   F
  0.9749767363604107  0.8924175090797277  0.4339166506960837   F   F   F
  0.8126107213788742  0.7420661197510441  0.4350879897524820   F   F   F
  0.9816630033836233  0.9209220560538398  0.6011102693205785   F   F   F
  0.7733357488736985  0.5810657359066695  0.4060618116276373   F   F   F
  0.4711615815855694  0.7543909859882376  0.6520362039575431   T   T   T
  0.3779457743217520  0.7366288240163357  0.6972884637448331   T   T   T
  0.3663929854575798  0.6825759842944307  0.6951850963134149   T   T   T
 
  0.00000000E+00  0.00000000E+00  0.00000000E+00
  0.00000000E+00  0.00000000E+00  0.00000000E+00
  0.00000000E+00  0.00000000E+00  0.00000000E+00
  0.00000000E+00  0.00000000E+00  0.00000000E+00
  0.00000000E+00  0.00000000E+00  0.00000000E+00
  0.00000000E+00  0.00000000E+00  0.00000000E+00
  0.00000000E+00  0.00000000E+00  0.00000000E+00
  0.00000000E+00  0.00000000E+00  0.00000000E+00
  0.00000000E+00  0.00000000E+00  0.00000000E+00
  0.00000000E+00  0.00000000E+00  0.00000000E+00
  0.00000000E+00  0.00000000E+00  0.00000000E+00
  0.00000000E+00  0.00000000E+00  0.00000000E+00
  0.00000000E+00  0.00000000E+00  0.00000000E+00
  0.00000000E+00  0.00000000E+00  0.00000000E+00
  0.00000000E+00  0.00000000E+00  0.00000000E+00
  0.00000000E+00  0.00000000E+00  0.00000000E+00
  0.00000000E+00  0.00000000E+00  0.00000000E+00
  0.00000000E+00  0.00000000E+00  0.00000000E+00
  0.00000000E+00  0.00000000E+00  0.00000000E+00
  0.00000000E+00  0.00000000E+00  0.00000000E+00
  0.00000000E+00  0.00000000E+00  0.00000000E+00
  0.00000000E+00  0.00000000E+00  0.00000000E+00
  0.00000000E+00  0.00000000E+00  0.00000000E+00
  0.00000000E+00  0.00000000E+00  0.00000000E+00
  0.00000000E+00  0.00000000E+00  0.00000000E+00
  0.00000000E+00  0.00000000E+00  0.00000000E+00
  0.00000000E+00  0.00000000E+00  0.00000000E+00
  0.00000000E+00  0.00000000E+00  0.00000000E+00
  0.00000000E+00  0.00000000E+00  0.00000000E+00
  0.00000000E+00  0.00000000E+00  0.00000000E+00
  0.00000000E+00  0.00000000E+00  0.00000000E+00
  0.00000000E+00  0.00000000E+00  0.00000000E+00
  0.00000000E+00  0.00000000E+00  0.00000000E+00
  0.00000000E+00  0.00000000E+00  0.00000000E+00
  0.00000000E+00  0.00000000E+00  0.00000000E+00
  0.00000000E+00  0.00000000E+00  0.00000000E+00
  0.00000000E+00  0.00000000E+00  0.00000000E+00
  0.00000000E+00  0.00000000E+00  0.00000000E+00
  0.00000000E+00  0.00000000E+00  0.00000000E+00
  0.00000000E+00  0.00000000E+00  0.00000000E+00
  0.00000000E+00  0.00000000E+00  0.00000000E+00
  0.00000000E+00  0.00000000E+00  0.00000000E+00
  0.00000000E+00  0.00000000E+00  0.00000000E+00
  0.00000000E+00  0.00000000E+00  0.00000000E+00
  0.00000000E+00  0.00000000E+00  0.00000000E+00
  0.00000000E+00  0.00000000E+00  0.00000000E+00
  0.00000000E+00  0.00000000E+00  0.00000000E+00
  0.00000000E+00  0.00000000E+00  0.00000000E+00
  0.00000000E+00  0.00000000E+00  0.00000000E+00
  0.00000000E+00  0.00000000E+00  0.00000000E+00
  0.00000000E+00  0.00000000E+00  0.00000000E+00
  0.00000000E+00  0.00000000E+00  0.00000000E+00
  0.00000000E+00  0.00000000E+00  0.00000000E+00
  0.00000000E+00  0.00000000E+00  0.00000000E+00
  0.00000000E+00  0.00000000E+00  0.00000000E+00
  0.00000000E+00  0.00000000E+00  0.00000000E+00
  0.00000000E+00  0.00000000E+00  0.00000000E+00
  0.00000000E+00  0.00000000E+00  0.00000000E+00
  0.00000000E+00  0.00000000E+00  0.00000000E+00
  0.00000000E+00  0.00000000E+00  0.00000000E+00
  0.00000000E+00  0.00000000E+00  0.00000000E+00
  0.00000000E+00  0.00000000E+00  0.00000000E+00
  0.00000000E+00  0.00000000E+00  0.00000000E+00
  0.00000000E+00  0.00000000E+00  0.00000000E+00
  0.00000000E+00  0.00000000E+00  0.00000000E+00
  0.00000000E+00  0.00000000E+00  0.00000000E+00
  0.00000000E+00  0.00000000E+00  0.00000000E+00
  0.00000000E+00  0.00000000E+00  0.00000000E+00
  0.00000000E+00  0.00000000E+00  0.00000000E+00
  0.00000000E+00  0.00000000E+00  0.00000000E+00
  0.00000000E+00  0.00000000E+00  0.00000000E+00
  0.00000000E+00  0.00000000E+00  0.00000000E+00
  0.00000000E+00  0.00000000E+00  0.00000000E+00
  0.00000000E+00  0.00000000E+00  0.00000000E+00
  0.00000000E+00  0.00000000E+00  0.00000000E+00
