 K2 Fe4 S6                              
   1.00000000000000     
     5.1332436321492265    0.0000000000000000    0.0000000000000000
     0.0000000000000000    8.5855973167127182    0.0000000000000000
     0.0000000000000000    0.0000000000000000   18.9182367659579995
   K    Fe   S 
     2     4     6
Direct
  0.2499929336003746  0.4999610103218259  0.4100574269733812
  0.7500070676680934  0.4999609606236959  0.5899425751875071
  0.9999999938724997  0.1470205685547654  0.4999999592657005
  0.5000000054892624  0.8529928662844739  0.5000000407203729
  0.0000000034447822  0.8530118033486929  0.5000000412060359
  0.4999999986161257  0.1469970052970240  0.4999999617807944
  0.7500142264526843  0.7155970345854428  0.4356669353711027
  0.2499856358380299  0.2844372424287442  0.5643363552474412
  0.2499857803472807  0.7155970753298959  0.5643331645879428
  0.7499887172393045  0.9999937019936525  0.5646835712286773
  0.2500112877488405  0.9999935570432612  0.4353164307033452
  0.7500143496827292  0.2844371741885254  0.4356635377276987
 
  0.00000000E+00  0.00000000E+00  0.00000000E+00
  0.00000000E+00  0.00000000E+00  0.00000000E+00
  0.00000000E+00  0.00000000E+00  0.00000000E+00
  0.00000000E+00  0.00000000E+00  0.00000000E+00
  0.00000000E+00  0.00000000E+00  0.00000000E+00
  0.00000000E+00  0.00000000E+00  0.00000000E+00
  0.00000000E+00  0.00000000E+00  0.00000000E+00
  0.00000000E+00  0.00000000E+00  0.00000000E+00
  0.00000000E+00  0.00000000E+00  0.00000000E+00
  0.00000000E+00  0.00000000E+00  0.00000000E+00
  0.00000000E+00  0.00000000E+00  0.00000000E+00
  0.00000000E+00  0.00000000E+00  0.00000000E+00
