G   39   23    1    0.005     # Parameters to Generate KPOINTS (Don't Edit This Line)
     240
Reciprocal lattice
    0.000000000000    0.000000000000    0.000000000000       1
    0.025641025641    0.000000000000    0.000000000000       2
    0.051282051282    0.000000000000    0.000000000000       2
    0.076923076923    0.000000000000    0.000000000000       2
    0.102564102564    0.000000000000    0.000000000000       2
    0.128205128205    0.000000000000    0.000000000000       2
    0.153846153846    0.000000000000    0.000000000000       2
    0.179487179487    0.000000000000    0.000000000000       2
    0.205128205128    0.000000000000    0.000000000000       2
    0.230769230769    0.000000000000    0.000000000000       2
    0.256410256410    0.000000000000    0.000000000000       2
    0.282051282051    0.000000000000    0.000000000000       2
    0.307692307692    0.000000000000    0.000000000000       2
    0.333333333333    0.000000000000    0.000000000000       2
    0.358974358974    0.000000000000    0.000000000000       2
    0.384615384615    0.000000000000    0.000000000000       2
    0.410256410256    0.000000000000    0.000000000000       2
    0.435897435897    0.000000000000    0.000000000000       2
    0.461538461538    0.000000000000    0.000000000000       2
    0.487179487179    0.000000000000    0.000000000000       2
    0.000000000000    0.043478260870    0.000000000000       2
    0.025641025641    0.043478260870    0.000000000000       4
    0.051282051282    0.043478260870    0.000000000000       4
    0.076923076923    0.043478260870    0.000000000000       4
    0.102564102564    0.043478260870    0.000000000000       4
    0.128205128205    0.043478260870    0.000000000000       4
    0.153846153846    0.043478260870    0.000000000000       4
    0.179487179487    0.043478260870    0.000000000000       4
    0.205128205128    0.043478260870    0.000000000000       4
    0.230769230769    0.043478260870    0.000000000000       4
    0.256410256410    0.043478260870    0.000000000000       4
    0.282051282051    0.043478260870    0.000000000000       4
    0.307692307692    0.043478260870    0.000000000000       4
    0.333333333333    0.043478260870    0.000000000000       4
    0.358974358974    0.043478260870    0.000000000000       4
    0.384615384615    0.043478260870    0.000000000000       4
    0.410256410256    0.043478260870    0.000000000000       4
    0.435897435897    0.043478260870    0.000000000000       4
    0.461538461538    0.043478260870    0.000000000000       4
    0.487179487179    0.043478260870    0.000000000000       4
    0.000000000000    0.086956521739    0.000000000000       2
    0.025641025641    0.086956521739    0.000000000000       4
    0.051282051282    0.086956521739    0.000000000000       4
    0.076923076923    0.086956521739    0.000000000000       4
    0.102564102564    0.086956521739    0.000000000000       4
    0.128205128205    0.086956521739    0.000000000000       4
    0.153846153846    0.086956521739    0.000000000000       4
    0.179487179487    0.086956521739    0.000000000000       4
    0.205128205128    0.086956521739    0.000000000000       4
    0.230769230769    0.086956521739    0.000000000000       4
    0.256410256410    0.086956521739    0.000000000000       4
    0.282051282051    0.086956521739    0.000000000000       4
    0.307692307692    0.086956521739    0.000000000000       4
    0.333333333333    0.086956521739    0.000000000000       4
    0.358974358974    0.086956521739    0.000000000000       4
    0.384615384615    0.086956521739    0.000000000000       4
    0.410256410256    0.086956521739    0.000000000000       4
    0.435897435897    0.086956521739    0.000000000000       4
    0.461538461538    0.086956521739    0.000000000000       4
    0.487179487179    0.086956521739    0.000000000000       4
    0.000000000000    0.130434782609    0.000000000000       2
    0.025641025641    0.130434782609    0.000000000000       4
    0.051282051282    0.130434782609    0.000000000000       4
    0.076923076923    0.130434782609    0.000000000000       4
    0.102564102564    0.130434782609    0.000000000000       4
    0.128205128205    0.130434782609    0.000000000000       4
    0.153846153846    0.130434782609    0.000000000000       4
    0.179487179487    0.130434782609    0.000000000000       4
    0.205128205128    0.130434782609    0.000000000000       4
    0.230769230769    0.130434782609    0.000000000000       4
    0.256410256410    0.130434782609    0.000000000000       4
    0.282051282051    0.130434782609    0.000000000000       4
    0.307692307692    0.130434782609    0.000000000000       4
    0.333333333333    0.130434782609    0.000000000000       4
    0.358974358974    0.130434782609    0.000000000000       4
    0.384615384615    0.130434782609    0.000000000000       4
    0.410256410256    0.130434782609    0.000000000000       4
    0.435897435897    0.130434782609    0.000000000000       4
    0.461538461538    0.130434782609    0.000000000000       4
    0.487179487179    0.130434782609    0.000000000000       4
    0.000000000000    0.173913043478    0.000000000000       2
    0.025641025641    0.173913043478    0.000000000000       4
    0.051282051282    0.173913043478    0.000000000000       4
    0.076923076923    0.173913043478    0.000000000000       4
    0.102564102564    0.173913043478    0.000000000000       4
    0.128205128205    0.173913043478    0.000000000000       4
    0.153846153846    0.173913043478    0.000000000000       4
    0.179487179487    0.173913043478    0.000000000000       4
    0.205128205128    0.173913043478    0.000000000000       4
    0.230769230769    0.173913043478    0.000000000000       4
    0.256410256410    0.173913043478    0.000000000000       4
    0.282051282051    0.173913043478    0.000000000000       4
    0.307692307692    0.173913043478    0.000000000000       4
    0.333333333333    0.173913043478    0.000000000000       4
    0.358974358974    0.173913043478    0.000000000000       4
    0.384615384615    0.173913043478    0.000000000000       4
    0.410256410256    0.173913043478    0.000000000000       4
    0.435897435897    0.173913043478    0.000000000000       4
    0.461538461538    0.173913043478    0.000000000000       4
    0.487179487179    0.173913043478    0.000000000000       4
    0.000000000000    0.217391304348    0.000000000000       2
    0.025641025641    0.217391304348    0.000000000000       4
    0.051282051282    0.217391304348    0.000000000000       4
    0.076923076923    0.217391304348    0.000000000000       4
    0.102564102564    0.217391304348    0.000000000000       4
    0.128205128205    0.217391304348    0.000000000000       4
    0.153846153846    0.217391304348    0.000000000000       4
    0.179487179487    0.217391304348    0.000000000000       4
    0.205128205128    0.217391304348    0.000000000000       4
    0.230769230769    0.217391304348    0.000000000000       4
    0.256410256410    0.217391304348    0.000000000000       4
    0.282051282051    0.217391304348    0.000000000000       4
    0.307692307692    0.217391304348    0.000000000000       4
    0.333333333333    0.217391304348    0.000000000000       4
    0.358974358974    0.217391304348    0.000000000000       4
    0.384615384615    0.217391304348    0.000000000000       4
    0.410256410256    0.217391304348    0.000000000000       4
    0.435897435897    0.217391304348    0.000000000000       4
    0.461538461538    0.217391304348    0.000000000000       4
    0.487179487179    0.217391304348    0.000000000000       4
    0.000000000000    0.260869565217    0.000000000000       2
    0.025641025641    0.260869565217    0.000000000000       4
    0.051282051282    0.260869565217    0.000000000000       4
    0.076923076923    0.260869565217    0.000000000000       4
    0.102564102564    0.260869565217    0.000000000000       4
    0.128205128205    0.260869565217    0.000000000000       4
    0.153846153846    0.260869565217    0.000000000000       4
    0.179487179487    0.260869565217    0.000000000000       4
    0.205128205128    0.260869565217    0.000000000000       4
    0.230769230769    0.260869565217    0.000000000000       4
    0.256410256410    0.260869565217    0.000000000000       4
    0.282051282051    0.260869565217    0.000000000000       4
    0.307692307692    0.260869565217    0.000000000000       4
    0.333333333333    0.260869565217    0.000000000000       4
    0.358974358974    0.260869565217    0.000000000000       4
    0.384615384615    0.260869565217    0.000000000000       4
    0.410256410256    0.260869565217    0.000000000000       4
    0.435897435897    0.260869565217    0.000000000000       4
    0.461538461538    0.260869565217    0.000000000000       4
    0.487179487179    0.260869565217    0.000000000000       4
    0.000000000000    0.304347826087    0.000000000000       2
    0.025641025641    0.304347826087    0.000000000000       4
    0.051282051282    0.304347826087    0.000000000000       4
    0.076923076923    0.304347826087    0.000000000000       4
    0.102564102564    0.304347826087    0.000000000000       4
    0.128205128205    0.304347826087    0.000000000000       4
    0.153846153846    0.304347826087    0.000000000000       4
    0.179487179487    0.304347826087    0.000000000000       4
    0.205128205128    0.304347826087    0.000000000000       4
    0.230769230769    0.304347826087    0.000000000000       4
    0.256410256410    0.304347826087    0.000000000000       4
    0.282051282051    0.304347826087    0.000000000000       4
    0.307692307692    0.304347826087    0.000000000000       4
    0.333333333333    0.304347826087    0.000000000000       4
    0.358974358974    0.304347826087    0.000000000000       4
    0.384615384615    0.304347826087    0.000000000000       4
    0.410256410256    0.304347826087    0.000000000000       4
    0.435897435897    0.304347826087    0.000000000000       4
    0.461538461538    0.304347826087    0.000000000000       4
    0.487179487179    0.304347826087    0.000000000000       4
    0.000000000000    0.347826086957    0.000000000000       2
    0.025641025641    0.347826086957    0.000000000000       4
    0.051282051282    0.347826086957    0.000000000000       4
    0.076923076923    0.347826086957    0.000000000000       4
    0.102564102564    0.347826086957    0.000000000000       4
    0.128205128205    0.347826086957    0.000000000000       4
    0.153846153846    0.347826086957    0.000000000000       4
    0.179487179487    0.347826086957    0.000000000000       4
    0.205128205128    0.347826086957    0.000000000000       4
    0.230769230769    0.347826086957    0.000000000000       4
    0.256410256410    0.347826086957    0.000000000000       4
    0.282051282051    0.347826086957    0.000000000000       4
    0.307692307692    0.347826086957    0.000000000000       4
    0.333333333333    0.347826086957    0.000000000000       4
    0.358974358974    0.347826086957    0.000000000000       4
    0.384615384615    0.347826086957    0.000000000000       4
    0.410256410256    0.347826086957    0.000000000000       4
    0.435897435897    0.347826086957    0.000000000000       4
    0.461538461538    0.347826086957    0.000000000000       4
    0.487179487179    0.347826086957    0.000000000000       4
    0.000000000000    0.391304347826    0.000000000000       2
    0.025641025641    0.391304347826    0.000000000000       4
    0.051282051282    0.391304347826    0.000000000000       4
    0.076923076923    0.391304347826    0.000000000000       4
    0.102564102564    0.391304347826    0.000000000000       4
    0.128205128205    0.391304347826    0.000000000000       4
    0.153846153846    0.391304347826    0.000000000000       4
    0.179487179487    0.391304347826    0.000000000000       4
    0.205128205128    0.391304347826    0.000000000000       4
    0.230769230769    0.391304347826    0.000000000000       4
    0.256410256410    0.391304347826    0.000000000000       4
    0.282051282051    0.391304347826    0.000000000000       4
    0.307692307692    0.391304347826    0.000000000000       4
    0.333333333333    0.391304347826    0.000000000000       4
    0.358974358974    0.391304347826    0.000000000000       4
    0.384615384615    0.391304347826    0.000000000000       4
    0.410256410256    0.391304347826    0.000000000000       4
    0.435897435897    0.391304347826    0.000000000000       4
    0.461538461538    0.391304347826    0.000000000000       4
    0.487179487179    0.391304347826    0.000000000000       4
    0.000000000000    0.434782608696    0.000000000000       2
    0.025641025641    0.434782608696    0.000000000000       4
    0.051282051282    0.434782608696    0.000000000000       4
    0.076923076923    0.434782608696    0.000000000000       4
    0.102564102564    0.434782608696    0.000000000000       4
    0.128205128205    0.434782608696    0.000000000000       4
    0.153846153846    0.434782608696    0.000000000000       4
    0.179487179487    0.434782608696    0.000000000000       4
    0.205128205128    0.434782608696    0.000000000000       4
    0.230769230769    0.434782608696    0.000000000000       4
    0.256410256410    0.434782608696    0.000000000000       4
    0.282051282051    0.434782608696    0.000000000000       4
    0.307692307692    0.434782608696    0.000000000000       4
    0.333333333333    0.434782608696    0.000000000000       4
    0.358974358974    0.434782608696    0.000000000000       4
    0.384615384615    0.434782608696    0.000000000000       4
    0.410256410256    0.434782608696    0.000000000000       4
    0.435897435897    0.434782608696    0.000000000000       4
    0.461538461538    0.434782608696    0.000000000000       4
    0.487179487179    0.434782608696    0.000000000000       4
    0.000000000000    0.478260869565    0.000000000000       2
    0.025641025641    0.478260869565    0.000000000000       4
    0.051282051282    0.478260869565    0.000000000000       4
    0.076923076923    0.478260869565    0.000000000000       4
    0.102564102564    0.478260869565    0.000000000000       4
    0.128205128205    0.478260869565    0.000000000000       4
    0.153846153846    0.478260869565    0.000000000000       4
    0.179487179487    0.478260869565    0.000000000000       4
    0.205128205128    0.478260869565    0.000000000000       4
    0.230769230769    0.478260869565    0.000000000000       4
    0.256410256410    0.478260869565    0.000000000000       4
    0.282051282051    0.478260869565    0.000000000000       4
    0.307692307692    0.478260869565    0.000000000000       4
    0.333333333333    0.478260869565    0.000000000000       4
    0.358974358974    0.478260869565    0.000000000000       4
    0.384615384615    0.478260869565    0.000000000000       4
    0.410256410256    0.478260869565    0.000000000000       4
    0.435897435897    0.478260869565    0.000000000000       4
    0.461538461538    0.478260869565    0.000000000000       4
    0.487179487179    0.478260869565    0.000000000000       4
