CONTCAR\(8)                             
   1.00000000000000     
    13.1094999313000002    0.0000000000000000    0.0000000000000000
    -6.5547499657000001   11.3531599714000002    0.0000000000000000
     0.0000000000000000    0.0000000000000000   20.2374000549000002
   Na   Hf   N    O    H 
    32    16    32     2     1
Direct
  0.1664329269960919  0.0821434663348302  0.3732998035731371
  0.0841083352123513  0.1665027475182339  0.6263050117453490
  0.4170848978456944  0.0823526412284281  0.3734442319159112
  0.3331693230930115  0.1665356312990580  0.6262872011700151
  0.6668982541136220  0.0831967193598081  0.3734181415474133
  0.5830432737443799  0.1658091338232163  0.6270651217006814
  0.9159597010864819  0.0823846619084478  0.3734155740449603
  0.8335447476880645  0.1657498436154382  0.6270750594758945
  0.1651414644165303  0.3312999157678804  0.3725131902854392
  0.0862540338338211  0.4168954322712641  0.6267054934062996
  0.4167403307621970  0.3312568810443007  0.3724975938388250
  0.3374323949688980  0.4241234888335228  0.6293091918347203
  0.6670552274555260  0.3317470407935649  0.3732382466290682
  0.5814368220981687  0.4170324177136872  0.6266145801266312
  0.9153458806174150  0.3317302610370370  0.3732561828098198
  0.8331089645701207  0.4155505695466319  0.6270620384285646
  0.1653324569434539  0.5821953587870567  0.3728532089378909
  0.0837763928949390  0.6653926097277794  0.6264654581246291
  0.4165583595413544  0.5825070669712822  0.3721331449924154
  0.3379123676971976  0.6610043011793527  0.6297798382558371
  0.6675217050366884  0.5821692573413197  0.3727490533721723
  0.5740711100177019  0.6611439347416135  0.6297048907496668
  0.9162963022572778  0.5817956952122165  0.3734992952002004
  0.8323036751732493  0.6653961764749885  0.6263981186452710
  0.1666651543227734  0.8321720761080210  0.3735483626601269
  0.0832372810619171  0.9158697321518697  0.6267532609216740
  0.4168596540442961  0.8335962387117565  0.3729832898582883
  0.3331735259214121  0.9151161590547425  0.6264895919017839
  0.6674202242335757  0.8336137324587837  0.3729040400404462
  0.5817897434551673  0.9126860197582435  0.6269816828514411
  0.9163360342346343  0.8322092475410701  0.3735098306923604
  0.8326394539721702  0.9151027272884557  0.6264437164286899
  0.9997916357442111  0.9990035162434835  0.4999368117075628
  0.2499156031104701  0.9990020623387665  0.4999823424330639
  0.4997776273193232  0.9984833301103002  0.5003567413280616
  0.7494058865717667  0.9984884900025139  0.5003031603828152
  0.0002806867288911  0.2493631053785642  0.5000253014087991
  0.2502984437827297  0.2499263221871536  0.4999598994435951
  0.4997687811918664  0.2493700329505730  0.5000153092178924
  0.7498415942448386  0.2489877315848043  0.5006167447288951
  0.0003115151626828  0.4990277364204664  0.5002004453471455
  0.2506414992979549  0.4993867715530780  0.4990347249937593
  0.4994240624060223  0.4993971518214744  0.4989833150150746
  0.7494123812456589  0.4990457912543409  0.5001358235078048
  0.9998009392218389  0.7488943566063337  0.5000778312192424
  0.2503540186799881  0.7484694955005655  0.5004942494836545
  0.4994035203525674  0.7481152866872195  0.4993096266166009
  0.7488279107861827  0.7484865124298398  0.5003852846642267
  0.1666366571002585  0.0825780681803827  0.5570468433202606
  0.0825968770629479  0.1652319027820220  0.4429613214900965
  0.4164562884691617  0.0823589532582877  0.5574321540777228
  0.3333037526210941  0.1652107239986803  0.4429833949335155
  0.6662527601898146  0.0817479537074367  0.5578951606997664
  0.5835417940727022  0.1657395269214029  0.4436035251343160
  0.9166358722954479  0.0823395922131784  0.5574087061463369
  0.8328853143456177  0.1657449949749509  0.4435877433245026
  0.1675478837111541  0.3331690829437432  0.5565979651734175
  0.0818844548457085  0.4150022821651783  0.4422212221405991
  0.4163488811113448  0.3331853650146908  0.5565657871037856
  0.3323665947540380  0.4141350819451062  0.4408728358934121
  0.6661374758903827  0.3326140735054022  0.5576499983270359
  0.5837741800190537  0.4150128577435934  0.4421842120358603
  0.9171585351355006  0.3325969597634666  0.5576879296733518
  0.8329816022171753  0.4152607557884382  0.4435732826951464
  0.1674788681883628  0.5822569074023157  0.5567857988383561
  0.0827546062750376  0.6655429614892111  0.4432426086495326
  0.4163448469312581  0.5819540231794524  0.5509003901783919
  0.3325132836800874  0.6664389614658768  0.4412143330065967
  0.6654808718025980  0.5822613854750579  0.5567039955051766
  0.5846208024979627  0.6664767315700619  0.4411514639939208
  0.9164772144161276  0.5822644517059473  0.5574639720699419
  0.8335092702411444  0.6655468620360671  0.4431790173822726
  0.1666030980683024  0.8322245297885834  0.5573631923960167
  0.0831569595199551  0.9155454343790856  0.4432519552608835
  0.4164629954886920  0.8312893003266986  0.5570045964937758
  0.3333599812607032  0.9160370862343250  0.4432604543701191
  0.6655497569543375  0.8312860229130252  0.5569421968098336
  0.5837865742005496  0.9168642027862045  0.4424699088202138
  0.9163016737826146  0.8322267717163262  0.5572966019240985
  0.8334067654422184  0.9160605028170448  0.4431784262001305
  0.4158662225949555  0.5800678437819302  0.7003565473962194
  0.4376330755147101  0.6223368127705685  0.7702728435201582
  0.4084385991418487  0.5481125725829242  0.7941092753514480
 
  0.00000000E+00  0.00000000E+00  0.00000000E+00
  0.00000000E+00  0.00000000E+00  0.00000000E+00
  0.00000000E+00  0.00000000E+00  0.00000000E+00
  0.00000000E+00  0.00000000E+00  0.00000000E+00
  0.00000000E+00  0.00000000E+00  0.00000000E+00
  0.00000000E+00  0.00000000E+00  0.00000000E+00
  0.00000000E+00  0.00000000E+00  0.00000000E+00
  0.00000000E+00  0.00000000E+00  0.00000000E+00
  0.00000000E+00  0.00000000E+00  0.00000000E+00
  0.00000000E+00  0.00000000E+00  0.00000000E+00
  0.00000000E+00  0.00000000E+00  0.00000000E+00
  0.00000000E+00  0.00000000E+00  0.00000000E+00
  0.00000000E+00  0.00000000E+00  0.00000000E+00
  0.00000000E+00  0.00000000E+00  0.00000000E+00
  0.00000000E+00  0.00000000E+00  0.00000000E+00
  0.00000000E+00  0.00000000E+00  0.00000000E+00
  0.00000000E+00  0.00000000E+00  0.00000000E+00
  0.00000000E+00  0.00000000E+00  0.00000000E+00
  0.00000000E+00  0.00000000E+00  0.00000000E+00
  0.00000000E+00  0.00000000E+00  0.00000000E+00
  0.00000000E+00  0.00000000E+00  0.00000000E+00
  0.00000000E+00  0.00000000E+00  0.00000000E+00
  0.00000000E+00  0.00000000E+00  0.00000000E+00
  0.00000000E+00  0.00000000E+00  0.00000000E+00
  0.00000000E+00  0.00000000E+00  0.00000000E+00
  0.00000000E+00  0.00000000E+00  0.00000000E+00
  0.00000000E+00  0.00000000E+00  0.00000000E+00
  0.00000000E+00  0.00000000E+00  0.00000000E+00
  0.00000000E+00  0.00000000E+00  0.00000000E+00
  0.00000000E+00  0.00000000E+00  0.00000000E+00
  0.00000000E+00  0.00000000E+00  0.00000000E+00
  0.00000000E+00  0.00000000E+00  0.00000000E+00
  0.00000000E+00  0.00000000E+00  0.00000000E+00
  0.00000000E+00  0.00000000E+00  0.00000000E+00
  0.00000000E+00  0.00000000E+00  0.00000000E+00
  0.00000000E+00  0.00000000E+00  0.00000000E+00
  0.00000000E+00  0.00000000E+00  0.00000000E+00
  0.00000000E+00  0.00000000E+00  0.00000000E+00
  0.00000000E+00  0.00000000E+00  0.00000000E+00
  0.00000000E+00  0.00000000E+00  0.00000000E+00
  0.00000000E+00  0.00000000E+00  0.00000000E+00
  0.00000000E+00  0.00000000E+00  0.00000000E+00
  0.00000000E+00  0.00000000E+00  0.00000000E+00
  0.00000000E+00  0.00000000E+00  0.00000000E+00
  0.00000000E+00  0.00000000E+00  0.00000000E+00
  0.00000000E+00  0.00000000E+00  0.00000000E+00
  0.00000000E+00  0.00000000E+00  0.00000000E+00
  0.00000000E+00  0.00000000E+00  0.00000000E+00
  0.00000000E+00  0.00000000E+00  0.00000000E+00
  0.00000000E+00  0.00000000E+00  0.00000000E+00
  0.00000000E+00  0.00000000E+00  0.00000000E+00
  0.00000000E+00  0.00000000E+00  0.00000000E+00
  0.00000000E+00  0.00000000E+00  0.00000000E+00
  0.00000000E+00  0.00000000E+00  0.00000000E+00
  0.00000000E+00  0.00000000E+00  0.00000000E+00
  0.00000000E+00  0.00000000E+00  0.00000000E+00
  0.00000000E+00  0.00000000E+00  0.00000000E+00
  0.00000000E+00  0.00000000E+00  0.00000000E+00
  0.00000000E+00  0.00000000E+00  0.00000000E+00
  0.00000000E+00  0.00000000E+00  0.00000000E+00
  0.00000000E+00  0.00000000E+00  0.00000000E+00
  0.00000000E+00  0.00000000E+00  0.00000000E+00
  0.00000000E+00  0.00000000E+00  0.00000000E+00
  0.00000000E+00  0.00000000E+00  0.00000000E+00
  0.00000000E+00  0.00000000E+00  0.00000000E+00
  0.00000000E+00  0.00000000E+00  0.00000000E+00
  0.00000000E+00  0.00000000E+00  0.00000000E+00
  0.00000000E+00  0.00000000E+00  0.00000000E+00
  0.00000000E+00  0.00000000E+00  0.00000000E+00
  0.00000000E+00  0.00000000E+00  0.00000000E+00
  0.00000000E+00  0.00000000E+00  0.00000000E+00
  0.00000000E+00  0.00000000E+00  0.00000000E+00
  0.00000000E+00  0.00000000E+00  0.00000000E+00
  0.00000000E+00  0.00000000E+00  0.00000000E+00
  0.00000000E+00  0.00000000E+00  0.00000000E+00
  0.00000000E+00  0.00000000E+00  0.00000000E+00
  0.00000000E+00  0.00000000E+00  0.00000000E+00
  0.00000000E+00  0.00000000E+00  0.00000000E+00
  0.00000000E+00  0.00000000E+00  0.00000000E+00
  0.00000000E+00  0.00000000E+00  0.00000000E+00
  0.00000000E+00  0.00000000E+00  0.00000000E+00
  0.00000000E+00  0.00000000E+00  0.00000000E+00
  0.00000000E+00  0.00000000E+00  0.00000000E+00
