 Ag2 Ir2 F14                            
   1.00000000000000     
     5.4261421194206712    0.0000000000000000    0.0000000000000000
     0.0000000000000000    6.0545659360298449    0.0000000000000000
     0.0000000000000000    0.0000000000000000   21.5910112505159937
   Ag   Ir   F 
     2     2    14
Direct
  0.9999996731751040  0.7833746643047022  0.5001621964695744
  0.0000003401703168  0.2833782404852343  0.4998058279271831
  0.4999997915006347  0.1583006226000450  0.3760899138624865
  0.5000002428054984  0.6583148283007603  0.6238793247466390
  0.5000003942332256  0.9094161582656142  0.5713182045662748
  0.2537468918251662  0.7795094413722623  0.6742640924497181
  0.7450143775106639  0.5343413632149989  0.5692731678179968
  0.5000001382178070  0.3969749495196879  0.6708030481494731
  0.7462447018796539  0.2794830489953526  0.3257089495286962
  0.9999993623654362  0.5349926642253351  0.4350364284548078
  0.4999994080345189  0.4094048465940006  0.4286488688821848
  0.5000001920860910  0.8969594377100236  0.3291730635803916
  0.2537551592739788  0.2794829892127098  0.3257088406187876
  0.2549947992188208  0.0343289972143737  0.4306959902568437
  0.0000005616318646  0.0349818331918925  0.5649277574236748
  0.7450044075316384  0.0343291267127412  0.4306961097394506
  0.7462548726624192  0.7795088144720737  0.6742638058739558
  0.2549846858771474  0.5343419736081998  0.5692734623742268
 
  0.00000000E+00  0.00000000E+00  0.00000000E+00
  0.00000000E+00  0.00000000E+00  0.00000000E+00
  0.00000000E+00  0.00000000E+00  0.00000000E+00
  0.00000000E+00  0.00000000E+00  0.00000000E+00
  0.00000000E+00  0.00000000E+00  0.00000000E+00
  0.00000000E+00  0.00000000E+00  0.00000000E+00
  0.00000000E+00  0.00000000E+00  0.00000000E+00
  0.00000000E+00  0.00000000E+00  0.00000000E+00
  0.00000000E+00  0.00000000E+00  0.00000000E+00
  0.00000000E+00  0.00000000E+00  0.00000000E+00
  0.00000000E+00  0.00000000E+00  0.00000000E+00
  0.00000000E+00  0.00000000E+00  0.00000000E+00
  0.00000000E+00  0.00000000E+00  0.00000000E+00
  0.00000000E+00  0.00000000E+00  0.00000000E+00
  0.00000000E+00  0.00000000E+00  0.00000000E+00
  0.00000000E+00  0.00000000E+00  0.00000000E+00
  0.00000000E+00  0.00000000E+00  0.00000000E+00
  0.00000000E+00  0.00000000E+00  0.00000000E+00
