 Li2 Co2 As2                            
   1.00000000000000     
     3.6579622158108207    0.0000000000000000    0.0000000000000000
     0.0000000000000000    3.6579622883223832    0.0000000000000000
     0.0000000000000000    0.0000000000000000   19.0231607823100006
   Li   Co   As
     2     2     2
Direct
  0.4999999866130338  0.9999999912162991  0.6052164621013318
  0.9999999954349335  0.5000000122791093  0.3947835470595606
  0.4999999927606211  0.5000000032380214  0.5000000002916920
  0.0000000096556576  0.9999999891783844  0.4999999985211261
  0.0000000150708530  0.5000000068195334  0.5769364465933009
  0.5000000004649010  0.9999999972686595  0.4230635454329814
 
  0.00000000E+00  0.00000000E+00  0.00000000E+00
  0.00000000E+00  0.00000000E+00  0.00000000E+00
  0.00000000E+00  0.00000000E+00  0.00000000E+00
  0.00000000E+00  0.00000000E+00  0.00000000E+00
  0.00000000E+00  0.00000000E+00  0.00000000E+00
  0.00000000E+00  0.00000000E+00  0.00000000E+00
