 Ta2 Ni4 Te4                            
   1.00000000000000     
     3.5078787654513910    0.0000000000000000    0.0000000000000000
     0.0000000000000000    6.4370268852593373    0.0000000000000000
     0.0000000000000000    0.0000000000000000   20.5195986865860043
   Ta   Ni   Te
     2     4     4
Direct
  0.9999999924608503  0.4065012022857957  0.4784281525495828
  0.0000000075868343  0.9065019276966240  0.5215700002527086
  0.5000000077574782  0.2109711345013920  0.5558805935395625
  0.4999999916519187  0.7109588806364968  0.4441298976178416
  0.5000000070719537  0.6022906286400556  0.5558582805216616
  0.4999999938116773  0.1022943564025667  0.4441501497614411
  0.5000000014382806  0.9066905552848823  0.6337206192205613
  0.4999999991313615  0.4066893161871690  0.3662727774819956
  0.0000000026666882  0.9067962241263317  0.3772876009219388
  0.9999999964229644  0.4068197742386914  0.6227019281327060
 
  0.00000000E+00  0.00000000E+00  0.00000000E+00
  0.00000000E+00  0.00000000E+00  0.00000000E+00
  0.00000000E+00  0.00000000E+00  0.00000000E+00
  0.00000000E+00  0.00000000E+00  0.00000000E+00
  0.00000000E+00  0.00000000E+00  0.00000000E+00
  0.00000000E+00  0.00000000E+00  0.00000000E+00
  0.00000000E+00  0.00000000E+00  0.00000000E+00
  0.00000000E+00  0.00000000E+00  0.00000000E+00
  0.00000000E+00  0.00000000E+00  0.00000000E+00
  0.00000000E+00  0.00000000E+00  0.00000000E+00
