CONTCAR\(6)                             
   1.00000000000000     
    12.5569000244000009    0.0000000000000000    0.0000000000000000
     0.0000000000000000   12.5685997009000001    0.0000000000000000
     0.0000000000000000    0.0000000000000000   19.2248001098999985
   Cu   Ag   Te   O    H 
    12    12    24     2     1
Selective dynamics
Direct
  0.1347460768197308  0.0018237163549983  0.5199707002795790   F   F   F
  0.3458338292356515  0.9957291536768196  0.5347897479606161   F   F   F
  0.6294026386773197  0.0041009248611985  0.5124474858082309   F   F   F
  0.8391643598068654  0.9976366648276738  0.5278835418626429   F   F   F
  0.1054286029081482  0.3310683435027855  0.5724790251335818   F   F   F
  0.3877491839900813  0.3405277190393363  0.5679107806791492   F   F   F
  0.5892226419644047  0.3343542735848075  0.5164952815425181   F   F   F
  0.8905425953112882  0.3309851050208579  0.5627941645263519   F   F   F
  0.1243411454141281  0.6625134478745665  0.5204990292243892   F   F   F
  0.4236791566717031  0.6435003087572895  0.5686897300824754   F   F   F
  0.6072007738433385  0.6677266488446065  0.5007083126966023   F   F   F
  0.9123254483744745  0.6665875454938543  0.5296592934067021   F   F   F
  0.0020665131328244  0.1748527611182880  0.4863780268062925   F   F   F
  0.2557110518965828  0.2033779862712279  0.4934690177080299   F   F   F
  0.4776074567367132  0.1565933670458932  0.4746424663432620   F   F   F
  0.7711794518250557  0.1953025897939540  0.4781525296354516   F   F   F
  0.9941414878733497  0.4786466921085619  0.4841162043566669   F   F   F
  0.2418001545692832  0.4702866037709015  0.4968168816561800   F   F   F
  0.4591667951338110  0.5004979834831644  0.4666492800706834   F   F   F
  0.7637837023136882  0.4843441293415367  0.4690193619810188   F   F   F
  0.9950074706111849  0.8500756342302438  0.4754616672807401   F   F   F
  0.2698663848583323  0.8083591169391440  0.4791461607948264   F   F   F
  0.4892801079965778  0.8464632813283188  0.4730039115356064   F   F   F
  0.7694151908454003  0.8090551352164326  0.4672350231368725   F   F   F
  0.0390375550081643  0.0128770736419312  0.3881570446953830   F   F   F
  0.1225824163363356  0.1456922228814577  0.6176505182836181   F   F   F
  0.2684897402460322  0.0054631201312603  0.4047941285128758   F   F   F
  0.3766201127956208  0.1531318129374952  0.6196233908716593   F   F   F
  0.5403480247044996  0.0039620452563156  0.3785903257281191   F   F   F
  0.6216411713478891  0.1684692710787914  0.5956011102410343   F   F   F
  0.7681104121466689  0.0042401351785628  0.3948578300026355   F   F   F
  0.8704501205211059  0.1507361029478886  0.6169952006523971   F   F   F
  0.0066567539550491  0.3279511592388573  0.3841652130660123   F   F   F
  0.1180979225926464  0.5167395554506982  0.6174136639792351   F   F   F
  0.2316362884868823  0.3315380251261217  0.3816326215520576   F   F   F
  0.3606611430010886  0.4944650456414053  0.6505655590289621   F   F   F
  0.5080589831343119  0.3278866966542253  0.3839669701566635   F   F   F
  0.6178804445244808  0.5091661930880989  0.5859714110105188   F   F   F
  0.7316797983050165  0.3283615699024196  0.3695927324286359   F   F   F
  0.8511479604226366  0.5126395638964141  0.6106361383722430   F   F   F
  0.9957853724913619  0.6628258015218833  0.3972145086929117   F   F   F
  0.1306858864111504  0.8322449157529945  0.6016254696163088   F   F   F
  0.2305807102917399  0.6372805132287738  0.3972272827451064   F   F   F
  0.3807863213648801  0.8300394697192957  0.6149160442604114   F   F   F
  0.4955123654653590  0.6751909788635331  0.3803459390669417   F   F   F
  0.6316742314728216  0.8323800797105818  0.5908742220347065   F   F   F
  0.7243997832805178  0.6524852301448689  0.3748618115749736   F   F   F
  0.8778902022078867  0.8334592984567948  0.6083731000772730   F   F   F
  0.4788773798269048  0.4634478529926866  0.7277667173841067   T   T   T
  0.5258261001591649  0.5607588987536900  0.7544042727214304   T   T   T
  0.5896405666898161  0.5668580753164959  0.7238283395525958   T   T   T
 
  0.00000000E+00  0.00000000E+00  0.00000000E+00
  0.00000000E+00  0.00000000E+00  0.00000000E+00
  0.00000000E+00  0.00000000E+00  0.00000000E+00
  0.00000000E+00  0.00000000E+00  0.00000000E+00
  0.00000000E+00  0.00000000E+00  0.00000000E+00
  0.00000000E+00  0.00000000E+00  0.00000000E+00
  0.00000000E+00  0.00000000E+00  0.00000000E+00
  0.00000000E+00  0.00000000E+00  0.00000000E+00
  0.00000000E+00  0.00000000E+00  0.00000000E+00
  0.00000000E+00  0.00000000E+00  0.00000000E+00
  0.00000000E+00  0.00000000E+00  0.00000000E+00
  0.00000000E+00  0.00000000E+00  0.00000000E+00
  0.00000000E+00  0.00000000E+00  0.00000000E+00
  0.00000000E+00  0.00000000E+00  0.00000000E+00
  0.00000000E+00  0.00000000E+00  0.00000000E+00
  0.00000000E+00  0.00000000E+00  0.00000000E+00
  0.00000000E+00  0.00000000E+00  0.00000000E+00
  0.00000000E+00  0.00000000E+00  0.00000000E+00
  0.00000000E+00  0.00000000E+00  0.00000000E+00
  0.00000000E+00  0.00000000E+00  0.00000000E+00
  0.00000000E+00  0.00000000E+00  0.00000000E+00
  0.00000000E+00  0.00000000E+00  0.00000000E+00
  0.00000000E+00  0.00000000E+00  0.00000000E+00
  0.00000000E+00  0.00000000E+00  0.00000000E+00
  0.00000000E+00  0.00000000E+00  0.00000000E+00
  0.00000000E+00  0.00000000E+00  0.00000000E+00
  0.00000000E+00  0.00000000E+00  0.00000000E+00
  0.00000000E+00  0.00000000E+00  0.00000000E+00
  0.00000000E+00  0.00000000E+00  0.00000000E+00
  0.00000000E+00  0.00000000E+00  0.00000000E+00
  0.00000000E+00  0.00000000E+00  0.00000000E+00
  0.00000000E+00  0.00000000E+00  0.00000000E+00
  0.00000000E+00  0.00000000E+00  0.00000000E+00
  0.00000000E+00  0.00000000E+00  0.00000000E+00
  0.00000000E+00  0.00000000E+00  0.00000000E+00
  0.00000000E+00  0.00000000E+00  0.00000000E+00
  0.00000000E+00  0.00000000E+00  0.00000000E+00
  0.00000000E+00  0.00000000E+00  0.00000000E+00
  0.00000000E+00  0.00000000E+00  0.00000000E+00
  0.00000000E+00  0.00000000E+00  0.00000000E+00
  0.00000000E+00  0.00000000E+00  0.00000000E+00
  0.00000000E+00  0.00000000E+00  0.00000000E+00
  0.00000000E+00  0.00000000E+00  0.00000000E+00
  0.00000000E+00  0.00000000E+00  0.00000000E+00
  0.00000000E+00  0.00000000E+00  0.00000000E+00
  0.00000000E+00  0.00000000E+00  0.00000000E+00
  0.00000000E+00  0.00000000E+00  0.00000000E+00
  0.00000000E+00  0.00000000E+00  0.00000000E+00
  0.00000000E+00  0.00000000E+00  0.00000000E+00
  0.00000000E+00  0.00000000E+00  0.00000000E+00
  0.00000000E+00  0.00000000E+00  0.00000000E+00
