CONTCAR\(6)                             
   1.00000000000000     
    13.7902002335000002    0.0000000000000000    0.0000000000000000
     6.8951001167000001   11.9426637253999992    0.0000000000000000
     0.0000000000000000    0.0000000000000000   18.3700008391999994
   Nb   Se   O    H 
    16    32     2     1
Direct
  0.0850854363453346  0.0819490482048494  0.4986381876274159
  0.3418519308504867  0.0797169933412133  0.4992399352324531
  0.5904440726649344  0.0794448175741157  0.4993197799942182
  0.8448673755874273  0.0818476508688741  0.4988125314169340
  0.0851674046048446  0.3340231153871135  0.4986821598280577
  0.3403071505422069  0.3303602388050107  0.4991165019477748
  0.5929021210386634  0.3338732818019707  0.4991735614780924
  0.8408164720773699  0.3301578406340298  0.4991090679949736
  0.0817540048670571  0.5709359563727477  0.4991473270950513
  0.3588278197148841  0.5712244835466338  0.4988403113684026
  0.5924777482976709  0.5747077867492612  0.4995330278583436
  0.8449259040872822  0.5746728008792787  0.4993583735663839
  0.0817144662510403  0.8486398097877140  0.4982228971464047
  0.3407693568056611  0.8302046879906950  0.4990215691684752
  0.5904541403603798  0.8311477904076104  0.4993412383404324
  0.8412112094647847  0.8299837194338321  0.4990894669893292
  0.1733028999331330  0.1638672336436019  0.5888361375341693
  0.1739881577472027  0.1636325870047543  0.4087891988957855
  0.4240156055043024  0.1637732708340780  0.5911710089144934
  0.4243003948786426  0.1634080765858079  0.4073512623633993
  0.6746855332894903  0.1637867884746536  0.5890812561418712
  0.6742453087525503  0.1636478669705542  0.4090567927687585
  0.9234003180619440  0.1652503966886928  0.5925176270892374
  0.9229629810856829  0.1656189898842508  0.4051742374565540
  0.1745771105952203  0.4100614284939273  0.5917074210958666
  0.1750082630503318  0.4103525209332515  0.4061155683665258
  0.4265980162052687  0.4102695164487890  0.5920475662483355
  0.4266932249130871  0.4099734977382467  0.4066206995433252
  0.6763963098558308  0.4123493619148292  0.5928932129428259
  0.6760889325257687  0.4127525562361774  0.4057386631901295
  0.9233988770920984  0.4123019564432868  0.5927018469181794
  0.9228291462974336  0.4129882921174104  0.4054468827370937
  0.1727236521190001  0.6660042775490327  0.5733431107142627
  0.1743784592800078  0.6629287503493378  0.4199218585041856
  0.4261514654683590  0.6644471915484520  0.5921890544593442
  0.4268337736875820  0.6641859326268591  0.4064608546284884
  0.6745113482877912  0.6629634164281745  0.5894648991761675
  0.6743656637730252  0.6630327488612344  0.4093324903589270
  0.9212858091756817  0.6641325628132371  0.5922655522585278
  0.9209887374396291  0.6643238355707107  0.4063510311327083
  0.1745432952429033  0.9162566448114254  0.5916280225776450
  0.1756282116433707  0.9158365957573188  0.4058519729364090
  0.4239078865329767  0.9133988617216230  0.5910673478750382
  0.4243446745907956  0.9135410806995754  0.4073081095409912
  0.6748832249910961  0.9131011385533526  0.5911160493019529
  0.6742496565046079  0.9133664120205119  0.4072920688067287
  0.9213554830152093  0.9160194611228719  0.5917082129712653
  0.9206639415896527  0.9157790152364619  0.4058421861066276
  0.1656320183327381  0.6841572527259215  0.6768377407275480
  0.2020193240582058  0.5784764205696649  0.7128095661725991
  0.2827944279193517  0.5500852638370154  0.7187452664912111
 
  0.00000000E+00  0.00000000E+00  0.00000000E+00
  0.00000000E+00  0.00000000E+00  0.00000000E+00
  0.00000000E+00  0.00000000E+00  0.00000000E+00
  0.00000000E+00  0.00000000E+00  0.00000000E+00
  0.00000000E+00  0.00000000E+00  0.00000000E+00
  0.00000000E+00  0.00000000E+00  0.00000000E+00
  0.00000000E+00  0.00000000E+00  0.00000000E+00
  0.00000000E+00  0.00000000E+00  0.00000000E+00
  0.00000000E+00  0.00000000E+00  0.00000000E+00
  0.00000000E+00  0.00000000E+00  0.00000000E+00
  0.00000000E+00  0.00000000E+00  0.00000000E+00
  0.00000000E+00  0.00000000E+00  0.00000000E+00
  0.00000000E+00  0.00000000E+00  0.00000000E+00
  0.00000000E+00  0.00000000E+00  0.00000000E+00
  0.00000000E+00  0.00000000E+00  0.00000000E+00
  0.00000000E+00  0.00000000E+00  0.00000000E+00
  0.00000000E+00  0.00000000E+00  0.00000000E+00
  0.00000000E+00  0.00000000E+00  0.00000000E+00
  0.00000000E+00  0.00000000E+00  0.00000000E+00
  0.00000000E+00  0.00000000E+00  0.00000000E+00
  0.00000000E+00  0.00000000E+00  0.00000000E+00
  0.00000000E+00  0.00000000E+00  0.00000000E+00
  0.00000000E+00  0.00000000E+00  0.00000000E+00
  0.00000000E+00  0.00000000E+00  0.00000000E+00
  0.00000000E+00  0.00000000E+00  0.00000000E+00
  0.00000000E+00  0.00000000E+00  0.00000000E+00
  0.00000000E+00  0.00000000E+00  0.00000000E+00
  0.00000000E+00  0.00000000E+00  0.00000000E+00
  0.00000000E+00  0.00000000E+00  0.00000000E+00
  0.00000000E+00  0.00000000E+00  0.00000000E+00
  0.00000000E+00  0.00000000E+00  0.00000000E+00
  0.00000000E+00  0.00000000E+00  0.00000000E+00
  0.00000000E+00  0.00000000E+00  0.00000000E+00
  0.00000000E+00  0.00000000E+00  0.00000000E+00
  0.00000000E+00  0.00000000E+00  0.00000000E+00
  0.00000000E+00  0.00000000E+00  0.00000000E+00
  0.00000000E+00  0.00000000E+00  0.00000000E+00
  0.00000000E+00  0.00000000E+00  0.00000000E+00
  0.00000000E+00  0.00000000E+00  0.00000000E+00
  0.00000000E+00  0.00000000E+00  0.00000000E+00
  0.00000000E+00  0.00000000E+00  0.00000000E+00
  0.00000000E+00  0.00000000E+00  0.00000000E+00
  0.00000000E+00  0.00000000E+00  0.00000000E+00
  0.00000000E+00  0.00000000E+00  0.00000000E+00
  0.00000000E+00  0.00000000E+00  0.00000000E+00
  0.00000000E+00  0.00000000E+00  0.00000000E+00
  0.00000000E+00  0.00000000E+00  0.00000000E+00
  0.00000000E+00  0.00000000E+00  0.00000000E+00
  0.00000000E+00  0.00000000E+00  0.00000000E+00
  0.00000000E+00  0.00000000E+00  0.00000000E+00
  0.00000000E+00  0.00000000E+00  0.00000000E+00
