CONTCAR\(7)                             
   1.00000000000000     
    12.0102996825999995    0.0000000000000000    0.0000000000000000
     6.0051318362000004   10.4012350274000003    0.0000000000000000
     0.0000000000000000    0.0000000000000000   17.7192001342999994
   V    Cl
     8    24
Direct
  0.1666700019999965  0.1666699840000021  0.5000000000000000
  0.0000000000000000  0.0000000000000000  0.5000000000000000
  0.6666700219999981  0.1666699840000021  0.5000000000000000
  0.5000000000000000  0.0000000000000000  0.5000000000000000
  0.1666700159999976  0.6666699880000024  0.5000000000000000
  0.0000000049999969  0.4999999810000020  0.5000000000000000
  0.6666699760000014  0.6666699880000024  0.5000000000000000
  0.4999999650000007  0.4999999810000020  0.5000000000000000
  0.0101999990000010  0.1564799920000013  0.5773500310000017
  0.3333299800000020  0.0101999999999975  0.5773500310000017
  0.0101999950000007  0.3333299969999999  0.4226499959999970
  0.3333299969999999  0.1564799920000013  0.4226499959999970
  0.1564799969999981  0.0101999999999975  0.4226499959999970
  0.1564800060000024  0.3333199799999988  0.5773500310000017
  0.5102000090000018  0.1564799920000013  0.5773500310000017
  0.8333300190000017  0.0101999999999975  0.5773500310000017
  0.5102000349999969  0.3333299969999999  0.4226499959999970
  0.8333299969999999  0.1564799920000013  0.4226499959999970
  0.6564799770000036  0.0101999999999975  0.4226499959999970
  0.6564800259999970  0.3333199799999988  0.5773500310000017
  0.0102000030000013  0.6564799960000016  0.5773500310000017
  0.3333300079999972  0.5102000130000022  0.5773500310000017
  0.0102000119999985  0.8333299549999964  0.4226499959999970
  0.3333300299999991  0.6564799960000016  0.4226499959999970
  0.1564800049999988  0.5102000130000022  0.4226499959999970
  0.1564800310000010  0.8333199610000008  0.5773500310000017
  0.5102000420000010  0.6564799960000016  0.5773500310000017
  0.8333299680000010  0.5102000130000022  0.5773500310000017
  0.5102000119999985  0.8333299549999964  0.4226499959999970
  0.8333300299999991  0.6564799960000016  0.4226499959999970
  0.6564799659999991  0.5102000130000022  0.4226499959999970
  0.6564799909999977  0.8333199610000008  0.5773500310000017
 
  0.00000000E+00  0.00000000E+00  0.00000000E+00
  0.00000000E+00  0.00000000E+00  0.00000000E+00
  0.00000000E+00  0.00000000E+00  0.00000000E+00
  0.00000000E+00  0.00000000E+00  0.00000000E+00
  0.00000000E+00  0.00000000E+00  0.00000000E+00
  0.00000000E+00  0.00000000E+00  0.00000000E+00
  0.00000000E+00  0.00000000E+00  0.00000000E+00
  0.00000000E+00  0.00000000E+00  0.00000000E+00
  0.00000000E+00  0.00000000E+00  0.00000000E+00
  0.00000000E+00  0.00000000E+00  0.00000000E+00
  0.00000000E+00  0.00000000E+00  0.00000000E+00
  0.00000000E+00  0.00000000E+00  0.00000000E+00
  0.00000000E+00  0.00000000E+00  0.00000000E+00
  0.00000000E+00  0.00000000E+00  0.00000000E+00
  0.00000000E+00  0.00000000E+00  0.00000000E+00
  0.00000000E+00  0.00000000E+00  0.00000000E+00
  0.00000000E+00  0.00000000E+00  0.00000000E+00
  0.00000000E+00  0.00000000E+00  0.00000000E+00
  0.00000000E+00  0.00000000E+00  0.00000000E+00
  0.00000000E+00  0.00000000E+00  0.00000000E+00
  0.00000000E+00  0.00000000E+00  0.00000000E+00
  0.00000000E+00  0.00000000E+00  0.00000000E+00
  0.00000000E+00  0.00000000E+00  0.00000000E+00
  0.00000000E+00  0.00000000E+00  0.00000000E+00
  0.00000000E+00  0.00000000E+00  0.00000000E+00
  0.00000000E+00  0.00000000E+00  0.00000000E+00
  0.00000000E+00  0.00000000E+00  0.00000000E+00
  0.00000000E+00  0.00000000E+00  0.00000000E+00
  0.00000000E+00  0.00000000E+00  0.00000000E+00
  0.00000000E+00  0.00000000E+00  0.00000000E+00
  0.00000000E+00  0.00000000E+00  0.00000000E+00
  0.00000000E+00  0.00000000E+00  0.00000000E+00
