 Er6 I7                                 
   1.00000000000000     
     3.9494988794155272    0.0000000000000000    0.0000000000000000
    -1.9747494397077636   10.7919195749237371    0.0000000000000000
     0.0000000000000000    0.0000000000000000   24.1043654967539993
   Er   I 
     6     7
Direct
  0.3858562993042298  0.7715392521943443  0.4801462913317849
  0.2225235904793266  0.4452071955035422  0.4479588703359738
  0.8281481285342451  0.6560625064095404  0.3743372388734798
  0.7774682658799890  0.5547849835263392  0.5520471717585096
  0.1718483146425314  0.3439337772644535  0.6256455102235421
  0.6141402541681344  0.2284765653122633  0.5198586780680259
  0.7505778745053036  0.5013160425161516  0.6898534121759354
  0.4353656801698023  0.8700889632087154  0.3573342236420274
  0.5646291985597287  0.1299033000194854  0.6426673228596087
  0.2494280805262363  0.4986768618665138  0.3101456162290290
  0.3792113297088733  0.7576887300118145  0.6037021159661080
  0.9999910049563923  0.9999951599026105  0.5000110803645370
  0.6208119785652144  0.2423266622642188  0.3962924681714171
 
  0.00000000E+00  0.00000000E+00  0.00000000E+00
  0.00000000E+00  0.00000000E+00  0.00000000E+00
  0.00000000E+00  0.00000000E+00  0.00000000E+00
  0.00000000E+00  0.00000000E+00  0.00000000E+00
  0.00000000E+00  0.00000000E+00  0.00000000E+00
  0.00000000E+00  0.00000000E+00  0.00000000E+00
  0.00000000E+00  0.00000000E+00  0.00000000E+00
  0.00000000E+00  0.00000000E+00  0.00000000E+00
  0.00000000E+00  0.00000000E+00  0.00000000E+00
  0.00000000E+00  0.00000000E+00  0.00000000E+00
  0.00000000E+00  0.00000000E+00  0.00000000E+00
  0.00000000E+00  0.00000000E+00  0.00000000E+00
  0.00000000E+00  0.00000000E+00  0.00000000E+00
