CONTCAR\(4)                             
   1.00000000000000     
    13.0193004608000003    0.0000000000000000    0.0000000000000000
    -1.6274128543999999    9.0662962906000004    0.0000000000000000
     0.0000000000000000    0.0000000000000000   18.6888999939000016
   Nb   Pd   S    O    H 
     8     4    24     1     1
Direct
  0.0296835233606174  0.3005436541697790  0.4781955029869920
  0.1981213866588689  0.7037072404280025  0.5240764385617496
  0.2809034384977238  0.3092578562589097  0.4771437086230819
  0.4640961209161745  0.7055608995239666  0.5241907899882463
  0.5316012356967050  0.3065815883244127  0.4766034598290219
  0.7085710911975056  0.7059178773134889  0.5260828235320574
  0.7808447410077619  0.3010458427863369  0.4789167527452207
  0.9546975444924328  0.7044436113369272  0.5262854850201961
  0.1191910634545152  0.0003219453163297  0.5030123551200916
  0.3692387007686975  0.0240695216105138  0.4992931043826161
  0.6165076186635687  0.0008906945204146  0.5031211113771334
  0.8688096862683921  0.0043231002026261  0.5021255173652719
  0.0884952894054294  0.7865170425914414  0.4320769398159356
  0.1463923303662114  0.2179602745433726  0.5704266273420373
  0.0555427128256980  0.5155666845541944  0.5708378263407354
  0.1761830030409470  0.4893033587320943  0.4311961285114307
  0.1386311551665216  0.1612316926120201  0.4051709107778905
  0.0976099428805952  0.8390973407784941  0.6024383502726138
  0.3422124402881295  0.7976924713871227  0.4366045267622241
  0.3970623555652679  0.2340840933454587  0.5700726443102653
  0.3082265420785859  0.5253215692167217  0.5702425386724030
  0.4312650220522158  0.4950580910287670  0.4314658279164192
  0.3891547966087074  0.1774089144928084  0.3993984443371161
  0.3491288450329790  0.8566438401601957  0.5877641498915978
  0.5936643302112401  0.7877426418086486  0.4320928905067660
  0.6433319019370387  0.2173605264454395  0.5708453883379931
  0.5602124790625282  0.5178027993053149  0.5707831838288797
  0.6811536691978830  0.4896181142960145  0.4327349975188071
  0.6381974835107087  0.1608340561760784  0.4049092666149789
  0.5990684994704694  0.8405323230635844  0.6027326506859083
  0.8419806218074228  0.7894613894876628  0.4330577695464228
  0.8954036621772445  0.2194445422679223  0.5715643654977924
  0.8075113768027080  0.5182596763964469  0.5718987286818376
  0.9279799468781604  0.4878665261510235  0.4332658280372570
  0.8879944925408552  0.1644488269776687  0.4032780075576596
  0.8491375131689765  0.8451826290373674  0.6009642478152628
  0.3500839912629488  0.9077837142670049  0.6721523495936736
  0.3981797396775733  0.0026333490854071  0.6764480292943986
 
  0.00000000E+00  0.00000000E+00  0.00000000E+00
  0.00000000E+00  0.00000000E+00  0.00000000E+00
  0.00000000E+00  0.00000000E+00  0.00000000E+00
  0.00000000E+00  0.00000000E+00  0.00000000E+00
  0.00000000E+00  0.00000000E+00  0.00000000E+00
  0.00000000E+00  0.00000000E+00  0.00000000E+00
  0.00000000E+00  0.00000000E+00  0.00000000E+00
  0.00000000E+00  0.00000000E+00  0.00000000E+00
  0.00000000E+00  0.00000000E+00  0.00000000E+00
  0.00000000E+00  0.00000000E+00  0.00000000E+00
  0.00000000E+00  0.00000000E+00  0.00000000E+00
  0.00000000E+00  0.00000000E+00  0.00000000E+00
  0.00000000E+00  0.00000000E+00  0.00000000E+00
  0.00000000E+00  0.00000000E+00  0.00000000E+00
  0.00000000E+00  0.00000000E+00  0.00000000E+00
  0.00000000E+00  0.00000000E+00  0.00000000E+00
  0.00000000E+00  0.00000000E+00  0.00000000E+00
  0.00000000E+00  0.00000000E+00  0.00000000E+00
  0.00000000E+00  0.00000000E+00  0.00000000E+00
  0.00000000E+00  0.00000000E+00  0.00000000E+00
  0.00000000E+00  0.00000000E+00  0.00000000E+00
  0.00000000E+00  0.00000000E+00  0.00000000E+00
  0.00000000E+00  0.00000000E+00  0.00000000E+00
  0.00000000E+00  0.00000000E+00  0.00000000E+00
  0.00000000E+00  0.00000000E+00  0.00000000E+00
  0.00000000E+00  0.00000000E+00  0.00000000E+00
  0.00000000E+00  0.00000000E+00  0.00000000E+00
  0.00000000E+00  0.00000000E+00  0.00000000E+00
  0.00000000E+00  0.00000000E+00  0.00000000E+00
  0.00000000E+00  0.00000000E+00  0.00000000E+00
  0.00000000E+00  0.00000000E+00  0.00000000E+00
  0.00000000E+00  0.00000000E+00  0.00000000E+00
  0.00000000E+00  0.00000000E+00  0.00000000E+00
  0.00000000E+00  0.00000000E+00  0.00000000E+00
  0.00000000E+00  0.00000000E+00  0.00000000E+00
  0.00000000E+00  0.00000000E+00  0.00000000E+00
  0.00000000E+00  0.00000000E+00  0.00000000E+00
  0.00000000E+00  0.00000000E+00  0.00000000E+00
