CONTCAR                                 
   1.00000000000000     
    13.4069995879999997    0.0000000000000000    0.0000000000000000
     0.0000000000000000   14.7997999190999998    0.0000000000000000
     0.0000000000000000    0.0000000000000000   22.4342994689999990
   Ta   S    O    H 
    24    72     1     1
Selective dynamics
Direct
  0.1894174097192334  0.0886042972964205  0.4459981028908402   F   F   F
  0.0608520312215859  0.9115710625724134  0.5592734618548079   F   F   F
  0.1879052302525608  0.7559800119623645  0.4241890469339467   F   F   F
  0.0600735426972321  0.2448841731541478  0.5763763719310475   F   F   F
  0.1872293421584672  0.5063071259230085  0.5793934811827626   F   F   F
  0.0610788362175541  0.4969989706393605  0.4171132073592290   F   F   F
  0.4368610970306150  0.0886147571105127  0.4457366241926906   F   F   F
  0.3132577706800319  0.9094894790629766  0.5607102280672080   F   F   F
  0.4384050654502829  0.7559594332727499  0.4240620504034851   F   F   F
  0.3129947639589190  0.2257978742598539  0.6014944581852504   F   F   F
  0.4390176799917143  0.5060810926382047  0.5792331194086557   F   F   F
  0.3129183102509074  0.4985377327997043  0.4176869089108521   F   F   F
  0.6876049742305383  0.0875736389983004  0.4399598701863852   F   F   F
  0.5654056457893688  0.9117498701534288  0.5591959316093096   F   F   F
  0.6883483500620002  0.7557082328221725  0.4238513106996038   F   F   F
  0.5649961168873006  0.2450877257495279  0.5761250597770768   F   F   F
  0.6891683694551531  0.5070440181835565  0.5803728904850374   F   F   F
  0.5649973191945534  0.4970243543681079  0.4169437294382448   F   F   F
  0.9384798872046787  0.0875993147772647  0.4400711177716516   F   F   F
  0.8131081157367674  0.9136520676971003  0.5586695867474845   F   F   F
  0.9379579814209862  0.7557252142182520  0.4239815059980643   F   F   F
  0.8127067632591363  0.2474299326326914  0.5738477079023667   F   F   F
  0.9367865370753421  0.5071308223692057  0.5804693707209907   F   F   F
  0.8131675734172106  0.4965757736528218  0.4165119435043962   F   F   F
  0.1886705467338317  0.9207091693896743  0.4778940697579870   F   F   F
  0.0592171054248780  0.0777393195692824  0.5245052716803755   F   F   F
  0.1849429268532958  0.9691517170540180  0.6341467095501372   F   F   F
  0.0669361112071059  0.0265688306364069  0.3692855573301159   F   F   F
  0.1874554705578220  0.8258117750525145  0.6222895162430504   F   F   F
  0.0667602659970754  0.1713770835240851  0.3804025149764527   F   F   F
  0.1624080955925109  0.1454631890943290  0.6360845975931895   F   F   F
  0.0632790387698989  0.8455818369908670  0.3686162488465783   F   F   F
  0.1821127039148180  0.3487051966176153  0.6269105291394439   F   F   F
  0.0627670024513804  0.6559831118211505  0.3709043263213090   F   F   F
  0.1956428984152296  0.2418524295759070  0.5011106504049252   F   F   F
  0.0620778784555682  0.7558197960855608  0.5086158572307795   F   F   F
  0.1875813367839356  0.4754798095154769  0.3346490525224084   F   F   F
  0.0629855914001709  0.5227721129785152  0.6636170077779013   F   F   F
  0.1870107339332634  0.5857677118002442  0.4754889364006800   F   F   F
  0.0616990424801003  0.4214219585671586  0.5202142550640332   F   F   F
  0.1883014122564788  0.3736219285361742  0.3989000551132094   F   F   F
  0.0624459141241260  0.6296121636848255  0.6027865627248801   F   F   F
  0.4375828684707770  0.9207813544550376  0.4777741309212118   F   F   F
  0.3132180833321740  0.0755193321312930  0.5306746812591356   F   F   F
  0.4414201920411003  0.9703082821152478  0.6337565146808188   F   F   F
  0.3129186355892841  0.0277219236381683  0.3713455566566140   F   F   F
  0.4391365615862881  0.8262357660680806  0.6223098325852092   F   F   F
  0.3129352940741441  0.1717709676148118  0.3824980896374797   F   F   F
  0.4626580457187828  0.1460564351671394  0.6361238566485454   F   F   F
  0.3130696935503892  0.8461807289666652  0.3692057233152823   F   F   F
  0.4439144802670114  0.3487194053026315  0.6266258782483263   F   F   F
  0.3130093744894253  0.6565384950081565  0.3708362375630969   F   F   F
  0.4310733674704252  0.2420168292238714  0.4999954285880790   F   F   F
  0.3133015204302296  0.7547313933294646  0.5085245593215859   F   F   F
  0.4382131554992625  0.4759252918276573  0.3345978627376240   F   F   F
  0.3131612282249421  0.5201439269731338  0.6626984117680621   F   F   F
  0.4390934234119470  0.5857468671982744  0.4753240531816800   F   F   F
  0.3130102411063831  0.4247835355979035  0.5196213017225020   F   F   F
  0.4376720764384388  0.3736662133195807  0.3987574018858737   F   F   F
  0.3132058091762389  0.6284847119326713  0.6028587339853004   F   F   F
  0.6880433537769832  0.9214076466122307  0.4755998626344891   F   F   F
  0.5667770911607661  0.0778362844963993  0.5243643834685869   F   F   F
  0.6895158716529082  0.9779628074601234  0.6317637981484836   F   F   F
  0.5592803453457549  0.0260791380688019  0.3691806400939228   F   F   F
  0.6891616927869677  0.8317979029550528  0.6236149412146830   F   F   F
  0.5594206223589921  0.1709545500367469  0.3799734951708871   F   F   F
  0.6937465159327232  0.1578696574552154  0.6312070299096959   F   F   F
  0.5630193660310283  0.8454453327206224  0.3683886172662127   F   F   F
  0.6893598643248708  0.3479722058127024  0.6263409454879181   F   F   F
  0.5634970913922857  0.6559819113381309  0.3707289960599525   F   F   F
  0.6868798172607029  0.2449008605285243  0.4897948869385402   F   F   F
  0.5641847660204107  0.7559223131584361  0.5084047296152576   F   F   F
  0.6884921532808335  0.4796560914959471  0.3329562823824475   F   F   F
  0.5631450838405812  0.5225913087950502  0.6635029180503551   F   F   F
  0.6888272783022700  0.5845995474811261  0.4759161477307643   F   F   F
  0.5644420285243683  0.4214014395359484  0.5199677591160921   F   F   F
  0.6882426354603908  0.3731609002666261  0.3942014611517024   F   F   F
  0.5636060420675264  0.6295283322411223  0.6027253266355217   F   F   F
  0.9382786784052968  0.9213704263425697  0.4756846507793995   F   F   F
  0.8130784426688251  0.0796436413998975  0.5223943170236609   F   F   F
  0.9366130109153730  0.9775564363982454  0.6319909530131369   F   F   F
  0.8131850780408385  0.0234575840397397  0.3673299874488123   F   F   F
  0.9371038125637696  0.8316093617511200  0.6236541891915053   F   F   F
  0.8131325748033120  0.1697869293117762  0.3764130928305320   F   F   F
  0.9317266979099941  0.1578058656406967  0.6313894499566501   F   F   F
  0.8132661239108288  0.8451152628041996  0.3677472128812411   F   F   F
  0.9362610345946507  0.3480791264795400  0.6265423942340362   F   F   F
  0.8132627625499680  0.6560471263013525  0.3707567535051410   F   F   F
  0.9392939941795291  0.2449230823121908  0.4899262272787652   F   F   F
  0.8129905902412347  0.7567812851068112  0.5086307397806920   F   F   F
  0.9377681241055740  0.4794202258654110  0.3330432984852578   F   F   F
  0.8129560656995949  0.5238804896418401  0.6645190023645213   F   F   F
  0.9371890801411737  0.5846264664274017  0.4760692794941619   F   F   F
  0.8130462778006731  0.4202132458871048  0.5204144497940035   F   F   F
  0.9379532794016470  0.3730614508589056  0.3943757969582435   F   F   F
  0.8128659746377309  0.6304919271473750  0.6034462406594798   F   F   F
  0.3162014526317165  0.2317132727004463  0.6902911867730950   T   T   T
  0.2509686046870172  0.2406119884468083  0.7082225788767808   T   T   T
 
  0.00000000E+00  0.00000000E+00  0.00000000E+00
  0.00000000E+00  0.00000000E+00  0.00000000E+00
  0.00000000E+00  0.00000000E+00  0.00000000E+00
  0.00000000E+00  0.00000000E+00  0.00000000E+00
  0.00000000E+00  0.00000000E+00  0.00000000E+00
  0.00000000E+00  0.00000000E+00  0.00000000E+00
  0.00000000E+00  0.00000000E+00  0.00000000E+00
  0.00000000E+00  0.00000000E+00  0.00000000E+00
  0.00000000E+00  0.00000000E+00  0.00000000E+00
  0.00000000E+00  0.00000000E+00  0.00000000E+00
  0.00000000E+00  0.00000000E+00  0.00000000E+00
  0.00000000E+00  0.00000000E+00  0.00000000E+00
  0.00000000E+00  0.00000000E+00  0.00000000E+00
  0.00000000E+00  0.00000000E+00  0.00000000E+00
  0.00000000E+00  0.00000000E+00  0.00000000E+00
  0.00000000E+00  0.00000000E+00  0.00000000E+00
  0.00000000E+00  0.00000000E+00  0.00000000E+00
  0.00000000E+00  0.00000000E+00  0.00000000E+00
  0.00000000E+00  0.00000000E+00  0.00000000E+00
  0.00000000E+00  0.00000000E+00  0.00000000E+00
  0.00000000E+00  0.00000000E+00  0.00000000E+00
  0.00000000E+00  0.00000000E+00  0.00000000E+00
  0.00000000E+00  0.00000000E+00  0.00000000E+00
  0.00000000E+00  0.00000000E+00  0.00000000E+00
  0.00000000E+00  0.00000000E+00  0.00000000E+00
  0.00000000E+00  0.00000000E+00  0.00000000E+00
  0.00000000E+00  0.00000000E+00  0.00000000E+00
  0.00000000E+00  0.00000000E+00  0.00000000E+00
  0.00000000E+00  0.00000000E+00  0.00000000E+00
  0.00000000E+00  0.00000000E+00  0.00000000E+00
  0.00000000E+00  0.00000000E+00  0.00000000E+00
  0.00000000E+00  0.00000000E+00  0.00000000E+00
  0.00000000E+00  0.00000000E+00  0.00000000E+00
  0.00000000E+00  0.00000000E+00  0.00000000E+00
  0.00000000E+00  0.00000000E+00  0.00000000E+00
  0.00000000E+00  0.00000000E+00  0.00000000E+00
  0.00000000E+00  0.00000000E+00  0.00000000E+00
  0.00000000E+00  0.00000000E+00  0.00000000E+00
  0.00000000E+00  0.00000000E+00  0.00000000E+00
  0.00000000E+00  0.00000000E+00  0.00000000E+00
  0.00000000E+00  0.00000000E+00  0.00000000E+00
  0.00000000E+00  0.00000000E+00  0.00000000E+00
  0.00000000E+00  0.00000000E+00  0.00000000E+00
  0.00000000E+00  0.00000000E+00  0.00000000E+00
  0.00000000E+00  0.00000000E+00  0.00000000E+00
  0.00000000E+00  0.00000000E+00  0.00000000E+00
  0.00000000E+00  0.00000000E+00  0.00000000E+00
  0.00000000E+00  0.00000000E+00  0.00000000E+00
  0.00000000E+00  0.00000000E+00  0.00000000E+00
  0.00000000E+00  0.00000000E+00  0.00000000E+00
  0.00000000E+00  0.00000000E+00  0.00000000E+00
  0.00000000E+00  0.00000000E+00  0.00000000E+00
  0.00000000E+00  0.00000000E+00  0.00000000E+00
  0.00000000E+00  0.00000000E+00  0.00000000E+00
  0.00000000E+00  0.00000000E+00  0.00000000E+00
  0.00000000E+00  0.00000000E+00  0.00000000E+00
  0.00000000E+00  0.00000000E+00  0.00000000E+00
  0.00000000E+00  0.00000000E+00  0.00000000E+00
  0.00000000E+00  0.00000000E+00  0.00000000E+00
  0.00000000E+00  0.00000000E+00  0.00000000E+00
  0.00000000E+00  0.00000000E+00  0.00000000E+00
  0.00000000E+00  0.00000000E+00  0.00000000E+00
  0.00000000E+00  0.00000000E+00  0.00000000E+00
  0.00000000E+00  0.00000000E+00  0.00000000E+00
  0.00000000E+00  0.00000000E+00  0.00000000E+00
  0.00000000E+00  0.00000000E+00  0.00000000E+00
  0.00000000E+00  0.00000000E+00  0.00000000E+00
  0.00000000E+00  0.00000000E+00  0.00000000E+00
  0.00000000E+00  0.00000000E+00  0.00000000E+00
  0.00000000E+00  0.00000000E+00  0.00000000E+00
  0.00000000E+00  0.00000000E+00  0.00000000E+00
  0.00000000E+00  0.00000000E+00  0.00000000E+00
  0.00000000E+00  0.00000000E+00  0.00000000E+00
  0.00000000E+00  0.00000000E+00  0.00000000E+00
  0.00000000E+00  0.00000000E+00  0.00000000E+00
  0.00000000E+00  0.00000000E+00  0.00000000E+00
  0.00000000E+00  0.00000000E+00  0.00000000E+00
  0.00000000E+00  0.00000000E+00  0.00000000E+00
  0.00000000E+00  0.00000000E+00  0.00000000E+00
  0.00000000E+00  0.00000000E+00  0.00000000E+00
  0.00000000E+00  0.00000000E+00  0.00000000E+00
  0.00000000E+00  0.00000000E+00  0.00000000E+00
  0.00000000E+00  0.00000000E+00  0.00000000E+00
  0.00000000E+00  0.00000000E+00  0.00000000E+00
  0.00000000E+00  0.00000000E+00  0.00000000E+00
  0.00000000E+00  0.00000000E+00  0.00000000E+00
  0.00000000E+00  0.00000000E+00  0.00000000E+00
  0.00000000E+00  0.00000000E+00  0.00000000E+00
  0.00000000E+00  0.00000000E+00  0.00000000E+00
  0.00000000E+00  0.00000000E+00  0.00000000E+00
  0.00000000E+00  0.00000000E+00  0.00000000E+00
  0.00000000E+00  0.00000000E+00  0.00000000E+00
  0.00000000E+00  0.00000000E+00  0.00000000E+00
  0.00000000E+00  0.00000000E+00  0.00000000E+00
  0.00000000E+00  0.00000000E+00  0.00000000E+00
  0.00000000E+00  0.00000000E+00  0.00000000E+00
  0.00000000E+00  0.00000000E+00  0.00000000E+00
  0.00000000E+00  0.00000000E+00  0.00000000E+00
