CONTCAR\(9)                             
   1.00000000000000     
    13.1094999313000002    0.0000000000000000    0.0000000000000000
    -6.5547499657000001   11.3531599714000002    0.0000000000000000
     0.0000000000000000    0.0000000000000000   20.2374000549000002
   Na   Hf   N    O    H 
    32    16    32     1     1
Direct
  0.1667475605643257  0.0835011223728808  0.3737833565291264
  0.0841550541112152  0.1675707369701226  0.6266451736219246
  0.4169724411477306  0.0834945459060355  0.3736972689888123
  0.3334256344432686  0.1675669084580128  0.6266306335351541
  0.6671308735903522  0.0842568290900957  0.3734168948795419
  0.5833886124398924  0.1666925934590279  0.6271501802350221
  0.9165254317241942  0.0834991573854134  0.3736981306160304
  0.8333178884457999  0.1666844070656601  0.6271607900570860
  0.1655420177248645  0.3323820597392811  0.3730746554074217
  0.0859247636432706  0.4179600148081122  0.6269474202710792
  0.4168154900634740  0.3323749922422640  0.3730736604310860
  0.3394701345265946  0.4288862133022585  0.6307657780671631
  0.6671217041703845  0.3328825501070439  0.3734166621146250
  0.5820630237676464  0.4179738095816539  0.6269344252600848
  0.9157680171704430  0.3328834809258558  0.3734218519080693
  0.8333141034576246  0.4166222672427196  0.6271492752945831
  0.1655531508491791  0.5831632392107946  0.3730807276188265
  0.0841431491435254  0.6665850609627000  0.6266307932210003
  0.4166671828152825  0.5833263944469936  0.3725923108012384
  0.3394675190520549  0.6605922158105301  0.6307550021118424
  0.6676187754362630  0.5831685834148583  0.3730613120736242
  0.5712331960904012  0.6606187940923874  0.6307303751212719
  0.9165195021228085  0.5830304454371475  0.3736944817353809
  0.8324502678033733  0.6665864195677321  0.6266216122426508
  0.1667509204866794  0.8332586183212505  0.3737810563103556
  0.0833345056954870  0.9166647366490569  0.6270368146511511
  0.4168362461873377  0.8344561029533480  0.3730760278426152
  0.3334253395057159  0.9158657773966894  0.6266288729316016
  0.6676179085590590  0.8344751806288445  0.3730551518912731
  0.5820560804334197  0.9140704710865076  0.6269420446342691
  0.9165191910641730  0.8332677007327518  0.3737766962786098
  0.8324443457196434  0.9158547032116106  0.6266364756372896
 -0.0000338365964632  0.0000445852096110  0.5002383959950926
  0.2500893827404373  0.0000474195285643  0.5002328657499079
  0.4999113953986463  0.9994855062869563  0.5003179447199158
  0.7495880671712191  0.9994871168567581  0.5003194689126396
  0.0005247026029337  0.2504266056886876  0.5003287466756060
  0.2506098310691983  0.2512069417017510  0.5007619503815649
  0.4999104567173906  0.2504274439036949  0.5003165026322066
  0.7500095858927515  0.2500048681033425  0.5005694053244452
  0.0005228568301744  0.5000961046207927  0.5003201589316423
  0.2508791728610487  0.5004389934172873  0.4993775170149666
  0.4995744943371190  0.5004361437544141  0.4993664847409131
  0.7495868985900325  0.5000997830608606  0.5003093463317748
 -0.0000366082547671  0.7499211120457280  0.5002287483291051
  0.2506093304183708  0.7494052228575052  0.5007520875420362
  0.4995749600036669  0.7491378844379176  0.4993646432941499
  0.7488150866428520  0.7494087999756587  0.5007411273685356
  0.1667577561614549  0.0834947933446927  0.5574361976748176
  0.0829496532571696  0.1664225629229027  0.4434190462774955
  0.4166847739925205  0.0833430119525372  0.5575620276387709
  0.3334705185448059  0.1664240801662734  0.4434093937795769
  0.6664099148584925  0.0828161533116299  0.5577358181444165
  0.5836073013974470  0.1668081289131739  0.4436444270728852
  0.9166723815593527  0.0833370893889249  0.5575708557474666
  0.8332141969062488  0.1668038319121588  0.4436547907365132
  0.1678235313698541  0.3345057598469385  0.5571195438462554
  0.0821229344102974  0.4160458682845259  0.4424728673428689
  0.4167198311584827  0.3344948463350682  0.5571009868458625
  0.3325066559926537  0.4150422057287295  0.4413462552794696
  0.6664210883617760  0.3335927863181226  0.5577305618230247
  0.5839326530288023  0.4160719157286056  0.4424560201574981
  0.9171907990512693  0.3336003500593427  0.5577392564918863
  0.8332049064159989  0.4164002638893353  0.4436422421239105
  0.1678025787766163  0.5833286380258407  0.5571047798421275
  0.0829499847601622  0.6665254104124360  0.4434051171180294
  0.4166869671850883  0.5833432244017422  0.5505900426669270
  0.3325396008498593  0.6674689544781235  0.4413442062863447
  0.6655287390122993  0.5832996817933874  0.5570902528238988
  0.5849674457326371  0.6675029176965245  0.4413343981276440
  0.9166668142867358  0.5833245353282269  0.5575588857196381
  0.8335889796799472  0.6665368155176316  0.4433977021971817
  0.1667517296582798  0.8332559841249094  0.5574302897909862
  0.0833397336357324  0.9166744835025857  0.4434390803937928
  0.4166884900743738  0.8322141685634966  0.5570979130602781
  0.3334822901007076  0.9170630458186991  0.4434050090259422
  0.6655168872209190  0.8321965488905119  0.5571017496176283
  0.5839649661472570  0.9178949520726298  0.4424635384217913
  0.9165131640412572  0.8332497762130828  0.5574285710191477
  0.8335957269776468  0.9170683618219320  0.4434075815651271
  0.4168255640050876  0.5834284050754629  0.7045611880108019
  0.4170861810087040  0.5835902311306916  0.7525388520656991
 
  0.00000000E+00  0.00000000E+00  0.00000000E+00
  0.00000000E+00  0.00000000E+00  0.00000000E+00
  0.00000000E+00  0.00000000E+00  0.00000000E+00
  0.00000000E+00  0.00000000E+00  0.00000000E+00
  0.00000000E+00  0.00000000E+00  0.00000000E+00
  0.00000000E+00  0.00000000E+00  0.00000000E+00
  0.00000000E+00  0.00000000E+00  0.00000000E+00
  0.00000000E+00  0.00000000E+00  0.00000000E+00
  0.00000000E+00  0.00000000E+00  0.00000000E+00
  0.00000000E+00  0.00000000E+00  0.00000000E+00
  0.00000000E+00  0.00000000E+00  0.00000000E+00
  0.00000000E+00  0.00000000E+00  0.00000000E+00
  0.00000000E+00  0.00000000E+00  0.00000000E+00
  0.00000000E+00  0.00000000E+00  0.00000000E+00
  0.00000000E+00  0.00000000E+00  0.00000000E+00
  0.00000000E+00  0.00000000E+00  0.00000000E+00
  0.00000000E+00  0.00000000E+00  0.00000000E+00
  0.00000000E+00  0.00000000E+00  0.00000000E+00
  0.00000000E+00  0.00000000E+00  0.00000000E+00
  0.00000000E+00  0.00000000E+00  0.00000000E+00
  0.00000000E+00  0.00000000E+00  0.00000000E+00
  0.00000000E+00  0.00000000E+00  0.00000000E+00
  0.00000000E+00  0.00000000E+00  0.00000000E+00
  0.00000000E+00  0.00000000E+00  0.00000000E+00
  0.00000000E+00  0.00000000E+00  0.00000000E+00
  0.00000000E+00  0.00000000E+00  0.00000000E+00
  0.00000000E+00  0.00000000E+00  0.00000000E+00
  0.00000000E+00  0.00000000E+00  0.00000000E+00
  0.00000000E+00  0.00000000E+00  0.00000000E+00
  0.00000000E+00  0.00000000E+00  0.00000000E+00
  0.00000000E+00  0.00000000E+00  0.00000000E+00
  0.00000000E+00  0.00000000E+00  0.00000000E+00
  0.00000000E+00  0.00000000E+00  0.00000000E+00
  0.00000000E+00  0.00000000E+00  0.00000000E+00
  0.00000000E+00  0.00000000E+00  0.00000000E+00
  0.00000000E+00  0.00000000E+00  0.00000000E+00
  0.00000000E+00  0.00000000E+00  0.00000000E+00
  0.00000000E+00  0.00000000E+00  0.00000000E+00
  0.00000000E+00  0.00000000E+00  0.00000000E+00
  0.00000000E+00  0.00000000E+00  0.00000000E+00
  0.00000000E+00  0.00000000E+00  0.00000000E+00
  0.00000000E+00  0.00000000E+00  0.00000000E+00
  0.00000000E+00  0.00000000E+00  0.00000000E+00
  0.00000000E+00  0.00000000E+00  0.00000000E+00
  0.00000000E+00  0.00000000E+00  0.00000000E+00
  0.00000000E+00  0.00000000E+00  0.00000000E+00
  0.00000000E+00  0.00000000E+00  0.00000000E+00
  0.00000000E+00  0.00000000E+00  0.00000000E+00
  0.00000000E+00  0.00000000E+00  0.00000000E+00
  0.00000000E+00  0.00000000E+00  0.00000000E+00
  0.00000000E+00  0.00000000E+00  0.00000000E+00
  0.00000000E+00  0.00000000E+00  0.00000000E+00
  0.00000000E+00  0.00000000E+00  0.00000000E+00
  0.00000000E+00  0.00000000E+00  0.00000000E+00
  0.00000000E+00  0.00000000E+00  0.00000000E+00
  0.00000000E+00  0.00000000E+00  0.00000000E+00
  0.00000000E+00  0.00000000E+00  0.00000000E+00
  0.00000000E+00  0.00000000E+00  0.00000000E+00
  0.00000000E+00  0.00000000E+00  0.00000000E+00
  0.00000000E+00  0.00000000E+00  0.00000000E+00
  0.00000000E+00  0.00000000E+00  0.00000000E+00
  0.00000000E+00  0.00000000E+00  0.00000000E+00
  0.00000000E+00  0.00000000E+00  0.00000000E+00
  0.00000000E+00  0.00000000E+00  0.00000000E+00
  0.00000000E+00  0.00000000E+00  0.00000000E+00
  0.00000000E+00  0.00000000E+00  0.00000000E+00
  0.00000000E+00  0.00000000E+00  0.00000000E+00
  0.00000000E+00  0.00000000E+00  0.00000000E+00
  0.00000000E+00  0.00000000E+00  0.00000000E+00
  0.00000000E+00  0.00000000E+00  0.00000000E+00
  0.00000000E+00  0.00000000E+00  0.00000000E+00
  0.00000000E+00  0.00000000E+00  0.00000000E+00
  0.00000000E+00  0.00000000E+00  0.00000000E+00
  0.00000000E+00  0.00000000E+00  0.00000000E+00
  0.00000000E+00  0.00000000E+00  0.00000000E+00
  0.00000000E+00  0.00000000E+00  0.00000000E+00
  0.00000000E+00  0.00000000E+00  0.00000000E+00
  0.00000000E+00  0.00000000E+00  0.00000000E+00
  0.00000000E+00  0.00000000E+00  0.00000000E+00
  0.00000000E+00  0.00000000E+00  0.00000000E+00
  0.00000000E+00  0.00000000E+00  0.00000000E+00
  0.00000000E+00  0.00000000E+00  0.00000000E+00
