CONTCAR\(5)                             
   1.00000000000000     
    11.2482995986999992    0.0000000000000000    0.0000000000000000
     0.0000000000000000   13.7291002274000000    0.0000000000000000
     0.0000000000000000    0.0000000000000000   19.4125995636000006
   Zr   I    O 
    12    24     1
Direct
  0.9960340254184247  0.2433812322064446  0.5157292682342364
  0.1648995511147896  0.0578921680021196  0.5196595434417191
  0.3218820824676137  0.2487630668513490  0.5164308342907572
  0.4690344113477389  0.0480449992482887  0.5263277652244537
  0.6625254203032317  0.2411915575786649  0.5166830739989526
  0.8323591082554264  0.0540005740362038  0.5108930914707717
  0.9857185022780265  0.7414781254848792  0.4988239013670122
  0.1346601598188348  0.5475821928343003  0.4974350854247083
  0.3847293762215752  0.7776976337014656  0.4841330829926695
  0.5245424438656814  0.5481805190331170  0.4961458189923252
  0.6717970877463501  0.7412719988274922  0.4907520125913098
  0.8287364546867734  0.5489651188593819  0.4973216753529777
  0.9912235076391128  0.4425166955276212  0.5949419540676799
 -0.0020639995889990  0.1059464261246114  0.4024664901869462
  0.1574521774304526  0.3546557503474792  0.4210423320290217
  0.1578658604043959  0.2054577374363531  0.6287909370648280
  0.3290928272889179  0.4519595875257459  0.5836341040534074
  0.3256305650442914  0.1053761931119292  0.4068385725779374
  0.4963262867961779  0.3506352398286393  0.4241435180934703
  0.4936924361410591  0.2044857135166017  0.6287320964498492
  0.6670814323731860  0.4403888258364548  0.5946607812628739
  0.6489011769840215  0.0940941962849547  0.4097905785104160
  0.8275458541109180  0.3495278414683027  0.4239521609383905
  0.8290398973142712  0.1884679755715985  0.6263326624868990
 -0.0077264614990041  0.9324501110132224  0.5935950241158480
  0.9910588475311846  0.6061402285055852  0.3835555924063876
  0.1692913172384494  0.8622508068802068  0.4221389105727054
  0.1796564291281303  0.7034061265930587  0.5932239418272427
  0.3124350311818296  0.9696973875985564  0.6361001540241844
  0.3287178908052759  0.5987763582981992  0.3994324771823426
  0.5217370133793179  0.8205355308450235  0.3617700072722891
  0.5042577252261417  0.6955722917513019  0.6033580804098003
  0.6640346011036282  0.9327879491931271  0.5913357069401910
  0.6717698604511865  0.5918710905395974  0.3817847122804734
  0.8375632802141360  0.8635381641600249  0.4105758948346456
  0.8296838345426748  0.6894429093511071  0.6104648521374687
  0.4324743222348186  0.9080695670269995  0.4977731608928099
 
  0.00000000E+00  0.00000000E+00  0.00000000E+00
  0.00000000E+00  0.00000000E+00  0.00000000E+00
  0.00000000E+00  0.00000000E+00  0.00000000E+00
  0.00000000E+00  0.00000000E+00  0.00000000E+00
  0.00000000E+00  0.00000000E+00  0.00000000E+00
  0.00000000E+00  0.00000000E+00  0.00000000E+00
  0.00000000E+00  0.00000000E+00  0.00000000E+00
  0.00000000E+00  0.00000000E+00  0.00000000E+00
  0.00000000E+00  0.00000000E+00  0.00000000E+00
  0.00000000E+00  0.00000000E+00  0.00000000E+00
  0.00000000E+00  0.00000000E+00  0.00000000E+00
  0.00000000E+00  0.00000000E+00  0.00000000E+00
  0.00000000E+00  0.00000000E+00  0.00000000E+00
  0.00000000E+00  0.00000000E+00  0.00000000E+00
  0.00000000E+00  0.00000000E+00  0.00000000E+00
  0.00000000E+00  0.00000000E+00  0.00000000E+00
  0.00000000E+00  0.00000000E+00  0.00000000E+00
  0.00000000E+00  0.00000000E+00  0.00000000E+00
  0.00000000E+00  0.00000000E+00  0.00000000E+00
  0.00000000E+00  0.00000000E+00  0.00000000E+00
  0.00000000E+00  0.00000000E+00  0.00000000E+00
  0.00000000E+00  0.00000000E+00  0.00000000E+00
  0.00000000E+00  0.00000000E+00  0.00000000E+00
  0.00000000E+00  0.00000000E+00  0.00000000E+00
  0.00000000E+00  0.00000000E+00  0.00000000E+00
  0.00000000E+00  0.00000000E+00  0.00000000E+00
  0.00000000E+00  0.00000000E+00  0.00000000E+00
  0.00000000E+00  0.00000000E+00  0.00000000E+00
  0.00000000E+00  0.00000000E+00  0.00000000E+00
  0.00000000E+00  0.00000000E+00  0.00000000E+00
  0.00000000E+00  0.00000000E+00  0.00000000E+00
  0.00000000E+00  0.00000000E+00  0.00000000E+00
  0.00000000E+00  0.00000000E+00  0.00000000E+00
  0.00000000E+00  0.00000000E+00  0.00000000E+00
  0.00000000E+00  0.00000000E+00  0.00000000E+00
  0.00000000E+00  0.00000000E+00  0.00000000E+00
  0.00000000E+00  0.00000000E+00  0.00000000E+00
