CONTCAR\(7)                             
   1.00000000000000     
    12.8648996353000005    0.0000000000000000    0.0000000000000000
    -6.4324498177000002   11.1413299013000007    0.0000000000000000
     0.0000000000000000    0.0000000000000000   18.7835006713999988
   Li   C    O 
     9   108     1
Direct
  0.0021670162102434  0.0015568710599367  0.4995999249961314
  0.3344047259530235  0.0004345529929877  0.5007981452773869
  0.6655732601069257 -0.0011392312229308  0.4995628601048879
  0.0038375218522510  0.3351925801991071  0.5002618693284584
  0.3344487419571630  0.3286020118417007  0.5044974900613378
  0.6655749965555587  0.3334782053586450  0.4995438954685352
  0.0023754318113220  0.6674254616246353  0.4995679329998504
  0.3344571941575200  0.6721255560260089  0.5044558936297940
  0.6650844133766344  0.6658293130072738  0.4999169699342426
  0.2225954819148451  0.0002335847300218  0.3995696429906307
  0.0003812757532286  0.2224658198976854  0.3992013141388577
  0.1114765501018616  0.1113216749831629  0.3993931567601841
  0.1114895070551595  0.0002187724901070  0.3994276111384703
  0.0003973346880293  0.1113360761321120  0.3992357633517118
  0.2226525193189441  0.2225057099947032  0.3997098278189265
  0.1126315716382010  0.0008306545293834  0.6000120360392895
  0.0016456764759287  0.1119911073107066  0.5998618079409075
  0.2237654822112303  0.2230427350686318  0.6029564813741705
  0.2240542532186126  0.0008336030044378  0.6007217103006268
  0.0015949584005032  0.2233152232831147  0.5998779090746207
  0.1124275855815430  0.1114424194040894  0.6004394667066320
  0.5558664909267641  0.0001660566430008  0.3994563382414552
  0.3336976398753569  0.2224932961133735  0.3997554761842363
  0.4447880499675956  0.1113261300499741  0.3995732905520272
  0.4447775998461678  0.0001458540081579  0.3995950517700332
  0.3336931902108921  0.1112566724967459  0.3995942521809006
  0.5558795153193310  0.2224093573349220  0.3994502227738567
  0.4455569977640388  0.0006275038827337  0.6005685726165436
  0.3348108671497540  0.1116239644678352  0.6016046663148030
  0.5569673163361006  0.2229994342002591  0.5997978099966965
  0.5569740611965933  0.0006295679635799  0.5998200631453652
  0.3348362572027982  0.2226765186597783  0.6029142464258100
  0.4455570684147934  0.1115906370707288  0.6005788783702706
  0.8892197650352279  0.0001694345141894  0.3990836458561028
  0.6670502757417752  0.2224283525331680  0.3993925437409037
  0.7781276841066562  0.1113037856202015  0.3991798836738883
  0.7781500163315128  0.0002344229375294  0.3990414902325773
  0.6670462046115837  0.1113365202886457  0.3993690664739260
  0.8893272670703117  0.2224967710324467  0.3991989181382357
  0.7792546743624486  0.0007012530258467  0.5994287996978438
  0.6681973552660335  0.1118439887255082  0.5993672826509546
  0.8903665276528090  0.2230141612461101  0.5993359471774174
  0.8903753997505712  0.0007873644385591  0.5995166519414501
  0.6681975896680571  0.2230451003599345  0.5993458998175567
  0.7791302450977712  0.1117730061032759  0.5993625673134020
  0.2226931145351096  0.3336115911569559  0.3996386032316527
  0.0003948521068792  0.5557627391310803  0.3994020630610077
  0.1115717322668549  0.4446900456366762  0.3993268127851943
  0.1115748114673702  0.3336174855697326  0.3992503556868094
  0.0003751711201806  0.4446313319150848  0.3993539515300986
  0.2226825457594210  0.5558012894606646  0.3997266345166823
  0.1128264700448223  0.3340600194045203  0.6016311618504728
  0.0016104367144677  0.4449538868565244  0.5997516051606803
  0.2227798715600481  0.5571008242819498  0.6042696583969357
  0.2227869449066758  0.3323240091004884  0.6043325811513977
  0.0016805474043500  0.5563068831591248  0.5996528200127035
  0.1128278398645906  0.4454272091262931  0.6015734211624455
  0.5559051385818855  0.3335230615898225  0.3993728687122506
  0.3336861940291992  0.5557578656092225  0.3996091889407022
  0.4446998354733794  0.4446098072050604  0.3996492300261324
  0.4447431273335169  0.3335424943967497  0.3996799629909343
  0.3336943443347450  0.4446552518356437  0.3995952905964001
  0.5558039980373093  0.5557216696612524  0.3992321070666327
  0.4458865337921510  0.3341047472443582  0.6027732010054803
  0.3349156058452528  0.4441401008185662  0.6202550705348701
  0.5568706440855923  0.5560526541904661  0.6012558552510889
  0.5571999331276380  0.3338226502179803  0.6002016641011286
  0.3348995014922376  0.5574013103246748  0.6202467674154658
  0.4469068751219118  0.4443814554259155  0.6040229392401084
  0.8893235341667334  0.3335619083607123  0.3992794436930659
  0.6669799251970283  0.5557421019181038  0.3991375916769916
  0.7781461552096377  0.4446223052952173  0.3991899444864790
  0.7781243747326192  0.3335403399302697  0.3992848323559405
  0.6669702538892226  0.4446055519383895  0.3992263695920251
  0.8892094599025299  0.5557408745948965  0.3992218558500810
  0.7791255000120222  0.3340310524822358  0.5992633526069416
  0.6679918628453924  0.4451372723390974  0.5995265987826034
  0.8903936565864957  0.5562227896899535  0.5993109785714476
  0.8903726542525908  0.3340398192881089  0.5992673923121463
  0.6680690270117983  0.5565112460851540  0.5995004561561434
  0.7792677510031725  0.4452021184645974  0.5992525958129034
  0.2226451269168171  0.6668498749193400  0.3998114299760183
  0.0003085444679464  0.8890619594427135  0.3993067017168608
  0.1114953566445843  0.7779743552705712  0.3994667320623226
  0.1114783727319809  0.6668531265231875  0.3995032060319594
  0.0003071630957573  0.7779606545562542  0.3993201174181570
  0.2225972287476477  0.8890568735532415  0.3995904174027741
  0.1124591937164191  0.6676245321145735  0.6002549786787882
  0.0014352433758199  0.7784196079586199  0.5994471527684165
  0.2240714703644157  0.8898626249146108  0.6006539760990675
  0.2237891619644424  0.6673666497033423  0.6028264029971442
  0.0014203942985029  0.8896424447845053  0.5995280699007325
  0.1126690000807846  0.7784394051997263  0.5998675216181336
  0.5557977113742159  0.6667903872169629  0.3991913209709338
  0.3336829686654810  0.8891169185923964  0.3996382181476201
  0.4447121495365284  0.7778913750384917  0.3996801460208149
  0.4446882882316866  0.6667962898534480  0.3996181341753817
  0.3336758241278950  0.7778895662504038  0.3998114706613589
  0.5558820458261157  0.8890683725901671  0.3993412936334078
  0.4469119358347338  0.6691620638944915  0.6040522106730797
  0.3348354962978528  0.7787885063027924  0.6027941344539832
  0.5571848727918002  0.8900185324227139  0.6002301071293347
  0.5568673270647677  0.6674290614676345  0.6012860558163790
  0.3348322857845299  0.8898303868152418  0.6015224638540448
  0.4458868064492632  0.7784157588576769  0.6027539175014675
  0.8892380936946368  0.6668369121509015  0.3991779929714625
  0.6669649827046206  0.8890642026862750  0.3991199644127256
  0.7780416362452947  0.7779110090238458  0.3990198989633312
  0.7780364525513053  0.6668265057251882  0.3990561775384771
  0.6669825504104551  0.7779356645915593  0.3990707674620817
  0.8892418400143689  0.8891048290346415  0.3991222141056165
  0.7792754762834027  0.6674259114764969  0.5990808260446209
  0.6680582269066159  0.7781688809773528  0.5995795053623012
  0.8904975533604659  0.8897115310535035  0.5994397860310672
  0.8905154040439371  0.6674177647336645  0.5992991928978069
  0.6679823284128135  0.8894829989835462  0.5996350844702192
  0.7792762212621006  0.7784583298468737  0.5991511011964268
  0.3352122826615002  0.5009275923354359  0.6908414257896415
 
  0.00000000E+00  0.00000000E+00  0.00000000E+00
  0.00000000E+00  0.00000000E+00  0.00000000E+00
  0.00000000E+00  0.00000000E+00  0.00000000E+00
  0.00000000E+00  0.00000000E+00  0.00000000E+00
  0.00000000E+00  0.00000000E+00  0.00000000E+00
  0.00000000E+00  0.00000000E+00  0.00000000E+00
  0.00000000E+00  0.00000000E+00  0.00000000E+00
  0.00000000E+00  0.00000000E+00  0.00000000E+00
  0.00000000E+00  0.00000000E+00  0.00000000E+00
  0.00000000E+00  0.00000000E+00  0.00000000E+00
  0.00000000E+00  0.00000000E+00  0.00000000E+00
  0.00000000E+00  0.00000000E+00  0.00000000E+00
  0.00000000E+00  0.00000000E+00  0.00000000E+00
  0.00000000E+00  0.00000000E+00  0.00000000E+00
  0.00000000E+00  0.00000000E+00  0.00000000E+00
  0.00000000E+00  0.00000000E+00  0.00000000E+00
  0.00000000E+00  0.00000000E+00  0.00000000E+00
  0.00000000E+00  0.00000000E+00  0.00000000E+00
  0.00000000E+00  0.00000000E+00  0.00000000E+00
  0.00000000E+00  0.00000000E+00  0.00000000E+00
  0.00000000E+00  0.00000000E+00  0.00000000E+00
  0.00000000E+00  0.00000000E+00  0.00000000E+00
  0.00000000E+00  0.00000000E+00  0.00000000E+00
  0.00000000E+00  0.00000000E+00  0.00000000E+00
  0.00000000E+00  0.00000000E+00  0.00000000E+00
  0.00000000E+00  0.00000000E+00  0.00000000E+00
  0.00000000E+00  0.00000000E+00  0.00000000E+00
  0.00000000E+00  0.00000000E+00  0.00000000E+00
  0.00000000E+00  0.00000000E+00  0.00000000E+00
  0.00000000E+00  0.00000000E+00  0.00000000E+00
  0.00000000E+00  0.00000000E+00  0.00000000E+00
  0.00000000E+00  0.00000000E+00  0.00000000E+00
  0.00000000E+00  0.00000000E+00  0.00000000E+00
  0.00000000E+00  0.00000000E+00  0.00000000E+00
  0.00000000E+00  0.00000000E+00  0.00000000E+00
  0.00000000E+00  0.00000000E+00  0.00000000E+00
  0.00000000E+00  0.00000000E+00  0.00000000E+00
  0.00000000E+00  0.00000000E+00  0.00000000E+00
  0.00000000E+00  0.00000000E+00  0.00000000E+00
  0.00000000E+00  0.00000000E+00  0.00000000E+00
  0.00000000E+00  0.00000000E+00  0.00000000E+00
  0.00000000E+00  0.00000000E+00  0.00000000E+00
  0.00000000E+00  0.00000000E+00  0.00000000E+00
  0.00000000E+00  0.00000000E+00  0.00000000E+00
  0.00000000E+00  0.00000000E+00  0.00000000E+00
  0.00000000E+00  0.00000000E+00  0.00000000E+00
  0.00000000E+00  0.00000000E+00  0.00000000E+00
  0.00000000E+00  0.00000000E+00  0.00000000E+00
  0.00000000E+00  0.00000000E+00  0.00000000E+00
  0.00000000E+00  0.00000000E+00  0.00000000E+00
  0.00000000E+00  0.00000000E+00  0.00000000E+00
  0.00000000E+00  0.00000000E+00  0.00000000E+00
  0.00000000E+00  0.00000000E+00  0.00000000E+00
  0.00000000E+00  0.00000000E+00  0.00000000E+00
  0.00000000E+00  0.00000000E+00  0.00000000E+00
  0.00000000E+00  0.00000000E+00  0.00000000E+00
  0.00000000E+00  0.00000000E+00  0.00000000E+00
  0.00000000E+00  0.00000000E+00  0.00000000E+00
  0.00000000E+00  0.00000000E+00  0.00000000E+00
  0.00000000E+00  0.00000000E+00  0.00000000E+00
  0.00000000E+00  0.00000000E+00  0.00000000E+00
  0.00000000E+00  0.00000000E+00  0.00000000E+00
  0.00000000E+00  0.00000000E+00  0.00000000E+00
  0.00000000E+00  0.00000000E+00  0.00000000E+00
  0.00000000E+00  0.00000000E+00  0.00000000E+00
  0.00000000E+00  0.00000000E+00  0.00000000E+00
  0.00000000E+00  0.00000000E+00  0.00000000E+00
  0.00000000E+00  0.00000000E+00  0.00000000E+00
  0.00000000E+00  0.00000000E+00  0.00000000E+00
  0.00000000E+00  0.00000000E+00  0.00000000E+00
  0.00000000E+00  0.00000000E+00  0.00000000E+00
  0.00000000E+00  0.00000000E+00  0.00000000E+00
  0.00000000E+00  0.00000000E+00  0.00000000E+00
  0.00000000E+00  0.00000000E+00  0.00000000E+00
  0.00000000E+00  0.00000000E+00  0.00000000E+00
  0.00000000E+00  0.00000000E+00  0.00000000E+00
  0.00000000E+00  0.00000000E+00  0.00000000E+00
  0.00000000E+00  0.00000000E+00  0.00000000E+00
  0.00000000E+00  0.00000000E+00  0.00000000E+00
  0.00000000E+00  0.00000000E+00  0.00000000E+00
  0.00000000E+00  0.00000000E+00  0.00000000E+00
  0.00000000E+00  0.00000000E+00  0.00000000E+00
  0.00000000E+00  0.00000000E+00  0.00000000E+00
  0.00000000E+00  0.00000000E+00  0.00000000E+00
  0.00000000E+00  0.00000000E+00  0.00000000E+00
  0.00000000E+00  0.00000000E+00  0.00000000E+00
  0.00000000E+00  0.00000000E+00  0.00000000E+00
  0.00000000E+00  0.00000000E+00  0.00000000E+00
  0.00000000E+00  0.00000000E+00  0.00000000E+00
  0.00000000E+00  0.00000000E+00  0.00000000E+00
  0.00000000E+00  0.00000000E+00  0.00000000E+00
  0.00000000E+00  0.00000000E+00  0.00000000E+00
  0.00000000E+00  0.00000000E+00  0.00000000E+00
  0.00000000E+00  0.00000000E+00  0.00000000E+00
  0.00000000E+00  0.00000000E+00  0.00000000E+00
  0.00000000E+00  0.00000000E+00  0.00000000E+00
  0.00000000E+00  0.00000000E+00  0.00000000E+00
  0.00000000E+00  0.00000000E+00  0.00000000E+00
  0.00000000E+00  0.00000000E+00  0.00000000E+00
  0.00000000E+00  0.00000000E+00  0.00000000E+00
  0.00000000E+00  0.00000000E+00  0.00000000E+00
  0.00000000E+00  0.00000000E+00  0.00000000E+00
  0.00000000E+00  0.00000000E+00  0.00000000E+00
  0.00000000E+00  0.00000000E+00  0.00000000E+00
  0.00000000E+00  0.00000000E+00  0.00000000E+00
  0.00000000E+00  0.00000000E+00  0.00000000E+00
  0.00000000E+00  0.00000000E+00  0.00000000E+00
  0.00000000E+00  0.00000000E+00  0.00000000E+00
  0.00000000E+00  0.00000000E+00  0.00000000E+00
  0.00000000E+00  0.00000000E+00  0.00000000E+00
  0.00000000E+00  0.00000000E+00  0.00000000E+00
  0.00000000E+00  0.00000000E+00  0.00000000E+00
  0.00000000E+00  0.00000000E+00  0.00000000E+00
  0.00000000E+00  0.00000000E+00  0.00000000E+00
  0.00000000E+00  0.00000000E+00  0.00000000E+00
  0.00000000E+00  0.00000000E+00  0.00000000E+00
  0.00000000E+00  0.00000000E+00  0.00000000E+00
  0.00000000E+00  0.00000000E+00  0.00000000E+00
