 Mn2 P2 Se6                             
   1.00000000000000     
     6.3427739432863577    0.0000000000000000    0.0000000000000000
     3.1713864770682618    5.4929932383859992    0.0000000000000000
     0.0000000000000000    0.0000000000000000   18.4182126851600003
   Mn   P    Se
     2     2     6
Direct
  0.3333333324321110  0.3333330642845803  0.5003091011676516
  0.6666666693237330  0.6666669356477204  0.4996908941069435
 -0.0000000038080516 -0.0000000130923071  0.4391738313011326
  0.0000000039086845  0.0000000135010778  0.5608261731243835
  0.3382696664281275  0.9993065302446136  0.5924470826019362
  0.9993067755871777  0.6624234111261216  0.5924470805355081
  0.6624235856298126  0.3382699185047283  0.5924471029305727
  0.6617303560445917  0.0006934265134368  0.4075529181909256
  0.0006931805320029  0.3375766085794749  0.4075529188782461
  0.3375764339218101  0.6617301046905530  0.4075528971626995
 
  0.00000000E+00  0.00000000E+00  0.00000000E+00
  0.00000000E+00  0.00000000E+00  0.00000000E+00
  0.00000000E+00  0.00000000E+00  0.00000000E+00
  0.00000000E+00  0.00000000E+00  0.00000000E+00
  0.00000000E+00  0.00000000E+00  0.00000000E+00
  0.00000000E+00  0.00000000E+00  0.00000000E+00
  0.00000000E+00  0.00000000E+00  0.00000000E+00
  0.00000000E+00  0.00000000E+00  0.00000000E+00
  0.00000000E+00  0.00000000E+00  0.00000000E+00
  0.00000000E+00  0.00000000E+00  0.00000000E+00
