 Sc5 C1 Cl8                             
   1.00000000000000     
     3.5167766229888926    0.0000000000000000    0.0000000000000000
     0.0000000000000000   11.9769309213580861    0.0000000000000000
     0.0000000000000000    0.0000000000000000   20.6152555295099980
   Sc   C    Cl
     5     1     8
Direct
  0.5000000116173950  0.9809295655988208  0.6046756427395721
  0.5000000110017382  0.0190716637693455  0.3953193637402066
  0.0000000044284789  0.1257691840357893  0.5076366691996697
  0.9999999973760225  0.8742293741573377  0.4923725604329618
  0.5000000051355258  0.5000004050241031  0.5000005164263683
  0.5000000070300885  0.0000000537308722  0.5000019501493256
  0.4999999919975622  0.7100055202836302  0.4800913569395391
  0.4999999936340842  0.2899954649126570  0.5199004771365878
  0.0000000044499231  0.8287683613639842  0.6184637937577619
  0.0000000107689928  0.1712094004965223  0.3815346248418336
  0.9999999922729543  0.8752974385402510  0.3630307937812489
  0.9999999986164028  0.1247250005660945  0.6369721272814388
  0.9999999773659880  0.5212836392571347  0.5848905205144845
  0.9999999943048437  0.4787159282634477  0.4151096030590082
 
  0.00000000E+00  0.00000000E+00  0.00000000E+00
  0.00000000E+00  0.00000000E+00  0.00000000E+00
  0.00000000E+00  0.00000000E+00  0.00000000E+00
  0.00000000E+00  0.00000000E+00  0.00000000E+00
  0.00000000E+00  0.00000000E+00  0.00000000E+00
  0.00000000E+00  0.00000000E+00  0.00000000E+00
  0.00000000E+00  0.00000000E+00  0.00000000E+00
  0.00000000E+00  0.00000000E+00  0.00000000E+00
  0.00000000E+00  0.00000000E+00  0.00000000E+00
  0.00000000E+00  0.00000000E+00  0.00000000E+00
  0.00000000E+00  0.00000000E+00  0.00000000E+00
  0.00000000E+00  0.00000000E+00  0.00000000E+00
  0.00000000E+00  0.00000000E+00  0.00000000E+00
  0.00000000E+00  0.00000000E+00  0.00000000E+00
