G   57   17    1    0.005     # Parameters to Generate KPOINTS (Don't Edit This Line)
     261
Reciprocal lattice
    0.000000000000    0.000000000000    0.000000000000       1
    0.017543859649    0.000000000000    0.000000000000       2
    0.035087719298    0.000000000000    0.000000000000       2
    0.052631578947    0.000000000000    0.000000000000       2
    0.070175438596    0.000000000000    0.000000000000       2
    0.087719298246    0.000000000000    0.000000000000       2
    0.105263157895    0.000000000000    0.000000000000       2
    0.122807017544    0.000000000000    0.000000000000       2
    0.140350877193    0.000000000000    0.000000000000       2
    0.157894736842    0.000000000000    0.000000000000       2
    0.175438596491    0.000000000000    0.000000000000       2
    0.192982456140    0.000000000000    0.000000000000       2
    0.210526315789    0.000000000000    0.000000000000       2
    0.228070175439    0.000000000000    0.000000000000       2
    0.245614035088    0.000000000000    0.000000000000       2
    0.263157894737    0.000000000000    0.000000000000       2
    0.280701754386    0.000000000000    0.000000000000       2
    0.298245614035    0.000000000000    0.000000000000       2
    0.315789473684    0.000000000000    0.000000000000       2
    0.333333333333    0.000000000000    0.000000000000       2
    0.350877192982    0.000000000000    0.000000000000       2
    0.368421052632    0.000000000000    0.000000000000       2
    0.385964912281    0.000000000000    0.000000000000       2
    0.403508771930    0.000000000000    0.000000000000       2
    0.421052631579    0.000000000000    0.000000000000       2
    0.438596491228    0.000000000000    0.000000000000       2
    0.456140350877    0.000000000000    0.000000000000       2
    0.473684210526    0.000000000000    0.000000000000       2
    0.491228070175    0.000000000000    0.000000000000       2
    0.000000000000    0.058823529412    0.000000000000       2
    0.017543859649    0.058823529412    0.000000000000       4
    0.035087719298    0.058823529412    0.000000000000       4
    0.052631578947    0.058823529412    0.000000000000       4
    0.070175438596    0.058823529412    0.000000000000       4
    0.087719298246    0.058823529412    0.000000000000       4
    0.105263157895    0.058823529412    0.000000000000       4
    0.122807017544    0.058823529412    0.000000000000       4
    0.140350877193    0.058823529412    0.000000000000       4
    0.157894736842    0.058823529412    0.000000000000       4
    0.175438596491    0.058823529412    0.000000000000       4
    0.192982456140    0.058823529412    0.000000000000       4
    0.210526315789    0.058823529412    0.000000000000       4
    0.228070175439    0.058823529412    0.000000000000       4
    0.245614035088    0.058823529412    0.000000000000       4
    0.263157894737    0.058823529412    0.000000000000       4
    0.280701754386    0.058823529412    0.000000000000       4
    0.298245614035    0.058823529412    0.000000000000       4
    0.315789473684    0.058823529412    0.000000000000       4
    0.333333333333    0.058823529412    0.000000000000       4
    0.350877192982    0.058823529412    0.000000000000       4
    0.368421052632    0.058823529412    0.000000000000       4
    0.385964912281    0.058823529412    0.000000000000       4
    0.403508771930    0.058823529412    0.000000000000       4
    0.421052631579    0.058823529412    0.000000000000       4
    0.438596491228    0.058823529412    0.000000000000       4
    0.456140350877    0.058823529412    0.000000000000       4
    0.473684210526    0.058823529412    0.000000000000       4
    0.491228070175    0.058823529412    0.000000000000       4
    0.000000000000    0.117647058824    0.000000000000       2
    0.017543859649    0.117647058824    0.000000000000       4
    0.035087719298    0.117647058824    0.000000000000       4
    0.052631578947    0.117647058824    0.000000000000       4
    0.070175438596    0.117647058824    0.000000000000       4
    0.087719298246    0.117647058824    0.000000000000       4
    0.105263157895    0.117647058824    0.000000000000       4
    0.122807017544    0.117647058824    0.000000000000       4
    0.140350877193    0.117647058824    0.000000000000       4
    0.157894736842    0.117647058824    0.000000000000       4
    0.175438596491    0.117647058824    0.000000000000       4
    0.192982456140    0.117647058824    0.000000000000       4
    0.210526315789    0.117647058824    0.000000000000       4
    0.228070175439    0.117647058824    0.000000000000       4
    0.245614035088    0.117647058824    0.000000000000       4
    0.263157894737    0.117647058824    0.000000000000       4
    0.280701754386    0.117647058824    0.000000000000       4
    0.298245614035    0.117647058824    0.000000000000       4
    0.315789473684    0.117647058824    0.000000000000       4
    0.333333333333    0.117647058824    0.000000000000       4
    0.350877192982    0.117647058824    0.000000000000       4
    0.368421052632    0.117647058824    0.000000000000       4
    0.385964912281    0.117647058824    0.000000000000       4
    0.403508771930    0.117647058824    0.000000000000       4
    0.421052631579    0.117647058824    0.000000000000       4
    0.438596491228    0.117647058824    0.000000000000       4
    0.456140350877    0.117647058824    0.000000000000       4
    0.473684210526    0.117647058824    0.000000000000       4
    0.491228070175    0.117647058824    0.000000000000       4
    0.000000000000    0.176470588235    0.000000000000       2
    0.017543859649    0.176470588235    0.000000000000       4
    0.035087719298    0.176470588235    0.000000000000       4
    0.052631578947    0.176470588235    0.000000000000       4
    0.070175438596    0.176470588235    0.000000000000       4
    0.087719298246    0.176470588235    0.000000000000       4
    0.105263157895    0.176470588235    0.000000000000       4
    0.122807017544    0.176470588235    0.000000000000       4
    0.140350877193    0.176470588235    0.000000000000       4
    0.157894736842    0.176470588235    0.000000000000       4
    0.175438596491    0.176470588235    0.000000000000       4
    0.192982456140    0.176470588235    0.000000000000       4
    0.210526315789    0.176470588235    0.000000000000       4
    0.228070175439    0.176470588235    0.000000000000       4
    0.245614035088    0.176470588235    0.000000000000       4
    0.263157894737    0.176470588235    0.000000000000       4
    0.280701754386    0.176470588235    0.000000000000       4
    0.298245614035    0.176470588235    0.000000000000       4
    0.315789473684    0.176470588235    0.000000000000       4
    0.333333333333    0.176470588235    0.000000000000       4
    0.350877192982    0.176470588235    0.000000000000       4
    0.368421052632    0.176470588235    0.000000000000       4
    0.385964912281    0.176470588235    0.000000000000       4
    0.403508771930    0.176470588235    0.000000000000       4
    0.421052631579    0.176470588235    0.000000000000       4
    0.438596491228    0.176470588235    0.000000000000       4
    0.456140350877    0.176470588235    0.000000000000       4
    0.473684210526    0.176470588235    0.000000000000       4
    0.491228070175    0.176470588235    0.000000000000       4
    0.000000000000    0.235294117647    0.000000000000       2
    0.017543859649    0.235294117647    0.000000000000       4
    0.035087719298    0.235294117647    0.000000000000       4
    0.052631578947    0.235294117647    0.000000000000       4
    0.070175438596    0.235294117647    0.000000000000       4
    0.087719298246    0.235294117647    0.000000000000       4
    0.105263157895    0.235294117647    0.000000000000       4
    0.122807017544    0.235294117647    0.000000000000       4
    0.140350877193    0.235294117647    0.000000000000       4
    0.157894736842    0.235294117647    0.000000000000       4
    0.175438596491    0.235294117647    0.000000000000       4
    0.192982456140    0.235294117647    0.000000000000       4
    0.210526315789    0.235294117647    0.000000000000       4
    0.228070175439    0.235294117647    0.000000000000       4
    0.245614035088    0.235294117647    0.000000000000       4
    0.263157894737    0.235294117647    0.000000000000       4
    0.280701754386    0.235294117647    0.000000000000       4
    0.298245614035    0.235294117647    0.000000000000       4
    0.315789473684    0.235294117647    0.000000000000       4
    0.333333333333    0.235294117647    0.000000000000       4
    0.350877192982    0.235294117647    0.000000000000       4
    0.368421052632    0.235294117647    0.000000000000       4
    0.385964912281    0.235294117647    0.000000000000       4
    0.403508771930    0.235294117647    0.000000000000       4
    0.421052631579    0.235294117647    0.000000000000       4
    0.438596491228    0.235294117647    0.000000000000       4
    0.456140350877    0.235294117647    0.000000000000       4
    0.473684210526    0.235294117647    0.000000000000       4
    0.491228070175    0.235294117647    0.000000000000       4
    0.000000000000    0.294117647059    0.000000000000       2
    0.017543859649    0.294117647059    0.000000000000       4
    0.035087719298    0.294117647059    0.000000000000       4
    0.052631578947    0.294117647059    0.000000000000       4
    0.070175438596    0.294117647059    0.000000000000       4
    0.087719298246    0.294117647059    0.000000000000       4
    0.105263157895    0.294117647059    0.000000000000       4
    0.122807017544    0.294117647059    0.000000000000       4
    0.140350877193    0.294117647059    0.000000000000       4
    0.157894736842    0.294117647059    0.000000000000       4
    0.175438596491    0.294117647059    0.000000000000       4
    0.192982456140    0.294117647059    0.000000000000       4
    0.210526315789    0.294117647059    0.000000000000       4
    0.228070175439    0.294117647059    0.000000000000       4
    0.245614035088    0.294117647059    0.000000000000       4
    0.263157894737    0.294117647059    0.000000000000       4
    0.280701754386    0.294117647059    0.000000000000       4
    0.298245614035    0.294117647059    0.000000000000       4
    0.315789473684    0.294117647059    0.000000000000       4
    0.333333333333    0.294117647059    0.000000000000       4
    0.350877192982    0.294117647059    0.000000000000       4
    0.368421052632    0.294117647059    0.000000000000       4
    0.385964912281    0.294117647059    0.000000000000       4
    0.403508771930    0.294117647059    0.000000000000       4
    0.421052631579    0.294117647059    0.000000000000       4
    0.438596491228    0.294117647059    0.000000000000       4
    0.456140350877    0.294117647059    0.000000000000       4
    0.473684210526    0.294117647059    0.000000000000       4
    0.491228070175    0.294117647059    0.000000000000       4
    0.000000000000    0.352941176471    0.000000000000       2
    0.017543859649    0.352941176471    0.000000000000       4
    0.035087719298    0.352941176471    0.000000000000       4
    0.052631578947    0.352941176471    0.000000000000       4
    0.070175438596    0.352941176471    0.000000000000       4
    0.087719298246    0.352941176471    0.000000000000       4
    0.105263157895    0.352941176471    0.000000000000       4
    0.122807017544    0.352941176471    0.000000000000       4
    0.140350877193    0.352941176471    0.000000000000       4
    0.157894736842    0.352941176471    0.000000000000       4
    0.175438596491    0.352941176471    0.000000000000       4
    0.192982456140    0.352941176471    0.000000000000       4
    0.210526315789    0.352941176471    0.000000000000       4
    0.228070175439    0.352941176471    0.000000000000       4
    0.245614035088    0.352941176471    0.000000000000       4
    0.263157894737    0.352941176471    0.000000000000       4
    0.280701754386    0.352941176471    0.000000000000       4
    0.298245614035    0.352941176471    0.000000000000       4
    0.315789473684    0.352941176471    0.000000000000       4
    0.333333333333    0.352941176471    0.000000000000       4
    0.350877192982    0.352941176471    0.000000000000       4
    0.368421052632    0.352941176471    0.000000000000       4
    0.385964912281    0.352941176471    0.000000000000       4
    0.403508771930    0.352941176471    0.000000000000       4
    0.421052631579    0.352941176471    0.000000000000       4
    0.438596491228    0.352941176471    0.000000000000       4
    0.456140350877    0.352941176471    0.000000000000       4
    0.473684210526    0.352941176471    0.000000000000       4
    0.491228070175    0.352941176471    0.000000000000       4
    0.000000000000    0.411764705882    0.000000000000       2
    0.017543859649    0.411764705882    0.000000000000       4
    0.035087719298    0.411764705882    0.000000000000       4
    0.052631578947    0.411764705882    0.000000000000       4
    0.070175438596    0.411764705882    0.000000000000       4
    0.087719298246    0.411764705882    0.000000000000       4
    0.105263157895    0.411764705882    0.000000000000       4
    0.122807017544    0.411764705882    0.000000000000       4
    0.140350877193    0.411764705882    0.000000000000       4
    0.157894736842    0.411764705882    0.000000000000       4
    0.175438596491    0.411764705882    0.000000000000       4
    0.192982456140    0.411764705882    0.000000000000       4
    0.210526315789    0.411764705882    0.000000000000       4
    0.228070175439    0.411764705882    0.000000000000       4
    0.245614035088    0.411764705882    0.000000000000       4
    0.263157894737    0.411764705882    0.000000000000       4
    0.280701754386    0.411764705882    0.000000000000       4
    0.298245614035    0.411764705882    0.000000000000       4
    0.315789473684    0.411764705882    0.000000000000       4
    0.333333333333    0.411764705882    0.000000000000       4
    0.350877192982    0.411764705882    0.000000000000       4
    0.368421052632    0.411764705882    0.000000000000       4
    0.385964912281    0.411764705882    0.000000000000       4
    0.403508771930    0.411764705882    0.000000000000       4
    0.421052631579    0.411764705882    0.000000000000       4
    0.438596491228    0.411764705882    0.000000000000       4
    0.456140350877    0.411764705882    0.000000000000       4
    0.473684210526    0.411764705882    0.000000000000       4
    0.491228070175    0.411764705882    0.000000000000       4
    0.000000000000    0.470588235294    0.000000000000       2
    0.017543859649    0.470588235294    0.000000000000       4
    0.035087719298    0.470588235294    0.000000000000       4
    0.052631578947    0.470588235294    0.000000000000       4
    0.070175438596    0.470588235294    0.000000000000       4
    0.087719298246    0.470588235294    0.000000000000       4
    0.105263157895    0.470588235294    0.000000000000       4
    0.122807017544    0.470588235294    0.000000000000       4
    0.140350877193    0.470588235294    0.000000000000       4
    0.157894736842    0.470588235294    0.000000000000       4
    0.175438596491    0.470588235294    0.000000000000       4
    0.192982456140    0.470588235294    0.000000000000       4
    0.210526315789    0.470588235294    0.000000000000       4
    0.228070175439    0.470588235294    0.000000000000       4
    0.245614035088    0.470588235294    0.000000000000       4
    0.263157894737    0.470588235294    0.000000000000       4
    0.280701754386    0.470588235294    0.000000000000       4
    0.298245614035    0.470588235294    0.000000000000       4
    0.315789473684    0.470588235294    0.000000000000       4
    0.333333333333    0.470588235294    0.000000000000       4
    0.350877192982    0.470588235294    0.000000000000       4
    0.368421052632    0.470588235294    0.000000000000       4
    0.385964912281    0.470588235294    0.000000000000       4
    0.403508771930    0.470588235294    0.000000000000       4
    0.421052631579    0.470588235294    0.000000000000       4
    0.438596491228    0.470588235294    0.000000000000       4
    0.456140350877    0.470588235294    0.000000000000       4
    0.473684210526    0.470588235294    0.000000000000       4
    0.491228070175    0.470588235294    0.000000000000       4
