CONTCAR                                 
   1.00000000000000     
    13.0656995773000002    0.0000000000000000    0.0000000000000000
     6.5328497887000001   11.3152277522000002    0.0000000000000000
     0.0000000000000000    0.0000000000000000   20.6284008026000016
   Ta   C    S    O    H 
    32    16    32     2     1
Direct
  0.1665361800768726  0.1668037787716783  0.5565870750870261
  0.0832252194457226  0.0833826128746257  0.4413731501787571
  0.4165075365260943  0.1667419379360561  0.5566299739438696
  0.3332529500036406  0.0833625724125755  0.4413653431432675
  0.6664476812286384  0.1670010381522186  0.5568113111062296
  0.5831849498343378  0.0837326177064672  0.4414532736610586
  0.9165201145334902  0.1667640518075256  0.5567065585867885
  0.8329678197749593  0.0837353527543025  0.4414572375222063
  0.1666421187182473  0.4167203567967298  0.5565531221767994
  0.0832599019152948  0.3333100199148489  0.4413439859396197
  0.4167452452018984  0.4166568465149054  0.5566821095058567
  0.3335692560555248  0.3332888467411180  0.4414029534051509
  0.6663946456810191  0.4166290138646040  0.5568778942517825
  0.5832402686158376  0.3333866973054810  0.4413577255592074
  0.9165021440477275  0.4166605149466840  0.5566032013643032
  0.8329444003028075  0.3332619256379066  0.4414672131427426
  0.1667100139051235  0.6666055024704930  0.5565538485150984
  0.0831139915208371  0.5834548738729693  0.4415206872170976
  0.4165956809115489  0.6666617955986865  0.5566571833802403
  0.3335482707012138  0.5831454621061898  0.4413797900283947
  0.6665625385871231  0.6666341981477936  0.5565875565203176
  0.5831696309935732  0.5830763676860873  0.4414324923469015
  0.9165786502509360  0.6666977200947795  0.5567149024235890
  0.8332160950674493  0.5834480515415785  0.4415656938508511
  0.1665531921308928  0.9166361377040594  0.5565796126435467
  0.0832464040312793  0.8334352958554649  0.4413407028323461
  0.4166885522040523  0.9166295893028453  0.5565799384198651
  0.3332483076458425  0.8333576042521562  0.4413536140353835
  0.6666077414770413  0.9166706950669929  0.5565872321538181
  0.5831981347658536  0.8334058985566360  0.4413405926964287
  0.9165598178039924  0.9167650137378776  0.5565876410436144
  0.8332286085366365  0.8333437505883036  0.4415525792835522
 -0.0001169967332647  0.0001089793496296  0.4989673667003678
  0.2499233603034986  0.0000235414649033  0.4990306288908765
  0.4999138396321772  0.0000757657296046  0.4989534948717720
  0.7496278237799475  0.0006200787058558  0.4991038227853870
 -0.0001140801586410  0.2499922485288425  0.4989557527537916
  0.2499512282589330  0.2500165198574314  0.4989284823141489
  0.4999896869336913  0.2501089123296643  0.4991827952200495
  0.7496894444766546  0.2501542698450158  0.4992172301488980
 -0.0000598234106482  0.4999311295797267  0.4990551967439631
  0.2502921595001250  0.4998489598859849  0.4989940832469132
  0.4999815150481749  0.4998935715196817  0.4991525069155467
  0.7496349616852528  0.4997524354475757  0.4991148797234574
  0.9999429271883190  0.7501146693660865  0.4990534359867551
  0.2499743136133118  0.7499947911613395  0.4989325622355834
  0.4999134458522785  0.7499739273454969  0.4989377009391897
  0.7497932855238403  0.7501055447364281  0.4990777010801224
  0.1666311393804484  0.1666232629214768  0.3624065346554225
  0.0834733970321171  0.0832592516495658  0.6355557769381895
  0.4165611604736261  0.1666020184486214  0.3622527830121856
  0.3331470896841454  0.0832445939938841  0.6355745094112619
  0.6664437974864215  0.1670145629833615  0.3622839729572373
  0.5831227357395826  0.0833849882931518  0.6358187566132245
  0.9166828508953254  0.1666473653682602  0.3622864730932915
  0.8333116691955430  0.0834254227783006  0.6358461676013112
  0.1667649132560865  0.4167199522178716  0.3624460212743803
  0.0832202542924551  0.3334285287340221  0.6356603292083165
  0.4169044741203886  0.4165271023722157  0.3622637018669519
  0.3331711423441676  0.3332681469729566  0.6357523445743917
  0.6664457246977046  0.4165119775077893  0.3622818199843553
  0.5826209745145343  0.3336379477242188  0.6355097115029544
  0.9162965576735768  0.4167055579736175  0.3624965409865420
  0.8333455677188624  0.3332248441602267  0.6358562698696409
  0.1667360078705371  0.6665418976572592  0.3624439803095106
  0.0833301116518767  0.5833181426323085  0.6356003649410848
  0.4165494813418081  0.6668000778881334  0.3622501284614424
  0.3332386374209058  0.5834776208480776  0.6357649842904366
  0.6665746706469073  0.6664519846543000  0.3624811825039836
  0.5831151026525171  0.5834913710271245  0.6358174428002900
  0.9165379215824739  0.6667527344532321  0.3627079795478106
  0.8332197338572626  0.5832971394235528  0.6356231952017211
  0.1666288446110639  0.9167470631292776  0.3623913524794367
  0.0832545334290685  0.8333012795931588  0.6356620873917259
  0.4165420972656166  0.9167271417413542  0.3624006629441707
  0.3331790369568672  0.8335325181476854  0.6355591506042582
  0.6665794529721893  0.9170018121329173  0.3624695721952487
  0.5833216770045820  0.8333016242687228  0.6356890369560210
  0.9162840073506214  0.9170073522656533  0.3624809484502536
  0.8332431685978280  0.8334145028106993  0.6356428513699225
  0.6034174665532642  0.3450574364132925  0.7720739460048794
  0.5727675460790207  0.3295741863439944  0.8330634749675031
  0.5830140146614985  0.2486364018959188  0.8323321055081085
 
  0.00000000E+00  0.00000000E+00  0.00000000E+00
  0.00000000E+00  0.00000000E+00  0.00000000E+00
  0.00000000E+00  0.00000000E+00  0.00000000E+00
  0.00000000E+00  0.00000000E+00  0.00000000E+00
  0.00000000E+00  0.00000000E+00  0.00000000E+00
  0.00000000E+00  0.00000000E+00  0.00000000E+00
  0.00000000E+00  0.00000000E+00  0.00000000E+00
  0.00000000E+00  0.00000000E+00  0.00000000E+00
  0.00000000E+00  0.00000000E+00  0.00000000E+00
  0.00000000E+00  0.00000000E+00  0.00000000E+00
  0.00000000E+00  0.00000000E+00  0.00000000E+00
  0.00000000E+00  0.00000000E+00  0.00000000E+00
  0.00000000E+00  0.00000000E+00  0.00000000E+00
  0.00000000E+00  0.00000000E+00  0.00000000E+00
  0.00000000E+00  0.00000000E+00  0.00000000E+00
  0.00000000E+00  0.00000000E+00  0.00000000E+00
  0.00000000E+00  0.00000000E+00  0.00000000E+00
  0.00000000E+00  0.00000000E+00  0.00000000E+00
  0.00000000E+00  0.00000000E+00  0.00000000E+00
  0.00000000E+00  0.00000000E+00  0.00000000E+00
  0.00000000E+00  0.00000000E+00  0.00000000E+00
  0.00000000E+00  0.00000000E+00  0.00000000E+00
  0.00000000E+00  0.00000000E+00  0.00000000E+00
  0.00000000E+00  0.00000000E+00  0.00000000E+00
  0.00000000E+00  0.00000000E+00  0.00000000E+00
  0.00000000E+00  0.00000000E+00  0.00000000E+00
  0.00000000E+00  0.00000000E+00  0.00000000E+00
  0.00000000E+00  0.00000000E+00  0.00000000E+00
  0.00000000E+00  0.00000000E+00  0.00000000E+00
  0.00000000E+00  0.00000000E+00  0.00000000E+00
  0.00000000E+00  0.00000000E+00  0.00000000E+00
  0.00000000E+00  0.00000000E+00  0.00000000E+00
  0.00000000E+00  0.00000000E+00  0.00000000E+00
  0.00000000E+00  0.00000000E+00  0.00000000E+00
  0.00000000E+00  0.00000000E+00  0.00000000E+00
  0.00000000E+00  0.00000000E+00  0.00000000E+00
  0.00000000E+00  0.00000000E+00  0.00000000E+00
  0.00000000E+00  0.00000000E+00  0.00000000E+00
  0.00000000E+00  0.00000000E+00  0.00000000E+00
  0.00000000E+00  0.00000000E+00  0.00000000E+00
  0.00000000E+00  0.00000000E+00  0.00000000E+00
  0.00000000E+00  0.00000000E+00  0.00000000E+00
  0.00000000E+00  0.00000000E+00  0.00000000E+00
  0.00000000E+00  0.00000000E+00  0.00000000E+00
  0.00000000E+00  0.00000000E+00  0.00000000E+00
  0.00000000E+00  0.00000000E+00  0.00000000E+00
  0.00000000E+00  0.00000000E+00  0.00000000E+00
  0.00000000E+00  0.00000000E+00  0.00000000E+00
  0.00000000E+00  0.00000000E+00  0.00000000E+00
  0.00000000E+00  0.00000000E+00  0.00000000E+00
  0.00000000E+00  0.00000000E+00  0.00000000E+00
  0.00000000E+00  0.00000000E+00  0.00000000E+00
  0.00000000E+00  0.00000000E+00  0.00000000E+00
  0.00000000E+00  0.00000000E+00  0.00000000E+00
  0.00000000E+00  0.00000000E+00  0.00000000E+00
  0.00000000E+00  0.00000000E+00  0.00000000E+00
  0.00000000E+00  0.00000000E+00  0.00000000E+00
  0.00000000E+00  0.00000000E+00  0.00000000E+00
  0.00000000E+00  0.00000000E+00  0.00000000E+00
  0.00000000E+00  0.00000000E+00  0.00000000E+00
  0.00000000E+00  0.00000000E+00  0.00000000E+00
  0.00000000E+00  0.00000000E+00  0.00000000E+00
  0.00000000E+00  0.00000000E+00  0.00000000E+00
  0.00000000E+00  0.00000000E+00  0.00000000E+00
  0.00000000E+00  0.00000000E+00  0.00000000E+00
  0.00000000E+00  0.00000000E+00  0.00000000E+00
  0.00000000E+00  0.00000000E+00  0.00000000E+00
  0.00000000E+00  0.00000000E+00  0.00000000E+00
  0.00000000E+00  0.00000000E+00  0.00000000E+00
  0.00000000E+00  0.00000000E+00  0.00000000E+00
  0.00000000E+00  0.00000000E+00  0.00000000E+00
  0.00000000E+00  0.00000000E+00  0.00000000E+00
  0.00000000E+00  0.00000000E+00  0.00000000E+00
  0.00000000E+00  0.00000000E+00  0.00000000E+00
  0.00000000E+00  0.00000000E+00  0.00000000E+00
  0.00000000E+00  0.00000000E+00  0.00000000E+00
  0.00000000E+00  0.00000000E+00  0.00000000E+00
  0.00000000E+00  0.00000000E+00  0.00000000E+00
  0.00000000E+00  0.00000000E+00  0.00000000E+00
  0.00000000E+00  0.00000000E+00  0.00000000E+00
  0.00000000E+00  0.00000000E+00  0.00000000E+00
  0.00000000E+00  0.00000000E+00  0.00000000E+00
  0.00000000E+00  0.00000000E+00  0.00000000E+00
