CONTCAR\(6)                             
   1.00000000000000     
    10.8077001571999993    0.0000000000000000    0.0000000000000000
     0.0000000000000000   10.7910995483000001    0.0000000000000000
     0.0000000000000000    0.0000000000000000   18.5930995940999999
   V    Br   O 
     9    18    10
Direct
  0.3201510600833636  0.3360962683422789  0.5008471093060151
  0.6535854306181262  0.3260215555014625  0.4970020019408462
  0.9875122247560264  0.3308640793915624  0.5012896571976000
  0.3193653769825635  0.6598791992589363  0.5008387407665728
  0.6535079440954972  0.6733194781036017  0.4967005035348479
  0.9864524431191254  0.6566214940158298  0.5015306878697184
  0.3197069748554306  0.9928356362020224  0.5001847038400417
  0.6534459669846361  0.9870925240041128  0.4995790429833184
  0.9865913105434558 -0.0021744171614875  0.5008329456324806
  0.0018672170924544  0.1629696741900502  0.5977607901802275
  0.0009622726387750  0.1644384274579847  0.4041668079978448
  0.3366801287305027  0.1633591877356943  0.5948476448613985
  0.3366970263747134  0.1643793097804812  0.4057188622714828
  0.6665084871195043  0.1602695914325946  0.5936347357739655
  0.6680423769049852  0.1608664985935890  0.4033157686350720
  0.0093986902403799  0.4948846596070765  0.6003554840638220
  0.0014649342882248  0.4955019348487315  0.4027762981390761
  0.3327744815930740  0.4977452352790611  0.5981697297884864
  0.3358160036732680  0.4973220582669355  0.4019753228454014
  0.6885689060049864  0.4967509014575470  0.5989207797111078
  0.6691760089177700  0.4979793546351387  0.4026796559067764
  0.0016336102173117  0.8277720571726394  0.5963694227076347
  0.0002102400431333  0.8253607832199977  0.4058541251157649
  0.3345320567754624  0.8275988544245153  0.5975428898988288
  0.3339097559732385  0.8265654605571094  0.4029125343550468
  0.6683247306111915  0.8287336022940834  0.5985028415412277
  0.6695821862477084  0.8286869740106986  0.3984945988173677
  0.1647295997690024  0.3323275548063986  0.5001642481654581
  0.4994928248043600  0.3370248585518211  0.5019398433116766
  0.8316887665511355  0.3355377365453538  0.5027998702325424
  0.1645203498602591  0.6601221117740191  0.5003055352875131
  0.4996991729553204  0.6611789173203292  0.5014661682548156
  0.8302048791110012  0.6561171234067791  0.5033581315475149
  0.1642311640610708  0.9945360453030404  0.4997589899996667
  0.4982413571980793  0.9895923192400212  0.4988114100796960
  0.8309188791813630  0.9937982997269390  0.4996491389813453
  0.5812351550235400  0.4917644917030115  0.6672330094578025
 
  0.00000000E+00  0.00000000E+00  0.00000000E+00
  0.00000000E+00  0.00000000E+00  0.00000000E+00
  0.00000000E+00  0.00000000E+00  0.00000000E+00
  0.00000000E+00  0.00000000E+00  0.00000000E+00
  0.00000000E+00  0.00000000E+00  0.00000000E+00
  0.00000000E+00  0.00000000E+00  0.00000000E+00
  0.00000000E+00  0.00000000E+00  0.00000000E+00
  0.00000000E+00  0.00000000E+00  0.00000000E+00
  0.00000000E+00  0.00000000E+00  0.00000000E+00
  0.00000000E+00  0.00000000E+00  0.00000000E+00
  0.00000000E+00  0.00000000E+00  0.00000000E+00
  0.00000000E+00  0.00000000E+00  0.00000000E+00
  0.00000000E+00  0.00000000E+00  0.00000000E+00
  0.00000000E+00  0.00000000E+00  0.00000000E+00
  0.00000000E+00  0.00000000E+00  0.00000000E+00
  0.00000000E+00  0.00000000E+00  0.00000000E+00
  0.00000000E+00  0.00000000E+00  0.00000000E+00
  0.00000000E+00  0.00000000E+00  0.00000000E+00
  0.00000000E+00  0.00000000E+00  0.00000000E+00
  0.00000000E+00  0.00000000E+00  0.00000000E+00
  0.00000000E+00  0.00000000E+00  0.00000000E+00
  0.00000000E+00  0.00000000E+00  0.00000000E+00
  0.00000000E+00  0.00000000E+00  0.00000000E+00
  0.00000000E+00  0.00000000E+00  0.00000000E+00
  0.00000000E+00  0.00000000E+00  0.00000000E+00
  0.00000000E+00  0.00000000E+00  0.00000000E+00
  0.00000000E+00  0.00000000E+00  0.00000000E+00
  0.00000000E+00  0.00000000E+00  0.00000000E+00
  0.00000000E+00  0.00000000E+00  0.00000000E+00
  0.00000000E+00  0.00000000E+00  0.00000000E+00
  0.00000000E+00  0.00000000E+00  0.00000000E+00
  0.00000000E+00  0.00000000E+00  0.00000000E+00
  0.00000000E+00  0.00000000E+00  0.00000000E+00
  0.00000000E+00  0.00000000E+00  0.00000000E+00
  0.00000000E+00  0.00000000E+00  0.00000000E+00
  0.00000000E+00  0.00000000E+00  0.00000000E+00
  0.00000000E+00  0.00000000E+00  0.00000000E+00
