CONTCAR                                 
   1.00000000000000     
     8.6349000931000006    0.0000000000000000    0.0000000000000000
     0.0000000000000000    8.9694995879999997    0.0000000000000000
     0.0000000000000000    0.0000000000000000   22.5806007384999994
   V    B    O    H 
    27    36    18     1
Direct
  0.1689113203238384  0.1670569511025253  0.6173836735028568
  0.0021590068250590  0.1669510697470075  0.4998163655609555
  0.1682284089970084  0.1663393365853807  0.3815853304910941
  0.5015710056105231  0.1670281917157112  0.6173518867841890
  0.3354924301416563  0.1667790390534837  0.4997328928121696
  0.5017162786939239  0.1663528488859683  0.3815726253207123
  0.8352218980404887  0.1674182137455888  0.6173755045285226
  0.6688830669625899  0.1669790684340895  0.4998036654459558
  0.8349675979217407  0.1667674686130186  0.3815590986531793
  0.1669116071308190  0.5000067641812671  0.6149355851360113
  0.0019621907998458  0.4999998468642692  0.4989678730201009
  0.1682110388506095  0.4999970080544535  0.3815469044953397
  0.5039604936616436  0.5000023413957499  0.6149127288280150
  0.3354820017395690  0.4999968605554366  0.4987060620351200
  0.5017947955774014  0.4999989761170568  0.3815225304766877
  0.8352754776442410  0.4999810961150982  0.6195054457657770
  0.6690571868257250  0.4999988077253356  0.4989702399562863
  0.8350309079274629  0.4999961216961210  0.3816068592515364
  0.1689099998804376  0.8329531635703885  0.6173838243966771
  0.0021612349136828  0.8330419899116253  0.4998170285555294
  0.1682301662347128  0.8336594592974250  0.3815850693690467
  0.5015731839851509  0.8329782180736294  0.6173520181874508
  0.3354923389040371  0.8332208602698689  0.4997324208272125
  0.5017145785770539  0.8336443973646285  0.3815722378233694
  0.8352219907030853  0.8325787068117909  0.6173747367554325
  0.6688816999847723  0.8330144618197115  0.4998052321632610
  0.8349676550818975  0.8332296525287441  0.3815583888946281
  0.0021877498767739 -0.0000016962387975  0.5752930464309829
  0.1688386244375757  0.0000001200471722  0.5391613524519288
  0.0022228264313545 -0.0000017393646057  0.4240672190027347
  0.1688151940095278 -0.0000013809157712  0.4602654757485518
  0.3355084073279171  0.0000073760571738  0.5753630899024331
  0.5021873195834717  0.0000006038609905  0.5391419474396602
  0.3354394039981150 -0.0000031069722812  0.4242710312153633
  0.5021488076692084 -0.0000010581881452  0.4602631792353947
  0.6688080030227984 -0.0000008661486310  0.5752965166544242
  0.8354979744396439 -0.0000016453771249  0.5391212231179128
  0.6686366920277350 -0.0000010619893317  0.4240451477388336
  0.8354380684944669 -0.0000020778216505  0.4601350122610948
  0.0026197227946940  0.3351389217170450  0.5752747083661872
  0.1690971398736840  0.3336585460194211  0.5387140697536900
  0.0019617924178228  0.3329970233015070  0.4237869669241184
  0.1688627266732336  0.3330193529972473  0.4598956371038446
  0.3355146736177221  0.3382259795812075  0.5758082656684873
  0.5018805057828869  0.3336069159698523  0.5386908914878734
  0.3353934527447474  0.3327326156651281  0.4236186680282746
  0.5020611242916501  0.3330345017088197  0.4598911879245652
  0.6684167792602920  0.3352608858812411  0.5752573067707883
  0.8355050493057539  0.3336269832646004  0.5390840313891794
  0.6689259097266915  0.3330175812465412  0.4237873232636716
  0.8354757147226703  0.3332337525161704  0.4600738969317770
  0.0026164410387631  0.6648580289348229  0.5752741702698261
  0.1690975722339941  0.6663371817695732  0.5387143659092156
  0.0019608769820662  0.6669992907406962  0.4237871175611104
  0.1688643414130218  0.6669777081591010  0.4598955918566138
  0.3355148948083045  0.6617731627982191  0.5758080631518299
  0.5018803414642963  0.6663898518641614  0.5386917654494008
  0.3353974765410743  0.6672639771566748  0.4236187269817029
  0.5020596352500963  0.6669626465681767  0.4598922909387343
  0.6684200386009683  0.6647345945106253  0.5752569756981862
  0.8355050601750422  0.6663689992639844  0.5390835161186559
  0.6689252401839662  0.6669797106749787  0.4237877891470390
  0.8354752034243650  0.6667660085409487  0.4600741857666230
  0.0022071685171150  0.1660433273203592  0.6673700987446926
  0.0017174558356558  0.1669390383349752  0.3315373843939977
  0.3353384564356546  0.1678787764292393  0.6676296973035220
  0.3350093021727795  0.1651671760189127  0.3315761374456546
  0.6683793325138949  0.1661124779659357  0.6673662261992129
  0.6683005363384327  0.1669442061572030  0.3315369545355925
  0.0025876743551959  0.4999842740678103  0.6691247092178914
  0.0016497287586664  0.4999992000359851  0.3315643729946754
  0.3355002849365297  0.5001585416579724  0.6755797156233806
  0.3350664370490111  0.4999990970100512  0.3315813153066040
  0.6680753868935893  0.4999838097525348  0.6691521286081401
  0.6684734251728068  0.4999987253249868  0.3315633175700078
  0.0022067707070193  0.8339514676931696  0.6673697789359984
  0.0017178869595436  0.8330595255801655  0.3315372243982385
  0.3353391212800294  0.8321969509163666  0.6676239956783643
  0.3350090008332517  0.8348294356135598  0.3315749795705281
  0.6683806629229089  0.8338763874313965  0.6673659251827110
  0.6683008845538342  0.8330524853779812  0.3315366742415332
  0.3358401981787404  0.4996366852762717  0.7187017323514518
 
  0.00000000E+00  0.00000000E+00  0.00000000E+00
  0.00000000E+00  0.00000000E+00  0.00000000E+00
  0.00000000E+00  0.00000000E+00  0.00000000E+00
  0.00000000E+00  0.00000000E+00  0.00000000E+00
  0.00000000E+00  0.00000000E+00  0.00000000E+00
  0.00000000E+00  0.00000000E+00  0.00000000E+00
  0.00000000E+00  0.00000000E+00  0.00000000E+00
  0.00000000E+00  0.00000000E+00  0.00000000E+00
  0.00000000E+00  0.00000000E+00  0.00000000E+00
  0.00000000E+00  0.00000000E+00  0.00000000E+00
  0.00000000E+00  0.00000000E+00  0.00000000E+00
  0.00000000E+00  0.00000000E+00  0.00000000E+00
  0.00000000E+00  0.00000000E+00  0.00000000E+00
  0.00000000E+00  0.00000000E+00  0.00000000E+00
  0.00000000E+00  0.00000000E+00  0.00000000E+00
  0.00000000E+00  0.00000000E+00  0.00000000E+00
  0.00000000E+00  0.00000000E+00  0.00000000E+00
  0.00000000E+00  0.00000000E+00  0.00000000E+00
  0.00000000E+00  0.00000000E+00  0.00000000E+00
  0.00000000E+00  0.00000000E+00  0.00000000E+00
  0.00000000E+00  0.00000000E+00  0.00000000E+00
  0.00000000E+00  0.00000000E+00  0.00000000E+00
  0.00000000E+00  0.00000000E+00  0.00000000E+00
  0.00000000E+00  0.00000000E+00  0.00000000E+00
  0.00000000E+00  0.00000000E+00  0.00000000E+00
  0.00000000E+00  0.00000000E+00  0.00000000E+00
  0.00000000E+00  0.00000000E+00  0.00000000E+00
  0.00000000E+00  0.00000000E+00  0.00000000E+00
  0.00000000E+00  0.00000000E+00  0.00000000E+00
  0.00000000E+00  0.00000000E+00  0.00000000E+00
  0.00000000E+00  0.00000000E+00  0.00000000E+00
  0.00000000E+00  0.00000000E+00  0.00000000E+00
  0.00000000E+00  0.00000000E+00  0.00000000E+00
  0.00000000E+00  0.00000000E+00  0.00000000E+00
  0.00000000E+00  0.00000000E+00  0.00000000E+00
  0.00000000E+00  0.00000000E+00  0.00000000E+00
  0.00000000E+00  0.00000000E+00  0.00000000E+00
  0.00000000E+00  0.00000000E+00  0.00000000E+00
  0.00000000E+00  0.00000000E+00  0.00000000E+00
  0.00000000E+00  0.00000000E+00  0.00000000E+00
  0.00000000E+00  0.00000000E+00  0.00000000E+00
  0.00000000E+00  0.00000000E+00  0.00000000E+00
  0.00000000E+00  0.00000000E+00  0.00000000E+00
  0.00000000E+00  0.00000000E+00  0.00000000E+00
  0.00000000E+00  0.00000000E+00  0.00000000E+00
  0.00000000E+00  0.00000000E+00  0.00000000E+00
  0.00000000E+00  0.00000000E+00  0.00000000E+00
  0.00000000E+00  0.00000000E+00  0.00000000E+00
  0.00000000E+00  0.00000000E+00  0.00000000E+00
  0.00000000E+00  0.00000000E+00  0.00000000E+00
  0.00000000E+00  0.00000000E+00  0.00000000E+00
  0.00000000E+00  0.00000000E+00  0.00000000E+00
  0.00000000E+00  0.00000000E+00  0.00000000E+00
  0.00000000E+00  0.00000000E+00  0.00000000E+00
  0.00000000E+00  0.00000000E+00  0.00000000E+00
  0.00000000E+00  0.00000000E+00  0.00000000E+00
  0.00000000E+00  0.00000000E+00  0.00000000E+00
  0.00000000E+00  0.00000000E+00  0.00000000E+00
  0.00000000E+00  0.00000000E+00  0.00000000E+00
  0.00000000E+00  0.00000000E+00  0.00000000E+00
  0.00000000E+00  0.00000000E+00  0.00000000E+00
  0.00000000E+00  0.00000000E+00  0.00000000E+00
  0.00000000E+00  0.00000000E+00  0.00000000E+00
  0.00000000E+00  0.00000000E+00  0.00000000E+00
  0.00000000E+00  0.00000000E+00  0.00000000E+00
  0.00000000E+00  0.00000000E+00  0.00000000E+00
  0.00000000E+00  0.00000000E+00  0.00000000E+00
  0.00000000E+00  0.00000000E+00  0.00000000E+00
  0.00000000E+00  0.00000000E+00  0.00000000E+00
  0.00000000E+00  0.00000000E+00  0.00000000E+00
  0.00000000E+00  0.00000000E+00  0.00000000E+00
  0.00000000E+00  0.00000000E+00  0.00000000E+00
  0.00000000E+00  0.00000000E+00  0.00000000E+00
  0.00000000E+00  0.00000000E+00  0.00000000E+00
  0.00000000E+00  0.00000000E+00  0.00000000E+00
  0.00000000E+00  0.00000000E+00  0.00000000E+00
  0.00000000E+00  0.00000000E+00  0.00000000E+00
  0.00000000E+00  0.00000000E+00  0.00000000E+00
  0.00000000E+00  0.00000000E+00  0.00000000E+00
  0.00000000E+00  0.00000000E+00  0.00000000E+00
  0.00000000E+00  0.00000000E+00  0.00000000E+00
  0.00000000E+00  0.00000000E+00  0.00000000E+00
