CONTCAR\(6)                             
   1.00000000000000     
    10.9605998993000000    0.0000000000000000    0.0000000000000000
     5.4620360536000003    9.5107522852000006    0.0000000000000000
     0.0000000000000000    0.0000000000000000   24.0680007935000013
   Cr   Ga   S    O    H 
     9    18    36     2     1
Direct
  0.3316247576373829  0.0049357319968705  0.4996755477735454
  0.6649886296749136  0.0050696617314013  0.4995410378234723
  0.9984306615495122  0.0047853463255172  0.4997206392532650
  0.3319180615182737  0.3383603405191380  0.4997463167068151
  0.6649087162582874  0.3383578711763008  0.4997834838245481
  0.9984686685022215  0.3381488166650738  0.4996943725367441
  0.3321045661473757  0.6711389636433351  0.4997783498680802
  0.6650885181595581  0.6716235037994654  0.4995485134515524
  0.9984238356281345  0.6716173395943364  0.4995327937064430
  0.1102408844289952  0.1128601894574944  0.3549411691459419
  0.2207385322685062  0.2287948307229977  0.6443745128631689
  0.4435027006114240  0.1130339087031544  0.3549318262720193
  0.5528422616521264  0.2307177436490525  0.6444005562157301
  0.7768749617639157  0.1129911064033350  0.3549348372149908
  0.8867411935741667  0.2288426399527845  0.6444028954649417
  0.1103059759826812  0.4462300816878225  0.3549204484234165
  0.2227439950198380  0.5607332456870817  0.6443915895469281
  0.4436004724202197  0.4462477967572881  0.3549298147082132
  0.5529124816762270  0.5607740697831114  0.6445028558944703
  0.7768837729331609  0.4462071663347709  0.3549240327624721
  0.8874337586918132  0.5613177999695820  0.6440653352335873
  0.1103054510302445  0.7795257411553390  0.3549411856698650
  0.2208586302336160  0.8946247181799348  0.6443871931335289
  0.4435327129937459  0.7794966424623491  0.3549429085635195
  0.5533117104511924  0.8954336108433311  0.6440522958906557
  0.7768685795069535  0.7796403542293018  0.3548935941377775
  0.8875509465830359  0.8955764536464775  0.6440916412927402
  0.1095926210173576  0.1156908831179354  0.4485285120406036
  0.2205992560515414  0.2273695159505242  0.5507927870923033
  0.1094690647194973  0.1172046174838583  0.6862995675142112
  0.2214187238996063  0.2240846395249065  0.3124849334181600
  0.4427834934402716  0.1159549122167571  0.4484779955190873
  0.5541891828738233  0.2267314868088853  0.5506556385513934
  0.4430480910582903  0.1172072646687228  0.6863030313427948
  0.5547944383232141  0.2241101878126749  0.3124827934034693
  0.7763793050485073  0.1158945387474149  0.4484751946162335
  0.8871648899817789  0.2272826741404416  0.5508095559431941
  0.7758695834504685  0.1173462701266066  0.6863701905590729
  0.8881576757279057  0.2240736939196051  0.3124753743182522
  0.1098516722790008  0.4489476248557525  0.4484690220776059
  0.2199290340187414  0.5608802485851980  0.5506379259696937
  0.1093623351322579  0.4508412672950756  0.6863460151814353
  0.2214829181723287  0.5574230573532388  0.3124842405666715
  0.4431806221256567  0.4489664080762918  0.4484811114426108
  0.5544048165389701  0.5609332887102233  0.5507150758664342
  0.4427725579988901  0.4505199031333681  0.6866319228151623
  0.5548094581242006  0.5574120726939664  0.3124763356373442
  0.7763548544043023  0.4489477916837656  0.4484710656243334
  0.8871903983340601  0.5607276489445936  0.5505135779049203
  0.7759749730045152  0.4507922044629732  0.6864037633793741
  0.8881120042377192  0.5574606568145626  0.3125342882345892
  0.1100080459051421  0.7822732350134257  0.4484851404473595
  0.2205722829860419  0.8938116750284808  0.5507923175829681
  0.1094501051982936  0.7837129911507867  0.6863386596361217
  0.2214507436292972  0.8907401131612279  0.3124930031211231
  0.4428810154903799  0.7823676591756903  0.4484944001335709
  0.5539042802695281  0.8940640547463821  0.5505097355751236
  0.4430344051807407  0.7837159129142466  0.6863524936523361
  0.5547314346091143  0.8907896896055806  0.3125525377229731
  0.7763432943626570  0.7824660657478377  0.4484480386173576
  0.8871092159421164  0.8939264371678215  0.5505489870784163
  0.7761231609331064  0.7839921905582494  0.6859406647511888
  0.8881376565173005  0.8907910873443634  0.3125342016269640
  0.4432429924964094  0.4486652493787552  0.8567586504080708
  0.4487104997037932  0.4402641852941129  0.7985422257068715
  0.4433031439156870  0.3622120205090555  0.8678091335421007
 
  0.00000000E+00  0.00000000E+00  0.00000000E+00
  0.00000000E+00  0.00000000E+00  0.00000000E+00
  0.00000000E+00  0.00000000E+00  0.00000000E+00
  0.00000000E+00  0.00000000E+00  0.00000000E+00
  0.00000000E+00  0.00000000E+00  0.00000000E+00
  0.00000000E+00  0.00000000E+00  0.00000000E+00
  0.00000000E+00  0.00000000E+00  0.00000000E+00
  0.00000000E+00  0.00000000E+00  0.00000000E+00
  0.00000000E+00  0.00000000E+00  0.00000000E+00
  0.00000000E+00  0.00000000E+00  0.00000000E+00
  0.00000000E+00  0.00000000E+00  0.00000000E+00
  0.00000000E+00  0.00000000E+00  0.00000000E+00
  0.00000000E+00  0.00000000E+00  0.00000000E+00
  0.00000000E+00  0.00000000E+00  0.00000000E+00
  0.00000000E+00  0.00000000E+00  0.00000000E+00
  0.00000000E+00  0.00000000E+00  0.00000000E+00
  0.00000000E+00  0.00000000E+00  0.00000000E+00
  0.00000000E+00  0.00000000E+00  0.00000000E+00
  0.00000000E+00  0.00000000E+00  0.00000000E+00
  0.00000000E+00  0.00000000E+00  0.00000000E+00
  0.00000000E+00  0.00000000E+00  0.00000000E+00
  0.00000000E+00  0.00000000E+00  0.00000000E+00
  0.00000000E+00  0.00000000E+00  0.00000000E+00
  0.00000000E+00  0.00000000E+00  0.00000000E+00
  0.00000000E+00  0.00000000E+00  0.00000000E+00
  0.00000000E+00  0.00000000E+00  0.00000000E+00
  0.00000000E+00  0.00000000E+00  0.00000000E+00
  0.00000000E+00  0.00000000E+00  0.00000000E+00
  0.00000000E+00  0.00000000E+00  0.00000000E+00
  0.00000000E+00  0.00000000E+00  0.00000000E+00
  0.00000000E+00  0.00000000E+00  0.00000000E+00
  0.00000000E+00  0.00000000E+00  0.00000000E+00
  0.00000000E+00  0.00000000E+00  0.00000000E+00
  0.00000000E+00  0.00000000E+00  0.00000000E+00
  0.00000000E+00  0.00000000E+00  0.00000000E+00
  0.00000000E+00  0.00000000E+00  0.00000000E+00
  0.00000000E+00  0.00000000E+00  0.00000000E+00
  0.00000000E+00  0.00000000E+00  0.00000000E+00
  0.00000000E+00  0.00000000E+00  0.00000000E+00
  0.00000000E+00  0.00000000E+00  0.00000000E+00
  0.00000000E+00  0.00000000E+00  0.00000000E+00
  0.00000000E+00  0.00000000E+00  0.00000000E+00
  0.00000000E+00  0.00000000E+00  0.00000000E+00
  0.00000000E+00  0.00000000E+00  0.00000000E+00
  0.00000000E+00  0.00000000E+00  0.00000000E+00
  0.00000000E+00  0.00000000E+00  0.00000000E+00
  0.00000000E+00  0.00000000E+00  0.00000000E+00
  0.00000000E+00  0.00000000E+00  0.00000000E+00
  0.00000000E+00  0.00000000E+00  0.00000000E+00
  0.00000000E+00  0.00000000E+00  0.00000000E+00
  0.00000000E+00  0.00000000E+00  0.00000000E+00
  0.00000000E+00  0.00000000E+00  0.00000000E+00
  0.00000000E+00  0.00000000E+00  0.00000000E+00
  0.00000000E+00  0.00000000E+00  0.00000000E+00
  0.00000000E+00  0.00000000E+00  0.00000000E+00
  0.00000000E+00  0.00000000E+00  0.00000000E+00
  0.00000000E+00  0.00000000E+00  0.00000000E+00
  0.00000000E+00  0.00000000E+00  0.00000000E+00
  0.00000000E+00  0.00000000E+00  0.00000000E+00
  0.00000000E+00  0.00000000E+00  0.00000000E+00
  0.00000000E+00  0.00000000E+00  0.00000000E+00
  0.00000000E+00  0.00000000E+00  0.00000000E+00
  0.00000000E+00  0.00000000E+00  0.00000000E+00
  0.00000000E+00  0.00000000E+00  0.00000000E+00
  0.00000000E+00  0.00000000E+00  0.00000000E+00
  0.00000000E+00  0.00000000E+00  0.00000000E+00
