 Li4 Nb2 P8 O26                         
   1.00000000000000     
     5.0965271315301335    0.0000000000000000    0.0000000000000000
    -1.2929754546820413    7.8576995654850190    0.0000000000000000
     0.0000000000000000    0.0000000000000000   27.0882670890640043
   Li   Nb   P    O 
     4     2     8    26
Direct
  0.3469155106961110  0.4927549626979466  0.5088037549043662
  0.2166499681476433  0.1453277256875306  0.4911821225102839
  0.7078705834694489  0.3659426333274789  0.7222837024172666
  0.8558232706121147  0.2721640036329286  0.2777433877823088
  0.8107142354893551  0.9601829850079567  0.3767374397631009
  0.7529812727429708  0.6780880923394202  0.6232733697401580
  0.2910402890246896  0.8710085099287118  0.5680994804218852
  0.9544102247541627  0.5836712776986420  0.3536544376227060
  0.6013437340176856  0.3205987030814866  0.4123921200616186
  0.9622794506348218  0.3176882040422659  0.5876032999153958
  0.3520005158713221  0.1482147468410294  0.3217902355982422
  0.2727245216758997  0.7672709016422918  0.4318890961986332
  0.6092833297825514  0.0545658221896456  0.6463473465426643
  0.2116978273688599  0.4901072489761897  0.6782171931424219
  0.4409923550359646  0.7185690141234281  0.5774605189144296
  0.3919551409713716  0.2795378423586560  0.3686939053413754
  0.7928607800558797  0.1918983095599081  0.4117296936521531
  0.4739309431381731  0.2338270553106884  0.2764309641070081
  0.3386449018723320  0.9918564060356456  0.6175661883379369
  0.2250941288456332  0.6464553757585231  0.3824118782456047
  0.9892192162207105  0.8012267543716751  0.5725198593816254
  0.5745183146711627  0.8370252018018524  0.4274823744903379
  0.5197968697238411  0.5421508085550361  0.6793478078679228
  0.1717872566702735  0.3589048912066009  0.6312849663351523
  0.7616956240842591  0.5024933335188788  0.3981394253976697
  0.7225333709223209  0.8961842850803939  0.6616200277607004
  0.5758221451508013  0.1787664852591760  0.6852444839890526
  0.9878016465221167  0.4594264747397370  0.3147632947781479
  0.0897811196225188  0.4044158770156921  0.7235689815112996
  0.4801970507163146  0.9939187415881791  0.3376938478869370
  0.3701764085911746  0.9794068582754412  0.5242435780259608
  0.7707292419448017  0.4463734990024318  0.5882504644962057
  0.1227745156434579  0.9196990929763562  0.4225500496079858
  0.0834462334882557  0.6444136588407187  0.6623431169664856
  0.1936175491347830  0.6587766534491087  0.4757254506231833
  0.4575534178282638  0.3355026027534805  0.4597030994595537
  0.8021030895633874  0.1357500427428586  0.6018843592618639
  0.0439090276252780  0.0961594724709406  0.3206668285731368
  0.8411673556735970  0.7420693296745892  0.3383798571173995
  0.1058885619956882  0.3026741164364652  0.5402779912498055
 
  0.00000000E+00  0.00000000E+00  0.00000000E+00
  0.00000000E+00  0.00000000E+00  0.00000000E+00
  0.00000000E+00  0.00000000E+00  0.00000000E+00
  0.00000000E+00  0.00000000E+00  0.00000000E+00
  0.00000000E+00  0.00000000E+00  0.00000000E+00
  0.00000000E+00  0.00000000E+00  0.00000000E+00
  0.00000000E+00  0.00000000E+00  0.00000000E+00
  0.00000000E+00  0.00000000E+00  0.00000000E+00
  0.00000000E+00  0.00000000E+00  0.00000000E+00
  0.00000000E+00  0.00000000E+00  0.00000000E+00
  0.00000000E+00  0.00000000E+00  0.00000000E+00
  0.00000000E+00  0.00000000E+00  0.00000000E+00
  0.00000000E+00  0.00000000E+00  0.00000000E+00
  0.00000000E+00  0.00000000E+00  0.00000000E+00
  0.00000000E+00  0.00000000E+00  0.00000000E+00
  0.00000000E+00  0.00000000E+00  0.00000000E+00
  0.00000000E+00  0.00000000E+00  0.00000000E+00
  0.00000000E+00  0.00000000E+00  0.00000000E+00
  0.00000000E+00  0.00000000E+00  0.00000000E+00
  0.00000000E+00  0.00000000E+00  0.00000000E+00
  0.00000000E+00  0.00000000E+00  0.00000000E+00
  0.00000000E+00  0.00000000E+00  0.00000000E+00
  0.00000000E+00  0.00000000E+00  0.00000000E+00
  0.00000000E+00  0.00000000E+00  0.00000000E+00
  0.00000000E+00  0.00000000E+00  0.00000000E+00
  0.00000000E+00  0.00000000E+00  0.00000000E+00
  0.00000000E+00  0.00000000E+00  0.00000000E+00
  0.00000000E+00  0.00000000E+00  0.00000000E+00
  0.00000000E+00  0.00000000E+00  0.00000000E+00
  0.00000000E+00  0.00000000E+00  0.00000000E+00
  0.00000000E+00  0.00000000E+00  0.00000000E+00
  0.00000000E+00  0.00000000E+00  0.00000000E+00
  0.00000000E+00  0.00000000E+00  0.00000000E+00
  0.00000000E+00  0.00000000E+00  0.00000000E+00
  0.00000000E+00  0.00000000E+00  0.00000000E+00
  0.00000000E+00  0.00000000E+00  0.00000000E+00
  0.00000000E+00  0.00000000E+00  0.00000000E+00
  0.00000000E+00  0.00000000E+00  0.00000000E+00
  0.00000000E+00  0.00000000E+00  0.00000000E+00
  0.00000000E+00  0.00000000E+00  0.00000000E+00
