CONTCAR\(3)                             
   1.00000000000000     
    12.6687002181999997    0.0000000000000000    0.0000000000000000
    -6.3343501090999998   10.9714162219000002    0.0000000000000000
     0.0000000000000000    0.0000000000000000   22.0783004761000008
   La   P    Br   O 
    18     9    18     1
Direct
  0.1094729654328583  0.2189230171354599  0.5758254203586533
  0.2241669639598640  0.1120847720097740  0.4284796875905318
  0.4423228297015664  0.2211917733944727  0.5777887389309264
  0.5555900059502695  0.1111389156169861  0.4295837221408499
  0.7789528060537138  0.2211860363070473  0.5777734123872866
  0.8879386868866294  0.1120799704695804  0.4284699405047300
  0.1333902797837346  0.5666963490984677  0.5839943707746910
  0.2212082865960855  0.4422745401469942  0.4250103563894989
  0.4333355698622037  0.5667097094357879  0.5840089087657520
  0.5556279672838600  0.4445071956832251  0.4295703061577227
  0.7789187629512796  0.5577861056074043  0.5777764170049173
  0.8889529644013778  0.4445069848682726  0.4295302857000075
  0.1094824576807753  0.8905829439448718  0.5758511722915992
  0.2211889001290046  0.7789622474518539  0.4250322497993378
  0.4333291633512964  0.8666213329395129  0.5839878494953286
  0.5579743341295903  0.7790475480539787  0.4250153998361876
  0.7811529419095762  0.8905981972895929  0.5758455880477897
  0.8879440711531177  0.7758847284034708  0.4284769117929599
  0.0000255229944287  0.0000129327366566  0.4999827316110494
  0.3337969956783862  0.9975045127030551  0.5033878375719585
  0.6637643307361010  0.9975569671944079  0.5033929462700844
  0.0025877184120458  0.3363492862466640  0.5033262188638389
  0.3338323561927196  0.3363283391842879  0.5033687919284403
  0.6667494564399709  0.3333850092178313  0.5041752523546605
  0.0025822790795723  0.6662950726445886  0.5033723458767360
  0.3335039402266989  0.6667454460496367  0.4856777965464861
  0.6637521823066450  0.6662563409713406  0.5033891883795024
  0.2215903800019222  0.1108346774719688  0.6617976682462263
  0.1088482944879377  0.2177603206578724  0.3421049707149129
  0.5534101739014036  0.1067333730497115  0.6602162822095391
  0.4457243118638459  0.2228878914616261  0.3438418651706528
  0.8892792707976210  0.1107984818281026  0.6618182274909569
  0.7771481828683546  0.2228509504375431  0.3438150801027512
  0.2060929884135533  0.4123024841363387  0.6691920103195066
  0.1060023745795548  0.5530192887119013  0.3413822262344646
  0.5533820923302745  0.4467158791446231  0.6602453845155647
  0.4473160948170409  0.5531912634359142  0.3413644527103108
  0.8932956259535576  0.4466650065092366  0.6602528585567826
  0.7771962689726243  0.5543254382349171  0.3437762238347229
  0.2062297557900092  0.7938825580143167  0.6691837130861275
  0.1087794614978328  0.8910615577756297  0.3420830106278293
  0.5877519304808976  0.7939982422392641  0.6691692620714808
  0.4471737280278739  0.8942876397191492  0.3413336921566139
  0.8892822102012796  0.7785118204569601  0.6618146174646707
  0.7822920455450417  0.8911206817863641  0.3420691888157665
  0.3333603481859867  0.6666665191233008  0.6090556542995972
 
  0.00000000E+00  0.00000000E+00  0.00000000E+00
  0.00000000E+00  0.00000000E+00  0.00000000E+00
  0.00000000E+00  0.00000000E+00  0.00000000E+00
  0.00000000E+00  0.00000000E+00  0.00000000E+00
  0.00000000E+00  0.00000000E+00  0.00000000E+00
  0.00000000E+00  0.00000000E+00  0.00000000E+00
  0.00000000E+00  0.00000000E+00  0.00000000E+00
  0.00000000E+00  0.00000000E+00  0.00000000E+00
  0.00000000E+00  0.00000000E+00  0.00000000E+00
  0.00000000E+00  0.00000000E+00  0.00000000E+00
  0.00000000E+00  0.00000000E+00  0.00000000E+00
  0.00000000E+00  0.00000000E+00  0.00000000E+00
  0.00000000E+00  0.00000000E+00  0.00000000E+00
  0.00000000E+00  0.00000000E+00  0.00000000E+00
  0.00000000E+00  0.00000000E+00  0.00000000E+00
  0.00000000E+00  0.00000000E+00  0.00000000E+00
  0.00000000E+00  0.00000000E+00  0.00000000E+00
  0.00000000E+00  0.00000000E+00  0.00000000E+00
  0.00000000E+00  0.00000000E+00  0.00000000E+00
  0.00000000E+00  0.00000000E+00  0.00000000E+00
  0.00000000E+00  0.00000000E+00  0.00000000E+00
  0.00000000E+00  0.00000000E+00  0.00000000E+00
  0.00000000E+00  0.00000000E+00  0.00000000E+00
  0.00000000E+00  0.00000000E+00  0.00000000E+00
  0.00000000E+00  0.00000000E+00  0.00000000E+00
  0.00000000E+00  0.00000000E+00  0.00000000E+00
  0.00000000E+00  0.00000000E+00  0.00000000E+00
  0.00000000E+00  0.00000000E+00  0.00000000E+00
  0.00000000E+00  0.00000000E+00  0.00000000E+00
  0.00000000E+00  0.00000000E+00  0.00000000E+00
  0.00000000E+00  0.00000000E+00  0.00000000E+00
  0.00000000E+00  0.00000000E+00  0.00000000E+00
  0.00000000E+00  0.00000000E+00  0.00000000E+00
  0.00000000E+00  0.00000000E+00  0.00000000E+00
  0.00000000E+00  0.00000000E+00  0.00000000E+00
  0.00000000E+00  0.00000000E+00  0.00000000E+00
  0.00000000E+00  0.00000000E+00  0.00000000E+00
  0.00000000E+00  0.00000000E+00  0.00000000E+00
  0.00000000E+00  0.00000000E+00  0.00000000E+00
  0.00000000E+00  0.00000000E+00  0.00000000E+00
  0.00000000E+00  0.00000000E+00  0.00000000E+00
  0.00000000E+00  0.00000000E+00  0.00000000E+00
  0.00000000E+00  0.00000000E+00  0.00000000E+00
  0.00000000E+00  0.00000000E+00  0.00000000E+00
  0.00000000E+00  0.00000000E+00  0.00000000E+00
  0.00000000E+00  0.00000000E+00  0.00000000E+00
