CONTCAR\(9)                             
   1.00000000000000     
    10.2665004730000007    0.0000000000000000    0.0000000000000000
     0.0000000000000000   17.1711997986000000    0.0000000000000000
     0.0000000000000000    0.0000000000000000   18.9181995391999997
   K    Fe   S 
     8    16    24
Direct
  0.1250000000000000  0.2499800060000013  0.4104020188987647
  0.3750000000000000  0.2499800060000013  0.5895979551012331
  0.6250000229999984  0.2499800060000013  0.4104020188987647
  0.8749999770000016  0.2499800060000013  0.5895979551012331
  0.1250000000000000  0.7499799499999966  0.4104020188987647
  0.3750000000000000  0.7499799499999966  0.5895979551012331
  0.6250000229999984  0.7499799499999966  0.4104020188987647
  0.8749999770000016  0.7499799499999966  0.5895979551012331
  0.0000000000000000  0.0736666911230017  0.5000000000000000
  0.2500000000000000  0.9263433128769947  0.5000000000000000
  0.0000000000000000  0.9263532538769965  0.5000000000000000
  0.2500000000000000  0.0736566941230024  0.5000000000000000
  0.5000000000000000  0.0736666911230017  0.5000000000000000
  0.7500000000000000  0.9263433128769947  0.5000000000000000
  0.5000000000000000  0.9263532538769965  0.5000000000000000
  0.7500000000000000  0.0736566941230024  0.5000000000000000
  0.0000000000000000  0.5736666841230047  0.5000000000000000
  0.2500000000000000  0.4263432848769995  0.5000000000000000
  0.0000000000000000  0.4263533098769940  0.5000000000000000
  0.2500000000000000  0.5736566871230053  0.5000000000000000
  0.5000000000000000  0.5736666841230047  0.5000000000000000
  0.7500000000000000  0.4263432848769995  0.5000000000000000
  0.5000000000000000  0.4263533098769940  0.5000000000000000
  0.7500000000000000  0.5736566871230053  0.5000000000000000
  0.3750100090000004  0.8577263160380895  0.4356551477171848
  0.1249900030000006  0.1422936779619093  0.5643548332828132
  0.1249900030000006  0.8577263160380895  0.5643448522828152
  0.3749899909999996  0.0000000000000000  0.5645243726073517
  0.1250099969999994  0.0000000000000000  0.4354756273926412
  0.3750100090000004  0.1422936779619093  0.4356451667171868
  0.8750100090000004  0.8577263160380895  0.4356551477171848
  0.6249899909999996  0.1422936779619093  0.5643548332828132
  0.6249899909999996  0.8577263160380895  0.5643448522828152
  0.8749899439999993  0.0000000000000000  0.5645243726073517
  0.6250100090000004  0.0000000000000000  0.4354756273926412
  0.8750100090000004  0.1422936779619093  0.4356451667171868
  0.3750100090000004  0.3577263440380918  0.4356551477171848
  0.1249900030000006  0.6422936779619093  0.5643548332828132
  0.1249900030000006  0.3577263440380918  0.5643448522828152
  0.3749899909999996  0.5000000000000000  0.5645243726073517
  0.1250099969999994  0.5000000000000000  0.4354756273926412
  0.3750100090000004  0.6422936779619093  0.4356451667171868
  0.8750100090000004  0.3577263440380918  0.4356551477171848
  0.6249899909999996  0.6422936779619093  0.5643548332828132
  0.6249899909999996  0.3577263440380918  0.5643448522828152
  0.8749899439999993  0.5000000000000000  0.5645243726073517
  0.6250100090000004  0.5000000000000000  0.4354756273926412
  0.8750100090000004  0.6422936779619093  0.4356451667171868
 
  0.00000000E+00  0.00000000E+00  0.00000000E+00
  0.00000000E+00  0.00000000E+00  0.00000000E+00
  0.00000000E+00  0.00000000E+00  0.00000000E+00
  0.00000000E+00  0.00000000E+00  0.00000000E+00
  0.00000000E+00  0.00000000E+00  0.00000000E+00
  0.00000000E+00  0.00000000E+00  0.00000000E+00
  0.00000000E+00  0.00000000E+00  0.00000000E+00
  0.00000000E+00  0.00000000E+00  0.00000000E+00
  0.00000000E+00  0.00000000E+00  0.00000000E+00
  0.00000000E+00  0.00000000E+00  0.00000000E+00
  0.00000000E+00  0.00000000E+00  0.00000000E+00
  0.00000000E+00  0.00000000E+00  0.00000000E+00
  0.00000000E+00  0.00000000E+00  0.00000000E+00
  0.00000000E+00  0.00000000E+00  0.00000000E+00
  0.00000000E+00  0.00000000E+00  0.00000000E+00
  0.00000000E+00  0.00000000E+00  0.00000000E+00
  0.00000000E+00  0.00000000E+00  0.00000000E+00
  0.00000000E+00  0.00000000E+00  0.00000000E+00
  0.00000000E+00  0.00000000E+00  0.00000000E+00
  0.00000000E+00  0.00000000E+00  0.00000000E+00
  0.00000000E+00  0.00000000E+00  0.00000000E+00
  0.00000000E+00  0.00000000E+00  0.00000000E+00
  0.00000000E+00  0.00000000E+00  0.00000000E+00
  0.00000000E+00  0.00000000E+00  0.00000000E+00
  0.00000000E+00  0.00000000E+00  0.00000000E+00
  0.00000000E+00  0.00000000E+00  0.00000000E+00
  0.00000000E+00  0.00000000E+00  0.00000000E+00
  0.00000000E+00  0.00000000E+00  0.00000000E+00
  0.00000000E+00  0.00000000E+00  0.00000000E+00
  0.00000000E+00  0.00000000E+00  0.00000000E+00
  0.00000000E+00  0.00000000E+00  0.00000000E+00
  0.00000000E+00  0.00000000E+00  0.00000000E+00
  0.00000000E+00  0.00000000E+00  0.00000000E+00
  0.00000000E+00  0.00000000E+00  0.00000000E+00
  0.00000000E+00  0.00000000E+00  0.00000000E+00
  0.00000000E+00  0.00000000E+00  0.00000000E+00
  0.00000000E+00  0.00000000E+00  0.00000000E+00
  0.00000000E+00  0.00000000E+00  0.00000000E+00
  0.00000000E+00  0.00000000E+00  0.00000000E+00
  0.00000000E+00  0.00000000E+00  0.00000000E+00
  0.00000000E+00  0.00000000E+00  0.00000000E+00
  0.00000000E+00  0.00000000E+00  0.00000000E+00
  0.00000000E+00  0.00000000E+00  0.00000000E+00
  0.00000000E+00  0.00000000E+00  0.00000000E+00
  0.00000000E+00  0.00000000E+00  0.00000000E+00
  0.00000000E+00  0.00000000E+00  0.00000000E+00
  0.00000000E+00  0.00000000E+00  0.00000000E+00
  0.00000000E+00  0.00000000E+00  0.00000000E+00
