 Hf2 Si2 Se2                            
   1.00000000000000     
     3.4938537783606534    0.0000000000000000    0.0000000000000000
     0.0000000000000000    3.4938535653247667    0.0000000000000000
     0.0000000000000000    0.0000000000000000   21.6265641218399978
   Hf   Si   Se
     2     2     2
Direct
  0.5000000200319332  0.0000000997982210  0.5987772153027189
  0.0000000418063711  0.4999998787577499  0.4011974693447172
  0.0000000418269936  0.0000000581158545  0.5000093500300773
  0.4999999264933824  0.4999999526583686  0.5000093516097422
 -0.0000000306902988  0.5000001137621253  0.6542942503025699
  0.5000000005316184 -0.0000001030923192  0.3457123634101740
 
  0.00000000E+00  0.00000000E+00  0.00000000E+00
  0.00000000E+00  0.00000000E+00  0.00000000E+00
  0.00000000E+00  0.00000000E+00  0.00000000E+00
  0.00000000E+00  0.00000000E+00  0.00000000E+00
  0.00000000E+00  0.00000000E+00  0.00000000E+00
  0.00000000E+00  0.00000000E+00  0.00000000E+00
