CONTCAR\(16)                            
   1.00000000000000     
    13.7902002335000002    0.0000000000000000    0.0000000000000000
     6.8951001167000001   11.9426637253999992    0.0000000000000000
     0.0000000000000000    0.0000000000000000   18.3700008391999994
   Nb   Se   O 
    16    32     1
Direct
  0.0846867779690104  0.0846867819690107  0.5017500545724661
  0.3283298475066517  0.0874729215921203  0.5000048926282221
  0.5779673494375439  0.0855702136006692  0.5001949922908324
  0.8289239540775042  0.0879031439009933  0.5025376500930411
  0.0874729175921200  0.3283298705066500  0.5000048926282221
  0.3294745760566636  0.3294746170566635  0.4998767748283938
  0.5773936315087490  0.3316382005774493  0.5016891058960735
  0.8346734325934601  0.3353761804255257  0.5029467520678570
  0.0855702066006722  0.5779673784375428  0.5001949922908324
  0.3316381565774528  0.5773936785087493  0.5016891058960735
  0.5800205345151878  0.5800205845151919  0.5077651690366575
  0.8349157512660091  0.5767788600708236  0.5016706633594276
  0.0879031329009960  0.8289239890775106  0.5025376500930411
  0.3353761334255254  0.8346734855934538  0.5029467520678570
  0.5767788070708227  0.8349158072660138  0.5016706633594276
  0.8309650200733563  0.8309650790733576  0.5018374298524289
  0.1664334760304390  0.1664334790304428  0.5944461652201822
  0.1650867085530009  0.1650867115530047  0.4066423600101859
  0.4140472590871455  0.1656700292006083  0.5930950608480380
  0.4149010127885600  0.1649748733323171  0.4069005816074576
  0.6634788652479054  0.1634565939672422  0.5941299085716765
  0.6665125113070036  0.1650006623171658  0.4089741765462196
  0.9179843498590595  0.1650532832722749  0.5940069493153283
  0.9152640804832697  0.1668845088473966  0.4111294480417261
  0.1656700032006061  0.4140473090871496  0.5930950608480380
  0.1649748473323149  0.4149010627885641  0.4069005816074576
  0.4131310010545374  0.4131310390545405  0.5933901355228166
  0.4147529100208509  0.4147529480208541  0.4086206361551585
  0.6724503852702068  0.3945376124295153  0.5973572702693478
  0.6635281435372834  0.4177735125838005  0.4138938396318052
  0.9191532975226619  0.4143664278045249  0.5944768170372762
  0.9156782369719380  0.4145273189952385  0.4080769173242731
  0.1634565789672374  0.6634789252479033  0.5941299085716765
  0.1650006473171610  0.6665125713070015  0.4089741765462196
  0.3945375514295138  0.6724504682702031  0.5973572702693478
  0.4177734515837990  0.6635282265372796  0.4138938396318052
  0.6738107833860447  0.6738108203860442  0.5923292004817293
  0.6636961787039479  0.6636962157039474  0.4139181992034130
  0.9189067315458015  0.6634680034171186  0.5921701726470813
  0.9155174603981057  0.6654908986455901  0.4098846464523749
  0.1650532652722735  0.9179844168590615  0.5940069493153283
  0.1668844908473952  0.9152641474832717  0.4111294480417261
  0.4143663638045196  0.9191533875226623  0.5944768170372762
  0.4145272549952332  0.9156783269719383  0.4080769173242731
  0.6634678934171238  0.9189067755457980  0.5921701726470813
  0.6654907886455881  0.9155175043981022  0.4098846464523749
  0.9158334176094846  0.9158335336094870  0.5918790053017765
  0.9164142322504109  0.9164143482504133  0.4132372922975837
  0.5669844093878504  0.5670644183878446  0.6190286452610428
 
  0.00000000E+00  0.00000000E+00  0.00000000E+00
  0.00000000E+00  0.00000000E+00  0.00000000E+00
  0.00000000E+00  0.00000000E+00  0.00000000E+00
  0.00000000E+00  0.00000000E+00  0.00000000E+00
  0.00000000E+00  0.00000000E+00  0.00000000E+00
  0.00000000E+00  0.00000000E+00  0.00000000E+00
  0.00000000E+00  0.00000000E+00  0.00000000E+00
  0.00000000E+00  0.00000000E+00  0.00000000E+00
  0.00000000E+00  0.00000000E+00  0.00000000E+00
  0.00000000E+00  0.00000000E+00  0.00000000E+00
  0.00000000E+00  0.00000000E+00  0.00000000E+00
  0.00000000E+00  0.00000000E+00  0.00000000E+00
  0.00000000E+00  0.00000000E+00  0.00000000E+00
  0.00000000E+00  0.00000000E+00  0.00000000E+00
  0.00000000E+00  0.00000000E+00  0.00000000E+00
  0.00000000E+00  0.00000000E+00  0.00000000E+00
  0.00000000E+00  0.00000000E+00  0.00000000E+00
  0.00000000E+00  0.00000000E+00  0.00000000E+00
  0.00000000E+00  0.00000000E+00  0.00000000E+00
  0.00000000E+00  0.00000000E+00  0.00000000E+00
  0.00000000E+00  0.00000000E+00  0.00000000E+00
  0.00000000E+00  0.00000000E+00  0.00000000E+00
  0.00000000E+00  0.00000000E+00  0.00000000E+00
  0.00000000E+00  0.00000000E+00  0.00000000E+00
  0.00000000E+00  0.00000000E+00  0.00000000E+00
  0.00000000E+00  0.00000000E+00  0.00000000E+00
  0.00000000E+00  0.00000000E+00  0.00000000E+00
  0.00000000E+00  0.00000000E+00  0.00000000E+00
  0.00000000E+00  0.00000000E+00  0.00000000E+00
  0.00000000E+00  0.00000000E+00  0.00000000E+00
  0.00000000E+00  0.00000000E+00  0.00000000E+00
  0.00000000E+00  0.00000000E+00  0.00000000E+00
  0.00000000E+00  0.00000000E+00  0.00000000E+00
  0.00000000E+00  0.00000000E+00  0.00000000E+00
  0.00000000E+00  0.00000000E+00  0.00000000E+00
  0.00000000E+00  0.00000000E+00  0.00000000E+00
  0.00000000E+00  0.00000000E+00  0.00000000E+00
  0.00000000E+00  0.00000000E+00  0.00000000E+00
  0.00000000E+00  0.00000000E+00  0.00000000E+00
  0.00000000E+00  0.00000000E+00  0.00000000E+00
  0.00000000E+00  0.00000000E+00  0.00000000E+00
  0.00000000E+00  0.00000000E+00  0.00000000E+00
  0.00000000E+00  0.00000000E+00  0.00000000E+00
  0.00000000E+00  0.00000000E+00  0.00000000E+00
  0.00000000E+00  0.00000000E+00  0.00000000E+00
  0.00000000E+00  0.00000000E+00  0.00000000E+00
  0.00000000E+00  0.00000000E+00  0.00000000E+00
  0.00000000E+00  0.00000000E+00  0.00000000E+00
  0.00000000E+00  0.00000000E+00  0.00000000E+00
