CONTCAR\(7)                             
   1.00000000000000     
    11.3970003127999995    0.0000000000000000    0.0000000000000000
    -5.6736486034000002    9.8767870360999996    0.0000000000000000
     0.0000000000000000    0.0000000000000000   16.9332008362000010
   Mn   Cu   O 
    12     4    33
Direct
 -0.0009462213637063  0.2517508320028412  0.4984923450775053
  0.2498000665552377  0.0026115936723152  0.4962746395800135
 -0.0002428551928926 -0.0003711238280202  0.4926168284785447
  0.4993116581068953  0.2494281803385883  0.4997585502758020
  0.7509728865546386  0.0038897459012828  0.5011080108687226
  0.5001456113357697  0.0069912626141087  0.5003936580117553
 -0.0006786585656644  0.7550635170453281  0.4916840710297630
  0.2470472378874198  0.5012565279885508  0.5076800887788698
  0.0005516108453249  0.5025518634520511  0.4964976159193984
  0.4954861346872897  0.7599938324914208  0.5157044429342560
  0.7493812636668501  0.5004686728099559  0.4991916183676878
  0.4951997434775656  0.4905794084775792  0.5155064787557891
  0.2470760630233884  0.2499893046763089  0.5007867617237656
  0.7501010361744130  0.2528633976977983  0.4982485004329224
  0.2477184456222208  0.7522758507938280  0.4998881529744894
  0.7496600845577001  0.7523601439482803  0.4990261883763737
  0.0769775136964618  0.4161348936735583  0.5593040905062096
  0.3226957224688162  0.4106871373299579  0.5654115700677450
  0.0745815292013939  0.1616781100713960  0.5545844621252959
  0.4172878902087211  0.0868768437820939  0.4388854226623952
  0.3334252898119113  0.1635470894139521  0.5564922197925092
  0.1677893628300005  0.0861787005248696  0.4387989399042411
  0.4214828760807756  0.3420602729070531  0.4471019721804528
  0.1676055311248409  0.3418250647041433  0.4448120252076002
  0.5850616974896707  0.4082209622226827  0.5628008331477802
  0.8364591769830587  0.4237126985268475  0.5545824345286956
  0.5763131455129515  0.1666384679601021  0.5580932724679314
  0.9131026353396331  0.0846849985189112  0.4393907160803048
  0.8374991505527267  0.1671165746109275  0.5566994355024656
  0.6632265842148173  0.0802766068516820  0.4427741980228471
  0.9232905485702250  0.3379765342965156  0.4401208319919244
  0.6605374631831205  0.3393758372709169  0.4409147972407420
  0.0830138916024590  0.9185775103774435  0.5525056332167859
  0.3338340039837908  0.9274514308247281  0.5562097590102085
  0.0753798557902267  0.6671967156781957  0.5524493353524138
  0.4250224304622311  0.5900219612075742  0.4644782729353610
  0.3228296086386949  0.6660188219071765  0.5651567323575669
  0.1674862572190114  0.5775965015875789  0.4429392538437114
  0.4222432029227924  0.8351138812361459  0.4477940470476481
  0.1689087597511887  0.8385174422482364  0.4383114098590871
  0.5849530243604277  0.9319777348952941  0.5634593919186239
  0.8389958553299914  0.9197295188614176  0.5531468541356807
  0.5589776275049033  0.5989547171821319  0.6107870372146671
  0.9126815195324630  0.5828973847550065  0.4377775447026840
  0.8385291464686085  0.6731084888769808  0.5518789620835328
  0.6532488685124702  0.5815011443720719  0.4536235380664557
  0.9397143535855846  0.8484499854148644  0.4305300598512833
  0.6542972932802723  0.8284373416620052  0.4537052557470808
  0.5624039264133075  0.7162559461653155  0.6101217976423673
 
  0.00000000E+00  0.00000000E+00  0.00000000E+00
  0.00000000E+00  0.00000000E+00  0.00000000E+00
  0.00000000E+00  0.00000000E+00  0.00000000E+00
  0.00000000E+00  0.00000000E+00  0.00000000E+00
  0.00000000E+00  0.00000000E+00  0.00000000E+00
  0.00000000E+00  0.00000000E+00  0.00000000E+00
  0.00000000E+00  0.00000000E+00  0.00000000E+00
  0.00000000E+00  0.00000000E+00  0.00000000E+00
  0.00000000E+00  0.00000000E+00  0.00000000E+00
  0.00000000E+00  0.00000000E+00  0.00000000E+00
  0.00000000E+00  0.00000000E+00  0.00000000E+00
  0.00000000E+00  0.00000000E+00  0.00000000E+00
  0.00000000E+00  0.00000000E+00  0.00000000E+00
  0.00000000E+00  0.00000000E+00  0.00000000E+00
  0.00000000E+00  0.00000000E+00  0.00000000E+00
  0.00000000E+00  0.00000000E+00  0.00000000E+00
  0.00000000E+00  0.00000000E+00  0.00000000E+00
  0.00000000E+00  0.00000000E+00  0.00000000E+00
  0.00000000E+00  0.00000000E+00  0.00000000E+00
  0.00000000E+00  0.00000000E+00  0.00000000E+00
  0.00000000E+00  0.00000000E+00  0.00000000E+00
  0.00000000E+00  0.00000000E+00  0.00000000E+00
  0.00000000E+00  0.00000000E+00  0.00000000E+00
  0.00000000E+00  0.00000000E+00  0.00000000E+00
  0.00000000E+00  0.00000000E+00  0.00000000E+00
  0.00000000E+00  0.00000000E+00  0.00000000E+00
  0.00000000E+00  0.00000000E+00  0.00000000E+00
  0.00000000E+00  0.00000000E+00  0.00000000E+00
  0.00000000E+00  0.00000000E+00  0.00000000E+00
  0.00000000E+00  0.00000000E+00  0.00000000E+00
  0.00000000E+00  0.00000000E+00  0.00000000E+00
  0.00000000E+00  0.00000000E+00  0.00000000E+00
  0.00000000E+00  0.00000000E+00  0.00000000E+00
  0.00000000E+00  0.00000000E+00  0.00000000E+00
  0.00000000E+00  0.00000000E+00  0.00000000E+00
  0.00000000E+00  0.00000000E+00  0.00000000E+00
  0.00000000E+00  0.00000000E+00  0.00000000E+00
  0.00000000E+00  0.00000000E+00  0.00000000E+00
  0.00000000E+00  0.00000000E+00  0.00000000E+00
  0.00000000E+00  0.00000000E+00  0.00000000E+00
  0.00000000E+00  0.00000000E+00  0.00000000E+00
  0.00000000E+00  0.00000000E+00  0.00000000E+00
  0.00000000E+00  0.00000000E+00  0.00000000E+00
  0.00000000E+00  0.00000000E+00  0.00000000E+00
  0.00000000E+00  0.00000000E+00  0.00000000E+00
  0.00000000E+00  0.00000000E+00  0.00000000E+00
  0.00000000E+00  0.00000000E+00  0.00000000E+00
  0.00000000E+00  0.00000000E+00  0.00000000E+00
  0.00000000E+00  0.00000000E+00  0.00000000E+00
