 Nb3 Ir1 S8                             
   1.00000000000000     
     6.6461619458159298    0.0000000000000000    0.0000000000000000
     3.2850486207884080    5.7837761456588552    0.0000000000000000
     0.0000000000000000    0.0000000000000000   18.3850784682779995
   Nb   Ir   S 
     3     1     8
Direct
  0.4937678208960078  0.0356766271410492  0.4990065844908539
  0.9825764422187727  0.0180164876474313  0.5000121602592235
  0.9648453690166580  0.5067369847977506  0.5010669609299198
  0.5428429860151271  0.4576645633215529  0.5000447106535794
  0.6768180885766891  0.1575500041330538  0.4082341872226458
  0.1539530099132412  0.1832223567447639  0.4155499745372428
  0.1932520251213794  0.6499097216172605  0.4284204926429610
  0.6486861186706380  0.6722911928332763  0.4173184331730437
  0.3284145865347333  0.3514754701982107  0.5828079016823715
  0.8432313906979353  0.3235208259818529  0.5918170216497708
  0.8178170560402046  0.8464357438694745  0.5844856135437663
  0.3508895848844857  0.8070926700579295  0.5716182058574720
 
  0.00000000E+00  0.00000000E+00  0.00000000E+00
  0.00000000E+00  0.00000000E+00  0.00000000E+00
  0.00000000E+00  0.00000000E+00  0.00000000E+00
  0.00000000E+00  0.00000000E+00  0.00000000E+00
  0.00000000E+00  0.00000000E+00  0.00000000E+00
  0.00000000E+00  0.00000000E+00  0.00000000E+00
  0.00000000E+00  0.00000000E+00  0.00000000E+00
  0.00000000E+00  0.00000000E+00  0.00000000E+00
  0.00000000E+00  0.00000000E+00  0.00000000E+00
  0.00000000E+00  0.00000000E+00  0.00000000E+00
  0.00000000E+00  0.00000000E+00  0.00000000E+00
  0.00000000E+00  0.00000000E+00  0.00000000E+00
