CONTCAR\(4)                             
   1.00000000000000     
    14.0045995712000000    0.0000000000000000    0.0000000000000000
     0.0000000000000000   14.6464996337999995    0.0000000000000000
     0.0000000000000000    0.0000000000000000   18.2712001800999992
   Ru   Cl   O 
    16    32    16
Direct
 -0.0000000000000000  0.0000994562825357  0.5000000000000000
  0.2500000000000000  0.0000994562825357  0.5000000000000000
  0.5000000000000000  0.0000994562825357  0.5000000000000000
  0.7499999830000021  0.0000994562825357  0.5000000000000000
 -0.0000000000000000  0.2500998647715548  0.5000000000000000
  0.2500000000000000  0.2500998647715548  0.5000000000000000
  0.5000000000000000  0.2500998647715548  0.5000000000000000
  0.7499999830000021  0.2500998647715548  0.5000000000000000
  0.0000000000000000  0.5000995146940765  0.5000000000000000
  0.2500000000000000  0.5000995146940765  0.5000000000000000
  0.5000000000000000  0.5000995146940765  0.5000000000000000
  0.7499999830000021  0.5000995146940765  0.5000000000000000
  0.0000000000000000  0.7500998416823744  0.5000000000000000
  0.2500000000000000  0.7500998416823744  0.5000000000000000
  0.5000000000000000  0.7500998416823744  0.5000000000000000
  0.7499999830000021  0.7500998416823744  0.5000000000000000
  0.1250000000000000  0.0001049321166275  0.5896825968706043
  0.1250000000000000  0.0001149321166235  0.4103074071293927
  0.3749999910000028  0.0001049321166275  0.5896825968706043
  0.3749999910000028  0.0001149321166235  0.4103074071293927
  0.6249999739999978  0.0001049321166275  0.5896825968706043
  0.6249999739999978  0.0001149321166235  0.4103074071293927
  0.8749999910000028  0.0001049321166275  0.5896825968706043
  0.8749999910000028  0.0001149321166235  0.4103074071293927
  0.1250000000000000  0.2501050113872340  0.5896831463631726
  0.1250000000000000  0.2501150383872358  0.4103068576368245
  0.3749999910000028  0.2501050113872340  0.5896831463631726
  0.3749999910000028  0.2501150383872358  0.4103068576368245
  0.6249999739999978  0.2501050113872340  0.5896831463631726
  0.6249999739999978  0.2501150383872358  0.4103068576368245
  0.8749999910000028  0.2501050113872340  0.5896831463631726
  0.8749999910000028  0.2501150383872358  0.4103068576368245
  0.1250000000000000  0.5001049868951195  0.5896825265677474
  0.1250000000000000  0.5001149488951195  0.4103074774322498
  0.3749999910000028  0.5001049868951195  0.5896825265677474
  0.3749999910000028  0.5001149488951195  0.4103074774322498
  0.6249999739999978  0.5001049868951195  0.5896825265677474
  0.6249999739999978  0.5001149488951195  0.4103074774322498
  0.8749999910000028  0.5001049868951195  0.5896825265677474
  0.8749999910000028  0.5001149488951195  0.4103074774322498
  0.1250000000000000  0.7501049756094582  0.5896831392186355
  0.1250000000000000  0.7501149376094582  0.4103068647813617
  0.3749999910000028  0.7501049756094582  0.5896831392186355
  0.3749999910000028  0.7501149376094582  0.4103068647813617
  0.6249999739999978  0.7501049756094582  0.5896831392186355
  0.6249999739999978  0.7501149376094582  0.4103068647813617
  0.8749999910000028  0.7501049756094582  0.5896831392186355
  0.8749999910000028  0.7501149376094582  0.4103068647813617
  0.0000000000000000  0.1250967542313141  0.5000000000000000
  0.2500000000000000  0.1250967542313141  0.5000000000000000
  0.5000000000000000  0.1250967542313141  0.5000000000000000
  0.7499999830000021  0.1250967542313141  0.5000000000000000
  0.0000000000000000  0.3750839530782816  0.5000000000000000
  0.2500000000000000  0.3750839530782816  0.5000000000000000
  0.5000000000000000  0.3750839530782816  0.5000000000000000
  0.7499999830000021  0.3750839530782816  0.5000000000000000
 -0.0000000000000000  0.6250969008368781  0.5000000000000000
  0.2500000000000000  0.6250969008368781  0.5000000000000000
  0.5000000000000000  0.6250969008368781  0.5000000000000000
  0.7499999830000021  0.6250969008368781  0.5000000000000000
  0.0000000000000000  0.8750838804061154  0.5000000000000000
  0.2500000000000000  0.8750838804061154  0.5000000000000000
  0.5000000000000000  0.8750838804061154  0.5000000000000000
  0.7499999830000021  0.8750838804061154  0.5000000000000000
 
  0.00000000E+00  0.00000000E+00  0.00000000E+00
  0.00000000E+00  0.00000000E+00  0.00000000E+00
  0.00000000E+00  0.00000000E+00  0.00000000E+00
  0.00000000E+00  0.00000000E+00  0.00000000E+00
  0.00000000E+00  0.00000000E+00  0.00000000E+00
  0.00000000E+00  0.00000000E+00  0.00000000E+00
  0.00000000E+00  0.00000000E+00  0.00000000E+00
  0.00000000E+00  0.00000000E+00  0.00000000E+00
  0.00000000E+00  0.00000000E+00  0.00000000E+00
  0.00000000E+00  0.00000000E+00  0.00000000E+00
  0.00000000E+00  0.00000000E+00  0.00000000E+00
  0.00000000E+00  0.00000000E+00  0.00000000E+00
  0.00000000E+00  0.00000000E+00  0.00000000E+00
  0.00000000E+00  0.00000000E+00  0.00000000E+00
  0.00000000E+00  0.00000000E+00  0.00000000E+00
  0.00000000E+00  0.00000000E+00  0.00000000E+00
  0.00000000E+00  0.00000000E+00  0.00000000E+00
  0.00000000E+00  0.00000000E+00  0.00000000E+00
  0.00000000E+00  0.00000000E+00  0.00000000E+00
  0.00000000E+00  0.00000000E+00  0.00000000E+00
  0.00000000E+00  0.00000000E+00  0.00000000E+00
  0.00000000E+00  0.00000000E+00  0.00000000E+00
  0.00000000E+00  0.00000000E+00  0.00000000E+00
  0.00000000E+00  0.00000000E+00  0.00000000E+00
  0.00000000E+00  0.00000000E+00  0.00000000E+00
  0.00000000E+00  0.00000000E+00  0.00000000E+00
  0.00000000E+00  0.00000000E+00  0.00000000E+00
  0.00000000E+00  0.00000000E+00  0.00000000E+00
  0.00000000E+00  0.00000000E+00  0.00000000E+00
  0.00000000E+00  0.00000000E+00  0.00000000E+00
  0.00000000E+00  0.00000000E+00  0.00000000E+00
  0.00000000E+00  0.00000000E+00  0.00000000E+00
  0.00000000E+00  0.00000000E+00  0.00000000E+00
  0.00000000E+00  0.00000000E+00  0.00000000E+00
  0.00000000E+00  0.00000000E+00  0.00000000E+00
  0.00000000E+00  0.00000000E+00  0.00000000E+00
  0.00000000E+00  0.00000000E+00  0.00000000E+00
  0.00000000E+00  0.00000000E+00  0.00000000E+00
  0.00000000E+00  0.00000000E+00  0.00000000E+00
  0.00000000E+00  0.00000000E+00  0.00000000E+00
  0.00000000E+00  0.00000000E+00  0.00000000E+00
  0.00000000E+00  0.00000000E+00  0.00000000E+00
  0.00000000E+00  0.00000000E+00  0.00000000E+00
  0.00000000E+00  0.00000000E+00  0.00000000E+00
  0.00000000E+00  0.00000000E+00  0.00000000E+00
  0.00000000E+00  0.00000000E+00  0.00000000E+00
  0.00000000E+00  0.00000000E+00  0.00000000E+00
  0.00000000E+00  0.00000000E+00  0.00000000E+00
  0.00000000E+00  0.00000000E+00  0.00000000E+00
  0.00000000E+00  0.00000000E+00  0.00000000E+00
  0.00000000E+00  0.00000000E+00  0.00000000E+00
  0.00000000E+00  0.00000000E+00  0.00000000E+00
  0.00000000E+00  0.00000000E+00  0.00000000E+00
  0.00000000E+00  0.00000000E+00  0.00000000E+00
  0.00000000E+00  0.00000000E+00  0.00000000E+00
  0.00000000E+00  0.00000000E+00  0.00000000E+00
  0.00000000E+00  0.00000000E+00  0.00000000E+00
  0.00000000E+00  0.00000000E+00  0.00000000E+00
  0.00000000E+00  0.00000000E+00  0.00000000E+00
  0.00000000E+00  0.00000000E+00  0.00000000E+00
  0.00000000E+00  0.00000000E+00  0.00000000E+00
  0.00000000E+00  0.00000000E+00  0.00000000E+00
  0.00000000E+00  0.00000000E+00  0.00000000E+00
  0.00000000E+00  0.00000000E+00  0.00000000E+00
