CONTCAR\(6)                             
   1.00000000000000     
    12.0179996490000001    0.0000000000000000    0.0000000000000000
     5.5443836140000000   17.3830097696000010    0.0000000000000000
     0.0000000000000000    0.0000000000000000   18.4081001282000010
   Nb   Ir   Se   O    H 
    16     4    40     1     1
Direct
  0.3140363842795547  0.4214139043480027  0.4983437133099747
  0.3792417899750322  0.1906273285481123  0.5115279212889228
  0.0420339554382981  0.9968709736027594  0.5023999065841734
  0.0817198260835730  0.3085067618298596  0.4988661484814295
  0.8142503966774383  0.4208095087377979  0.4968164812699420
  0.8797202116243862  0.1919597435462707  0.4992784020296703
  0.5374590955232530  0.9980827905132696  0.5080278864963468
  0.5803060786284724  0.3112365420984554  0.4977347488278784
  0.3141458638673631  0.9190047868252360  0.5011202341406902
  0.3736339549362285  0.7101578098671489  0.5026719536702635
  0.0455514475204767  0.5061926065569428  0.4967848612203107
  0.0954990286598502  0.8209589461568033  0.4982295234026043
  0.8220897362852441  0.9163574100041136  0.5026142180321476
  0.8730254406221700  0.7112800792297064  0.5047972355789552
  0.5457486106717796  0.5053671600688980  0.4966850672486333
  0.5870971636148150  0.8193195958300146  0.4990134325586018
  0.2132927142296994  0.0894397217757981  0.4950616412170431
  0.7129674490298579  0.0918583092446345  0.5028729603576183
  0.2131324239414726  0.5980225992099059  0.4992776288587278
  0.7136683937085071  0.5974221443350186  0.4996412466649365
  0.1868017814055185  0.0073110422859352  0.5995389393406202
  0.0409078213708805  0.1028711490542240  0.4107828093767166
  0.2699877531176863  0.3078833716304686  0.5839341992730933
  0.1525776946522131  0.3986878630903574  0.4112898337252894
  0.3840041073747117  0.0967015671978886  0.6107721885399918
  0.2326332621654588  0.1954551137115751  0.4127745443305759
  0.4808839794227863  0.4080124179659333  0.5923079771999058
  0.3578432914408154  0.0053088819714272  0.4097525956271865
  0.0755712455606002  0.1926139499926788  0.5745965942647299
  0.4248321862858457  0.3023646049096227  0.4128175153853931
  0.6889447335442357  0.0019248353008127  0.6023463742781672
  0.5385544649594015  0.1043623415457680  0.4192926772069271
  0.7733829696167229  0.3051327195485957  0.5785714263767612
  0.6523224394537903  0.3993164571617718  0.4091750859530343
  0.8770327610843496  0.0947745035352126  0.5908092786076664
  0.7222128998455135  0.1957667268554472  0.4098258690624104
  0.9806031476907805  0.4070586451414775  0.5915586467428062
  0.8528880828325257  0.0068029722166961  0.4119291071031358
  0.5751840486332668  0.1967923557257585  0.5781074613214069
  0.9296453724883861  0.3038365213293653  0.4090981634436596
  0.1860710336770273  0.5091974375288716  0.5974772751823190
  0.0456950853470199  0.6093947705582591  0.4112409583833310
  0.2693050948557327  0.8081468398520102  0.5915589372266252
  0.1544836621375952  0.9049312401436230  0.4036996025289915
  0.3815994775140938  0.5979859592676658  0.5839176803693638
  0.2258503573439770  0.7053123450524943  0.4100783198888172
  0.4726489715296402  0.9062075270433125  0.5996983147997113
  0.3549674391871545  0.5107630627563996  0.4085540251470223
  0.0733577358994362  0.7026066996080546  0.5741805173944121
  0.4327380875240973  0.8071823947749077  0.4111502713151640
  0.6869247108003819  0.5077751680755787  0.5970308586299402
  0.5459894744995721  0.6094580449520691  0.4113544886294748
  0.7673306026421317  0.8079337048830751  0.5926363309085043
  0.6529888582209193  0.9066136438700519  0.4106881147273211
  0.8820868362170420  0.5970456602184497  0.5842640690447986
  0.7258430789615126  0.7056788926192800  0.4115174165803095
  0.9807632355598340  0.9069715601005846  0.5993286119849065
  0.8552958012825189  0.5111727435076328  0.4081644161995380
  0.5736994498644001  0.7011556095786029  0.5754651744748734
  0.9342310737817058  0.8060222857191823  0.4130160542133239
  0.4750754766923280  0.1179822205169016  0.6906849890512814
  0.4702610611989210  0.0805538268732203  0.7277466259215809
 
  0.00000000E+00  0.00000000E+00  0.00000000E+00
  0.00000000E+00  0.00000000E+00  0.00000000E+00
  0.00000000E+00  0.00000000E+00  0.00000000E+00
  0.00000000E+00  0.00000000E+00  0.00000000E+00
  0.00000000E+00  0.00000000E+00  0.00000000E+00
  0.00000000E+00  0.00000000E+00  0.00000000E+00
  0.00000000E+00  0.00000000E+00  0.00000000E+00
  0.00000000E+00  0.00000000E+00  0.00000000E+00
  0.00000000E+00  0.00000000E+00  0.00000000E+00
  0.00000000E+00  0.00000000E+00  0.00000000E+00
  0.00000000E+00  0.00000000E+00  0.00000000E+00
  0.00000000E+00  0.00000000E+00  0.00000000E+00
  0.00000000E+00  0.00000000E+00  0.00000000E+00
  0.00000000E+00  0.00000000E+00  0.00000000E+00
  0.00000000E+00  0.00000000E+00  0.00000000E+00
  0.00000000E+00  0.00000000E+00  0.00000000E+00
  0.00000000E+00  0.00000000E+00  0.00000000E+00
  0.00000000E+00  0.00000000E+00  0.00000000E+00
  0.00000000E+00  0.00000000E+00  0.00000000E+00
  0.00000000E+00  0.00000000E+00  0.00000000E+00
  0.00000000E+00  0.00000000E+00  0.00000000E+00
  0.00000000E+00  0.00000000E+00  0.00000000E+00
  0.00000000E+00  0.00000000E+00  0.00000000E+00
  0.00000000E+00  0.00000000E+00  0.00000000E+00
  0.00000000E+00  0.00000000E+00  0.00000000E+00
  0.00000000E+00  0.00000000E+00  0.00000000E+00
  0.00000000E+00  0.00000000E+00  0.00000000E+00
  0.00000000E+00  0.00000000E+00  0.00000000E+00
  0.00000000E+00  0.00000000E+00  0.00000000E+00
  0.00000000E+00  0.00000000E+00  0.00000000E+00
  0.00000000E+00  0.00000000E+00  0.00000000E+00
  0.00000000E+00  0.00000000E+00  0.00000000E+00
  0.00000000E+00  0.00000000E+00  0.00000000E+00
  0.00000000E+00  0.00000000E+00  0.00000000E+00
  0.00000000E+00  0.00000000E+00  0.00000000E+00
  0.00000000E+00  0.00000000E+00  0.00000000E+00
  0.00000000E+00  0.00000000E+00  0.00000000E+00
  0.00000000E+00  0.00000000E+00  0.00000000E+00
  0.00000000E+00  0.00000000E+00  0.00000000E+00
  0.00000000E+00  0.00000000E+00  0.00000000E+00
  0.00000000E+00  0.00000000E+00  0.00000000E+00
  0.00000000E+00  0.00000000E+00  0.00000000E+00
  0.00000000E+00  0.00000000E+00  0.00000000E+00
  0.00000000E+00  0.00000000E+00  0.00000000E+00
  0.00000000E+00  0.00000000E+00  0.00000000E+00
  0.00000000E+00  0.00000000E+00  0.00000000E+00
  0.00000000E+00  0.00000000E+00  0.00000000E+00
  0.00000000E+00  0.00000000E+00  0.00000000E+00
  0.00000000E+00  0.00000000E+00  0.00000000E+00
  0.00000000E+00  0.00000000E+00  0.00000000E+00
  0.00000000E+00  0.00000000E+00  0.00000000E+00
  0.00000000E+00  0.00000000E+00  0.00000000E+00
  0.00000000E+00  0.00000000E+00  0.00000000E+00
  0.00000000E+00  0.00000000E+00  0.00000000E+00
  0.00000000E+00  0.00000000E+00  0.00000000E+00
  0.00000000E+00  0.00000000E+00  0.00000000E+00
  0.00000000E+00  0.00000000E+00  0.00000000E+00
  0.00000000E+00  0.00000000E+00  0.00000000E+00
  0.00000000E+00  0.00000000E+00  0.00000000E+00
  0.00000000E+00  0.00000000E+00  0.00000000E+00
  0.00000000E+00  0.00000000E+00  0.00000000E+00
  0.00000000E+00  0.00000000E+00  0.00000000E+00
