CONTCAR\(7)                             
   1.00000000000000     
    13.8427000045999993    0.0000000000000000    0.0000000000000000
    -6.9212999344000004   11.9880431408000003    0.0000000000000000
     0.0000000000000000    0.0000000000000000   18.3542995453000017
   Ta   Se   O    H 
    16    32     2     1
Direct
  0.0021484900306747  0.0034352789633454  0.4952432901016101
  0.2513141597807562  0.0024864015680289  0.4951491871604806
  0.5013233461076798  0.0034664398296260  0.4952482733625557
  0.7513585799052220  0.0026341785649822  0.4952147827566403
  0.0020800398750914  0.2526398172012647  0.4950502675590793
  0.2506947212484366  0.2523604318000744  0.4952141664372612
  0.5018081067077081  0.2523600034664882  0.4952164109418420
  0.7506614197885979  0.2526557075623284  0.4950173862215552
  0.0026595197143122  0.5052709320310308  0.4945379081522140
  0.2516303147188068  0.5039758509450821  0.4945339441348270
  0.5022049992695796  0.5042866424429490  0.4953615080162315
  0.7525641535449435  0.5039538040748440  0.4945198738126371
  0.0024279532432167  0.7522127848984416  0.4946770555392014
  0.2498928516177057  0.7522716009772867  0.4946894117961199
  0.5013050456750091  0.7516369281195249  0.4950258962324015
  0.7504804455103281  0.7516616605305634  0.4950109418042014
  0.0847611702510234  0.1693588013442691  0.4032978758424386
  0.0846820664226134  0.1696532649237533  0.5871737733479591
  0.3349019435233011  0.1696523062812075  0.4038510574047723
  0.3348210298795117  0.1695398386456878  0.5865588132555658
  0.5846983897839454  0.1694018204098273  0.4032750336986486
  0.5851046132875153  0.1696587189165046  0.5871944917958098
  0.8348031956245493  0.1694519843097831  0.4037958812915093
  0.8349160523504263  0.1697511618072607  0.5863215501063164
  0.0844834084768973  0.4193305866640806  0.4035045323149657
  0.0846006527675494  0.4198728390216579  0.5859336573052712
  0.3350706673257914  0.4194340779059336  0.4037386999938029
  0.3343375429555215  0.4197877870942011  0.5857019744942731
  0.5846658959438695  0.4195259639657364  0.4037634242108158
  0.5855498518237338  0.4197896652393115  0.5856740327577270
  0.8350037594006176  0.4192755493640728  0.4034341997439904
  0.8354091695760711  0.4198327936189036  0.5859412632015792
  0.0850361970484317  0.6700003752448100  0.4019703018781963
  0.0849833105956297  0.6698508336817223  0.5872014038545291
  0.3349657645972760  0.6701318650625395  0.4031323517725476
  0.3346374636115564  0.6699599664342517  0.5862925705507736
  0.5847927903546403  0.6694733933864512  0.4028811642505294
  0.5851379174364015  0.6700921960544252  0.5872178869520757
  0.8352633275331455  0.6701304520399521  0.4031148136021463
  0.8353856680262814  0.6699217604952674  0.5862832831615102
  0.0848685320076783  0.9197776391115532  0.4035828353459373
  0.0844989652541644  0.9190942495446767  0.5864788105560227
  0.3349858478902714  0.9197509406077565  0.4035794227824625
  0.3346454814662831  0.9190871285976039  0.5865318435805027
  0.5845738201831872  0.9194435189799927  0.4039763387088652
  0.5844367565655855  0.9191712046529096  0.5863553162198337
  0.8349248295247667  0.9194480657784052  0.4039449887868667
  0.8347934953982513  0.9191716883512385  0.5863571827461729
  0.4789975851018137  0.4570194332343645  0.7172074249375647
  0.4755141086428004  0.4479985220114278  0.7909244256584637
  0.4344233766308419  0.3666704912425395  0.8002375698607365
 
  0.00000000E+00  0.00000000E+00  0.00000000E+00
  0.00000000E+00  0.00000000E+00  0.00000000E+00
  0.00000000E+00  0.00000000E+00  0.00000000E+00
  0.00000000E+00  0.00000000E+00  0.00000000E+00
  0.00000000E+00  0.00000000E+00  0.00000000E+00
  0.00000000E+00  0.00000000E+00  0.00000000E+00
  0.00000000E+00  0.00000000E+00  0.00000000E+00
  0.00000000E+00  0.00000000E+00  0.00000000E+00
  0.00000000E+00  0.00000000E+00  0.00000000E+00
  0.00000000E+00  0.00000000E+00  0.00000000E+00
  0.00000000E+00  0.00000000E+00  0.00000000E+00
  0.00000000E+00  0.00000000E+00  0.00000000E+00
  0.00000000E+00  0.00000000E+00  0.00000000E+00
  0.00000000E+00  0.00000000E+00  0.00000000E+00
  0.00000000E+00  0.00000000E+00  0.00000000E+00
  0.00000000E+00  0.00000000E+00  0.00000000E+00
  0.00000000E+00  0.00000000E+00  0.00000000E+00
  0.00000000E+00  0.00000000E+00  0.00000000E+00
  0.00000000E+00  0.00000000E+00  0.00000000E+00
  0.00000000E+00  0.00000000E+00  0.00000000E+00
  0.00000000E+00  0.00000000E+00  0.00000000E+00
  0.00000000E+00  0.00000000E+00  0.00000000E+00
  0.00000000E+00  0.00000000E+00  0.00000000E+00
  0.00000000E+00  0.00000000E+00  0.00000000E+00
  0.00000000E+00  0.00000000E+00  0.00000000E+00
  0.00000000E+00  0.00000000E+00  0.00000000E+00
  0.00000000E+00  0.00000000E+00  0.00000000E+00
  0.00000000E+00  0.00000000E+00  0.00000000E+00
  0.00000000E+00  0.00000000E+00  0.00000000E+00
  0.00000000E+00  0.00000000E+00  0.00000000E+00
  0.00000000E+00  0.00000000E+00  0.00000000E+00
  0.00000000E+00  0.00000000E+00  0.00000000E+00
  0.00000000E+00  0.00000000E+00  0.00000000E+00
  0.00000000E+00  0.00000000E+00  0.00000000E+00
  0.00000000E+00  0.00000000E+00  0.00000000E+00
  0.00000000E+00  0.00000000E+00  0.00000000E+00
  0.00000000E+00  0.00000000E+00  0.00000000E+00
  0.00000000E+00  0.00000000E+00  0.00000000E+00
  0.00000000E+00  0.00000000E+00  0.00000000E+00
  0.00000000E+00  0.00000000E+00  0.00000000E+00
  0.00000000E+00  0.00000000E+00  0.00000000E+00
  0.00000000E+00  0.00000000E+00  0.00000000E+00
  0.00000000E+00  0.00000000E+00  0.00000000E+00
  0.00000000E+00  0.00000000E+00  0.00000000E+00
  0.00000000E+00  0.00000000E+00  0.00000000E+00
  0.00000000E+00  0.00000000E+00  0.00000000E+00
  0.00000000E+00  0.00000000E+00  0.00000000E+00
  0.00000000E+00  0.00000000E+00  0.00000000E+00
  0.00000000E+00  0.00000000E+00  0.00000000E+00
  0.00000000E+00  0.00000000E+00  0.00000000E+00
  0.00000000E+00  0.00000000E+00  0.00000000E+00
