 Zr2 H2 Cl2                             
   1.00000000000000     
     3.3108245861771910    0.0000000000000000    0.0000000000000000
    -1.6554113049178480    2.8672590666536646    0.0000000000000000
     0.0000000000000000    0.0000000000000000   21.5361817032520015
   Zr   H    Cl
     2     2     2
Direct
  0.6666667809103828  0.3333332439014356  0.5690299468726181
  0.3333332170079899  0.6666667591457909  0.4309707444040853
  0.6666668896094450  0.3333331296821171  0.4738369375882243
  0.3333331023799033  0.6666668645951788  0.5261624086538390
  0.6666668300308629  0.3333331718921855  0.3483398453981792
  0.3333331800614161  0.6666668307832921  0.6516601170830540
 
  0.00000000E+00  0.00000000E+00  0.00000000E+00
  0.00000000E+00  0.00000000E+00  0.00000000E+00
  0.00000000E+00  0.00000000E+00  0.00000000E+00
  0.00000000E+00  0.00000000E+00  0.00000000E+00
  0.00000000E+00  0.00000000E+00  0.00000000E+00
  0.00000000E+00  0.00000000E+00  0.00000000E+00
