 Ta4 Ni2 S10                            
   1.00000000000000     
     3.3997137741806269    0.0000000000000000    0.0000000000000000
     0.0000000000000000   15.1191717799417980    0.0000000000000000
     0.0000000000000000    0.0000000000000000   19.1068554386999985
   Ta   Ni   S 
     4     2    10
Direct
  0.9999999973106952  0.3573922912025012  0.5191978967565305
  0.5000000019545894  0.1426063151539907  0.4808018105147767
  0.4999999903251080  0.8573940977160674  0.4808012551080338
  0.9999999947627884  0.6426072160041301  0.5191983489730418
  0.9999999979852774  0.0000003975548708  0.4654856133297116
  0.4999999919686999  0.4999997292730640  0.5345124441366664
  0.4999999992213660  0.0000003992541977  0.5430716371296000
  0.9999999935365196  0.4999996526952728  0.4569287678182405
  0.0000000175971309  0.1993877930373884  0.5656213686555489
  0.5000000111833174  0.3006112373339107  0.4343790864286277
  0.5000000112245218  0.6993886846076123  0.4343793256214212
  0.9999999983189127  0.8006121038962419  0.5656210917753270
  0.5000000021296671  0.6138946302527017  0.6078593323451855
  0.9999999869671612  0.8861043594848041  0.3921413526760702
  0.0000000043010786  0.1138958166431081  0.3921411067790714
  0.5000000012131878  0.3861052758901451  0.6078595619521465
 
  0.00000000E+00  0.00000000E+00  0.00000000E+00
  0.00000000E+00  0.00000000E+00  0.00000000E+00
  0.00000000E+00  0.00000000E+00  0.00000000E+00
  0.00000000E+00  0.00000000E+00  0.00000000E+00
  0.00000000E+00  0.00000000E+00  0.00000000E+00
  0.00000000E+00  0.00000000E+00  0.00000000E+00
  0.00000000E+00  0.00000000E+00  0.00000000E+00
  0.00000000E+00  0.00000000E+00  0.00000000E+00
  0.00000000E+00  0.00000000E+00  0.00000000E+00
  0.00000000E+00  0.00000000E+00  0.00000000E+00
  0.00000000E+00  0.00000000E+00  0.00000000E+00
  0.00000000E+00  0.00000000E+00  0.00000000E+00
  0.00000000E+00  0.00000000E+00  0.00000000E+00
  0.00000000E+00  0.00000000E+00  0.00000000E+00
  0.00000000E+00  0.00000000E+00  0.00000000E+00
  0.00000000E+00  0.00000000E+00  0.00000000E+00
