G   59   13    1    0.005     # Parameters to Generate KPOINTS (Don't Edit This Line)
     210
Reciprocal lattice
    0.000000000000    0.000000000000    0.000000000000       1
    0.016949152542    0.000000000000    0.000000000000       2
    0.033898305085    0.000000000000    0.000000000000       2
    0.050847457627    0.000000000000    0.000000000000       2
    0.067796610169    0.000000000000    0.000000000000       2
    0.084745762712    0.000000000000    0.000000000000       2
    0.101694915254    0.000000000000    0.000000000000       2
    0.118644067797    0.000000000000    0.000000000000       2
    0.135593220339    0.000000000000    0.000000000000       2
    0.152542372881    0.000000000000    0.000000000000       2
    0.169491525424    0.000000000000    0.000000000000       2
    0.186440677966    0.000000000000    0.000000000000       2
    0.203389830508    0.000000000000    0.000000000000       2
    0.220338983051    0.000000000000    0.000000000000       2
    0.237288135593    0.000000000000    0.000000000000       2
    0.254237288136    0.000000000000    0.000000000000       2
    0.271186440678    0.000000000000    0.000000000000       2
    0.288135593220    0.000000000000    0.000000000000       2
    0.305084745763    0.000000000000    0.000000000000       2
    0.322033898305    0.000000000000    0.000000000000       2
    0.338983050847    0.000000000000    0.000000000000       2
    0.355932203390    0.000000000000    0.000000000000       2
    0.372881355932    0.000000000000    0.000000000000       2
    0.389830508475    0.000000000000    0.000000000000       2
    0.406779661017    0.000000000000    0.000000000000       2
    0.423728813559    0.000000000000    0.000000000000       2
    0.440677966102    0.000000000000    0.000000000000       2
    0.457627118644    0.000000000000    0.000000000000       2
    0.474576271186    0.000000000000    0.000000000000       2
    0.491525423729    0.000000000000    0.000000000000       2
    0.000000000000    0.076923076923    0.000000000000       2
    0.016949152542    0.076923076923    0.000000000000       4
    0.033898305085    0.076923076923    0.000000000000       4
    0.050847457627    0.076923076923    0.000000000000       4
    0.067796610169    0.076923076923    0.000000000000       4
    0.084745762712    0.076923076923    0.000000000000       4
    0.101694915254    0.076923076923    0.000000000000       4
    0.118644067797    0.076923076923    0.000000000000       4
    0.135593220339    0.076923076923    0.000000000000       4
    0.152542372881    0.076923076923    0.000000000000       4
    0.169491525424    0.076923076923    0.000000000000       4
    0.186440677966    0.076923076923    0.000000000000       4
    0.203389830508    0.076923076923    0.000000000000       4
    0.220338983051    0.076923076923    0.000000000000       4
    0.237288135593    0.076923076923    0.000000000000       4
    0.254237288136    0.076923076923    0.000000000000       4
    0.271186440678    0.076923076923    0.000000000000       4
    0.288135593220    0.076923076923    0.000000000000       4
    0.305084745763    0.076923076923    0.000000000000       4
    0.322033898305    0.076923076923    0.000000000000       4
    0.338983050847    0.076923076923    0.000000000000       4
    0.355932203390    0.076923076923    0.000000000000       4
    0.372881355932    0.076923076923    0.000000000000       4
    0.389830508475    0.076923076923    0.000000000000       4
    0.406779661017    0.076923076923    0.000000000000       4
    0.423728813559    0.076923076923    0.000000000000       4
    0.440677966102    0.076923076923    0.000000000000       4
    0.457627118644    0.076923076923    0.000000000000       4
    0.474576271186    0.076923076923    0.000000000000       4
    0.491525423729    0.076923076923    0.000000000000       4
    0.000000000000    0.153846153846    0.000000000000       2
    0.016949152542    0.153846153846    0.000000000000       4
    0.033898305085    0.153846153846    0.000000000000       4
    0.050847457627    0.153846153846    0.000000000000       4
    0.067796610169    0.153846153846    0.000000000000       4
    0.084745762712    0.153846153846    0.000000000000       4
    0.101694915254    0.153846153846    0.000000000000       4
    0.118644067797    0.153846153846    0.000000000000       4
    0.135593220339    0.153846153846    0.000000000000       4
    0.152542372881    0.153846153846    0.000000000000       4
    0.169491525424    0.153846153846    0.000000000000       4
    0.186440677966    0.153846153846    0.000000000000       4
    0.203389830508    0.153846153846    0.000000000000       4
    0.220338983051    0.153846153846    0.000000000000       4
    0.237288135593    0.153846153846    0.000000000000       4
    0.254237288136    0.153846153846    0.000000000000       4
    0.271186440678    0.153846153846    0.000000000000       4
    0.288135593220    0.153846153846    0.000000000000       4
    0.305084745763    0.153846153846    0.000000000000       4
    0.322033898305    0.153846153846    0.000000000000       4
    0.338983050847    0.153846153846    0.000000000000       4
    0.355932203390    0.153846153846    0.000000000000       4
    0.372881355932    0.153846153846    0.000000000000       4
    0.389830508475    0.153846153846    0.000000000000       4
    0.406779661017    0.153846153846    0.000000000000       4
    0.423728813559    0.153846153846    0.000000000000       4
    0.440677966102    0.153846153846    0.000000000000       4
    0.457627118644    0.153846153846    0.000000000000       4
    0.474576271186    0.153846153846    0.000000000000       4
    0.491525423729    0.153846153846    0.000000000000       4
    0.000000000000    0.230769230769    0.000000000000       2
    0.016949152542    0.230769230769    0.000000000000       4
    0.033898305085    0.230769230769    0.000000000000       4
    0.050847457627    0.230769230769    0.000000000000       4
    0.067796610169    0.230769230769    0.000000000000       4
    0.084745762712    0.230769230769    0.000000000000       4
    0.101694915254    0.230769230769    0.000000000000       4
    0.118644067797    0.230769230769    0.000000000000       4
    0.135593220339    0.230769230769    0.000000000000       4
    0.152542372881    0.230769230769    0.000000000000       4
    0.169491525424    0.230769230769    0.000000000000       4
    0.186440677966    0.230769230769    0.000000000000       4
    0.203389830508    0.230769230769    0.000000000000       4
    0.220338983051    0.230769230769    0.000000000000       4
    0.237288135593    0.230769230769    0.000000000000       4
    0.254237288136    0.230769230769    0.000000000000       4
    0.271186440678    0.230769230769    0.000000000000       4
    0.288135593220    0.230769230769    0.000000000000       4
    0.305084745763    0.230769230769    0.000000000000       4
    0.322033898305    0.230769230769    0.000000000000       4
    0.338983050847    0.230769230769    0.000000000000       4
    0.355932203390    0.230769230769    0.000000000000       4
    0.372881355932    0.230769230769    0.000000000000       4
    0.389830508475    0.230769230769    0.000000000000       4
    0.406779661017    0.230769230769    0.000000000000       4
    0.423728813559    0.230769230769    0.000000000000       4
    0.440677966102    0.230769230769    0.000000000000       4
    0.457627118644    0.230769230769    0.000000000000       4
    0.474576271186    0.230769230769    0.000000000000       4
    0.491525423729    0.230769230769    0.000000000000       4
    0.000000000000    0.307692307692    0.000000000000       2
    0.016949152542    0.307692307692    0.000000000000       4
    0.033898305085    0.307692307692    0.000000000000       4
    0.050847457627    0.307692307692    0.000000000000       4
    0.067796610169    0.307692307692    0.000000000000       4
    0.084745762712    0.307692307692    0.000000000000       4
    0.101694915254    0.307692307692    0.000000000000       4
    0.118644067797    0.307692307692    0.000000000000       4
    0.135593220339    0.307692307692    0.000000000000       4
    0.152542372881    0.307692307692    0.000000000000       4
    0.169491525424    0.307692307692    0.000000000000       4
    0.186440677966    0.307692307692    0.000000000000       4
    0.203389830508    0.307692307692    0.000000000000       4
    0.220338983051    0.307692307692    0.000000000000       4
    0.237288135593    0.307692307692    0.000000000000       4
    0.254237288136    0.307692307692    0.000000000000       4
    0.271186440678    0.307692307692    0.000000000000       4
    0.288135593220    0.307692307692    0.000000000000       4
    0.305084745763    0.307692307692    0.000000000000       4
    0.322033898305    0.307692307692    0.000000000000       4
    0.338983050847    0.307692307692    0.000000000000       4
    0.355932203390    0.307692307692    0.000000000000       4
    0.372881355932    0.307692307692    0.000000000000       4
    0.389830508475    0.307692307692    0.000000000000       4
    0.406779661017    0.307692307692    0.000000000000       4
    0.423728813559    0.307692307692    0.000000000000       4
    0.440677966102    0.307692307692    0.000000000000       4
    0.457627118644    0.307692307692    0.000000000000       4
    0.474576271186    0.307692307692    0.000000000000       4
    0.491525423729    0.307692307692    0.000000000000       4
    0.000000000000    0.384615384615    0.000000000000       2
    0.016949152542    0.384615384615    0.000000000000       4
    0.033898305085    0.384615384615    0.000000000000       4
    0.050847457627    0.384615384615    0.000000000000       4
    0.067796610169    0.384615384615    0.000000000000       4
    0.084745762712    0.384615384615    0.000000000000       4
    0.101694915254    0.384615384615    0.000000000000       4
    0.118644067797    0.384615384615    0.000000000000       4
    0.135593220339    0.384615384615    0.000000000000       4
    0.152542372881    0.384615384615    0.000000000000       4
    0.169491525424    0.384615384615    0.000000000000       4
    0.186440677966    0.384615384615    0.000000000000       4
    0.203389830508    0.384615384615    0.000000000000       4
    0.220338983051    0.384615384615    0.000000000000       4
    0.237288135593    0.384615384615    0.000000000000       4
    0.254237288136    0.384615384615    0.000000000000       4
    0.271186440678    0.384615384615    0.000000000000       4
    0.288135593220    0.384615384615    0.000000000000       4
    0.305084745763    0.384615384615    0.000000000000       4
    0.322033898305    0.384615384615    0.000000000000       4
    0.338983050847    0.384615384615    0.000000000000       4
    0.355932203390    0.384615384615    0.000000000000       4
    0.372881355932    0.384615384615    0.000000000000       4
    0.389830508475    0.384615384615    0.000000000000       4
    0.406779661017    0.384615384615    0.000000000000       4
    0.423728813559    0.384615384615    0.000000000000       4
    0.440677966102    0.384615384615    0.000000000000       4
    0.457627118644    0.384615384615    0.000000000000       4
    0.474576271186    0.384615384615    0.000000000000       4
    0.491525423729    0.384615384615    0.000000000000       4
    0.000000000000    0.461538461538    0.000000000000       2
    0.016949152542    0.461538461538    0.000000000000       4
    0.033898305085    0.461538461538    0.000000000000       4
    0.050847457627    0.461538461538    0.000000000000       4
    0.067796610169    0.461538461538    0.000000000000       4
    0.084745762712    0.461538461538    0.000000000000       4
    0.101694915254    0.461538461538    0.000000000000       4
    0.118644067797    0.461538461538    0.000000000000       4
    0.135593220339    0.461538461538    0.000000000000       4
    0.152542372881    0.461538461538    0.000000000000       4
    0.169491525424    0.461538461538    0.000000000000       4
    0.186440677966    0.461538461538    0.000000000000       4
    0.203389830508    0.461538461538    0.000000000000       4
    0.220338983051    0.461538461538    0.000000000000       4
    0.237288135593    0.461538461538    0.000000000000       4
    0.254237288136    0.461538461538    0.000000000000       4
    0.271186440678    0.461538461538    0.000000000000       4
    0.288135593220    0.461538461538    0.000000000000       4
    0.305084745763    0.461538461538    0.000000000000       4
    0.322033898305    0.461538461538    0.000000000000       4
    0.338983050847    0.461538461538    0.000000000000       4
    0.355932203390    0.461538461538    0.000000000000       4
    0.372881355932    0.461538461538    0.000000000000       4
    0.389830508475    0.461538461538    0.000000000000       4
    0.406779661017    0.461538461538    0.000000000000       4
    0.423728813559    0.461538461538    0.000000000000       4
    0.440677966102    0.461538461538    0.000000000000       4
    0.457627118644    0.461538461538    0.000000000000       4
    0.474576271186    0.461538461538    0.000000000000       4
    0.491525423729    0.461538461538    0.000000000000       4
