CONTCAR                                 
   1.00000000000000     
    14.3652000426999997    0.0000000000000000    0.0000000000000000
     7.1792291409000004   12.4398023524999992    0.0000000000000000
     0.0000000000000000    0.0000000000000000   17.6567993164000008
   Co   Te   O    H 
    16    32     1     1
Direct
  0.9991130015215504  0.9902437747724449  0.4967756020229572
  0.2519500123288125  0.0156070375129360  0.4991921869820217
  0.4660357465047724  0.0127383556922354  0.5008295008032491
  0.7402988804516184  0.9839630779579096  0.5031433306427786
  0.9770855399168852  0.2669167235065899  0.5030476862993112
  0.2576993110474746  0.2258074687158143  0.5006769246472942
  0.5057620411058892  0.2540785420517224  0.5024732770998455
  0.7255070364255900  0.2450641637698823  0.4991239571392185
  0.0162911700493567  0.5044838482178022  0.5018213203381023
  0.2331886455870986  0.5005270208699528  0.5003941522133530
  0.4845353897283502  0.5273260189462690  0.4986485010640678
  0.7688307322584080  0.4880125232232331  0.4986632326956908
  0.0060080733808690  0.7665609775256073  0.4894547777686569
  0.2164866859260854  0.7703498385202394  0.4986813618483197
  0.4937627990151157  0.7372426351562353  0.5029633368951920
  0.7451518776999393  0.7650823664550899  0.4978516417715326
  0.1461019107172490  0.1767543166417980  0.5865509464683782
  0.0740279309859417  0.0930866778738633  0.4243977817822895
  0.4181020694274338  0.1726479128981850  0.5872284094282421
  0.3257002200629984  0.0855266618814667  0.4009597841841526
  0.6658495911977411  0.1491853419225251  0.5878452537412500
  0.5718815844261229  0.0824267883285899  0.4224671748182303
  0.9019088392988692  0.1646214441843767  0.5753934871873767
  0.8212762752228500  0.0747277823729107  0.4214429766487271
  0.1771598463242299  0.3968823995929966  0.5861355557623043
  0.0827320423760582  0.3334811574544219  0.4228230202083694
  0.4071228236801900  0.4289358064763249  0.5763114003357614
  0.3312405625589960  0.3288100970975805  0.4239975346432843
  0.6587766682288319  0.4216276099927541  0.5632913905941095
  0.5619496543646676  0.3544667291553907  0.4147126519649049
  0.9249956931124643  0.4294291416678320  0.5866947594025760
  0.8204726206107864  0.3234827964823523  0.4148439279731377
  0.1564505325773169  0.6677436338210825  0.5843108133156960
  0.0776726416203530  0.5961218226544744  0.4092154667158709
  0.3835566408914488  0.6837841222291630  0.5855882490035498
  0.3140136698253144  0.5958380487349970  0.4214461303976762
  0.6717978960663942  0.6644612855070662  0.5755395673533883
  0.5956574460500903  0.5818482543838499  0.4143246046761178
  0.9193336563900445  0.6808038619680516  0.5763629431623656
  0.8419817183665543  0.5871884590180372  0.4226831506432376
  0.1605448285530571  0.9339090346465042  0.5828251513773282
  0.0766646490018204  0.8458426504923153  0.3966334110909742
  0.4115920497232750  0.9061663050120288  0.5868132155410350
  0.3228315210699364  0.8395395476550007  0.4228459573610621
  0.6382809458216485  0.9232740444442129  0.5855754488119942
  0.5700043726329582  0.8365744605798611  0.4240992625316835
  0.9077284172340825  0.9174349623057836  0.5846994610961076
  0.8362709788405667  0.8333759578679079  0.4090405107841306
  0.6387228456960301  0.4349674966002084  0.6778436510691535
  0.7091400670958308  0.3983185191621459  0.7024559886939699
 
  0.00000000E+00  0.00000000E+00  0.00000000E+00
  0.00000000E+00  0.00000000E+00  0.00000000E+00
  0.00000000E+00  0.00000000E+00  0.00000000E+00
  0.00000000E+00  0.00000000E+00  0.00000000E+00
  0.00000000E+00  0.00000000E+00  0.00000000E+00
  0.00000000E+00  0.00000000E+00  0.00000000E+00
  0.00000000E+00  0.00000000E+00  0.00000000E+00
  0.00000000E+00  0.00000000E+00  0.00000000E+00
  0.00000000E+00  0.00000000E+00  0.00000000E+00
  0.00000000E+00  0.00000000E+00  0.00000000E+00
  0.00000000E+00  0.00000000E+00  0.00000000E+00
  0.00000000E+00  0.00000000E+00  0.00000000E+00
  0.00000000E+00  0.00000000E+00  0.00000000E+00
  0.00000000E+00  0.00000000E+00  0.00000000E+00
  0.00000000E+00  0.00000000E+00  0.00000000E+00
  0.00000000E+00  0.00000000E+00  0.00000000E+00
  0.00000000E+00  0.00000000E+00  0.00000000E+00
  0.00000000E+00  0.00000000E+00  0.00000000E+00
  0.00000000E+00  0.00000000E+00  0.00000000E+00
  0.00000000E+00  0.00000000E+00  0.00000000E+00
  0.00000000E+00  0.00000000E+00  0.00000000E+00
  0.00000000E+00  0.00000000E+00  0.00000000E+00
  0.00000000E+00  0.00000000E+00  0.00000000E+00
  0.00000000E+00  0.00000000E+00  0.00000000E+00
  0.00000000E+00  0.00000000E+00  0.00000000E+00
  0.00000000E+00  0.00000000E+00  0.00000000E+00
  0.00000000E+00  0.00000000E+00  0.00000000E+00
  0.00000000E+00  0.00000000E+00  0.00000000E+00
  0.00000000E+00  0.00000000E+00  0.00000000E+00
  0.00000000E+00  0.00000000E+00  0.00000000E+00
  0.00000000E+00  0.00000000E+00  0.00000000E+00
  0.00000000E+00  0.00000000E+00  0.00000000E+00
  0.00000000E+00  0.00000000E+00  0.00000000E+00
  0.00000000E+00  0.00000000E+00  0.00000000E+00
  0.00000000E+00  0.00000000E+00  0.00000000E+00
  0.00000000E+00  0.00000000E+00  0.00000000E+00
  0.00000000E+00  0.00000000E+00  0.00000000E+00
  0.00000000E+00  0.00000000E+00  0.00000000E+00
  0.00000000E+00  0.00000000E+00  0.00000000E+00
  0.00000000E+00  0.00000000E+00  0.00000000E+00
  0.00000000E+00  0.00000000E+00  0.00000000E+00
  0.00000000E+00  0.00000000E+00  0.00000000E+00
  0.00000000E+00  0.00000000E+00  0.00000000E+00
  0.00000000E+00  0.00000000E+00  0.00000000E+00
  0.00000000E+00  0.00000000E+00  0.00000000E+00
  0.00000000E+00  0.00000000E+00  0.00000000E+00
  0.00000000E+00  0.00000000E+00  0.00000000E+00
  0.00000000E+00  0.00000000E+00  0.00000000E+00
  0.00000000E+00  0.00000000E+00  0.00000000E+00
  0.00000000E+00  0.00000000E+00  0.00000000E+00
