 Mn2 Sb2 Se4 I2                         
   1.00000000000000     
     3.9044955257737524    0.0000000000000000    0.0000000000000000
     0.0000000000000000   10.5268661262561132    0.0000000000000000
     0.0000000000000000    0.0000000000000000   20.5844167469160020
   Mn   Sb   Se   I 
     2     2     4     2
Direct
  0.9995701388221789  0.9999494829409912  0.4999933871932924
  0.0002142570971913  0.5000019295739975  0.5000023171754222
  0.4999592145369220  0.3043834806189736  0.6194274991289532
  0.5000938518995568  0.6956207300830997  0.3805658864124410
  0.9999979499725953  0.2468446038957097  0.5347382061014514
  0.5003036475314957  0.4609043470378040  0.4108710370912121
  0.0000076277463918  0.7531313854844726  0.4652599961924579
  0.5003149489036360  0.5391089055669553  0.5891306484315209
  0.4997622885821471  0.9317489675661861  0.5938619143737895
  0.4997760749078779  0.0683061672318175  0.4061491078994521
 
  0.00000000E+00  0.00000000E+00  0.00000000E+00
  0.00000000E+00  0.00000000E+00  0.00000000E+00
  0.00000000E+00  0.00000000E+00  0.00000000E+00
  0.00000000E+00  0.00000000E+00  0.00000000E+00
  0.00000000E+00  0.00000000E+00  0.00000000E+00
  0.00000000E+00  0.00000000E+00  0.00000000E+00
  0.00000000E+00  0.00000000E+00  0.00000000E+00
  0.00000000E+00  0.00000000E+00  0.00000000E+00
  0.00000000E+00  0.00000000E+00  0.00000000E+00
  0.00000000E+00  0.00000000E+00  0.00000000E+00
