G   51   19    1    0.005     # Parameters to Generate KPOINTS (Don't Edit This Line)
     485
Reciprocal lattice
    0.000000000000    0.000000000000    0.000000000000       1
    0.019607843137    0.000000000000    0.000000000000       2
    0.039215686275    0.000000000000    0.000000000000       2
    0.058823529412    0.000000000000    0.000000000000       2
    0.078431372549    0.000000000000    0.000000000000       2
    0.098039215686    0.000000000000    0.000000000000       2
    0.117647058824    0.000000000000    0.000000000000       2
    0.137254901961    0.000000000000    0.000000000000       2
    0.156862745098    0.000000000000    0.000000000000       2
    0.176470588235    0.000000000000    0.000000000000       2
    0.196078431373    0.000000000000    0.000000000000       2
    0.215686274510    0.000000000000    0.000000000000       2
    0.235294117647    0.000000000000    0.000000000000       2
    0.254901960784    0.000000000000    0.000000000000       2
    0.274509803922    0.000000000000    0.000000000000       2
    0.294117647059    0.000000000000    0.000000000000       2
    0.313725490196    0.000000000000    0.000000000000       2
    0.333333333333    0.000000000000    0.000000000000       2
    0.352941176471    0.000000000000    0.000000000000       2
    0.372549019608    0.000000000000    0.000000000000       2
    0.392156862745    0.000000000000    0.000000000000       2
    0.411764705882    0.000000000000    0.000000000000       2
    0.431372549020    0.000000000000    0.000000000000       2
    0.450980392157    0.000000000000    0.000000000000       2
    0.470588235294    0.000000000000    0.000000000000       2
    0.490196078431    0.000000000000    0.000000000000       2
    0.000000000000    0.052631578947    0.000000000000       2
    0.019607843137    0.052631578947    0.000000000000       2
    0.039215686275    0.052631578947    0.000000000000       2
    0.058823529412    0.052631578947    0.000000000000       2
    0.078431372549    0.052631578947    0.000000000000       2
    0.098039215686    0.052631578947    0.000000000000       2
    0.117647058824    0.052631578947    0.000000000000       2
    0.137254901961    0.052631578947    0.000000000000       2
    0.156862745098    0.052631578947    0.000000000000       2
    0.176470588235    0.052631578947    0.000000000000       2
    0.196078431373    0.052631578947    0.000000000000       2
    0.215686274510    0.052631578947    0.000000000000       2
    0.235294117647    0.052631578947    0.000000000000       2
    0.254901960784    0.052631578947    0.000000000000       2
    0.274509803922    0.052631578947    0.000000000000       2
    0.294117647059    0.052631578947    0.000000000000       2
    0.313725490196    0.052631578947    0.000000000000       2
    0.333333333333    0.052631578947    0.000000000000       2
    0.352941176471    0.052631578947    0.000000000000       2
    0.372549019608    0.052631578947    0.000000000000       2
    0.392156862745    0.052631578947    0.000000000000       2
    0.411764705882    0.052631578947    0.000000000000       2
    0.431372549020    0.052631578947    0.000000000000       2
    0.450980392157    0.052631578947    0.000000000000       2
    0.470588235294    0.052631578947    0.000000000000       2
    0.490196078431    0.052631578947    0.000000000000       2
   -0.490196078431    0.052631578947    0.000000000000       2
   -0.470588235294    0.052631578947    0.000000000000       2
   -0.450980392157    0.052631578947    0.000000000000       2
   -0.431372549020    0.052631578947    0.000000000000       2
   -0.411764705882    0.052631578947    0.000000000000       2
   -0.392156862745    0.052631578947    0.000000000000       2
   -0.372549019608    0.052631578947    0.000000000000       2
   -0.352941176471    0.052631578947    0.000000000000       2
   -0.333333333333    0.052631578947    0.000000000000       2
   -0.313725490196    0.052631578947    0.000000000000       2
   -0.294117647059    0.052631578947    0.000000000000       2
   -0.274509803922    0.052631578947    0.000000000000       2
   -0.254901960784    0.052631578947    0.000000000000       2
   -0.235294117647    0.052631578947    0.000000000000       2
   -0.215686274510    0.052631578947    0.000000000000       2
   -0.196078431373    0.052631578947    0.000000000000       2
   -0.176470588235    0.052631578947    0.000000000000       2
   -0.156862745098    0.052631578947    0.000000000000       2
   -0.137254901961    0.052631578947    0.000000000000       2
   -0.117647058824    0.052631578947    0.000000000000       2
   -0.098039215686    0.052631578947    0.000000000000       2
   -0.078431372549    0.052631578947    0.000000000000       2
   -0.058823529412    0.052631578947    0.000000000000       2
   -0.039215686275    0.052631578947    0.000000000000       2
   -0.019607843137    0.052631578947    0.000000000000       2
    0.000000000000    0.105263157895    0.000000000000       2
    0.019607843137    0.105263157895    0.000000000000       2
    0.039215686275    0.105263157895    0.000000000000       2
    0.058823529412    0.105263157895    0.000000000000       2
    0.078431372549    0.105263157895    0.000000000000       2
    0.098039215686    0.105263157895    0.000000000000       2
    0.117647058824    0.105263157895    0.000000000000       2
    0.137254901961    0.105263157895    0.000000000000       2
    0.156862745098    0.105263157895    0.000000000000       2
    0.176470588235    0.105263157895    0.000000000000       2
    0.196078431373    0.105263157895    0.000000000000       2
    0.215686274510    0.105263157895    0.000000000000       2
    0.235294117647    0.105263157895    0.000000000000       2
    0.254901960784    0.105263157895    0.000000000000       2
    0.274509803922    0.105263157895    0.000000000000       2
    0.294117647059    0.105263157895    0.000000000000       2
    0.313725490196    0.105263157895    0.000000000000       2
    0.333333333333    0.105263157895    0.000000000000       2
    0.352941176471    0.105263157895    0.000000000000       2
    0.372549019608    0.105263157895    0.000000000000       2
    0.392156862745    0.105263157895    0.000000000000       2
    0.411764705882    0.105263157895    0.000000000000       2
    0.431372549020    0.105263157895    0.000000000000       2
    0.450980392157    0.105263157895    0.000000000000       2
    0.470588235294    0.105263157895    0.000000000000       2
    0.490196078431    0.105263157895    0.000000000000       2
   -0.490196078431    0.105263157895    0.000000000000       2
   -0.470588235294    0.105263157895    0.000000000000       2
   -0.450980392157    0.105263157895    0.000000000000       2
   -0.431372549020    0.105263157895    0.000000000000       2
   -0.411764705882    0.105263157895    0.000000000000       2
   -0.392156862745    0.105263157895    0.000000000000       2
   -0.372549019608    0.105263157895    0.000000000000       2
   -0.352941176471    0.105263157895    0.000000000000       2
   -0.333333333333    0.105263157895    0.000000000000       2
   -0.313725490196    0.105263157895    0.000000000000       2
   -0.294117647059    0.105263157895    0.000000000000       2
   -0.274509803922    0.105263157895    0.000000000000       2
   -0.254901960784    0.105263157895    0.000000000000       2
   -0.235294117647    0.105263157895    0.000000000000       2
   -0.215686274510    0.105263157895    0.000000000000       2
   -0.196078431373    0.105263157895    0.000000000000       2
   -0.176470588235    0.105263157895    0.000000000000       2
   -0.156862745098    0.105263157895    0.000000000000       2
   -0.137254901961    0.105263157895    0.000000000000       2
   -0.117647058824    0.105263157895    0.000000000000       2
   -0.098039215686    0.105263157895    0.000000000000       2
   -0.078431372549    0.105263157895    0.000000000000       2
   -0.058823529412    0.105263157895    0.000000000000       2
   -0.039215686275    0.105263157895    0.000000000000       2
   -0.019607843137    0.105263157895    0.000000000000       2
    0.000000000000    0.157894736842    0.000000000000       2
    0.019607843137    0.157894736842    0.000000000000       2
    0.039215686275    0.157894736842    0.000000000000       2
    0.058823529412    0.157894736842    0.000000000000       2
    0.078431372549    0.157894736842    0.000000000000       2
    0.098039215686    0.157894736842    0.000000000000       2
    0.117647058824    0.157894736842    0.000000000000       2
    0.137254901961    0.157894736842    0.000000000000       2
    0.156862745098    0.157894736842    0.000000000000       2
    0.176470588235    0.157894736842    0.000000000000       2
    0.196078431373    0.157894736842    0.000000000000       2
    0.215686274510    0.157894736842    0.000000000000       2
    0.235294117647    0.157894736842    0.000000000000       2
    0.254901960784    0.157894736842    0.000000000000       2
    0.274509803922    0.157894736842    0.000000000000       2
    0.294117647059    0.157894736842    0.000000000000       2
    0.313725490196    0.157894736842    0.000000000000       2
    0.333333333333    0.157894736842    0.000000000000       2
    0.352941176471    0.157894736842    0.000000000000       2
    0.372549019608    0.157894736842    0.000000000000       2
    0.392156862745    0.157894736842    0.000000000000       2
    0.411764705882    0.157894736842    0.000000000000       2
    0.431372549020    0.157894736842    0.000000000000       2
    0.450980392157    0.157894736842    0.000000000000       2
    0.470588235294    0.157894736842    0.000000000000       2
    0.490196078431    0.157894736842    0.000000000000       2
   -0.490196078431    0.157894736842    0.000000000000       2
   -0.470588235294    0.157894736842    0.000000000000       2
   -0.450980392157    0.157894736842    0.000000000000       2
   -0.431372549020    0.157894736842    0.000000000000       2
   -0.411764705882    0.157894736842    0.000000000000       2
   -0.392156862745    0.157894736842    0.000000000000       2
   -0.372549019608    0.157894736842    0.000000000000       2
   -0.352941176471    0.157894736842    0.000000000000       2
   -0.333333333333    0.157894736842    0.000000000000       2
   -0.313725490196    0.157894736842    0.000000000000       2
   -0.294117647059    0.157894736842    0.000000000000       2
   -0.274509803922    0.157894736842    0.000000000000       2
   -0.254901960784    0.157894736842    0.000000000000       2
   -0.235294117647    0.157894736842    0.000000000000       2
   -0.215686274510    0.157894736842    0.000000000000       2
   -0.196078431373    0.157894736842    0.000000000000       2
   -0.176470588235    0.157894736842    0.000000000000       2
   -0.156862745098    0.157894736842    0.000000000000       2
   -0.137254901961    0.157894736842    0.000000000000       2
   -0.117647058824    0.157894736842    0.000000000000       2
   -0.098039215686    0.157894736842    0.000000000000       2
   -0.078431372549    0.157894736842    0.000000000000       2
   -0.058823529412    0.157894736842    0.000000000000       2
   -0.039215686275    0.157894736842    0.000000000000       2
   -0.019607843137    0.157894736842    0.000000000000       2
    0.000000000000    0.210526315789    0.000000000000       2
    0.019607843137    0.210526315789    0.000000000000       2
    0.039215686275    0.210526315789    0.000000000000       2
    0.058823529412    0.210526315789    0.000000000000       2
    0.078431372549    0.210526315789    0.000000000000       2
    0.098039215686    0.210526315789    0.000000000000       2
    0.117647058824    0.210526315789    0.000000000000       2
    0.137254901961    0.210526315789    0.000000000000       2
    0.156862745098    0.210526315789    0.000000000000       2
    0.176470588235    0.210526315789    0.000000000000       2
    0.196078431373    0.210526315789    0.000000000000       2
    0.215686274510    0.210526315789    0.000000000000       2
    0.235294117647    0.210526315789    0.000000000000       2
    0.254901960784    0.210526315789    0.000000000000       2
    0.274509803922    0.210526315789    0.000000000000       2
    0.294117647059    0.210526315789    0.000000000000       2
    0.313725490196    0.210526315789    0.000000000000       2
    0.333333333333    0.210526315789    0.000000000000       2
    0.352941176471    0.210526315789    0.000000000000       2
    0.372549019608    0.210526315789    0.000000000000       2
    0.392156862745    0.210526315789    0.000000000000       2
    0.411764705882    0.210526315789    0.000000000000       2
    0.431372549020    0.210526315789    0.000000000000       2
    0.450980392157    0.210526315789    0.000000000000       2
    0.470588235294    0.210526315789    0.000000000000       2
    0.490196078431    0.210526315789    0.000000000000       2
   -0.490196078431    0.210526315789    0.000000000000       2
   -0.470588235294    0.210526315789    0.000000000000       2
   -0.450980392157    0.210526315789    0.000000000000       2
   -0.431372549020    0.210526315789    0.000000000000       2
   -0.411764705882    0.210526315789    0.000000000000       2
   -0.392156862745    0.210526315789    0.000000000000       2
   -0.372549019608    0.210526315789    0.000000000000       2
   -0.352941176471    0.210526315789    0.000000000000       2
   -0.333333333333    0.210526315789    0.000000000000       2
   -0.313725490196    0.210526315789    0.000000000000       2
   -0.294117647059    0.210526315789    0.000000000000       2
   -0.274509803922    0.210526315789    0.000000000000       2
   -0.254901960784    0.210526315789    0.000000000000       2
   -0.235294117647    0.210526315789    0.000000000000       2
   -0.215686274510    0.210526315789    0.000000000000       2
   -0.196078431373    0.210526315789    0.000000000000       2
   -0.176470588235    0.210526315789    0.000000000000       2
   -0.156862745098    0.210526315789    0.000000000000       2
   -0.137254901961    0.210526315789    0.000000000000       2
   -0.117647058824    0.210526315789    0.000000000000       2
   -0.098039215686    0.210526315789    0.000000000000       2
   -0.078431372549    0.210526315789    0.000000000000       2
   -0.058823529412    0.210526315789    0.000000000000       2
   -0.039215686275    0.210526315789    0.000000000000       2
   -0.019607843137    0.210526315789    0.000000000000       2
    0.000000000000    0.263157894737    0.000000000000       2
    0.019607843137    0.263157894737    0.000000000000       2
    0.039215686275    0.263157894737    0.000000000000       2
    0.058823529412    0.263157894737    0.000000000000       2
    0.078431372549    0.263157894737    0.000000000000       2
    0.098039215686    0.263157894737    0.000000000000       2
    0.117647058824    0.263157894737    0.000000000000       2
    0.137254901961    0.263157894737    0.000000000000       2
    0.156862745098    0.263157894737    0.000000000000       2
    0.176470588235    0.263157894737    0.000000000000       2
    0.196078431373    0.263157894737    0.000000000000       2
    0.215686274510    0.263157894737    0.000000000000       2
    0.235294117647    0.263157894737    0.000000000000       2
    0.254901960784    0.263157894737    0.000000000000       2
    0.274509803922    0.263157894737    0.000000000000       2
    0.294117647059    0.263157894737    0.000000000000       2
    0.313725490196    0.263157894737    0.000000000000       2
    0.333333333333    0.263157894737    0.000000000000       2
    0.352941176471    0.263157894737    0.000000000000       2
    0.372549019608    0.263157894737    0.000000000000       2
    0.392156862745    0.263157894737    0.000000000000       2
    0.411764705882    0.263157894737    0.000000000000       2
    0.431372549020    0.263157894737    0.000000000000       2
    0.450980392157    0.263157894737    0.000000000000       2
    0.470588235294    0.263157894737    0.000000000000       2
    0.490196078431    0.263157894737    0.000000000000       2
   -0.490196078431    0.263157894737    0.000000000000       2
   -0.470588235294    0.263157894737    0.000000000000       2
   -0.450980392157    0.263157894737    0.000000000000       2
   -0.431372549020    0.263157894737    0.000000000000       2
   -0.411764705882    0.263157894737    0.000000000000       2
   -0.392156862745    0.263157894737    0.000000000000       2
   -0.372549019608    0.263157894737    0.000000000000       2
   -0.352941176471    0.263157894737    0.000000000000       2
   -0.333333333333    0.263157894737    0.000000000000       2
   -0.313725490196    0.263157894737    0.000000000000       2
   -0.294117647059    0.263157894737    0.000000000000       2
   -0.274509803922    0.263157894737    0.000000000000       2
   -0.254901960784    0.263157894737    0.000000000000       2
   -0.235294117647    0.263157894737    0.000000000000       2
   -0.215686274510    0.263157894737    0.000000000000       2
   -0.196078431373    0.263157894737    0.000000000000       2
   -0.176470588235    0.263157894737    0.000000000000       2
   -0.156862745098    0.263157894737    0.000000000000       2
   -0.137254901961    0.263157894737    0.000000000000       2
   -0.117647058824    0.263157894737    0.000000000000       2
   -0.098039215686    0.263157894737    0.000000000000       2
   -0.078431372549    0.263157894737    0.000000000000       2
   -0.058823529412    0.263157894737    0.000000000000       2
   -0.039215686275    0.263157894737    0.000000000000       2
   -0.019607843137    0.263157894737    0.000000000000       2
    0.000000000000    0.315789473684    0.000000000000       2
    0.019607843137    0.315789473684    0.000000000000       2
    0.039215686275    0.315789473684    0.000000000000       2
    0.058823529412    0.315789473684    0.000000000000       2
    0.078431372549    0.315789473684    0.000000000000       2
    0.098039215686    0.315789473684    0.000000000000       2
    0.117647058824    0.315789473684    0.000000000000       2
    0.137254901961    0.315789473684    0.000000000000       2
    0.156862745098    0.315789473684    0.000000000000       2
    0.176470588235    0.315789473684    0.000000000000       2
    0.196078431373    0.315789473684    0.000000000000       2
    0.215686274510    0.315789473684    0.000000000000       2
    0.235294117647    0.315789473684    0.000000000000       2
    0.254901960784    0.315789473684    0.000000000000       2
    0.274509803922    0.315789473684    0.000000000000       2
    0.294117647059    0.315789473684    0.000000000000       2
    0.313725490196    0.315789473684    0.000000000000       2
    0.333333333333    0.315789473684    0.000000000000       2
    0.352941176471    0.315789473684    0.000000000000       2
    0.372549019608    0.315789473684    0.000000000000       2
    0.392156862745    0.315789473684    0.000000000000       2
    0.411764705882    0.315789473684    0.000000000000       2
    0.431372549020    0.315789473684    0.000000000000       2
    0.450980392157    0.315789473684    0.000000000000       2
    0.470588235294    0.315789473684    0.000000000000       2
    0.490196078431    0.315789473684    0.000000000000       2
   -0.490196078431    0.315789473684    0.000000000000       2
   -0.470588235294    0.315789473684    0.000000000000       2
   -0.450980392157    0.315789473684    0.000000000000       2
   -0.431372549020    0.315789473684    0.000000000000       2
   -0.411764705882    0.315789473684    0.000000000000       2
   -0.392156862745    0.315789473684    0.000000000000       2
   -0.372549019608    0.315789473684    0.000000000000       2
   -0.352941176471    0.315789473684    0.000000000000       2
   -0.333333333333    0.315789473684    0.000000000000       2
   -0.313725490196    0.315789473684    0.000000000000       2
   -0.294117647059    0.315789473684    0.000000000000       2
   -0.274509803922    0.315789473684    0.000000000000       2
   -0.254901960784    0.315789473684    0.000000000000       2
   -0.235294117647    0.315789473684    0.000000000000       2
   -0.215686274510    0.315789473684    0.000000000000       2
   -0.196078431373    0.315789473684    0.000000000000       2
   -0.176470588235    0.315789473684    0.000000000000       2
   -0.156862745098    0.315789473684    0.000000000000       2
   -0.137254901961    0.315789473684    0.000000000000       2
   -0.117647058824    0.315789473684    0.000000000000       2
   -0.098039215686    0.315789473684    0.000000000000       2
   -0.078431372549    0.315789473684    0.000000000000       2
   -0.058823529412    0.315789473684    0.000000000000       2
   -0.039215686275    0.315789473684    0.000000000000       2
   -0.019607843137    0.315789473684    0.000000000000       2
    0.000000000000    0.368421052632    0.000000000000       2
    0.019607843137    0.368421052632    0.000000000000       2
    0.039215686275    0.368421052632    0.000000000000       2
    0.058823529412    0.368421052632    0.000000000000       2
    0.078431372549    0.368421052632    0.000000000000       2
    0.098039215686    0.368421052632    0.000000000000       2
    0.117647058824    0.368421052632    0.000000000000       2
    0.137254901961    0.368421052632    0.000000000000       2
    0.156862745098    0.368421052632    0.000000000000       2
    0.176470588235    0.368421052632    0.000000000000       2
    0.196078431373    0.368421052632    0.000000000000       2
    0.215686274510    0.368421052632    0.000000000000       2
    0.235294117647    0.368421052632    0.000000000000       2
    0.254901960784    0.368421052632    0.000000000000       2
    0.274509803922    0.368421052632    0.000000000000       2
    0.294117647059    0.368421052632    0.000000000000       2
    0.313725490196    0.368421052632    0.000000000000       2
    0.333333333333    0.368421052632    0.000000000000       2
    0.352941176471    0.368421052632    0.000000000000       2
    0.372549019608    0.368421052632    0.000000000000       2
    0.392156862745    0.368421052632    0.000000000000       2
    0.411764705882    0.368421052632    0.000000000000       2
    0.431372549020    0.368421052632    0.000000000000       2
    0.450980392157    0.368421052632    0.000000000000       2
    0.470588235294    0.368421052632    0.000000000000       2
    0.490196078431    0.368421052632    0.000000000000       2
   -0.490196078431    0.368421052632    0.000000000000       2
   -0.470588235294    0.368421052632    0.000000000000       2
   -0.450980392157    0.368421052632    0.000000000000       2
   -0.431372549020    0.368421052632    0.000000000000       2
   -0.411764705882    0.368421052632    0.000000000000       2
   -0.392156862745    0.368421052632    0.000000000000       2
   -0.372549019608    0.368421052632    0.000000000000       2
   -0.352941176471    0.368421052632    0.000000000000       2
   -0.333333333333    0.368421052632    0.000000000000       2
   -0.313725490196    0.368421052632    0.000000000000       2
   -0.294117647059    0.368421052632    0.000000000000       2
   -0.274509803922    0.368421052632    0.000000000000       2
   -0.254901960784    0.368421052632    0.000000000000       2
   -0.235294117647    0.368421052632    0.000000000000       2
   -0.215686274510    0.368421052632    0.000000000000       2
   -0.196078431373    0.368421052632    0.000000000000       2
   -0.176470588235    0.368421052632    0.000000000000       2
   -0.156862745098    0.368421052632    0.000000000000       2
   -0.137254901961    0.368421052632    0.000000000000       2
   -0.117647058824    0.368421052632    0.000000000000       2
   -0.098039215686    0.368421052632    0.000000000000       2
   -0.078431372549    0.368421052632    0.000000000000       2
   -0.058823529412    0.368421052632    0.000000000000       2
   -0.039215686275    0.368421052632    0.000000000000       2
   -0.019607843137    0.368421052632    0.000000000000       2
    0.000000000000    0.421052631579    0.000000000000       2
    0.019607843137    0.421052631579    0.000000000000       2
    0.039215686275    0.421052631579    0.000000000000       2
    0.058823529412    0.421052631579    0.000000000000       2
    0.078431372549    0.421052631579    0.000000000000       2
    0.098039215686    0.421052631579    0.000000000000       2
    0.117647058824    0.421052631579    0.000000000000       2
    0.137254901961    0.421052631579    0.000000000000       2
    0.156862745098    0.421052631579    0.000000000000       2
    0.176470588235    0.421052631579    0.000000000000       2
    0.196078431373    0.421052631579    0.000000000000       2
    0.215686274510    0.421052631579    0.000000000000       2
    0.235294117647    0.421052631579    0.000000000000       2
    0.254901960784    0.421052631579    0.000000000000       2
    0.274509803922    0.421052631579    0.000000000000       2
    0.294117647059    0.421052631579    0.000000000000       2
    0.313725490196    0.421052631579    0.000000000000       2
    0.333333333333    0.421052631579    0.000000000000       2
    0.352941176471    0.421052631579    0.000000000000       2
    0.372549019608    0.421052631579    0.000000000000       2
    0.392156862745    0.421052631579    0.000000000000       2
    0.411764705882    0.421052631579    0.000000000000       2
    0.431372549020    0.421052631579    0.000000000000       2
    0.450980392157    0.421052631579    0.000000000000       2
    0.470588235294    0.421052631579    0.000000000000       2
    0.490196078431    0.421052631579    0.000000000000       2
   -0.490196078431    0.421052631579    0.000000000000       2
   -0.470588235294    0.421052631579    0.000000000000       2
   -0.450980392157    0.421052631579    0.000000000000       2
   -0.431372549020    0.421052631579    0.000000000000       2
   -0.411764705882    0.421052631579    0.000000000000       2
   -0.392156862745    0.421052631579    0.000000000000       2
   -0.372549019608    0.421052631579    0.000000000000       2
   -0.352941176471    0.421052631579    0.000000000000       2
   -0.333333333333    0.421052631579    0.000000000000       2
   -0.313725490196    0.421052631579    0.000000000000       2
   -0.294117647059    0.421052631579    0.000000000000       2
   -0.274509803922    0.421052631579    0.000000000000       2
   -0.254901960784    0.421052631579    0.000000000000       2
   -0.235294117647    0.421052631579    0.000000000000       2
   -0.215686274510    0.421052631579    0.000000000000       2
   -0.196078431373    0.421052631579    0.000000000000       2
   -0.176470588235    0.421052631579    0.000000000000       2
   -0.156862745098    0.421052631579    0.000000000000       2
   -0.137254901961    0.421052631579    0.000000000000       2
   -0.117647058824    0.421052631579    0.000000000000       2
   -0.098039215686    0.421052631579    0.000000000000       2
   -0.078431372549    0.421052631579    0.000000000000       2
   -0.058823529412    0.421052631579    0.000000000000       2
   -0.039215686275    0.421052631579    0.000000000000       2
   -0.019607843137    0.421052631579    0.000000000000       2
    0.000000000000    0.473684210526    0.000000000000       2
    0.019607843137    0.473684210526    0.000000000000       2
    0.039215686275    0.473684210526    0.000000000000       2
    0.058823529412    0.473684210526    0.000000000000       2
    0.078431372549    0.473684210526    0.000000000000       2
    0.098039215686    0.473684210526    0.000000000000       2
    0.117647058824    0.473684210526    0.000000000000       2
    0.137254901961    0.473684210526    0.000000000000       2
    0.156862745098    0.473684210526    0.000000000000       2
    0.176470588235    0.473684210526    0.000000000000       2
    0.196078431373    0.473684210526    0.000000000000       2
    0.215686274510    0.473684210526    0.000000000000       2
    0.235294117647    0.473684210526    0.000000000000       2
    0.254901960784    0.473684210526    0.000000000000       2
    0.274509803922    0.473684210526    0.000000000000       2
    0.294117647059    0.473684210526    0.000000000000       2
    0.313725490196    0.473684210526    0.000000000000       2
    0.333333333333    0.473684210526    0.000000000000       2
    0.352941176471    0.473684210526    0.000000000000       2
    0.372549019608    0.473684210526    0.000000000000       2
    0.392156862745    0.473684210526    0.000000000000       2
    0.411764705882    0.473684210526    0.000000000000       2
    0.431372549020    0.473684210526    0.000000000000       2
    0.450980392157    0.473684210526    0.000000000000       2
    0.470588235294    0.473684210526    0.000000000000       2
    0.490196078431    0.473684210526    0.000000000000       2
   -0.490196078431    0.473684210526    0.000000000000       2
   -0.470588235294    0.473684210526    0.000000000000       2
   -0.450980392157    0.473684210526    0.000000000000       2
   -0.431372549020    0.473684210526    0.000000000000       2
   -0.411764705882    0.473684210526    0.000000000000       2
   -0.392156862745    0.473684210526    0.000000000000       2
   -0.372549019608    0.473684210526    0.000000000000       2
   -0.352941176471    0.473684210526    0.000000000000       2
   -0.333333333333    0.473684210526    0.000000000000       2
   -0.313725490196    0.473684210526    0.000000000000       2
   -0.294117647059    0.473684210526    0.000000000000       2
   -0.274509803922    0.473684210526    0.000000000000       2
   -0.254901960784    0.473684210526    0.000000000000       2
   -0.235294117647    0.473684210526    0.000000000000       2