CONTCAR\(6)                             
   1.00000000000000     
    13.7187995910999998    0.0000000000000000    0.0000000000000000
    -4.5729412920000003   17.9978325079000001    0.0000000000000000
     0.0000000000000000    0.0000000000000000   21.4340000153000005
   Ag   Te   Mo   O 
     6    36    36     1
Direct
 -0.0043174867080116  0.9972820634179465  0.5013734233776956
  0.3157044751623949  0.9987611791019807  0.4998623629630111
  0.6945618195495156  0.9974603713453345  0.4997477162231558
  0.0011985621920165  0.4979946414992590  0.5004362282576110
  0.3137712352348206  0.5001139744463476  0.5060257576378099
  0.6968899544633208  0.4952390294490166  0.4953322021876875
  0.2550476571552178  0.2685986076074436  0.6509927888332514
  0.1341069230532454  0.4110303778450963  0.5702284066568034
  0.1922503236904739  0.0851466853397060  0.4331451820881253
  0.0337865315645888  0.1040607077830402  0.5965484789223655
  0.2966942448931696  0.3927895798745781  0.4073078877769272
  0.0750986847752172  0.2289817203428383  0.3513723257991862
  0.5884530567847400  0.2690395768934735  0.6506415512148567
  0.4700390026788188  0.4129628507455085  0.5635130827850857
  0.5262878363854968  0.0829194187099731  0.4378759879055930
  0.3671674489289965  0.1050667160351241  0.5969236540986603
  0.6269056409984336  0.3897139604830129  0.4035847552237410
  0.4075012454885064  0.2263996985588063  0.3514919202835495
  0.9207997773965915  0.2664860520029806  0.6508917631445751
  0.8053892781549589  0.4099784027629946  0.5703518994094915
  0.8636059837720834  0.0849402653969678  0.4311362050660533
  0.6986078528021584  0.1032208609015963  0.5960407325792941
  0.9617330493944164  0.3914879450736611  0.4056641388047741
  0.7407275066358807  0.2265607676734425  0.3514578586336291
  0.2541541155344534  0.7717048931446646  0.6494927781295140
  0.1345065055369090  0.9116489414969312  0.5672689973597698
  0.1951085771068372  0.5849085433399909  0.4332350901740118
  0.0354074331980532  0.6043393489706801  0.5953562769120172
  0.2968954636323844  0.8917766677478415  0.4034731321560685
  0.0767190344215906  0.7281272627491788  0.3496846044690176
  0.5700771846148860  0.8108615994316356  0.6532244273851762
  0.4708050184434945  0.9181029466969517  0.5605793880019857
  0.5261493456401569  0.5843763293847628  0.4415124335680161
  0.3729065645153992  0.6112368601079122  0.6001339342197464
  0.6297016920300645  0.8913627457031992  0.4028980727222245
  0.4090870867746150  0.7256735725648052  0.3514599302939617
  0.9229280925189945  0.7647587544952773  0.6493156990631750
  0.8057347617139179  0.9077160470346819  0.5710088540838908
  0.8653315649525896  0.5857036647758425  0.4281219069460495
  0.7027141231085986  0.5971064628973923  0.5910646620585591
  0.9630247079757802  0.8920361297661132  0.4046241807994035
  0.7410621135570294  0.7285881153486797  0.3502174430346712
  0.1045067834794378  0.3172982467014269  0.4593327430290979
  0.2253081831797006  0.1794450910155524  0.5433208923792857
  0.0556545026927266  0.1698075011002676  0.4732330664782347
  0.2745601578354724  0.3269874858295013  0.5292720434895708
  0.0844057112961997  0.2570688571673285  0.5724529857487879
  0.2450895321639089  0.2391349668714348  0.4300439149390238
  0.4376229244691140  0.3167700494325823  0.4582951819462147
  0.5580818897552925  0.1788634238854685  0.5438214714879830
  0.3883967751275620  0.1692813439503601  0.4735630877561844
  0.6075221583873326  0.3265149328892864  0.5285676122282060
  0.4180339535546448  0.2583314246847227  0.5720978094784517
  0.5779649560695456  0.2373736483803117  0.4301425709030436
  0.7706982650683520  0.3161147758572013  0.4589485308815036
  0.8916261772082655  0.1782663110357111  0.5429973955694400
  0.7214517270308399  0.1684658754977192  0.4732099455550717
  0.9405828890768971  0.3258070199063719  0.5291766100509839
  0.7508512836372913  0.2562964401818888  0.5721964917851098
  0.9115300143999708  0.2386483023510639  0.4299549836210401
  0.1050844860957535  0.8172652048640434  0.4572134151759187
  0.2265840968345990  0.6802348361809979  0.5429989048562343
  0.0568265108733256  0.6695260818149963  0.4715219925186838
  0.2744646063059559  0.8279133085959447  0.5270236814823999
  0.0852827240259662  0.7573550976460737  0.5703236671031888
  0.2464615227869241  0.7389101282695590  0.4292298179147900
  0.4392121828950807  0.8179637987121631  0.4567017868791869
  0.5617175066162219  0.6812859673056639  0.5460721195363460
  0.3907974002956095  0.6706481625080586  0.4744976458534706
  0.6102403175005052  0.8305782306184938  0.5263540412198100
  0.4174173620154822  0.7632153432245533  0.5715037212534630
  0.5791601127376242  0.7383060685927013  0.4302194989720741
  0.7724413908676435  0.8167562123038344  0.4583803104327389
  0.8931712043719658  0.6779256264232603  0.5407021546178052
  0.7229826719067509  0.6692947197402384  0.4712467335723678
  0.9412946535752436  0.8256420062763141  0.5276935301789004
  0.7508925215466844  0.7520248078239320  0.5717742955276555
  0.9128033913491692  0.7390466740589204  0.4279662651240318
  0.6328141142441568  0.7227895953553901  0.6380708992035435
 
  0.00000000E+00  0.00000000E+00  0.00000000E+00
  0.00000000E+00  0.00000000E+00  0.00000000E+00
  0.00000000E+00  0.00000000E+00  0.00000000E+00
  0.00000000E+00  0.00000000E+00  0.00000000E+00
  0.00000000E+00  0.00000000E+00  0.00000000E+00
  0.00000000E+00  0.00000000E+00  0.00000000E+00
  0.00000000E+00  0.00000000E+00  0.00000000E+00
  0.00000000E+00  0.00000000E+00  0.00000000E+00
  0.00000000E+00  0.00000000E+00  0.00000000E+00
  0.00000000E+00  0.00000000E+00  0.00000000E+00
  0.00000000E+00  0.00000000E+00  0.00000000E+00
  0.00000000E+00  0.00000000E+00  0.00000000E+00
  0.00000000E+00  0.00000000E+00  0.00000000E+00
  0.00000000E+00  0.00000000E+00  0.00000000E+00
  0.00000000E+00  0.00000000E+00  0.00000000E+00
  0.00000000E+00  0.00000000E+00  0.00000000E+00
  0.00000000E+00  0.00000000E+00  0.00000000E+00
  0.00000000E+00  0.00000000E+00  0.00000000E+00
  0.00000000E+00  0.00000000E+00  0.00000000E+00
  0.00000000E+00  0.00000000E+00  0.00000000E+00
  0.00000000E+00  0.00000000E+00  0.00000000E+00
  0.00000000E+00  0.00000000E+00  0.00000000E+00
  0.00000000E+00  0.00000000E+00  0.00000000E+00
  0.00000000E+00  0.00000000E+00  0.00000000E+00
  0.00000000E+00  0.00000000E+00  0.00000000E+00
  0.00000000E+00  0.00000000E+00  0.00000000E+00
  0.00000000E+00  0.00000000E+00  0.00000000E+00
  0.00000000E+00  0.00000000E+00  0.00000000E+00
  0.00000000E+00  0.00000000E+00  0.00000000E+00
  0.00000000E+00  0.00000000E+00  0.00000000E+00
  0.00000000E+00  0.00000000E+00  0.00000000E+00
  0.00000000E+00  0.00000000E+00  0.00000000E+00
  0.00000000E+00  0.00000000E+00  0.00000000E+00
  0.00000000E+00  0.00000000E+00  0.00000000E+00
  0.00000000E+00  0.00000000E+00  0.00000000E+00
  0.00000000E+00  0.00000000E+00  0.00000000E+00
  0.00000000E+00  0.00000000E+00  0.00000000E+00
  0.00000000E+00  0.00000000E+00  0.00000000E+00
  0.00000000E+00  0.00000000E+00  0.00000000E+00
  0.00000000E+00  0.00000000E+00  0.00000000E+00
  0.00000000E+00  0.00000000E+00  0.00000000E+00
  0.00000000E+00  0.00000000E+00  0.00000000E+00
  0.00000000E+00  0.00000000E+00  0.00000000E+00
  0.00000000E+00  0.00000000E+00  0.00000000E+00
  0.00000000E+00  0.00000000E+00  0.00000000E+00
  0.00000000E+00  0.00000000E+00  0.00000000E+00
  0.00000000E+00  0.00000000E+00  0.00000000E+00
  0.00000000E+00  0.00000000E+00  0.00000000E+00
  0.00000000E+00  0.00000000E+00  0.00000000E+00
  0.00000000E+00  0.00000000E+00  0.00000000E+00
  0.00000000E+00  0.00000000E+00  0.00000000E+00
  0.00000000E+00  0.00000000E+00  0.00000000E+00
  0.00000000E+00  0.00000000E+00  0.00000000E+00
  0.00000000E+00  0.00000000E+00  0.00000000E+00
  0.00000000E+00  0.00000000E+00  0.00000000E+00
  0.00000000E+00  0.00000000E+00  0.00000000E+00
  0.00000000E+00  0.00000000E+00  0.00000000E+00
  0.00000000E+00  0.00000000E+00  0.00000000E+00
  0.00000000E+00  0.00000000E+00  0.00000000E+00
  0.00000000E+00  0.00000000E+00  0.00000000E+00
  0.00000000E+00  0.00000000E+00  0.00000000E+00
  0.00000000E+00  0.00000000E+00  0.00000000E+00
  0.00000000E+00  0.00000000E+00  0.00000000E+00
  0.00000000E+00  0.00000000E+00  0.00000000E+00
  0.00000000E+00  0.00000000E+00  0.00000000E+00
  0.00000000E+00  0.00000000E+00  0.00000000E+00
  0.00000000E+00  0.00000000E+00  0.00000000E+00
  0.00000000E+00  0.00000000E+00  0.00000000E+00
  0.00000000E+00  0.00000000E+00  0.00000000E+00
  0.00000000E+00  0.00000000E+00  0.00000000E+00
  0.00000000E+00  0.00000000E+00  0.00000000E+00
  0.00000000E+00  0.00000000E+00  0.00000000E+00
  0.00000000E+00  0.00000000E+00  0.00000000E+00
  0.00000000E+00  0.00000000E+00  0.00000000E+00
  0.00000000E+00  0.00000000E+00  0.00000000E+00
  0.00000000E+00  0.00000000E+00  0.00000000E+00
  0.00000000E+00  0.00000000E+00  0.00000000E+00
  0.00000000E+00  0.00000000E+00  0.00000000E+00
  0.00000000E+00  0.00000000E+00  0.00000000E+00
