CONTCAR\(10)                            
   1.00000000000000     
     9.7571001052999993    0.0000000000000000    0.0000000000000000
    -3.0063686365000000   15.8319856181999992    0.0000000000000000
     0.0000000000000000    0.0000000000000000   18.2793006897000012
   V    P    S    O 
     4     8    26     1
Direct
  0.6100302767337575  0.6032876537038191  0.4983200785263663
  0.6320131621735339  0.1019590967950165  0.5212494913247268
  0.3656179525274470  0.3934321396890679  0.5006114545106402
  0.3738679421200598  0.9058110018184758  0.5074824755779686
  0.8350914675664101  0.2578392263266526  0.4943430577646856
  0.6839721339374725  0.4317319241857345  0.5389715668119177
  0.1698145501027243  0.7437469822314844  0.5074664638096725
  0.1978850781550943  0.2208912133244807  0.5061453410247446
  0.3122134832577634  0.0836704648083255  0.5497356098240257
  0.6883417706763596  0.9299077920385157  0.4636669332421324
  0.3002075302551271  0.5694627164433955  0.4608883489699984
  0.8240213033606870  0.7585116702870466  0.5037572379971754
  0.0985038423895660  0.0953847338373677  0.5013885958975307
  0.8804709283709219  0.8864377672794378  0.4674273009219624
  0.9938768841015205  0.7503015682204666  0.5753894712783719
  0.4074292145506477  0.0502843710185450  0.4546922017119550
  0.5240850426924882  0.3535809124275084  0.5883966742480566
  0.2385230497773938  0.4570437450128467  0.4100201744492814
  0.1841552569717582  0.3232438427759060  0.5733064634295711
  0.6568223620890387  0.7326939373590851  0.5699740451172115
  0.4562721649721594  0.6491121161356509  0.4108573624370228
  0.5980413532064353  0.4598131572500354  0.4403472929780657
  0.6435514278044360  0.2240469569180802  0.4474573957630367
  0.8743411104827511  0.3897558583272564  0.5306615681865493
  0.9910658541655367  0.2515660494136643  0.4246298628064786
  0.6123508884114133  0.9534164928358335  0.5657713240719550
  0.7981106945070312  0.6754344789756270  0.4207727979924223
  0.3813805950648564  0.5396553242087437  0.5597285386332952
  0.1979616924236317  0.8290024959964868  0.4254811320630087
  0.7434794426285161  0.5450733793150507  0.5891007663846113
  0.5266418743994888  0.8567075431627219  0.4136041629858264
  0.2436261185248026  0.9598541340572865  0.5938212527941795
  0.3323400048828173  0.7697290736612140  0.5756067337049028
  0.8241391557002761  0.1798490725595084  0.5838412154684053
  0.7523812107710032  0.0459631718389760  0.4205557727692478
  0.4995594875461288  0.1090132278665602  0.6201998002119778
  0.1105118756547216  0.6149656784788338  0.4709974525494854
  0.3226426183740422  0.2777863379507799  0.4220416077342901
  0.3211290076701716  0.1868027944645038  0.5585311020272402
 
  0.00000000E+00  0.00000000E+00  0.00000000E+00
  0.00000000E+00  0.00000000E+00  0.00000000E+00
  0.00000000E+00  0.00000000E+00  0.00000000E+00
  0.00000000E+00  0.00000000E+00  0.00000000E+00
  0.00000000E+00  0.00000000E+00  0.00000000E+00
  0.00000000E+00  0.00000000E+00  0.00000000E+00
  0.00000000E+00  0.00000000E+00  0.00000000E+00
  0.00000000E+00  0.00000000E+00  0.00000000E+00
  0.00000000E+00  0.00000000E+00  0.00000000E+00
  0.00000000E+00  0.00000000E+00  0.00000000E+00
  0.00000000E+00  0.00000000E+00  0.00000000E+00
  0.00000000E+00  0.00000000E+00  0.00000000E+00
  0.00000000E+00  0.00000000E+00  0.00000000E+00
  0.00000000E+00  0.00000000E+00  0.00000000E+00
  0.00000000E+00  0.00000000E+00  0.00000000E+00
  0.00000000E+00  0.00000000E+00  0.00000000E+00
  0.00000000E+00  0.00000000E+00  0.00000000E+00
  0.00000000E+00  0.00000000E+00  0.00000000E+00
  0.00000000E+00  0.00000000E+00  0.00000000E+00
  0.00000000E+00  0.00000000E+00  0.00000000E+00
  0.00000000E+00  0.00000000E+00  0.00000000E+00
  0.00000000E+00  0.00000000E+00  0.00000000E+00
  0.00000000E+00  0.00000000E+00  0.00000000E+00
  0.00000000E+00  0.00000000E+00  0.00000000E+00
  0.00000000E+00  0.00000000E+00  0.00000000E+00
  0.00000000E+00  0.00000000E+00  0.00000000E+00
  0.00000000E+00  0.00000000E+00  0.00000000E+00
  0.00000000E+00  0.00000000E+00  0.00000000E+00
  0.00000000E+00  0.00000000E+00  0.00000000E+00
  0.00000000E+00  0.00000000E+00  0.00000000E+00
  0.00000000E+00  0.00000000E+00  0.00000000E+00
  0.00000000E+00  0.00000000E+00  0.00000000E+00
  0.00000000E+00  0.00000000E+00  0.00000000E+00
  0.00000000E+00  0.00000000E+00  0.00000000E+00
  0.00000000E+00  0.00000000E+00  0.00000000E+00
  0.00000000E+00  0.00000000E+00  0.00000000E+00
  0.00000000E+00  0.00000000E+00  0.00000000E+00
  0.00000000E+00  0.00000000E+00  0.00000000E+00
  0.00000000E+00  0.00000000E+00  0.00000000E+00
