CONTCAR\(13)                            
   1.00000000000000     
    11.2263002396000005    0.0000000000000000    0.0000000000000000
     0.0000000000000000   21.7961997986000000    0.0000000000000000
     0.0000000000000000    0.0000000000000000   19.3752994536999985
   Ta   Te   Pd   O    H 
     9    42     9     1     1
Direct
  0.1623235714232178  0.4749585761108353  0.5028829697885823
  0.1641480315594280  0.1223382207927151  0.4985645717439172
  0.1669084947040919  0.7748731807661454  0.5172419538475650
  0.4950681194284661  0.4737357625195657  0.5046543340459916
  0.4972536466243077  0.1224993222423917  0.4992211681374851
  0.4988570652025782  0.7763955763470385  0.5180548216035340
  0.8300853659717500  0.4757800831628823  0.5040344552496193
  0.8298280826061946  0.1222176569271783  0.4988702855645318
  0.8322882590246121  0.7753285295930965  0.5169947307035401
  0.9948463662079862  0.4081670852505896  0.4222515457029977
  0.1638960361635072  0.2395043185731148  0.4254024580629500
  0.1649662386615626  0.8908657997155861  0.5867929551097889
 -0.0003983927650980  0.8402865420288578  0.4346771846479715
  0.9960146233584471  0.5504685532252760  0.4299955173053772
  0.9971684820711606  0.4791362502007405  0.6156382799494685
  0.1652956299072953  0.0027749014606662  0.4301336372292527
  0.9974799661029158  0.0545556116912964  0.5795013527903005
  0.1669777082234296  0.5911233059670903  0.5766303672084773
  0.9969882758176436  0.1954911980817406  0.5731147105078712
  0.1645602114409923  0.6976125113008406  0.4088996914817817
  0.9968972916540934  0.1198910265195987  0.3864749355103418
 -0.0006331624210439  0.7404188788833335  0.6151703709952250
  0.1607862177045443  0.3571609347048393  0.5751935387501359
  0.3294059065066527  0.4068650569949916  0.4230676668200309
  0.4970148506419370  0.2395123824934288  0.4256327502255784
  0.4976165637974881  0.8918586154433076  0.5888563605198166
  0.3324886404228581  0.8400515854968312  0.4337453983273567
  0.3307591159837333  0.5471413959449264  0.4282162046366252
  0.3265525411527191  0.4764311298200366  0.6156016834171911
  0.4980812166226939  0.0029283065960908  0.4312135556873932
  0.3304397021760479  0.0537884871728944  0.5791431148897190
  0.5003523148312241  0.5956102155169809  0.5644733993611653
  0.3301255375854543  0.1946253416413627  0.5751652353783180
  0.4998844626942214  0.6990222989094146  0.4102755709549987
  0.3312427523611269  0.1212554001582107  0.3865030224859720
  0.3323232370484139  0.7433711324529021  0.6169214465436248
  0.4958657706766582  0.3565310514700376  0.5781178957176321
  0.6628749328796669  0.4068137024413856  0.4250658440180878
  0.8279615088595956  0.2387500190550551  0.4246767385325952
  0.8331303149143962  0.8911622906117450  0.5869549312580228
  0.6658755054353328  0.8404608257724102  0.4340641533789694
  0.6604792150366359  0.5476914495096187  0.4288390383722884
  0.6654046888213448  0.4781730475250722  0.6163226642252687
  0.8309816717941764  0.0026491769658811  0.4307359283405704
  0.6640153718985246  0.0535179452786805  0.5793670643736938
  0.8315118230975356  0.5927914252741733  0.5764027686694920
  0.6637888836242560  0.1946296494519041  0.5755155623612561
  0.8365494809285660  0.6988786430375044  0.4078936216579399
  0.6631275949045909  0.1207291296338457  0.3866492110454577
  0.6662403957227990  0.7446916517489284  0.6170564150275755
  0.8318468959186633  0.3574679699952382  0.5763054617894364
 -0.0012156111463394  0.9459475192184453  0.5074227595126377
  0.9952410780799970  0.3000022172880047  0.4975584024432310
 -0.0002182845617614  0.6599669800536655  0.5063271313335214
  0.3314730702193435  0.9454223189685108  0.5077650312039297
  0.3294834250032544  0.2997669161793621  0.4997192807512433
  0.3290366996441835  0.6630641539044385  0.5064428499385323
  0.6648297474814702  0.9454256460561962  0.5083136238945675
  0.6640798091018887  0.2996422727316210  0.5001975219688328
  0.6717947609313573  0.6650182790452186  0.5057658947303975
  0.4791799398219346  0.6063450079445039  0.6686955045628931
  0.5545980934152712  0.5946555491317584  0.6904939357074292
 
  0.00000000E+00  0.00000000E+00  0.00000000E+00
  0.00000000E+00  0.00000000E+00  0.00000000E+00
  0.00000000E+00  0.00000000E+00  0.00000000E+00
  0.00000000E+00  0.00000000E+00  0.00000000E+00
  0.00000000E+00  0.00000000E+00  0.00000000E+00
  0.00000000E+00  0.00000000E+00  0.00000000E+00
  0.00000000E+00  0.00000000E+00  0.00000000E+00
  0.00000000E+00  0.00000000E+00  0.00000000E+00
  0.00000000E+00  0.00000000E+00  0.00000000E+00
  0.00000000E+00  0.00000000E+00  0.00000000E+00
  0.00000000E+00  0.00000000E+00  0.00000000E+00
  0.00000000E+00  0.00000000E+00  0.00000000E+00
  0.00000000E+00  0.00000000E+00  0.00000000E+00
  0.00000000E+00  0.00000000E+00  0.00000000E+00
  0.00000000E+00  0.00000000E+00  0.00000000E+00
  0.00000000E+00  0.00000000E+00  0.00000000E+00
  0.00000000E+00  0.00000000E+00  0.00000000E+00
  0.00000000E+00  0.00000000E+00  0.00000000E+00
  0.00000000E+00  0.00000000E+00  0.00000000E+00
  0.00000000E+00  0.00000000E+00  0.00000000E+00
  0.00000000E+00  0.00000000E+00  0.00000000E+00
  0.00000000E+00  0.00000000E+00  0.00000000E+00
  0.00000000E+00  0.00000000E+00  0.00000000E+00
  0.00000000E+00  0.00000000E+00  0.00000000E+00
  0.00000000E+00  0.00000000E+00  0.00000000E+00
  0.00000000E+00  0.00000000E+00  0.00000000E+00
  0.00000000E+00  0.00000000E+00  0.00000000E+00
  0.00000000E+00  0.00000000E+00  0.00000000E+00
  0.00000000E+00  0.00000000E+00  0.00000000E+00
  0.00000000E+00  0.00000000E+00  0.00000000E+00
  0.00000000E+00  0.00000000E+00  0.00000000E+00
  0.00000000E+00  0.00000000E+00  0.00000000E+00
  0.00000000E+00  0.00000000E+00  0.00000000E+00
  0.00000000E+00  0.00000000E+00  0.00000000E+00
  0.00000000E+00  0.00000000E+00  0.00000000E+00
  0.00000000E+00  0.00000000E+00  0.00000000E+00
  0.00000000E+00  0.00000000E+00  0.00000000E+00
  0.00000000E+00  0.00000000E+00  0.00000000E+00
  0.00000000E+00  0.00000000E+00  0.00000000E+00
  0.00000000E+00  0.00000000E+00  0.00000000E+00
  0.00000000E+00  0.00000000E+00  0.00000000E+00
  0.00000000E+00  0.00000000E+00  0.00000000E+00
  0.00000000E+00  0.00000000E+00  0.00000000E+00
  0.00000000E+00  0.00000000E+00  0.00000000E+00
  0.00000000E+00  0.00000000E+00  0.00000000E+00
  0.00000000E+00  0.00000000E+00  0.00000000E+00
  0.00000000E+00  0.00000000E+00  0.00000000E+00
  0.00000000E+00  0.00000000E+00  0.00000000E+00
  0.00000000E+00  0.00000000E+00  0.00000000E+00
  0.00000000E+00  0.00000000E+00  0.00000000E+00
  0.00000000E+00  0.00000000E+00  0.00000000E+00
  0.00000000E+00  0.00000000E+00  0.00000000E+00
  0.00000000E+00  0.00000000E+00  0.00000000E+00
  0.00000000E+00  0.00000000E+00  0.00000000E+00
  0.00000000E+00  0.00000000E+00  0.00000000E+00
  0.00000000E+00  0.00000000E+00  0.00000000E+00
  0.00000000E+00  0.00000000E+00  0.00000000E+00
  0.00000000E+00  0.00000000E+00  0.00000000E+00
  0.00000000E+00  0.00000000E+00  0.00000000E+00
  0.00000000E+00  0.00000000E+00  0.00000000E+00
  0.00000000E+00  0.00000000E+00  0.00000000E+00
  0.00000000E+00  0.00000000E+00  0.00000000E+00
