 K4 P4 Pd2                              
   1.00000000000000     
     5.6562854485264751    0.0000000000000000    0.0000000000000000
     0.0000000000000000    6.3307384119146120    0.0000000000000000
     0.0000000000000000    0.0000000000000000   20.9256238910720000
   K    P    Pd
     4     4     2
Direct
  0.2499999560332701 -0.0000000153390164  0.3579224312612883
  0.2499999797816838  0.4999999268941078  0.4502838729897764
  0.7500000443823572 -0.0000000238708323  0.6420775692711694
  0.7500000200009853  0.4999999282905799  0.5497161275961928
  0.2499999697837999  0.8276673538347507  0.5791963536418210
  0.7500000389224653  0.8276673664839012  0.4208036352727165
  0.7500000316699348  0.1723319769603450  0.4208036183164018
  0.2499999596532075  0.1723319699924941  0.5791963909709220
 -0.0000000015964022 -0.0000002385602645  0.5000000003521698
  0.5000000013686987 -0.0000002446860749  0.5000000003275415
 
  0.00000000E+00  0.00000000E+00  0.00000000E+00
  0.00000000E+00  0.00000000E+00  0.00000000E+00
  0.00000000E+00  0.00000000E+00  0.00000000E+00
  0.00000000E+00  0.00000000E+00  0.00000000E+00
  0.00000000E+00  0.00000000E+00  0.00000000E+00
  0.00000000E+00  0.00000000E+00  0.00000000E+00
  0.00000000E+00  0.00000000E+00  0.00000000E+00
  0.00000000E+00  0.00000000E+00  0.00000000E+00
  0.00000000E+00  0.00000000E+00  0.00000000E+00
  0.00000000E+00  0.00000000E+00  0.00000000E+00
