 Ta6 Si2 Te12                           
   1.00000000000000     
     6.3489535629745708    0.0000000000000000    0.0000000000000000
     0.0000000000000000   11.4748136521713278    0.0000000000000000
     0.0000000000000000    0.0000000000000000   18.8322766805399979
   Ta   Si   Te
     6     2    12
Direct
  0.6647260731540072  0.5851983997716133  0.4999999939571254
  0.1647237291858517  0.4148004132318590  0.4999999968939832
  0.9684449254244925  0.9380002441785464  0.5000000016559483
  0.4684442396779289  0.0620014139649072  0.5000000030050700
  0.6979781740815056  0.2846223506829659  0.5000000021118538
  0.1979838165977483  0.7153751687790120  0.4999999933756953
  0.5762007139510317  0.8248995680022162  0.5000000002639737
  0.0761982951562317  0.1751024505704777  0.5000000028813574
  0.7971506929641166  0.0941912681953170  0.6002211188867079
  0.2971519867028505  0.9058102513142856  0.3997787072412393
  0.2971519944288872  0.9058102493472759  0.6002212935274329
  0.7971506826927452  0.0941912687016995  0.3997788860123634
  0.8545998437988942  0.7470116656560322  0.5972456378606097
  0.3546007961378379  0.2529879830447541  0.4027542745502473
  0.3546007924025574  0.2529879894855540  0.5972457312669874
  0.8545998534080326  0.7470116723884956  0.4027543609937325
  0.8482263713390168  0.4327171184707623  0.6027143051124710
  0.3482273192146579  0.5672817041292930  0.3972848921128005
  0.3482273294657148  0.5672817111757524  0.6027151012667389
  0.8482263702158974  0.4327171089091735  0.3972856970236762
 
  0.00000000E+00  0.00000000E+00  0.00000000E+00
  0.00000000E+00  0.00000000E+00  0.00000000E+00
  0.00000000E+00  0.00000000E+00  0.00000000E+00
  0.00000000E+00  0.00000000E+00  0.00000000E+00
  0.00000000E+00  0.00000000E+00  0.00000000E+00
  0.00000000E+00  0.00000000E+00  0.00000000E+00
  0.00000000E+00  0.00000000E+00  0.00000000E+00
  0.00000000E+00  0.00000000E+00  0.00000000E+00
  0.00000000E+00  0.00000000E+00  0.00000000E+00
  0.00000000E+00  0.00000000E+00  0.00000000E+00
  0.00000000E+00  0.00000000E+00  0.00000000E+00
  0.00000000E+00  0.00000000E+00  0.00000000E+00
  0.00000000E+00  0.00000000E+00  0.00000000E+00
  0.00000000E+00  0.00000000E+00  0.00000000E+00
  0.00000000E+00  0.00000000E+00  0.00000000E+00
  0.00000000E+00  0.00000000E+00  0.00000000E+00
  0.00000000E+00  0.00000000E+00  0.00000000E+00
  0.00000000E+00  0.00000000E+00  0.00000000E+00
  0.00000000E+00  0.00000000E+00  0.00000000E+00
  0.00000000E+00  0.00000000E+00  0.00000000E+00
