 Pr4 Br10                               
   1.00000000000000     
     4.1091524272034201    0.0000000000000000    0.0000000000000000
     0.0000000000000000   15.7541076899328321    0.0000000000000000
     0.0000000000000000    0.0000000000000000   20.2700062916159993
   Pr   Br
     4    10
Direct
  0.7500000035957441  0.6379746224107166  0.5201228796168706
  0.2499999961359265  0.3620253790251979  0.4798771187914781
  0.7499999811041462  0.1366313004120201  0.5273906457344282
  0.2500000193191667  0.8633686981080686  0.4726093562859504
  0.7500000131609497  0.8756379470829287  0.3703771906085365
  0.2499999871403844  0.1243620535451058  0.6296228115868416
  0.7499999977899421  0.4835238646162736  0.4224729669684351
  0.2500000010354100  0.5164761352122724  0.5775270282684630
  0.2499999918479148  0.0585742996746674  0.4372700702324721
  0.7500000081727904  0.9414257001363566  0.5627299317432346
  0.2500000022349482  0.7436696306446677  0.5930230051831202
  0.7499999970213125  0.2563303698422459  0.4069769955308473
  0.2500000057832494  0.6824283910621247  0.4186200221240028
  0.7499999956581220  0.3175716082273468  0.5813799773253194
 
  0.00000000E+00  0.00000000E+00  0.00000000E+00
  0.00000000E+00  0.00000000E+00  0.00000000E+00
  0.00000000E+00  0.00000000E+00  0.00000000E+00
  0.00000000E+00  0.00000000E+00  0.00000000E+00
  0.00000000E+00  0.00000000E+00  0.00000000E+00
  0.00000000E+00  0.00000000E+00  0.00000000E+00
  0.00000000E+00  0.00000000E+00  0.00000000E+00
  0.00000000E+00  0.00000000E+00  0.00000000E+00
  0.00000000E+00  0.00000000E+00  0.00000000E+00
  0.00000000E+00  0.00000000E+00  0.00000000E+00
  0.00000000E+00  0.00000000E+00  0.00000000E+00
  0.00000000E+00  0.00000000E+00  0.00000000E+00
  0.00000000E+00  0.00000000E+00  0.00000000E+00
  0.00000000E+00  0.00000000E+00  0.00000000E+00
