G   49   13    1    0.005     # Parameters to Generate KPOINTS (Don't Edit This Line)
     175
Reciprocal lattice
    0.000000000000    0.000000000000    0.000000000000       1
    0.020408163265    0.000000000000    0.000000000000       2
    0.040816326531    0.000000000000    0.000000000000       2
    0.061224489796    0.000000000000    0.000000000000       2
    0.081632653061    0.000000000000    0.000000000000       2
    0.102040816327    0.000000000000    0.000000000000       2
    0.122448979592    0.000000000000    0.000000000000       2
    0.142857142857    0.000000000000    0.000000000000       2
    0.163265306122    0.000000000000    0.000000000000       2
    0.183673469388    0.000000000000    0.000000000000       2
    0.204081632653    0.000000000000    0.000000000000       2
    0.224489795918    0.000000000000    0.000000000000       2
    0.244897959184    0.000000000000    0.000000000000       2
    0.265306122449    0.000000000000    0.000000000000       2
    0.285714285714    0.000000000000    0.000000000000       2
    0.306122448980    0.000000000000    0.000000000000       2
    0.326530612245    0.000000000000    0.000000000000       2
    0.346938775510    0.000000000000    0.000000000000       2
    0.367346938776    0.000000000000    0.000000000000       2
    0.387755102041    0.000000000000    0.000000000000       2
    0.408163265306    0.000000000000    0.000000000000       2
    0.428571428571    0.000000000000    0.000000000000       2
    0.448979591837    0.000000000000    0.000000000000       2
    0.469387755102    0.000000000000    0.000000000000       2
    0.489795918367    0.000000000000    0.000000000000       2
    0.000000000000    0.076923076923    0.000000000000       2
    0.020408163265    0.076923076923    0.000000000000       4
    0.040816326531    0.076923076923    0.000000000000       4
    0.061224489796    0.076923076923    0.000000000000       4
    0.081632653061    0.076923076923    0.000000000000       4
    0.102040816327    0.076923076923    0.000000000000       4
    0.122448979592    0.076923076923    0.000000000000       4
    0.142857142857    0.076923076923    0.000000000000       4
    0.163265306122    0.076923076923    0.000000000000       4
    0.183673469388    0.076923076923    0.000000000000       4
    0.204081632653    0.076923076923    0.000000000000       4
    0.224489795918    0.076923076923    0.000000000000       4
    0.244897959184    0.076923076923    0.000000000000       4
    0.265306122449    0.076923076923    0.000000000000       4
    0.285714285714    0.076923076923    0.000000000000       4
    0.306122448980    0.076923076923    0.000000000000       4
    0.326530612245    0.076923076923    0.000000000000       4
    0.346938775510    0.076923076923    0.000000000000       4
    0.367346938776    0.076923076923    0.000000000000       4
    0.387755102041    0.076923076923    0.000000000000       4
    0.408163265306    0.076923076923    0.000000000000       4
    0.428571428571    0.076923076923    0.000000000000       4
    0.448979591837    0.076923076923    0.000000000000       4
    0.469387755102    0.076923076923    0.000000000000       4
    0.489795918367    0.076923076923    0.000000000000       4
    0.000000000000    0.153846153846    0.000000000000       2
    0.020408163265    0.153846153846    0.000000000000       4
    0.040816326531    0.153846153846    0.000000000000       4
    0.061224489796    0.153846153846    0.000000000000       4
    0.081632653061    0.153846153846    0.000000000000       4
    0.102040816327    0.153846153846    0.000000000000       4
    0.122448979592    0.153846153846    0.000000000000       4
    0.142857142857    0.153846153846    0.000000000000       4
    0.163265306122    0.153846153846    0.000000000000       4
    0.183673469388    0.153846153846    0.000000000000       4
    0.204081632653    0.153846153846    0.000000000000       4
    0.224489795918    0.153846153846    0.000000000000       4
    0.244897959184    0.153846153846    0.000000000000       4
    0.265306122449    0.153846153846    0.000000000000       4
    0.285714285714    0.153846153846    0.000000000000       4
    0.306122448980    0.153846153846    0.000000000000       4
    0.326530612245    0.153846153846    0.000000000000       4
    0.346938775510    0.153846153846    0.000000000000       4
    0.367346938776    0.153846153846    0.000000000000       4
    0.387755102041    0.153846153846    0.000000000000       4
    0.408163265306    0.153846153846    0.000000000000       4
    0.428571428571    0.153846153846    0.000000000000       4
    0.448979591837    0.153846153846    0.000000000000       4
    0.469387755102    0.153846153846    0.000000000000       4
    0.489795918367    0.153846153846    0.000000000000       4
    0.000000000000    0.230769230769    0.000000000000       2
    0.020408163265    0.230769230769    0.000000000000       4
    0.040816326531    0.230769230769    0.000000000000       4
    0.061224489796    0.230769230769    0.000000000000       4
    0.081632653061    0.230769230769    0.000000000000       4
    0.102040816327    0.230769230769    0.000000000000       4
    0.122448979592    0.230769230769    0.000000000000       4
    0.142857142857    0.230769230769    0.000000000000       4
    0.163265306122    0.230769230769    0.000000000000       4
    0.183673469388    0.230769230769    0.000000000000       4
    0.204081632653    0.230769230769    0.000000000000       4
    0.224489795918    0.230769230769    0.000000000000       4
    0.244897959184    0.230769230769    0.000000000000       4
    0.265306122449    0.230769230769    0.000000000000       4
    0.285714285714    0.230769230769    0.000000000000       4
    0.306122448980    0.230769230769    0.000000000000       4
    0.326530612245    0.230769230769    0.000000000000       4
    0.346938775510    0.230769230769    0.000000000000       4
    0.367346938776    0.230769230769    0.000000000000       4
    0.387755102041    0.230769230769    0.000000000000       4
    0.408163265306    0.230769230769    0.000000000000       4
    0.428571428571    0.230769230769    0.000000000000       4
    0.448979591837    0.230769230769    0.000000000000       4
    0.469387755102    0.230769230769    0.000000000000       4
    0.489795918367    0.230769230769    0.000000000000       4
    0.000000000000    0.307692307692    0.000000000000       2
    0.020408163265    0.307692307692    0.000000000000       4
    0.040816326531    0.307692307692    0.000000000000       4
    0.061224489796    0.307692307692    0.000000000000       4
    0.081632653061    0.307692307692    0.000000000000       4
    0.102040816327    0.307692307692    0.000000000000       4
    0.122448979592    0.307692307692    0.000000000000       4
    0.142857142857    0.307692307692    0.000000000000       4
    0.163265306122    0.307692307692    0.000000000000       4
    0.183673469388    0.307692307692    0.000000000000       4
    0.204081632653    0.307692307692    0.000000000000       4
    0.224489795918    0.307692307692    0.000000000000       4
    0.244897959184    0.307692307692    0.000000000000       4
    0.265306122449    0.307692307692    0.000000000000       4
    0.285714285714    0.307692307692    0.000000000000       4
    0.306122448980    0.307692307692    0.000000000000       4
    0.326530612245    0.307692307692    0.000000000000       4
    0.346938775510    0.307692307692    0.000000000000       4
    0.367346938776    0.307692307692    0.000000000000       4
    0.387755102041    0.307692307692    0.000000000000       4
    0.408163265306    0.307692307692    0.000000000000       4
    0.428571428571    0.307692307692    0.000000000000       4
    0.448979591837    0.307692307692    0.000000000000       4
    0.469387755102    0.307692307692    0.000000000000       4
    0.489795918367    0.307692307692    0.000000000000       4
    0.000000000000    0.384615384615    0.000000000000       2
    0.020408163265    0.384615384615    0.000000000000       4
    0.040816326531    0.384615384615    0.000000000000       4
    0.061224489796    0.384615384615    0.000000000000       4
    0.081632653061    0.384615384615    0.000000000000       4
    0.102040816327    0.384615384615    0.000000000000       4
    0.122448979592    0.384615384615    0.000000000000       4
    0.142857142857    0.384615384615    0.000000000000       4
    0.163265306122    0.384615384615    0.000000000000       4
    0.183673469388    0.384615384615    0.000000000000       4
    0.204081632653    0.384615384615    0.000000000000       4
    0.224489795918    0.384615384615    0.000000000000       4
    0.244897959184    0.384615384615    0.000000000000       4
    0.265306122449    0.384615384615    0.000000000000       4
    0.285714285714    0.384615384615    0.000000000000       4
    0.306122448980    0.384615384615    0.000000000000       4
    0.326530612245    0.384615384615    0.000000000000       4
    0.346938775510    0.384615384615    0.000000000000       4
    0.367346938776    0.384615384615    0.000000000000       4
    0.387755102041    0.384615384615    0.000000000000       4
    0.408163265306    0.384615384615    0.000000000000       4
    0.428571428571    0.384615384615    0.000000000000       4
    0.448979591837    0.384615384615    0.000000000000       4
    0.469387755102    0.384615384615    0.000000000000       4
    0.489795918367    0.384615384615    0.000000000000       4
    0.000000000000    0.461538461538    0.000000000000       2
    0.020408163265    0.461538461538    0.000000000000       4
    0.040816326531    0.461538461538    0.000000000000       4
    0.061224489796    0.461538461538    0.000000000000       4
    0.081632653061    0.461538461538    0.000000000000       4
    0.102040816327    0.461538461538    0.000000000000       4
    0.122448979592    0.461538461538    0.000000000000       4
    0.142857142857    0.461538461538    0.000000000000       4
    0.163265306122    0.461538461538    0.000000000000       4
    0.183673469388    0.461538461538    0.000000000000       4
    0.204081632653    0.461538461538    0.000000000000       4
    0.224489795918    0.461538461538    0.000000000000       4
    0.244897959184    0.461538461538    0.000000000000       4
    0.265306122449    0.461538461538    0.000000000000       4
    0.285714285714    0.461538461538    0.000000000000       4
    0.306122448980    0.461538461538    0.000000000000       4
    0.326530612245    0.461538461538    0.000000000000       4
    0.346938775510    0.461538461538    0.000000000000       4
    0.367346938776    0.461538461538    0.000000000000       4
    0.387755102041    0.461538461538    0.000000000000       4
    0.408163265306    0.461538461538    0.000000000000       4
    0.428571428571    0.461538461538    0.000000000000       4
    0.448979591837    0.461538461538    0.000000000000       4
    0.469387755102    0.461538461538    0.000000000000       4
    0.489795918367    0.461538461538    0.000000000000       4
