CONTCAR\(3)                             
   1.00000000000000     
    11.2482995986999992    0.0000000000000000    0.0000000000000000
     0.0000000000000000   13.7291002274000000    0.0000000000000000
     0.0000000000000000    0.0000000000000000   19.4125995636000006
   Zr   I    O    H 
    12    24     2     1
Direct
 -0.0021811127237233  0.2461840204175809  0.4979458743681096
  0.1653209604616643  0.0568008968494206  0.4925610058796050
  0.3314545705401384  0.2462227855142510  0.4976347068870489
  0.4975518455520465  0.0566709402819426  0.4927354176840425
  0.6646613526754710  0.2462517186786088  0.4978820420657339
  0.8310630210552115  0.0569339044622035  0.4927424680403155
 -0.0023240298630804  0.7462450822434726  0.4973949675659516
  0.1636275221468253  0.5573709672144742  0.4920411749450251
  0.3310015388935320  0.7467354678543430  0.4977827258598300
  0.4973740909825545  0.5570784498695817  0.4920673942195847
  0.6652535928190053  0.7465835567503700  0.4976503402770103
  0.8320363536353047  0.5570648170126452  0.4922769394278320
 -0.0020011625781716  0.4410820630793897  0.5801105384996658
 -0.0022598518943056  0.1113058052069948  0.3825448497781552
  0.1646204308137497  0.3621806909814005  0.4102017015142487
  0.1650058549123775  0.1918439797116257  0.6078936960983905
  0.3307993448161007  0.4414017025359637  0.5794379764872056
  0.3314697462043206  0.1113285865515954  0.3821986313525649
  0.4979396910244379  0.3619540736074304  0.4099380414810461
  0.4977940202617533  0.1918331742705408  0.6079552418796818
  0.6645305054875543  0.4413011614884861  0.5796760913297604
  0.6647307791480080  0.1115215341376525  0.3824628998379279
  0.8314832345858588  0.3623308872974211  0.4103829562852365
  0.8311342556392857  0.1915762537067188  0.6082455748589677
 -0.0017238375474153  0.9408706895276695  0.5798125591468902
 -0.0023330525452564  0.6117502973420585  0.3815688486988411
  0.1647081260666462  0.8625686793965156  0.4099630708536615
  0.1645774400922844  0.6923389973309302  0.6070499336470390
  0.3312337894720405  0.9411146764992318  0.5798882064988607
  0.3308960330306427  0.6117513636681677  0.3819119469518867
  0.4979850440686576  0.8624030264795031  0.4100515977087047
  0.4969998341496228  0.6926340972747325  0.6064928366533305
  0.6645250169597838  0.9408674391209084  0.5802324187076598
  0.6648534411332391  0.6116317365920870  0.3822480463562075
  0.8312666281681200  0.8629197947077920  0.4100361472030796
  0.8312657714789231  0.6918594899028968  0.6077803576100175
  0.3574394996696637  0.7837554121790322  0.7135525707438618
  0.3873716215369771  0.7779510361526216  0.7837661560134003
  0.3333284266701764  0.7272406891017531  0.8011219565836100
 
  0.00000000E+00  0.00000000E+00  0.00000000E+00
  0.00000000E+00  0.00000000E+00  0.00000000E+00
  0.00000000E+00  0.00000000E+00  0.00000000E+00
  0.00000000E+00  0.00000000E+00  0.00000000E+00
  0.00000000E+00  0.00000000E+00  0.00000000E+00
  0.00000000E+00  0.00000000E+00  0.00000000E+00
  0.00000000E+00  0.00000000E+00  0.00000000E+00
  0.00000000E+00  0.00000000E+00  0.00000000E+00
  0.00000000E+00  0.00000000E+00  0.00000000E+00
  0.00000000E+00  0.00000000E+00  0.00000000E+00
  0.00000000E+00  0.00000000E+00  0.00000000E+00
  0.00000000E+00  0.00000000E+00  0.00000000E+00
  0.00000000E+00  0.00000000E+00  0.00000000E+00
  0.00000000E+00  0.00000000E+00  0.00000000E+00
  0.00000000E+00  0.00000000E+00  0.00000000E+00
  0.00000000E+00  0.00000000E+00  0.00000000E+00
  0.00000000E+00  0.00000000E+00  0.00000000E+00
  0.00000000E+00  0.00000000E+00  0.00000000E+00
  0.00000000E+00  0.00000000E+00  0.00000000E+00
  0.00000000E+00  0.00000000E+00  0.00000000E+00
  0.00000000E+00  0.00000000E+00  0.00000000E+00
  0.00000000E+00  0.00000000E+00  0.00000000E+00
  0.00000000E+00  0.00000000E+00  0.00000000E+00
  0.00000000E+00  0.00000000E+00  0.00000000E+00
  0.00000000E+00  0.00000000E+00  0.00000000E+00
  0.00000000E+00  0.00000000E+00  0.00000000E+00
  0.00000000E+00  0.00000000E+00  0.00000000E+00
  0.00000000E+00  0.00000000E+00  0.00000000E+00
  0.00000000E+00  0.00000000E+00  0.00000000E+00
  0.00000000E+00  0.00000000E+00  0.00000000E+00
  0.00000000E+00  0.00000000E+00  0.00000000E+00
  0.00000000E+00  0.00000000E+00  0.00000000E+00
  0.00000000E+00  0.00000000E+00  0.00000000E+00
  0.00000000E+00  0.00000000E+00  0.00000000E+00
  0.00000000E+00  0.00000000E+00  0.00000000E+00
  0.00000000E+00  0.00000000E+00  0.00000000E+00
  0.00000000E+00  0.00000000E+00  0.00000000E+00
  0.00000000E+00  0.00000000E+00  0.00000000E+00
  0.00000000E+00  0.00000000E+00  0.00000000E+00
