Layer                                   
   1.00000000000000     
     4.2196002007000004    0.0000000000000000    0.0000000000000000
    -2.1098352194999999    3.6546070191000002    0.0000000000000000
     0.0000000000000000    0.0000000000000000   37.0000000000000000
   H    O    Bi   Se
    12     8     6     6
Direct
  0.3305064070889772  0.4272124716050538  0.0396166348748141
  0.1401915203576623  0.1387514382570695  0.0672945082378697
  0.1198230367653833  0.6432052905764862  0.1600587456437577
  0.9988660069579511  0.5204684399582261  0.1187952147049997
  0.6763749014565393  0.9394489877715627  0.1078080457340461
  0.5905320377512753  0.0970367679358933  0.0677985491788828
  0.7986214034691965  0.0418835846705674  0.2634572486393262
  0.1910259990751693  0.6159139469867254  0.3536604782832309
  0.7406674911524014  0.3355243508355930  0.2153750256774880
  0.8683001109425966  0.5604111728477795  0.2523076079871977
  0.8774205007136585  0.7998688070174819  0.2933705503711576
  0.2518702753471936  0.5862830681766681  0.3146397255707208
  0.2903239193269228  0.1771709421887005  0.0455468508365469
  0.1681381396970464  0.7311111606091159  0.1344914849381681
  0.7779115916562158  0.1077850631376920  0.0867389994624903
  0.0539791577302797  0.4895291935732385  0.3326996825047303
  0.9146153930969469  0.3887121818821758  0.2341379472492806
  0.7182058600929649  0.8348549949875281  0.2783733327582347
  0.6857316473236265  0.5861905163630634  0.9596034407413099
  0.6606549761890467  0.0529859078462750  0.4249936732128675
  0.8150010658922815  0.3809729295273054  0.7171200056326659
  0.4814606414760500  0.7155284281837423  0.6690659032513244
  0.7887492328192743  0.3584297190468763  0.5631522533244919
  0.4658232492576756  0.7069168896884057  0.8226392358451616
  0.1180987494504576  0.0455902449160015  0.4604078707298888
  0.1348319774389429  0.0412081782352226  0.9281133003663300
  0.1256318903198200  0.0405005881932470  0.6056323903117063
  0.1467329515090266  0.0610900586181176  0.7803546681937071
  0.8216297493211018  0.4121502569982284  0.8731583412858843
  0.4717846606292223  0.7252827291839075  0.5125216366748989
  0.6778087074981340  0.4921233404992907  0.4105475279373185
  0.2677123994994503  0.6432579405991550  0.9773006790144411
 
  0.12688634E-02 -0.94915192E-02  0.15618779E-01
 -0.20308778E-01 -0.21628584E-01 -0.14908475E-01
  0.19432428E-02 -0.38121427E-03 -0.77294365E-03
 -0.11391479E-01 -0.18155595E-02  0.14272530E-01
  0.24797496E-01 -0.23139613E-01 -0.13061694E-01
  0.64245440E-02 -0.21021588E-01  0.38385360E-01
 -0.18940194E-01  0.16105492E-02 -0.23606784E-01
 -0.15994484E-01  0.28125953E-02 -0.15075937E-01
 -0.50549405E-02 -0.23471347E-01  0.90981080E-02
  0.34606922E-01 -0.25945109E-01  0.31485575E-01
  0.26051522E-01  0.15730252E-02  0.33821475E-01
  0.44396313E-02 -0.80782617E-02  0.69756928E-02
 -0.50502038E-02 -0.79397995E-02  0.28440256E-02
  0.10984355E-02  0.32561124E-02 -0.46095937E-02
  0.75943088E-02 -0.27722994E-03  0.24855891E-02
  0.90113088E-03 -0.13946324E-02 -0.20432941E-02
 -0.50332910E-02 -0.16083337E-02  0.44682913E-03
  0.72944341E-03 -0.43633009E-02  0.69672000E-02
  0.41920750E-02  0.59097218E-03  0.90546347E-05
  0.60252835E-02  0.37288523E-02 -0.56544312E-02
  0.31903396E-03  0.25243589E-03 -0.94383073E-05
  0.22046938E-03  0.46163038E-04 -0.41356615E-03
  0.60301745E-03  0.33208821E-04 -0.18146998E-02
  0.17176394E-04  0.65568712E-03  0.51748186E-03
  0.14168849E-02 -0.78266012E-03  0.10975586E-02
 -0.69149202E-03  0.38235899E-03 -0.33571651E-03
  0.12018354E-02  0.27141136E-03 -0.17207560E-02
 -0.54041819E-03 -0.48307537E-03  0.13835558E-02
 -0.61259047E-03 -0.95087585E-03  0.26403889E-02
 -0.27670953E-03 -0.66822220E-03  0.52035738E-03
 -0.34074941E-02  0.37392160E-02 -0.15265175E-03
 -0.38254055E-02 -0.20654622E-03 -0.12660748E-02
 
           1
   1.00000000000000     
  0.29464303E+02 -0.29313104E+00 -0.39611409E-17  0.00000000E+00
  0.32950852E+00  0.42461533E+00  0.40038764E-01
  0.13241942E+00  0.13283327E+00  0.66891576E-01
  0.12023141E+00  0.64310098E+00  0.16003786E+00
  0.99591795E+00  0.51997165E+00  0.11918096E+00
  0.67908578E+00  0.93311736E+00  0.10745503E+00
  0.58917850E+00  0.91284689E-01  0.68835991E-01
  0.79435313E+00  0.42324275E-01  0.26281923E+00
  0.18762029E+00  0.61668355E+00  0.35325302E+00
  0.73625827E+00  0.32910195E+00  0.21562092E+00
  0.87295188E+00  0.55331188E+00  0.25315857E+00
  0.88380965E+00  0.80029923E+00  0.29428464E+00
  0.25181719E+00  0.58407264E+00  0.31482826E+00
  0.28804078E+00  0.17499840E+00  0.45623716E-01
  0.16884395E+00  0.73200212E+00  0.13436690E+00
  0.77967343E+00  0.10770921E+00  0.86806178E-01
  0.54001908E-01  0.48914758E+00  0.33264446E+00
  0.91320251E+00  0.38827210E+00  0.23415002E+00
  0.71778176E+00  0.83366108E+00  0.27856164E+00
  0.68680598E+00  0.58635222E+00  0.95960369E+00
  0.66259307E+00  0.54006223E-01  0.42484085E+00
  0.81511121E+00  0.38104200E+00  0.71711975E+00
  0.48151921E+00  0.71554106E+00  0.66905473E+00
  0.78889668E+00  0.35843881E+00  0.56310321E+00
  0.46591703E+00  0.70709630E+00  0.82265322E+00
  0.11832746E+00  0.45376088E-01  0.46043753E+00
  0.13472041E+00  0.41312802E-01  0.92810423E+00
  0.12595385E+00  0.40574854E-01  0.60558588E+00
  0.14653879E+00  0.60957876E-01  0.78039206E+00
  0.82135448E+00  0.41189007E+00  0.87322970E+00
  0.47162766E+00  0.72509989E+00  0.51253570E+00
  0.67751275E+00  0.49314649E+00  0.41054340E+00
  0.26677756E+00  0.64320142E+00  0.97726646E+00
 -0.13555103E-02 -0.13711819E-02  0.43664615E-03
 -0.64202833E-02 -0.50946136E-02 -0.44644289E-03
  0.29888492E-03 -0.35197718E-03  0.13486115E-03
 -0.33725197E-02 -0.85818829E-03  0.33436575E-03
  0.33782425E-02 -0.65886883E-02 -0.22957134E-03
 -0.19283063E-02 -0.58205914E-02  0.87538477E-03
 -0.62271721E-02 -0.25352286E-02 -0.47330373E-03
 -0.37316456E-02  0.20184109E-03 -0.52695201E-03
 -0.33271702E-02 -0.60537152E-02  0.33576715E-03
  0.45057007E-02 -0.53289905E-02  0.10871249E-02
  0.42686803E-02 -0.55674770E-03  0.74436096E-03
  0.45165122E-04 -0.19546018E-02  0.21156859E-03
 -0.23460066E-02 -0.22641145E-02  0.80148100E-04
  0.73550912E-03  0.93060039E-03 -0.12995385E-03
  0.17601153E-02 -0.76338829E-04  0.65589672E-04
  0.15521842E-04 -0.38014212E-03 -0.45736603E-04
 -0.14421921E-02 -0.57144690E-03 -0.69992809E-05
 -0.17038568E-03 -0.91465648E-03  0.18377354E-03
  0.11336736E-02  0.15177714E-03 -0.43772360E-05
  0.19282650E-02  0.99748810E-03 -0.15464749E-03
  0.10966815E-03  0.68521284E-04 -0.30003621E-06
  0.58380358E-04  0.12562922E-04 -0.11074096E-04
  0.14692873E-03  0.83743747E-05 -0.48820319E-04
  0.92672758E-04  0.17775815E-03  0.13787569E-04
  0.22829839E-03 -0.21202872E-03  0.29742266E-04
 -0.11337584E-03  0.10061316E-03 -0.88039854E-05
  0.31849630E-03  0.73635804E-04 -0.45988525E-04
 -0.19207466E-03 -0.13028478E-03  0.37097502E-04
 -0.27353508E-03 -0.25827788E-03  0.71130274E-04
 -0.15607709E-03 -0.18101819E-03  0.13796215E-04
 -0.29449739E-03  0.10199060E-02 -0.41407935E-05
 -0.93692818E-03 -0.45456806E-04 -0.33471809E-04
  0.00000000E+00  0.00000000E+00  0.00000000E+00
  0.00000000E+00  0.00000000E+00  0.00000000E+00
  0.00000000E+00  0.00000000E+00  0.00000000E+00
  0.00000000E+00  0.00000000E+00  0.00000000E+00
  0.00000000E+00  0.00000000E+00  0.00000000E+00
  0.00000000E+00  0.00000000E+00  0.00000000E+00
  0.00000000E+00  0.00000000E+00  0.00000000E+00
  0.00000000E+00  0.00000000E+00  0.00000000E+00
  0.00000000E+00  0.00000000E+00  0.00000000E+00
  0.00000000E+00  0.00000000E+00  0.00000000E+00
  0.00000000E+00  0.00000000E+00  0.00000000E+00
  0.00000000E+00  0.00000000E+00  0.00000000E+00
  0.00000000E+00  0.00000000E+00  0.00000000E+00
  0.00000000E+00  0.00000000E+00  0.00000000E+00
  0.00000000E+00  0.00000000E+00  0.00000000E+00
  0.00000000E+00  0.00000000E+00  0.00000000E+00
  0.00000000E+00  0.00000000E+00  0.00000000E+00
  0.00000000E+00  0.00000000E+00  0.00000000E+00
  0.00000000E+00  0.00000000E+00  0.00000000E+00
  0.00000000E+00  0.00000000E+00  0.00000000E+00
  0.00000000E+00  0.00000000E+00  0.00000000E+00
  0.00000000E+00  0.00000000E+00  0.00000000E+00
  0.00000000E+00  0.00000000E+00  0.00000000E+00
  0.00000000E+00  0.00000000E+00  0.00000000E+00
  0.00000000E+00  0.00000000E+00  0.00000000E+00
  0.00000000E+00  0.00000000E+00  0.00000000E+00
  0.00000000E+00  0.00000000E+00  0.00000000E+00
  0.00000000E+00  0.00000000E+00  0.00000000E+00
  0.00000000E+00  0.00000000E+00  0.00000000E+00
  0.00000000E+00  0.00000000E+00  0.00000000E+00
  0.00000000E+00  0.00000000E+00  0.00000000E+00
  0.00000000E+00  0.00000000E+00  0.00000000E+00
