Layer                                   
   1.00000000000000     
     3.4607000350999999    0.0000000000000000    0.0000000000000000
    -1.7303500174999999    2.9970541452999999    0.0000000000000000
     0.0000000000000000    0.0000000000000000   24.5000000000000000
   H    O    Ta   Se
    12     8     1     2
Direct
  0.1521362947098873  0.4290798995370714  0.2776013436941268
  0.8691597887300988  0.2581589391233312  0.2242216437799214
  0.6707744018265502  0.8014234539964268  0.5460308920037448
  0.9501673927689215  0.1778568863229301  0.5069469312582413
  0.4946300593075327  0.5253135898184936  0.3557947861543875
  0.6285476805585674  0.8935277589105596  0.3092849737378998
  0.4754702959851204  0.1066068707129415  0.1242026426655124
  0.5236580368936739  0.5100025610037743  0.1652691075798318
  0.1575524997717906  0.9041316462447373  0.4383197021649439
  0.9261564451869283  0.1383618350629152  0.4077816320613890
  0.8946437310037542  0.9828464558611326  0.6849522543031697
  0.6225243503913589  0.1327094794024308  0.6488551837523524
  0.9747410077426806  0.1561104844110250  0.2548888694221479
  0.8323431267509255  0.1232627616887721  0.5455703631938028
  0.4541250556321290  0.7644885996792259  0.3432365128726970
  0.6362010218488433  0.3256918439470952  0.1532068913117201
  0.1492724891975959  0.1736729423187601  0.4380192666210771
  0.8026958292481038  0.2144020888910010  0.6829008039372234
  0.6123819687867158  0.6652771874382264  0.0143725449497977
  0.1115909717101163  0.1479394677042270  0.7871291482559943
  0.2292952912831098  0.0750673756869585  0.8822072263883577
  0.5583890707093051  0.7573392656254593  0.8117573796025274
  0.6011043791509176  0.7518270132351427  0.9503870126678060
 
 -0.29618831E-01 -0.21599009E-01 -0.15801775E-01
  0.58703651E-03  0.16135298E-01  0.17911570E-01
 -0.58839410E-02  0.48625747E-03 -0.17242093E-01
  0.97028777E-02 -0.27212131E-01  0.38490403E-01
  0.15949636E-01 -0.17775455E-01  0.11491364E-01
  0.12862397E-01  0.15385496E-01  0.17043143E-01
  0.35237362E-03 -0.11824018E-02 -0.48389631E-02
 -0.50702728E-02  0.11039693E-01  0.19781991E-01
  0.10411819E-01 -0.13590930E-01  0.14045227E-01
  0.26083860E-01  0.66391138E-02  0.27853561E-01
 -0.99372632E-02  0.24900268E-01 -0.22215375E-02
 -0.15167639E-01  0.28694519E-01  0.12996158E-01
  0.38792628E-02 -0.37283254E-02  0.34634385E-02
 -0.50887857E-02  0.70699922E-02 -0.36739715E-02
  0.11309495E-02  0.63078101E-02 -0.52382942E-03
 -0.10907721E-01 -0.38697336E-02  0.34836287E-02
  0.36076258E-03  0.70118895E-02 -0.65661501E-04
 -0.75394514E-02  0.25488199E-02 -0.16843281E-02
  0.31500203E-03  0.26849017E-02  0.94577924E-03
 -0.27561616E-02  0.13918467E-02  0.10428110E-02
  0.34872490E-03 -0.16924012E-02  0.85928934E-03
  0.14535578E-02  0.15314715E-02 -0.82318045E-03
  0.17927082E-02 -0.18653029E-02 -0.32649858E-02
 
           1
   1.00000000000000     
  0.31493775E+02  0.61390287E+00 -0.16305820E-17  0.00000000E+00
  0.13997430E+00  0.42187315E+00  0.27695637E+00
  0.87202128E+00  0.26354266E+00  0.22495273E+00
  0.66915531E+00  0.80158570E+00  0.54532713E+00
  0.94843131E+00  0.16877726E+00  0.50851797E+00
  0.49627336E+00  0.51938261E+00  0.35626382E+00
  0.63483115E+00  0.89866130E+00  0.30998061E+00
  0.47537486E+00  0.10621235E+00  0.12400513E+00
  0.52403469E+00  0.51368608E+00  0.16607654E+00
  0.15829371E+00  0.89959688E+00  0.43889298E+00
  0.93480121E+00  0.14057705E+00  0.40891851E+00
  0.89592639E+00  0.99115470E+00  0.68486158E+00
  0.62292865E+00  0.14228372E+00  0.64938564E+00
  0.97523996E+00  0.15486649E+00  0.25503023E+00
  0.83205217E+00  0.12562174E+00  0.54542041E+00
  0.45550419E+00  0.76659327E+00  0.34321513E+00
  0.63240355E+00  0.32440066E+00  0.15334908E+00
  0.15054653E+00  0.17601254E+00  0.43801659E+00
  0.80094246E+00  0.21525253E+00  0.68283206E+00
  0.61292091E+00  0.66617303E+00  0.14411148E-01
  0.11102676E+00  0.14840387E+00  0.78717171E+00
  0.22911371E+00  0.74502687E-01  0.88224230E+00
  0.55906459E+00  0.75785026E+00  0.81172378E+00
  0.60131121E+00  0.75120463E+00  0.95025375E+00
 -0.11495730E-01 -0.61681872E-02 -0.55578982E-03
  0.34596676E-02  0.55849443E-02  0.84363642E-03
 -0.10921211E-02  0.11128128E-02 -0.77942205E-03
 -0.14064613E-02 -0.91290697E-02  0.13976561E-02
  0.11964460E-02 -0.50553156E-02  0.44852677E-03
  0.54354232E-02  0.48350299E-02  0.75532137E-03
  0.20416262E-03 -0.16824761E-02 -0.29699646E-03
  0.21332037E-02  0.34340350E-02  0.87100771E-03
  0.84289098E-03 -0.26940499E-02  0.59080710E-03
  0.70839984E-02  0.26346837E-02  0.90135912E-03
  0.16839668E-02  0.71844805E-02 -0.79085808E-04
 -0.36535973E-03  0.93172362E-02  0.40022685E-03
  0.46445082E-03 -0.13044642E-02  0.13040316E-03
 -0.34266799E-03  0.23265097E-02 -0.13735064E-03
  0.14303915E-02  0.20506299E-02 -0.22284547E-04
 -0.39745119E-02 -0.12129349E-02  0.14451494E-03
  0.13930248E-02  0.22283719E-02  0.14298172E-04
 -0.17432092E-02  0.95384061E-03 -0.61329044E-04
  0.53215283E-03  0.93642508E-03  0.22598300E-05
 -0.61855433E-03  0.44358733E-03  0.43993063E-04
 -0.19192685E-03 -0.57260873E-03  0.36068633E-04
  0.69692437E-03  0.52167973E-03 -0.35009839E-04
  0.22495339E-03 -0.62949594E-03 -0.12780517E-03
  0.00000000E+00  0.00000000E+00  0.00000000E+00
  0.00000000E+00  0.00000000E+00  0.00000000E+00
  0.00000000E+00  0.00000000E+00  0.00000000E+00
  0.00000000E+00  0.00000000E+00  0.00000000E+00
  0.00000000E+00  0.00000000E+00  0.00000000E+00
  0.00000000E+00  0.00000000E+00  0.00000000E+00
  0.00000000E+00  0.00000000E+00  0.00000000E+00
  0.00000000E+00  0.00000000E+00  0.00000000E+00
  0.00000000E+00  0.00000000E+00  0.00000000E+00
  0.00000000E+00  0.00000000E+00  0.00000000E+00
  0.00000000E+00  0.00000000E+00  0.00000000E+00
  0.00000000E+00  0.00000000E+00  0.00000000E+00
  0.00000000E+00  0.00000000E+00  0.00000000E+00
  0.00000000E+00  0.00000000E+00  0.00000000E+00
  0.00000000E+00  0.00000000E+00  0.00000000E+00
  0.00000000E+00  0.00000000E+00  0.00000000E+00
  0.00000000E+00  0.00000000E+00  0.00000000E+00
  0.00000000E+00  0.00000000E+00  0.00000000E+00
  0.00000000E+00  0.00000000E+00  0.00000000E+00
  0.00000000E+00  0.00000000E+00  0.00000000E+00
  0.00000000E+00  0.00000000E+00  0.00000000E+00
  0.00000000E+00  0.00000000E+00  0.00000000E+00
  0.00000000E+00  0.00000000E+00  0.00000000E+00
