CONTCAR\(2)                             
   1.00000000000000     
    11.3112001419000006    0.0000000000000000    0.0000000000000000
    -5.6555817499999996   10.5064091515999998    0.0000000000000000
     0.0000000000000000    0.0000000000000000   21.6791000366000013
   Tb   C    Br   O    H 
    18    18    18     2     1
Direct
  0.1250362346648961  0.2498033716916902  0.5668406966137671
  0.2083919119049574  0.0835337273797390  0.4314971842479225
  0.4581791620052807  0.2495781893770900  0.5666844757654345
  0.5412321883028832  0.0829827319953560  0.4313471441440799
  0.7913088801449962  0.2491840848288302  0.5664999355295157
  0.8748090837421824  0.0831390254249251  0.4314456542064961
  0.1244303608608351  0.5816576982141326  0.5670322870185647
  0.2080762396998836  0.4160051029435428  0.4315982607098744
  0.4577888358723513  0.5821647905308008  0.5677286326373002
  0.5414474492676956  0.4161328873956237  0.4315123512099573
  0.7907419303586636  0.5817884517050272  0.5667509264489200
  0.8749146119776722  0.4161928831630558  0.4314769067512889
  0.1243120101961072  0.9157784223832098  0.5665960310902920
  0.2079987817348773  0.7495270587871447  0.4318770097038268
  0.4577631816177711  0.9156743532808377  0.5665520960452420
  0.5409609846971495  0.7491480592631268  0.4319647661384141
  0.7909197173614497  0.9158258784445316  0.5664917183151056
  0.8749009251055512  0.7498781607512343  0.4318928126370576
  0.3595441715521809  0.3855630062467437  0.5165597860924191
  0.3070454350475074  0.2806520404765858  0.4818766156047110
  0.6926142188293167  0.3850826199458478  0.5161266231033277
  0.6399463311293313  0.2800066308145076  0.4816246133972105
  0.0259922933771931  0.3851579248649951  0.5162894497763182
  0.9734269695543949  0.2801168834726391  0.4817362617434269
  0.3591223119610356  0.7184165083327994  0.5163401681947833
  0.3063084423329325  0.6127014736952194  0.4822928227403074
  0.6923314154175216  0.7185244871421063  0.5162703739794827
  0.6396083733989884  0.6128547560045847  0.4822017573819457
  0.0259727238374246  0.7185719392973944  0.5163215573801370
  0.9731646371346778  0.6128449383003493  0.4822714720427173
  0.3593378268260410  0.0524844963033768  0.5160583300621329
  0.3064124459628545  0.9467227903877000  0.4820118367700151
  0.6926697737077916  0.0525485277105688  0.5158059870428335
  0.6396452336064238  0.9466301671758858  0.4818963621640650
  0.0265398706600871  0.0528559345034733  0.5161159840796473
  0.9734831432930942  0.9470120785037405  0.4821201724049585
  0.0941757939240741  0.1883561523335960  0.3442971206727944
  0.2383967398789295  0.1433607159970353  0.6537015220592525
  0.4274478954872714  0.1885342187928391  0.3441191941331683
  0.5721168262156471  0.1435169067505936  0.6535315785043074
  0.7606909325189762  0.1884032462461614  0.3443363900508379
  0.9048972197240843  0.1435237562430476  0.6535197356078828
  0.0945150480553102  0.5217651587477903  0.3445182983053707
  0.2377090314694925  0.4761860013727379  0.6537891458289306
  0.4275775645994171  0.5218267713243692  0.3444376160982976
  0.5722652306692905  0.4754567767414413  0.6531875411324642
  0.7610877397404856  0.5220443295064434  0.3445494782261417
  0.9046909942124348  0.4766553968130824  0.6537761012157165
  0.0942589897599599  0.8552025837187730  0.3447689036740551
  0.2381820167467462  0.8102397186114236  0.6535812398635973
  0.4271516516804593  0.8547111037370841  0.3444883536334182
  0.5727461794972259  0.8120541605476496  0.6529287610004886
  0.7604168113850447  0.8548209912326536  0.3447360439056603
  0.9045705833228324  0.8101487386178846  0.6533984323631485
  0.5084698912093292  0.6177257993104698  0.7674773778172254
  0.4185309480867556  0.5752012048797317  0.8151027423093372
  0.4752729776722361  0.5996328337367375  0.8524858604244203
 
  0.00000000E+00  0.00000000E+00  0.00000000E+00
  0.00000000E+00  0.00000000E+00  0.00000000E+00
  0.00000000E+00  0.00000000E+00  0.00000000E+00
  0.00000000E+00  0.00000000E+00  0.00000000E+00
  0.00000000E+00  0.00000000E+00  0.00000000E+00
  0.00000000E+00  0.00000000E+00  0.00000000E+00
  0.00000000E+00  0.00000000E+00  0.00000000E+00
  0.00000000E+00  0.00000000E+00  0.00000000E+00
  0.00000000E+00  0.00000000E+00  0.00000000E+00
  0.00000000E+00  0.00000000E+00  0.00000000E+00
  0.00000000E+00  0.00000000E+00  0.00000000E+00
  0.00000000E+00  0.00000000E+00  0.00000000E+00
  0.00000000E+00  0.00000000E+00  0.00000000E+00
  0.00000000E+00  0.00000000E+00  0.00000000E+00
  0.00000000E+00  0.00000000E+00  0.00000000E+00
  0.00000000E+00  0.00000000E+00  0.00000000E+00
  0.00000000E+00  0.00000000E+00  0.00000000E+00
  0.00000000E+00  0.00000000E+00  0.00000000E+00
  0.00000000E+00  0.00000000E+00  0.00000000E+00
  0.00000000E+00  0.00000000E+00  0.00000000E+00
  0.00000000E+00  0.00000000E+00  0.00000000E+00
  0.00000000E+00  0.00000000E+00  0.00000000E+00
  0.00000000E+00  0.00000000E+00  0.00000000E+00
  0.00000000E+00  0.00000000E+00  0.00000000E+00
  0.00000000E+00  0.00000000E+00  0.00000000E+00
  0.00000000E+00  0.00000000E+00  0.00000000E+00
  0.00000000E+00  0.00000000E+00  0.00000000E+00
  0.00000000E+00  0.00000000E+00  0.00000000E+00
  0.00000000E+00  0.00000000E+00  0.00000000E+00
  0.00000000E+00  0.00000000E+00  0.00000000E+00
  0.00000000E+00  0.00000000E+00  0.00000000E+00
  0.00000000E+00  0.00000000E+00  0.00000000E+00
  0.00000000E+00  0.00000000E+00  0.00000000E+00
  0.00000000E+00  0.00000000E+00  0.00000000E+00
  0.00000000E+00  0.00000000E+00  0.00000000E+00
  0.00000000E+00  0.00000000E+00  0.00000000E+00
  0.00000000E+00  0.00000000E+00  0.00000000E+00
  0.00000000E+00  0.00000000E+00  0.00000000E+00
  0.00000000E+00  0.00000000E+00  0.00000000E+00
  0.00000000E+00  0.00000000E+00  0.00000000E+00
  0.00000000E+00  0.00000000E+00  0.00000000E+00
  0.00000000E+00  0.00000000E+00  0.00000000E+00
  0.00000000E+00  0.00000000E+00  0.00000000E+00
  0.00000000E+00  0.00000000E+00  0.00000000E+00
  0.00000000E+00  0.00000000E+00  0.00000000E+00
  0.00000000E+00  0.00000000E+00  0.00000000E+00
  0.00000000E+00  0.00000000E+00  0.00000000E+00
  0.00000000E+00  0.00000000E+00  0.00000000E+00
  0.00000000E+00  0.00000000E+00  0.00000000E+00
  0.00000000E+00  0.00000000E+00  0.00000000E+00
  0.00000000E+00  0.00000000E+00  0.00000000E+00
  0.00000000E+00  0.00000000E+00  0.00000000E+00
  0.00000000E+00  0.00000000E+00  0.00000000E+00
  0.00000000E+00  0.00000000E+00  0.00000000E+00
  0.00000000E+00  0.00000000E+00  0.00000000E+00
  0.00000000E+00  0.00000000E+00  0.00000000E+00
  0.00000000E+00  0.00000000E+00  0.00000000E+00
