CONTCAR\(17)                            
   1.00000000000000     
    10.6176996231000000    0.0000000000000000    0.0000000000000000
     0.0000000000000000   17.6849002838000011    0.0000000000000000
     0.0000000000000000    0.0000000000000000   18.8054008484000015
   K    Fe   Se   O 
     8    16    24     1
Selective dynamics
Direct
  0.3751994190348000  0.2454355468516809  0.4028756585966491   F   F   F
  0.1243161133084456  0.2452125353847805  0.5891318656779063   F   F   F
  0.8768736370741053  0.2457730610488014  0.4079602726462923   F   F   F
  0.6256343835988858  0.2446848587837493  0.5921758381069040   F   F   F
  0.3701133449109690  0.7469484849058858  0.4029506425785243   F   F   F
  0.1056726593792945  0.7529825969747463  0.6040305129544521   F   F   F
  0.8788906643751986  0.7461629130647154  0.4127839157402136   F   F   F
  0.6436131770770217  0.7559882929609643  0.6015304064809470   F   F   F
  0.2517738584101963  0.0688319982558099  0.5013871175337812   F   F   F
  0.0026860325809750  0.0710440247576685  0.5015292691017237   F   F   F
  0.2488095578570295  0.9232442269257177  0.4940920483996294   F   F   F
  0.0070793615751299  0.9273009091401931  0.4932119570411757   F   F   F
  0.7504112546958552  0.0711511237161346  0.5041496501439156   F   F   F
  0.4954459770751001  0.0686469619451771  0.5025406685777369   F   F   F
  0.7482074828438030  0.9240213062676403  0.4923493081024262   F   F   F
  0.4918173440779796  0.9214754162428989  0.4943365575363217   F   F   F
  0.2542042877784496  0.5762641614970434  0.5191837074609680   F   F   F
  0.9924269896891929  0.5709887312655439  0.5116637629773280   F   F   F
  0.2484219588416394  0.4259732342396347  0.4952570142568007   F   F   F
  0.9957495312337343  0.4241189671776340  0.4943857006779666   F   F   F
  0.7576551589729235  0.5712625803987237  0.5108892208284956   F   F   F
  0.4976822915350851  0.5763913055114500  0.5185977438004841   F   F   F
  0.7550791567331601  0.4239702484426644  0.4942931100836816   F   F   F
  0.5025836514219577  0.4256830552587374  0.4952826791044984   F   F   F
  0.3736346957393906  0.0035439489120819  0.4161567922841627   F   F   F
  0.1289860787164940  0.9968230457276874  0.5803595298425179   F   F   F
  0.3725923259233852  0.1347602007456743  0.5846219536964057   F   F   F
  0.1290581014359731  0.1424330341083646  0.4247888192152942   F   F   F
  0.1254533139643073  0.8629709304845008  0.4071173719064234   F   F   F
  0.3692767887881701  0.8424817712985444  0.5704197630227057   F   F   F
  0.8721678101122166  0.0040731156867722  0.4194054598063204   F   F   F
  0.6230839832724371  0.9921678313977011  0.5757071342353228   F   F   F
  0.8769614630955331  0.1339162442964081  0.5842360178662460   F   F   F
  0.6241235012200193  0.1443067109150391  0.4315744996695727   F   F   F
  0.6202927027328968  0.8551717291021532  0.4165473860339759   F   F   F
  0.8796446442335224  0.8563259357358461  0.5679153821157286   F   F   F
  0.3756538969805732  0.5079739707062956  0.4316123918617194   F   F   F
  0.1224796771926151  0.4869922524210679  0.5784139240402197   F   F   F
  0.3745807325738184  0.6764072652520667  0.5869103182596547   F   F   F
  0.1269777144597768  0.6434162135940795  0.4414612311528074   F   F   F
  0.1258659575799328  0.3667012232396161  0.4138190280053848   F   F   F
  0.3753952227307238  0.3479112251717211  0.5566960633804428   F   F   F
  0.8749940202469020  0.5041918341051499  0.4205201159621623   F   F   F
  0.6288831089027909  0.4871805757584440  0.5780378759029432   F   F   F
  0.8740268038900822  0.6310617638024070  0.6008898313901838   F   F   F
  0.6240202838855211  0.6442316843314870  0.4406357130771070   F   F   F
  0.6249297172406045  0.3658645084842647  0.4143807417256795   F   F   F
  0.8752759614495815  0.3478131151288650  0.5689421653066660   F   F   F
  0.3762443075518078  0.5678430965757855  0.5967639976374352   T   T   T
 
  0.00000000E+00  0.00000000E+00  0.00000000E+00
  0.00000000E+00  0.00000000E+00  0.00000000E+00
  0.00000000E+00  0.00000000E+00  0.00000000E+00
  0.00000000E+00  0.00000000E+00  0.00000000E+00
  0.00000000E+00  0.00000000E+00  0.00000000E+00
  0.00000000E+00  0.00000000E+00  0.00000000E+00
  0.00000000E+00  0.00000000E+00  0.00000000E+00
  0.00000000E+00  0.00000000E+00  0.00000000E+00
  0.00000000E+00  0.00000000E+00  0.00000000E+00
  0.00000000E+00  0.00000000E+00  0.00000000E+00
  0.00000000E+00  0.00000000E+00  0.00000000E+00
  0.00000000E+00  0.00000000E+00  0.00000000E+00
  0.00000000E+00  0.00000000E+00  0.00000000E+00
  0.00000000E+00  0.00000000E+00  0.00000000E+00
  0.00000000E+00  0.00000000E+00  0.00000000E+00
  0.00000000E+00  0.00000000E+00  0.00000000E+00
  0.00000000E+00  0.00000000E+00  0.00000000E+00
  0.00000000E+00  0.00000000E+00  0.00000000E+00
  0.00000000E+00  0.00000000E+00  0.00000000E+00
  0.00000000E+00  0.00000000E+00  0.00000000E+00
  0.00000000E+00  0.00000000E+00  0.00000000E+00
  0.00000000E+00  0.00000000E+00  0.00000000E+00
  0.00000000E+00  0.00000000E+00  0.00000000E+00
  0.00000000E+00  0.00000000E+00  0.00000000E+00
  0.00000000E+00  0.00000000E+00  0.00000000E+00
  0.00000000E+00  0.00000000E+00  0.00000000E+00
  0.00000000E+00  0.00000000E+00  0.00000000E+00
  0.00000000E+00  0.00000000E+00  0.00000000E+00
  0.00000000E+00  0.00000000E+00  0.00000000E+00
  0.00000000E+00  0.00000000E+00  0.00000000E+00
  0.00000000E+00  0.00000000E+00  0.00000000E+00
  0.00000000E+00  0.00000000E+00  0.00000000E+00
  0.00000000E+00  0.00000000E+00  0.00000000E+00
  0.00000000E+00  0.00000000E+00  0.00000000E+00
  0.00000000E+00  0.00000000E+00  0.00000000E+00
  0.00000000E+00  0.00000000E+00  0.00000000E+00
  0.00000000E+00  0.00000000E+00  0.00000000E+00
  0.00000000E+00  0.00000000E+00  0.00000000E+00
  0.00000000E+00  0.00000000E+00  0.00000000E+00
  0.00000000E+00  0.00000000E+00  0.00000000E+00
  0.00000000E+00  0.00000000E+00  0.00000000E+00
  0.00000000E+00  0.00000000E+00  0.00000000E+00
  0.00000000E+00  0.00000000E+00  0.00000000E+00
  0.00000000E+00  0.00000000E+00  0.00000000E+00
  0.00000000E+00  0.00000000E+00  0.00000000E+00
  0.00000000E+00  0.00000000E+00  0.00000000E+00
  0.00000000E+00  0.00000000E+00  0.00000000E+00
  0.00000000E+00  0.00000000E+00  0.00000000E+00
  0.00000000E+00  0.00000000E+00  0.00000000E+00
