CONTCAR\(8)                             
   1.00000000000000     
    12.6408004761000008    0.0000000000000000    0.0000000000000000
    -6.3204002380000004   10.9472543365000003    0.0000000000000000
     0.0000000000000000    0.0000000000000000   17.9836006164999986
   V    S 
    16    32
Direct
  0.0833299960000033  0.1666699889999990  0.5000000000000000
  0.3333300150000014  0.1666699889999990  0.5000000000000000
  0.5833299780000019  0.1666699889999990  0.5000000000000000
  0.8333299399999987  0.1666699889999990  0.5000000000000000
  0.0833299949999997  0.4166699860000023  0.5000000000000000
  0.3333300139999977  0.4166699860000023  0.5000000000000000
  0.5833299760000017  0.4166699860000023  0.5000000000000000
  0.8333299379999985  0.4166699860000023  0.5000000000000000
  0.0833299769999982  0.6666700259999985  0.5000000000000000
  0.3333299960000033  0.6666700259999985  0.5000000000000000
  0.5833299580000002  0.6666700259999985  0.5000000000000000
  0.8333299199999971  0.6666700259999985  0.5000000000000000
  0.0833299560000000  0.9166700219999981  0.5000000000000000
  0.3333299940000032  0.9166700219999981  0.5000000000000000
  0.5833299560000000  0.9166700219999981  0.5000000000000000
  0.8333299190000005  0.9166700219999981  0.5000000000000000
  0.0000000000000000  0.0000000000000000  0.4171499839999981
  0.0000000000000000  0.0000000000000000  0.5828499630000010
  0.2500000000000000  0.0000000000000000  0.4171499839999981
  0.2500000000000000  0.0000000000000000  0.5828499630000010
  0.5000000000000000  0.0000000000000000  0.4171499839999981
  0.5000000000000000  0.0000000000000000  0.5828499630000010
  0.7500000000000000  0.0000000000000000  0.4171499839999981
  0.7500000000000000  0.0000000000000000  0.5828499630000010
  0.9999999979999998  0.2499999959999997  0.4171499839999981
  0.9999999979999998  0.2499999959999997  0.5828499630000010
  0.2499999979999998  0.2499999959999997  0.4171499839999981
  0.2499999979999998  0.2499999959999997  0.5828499630000010
  0.4999999979999998  0.2499999959999997  0.4171499839999981
  0.4999999979999998  0.2499999959999997  0.5828499630000010
  0.7499999979999998  0.2499999959999997  0.4171499839999981
  0.7499999979999998  0.2499999959999997  0.5828499630000010
  0.9999999959999997  0.4999999930000030  0.4171499839999981
  0.9999999959999997  0.4999999930000030  0.5828499630000010
  0.2499999959999997  0.4999999930000030  0.4171499839999981
  0.2499999959999997  0.4999999930000030  0.5828499630000010
  0.4999999959999997  0.4999999930000030  0.4171499839999981
  0.4999999959999997  0.4999999930000030  0.5828499630000010
  0.7499999959999997  0.4999999930000030  0.4171499839999981
  0.7499999959999997  0.4999999930000030  0.5828499630000010
  0.9999999950000031  0.7499999890000026  0.4171499839999981
  0.9999999950000031  0.7499999890000026  0.5828499630000010
  0.2499999950000031  0.7499999890000026  0.4171499839999981
  0.2499999950000031  0.7499999890000026  0.5828499630000010
  0.4999999950000031  0.7499999890000026  0.4171499839999981
  0.4999999950000031  0.7499999890000026  0.5828499630000010
  0.7499999950000031  0.7499999890000026  0.4171499839999981
  0.7499999950000031  0.7499999890000026  0.5828499630000010
 
  0.00000000E+00  0.00000000E+00  0.00000000E+00
  0.00000000E+00  0.00000000E+00  0.00000000E+00
  0.00000000E+00  0.00000000E+00  0.00000000E+00
  0.00000000E+00  0.00000000E+00  0.00000000E+00
  0.00000000E+00  0.00000000E+00  0.00000000E+00
  0.00000000E+00  0.00000000E+00  0.00000000E+00
  0.00000000E+00  0.00000000E+00  0.00000000E+00
  0.00000000E+00  0.00000000E+00  0.00000000E+00
  0.00000000E+00  0.00000000E+00  0.00000000E+00
  0.00000000E+00  0.00000000E+00  0.00000000E+00
  0.00000000E+00  0.00000000E+00  0.00000000E+00
  0.00000000E+00  0.00000000E+00  0.00000000E+00
  0.00000000E+00  0.00000000E+00  0.00000000E+00
  0.00000000E+00  0.00000000E+00  0.00000000E+00
  0.00000000E+00  0.00000000E+00  0.00000000E+00
  0.00000000E+00  0.00000000E+00  0.00000000E+00
  0.00000000E+00  0.00000000E+00  0.00000000E+00
  0.00000000E+00  0.00000000E+00  0.00000000E+00
  0.00000000E+00  0.00000000E+00  0.00000000E+00
  0.00000000E+00  0.00000000E+00  0.00000000E+00
  0.00000000E+00  0.00000000E+00  0.00000000E+00
  0.00000000E+00  0.00000000E+00  0.00000000E+00
  0.00000000E+00  0.00000000E+00  0.00000000E+00
  0.00000000E+00  0.00000000E+00  0.00000000E+00
  0.00000000E+00  0.00000000E+00  0.00000000E+00
  0.00000000E+00  0.00000000E+00  0.00000000E+00
  0.00000000E+00  0.00000000E+00  0.00000000E+00
  0.00000000E+00  0.00000000E+00  0.00000000E+00
  0.00000000E+00  0.00000000E+00  0.00000000E+00
  0.00000000E+00  0.00000000E+00  0.00000000E+00
  0.00000000E+00  0.00000000E+00  0.00000000E+00
  0.00000000E+00  0.00000000E+00  0.00000000E+00
  0.00000000E+00  0.00000000E+00  0.00000000E+00
  0.00000000E+00  0.00000000E+00  0.00000000E+00
  0.00000000E+00  0.00000000E+00  0.00000000E+00
  0.00000000E+00  0.00000000E+00  0.00000000E+00
  0.00000000E+00  0.00000000E+00  0.00000000E+00
  0.00000000E+00  0.00000000E+00  0.00000000E+00
  0.00000000E+00  0.00000000E+00  0.00000000E+00
  0.00000000E+00  0.00000000E+00  0.00000000E+00
  0.00000000E+00  0.00000000E+00  0.00000000E+00
  0.00000000E+00  0.00000000E+00  0.00000000E+00
  0.00000000E+00  0.00000000E+00  0.00000000E+00
  0.00000000E+00  0.00000000E+00  0.00000000E+00
  0.00000000E+00  0.00000000E+00  0.00000000E+00
  0.00000000E+00  0.00000000E+00  0.00000000E+00
  0.00000000E+00  0.00000000E+00  0.00000000E+00
  0.00000000E+00  0.00000000E+00  0.00000000E+00
