CONTCAR                                 
   1.00000000000000     
    10.9294004440000005    0.0000000000000000    0.0000000000000000
    -5.4647012217000004    9.4654836332999999    0.0000000000000000
     0.0000000000000000    0.0000000000000000   27.0860996245999992
   Mn   Ga   S    O    H 
    18    18    45     2     1
Direct
  0.1111781052820859  0.2222727148162278  0.4451564690288734
  0.2222293285573471  0.1113704272475360  0.5537563531191481
  0.4443534426087083  0.2222665976337339  0.4451496439032923
  0.5556360393259681  0.1113827885133674  0.5537658284550346
  0.7776990058934032  0.2221183547220420  0.4451326292812112
  0.8889256658270455  0.1115123819894848  0.5537504671059779
  0.1112751824352216  0.5556980750885998  0.4451303908905757
  0.2219681560110587  0.4448193476732243  0.5538106664064415
  0.4444942872724198  0.5557048471681867  0.4452032382332405
  0.5554655586922195  0.4447579718038384  0.5537757284201987
  0.7776980387443544  0.5556795966633885  0.4451300257115207
  0.8888020550128957  0.4447169835808040  0.5538155602254307
  0.1111554187356987  0.8890454882159418  0.4451417053371998
  0.2221569727731776  0.7780481730980142  0.5537517274261390
  0.4445104364610373  0.8889143437772020  0.4451835689300410
  0.5554993494925498  0.7780374064766917  0.5542683867765490
  0.7776996056576877  0.8889170049521624  0.4451902636138598
  0.8888118668771909  0.7780249693378352  0.5537650063206883
  0.1109999960257539  0.2228181140874383  0.6840260788107670
  0.2222533880468660  0.1110596763056435  0.3150130938489184
  0.4449379363280528  0.2227485368197648  0.6840182768131413
  0.5555733520584383  0.1110203048454323  0.3150164068884465
  0.7776769987927779  0.2223276529098257  0.6841525857413586
  0.8889151537772975  0.1110298683027438  0.3150160406342124
  0.1114967091947818  0.5561736449959227  0.6841846114490906
  0.2222813445839478  0.4443878101474752  0.3150154842303579
  0.4452879714479110  0.5576731117676346  0.6842370005481300
  0.5555654019738867  0.4443918050656563  0.3150137305099889
  0.7777011401921143  0.5560963773797809  0.6841568186632685
  0.8889238384454643  0.4443779534453967  0.3150181642733685
  0.1109787600708003  0.8887848055720298  0.6840324795639745
  0.2222891152734761  0.7777373094838325  0.3150184386583490
  0.4453289592874015  0.8885634918977559  0.6842151321227945
  0.5555835619350091  0.7777126346182754  0.3150242342360912
  0.7762491685526456  0.8885736139618032  0.6841801455655343
  0.8889111918476544  0.7777504161193463  0.3150148747222303
  0.0000195355904538  0.0002084552588002  0.4992228223144863
  0.1111761217826128  0.2224888573156605  0.6019248177440915
  0.2222266329256826  0.1111454985246567  0.3967907126315424
  0.1111474539122170  0.2221819282871493  0.2764817017969676
  0.2222834770873447  0.1115107931726129  0.7222665493307474
  0.3333183389941397  0.0001927834767343  0.4992202533934602
  0.4444349049416019  0.2224838765036665  0.6019208792047976
  0.5554853406850953  0.1111011665988713  0.3968089976184999
  0.4444659447705988  0.2221773728776313  0.2764853771930902
  0.5555114238110690  0.1113709623079089  0.7224520821670666
  0.6665995188724949  0.0000741651444400  0.4992707594616022
  0.7778254595092093  0.2225101159378440  0.6020402607613420
  0.8889456276524541  0.1110981604273462  0.3968104482639703
  0.7778017132623489  0.2221639508677313  0.2764763048144303
  0.8889532084960194  0.1113936835033797  0.7224322984662592
  0.9999686471002605  0.3335487152476873  0.4992500865507239
  0.1109479061609164  0.5559448336342570  0.6020849728515216
  0.2222940322407609  0.4444485342100393  0.3968090395654897
  0.1111710582588188  0.5555343506311772  0.2764784179419593
  0.2224333630080508  0.4448705804522888  0.7224619022590559
  0.3332811725991576  0.3335083552584379  0.4992387486681409
  0.4439759242169643  0.5552407736460694  0.6020483085734867
  0.5554645068148716  0.4444533787213913  0.3968080342898475
  0.4444799104564794  0.5555325845171382  0.2764711352692331
  0.5554535219141528  0.4448559347102616  0.7224429987518377
  0.6666505856685276  0.3334895188696265  0.4992449793097009
  0.7776948578649154  0.5558055301875129  0.6020376550174547
  0.8888914968718353  0.4444684984438396  0.3968188795551342
  0.7778026168628642  0.5555365518082880  0.2764792373089833
  0.8889219662289065  0.4448289773465319  0.7224493511941219
  0.0000090881590182  0.6668412324289434  0.4992463146434432
  0.1110607345235977  0.8891774045444976  0.6019356480437779
  0.2222884219570602  0.7778843452452051  0.3968108265611079
  0.1111534249062558  0.8888663697020078  0.2764895367684943
  0.2224780521517005  0.7782810015117363  0.7224635840604137
  0.3333965885197401  0.6668501109680207  0.4992747289483859
  0.4440686293019098  0.8895106428605999  0.6020220606182818
  0.5555758407831348  0.7777980687624790  0.3968123840971245
  0.4444862954214557  0.8888444507508027  0.2764767906386183
  0.5556332514828242  0.7782874319788107  0.7225813879114185
  0.6666264629500134  0.6668294585927654  0.4992824304919452
  0.7783776571708927  0.8895558207324967  0.6020022106022296
  0.8889184583832730  0.7778821723185061  0.3968104251847464
  0.7777934525831895  0.8888543183138182  0.2764752976308387
  0.8888501113093454  0.7782654897558956  0.7224457725337530
  0.5510536495094627  0.7669505783183439  0.8278256688626584
  0.5551992340919938  0.7671592477148366  0.8790933325912960
  0.5515525357399298  0.6774487201271953  0.8871430090770147
 
  0.00000000E+00  0.00000000E+00  0.00000000E+00
  0.00000000E+00  0.00000000E+00  0.00000000E+00
  0.00000000E+00  0.00000000E+00  0.00000000E+00
  0.00000000E+00  0.00000000E+00  0.00000000E+00
  0.00000000E+00  0.00000000E+00  0.00000000E+00
  0.00000000E+00  0.00000000E+00  0.00000000E+00
  0.00000000E+00  0.00000000E+00  0.00000000E+00
  0.00000000E+00  0.00000000E+00  0.00000000E+00
  0.00000000E+00  0.00000000E+00  0.00000000E+00
  0.00000000E+00  0.00000000E+00  0.00000000E+00
  0.00000000E+00  0.00000000E+00  0.00000000E+00
  0.00000000E+00  0.00000000E+00  0.00000000E+00
  0.00000000E+00  0.00000000E+00  0.00000000E+00
  0.00000000E+00  0.00000000E+00  0.00000000E+00
  0.00000000E+00  0.00000000E+00  0.00000000E+00
  0.00000000E+00  0.00000000E+00  0.00000000E+00
  0.00000000E+00  0.00000000E+00  0.00000000E+00
  0.00000000E+00  0.00000000E+00  0.00000000E+00
  0.00000000E+00  0.00000000E+00  0.00000000E+00
  0.00000000E+00  0.00000000E+00  0.00000000E+00
  0.00000000E+00  0.00000000E+00  0.00000000E+00
  0.00000000E+00  0.00000000E+00  0.00000000E+00
  0.00000000E+00  0.00000000E+00  0.00000000E+00
  0.00000000E+00  0.00000000E+00  0.00000000E+00
  0.00000000E+00  0.00000000E+00  0.00000000E+00
  0.00000000E+00  0.00000000E+00  0.00000000E+00
  0.00000000E+00  0.00000000E+00  0.00000000E+00
  0.00000000E+00  0.00000000E+00  0.00000000E+00
  0.00000000E+00  0.00000000E+00  0.00000000E+00
  0.00000000E+00  0.00000000E+00  0.00000000E+00
  0.00000000E+00  0.00000000E+00  0.00000000E+00
  0.00000000E+00  0.00000000E+00  0.00000000E+00
  0.00000000E+00  0.00000000E+00  0.00000000E+00
  0.00000000E+00  0.00000000E+00  0.00000000E+00
  0.00000000E+00  0.00000000E+00  0.00000000E+00
  0.00000000E+00  0.00000000E+00  0.00000000E+00
  0.00000000E+00  0.00000000E+00  0.00000000E+00
  0.00000000E+00  0.00000000E+00  0.00000000E+00
  0.00000000E+00  0.00000000E+00  0.00000000E+00
  0.00000000E+00  0.00000000E+00  0.00000000E+00
  0.00000000E+00  0.00000000E+00  0.00000000E+00
  0.00000000E+00  0.00000000E+00  0.00000000E+00
  0.00000000E+00  0.00000000E+00  0.00000000E+00
  0.00000000E+00  0.00000000E+00  0.00000000E+00
  0.00000000E+00  0.00000000E+00  0.00000000E+00
  0.00000000E+00  0.00000000E+00  0.00000000E+00
  0.00000000E+00  0.00000000E+00  0.00000000E+00
  0.00000000E+00  0.00000000E+00  0.00000000E+00
  0.00000000E+00  0.00000000E+00  0.00000000E+00
  0.00000000E+00  0.00000000E+00  0.00000000E+00
  0.00000000E+00  0.00000000E+00  0.00000000E+00
  0.00000000E+00  0.00000000E+00  0.00000000E+00
  0.00000000E+00  0.00000000E+00  0.00000000E+00
  0.00000000E+00  0.00000000E+00  0.00000000E+00
  0.00000000E+00  0.00000000E+00  0.00000000E+00
  0.00000000E+00  0.00000000E+00  0.00000000E+00
  0.00000000E+00  0.00000000E+00  0.00000000E+00
  0.00000000E+00  0.00000000E+00  0.00000000E+00
  0.00000000E+00  0.00000000E+00  0.00000000E+00
  0.00000000E+00  0.00000000E+00  0.00000000E+00
  0.00000000E+00  0.00000000E+00  0.00000000E+00
  0.00000000E+00  0.00000000E+00  0.00000000E+00
  0.00000000E+00  0.00000000E+00  0.00000000E+00
  0.00000000E+00  0.00000000E+00  0.00000000E+00
  0.00000000E+00  0.00000000E+00  0.00000000E+00
  0.00000000E+00  0.00000000E+00  0.00000000E+00
  0.00000000E+00  0.00000000E+00  0.00000000E+00
  0.00000000E+00  0.00000000E+00  0.00000000E+00
  0.00000000E+00  0.00000000E+00  0.00000000E+00
  0.00000000E+00  0.00000000E+00  0.00000000E+00
  0.00000000E+00  0.00000000E+00  0.00000000E+00
  0.00000000E+00  0.00000000E+00  0.00000000E+00
  0.00000000E+00  0.00000000E+00  0.00000000E+00
  0.00000000E+00  0.00000000E+00  0.00000000E+00
  0.00000000E+00  0.00000000E+00  0.00000000E+00
  0.00000000E+00  0.00000000E+00  0.00000000E+00
  0.00000000E+00  0.00000000E+00  0.00000000E+00
  0.00000000E+00  0.00000000E+00  0.00000000E+00
  0.00000000E+00  0.00000000E+00  0.00000000E+00
  0.00000000E+00  0.00000000E+00  0.00000000E+00
  0.00000000E+00  0.00000000E+00  0.00000000E+00
  0.00000000E+00  0.00000000E+00  0.00000000E+00
  0.00000000E+00  0.00000000E+00  0.00000000E+00
  0.00000000E+00  0.00000000E+00  0.00000000E+00
