CONTCAR\(2)                             
   1.00000000000000     
    11.0214996337999995    0.0000000000000000    0.0000000000000000
     0.0000000000000000   14.9139995575000004    0.0000000000000000
     0.0000000000000000    0.0000000000000000   19.5716991425000018
   Nb   Ni   Te   O 
     6     6    30     1
Direct
  0.0001614300776687  0.2470037645869711  0.4962210126589149
  0.9994983069403360  0.7483066972583432  0.5044765116800961
  0.3333309002686634  0.2475120374001420  0.4967705861492942
  0.3333560374346055  0.7491570790829423  0.5071631914193455
  0.6666168348178204  0.2469865975433793  0.4962265654331254
  0.6671935220488587  0.7483449210785241  0.5044640690558390
  0.1671762683945524  0.9975554983158939  0.5017574204680167
  0.1631628227273417  0.4957616981927101  0.4995279719446967
  0.4994126104248797  0.9976036740094119  0.5017778111025438
  0.5035267191281011  0.4956861999713346  0.4994035682800355
  0.8333240679230238  0.9972078806275348  0.5001726888791042
  0.8332771911997980  0.4971696864342171  0.4996973496578558
  0.0009081975423918  0.0729797601957289  0.4287911527869494
  0.9991794165302160  0.9212956139408972  0.5727051688500340
  0.0000572848198658  0.5744562614669485  0.5721792764988408
  0.9986867723166448  0.4194747698388372  0.4269148475130383
  0.1671345257312162  0.2457119402356522  0.3846100348115629
  0.1641973801498626  0.7501252237539071  0.6169592041189468
  0.1678519463138115  0.8543816322456108  0.4283239673182728
  0.1668090978421688  0.1424389650103699  0.5743847939255224
  0.1659053538784698  0.3534902845175859  0.5733711853037955
  0.1680162192322774  0.6428651610816036  0.4274377006787728
  0.3333424658874032  0.0738039200596892  0.4290417602345573
  0.3333252907507315  0.9222350532175630  0.5749145337604548
  0.3332921187534100  0.5680123794942187  0.5657668529761390
  0.3333347019637387  0.4198988740308227  0.4272469255205683
  0.4995026978877379  0.2458469026232204  0.3845770837356791
  0.5025004795031625  0.7500439697217407  0.6169278008782290
  0.4988198748427867  0.8544401096361188  0.4282115477482262
  0.4998981807641754  0.1424644644396442  0.5744212322879972
  0.5008313805568749  0.3534853873289716  0.5733451434034232
  0.4986887846361404  0.6429647209018673  0.4273777163524369
  0.6657332072687702  0.0730067511241998  0.4287263397548871
  0.6674758420229180  0.9213426436669858  0.5727127409607752
  0.6663331225435797  0.5744622310531762  0.5721374099572362
  0.6680636735425770  0.4194732401109762  0.4268956071663503
  0.8333584464809273  0.2460991840817806  0.3844494289429736
  0.8332600524862543  0.7484669050693459  0.6160885548676044
  0.8333777019356940  0.8534674390058554  0.4263982087391188
  0.8333316762456296  0.1420998171058546  0.5735199092710617
  0.8333555923793130  0.3530010202673372  0.5733581333384020
  0.8333479134280444  0.6423198276970173  0.4271751260223629
  0.3335240943775682  0.5391795255750464  0.6577818055469051
 
  0.00000000E+00  0.00000000E+00  0.00000000E+00
  0.00000000E+00  0.00000000E+00  0.00000000E+00
  0.00000000E+00  0.00000000E+00  0.00000000E+00
  0.00000000E+00  0.00000000E+00  0.00000000E+00
  0.00000000E+00  0.00000000E+00  0.00000000E+00
  0.00000000E+00  0.00000000E+00  0.00000000E+00
  0.00000000E+00  0.00000000E+00  0.00000000E+00
  0.00000000E+00  0.00000000E+00  0.00000000E+00
  0.00000000E+00  0.00000000E+00  0.00000000E+00
  0.00000000E+00  0.00000000E+00  0.00000000E+00
  0.00000000E+00  0.00000000E+00  0.00000000E+00
  0.00000000E+00  0.00000000E+00  0.00000000E+00
  0.00000000E+00  0.00000000E+00  0.00000000E+00
  0.00000000E+00  0.00000000E+00  0.00000000E+00
  0.00000000E+00  0.00000000E+00  0.00000000E+00
  0.00000000E+00  0.00000000E+00  0.00000000E+00
  0.00000000E+00  0.00000000E+00  0.00000000E+00
  0.00000000E+00  0.00000000E+00  0.00000000E+00
  0.00000000E+00  0.00000000E+00  0.00000000E+00
  0.00000000E+00  0.00000000E+00  0.00000000E+00
  0.00000000E+00  0.00000000E+00  0.00000000E+00
  0.00000000E+00  0.00000000E+00  0.00000000E+00
  0.00000000E+00  0.00000000E+00  0.00000000E+00
  0.00000000E+00  0.00000000E+00  0.00000000E+00
  0.00000000E+00  0.00000000E+00  0.00000000E+00
  0.00000000E+00  0.00000000E+00  0.00000000E+00
  0.00000000E+00  0.00000000E+00  0.00000000E+00
  0.00000000E+00  0.00000000E+00  0.00000000E+00
  0.00000000E+00  0.00000000E+00  0.00000000E+00
  0.00000000E+00  0.00000000E+00  0.00000000E+00
  0.00000000E+00  0.00000000E+00  0.00000000E+00
  0.00000000E+00  0.00000000E+00  0.00000000E+00
  0.00000000E+00  0.00000000E+00  0.00000000E+00
  0.00000000E+00  0.00000000E+00  0.00000000E+00
  0.00000000E+00  0.00000000E+00  0.00000000E+00
  0.00000000E+00  0.00000000E+00  0.00000000E+00
  0.00000000E+00  0.00000000E+00  0.00000000E+00
  0.00000000E+00  0.00000000E+00  0.00000000E+00
  0.00000000E+00  0.00000000E+00  0.00000000E+00
  0.00000000E+00  0.00000000E+00  0.00000000E+00
  0.00000000E+00  0.00000000E+00  0.00000000E+00
  0.00000000E+00  0.00000000E+00  0.00000000E+00
  0.00000000E+00  0.00000000E+00  0.00000000E+00
