CONTCAR\(6)                             
   1.00000000000000     
    11.7456998825000003    0.0000000000000000    0.0000000000000000
     0.0000000000000000   17.6870002747000008    0.0000000000000000
     0.0000000000000000    0.0000000000000000   19.5771007537999999
   Ti   Ge   Te   O    H 
     6     6    36     2     1
Direct
  0.0870910371677486  0.4772010669966270  0.5168891940649708
  0.2523223531670870  0.9525244497687844  0.4881365552536082
  0.4205423097510010  0.4772272013318320  0.5170143141853272
  0.5858339888717891  0.9522517686244101  0.4880057224654110
  0.7539273762861505  0.4771005309492529  0.5166991827737044
  0.9190343082275196  0.9525217151793829  0.4885942567041216
  0.2529124919983789  0.8015010850133605  0.4794145693925785
  0.0861348518792158  0.6278313491231884  0.5242748683524818
  0.5865528453216956  0.8011918541786169  0.4790610794591370
  0.4199189866321452  0.6279605714789286  0.5235231022617892
  0.9191875894856714  0.8022477100137391  0.4813907336203399
  0.7528159546356943  0.6276565925405776  0.5240535156856253
  0.0852733299850974  0.9235682938113197  0.3818982340756534
  0.2541729287534456  0.2559050504767031  0.5811632623709464
  0.2516272331485311  0.0622557496038199  0.3818349241796871
  0.0863019752022131  0.8972672011828419  0.5856570813976393
  0.2537847806347203  0.5075772229758426  0.6230817565265399
  0.0877590032820900  0.3686235647144873  0.6241949411545719
  0.0851814361242675  0.1742992787464255  0.4268305145572172
  0.2531011596647853  0.7065339740499559  0.5915159900086476
  0.0857866527614069  0.7233978281412294  0.4126221552843203
  0.2538300869797684  0.3775623042511349  0.4631919823056537
  0.0856393595855694  0.0514990092011693  0.5431775398623148
  0.2538006290655767  0.5311256317125619  0.4195888943741658
  0.4188401730523584  0.9233256382953873  0.3810704796477153
  0.5869896693839751  0.2557950632898079  0.5802587282966646
  0.5861126767740734  0.0620264646340085  0.3816575568891593
  0.4197525775349396  0.8918751571243265  0.5830146730200714
  0.5873515835999644  0.5075472976227079  0.6229668113940816
  0.4210723716243738  0.3682448677296000  0.6242012790397347
  0.4190333083792114  0.1739458151500286  0.4268165193990655
  0.5865637621931862  0.7065301951348233  0.5914447270583750
  0.4195656459747792  0.7224408063923118  0.4111259276344740
  0.5870364248300344  0.3775954890402272  0.4629272663605146
  0.4191684338319772  0.0512120750933711  0.5411442868412163
  0.5870491919658112  0.5313462094975271  0.4195283533594906
  0.7530160578618382  0.9234801727027622  0.3816589217874959
  0.9210296321037069  0.2559237581016190  0.5807243244287624
  0.9187176553349184  0.0618431921068408  0.3822098618289261
  0.7520291706629159  0.8973655675304339  0.5856861603067608
  0.9202222897209150  0.5072970120374595  0.6231522766095080
  0.7539404686095846  0.3683001646392312  0.6238421876480162
  0.7520794763722116  0.1743052342519945  0.4264749397383076
  0.9193707553302263  0.7062795221375439  0.5923439716800838
  0.7536358378154769  0.7230649733683118  0.4122409200299730
  0.9206364834616142  0.3772958860071371  0.4631463579445667
  0.7523234005487959  0.0511946276063202  0.5432827329769012
  0.9205308703728218  0.5310216463043168  0.4193722549214692
  0.4258915421682068  0.9518498489007172  0.6810144932868671
  0.4408433621897688  0.8989410995848797  0.7366410054170069
  0.3623848026907389  0.8932809826500806  0.7531489591383432
 
  0.00000000E+00  0.00000000E+00  0.00000000E+00
  0.00000000E+00  0.00000000E+00  0.00000000E+00
  0.00000000E+00  0.00000000E+00  0.00000000E+00
  0.00000000E+00  0.00000000E+00  0.00000000E+00
  0.00000000E+00  0.00000000E+00  0.00000000E+00
  0.00000000E+00  0.00000000E+00  0.00000000E+00
  0.00000000E+00  0.00000000E+00  0.00000000E+00
  0.00000000E+00  0.00000000E+00  0.00000000E+00
  0.00000000E+00  0.00000000E+00  0.00000000E+00
  0.00000000E+00  0.00000000E+00  0.00000000E+00
  0.00000000E+00  0.00000000E+00  0.00000000E+00
  0.00000000E+00  0.00000000E+00  0.00000000E+00
  0.00000000E+00  0.00000000E+00  0.00000000E+00
  0.00000000E+00  0.00000000E+00  0.00000000E+00
  0.00000000E+00  0.00000000E+00  0.00000000E+00
  0.00000000E+00  0.00000000E+00  0.00000000E+00
  0.00000000E+00  0.00000000E+00  0.00000000E+00
  0.00000000E+00  0.00000000E+00  0.00000000E+00
  0.00000000E+00  0.00000000E+00  0.00000000E+00
  0.00000000E+00  0.00000000E+00  0.00000000E+00
  0.00000000E+00  0.00000000E+00  0.00000000E+00
  0.00000000E+00  0.00000000E+00  0.00000000E+00
  0.00000000E+00  0.00000000E+00  0.00000000E+00
  0.00000000E+00  0.00000000E+00  0.00000000E+00
  0.00000000E+00  0.00000000E+00  0.00000000E+00
  0.00000000E+00  0.00000000E+00  0.00000000E+00
  0.00000000E+00  0.00000000E+00  0.00000000E+00
  0.00000000E+00  0.00000000E+00  0.00000000E+00
  0.00000000E+00  0.00000000E+00  0.00000000E+00
  0.00000000E+00  0.00000000E+00  0.00000000E+00
  0.00000000E+00  0.00000000E+00  0.00000000E+00
  0.00000000E+00  0.00000000E+00  0.00000000E+00
  0.00000000E+00  0.00000000E+00  0.00000000E+00
  0.00000000E+00  0.00000000E+00  0.00000000E+00
  0.00000000E+00  0.00000000E+00  0.00000000E+00
  0.00000000E+00  0.00000000E+00  0.00000000E+00
  0.00000000E+00  0.00000000E+00  0.00000000E+00
  0.00000000E+00  0.00000000E+00  0.00000000E+00
  0.00000000E+00  0.00000000E+00  0.00000000E+00
  0.00000000E+00  0.00000000E+00  0.00000000E+00
  0.00000000E+00  0.00000000E+00  0.00000000E+00
  0.00000000E+00  0.00000000E+00  0.00000000E+00
  0.00000000E+00  0.00000000E+00  0.00000000E+00
  0.00000000E+00  0.00000000E+00  0.00000000E+00
  0.00000000E+00  0.00000000E+00  0.00000000E+00
  0.00000000E+00  0.00000000E+00  0.00000000E+00
  0.00000000E+00  0.00000000E+00  0.00000000E+00
  0.00000000E+00  0.00000000E+00  0.00000000E+00
  0.00000000E+00  0.00000000E+00  0.00000000E+00
  0.00000000E+00  0.00000000E+00  0.00000000E+00
  0.00000000E+00  0.00000000E+00  0.00000000E+00
