 Cu2 H4 Se2 O10                         
   1.00000000000000     
     4.9606844413988984    0.0000000000000000    0.0000000000000000
     1.4169770544846982    9.8449986327301815    0.0000000000000000
     0.0000000000000000    0.0000000000000000   19.0859309430720003
   Cu   H    Se   O 
     2     4     2    10
Direct
  0.9999842277655824  0.0000009653999410  0.4999945493503635
  0.5000255512131287  0.5000014776217211  0.4999978707605309
  0.2161725925504301  0.6919909633643315  0.5553836212559397
  0.7837936658004275  0.3080118475892974  0.4446041513800159
  0.0681518991701118  0.5637426371860513  0.5697633550531841
  0.9319737046056775  0.4362186789681937  0.4302790608753860
  0.4122170863019612  0.1915387417982040  0.5229120644497547
  0.5877518887576962  0.8084647518915944  0.4770680903115890
  0.2766594348735524  0.0952392303119893  0.4622524771508509
  0.7232909124627745  0.9047803318141922  0.5377360733132048
  0.7534362275802911  0.1777324841592128  0.5028661840218264
  0.2465203167028707  0.8222657269492283  0.4971294308570646
  0.3368975157919021  0.1578130954382782  0.6030108023844512
  0.6630394385563804  0.8421841877062036  0.3969842179041616
  0.2848549266651130  0.3546680384444472  0.4992464631275252
  0.7151558672598458  0.6453437729817076  0.5007567322486025
  0.7525838372414245  0.4053117728862691  0.4290424729837566
  0.2474909067008371  0.5946912954891307  0.5709723825717997
 
  0.00000000E+00  0.00000000E+00  0.00000000E+00
  0.00000000E+00  0.00000000E+00  0.00000000E+00
  0.00000000E+00  0.00000000E+00  0.00000000E+00
  0.00000000E+00  0.00000000E+00  0.00000000E+00
  0.00000000E+00  0.00000000E+00  0.00000000E+00
  0.00000000E+00  0.00000000E+00  0.00000000E+00
  0.00000000E+00  0.00000000E+00  0.00000000E+00
  0.00000000E+00  0.00000000E+00  0.00000000E+00
  0.00000000E+00  0.00000000E+00  0.00000000E+00
  0.00000000E+00  0.00000000E+00  0.00000000E+00
  0.00000000E+00  0.00000000E+00  0.00000000E+00
  0.00000000E+00  0.00000000E+00  0.00000000E+00
  0.00000000E+00  0.00000000E+00  0.00000000E+00
  0.00000000E+00  0.00000000E+00  0.00000000E+00
  0.00000000E+00  0.00000000E+00  0.00000000E+00
  0.00000000E+00  0.00000000E+00  0.00000000E+00
  0.00000000E+00  0.00000000E+00  0.00000000E+00
  0.00000000E+00  0.00000000E+00  0.00000000E+00
