CONTCAR\(13)                            
   1.00000000000000     
    11.2263002396000005    0.0000000000000000    0.0000000000000000
     0.0000000000000000   21.7961997986000000    0.0000000000000000
     0.0000000000000000    0.0000000000000000   19.3752994536999985
   Ta   Te   Pd   O    H 
     9    42     9     2     1
Selective dynamics
Direct
  0.1678891808983778  0.4769961512226715  0.5033959507563708   F   F   F
  0.1673880119584865  0.1227375325351190  0.4971906743083991   F   F   F
  0.1633906207734697  0.7757459907223136  0.5155797652140990   F   F   F
  0.5036096955217104  0.4752397370865964  0.5045518824515867   F   F   F
  0.4999662043279827  0.1230955154280622  0.4970169632906476   F   F   F
  0.4962708337059496  0.7755881182833306  0.5173261380428755   F   F   F
  0.8355503536460915  0.4751771751417380  0.5012897845147606   F   F   F
  0.8335469832730382  0.1231660368638003  0.4969473930585480   F   F   F
  0.8281122036753246  0.7751203508472315  0.5173300513601831   F   F   F
  0.0046771301269217  0.4094131251221853  0.4203639953526874   F   F   F
  0.1699809329888211  0.2385828663099971  0.4214245627679247   F   F   F
  0.1652400873176347  0.8910851621129154  0.5866220624632703   F   F   F
  0.9956999917014002  0.8412349732817574  0.4349931375038665   F   F   F
  0.0019785802988537  0.5512338599690239  0.4291154536709456   F   F   F
  0.0005736016476590  0.4791149736461904  0.6144936716230660   F   F   F
  0.1656225605205606  0.0026623013571552  0.4304394985243789   F   F   F
  0.9998663490125281  0.0558159048032323  0.5787523727953641   F   F   F
  0.1635165228295747  0.5941861037882816  0.5755345653710151   F   F   F
  0.0010552144822498  0.1967200206114654  0.5710652986785618   F   F   F
  0.1525329120765093  0.7015025992101371  0.4047004098470239   F   F   F
  0.0005960239081588  0.1195235756105291  0.3849469635884546   F   F   F
  0.9970442324044342  0.7407772566707038  0.6144448341451039   F   F   F
  0.1675514582151507  0.3583955375659187  0.5750767177725820   F   F   F
  0.3355184960845179  0.4087917227585862  0.4241007268349648   F   F   F
  0.5007873065930966  0.2399969429758499  0.4231635013128141   F   F   F
  0.4989990988970234  0.8910644335293441  0.5879647730810973   F   F   F
  0.3308307120807115  0.8413744094123174  0.4339041067176623   F   F   F
  0.3384955577138271  0.5527064458843611  0.4329141099024838   F   F   F
  0.3331558841180424  0.4795387215572475  0.6163075968160641   F   F   F
  0.4986344203604816  0.0033396160379837  0.4296265039143776   F   F   F
  0.3336380733148090  0.0545034397531197  0.5778806885342078   F   F   F
  0.4971011034147850  0.5923158635768431  0.5737623574083415   F   F   F
  0.3336734448351919  0.1968342258541753  0.5718758002024771   F   F   F
  0.4952077687031391  0.6976548422108380  0.4101305129597677   F   F   F
  0.3336657628210276  0.1203356622375225  0.3848604966980460   F   F   F
  0.3295538858900287  0.7418167703510221  0.6150646245769735   F   F   F
  0.5014807358885491  0.3570641286287355  0.5752112604857871   F   F   F
  0.6683680788016559  0.4090742053041794  0.4201568378622724   F   F   F
  0.8356542739016177  0.2404187141551972  0.4236722156589252   F   F   F
  0.8303185580603909  0.8913239024693738  0.5867490621483427   F   F   F
  0.6632698805640587  0.8405926597669051  0.4343643278595763   F   F   F
  0.6675085577466859  0.5494903226859194  0.4294178867827654   F   F   F
  0.6744844870648450  0.4730831016552557  0.6151950459020910   F   F   F
  0.8318595945857226  0.0031130542281232  0.4301779347221881   F   F   F
  0.6666783030462540  0.0552777439006036  0.5780790317815629   F   F   F
  0.8289149543632064  0.5907440519249363  0.5762084293811753   F   F   F
  0.6671292169360967  0.1961362276650362  0.5718172765434488   F   F   F
  0.8300204109851563  0.6982374017593713  0.4089441342334794   F   F   F
  0.6666664652764069  0.1212741646707869  0.3847006724531923   F   F   F
  0.6627969417617123  0.7407856643488344  0.6158548219753470   F   F   F
  0.8374355222848209  0.3568208879730079  0.5723030539286640   F   F   F
  0.9978096970513590  0.9464110001287835  0.5081437629030532   F   F   F
  0.0050322516089381  0.3008615083194712  0.4951828220090420   F   F   F
  0.9949987155322830  0.6602086380071270  0.5055984154482402   F   F   F
  0.3327380879644650  0.9460168713758037  0.5077602311326217   F   F   F
  0.3332516536328853  0.3007941852271543  0.4966148808839961   F   F   F
  0.3209580000647421  0.6651723705739840  0.5024351656475901   F   F   F
  0.6643068185969838  0.9460841543544376  0.5074388989059457   F   F   F
  0.6678756831817765  0.3008244981095274  0.4963655796967501   F   F   F
  0.6635456626336307  0.6607525668662504  0.5059113762105056   F   F   F
  0.5635272974355559  0.5817660729700478  0.6783593494626174   T   T   T
  0.4907781373109401  0.6202488822233647  0.7238932496719954   T   T   T
  0.4297705445816717  0.5907850813782289  0.7380425576649212   T   T   T
 
  0.00000000E+00  0.00000000E+00  0.00000000E+00
  0.00000000E+00  0.00000000E+00  0.00000000E+00
  0.00000000E+00  0.00000000E+00  0.00000000E+00
  0.00000000E+00  0.00000000E+00  0.00000000E+00
  0.00000000E+00  0.00000000E+00  0.00000000E+00
  0.00000000E+00  0.00000000E+00  0.00000000E+00
  0.00000000E+00  0.00000000E+00  0.00000000E+00
  0.00000000E+00  0.00000000E+00  0.00000000E+00
  0.00000000E+00  0.00000000E+00  0.00000000E+00
  0.00000000E+00  0.00000000E+00  0.00000000E+00
  0.00000000E+00  0.00000000E+00  0.00000000E+00
  0.00000000E+00  0.00000000E+00  0.00000000E+00
  0.00000000E+00  0.00000000E+00  0.00000000E+00
  0.00000000E+00  0.00000000E+00  0.00000000E+00
  0.00000000E+00  0.00000000E+00  0.00000000E+00
  0.00000000E+00  0.00000000E+00  0.00000000E+00
  0.00000000E+00  0.00000000E+00  0.00000000E+00
  0.00000000E+00  0.00000000E+00  0.00000000E+00
  0.00000000E+00  0.00000000E+00  0.00000000E+00
  0.00000000E+00  0.00000000E+00  0.00000000E+00
  0.00000000E+00  0.00000000E+00  0.00000000E+00
  0.00000000E+00  0.00000000E+00  0.00000000E+00
  0.00000000E+00  0.00000000E+00  0.00000000E+00
  0.00000000E+00  0.00000000E+00  0.00000000E+00
  0.00000000E+00  0.00000000E+00  0.00000000E+00
  0.00000000E+00  0.00000000E+00  0.00000000E+00
  0.00000000E+00  0.00000000E+00  0.00000000E+00
  0.00000000E+00  0.00000000E+00  0.00000000E+00
  0.00000000E+00  0.00000000E+00  0.00000000E+00
  0.00000000E+00  0.00000000E+00  0.00000000E+00
  0.00000000E+00  0.00000000E+00  0.00000000E+00
  0.00000000E+00  0.00000000E+00  0.00000000E+00
  0.00000000E+00  0.00000000E+00  0.00000000E+00
  0.00000000E+00  0.00000000E+00  0.00000000E+00
  0.00000000E+00  0.00000000E+00  0.00000000E+00
  0.00000000E+00  0.00000000E+00  0.00000000E+00
  0.00000000E+00  0.00000000E+00  0.00000000E+00
  0.00000000E+00  0.00000000E+00  0.00000000E+00
  0.00000000E+00  0.00000000E+00  0.00000000E+00
  0.00000000E+00  0.00000000E+00  0.00000000E+00
  0.00000000E+00  0.00000000E+00  0.00000000E+00
  0.00000000E+00  0.00000000E+00  0.00000000E+00
  0.00000000E+00  0.00000000E+00  0.00000000E+00
  0.00000000E+00  0.00000000E+00  0.00000000E+00
  0.00000000E+00  0.00000000E+00  0.00000000E+00
  0.00000000E+00  0.00000000E+00  0.00000000E+00
  0.00000000E+00  0.00000000E+00  0.00000000E+00
  0.00000000E+00  0.00000000E+00  0.00000000E+00
  0.00000000E+00  0.00000000E+00  0.00000000E+00
  0.00000000E+00  0.00000000E+00  0.00000000E+00
  0.00000000E+00  0.00000000E+00  0.00000000E+00
  0.00000000E+00  0.00000000E+00  0.00000000E+00
  0.00000000E+00  0.00000000E+00  0.00000000E+00
  0.00000000E+00  0.00000000E+00  0.00000000E+00
  0.00000000E+00  0.00000000E+00  0.00000000E+00
  0.00000000E+00  0.00000000E+00  0.00000000E+00
  0.00000000E+00  0.00000000E+00  0.00000000E+00
  0.00000000E+00  0.00000000E+00  0.00000000E+00
  0.00000000E+00  0.00000000E+00  0.00000000E+00
  0.00000000E+00  0.00000000E+00  0.00000000E+00
  0.00000000E+00  0.00000000E+00  0.00000000E+00
  0.00000000E+00  0.00000000E+00  0.00000000E+00
  0.00000000E+00  0.00000000E+00  0.00000000E+00
