CONTCAR                                 
   1.00000000000000     
    15.1738004683999996    0.0000000000000000    0.0000000000000000
     7.5869002341999998   13.1408966776000007    0.0000000000000000
     0.0000000000000000    0.0000000000000000   21.6410999297999993
   Tb   Br   O    H 
    32    32     1     1
Direct
  0.0833855019704465  0.0833189387558160  0.4336127254484139
  0.1674585639826676  0.1674138993475787  0.5612484663921153
  0.3336189744054642  0.0845020069001945  0.4328362357434031
  0.4188215195232808  0.1616905500152619  0.5617927159790799
  0.5841877505793661  0.0816646233594974  0.4321262451341842
  0.6698113417412115  0.1615351968339871  0.5617147364205689
  0.8320048231610139  0.0844243162967380  0.4327541207807380
  0.9152756774927030  0.1673467255998069  0.5611840900341475
  0.0845277971311409  0.3335383953828333  0.4327828102483011
  0.1616623309437494  0.4187113397115743  0.5617385250693212
  0.3362545368642628  0.3361986927858206  0.4400177091460855
  0.4167325359852432  0.4169005812384354  0.6340356075861050
  0.5776505431844750  0.3361608240833068  0.4399601797245756
  0.6698322449686810  0.4187296410019866  0.5616652301309804
  0.8320032427544103  0.3335099096562212  0.4327258993746819
  0.9178286811409847  0.4144843192100153  0.5587735839921524
  0.0817195432102758  0.5841252108919576  0.4321146112129759
  0.1615479779139539  0.6697781984672500  0.5617319736272095
  0.3362209880473215  0.5775874307490089  0.4400157604269639
  0.4187689315614692  0.6698128672014814  0.5617156383982098
  0.5841957434968945  0.5841614481143130  0.4321029854343755
  0.6675356346036062  0.6674930062686909  0.5595810729992633
  0.8334473353357444  0.5831154112907747  0.4313951526006561
  0.9150551152090490  0.6674479466172034  0.5595526261665807
  0.0845041657046560  0.8319215789931159  0.4327841249773309
  0.1673998932023176  0.9152360775674038  0.5612380403483999
  0.3335883126253302  0.8319916937294953  0.4327972089842959
  0.4145821029895663  0.9178306504024204  0.5588652242691110
  0.5831797339876345  0.8334299932199265  0.4314542357513985
  0.6675076501139646  0.9150391280978413  0.5595802776907992
  0.8334327309170382  0.8334049636653881  0.4313936347043126
  0.9177293306731167  0.9176911731718620  0.5588031575988071
  0.0000749027088820  0.0000130939525671  0.3443105838735404
  0.0000706894728638  0.0000576115846261  0.6497353625440008
  0.2499189981618463  0.0000564496440342  0.3443320265542551
  0.2498587962439575  0.0000914445944929  0.6497558525145009
  0.4991538206422863  0.0007442587454862  0.3426283465466191
  0.5013363284624944  0.9930038072427827  0.6490781836871348
  0.7500858555529323  0.0007313055835721  0.3425809846909447
  0.7559063650344195  0.9927805175160775  0.6490365714088291
  0.0000962624363413  0.2498470454020410  0.3442964066343002
  0.0001151680465621  0.2497886473270257  0.6497137933089703
  0.2534219225905400  0.2533747362413770  0.3470727291704500
  0.2511407266711006  0.2511230102624065  0.6508292720461060
  0.4987076877322675  0.2525462998735882  0.3476313279005872
  0.5207530720150189  0.2089527355828460  0.6584339856044954
  0.7432421053309892  0.2533390414390600  0.3469743395308888
  0.7478189536966225  0.2512121710422468  0.6507113269160170
  0.0007828018861967  0.4991200785317612  0.3425972471385561
  0.9928885037002365  0.5012250859788553  0.6489804916457568
  0.2525954935190477  0.4986854800298577  0.3476466341117065
  0.2087173313623717  0.5207061558146723  0.6583565470184777
  0.4987175890297783  0.4987078495376255  0.3476426787331033
  0.5208292272228722  0.5207840220149391  0.6583125522425574
  0.7501112409593325  0.4991365899374112  0.3425759068667851
  0.7560600051907819  0.5012714191901494  0.6489946740581500
  0.0007625492064726  0.7500568924796590  0.3425943237376900
  0.9927662335656636  0.7558719727022601  0.6490283259760776
  0.2534261803847466  0.7431924654793225  0.3470615239411263
  0.2511520843477491  0.7477836118428918  0.6507812726371200
  0.4991721689096004  0.7501179967169861  0.3426154287571654
  0.5013372844779619  0.7560317185849951  0.6490550568540122
  0.7499814613335481  0.7499704910889812  0.3423338285254309
  0.7500349116833550  0.7499997599812542  0.6492140261469582
  0.4166425859437840  0.4171677686661436  0.7265676814731635
  0.4159690830563536  0.4171423337608285  0.7711563698090130
 
  0.00000000E+00  0.00000000E+00  0.00000000E+00
  0.00000000E+00  0.00000000E+00  0.00000000E+00
  0.00000000E+00  0.00000000E+00  0.00000000E+00
  0.00000000E+00  0.00000000E+00  0.00000000E+00
  0.00000000E+00  0.00000000E+00  0.00000000E+00
  0.00000000E+00  0.00000000E+00  0.00000000E+00
  0.00000000E+00  0.00000000E+00  0.00000000E+00
  0.00000000E+00  0.00000000E+00  0.00000000E+00
  0.00000000E+00  0.00000000E+00  0.00000000E+00
  0.00000000E+00  0.00000000E+00  0.00000000E+00
  0.00000000E+00  0.00000000E+00  0.00000000E+00
  0.00000000E+00  0.00000000E+00  0.00000000E+00
  0.00000000E+00  0.00000000E+00  0.00000000E+00
  0.00000000E+00  0.00000000E+00  0.00000000E+00
  0.00000000E+00  0.00000000E+00  0.00000000E+00
  0.00000000E+00  0.00000000E+00  0.00000000E+00
  0.00000000E+00  0.00000000E+00  0.00000000E+00
  0.00000000E+00  0.00000000E+00  0.00000000E+00
  0.00000000E+00  0.00000000E+00  0.00000000E+00
  0.00000000E+00  0.00000000E+00  0.00000000E+00
  0.00000000E+00  0.00000000E+00  0.00000000E+00
  0.00000000E+00  0.00000000E+00  0.00000000E+00
  0.00000000E+00  0.00000000E+00  0.00000000E+00
  0.00000000E+00  0.00000000E+00  0.00000000E+00
  0.00000000E+00  0.00000000E+00  0.00000000E+00
  0.00000000E+00  0.00000000E+00  0.00000000E+00
  0.00000000E+00  0.00000000E+00  0.00000000E+00
  0.00000000E+00  0.00000000E+00  0.00000000E+00
  0.00000000E+00  0.00000000E+00  0.00000000E+00
  0.00000000E+00  0.00000000E+00  0.00000000E+00
  0.00000000E+00  0.00000000E+00  0.00000000E+00
  0.00000000E+00  0.00000000E+00  0.00000000E+00
  0.00000000E+00  0.00000000E+00  0.00000000E+00
  0.00000000E+00  0.00000000E+00  0.00000000E+00
  0.00000000E+00  0.00000000E+00  0.00000000E+00
  0.00000000E+00  0.00000000E+00  0.00000000E+00
  0.00000000E+00  0.00000000E+00  0.00000000E+00
  0.00000000E+00  0.00000000E+00  0.00000000E+00
  0.00000000E+00  0.00000000E+00  0.00000000E+00
  0.00000000E+00  0.00000000E+00  0.00000000E+00
  0.00000000E+00  0.00000000E+00  0.00000000E+00
  0.00000000E+00  0.00000000E+00  0.00000000E+00
  0.00000000E+00  0.00000000E+00  0.00000000E+00
  0.00000000E+00  0.00000000E+00  0.00000000E+00
  0.00000000E+00  0.00000000E+00  0.00000000E+00
  0.00000000E+00  0.00000000E+00  0.00000000E+00
  0.00000000E+00  0.00000000E+00  0.00000000E+00
  0.00000000E+00  0.00000000E+00  0.00000000E+00
  0.00000000E+00  0.00000000E+00  0.00000000E+00
  0.00000000E+00  0.00000000E+00  0.00000000E+00
  0.00000000E+00  0.00000000E+00  0.00000000E+00
  0.00000000E+00  0.00000000E+00  0.00000000E+00
  0.00000000E+00  0.00000000E+00  0.00000000E+00
  0.00000000E+00  0.00000000E+00  0.00000000E+00
  0.00000000E+00  0.00000000E+00  0.00000000E+00
  0.00000000E+00  0.00000000E+00  0.00000000E+00
  0.00000000E+00  0.00000000E+00  0.00000000E+00
  0.00000000E+00  0.00000000E+00  0.00000000E+00
  0.00000000E+00  0.00000000E+00  0.00000000E+00
  0.00000000E+00  0.00000000E+00  0.00000000E+00
  0.00000000E+00  0.00000000E+00  0.00000000E+00
  0.00000000E+00  0.00000000E+00  0.00000000E+00
  0.00000000E+00  0.00000000E+00  0.00000000E+00
  0.00000000E+00  0.00000000E+00  0.00000000E+00
  0.00000000E+00  0.00000000E+00  0.00000000E+00
  0.00000000E+00  0.00000000E+00  0.00000000E+00
