CONTCAR\(3)                             
   1.00000000000000     
    10.4272003174000005    0.0000000000000000    0.0000000000000000
     0.0000000000000000   15.5413999556999993    0.0000000000000000
     0.0000000000000000    0.0000000000000000   22.9932003021000000
   Nb   Se   O 
    18    54     1
Direct
  0.0843147854455994  0.4924362187622211  0.4151408893198605
  0.2516057083834762  0.5043888852208613  0.5865282137081810
  0.0792661294820420  0.2483227193034185  0.5700229576806385
  0.2518680473841264  0.7524117422511427  0.4308345913425534
  0.0815008999010226  0.9218978717427767  0.5691208627485563
  0.2532547868196016  0.0829873254956176  0.4356641108924418
  0.4178499632628276  0.4928522972493153  0.4153113533948458
  0.5840518945889813  0.5061440285314885  0.5865677237189649
  0.4205920145186230  0.2463698968681794  0.5716959921985078
  0.5858793208779752  0.7524101853031523  0.4302330905195215
  0.4096641499856896  0.9109118302354994  0.5751983732176921
  0.5827652265443461  0.0819429671386988  0.4360785048479854
  0.7509169216269459  0.4929022836831822  0.4148951038131483
  0.9146648248261111  0.5051182936105826  0.5861655115022252
  0.7474723255717021  0.2473460613531019  0.5721915611164711
  0.9206801329493417  0.7521471603313092  0.4295510824487331
  0.7607468907094408  0.9177810818189074  0.5665005436492357
  0.9163484634174339  0.0848178115223991  0.4346032779366549
  0.0824513085937951  0.6290555048648044  0.6081131551959256
  0.2513747008326464  0.3665352924871697  0.3935726291202938
  0.0832307613103304  0.4170622610608886  0.5231248542598718
  0.2509562543555142  0.5811392207168761  0.4787276485178747
  0.0829600978387014  0.5094885449648491  0.6739937162275583
  0.2508649198332008  0.4871550879498542  0.3276000055356018
  0.2539132666258644  0.9192978018933288  0.4818226197006149
  0.0826371012580545  0.0835087139188751  0.5220425395057613
  0.2478340522250399  0.0074312980266049  0.6380709125697578
  0.0856488694815857  0.0097279823928528  0.3636309479594619
  0.2321698946240525  0.8102776894276228  0.6236947085471262
  0.0852464020850173  0.1724959525385258  0.3725702064437759
  0.2442894454812137  0.1645501826412385  0.6374876236791887
  0.0872449712656437  0.8390229604468908  0.3662898558058922
  0.2505887371484991  0.3411000545766211  0.6312970929245312
  0.0865973391775745  0.6547943301555602  0.3706187022206044
  0.2518527122189268  0.2427186418487550  0.4853102644141978
  0.0857056189102391  0.7570548182129021  0.5177850748968420
  0.4169506714525721  0.6312129429134684  0.6077825278956902
  0.5839562760472583  0.3669556446090093  0.3927530039417109
  0.4182442540162586  0.4168203394756779  0.5231689769601001
  0.5849039112781277  0.5816414681090347  0.4782479674066282
  0.4169529763252465  0.5112437977548276  0.6745462163591296
  0.5840354188325521  0.4876480772600380  0.3273530595679084
  0.5808173032041702  0.9187617388960602  0.4830189414540266
  0.4176115805196224  0.0774965335525342  0.5242943402973284
  0.5884910517525388  0.9859425541402173  0.6400143119096068
  0.4181301988950257  0.0067296034719318  0.3632266459984727
  0.6005191906797335  0.8254043708645000  0.6268915351916831
  0.4179762816364510  0.1712770132495509  0.3732124551705879
  0.5820527105713482  0.1600696481953346  0.6366874638728905
  0.4189081905196900  0.8377983516292289  0.3656535706734386
  0.5834476227019322  0.3447148817134774  0.6320279920686046
  0.4186282324240466  0.6553916918362005  0.3711049303436720
  0.5827854613040018  0.2423690161574433  0.4848112516725219
  0.4203878317447451  0.7550876419716178  0.5170499484828259
  0.7508829670198782  0.6323809042314110  0.6076022607101985
  0.9171188915525815  0.3669280599164897  0.3926412069468145
  0.7492774708268750  0.4170603870842349  0.5228184191848297
  0.9177719006623011  0.5813853569650359  0.4781221042363440
  0.7497337366683310  0.5125592507570097  0.6744066187816863
  0.9177694431491475  0.4880849550219689  0.3272315390824370
  0.9210912385372624  0.9208201086435113  0.4788122709482283
  0.7518136039091687  0.0812656675748844  0.5227693628935978
  0.9162047377924079  0.9966068780092278  0.6404094450984280
  0.7502033241498766  0.0082733547566683  0.3639374094037600
  0.9197294645469827  0.8298595852972074  0.6305853619978222
  0.7481566969121096  0.1714693108561036  0.3720151679963415
  0.9156082866762775  0.1633759068133718  0.6370445062171747
  0.7526243394040423  0.8383778345874490  0.3667124839680487
  0.9148315987538015  0.3442650358485559  0.6314279699937474
  0.7523754097885481  0.6551320531954538  0.3705326058943439
  0.9138679891336027  0.2445652756281569  0.4841085377658731
  0.7552865722323410  0.7564972760588575  0.5161586077798149
  0.3579138718179939  0.8708623194081874  0.6604527682525558
 
  0.00000000E+00  0.00000000E+00  0.00000000E+00
  0.00000000E+00  0.00000000E+00  0.00000000E+00
  0.00000000E+00  0.00000000E+00  0.00000000E+00
  0.00000000E+00  0.00000000E+00  0.00000000E+00
  0.00000000E+00  0.00000000E+00  0.00000000E+00
  0.00000000E+00  0.00000000E+00  0.00000000E+00
  0.00000000E+00  0.00000000E+00  0.00000000E+00
  0.00000000E+00  0.00000000E+00  0.00000000E+00
  0.00000000E+00  0.00000000E+00  0.00000000E+00
  0.00000000E+00  0.00000000E+00  0.00000000E+00
  0.00000000E+00  0.00000000E+00  0.00000000E+00
  0.00000000E+00  0.00000000E+00  0.00000000E+00
  0.00000000E+00  0.00000000E+00  0.00000000E+00
  0.00000000E+00  0.00000000E+00  0.00000000E+00
  0.00000000E+00  0.00000000E+00  0.00000000E+00
  0.00000000E+00  0.00000000E+00  0.00000000E+00
  0.00000000E+00  0.00000000E+00  0.00000000E+00
  0.00000000E+00  0.00000000E+00  0.00000000E+00
  0.00000000E+00  0.00000000E+00  0.00000000E+00
  0.00000000E+00  0.00000000E+00  0.00000000E+00
  0.00000000E+00  0.00000000E+00  0.00000000E+00
  0.00000000E+00  0.00000000E+00  0.00000000E+00
  0.00000000E+00  0.00000000E+00  0.00000000E+00
  0.00000000E+00  0.00000000E+00  0.00000000E+00
  0.00000000E+00  0.00000000E+00  0.00000000E+00
  0.00000000E+00  0.00000000E+00  0.00000000E+00
  0.00000000E+00  0.00000000E+00  0.00000000E+00
  0.00000000E+00  0.00000000E+00  0.00000000E+00
  0.00000000E+00  0.00000000E+00  0.00000000E+00
  0.00000000E+00  0.00000000E+00  0.00000000E+00
  0.00000000E+00  0.00000000E+00  0.00000000E+00
  0.00000000E+00  0.00000000E+00  0.00000000E+00
  0.00000000E+00  0.00000000E+00  0.00000000E+00
  0.00000000E+00  0.00000000E+00  0.00000000E+00
  0.00000000E+00  0.00000000E+00  0.00000000E+00
  0.00000000E+00  0.00000000E+00  0.00000000E+00
  0.00000000E+00  0.00000000E+00  0.00000000E+00
  0.00000000E+00  0.00000000E+00  0.00000000E+00
  0.00000000E+00  0.00000000E+00  0.00000000E+00
  0.00000000E+00  0.00000000E+00  0.00000000E+00
  0.00000000E+00  0.00000000E+00  0.00000000E+00
  0.00000000E+00  0.00000000E+00  0.00000000E+00
  0.00000000E+00  0.00000000E+00  0.00000000E+00
  0.00000000E+00  0.00000000E+00  0.00000000E+00
  0.00000000E+00  0.00000000E+00  0.00000000E+00
  0.00000000E+00  0.00000000E+00  0.00000000E+00
  0.00000000E+00  0.00000000E+00  0.00000000E+00
  0.00000000E+00  0.00000000E+00  0.00000000E+00
  0.00000000E+00  0.00000000E+00  0.00000000E+00
  0.00000000E+00  0.00000000E+00  0.00000000E+00
  0.00000000E+00  0.00000000E+00  0.00000000E+00
  0.00000000E+00  0.00000000E+00  0.00000000E+00
  0.00000000E+00  0.00000000E+00  0.00000000E+00
  0.00000000E+00  0.00000000E+00  0.00000000E+00
  0.00000000E+00  0.00000000E+00  0.00000000E+00
  0.00000000E+00  0.00000000E+00  0.00000000E+00
  0.00000000E+00  0.00000000E+00  0.00000000E+00
  0.00000000E+00  0.00000000E+00  0.00000000E+00
  0.00000000E+00  0.00000000E+00  0.00000000E+00
  0.00000000E+00  0.00000000E+00  0.00000000E+00
  0.00000000E+00  0.00000000E+00  0.00000000E+00
  0.00000000E+00  0.00000000E+00  0.00000000E+00
  0.00000000E+00  0.00000000E+00  0.00000000E+00
  0.00000000E+00  0.00000000E+00  0.00000000E+00
  0.00000000E+00  0.00000000E+00  0.00000000E+00
  0.00000000E+00  0.00000000E+00  0.00000000E+00
  0.00000000E+00  0.00000000E+00  0.00000000E+00
  0.00000000E+00  0.00000000E+00  0.00000000E+00
  0.00000000E+00  0.00000000E+00  0.00000000E+00
  0.00000000E+00  0.00000000E+00  0.00000000E+00
  0.00000000E+00  0.00000000E+00  0.00000000E+00
  0.00000000E+00  0.00000000E+00  0.00000000E+00
  0.00000000E+00  0.00000000E+00  0.00000000E+00
