CONTCAR\(8)                             
   1.00000000000000     
    11.2503995895000006    0.0000000000000000    0.0000000000000000
     0.0000000000000000   11.4900999068999994    0.0000000000000000
     0.0000000000000000    0.0000000000000000   19.3134994507000002
   Cr   Te   O 
     8    24     1
Direct
 -0.0048736800867905  0.6704301165563373  0.5077722043953256
  0.4804041889231472  0.8467644943528488  0.4977976986432301
  0.0000813720976509  0.3172987097525756  0.5034673505245157
  0.4918693067803256  0.1411988490508346  0.4996474108758986
  0.2815325154815403  0.4943937503255724  0.5176361460923000
  0.7769034999888113 -0.0064177988479792  0.4999235297329266
  0.7128095935065913  0.4867819421938042  0.4823744480731544
  0.2477790617391331 -0.0043323670960045  0.5080012231466328
  0.8901468270349906  0.4910189801207978  0.5782284504637484
  0.4044786204895001 -0.0031660424725862  0.4063229049736151
  0.0936641387302079  0.4964816154998199  0.4270269319196835
  0.5881929401640806 -0.0101411463759640  0.5870003847214634
  0.3379252644928410  0.1479483918126624  0.6008225242295773
  0.8334007004105938  0.3364093051525031  0.4031073701360260
  0.6670208666200053  0.8442785060255452  0.4085521471735827
  0.1692175293049251  0.6441554188619475  0.6039537091772600
  0.1702040794169828  0.3408111051097900  0.6016984406354791
  0.6696916261423955  0.1431287149897075  0.4068367812851428
  0.8299405138424928  0.6483137694283222  0.4065232872554343
  0.3306091623282562  0.8413465842486771  0.6013747952244757
  0.6164195602533140  0.3127947119956161  0.5648953514415070
  0.1263780527061502  0.1572320089668737  0.4280999405027584
  0.3696935919138565  0.6727652202081813  0.4340467454672837
  0.8763655235099578  0.8299388777836879  0.5881701259207135
  0.4524710926991451  0.4888805822706535  0.6151003221927548
  0.9389931012213194 -0.0079211345406061  0.3977279791367245
  0.5405564825354823  0.4887937553467510  0.3873870556352133
  0.0763224856485668 -0.0032525611443435  0.6077803572542553
  0.6021094009009946  0.6683108740285530  0.5491750087537459
  0.1239376225882345  0.8299269315235467  0.4335966780515595
  0.3739047944797304  0.3147346530975086  0.4381369478250264
  0.8857475500484325  0.1562025237957495  0.5810480542412548
  0.7145126320871442  0.7253906279786154  0.6159076338977162
 
  0.00000000E+00  0.00000000E+00  0.00000000E+00
  0.00000000E+00  0.00000000E+00  0.00000000E+00
  0.00000000E+00  0.00000000E+00  0.00000000E+00
  0.00000000E+00  0.00000000E+00  0.00000000E+00
  0.00000000E+00  0.00000000E+00  0.00000000E+00
  0.00000000E+00  0.00000000E+00  0.00000000E+00
  0.00000000E+00  0.00000000E+00  0.00000000E+00
  0.00000000E+00  0.00000000E+00  0.00000000E+00
  0.00000000E+00  0.00000000E+00  0.00000000E+00
  0.00000000E+00  0.00000000E+00  0.00000000E+00
  0.00000000E+00  0.00000000E+00  0.00000000E+00
  0.00000000E+00  0.00000000E+00  0.00000000E+00
  0.00000000E+00  0.00000000E+00  0.00000000E+00
  0.00000000E+00  0.00000000E+00  0.00000000E+00
  0.00000000E+00  0.00000000E+00  0.00000000E+00
  0.00000000E+00  0.00000000E+00  0.00000000E+00
  0.00000000E+00  0.00000000E+00  0.00000000E+00
  0.00000000E+00  0.00000000E+00  0.00000000E+00
  0.00000000E+00  0.00000000E+00  0.00000000E+00
  0.00000000E+00  0.00000000E+00  0.00000000E+00
  0.00000000E+00  0.00000000E+00  0.00000000E+00
  0.00000000E+00  0.00000000E+00  0.00000000E+00
  0.00000000E+00  0.00000000E+00  0.00000000E+00
  0.00000000E+00  0.00000000E+00  0.00000000E+00
  0.00000000E+00  0.00000000E+00  0.00000000E+00
  0.00000000E+00  0.00000000E+00  0.00000000E+00
  0.00000000E+00  0.00000000E+00  0.00000000E+00
  0.00000000E+00  0.00000000E+00  0.00000000E+00
  0.00000000E+00  0.00000000E+00  0.00000000E+00
  0.00000000E+00  0.00000000E+00  0.00000000E+00
  0.00000000E+00  0.00000000E+00  0.00000000E+00
  0.00000000E+00  0.00000000E+00  0.00000000E+00
  0.00000000E+00  0.00000000E+00  0.00000000E+00
