CONTCAR\(4)                             
   1.00000000000000     
    14.0314998627000005    0.0000000000000000    0.0000000000000000
     0.0000000000000000   12.8740997313999994    0.0000000000000000
     0.0000000000000000    0.0000000000000000   20.5195999146000005
   Ta   Ni   Te   O    H 
    16    32    32     1     1
Direct
  0.9997793358914451  0.2031221605644087  0.4793430739109774
 -0.0000996188170393  0.4526103092254400  0.5219832160173820
  0.2489477060071953  0.2015265918717760  0.4791318042979451
  0.2506899923633211  0.4532547781138244  0.5223863498906849
  0.4993988020821883  0.2012225375492656  0.4776147430925787
  0.4983540031397148  0.4487792055269900  0.5214302013036535
  0.7497299422454566  0.2029160714193155  0.4782575358976675
  0.7484445581674516  0.4528423074085761  0.5222442113834301
  0.9993426822490316  0.7019177082815139  0.4791866906067216
  0.9991951759673889  0.9512531699948141  0.5216658641118620
  0.2510036437593508  0.7016133875465529  0.4800423520417912
  0.2492457482935221  0.9515336514808259  0.5219730468512502
  0.5009708637440021  0.7061446499150922  0.4775297428436730
  0.5009488310304402  0.9514152684168206  0.5201270390384725
  0.7492704819146251  0.6996307088209829  0.4779634896869359
  0.7504277212252060  0.9545201543378771  0.5194839327627867
  0.1238885853649856  0.1035539762563813  0.5564900236199029
  0.1264380006979998  0.3548290878278538  0.4450907075354139
  0.1249976582574986  0.3001052592148959  0.5567781068123805
  0.1238249380736866  0.0492713538144946  0.4447585562621592
  0.3754290434110992  0.1036399377288695  0.5555594583638809
  0.3734771750737655  0.3543198189607040  0.4439131899721145
  0.3743207775199044  0.2986432058955096  0.5553568035443489
  0.3734880731947648  0.0499621247481734  0.4439194612894710
  0.6242951512268131  0.1034689777465558  0.5547914939279518
  0.6247285083343040  0.3545560836897533  0.4440149491141531
  0.6243473793713751  0.2986267876383697  0.5553805238007149
  0.6251502661682602  0.0514373205957027  0.4424550565691508
  0.8750611738382654  0.1045724497109972  0.5556484956842143
  0.8741254278117995  0.3552909152546311  0.4449778000144230
  0.8740389073677493  0.3000320227476723  0.5564430265875121
  0.8762792187712296  0.0504271647078056  0.4437011158371697
  0.1264538252905573  0.6033127752297285  0.5561935577322024
  0.1244954201794447  0.8537941141905865  0.4448696268036860
  0.1237003704743702  0.7994919313388822  0.5564730906426463
  0.1242488191090846  0.5499502344385556  0.4445550170342119
  0.3908371411481834  0.6063336692886623  0.5587971688097462
  0.3730176937036030  0.8546260979067273  0.4446169513209356
  0.3798000731212172  0.7996076065461695  0.5570830174831938
  0.3735616000288293  0.5510286273112652  0.4461594646850534
  0.6067531079630185  0.6068457122695233  0.5599269722965857
  0.6255902386765655  0.8557567969992311  0.4410928965293935
  0.6318385752692163  0.8009523547867738  0.5518010814819387
  0.6248915733656722  0.5511897994574206  0.4465728743146907
  0.8704233410907292  0.6032466380591510  0.5558652765824869
  0.8736543463712531  0.8541861788353192  0.4439225900122700
  0.8704479404602800  0.7991465199340019  0.5558482750343601
  0.8761619813110851  0.5498869767436487  0.4441685408238061
  0.1240653736770216  0.4517627435520706  0.6345606788032446
  0.1243253616278108  0.2022761932609085  0.3671721391616691
  0.0003343680072776  0.4508275594578730  0.3775804889277827
  0.9994869560143873  0.2025780548296316  0.6234823142729877
  0.3740038154976870  0.4491961157240133  0.6340973715045353
  0.3735407824081477  0.2022841444767100  0.3662423005004827
  0.2497022113947398  0.4534982406885776  0.3772794553921939
  0.2499271625998438  0.2008614882308195  0.6231495831972638
  0.6254144619210943  0.4498687158527821  0.6339263621530886
  0.6245234788354007  0.2038367607454395  0.3653745365924777
  0.4993779037226529  0.4530348345432521  0.3782060003219444
  0.4995735133075667  0.2014242268100363  0.6220564886128342
  0.8762833959522203  0.4513885350963129  0.6342042432063206
  0.8748524615246082  0.2036831262045546  0.3666627909154679
  0.7496308712979872  0.4534405818777661  0.3779526876906724
  0.7492861713523444  0.2013165078608204  0.6225775832883228
  0.1235734772332837  0.9509988546104231  0.6342951832880023
  0.1257729186195261  0.7021200268802477  0.3675111077606183
  0.9998982057552714  0.9508825716746503  0.3770364266050262
  0.9979336188030278  0.7005047352838467  0.6218785069129522
  0.3729441237975404  0.9528060291591122  0.6334970577669349
  0.3744636724566276  0.7020831552783733  0.3667151214533723
  0.2486177269810201  0.9521239535141903  0.3771461160038416
  0.2525625035963852  0.6996950392893356  0.6211579932961118
  0.6230300687020325  0.9501840858795190  0.6320812332314570
  0.6251619998770297  0.7008694811417842  0.3653490903927309
  0.4985707285505810  0.9531324097439702  0.3765165522248242
  0.4988664117813796  0.7126694009204138  0.6365490300969877
  0.8732336108658045  0.9517462729555625  0.6331138649074979
  0.8752263506769513  0.7019781469269183  0.3663761186074301
  0.7506342257372784  0.9544440812536107  0.3753212609985013
  0.7445519973663154  0.6971301349378461  0.6222339030453991
  0.4381948136609674  0.6250684226487025  0.7154780373181268
  0.4760385870882638  0.6431706283417734  0.7539104632888308
 
  0.00000000E+00  0.00000000E+00  0.00000000E+00
  0.00000000E+00  0.00000000E+00  0.00000000E+00
  0.00000000E+00  0.00000000E+00  0.00000000E+00
  0.00000000E+00  0.00000000E+00  0.00000000E+00
  0.00000000E+00  0.00000000E+00  0.00000000E+00
  0.00000000E+00  0.00000000E+00  0.00000000E+00
  0.00000000E+00  0.00000000E+00  0.00000000E+00
  0.00000000E+00  0.00000000E+00  0.00000000E+00
  0.00000000E+00  0.00000000E+00  0.00000000E+00
  0.00000000E+00  0.00000000E+00  0.00000000E+00
  0.00000000E+00  0.00000000E+00  0.00000000E+00
  0.00000000E+00  0.00000000E+00  0.00000000E+00
  0.00000000E+00  0.00000000E+00  0.00000000E+00
  0.00000000E+00  0.00000000E+00  0.00000000E+00
  0.00000000E+00  0.00000000E+00  0.00000000E+00
  0.00000000E+00  0.00000000E+00  0.00000000E+00
  0.00000000E+00  0.00000000E+00  0.00000000E+00
  0.00000000E+00  0.00000000E+00  0.00000000E+00
  0.00000000E+00  0.00000000E+00  0.00000000E+00
  0.00000000E+00  0.00000000E+00  0.00000000E+00
  0.00000000E+00  0.00000000E+00  0.00000000E+00
  0.00000000E+00  0.00000000E+00  0.00000000E+00
  0.00000000E+00  0.00000000E+00  0.00000000E+00
  0.00000000E+00  0.00000000E+00  0.00000000E+00
  0.00000000E+00  0.00000000E+00  0.00000000E+00
  0.00000000E+00  0.00000000E+00  0.00000000E+00
  0.00000000E+00  0.00000000E+00  0.00000000E+00
  0.00000000E+00  0.00000000E+00  0.00000000E+00
  0.00000000E+00  0.00000000E+00  0.00000000E+00
  0.00000000E+00  0.00000000E+00  0.00000000E+00
  0.00000000E+00  0.00000000E+00  0.00000000E+00
  0.00000000E+00  0.00000000E+00  0.00000000E+00
  0.00000000E+00  0.00000000E+00  0.00000000E+00
  0.00000000E+00  0.00000000E+00  0.00000000E+00
  0.00000000E+00  0.00000000E+00  0.00000000E+00
  0.00000000E+00  0.00000000E+00  0.00000000E+00
  0.00000000E+00  0.00000000E+00  0.00000000E+00
  0.00000000E+00  0.00000000E+00  0.00000000E+00
  0.00000000E+00  0.00000000E+00  0.00000000E+00
  0.00000000E+00  0.00000000E+00  0.00000000E+00
  0.00000000E+00  0.00000000E+00  0.00000000E+00
  0.00000000E+00  0.00000000E+00  0.00000000E+00
  0.00000000E+00  0.00000000E+00  0.00000000E+00
  0.00000000E+00  0.00000000E+00  0.00000000E+00
  0.00000000E+00  0.00000000E+00  0.00000000E+00
  0.00000000E+00  0.00000000E+00  0.00000000E+00
  0.00000000E+00  0.00000000E+00  0.00000000E+00
  0.00000000E+00  0.00000000E+00  0.00000000E+00
  0.00000000E+00  0.00000000E+00  0.00000000E+00
  0.00000000E+00  0.00000000E+00  0.00000000E+00
  0.00000000E+00  0.00000000E+00  0.00000000E+00
  0.00000000E+00  0.00000000E+00  0.00000000E+00
  0.00000000E+00  0.00000000E+00  0.00000000E+00
  0.00000000E+00  0.00000000E+00  0.00000000E+00
  0.00000000E+00  0.00000000E+00  0.00000000E+00
  0.00000000E+00  0.00000000E+00  0.00000000E+00
  0.00000000E+00  0.00000000E+00  0.00000000E+00
  0.00000000E+00  0.00000000E+00  0.00000000E+00
  0.00000000E+00  0.00000000E+00  0.00000000E+00
  0.00000000E+00  0.00000000E+00  0.00000000E+00
  0.00000000E+00  0.00000000E+00  0.00000000E+00
  0.00000000E+00  0.00000000E+00  0.00000000E+00
  0.00000000E+00  0.00000000E+00  0.00000000E+00
  0.00000000E+00  0.00000000E+00  0.00000000E+00
  0.00000000E+00  0.00000000E+00  0.00000000E+00
  0.00000000E+00  0.00000000E+00  0.00000000E+00
  0.00000000E+00  0.00000000E+00  0.00000000E+00
  0.00000000E+00  0.00000000E+00  0.00000000E+00
  0.00000000E+00  0.00000000E+00  0.00000000E+00
  0.00000000E+00  0.00000000E+00  0.00000000E+00
  0.00000000E+00  0.00000000E+00  0.00000000E+00
  0.00000000E+00  0.00000000E+00  0.00000000E+00
  0.00000000E+00  0.00000000E+00  0.00000000E+00
  0.00000000E+00  0.00000000E+00  0.00000000E+00
  0.00000000E+00  0.00000000E+00  0.00000000E+00
  0.00000000E+00  0.00000000E+00  0.00000000E+00
  0.00000000E+00  0.00000000E+00  0.00000000E+00
  0.00000000E+00  0.00000000E+00  0.00000000E+00
  0.00000000E+00  0.00000000E+00  0.00000000E+00
  0.00000000E+00  0.00000000E+00  0.00000000E+00
  0.00000000E+00  0.00000000E+00  0.00000000E+00
  0.00000000E+00  0.00000000E+00  0.00000000E+00
