CONTCAR                                 
   1.00000000000000     
    11.1612997054999994    0.0000000000000000    0.0000000000000000
     0.0000000000000000   15.5193004608000003    0.0000000000000000
     0.0000000000000000    0.0000000000000000   19.4729003905999996
   Nb   Te   Pd   O    H 
     6    30     6     2     1
Selective dynamics
Direct
  0.1805801834319922  0.8355039381125238  0.4935348580085019   F   F   F
  0.1809927425524833  0.3366273657236221  0.5027234882051062   F   F   F
  0.5166265335342217  0.8337115444851690  0.4931480313836403   F   F   F
  0.5147006685857392  0.3382152415467203  0.5018891830542671   F   F   F
  0.8447496147977844  0.8345832456892666  0.4925085105029581   F   F   F
  0.8473539171593742  0.3382497371825437  0.5018561963922181   F   F   F
  0.0128213788404778  0.9333408585957201  0.5727292605852057   F   F   F
  0.0149864650960865  0.4352521007162835  0.4233018604268963   F   F   F
  0.1812122400252818  0.0021679190015433  0.4256889191280067   F   F   F
  0.1804522628736294  0.5029526619364830  0.5731827807279331   F   F   F
  0.0140805371251460  0.3383739837892108  0.6143867289070712   F   F   F
  0.0146225857049487  0.8371136645822759  0.3817153876114574   F   F   F
  0.0129163240301011  0.7365683746897318  0.5720977787304022   F   F   F
  0.0140578340288045  0.2368467030275667  0.4255175600608183   F   F   F
  0.1807638633717801  0.6720660658799460  0.4206220152605340   F   F   F
  0.1807003404478706  0.1707940640237524  0.5742299716191681   F   F   F
  0.3482419351418073  0.9334112160513897  0.5727781860277332   F   F   F
  0.3468488379194667  0.4353418964124884  0.4232883470735871   F   F   F
  0.5173515623599911  0.0011785677221923  0.4252330775516953   F   F   F
  0.5145946004635817  0.5036285285524755  0.5724675053160908   F   F   F
  0.3480296639395846  0.3383600663767581  0.6144648972470179   F   F   F
  0.3467133345256954  0.8367486295992350  0.3820713115011927   F   F   F
  0.3476937564257199  0.7360902578720783  0.5724712347405401   F   F   F
  0.3480468477011769  0.2366360247077566  0.4258318341180711   F   F   F
  0.5133734022439143  0.6695267636960978  0.4204809290008953   F   F   F
  0.5147244233794623  0.1746760593919632  0.5745462822657501   F   F   F
  0.6818856271833340  0.9374809473960113  0.5672827408961254   F   F   F
  0.6808920560318086  0.4359475441993723  0.4218577017439671   F   F   F
  0.8464749910157323  0.0015749187706362  0.4232909599558425   F   F   F
  0.8474795996215860  0.5033810888167309  0.5727381599312906   F   F   F
  0.6809916401787603  0.3403112024193504  0.6140201121228799   F   F   F
  0.6803472325058095  0.8338130212081651  0.3798281579845124   F   F   F
  0.6814827017412739  0.7327367408348735  0.5707206754116925   F   F   F
  0.6811696095794986  0.2384034237062380  0.4240004890283444   F   F   F
  0.8484499234003664  0.6699534522637052  0.4203082311733937   F   F   F
  0.8486201482704843  0.1750193117944292  0.5747784133541600   F   F   F
  0.0148416134191010  0.5866658552101995  0.4966643234892558   F   F   F
  0.0124994674798131  0.0861114019298910  0.4999737825242008   F   F   F
  0.3463316121610234  0.5865303400770685  0.4967206694184938   F   F   F
  0.3494870834224315  0.0861073060883868  0.5004154849978875   F   F   F
  0.6812092443184810  0.5862552072912735  0.4955556554598388   F   F   F
  0.6828685649159638  0.0915193177559104  0.4991504299184015   F   F   F
  0.7096452138305622  0.8945502634044757  0.6717980852252552   T   T   T
  0.6236110831085426  0.9362324944010609  0.7169028033064748   T   T   T
  0.5627367791093079  0.8909307870674255  0.7207870033361780   T   T   T
 
  0.00000000E+00  0.00000000E+00  0.00000000E+00
  0.00000000E+00  0.00000000E+00  0.00000000E+00
  0.00000000E+00  0.00000000E+00  0.00000000E+00
  0.00000000E+00  0.00000000E+00  0.00000000E+00
  0.00000000E+00  0.00000000E+00  0.00000000E+00
  0.00000000E+00  0.00000000E+00  0.00000000E+00
  0.00000000E+00  0.00000000E+00  0.00000000E+00
  0.00000000E+00  0.00000000E+00  0.00000000E+00
  0.00000000E+00  0.00000000E+00  0.00000000E+00
  0.00000000E+00  0.00000000E+00  0.00000000E+00
  0.00000000E+00  0.00000000E+00  0.00000000E+00
  0.00000000E+00  0.00000000E+00  0.00000000E+00
  0.00000000E+00  0.00000000E+00  0.00000000E+00
  0.00000000E+00  0.00000000E+00  0.00000000E+00
  0.00000000E+00  0.00000000E+00  0.00000000E+00
  0.00000000E+00  0.00000000E+00  0.00000000E+00
  0.00000000E+00  0.00000000E+00  0.00000000E+00
  0.00000000E+00  0.00000000E+00  0.00000000E+00
  0.00000000E+00  0.00000000E+00  0.00000000E+00
  0.00000000E+00  0.00000000E+00  0.00000000E+00
  0.00000000E+00  0.00000000E+00  0.00000000E+00
  0.00000000E+00  0.00000000E+00  0.00000000E+00
  0.00000000E+00  0.00000000E+00  0.00000000E+00
  0.00000000E+00  0.00000000E+00  0.00000000E+00
  0.00000000E+00  0.00000000E+00  0.00000000E+00
  0.00000000E+00  0.00000000E+00  0.00000000E+00
  0.00000000E+00  0.00000000E+00  0.00000000E+00
  0.00000000E+00  0.00000000E+00  0.00000000E+00
  0.00000000E+00  0.00000000E+00  0.00000000E+00
  0.00000000E+00  0.00000000E+00  0.00000000E+00
  0.00000000E+00  0.00000000E+00  0.00000000E+00
  0.00000000E+00  0.00000000E+00  0.00000000E+00
  0.00000000E+00  0.00000000E+00  0.00000000E+00
  0.00000000E+00  0.00000000E+00  0.00000000E+00
  0.00000000E+00  0.00000000E+00  0.00000000E+00
  0.00000000E+00  0.00000000E+00  0.00000000E+00
  0.00000000E+00  0.00000000E+00  0.00000000E+00
  0.00000000E+00  0.00000000E+00  0.00000000E+00
  0.00000000E+00  0.00000000E+00  0.00000000E+00
  0.00000000E+00  0.00000000E+00  0.00000000E+00
  0.00000000E+00  0.00000000E+00  0.00000000E+00
  0.00000000E+00  0.00000000E+00  0.00000000E+00
  0.00000000E+00  0.00000000E+00  0.00000000E+00
  0.00000000E+00  0.00000000E+00  0.00000000E+00
  0.00000000E+00  0.00000000E+00  0.00000000E+00
