CONTCAR\(9)                             
   1.00000000000000     
    12.6978998183999998    0.0000000000000000    0.0000000000000000
     0.0000000000000000   11.4748001099000003    0.0000000000000000
     0.0000000000000000    0.0000000000000000   18.8323001862000012
   Ta   Si   Te
    12     4    24
Direct
  0.3322965674355562  0.5851231460162669  0.5000000000000000
  0.0822965674355562  0.4148768539837330  0.5000000000000000
  0.4842798387760725  0.9380001499735690  0.5000000000000000
  0.2342798197760745  0.0619998810264300  0.5000000000000000
  0.3488868692539701  0.2847003794602749  0.5000000000000000
  0.0988868882539681  0.7152995785397287  0.5000000000000000
  0.8322966054355593  0.5851231460162669  0.5000000000000000
  0.5822965864355613  0.4148768539837330  0.5000000000000000
  0.9842798387760725  0.9380001499735690  0.5000000000000000
  0.7342798577760776  0.0619998810264300  0.5000000000000000
  0.8488868692539702  0.2847003794602749  0.5000000000000000
  0.5988868882539682  0.7152995785397287  0.5000000000000000
  0.2881155215750751  0.8249033947864165  0.5000000000000000
  0.0381155265750720  0.1750965422135818  0.5000000000000000
  0.7881155025750700  0.8249033947864165  0.5000000000000000
  0.5381155215750751  0.1750965422135818  0.5000000000000000
  0.3986131594575948  0.0942490540772517  0.6002237517862477
  0.1486131414576004  0.9057509349227438  0.3997762982137494
  0.1486131414576004  0.9057509349227438  0.6002237517862477
  0.3986131594575948  0.0942490540772517  0.3997762982137494
  0.4272961924921288  0.7469332232162761  0.5972231481473476
  0.1772961924921288  0.2530667977837221  0.4027768268526539
  0.1772961924921288  0.2530667977837221  0.5972231481473476
  0.4272961924921288  0.7469332232162761  0.4027768268526539
  0.4241262750299414  0.4327192129104210  0.6027198534557122
  0.1741262560299363  0.5672807870895790  0.3972801725442899
  0.1741262560299363  0.5672807870895790  0.6027298294557134
  0.4241262750299414  0.4327192129104210  0.3972801725442899
  0.8986131594575948  0.0942490540772517  0.6002237517862477
  0.6486131784575999  0.9057509349227438  0.3997762982137494
  0.6486131784575999  0.9057509349227438  0.6002237517862477
  0.8986131594575948  0.0942490540772517  0.3997762982137494
  0.9272961554921222  0.7469332232162761  0.5972231481473476
  0.6772961734921237  0.2530667977837221  0.4027768268526539
  0.6772961734921237  0.2530667977837221  0.5972231481473476
  0.9272961554921222  0.7469332232162761  0.4027768268526539
  0.9241262380299419  0.4327192129104210  0.6027198534557122
  0.6741262560299363  0.5672807870895790  0.3972801725442899
  0.6741262560299363  0.5672807870895790  0.6027298294557134
  0.9241262380299419  0.4327192129104210  0.3972801725442899
 
  0.00000000E+00  0.00000000E+00  0.00000000E+00
  0.00000000E+00  0.00000000E+00  0.00000000E+00
  0.00000000E+00  0.00000000E+00  0.00000000E+00
  0.00000000E+00  0.00000000E+00  0.00000000E+00
  0.00000000E+00  0.00000000E+00  0.00000000E+00
  0.00000000E+00  0.00000000E+00  0.00000000E+00
  0.00000000E+00  0.00000000E+00  0.00000000E+00
  0.00000000E+00  0.00000000E+00  0.00000000E+00
  0.00000000E+00  0.00000000E+00  0.00000000E+00
  0.00000000E+00  0.00000000E+00  0.00000000E+00
  0.00000000E+00  0.00000000E+00  0.00000000E+00
  0.00000000E+00  0.00000000E+00  0.00000000E+00
  0.00000000E+00  0.00000000E+00  0.00000000E+00
  0.00000000E+00  0.00000000E+00  0.00000000E+00
  0.00000000E+00  0.00000000E+00  0.00000000E+00
  0.00000000E+00  0.00000000E+00  0.00000000E+00
  0.00000000E+00  0.00000000E+00  0.00000000E+00
  0.00000000E+00  0.00000000E+00  0.00000000E+00
  0.00000000E+00  0.00000000E+00  0.00000000E+00
  0.00000000E+00  0.00000000E+00  0.00000000E+00
  0.00000000E+00  0.00000000E+00  0.00000000E+00
  0.00000000E+00  0.00000000E+00  0.00000000E+00
  0.00000000E+00  0.00000000E+00  0.00000000E+00
  0.00000000E+00  0.00000000E+00  0.00000000E+00
  0.00000000E+00  0.00000000E+00  0.00000000E+00
  0.00000000E+00  0.00000000E+00  0.00000000E+00
  0.00000000E+00  0.00000000E+00  0.00000000E+00
  0.00000000E+00  0.00000000E+00  0.00000000E+00
  0.00000000E+00  0.00000000E+00  0.00000000E+00
  0.00000000E+00  0.00000000E+00  0.00000000E+00
  0.00000000E+00  0.00000000E+00  0.00000000E+00
  0.00000000E+00  0.00000000E+00  0.00000000E+00
  0.00000000E+00  0.00000000E+00  0.00000000E+00
  0.00000000E+00  0.00000000E+00  0.00000000E+00
  0.00000000E+00  0.00000000E+00  0.00000000E+00
  0.00000000E+00  0.00000000E+00  0.00000000E+00
  0.00000000E+00  0.00000000E+00  0.00000000E+00
  0.00000000E+00  0.00000000E+00  0.00000000E+00
  0.00000000E+00  0.00000000E+00  0.00000000E+00
  0.00000000E+00  0.00000000E+00  0.00000000E+00
