CONTCAR\(6)                             
   1.00000000000000     
    12.9315996169999998    0.0000000000000000    0.0000000000000000
     0.0000000000000000   12.9343004226999998    0.0000000000000000
     0.0000000000000000    0.0000000000000000   24.0856990814000014
   La   Te   Se   O 
    18    36    18     1
Selective dynamics
Direct
  0.1662032459406930  0.0012687333188381  0.5770842167421009   F   F   F
  0.9999851194135161  0.1667511931796497  0.4227070256643017   F   F   F
  0.5001204437338700  0.9992920218550339  0.5780617233659839   F   F   F
  0.3330513249414722  0.1663148847680915  0.4229169954244654   F   F   F
  0.8333582209042234  0.0000331824779352  0.5765702553663345   F   F   F
  0.6664887594617710  0.1663146977721652  0.4228723349227224   F   F   F
  0.1672463864338809  0.3338364070010726  0.5777586981710030   F   F   F
  0.9996025289568422  0.4997270452561864  0.4229954022289704   F   F   F
  0.4993966155943284  0.3308864072156439  0.5767752184963086   F   F   F
  0.3332684904336531  0.4998173810039148  0.4234461322987073   F   F   F
  0.8345908546345626  0.3328741561689270  0.5771518306012879   F   F   F
  0.6663729907252218  0.4998842104860302  0.4234108526838440   F   F   F
  0.1642352438072052  0.6661078797839934  0.5766647556393210   F   F   F
  0.9995463501509221  0.8330361992353659  0.4228737109641116   F   F   F
  0.5006234869538275  0.6673688610376516  0.5774908625157025   F   F   F
  0.3331808236031790  0.8331419120305767  0.4234324032047780   F   F   F
  0.8325848456469345  0.6667818482853960  0.5779762334117677   F   F   F
  0.6664607022284912  0.8331131655282746  0.4230268375929995   F   F   F
  0.9994142132860517  0.0026797097705469  0.6879931153561074   F   F   F
  0.1666793337047281  0.1664934892936785  0.3122054232988134   F   F   F
  0.1656829613679136  0.1670563394246827  0.6893443701843722   F   F   F
  0.9999753531556195  0.9999254652255232  0.3124108133207528   F   F   F
  0.3346579935714331  0.0031227652979453  0.6891525860486283   F   F   F
  0.4998761958843971  0.1665423968718756  0.3123600892196521   F   F   F
  0.4985159751563089  0.1645577657651103  0.6893208645934195   F   F   F
  0.3331396653504157  0.9996312314174531  0.3125167839646039   F   F   F
  0.6695552866332264  0.0000861106303560  0.6890760603385147   F   F   F
  0.8332329861149788  0.1664912628965070  0.3121264058665929   F   F   F
  0.8362842960611090  0.1660422337227061  0.6879885919723989   F   F   F
  0.6664402702106216  0.9997683151403010  0.3122480177624993   F   F   F
  0.0008978658995815  0.3322313337332901  0.6894073193487955   F   F   F
  0.1665982216566846  0.4998728734553808  0.3127179438183134   F   F   F
  0.1699294640052216  0.5015390399239052  0.6897314775628161   F   F   F
  0.9999015952728172  0.3333161500441690  0.3122223980952370   F   F   F
  0.3350052834088757  0.3365401432885662  0.6896512870814036   F   F   F
  0.4998895745512186  0.4999439389379319  0.3127064561724353   F   F   F
  0.5137914950038720  0.4925916912454937  0.6922556664643338   F   F   F
  0.3333152105230965  0.3333123947445813  0.3125963995515733   F   F   F
  0.6722671399459017  0.3270077744748647  0.6897082553922900   F   F   F
  0.8329156603224419  0.4998283986278551  0.3125679340641767   F   F   F
  0.8362406251152450  0.5015213528551357  0.6892086816874254   F   F   F
  0.6664322677163952  0.3333565596276031  0.3125369144887387   F   F   F
  0.9974796175404563  0.6654409822198772  0.6892230808776247   F   F   F
  0.1664791493870865  0.8332023542663052  0.3125421951507903   F   F   F
  0.1602667491945624  0.8388813174427625  0.6893382081005086   F   F   F
  0.9997884209027319  0.6663480558506691  0.3122929832347836   F   F   F
  0.3260219400749023  0.6804689345913957  0.6922547072407141   F   F   F
  0.4998278492747090  0.8330692945475207  0.3127187723762290   F   F   F
  0.5003471680716913  0.8324815589251600  0.6906025487665843   F   F   F
  0.3332700263644597  0.6664067006758785  0.3130623509717765   F   F   F
  0.6657838011740722  0.6669644986819776  0.6902100718744748   F   F   F
  0.8332186271427489  0.8331388055765814  0.3122743895181799   F   F   F
  0.8334361024459156  0.8361638939125768  0.6890144332396630   F   F   F
  0.6665099511726140  0.6664718197996677  0.3125990367895710   F   F   F
  0.0006293748752739  0.1671938732698379  0.5495817670777612   F   F   F
  0.1665687969681500  0.9996353282751116  0.4512765873350588   F   F   F
  0.3331613730502596  0.1665382443855989  0.5500992754346612   F   F   F
  0.4996046088359094  0.9995845372728525  0.4517879406587966   F   F   F
  0.6664183597219733  0.1662574471686611  0.5499226856148738   F   F   F
  0.8332326089709028  0.9998767804036746  0.4508613487778632   F   F   F
  0.9999682119512201  0.4998498250781864  0.5504343987468516   F   F   F
  0.1667517612553340  0.3336431302962097  0.4514801246578202   F   F   F
  0.3344990092633395  0.5011003996921772  0.5510313454644233   F   F   F
  0.4997916270985669  0.3330413031773531  0.4514237051651548   F   F   F
  0.6651236913358929  0.4994493127935300  0.5512510984098498   F   F   F
  0.8330143071943468  0.3334581156223848  0.4511913549395814   F   F   F
  0.9995934754169937  0.8332222019831974  0.5498757586486320   F   F   F
  0.1662362400265778  0.6663281741932536  0.4512549215766484   F   F   F
  0.3327733864251599  0.8319535358003165  0.5510869855929243   F   F   F
  0.5000042398689786  0.6664953061926226  0.4518304774608595   F   F   F
  0.6660585233919107  0.8330081997848851  0.5503220373043476   F   F   F
  0.8328322658598992  0.6660882491979265  0.4517446629692543   F   F   F
  0.4125038202606106  0.5789693051016230  0.7359279238812763   T   T   T
 
  0.00000000E+00  0.00000000E+00  0.00000000E+00
  0.00000000E+00  0.00000000E+00  0.00000000E+00
  0.00000000E+00  0.00000000E+00  0.00000000E+00
  0.00000000E+00  0.00000000E+00  0.00000000E+00
  0.00000000E+00  0.00000000E+00  0.00000000E+00
  0.00000000E+00  0.00000000E+00  0.00000000E+00
  0.00000000E+00  0.00000000E+00  0.00000000E+00
  0.00000000E+00  0.00000000E+00  0.00000000E+00
  0.00000000E+00  0.00000000E+00  0.00000000E+00
  0.00000000E+00  0.00000000E+00  0.00000000E+00
  0.00000000E+00  0.00000000E+00  0.00000000E+00
  0.00000000E+00  0.00000000E+00  0.00000000E+00
  0.00000000E+00  0.00000000E+00  0.00000000E+00
  0.00000000E+00  0.00000000E+00  0.00000000E+00
  0.00000000E+00  0.00000000E+00  0.00000000E+00
  0.00000000E+00  0.00000000E+00  0.00000000E+00
  0.00000000E+00  0.00000000E+00  0.00000000E+00
  0.00000000E+00  0.00000000E+00  0.00000000E+00
  0.00000000E+00  0.00000000E+00  0.00000000E+00
  0.00000000E+00  0.00000000E+00  0.00000000E+00
  0.00000000E+00  0.00000000E+00  0.00000000E+00
  0.00000000E+00  0.00000000E+00  0.00000000E+00
  0.00000000E+00  0.00000000E+00  0.00000000E+00
  0.00000000E+00  0.00000000E+00  0.00000000E+00
  0.00000000E+00  0.00000000E+00  0.00000000E+00
  0.00000000E+00  0.00000000E+00  0.00000000E+00
  0.00000000E+00  0.00000000E+00  0.00000000E+00
  0.00000000E+00  0.00000000E+00  0.00000000E+00
  0.00000000E+00  0.00000000E+00  0.00000000E+00
  0.00000000E+00  0.00000000E+00  0.00000000E+00
  0.00000000E+00  0.00000000E+00  0.00000000E+00
  0.00000000E+00  0.00000000E+00  0.00000000E+00
  0.00000000E+00  0.00000000E+00  0.00000000E+00
  0.00000000E+00  0.00000000E+00  0.00000000E+00
  0.00000000E+00  0.00000000E+00  0.00000000E+00
  0.00000000E+00  0.00000000E+00  0.00000000E+00
  0.00000000E+00  0.00000000E+00  0.00000000E+00
  0.00000000E+00  0.00000000E+00  0.00000000E+00
  0.00000000E+00  0.00000000E+00  0.00000000E+00
  0.00000000E+00  0.00000000E+00  0.00000000E+00
  0.00000000E+00  0.00000000E+00  0.00000000E+00
  0.00000000E+00  0.00000000E+00  0.00000000E+00
  0.00000000E+00  0.00000000E+00  0.00000000E+00
  0.00000000E+00  0.00000000E+00  0.00000000E+00
  0.00000000E+00  0.00000000E+00  0.00000000E+00
  0.00000000E+00  0.00000000E+00  0.00000000E+00
  0.00000000E+00  0.00000000E+00  0.00000000E+00
  0.00000000E+00  0.00000000E+00  0.00000000E+00
  0.00000000E+00  0.00000000E+00  0.00000000E+00
  0.00000000E+00  0.00000000E+00  0.00000000E+00
  0.00000000E+00  0.00000000E+00  0.00000000E+00
  0.00000000E+00  0.00000000E+00  0.00000000E+00
  0.00000000E+00  0.00000000E+00  0.00000000E+00
  0.00000000E+00  0.00000000E+00  0.00000000E+00
  0.00000000E+00  0.00000000E+00  0.00000000E+00
  0.00000000E+00  0.00000000E+00  0.00000000E+00
  0.00000000E+00  0.00000000E+00  0.00000000E+00
  0.00000000E+00  0.00000000E+00  0.00000000E+00
  0.00000000E+00  0.00000000E+00  0.00000000E+00
  0.00000000E+00  0.00000000E+00  0.00000000E+00
  0.00000000E+00  0.00000000E+00  0.00000000E+00
  0.00000000E+00  0.00000000E+00  0.00000000E+00
  0.00000000E+00  0.00000000E+00  0.00000000E+00
  0.00000000E+00  0.00000000E+00  0.00000000E+00
  0.00000000E+00  0.00000000E+00  0.00000000E+00
  0.00000000E+00  0.00000000E+00  0.00000000E+00
  0.00000000E+00  0.00000000E+00  0.00000000E+00
  0.00000000E+00  0.00000000E+00  0.00000000E+00
  0.00000000E+00  0.00000000E+00  0.00000000E+00
  0.00000000E+00  0.00000000E+00  0.00000000E+00
  0.00000000E+00  0.00000000E+00  0.00000000E+00
  0.00000000E+00  0.00000000E+00  0.00000000E+00
  0.00000000E+00  0.00000000E+00  0.00000000E+00
