 K2 Mn2 P2                              
   1.00000000000000     
     3.7313332916059143    0.0000000000000000    0.0000000000000000
     0.0000000000000000    3.7313311182221875    0.0000000000000000
     0.0000000000000000    0.0000000000000000   21.3454565740719993
   K    Mn   P 
     2     2     2
Direct
  0.0000000376930337  0.4999997554582655  0.3522837508057640
  0.4999999608783228  0.0000002287471013  0.6477243793013983
  0.0000000504385560  0.0000000409509510  0.4999980354916916
  0.4999999502981303  0.4999999646733319  0.4999981459671180
 -0.0000000796673775  0.5000000813427844  0.5613131777832647
  0.5000000803593345 -0.0000000711724339  0.4386825106507635
 
  0.00000000E+00  0.00000000E+00  0.00000000E+00
  0.00000000E+00  0.00000000E+00  0.00000000E+00
  0.00000000E+00  0.00000000E+00  0.00000000E+00
  0.00000000E+00  0.00000000E+00  0.00000000E+00
  0.00000000E+00  0.00000000E+00  0.00000000E+00
  0.00000000E+00  0.00000000E+00  0.00000000E+00
