CONTCAR\(8)                             
   1.00000000000000     
    11.5388002396000005    0.0000000000000000    0.0000000000000000
     0.0000000000000000   11.0359001160000005    0.0000000000000000
     0.0000000000000000    0.0000000000000000   20.6324005126999985
   Ag   O    F 
    18    36    18
Direct
  0.2500000000000000  0.2480394235076504  0.5682138966541341
  0.0833299960000033  0.0913405814923449  0.4317861033458660
  0.5833299649999972  0.2480394235076504  0.5682138966541341
  0.4166699929999993  0.0913405814923449  0.4317861033458660
  0.9166700350000028  0.2480394235076504  0.5682138966541341
  0.7500000209999982  0.0913405814923449  0.4317861033458660
  0.2500000000000000  0.5813694365076516  0.5682138966541341
  0.0833299960000033  0.4246705844923453  0.4317861033458660
  0.5833299649999972  0.5813694365076516  0.5682138966541341
  0.4166699929999993  0.4246705844923453  0.4317861033458660
  0.9166700350000028  0.5813694365076516  0.5682138966541341
  0.7500000209999982  0.4246705844923453  0.4317861033458660
  0.2500000000000000  0.9146994285076546  0.5682138966541341
  0.0833299960000033  0.7580005764923483  0.4317861033458660
  0.5833299649999972  0.9146994285076546  0.5682138966541341
  0.4166699929999993  0.7580005764923483  0.4317861033458660
  0.9166700350000028  0.9146994285076546  0.5682138966541341
  0.7500000209999982  0.7580005764923483  0.4317861033458660
  0.1948781117685838  0.1101093737152174  0.3445061349324088
  0.3051218882314161  0.1101093737152174  0.3445061349324088
  0.0282181187685806  0.2292706312847850  0.6555038260675946
  0.1384518742314187  0.2292706312847850  0.6555038260675946
  0.5282080777685847  0.1101093737152174  0.3445061349324088
  0.6384518532314205  0.1101093737152174  0.3445061349324088
  0.3615481047685832  0.2292706312847850  0.6555038260675946
  0.4717818812314193  0.2292706312847850  0.6555038260675946
  0.8615481467685795  0.1101093737152174  0.3445061349324088
  0.9717919222314153  0.1101093737152174  0.3445061349324088
  0.6948881327685852  0.2292706312847850  0.6555038260675946
  0.8051219082314178  0.2292706312847850  0.6555038260675946
  0.1948781117685838  0.4434393547152160  0.3445061349324088
  0.3051218882314161  0.4434393547152160  0.3445061349324088
  0.0282181187685806  0.5626006232847880  0.6555038260675946
  0.1384518742314187  0.5626006232847880  0.6555038260675946
  0.5282080777685847  0.4434393547152160  0.3445061349324088
  0.6384518532314205  0.4434393547152160  0.3445061349324088
  0.3615481047685832  0.5626006232847880  0.6555038260675946
  0.4717818812314193  0.5626006232847880  0.6555038260675946
  0.8615481467685795  0.4434393547152160  0.3445061349324088
  0.9717919222314153  0.4434393547152160  0.3445061349324088
  0.6948881327685852  0.5626006232847880  0.6555038260675946
  0.8051219082314178  0.5626006232847880  0.6555038260675946
  0.1948781117685838  0.7767693037152119  0.3445061349324088
  0.3051218882314161  0.7767693037152119  0.3445061349324088
  0.0282181187685806  0.8959406392847820  0.6555038260675946
  0.1384518742314187  0.8959406392847820  0.6555038260675946
  0.5282080777685847  0.7767693037152119  0.3445061349324088
  0.6384518532314205  0.7767693037152119  0.3445061349324088
  0.3615481047685832  0.8959406392847820  0.6555038260675946
  0.4717818812314193  0.8959406392847820  0.6555038260675946
  0.8615481467685795  0.7767693037152119  0.3445061349324088
  0.9717919222314153  0.7767693037152119  0.3445061349324088
  0.6948881327685852  0.8959406392847820  0.6555038260675946
  0.8051219082314178  0.8959406392847820  0.6555038260675946
  0.2500000000000000  0.0842222682988514  0.4820992387838493
  0.0833299960000033  0.2551977357011458  0.5179008082161510
  0.5833299649999972  0.0842222682988514  0.4820992387838493
  0.4166699929999993  0.2551977357011458  0.5179008082161510
  0.9166700350000028  0.0842222682988514  0.4820992387838493
  0.7500000209999982  0.2551977357011458  0.5179008082161510
  0.2500000000000000  0.4175522822988563  0.4820992387838493
  0.0833299960000033  0.5885277057011471  0.5179008082161510
  0.5833299649999972  0.4175522822988563  0.4820992387838493
  0.4166699929999993  0.5885277057011471  0.5179008082161510
  0.9166700350000028  0.4175522822988563  0.4820992387838493
  0.7500000209999982  0.5885277057011471  0.5179008082161510
  0.2500000000000000  0.7508922122988502  0.4820992387838493
  0.0833299960000033  0.9218577407011501  0.5179008082161510
  0.5833299649999972  0.7508922122988502  0.4820992387838493
  0.4166699929999993  0.9218577407011501  0.5179008082161510
  0.9166700350000028  0.7508922122988502  0.4820992387838493
  0.7500000209999982  0.9218577407011501  0.5179008082161510
 
  0.00000000E+00  0.00000000E+00  0.00000000E+00
  0.00000000E+00  0.00000000E+00  0.00000000E+00
  0.00000000E+00  0.00000000E+00  0.00000000E+00
  0.00000000E+00  0.00000000E+00  0.00000000E+00
  0.00000000E+00  0.00000000E+00  0.00000000E+00
  0.00000000E+00  0.00000000E+00  0.00000000E+00
  0.00000000E+00  0.00000000E+00  0.00000000E+00
  0.00000000E+00  0.00000000E+00  0.00000000E+00
  0.00000000E+00  0.00000000E+00  0.00000000E+00
  0.00000000E+00  0.00000000E+00  0.00000000E+00
  0.00000000E+00  0.00000000E+00  0.00000000E+00
  0.00000000E+00  0.00000000E+00  0.00000000E+00
  0.00000000E+00  0.00000000E+00  0.00000000E+00
  0.00000000E+00  0.00000000E+00  0.00000000E+00
  0.00000000E+00  0.00000000E+00  0.00000000E+00
  0.00000000E+00  0.00000000E+00  0.00000000E+00
  0.00000000E+00  0.00000000E+00  0.00000000E+00
  0.00000000E+00  0.00000000E+00  0.00000000E+00
  0.00000000E+00  0.00000000E+00  0.00000000E+00
  0.00000000E+00  0.00000000E+00  0.00000000E+00
  0.00000000E+00  0.00000000E+00  0.00000000E+00
  0.00000000E+00  0.00000000E+00  0.00000000E+00
  0.00000000E+00  0.00000000E+00  0.00000000E+00
  0.00000000E+00  0.00000000E+00  0.00000000E+00
  0.00000000E+00  0.00000000E+00  0.00000000E+00
  0.00000000E+00  0.00000000E+00  0.00000000E+00
  0.00000000E+00  0.00000000E+00  0.00000000E+00
  0.00000000E+00  0.00000000E+00  0.00000000E+00
  0.00000000E+00  0.00000000E+00  0.00000000E+00
  0.00000000E+00  0.00000000E+00  0.00000000E+00
  0.00000000E+00  0.00000000E+00  0.00000000E+00
  0.00000000E+00  0.00000000E+00  0.00000000E+00
  0.00000000E+00  0.00000000E+00  0.00000000E+00
  0.00000000E+00  0.00000000E+00  0.00000000E+00
  0.00000000E+00  0.00000000E+00  0.00000000E+00
  0.00000000E+00  0.00000000E+00  0.00000000E+00
  0.00000000E+00  0.00000000E+00  0.00000000E+00
  0.00000000E+00  0.00000000E+00  0.00000000E+00
  0.00000000E+00  0.00000000E+00  0.00000000E+00
  0.00000000E+00  0.00000000E+00  0.00000000E+00
  0.00000000E+00  0.00000000E+00  0.00000000E+00
  0.00000000E+00  0.00000000E+00  0.00000000E+00
  0.00000000E+00  0.00000000E+00  0.00000000E+00
  0.00000000E+00  0.00000000E+00  0.00000000E+00
  0.00000000E+00  0.00000000E+00  0.00000000E+00
  0.00000000E+00  0.00000000E+00  0.00000000E+00
  0.00000000E+00  0.00000000E+00  0.00000000E+00
  0.00000000E+00  0.00000000E+00  0.00000000E+00
  0.00000000E+00  0.00000000E+00  0.00000000E+00
  0.00000000E+00  0.00000000E+00  0.00000000E+00
  0.00000000E+00  0.00000000E+00  0.00000000E+00
  0.00000000E+00  0.00000000E+00  0.00000000E+00
  0.00000000E+00  0.00000000E+00  0.00000000E+00
  0.00000000E+00  0.00000000E+00  0.00000000E+00
  0.00000000E+00  0.00000000E+00  0.00000000E+00
  0.00000000E+00  0.00000000E+00  0.00000000E+00
  0.00000000E+00  0.00000000E+00  0.00000000E+00
  0.00000000E+00  0.00000000E+00  0.00000000E+00
  0.00000000E+00  0.00000000E+00  0.00000000E+00
  0.00000000E+00  0.00000000E+00  0.00000000E+00
  0.00000000E+00  0.00000000E+00  0.00000000E+00
  0.00000000E+00  0.00000000E+00  0.00000000E+00
  0.00000000E+00  0.00000000E+00  0.00000000E+00
  0.00000000E+00  0.00000000E+00  0.00000000E+00
  0.00000000E+00  0.00000000E+00  0.00000000E+00
  0.00000000E+00  0.00000000E+00  0.00000000E+00
  0.00000000E+00  0.00000000E+00  0.00000000E+00
  0.00000000E+00  0.00000000E+00  0.00000000E+00
  0.00000000E+00  0.00000000E+00  0.00000000E+00
  0.00000000E+00  0.00000000E+00  0.00000000E+00
  0.00000000E+00  0.00000000E+00  0.00000000E+00
  0.00000000E+00  0.00000000E+00  0.00000000E+00
