CONTCAR\(14)                            
   1.00000000000000     
    14.9264001846000003    0.0000000000000000    0.0000000000000000
     0.0000000000000000   14.9455995559999995    0.0000000000000000
     0.0000000000000000    0.0000000000000000   18.3726005553999983
   Li   H    Pt   O 
    50    51    25     1
Direct
  0.1000528116104908  0.9993191008486377  0.4232494975271908
  0.1000754391661663  0.9997065512962164  0.5809889307414343
  0.3012191137380031  0.9988186351927463  0.4234970698940714
  0.3022505100198283  0.9978012380880272  0.5802821073390230
  0.5004762581074321  0.0005976860391718  0.4224351098808269
  0.5019317102032161  0.9954819432279043  0.5795144427789648
  0.6996633391134177  0.0006076520214917  0.4224492569529881
  0.6981890752867037  0.9954866775985206  0.5795080208613859
  0.8988751458905985  0.9987772574096102  0.4235066988396965
  0.8978427242086614  0.9977594665493688  0.5803074664060344
  0.1000312103093866  0.2000077905359501  0.4231811555805511
  0.1000495101364769  0.2000022147555142  0.5805174989098372
  0.3007448853626208  0.2000025087963279  0.4232486086202902
  0.3003514800367632  0.2000007322910994  0.5809354736774469
  0.5002952311095242  0.1999990948700859  0.4234428727545380
  0.5000743063016047  0.1999981194304787  0.5816652864189121
  0.6998866788573426  0.2000039028469471  0.4234771365152444
  0.7000619012768041  0.1999975929092836  0.5816477165356544
  0.8994207130283894  0.2000108696139557  0.4232722132379321
  0.8997869018120271  0.2000013337998771  0.5809998100385300
  0.1000466150546639  0.4006884760505678  0.4232497695240180
  0.1000749228772587  0.4003045895850962  0.5809958816358389
  0.3012162922576805  0.4011815240901655  0.4234976505245885
  0.3022489892184624  0.4021961712485139  0.5802831835363049
  0.5004749934343909  0.3994060975720266  0.4224401185847077
  0.5019291255989269  0.4045126083770609  0.5795141140280531
  0.6996600139993953  0.3993928336114651  0.4224533457341410
  0.6981763761204336  0.4045107238430861  0.5795161856479143
  0.8988656013135092  0.4012319418328484  0.4235129944345776
  0.8978408250634017  0.4022494067181519  0.5803177153659335
  0.1000317732356173  0.6002168664115682  0.4234505888762484
  0.1000468051244792  0.6000272126749185  0.5817143032850071
  0.2993641895869830  0.6003951725144422  0.4224033429701624
  0.3045336142682494  0.6018899145605904  0.5795284865717126
  0.4966860174769990  0.5966198604261413  0.4098573895801170
  0.5139274137953044  0.6139409601124957  0.5882768732219638
  0.7034103657570939  0.5966606237624918  0.4098550243656147
  0.6860082069170982  0.6140879705486649  0.5884519760735188
  0.9006915343663322  0.6004108551778801  0.4224272179050532
  0.8955393147615452  0.6018955931700016  0.5795466911493485
  0.1000332738063121  0.7997880065404219  0.4234476720414208
  0.1000490909440081  0.7999822552792940  0.5817157596856102
  0.2993695340026981  0.7996037547744081  0.4224014757958294
  0.3045385435002330  0.7981126027431810  0.5795261094750457
  0.4966867874020084  0.8033768008510015  0.4098563652783428
  0.5139352062137656  0.7860545030169879  0.5882860695247641
  0.7034084921900094  0.8033374414689606  0.4098510162495370
  0.6859957805694809  0.7859107937304424  0.5884525105823860
  0.9006976142329629  0.7995913213432717  0.4224207874460491
  0.8955418121015540  0.7981130087843573  0.5795460558077816
  0.9996034456524795  0.0995252275650713  0.5935410482605542
  0.9993408998569813  0.0992712545272832  0.4109194643269500
  0.2005220923112817  0.0995376179365254  0.5935161578022085
  0.2007517928414959  0.0992843066479315  0.4108959931120068
  0.4007251247669728  0.0985957708474967  0.5939218518752297
  0.4009597995021215  0.0997604261014585  0.4112813602957325
  0.6000521915957336  0.0974095312245385  0.5941539479233736
  0.6000697042870223  0.1009048599924137  0.4115092761834058
  0.7994239456372708  0.0985839599127091  0.5939408129238691
  0.7992104578592638  0.0997580378683345  0.4113009540563793
  0.9996042874026332  0.3004852203136309  0.5935514549911947
  0.9993353030288654  0.3007489332591469  0.4109300432889542
  0.2005209700974331  0.3004655371617470  0.5935243238179098
  0.2007460409645986  0.3007207311430775  0.4109040355646948
  0.4007241979423151  0.3014028127194504  0.5939221169925308
  0.4009590888850071  0.3002379988076515  0.4112818318213713
  0.6000457603729084  0.3025855737692618  0.5941518274967190
  0.6000702525664107  0.2990953739021829  0.4115073805107519
  0.7994203882305910  0.3014168901986198  0.5939541567305897
  0.7992104865827800  0.3002608897903003  0.4113145153665747
  0.9986662083735338  0.5006846074672774  0.5939462982206617
  0.9998217425241097  0.5009029734874711  0.4113044028758970
  0.2014476897712906  0.5006755377869609  0.5939413545071074
  0.2002487499567200  0.5009087965675432  0.4112984597527859
  0.4044252681092584  0.5044284126709342  0.5918806638168842
  0.4004806955223356  0.5004573072867545  0.4092671856711927
  0.6000360848716904  0.5077552509267103  0.5880257944995749
  0.6000649598346302  0.4970833011910491  0.4058684926219615
  0.7956190957370537  0.5044682262922348  0.5919057536178824
  0.7996007511119004  0.5004928584345706  0.4092922521135182
  0.9974445026653012  0.7000072511437565  0.5941627790961546
  0.0009650775231386  0.7000034707702147  0.4115160427231634
  0.2026219162141309  0.7000035420102055  0.5941562098064445
  0.1990856704835960  0.7000032862120612  0.4115090941348706
  0.4077136905646602  0.6999966474291796  0.5879476640374177
  0.3970625047970363  0.6999972187850041  0.4057856912006910
  0.5998453047893497  0.6999893454953980  0.5569607317615526
  0.6002184953025413  0.7000084812505248  0.3782728299880666
  0.7923469916817344  0.7000065036787966  0.5879982709349543
  0.8030133381384567  0.6999988082195813  0.4058440552746861
  0.9986664699688548  0.8993255572263629  0.5939478451946797
  0.9998312193456507  0.8991026337995740  0.4113057862039273
  0.2014486894095666  0.8993283086883774  0.5939351995638432
  0.2002529060150306  0.8990932104344493  0.4112926305835057
  0.4044306785970112  0.8955721444702757  0.5918771115028486
  0.4004820928160081  0.8995427325486398  0.4092638841096086
  0.6000415050061841  0.8922497143084441  0.5880175543347241
  0.6000638201969750  0.9029191837716537  0.4058610227815712
  0.7956303359141383  0.8955402215001618  0.5918945123888549
  0.7996067012466422  0.8995049793237136  0.4092802566097020
  0.6002860402276919  0.7000253672806453  0.7091651341090872
  0.9995363523389479  0.0994669267764289  0.5022761087751858
  0.2006081800639191  0.0994437107455460  0.5022427502188531
  0.4008427672279481  0.0991173117250281  0.5027138088304721
  0.6000712677404144  0.0990985938725879  0.5029098930916059
  0.7993066232468060  0.0990869892085108  0.5027428356358508
  0.9995346125299699  0.3005463936290015  0.5022872210828934
  0.2006263295387655  0.3005507512853517  0.5022438860864135
  0.4008384574085000  0.3008784244615307  0.5027140502755565
  0.6000717475188391  0.3008894672950763  0.5029118818602171
  0.7992989968470929  0.3009225945758375  0.5027562412266734
  0.9991729176642861  0.5008257387886557  0.5027510958302696
  0.2009023451332530  0.5008076764655601  0.5027317878842212
  0.4032108970361747  0.5032253283075577  0.5008260631717875
  0.6000457608438703  0.5047416059402213  0.4967979331504458
  0.7968812331297338  0.5032607493215391  0.5008406808257693
  0.9992076877050773  0.7000058258821279  0.5029037812363563
  0.2008755298111527  0.6999984339724904  0.5029060711454889
  0.4047270623663844  0.6999990134292510  0.4966976867779799
  0.6000269756255000  0.6999998104662568  0.4719829232517940
  0.7953398187369196  0.6999918126783286  0.4967697879204275
  0.9991676154884773  0.8991808789499489  0.5027352566710066
  0.2009042152420006  0.8992029902484272  0.5027380733747248
  0.4032034846837792  0.8967903136460430  0.5008297113022242
  0.6000528992189653  0.8952553118174685  0.4967906767875793
  0.7968771664337829  0.8967529993928030  0.5008326952171425
  0.6003149285527308  0.7000244280294035  0.6561165735780931
 
  0.00000000E+00  0.00000000E+00  0.00000000E+00
  0.00000000E+00  0.00000000E+00  0.00000000E+00
  0.00000000E+00  0.00000000E+00  0.00000000E+00
  0.00000000E+00  0.00000000E+00  0.00000000E+00
  0.00000000E+00  0.00000000E+00  0.00000000E+00
  0.00000000E+00  0.00000000E+00  0.00000000E+00
  0.00000000E+00  0.00000000E+00  0.00000000E+00
  0.00000000E+00  0.00000000E+00  0.00000000E+00
  0.00000000E+00  0.00000000E+00  0.00000000E+00
  0.00000000E+00  0.00000000E+00  0.00000000E+00
  0.00000000E+00  0.00000000E+00  0.00000000E+00
  0.00000000E+00  0.00000000E+00  0.00000000E+00
  0.00000000E+00  0.00000000E+00  0.00000000E+00
  0.00000000E+00  0.00000000E+00  0.00000000E+00
  0.00000000E+00  0.00000000E+00  0.00000000E+00
  0.00000000E+00  0.00000000E+00  0.00000000E+00
  0.00000000E+00  0.00000000E+00  0.00000000E+00
  0.00000000E+00  0.00000000E+00  0.00000000E+00
  0.00000000E+00  0.00000000E+00  0.00000000E+00
  0.00000000E+00  0.00000000E+00  0.00000000E+00
  0.00000000E+00  0.00000000E+00  0.00000000E+00
  0.00000000E+00  0.00000000E+00  0.00000000E+00
  0.00000000E+00  0.00000000E+00  0.00000000E+00
  0.00000000E+00  0.00000000E+00  0.00000000E+00
  0.00000000E+00  0.00000000E+00  0.00000000E+00
  0.00000000E+00  0.00000000E+00  0.00000000E+00
  0.00000000E+00  0.00000000E+00  0.00000000E+00
  0.00000000E+00  0.00000000E+00  0.00000000E+00
  0.00000000E+00  0.00000000E+00  0.00000000E+00
  0.00000000E+00  0.00000000E+00  0.00000000E+00
  0.00000000E+00  0.00000000E+00  0.00000000E+00
  0.00000000E+00  0.00000000E+00  0.00000000E+00
  0.00000000E+00  0.00000000E+00  0.00000000E+00
  0.00000000E+00  0.00000000E+00  0.00000000E+00
  0.00000000E+00  0.00000000E+00  0.00000000E+00
  0.00000000E+00  0.00000000E+00  0.00000000E+00
  0.00000000E+00  0.00000000E+00  0.00000000E+00
  0.00000000E+00  0.00000000E+00  0.00000000E+00
  0.00000000E+00  0.00000000E+00  0.00000000E+00
  0.00000000E+00  0.00000000E+00  0.00000000E+00
  0.00000000E+00  0.00000000E+00  0.00000000E+00
  0.00000000E+00  0.00000000E+00  0.00000000E+00
  0.00000000E+00  0.00000000E+00  0.00000000E+00
  0.00000000E+00  0.00000000E+00  0.00000000E+00
  0.00000000E+00  0.00000000E+00  0.00000000E+00
  0.00000000E+00  0.00000000E+00  0.00000000E+00
  0.00000000E+00  0.00000000E+00  0.00000000E+00
  0.00000000E+00  0.00000000E+00  0.00000000E+00
  0.00000000E+00  0.00000000E+00  0.00000000E+00
  0.00000000E+00  0.00000000E+00  0.00000000E+00
  0.00000000E+00  0.00000000E+00  0.00000000E+00
  0.00000000E+00  0.00000000E+00  0.00000000E+00
  0.00000000E+00  0.00000000E+00  0.00000000E+00
  0.00000000E+00  0.00000000E+00  0.00000000E+00
  0.00000000E+00  0.00000000E+00  0.00000000E+00
  0.00000000E+00  0.00000000E+00  0.00000000E+00
  0.00000000E+00  0.00000000E+00  0.00000000E+00
  0.00000000E+00  0.00000000E+00  0.00000000E+00
  0.00000000E+00  0.00000000E+00  0.00000000E+00
  0.00000000E+00  0.00000000E+00  0.00000000E+00
  0.00000000E+00  0.00000000E+00  0.00000000E+00
  0.00000000E+00  0.00000000E+00  0.00000000E+00
  0.00000000E+00  0.00000000E+00  0.00000000E+00
  0.00000000E+00  0.00000000E+00  0.00000000E+00
  0.00000000E+00  0.00000000E+00  0.00000000E+00
  0.00000000E+00  0.00000000E+00  0.00000000E+00
  0.00000000E+00  0.00000000E+00  0.00000000E+00
  0.00000000E+00  0.00000000E+00  0.00000000E+00
  0.00000000E+00  0.00000000E+00  0.00000000E+00
  0.00000000E+00  0.00000000E+00  0.00000000E+00
  0.00000000E+00  0.00000000E+00  0.00000000E+00
  0.00000000E+00  0.00000000E+00  0.00000000E+00
  0.00000000E+00  0.00000000E+00  0.00000000E+00
  0.00000000E+00  0.00000000E+00  0.00000000E+00
  0.00000000E+00  0.00000000E+00  0.00000000E+00
  0.00000000E+00  0.00000000E+00  0.00000000E+00
  0.00000000E+00  0.00000000E+00  0.00000000E+00
  0.00000000E+00  0.00000000E+00  0.00000000E+00
  0.00000000E+00  0.00000000E+00  0.00000000E+00
  0.00000000E+00  0.00000000E+00  0.00000000E+00
  0.00000000E+00  0.00000000E+00  0.00000000E+00
  0.00000000E+00  0.00000000E+00  0.00000000E+00
  0.00000000E+00  0.00000000E+00  0.00000000E+00
  0.00000000E+00  0.00000000E+00  0.00000000E+00
  0.00000000E+00  0.00000000E+00  0.00000000E+00
  0.00000000E+00  0.00000000E+00  0.00000000E+00
  0.00000000E+00  0.00000000E+00  0.00000000E+00
  0.00000000E+00  0.00000000E+00  0.00000000E+00
  0.00000000E+00  0.00000000E+00  0.00000000E+00
  0.00000000E+00  0.00000000E+00  0.00000000E+00
  0.00000000E+00  0.00000000E+00  0.00000000E+00
  0.00000000E+00  0.00000000E+00  0.00000000E+00
  0.00000000E+00  0.00000000E+00  0.00000000E+00
  0.00000000E+00  0.00000000E+00  0.00000000E+00
  0.00000000E+00  0.00000000E+00  0.00000000E+00
  0.00000000E+00  0.00000000E+00  0.00000000E+00
  0.00000000E+00  0.00000000E+00  0.00000000E+00
  0.00000000E+00  0.00000000E+00  0.00000000E+00
  0.00000000E+00  0.00000000E+00  0.00000000E+00
  0.00000000E+00  0.00000000E+00  0.00000000E+00
  0.00000000E+00  0.00000000E+00  0.00000000E+00
  0.00000000E+00  0.00000000E+00  0.00000000E+00
  0.00000000E+00  0.00000000E+00  0.00000000E+00
  0.00000000E+00  0.00000000E+00  0.00000000E+00
  0.00000000E+00  0.00000000E+00  0.00000000E+00
  0.00000000E+00  0.00000000E+00  0.00000000E+00
  0.00000000E+00  0.00000000E+00  0.00000000E+00
  0.00000000E+00  0.00000000E+00  0.00000000E+00
  0.00000000E+00  0.00000000E+00  0.00000000E+00
  0.00000000E+00  0.00000000E+00  0.00000000E+00
  0.00000000E+00  0.00000000E+00  0.00000000E+00
  0.00000000E+00  0.00000000E+00  0.00000000E+00
  0.00000000E+00  0.00000000E+00  0.00000000E+00
  0.00000000E+00  0.00000000E+00  0.00000000E+00
  0.00000000E+00  0.00000000E+00  0.00000000E+00
  0.00000000E+00  0.00000000E+00  0.00000000E+00
  0.00000000E+00  0.00000000E+00  0.00000000E+00
  0.00000000E+00  0.00000000E+00  0.00000000E+00
  0.00000000E+00  0.00000000E+00  0.00000000E+00
  0.00000000E+00  0.00000000E+00  0.00000000E+00
  0.00000000E+00  0.00000000E+00  0.00000000E+00
  0.00000000E+00  0.00000000E+00  0.00000000E+00
  0.00000000E+00  0.00000000E+00  0.00000000E+00
  0.00000000E+00  0.00000000E+00  0.00000000E+00
  0.00000000E+00  0.00000000E+00  0.00000000E+00
  0.00000000E+00  0.00000000E+00  0.00000000E+00
  0.00000000E+00  0.00000000E+00  0.00000000E+00
