CONTCAR\(2)                             
   1.00000000000000     
    13.7474002837999993    0.0000000000000000    0.0000000000000000
     6.8496988029999999   13.0331533396000001    0.0000000000000000
     0.0000000000000000    0.0000000000000000   18.5631008147999985
   Li   Cu   C    O 
     9    18    18    55
Direct
  0.2352419110042041  0.0398456421792583  0.5161179600823920
  0.5270213706731005  0.0897227438501515  0.4771179810602502
  0.9032564018678034  0.0302555372761122  0.5103999544624376
  0.2582874603002331  0.3659663798107463  0.5311156106590919
  0.5524625399638911  0.3586921476438318  0.5063883399111213
  0.8384364351970771  0.4079965994936647  0.4483141126217411
  0.2080721292484524  0.7461850003742806  0.4594378241357554
  0.5860838474761252  0.6984316938943002  0.5181973831096274
  0.8993666026380979  0.6929806214817301  0.5197555357615862
  0.0945863298201747  0.2811647353837185  0.5777024951887084
  0.2766189128773089  0.1889811013973460  0.4099598572752025
  0.4711708157660354  0.2432348113558075  0.6326737423598311
  0.6534016811766510  0.1760248361323791  0.3791908590311581
  0.8109845238437942  0.2597151707519477  0.5604808104131416
  0.9639398083061229  0.1733054241663634  0.4026088770409170
  0.1484761939586164  0.6042673496654309  0.5904443332593344
  0.3330686085960187  0.5017992716747410  0.4129318757281699
  0.4330928683422988  0.6074597125257084  0.5496933609504118
  0.6110116926900880  0.5292825920480960  0.3738635866047856
  0.7996178892348377  0.5610394104152560  0.5959988096434484
  0.0052116420965803  0.4975034044945138  0.4042115497608014
  0.1222175433568015  0.9074424663848741  0.5807840048807486
  0.3307155804280759  0.8453246535225392  0.3750213199837272
  0.4780879615832402  0.9254269414631858  0.5888181338359484
  0.6435797808578798  0.8444475901186174  0.4240311297171233
  0.7567353863618197  0.9396030641397342  0.5761667049282326
  0.9488887862426938  0.8484610055380496  0.4126349959773096
  0.3372848318714300  0.1539614229228567  0.5815805790991323
  0.0738490389847325  0.3038614002952243  0.4094672858709598
  0.6728034671547108  0.1520420274764411  0.5477952289069661
  0.4187535589053027  0.2907862071385441  0.4255022081653781
  0.0133022655586140  0.1294911262702129  0.5805270443212077
  0.7527378506342344  0.3040524721094714  0.3656757080809245
  0.3492346584565979  0.4685148288425551  0.5911759551783528
  0.0988972476396454  0.6285287483696846  0.4182274206956820
  0.6664750498374976  0.4817098964509683  0.5472543574511812
  0.4090660698523220  0.6491185453717405  0.3739541438025826
  0.0281459702736946  0.4823188998221154  0.5779671719886592
  0.7606363332945936  0.6182646654117169  0.4247287305661845
  0.3510003857694600  0.8161719440835229  0.5414708986435928
  0.0915901383103824  0.9522254186959457  0.4157837460772104
  0.6775717185647570  0.7893205091764409  0.5979643155992908
  0.4241100688326795  0.9715793756354119  0.4157736146729461
  0.9891483536181177  0.8237914343218550  0.5812296045627130
  0.7476402208362316  0.9731900437936243  0.4041418458462367
  0.2439751963037666  0.1550457290656399  0.5681070437184350
  0.3424657463435958  0.2395904992694017  0.5848581486788514
  0.1081215828654888  0.0503240725030508  0.5785817713745185
  0.0032049353839802  0.0370143573304497  0.4308057894107697
  0.0910585370229389  0.2100554787371867  0.4132479443394190
  0.1553043090341758  0.3227134156976855  0.3947853546429295
  0.5772244006673147  0.1557445796446898  0.5530803923734827
  0.6805016113650624  0.2364355166889520  0.5411957946445703
  0.4266736035034547  0.0691772758659520  0.5898221532741966
  0.3277890411845785  0.0469879719064195  0.4284112377853395
  0.4133227388968462  0.2055102255951853  0.4210301295155853
  0.5113705864608713  0.2927916130237169  0.4167533983198756
  0.9231928610329388  0.1216023731393918  0.5776277283241585
 -0.0008876178747581  0.2231394991457904  0.5837046587790550
  0.7603481427554952  0.0640503699956902  0.5469347877923381
  0.6501963722599751  0.0493000767573362  0.4024658739030083
  0.7583253931171793  0.2164906799061549  0.3502769051099066
  0.8438534492671618  0.3060123665243170  0.3833679673782912
  0.2590394103377043  0.4631365029135563  0.6041108978385494
  0.3349045487891690  0.5624596710594676  0.5840812433553132
  0.1142277084080665  0.3994125874894533  0.5579092508286655
  0.9795238963747630  0.3820386765169818  0.4213529134712884
  0.1027251570149725  0.5498109959730447  0.3859616283543540
  0.1904579676431282  0.6275922659948125  0.4365044036510907
  0.5784171142396700  0.4773498870187049  0.5301114125437891
  0.6610028148364440  0.5679062436469305  0.5686192380819077
  0.4412717524125991  0.3886165363440784  0.5833280625453926
  0.3308780755643029  0.3756616083771868  0.4409455703061826
  0.4307496360844417  0.5540193743308117  0.3822135006046410
  0.4911164626302585  0.6677137252386178  0.3628488430519534
  0.9489469059056710  0.4697125481515156  0.6061032896162444
  0.0214797904572620  0.5719718764597488  0.5692515371821664
  0.7637303647396468  0.4021395761531026  0.5419632913149112
  0.6609590074693423  0.3863661130070580  0.3649887852368729
  0.7483006319509263  0.5396381866865755  0.4051278032752319
  0.8569130851598149  0.6111396096676327  0.4354828682534141
  0.2604598313480944  0.8085214483505717  0.5440258089503440
  0.3504516001346111  0.9029054762255831  0.5516828530962744
  0.0881983553853087  0.7491597890807032  0.5877179976346137
  0.0049892357906066  0.7064890649296514  0.4340945196398515
  0.0859154350262691  0.8662641234184630  0.4185561209660670
  0.1817222768020505  0.9549847465372540  0.4022933260865445
  0.5865746597894014  0.7820954615245381  0.5993873907043944
  0.6624940914304447  0.8837227916962677  0.6002489587126951
  0.4400333090602838  0.7329162150179221  0.5270009200053688
  0.3106491347477561  0.7239458978127041  0.3782195494085018
  0.4360623055637016  0.8927880487979114  0.3794326507629118
  0.5113447300045275  0.9727069958104407  0.4415416761095268
  0.9041979506014625  0.8101067021355521  0.5725351515807255
  0.9776108344032960  0.9166863036170046  0.5826497767532969
  0.7717039885346162  0.7108931571111370  0.5922392337366656
  0.6735149270834156  0.7050641105328305  0.4369804473797228
  0.7656457450809409  0.8791979887195071  0.4163856568018688
  0.8337462250061449  0.9863144237543325  0.3950702832497144
  0.5134286322958054  0.2339768857305784  0.7214548726318782
 
  0.00000000E+00  0.00000000E+00  0.00000000E+00
  0.00000000E+00  0.00000000E+00  0.00000000E+00
  0.00000000E+00  0.00000000E+00  0.00000000E+00
  0.00000000E+00  0.00000000E+00  0.00000000E+00
  0.00000000E+00  0.00000000E+00  0.00000000E+00
  0.00000000E+00  0.00000000E+00  0.00000000E+00
  0.00000000E+00  0.00000000E+00  0.00000000E+00
  0.00000000E+00  0.00000000E+00  0.00000000E+00
  0.00000000E+00  0.00000000E+00  0.00000000E+00
  0.00000000E+00  0.00000000E+00  0.00000000E+00
  0.00000000E+00  0.00000000E+00  0.00000000E+00
  0.00000000E+00  0.00000000E+00  0.00000000E+00
  0.00000000E+00  0.00000000E+00  0.00000000E+00
  0.00000000E+00  0.00000000E+00  0.00000000E+00
  0.00000000E+00  0.00000000E+00  0.00000000E+00
  0.00000000E+00  0.00000000E+00  0.00000000E+00
  0.00000000E+00  0.00000000E+00  0.00000000E+00
  0.00000000E+00  0.00000000E+00  0.00000000E+00
  0.00000000E+00  0.00000000E+00  0.00000000E+00
  0.00000000E+00  0.00000000E+00  0.00000000E+00
  0.00000000E+00  0.00000000E+00  0.00000000E+00
  0.00000000E+00  0.00000000E+00  0.00000000E+00
  0.00000000E+00  0.00000000E+00  0.00000000E+00
  0.00000000E+00  0.00000000E+00  0.00000000E+00
  0.00000000E+00  0.00000000E+00  0.00000000E+00
  0.00000000E+00  0.00000000E+00  0.00000000E+00
  0.00000000E+00  0.00000000E+00  0.00000000E+00
  0.00000000E+00  0.00000000E+00  0.00000000E+00
  0.00000000E+00  0.00000000E+00  0.00000000E+00
  0.00000000E+00  0.00000000E+00  0.00000000E+00
  0.00000000E+00  0.00000000E+00  0.00000000E+00
  0.00000000E+00  0.00000000E+00  0.00000000E+00
  0.00000000E+00  0.00000000E+00  0.00000000E+00
  0.00000000E+00  0.00000000E+00  0.00000000E+00
  0.00000000E+00  0.00000000E+00  0.00000000E+00
  0.00000000E+00  0.00000000E+00  0.00000000E+00
  0.00000000E+00  0.00000000E+00  0.00000000E+00
  0.00000000E+00  0.00000000E+00  0.00000000E+00
  0.00000000E+00  0.00000000E+00  0.00000000E+00
  0.00000000E+00  0.00000000E+00  0.00000000E+00
  0.00000000E+00  0.00000000E+00  0.00000000E+00
  0.00000000E+00  0.00000000E+00  0.00000000E+00
  0.00000000E+00  0.00000000E+00  0.00000000E+00
  0.00000000E+00  0.00000000E+00  0.00000000E+00
  0.00000000E+00  0.00000000E+00  0.00000000E+00
  0.00000000E+00  0.00000000E+00  0.00000000E+00
  0.00000000E+00  0.00000000E+00  0.00000000E+00
  0.00000000E+00  0.00000000E+00  0.00000000E+00
  0.00000000E+00  0.00000000E+00  0.00000000E+00
  0.00000000E+00  0.00000000E+00  0.00000000E+00
  0.00000000E+00  0.00000000E+00  0.00000000E+00
  0.00000000E+00  0.00000000E+00  0.00000000E+00
  0.00000000E+00  0.00000000E+00  0.00000000E+00
  0.00000000E+00  0.00000000E+00  0.00000000E+00
  0.00000000E+00  0.00000000E+00  0.00000000E+00
  0.00000000E+00  0.00000000E+00  0.00000000E+00
  0.00000000E+00  0.00000000E+00  0.00000000E+00
  0.00000000E+00  0.00000000E+00  0.00000000E+00
  0.00000000E+00  0.00000000E+00  0.00000000E+00
  0.00000000E+00  0.00000000E+00  0.00000000E+00
  0.00000000E+00  0.00000000E+00  0.00000000E+00
  0.00000000E+00  0.00000000E+00  0.00000000E+00
  0.00000000E+00  0.00000000E+00  0.00000000E+00
  0.00000000E+00  0.00000000E+00  0.00000000E+00
  0.00000000E+00  0.00000000E+00  0.00000000E+00
  0.00000000E+00  0.00000000E+00  0.00000000E+00
  0.00000000E+00  0.00000000E+00  0.00000000E+00
  0.00000000E+00  0.00000000E+00  0.00000000E+00
  0.00000000E+00  0.00000000E+00  0.00000000E+00
  0.00000000E+00  0.00000000E+00  0.00000000E+00
  0.00000000E+00  0.00000000E+00  0.00000000E+00
  0.00000000E+00  0.00000000E+00  0.00000000E+00
  0.00000000E+00  0.00000000E+00  0.00000000E+00
  0.00000000E+00  0.00000000E+00  0.00000000E+00
  0.00000000E+00  0.00000000E+00  0.00000000E+00
  0.00000000E+00  0.00000000E+00  0.00000000E+00
  0.00000000E+00  0.00000000E+00  0.00000000E+00
  0.00000000E+00  0.00000000E+00  0.00000000E+00
  0.00000000E+00  0.00000000E+00  0.00000000E+00
  0.00000000E+00  0.00000000E+00  0.00000000E+00
  0.00000000E+00  0.00000000E+00  0.00000000E+00
  0.00000000E+00  0.00000000E+00  0.00000000E+00
  0.00000000E+00  0.00000000E+00  0.00000000E+00
  0.00000000E+00  0.00000000E+00  0.00000000E+00
  0.00000000E+00  0.00000000E+00  0.00000000E+00
  0.00000000E+00  0.00000000E+00  0.00000000E+00
  0.00000000E+00  0.00000000E+00  0.00000000E+00
  0.00000000E+00  0.00000000E+00  0.00000000E+00
  0.00000000E+00  0.00000000E+00  0.00000000E+00
  0.00000000E+00  0.00000000E+00  0.00000000E+00
  0.00000000E+00  0.00000000E+00  0.00000000E+00
  0.00000000E+00  0.00000000E+00  0.00000000E+00
  0.00000000E+00  0.00000000E+00  0.00000000E+00
  0.00000000E+00  0.00000000E+00  0.00000000E+00
  0.00000000E+00  0.00000000E+00  0.00000000E+00
  0.00000000E+00  0.00000000E+00  0.00000000E+00
  0.00000000E+00  0.00000000E+00  0.00000000E+00
  0.00000000E+00  0.00000000E+00  0.00000000E+00
  0.00000000E+00  0.00000000E+00  0.00000000E+00
  0.00000000E+00  0.00000000E+00  0.00000000E+00
