CONTCAR\(15)                            
   1.00000000000000     
    15.2346000671000006    0.0000000000000000    0.0000000000000000
     0.0000000000000000   15.2346000671000006    0.0000000000000000
     0.0000000000000000    0.0000000000000000   23.7810993195000009
   Ca   Cu   Cl   O 
    48    32    32    64
Direct
  0.0000000000000000  0.0000000000000000  0.5000000000000000
  0.0000000000000000  0.0000000000000000  0.3669199790000022
  0.0000000000000000  0.0000000000000000  0.6330800209999978
  0.2500000000000000  0.0000000000000000  0.5000000000000000
  0.2500000000000000  0.0000000000000000  0.3669199790000022
  0.2500000000000000  0.0000000000000000  0.6330800209999978
  0.5000000000000000  0.0000000000000000  0.5000000000000000
  0.5000000000000000  0.0000000000000000  0.3669199790000022
  0.5000000000000000  0.0000000000000000  0.6330800209999978
  0.7500000000000000  0.0000000000000000  0.5000000000000000
  0.7500000000000000  0.0000000000000000  0.3669199790000022
  0.7500000000000000  0.0000000000000000  0.6330800209999978
  0.0000000000000000  0.2500000000000000  0.5000000000000000
  0.0000000000000000  0.2500000000000000  0.3669199790000022
  0.0000000000000000  0.2500000000000000  0.6330800209999978
  0.2500000000000000  0.2500000000000000  0.5000000000000000
  0.2500000000000000  0.2500000000000000  0.3669199790000022
  0.2500000000000000  0.2500000000000000  0.6330800209999978
  0.5000000000000000  0.2500000000000000  0.5000000000000000
  0.5000000000000000  0.2500000000000000  0.3669199790000022
  0.5000000000000000  0.2500000000000000  0.6330800209999978
  0.7500000000000000  0.2500000000000000  0.5000000000000000
  0.7500000000000000  0.2500000000000000  0.3669199790000022
  0.7500000000000000  0.2500000000000000  0.6330800209999978
  0.0000000000000000  0.5000000000000000  0.5000000000000000
  0.0000000000000000  0.5000000000000000  0.3669199790000022
  0.0000000000000000  0.5000000000000000  0.6330800209999978
  0.2500000000000000  0.5000000000000000  0.5000000000000000
  0.2500000000000000  0.5000000000000000  0.3669199790000022
  0.2500000000000000  0.5000000000000000  0.6330800209999978
  0.5000000000000000  0.5000000000000000  0.5000000000000000
  0.5000000000000000  0.5000000000000000  0.3669199790000022
  0.5000000000000000  0.5000000000000000  0.6330800209999978
  0.7500000000000000  0.5000000000000000  0.5000000000000000
  0.7500000000000000  0.5000000000000000  0.3669199790000022
  0.7500000000000000  0.5000000000000000  0.6330800209999978
  0.0000000000000000  0.7500000000000000  0.5000000000000000
  0.0000000000000000  0.7500000000000000  0.3669199790000022
  0.0000000000000000  0.7500000000000000  0.6330800209999978
  0.2500000000000000  0.7500000000000000  0.5000000000000000
  0.2500000000000000  0.7500000000000000  0.3669199790000022
  0.2500000000000000  0.7500000000000000  0.6330800209999978
  0.5000000000000000  0.7500000000000000  0.5000000000000000
  0.5000000000000000  0.7500000000000000  0.3669199790000022
  0.5000000000000000  0.7500000000000000  0.6330800209999978
  0.7500000000000000  0.7500000000000000  0.5000000000000000
  0.7500000000000000  0.7500000000000000  0.3669199790000022
  0.7500000000000000  0.7500000000000000  0.6330800209999978
  0.1250000000000000  0.1250000000000000  0.5632799830000010
  0.1250000000000000  0.1250000000000000  0.4367200169999990
  0.3750000000000000  0.1250000000000000  0.5632799830000010
  0.3750000000000000  0.1250000000000000  0.4367200169999990
  0.6250000309999990  0.1250000000000000  0.5632799830000010
  0.6250000309999990  0.1250000000000000  0.4367200169999990
  0.8749999690000010  0.1250000000000000  0.5632799830000010
  0.8749999690000010  0.1250000000000000  0.4367200169999990
  0.1250000000000000  0.3750000000000000  0.5632799830000010
  0.1250000000000000  0.3750000000000000  0.4367200169999990
  0.3750000000000000  0.3750000000000000  0.5632799830000010
  0.3750000000000000  0.3750000000000000  0.4367200169999990
  0.6250000309999990  0.3750000000000000  0.5632799830000010
  0.6250000309999990  0.3750000000000000  0.4367200169999990
  0.8749999690000010  0.3750000000000000  0.5632799830000010
  0.8749999690000010  0.3750000000000000  0.4367200169999990
  0.1250000000000000  0.6250000309999990  0.5632799830000010
  0.1250000000000000  0.6250000309999990  0.4367200169999990
  0.3750000000000000  0.6250000309999990  0.5632799830000010
  0.3750000000000000  0.6250000309999990  0.4367200169999990
  0.6250000309999990  0.6250000309999990  0.5632799830000010
  0.6250000309999990  0.6250000309999990  0.4367200169999990
  0.8749999690000010  0.6250000309999990  0.5632799830000010
  0.8749999690000010  0.6250000309999990  0.4367200169999990
  0.1250000000000000  0.8749999690000010  0.5632799830000010
  0.1250000000000000  0.8749999690000010  0.4367200169999990
  0.3750000000000000  0.8749999690000010  0.5632799830000010
  0.3750000000000000  0.8749999690000010  0.4367200169999990
  0.6250000309999990  0.8749999690000010  0.5632799830000010
  0.6250000309999990  0.8749999690000010  0.4367200169999990
  0.8749999690000010  0.8749999690000010  0.5632799830000010
  0.8749999690000010  0.8749999690000010  0.4367200169999990
  0.1250000000000000  0.1250000000000000  0.6859400499999992
  0.1250000000000000  0.1250000000000000  0.3140600110000022
  0.3750000000000000  0.1250000000000000  0.6859400499999992
  0.3750000000000000  0.1250000000000000  0.3140600110000022
  0.6250000309999990  0.1250000000000000  0.6859400499999992
  0.6250000309999990  0.1250000000000000  0.3140600110000022
  0.8749999690000010  0.1250000000000000  0.6859400499999992
  0.8749999690000010  0.1250000000000000  0.3140600110000022
  0.1250000000000000  0.3750000000000000  0.6859400499999992
  0.1250000000000000  0.3750000000000000  0.3140600110000022
  0.3750000000000000  0.3750000000000000  0.6859400499999992
  0.3750000000000000  0.3750000000000000  0.3140600110000022
  0.6250000309999990  0.3750000000000000  0.6859400499999992
  0.6250000309999990  0.3750000000000000  0.3140600110000022
  0.8749999690000010  0.3750000000000000  0.6859400499999992
  0.8749999690000010  0.3750000000000000  0.3140600110000022
  0.1250000000000000  0.6250000309999990  0.6859400499999992
  0.1250000000000000  0.6250000309999990  0.3140600110000022
  0.3750000000000000  0.6250000309999990  0.6859400499999992
  0.3750000000000000  0.6250000309999990  0.3140600110000022
  0.6250000309999990  0.6250000309999990  0.6859400499999992
  0.6250000309999990  0.6250000309999990  0.3140600110000022
  0.8749999690000010  0.6250000309999990  0.6859400499999992
  0.8749999690000010  0.6250000309999990  0.3140600110000022
  0.1250000000000000  0.8749999690000010  0.6859400499999992
  0.1250000000000000  0.8749999690000010  0.3140600110000022
  0.3750000000000000  0.8749999690000010  0.6859400499999992
  0.3750000000000000  0.8749999690000010  0.3140600110000022
  0.6250000309999990  0.8749999690000010  0.6859400499999992
  0.6250000309999990  0.8749999690000010  0.3140600110000022
  0.8749999690000010  0.8749999690000010  0.6859400499999992
  0.8749999690000010  0.8749999690000010  0.3140600110000022
  0.0000000000000000  0.1250000000000000  0.5676699699999972
  0.1250000000000000  0.0000000000000000  0.5676699699999972
  0.1250000000000000  0.0000000000000000  0.4323300300000028
  0.0000000000000000  0.1250000000000000  0.4323300300000028
  0.2500000000000000  0.1250000000000000  0.5676699699999972
  0.3750000000000000  0.0000000000000000  0.5676699699999972
  0.3750000000000000  0.0000000000000000  0.4323300300000028
  0.2500000000000000  0.1250000000000000  0.4323300300000028
  0.5000000000000000  0.1250000000000000  0.5676699699999972
  0.6250000309999990  0.0000000000000000  0.5676699699999972
  0.6250000309999990  0.0000000000000000  0.4323300300000028
  0.5000000000000000  0.1250000000000000  0.4323300300000028
  0.7500000000000000  0.1250000000000000  0.5676699699999972
  0.8749999690000010  0.0000000000000000  0.5676699699999972
  0.8749999690000010  0.0000000000000000  0.4323300300000028
  0.7500000000000000  0.1250000000000000  0.4323300300000028
  0.0000000000000000  0.3750000000000000  0.5676699699999972
  0.1250000000000000  0.2500000000000000  0.5676699699999972
  0.1250000000000000  0.2500000000000000  0.4323300300000028
  0.0000000000000000  0.3750000000000000  0.4323300300000028
  0.2500000000000000  0.3750000000000000  0.5676699699999972
  0.3750000000000000  0.2500000000000000  0.5676699699999972
  0.3750000000000000  0.2500000000000000  0.4323300300000028
  0.2500000000000000  0.3750000000000000  0.4323300300000028
  0.5000000000000000  0.3750000000000000  0.5676699699999972
  0.6250000309999990  0.2500000000000000  0.5676699699999972
  0.6250000309999990  0.2500000000000000  0.4323300300000028
  0.5000000000000000  0.3750000000000000  0.4323300300000028
  0.7500000000000000  0.3750000000000000  0.5676699699999972
  0.8749999690000010  0.2500000000000000  0.5676699699999972
  0.8749999690000010  0.2500000000000000  0.4323300300000028
  0.7500000000000000  0.3750000000000000  0.4323300300000028
  0.0000000000000000  0.6250000309999990  0.5676699699999972
  0.1250000000000000  0.5000000000000000  0.5676699699999972
  0.1250000000000000  0.5000000000000000  0.4323300300000028
  0.0000000000000000  0.6250000309999990  0.4323300300000028
  0.2500000000000000  0.6250000309999990  0.5676699699999972
  0.3750000000000000  0.5000000000000000  0.5676699699999972
  0.3750000000000000  0.5000000000000000  0.4323300300000028
  0.2500000000000000  0.6250000309999990  0.4323300300000028
  0.5000000000000000  0.6250000309999990  0.5676699699999972
  0.6250000309999990  0.5000000000000000  0.5676699699999972
  0.6250000309999990  0.5000000000000000  0.4323300300000028
  0.5000000000000000  0.6250000309999990  0.4323300300000028
  0.7500000000000000  0.6250000309999990  0.5676699699999972
  0.8749999690000010  0.5000000000000000  0.5676699699999972
  0.8749999690000010  0.5000000000000000  0.4323300300000028
  0.7500000000000000  0.6250000309999990  0.4323300300000028
  0.0000000000000000  0.8749999690000010  0.5676699699999972
  0.1250000000000000  0.7500000000000000  0.5676699699999972
  0.1250000000000000  0.7500000000000000  0.4323300300000028
  0.0000000000000000  0.8749999690000010  0.4323300300000028
  0.2500000000000000  0.8749999690000010  0.5676699699999972
  0.3750000000000000  0.7500000000000000  0.5676699699999972
  0.3750000000000000  0.7500000000000000  0.4323300300000028
  0.2500000000000000  0.8749999690000010  0.4323300300000028
  0.5000000000000000  0.8749999690000010  0.5676699699999972
  0.6250000309999990  0.7500000000000000  0.5676699699999972
  0.6250000309999990  0.7500000000000000  0.4323300300000028
  0.5000000000000000  0.8749999690000010  0.4323300300000028
  0.7500000000000000  0.8749999690000010  0.5676699699999972
  0.8749999690000010  0.7500000000000000  0.5676699699999972
  0.8749999690000010  0.7500000000000000  0.4323300300000028
  0.7500000000000000  0.8749999690000010  0.4323300300000028
 
  0.00000000E+00  0.00000000E+00  0.00000000E+00
  0.00000000E+00  0.00000000E+00  0.00000000E+00
  0.00000000E+00  0.00000000E+00  0.00000000E+00
  0.00000000E+00  0.00000000E+00  0.00000000E+00
  0.00000000E+00  0.00000000E+00  0.00000000E+00
  0.00000000E+00  0.00000000E+00  0.00000000E+00
  0.00000000E+00  0.00000000E+00  0.00000000E+00
  0.00000000E+00  0.00000000E+00  0.00000000E+00
  0.00000000E+00  0.00000000E+00  0.00000000E+00
  0.00000000E+00  0.00000000E+00  0.00000000E+00
  0.00000000E+00  0.00000000E+00  0.00000000E+00
  0.00000000E+00  0.00000000E+00  0.00000000E+00
  0.00000000E+00  0.00000000E+00  0.00000000E+00
  0.00000000E+00  0.00000000E+00  0.00000000E+00
  0.00000000E+00  0.00000000E+00  0.00000000E+00
  0.00000000E+00  0.00000000E+00  0.00000000E+00
  0.00000000E+00  0.00000000E+00  0.00000000E+00
  0.00000000E+00  0.00000000E+00  0.00000000E+00
  0.00000000E+00  0.00000000E+00  0.00000000E+00
  0.00000000E+00  0.00000000E+00  0.00000000E+00
  0.00000000E+00  0.00000000E+00  0.00000000E+00
  0.00000000E+00  0.00000000E+00  0.00000000E+00
  0.00000000E+00  0.00000000E+00  0.00000000E+00
  0.00000000E+00  0.00000000E+00  0.00000000E+00
  0.00000000E+00  0.00000000E+00  0.00000000E+00
  0.00000000E+00  0.00000000E+00  0.00000000E+00
  0.00000000E+00  0.00000000E+00  0.00000000E+00
  0.00000000E+00  0.00000000E+00  0.00000000E+00
  0.00000000E+00  0.00000000E+00  0.00000000E+00
  0.00000000E+00  0.00000000E+00  0.00000000E+00
  0.00000000E+00  0.00000000E+00  0.00000000E+00
  0.00000000E+00  0.00000000E+00  0.00000000E+00
  0.00000000E+00  0.00000000E+00  0.00000000E+00
  0.00000000E+00  0.00000000E+00  0.00000000E+00
  0.00000000E+00  0.00000000E+00  0.00000000E+00
  0.00000000E+00  0.00000000E+00  0.00000000E+00
  0.00000000E+00  0.00000000E+00  0.00000000E+00
  0.00000000E+00  0.00000000E+00  0.00000000E+00
  0.00000000E+00  0.00000000E+00  0.00000000E+00
  0.00000000E+00  0.00000000E+00  0.00000000E+00
  0.00000000E+00  0.00000000E+00  0.00000000E+00
  0.00000000E+00  0.00000000E+00  0.00000000E+00
  0.00000000E+00  0.00000000E+00  0.00000000E+00
  0.00000000E+00  0.00000000E+00  0.00000000E+00
  0.00000000E+00  0.00000000E+00  0.00000000E+00
  0.00000000E+00  0.00000000E+00  0.00000000E+00
  0.00000000E+00  0.00000000E+00  0.00000000E+00
  0.00000000E+00  0.00000000E+00  0.00000000E+00
  0.00000000E+00  0.00000000E+00  0.00000000E+00
  0.00000000E+00  0.00000000E+00  0.00000000E+00
  0.00000000E+00  0.00000000E+00  0.00000000E+00
  0.00000000E+00  0.00000000E+00  0.00000000E+00
  0.00000000E+00  0.00000000E+00  0.00000000E+00
  0.00000000E+00  0.00000000E+00  0.00000000E+00
  0.00000000E+00  0.00000000E+00  0.00000000E+00
  0.00000000E+00  0.00000000E+00  0.00000000E+00
  0.00000000E+00  0.00000000E+00  0.00000000E+00
  0.00000000E+00  0.00000000E+00  0.00000000E+00
  0.00000000E+00  0.00000000E+00  0.00000000E+00
  0.00000000E+00  0.00000000E+00  0.00000000E+00
  0.00000000E+00  0.00000000E+00  0.00000000E+00
  0.00000000E+00  0.00000000E+00  0.00000000E+00
  0.00000000E+00  0.00000000E+00  0.00000000E+00
  0.00000000E+00  0.00000000E+00  0.00000000E+00
  0.00000000E+00  0.00000000E+00  0.00000000E+00
  0.00000000E+00  0.00000000E+00  0.00000000E+00
  0.00000000E+00  0.00000000E+00  0.00000000E+00
  0.00000000E+00  0.00000000E+00  0.00000000E+00
  0.00000000E+00  0.00000000E+00  0.00000000E+00
  0.00000000E+00  0.00000000E+00  0.00000000E+00
  0.00000000E+00  0.00000000E+00  0.00000000E+00
  0.00000000E+00  0.00000000E+00  0.00000000E+00
  0.00000000E+00  0.00000000E+00  0.00000000E+00
  0.00000000E+00  0.00000000E+00  0.00000000E+00
  0.00000000E+00  0.00000000E+00  0.00000000E+00
  0.00000000E+00  0.00000000E+00  0.00000000E+00
  0.00000000E+00  0.00000000E+00  0.00000000E+00
  0.00000000E+00  0.00000000E+00  0.00000000E+00
  0.00000000E+00  0.00000000E+00  0.00000000E+00
  0.00000000E+00  0.00000000E+00  0.00000000E+00
  0.00000000E+00  0.00000000E+00  0.00000000E+00
  0.00000000E+00  0.00000000E+00  0.00000000E+00
  0.00000000E+00  0.00000000E+00  0.00000000E+00
  0.00000000E+00  0.00000000E+00  0.00000000E+00
  0.00000000E+00  0.00000000E+00  0.00000000E+00
  0.00000000E+00  0.00000000E+00  0.00000000E+00
  0.00000000E+00  0.00000000E+00  0.00000000E+00
  0.00000000E+00  0.00000000E+00  0.00000000E+00
  0.00000000E+00  0.00000000E+00  0.00000000E+00
  0.00000000E+00  0.00000000E+00  0.00000000E+00
  0.00000000E+00  0.00000000E+00  0.00000000E+00
  0.00000000E+00  0.00000000E+00  0.00000000E+00
  0.00000000E+00  0.00000000E+00  0.00000000E+00
  0.00000000E+00  0.00000000E+00  0.00000000E+00
  0.00000000E+00  0.00000000E+00  0.00000000E+00
  0.00000000E+00  0.00000000E+00  0.00000000E+00
  0.00000000E+00  0.00000000E+00  0.00000000E+00
  0.00000000E+00  0.00000000E+00  0.00000000E+00
  0.00000000E+00  0.00000000E+00  0.00000000E+00
  0.00000000E+00  0.00000000E+00  0.00000000E+00
  0.00000000E+00  0.00000000E+00  0.00000000E+00
  0.00000000E+00  0.00000000E+00  0.00000000E+00
  0.00000000E+00  0.00000000E+00  0.00000000E+00
  0.00000000E+00  0.00000000E+00  0.00000000E+00
  0.00000000E+00  0.00000000E+00  0.00000000E+00
  0.00000000E+00  0.00000000E+00  0.00000000E+00
  0.00000000E+00  0.00000000E+00  0.00000000E+00
  0.00000000E+00  0.00000000E+00  0.00000000E+00
  0.00000000E+00  0.00000000E+00  0.00000000E+00
  0.00000000E+00  0.00000000E+00  0.00000000E+00
  0.00000000E+00  0.00000000E+00  0.00000000E+00
  0.00000000E+00  0.00000000E+00  0.00000000E+00
  0.00000000E+00  0.00000000E+00  0.00000000E+00
  0.00000000E+00  0.00000000E+00  0.00000000E+00
  0.00000000E+00  0.00000000E+00  0.00000000E+00
  0.00000000E+00  0.00000000E+00  0.00000000E+00
  0.00000000E+00  0.00000000E+00  0.00000000E+00
  0.00000000E+00  0.00000000E+00  0.00000000E+00
  0.00000000E+00  0.00000000E+00  0.00000000E+00
  0.00000000E+00  0.00000000E+00  0.00000000E+00
  0.00000000E+00  0.00000000E+00  0.00000000E+00
  0.00000000E+00  0.00000000E+00  0.00000000E+00
  0.00000000E+00  0.00000000E+00  0.00000000E+00
  0.00000000E+00  0.00000000E+00  0.00000000E+00
  0.00000000E+00  0.00000000E+00  0.00000000E+00
  0.00000000E+00  0.00000000E+00  0.00000000E+00
  0.00000000E+00  0.00000000E+00  0.00000000E+00
  0.00000000E+00  0.00000000E+00  0.00000000E+00
  0.00000000E+00  0.00000000E+00  0.00000000E+00
  0.00000000E+00  0.00000000E+00  0.00000000E+00
  0.00000000E+00  0.00000000E+00  0.00000000E+00
  0.00000000E+00  0.00000000E+00  0.00000000E+00
  0.00000000E+00  0.00000000E+00  0.00000000E+00
  0.00000000E+00  0.00000000E+00  0.00000000E+00
  0.00000000E+00  0.00000000E+00  0.00000000E+00
  0.00000000E+00  0.00000000E+00  0.00000000E+00
  0.00000000E+00  0.00000000E+00  0.00000000E+00
  0.00000000E+00  0.00000000E+00  0.00000000E+00
  0.00000000E+00  0.00000000E+00  0.00000000E+00
  0.00000000E+00  0.00000000E+00  0.00000000E+00
  0.00000000E+00  0.00000000E+00  0.00000000E+00
  0.00000000E+00  0.00000000E+00  0.00000000E+00
  0.00000000E+00  0.00000000E+00  0.00000000E+00
  0.00000000E+00  0.00000000E+00  0.00000000E+00
  0.00000000E+00  0.00000000E+00  0.00000000E+00
  0.00000000E+00  0.00000000E+00  0.00000000E+00
  0.00000000E+00  0.00000000E+00  0.00000000E+00
  0.00000000E+00  0.00000000E+00  0.00000000E+00
  0.00000000E+00  0.00000000E+00  0.00000000E+00
  0.00000000E+00  0.00000000E+00  0.00000000E+00
  0.00000000E+00  0.00000000E+00  0.00000000E+00
  0.00000000E+00  0.00000000E+00  0.00000000E+00
  0.00000000E+00  0.00000000E+00  0.00000000E+00
  0.00000000E+00  0.00000000E+00  0.00000000E+00
  0.00000000E+00  0.00000000E+00  0.00000000E+00
  0.00000000E+00  0.00000000E+00  0.00000000E+00
  0.00000000E+00  0.00000000E+00  0.00000000E+00
  0.00000000E+00  0.00000000E+00  0.00000000E+00
  0.00000000E+00  0.00000000E+00  0.00000000E+00
  0.00000000E+00  0.00000000E+00  0.00000000E+00
  0.00000000E+00  0.00000000E+00  0.00000000E+00
  0.00000000E+00  0.00000000E+00  0.00000000E+00
  0.00000000E+00  0.00000000E+00  0.00000000E+00
  0.00000000E+00  0.00000000E+00  0.00000000E+00
  0.00000000E+00  0.00000000E+00  0.00000000E+00
  0.00000000E+00  0.00000000E+00  0.00000000E+00
  0.00000000E+00  0.00000000E+00  0.00000000E+00
  0.00000000E+00  0.00000000E+00  0.00000000E+00
  0.00000000E+00  0.00000000E+00  0.00000000E+00
  0.00000000E+00  0.00000000E+00  0.00000000E+00
  0.00000000E+00  0.00000000E+00  0.00000000E+00
  0.00000000E+00  0.00000000E+00  0.00000000E+00
  0.00000000E+00  0.00000000E+00  0.00000000E+00
  0.00000000E+00  0.00000000E+00  0.00000000E+00
  0.00000000E+00  0.00000000E+00  0.00000000E+00
  0.00000000E+00  0.00000000E+00  0.00000000E+00
