CONTCAR\(2)                             
   1.00000000000000     
    14.1827001571999993    0.0000000000000000    0.0000000000000000
     0.0000000000000000   18.7943000793000010    0.0000000000000000
     0.0000000000000000    0.0000000000000000   21.0296001433999997
   Ta   Pt   Se   O    H 
    16     8    56     2     1
Selective dynamics
Direct
  0.1881739895940342  0.4230908731741891  0.5625222970350876   F   F   F
  0.0629846447052387  0.5791054059134950  0.4372162051207624   F   F   F
  0.0633090721227134  0.9050356398328958  0.4893194014824118   F   F   F
  0.1880926653759047  0.0973733088366728  0.5097587830624875   F   F   F
  0.4382537413537335  0.4227401436379594  0.5625472796211923   F   F   F
  0.3121807911604293  0.5792033633858011  0.4369008573713060   F   F   F
  0.3135199119659617  0.9050008791855078  0.4893564985060834   F   F   F
  0.4379166464220390  0.0973255824212984  0.5098219538566369   F   F   F
  0.6880447178921898  0.4230255132962171  0.5625040654968387   F   F   F
  0.5634354260570191  0.5791073149083061  0.4369523479795276   F   F   F
  0.5629556145884251  0.9049867400850999  0.4892465669926409   F   F   F
  0.6881161559373652  0.0974103860068709  0.5097389339958411   F   F   F
  0.9381670872889458  0.4230751700920194  0.5624380574285155   F   F   F
  0.8130099601081682  0.5790835729560371  0.4371213124844928   F   F   F
  0.8131339128845596  0.9051707744144863  0.4892049876778515   F   F   F
  0.9381045259124363  0.0974667769216850  0.5097358661454905   F   F   F
  0.0626618084621242  0.2268226166928784  0.5345777914213201   F   F   F
  0.1880341053433625  0.7754456911054177  0.4645150498289610   F   F   F
  0.3127144500712618  0.2267635954014580  0.5344557107113914   F   F   F
  0.4381775690452798  0.7755907168990390  0.4644111449078707   F   F   F
  0.5626532211228934  0.2269652825933477  0.5347209723674879   F   F   F
  0.6884152662937595  0.7756206227147047  0.4643981007920246   F   F   F
  0.8127904399290671  0.2266818988509982  0.5344939269416287   F   F   F
  0.9382716425669955  0.7755509402334084  0.4645691327082915   F   F   F
  0.0630104092563428  0.6980399746341135  0.5142579224313479   F   F   F
  0.1877009196902719  0.3043859543840384  0.4852127755857225   F   F   F
  0.0630988568840039  0.4358138056364353  0.4682482015478371   F   F   F
  0.1878767352888318  0.5663438650880579  0.5314933507246522   F   F   F
  0.1874904520246616  0.5264955628381145  0.3575908910898207   F   F   F
  0.0632363677136070  0.4754869159827066  0.6420036502818220   F   F   F
  0.1881561287455469  0.9845230209627047  0.4293533231617843   F   F   F
  0.0631787781398074  0.0179472511001890  0.5696122724140196   F   F   F
  0.0631662155763735  0.3368998943167938  0.6143814891443995   F   F   F
  0.1877902980176316  0.6654510306890558  0.3851299592817554   F   F   F
  0.1877078311289111  0.1736603623769284  0.6075806154052898   F   F   F
  0.0631985300591182  0.8287782418779273  0.3915336734521162   F   F   F
  0.0632057398972634  0.1468902965870456  0.4325798746225900   F   F   F
  0.1883517544915776  0.8556271851704480  0.5665293093614849   F   F   F
  0.3130205584246468  0.6980697100599187  0.5138266552729718   F   F   F
  0.4377022228732059  0.3043759860590853  0.4850473109427824   F   F   F
  0.3128698247389892  0.4358543174353500  0.4682155710405667   F   F   F
  0.4379736011299187  0.5651851422063316  0.5311115311556946   F   F   F
  0.4377085777280030  0.5262236328014325  0.3582033413257832   F   F   F
  0.3134368095932771  0.4753189289787372  0.6421248799170911   F   F   F
  0.4379975912573357  0.9846168035270182  0.4290808605886554   F   F   F
  0.3131553235190481  0.0178729842894043  0.5697262296808034   F   F   F
  0.3131297078020907  0.3366988779513633  0.6143518065794993   F   F   F
  0.4378634307716283  0.6650304107655103  0.3851661786753198   F   F   F
  0.4375525277580223  0.1735740214276049  0.6076661772202243   F   F   F
  0.3130847616429833  0.8287573912986304  0.3915378629955129   F   F   F
  0.3130928785534124  0.1467337551732371  0.4324163425910541   F   F   F
  0.4382588930863989  0.8557682856362021  0.5665023395170721   F   F   F
  0.5634588206273534  0.6982829046235608  0.5134463164936491   F   F   F
  0.6879441294741113  0.3043311326684019  0.4852575972183502   F   F   F
  0.5632342380778539  0.4356436874604626  0.4680409562687302   F   F   F
  0.6878519687731028  0.5662571364562226  0.5313834646090427   F   F   F
  0.6878128979193292  0.5267085329100283  0.3574623843052507   F   F   F
  0.5632347243116982  0.4756993073161837  0.6418982505318667   F   F   F
  0.6880108925099933  0.9845937524706159  0.4292859984973632   F   F   F
  0.5631437553428853  0.0179084181363152  0.5695559713178540   F   F   F
  0.5631491642498361  0.3364020321815957  0.6142157768603198   F   F   F
  0.6882388788025295  0.6651542607680767  0.3848078963319708   F   F   F
  0.6878103550802024  0.1736031527777229  0.6076088504305091   F   F   F
  0.5633217745741845  0.8287092953842432  0.3914103331180883   F   F   F
  0.5630519850865596  0.1470329837536895  0.4327458853155051   F   F   F
  0.6882279133298113  0.8558409631556856  0.5664862184261281   F   F   F
  0.8132183564271074  0.6980193388705729  0.5139866170561262   F   F   F
  0.9377760217040603  0.3043892367647771  0.4851533900759719   F   F   F
  0.8129580198368771  0.4359092645481439  0.4682680050268360   F   F   F
  0.9378080955592907  0.5662302466305320  0.5313779360464821   F   F   F
  0.9378324314275588  0.5265131928200759  0.3578206273015141   F   F   F
  0.8132390062824442  0.4752811769912242  0.6421408638738200   F   F   F
  0.9381425276611637  0.9845910918639262  0.4292472276346757   F   F   F
  0.8132026629332998  0.0179831091199674  0.5696068811341135   F   F   F
  0.8132019824385850  0.3370055644827232  0.6144236447137459   F   F   F
  0.9381245556557118  0.6650866635015333  0.3850683764028204   F   F   F
  0.9376857677343793  0.1737367973920385  0.6076398629466553   F   F   F
  0.8133286950700622  0.8287440440857239  0.3914916720556434   F   F   F
  0.8131284913227361  0.1466564722974439  0.4323504897189636   F   F   F
  0.9380108496783919  0.8557884717368509  0.5665029090969753   F   F   F
  0.4155581690303549  0.7177044423220451  0.6590083792913219   T   T   T
  0.4589544428931234  0.6553268167372153  0.6693435048870455   T   T   T
  0.4571457721885607  0.6296902659582386  0.6263484057449695   T   T   T
 
  0.00000000E+00  0.00000000E+00  0.00000000E+00
  0.00000000E+00  0.00000000E+00  0.00000000E+00
  0.00000000E+00  0.00000000E+00  0.00000000E+00
  0.00000000E+00  0.00000000E+00  0.00000000E+00
  0.00000000E+00  0.00000000E+00  0.00000000E+00
  0.00000000E+00  0.00000000E+00  0.00000000E+00
  0.00000000E+00  0.00000000E+00  0.00000000E+00
  0.00000000E+00  0.00000000E+00  0.00000000E+00
  0.00000000E+00  0.00000000E+00  0.00000000E+00
  0.00000000E+00  0.00000000E+00  0.00000000E+00
  0.00000000E+00  0.00000000E+00  0.00000000E+00
  0.00000000E+00  0.00000000E+00  0.00000000E+00
  0.00000000E+00  0.00000000E+00  0.00000000E+00
  0.00000000E+00  0.00000000E+00  0.00000000E+00
  0.00000000E+00  0.00000000E+00  0.00000000E+00
  0.00000000E+00  0.00000000E+00  0.00000000E+00
  0.00000000E+00  0.00000000E+00  0.00000000E+00
  0.00000000E+00  0.00000000E+00  0.00000000E+00
  0.00000000E+00  0.00000000E+00  0.00000000E+00
  0.00000000E+00  0.00000000E+00  0.00000000E+00
  0.00000000E+00  0.00000000E+00  0.00000000E+00
  0.00000000E+00  0.00000000E+00  0.00000000E+00
  0.00000000E+00  0.00000000E+00  0.00000000E+00
  0.00000000E+00  0.00000000E+00  0.00000000E+00
  0.00000000E+00  0.00000000E+00  0.00000000E+00
  0.00000000E+00  0.00000000E+00  0.00000000E+00
  0.00000000E+00  0.00000000E+00  0.00000000E+00
  0.00000000E+00  0.00000000E+00  0.00000000E+00
  0.00000000E+00  0.00000000E+00  0.00000000E+00
  0.00000000E+00  0.00000000E+00  0.00000000E+00
  0.00000000E+00  0.00000000E+00  0.00000000E+00
  0.00000000E+00  0.00000000E+00  0.00000000E+00
  0.00000000E+00  0.00000000E+00  0.00000000E+00
  0.00000000E+00  0.00000000E+00  0.00000000E+00
  0.00000000E+00  0.00000000E+00  0.00000000E+00
  0.00000000E+00  0.00000000E+00  0.00000000E+00
  0.00000000E+00  0.00000000E+00  0.00000000E+00
  0.00000000E+00  0.00000000E+00  0.00000000E+00
  0.00000000E+00  0.00000000E+00  0.00000000E+00
  0.00000000E+00  0.00000000E+00  0.00000000E+00
  0.00000000E+00  0.00000000E+00  0.00000000E+00
  0.00000000E+00  0.00000000E+00  0.00000000E+00
  0.00000000E+00  0.00000000E+00  0.00000000E+00
  0.00000000E+00  0.00000000E+00  0.00000000E+00
  0.00000000E+00  0.00000000E+00  0.00000000E+00
  0.00000000E+00  0.00000000E+00  0.00000000E+00
  0.00000000E+00  0.00000000E+00  0.00000000E+00
  0.00000000E+00  0.00000000E+00  0.00000000E+00
  0.00000000E+00  0.00000000E+00  0.00000000E+00
  0.00000000E+00  0.00000000E+00  0.00000000E+00
  0.00000000E+00  0.00000000E+00  0.00000000E+00
  0.00000000E+00  0.00000000E+00  0.00000000E+00
  0.00000000E+00  0.00000000E+00  0.00000000E+00
  0.00000000E+00  0.00000000E+00  0.00000000E+00
  0.00000000E+00  0.00000000E+00  0.00000000E+00
  0.00000000E+00  0.00000000E+00  0.00000000E+00
  0.00000000E+00  0.00000000E+00  0.00000000E+00
  0.00000000E+00  0.00000000E+00  0.00000000E+00
  0.00000000E+00  0.00000000E+00  0.00000000E+00
  0.00000000E+00  0.00000000E+00  0.00000000E+00
  0.00000000E+00  0.00000000E+00  0.00000000E+00
  0.00000000E+00  0.00000000E+00  0.00000000E+00
  0.00000000E+00  0.00000000E+00  0.00000000E+00
  0.00000000E+00  0.00000000E+00  0.00000000E+00
  0.00000000E+00  0.00000000E+00  0.00000000E+00
  0.00000000E+00  0.00000000E+00  0.00000000E+00
  0.00000000E+00  0.00000000E+00  0.00000000E+00
  0.00000000E+00  0.00000000E+00  0.00000000E+00
  0.00000000E+00  0.00000000E+00  0.00000000E+00
  0.00000000E+00  0.00000000E+00  0.00000000E+00
  0.00000000E+00  0.00000000E+00  0.00000000E+00
  0.00000000E+00  0.00000000E+00  0.00000000E+00
  0.00000000E+00  0.00000000E+00  0.00000000E+00
  0.00000000E+00  0.00000000E+00  0.00000000E+00
  0.00000000E+00  0.00000000E+00  0.00000000E+00
  0.00000000E+00  0.00000000E+00  0.00000000E+00
  0.00000000E+00  0.00000000E+00  0.00000000E+00
  0.00000000E+00  0.00000000E+00  0.00000000E+00
  0.00000000E+00  0.00000000E+00  0.00000000E+00
  0.00000000E+00  0.00000000E+00  0.00000000E+00
  0.00000000E+00  0.00000000E+00  0.00000000E+00
  0.00000000E+00  0.00000000E+00  0.00000000E+00
  0.00000000E+00  0.00000000E+00  0.00000000E+00
