CONTCAR\(4)                             
   1.00000000000000     
    12.5341997146999997    0.0000000000000000    0.0000000000000000
    -6.2670998572999999   10.8549353689999997    0.0000000000000000
     0.0000000000000000    0.0000000000000000   23.0692996979000000
   Tb   Ga   I    O    H 
    18    18    18     1     1
Direct
  0.0000882487021131  0.0000444176850035  0.5859300354446291
  0.0001038039763997  0.0000672369804175  0.4130306688970233
  0.3332285867918163  0.0034451120164682  0.5848867735334595
  0.3341838914680306  0.9991428403619252  0.4115057986611360
  0.6703458001872599  0.0034690159867619  0.5848823922709000
  0.6650617421142188  0.9991343374532207  0.4115408935470947
  0.9966811534158113  0.3297933077050832  0.5848953329696002
  0.0010487222789220  0.3350937790255393  0.4115263517671757
  0.3332087222140582  0.3297521441037106  0.5848778837478570
  0.3341980694399939  0.3350951543005772  0.4115190553527705
  0.6667654614953399  0.3333907506409475  0.5850066039418829
  0.6667618711405897  0.3333852225231912  0.4099196107032264
  0.9966943610970129  0.6669108047126489  0.5848951562628999
  0.0010434892080841  0.6659768329940391  0.4115264314412791
  0.3334414992484304  0.6666646271541865  0.6245417025647384
  0.3334055424575084  0.6667187308518928  0.4146223953413115
  0.6703685594021274  0.6669274132092627  0.5848758698361106
  0.6650639616040688  0.6659467243114093  0.4115444880715577
  0.2200386098090615  0.1100226864359907  0.5113680007717851
  0.1142474419056052  0.2283251615210457  0.4852291925505450
  0.5562804880007810  0.1124144518354099  0.5115270482536755
  0.4440187485828750  0.2220270829546214  0.4830661394509961
  0.8901511332503111  0.1100112001199860  0.5113841803429422
  0.7781817262682492  0.2220273691727089  0.4830679331414853
  0.2269373594031912  0.4537279984460140  0.5194268973204448
  0.1096177730017823  0.5548192368628685  0.4849866415356426
  0.5562815099300309  0.4439026151746744  0.5115377811688264
  0.4453111207206035  0.5548147521837671  0.4849792365290381
  0.8877413349901025  0.4438806674480137  0.5115537354413108
  0.7781716612341724  0.5561688635901039  0.4830710845454043
  0.2269348034062156  0.7732309728329010  0.5194152624584482
  0.1142375646310689  0.8859443152055436  0.4852240989302919
  0.5463739730969742  0.7732048170917162  0.5194192176229753
  0.4453119035358971  0.8905348524513558  0.4849683443904242
  0.8901506749684852  0.7801582187030389  0.5113786735889467
  0.7718095727348970  0.8859121689748622  0.4852287196524797
  0.2223583634092064  0.1112654338486756  0.3259828498275683
  0.1114637714208265  0.2228021265979442  0.6718065566704188
  0.5553048586787713  0.1104858183078024  0.3242421502816340
  0.4446426592564037  0.2223246571212466  0.6712741400639528
  0.8889025329437278  0.1112013988340853  0.3260091631766514
  0.7777623047488363  0.2222843244643977  0.6712952427800100
  0.2234082312284418  0.4467079484984517  0.3263503018255685
  0.0684479300733868  0.5342187929416923  0.6733909773852068
  0.5553070610903769  0.4448411004924825  0.3242473050490025
  0.4658306285291420  0.5342690523023449  0.6733979078713420
  0.8895523945884619  0.4447836183754557  0.3242437750076417
  0.7777682460668334  0.5554970684169381  0.6712906399463786
  0.2234043360353243  0.7767195924473231  0.3263465831671805
  0.1114707383013161  0.8886665800632760  0.6718013554852807
  0.5534323657774332  0.7767182301417536  0.3264273129815185
  0.4658359622315800  0.9315602538786352  0.6733826938348551
  0.8889061474063830  0.7777177563884067  0.3260081214689760
  0.7772329120013315  0.8886227170310370  0.6718052741264772
  0.3330892153287679  0.6666677494468680  0.7126383735007789
  0.3369589211713663  0.6661704853802495  0.7543899774992489
 
  0.00000000E+00  0.00000000E+00  0.00000000E+00
  0.00000000E+00  0.00000000E+00  0.00000000E+00
  0.00000000E+00  0.00000000E+00  0.00000000E+00
  0.00000000E+00  0.00000000E+00  0.00000000E+00
  0.00000000E+00  0.00000000E+00  0.00000000E+00
  0.00000000E+00  0.00000000E+00  0.00000000E+00
  0.00000000E+00  0.00000000E+00  0.00000000E+00
  0.00000000E+00  0.00000000E+00  0.00000000E+00
  0.00000000E+00  0.00000000E+00  0.00000000E+00
  0.00000000E+00  0.00000000E+00  0.00000000E+00
  0.00000000E+00  0.00000000E+00  0.00000000E+00
  0.00000000E+00  0.00000000E+00  0.00000000E+00
  0.00000000E+00  0.00000000E+00  0.00000000E+00
  0.00000000E+00  0.00000000E+00  0.00000000E+00
  0.00000000E+00  0.00000000E+00  0.00000000E+00
  0.00000000E+00  0.00000000E+00  0.00000000E+00
  0.00000000E+00  0.00000000E+00  0.00000000E+00
  0.00000000E+00  0.00000000E+00  0.00000000E+00
  0.00000000E+00  0.00000000E+00  0.00000000E+00
  0.00000000E+00  0.00000000E+00  0.00000000E+00
  0.00000000E+00  0.00000000E+00  0.00000000E+00
  0.00000000E+00  0.00000000E+00  0.00000000E+00
  0.00000000E+00  0.00000000E+00  0.00000000E+00
  0.00000000E+00  0.00000000E+00  0.00000000E+00
  0.00000000E+00  0.00000000E+00  0.00000000E+00
  0.00000000E+00  0.00000000E+00  0.00000000E+00
  0.00000000E+00  0.00000000E+00  0.00000000E+00
  0.00000000E+00  0.00000000E+00  0.00000000E+00
  0.00000000E+00  0.00000000E+00  0.00000000E+00
  0.00000000E+00  0.00000000E+00  0.00000000E+00
  0.00000000E+00  0.00000000E+00  0.00000000E+00
  0.00000000E+00  0.00000000E+00  0.00000000E+00
  0.00000000E+00  0.00000000E+00  0.00000000E+00
  0.00000000E+00  0.00000000E+00  0.00000000E+00
  0.00000000E+00  0.00000000E+00  0.00000000E+00
  0.00000000E+00  0.00000000E+00  0.00000000E+00
  0.00000000E+00  0.00000000E+00  0.00000000E+00
  0.00000000E+00  0.00000000E+00  0.00000000E+00
  0.00000000E+00  0.00000000E+00  0.00000000E+00
  0.00000000E+00  0.00000000E+00  0.00000000E+00
  0.00000000E+00  0.00000000E+00  0.00000000E+00
  0.00000000E+00  0.00000000E+00  0.00000000E+00
  0.00000000E+00  0.00000000E+00  0.00000000E+00
  0.00000000E+00  0.00000000E+00  0.00000000E+00
  0.00000000E+00  0.00000000E+00  0.00000000E+00
  0.00000000E+00  0.00000000E+00  0.00000000E+00
  0.00000000E+00  0.00000000E+00  0.00000000E+00
  0.00000000E+00  0.00000000E+00  0.00000000E+00
  0.00000000E+00  0.00000000E+00  0.00000000E+00
  0.00000000E+00  0.00000000E+00  0.00000000E+00
  0.00000000E+00  0.00000000E+00  0.00000000E+00
  0.00000000E+00  0.00000000E+00  0.00000000E+00
  0.00000000E+00  0.00000000E+00  0.00000000E+00
  0.00000000E+00  0.00000000E+00  0.00000000E+00
  0.00000000E+00  0.00000000E+00  0.00000000E+00
  0.00000000E+00  0.00000000E+00  0.00000000E+00
