CONTCAR\(6)                             
   1.00000000000000     
    13.8635997771999993    0.0000000000000000    0.0000000000000000
     6.9317998885999996   12.0062295950000006    0.0000000000000000
     0.0000000000000000    0.0000000000000000   20.7936000824000011
   Sc   Cl   O 
    32    32     1
Direct
  0.9990860007776092  0.9990860007776092  0.5565606214743610
  0.0832674750809659  0.0832674780809626  0.4355433950779570
  0.2499507778336394  0.0000984443327212  0.5564642110730986
  0.3334550378380712  0.0832674780809626  0.4355433950779570
  0.5018279984447886  0.9990860007776092  0.5565606214743610
  0.5829274063172178  0.0839933836015661  0.4365174150842464
  0.7495221376283112  0.0009556567433791  0.5579844687859961
  0.8330692350812186  0.0839933836015661  0.4365174150842464
  0.0000984463327214  0.2499507738336391  0.5564642110730986
  0.0832674890809599  0.3334550468380684  0.4355433950779570
  0.2499507628336417  0.2499507738336391  0.5564642110730986
  0.3330740722994037  0.3330740672994068  0.4355572739804501
  0.4981353741291485  0.2495995515941303  0.5573124911456375
  0.5819321044150882  0.3361258161698331  0.4373324649768833
  0.7522650742767283  0.2495995515941303  0.5573124911456375
  0.8338419204011842  0.3330740672994068  0.4355572739804501
  0.9990860047776096  0.5018279904447880  0.5565606214743610
  0.0839933996015674  0.5829273713172114  0.4365174150842464
  0.2495995595941309  0.4981353471291499  0.5573124911456375
  0.3361258261698339  0.5819320554150806  0.4373324649768833
  0.4999999699999975  0.4999999919999993  0.7056070872865519
  0.5819320754150823  0.5819320554150806  0.4373324649768833
  0.7522650932767263  0.4981353471291499  0.5573124911456375
  0.8330692200812209  0.5829273713172114  0.4365174150842464
  0.0009556457433817  0.7495221596283130  0.5579844687859961
  0.0839934186015654  0.8330691620812161  0.4365174150842464
  0.2495995095941339  0.7522650772767250  0.5573124911456375
  0.3330740962994057  0.8338418324011840  0.4355572739804501
  0.4981353441291532  0.7522650772767250  0.5573124911456375
  0.5829274103172111  0.8330691620812161  0.4365174150842464
  0.7495221256283173  0.7495221596283130  0.5579844687859961
  0.8333299649999972  0.8333299569999966  0.4373375325627649
  0.1666699940000029  0.1666699869999988  0.3568649611933026
  0.1666699940000029  0.1666699869999988  0.6351975338711568
  0.4173168308700568  0.1662367340652011  0.3569505745966595
  0.4163184607903005  0.1643444281747151  0.6353495222353160
  0.6656685396809863  0.1686728956380392  0.3585908362127057
  0.6653216618100046  0.1693666513799954  0.6361930068683392
  0.9164564440647496  0.1662367340652011  0.3569505745966595
  0.9193471200349848  0.1643444281747151  0.6353495222353160
  0.1662367600652033  0.4173168198700523  0.3569505745966595
  0.1643444541747172  0.4163184497902961  0.6353495222353160
  0.4168883722120995  0.4168883762120998  0.3574855641458683
  0.4083428749957605  0.4083428789957608  0.6418730992575661
  0.6662332265757840  0.4168883762120998  0.3574855641458683
  0.6833242210084691  0.4083428789957608  0.6418730992575661
  0.9164564630647476  0.4173168198700523  0.3569505745966595
  0.9193471390349828  0.4163184497902961  0.6353495222353160
  0.1686728866380420  0.6656685636809812  0.3585908362127057
  0.1693666423799982  0.6653216858099995  0.6361930068683392
  0.4168883712121030  0.6662332315757808  0.3574855641458683
  0.4083428739957640  0.6833242260084660  0.6418730992575661
  0.6656684896809821  0.6656685636809812  0.3585908362127057
  0.6653216118100005  0.6653216858099995  0.6361930068683392
  0.9164875907298509  0.6670347925402922  0.3582612181731335
  0.9165577243827912  0.6668945252344116  0.6364776305771187
  0.1662367790652013  0.9164564300647484  0.3569505745966595
  0.1643444731747152  0.9193471060349836  0.6353495222353160
  0.4173168338700535  0.9164564300647484  0.3569505745966595
  0.4163184637902972  0.9193471060349836  0.6353495222353160
  0.6670347375402912  0.9164876267298538  0.3582612181731335
  0.6668944702344106  0.9165577603827870  0.6364776305771187
  0.9164876097298489  0.9164876267298538  0.3582612181731335
  0.9165577433827892  0.9165577603827870  0.6364776305771187
  0.5000400389999982  0.4999799750000022  0.7870010999046642
 
  0.00000000E+00  0.00000000E+00  0.00000000E+00
  0.00000000E+00  0.00000000E+00  0.00000000E+00
  0.00000000E+00  0.00000000E+00  0.00000000E+00
  0.00000000E+00  0.00000000E+00  0.00000000E+00
  0.00000000E+00  0.00000000E+00  0.00000000E+00
  0.00000000E+00  0.00000000E+00  0.00000000E+00
  0.00000000E+00  0.00000000E+00  0.00000000E+00
  0.00000000E+00  0.00000000E+00  0.00000000E+00
  0.00000000E+00  0.00000000E+00  0.00000000E+00
  0.00000000E+00  0.00000000E+00  0.00000000E+00
  0.00000000E+00  0.00000000E+00  0.00000000E+00
  0.00000000E+00  0.00000000E+00  0.00000000E+00
  0.00000000E+00  0.00000000E+00  0.00000000E+00
  0.00000000E+00  0.00000000E+00  0.00000000E+00
  0.00000000E+00  0.00000000E+00  0.00000000E+00
  0.00000000E+00  0.00000000E+00  0.00000000E+00
  0.00000000E+00  0.00000000E+00  0.00000000E+00
  0.00000000E+00  0.00000000E+00  0.00000000E+00
  0.00000000E+00  0.00000000E+00  0.00000000E+00
  0.00000000E+00  0.00000000E+00  0.00000000E+00
  0.00000000E+00  0.00000000E+00  0.00000000E+00
  0.00000000E+00  0.00000000E+00  0.00000000E+00
  0.00000000E+00  0.00000000E+00  0.00000000E+00
  0.00000000E+00  0.00000000E+00  0.00000000E+00
  0.00000000E+00  0.00000000E+00  0.00000000E+00
  0.00000000E+00  0.00000000E+00  0.00000000E+00
  0.00000000E+00  0.00000000E+00  0.00000000E+00
  0.00000000E+00  0.00000000E+00  0.00000000E+00
  0.00000000E+00  0.00000000E+00  0.00000000E+00
  0.00000000E+00  0.00000000E+00  0.00000000E+00
  0.00000000E+00  0.00000000E+00  0.00000000E+00
  0.00000000E+00  0.00000000E+00  0.00000000E+00
  0.00000000E+00  0.00000000E+00  0.00000000E+00
  0.00000000E+00  0.00000000E+00  0.00000000E+00
  0.00000000E+00  0.00000000E+00  0.00000000E+00
  0.00000000E+00  0.00000000E+00  0.00000000E+00
  0.00000000E+00  0.00000000E+00  0.00000000E+00
  0.00000000E+00  0.00000000E+00  0.00000000E+00
  0.00000000E+00  0.00000000E+00  0.00000000E+00
  0.00000000E+00  0.00000000E+00  0.00000000E+00
  0.00000000E+00  0.00000000E+00  0.00000000E+00
  0.00000000E+00  0.00000000E+00  0.00000000E+00
  0.00000000E+00  0.00000000E+00  0.00000000E+00
  0.00000000E+00  0.00000000E+00  0.00000000E+00
  0.00000000E+00  0.00000000E+00  0.00000000E+00
  0.00000000E+00  0.00000000E+00  0.00000000E+00
  0.00000000E+00  0.00000000E+00  0.00000000E+00
  0.00000000E+00  0.00000000E+00  0.00000000E+00
  0.00000000E+00  0.00000000E+00  0.00000000E+00
  0.00000000E+00  0.00000000E+00  0.00000000E+00
  0.00000000E+00  0.00000000E+00  0.00000000E+00
  0.00000000E+00  0.00000000E+00  0.00000000E+00
  0.00000000E+00  0.00000000E+00  0.00000000E+00
  0.00000000E+00  0.00000000E+00  0.00000000E+00
  0.00000000E+00  0.00000000E+00  0.00000000E+00
  0.00000000E+00  0.00000000E+00  0.00000000E+00
  0.00000000E+00  0.00000000E+00  0.00000000E+00
  0.00000000E+00  0.00000000E+00  0.00000000E+00
  0.00000000E+00  0.00000000E+00  0.00000000E+00
  0.00000000E+00  0.00000000E+00  0.00000000E+00
  0.00000000E+00  0.00000000E+00  0.00000000E+00
  0.00000000E+00  0.00000000E+00  0.00000000E+00
  0.00000000E+00  0.00000000E+00  0.00000000E+00
  0.00000000E+00  0.00000000E+00  0.00000000E+00
  0.00000000E+00  0.00000000E+00  0.00000000E+00
