AGGAC = 0.0
ALGO = Fast
AMIN = 0.01
EDIFF = 0.0001
ENCUT = 520.0
GGA = Bo
IBRION = 1
ISIF = 3
ISMEAR = -5
ISPIN = 2
KPOINT_BSE = -1 0 0 0
LORBIT = 11
LREAL = Auto
LUSE_VDW = True
LWAVE = False
#MAGMOM = 8*0.6
NELM = 400
ADDGRID = .TRUE.
NSW = 200
PARAM1 = 0.18333333
PARAM2 = 0.22
PREC = accurate
SIGMA = 0.05
