CONTCAR                                 
   1.00000000000000     
    10.9294004440000005    0.0000000000000000    0.0000000000000000
    -5.4647012217000004    9.4654836332999999    0.0000000000000000
     0.0000000000000000    0.0000000000000000   27.0860996245999992
   Mn   Ga   S    O    H 
    18    18    45     1     1
Direct
  0.1111774532919537  0.2223023538306547  0.4455139668000156
  0.2222143757913786  0.1110875538715241  0.5544523416547203
  0.4444830959318105  0.2222473864241571  0.4455094947812608
  0.5555729227726122  0.1109407069853239  0.5545904480695276
  0.7778989099285272  0.2224649065860310  0.4456104316290996
  0.8887138118285950  0.1110020337524669  0.5545783579134823
  0.1109548710999199  0.5555486793184112  0.4456007549902031
  0.2222252114777006  0.4445039076097078  0.5545663952216433
  0.4443997658668752  0.5555038429213036  0.4455257732734551
  0.5556631541443889  0.4445172530271787  0.5545753106204165
  0.7778770114580533  0.5555259220866512  0.4455984323188583
  0.8888555010797539  0.4443733786529712  0.5548495963983534
  0.1111077457323611  0.8889297788916881  0.4455130190197247
  0.2221690858685476  0.7775966221522725  0.5545758928693596
  0.4443912822428828  0.8890357464761028  0.4455385790788811
  0.5554881758926611  0.7776747558955793  0.5545408953723160
  0.7779649902294370  0.8890350474334490  0.4455336058298143
  0.8887870808975559  0.7776178750155240  0.5545583408182481
  0.1107063486049492  0.2224825407628083  0.6846091474812744
  0.2223596821254770  0.1113781990805635  0.3152513192218122
  0.4451377053324902  0.2224296703491034  0.6846148931762822
  0.5556809989260986  0.1114045923155824  0.3153430912137819
  0.7773847448073496  0.2213874865938824  0.6850407007753804
  0.8890561850602892  0.1114034709126874  0.3153433485871862
  0.1116934600942363  0.5556978218083919  0.6850498280981470
  0.2223236652857328  0.4446658011125836  0.3153483483814000
  0.4460873733661725  0.5587908816060230  0.6847636609325028
  0.5556912227877310  0.4446705513585358  0.3153471150964892
  0.7773485593408148  0.5556803803216934  0.6850480801161015
  0.8890174256411031  0.4446981908383231  0.3153896061195515
  0.1106349732459347  0.8878650179994680  0.6846150752605978
  0.2223179655138944  0.7780413210233433  0.3153440013576007
  0.4461693264582565  0.8869552519376944  0.6847743104414696
  0.5556866542814795  0.7780345249345727  0.3153865199701523
  0.7742232775381374  0.8869759882260001  0.6847203377986418
  0.8890632879628202  0.7780455298235001  0.3153410803817318
  0.0003046661498874  0.0003070741422678  0.4995814280687563
  0.1111176026579389  0.2220475379840037  0.6024295057583932
  0.2222513414404966  0.1111640995317517  0.3970578823562458
  0.1112258855793406  0.2225459260410607  0.2767561964924253
  0.2221131134440798  0.1108726132448972  0.7225339806610024
  0.3331227327857573  0.0001100132976238  0.4996030109276617
  0.4442729033538109  0.2220351284266812  0.6024391956429453
  0.5556539553746567  0.1112563402298997  0.3971767753421804
  0.4446570796342890  0.2225475729016589  0.2767545260785377
  0.5550869094581774  0.1104989619703243  0.7228008795776654
  0.6667978189486244  0.0003378769668319  0.4996433249229044
  0.7776888032646118  0.2220341803119398  0.6028072907512421
  0.8889351527787208  0.1112649363206630  0.3971762675985558
  0.7779436790917620  0.2225537347015225  0.2768195346603080
  0.8887948275589569  0.1104947933488945  0.7227866106192917
  0.0000066950452611  0.3334434382959923  0.4999622992976889
  0.1111439956531005  0.5555126714201167  0.6028179049536586
  0.2221679208963534  0.4444910767106287  0.3971813926616244
  0.1112094344781866  0.5558154547068792  0.2768249779228570
  0.2225629124177188  0.4442792952797544  0.7228244876536053
  0.3333925094952379  0.3331033478432965  0.4995874445090437
  0.4440854090464035  0.5548276325823287  0.6023033925211896
  0.5556389271652599  0.4444925542705534  0.3971766041823881
  0.4445939449922418  0.5558526101755102  0.2768313361538103
  0.5550722610742739  0.4442620065224116  0.7228247393654609
  0.6667882078679501  0.3333783100223750  0.4999626516024410
  0.7776973293679290  0.5555220545682115  0.6028164116701961
  0.8889146479204026  0.4445106667971997  0.3972392420050512
  0.7779477989764608  0.5558185603301172  0.2768215789508121
  0.8887916366825988  0.4442311229491999  0.7229675174739748
 -0.0000884416645062  0.6665695399434709  0.4999607581922660
  0.1111194120749391  0.8889101627788880  0.6024464277025791
  0.2221812472719204  0.7777820292075944  0.3971761627782011
  0.1112275406189973  0.8891159923964325  0.2767546945732025
  0.2225836686462753  0.7779578332662221  0.7228213247692281
  0.3329903812727317  0.6665455084500947  0.4996494270237554
  0.4439770809923134  0.8889647742751124  0.6023428783251038
  0.5555919958369803  0.7778606254364770  0.3972232717997787
  0.4445928041354905  0.8891679955489914  0.2768300113088205
  0.5555282493449606  0.7775983758407657  0.7234480290481973
  0.6668519749010342  0.6665211752170790  0.4996386587246278
  0.7783873328122357  0.8890315227014346  0.6022894426442642
  0.8889304539811631  0.7777819352925123  0.3971745380376451
  0.7779086556391648  0.8891692194450824  0.2768282130682678
  0.8887509553533014  0.7779647943621867  0.7228092610261748
  0.5528356942712590  0.7743135422098227  0.8216257454039804
  0.5505942660032758  0.7737087447974945  0.8577613821225388
 
  0.00000000E+00  0.00000000E+00  0.00000000E+00
  0.00000000E+00  0.00000000E+00  0.00000000E+00
  0.00000000E+00  0.00000000E+00  0.00000000E+00
  0.00000000E+00  0.00000000E+00  0.00000000E+00
  0.00000000E+00  0.00000000E+00  0.00000000E+00
  0.00000000E+00  0.00000000E+00  0.00000000E+00
  0.00000000E+00  0.00000000E+00  0.00000000E+00
  0.00000000E+00  0.00000000E+00  0.00000000E+00
  0.00000000E+00  0.00000000E+00  0.00000000E+00
  0.00000000E+00  0.00000000E+00  0.00000000E+00
  0.00000000E+00  0.00000000E+00  0.00000000E+00
  0.00000000E+00  0.00000000E+00  0.00000000E+00
  0.00000000E+00  0.00000000E+00  0.00000000E+00
  0.00000000E+00  0.00000000E+00  0.00000000E+00
  0.00000000E+00  0.00000000E+00  0.00000000E+00
  0.00000000E+00  0.00000000E+00  0.00000000E+00
  0.00000000E+00  0.00000000E+00  0.00000000E+00
  0.00000000E+00  0.00000000E+00  0.00000000E+00
  0.00000000E+00  0.00000000E+00  0.00000000E+00
  0.00000000E+00  0.00000000E+00  0.00000000E+00
  0.00000000E+00  0.00000000E+00  0.00000000E+00
  0.00000000E+00  0.00000000E+00  0.00000000E+00
  0.00000000E+00  0.00000000E+00  0.00000000E+00
  0.00000000E+00  0.00000000E+00  0.00000000E+00
  0.00000000E+00  0.00000000E+00  0.00000000E+00
  0.00000000E+00  0.00000000E+00  0.00000000E+00
  0.00000000E+00  0.00000000E+00  0.00000000E+00
  0.00000000E+00  0.00000000E+00  0.00000000E+00
  0.00000000E+00  0.00000000E+00  0.00000000E+00
  0.00000000E+00  0.00000000E+00  0.00000000E+00
  0.00000000E+00  0.00000000E+00  0.00000000E+00
  0.00000000E+00  0.00000000E+00  0.00000000E+00
  0.00000000E+00  0.00000000E+00  0.00000000E+00
  0.00000000E+00  0.00000000E+00  0.00000000E+00
  0.00000000E+00  0.00000000E+00  0.00000000E+00
  0.00000000E+00  0.00000000E+00  0.00000000E+00
  0.00000000E+00  0.00000000E+00  0.00000000E+00
  0.00000000E+00  0.00000000E+00  0.00000000E+00
  0.00000000E+00  0.00000000E+00  0.00000000E+00
  0.00000000E+00  0.00000000E+00  0.00000000E+00
  0.00000000E+00  0.00000000E+00  0.00000000E+00
  0.00000000E+00  0.00000000E+00  0.00000000E+00
  0.00000000E+00  0.00000000E+00  0.00000000E+00
  0.00000000E+00  0.00000000E+00  0.00000000E+00
  0.00000000E+00  0.00000000E+00  0.00000000E+00
  0.00000000E+00  0.00000000E+00  0.00000000E+00
  0.00000000E+00  0.00000000E+00  0.00000000E+00
  0.00000000E+00  0.00000000E+00  0.00000000E+00
  0.00000000E+00  0.00000000E+00  0.00000000E+00
  0.00000000E+00  0.00000000E+00  0.00000000E+00
  0.00000000E+00  0.00000000E+00  0.00000000E+00
  0.00000000E+00  0.00000000E+00  0.00000000E+00
  0.00000000E+00  0.00000000E+00  0.00000000E+00
  0.00000000E+00  0.00000000E+00  0.00000000E+00
  0.00000000E+00  0.00000000E+00  0.00000000E+00
  0.00000000E+00  0.00000000E+00  0.00000000E+00
  0.00000000E+00  0.00000000E+00  0.00000000E+00
  0.00000000E+00  0.00000000E+00  0.00000000E+00
  0.00000000E+00  0.00000000E+00  0.00000000E+00
  0.00000000E+00  0.00000000E+00  0.00000000E+00
  0.00000000E+00  0.00000000E+00  0.00000000E+00
  0.00000000E+00  0.00000000E+00  0.00000000E+00
  0.00000000E+00  0.00000000E+00  0.00000000E+00
  0.00000000E+00  0.00000000E+00  0.00000000E+00
  0.00000000E+00  0.00000000E+00  0.00000000E+00
  0.00000000E+00  0.00000000E+00  0.00000000E+00
  0.00000000E+00  0.00000000E+00  0.00000000E+00
  0.00000000E+00  0.00000000E+00  0.00000000E+00
  0.00000000E+00  0.00000000E+00  0.00000000E+00
  0.00000000E+00  0.00000000E+00  0.00000000E+00
  0.00000000E+00  0.00000000E+00  0.00000000E+00
  0.00000000E+00  0.00000000E+00  0.00000000E+00
  0.00000000E+00  0.00000000E+00  0.00000000E+00
  0.00000000E+00  0.00000000E+00  0.00000000E+00
  0.00000000E+00  0.00000000E+00  0.00000000E+00
  0.00000000E+00  0.00000000E+00  0.00000000E+00
  0.00000000E+00  0.00000000E+00  0.00000000E+00
  0.00000000E+00  0.00000000E+00  0.00000000E+00
  0.00000000E+00  0.00000000E+00  0.00000000E+00
  0.00000000E+00  0.00000000E+00  0.00000000E+00
  0.00000000E+00  0.00000000E+00  0.00000000E+00
  0.00000000E+00  0.00000000E+00  0.00000000E+00
  0.00000000E+00  0.00000000E+00  0.00000000E+00
