CONTCAR\(2)                             
   1.00000000000000     
    14.1827001571999993    0.0000000000000000    0.0000000000000000
     0.0000000000000000   18.7943000793000010    0.0000000000000000
     0.0000000000000000    0.0000000000000000   21.0296001433999997
   Ta   Pt   Se   O    H 
    16     8    56     1     1
Direct
  0.1860968308838387  0.4200505975444765  0.5659401220531124
  0.0620817701756167  0.5763875897156612  0.4370659331784292
  0.0628985772427692  0.9028321115924053  0.4872315820886083
  0.1864717207375572  0.0950605909505275  0.5087009695809807
  0.4373683046598374  0.4219855712357938  0.5785006922043694
  0.3126809156116560  0.5763638752091088  0.4401865985045672
  0.3130347146702843  0.9033047024177047  0.4881551892441142
  0.4378308538416205  0.0954519342559992  0.5105573027639132
  0.6886784200486071  0.4203920555354887  0.5658320081546451
  0.5622299796735863  0.5764615079231036  0.4401150958534928
  0.5623072289182475  0.9031519752522010  0.4884157225036961
  0.6888575782380816  0.0950096459834850  0.5088377322033264
  0.9374519429000370  0.4203752737082874  0.5632324806857766
  0.8127727939065897  0.5765479415504241  0.4369141937338847
  0.8125500820101407  0.9030498801348184  0.4874068640500371
  0.9376020572240712  0.0950565607073173  0.5076443102998124
  0.0624257561985902  0.2246161183204513  0.5341953911292902
  0.1879184595777451  0.7726660936468119  0.4637275454676997
  0.3118602497771315  0.2274779638826296  0.5367114413704848
  0.4377797344980757  0.7737960283157388  0.4650184625351944
  0.5631911977378590  0.2276120274003905  0.5368648121777490
  0.6876184578545904  0.7727948046278525  0.4638395492930540
  0.8125703385855915  0.2246084459943476  0.5340351371195654
  0.9378191738229720  0.7726699334669307  0.4633660866015678
  0.0631835490806036  0.6953700722576428  0.5136549670226813
  0.1864141256457019  0.3038330357331178  0.4857882936366277
  0.0634027245861689  0.4338055072780956  0.4699686015093356
  0.1864882716669282  0.5658922911685308  0.5342062298964240
  0.1891436286360583  0.5209794509235146  0.3612401942803942
  0.0593825479460821  0.4717270335956072  0.6443898180875614
  0.1881377011439603  0.9829575991483567  0.4278310714863414
  0.0621417018600527  0.0150897187108343  0.5677798043637479
  0.0603544823716393  0.3333536128402095  0.6156906824521696
  0.1884444209434682  0.6617727549038526  0.3857247242058238
  0.1855501256952351  0.1692271655664818  0.6072823647695735
  0.0631904405976477  0.8256269639948236  0.3900502973774581
  0.0629355229657486  0.1458029722026876  0.4312396756422736
  0.1876768630960024  0.8537173483520655  0.5649069956939138
  0.3131013311470799  0.6964636764046526  0.5149998419595145
  0.4375831386303047  0.3085229516895528  0.4913950965701842
  0.3156615050526910  0.4347945547595649  0.4762327730606660
  0.4375466890591992  0.5650791382142343  0.5345842377306664
  0.4373644645960186  0.5238018923039038  0.3602409681284435
  0.2965796698266112  0.4882458945863215  0.6402457092926896
  0.4377429686058322  0.9837083443598544  0.4286874137071447
  0.3122385832483202  0.0158262869136128  0.5686505329295146
  0.3059530375006406  0.3278106425724729  0.6170511009487859
  0.4373617047745342  0.6612726510876277  0.3864471123757422
  0.4375233211584789  0.1701922611222716  0.6086244733775975
  0.3134716109958457  0.8259964734943713  0.3909726976007583
  0.3136321209332314  0.1498401423850783  0.4348373806512959
  0.4374667105950309  0.8551526436611794  0.5662876642946466
  0.5623409225059097  0.6964608135674867  0.5150688404250318
  0.6884667130649436  0.3038751343257306  0.4858045935946378
  0.5590422454505255  0.4348824854835536  0.4761318868116701
  0.6890083094478402  0.5660833339962048  0.5336700752550898
  0.6857203841578505  0.5212182014040859  0.3610991265609277
  0.5779539763194379  0.4886518406058106  0.6399000409171297
  0.6869689388120555  0.9828870195951223  0.4280447861435117
  0.5636348386721494  0.0157577694800189  0.5688976529895690
  0.5688337455961304  0.3284264706776929  0.6172396298121630
  0.6863963795095728  0.6620632800563079  0.3856341315689547
  0.6896425218397142  0.1693685318369374  0.6073003334733714
  0.5622148090180860  0.8259869721652422  0.3910781196004457
  0.5621249828474943  0.1497745215031663  0.4348453438190555
  0.6880045475305204  0.8536946709383603  0.5650801280076634
  0.8124510316608610  0.6954845562589481  0.5135478832841573
  0.9374934690541571  0.3025857098609919  0.4852464071201662
  0.8115320713794022  0.4338648144278276  0.4700143757739956
  0.9375990423664735  0.5640243196600994  0.5316433007860522
  0.9374888417713337  0.5224353042224269  0.3583106163306390
  0.8151945416400327  0.4718948144492662  0.6443141216902530
  0.9376202585563853  0.9824097106810409  0.4273656521066919
  0.8135580485342174  0.0152164232448023  0.5680480374758983
  0.8142654095103536  0.3336001815752048  0.6156139007602457
  0.9375390662894246  0.6628326037048552  0.3850257957510327
  0.9373643133258872  0.1699940772887307  0.6063135881054494
  0.8123800091609122  0.8259536724052006  0.3902081936309945
  0.8124435119638131  0.1455814874510401  0.4311897700132916
  0.9377119283291955  0.8533446110616021  0.5644846610288969
  0.4353795816103274  0.4008654897948907  0.6789929759265100
  0.4411958789207494  0.4428050606748781  0.7064097903871386
 
  0.00000000E+00  0.00000000E+00  0.00000000E+00
  0.00000000E+00  0.00000000E+00  0.00000000E+00
  0.00000000E+00  0.00000000E+00  0.00000000E+00
  0.00000000E+00  0.00000000E+00  0.00000000E+00
  0.00000000E+00  0.00000000E+00  0.00000000E+00
  0.00000000E+00  0.00000000E+00  0.00000000E+00
  0.00000000E+00  0.00000000E+00  0.00000000E+00
  0.00000000E+00  0.00000000E+00  0.00000000E+00
  0.00000000E+00  0.00000000E+00  0.00000000E+00
  0.00000000E+00  0.00000000E+00  0.00000000E+00
  0.00000000E+00  0.00000000E+00  0.00000000E+00
  0.00000000E+00  0.00000000E+00  0.00000000E+00
  0.00000000E+00  0.00000000E+00  0.00000000E+00
  0.00000000E+00  0.00000000E+00  0.00000000E+00
  0.00000000E+00  0.00000000E+00  0.00000000E+00
  0.00000000E+00  0.00000000E+00  0.00000000E+00
  0.00000000E+00  0.00000000E+00  0.00000000E+00
  0.00000000E+00  0.00000000E+00  0.00000000E+00
  0.00000000E+00  0.00000000E+00  0.00000000E+00
  0.00000000E+00  0.00000000E+00  0.00000000E+00
  0.00000000E+00  0.00000000E+00  0.00000000E+00
  0.00000000E+00  0.00000000E+00  0.00000000E+00
  0.00000000E+00  0.00000000E+00  0.00000000E+00
  0.00000000E+00  0.00000000E+00  0.00000000E+00
  0.00000000E+00  0.00000000E+00  0.00000000E+00
  0.00000000E+00  0.00000000E+00  0.00000000E+00
  0.00000000E+00  0.00000000E+00  0.00000000E+00
  0.00000000E+00  0.00000000E+00  0.00000000E+00
  0.00000000E+00  0.00000000E+00  0.00000000E+00
  0.00000000E+00  0.00000000E+00  0.00000000E+00
  0.00000000E+00  0.00000000E+00  0.00000000E+00
  0.00000000E+00  0.00000000E+00  0.00000000E+00
  0.00000000E+00  0.00000000E+00  0.00000000E+00
  0.00000000E+00  0.00000000E+00  0.00000000E+00
  0.00000000E+00  0.00000000E+00  0.00000000E+00
  0.00000000E+00  0.00000000E+00  0.00000000E+00
  0.00000000E+00  0.00000000E+00  0.00000000E+00
  0.00000000E+00  0.00000000E+00  0.00000000E+00
  0.00000000E+00  0.00000000E+00  0.00000000E+00
  0.00000000E+00  0.00000000E+00  0.00000000E+00
  0.00000000E+00  0.00000000E+00  0.00000000E+00
  0.00000000E+00  0.00000000E+00  0.00000000E+00
  0.00000000E+00  0.00000000E+00  0.00000000E+00
  0.00000000E+00  0.00000000E+00  0.00000000E+00
  0.00000000E+00  0.00000000E+00  0.00000000E+00
  0.00000000E+00  0.00000000E+00  0.00000000E+00
  0.00000000E+00  0.00000000E+00  0.00000000E+00
  0.00000000E+00  0.00000000E+00  0.00000000E+00
  0.00000000E+00  0.00000000E+00  0.00000000E+00
  0.00000000E+00  0.00000000E+00  0.00000000E+00
  0.00000000E+00  0.00000000E+00  0.00000000E+00
  0.00000000E+00  0.00000000E+00  0.00000000E+00
  0.00000000E+00  0.00000000E+00  0.00000000E+00
  0.00000000E+00  0.00000000E+00  0.00000000E+00
  0.00000000E+00  0.00000000E+00  0.00000000E+00
  0.00000000E+00  0.00000000E+00  0.00000000E+00
  0.00000000E+00  0.00000000E+00  0.00000000E+00
  0.00000000E+00  0.00000000E+00  0.00000000E+00
  0.00000000E+00  0.00000000E+00  0.00000000E+00
  0.00000000E+00  0.00000000E+00  0.00000000E+00
  0.00000000E+00  0.00000000E+00  0.00000000E+00
  0.00000000E+00  0.00000000E+00  0.00000000E+00
  0.00000000E+00  0.00000000E+00  0.00000000E+00
  0.00000000E+00  0.00000000E+00  0.00000000E+00
  0.00000000E+00  0.00000000E+00  0.00000000E+00
  0.00000000E+00  0.00000000E+00  0.00000000E+00
  0.00000000E+00  0.00000000E+00  0.00000000E+00
  0.00000000E+00  0.00000000E+00  0.00000000E+00
  0.00000000E+00  0.00000000E+00  0.00000000E+00
  0.00000000E+00  0.00000000E+00  0.00000000E+00
  0.00000000E+00  0.00000000E+00  0.00000000E+00
  0.00000000E+00  0.00000000E+00  0.00000000E+00
  0.00000000E+00  0.00000000E+00  0.00000000E+00
  0.00000000E+00  0.00000000E+00  0.00000000E+00
  0.00000000E+00  0.00000000E+00  0.00000000E+00
  0.00000000E+00  0.00000000E+00  0.00000000E+00
  0.00000000E+00  0.00000000E+00  0.00000000E+00
  0.00000000E+00  0.00000000E+00  0.00000000E+00
  0.00000000E+00  0.00000000E+00  0.00000000E+00
  0.00000000E+00  0.00000000E+00  0.00000000E+00
  0.00000000E+00  0.00000000E+00  0.00000000E+00
  0.00000000E+00  0.00000000E+00  0.00000000E+00
