CONTCAR\(3)                             
   1.00000000000000     
    13.7056999207000008    0.0000000000000000    0.0000000000000000
     4.1214080124999999   12.9276297616000004    0.0000000000000000
     0.0000000000000000    0.0000000000000000   18.6212005615000002
   Bi   Rh   S    O 
    16    24    16     1
Direct
  0.1977654235156321  0.1911566410521048  0.5864103531146097
  0.4493284927614111  0.4423336610206835  0.5958933807166581
  0.0840592356758144  0.0769160211408674  0.4101296368985671
  0.3342006860089851  0.3341129225555122  0.4128424069320841
  0.7053512746486716  0.2075390453833495  0.5805152000435230
  0.9535510439998808  0.4529061073584527  0.5946966840636356
  0.5839407150023781  0.0848701256322262  0.3993775940213578
  0.8420677285046765  0.3400346868391263  0.4103505942250373
  0.1679485182196742  0.6694724479637922  0.6084447321902663
  0.4438729785769734  0.9426285051219918  0.5929334394946467
  0.0782042575318555  0.5789004138168137  0.4223278714500072
  0.3257681008467841  0.8227905819642986  0.4172414392466536
  0.6923203126597149  0.6986410877858040  0.5854189658389576
  0.9417069226990508  0.9502063513900871  0.5959281671975002
  0.5783815723197107  0.5834244812973821  0.4083795595971621
  0.8346014392310340  0.8349754188166126  0.4113110492987152
  0.0182799460140882  0.2567241709181740  0.4933853083238796
  0.4220760944759788  0.1038866190498733  0.4958929514361363
  0.1241812117308833  0.4001924242611846  0.5075995205203419
  0.2693809448889838  0.0056449658401940  0.4988730192266717
  0.3345296529172551  0.3038576945935546  0.5579877206565890
  0.2181381084377292  0.2018557271884110  0.4417111865201816
  0.5173804247616475  0.2579689336589758  0.4883148192545084
  0.9108091529028094  0.1111911658389027  0.5011272631081034
  0.6099869665382442  0.4120874102811110  0.5020206334824406
  0.7566537288952353  0.0189170086753656  0.4875546699621323
  0.8327613828937717  0.3325797695582663  0.5573588047027691
  0.7175233537409051  0.2199097557087445  0.4363574934874742
  0.0028452528303905  0.7692180519482872  0.5084719118543322
  0.4166658797835856  0.6104911475875474  0.5038197654905393
  0.1107548790130396  0.9156508715123386  0.5069400495492045
  0.2694115760754974  0.5044517002973999  0.5112099698348551
  0.3147448441692557  0.8123034613796409  0.5688853814801297
  0.2022882187354620  0.7033087448820822  0.4639235115841910
  0.5078414059223694  0.7686545761000719  0.4986972524370218
  0.8988301165586191  0.6229252470268803  0.5065781980625469
  0.6043022482070693  0.9226906709020665  0.4964401958142036
  0.7557266200072738  0.5177391797123646  0.4915358167198319
  0.8051205175585283  0.8353986608347588  0.5569591176556562
  0.7022580634810244  0.7194920663756542  0.4406663075608114
  0.4776121951055440  0.1791529314745849  0.5926427514373172
  0.2056592969521606  0.4322681554394177  0.6100583989888338
  0.0822202680592471  0.3350013091811463  0.4004127869060268
  0.3411380401764078  0.0603760056398193  0.3982286957801595
  0.9612664435483391  0.1927299580552345  0.5972095758810742
  0.6936958326648210  0.4622754237472629  0.5966536625701208
  0.5734881426988258  0.3424552504443185  0.3957157799685127
  0.8402616614708182  0.0755683676366139  0.3950010874145244
  0.4660210025123341  0.6893300488824380  0.5997775086562820
  0.1924327811372757  0.9642801848491843  0.6013332559301032
  0.0721436276398611  0.8302872962254921  0.4095493957190066
  0.3272392838808332  0.5712509080285609  0.4094725607895339
  0.9326012770399953  0.7050333958367907  0.6083842505122377
  0.6801413004531983  0.9783081183126675  0.5924444712987084
  0.5607243895651792  0.8425422972928420  0.3981301524547778
  0.8341536584459724  0.5822132188678268  0.3991164650502867
  0.2579419969072888  0.7514581528148304  0.6531275825885662
 
  0.00000000E+00  0.00000000E+00  0.00000000E+00
  0.00000000E+00  0.00000000E+00  0.00000000E+00
  0.00000000E+00  0.00000000E+00  0.00000000E+00
  0.00000000E+00  0.00000000E+00  0.00000000E+00
  0.00000000E+00  0.00000000E+00  0.00000000E+00
  0.00000000E+00  0.00000000E+00  0.00000000E+00
  0.00000000E+00  0.00000000E+00  0.00000000E+00
  0.00000000E+00  0.00000000E+00  0.00000000E+00
  0.00000000E+00  0.00000000E+00  0.00000000E+00
  0.00000000E+00  0.00000000E+00  0.00000000E+00
  0.00000000E+00  0.00000000E+00  0.00000000E+00
  0.00000000E+00  0.00000000E+00  0.00000000E+00
  0.00000000E+00  0.00000000E+00  0.00000000E+00
  0.00000000E+00  0.00000000E+00  0.00000000E+00
  0.00000000E+00  0.00000000E+00  0.00000000E+00
  0.00000000E+00  0.00000000E+00  0.00000000E+00
  0.00000000E+00  0.00000000E+00  0.00000000E+00
  0.00000000E+00  0.00000000E+00  0.00000000E+00
  0.00000000E+00  0.00000000E+00  0.00000000E+00
  0.00000000E+00  0.00000000E+00  0.00000000E+00
  0.00000000E+00  0.00000000E+00  0.00000000E+00
  0.00000000E+00  0.00000000E+00  0.00000000E+00
  0.00000000E+00  0.00000000E+00  0.00000000E+00
  0.00000000E+00  0.00000000E+00  0.00000000E+00
  0.00000000E+00  0.00000000E+00  0.00000000E+00
  0.00000000E+00  0.00000000E+00  0.00000000E+00
  0.00000000E+00  0.00000000E+00  0.00000000E+00
  0.00000000E+00  0.00000000E+00  0.00000000E+00
  0.00000000E+00  0.00000000E+00  0.00000000E+00
  0.00000000E+00  0.00000000E+00  0.00000000E+00
  0.00000000E+00  0.00000000E+00  0.00000000E+00
  0.00000000E+00  0.00000000E+00  0.00000000E+00
  0.00000000E+00  0.00000000E+00  0.00000000E+00
  0.00000000E+00  0.00000000E+00  0.00000000E+00
  0.00000000E+00  0.00000000E+00  0.00000000E+00
  0.00000000E+00  0.00000000E+00  0.00000000E+00
  0.00000000E+00  0.00000000E+00  0.00000000E+00
  0.00000000E+00  0.00000000E+00  0.00000000E+00
  0.00000000E+00  0.00000000E+00  0.00000000E+00
  0.00000000E+00  0.00000000E+00  0.00000000E+00
  0.00000000E+00  0.00000000E+00  0.00000000E+00
  0.00000000E+00  0.00000000E+00  0.00000000E+00
  0.00000000E+00  0.00000000E+00  0.00000000E+00
  0.00000000E+00  0.00000000E+00  0.00000000E+00
  0.00000000E+00  0.00000000E+00  0.00000000E+00
  0.00000000E+00  0.00000000E+00  0.00000000E+00
  0.00000000E+00  0.00000000E+00  0.00000000E+00
  0.00000000E+00  0.00000000E+00  0.00000000E+00
  0.00000000E+00  0.00000000E+00  0.00000000E+00
  0.00000000E+00  0.00000000E+00  0.00000000E+00
  0.00000000E+00  0.00000000E+00  0.00000000E+00
  0.00000000E+00  0.00000000E+00  0.00000000E+00
  0.00000000E+00  0.00000000E+00  0.00000000E+00
  0.00000000E+00  0.00000000E+00  0.00000000E+00
  0.00000000E+00  0.00000000E+00  0.00000000E+00
  0.00000000E+00  0.00000000E+00  0.00000000E+00
  0.00000000E+00  0.00000000E+00  0.00000000E+00
