CONTCAR\(21)                            
   1.00000000000000     
    13.7100000381000005    0.0000000000000000    0.0000000000000000
    -6.8218533300999997   11.9299668931999996    0.0000000000000000
     0.0000000000000000    0.0000000000000000   18.6952991486000002
   Nb   Ir   Se
    12     4    32
Direct
  0.4898440985007192  0.2395231349889787  0.4997339424374759
  0.4838119842876507  0.0008689847406524  0.5013983518239717
  0.2505035457611448  0.2336564500513736  0.4983237202138621
  0.9898442035007172  0.2395231349889787  0.4997339424374759
  0.9838119492876513  0.0008689847406524  0.5013983518239717
  0.7505035807611441  0.2336564500513736  0.4983237202138621
  0.4898441135007169  0.7395231159889807  0.4997339424374759
  0.4838119872876473  0.5008789737406512  0.5013983518239717
  0.2505035527611418  0.7336564520513738  0.4983237202138621
  0.9898441825007190  0.7395231159889807  0.4997339424374759
  0.9838119572876519  0.5008690217406520  0.5013983518239717
  0.7505035707611433  0.7336564520513738  0.4983237202138621
  0.2752749587597080  0.0252350180716320  0.4999103397142295
  0.7752748887597093  0.0252350180716320  0.4999103397142295
  0.2752749627597083  0.5252349800716288  0.4999103397142295
  0.7752749277597090  0.5252349800716288  0.4999103397142295
  0.4221055882804329  0.0897458069427347  0.5985865285016373
  0.4098303244953569  0.3281490385623754  0.5903326165828471
  0.1648207767669128  0.0750370754096802  0.5876662221808177
  0.1756666493397607  0.3474746325357959  0.5753925901040896
  0.3391812520006571  0.1716689166029996  0.4011751191014873
  0.3248133921410150  0.4147110395247609  0.4122023273872739
  0.0778510164260828  0.1594211419378443  0.4090635464612264
  0.0972464332405619  0.4255387496311730  0.4243246694910834
  0.9221055192804308  0.0897458069427347  0.5985865285016373
  0.9098303594953563  0.3281490385623754  0.5903326165828471
  0.6648207777669094  0.0750470724096796  0.5876662221808177
  0.6756666313397591  0.3474746325357959  0.5753925901040896
  0.8391812340006557  0.1716689166029996  0.4011751191014873
  0.8248133921410150  0.4147110395247609  0.4122023273872739
  0.5778510434260815  0.1594211419378443  0.4090635464612264
  0.5972464762405618  0.4255387496311730  0.4243246694910834
  0.4221055882804329  0.5897458289427364  0.5985865285016373
  0.4098303344953578  0.8281490795623753  0.5903326165828471
  0.1648207697669087  0.5750470794096838  0.5876662221808177
  0.1756666753397628  0.8474746735357958  0.5753925901040896
  0.3391812490006533  0.6716688986029982  0.4011751191014873
  0.3248133971410189  0.9147110015247578  0.4122023273872739
  0.0778510274260873  0.6594211329378400  0.4090635464612264
  0.0972464512405634  0.9255387906311728  0.4243246694910834
  0.9221055882804330  0.5897458289427364  0.5985865285016373
  0.9098303344953578  0.8281490795623753  0.5903326165828471
  0.6648207717669089  0.5750370864096848  0.5876662221808177
  0.6756666753397628  0.8474746735357958  0.5753925901040896
  0.8391812140006540  0.6716688986029982  0.4011751191014873
  0.8248133971410190  0.9147110015247578  0.4122023273872739
  0.5778510624260866  0.6594211329378400  0.4090635464612264
  0.5972464852405590  0.9255387906311728  0.4243246694910834
 
  0.00000000E+00  0.00000000E+00  0.00000000E+00
  0.00000000E+00  0.00000000E+00  0.00000000E+00
  0.00000000E+00  0.00000000E+00  0.00000000E+00
  0.00000000E+00  0.00000000E+00  0.00000000E+00
  0.00000000E+00  0.00000000E+00  0.00000000E+00
  0.00000000E+00  0.00000000E+00  0.00000000E+00
  0.00000000E+00  0.00000000E+00  0.00000000E+00
  0.00000000E+00  0.00000000E+00  0.00000000E+00
  0.00000000E+00  0.00000000E+00  0.00000000E+00
  0.00000000E+00  0.00000000E+00  0.00000000E+00
  0.00000000E+00  0.00000000E+00  0.00000000E+00
  0.00000000E+00  0.00000000E+00  0.00000000E+00
  0.00000000E+00  0.00000000E+00  0.00000000E+00
  0.00000000E+00  0.00000000E+00  0.00000000E+00
  0.00000000E+00  0.00000000E+00  0.00000000E+00
  0.00000000E+00  0.00000000E+00  0.00000000E+00
  0.00000000E+00  0.00000000E+00  0.00000000E+00
  0.00000000E+00  0.00000000E+00  0.00000000E+00
  0.00000000E+00  0.00000000E+00  0.00000000E+00
  0.00000000E+00  0.00000000E+00  0.00000000E+00
  0.00000000E+00  0.00000000E+00  0.00000000E+00
  0.00000000E+00  0.00000000E+00  0.00000000E+00
  0.00000000E+00  0.00000000E+00  0.00000000E+00
  0.00000000E+00  0.00000000E+00  0.00000000E+00
  0.00000000E+00  0.00000000E+00  0.00000000E+00
  0.00000000E+00  0.00000000E+00  0.00000000E+00
  0.00000000E+00  0.00000000E+00  0.00000000E+00
  0.00000000E+00  0.00000000E+00  0.00000000E+00
  0.00000000E+00  0.00000000E+00  0.00000000E+00
  0.00000000E+00  0.00000000E+00  0.00000000E+00
  0.00000000E+00  0.00000000E+00  0.00000000E+00
  0.00000000E+00  0.00000000E+00  0.00000000E+00
  0.00000000E+00  0.00000000E+00  0.00000000E+00
  0.00000000E+00  0.00000000E+00  0.00000000E+00
  0.00000000E+00  0.00000000E+00  0.00000000E+00
  0.00000000E+00  0.00000000E+00  0.00000000E+00
  0.00000000E+00  0.00000000E+00  0.00000000E+00
  0.00000000E+00  0.00000000E+00  0.00000000E+00
  0.00000000E+00  0.00000000E+00  0.00000000E+00
  0.00000000E+00  0.00000000E+00  0.00000000E+00
  0.00000000E+00  0.00000000E+00  0.00000000E+00
  0.00000000E+00  0.00000000E+00  0.00000000E+00
  0.00000000E+00  0.00000000E+00  0.00000000E+00
  0.00000000E+00  0.00000000E+00  0.00000000E+00
  0.00000000E+00  0.00000000E+00  0.00000000E+00
  0.00000000E+00  0.00000000E+00  0.00000000E+00
  0.00000000E+00  0.00000000E+00  0.00000000E+00
  0.00000000E+00  0.00000000E+00  0.00000000E+00
