CONTCAR                                 
   1.00000000000000     
    13.9573001861999995    0.0000000000000000    0.0000000000000000
     0.0000000000000000   20.3449993133999989    0.0000000000000000
     0.0000000000000000    0.0000000000000000   22.8059997559000003
   Nb   Cr   Se   O    H 
    16    16    80     2     1
Selective dynamics
Direct
  0.1868206129921646  0.2323920590103796  0.5848829092800329   F   F   F
  0.0610016067722796  0.2735001589930590  0.4145990126018972   F   F   F
  0.4365713822479051  0.2324848375835273  0.5847904152746963   F   F   F
  0.3114434532433705  0.2740442707315793  0.4142425714548494   F   F   F
  0.6867081225965137  0.2320756352611184  0.5854144129924492   F   F   F
  0.5623453543582357  0.2734898135182888  0.4145495713705643   F   F   F
  0.9367599699825959  0.2319656180662975  0.5854077522516619   F   F   F
  0.8117277074159901  0.2733005244652347  0.4148556610338829   F   F   F
  0.1904402309853737  0.7288367870176415  0.5920690653937015   F   F   F
  0.0625480031003676  0.7726936459213434  0.4193804330092021   F   F   F
  0.4349713129041746  0.7287933177359562  0.5914021141188357   F   F   F
  0.3117822925855762  0.7728470004676140  0.4196042658135468   F   F   F
  0.6863663958760071  0.7298159625682317  0.5890780961982713   F   F   F
  0.5607424129653964  0.7728298434089496  0.4188449950150712   F   F   F
  0.9358713302095367  0.7300909748741375  0.5890533837693610   F   F   F
  0.8113898341998507  0.7730109427703553  0.4189053606936923   F   F   F
  0.0611926881366358  0.0680899556939920  0.5281799724895819   F   F   F
  0.1866455091729762  0.4366906610271926  0.4723155921983135   F   F   F
  0.3115355423487713  0.0690254931157028  0.5253356875571384   F   F   F
  0.4364290046580521  0.4366826922691587  0.4721685562663964   F   F   F
  0.5625483288872672  0.0681896599399678  0.5280136564440951   F   F   F
  0.6864865978095622  0.4366592797182705  0.4724626042052620   F   F   F
  0.8114748586998530  0.0681529441282933  0.5288408278251211   F   F   F
  0.9368705951877274  0.4365725617970355  0.4726652198058900   F   F   F
  0.0612412729695677  0.5677634998464924  0.5295006307131018   F   F   F
  0.1884784742745182  0.9364313801358151  0.4769145587694226   F   F   F
  0.3114985509852417  0.5666041187236175  0.5298536988982008   F   F   F
  0.4352354449076117  0.9366332767514010  0.4766645832190051   F   F   F
  0.5622373980514084  0.5674900211981679  0.5289743336948476   F   F   F
  0.6861788894956149  0.9363196025028842  0.4762869685783500   F   F   F
  0.8113713093768098  0.5678416217186992  0.5295258748213172   F   F   F
  0.9369169274896763  0.9364750421326846  0.4763237065095254   F   F   F
  0.1863631900394864  0.3166700774411524  0.4922777371668872   F   F   F
  0.0617374990916773  0.4494817114703054  0.5509065751569295   F   F   F
  0.0615050641679318  0.1885238755902279  0.5072439895516041   F   F   F
  0.1864745540746142  0.1843659509676883  0.3730730174912722   F   F   F
  0.0617024220634690  0.3217395846670357  0.6264267888889776   F   F   F
  0.0620088468583546  0.2155580087848321  0.6710662913799865   F   F   F
  0.0613311866956892  0.4075115940087315  0.3975934540858077   F   F   F
  0.1861458555921018  0.2903663614254555  0.3285065208254991   F   F   F
  0.1875144341671486  0.0987928225293260  0.6017274676251247   F   F   F
  0.1847798632337003  0.0537911507482534  0.4489823314869668   F   F   F
  0.4367912263108948  0.3166638318832895  0.4921172288519742   F   F   F
  0.3116944146562588  0.4486479812924955  0.5508535413786007   F   F   F
  0.3116145898352229  0.1897514472755688  0.5064174039129199   F   F   F
  0.4367068435902368  0.1841670636610715  0.3733803240082523   F   F   F
  0.3117372384998518  0.3220914510203485  0.6262722100137168   F   F   F
  0.3117313564045503  0.2157940326833199  0.6707586187328687   F   F   F
  0.3114457282931440  0.4080097689217226  0.3972187302519714   F   F   F
  0.4369672772786686  0.2899892886407400  0.3284944557268545   F   F   F
  0.4359916234243997  0.0989528241930273  0.6014864943194809   F   F   F
  0.4382029729780186  0.0540176613890111  0.4489882964808700   F   F   F
  0.6866768829757177  0.3164719495620645  0.4927546532510902   F   F   F
  0.5614988081514696  0.4494123795864056  0.5506962011217951   F   F   F
  0.5619617470654106  0.1886743301276184  0.5072060807606675   F   F   F
  0.6868292155426090  0.1837284259264678  0.3734212113159785   F   F   F
  0.5616111823525571  0.3218267398377961  0.6264098693002396   F   F   F
  0.5612641532836093  0.2156667504502963  0.6709972868791567   F   F   F
  0.5619640194878102  0.4074246352710560  0.3974817235063668   F   F   F
  0.6870543818487604  0.2894082377939355  0.3284926671940838   F   F   F
  0.6862326354004793  0.0983289087598322  0.6031872126347153   F   F   F
  0.6872909980944613  0.0534767289308959  0.4501029393850189   F   F   F
  0.9366149498666800  0.3163891583818028  0.4928536151380243   F   F   F
  0.8115784284592849  0.4495896277405933  0.5508278707273107   F   F   F
  0.8117468769641860  0.1884091224494853  0.5075790716959503   F   F   F
  0.9364610122818178  0.1836804413189341  0.3734091500189223   F   F   F
  0.8118334813916306  0.3217080527658283  0.6265425682395929   F   F   F
  0.8117522937915993  0.2156813541847455  0.6714527449728536   F   F   F
  0.8119117124945419  0.4071599791283163  0.3978686050690428   F   F   F
  0.9362888452045439  0.2894166312713153  0.3285574829060707   F   F   F
  0.9369986441000009  0.0982408829907442  0.6031882758462288   F   F   F
  0.9359836892347815  0.0536943550799265  0.4503750819940961   F   F   F
  0.1871298042576868  0.8155309577023502  0.4980762016322728   F   F   F
  0.0621155623642338  0.9511249735999812  0.5544487795349795   F   F   F
  0.0629995228455655  0.6882220534734955  0.5119559070096500   F   F   F
  0.1870534735580520  0.6832175787112007  0.3777255396027996   F   F   F
  0.0630526841400965  0.8179851038429007  0.6314871267798736   F   F   F
  0.0607631690022075  0.7118033776131085  0.6751850756173781   F   F   F
  0.0625445533281095  0.9063131177111359  0.4022685989058274   F   F   F
  0.1867654750569514  0.7896156335851998  0.3334816417152027   F   F   F
  0.1862228322694861  0.5942622009115368  0.6040440991681066   F   F   F
  0.1860760413806304  0.5548072773124204  0.4510057240245828   F   F   F
  0.4366992936350584  0.8157099253834303  0.4978648275601216   F   F   F
  0.3119106620474383  0.9552335469640241  0.5545845819575987   F   F   F
  0.3118206107029309  0.6869099168289736  0.5115666065062072   F   F   F
  0.4361394049401426  0.6833890397629645  0.3772438670346361   F   F   F
  0.3127008052039955  0.8183507681995152  0.6249161875870470   F   F   F
  0.3110965497961260  0.7067695760976989  0.6805243673410502   F   F   F
  0.3116796062617126  0.9063521142791302  0.4017190638479136   F   F   F
  0.4359931911576282  0.7898454985044197  0.3331579531269497   F   F   F
  0.4375929957782319  0.5946104653845907  0.6034007670213342   F   F   F
  0.4365301579461587  0.5548167911921666  0.4508096342345169   F   F   F
  0.6860170792204698  0.8158837510106025  0.4970267375062676   F   F   F
  0.5611926105260920  0.9512987494925724  0.5544300895468197   F   F   F
  0.5605845833798284  0.6880205453663919  0.5112345453450189   F   F   F
  0.6863086214082514  0.6835449847714159  0.3775256921928118   F   F   F
  0.5610666520719008  0.8178203854288526  0.6319955130208328   F   F   F
  0.5619498872523110  0.7117839071330110  0.6757135461143520   F   F   F
  0.5608572785311168  0.9064479184611400  0.4019629004099059   F   F   F
  0.6864696933358303  0.7899143625393066  0.3331353265398889   F   F   F
  0.6865402103271663  0.5957164259241807  0.6046139465053102   F   F   F
  0.6873061166652263  0.5548543186725681  0.4504755631395767   F   F   F
  0.9367857711942236  0.8160314636111323  0.4971054142091376   F   F   F
  0.8115211896239600  0.9507711403712165  0.5542562375102378   F   F   F
  0.8117541908442334  0.6880646503405075  0.5106310972072663   F   F   F
  0.9368130001996988  0.6834698798976717  0.3779217726823205   F   F   F
  0.8113400841111797  0.8196018640377645  0.6307110690817339   F   F   F
  0.8114884478263207  0.7135842975275182  0.6750572431878652   F   F   F
  0.8115937667814208  0.9065161832061648  0.4017918606588751   F   F   F
  0.9371334831848799  0.7898659631715645  0.3335368251864850   F   F   F
  0.9361126817586367  0.5959662706405240  0.6047718406862970   F   F   F
  0.9362209906332168  0.5548689250292682  0.4509555850886784   F   F   F
  0.3053489163029965  0.6141742463704745  0.7111012141204043   T   T   T
  0.3831963245440306  0.6102897058899686  0.7538358923766566   T   T   T
  0.3487601484705181  0.6197019208012976  0.7897330032547967   T   T   T
 
  0.00000000E+00  0.00000000E+00  0.00000000E+00
  0.00000000E+00  0.00000000E+00  0.00000000E+00
  0.00000000E+00  0.00000000E+00  0.00000000E+00
  0.00000000E+00  0.00000000E+00  0.00000000E+00
  0.00000000E+00  0.00000000E+00  0.00000000E+00
  0.00000000E+00  0.00000000E+00  0.00000000E+00
  0.00000000E+00  0.00000000E+00  0.00000000E+00
  0.00000000E+00  0.00000000E+00  0.00000000E+00
  0.00000000E+00  0.00000000E+00  0.00000000E+00
  0.00000000E+00  0.00000000E+00  0.00000000E+00
  0.00000000E+00  0.00000000E+00  0.00000000E+00
  0.00000000E+00  0.00000000E+00  0.00000000E+00
  0.00000000E+00  0.00000000E+00  0.00000000E+00
  0.00000000E+00  0.00000000E+00  0.00000000E+00
  0.00000000E+00  0.00000000E+00  0.00000000E+00
  0.00000000E+00  0.00000000E+00  0.00000000E+00
  0.00000000E+00  0.00000000E+00  0.00000000E+00
  0.00000000E+00  0.00000000E+00  0.00000000E+00
  0.00000000E+00  0.00000000E+00  0.00000000E+00
  0.00000000E+00  0.00000000E+00  0.00000000E+00
  0.00000000E+00  0.00000000E+00  0.00000000E+00
  0.00000000E+00  0.00000000E+00  0.00000000E+00
  0.00000000E+00  0.00000000E+00  0.00000000E+00
  0.00000000E+00  0.00000000E+00  0.00000000E+00
  0.00000000E+00  0.00000000E+00  0.00000000E+00
  0.00000000E+00  0.00000000E+00  0.00000000E+00
  0.00000000E+00  0.00000000E+00  0.00000000E+00
  0.00000000E+00  0.00000000E+00  0.00000000E+00
  0.00000000E+00  0.00000000E+00  0.00000000E+00
  0.00000000E+00  0.00000000E+00  0.00000000E+00
  0.00000000E+00  0.00000000E+00  0.00000000E+00
  0.00000000E+00  0.00000000E+00  0.00000000E+00
  0.00000000E+00  0.00000000E+00  0.00000000E+00
  0.00000000E+00  0.00000000E+00  0.00000000E+00
  0.00000000E+00  0.00000000E+00  0.00000000E+00
  0.00000000E+00  0.00000000E+00  0.00000000E+00
  0.00000000E+00  0.00000000E+00  0.00000000E+00
  0.00000000E+00  0.00000000E+00  0.00000000E+00
  0.00000000E+00  0.00000000E+00  0.00000000E+00
  0.00000000E+00  0.00000000E+00  0.00000000E+00
  0.00000000E+00  0.00000000E+00  0.00000000E+00
  0.00000000E+00  0.00000000E+00  0.00000000E+00
  0.00000000E+00  0.00000000E+00  0.00000000E+00
  0.00000000E+00  0.00000000E+00  0.00000000E+00
  0.00000000E+00  0.00000000E+00  0.00000000E+00
  0.00000000E+00  0.00000000E+00  0.00000000E+00
  0.00000000E+00  0.00000000E+00  0.00000000E+00
  0.00000000E+00  0.00000000E+00  0.00000000E+00
  0.00000000E+00  0.00000000E+00  0.00000000E+00
  0.00000000E+00  0.00000000E+00  0.00000000E+00
  0.00000000E+00  0.00000000E+00  0.00000000E+00
  0.00000000E+00  0.00000000E+00  0.00000000E+00
  0.00000000E+00  0.00000000E+00  0.00000000E+00
  0.00000000E+00  0.00000000E+00  0.00000000E+00
  0.00000000E+00  0.00000000E+00  0.00000000E+00
  0.00000000E+00  0.00000000E+00  0.00000000E+00
  0.00000000E+00  0.00000000E+00  0.00000000E+00
  0.00000000E+00  0.00000000E+00  0.00000000E+00
  0.00000000E+00  0.00000000E+00  0.00000000E+00
  0.00000000E+00  0.00000000E+00  0.00000000E+00
  0.00000000E+00  0.00000000E+00  0.00000000E+00
  0.00000000E+00  0.00000000E+00  0.00000000E+00
  0.00000000E+00  0.00000000E+00  0.00000000E+00
  0.00000000E+00  0.00000000E+00  0.00000000E+00
  0.00000000E+00  0.00000000E+00  0.00000000E+00
  0.00000000E+00  0.00000000E+00  0.00000000E+00
  0.00000000E+00  0.00000000E+00  0.00000000E+00
  0.00000000E+00  0.00000000E+00  0.00000000E+00
  0.00000000E+00  0.00000000E+00  0.00000000E+00
  0.00000000E+00  0.00000000E+00  0.00000000E+00
  0.00000000E+00  0.00000000E+00  0.00000000E+00
  0.00000000E+00  0.00000000E+00  0.00000000E+00
  0.00000000E+00  0.00000000E+00  0.00000000E+00
  0.00000000E+00  0.00000000E+00  0.00000000E+00
  0.00000000E+00  0.00000000E+00  0.00000000E+00
  0.00000000E+00  0.00000000E+00  0.00000000E+00
  0.00000000E+00  0.00000000E+00  0.00000000E+00
  0.00000000E+00  0.00000000E+00  0.00000000E+00
  0.00000000E+00  0.00000000E+00  0.00000000E+00
  0.00000000E+00  0.00000000E+00  0.00000000E+00
  0.00000000E+00  0.00000000E+00  0.00000000E+00
  0.00000000E+00  0.00000000E+00  0.00000000E+00
  0.00000000E+00  0.00000000E+00  0.00000000E+00
  0.00000000E+00  0.00000000E+00  0.00000000E+00
  0.00000000E+00  0.00000000E+00  0.00000000E+00
  0.00000000E+00  0.00000000E+00  0.00000000E+00
  0.00000000E+00  0.00000000E+00  0.00000000E+00
  0.00000000E+00  0.00000000E+00  0.00000000E+00
  0.00000000E+00  0.00000000E+00  0.00000000E+00
  0.00000000E+00  0.00000000E+00  0.00000000E+00
  0.00000000E+00  0.00000000E+00  0.00000000E+00
  0.00000000E+00  0.00000000E+00  0.00000000E+00
  0.00000000E+00  0.00000000E+00  0.00000000E+00
  0.00000000E+00  0.00000000E+00  0.00000000E+00
  0.00000000E+00  0.00000000E+00  0.00000000E+00
  0.00000000E+00  0.00000000E+00  0.00000000E+00
  0.00000000E+00  0.00000000E+00  0.00000000E+00
  0.00000000E+00  0.00000000E+00  0.00000000E+00
  0.00000000E+00  0.00000000E+00  0.00000000E+00
  0.00000000E+00  0.00000000E+00  0.00000000E+00
  0.00000000E+00  0.00000000E+00  0.00000000E+00
  0.00000000E+00  0.00000000E+00  0.00000000E+00
  0.00000000E+00  0.00000000E+00  0.00000000E+00
  0.00000000E+00  0.00000000E+00  0.00000000E+00
  0.00000000E+00  0.00000000E+00  0.00000000E+00
  0.00000000E+00  0.00000000E+00  0.00000000E+00
  0.00000000E+00  0.00000000E+00  0.00000000E+00
  0.00000000E+00  0.00000000E+00  0.00000000E+00
  0.00000000E+00  0.00000000E+00  0.00000000E+00
  0.00000000E+00  0.00000000E+00  0.00000000E+00
  0.00000000E+00  0.00000000E+00  0.00000000E+00
  0.00000000E+00  0.00000000E+00  0.00000000E+00
  0.00000000E+00  0.00000000E+00  0.00000000E+00
  0.00000000E+00  0.00000000E+00  0.00000000E+00
  0.00000000E+00  0.00000000E+00  0.00000000E+00
