CONTCAR\(9)                             
   1.00000000000000     
    15.9589004516999999    0.0000000000000000    0.0000000000000000
     0.0000000000000000   15.9589004516999999    0.0000000000000000
     0.0000000000000000    0.0000000000000000   22.3083992004000002
   Al   Pd   I    O 
    16    80    32     1
Direct
  0.1239531603442932  0.1265561332827436  0.4995257722289196
  0.3750000863820545  0.1215781133156464  0.4979012378708300
  0.6260466731785899  0.1265559798736217  0.4995265496936939
  0.8749996109308631  0.1259755608158053  0.5002103196158917
  0.1239545264705983  0.3748527833166900  0.4994540181176609
  0.3749999179871712  0.3793803190002215  0.4982694745889034
  0.6260452302137638  0.3748526834257702  0.4994550741953276
  0.8749996549842923  0.3754735318582481  0.5002316510740300
  0.1249692374741007  0.6254427507300393  0.5003937871015588
  0.3749999653859338  0.6254338791145108  0.5001158683923902
  0.6250307533053669  0.6254427560348127  0.5003937748371999
  0.8749999201426131  0.6260760783040452  0.5007375417952286
  0.1252334659411729  0.8759033324846375  0.5002728789667524
  0.3750000777639575  0.8757791449156654  0.4999643297863779
  0.6247664130522840  0.8759034557137987  0.5002728282159687
  0.8749999250656311  0.8753298549300687  0.5005609226960760
  0.9989095463469280  0.1255604580450912  0.4195877592084227
  0.1248614014588718  0.0010292949059185  0.4194128878755105
  0.1255895434361526  0.0028660844048011  0.5807806336627814
  0.9992772590670640  0.1259267675493804  0.5808012384772303
  0.0000356107377372  0.0001783995602798  0.5002672056088310
  0.2492709267089258  0.1264949568696486  0.4181688261511337
  0.3750000654291328  0.0005022818730203  0.4178960409009084
  0.3750002843248088  0.0011966556315683  0.5813930779813441
  0.2513863804721511  0.1267193318127264  0.5814554512670972
  0.2505947666493540  0.0022502084307904  0.4997234241555116
  0.5007291579683943  0.1264938714283323  0.4181695248825228
  0.6251385971105600  0.0010295748190303  0.4194129715571160
  0.6244099667218665  0.0028655445131731  0.5807802965137974
  0.4986147849877868  0.1267144432280672  0.5814508203504968
  0.4994045564656385  0.0022484434030593  0.4997231682860163
  0.7510903964004336  0.1255608665710740  0.4195880904580976
  0.8749999356556152  0.0000430020178611  0.4195858213034749
  0.8750002542224096  0.0002198384167681  0.5809881665698783
  0.7507239291138753  0.1259259661439451  0.5808005327823891
  0.7499642971060086  0.0001782288432747  0.5002670732800685
  0.9991177979765031  0.3764368395106537  0.4196521130917186
  0.1218110353133399  0.2507437321754543  0.4166605491301342
  0.1240907833002492  0.2506314766892648  0.5830707167575829
  0.9997144796886742  0.3757983352170953  0.5807855863054417
  0.9979824543195475  0.2509358733895509  0.5001190876383996
  0.2492546014876219  0.3748334958898511  0.4182683217214954
  0.3750020758244910  0.2507025645769549  0.4240958278524682
  0.3749993327479025  0.2500983293075643  0.5715956232675656
  0.2510389978571841  0.3745232730279190  0.5815634581821055
  0.2421162706772918  0.2505630728580528  0.4993351752414192
  0.5007454203298646  0.3748345321393260  0.4182682905726702
  0.6281865368165097  0.2507436132085914  0.4166587712215433
  0.6259060493277986  0.2506226638215549  0.5830744065412117
  0.4989583201687287  0.3745302941336437  0.5815572436345634
  0.5078887222330511  0.2505641961025265  0.4993351264641726
  0.7508822030096177  0.3764364598055971  0.4196523689529228
  0.8750003945063753  0.2511429094357966  0.4172738253948170
  0.8749993678156430  0.2510991903658704  0.5833771047039685
  0.7502859168030487  0.3757988045607017  0.5807853149390473
  0.7520152528015079  0.2509292012653775  0.5001154916782662
  0.0001455735240829  0.6259989372112806  0.4193488555849590
  0.1251184572717655  0.5007020459552713  0.4196348214587881
  0.1257363101286837  0.4990613511879503  0.5809602480003054
  0.0008532716549720  0.6256960177620808  0.5816913094776478
  0.0001714705579521  0.5017163678777108  0.5004653346010471
  0.2499239300605822  0.6254945295183894  0.4199821217041760
  0.3749999405463947  0.5009693040861898  0.4180629594121232
  0.3749996003654592  0.4999797932164928  0.5816648169215598
  0.2500068082417763  0.6249993826941229  0.5802436483674407
  0.2507805733633435  0.4987532645131399  0.4999912701951727
  0.5000761293061634  0.6254944135754956  0.4199821078738258
  0.6248816596220556  0.5007016447973618  0.4196348304867007
  0.6242636812880404  0.4990620806671369  0.5809599774130364
  0.4999934550547757  0.6249999215360709  0.5802440068308710
  0.4992192884507195  0.4987556243615254  0.4999903314672127
  0.7498543581072488  0.6259989949440602  0.4193489495788551
  0.8749999720281043  0.5014995123515350  0.4198281715197938
  0.8750001715326277  0.5010364597457845  0.5812159358551332
  0.7491465212884821  0.6256960014535528  0.5816914615636671
  0.7498285175910584  0.5017164625673372  0.5004651588236927
  0.0002318624753607  0.8754530704605156  0.4195140109633732
  0.1254660179853918  0.7506187154391472  0.4198328909660397
  0.1258634361110284  0.7507995081783065  0.5809278602607717
  0.0011635400835653  0.8759001616964581  0.5812989177424888
  0.0003477405352985  0.7505867541467784  0.5006084228135143
  0.2497229168586057  0.8760794099618059  0.4194287957138423
  0.3749999798709581  0.7507810903249278  0.4186534649002632
  0.3749998426945877  0.7509097659139183  0.5816354841746175
  0.2498658820354641  0.8767892576874058  0.5805039420240504
  0.2511120553385662  0.7511269416455871  0.5002379427858589
  0.5002771783946576  0.8760791428387819  0.4194287225617042
  0.6245339111455978  0.7506187731441762  0.4198329083268322
  0.6241368596122616  0.7507994929420038  0.5809278623366758
  0.5001344617585093  0.8767883968604276  0.5805037853026173
  0.4988879143165492  0.7511265918627804  0.5002378395431427
  0.7497680189235287  0.8754530680055407  0.4195141310678061
  0.8749999690038435  0.7507588255399149  0.4199942535465032
  0.8749998537849046  0.7509841632598936  0.5812686481935412
  0.7488363686284329  0.8759002823980120  0.5812992043152386
  0.7496522085673939  0.7505868078285134  0.5006084580611098
  0.9998180617282325  0.0006664454258104  0.3340172902411569
  0.0001051682507963  0.0009609542287085  0.6663563207739726
  0.2494422537114232  0.0006204140634347  0.3334261356986022
  0.2499143208055075  0.0013555294349186  0.6665920976694406
  0.5005576416590454  0.0006205958818440  0.3334262058794367
  0.5000854705491707  0.0013540990470988  0.6665925101190973
  0.7501818999616146  0.0006661859054216  0.3340172664991908
  0.7498948813885463  0.0009613055786272  0.6663563250944445
  0.9990733115710040  0.2509998034729837  0.3321033442687205
  0.0038907156194358  0.2508140711294758  0.6677377575622787
  0.2512139685398446  0.2507552885569226  0.3337785312930995
  0.2576876476332038  0.2524480956776695  0.6641939090913900
  0.4987866568719092  0.2507553314665282  0.3337782704203036
  0.4923321625778741  0.2524420281674640  0.6641727088589747
  0.7509338302855709  0.2509994260754944  0.3321209752080770
  0.7461139133557350  0.2508141839747240  0.6677365641872146
  0.9999406140701494  0.5009830940326646  0.3340563367785999
  0.0001793537329209  0.5002771827885514  0.6665039968439401
  0.2495029709483126  0.5010393582310064  0.3336809198764594
  0.2500121934900691  0.5006852616769669  0.6664806295752416
  0.5004967356441643  0.5010393814940632  0.3336808040387803
  0.4999876452839339  0.5006863807082619  0.6664808664124982
  0.7500593296684670  0.5009833377142920  0.3340562679542576
  0.7498208828474009  0.5002770032857228  0.6665040207892378
  0.0000047942842041  0.7508400630071671  0.3341594163618613
  0.0004375959439125  0.7508352290774668  0.6664132335019461
  0.2496434297196012  0.7507247270221760  0.3339086369621615
  0.2500131425921536  0.7508606083054047  0.6662438095628852
  0.5003564528126030  0.7507244318045592  0.3339087498861023
  0.4999867590250475  0.7508606527509623  0.6662437505624893
  0.7499951496157961  0.7508400438809784  0.3341593897776221
  0.7495622992126734  0.7508352218417071  0.6664133189556887
  0.3749327384795196  0.2720825110680989  0.7081920478180124
 
  0.00000000E+00  0.00000000E+00  0.00000000E+00
  0.00000000E+00  0.00000000E+00  0.00000000E+00
  0.00000000E+00  0.00000000E+00  0.00000000E+00
  0.00000000E+00  0.00000000E+00  0.00000000E+00
  0.00000000E+00  0.00000000E+00  0.00000000E+00
  0.00000000E+00  0.00000000E+00  0.00000000E+00
  0.00000000E+00  0.00000000E+00  0.00000000E+00
  0.00000000E+00  0.00000000E+00  0.00000000E+00
  0.00000000E+00  0.00000000E+00  0.00000000E+00
  0.00000000E+00  0.00000000E+00  0.00000000E+00
  0.00000000E+00  0.00000000E+00  0.00000000E+00
  0.00000000E+00  0.00000000E+00  0.00000000E+00
  0.00000000E+00  0.00000000E+00  0.00000000E+00
  0.00000000E+00  0.00000000E+00  0.00000000E+00
  0.00000000E+00  0.00000000E+00  0.00000000E+00
  0.00000000E+00  0.00000000E+00  0.00000000E+00
  0.00000000E+00  0.00000000E+00  0.00000000E+00
  0.00000000E+00  0.00000000E+00  0.00000000E+00
  0.00000000E+00  0.00000000E+00  0.00000000E+00
  0.00000000E+00  0.00000000E+00  0.00000000E+00
  0.00000000E+00  0.00000000E+00  0.00000000E+00
  0.00000000E+00  0.00000000E+00  0.00000000E+00
  0.00000000E+00  0.00000000E+00  0.00000000E+00
  0.00000000E+00  0.00000000E+00  0.00000000E+00
  0.00000000E+00  0.00000000E+00  0.00000000E+00
  0.00000000E+00  0.00000000E+00  0.00000000E+00
  0.00000000E+00  0.00000000E+00  0.00000000E+00
  0.00000000E+00  0.00000000E+00  0.00000000E+00
  0.00000000E+00  0.00000000E+00  0.00000000E+00
  0.00000000E+00  0.00000000E+00  0.00000000E+00
  0.00000000E+00  0.00000000E+00  0.00000000E+00
  0.00000000E+00  0.00000000E+00  0.00000000E+00
  0.00000000E+00  0.00000000E+00  0.00000000E+00
  0.00000000E+00  0.00000000E+00  0.00000000E+00
  0.00000000E+00  0.00000000E+00  0.00000000E+00
  0.00000000E+00  0.00000000E+00  0.00000000E+00
  0.00000000E+00  0.00000000E+00  0.00000000E+00
  0.00000000E+00  0.00000000E+00  0.00000000E+00
  0.00000000E+00  0.00000000E+00  0.00000000E+00
  0.00000000E+00  0.00000000E+00  0.00000000E+00
  0.00000000E+00  0.00000000E+00  0.00000000E+00
  0.00000000E+00  0.00000000E+00  0.00000000E+00
  0.00000000E+00  0.00000000E+00  0.00000000E+00
  0.00000000E+00  0.00000000E+00  0.00000000E+00
  0.00000000E+00  0.00000000E+00  0.00000000E+00
  0.00000000E+00  0.00000000E+00  0.00000000E+00
  0.00000000E+00  0.00000000E+00  0.00000000E+00
  0.00000000E+00  0.00000000E+00  0.00000000E+00
  0.00000000E+00  0.00000000E+00  0.00000000E+00
  0.00000000E+00  0.00000000E+00  0.00000000E+00
  0.00000000E+00  0.00000000E+00  0.00000000E+00
  0.00000000E+00  0.00000000E+00  0.00000000E+00
  0.00000000E+00  0.00000000E+00  0.00000000E+00
  0.00000000E+00  0.00000000E+00  0.00000000E+00
  0.00000000E+00  0.00000000E+00  0.00000000E+00
  0.00000000E+00  0.00000000E+00  0.00000000E+00
  0.00000000E+00  0.00000000E+00  0.00000000E+00
  0.00000000E+00  0.00000000E+00  0.00000000E+00
  0.00000000E+00  0.00000000E+00  0.00000000E+00
  0.00000000E+00  0.00000000E+00  0.00000000E+00
  0.00000000E+00  0.00000000E+00  0.00000000E+00
  0.00000000E+00  0.00000000E+00  0.00000000E+00
  0.00000000E+00  0.00000000E+00  0.00000000E+00
  0.00000000E+00  0.00000000E+00  0.00000000E+00
  0.00000000E+00  0.00000000E+00  0.00000000E+00
  0.00000000E+00  0.00000000E+00  0.00000000E+00
  0.00000000E+00  0.00000000E+00  0.00000000E+00
  0.00000000E+00  0.00000000E+00  0.00000000E+00
  0.00000000E+00  0.00000000E+00  0.00000000E+00
  0.00000000E+00  0.00000000E+00  0.00000000E+00
  0.00000000E+00  0.00000000E+00  0.00000000E+00
  0.00000000E+00  0.00000000E+00  0.00000000E+00
  0.00000000E+00  0.00000000E+00  0.00000000E+00
  0.00000000E+00  0.00000000E+00  0.00000000E+00
  0.00000000E+00  0.00000000E+00  0.00000000E+00
  0.00000000E+00  0.00000000E+00  0.00000000E+00
  0.00000000E+00  0.00000000E+00  0.00000000E+00
  0.00000000E+00  0.00000000E+00  0.00000000E+00
  0.00000000E+00  0.00000000E+00  0.00000000E+00
  0.00000000E+00  0.00000000E+00  0.00000000E+00
  0.00000000E+00  0.00000000E+00  0.00000000E+00
  0.00000000E+00  0.00000000E+00  0.00000000E+00
  0.00000000E+00  0.00000000E+00  0.00000000E+00
  0.00000000E+00  0.00000000E+00  0.00000000E+00
  0.00000000E+00  0.00000000E+00  0.00000000E+00
  0.00000000E+00  0.00000000E+00  0.00000000E+00
  0.00000000E+00  0.00000000E+00  0.00000000E+00
  0.00000000E+00  0.00000000E+00  0.00000000E+00
  0.00000000E+00  0.00000000E+00  0.00000000E+00
  0.00000000E+00  0.00000000E+00  0.00000000E+00
  0.00000000E+00  0.00000000E+00  0.00000000E+00
  0.00000000E+00  0.00000000E+00  0.00000000E+00
  0.00000000E+00  0.00000000E+00  0.00000000E+00
  0.00000000E+00  0.00000000E+00  0.00000000E+00
  0.00000000E+00  0.00000000E+00  0.00000000E+00
  0.00000000E+00  0.00000000E+00  0.00000000E+00
  0.00000000E+00  0.00000000E+00  0.00000000E+00
  0.00000000E+00  0.00000000E+00  0.00000000E+00
  0.00000000E+00  0.00000000E+00  0.00000000E+00
  0.00000000E+00  0.00000000E+00  0.00000000E+00
  0.00000000E+00  0.00000000E+00  0.00000000E+00
  0.00000000E+00  0.00000000E+00  0.00000000E+00
  0.00000000E+00  0.00000000E+00  0.00000000E+00
  0.00000000E+00  0.00000000E+00  0.00000000E+00
  0.00000000E+00  0.00000000E+00  0.00000000E+00
  0.00000000E+00  0.00000000E+00  0.00000000E+00
  0.00000000E+00  0.00000000E+00  0.00000000E+00
  0.00000000E+00  0.00000000E+00  0.00000000E+00
  0.00000000E+00  0.00000000E+00  0.00000000E+00
  0.00000000E+00  0.00000000E+00  0.00000000E+00
  0.00000000E+00  0.00000000E+00  0.00000000E+00
  0.00000000E+00  0.00000000E+00  0.00000000E+00
  0.00000000E+00  0.00000000E+00  0.00000000E+00
  0.00000000E+00  0.00000000E+00  0.00000000E+00
  0.00000000E+00  0.00000000E+00  0.00000000E+00
  0.00000000E+00  0.00000000E+00  0.00000000E+00
  0.00000000E+00  0.00000000E+00  0.00000000E+00
  0.00000000E+00  0.00000000E+00  0.00000000E+00
  0.00000000E+00  0.00000000E+00  0.00000000E+00
  0.00000000E+00  0.00000000E+00  0.00000000E+00
  0.00000000E+00  0.00000000E+00  0.00000000E+00
  0.00000000E+00  0.00000000E+00  0.00000000E+00
  0.00000000E+00  0.00000000E+00  0.00000000E+00
  0.00000000E+00  0.00000000E+00  0.00000000E+00
  0.00000000E+00  0.00000000E+00  0.00000000E+00
  0.00000000E+00  0.00000000E+00  0.00000000E+00
  0.00000000E+00  0.00000000E+00  0.00000000E+00
  0.00000000E+00  0.00000000E+00  0.00000000E+00
  0.00000000E+00  0.00000000E+00  0.00000000E+00
