CONTCAR\(11)                            
   1.00000000000000     
    10.8789997101000004    0.0000000000000000    0.0000000000000000
     0.0000000000000000   14.0766000748000000    0.0000000000000000
     0.0000000000000000    0.0000000000000000   17.9612998961999999
   Cu   Br   O 
    12    12    25
Selective dynamics
Direct
  0.1231738850244710  0.3850505800200139  0.5619984423522908   F   F   F
  0.9991385799142236  0.1276594036174146  0.4555854130748358   F   F   F
  0.4762493454583208  0.3688443465520237  0.5342613172541348   F   F   F
  0.3416905054919042  0.1375351166975776  0.4727263834846340   F   F   F
  0.7971622614507297  0.3927784502562659  0.5611910206318385   F   F   F
  0.6674790505893782  0.1210702896163269  0.4447300915934491   F   F   F
  0.1641501524205964  0.8879658285158101  0.5599033962983953   F   F   F
  0.9648645133323157  0.6221326509725955  0.4506264507333739   F   F   F
  0.4928312288537384  0.8844811777086861  0.5502800706801594   F   F   F
  0.3012835224785206  0.6099600295505638  0.4438980891309612   F   F   F
  0.8293921150268986  0.8863919239152054  0.5534760999161463   F   F   F
  0.6330555536441338  0.6140777371407751  0.4423128072564282   F   F   F
  0.2674695449786313  0.2763261191631159  0.6236990827542996   F   F   F
  0.1606213802327687  0.2276576133600088  0.4137879764561845   F   F   F
  0.6373258252118958  0.2890854963274094  0.6019665927434872   F   F   F
  0.5003876692598226  0.2150578885330887  0.3976482576064484   F   F   F
  0.9570253599424632  0.3042926004364830  0.6227066832409491   F   F   F
  0.8336454679386520  0.2200025893372768  0.4033003434640321   F   F   F
  0.3299594815195235  0.7875073248216466  0.6007182556993200   F   F   F
  0.1354466612373599  0.7114726629870205  0.4027311947599088   F   F   F
  0.6610894867675086  0.7873051461927290  0.5941803515853437   F   F   F
  0.4654987952533034  0.7058215530686951  0.3929408665536300   F   F   F
  0.9949195221691909  0.7917981830525278  0.6029095320143796   F   F   F
  0.7992770317320961  0.7108286640865487  0.3948901912021654   F   F   F
  0.0253094725121983  0.4322143423016840  0.4815463807651952   F   F   F
  0.1036182167891013  0.0179946610548356  0.4484085836324709   F   F   F
  0.2418339323691825  0.4851311213572771  0.5612465985128949   F   F   F
  0.2317623314261255  0.0809159792361598  0.5446016255731791   F   F   F
  0.3612099498862378  0.4166988296372836  0.4627372766403113   F   F   F
  0.4094578795749442  0.0145264910755785  0.4417766255182798   F   F   F
  0.5565338132994526  0.4871873711884263  0.5541385667460759   F   F   F
  0.5642576221930113  0.0730612371688082  0.5227986226519690   F   F   F
  0.7091429515466814  0.4270466422635550  0.4725383869892283   F   F   F
  0.7692502248300883  0.0097645369747283  0.4367757661068055   F   F   F
  0.8905638796262778  0.5073503784957794  0.5694767871673321   F   F   F
  0.8929922766950043  0.0779692947005728  0.5314699491292743   F   F   F
  0.0687271368542852  0.9388755991088615  0.4797301469974045   F   F   F
  0.0609333287466072  0.5075904671454623  0.4453322002857405   F   F   F
  0.2614074643867212  0.0008594758128098  0.5764855653083814   F   F   F
  0.2117395505505044  0.5650758691864084  0.5288838114105943   F   F   F
  0.3817248216451503  0.9369900594240974  0.4774969361441919   F   F   F
  0.3895713911616170  0.4938193976076448  0.4262645637497329   F   F   F
  0.5946452191343354  0.9951954460995438  0.5579871740967590   F   F   F
  0.5255344188487925  0.5639505896311761  0.5174263194222704   F   F   F
  0.7358633527668346  0.9316085417136364  0.4701086624933879   F   F   F
  0.7386672750630652  0.5047418955999206  0.4372006851965722   F   F   F
  0.9240761548368113  0.0006491346935604  0.5670239436669959   F   F   F
  0.8591340807371779  0.5813351840871306  0.5299491579032960   F   F   F
  0.3745466045913446  0.2538339755052306  0.5452622065396141   T   T   T
 
  0.00000000E+00  0.00000000E+00  0.00000000E+00
  0.00000000E+00  0.00000000E+00  0.00000000E+00
  0.00000000E+00  0.00000000E+00  0.00000000E+00
  0.00000000E+00  0.00000000E+00  0.00000000E+00
  0.00000000E+00  0.00000000E+00  0.00000000E+00
  0.00000000E+00  0.00000000E+00  0.00000000E+00
  0.00000000E+00  0.00000000E+00  0.00000000E+00
  0.00000000E+00  0.00000000E+00  0.00000000E+00
  0.00000000E+00  0.00000000E+00  0.00000000E+00
  0.00000000E+00  0.00000000E+00  0.00000000E+00
  0.00000000E+00  0.00000000E+00  0.00000000E+00
  0.00000000E+00  0.00000000E+00  0.00000000E+00
  0.00000000E+00  0.00000000E+00  0.00000000E+00
  0.00000000E+00  0.00000000E+00  0.00000000E+00
  0.00000000E+00  0.00000000E+00  0.00000000E+00
  0.00000000E+00  0.00000000E+00  0.00000000E+00
  0.00000000E+00  0.00000000E+00  0.00000000E+00
  0.00000000E+00  0.00000000E+00  0.00000000E+00
  0.00000000E+00  0.00000000E+00  0.00000000E+00
  0.00000000E+00  0.00000000E+00  0.00000000E+00
  0.00000000E+00  0.00000000E+00  0.00000000E+00
  0.00000000E+00  0.00000000E+00  0.00000000E+00
  0.00000000E+00  0.00000000E+00  0.00000000E+00
  0.00000000E+00  0.00000000E+00  0.00000000E+00
  0.00000000E+00  0.00000000E+00  0.00000000E+00
  0.00000000E+00  0.00000000E+00  0.00000000E+00
  0.00000000E+00  0.00000000E+00  0.00000000E+00
  0.00000000E+00  0.00000000E+00  0.00000000E+00
  0.00000000E+00  0.00000000E+00  0.00000000E+00
  0.00000000E+00  0.00000000E+00  0.00000000E+00
  0.00000000E+00  0.00000000E+00  0.00000000E+00
  0.00000000E+00  0.00000000E+00  0.00000000E+00
  0.00000000E+00  0.00000000E+00  0.00000000E+00
  0.00000000E+00  0.00000000E+00  0.00000000E+00
  0.00000000E+00  0.00000000E+00  0.00000000E+00
  0.00000000E+00  0.00000000E+00  0.00000000E+00
  0.00000000E+00  0.00000000E+00  0.00000000E+00
  0.00000000E+00  0.00000000E+00  0.00000000E+00
  0.00000000E+00  0.00000000E+00  0.00000000E+00
  0.00000000E+00  0.00000000E+00  0.00000000E+00
  0.00000000E+00  0.00000000E+00  0.00000000E+00
  0.00000000E+00  0.00000000E+00  0.00000000E+00
  0.00000000E+00  0.00000000E+00  0.00000000E+00
  0.00000000E+00  0.00000000E+00  0.00000000E+00
  0.00000000E+00  0.00000000E+00  0.00000000E+00
  0.00000000E+00  0.00000000E+00  0.00000000E+00
  0.00000000E+00  0.00000000E+00  0.00000000E+00
  0.00000000E+00  0.00000000E+00  0.00000000E+00
  0.00000000E+00  0.00000000E+00  0.00000000E+00
