CONTCAR\(11)                            
   1.00000000000000     
    10.1990995407000007    0.0000000000000000    0.0000000000000000
     0.0000000000000000   15.1191997528000002    0.0000000000000000
     0.0000000000000000    0.0000000000000000   19.1068992615000006
   Ta   Ni   S    O 
    12     6    30     1
Direct
  0.0002513419905448  0.3578133192891785  0.5183263897019625
  0.1631279234178693  0.1429717436439747  0.4794012541797522
  0.1632935685861925  0.8580102599125981  0.4820213166977437
  0.0034520287388533  0.6439811114863568  0.5176549017454670
  0.3327025536545763  0.3580391045062427  0.5198542948864124
  0.4970246087990347  0.1438687582392572  0.4795669456013554
  0.4957422639701078  0.8611285256702369  0.4802390836018477
  0.3297087628929228  0.6430471738124077  0.5190036969733626
  0.6655230261444098  0.3606838220051168  0.5206433053216037
  0.8298367482694486  0.1438465306399564  0.4805346656621463
  0.8284746565616014  0.8595175481534746  0.4832390084418539
  0.6628133417022253  0.6438229477388788  0.5348697231280275
  0.9957937580345678  0.0004732950873711  0.4652165690489533
  0.1660973413433366  0.5000765410925628  0.5350735861523290
  0.3293909559302112  0.0014114501383985  0.4640078962603229
  0.4971800217782675  0.5008551961824264  0.5381671664776528
  0.6638816299606338  0.0022890637593914  0.4651150267473304
  0.8377834032988912  0.5043959361548285  0.5399249736145376
  0.1634721170676206  0.0009720842800349  0.5422302402290271
  0.9984571477835025  0.5002207432031323  0.4572021227680834
  0.9986082923015343  0.1999054317850350  0.5647778922019255
  0.1651837472107272  0.3018250689904375  0.4339853080747899
  0.1672122129872714  0.6990965905239686  0.4331988845117899
  0.9938477332762542  0.7998431097381919  0.5674865467024134
  0.1700315352307530  0.6140913219844029  0.6082513456199271
  0.9925149804187330  0.8845334721662520  0.3938353036246733
  0.9966296578873712  0.1144818655531669  0.3915178560053588
  0.1644238896504420  0.3859533559443906  0.6080837533734841
  0.4953633028237540  0.0028900601219909  0.5423795715644451
  0.3343128666172450  0.5007121351808541  0.4578769392291417
  0.3308076487506885  0.1997292945394606  0.5647144651263238
  0.4990017905292629  0.3033314634417794  0.4348518465845518
  0.5076075750389215  0.6997579070341166  0.4421600912467287
  0.3265027599541592  0.8021521847321260  0.5657523368801732
  0.4835105033573317  0.6131929467182753  0.6131694846176904
  0.3247005484435493  0.8858091857184385  0.3918448135295055
  0.3307354114078433  0.1157630820532590  0.3909168010885479
  0.4971145730128105  0.3848505850280988  0.6093454157171775
  0.8299208079259621  0.0026249421202139  0.5436232640076746
  0.6672916953414054  0.5054397808939030  0.4634130613912642
  0.6639767454911262  0.2004890229423238  0.5648120675921871
  0.8296729271512842  0.3033049079283864  0.4347774092857654
  0.8257974421844825  0.7003762905435263  0.4434700317608850
  0.6534061752005000  0.8096500180952144  0.5671738068781593
  0.8803119005249774  0.5957799963779341  0.6236992157289440
  0.6619158108568313  0.8872948825178442  0.3927930440431549
  0.6649536985723699  0.1156528873746445  0.3913443521314996
  0.8327571130984115  0.3843057570507838  0.6082129302953428
  0.7596689928292556  0.6679774029051514  0.6249202539467023
 
  0.00000000E+00  0.00000000E+00  0.00000000E+00
  0.00000000E+00  0.00000000E+00  0.00000000E+00
  0.00000000E+00  0.00000000E+00  0.00000000E+00
  0.00000000E+00  0.00000000E+00  0.00000000E+00
  0.00000000E+00  0.00000000E+00  0.00000000E+00
  0.00000000E+00  0.00000000E+00  0.00000000E+00
  0.00000000E+00  0.00000000E+00  0.00000000E+00
  0.00000000E+00  0.00000000E+00  0.00000000E+00
  0.00000000E+00  0.00000000E+00  0.00000000E+00
  0.00000000E+00  0.00000000E+00  0.00000000E+00
  0.00000000E+00  0.00000000E+00  0.00000000E+00
  0.00000000E+00  0.00000000E+00  0.00000000E+00
  0.00000000E+00  0.00000000E+00  0.00000000E+00
  0.00000000E+00  0.00000000E+00  0.00000000E+00
  0.00000000E+00  0.00000000E+00  0.00000000E+00
  0.00000000E+00  0.00000000E+00  0.00000000E+00
  0.00000000E+00  0.00000000E+00  0.00000000E+00
  0.00000000E+00  0.00000000E+00  0.00000000E+00
  0.00000000E+00  0.00000000E+00  0.00000000E+00
  0.00000000E+00  0.00000000E+00  0.00000000E+00
  0.00000000E+00  0.00000000E+00  0.00000000E+00
  0.00000000E+00  0.00000000E+00  0.00000000E+00
  0.00000000E+00  0.00000000E+00  0.00000000E+00
  0.00000000E+00  0.00000000E+00  0.00000000E+00
  0.00000000E+00  0.00000000E+00  0.00000000E+00
  0.00000000E+00  0.00000000E+00  0.00000000E+00
  0.00000000E+00  0.00000000E+00  0.00000000E+00
  0.00000000E+00  0.00000000E+00  0.00000000E+00
  0.00000000E+00  0.00000000E+00  0.00000000E+00
  0.00000000E+00  0.00000000E+00  0.00000000E+00
  0.00000000E+00  0.00000000E+00  0.00000000E+00
  0.00000000E+00  0.00000000E+00  0.00000000E+00
  0.00000000E+00  0.00000000E+00  0.00000000E+00
  0.00000000E+00  0.00000000E+00  0.00000000E+00
  0.00000000E+00  0.00000000E+00  0.00000000E+00
  0.00000000E+00  0.00000000E+00  0.00000000E+00
  0.00000000E+00  0.00000000E+00  0.00000000E+00
  0.00000000E+00  0.00000000E+00  0.00000000E+00
  0.00000000E+00  0.00000000E+00  0.00000000E+00
  0.00000000E+00  0.00000000E+00  0.00000000E+00
  0.00000000E+00  0.00000000E+00  0.00000000E+00
  0.00000000E+00  0.00000000E+00  0.00000000E+00
  0.00000000E+00  0.00000000E+00  0.00000000E+00
  0.00000000E+00  0.00000000E+00  0.00000000E+00
  0.00000000E+00  0.00000000E+00  0.00000000E+00
  0.00000000E+00  0.00000000E+00  0.00000000E+00
  0.00000000E+00  0.00000000E+00  0.00000000E+00
  0.00000000E+00  0.00000000E+00  0.00000000E+00
  0.00000000E+00  0.00000000E+00  0.00000000E+00
