G   48   39    1    0.005     # Parameters to Generate KPOINTS (Don't Edit This Line)
     937
Reciprocal lattice
    0.000000000000    0.000000000000    0.000000000000       1
    0.020833333333    0.000000000000    0.000000000000       2
    0.041666666667    0.000000000000    0.000000000000       2
    0.062500000000    0.000000000000    0.000000000000       2
    0.083333333333    0.000000000000    0.000000000000       2
    0.104166666667    0.000000000000    0.000000000000       2
    0.125000000000    0.000000000000    0.000000000000       2
    0.145833333333    0.000000000000    0.000000000000       2
    0.166666666667    0.000000000000    0.000000000000       2
    0.187500000000    0.000000000000    0.000000000000       2
    0.208333333333    0.000000000000    0.000000000000       2
    0.229166666667    0.000000000000    0.000000000000       2
    0.250000000000    0.000000000000    0.000000000000       2
    0.270833333333    0.000000000000    0.000000000000       2
    0.291666666667    0.000000000000    0.000000000000       2
    0.312500000000    0.000000000000    0.000000000000       2
    0.333333333333    0.000000000000    0.000000000000       2
    0.354166666667    0.000000000000    0.000000000000       2
    0.375000000000    0.000000000000    0.000000000000       2
    0.395833333333    0.000000000000    0.000000000000       2
    0.416666666667    0.000000000000    0.000000000000       2
    0.437500000000    0.000000000000    0.000000000000       2
    0.458333333333    0.000000000000    0.000000000000       2
    0.479166666667    0.000000000000    0.000000000000       2
    0.500000000000    0.000000000000    0.000000000000       1
    0.000000000000    0.025641025641    0.000000000000       2
    0.020833333333    0.025641025641    0.000000000000       2
    0.041666666667    0.025641025641    0.000000000000       2
    0.062500000000    0.025641025641    0.000000000000       2
    0.083333333333    0.025641025641    0.000000000000       2
    0.104166666667    0.025641025641    0.000000000000       2
    0.125000000000    0.025641025641    0.000000000000       2
    0.145833333333    0.025641025641    0.000000000000       2
    0.166666666667    0.025641025641    0.000000000000       2
    0.187500000000    0.025641025641    0.000000000000       2
    0.208333333333    0.025641025641    0.000000000000       2
    0.229166666667    0.025641025641    0.000000000000       2
    0.250000000000    0.025641025641    0.000000000000       2
    0.270833333333    0.025641025641    0.000000000000       2
    0.291666666667    0.025641025641    0.000000000000       2
    0.312500000000    0.025641025641    0.000000000000       2
    0.333333333333    0.025641025641    0.000000000000       2
    0.354166666667    0.025641025641    0.000000000000       2
    0.375000000000    0.025641025641    0.000000000000       2
    0.395833333333    0.025641025641    0.000000000000       2
    0.416666666667    0.025641025641    0.000000000000       2
    0.437500000000    0.025641025641    0.000000000000       2
    0.458333333333    0.025641025641    0.000000000000       2
    0.479166666667    0.025641025641    0.000000000000       2
    0.500000000000    0.025641025641    0.000000000000       2
   -0.479166666667    0.025641025641    0.000000000000       2
   -0.458333333333    0.025641025641    0.000000000000       2
   -0.437500000000    0.025641025641    0.000000000000       2
   -0.416666666667    0.025641025641    0.000000000000       2
   -0.395833333333    0.025641025641    0.000000000000       2
   -0.375000000000    0.025641025641    0.000000000000       2
   -0.354166666667    0.025641025641    0.000000000000       2
   -0.333333333333    0.025641025641    0.000000000000       2
   -0.312500000000    0.025641025641    0.000000000000       2
   -0.291666666667    0.025641025641    0.000000000000       2
   -0.270833333333    0.025641025641    0.000000000000       2
   -0.250000000000    0.025641025641    0.000000000000       2
   -0.229166666667    0.025641025641    0.000000000000       2
   -0.208333333333    0.025641025641    0.000000000000       2
   -0.187500000000    0.025641025641    0.000000000000       2
   -0.166666666667    0.025641025641    0.000000000000       2
   -0.145833333333    0.025641025641    0.000000000000       2
   -0.125000000000    0.025641025641    0.000000000000       2
   -0.104166666667    0.025641025641    0.000000000000       2
   -0.083333333333    0.025641025641    0.000000000000       2
   -0.062500000000    0.025641025641    0.000000000000       2
   -0.041666666667    0.025641025641    0.000000000000       2
   -0.020833333333    0.025641025641    0.000000000000       2
    0.000000000000    0.051282051282    0.000000000000       2
    0.020833333333    0.051282051282    0.000000000000       2
    0.041666666667    0.051282051282    0.000000000000       2
    0.062500000000    0.051282051282    0.000000000000       2
    0.083333333333    0.051282051282    0.000000000000       2
    0.104166666667    0.051282051282    0.000000000000       2
    0.125000000000    0.051282051282    0.000000000000       2
    0.145833333333    0.051282051282    0.000000000000       2
    0.166666666667    0.051282051282    0.000000000000       2
    0.187500000000    0.051282051282    0.000000000000       2
    0.208333333333    0.051282051282    0.000000000000       2
    0.229166666667    0.051282051282    0.000000000000       2
    0.250000000000    0.051282051282    0.000000000000       2
    0.270833333333    0.051282051282    0.000000000000       2
    0.291666666667    0.051282051282    0.000000000000       2
    0.312500000000    0.051282051282    0.000000000000       2
    0.333333333333    0.051282051282    0.000000000000       2
    0.354166666667    0.051282051282    0.000000000000       2
    0.375000000000    0.051282051282    0.000000000000       2
    0.395833333333    0.051282051282    0.000000000000       2
    0.416666666667    0.051282051282    0.000000000000       2
    0.437500000000    0.051282051282    0.000000000000       2
    0.458333333333    0.051282051282    0.000000000000       2
    0.479166666667    0.051282051282    0.000000000000       2
    0.500000000000    0.051282051282    0.000000000000       2
   -0.479166666667    0.051282051282    0.000000000000       2
   -0.458333333333    0.051282051282    0.000000000000       2
   -0.437500000000    0.051282051282    0.000000000000       2
   -0.416666666667    0.051282051282    0.000000000000       2
   -0.395833333333    0.051282051282    0.000000000000       2
   -0.375000000000    0.051282051282    0.000000000000       2
   -0.354166666667    0.051282051282    0.000000000000       2
   -0.333333333333    0.051282051282    0.000000000000       2
   -0.312500000000    0.051282051282    0.000000000000       2
   -0.291666666667    0.051282051282    0.000000000000       2
   -0.270833333333    0.051282051282    0.000000000000       2
   -0.250000000000    0.051282051282    0.000000000000       2
   -0.229166666667    0.051282051282    0.000000000000       2
   -0.208333333333    0.051282051282    0.000000000000       2
   -0.187500000000    0.051282051282    0.000000000000       2
   -0.166666666667    0.051282051282    0.000000000000       2
   -0.145833333333    0.051282051282    0.000000000000       2
   -0.125000000000    0.051282051282    0.000000000000       2
   -0.104166666667    0.051282051282    0.000000000000       2
   -0.083333333333    0.051282051282    0.000000000000       2
   -0.062500000000    0.051282051282    0.000000000000       2
   -0.041666666667    0.051282051282    0.000000000000       2
   -0.020833333333    0.051282051282    0.000000000000       2
    0.000000000000    0.076923076923    0.000000000000       2
    0.020833333333    0.076923076923    0.000000000000       2
    0.041666666667    0.076923076923    0.000000000000       2
    0.062500000000    0.076923076923    0.000000000000       2
    0.083333333333    0.076923076923    0.000000000000       2
    0.104166666667    0.076923076923    0.000000000000       2
    0.125000000000    0.076923076923    0.000000000000       2
    0.145833333333    0.076923076923    0.000000000000       2
    0.166666666667    0.076923076923    0.000000000000       2
    0.187500000000    0.076923076923    0.000000000000       2
    0.208333333333    0.076923076923    0.000000000000       2
    0.229166666667    0.076923076923    0.000000000000       2
    0.250000000000    0.076923076923    0.000000000000       2
    0.270833333333    0.076923076923    0.000000000000       2
    0.291666666667    0.076923076923    0.000000000000       2
    0.312500000000    0.076923076923    0.000000000000       2
    0.333333333333    0.076923076923    0.000000000000       2
    0.354166666667    0.076923076923    0.000000000000       2
    0.375000000000    0.076923076923    0.000000000000       2
    0.395833333333    0.076923076923    0.000000000000       2
    0.416666666667    0.076923076923    0.000000000000       2
    0.437500000000    0.076923076923    0.000000000000       2
    0.458333333333    0.076923076923    0.000000000000       2
    0.479166666667    0.076923076923    0.000000000000       2
    0.500000000000    0.076923076923    0.000000000000       2
   -0.479166666667    0.076923076923    0.000000000000       2
   -0.458333333333    0.076923076923    0.000000000000       2
   -0.437500000000    0.076923076923    0.000000000000       2
   -0.416666666667    0.076923076923    0.000000000000       2
   -0.395833333333    0.076923076923    0.000000000000       2
   -0.375000000000    0.076923076923    0.000000000000       2
   -0.354166666667    0.076923076923    0.000000000000       2
   -0.333333333333    0.076923076923    0.000000000000       2
   -0.312500000000    0.076923076923    0.000000000000       2
   -0.291666666667    0.076923076923    0.000000000000       2
   -0.270833333333    0.076923076923    0.000000000000       2
   -0.250000000000    0.076923076923    0.000000000000       2
   -0.229166666667    0.076923076923    0.000000000000       2
   -0.208333333333    0.076923076923    0.000000000000       2
   -0.187500000000    0.076923076923    0.000000000000       2
   -0.166666666667    0.076923076923    0.000000000000       2
   -0.145833333333    0.076923076923    0.000000000000       2
   -0.125000000000    0.076923076923    0.000000000000       2
   -0.104166666667    0.076923076923    0.000000000000       2
   -0.083333333333    0.076923076923    0.000000000000       2
   -0.062500000000    0.076923076923    0.000000000000       2
   -0.041666666667    0.076923076923    0.000000000000       2
   -0.020833333333    0.076923076923    0.000000000000       2
    0.000000000000    0.102564102564    0.000000000000       2
    0.020833333333    0.102564102564    0.000000000000       2
    0.041666666667    0.102564102564    0.000000000000       2
    0.062500000000    0.102564102564    0.000000000000       2
    0.083333333333    0.102564102564    0.000000000000       2
    0.104166666667    0.102564102564    0.000000000000       2
    0.125000000000    0.102564102564    0.000000000000       2
    0.145833333333    0.102564102564    0.000000000000       2
    0.166666666667    0.102564102564    0.000000000000       2
    0.187500000000    0.102564102564    0.000000000000       2
    0.208333333333    0.102564102564    0.000000000000       2
    0.229166666667    0.102564102564    0.000000000000       2
    0.250000000000    0.102564102564    0.000000000000       2
    0.270833333333    0.102564102564    0.000000000000       2
    0.291666666667    0.102564102564    0.000000000000       2
    0.312500000000    0.102564102564    0.000000000000       2
    0.333333333333    0.102564102564    0.000000000000       2
    0.354166666667    0.102564102564    0.000000000000       2
    0.375000000000    0.102564102564    0.000000000000       2
    0.395833333333    0.102564102564    0.000000000000       2
    0.416666666667    0.102564102564    0.000000000000       2
    0.437500000000    0.102564102564    0.000000000000       2
    0.458333333333    0.102564102564    0.000000000000       2
    0.479166666667    0.102564102564    0.000000000000       2
    0.500000000000    0.102564102564    0.000000000000       2
   -0.479166666667    0.102564102564    0.000000000000       2
   -0.458333333333    0.102564102564    0.000000000000       2
   -0.437500000000    0.102564102564    0.000000000000       2
   -0.416666666667    0.102564102564    0.000000000000       2
   -0.395833333333    0.102564102564    0.000000000000       2
   -0.375000000000    0.102564102564    0.000000000000       2
   -0.354166666667    0.102564102564    0.000000000000       2
   -0.333333333333    0.102564102564    0.000000000000       2
   -0.312500000000    0.102564102564    0.000000000000       2
   -0.291666666667    0.102564102564    0.000000000000       2
   -0.270833333333    0.102564102564    0.000000000000       2
   -0.250000000000    0.102564102564    0.000000000000       2
   -0.229166666667    0.102564102564    0.000000000000       2
   -0.208333333333    0.102564102564    0.000000000000       2
   -0.187500000000    0.102564102564    0.000000000000       2
   -0.166666666667    0.102564102564    0.000000000000       2
   -0.145833333333    0.102564102564    0.000000000000       2
   -0.125000000000    0.102564102564    0.000000000000       2
   -0.104166666667    0.102564102564    0.000000000000       2
   -0.083333333333    0.102564102564    0.000000000000       2
   -0.062500000000    0.102564102564    0.000000000000       2
   -0.041666666667    0.102564102564    0.000000000000       2
   -0.020833333333    0.102564102564    0.000000000000       2
    0.000000000000    0.128205128205    0.000000000000       2
    0.020833333333    0.128205128205    0.000000000000       2
    0.041666666667    0.128205128205    0.000000000000       2
    0.062500000000    0.128205128205    0.000000000000       2
    0.083333333333    0.128205128205    0.000000000000       2
    0.104166666667    0.128205128205    0.000000000000       2
    0.125000000000    0.128205128205    0.000000000000       2
    0.145833333333    0.128205128205    0.000000000000       2
    0.166666666667    0.128205128205    0.000000000000       2
    0.187500000000    0.128205128205    0.000000000000       2
    0.208333333333    0.128205128205    0.000000000000       2
    0.229166666667    0.128205128205    0.000000000000       2
    0.250000000000    0.128205128205    0.000000000000       2
    0.270833333333    0.128205128205    0.000000000000       2
    0.291666666667    0.128205128205    0.000000000000       2
    0.312500000000    0.128205128205    0.000000000000       2
    0.333333333333    0.128205128205    0.000000000000       2
    0.354166666667    0.128205128205    0.000000000000       2
    0.375000000000    0.128205128205    0.000000000000       2
    0.395833333333    0.128205128205    0.000000000000       2
    0.416666666667    0.128205128205    0.000000000000       2
    0.437500000000    0.128205128205    0.000000000000       2
    0.458333333333    0.128205128205    0.000000000000       2
    0.479166666667    0.128205128205    0.000000000000       2
    0.500000000000    0.128205128205    0.000000000000       2
   -0.479166666667    0.128205128205    0.000000000000       2
   -0.458333333333    0.128205128205    0.000000000000       2
   -0.437500000000    0.128205128205    0.000000000000       2
   -0.416666666667    0.128205128205    0.000000000000       2
   -0.395833333333    0.128205128205    0.000000000000       2
   -0.375000000000    0.128205128205    0.000000000000       2
   -0.354166666667    0.128205128205    0.000000000000       2
   -0.333333333333    0.128205128205    0.000000000000       2
   -0.312500000000    0.128205128205    0.000000000000       2
   -0.291666666667    0.128205128205    0.000000000000       2
   -0.270833333333    0.128205128205    0.000000000000       2
   -0.250000000000    0.128205128205    0.000000000000       2
   -0.229166666667    0.128205128205    0.000000000000       2
   -0.208333333333    0.128205128205    0.000000000000       2
   -0.187500000000    0.128205128205    0.000000000000       2
   -0.166666666667    0.128205128205    0.000000000000       2
   -0.145833333333    0.128205128205    0.000000000000       2
   -0.125000000000    0.128205128205    0.000000000000       2
   -0.104166666667    0.128205128205    0.000000000000       2
   -0.083333333333    0.128205128205    0.000000000000       2
   -0.062500000000    0.128205128205    0.000000000000       2
   -0.041666666667    0.128205128205    0.000000000000       2
   -0.020833333333    0.128205128205    0.000000000000       2
    0.000000000000    0.153846153846    0.000000000000       2
    0.020833333333    0.153846153846    0.000000000000       2
    0.041666666667    0.153846153846    0.000000000000       2
    0.062500000000    0.153846153846    0.000000000000       2
    0.083333333333    0.153846153846    0.000000000000       2
    0.104166666667    0.153846153846    0.000000000000       2
    0.125000000000    0.153846153846    0.000000000000       2
    0.145833333333    0.153846153846    0.000000000000       2
    0.166666666667    0.153846153846    0.000000000000       2
    0.187500000000    0.153846153846    0.000000000000       2
    0.208333333333    0.153846153846    0.000000000000       2
    0.229166666667    0.153846153846    0.000000000000       2
    0.250000000000    0.153846153846    0.000000000000       2
    0.270833333333    0.153846153846    0.000000000000       2
    0.291666666667    0.153846153846    0.000000000000       2
    0.312500000000    0.153846153846    0.000000000000       2
    0.333333333333    0.153846153846    0.000000000000       2
    0.354166666667    0.153846153846    0.000000000000       2
    0.375000000000    0.153846153846    0.000000000000       2
    0.395833333333    0.153846153846    0.000000000000       2
    0.416666666667    0.153846153846    0.000000000000       2
    0.437500000000    0.153846153846    0.000000000000       2
    0.458333333333    0.153846153846    0.000000000000       2
    0.479166666667    0.153846153846    0.000000000000       2
    0.500000000000    0.153846153846    0.000000000000       2
   -0.479166666667    0.153846153846    0.000000000000       2
   -0.458333333333    0.153846153846    0.000000000000       2
   -0.437500000000    0.153846153846    0.000000000000       2
   -0.416666666667    0.153846153846    0.000000000000       2
   -0.395833333333    0.153846153846    0.000000000000       2
   -0.375000000000    0.153846153846    0.000000000000       2
   -0.354166666667    0.153846153846    0.000000000000       2
   -0.333333333333    0.153846153846    0.000000000000       2
   -0.312500000000    0.153846153846    0.000000000000       2
   -0.291666666667    0.153846153846    0.000000000000       2
   -0.270833333333    0.153846153846    0.000000000000       2
   -0.250000000000    0.153846153846    0.000000000000       2
   -0.229166666667    0.153846153846    0.000000000000       2
   -0.208333333333    0.153846153846    0.000000000000       2
   -0.187500000000    0.153846153846    0.000000000000       2
   -0.166666666667    0.153846153846    0.000000000000       2
   -0.145833333333    0.153846153846    0.000000000000       2
   -0.125000000000    0.153846153846    0.000000000000       2
   -0.104166666667    0.153846153846    0.000000000000       2
   -0.083333333333    0.153846153846    0.000000000000       2
   -0.062500000000    0.153846153846    0.000000000000       2
   -0.041666666667    0.153846153846    0.000000000000       2
   -0.020833333333    0.153846153846    0.000000000000       2
    0.000000000000    0.179487179487    0.000000000000       2
    0.020833333333    0.179487179487    0.000000000000       2
    0.041666666667    0.179487179487    0.000000000000       2
    0.062500000000    0.179487179487    0.000000000000       2
    0.083333333333    0.179487179487    0.000000000000       2
    0.104166666667    0.179487179487    0.000000000000       2
    0.125000000000    0.179487179487    0.000000000000       2
    0.145833333333    0.179487179487    0.000000000000       2
    0.166666666667    0.179487179487    0.000000000000       2
    0.187500000000    0.179487179487    0.000000000000       2
    0.208333333333    0.179487179487    0.000000000000       2
    0.229166666667    0.179487179487    0.000000000000       2
    0.250000000000    0.179487179487    0.000000000000       2
    0.270833333333    0.179487179487    0.000000000000       2
    0.291666666667    0.179487179487    0.000000000000       2
    0.312500000000    0.179487179487    0.000000000000       2
    0.333333333333    0.179487179487    0.000000000000       2
    0.354166666667    0.179487179487    0.000000000000       2
    0.375000000000    0.179487179487    0.000000000000       2
    0.395833333333    0.179487179487    0.000000000000       2
    0.416666666667    0.179487179487    0.000000000000       2
    0.437500000000    0.179487179487    0.000000000000       2
    0.458333333333    0.179487179487    0.000000000000       2
    0.479166666667    0.179487179487    0.000000000000       2
    0.500000000000    0.179487179487    0.000000000000       2
   -0.479166666667    0.179487179487    0.000000000000       2
   -0.458333333333    0.179487179487    0.000000000000       2
   -0.437500000000    0.179487179487    0.000000000000       2
   -0.416666666667    0.179487179487    0.000000000000       2
   -0.395833333333    0.179487179487    0.000000000000       2
   -0.375000000000    0.179487179487    0.000000000000       2
   -0.354166666667    0.179487179487    0.000000000000       2
   -0.333333333333    0.179487179487    0.000000000000       2
   -0.312500000000    0.179487179487    0.000000000000       2
   -0.291666666667    0.179487179487    0.000000000000       2
   -0.270833333333    0.179487179487    0.000000000000       2
   -0.250000000000    0.179487179487    0.000000000000       2
   -0.229166666667    0.179487179487    0.000000000000       2
   -0.208333333333    0.179487179487    0.000000000000       2
   -0.187500000000    0.179487179487    0.000000000000       2
   -0.166666666667    0.179487179487    0.000000000000       2
   -0.145833333333    0.179487179487    0.000000000000       2
   -0.125000000000    0.179487179487    0.000000000000       2
   -0.104166666667    0.179487179487    0.000000000000       2
   -0.083333333333    0.179487179487    0.000000000000       2
   -0.062500000000    0.179487179487    0.000000000000       2
   -0.041666666667    0.179487179487    0.000000000000       2
   -0.020833333333    0.179487179487    0.000000000000       2
    0.000000000000    0.205128205128    0.000000000000       2
    0.020833333333    0.205128205128    0.000000000000       2
    0.041666666667    0.205128205128    0.000000000000       2
    0.062500000000    0.205128205128    0.000000000000       2
    0.083333333333    0.205128205128    0.000000000000       2
    0.104166666667    0.205128205128    0.000000000000       2
    0.125000000000    0.205128205128    0.000000000000       2
    0.145833333333    0.205128205128    0.000000000000       2
    0.166666666667    0.205128205128    0.000000000000       2
    0.187500000000    0.205128205128    0.000000000000       2
    0.208333333333    0.205128205128    0.000000000000       2
    0.229166666667    0.205128205128    0.000000000000       2
    0.250000000000    0.205128205128    0.000000000000       2
    0.270833333333    0.205128205128    0.000000000000       2
    0.291666666667    0.205128205128    0.000000000000       2
    0.312500000000    0.205128205128    0.000000000000       2
    0.333333333333    0.205128205128    0.000000000000       2
    0.354166666667    0.205128205128    0.000000000000       2
    0.375000000000    0.205128205128    0.000000000000       2
    0.395833333333    0.205128205128    0.000000000000       2
    0.416666666667    0.205128205128    0.000000000000       2
    0.437500000000    0.205128205128    0.000000000000       2
    0.458333333333    0.205128205128    0.000000000000       2
    0.479166666667    0.205128205128    0.000000000000       2
    0.500000000000    0.205128205128    0.000000000000       2
   -0.479166666667    0.205128205128    0.000000000000       2
   -0.458333333333    0.205128205128    0.000000000000       2
   -0.437500000000    0.205128205128    0.000000000000       2
   -0.416666666667    0.205128205128    0.000000000000       2
   -0.395833333333    0.205128205128    0.000000000000       2
   -0.375000000000    0.205128205128    0.000000000000       2
   -0.354166666667    0.205128205128    0.000000000000       2
   -0.333333333333    0.205128205128    0.000000000000       2
   -0.312500000000    0.205128205128    0.000000000000       2
   -0.291666666667    0.205128205128    0.000000000000       2
   -0.270833333333    0.205128205128    0.000000000000       2
   -0.250000000000    0.205128205128    0.000000000000       2
   -0.229166666667    0.205128205128    0.000000000000       2
   -0.208333333333    0.205128205128    0.000000000000       2
   -0.187500000000    0.205128205128    0.000000000000       2
   -0.166666666667    0.205128205128    0.000000000000       2
   -0.145833333333    0.205128205128    0.000000000000       2
   -0.125000000000    0.205128205128    0.000000000000       2
   -0.104166666667    0.205128205128    0.000000000000       2
   -0.083333333333    0.205128205128    0.000000000000       2
   -0.062500000000    0.205128205128    0.000000000000       2
   -0.041666666667    0.205128205128    0.000000000000       2
   -0.020833333333    0.205128205128    0.000000000000       2
    0.000000000000    0.230769230769    0.000000000000       2
    0.020833333333    0.230769230769    0.000000000000       2
    0.041666666667    0.230769230769    0.000000000000       2
    0.062500000000    0.230769230769    0.000000000000       2
    0.083333333333    0.230769230769    0.000000000000       2
    0.104166666667    0.230769230769    0.000000000000       2
    0.125000000000    0.230769230769    0.000000000000       2
    0.145833333333    0.230769230769    0.000000000000       2
    0.166666666667    0.230769230769    0.000000000000       2
    0.187500000000    0.230769230769    0.000000000000       2
    0.208333333333    0.230769230769    0.000000000000       2
    0.229166666667    0.230769230769    0.000000000000       2
    0.250000000000    0.230769230769    0.000000000000       2
    0.270833333333    0.230769230769    0.000000000000       2
    0.291666666667    0.230769230769    0.000000000000       2
    0.312500000000    0.230769230769    0.000000000000       2
    0.333333333333    0.230769230769    0.000000000000       2
    0.354166666667    0.230769230769    0.000000000000       2
    0.375000000000    0.230769230769    0.000000000000       2
    0.395833333333    0.230769230769    0.000000000000       2
    0.416666666667    0.230769230769    0.000000000000       2
    0.437500000000    0.230769230769    0.000000000000       2
    0.458333333333    0.230769230769    0.000000000000       2
    0.479166666667    0.230769230769    0.000000000000       2
    0.500000000000    0.230769230769    0.000000000000       2
   -0.479166666667    0.230769230769    0.000000000000       2
   -0.458333333333    0.230769230769    0.000000000000       2
   -0.437500000000    0.230769230769    0.000000000000       2
   -0.416666666667    0.230769230769    0.000000000000       2
   -0.395833333333    0.230769230769    0.000000000000       2
   -0.375000000000    0.230769230769    0.000000000000       2
   -0.354166666667    0.230769230769    0.000000000000       2
   -0.333333333333    0.230769230769    0.000000000000       2
   -0.312500000000    0.230769230769    0.000000000000       2
   -0.291666666667    0.230769230769    0.000000000000       2
   -0.270833333333    0.230769230769    0.000000000000       2
   -0.250000000000    0.230769230769    0.000000000000       2
   -0.229166666667    0.230769230769    0.000000000000       2
   -0.208333333333    0.230769230769    0.000000000000       2
   -0.187500000000    0.230769230769    0.000000000000       2
   -0.166666666667    0.230769230769    0.000000000000       2
   -0.145833333333    0.230769230769    0.000000000000       2
   -0.125000000000    0.230769230769    0.000000000000       2
   -0.104166666667    0.230769230769    0.000000000000       2
   -0.083333333333    0.230769230769    0.000000000000       2
   -0.062500000000    0.230769230769    0.000000000000       2
   -0.041666666667    0.230769230769    0.000000000000       2
   -0.020833333333    0.230769230769    0.000000000000       2
    0.000000000000    0.256410256410    0.000000000000       2
    0.020833333333    0.256410256410    0.000000000000       2
    0.041666666667    0.256410256410    0.000000000000       2
    0.062500000000    0.256410256410    0.000000000000       2
    0.083333333333    0.256410256410    0.000000000000       2
    0.104166666667    0.256410256410    0.000000000000       2
    0.125000000000    0.256410256410    0.000000000000       2
    0.145833333333    0.256410256410    0.000000000000       2
    0.166666666667    0.256410256410    0.000000000000       2
    0.187500000000    0.256410256410    0.000000000000       2
    0.208333333333    0.256410256410    0.000000000000       2
    0.229166666667    0.256410256410    0.000000000000       2
    0.250000000000    0.256410256410    0.000000000000       2
    0.270833333333    0.256410256410    0.000000000000       2
    0.291666666667    0.256410256410    0.000000000000       2
    0.312500000000    0.256410256410    0.000000000000       2
    0.333333333333    0.256410256410    0.000000000000       2