CONTCAR\(9)                             
   1.00000000000000     
    10.7180004120000003    0.0000000000000000    0.0000000000000000
     0.0000000000000000   11.1470003127999995    0.0000000000000000
     0.0000000000000000    0.0000000000000000   18.2015991210999992
   Os   Cl   O    H 
     9    18    10     1
Direct
  0.0000108130002663 -0.0011824322783898  0.5024035697014775
  0.3332363839947156  0.9993325509408816  0.5028744939696281
  0.6664208804763369 -0.0012033223310690  0.5023923450150601
 -0.0000319532453971  0.3325324465064955  0.5025184561584788
  0.3332342933059649  0.3330603445812536  0.5030657734213320
  0.6665606978281955  0.3325351591473193  0.5024691908445469
  0.0007087634021704  0.6655814531648896  0.5013553522050413
  0.3333259125045848  0.6665027420775376  0.5034136986769899
  0.6658791884080963  0.6655473393793806  0.5012656500571736
  0.1661962340918698  0.3334632969937943  0.5906932261432438
  0.1667753145783374 -0.0004875623497000  0.4145195192828361
  0.5003389866044577  0.3334606351357180  0.5906547493902312
  0.4996680290067743 -0.0004998207127667  0.4145105629626668
  0.8332206646293645  0.3332683364515331  0.5903245768284722
  0.8332164837700289 -0.0008049858174435  0.4142175531747699
  0.1652589558591223  0.6683542288686825  0.5901181572556959
  0.1669725968731828  0.3326958883420393  0.4148723362599288
  0.5014416797097547  0.6682301904144489  0.5900540138307103
  0.4995046307608745  0.3326932725355166  0.4148452422142149
  0.8332372778035363  0.6656111893250957  0.5887173822475423
  0.8332944311783496  0.3321374334559180  0.4144964189062863
  0.1662775279467419  0.9975455493888097  0.5902835380273884
  0.1681837950235515  0.6654771090812405  0.4143759766615163
  0.5001915069840221  0.9975650545198064  0.5902891859679983
  0.4983822347600287  0.6654298128505650  0.4143043194724831
  0.8332052990282970 -0.0023425739141737  0.5901363082389396
  0.8334953759704470  0.6646433162405196  0.4097892216832118
 -0.0001346626450918  0.1656685313935762  0.5027923946543050
  0.3332200621582961  0.1661697741352000  0.5030401180754804
  0.6665839172345421  0.1656494223465245  0.5027823525050308
  0.0002159219641931  0.4995434966001118  0.5017643298967328
  0.3332661426984174  0.5000045231509737  0.5033976968857369
  0.6664059983599258  0.4995478873337865  0.5016667577370921
 -0.0000860400342302  0.8316534573566138  0.5013105448609403
  0.3333032778405549  0.8326521305686224  0.5024420499948054
  0.6665926288846465  0.8316535933293374  0.5012524494439734
  0.3338893419167629  0.7183304254167817  0.6873800524007827
  0.3337073993682908  0.6473398853706002  0.7191508959473030
 
  0.00000000E+00  0.00000000E+00  0.00000000E+00
  0.00000000E+00  0.00000000E+00  0.00000000E+00
  0.00000000E+00  0.00000000E+00  0.00000000E+00
  0.00000000E+00  0.00000000E+00  0.00000000E+00
  0.00000000E+00  0.00000000E+00  0.00000000E+00
  0.00000000E+00  0.00000000E+00  0.00000000E+00
  0.00000000E+00  0.00000000E+00  0.00000000E+00
  0.00000000E+00  0.00000000E+00  0.00000000E+00
  0.00000000E+00  0.00000000E+00  0.00000000E+00
  0.00000000E+00  0.00000000E+00  0.00000000E+00
  0.00000000E+00  0.00000000E+00  0.00000000E+00
  0.00000000E+00  0.00000000E+00  0.00000000E+00
  0.00000000E+00  0.00000000E+00  0.00000000E+00
  0.00000000E+00  0.00000000E+00  0.00000000E+00
  0.00000000E+00  0.00000000E+00  0.00000000E+00
  0.00000000E+00  0.00000000E+00  0.00000000E+00
  0.00000000E+00  0.00000000E+00  0.00000000E+00
  0.00000000E+00  0.00000000E+00  0.00000000E+00
  0.00000000E+00  0.00000000E+00  0.00000000E+00
  0.00000000E+00  0.00000000E+00  0.00000000E+00
  0.00000000E+00  0.00000000E+00  0.00000000E+00
  0.00000000E+00  0.00000000E+00  0.00000000E+00
  0.00000000E+00  0.00000000E+00  0.00000000E+00
  0.00000000E+00  0.00000000E+00  0.00000000E+00
  0.00000000E+00  0.00000000E+00  0.00000000E+00
  0.00000000E+00  0.00000000E+00  0.00000000E+00
  0.00000000E+00  0.00000000E+00  0.00000000E+00
  0.00000000E+00  0.00000000E+00  0.00000000E+00
  0.00000000E+00  0.00000000E+00  0.00000000E+00
  0.00000000E+00  0.00000000E+00  0.00000000E+00
  0.00000000E+00  0.00000000E+00  0.00000000E+00
  0.00000000E+00  0.00000000E+00  0.00000000E+00
  0.00000000E+00  0.00000000E+00  0.00000000E+00
  0.00000000E+00  0.00000000E+00  0.00000000E+00
  0.00000000E+00  0.00000000E+00  0.00000000E+00
  0.00000000E+00  0.00000000E+00  0.00000000E+00
  0.00000000E+00  0.00000000E+00  0.00000000E+00
  0.00000000E+00  0.00000000E+00  0.00000000E+00
