CONTCAR\(11)                            
   1.00000000000000     
    10.8359003066999993    0.0000000000000000    0.0000000000000000
    -5.4179501533999996    9.3841649384999997    0.0000000000000000
     0.0000000000000000    0.0000000000000000   23.8684997559000003
   Ga   Ni   S    O 
    18     9    36     1
Direct
  0.1154441466550056  0.2277818745636189  0.6397862933883660
  0.2223931524011194  0.1113275407452673  0.3576706158551921
  0.4453543298218707  0.2275954782996215  0.6396560123894347
  0.5551901335875472  0.1108286694987441  0.3574447230267858
  0.7777331699598898  0.2223858738647869  0.6398735538474090
  0.8891489418659296  0.1108613931246034  0.3575080271062479
  0.1154272356413986  0.5547565246736781  0.6397004880464082
  0.2224647248643126  0.4444305145593093  0.3561411845663154
  0.4441985586437529  0.5551412247583050  0.7250747404159718
  0.5555480675612647  0.4444468432442467  0.3560691410516824
  0.7726260664593487  0.5548341240793994  0.6396087900904626
  0.8891648780643899  0.4448292299550168  0.3574107866327779
  0.1110863036038345  0.8891169206786399  0.6393060422445883
  0.2224439542064998  0.7776488751128676  0.3577017927642677
  0.4454774945619561  0.8844905925464421  0.6399273275762285
  0.5556151085175414  0.7775317276678924  0.3561783047727136
  0.7720362702365419  0.8844299109535028  0.6399596055917963
  0.8887194761460234  0.7776782999304251  0.3576817998877836
  0.9997963917925584  0.0002127932946198  0.4990732551268561
  0.3336557086495822  0.0002118962318512  0.4990364325167269
  0.6665228163100344 -0.0002782287131826  0.4986655626872872
  0.0002018183673480  0.3334776334303908  0.4985911977492055
  0.3368099190739056  0.3402831125881945  0.4978783151106392
  0.6666141621007117  0.3334440472198323  0.4985284350106710
  0.9999362223525166  0.6665173295944448  0.4989629451022266
  0.3367340337823558  0.6633679666965201  0.4979164481796619
  0.6598266503823798  0.6633131567526455  0.4979001646597618
  0.2232839623236759  0.1133921521887927  0.4508640734640587
  0.1140454569241114  0.2249774497384550  0.5458586972745877
  0.2222597285330442  0.1113776945364187  0.6823313131596944
  0.1107479819100329  0.2212817869463817  0.3126419182999633
  0.5552773340906149  0.1109157581565204  0.4506301921849376
  0.4442003288884745  0.2248997943103726  0.5457365320744032
  0.5535766146285248  0.1103221817758653  0.6808665323152904
  0.4439379462726077  0.2211798337210339  0.3125970315514794
  0.8890040455917625  0.1109175798577304  0.4506745279228203
  0.7777724889937589  0.2222679285712040  0.5459572122293287
  0.8897909971226555  0.1102783981088865  0.6808738096890590
  0.7778533896086943  0.2221256359081049  0.3134597069477985
  0.2224235918873773  0.4445748430586934  0.4494417242421595
  0.1139793832143570  0.5558864990446665  0.5457756446885504
  0.2066623124117684  0.4369375973890991  0.6882809084991042
  0.1109283479984103  0.5560355196713800  0.3126589960137700
  0.5555041118545344  0.4445417015622076  0.4493827687651675
  0.4444305241467702  0.5556192408398174  0.5460234653221524
  0.5632847882264577  0.4370133510566542  0.6879265098037389
  0.4445284237606981  0.5555453673543127  0.3115326581411663
  0.8890675603056384  0.4447385817094638  0.4505862471270421
  0.7752725343555349  0.5559239885560764  0.5456959801079142
  0.8898640654743851  0.4466208034472223  0.6808152834018533
  0.7788330276275020  0.5561475885445468  0.3126051721882783
  0.2234147514221614  0.7767931744832937  0.4509145721907838
  0.1111254125540414  0.8890353283208210  0.5458216271162684
  0.2221175077717064  0.7778672017992597  0.6823617041730027
  0.1111733244842069  0.8888444669004192  0.3135293704619513
  0.5554879053087083  0.7776261496392470  0.4494903589600515
  0.4442384953870662  0.8860140519225860  0.5459683319883886
  0.5630941825900296  0.7932467033595223  0.6887296503253978
  0.4440637910492398  0.8891019630713143  0.3126806956987648
  0.8866734804632022  0.7768742904851174  0.4508805329824862
  0.7749715749528712  0.8859420381223805  0.5459976390541039
  0.8888424718082307  0.7778093056076496  0.6823690803899745
  0.7787167576754734  0.8892437068259423  0.3126635075131687
  0.4438516007721075  0.5527850220569323  0.7967338993338515
 
  0.00000000E+00  0.00000000E+00  0.00000000E+00
  0.00000000E+00  0.00000000E+00  0.00000000E+00
  0.00000000E+00  0.00000000E+00  0.00000000E+00
  0.00000000E+00  0.00000000E+00  0.00000000E+00
  0.00000000E+00  0.00000000E+00  0.00000000E+00
  0.00000000E+00  0.00000000E+00  0.00000000E+00
  0.00000000E+00  0.00000000E+00  0.00000000E+00
  0.00000000E+00  0.00000000E+00  0.00000000E+00
  0.00000000E+00  0.00000000E+00  0.00000000E+00
  0.00000000E+00  0.00000000E+00  0.00000000E+00
  0.00000000E+00  0.00000000E+00  0.00000000E+00
  0.00000000E+00  0.00000000E+00  0.00000000E+00
  0.00000000E+00  0.00000000E+00  0.00000000E+00
  0.00000000E+00  0.00000000E+00  0.00000000E+00
  0.00000000E+00  0.00000000E+00  0.00000000E+00
  0.00000000E+00  0.00000000E+00  0.00000000E+00
  0.00000000E+00  0.00000000E+00  0.00000000E+00
  0.00000000E+00  0.00000000E+00  0.00000000E+00
  0.00000000E+00  0.00000000E+00  0.00000000E+00
  0.00000000E+00  0.00000000E+00  0.00000000E+00
  0.00000000E+00  0.00000000E+00  0.00000000E+00
  0.00000000E+00  0.00000000E+00  0.00000000E+00
  0.00000000E+00  0.00000000E+00  0.00000000E+00
  0.00000000E+00  0.00000000E+00  0.00000000E+00
  0.00000000E+00  0.00000000E+00  0.00000000E+00
  0.00000000E+00  0.00000000E+00  0.00000000E+00
  0.00000000E+00  0.00000000E+00  0.00000000E+00
  0.00000000E+00  0.00000000E+00  0.00000000E+00
  0.00000000E+00  0.00000000E+00  0.00000000E+00
  0.00000000E+00  0.00000000E+00  0.00000000E+00
  0.00000000E+00  0.00000000E+00  0.00000000E+00
  0.00000000E+00  0.00000000E+00  0.00000000E+00
  0.00000000E+00  0.00000000E+00  0.00000000E+00
  0.00000000E+00  0.00000000E+00  0.00000000E+00
  0.00000000E+00  0.00000000E+00  0.00000000E+00
  0.00000000E+00  0.00000000E+00  0.00000000E+00
  0.00000000E+00  0.00000000E+00  0.00000000E+00
  0.00000000E+00  0.00000000E+00  0.00000000E+00
  0.00000000E+00  0.00000000E+00  0.00000000E+00
  0.00000000E+00  0.00000000E+00  0.00000000E+00
  0.00000000E+00  0.00000000E+00  0.00000000E+00
  0.00000000E+00  0.00000000E+00  0.00000000E+00
  0.00000000E+00  0.00000000E+00  0.00000000E+00
  0.00000000E+00  0.00000000E+00  0.00000000E+00
  0.00000000E+00  0.00000000E+00  0.00000000E+00
  0.00000000E+00  0.00000000E+00  0.00000000E+00
  0.00000000E+00  0.00000000E+00  0.00000000E+00
  0.00000000E+00  0.00000000E+00  0.00000000E+00
  0.00000000E+00  0.00000000E+00  0.00000000E+00
  0.00000000E+00  0.00000000E+00  0.00000000E+00
  0.00000000E+00  0.00000000E+00  0.00000000E+00
  0.00000000E+00  0.00000000E+00  0.00000000E+00
  0.00000000E+00  0.00000000E+00  0.00000000E+00
  0.00000000E+00  0.00000000E+00  0.00000000E+00
  0.00000000E+00  0.00000000E+00  0.00000000E+00
  0.00000000E+00  0.00000000E+00  0.00000000E+00
  0.00000000E+00  0.00000000E+00  0.00000000E+00
  0.00000000E+00  0.00000000E+00  0.00000000E+00
  0.00000000E+00  0.00000000E+00  0.00000000E+00
  0.00000000E+00  0.00000000E+00  0.00000000E+00
  0.00000000E+00  0.00000000E+00  0.00000000E+00
  0.00000000E+00  0.00000000E+00  0.00000000E+00
  0.00000000E+00  0.00000000E+00  0.00000000E+00
  0.00000000E+00  0.00000000E+00  0.00000000E+00
