 Ni2 P2 Se6                             
   1.00000000000000     
     6.1278984657717892    0.0000000000000000    0.0000000000000000
     3.0639492328858946    5.3073024689189889    0.0000000000000000
     0.0000000000000000    0.0000000000000000   18.0618253285880002
   Ni   P    Se
     2     2     6
Direct
  0.3333531402725823  0.3332960042112059  0.4999996794872330
  0.6666488871375348  0.6667028730833735  0.4999996831918517
  0.0000817824122435 -0.0000012182702333  0.4381507911434679
  0.9999208578578629 -0.0000011148714120  0.5618485724422912
  0.6419570277683183  0.0000082538577988  0.4137234881874212
  0.3580363053232530  0.0000080308848092  0.5862758705474437
  0.3582765065640204  0.6418898724878882  0.4137711801581221
  0.0001778888755917  0.3581085026921191  0.4137704605369448
  0.6417124227535430  0.3580992036954695  0.5862324742899389
  0.9998351810350510  0.6418895922289811  0.5862278000152849
 
  0.00000000E+00  0.00000000E+00  0.00000000E+00
  0.00000000E+00  0.00000000E+00  0.00000000E+00
  0.00000000E+00  0.00000000E+00  0.00000000E+00
  0.00000000E+00  0.00000000E+00  0.00000000E+00
  0.00000000E+00  0.00000000E+00  0.00000000E+00
  0.00000000E+00  0.00000000E+00  0.00000000E+00
  0.00000000E+00  0.00000000E+00  0.00000000E+00
  0.00000000E+00  0.00000000E+00  0.00000000E+00
  0.00000000E+00  0.00000000E+00  0.00000000E+00
  0.00000000E+00  0.00000000E+00  0.00000000E+00
