 Cr2 Ge2 Te6                            
   1.00000000000000     
     6.8521870487549732    0.0000000000000000    0.0000000000000000
     3.4260930287699849    5.9341633984970743    0.0000000000000000
     0.0000000000000000    0.0000000000000000   18.4445726473120004
   Cr   Ge   Te
     2     2     6
Direct
  0.3333333797474497  0.3333330892352488  0.4998201666425794
  0.6666666884229980  0.6666668340015726  0.5001792117684615
 -0.0000008945241255  0.0000006461969789  0.4345556698624278
  0.0000008152676204 -0.0000005022638579  0.5654455712964666
  0.6257374987944435  0.0004694090019145  0.5942379115400032
  0.0004696600195190  0.3737934174687876  0.5942379140688051
  0.3737939475278735  0.6257366369894541  0.5942378999420879
  0.3742764089055285  0.9995023037812774  0.4057618487523387
  0.9995022785836468  0.6262208414720799  0.4057619161110294
  0.6262202172550451  0.3742773241165447  0.4057618900158007
 
  0.00000000E+00  0.00000000E+00  0.00000000E+00
  0.00000000E+00  0.00000000E+00  0.00000000E+00
  0.00000000E+00  0.00000000E+00  0.00000000E+00
  0.00000000E+00  0.00000000E+00  0.00000000E+00
  0.00000000E+00  0.00000000E+00  0.00000000E+00
  0.00000000E+00  0.00000000E+00  0.00000000E+00
  0.00000000E+00  0.00000000E+00  0.00000000E+00
  0.00000000E+00  0.00000000E+00  0.00000000E+00
  0.00000000E+00  0.00000000E+00  0.00000000E+00
  0.00000000E+00  0.00000000E+00  0.00000000E+00
