 Li4 Cu4 F10                            
   1.00000000000000     
     2.8092870468382571    0.0000000000000000    0.0000000000000000
     0.0000000000000000    7.3624983833968365    0.0000000000000000
     0.0000000000000000    0.0000000000000000   22.6672551092639978
   Li   Cu   F 
     4     4    10
Direct
  0.7499999980960368  0.1384806276763957  0.5197653682094351
  0.7500000018398398  0.8493442872615740  0.6077624614008285
  0.2499999974355723  0.1506369985433583  0.3922316438063401
  0.2500000008279369  0.8615546319685013  0.4802517966756690
  0.2499999965864848  0.5019622073037763  0.5666367969794109
  0.2500000029849668  0.1695768184532792  0.6588511033810991
  0.7500000006664999  0.8303696913274664  0.3411077796646375
  0.7500000004432285  0.4980823742559301  0.4333921047436408
  0.2499999952211254  0.3193461203689480  0.5076164566992737
  0.2500000003212983  0.9901757533095493  0.5558237325943566
  0.2500000016576259  0.6897371034509058  0.6202253884411356
  0.7499999990225842  0.3305289279010494  0.6279407842173237
  0.7500000058874495 -0.0003073356718435  0.6792084397463559
  0.2500000033336965  1.0002332002589938  0.3207435028798323
  0.2499999971711629  0.6694570526665330  0.3720281740536470
  0.7499999969180089  0.3103000486196807  0.3798145831879078
  0.7500000016068780  0.0098263927363409  0.4441853910871498
  0.7499999999796060  0.6806950995695605  0.4924144922319688
 
  0.00000000E+00  0.00000000E+00  0.00000000E+00
  0.00000000E+00  0.00000000E+00  0.00000000E+00
  0.00000000E+00  0.00000000E+00  0.00000000E+00
  0.00000000E+00  0.00000000E+00  0.00000000E+00
  0.00000000E+00  0.00000000E+00  0.00000000E+00
  0.00000000E+00  0.00000000E+00  0.00000000E+00
  0.00000000E+00  0.00000000E+00  0.00000000E+00
  0.00000000E+00  0.00000000E+00  0.00000000E+00
  0.00000000E+00  0.00000000E+00  0.00000000E+00
  0.00000000E+00  0.00000000E+00  0.00000000E+00
  0.00000000E+00  0.00000000E+00  0.00000000E+00
  0.00000000E+00  0.00000000E+00  0.00000000E+00
  0.00000000E+00  0.00000000E+00  0.00000000E+00
  0.00000000E+00  0.00000000E+00  0.00000000E+00
  0.00000000E+00  0.00000000E+00  0.00000000E+00
  0.00000000E+00  0.00000000E+00  0.00000000E+00
  0.00000000E+00  0.00000000E+00  0.00000000E+00
  0.00000000E+00  0.00000000E+00  0.00000000E+00
