 Ge4 Te7 As2                            
   1.00000000000000     
     4.1503309648241942    0.0000000000000000    0.0000000000000000
     2.0751649873707083    3.5942959996777066    0.0000000000000000
     0.0000000000000000    0.0000000000000000   35.7986177044800016
   Ge   Te   As
     4     7     2
Direct
 -0.0000020021171202  0.0000037935572934  0.6483907079354310
  0.6666701209038026  0.6666632884071645  0.4506382351594063
  0.3333364280656378  0.3333315687583514  0.5493578610170211
 -0.0000000606105859  0.0000022147232446  0.3516099299965322
  0.0000059727170445 -0.0000084796543937  0.7909310859459797
  0.3333186288768379  0.3333424783179090  0.6962800615639101
  0.6666674855748508  0.6666660995427666  0.3037214541390855
  0.0000032581559067 -0.0000053682433733  0.2090714267705431
 -0.0000004598486353  0.0000014959258260  0.5000012749999255
  0.3333334061835941  0.3333341643225422  0.4018160678300037
  0.6666648270566686  0.6666691197308391  0.5981804980718932
  0.3333342248573888  0.3333330120355424  0.2517952316241216
  0.6666681701846093  0.6666666125762875  0.7482061649461472
 
  0.00000000E+00  0.00000000E+00  0.00000000E+00
  0.00000000E+00  0.00000000E+00  0.00000000E+00
  0.00000000E+00  0.00000000E+00  0.00000000E+00
  0.00000000E+00  0.00000000E+00  0.00000000E+00
  0.00000000E+00  0.00000000E+00  0.00000000E+00
  0.00000000E+00  0.00000000E+00  0.00000000E+00
  0.00000000E+00  0.00000000E+00  0.00000000E+00
  0.00000000E+00  0.00000000E+00  0.00000000E+00
  0.00000000E+00  0.00000000E+00  0.00000000E+00
  0.00000000E+00  0.00000000E+00  0.00000000E+00
  0.00000000E+00  0.00000000E+00  0.00000000E+00
  0.00000000E+00  0.00000000E+00  0.00000000E+00
  0.00000000E+00  0.00000000E+00  0.00000000E+00
