CONTCAR                                 
   1.00000000000000     
    14.1827001571999993    0.0000000000000000    0.0000000000000000
     0.0000000000000000   18.7943000793000010    0.0000000000000000
     0.0000000000000000    0.0000000000000000   21.0296001433999997
   Ta   Pt   Se   O    H 
    16     8    56     2     1
Direct
  0.1877348640811072  0.4226710269388033  0.5615890456485892
  0.0620608685487617  0.5788499659964020  0.4365773463875529
  0.0623118729076430  0.9047599019329011  0.4877563758109982
  0.1878518506552306  0.0978583765181421  0.5071396410052994
  0.4375533277324188  0.4226475100876839  0.5616139459026280
  0.3119829345372604  0.5787308865635711  0.4365325126777685
  0.3124416750522805  0.9047146537387186  0.4873913592448210
  0.4376402674138012  0.0972124844276315  0.5073403316487382
  0.6872340978566660  0.4227476681984670  0.5616762406548865
  0.5620557422616561  0.5787972305924624  0.4366721299444668
  0.5621008532412589  0.9043644975003606  0.4877468853246677
  0.6876648233370219  0.0979923141883465  0.5078351002979283
  0.9376024678601316  0.4228427326562365  0.5615089446623448
  0.8119882069650124  0.5789135000760864  0.4366735222700946
  0.8122980076842529  0.9047037619390822  0.4879560835150872
  0.9378055304452555  0.0975425783682476  0.5078793339430899
  0.0622718551961609  0.2268341410460812  0.5326745875453633
  0.1872275319659213  0.7751795003823754  0.4634932733314239
  0.3125442203154591  0.2266584193949739  0.5323689099483141
  0.4371697892438116  0.7751648311144664  0.4634462177223651
  0.5621175191525809  0.2268476557797631  0.5326168392843498
  0.6872814412040206  0.7752624901191839  0.4638055161114718
  0.8122846319827488  0.2267629027536432  0.5328661555170296
  0.9372496950340328  0.7753245663802008  0.4636543430831782
  0.0621193221346313  0.6979233589224250  0.5132765163542835
  0.1871829432024579  0.3046079962284969  0.4836209848060469
  0.0624325374056632  0.4358593898138740  0.4673934577110300
  0.1870754121486579  0.5661448047046308  0.5308197761425244
  0.1868206719003289  0.5262389711041040  0.3569651794009823
  0.0626528019373157  0.4747662728251925  0.6413130535338250
  0.1872463369571352  0.9840925478131000  0.4274364401918374
  0.0627131227754578  0.0181186654131299  0.5674036873216906
  0.0626835577262045  0.3364481742788601  0.6132289301237811
  0.1870324245668560  0.6645662807920184  0.3840828369549305
  0.1874366687019109  0.1733703096558476  0.6052748463639500
  0.0621505764292450  0.8280383162704940  0.3902607421600213
  0.0619579683993020  0.1470059663874051  0.4302983385647141
  0.1876073238714735  0.8559101214925348  0.5651263374218464
  0.3121537088988380  0.6978622421897742  0.5131485502439734
  0.4373695520499448  0.3044218487817621  0.4836562519683411
  0.3123802800871217  0.4357049705926253  0.4673576055436008
  0.4369914678131989  0.5661286722277515  0.5307919479792890
  0.4369864602196353  0.5259218446661168  0.3573089287770086
  0.3126432455738387  0.4746885868197163  0.6412530907373346
  0.4376476499832970  0.9837497840324263  0.4272375754858979
  0.3117744083318039  0.0179182715955339  0.5666661055021445
  0.3127978450269492  0.3359071937320658  0.6129015921976857
  0.4370257610008068  0.6644167778104650  0.3841004432809347
  0.4371649465085894  0.1719156423749064  0.6053505680849561
  0.3121664079061948  0.8276868279378636  0.3900261373835830
  0.3122925029040179  0.1471027405709687  0.4299577019665553
  0.4371579988429048  0.8560695283613008  0.5653162159759954
  0.5619910563668100  0.6978947242887249  0.5133261996676126
  0.6874968910857625  0.3046616141465774  0.4837994174585365
  0.5624854147119244  0.4357765240305587  0.4673944992884061
  0.6870533970772563  0.5662160994842889  0.5309405810315042
  0.6868922684467568  0.5264392420361650  0.3570083098100028
  0.5624869368286718  0.4749894581610963  0.6411475134735757
  0.6871767383901753  0.9841536075068060  0.4282588495554981
  0.5623009055772847  0.0181306693042491  0.5670063586599894
  0.5623605282639241  0.3358945481976104  0.6129895739148598
  0.6869803707154782  0.6647210552817776  0.3843413237951321
  0.6871192468231496  0.1736904078999419  0.6057794092470676
  0.5624810119105963  0.8276398622259352  0.3903145103030046
  0.5627001222502931  0.1472118969737321  0.4303000763358456
  0.6873624319338224  0.8558215524472028  0.5654875936487529
  0.8122375989973097  0.6979253938562486  0.5134499748439808
  0.9372512530232527  0.3045302861997429  0.4837637924857416
  0.8123596822033158  0.4359419661750858  0.4674890233360760
  0.9371156902799750  0.5661361094897425  0.5307970781899105
  0.9368004302664760  0.5262520156955557  0.3572156024757649
  0.8126911479460436  0.4747261949538221  0.6413844032433487
  0.9371806487022887  0.9841827315839634  0.4278461211057705
  0.8123175015766010  0.0181320005791156  0.5677005108985935
  0.8125809287474148  0.3366693669593370  0.6133461425641336
  0.9369844958420503  0.6646375235488228  0.3842108255923797
  0.9374415575301107  0.1736274115995552  0.6057304530552433
  0.8122037606688711  0.8280992289425266  0.3903832126351579
  0.8125083627406703  0.1468719086517166  0.4305662563750204
  0.9373960171987619  0.8559396085209428  0.5653619477733917
  0.4424447818435559  0.0291959765268511  0.6742057413023561
  0.4468025117442578  0.0253446088308715  0.7399610197798594
  0.4418587843288321 -0.0260231381877526  0.7488849734922454
 
  0.00000000E+00  0.00000000E+00  0.00000000E+00
  0.00000000E+00  0.00000000E+00  0.00000000E+00
  0.00000000E+00  0.00000000E+00  0.00000000E+00
  0.00000000E+00  0.00000000E+00  0.00000000E+00
  0.00000000E+00  0.00000000E+00  0.00000000E+00
  0.00000000E+00  0.00000000E+00  0.00000000E+00
  0.00000000E+00  0.00000000E+00  0.00000000E+00
  0.00000000E+00  0.00000000E+00  0.00000000E+00
  0.00000000E+00  0.00000000E+00  0.00000000E+00
  0.00000000E+00  0.00000000E+00  0.00000000E+00
  0.00000000E+00  0.00000000E+00  0.00000000E+00
  0.00000000E+00  0.00000000E+00  0.00000000E+00
  0.00000000E+00  0.00000000E+00  0.00000000E+00
  0.00000000E+00  0.00000000E+00  0.00000000E+00
  0.00000000E+00  0.00000000E+00  0.00000000E+00
  0.00000000E+00  0.00000000E+00  0.00000000E+00
  0.00000000E+00  0.00000000E+00  0.00000000E+00
  0.00000000E+00  0.00000000E+00  0.00000000E+00
  0.00000000E+00  0.00000000E+00  0.00000000E+00
  0.00000000E+00  0.00000000E+00  0.00000000E+00
  0.00000000E+00  0.00000000E+00  0.00000000E+00
  0.00000000E+00  0.00000000E+00  0.00000000E+00
  0.00000000E+00  0.00000000E+00  0.00000000E+00
  0.00000000E+00  0.00000000E+00  0.00000000E+00
  0.00000000E+00  0.00000000E+00  0.00000000E+00
  0.00000000E+00  0.00000000E+00  0.00000000E+00
  0.00000000E+00  0.00000000E+00  0.00000000E+00
  0.00000000E+00  0.00000000E+00  0.00000000E+00
  0.00000000E+00  0.00000000E+00  0.00000000E+00
  0.00000000E+00  0.00000000E+00  0.00000000E+00
  0.00000000E+00  0.00000000E+00  0.00000000E+00
  0.00000000E+00  0.00000000E+00  0.00000000E+00
  0.00000000E+00  0.00000000E+00  0.00000000E+00
  0.00000000E+00  0.00000000E+00  0.00000000E+00
  0.00000000E+00  0.00000000E+00  0.00000000E+00
  0.00000000E+00  0.00000000E+00  0.00000000E+00
  0.00000000E+00  0.00000000E+00  0.00000000E+00
  0.00000000E+00  0.00000000E+00  0.00000000E+00
  0.00000000E+00  0.00000000E+00  0.00000000E+00
  0.00000000E+00  0.00000000E+00  0.00000000E+00
  0.00000000E+00  0.00000000E+00  0.00000000E+00
  0.00000000E+00  0.00000000E+00  0.00000000E+00
  0.00000000E+00  0.00000000E+00  0.00000000E+00
  0.00000000E+00  0.00000000E+00  0.00000000E+00
  0.00000000E+00  0.00000000E+00  0.00000000E+00
  0.00000000E+00  0.00000000E+00  0.00000000E+00
  0.00000000E+00  0.00000000E+00  0.00000000E+00
  0.00000000E+00  0.00000000E+00  0.00000000E+00
  0.00000000E+00  0.00000000E+00  0.00000000E+00
  0.00000000E+00  0.00000000E+00  0.00000000E+00
  0.00000000E+00  0.00000000E+00  0.00000000E+00
  0.00000000E+00  0.00000000E+00  0.00000000E+00
  0.00000000E+00  0.00000000E+00  0.00000000E+00
  0.00000000E+00  0.00000000E+00  0.00000000E+00
  0.00000000E+00  0.00000000E+00  0.00000000E+00
  0.00000000E+00  0.00000000E+00  0.00000000E+00
  0.00000000E+00  0.00000000E+00  0.00000000E+00
  0.00000000E+00  0.00000000E+00  0.00000000E+00
  0.00000000E+00  0.00000000E+00  0.00000000E+00
  0.00000000E+00  0.00000000E+00  0.00000000E+00
  0.00000000E+00  0.00000000E+00  0.00000000E+00
  0.00000000E+00  0.00000000E+00  0.00000000E+00
  0.00000000E+00  0.00000000E+00  0.00000000E+00
  0.00000000E+00  0.00000000E+00  0.00000000E+00
  0.00000000E+00  0.00000000E+00  0.00000000E+00
  0.00000000E+00  0.00000000E+00  0.00000000E+00
  0.00000000E+00  0.00000000E+00  0.00000000E+00
  0.00000000E+00  0.00000000E+00  0.00000000E+00
  0.00000000E+00  0.00000000E+00  0.00000000E+00
  0.00000000E+00  0.00000000E+00  0.00000000E+00
  0.00000000E+00  0.00000000E+00  0.00000000E+00
  0.00000000E+00  0.00000000E+00  0.00000000E+00
  0.00000000E+00  0.00000000E+00  0.00000000E+00
  0.00000000E+00  0.00000000E+00  0.00000000E+00
  0.00000000E+00  0.00000000E+00  0.00000000E+00
  0.00000000E+00  0.00000000E+00  0.00000000E+00
  0.00000000E+00  0.00000000E+00  0.00000000E+00
  0.00000000E+00  0.00000000E+00  0.00000000E+00
  0.00000000E+00  0.00000000E+00  0.00000000E+00
  0.00000000E+00  0.00000000E+00  0.00000000E+00
  0.00000000E+00  0.00000000E+00  0.00000000E+00
  0.00000000E+00  0.00000000E+00  0.00000000E+00
  0.00000000E+00  0.00000000E+00  0.00000000E+00
