CONTCAR                                 
   1.00000000000000     
     9.5628004073999993    0.0000000000000000    0.0000000000000000
     1.9631085529000001   15.0429474850999991    0.0000000000000000
     0.0000000000000000   -0.3681273032000000   26.8431751801000011
   Li   Cr   P    O 
    16     8    32   105
Direct
  0.3278118797090175  0.2838698795778696  0.2777553364970649
  0.0634163326046808  0.1688712669292362  0.5182005782367558
  0.1745972032503334  0.2162379277944939  0.7227740702249125
  0.4380879490803089  0.3317565041586069  0.4823024873126412
  0.8280011411526736  0.2838173780860159  0.2777694212023626
  0.5633598018196448  0.1690459169246773  0.5181399083355150
  0.6744052467835554  0.2161254652768967  0.7228936878738612
  0.9379402434183713  0.3313401137365698  0.4823154148648733
  0.3281854854371747  0.7832360496035098  0.2779177144234165
  0.0634277065739286  0.6684486515013854  0.5181445875465837
  0.1662131052456050  0.7169717456150796  0.7239169671605629
  0.4380292684833914  0.8313544091743181  0.4821481787969506
  0.8281385428094028  0.7833974241428761  0.2778563738036135
  0.5640728442989149  0.6687302153851122  0.5182131920842656
  0.6748697164284744  0.7190391661861101  0.7272167175819654
  0.9381127167032227  0.8310784617088440  0.4823318293920778
  0.1988437769550885  0.0627684246088090  0.6200340872889858
  0.3032943299992469  0.4373154340867066  0.3804176688950630
  0.6988407896500320  0.0624368821007464  0.6201130387419651
  0.8031998142943876  0.4373415876606686  0.3804215061008013
  0.1978689134507211  0.5626819091348728  0.6200786163728608
  0.3030584046683089  0.9374753396541265  0.3802952677361167
  0.6983316066551440  0.5629829384751910  0.6205809321769121
  0.8030545989428218  0.9374710130247482  0.3803282837948818
  0.4616599495929697  0.4679163928198221  0.5681224960925569
  0.1258779298239566  0.3759751848174114  0.6438741041702016
  0.3065491132927667  0.2419898093982520  0.5831562042127111
  0.0402078323271081  0.0321014053261566  0.4326667892395105
  0.4318532096304566  0.1560238648396840  0.6749973842715805
  0.3757731594239582  0.1242290767902801  0.3566724615849981
  0.1951435943871933  0.2582765260247403  0.4173646506557186
  0.0702863394399940  0.3441315327258990  0.3254349456507531
  0.9609243092205210  0.4679323456285068  0.5680248683878707
  0.6262274665998022  0.3759299561109733  0.6440152323693544
  0.8064944109315936  0.2417863434708854  0.5832330334013364
  0.5401732126648032  0.0321862750642541  0.4326295468074594
  0.9317536021565059  0.1558180477515354  0.6750804577045962
  0.8757771218620238  0.1242360130956621  0.3567499625531569
  0.6951945809669924  0.2582986363032196  0.4173773140066614
  0.5703323579764560  0.3440869418532203  0.3254433809182132
  0.4616171365476486  0.9679005418253028  0.5677260094781766
  0.1257708114005822  0.8760014250320185  0.6435791691124281
  0.3060759594594957  0.7417686326797955  0.5828613553574703
  0.0404831886820965  0.5316983641680293  0.4328187637335350
  0.4316122048457244  0.6559536085505403  0.6745458006014445
  0.3765122519455360  0.6240913817355265  0.3570115498810035
  0.1954421885842101  0.7582958065274821  0.4175188183756072
  0.0703354582503130  0.8437762618414800  0.3255105970512361
  0.9616384686582238  0.9681901411370731  0.5676098653481016
  0.6262336227617481  0.8754280505495361  0.6434941874522542
  0.8062882570538413  0.7417709167931201  0.5829420688648320
  0.5405610771729659  0.5317043984509132  0.4329720123376273
  0.9314425159113826  0.6568100057714437  0.6750573354569932
  0.8761784971600196  0.6241540989475115  0.3569801400194928
  0.6953777271416060  0.7583592080066304  0.4174980638283448
  0.5703789262068936  0.8438760703721994  0.3254725933720106
  0.3587705524204939  0.0760374963169655  0.6577169901339255
  0.9790695581862177  0.4046637508107282  0.6173586979679734
  0.1143663694460686  0.3143719247040072  0.6851085975282158
  0.4073425940433484  0.2266239787994114  0.6299605464363591
  0.1991757323577782  0.4982891474734091  0.4324374408884453
  0.4092089946822147  0.3702976811076166  0.3254839686914967
  0.2170842877246347  0.3346121839914554  0.5964917117176147
  0.0123174979693628  0.4155534846741323  0.5233811796837607
  0.0929128415422184  0.1297336960139291  0.6749870647956302
  0.1257531566625241  0.3031848459429764  0.2772580822022615
  0.3764510620026031  0.1968619169230959  0.7232060853887868
  0.2845099484480940  0.1656404417574118  0.4040346059020509
  0.3129447963471491  0.0399965202867849  0.3422972830252318
  0.4624703953670243  0.4503913289241918  0.4191823468746565
  0.2033667414628044  0.1726351742104584  0.5816727790882360
  0.1122687021239774  0.2494092569606579  0.4634311281560518
  0.4885641838455156  0.0845610906680003  0.4772606073479984
  0.3030018364890630  0.0017183037423057  0.5681096710428999
  0.3892690662307517  0.2509612228238158  0.5370603217726442
  0.2984443827205496  0.3275540646297725  0.4188564237106823
  0.0945828397482888  0.2736448491129896  0.3705124928020789
  0.0396980052952096  0.0495364635879618  0.5813465920345703
  0.1886613973882921  0.4602818949127005  0.6581582564232905
  0.1434156521020259  0.4241352341913293  0.3426363979792565
  0.5224284304613970  0.0955360718094444  0.3832896887830174
  0.3876085069300494  0.1857841610179187  0.3154344298665278
  0.8588621741791396  0.0757454382930558  0.6577763308230196
  0.4793917409998469  0.4046394286999443  0.6174512139660078
  0.6145602332804232  0.3142781945554241  0.6852156218352278
  0.9071700885763787  0.2264296855845511  0.6300669887180759
  0.6992265189816754  0.4981616100324526  0.4325157670179327
  0.9091739203681428  0.3703988915522676  0.3254625776368223
  0.7172036893042211  0.3344597073147167  0.5966029882780636
  0.5134434461272270  0.4155663186089903  0.5235103540501305
  0.5929565956622037  0.1297204340788127  0.6749415457660829
  0.6259044420991112  0.3032180111295820  0.2772614397449585
  0.8763145700436149  0.1965412356042434  0.7233071681283777
  0.7845131295731929  0.1656151837047158  0.4041203037001607
  0.8130059016224794  0.0399918850994447  0.3423514457507172
  0.9625850147736281  0.4503119011381445  0.4190098497781907
  0.7033538200631935  0.1724347527529994  0.5817161684439625
  0.6122301373795952  0.2495987604759106  0.4634480414761908
  0.9885992765893877  0.0844296408869796  0.4773125374162338
  0.8029762494904573  0.0017744024680078  0.5680454386386316
  0.8893255534288138  0.2507282148305948  0.5371578678865193
  0.7985943035601689  0.3275092131695740  0.4188199975427980
  0.5946721959398324  0.2735855810426634  0.3705034028251498
  0.5398039180397386  0.0491914227523778  0.5814878865080737
  0.6888720153211024  0.4602208474375314  0.6583897944699675
  0.6432736084007460  0.4241391339340733  0.3426926539840600
  0.0224419489377474  0.0955270245027577  0.3833615328418071
  0.8876035486568289  0.1858280823664677  0.3155353811721296
  0.3581251312234705  0.5760892614614025  0.6579952765127435
  0.9792394995692362  0.9048157104798227  0.6169319460554663
  0.1139194440494990  0.8145133189355215  0.6848219941779993
  0.4067656947476297  0.7266341824303221  0.6298462945977829
  0.1988276175634653  0.9985641479922126  0.4322252302347552
  0.4092732291429909  0.8700943289428975  0.3254939410533177
  0.2168730587260862  0.8343541113606565  0.5962062050154976
  0.0131148524488423  0.9157391082226040  0.5229904347373076
  0.0926392823745855  0.6298849011206191  0.6744587994175331
  0.1260637777697782  0.8026250320368146  0.2774161854906175
  0.3699762570746356  0.6972751527453300  0.7225665003940406
  0.2851496596869245  0.6657116504470000  0.4043007267618815
  0.3133531090371399  0.5399901575770545  0.3426217134446921
  0.4621609069361129  0.9508149340469338  0.4188877891817930
  0.2032396127053405  0.6723108228287414  0.5813925946980656
  0.1125553377560436  0.7493065348295498  0.4635739216772502
  0.4890486875079919  0.5840230705701425  0.4776377414185733
  0.3029503806248729  0.5014302926589211  0.5684134375843507
  0.3894288053051526  0.7505643056947824  0.5369117086418806
  0.2984142189784307  0.8277570330121431  0.4189500527135979
  0.0947255854021683  0.7734862463568706  0.3706873935204282
  0.0389919046351737  0.5493749895253065  0.5815415000451817
  0.1890333820398564  0.9601113253354487  0.6578696484424933
  0.1433145318340141  0.9239209892362490  0.3426079549072911
  0.5229599689833938  0.5952325675134745  0.3837080281719554
  0.3887731259771412  0.6855358520888762  0.3157535130446752
  0.8576240352928346  0.5768170257145925  0.6583455738246825
  0.4792837883623031  0.9044404284060423  0.6169676295092434
  0.6152497064761074  0.8132822815266031  0.6844253430065067
  0.9068621976430075  0.7267929188728665  0.6297985371306826
  0.6988136587507673  0.9986366965321674  0.4322278785809039
  0.9092500870343039  0.8700707256062414  0.3255161137641157
  0.7171968734299186  0.8346470196248180  0.5958541929585651
  0.5129275330996022  0.9156954840951272  0.5230047296712034
  0.5918294550463019  0.6302337481382332  0.6755747830971486
  0.6260569317828674  0.8028677893715838  0.2773404960499600
  0.8797188913716202  0.6983340235964566  0.7234575707293202
  0.7851088466509859  0.6657512179731527  0.4043371031474582
  0.8129253940130846  0.5400752693637432  0.3426329793323768
  0.9621930601966086  0.9507403125502556  0.4189045366518265
  0.7030005671046439  0.6724744775224203  0.5817239887684478
  0.6123364990490798  0.7494446500535425  0.4635225032323294
  0.9886456359560118  0.5839257737987241  0.4774718337745206
  0.8023975692692461  0.5016542238283099  0.5686091842360076
  0.8894068815966408  0.7501661303963859  0.5368604792005234
  0.7983674962732377  0.8278037269580236  0.4189768773168420
  0.5948878394610622  0.7735051753790747  0.3706088629265373
  0.5393769674705681  0.5493998325889069  0.5818868824318428
  0.6888957847301042  0.9598633367148904  0.6578556638857549
  0.6433142884738774  0.9240244974815166  0.3426187065067145
  0.0227895431788086  0.5952294045420164  0.3835579865467391
  0.8881976884525553  0.6856465913360897  0.3157327352307589
  0.5290818398435047  0.7121260252121310  0.7821433441626886
 
  0.00000000E+00  0.00000000E+00  0.00000000E+00
  0.00000000E+00  0.00000000E+00  0.00000000E+00
  0.00000000E+00  0.00000000E+00  0.00000000E+00
  0.00000000E+00  0.00000000E+00  0.00000000E+00
  0.00000000E+00  0.00000000E+00  0.00000000E+00
  0.00000000E+00  0.00000000E+00  0.00000000E+00
  0.00000000E+00  0.00000000E+00  0.00000000E+00
  0.00000000E+00  0.00000000E+00  0.00000000E+00
  0.00000000E+00  0.00000000E+00  0.00000000E+00
  0.00000000E+00  0.00000000E+00  0.00000000E+00
  0.00000000E+00  0.00000000E+00  0.00000000E+00
  0.00000000E+00  0.00000000E+00  0.00000000E+00
  0.00000000E+00  0.00000000E+00  0.00000000E+00
  0.00000000E+00  0.00000000E+00  0.00000000E+00
  0.00000000E+00  0.00000000E+00  0.00000000E+00
  0.00000000E+00  0.00000000E+00  0.00000000E+00
  0.00000000E+00  0.00000000E+00  0.00000000E+00
  0.00000000E+00  0.00000000E+00  0.00000000E+00
  0.00000000E+00  0.00000000E+00  0.00000000E+00
  0.00000000E+00  0.00000000E+00  0.00000000E+00
  0.00000000E+00  0.00000000E+00  0.00000000E+00
  0.00000000E+00  0.00000000E+00  0.00000000E+00
  0.00000000E+00  0.00000000E+00  0.00000000E+00
  0.00000000E+00  0.00000000E+00  0.00000000E+00
  0.00000000E+00  0.00000000E+00  0.00000000E+00
  0.00000000E+00  0.00000000E+00  0.00000000E+00
  0.00000000E+00  0.00000000E+00  0.00000000E+00
  0.00000000E+00  0.00000000E+00  0.00000000E+00
  0.00000000E+00  0.00000000E+00  0.00000000E+00
  0.00000000E+00  0.00000000E+00  0.00000000E+00
  0.00000000E+00  0.00000000E+00  0.00000000E+00
  0.00000000E+00  0.00000000E+00  0.00000000E+00
  0.00000000E+00  0.00000000E+00  0.00000000E+00
  0.00000000E+00  0.00000000E+00  0.00000000E+00
  0.00000000E+00  0.00000000E+00  0.00000000E+00
  0.00000000E+00  0.00000000E+00  0.00000000E+00
  0.00000000E+00  0.00000000E+00  0.00000000E+00
  0.00000000E+00  0.00000000E+00  0.00000000E+00
  0.00000000E+00  0.00000000E+00  0.00000000E+00
  0.00000000E+00  0.00000000E+00  0.00000000E+00
  0.00000000E+00  0.00000000E+00  0.00000000E+00
  0.00000000E+00  0.00000000E+00  0.00000000E+00
  0.00000000E+00  0.00000000E+00  0.00000000E+00
  0.00000000E+00  0.00000000E+00  0.00000000E+00
  0.00000000E+00  0.00000000E+00  0.00000000E+00
  0.00000000E+00  0.00000000E+00  0.00000000E+00
  0.00000000E+00  0.00000000E+00  0.00000000E+00
  0.00000000E+00  0.00000000E+00  0.00000000E+00
  0.00000000E+00  0.00000000E+00  0.00000000E+00
  0.00000000E+00  0.00000000E+00  0.00000000E+00
  0.00000000E+00  0.00000000E+00  0.00000000E+00
  0.00000000E+00  0.00000000E+00  0.00000000E+00
  0.00000000E+00  0.00000000E+00  0.00000000E+00
  0.00000000E+00  0.00000000E+00  0.00000000E+00
  0.00000000E+00  0.00000000E+00  0.00000000E+00
  0.00000000E+00  0.00000000E+00  0.00000000E+00
  0.00000000E+00  0.00000000E+00  0.00000000E+00
  0.00000000E+00  0.00000000E+00  0.00000000E+00
  0.00000000E+00  0.00000000E+00  0.00000000E+00
  0.00000000E+00  0.00000000E+00  0.00000000E+00
  0.00000000E+00  0.00000000E+00  0.00000000E+00
  0.00000000E+00  0.00000000E+00  0.00000000E+00
  0.00000000E+00  0.00000000E+00  0.00000000E+00
  0.00000000E+00  0.00000000E+00  0.00000000E+00
  0.00000000E+00  0.00000000E+00  0.00000000E+00
  0.00000000E+00  0.00000000E+00  0.00000000E+00
  0.00000000E+00  0.00000000E+00  0.00000000E+00
  0.00000000E+00  0.00000000E+00  0.00000000E+00
  0.00000000E+00  0.00000000E+00  0.00000000E+00
  0.00000000E+00  0.00000000E+00  0.00000000E+00
  0.00000000E+00  0.00000000E+00  0.00000000E+00
  0.00000000E+00  0.00000000E+00  0.00000000E+00
  0.00000000E+00  0.00000000E+00  0.00000000E+00
  0.00000000E+00  0.00000000E+00  0.00000000E+00
  0.00000000E+00  0.00000000E+00  0.00000000E+00
  0.00000000E+00  0.00000000E+00  0.00000000E+00
  0.00000000E+00  0.00000000E+00  0.00000000E+00
  0.00000000E+00  0.00000000E+00  0.00000000E+00
  0.00000000E+00  0.00000000E+00  0.00000000E+00
  0.00000000E+00  0.00000000E+00  0.00000000E+00
  0.00000000E+00  0.00000000E+00  0.00000000E+00
  0.00000000E+00  0.00000000E+00  0.00000000E+00
  0.00000000E+00  0.00000000E+00  0.00000000E+00
  0.00000000E+00  0.00000000E+00  0.00000000E+00
  0.00000000E+00  0.00000000E+00  0.00000000E+00
  0.00000000E+00  0.00000000E+00  0.00000000E+00
  0.00000000E+00  0.00000000E+00  0.00000000E+00
  0.00000000E+00  0.00000000E+00  0.00000000E+00
  0.00000000E+00  0.00000000E+00  0.00000000E+00
  0.00000000E+00  0.00000000E+00  0.00000000E+00
  0.00000000E+00  0.00000000E+00  0.00000000E+00
  0.00000000E+00  0.00000000E+00  0.00000000E+00
  0.00000000E+00  0.00000000E+00  0.00000000E+00
  0.00000000E+00  0.00000000E+00  0.00000000E+00
  0.00000000E+00  0.00000000E+00  0.00000000E+00
  0.00000000E+00  0.00000000E+00  0.00000000E+00
  0.00000000E+00  0.00000000E+00  0.00000000E+00
  0.00000000E+00  0.00000000E+00  0.00000000E+00
  0.00000000E+00  0.00000000E+00  0.00000000E+00
  0.00000000E+00  0.00000000E+00  0.00000000E+00
  0.00000000E+00  0.00000000E+00  0.00000000E+00
  0.00000000E+00  0.00000000E+00  0.00000000E+00
  0.00000000E+00  0.00000000E+00  0.00000000E+00
  0.00000000E+00  0.00000000E+00  0.00000000E+00
  0.00000000E+00  0.00000000E+00  0.00000000E+00
  0.00000000E+00  0.00000000E+00  0.00000000E+00
  0.00000000E+00  0.00000000E+00  0.00000000E+00
  0.00000000E+00  0.00000000E+00  0.00000000E+00
  0.00000000E+00  0.00000000E+00  0.00000000E+00
  0.00000000E+00  0.00000000E+00  0.00000000E+00
  0.00000000E+00  0.00000000E+00  0.00000000E+00
  0.00000000E+00  0.00000000E+00  0.00000000E+00
  0.00000000E+00  0.00000000E+00  0.00000000E+00
  0.00000000E+00  0.00000000E+00  0.00000000E+00
  0.00000000E+00  0.00000000E+00  0.00000000E+00
  0.00000000E+00  0.00000000E+00  0.00000000E+00
  0.00000000E+00  0.00000000E+00  0.00000000E+00
  0.00000000E+00  0.00000000E+00  0.00000000E+00
  0.00000000E+00  0.00000000E+00  0.00000000E+00
  0.00000000E+00  0.00000000E+00  0.00000000E+00
  0.00000000E+00  0.00000000E+00  0.00000000E+00
  0.00000000E+00  0.00000000E+00  0.00000000E+00
  0.00000000E+00  0.00000000E+00  0.00000000E+00
  0.00000000E+00  0.00000000E+00  0.00000000E+00
  0.00000000E+00  0.00000000E+00  0.00000000E+00
  0.00000000E+00  0.00000000E+00  0.00000000E+00
  0.00000000E+00  0.00000000E+00  0.00000000E+00
  0.00000000E+00  0.00000000E+00  0.00000000E+00
  0.00000000E+00  0.00000000E+00  0.00000000E+00
  0.00000000E+00  0.00000000E+00  0.00000000E+00
  0.00000000E+00  0.00000000E+00  0.00000000E+00
  0.00000000E+00  0.00000000E+00  0.00000000E+00
  0.00000000E+00  0.00000000E+00  0.00000000E+00
  0.00000000E+00  0.00000000E+00  0.00000000E+00
  0.00000000E+00  0.00000000E+00  0.00000000E+00
  0.00000000E+00  0.00000000E+00  0.00000000E+00
  0.00000000E+00  0.00000000E+00  0.00000000E+00
  0.00000000E+00  0.00000000E+00  0.00000000E+00
  0.00000000E+00  0.00000000E+00  0.00000000E+00
  0.00000000E+00  0.00000000E+00  0.00000000E+00
  0.00000000E+00  0.00000000E+00  0.00000000E+00
  0.00000000E+00  0.00000000E+00  0.00000000E+00
  0.00000000E+00  0.00000000E+00  0.00000000E+00
  0.00000000E+00  0.00000000E+00  0.00000000E+00
  0.00000000E+00  0.00000000E+00  0.00000000E+00
  0.00000000E+00  0.00000000E+00  0.00000000E+00
  0.00000000E+00  0.00000000E+00  0.00000000E+00
  0.00000000E+00  0.00000000E+00  0.00000000E+00
  0.00000000E+00  0.00000000E+00  0.00000000E+00
  0.00000000E+00  0.00000000E+00  0.00000000E+00
  0.00000000E+00  0.00000000E+00  0.00000000E+00
  0.00000000E+00  0.00000000E+00  0.00000000E+00
  0.00000000E+00  0.00000000E+00  0.00000000E+00
  0.00000000E+00  0.00000000E+00  0.00000000E+00
  0.00000000E+00  0.00000000E+00  0.00000000E+00
  0.00000000E+00  0.00000000E+00  0.00000000E+00
  0.00000000E+00  0.00000000E+00  0.00000000E+00
  0.00000000E+00  0.00000000E+00  0.00000000E+00
  0.00000000E+00  0.00000000E+00  0.00000000E+00
  0.00000000E+00  0.00000000E+00  0.00000000E+00
  0.00000000E+00  0.00000000E+00  0.00000000E+00
