CONTCAR                                 
   1.00000000000000     
    13.7187995910999998    0.0000000000000000    0.0000000000000000
    -4.5729412920000003   17.9978325079000001    0.0000000000000000
     0.0000000000000000    0.0000000000000000   21.4340000153000005
   Ag   Te   Mo   O 
     6    36    36     1
Direct
 -0.0009870239706639 -0.0008047327491886  0.5035322274884719
  0.3130194754847445  0.0007901888066153  0.5024597401014907
  0.7013849496922675 -0.0011801633361462  0.5014624961150884
 -0.0235005485485560  0.5008636491632712  0.4995654882743163
  0.3138630898241358  0.5024167499939581  0.5058127788925419
  0.7023754715033435  0.4970344999123791  0.4954620438681268
  0.2563479520716978  0.2713404286725373  0.6521259894859268
  0.1344515387872354  0.4136536935051701  0.5696398696368192
  0.1934628064472543  0.0874315398835969  0.4342009165945758
  0.0354154941430034  0.1064090584530098  0.5978303367997587
  0.2984958068566726  0.3949577059945674  0.4081595723517575
  0.0766013595850557  0.2313114343013226  0.3524922579418812
  0.5896131698824276  0.2709876234051499  0.6519397211830721
  0.4711953511842188  0.4152749235983780  0.5646129949537837
  0.5276557831670630  0.0849827642372076  0.4396937032490490
  0.3686455202492657  0.1074748512138298  0.5984399037206495
  0.6282279820278965  0.3918232648524489  0.4046112007200951
  0.4090863887671645  0.2290042236490417  0.3526666844000915
  0.9223287306385922  0.2686513624882559  0.6520848580994015
  0.8052354253093499  0.4114239200790281  0.5741104313656051
  0.8658417028203355  0.0872261639673901  0.4319967887379098
  0.6995320599150701  0.1049890545095753  0.5968823111448233
  0.9642159191693097  0.3934653678205798  0.4066593533924624
  0.7420242540363199  0.2287894039137537  0.3528263688440044
  0.2538851861356213  0.7723765984671838  0.6503960317359626
  0.1342223910587867  0.9126460199603357  0.5701381148897500
  0.1944108180023561  0.5870994523631936  0.4344169214705970
  0.0366871411451892  0.6052431619084485  0.5948230979228885
  0.2974815012860292  0.8947474358123424  0.4054311019477893
  0.0780969437226944  0.7321288191259889  0.3501940515671719
  0.5700796497796280  0.8113896285661079  0.6541478212227104
  0.4711193111647826  0.9196648025087728  0.5617507626190082
  0.5262595884884254  0.5865048389353152  0.4418301875070308
  0.3730033709131989  0.6127199771498864  0.6003340437001859
  0.6300870002403701  0.8938842231041763  0.4044112075773402
  0.4100250807265590  0.7289435981882945  0.3520465297235156
  0.9223657700211093  0.7646974140448726  0.6499270949544808
  0.8065828437516483  0.9088656510624700  0.5732939858310074
  0.8645043503451170  0.5891037565084722  0.4244672263222258
  0.7029751046337590  0.5982140347287799  0.5907324264928555
  0.9637767810586603  0.8949625342254613  0.4062171135459718
  0.7413688524282198  0.7320326317154654  0.3506670748701133
  0.1058828183692911  0.3196336629235361  0.4602956612047551
  0.2267856125994747  0.1819008557766540  0.5445057867925309
  0.0570882333796977  0.1720544756278616  0.4743922323961723
  0.2758993241813783  0.3293828976477038  0.5303898231246023
  0.0858716027296757  0.2595251493654475  0.5734950351588216
  0.2465772432849843  0.2414361933263224  0.4312208896850058
  0.4390773458283910  0.3190751191079044  0.4595520884981177
  0.5593387962371983  0.1809914458907738  0.5451025427906443
  0.3898301019692709  0.1715304327621104  0.4747727952123911
  0.6087785808289882  0.3287813594757703  0.5299342507213829
  0.4193754073324442  0.2606587232407711  0.5732928382894084
  0.5793412667846417  0.2395448898466573  0.4314826913875366
  0.7719696523704274  0.3182320178801726  0.4603745160382372
  0.8931477451091745  0.1804195189104795  0.5441269859601613
  0.7227798218799999  0.1705403856743274  0.4743785428376113
  0.9420656057081128  0.3280992258421009  0.5304027601910524
  0.7522150771747261  0.2580757872592301  0.5734595756271779
  0.9128180307757752  0.2408813172198743  0.4311525153188236
  0.1056121837710419  0.8196467571885044  0.4585044307024519
  0.2266963896184420  0.6818184798485180  0.5433303193638886
  0.0573431904147187  0.6717518501717503  0.4713828623570834
  0.2747501543170974  0.8297574206136547  0.5283400702775001
  0.0851301310327594  0.7583630121226861  0.5710298931573083
  0.2470630850277207  0.7413756714633170  0.4299573472762397
  0.4396027788118549  0.8203023376422743  0.4578675246851173
  0.5618226235056474  0.6827815164137949  0.5464940380599081
  0.3911238448107312  0.6728830901281510  0.4748083482635298
  0.6105168475101164  0.8323750519638031  0.5275083156548449
  0.4175047409419503  0.7647252124122420  0.5723449929090784
  0.5794697046307270  0.7407164270731308  0.4309742108086528
  0.7729010074058162  0.8190906011865433  0.4594686626005651
  0.8932881993276341  0.6792954320926827  0.5404733280352448
  0.7231496433620818  0.6713573017854370  0.4711853489751733
  0.9414887614539929  0.8272235605836206  0.5288918591209795
  0.7509980203563916  0.7531235547897669  0.5722888728985246
  0.9134400894723140  0.7419578682314277  0.4283639917171582
  0.6329226937399572  0.7235517957997319  0.6386012206400252
 
  0.00000000E+00  0.00000000E+00  0.00000000E+00
  0.00000000E+00  0.00000000E+00  0.00000000E+00
  0.00000000E+00  0.00000000E+00  0.00000000E+00
  0.00000000E+00  0.00000000E+00  0.00000000E+00
  0.00000000E+00  0.00000000E+00  0.00000000E+00
  0.00000000E+00  0.00000000E+00  0.00000000E+00
  0.00000000E+00  0.00000000E+00  0.00000000E+00
  0.00000000E+00  0.00000000E+00  0.00000000E+00
  0.00000000E+00  0.00000000E+00  0.00000000E+00
  0.00000000E+00  0.00000000E+00  0.00000000E+00
  0.00000000E+00  0.00000000E+00  0.00000000E+00
  0.00000000E+00  0.00000000E+00  0.00000000E+00
  0.00000000E+00  0.00000000E+00  0.00000000E+00
  0.00000000E+00  0.00000000E+00  0.00000000E+00
  0.00000000E+00  0.00000000E+00  0.00000000E+00
  0.00000000E+00  0.00000000E+00  0.00000000E+00
  0.00000000E+00  0.00000000E+00  0.00000000E+00
  0.00000000E+00  0.00000000E+00  0.00000000E+00
  0.00000000E+00  0.00000000E+00  0.00000000E+00
  0.00000000E+00  0.00000000E+00  0.00000000E+00
  0.00000000E+00  0.00000000E+00  0.00000000E+00
  0.00000000E+00  0.00000000E+00  0.00000000E+00
  0.00000000E+00  0.00000000E+00  0.00000000E+00
  0.00000000E+00  0.00000000E+00  0.00000000E+00
  0.00000000E+00  0.00000000E+00  0.00000000E+00
  0.00000000E+00  0.00000000E+00  0.00000000E+00
  0.00000000E+00  0.00000000E+00  0.00000000E+00
  0.00000000E+00  0.00000000E+00  0.00000000E+00
  0.00000000E+00  0.00000000E+00  0.00000000E+00
  0.00000000E+00  0.00000000E+00  0.00000000E+00
  0.00000000E+00  0.00000000E+00  0.00000000E+00
  0.00000000E+00  0.00000000E+00  0.00000000E+00
  0.00000000E+00  0.00000000E+00  0.00000000E+00
  0.00000000E+00  0.00000000E+00  0.00000000E+00
  0.00000000E+00  0.00000000E+00  0.00000000E+00
  0.00000000E+00  0.00000000E+00  0.00000000E+00
  0.00000000E+00  0.00000000E+00  0.00000000E+00
  0.00000000E+00  0.00000000E+00  0.00000000E+00
  0.00000000E+00  0.00000000E+00  0.00000000E+00
  0.00000000E+00  0.00000000E+00  0.00000000E+00
  0.00000000E+00  0.00000000E+00  0.00000000E+00
  0.00000000E+00  0.00000000E+00  0.00000000E+00
  0.00000000E+00  0.00000000E+00  0.00000000E+00
  0.00000000E+00  0.00000000E+00  0.00000000E+00
  0.00000000E+00  0.00000000E+00  0.00000000E+00
  0.00000000E+00  0.00000000E+00  0.00000000E+00
  0.00000000E+00  0.00000000E+00  0.00000000E+00
  0.00000000E+00  0.00000000E+00  0.00000000E+00
  0.00000000E+00  0.00000000E+00  0.00000000E+00
  0.00000000E+00  0.00000000E+00  0.00000000E+00
  0.00000000E+00  0.00000000E+00  0.00000000E+00
  0.00000000E+00  0.00000000E+00  0.00000000E+00
  0.00000000E+00  0.00000000E+00  0.00000000E+00
  0.00000000E+00  0.00000000E+00  0.00000000E+00
  0.00000000E+00  0.00000000E+00  0.00000000E+00
  0.00000000E+00  0.00000000E+00  0.00000000E+00
  0.00000000E+00  0.00000000E+00  0.00000000E+00
  0.00000000E+00  0.00000000E+00  0.00000000E+00
  0.00000000E+00  0.00000000E+00  0.00000000E+00
  0.00000000E+00  0.00000000E+00  0.00000000E+00
  0.00000000E+00  0.00000000E+00  0.00000000E+00
  0.00000000E+00  0.00000000E+00  0.00000000E+00
  0.00000000E+00  0.00000000E+00  0.00000000E+00
  0.00000000E+00  0.00000000E+00  0.00000000E+00
  0.00000000E+00  0.00000000E+00  0.00000000E+00
  0.00000000E+00  0.00000000E+00  0.00000000E+00
  0.00000000E+00  0.00000000E+00  0.00000000E+00
  0.00000000E+00  0.00000000E+00  0.00000000E+00
  0.00000000E+00  0.00000000E+00  0.00000000E+00
  0.00000000E+00  0.00000000E+00  0.00000000E+00
  0.00000000E+00  0.00000000E+00  0.00000000E+00
  0.00000000E+00  0.00000000E+00  0.00000000E+00
  0.00000000E+00  0.00000000E+00  0.00000000E+00
  0.00000000E+00  0.00000000E+00  0.00000000E+00
  0.00000000E+00  0.00000000E+00  0.00000000E+00
  0.00000000E+00  0.00000000E+00  0.00000000E+00
  0.00000000E+00  0.00000000E+00  0.00000000E+00
  0.00000000E+00  0.00000000E+00  0.00000000E+00
  0.00000000E+00  0.00000000E+00  0.00000000E+00
