CONTCAR\(4)                             
   1.00000000000000     
    12.5853996276999993    0.0000000000000000    0.0000000000000000
     0.0000000000000000   10.3535003662000005    0.0000000000000000
     0.0000000000000000    0.0000000000000000   22.0041007995999998
   Cu   O    F    H 
    36    14    60     1
Direct
  0.0041946632437013  0.2195265695931949  0.3637462807265361
  0.1700355052198241  0.4770468945275754  0.3638899549857761
 -0.0006355921878073  0.0238314946625278  0.6385592373406624
  0.1639813654157154  0.2813260634397607  0.6403851827802695
  0.1465456908000470  0.1313345718737914  0.4856993705539618
  0.3120423654268615  0.3702689805561560  0.5221501558765773
  0.3336114213942589  0.2184982078973739  0.3626554572030135
  0.5002346081050207  0.4772384256522382  0.3631666424649737
  0.3374860507512761  0.0249093266114122  0.6407589024069421
  0.5090473713062685  0.2803092882268842  0.6397382355256309
  0.4760006175932742  0.1320284859840601  0.4846802514987487
  0.6435094623460299  0.3705493063404632  0.5165148420865153
  0.6666543168540172  0.2191360859919531  0.3615740199758901
  0.8363966741590275  0.4779076726382412  0.3620030299325513
  0.6719791436105073  0.0230757385591543  0.6390624663861153
  0.8341845327250084  0.2822670257520440  0.6383219775462214
  0.8101950701267930  0.1307425909748036  0.4829699636578436
  0.9786172257918501  0.3714905896882978  0.5152539230332160
  0.0042584971579242  0.7190509292510966  0.3642523321929230
  0.1699875163746409  0.9770132845773238  0.3631267665672113
 -0.0020620115735753  0.5247475720000098  0.6376065351624904
  0.1648210014750814  0.7847862722096955  0.6389096726558517
  0.1481095142927091  0.6302980766574239  0.4868414528987597
  0.3120913952392186  0.8730438815755004  0.5188574985021468
  0.3343205855132760  0.7183897018298986  0.3636685627248387
  0.5008861406246959  0.9772108697919207  0.3624385657056894
  0.3325084089626878  0.5260219655275046  0.6424347422932156
  0.5060900081438963  0.7830791110828130  0.6386785709944532
  0.4738458421868090  0.6286971644633602  0.4871886951008513
  0.6448335507061361  0.8714064921300844  0.5151427482941016
  0.6666721300552333  0.7188039762625570  0.3625056349150768
  0.8365925388041277  0.9777790902758016  0.3613847904462266
  0.6729825672380311  0.5239075119720552  0.6393608299889584
  0.8351978273140670  0.7827316179771420  0.6381852301631287
  0.8106688482121484  0.6303900170594728  0.4839457989126394
  0.9778234156973685  0.8730055507173905  0.5149103653278400
  0.2744117749247238  0.3768484666448541  0.6093398168909603
  0.1102337667260142  0.1224411553315485  0.3982264255161283
  0.6140438431222220  0.3776728430045836  0.6042632199429738
  0.4394154712593809  0.1217614500579093  0.3975822386511603
  0.9374423225635156  0.3802859179813023  0.6019662024939140
  0.7735735711862690  0.1225633503681590  0.3955505977005614
  0.2734558484141584  0.8811375846588133  0.6061112929478566
  0.1101858127308613  0.6219624439982233  0.3992974810971218
  0.6123003892080239  0.8781762064265093  0.6037244648941582
  0.4391868578512865  0.6211586996102031  0.3993194514338728
  0.9399580600798845  0.8795423404128566  0.6025423142746520
  0.7732814185681454  0.6220450614358269  0.3966058060990182
  0.2746252218837908  0.5072399157901518  0.7359438838538221
  0.3455198222272938  0.4519606013403640  0.7723346102110596
  0.2775889557483349  0.0736492363996993  0.3225992795157049
  0.0560111047343016  0.1760527764953191  0.6759362783238454
  0.2265335310235731  0.3245908070564045  0.3261745824721536
  0.1017449904675116  0.4252484058683572  0.6780111480057436
  0.2257898091905985  0.1290335064879606  0.6104846545416024
  0.0534342028724188  0.0328540035176559  0.5358245081234920
  0.1069532472109048  0.2779597922739334  0.5369654466015058
  0.2260474450245791  0.4716578199371981  0.4689136616179546
  0.2760692613514426  0.2255740270134606  0.4685843449453622
  0.0625733339565254  0.3717373250510511  0.3977699541448844
  0.6088302455244901  0.0743893679231233  0.3223880739398365
  0.3991500011805169  0.1781355396085825  0.6766171472018628
  0.5589573548188405  0.3254747672432193  0.3258266897576623
  0.4659145065775178  0.4256733333021254  0.6862413815957829
  0.5629506709973504  0.1264322933019860  0.6060992703400127
  0.3876061614438179  0.0333626066515723  0.5378161850539993
  0.4426484318628555  0.2768912659567258  0.5391760863516856
  0.5475245459773064  0.4681425224676535  0.4677752170852787
  0.6049343074525407  0.2253309667785379  0.4639826332015823
  0.3912811989292160  0.3714772731743372  0.3948316116852852
  0.9471519681496483  0.0753367239363137  0.3234843871138864
  0.7284865249148220  0.1761572175574669  0.6762669689939997
  0.8984858788674478  0.3262274548876309  0.3265818760317988
  0.7810760245900100  0.4271232132781453  0.6796620093052150
  0.8908595926937531  0.1292455618202009  0.6053636293712217
  0.7201866991106070  0.0317284318761627  0.5346576435769259
  0.7730197621656176  0.2772742650272820  0.5339529449794855
  0.8866702896560272  0.4697555913307155  0.4643280120818688
  0.9403556386556209  0.2236378590557857  0.4647779722981705
  0.7258132026957496  0.3724505071745464  0.3927950544577291
  0.2781117311595557  0.5734925230382377  0.3237647278052821
  0.0568864863147044  0.6771202879653082  0.6743148263008657
  0.2276522496861005  0.8240627237964711  0.3265070790805678
  0.1075863448156673  0.9276601628855144  0.6791016905729221
  0.2229463771966505  0.6355263607502537  0.6056927939301228
  0.0533318971037307  0.5319996794160005  0.5357695555145114
  0.1059221340951587  0.7799872280461884  0.5347874735842304
  0.2228872204580669  0.9709568637986724  0.4663159899865499
  0.2767450381889528  0.7241983479098655  0.4682297297625770
  0.0621459672701598  0.8720500416209157  0.3970481263794123
  0.6084301469897586  0.5741961843178001  0.3235626047991351
  0.4000852128857908  0.6788803752184476  0.6752568892605532
  0.5596114724924282  0.8247561355926547  0.3259098509309207
  0.4492242911417841  0.9283853238955369  0.6780097629213557
  0.5639897429200327  0.6292051894729558  0.6073266267422516
  0.3891846258697955  0.5310088142031175  0.5458225206793881
  0.4408111040078216  0.7781201506195703  0.5379202783904307
  0.5526664573893463  0.9702643953800490  0.4650629933259922
  0.6046987720195690  0.7236980452438303  0.4656985381228011
  0.3924027544228899  0.8717243554345158  0.3952805402528024
  0.9471749845591713  0.5748514404623714  0.3242235393250257
  0.7306720041214947  0.6762978459611590  0.6766019508347554
  0.8986320982328958  0.8255402291731502  0.3264498054525257
  0.7808778371913111  0.9275012520266480  0.6790534263016684
  0.8905978335283260  0.6299710140811040  0.6040532213952741
  0.7195603570753029  0.5318671253273217  0.5346342619074608
  0.7734457409340255  0.7781160698115230  0.5345961704764708
  0.8864079311673124  0.9706134941693014  0.4637034108698485
  0.9391347644449677  0.7247159969991718  0.4645778979955330
  0.7264395102005470  0.8721136354895208  0.3930042046852398
  0.4072653774210097  0.4273272900473934  0.7424448968628983
 
  0.00000000E+00  0.00000000E+00  0.00000000E+00
  0.00000000E+00  0.00000000E+00  0.00000000E+00
  0.00000000E+00  0.00000000E+00  0.00000000E+00
  0.00000000E+00  0.00000000E+00  0.00000000E+00
  0.00000000E+00  0.00000000E+00  0.00000000E+00
  0.00000000E+00  0.00000000E+00  0.00000000E+00
  0.00000000E+00  0.00000000E+00  0.00000000E+00
  0.00000000E+00  0.00000000E+00  0.00000000E+00
  0.00000000E+00  0.00000000E+00  0.00000000E+00
  0.00000000E+00  0.00000000E+00  0.00000000E+00
  0.00000000E+00  0.00000000E+00  0.00000000E+00
  0.00000000E+00  0.00000000E+00  0.00000000E+00
  0.00000000E+00  0.00000000E+00  0.00000000E+00
  0.00000000E+00  0.00000000E+00  0.00000000E+00
  0.00000000E+00  0.00000000E+00  0.00000000E+00
  0.00000000E+00  0.00000000E+00  0.00000000E+00
  0.00000000E+00  0.00000000E+00  0.00000000E+00
  0.00000000E+00  0.00000000E+00  0.00000000E+00
  0.00000000E+00  0.00000000E+00  0.00000000E+00
  0.00000000E+00  0.00000000E+00  0.00000000E+00
  0.00000000E+00  0.00000000E+00  0.00000000E+00
  0.00000000E+00  0.00000000E+00  0.00000000E+00
  0.00000000E+00  0.00000000E+00  0.00000000E+00
  0.00000000E+00  0.00000000E+00  0.00000000E+00
  0.00000000E+00  0.00000000E+00  0.00000000E+00
  0.00000000E+00  0.00000000E+00  0.00000000E+00
  0.00000000E+00  0.00000000E+00  0.00000000E+00
  0.00000000E+00  0.00000000E+00  0.00000000E+00
  0.00000000E+00  0.00000000E+00  0.00000000E+00
  0.00000000E+00  0.00000000E+00  0.00000000E+00
  0.00000000E+00  0.00000000E+00  0.00000000E+00
  0.00000000E+00  0.00000000E+00  0.00000000E+00
  0.00000000E+00  0.00000000E+00  0.00000000E+00
  0.00000000E+00  0.00000000E+00  0.00000000E+00
  0.00000000E+00  0.00000000E+00  0.00000000E+00
  0.00000000E+00  0.00000000E+00  0.00000000E+00
  0.00000000E+00  0.00000000E+00  0.00000000E+00
  0.00000000E+00  0.00000000E+00  0.00000000E+00
  0.00000000E+00  0.00000000E+00  0.00000000E+00
  0.00000000E+00  0.00000000E+00  0.00000000E+00
  0.00000000E+00  0.00000000E+00  0.00000000E+00
  0.00000000E+00  0.00000000E+00  0.00000000E+00
  0.00000000E+00  0.00000000E+00  0.00000000E+00
  0.00000000E+00  0.00000000E+00  0.00000000E+00
  0.00000000E+00  0.00000000E+00  0.00000000E+00
  0.00000000E+00  0.00000000E+00  0.00000000E+00
  0.00000000E+00  0.00000000E+00  0.00000000E+00
  0.00000000E+00  0.00000000E+00  0.00000000E+00
  0.00000000E+00  0.00000000E+00  0.00000000E+00
  0.00000000E+00  0.00000000E+00  0.00000000E+00
  0.00000000E+00  0.00000000E+00  0.00000000E+00
  0.00000000E+00  0.00000000E+00  0.00000000E+00
  0.00000000E+00  0.00000000E+00  0.00000000E+00
  0.00000000E+00  0.00000000E+00  0.00000000E+00
  0.00000000E+00  0.00000000E+00  0.00000000E+00
  0.00000000E+00  0.00000000E+00  0.00000000E+00
  0.00000000E+00  0.00000000E+00  0.00000000E+00
  0.00000000E+00  0.00000000E+00  0.00000000E+00
  0.00000000E+00  0.00000000E+00  0.00000000E+00
  0.00000000E+00  0.00000000E+00  0.00000000E+00
  0.00000000E+00  0.00000000E+00  0.00000000E+00
  0.00000000E+00  0.00000000E+00  0.00000000E+00
  0.00000000E+00  0.00000000E+00  0.00000000E+00
  0.00000000E+00  0.00000000E+00  0.00000000E+00
  0.00000000E+00  0.00000000E+00  0.00000000E+00
  0.00000000E+00  0.00000000E+00  0.00000000E+00
  0.00000000E+00  0.00000000E+00  0.00000000E+00
  0.00000000E+00  0.00000000E+00  0.00000000E+00
  0.00000000E+00  0.00000000E+00  0.00000000E+00
  0.00000000E+00  0.00000000E+00  0.00000000E+00
  0.00000000E+00  0.00000000E+00  0.00000000E+00
  0.00000000E+00  0.00000000E+00  0.00000000E+00
  0.00000000E+00  0.00000000E+00  0.00000000E+00
  0.00000000E+00  0.00000000E+00  0.00000000E+00
  0.00000000E+00  0.00000000E+00  0.00000000E+00
  0.00000000E+00  0.00000000E+00  0.00000000E+00
  0.00000000E+00  0.00000000E+00  0.00000000E+00
  0.00000000E+00  0.00000000E+00  0.00000000E+00
  0.00000000E+00  0.00000000E+00  0.00000000E+00
  0.00000000E+00  0.00000000E+00  0.00000000E+00
  0.00000000E+00  0.00000000E+00  0.00000000E+00
  0.00000000E+00  0.00000000E+00  0.00000000E+00
  0.00000000E+00  0.00000000E+00  0.00000000E+00
  0.00000000E+00  0.00000000E+00  0.00000000E+00
  0.00000000E+00  0.00000000E+00  0.00000000E+00
  0.00000000E+00  0.00000000E+00  0.00000000E+00
  0.00000000E+00  0.00000000E+00  0.00000000E+00
  0.00000000E+00  0.00000000E+00  0.00000000E+00
  0.00000000E+00  0.00000000E+00  0.00000000E+00
  0.00000000E+00  0.00000000E+00  0.00000000E+00
  0.00000000E+00  0.00000000E+00  0.00000000E+00
  0.00000000E+00  0.00000000E+00  0.00000000E+00
  0.00000000E+00  0.00000000E+00  0.00000000E+00
  0.00000000E+00  0.00000000E+00  0.00000000E+00
  0.00000000E+00  0.00000000E+00  0.00000000E+00
  0.00000000E+00  0.00000000E+00  0.00000000E+00
  0.00000000E+00  0.00000000E+00  0.00000000E+00
  0.00000000E+00  0.00000000E+00  0.00000000E+00
  0.00000000E+00  0.00000000E+00  0.00000000E+00
  0.00000000E+00  0.00000000E+00  0.00000000E+00
  0.00000000E+00  0.00000000E+00  0.00000000E+00
  0.00000000E+00  0.00000000E+00  0.00000000E+00
  0.00000000E+00  0.00000000E+00  0.00000000E+00
  0.00000000E+00  0.00000000E+00  0.00000000E+00
  0.00000000E+00  0.00000000E+00  0.00000000E+00
  0.00000000E+00  0.00000000E+00  0.00000000E+00
  0.00000000E+00  0.00000000E+00  0.00000000E+00
  0.00000000E+00  0.00000000E+00  0.00000000E+00
  0.00000000E+00  0.00000000E+00  0.00000000E+00
  0.00000000E+00  0.00000000E+00  0.00000000E+00
  0.00000000E+00  0.00000000E+00  0.00000000E+00
