CONTCAR\(12)                            
   1.00000000000000     
    10.9576997757000001    0.0000000000000000    0.0000000000000000
     0.0000000000000000   18.6480007171999986    0.0000000000000000
     0.0000000000000000    0.0000000000000000   19.2721004485999998
   Ta   Te   Pd   O 
    12    30    18     1
Direct
  0.9999778413838598  0.9192401613144412  0.4908001398105526
  0.1678561875227231  0.4155547045491090  0.5036197514375331
  0.0000650877201451  0.1673167008377661  0.4919359472630163
  0.1651289959417284  0.6697675208232781  0.5087867275523124
  0.3322078214639959  0.9174585345129742  0.4981475759749472
  0.5000570173071353  0.4089289428075702  0.5026624757366349
  0.3330073187514984  0.1668517661655642  0.4933752712401756
  0.5000732802984658  0.6692291076143704  0.5265363324558763
  0.6677401604261703  0.9174622794459637  0.4981404350867038
  0.8321412046791536  0.4154814995367531  0.5036695879568640
  0.6670804851301071  0.1668622049020385  0.4933973090216384
  0.8346723847662290  0.6698277199085965  0.5088412252040015
  0.9999951823564714  0.7165028137902567  0.6133716595125591
  0.1685480458713187  0.8636123481074662  0.3930840341680693
  0.1660656938454892  0.2196742691668661  0.3897993296935951
  0.0000635468433430  0.3614748676646187  0.6056489642130103
  0.9999331957792350  0.6414535576431462  0.3960519298168776
  0.1664629820197092  0.1442511726707210  0.6054710413149564
  0.1715296638368855  0.5402802186851758  0.5895333121904329
  0.0000515078026666  0.0433957929285853  0.4071593708994072
  0.0000380332122063  0.4412900890242497  0.3927496795747203
  0.1631338489992089  0.9432817990553701  0.6069424041864764
  0.3159559915992531  0.7386067574034669  0.6124385425647390
  0.5000129355271170  0.8598532790307161  0.3979317955593729
  0.5001003824759422  0.2190610043544083  0.3900147941935614
  0.3298086849315851  0.3554265036399187  0.6053281225269416
  0.3371396486850742  0.6444622472066399  0.4028918385598530
  0.5000836208149337  0.1430048423446166  0.6059815934569315
  0.4999777320222023  0.5081057140265060  0.6045629201426195
  0.3343949186238291  0.0408564272717129  0.4110387017455324
  0.3337861119110244  0.4414297380765220  0.3943367884964317
  0.4999583298607320  0.9432474146794334  0.6100674843116920
  0.6840903608182813  0.7386650931243679  0.6125356757236986
  0.8313479930077037  0.8636376808302373  0.3930651828445946
  0.8339697924205467  0.2196649565923536  0.3898467405134980
  0.6702613139393350  0.3553268763466377  0.6053629025048153
  0.6628177378590152  0.6444324498903669  0.4028490104320497
  0.8339004691836038  0.1441300188897117  0.6054570532896832
  0.8281539495438608  0.5403343991416563  0.5895244268278148
  0.6654536398607220  0.0409157581532327  0.4110368427168822
  0.6663833856487429  0.4413433226588523  0.3943050210388321
  0.8368041985399799  0.9433297668426448  0.6069664303970015
  0.0000188508186838  0.3117268349486437  0.4483485289850790
  0.9998692000107354  0.7713091191121961  0.4480432544882476
  0.1632267608646316  0.2713161642970547  0.5439560746212848
  0.1495956549897173  0.8150070608768516  0.5478769292296519
  0.9999321043829141  0.5408024210251767  0.4908856623273010
  0.1645390157582369  0.0430501173758273  0.5100886200015893
  0.3322182003831244  0.3089214123281891  0.4486787504747625
  0.3296009674160132  0.7742669561133653  0.4595359174157210
  0.4999895644151593  0.2703705866511825  0.5450506454952659
  0.5000798495684080  0.8134812450525857  0.5538604525418336
  0.3535069858790081  0.5416299760655647  0.4976090938557292
  0.4999842479624803  0.0411808365657862  0.5120941887003667
  0.6678638348278483  0.3089072008852014  0.4487481662509012
  0.6703939950599889  0.7742103142504178  0.4595656744238781
  0.8369022699767541  0.2712156822552458  0.5440171943174832
  0.8503023475781362  0.8150674063454844  0.5479112061190392
  0.6463356832583358  0.5415503771148380  0.4975388231086342
  0.8354554188785670  0.0429874691270200  0.5100545124194227
  0.5003149237399569  0.6338168549505170  0.6149998430668617
 
  0.00000000E+00  0.00000000E+00  0.00000000E+00
  0.00000000E+00  0.00000000E+00  0.00000000E+00
  0.00000000E+00  0.00000000E+00  0.00000000E+00
  0.00000000E+00  0.00000000E+00  0.00000000E+00
  0.00000000E+00  0.00000000E+00  0.00000000E+00
  0.00000000E+00  0.00000000E+00  0.00000000E+00
  0.00000000E+00  0.00000000E+00  0.00000000E+00
  0.00000000E+00  0.00000000E+00  0.00000000E+00
  0.00000000E+00  0.00000000E+00  0.00000000E+00
  0.00000000E+00  0.00000000E+00  0.00000000E+00
  0.00000000E+00  0.00000000E+00  0.00000000E+00
  0.00000000E+00  0.00000000E+00  0.00000000E+00
  0.00000000E+00  0.00000000E+00  0.00000000E+00
  0.00000000E+00  0.00000000E+00  0.00000000E+00
  0.00000000E+00  0.00000000E+00  0.00000000E+00
  0.00000000E+00  0.00000000E+00  0.00000000E+00
  0.00000000E+00  0.00000000E+00  0.00000000E+00
  0.00000000E+00  0.00000000E+00  0.00000000E+00
  0.00000000E+00  0.00000000E+00  0.00000000E+00
  0.00000000E+00  0.00000000E+00  0.00000000E+00
  0.00000000E+00  0.00000000E+00  0.00000000E+00
  0.00000000E+00  0.00000000E+00  0.00000000E+00
  0.00000000E+00  0.00000000E+00  0.00000000E+00
  0.00000000E+00  0.00000000E+00  0.00000000E+00
  0.00000000E+00  0.00000000E+00  0.00000000E+00
  0.00000000E+00  0.00000000E+00  0.00000000E+00
  0.00000000E+00  0.00000000E+00  0.00000000E+00
  0.00000000E+00  0.00000000E+00  0.00000000E+00
  0.00000000E+00  0.00000000E+00  0.00000000E+00
  0.00000000E+00  0.00000000E+00  0.00000000E+00
  0.00000000E+00  0.00000000E+00  0.00000000E+00
  0.00000000E+00  0.00000000E+00  0.00000000E+00
  0.00000000E+00  0.00000000E+00  0.00000000E+00
  0.00000000E+00  0.00000000E+00  0.00000000E+00
  0.00000000E+00  0.00000000E+00  0.00000000E+00
  0.00000000E+00  0.00000000E+00  0.00000000E+00
  0.00000000E+00  0.00000000E+00  0.00000000E+00
  0.00000000E+00  0.00000000E+00  0.00000000E+00
  0.00000000E+00  0.00000000E+00  0.00000000E+00
  0.00000000E+00  0.00000000E+00  0.00000000E+00
  0.00000000E+00  0.00000000E+00  0.00000000E+00
  0.00000000E+00  0.00000000E+00  0.00000000E+00
  0.00000000E+00  0.00000000E+00  0.00000000E+00
  0.00000000E+00  0.00000000E+00  0.00000000E+00
  0.00000000E+00  0.00000000E+00  0.00000000E+00
  0.00000000E+00  0.00000000E+00  0.00000000E+00
  0.00000000E+00  0.00000000E+00  0.00000000E+00
  0.00000000E+00  0.00000000E+00  0.00000000E+00
  0.00000000E+00  0.00000000E+00  0.00000000E+00
  0.00000000E+00  0.00000000E+00  0.00000000E+00
  0.00000000E+00  0.00000000E+00  0.00000000E+00
  0.00000000E+00  0.00000000E+00  0.00000000E+00
  0.00000000E+00  0.00000000E+00  0.00000000E+00
  0.00000000E+00  0.00000000E+00  0.00000000E+00
  0.00000000E+00  0.00000000E+00  0.00000000E+00
  0.00000000E+00  0.00000000E+00  0.00000000E+00
  0.00000000E+00  0.00000000E+00  0.00000000E+00
  0.00000000E+00  0.00000000E+00  0.00000000E+00
  0.00000000E+00  0.00000000E+00  0.00000000E+00
  0.00000000E+00  0.00000000E+00  0.00000000E+00
  0.00000000E+00  0.00000000E+00  0.00000000E+00
