CONTCAR\(2)                             
   1.00000000000000     
    11.3158998488999991    0.0000000000000000    0.0000000000000000
     0.0000000000000000   12.4995002747000008    0.0000000000000000
     0.0000000000000000    0.0000000000000000   18.9974002838000011
   Ta   Te   Ir   O    H 
     6    24     6     1     1
Direct
  0.9934221926067295  0.0571992801888186  0.5025671205848781
  0.1639921770278221  0.7353286425074472  0.4901269420282972
  0.3264520111240472  0.0580603850378338  0.5021296201051584
  0.4921485956848102  0.7318080032185676  0.4953414274759282
  0.6588530299182835  0.0568961774378494  0.5024017924442816
  0.8292458238513376  0.7355455131982538  0.4953043601747638
  0.1606193466520480  0.1142953767794523  0.6031756125821275
  0.9960556963381393  0.8517656551629500  0.5763896810195916
  0.9925462191730006  0.6849966498595705  0.3907420444740310
  0.1549429784376812  0.4388271543595295  0.4203128416858490
  0.1604273527346649  0.9423333033628793  0.4180602142204961
  0.9923082011599647  0.2003942827377614  0.3982146527206112
  0.9937387401633302  0.3552277113344502  0.5681055603149190
  0.1618672396123628  0.5908417206246313  0.5937255474243486
  0.4925278565901650  0.1133577168874353  0.6034754885408020
  0.3254255800909931  0.8525205966472242  0.5764667725685939
  0.3287562096520560  0.6879982248398520  0.3877918690594981
  0.4929053828788099  0.4434239536918838  0.4255414046985351
  0.4928793426535876  0.9386050498759815  0.4203259420016465
  0.3271677456177500  0.2008225756926620  0.3976305108878577
  0.3270429849752290  0.3602137404300123  0.5661401020108627
  0.4964062193683958  0.5911854193940584  0.6032525145874388
  0.8263364873292076  0.1115058956910033  0.6035517296645381
  0.6588776771691300  0.8512675606812365  0.5760855754278822
  0.6604110025897327  0.6829494206426645  0.3940631810729656
  0.8236463730205656  0.4420192053882914  0.4264096521285836
  0.8269367673026693  0.9409134480829522  0.4197256081900065
  0.6598974628465442  0.2005496092066537  0.3985047587370190
  0.6595673892807312  0.3529084593712000  0.5702303472355652
  0.8276188849943438  0.5909829502987591  0.5985602124576701
  0.9922713980556992  0.5429485549235977  0.4976314821567129
  0.1600460435094391  0.2535193704227368  0.4942544424314335
  0.3220711753542247  0.5467395153316517  0.4935031608452789
  0.4930540538128341  0.2536412784737436  0.4950519810845861
  0.6582693750503950  0.5418917450876748  0.5019158786898359
  0.8265853315211302  0.2526309752038500  0.4956871776318934
  0.6288998215064510  0.6479399160868908  0.6775407686825119
  0.6210796313456584  0.6041247508379826  0.7199420009530613
 
  0.00000000E+00  0.00000000E+00  0.00000000E+00
  0.00000000E+00  0.00000000E+00  0.00000000E+00
  0.00000000E+00  0.00000000E+00  0.00000000E+00
  0.00000000E+00  0.00000000E+00  0.00000000E+00
  0.00000000E+00  0.00000000E+00  0.00000000E+00
  0.00000000E+00  0.00000000E+00  0.00000000E+00
  0.00000000E+00  0.00000000E+00  0.00000000E+00
  0.00000000E+00  0.00000000E+00  0.00000000E+00
  0.00000000E+00  0.00000000E+00  0.00000000E+00
  0.00000000E+00  0.00000000E+00  0.00000000E+00
  0.00000000E+00  0.00000000E+00  0.00000000E+00
  0.00000000E+00  0.00000000E+00  0.00000000E+00
  0.00000000E+00  0.00000000E+00  0.00000000E+00
  0.00000000E+00  0.00000000E+00  0.00000000E+00
  0.00000000E+00  0.00000000E+00  0.00000000E+00
  0.00000000E+00  0.00000000E+00  0.00000000E+00
  0.00000000E+00  0.00000000E+00  0.00000000E+00
  0.00000000E+00  0.00000000E+00  0.00000000E+00
  0.00000000E+00  0.00000000E+00  0.00000000E+00
  0.00000000E+00  0.00000000E+00  0.00000000E+00
  0.00000000E+00  0.00000000E+00  0.00000000E+00
  0.00000000E+00  0.00000000E+00  0.00000000E+00
  0.00000000E+00  0.00000000E+00  0.00000000E+00
  0.00000000E+00  0.00000000E+00  0.00000000E+00
  0.00000000E+00  0.00000000E+00  0.00000000E+00
  0.00000000E+00  0.00000000E+00  0.00000000E+00
  0.00000000E+00  0.00000000E+00  0.00000000E+00
  0.00000000E+00  0.00000000E+00  0.00000000E+00
  0.00000000E+00  0.00000000E+00  0.00000000E+00
  0.00000000E+00  0.00000000E+00  0.00000000E+00
  0.00000000E+00  0.00000000E+00  0.00000000E+00
  0.00000000E+00  0.00000000E+00  0.00000000E+00
  0.00000000E+00  0.00000000E+00  0.00000000E+00
  0.00000000E+00  0.00000000E+00  0.00000000E+00
  0.00000000E+00  0.00000000E+00  0.00000000E+00
  0.00000000E+00  0.00000000E+00  0.00000000E+00
  0.00000000E+00  0.00000000E+00  0.00000000E+00
  0.00000000E+00  0.00000000E+00  0.00000000E+00
