CONTCAR\(2)                             
   1.00000000000000     
    11.7456998825000003    0.0000000000000000    0.0000000000000000
     0.0000000000000000   17.6870002747000008    0.0000000000000000
     0.0000000000000000    0.0000000000000000   19.5771007537999999
   Ti   Ge   Te   O    H 
     6     6    36     2     1
Selective dynamics
Direct
  0.0838067246797110  0.4769871710268916  0.5087372985416820   F   F   F
  0.2513962596959587  0.9502635204325429  0.4848335974336564   F   F   F
  0.4180412423932367  0.4793858980674557  0.5200561056663915   F   F   F
  0.5864041118195473  0.9504356527961804  0.4850057702164605   F   F   F
  0.7529939214084180  0.4768939025679160  0.5087964466180708   F   F   F
  0.9186759651845335  0.9523065377514470  0.4860688628309902   F   F   F
  0.2566191802912741  0.7992198689846362  0.4722949328992456   F   F   F
  0.0866147448550336  0.6278195642970132  0.5202470324267807   F   F   F
  0.5806795565428402  0.7997675005341023  0.4718581198892551   F   F   F
  0.4175220765728440  0.6173984940542354  0.5819333590695948   F   F   F
  0.9184884204030226  0.8013417089058450  0.4779179703420695   F   F   F
  0.7502230073274205  0.6275672110887385  0.5202265319535471   F   F   F
  0.0836161303901264  0.9226326747221165  0.3799001128125354   F   F   F
  0.2534520288544755  0.2510371011792074  0.5654544674749573   F   F   F
  0.2526454910835767  0.0596796854033386  0.3773237224465902   F   F   F
  0.0860646050455287  0.8968590997522199  0.5827165045566929   F   F   F
  0.2371235108031300  0.4937076109374630  0.6235678825516260   F   F   F
  0.0814522967965772  0.3585735770703664  0.6081642513237853   F   F   F
  0.0890481595706163  0.1754936731749979  0.4248515086458085   F   F   F
  0.2404261444535152  0.7150981722917749  0.5896863638135272   F   F   F
  0.0834312052426114  0.7231976575612578  0.4080512894950274   F   F   F
  0.2556907674223936  0.3850284428720698  0.4514591242574468   F   F   F
  0.0865815955327136  0.0497187570173523  0.5420744983645633   F   F   F
  0.2615718861338934  0.5410624021651884  0.4228705451040895   F   F   F
  0.4190105490840139  0.9214476147266240  0.3780642062669557   F   F   F
  0.5837576277807131  0.2509488056486120  0.5664552663827536   F   F   F
  0.5850006501958376  0.0598285768066020  0.3775785848701076   F   F   F
  0.4189757810523602  0.8948102491864489  0.5811679564431742   F   F   F
  0.5994323055602422  0.4939969687709791  0.6235221770808153   F   F   F
  0.4182184962660571  0.3591461822304822  0.6168178795806014   F   F   F
  0.4184720273593570  0.1724929630579055  0.4215049097896184   F   F   F
  0.5954591521586607  0.7147683758051500  0.5891824713107070   F   F   F
  0.4187733892620358  0.7264770158648304  0.4021564870001910   F   F   F
  0.5810409548762649  0.3849675459737085  0.4516790050528456   F   F   F
  0.4186925909229444  0.0486801808369393  0.5400894038522566   F   F   F
  0.5746396992868767  0.5406788776917182  0.4228579045195175   F   F   F
  0.7538018254080683  0.9225999663652473  0.3798993011007639   F   F   F
  0.9184355834687636  0.2458629391137634  0.5487830954317445   F   F   F
  0.9187202296982235  0.0657861709245395  0.3808456804693563   F   F   F
  0.7511041101258513  0.8966114464819412  0.5827786560563126   F   F   F
  0.9185531397632758  0.5022895341208695  0.6138488049326725   F   F   F
  0.7557144914059535  0.3586102497544914  0.6083589296180918   F   F   F
  0.7486134909708397  0.1753941234545309  0.4258338075529764   F   F   F
  0.9182816059717140  0.7044611460820249  0.5889961726308570   F   F   F
  0.7536170412995560  0.7231594976018840  0.4081627435632527   F   F   F
  0.9184109225024102  0.3819572124617068  0.4460898060676257   F   F   F
  0.7508701428314666  0.0497217481489258  0.5424270601346208   F   F   F
  0.9184622047704565  0.5382460944113419  0.4129936787615094   F   F   F
  0.4174572346912484  0.6058912036352240  0.6794180135943151   T   T   T
  0.4079327100838199  0.6786688725878420  0.7152584137624345   T   T   T
  0.4828233136999956  0.6809403006012644  0.7366172811419957   T   T   T
 
  0.00000000E+00  0.00000000E+00  0.00000000E+00
  0.00000000E+00  0.00000000E+00  0.00000000E+00
  0.00000000E+00  0.00000000E+00  0.00000000E+00
  0.00000000E+00  0.00000000E+00  0.00000000E+00
  0.00000000E+00  0.00000000E+00  0.00000000E+00
  0.00000000E+00  0.00000000E+00  0.00000000E+00
  0.00000000E+00  0.00000000E+00  0.00000000E+00
  0.00000000E+00  0.00000000E+00  0.00000000E+00
  0.00000000E+00  0.00000000E+00  0.00000000E+00
  0.00000000E+00  0.00000000E+00  0.00000000E+00
  0.00000000E+00  0.00000000E+00  0.00000000E+00
  0.00000000E+00  0.00000000E+00  0.00000000E+00
  0.00000000E+00  0.00000000E+00  0.00000000E+00
  0.00000000E+00  0.00000000E+00  0.00000000E+00
  0.00000000E+00  0.00000000E+00  0.00000000E+00
  0.00000000E+00  0.00000000E+00  0.00000000E+00
  0.00000000E+00  0.00000000E+00  0.00000000E+00
  0.00000000E+00  0.00000000E+00  0.00000000E+00
  0.00000000E+00  0.00000000E+00  0.00000000E+00
  0.00000000E+00  0.00000000E+00  0.00000000E+00
  0.00000000E+00  0.00000000E+00  0.00000000E+00
  0.00000000E+00  0.00000000E+00  0.00000000E+00
  0.00000000E+00  0.00000000E+00  0.00000000E+00
  0.00000000E+00  0.00000000E+00  0.00000000E+00
  0.00000000E+00  0.00000000E+00  0.00000000E+00
  0.00000000E+00  0.00000000E+00  0.00000000E+00
  0.00000000E+00  0.00000000E+00  0.00000000E+00
  0.00000000E+00  0.00000000E+00  0.00000000E+00
  0.00000000E+00  0.00000000E+00  0.00000000E+00
  0.00000000E+00  0.00000000E+00  0.00000000E+00
  0.00000000E+00  0.00000000E+00  0.00000000E+00
  0.00000000E+00  0.00000000E+00  0.00000000E+00
  0.00000000E+00  0.00000000E+00  0.00000000E+00
  0.00000000E+00  0.00000000E+00  0.00000000E+00
  0.00000000E+00  0.00000000E+00  0.00000000E+00
  0.00000000E+00  0.00000000E+00  0.00000000E+00
  0.00000000E+00  0.00000000E+00  0.00000000E+00
  0.00000000E+00  0.00000000E+00  0.00000000E+00
  0.00000000E+00  0.00000000E+00  0.00000000E+00
  0.00000000E+00  0.00000000E+00  0.00000000E+00
  0.00000000E+00  0.00000000E+00  0.00000000E+00
  0.00000000E+00  0.00000000E+00  0.00000000E+00
  0.00000000E+00  0.00000000E+00  0.00000000E+00
  0.00000000E+00  0.00000000E+00  0.00000000E+00
  0.00000000E+00  0.00000000E+00  0.00000000E+00
  0.00000000E+00  0.00000000E+00  0.00000000E+00
  0.00000000E+00  0.00000000E+00  0.00000000E+00
  0.00000000E+00  0.00000000E+00  0.00000000E+00
  0.00000000E+00  0.00000000E+00  0.00000000E+00
  0.00000000E+00  0.00000000E+00  0.00000000E+00
  0.00000000E+00  0.00000000E+00  0.00000000E+00
