 Mn2 F8                                 
   1.00000000000000     
     4.4483013162459786    0.0000000000000000    0.0000000000000000
     0.0000000000000000    5.1899815684841837    0.0000000000000000
     0.0000000000000000    0.0000000000000000   18.1106969896000010
   Mn   F 
     2     8
Direct
  0.4999613366119462  0.9999901790177574  0.4999975187668113
  0.0000108423859331  0.5000074494444746  0.5000062098120068
  0.7444285324228446  0.2540436542495357  0.4573334172092984
  0.7555634770808410  0.7540561940364512  0.4573345175608381
  0.2910664596722370  0.9965396721207682  0.4178881896335156
  0.2089434966513934  0.4965369968343580  0.4178790934914431
  0.7910408445111372  0.5034615685958101  0.5821141029933798
  0.7089713611685511  0.0034638753506115  0.5821216514786443
  0.2444399232233039  0.2459481789212248  0.5426627917790086
  0.2555737262718196  0.7459522314290155  0.5426625072750610
 
  0.00000000E+00  0.00000000E+00  0.00000000E+00
  0.00000000E+00  0.00000000E+00  0.00000000E+00
  0.00000000E+00  0.00000000E+00  0.00000000E+00
  0.00000000E+00  0.00000000E+00  0.00000000E+00
  0.00000000E+00  0.00000000E+00  0.00000000E+00
  0.00000000E+00  0.00000000E+00  0.00000000E+00
  0.00000000E+00  0.00000000E+00  0.00000000E+00
  0.00000000E+00  0.00000000E+00  0.00000000E+00
  0.00000000E+00  0.00000000E+00  0.00000000E+00
  0.00000000E+00  0.00000000E+00  0.00000000E+00
