G   45   39    1    0.005     # Parameters to Generate KPOINTS (Don't Edit This Line)
     878
Reciprocal lattice
    0.000000000000    0.000000000000    0.000000000000       1
    0.022222222222    0.000000000000    0.000000000000       2
    0.044444444444    0.000000000000    0.000000000000       2
    0.066666666667    0.000000000000    0.000000000000       2
    0.088888888889    0.000000000000    0.000000000000       2
    0.111111111111    0.000000000000    0.000000000000       2
    0.133333333333    0.000000000000    0.000000000000       2
    0.155555555556    0.000000000000    0.000000000000       2
    0.177777777778    0.000000000000    0.000000000000       2
    0.200000000000    0.000000000000    0.000000000000       2
    0.222222222222    0.000000000000    0.000000000000       2
    0.244444444444    0.000000000000    0.000000000000       2
    0.266666666667    0.000000000000    0.000000000000       2
    0.288888888889    0.000000000000    0.000000000000       2
    0.311111111111    0.000000000000    0.000000000000       2
    0.333333333333    0.000000000000    0.000000000000       2
    0.355555555556    0.000000000000    0.000000000000       2
    0.377777777778    0.000000000000    0.000000000000       2
    0.400000000000    0.000000000000    0.000000000000       2
    0.422222222222    0.000000000000    0.000000000000       2
    0.444444444444    0.000000000000    0.000000000000       2
    0.466666666667    0.000000000000    0.000000000000       2
    0.488888888889    0.000000000000    0.000000000000       2
    0.000000000000    0.025641025641    0.000000000000       2
    0.022222222222    0.025641025641    0.000000000000       2
    0.044444444444    0.025641025641    0.000000000000       2
    0.066666666667    0.025641025641    0.000000000000       2
    0.088888888889    0.025641025641    0.000000000000       2
    0.111111111111    0.025641025641    0.000000000000       2
    0.133333333333    0.025641025641    0.000000000000       2
    0.155555555556    0.025641025641    0.000000000000       2
    0.177777777778    0.025641025641    0.000000000000       2
    0.200000000000    0.025641025641    0.000000000000       2
    0.222222222222    0.025641025641    0.000000000000       2
    0.244444444444    0.025641025641    0.000000000000       2
    0.266666666667    0.025641025641    0.000000000000       2
    0.288888888889    0.025641025641    0.000000000000       2
    0.311111111111    0.025641025641    0.000000000000       2
    0.333333333333    0.025641025641    0.000000000000       2
    0.355555555556    0.025641025641    0.000000000000       2
    0.377777777778    0.025641025641    0.000000000000       2
    0.400000000000    0.025641025641    0.000000000000       2
    0.422222222222    0.025641025641    0.000000000000       2
    0.444444444444    0.025641025641    0.000000000000       2
    0.466666666667    0.025641025641    0.000000000000       2
    0.488888888889    0.025641025641    0.000000000000       2
   -0.488888888889    0.025641025641    0.000000000000       2
   -0.466666666667    0.025641025641    0.000000000000       2
   -0.444444444444    0.025641025641    0.000000000000       2
   -0.422222222222    0.025641025641    0.000000000000       2
   -0.400000000000    0.025641025641    0.000000000000       2
   -0.377777777778    0.025641025641    0.000000000000       2
   -0.355555555556    0.025641025641    0.000000000000       2
   -0.333333333333    0.025641025641    0.000000000000       2
   -0.311111111111    0.025641025641    0.000000000000       2
   -0.288888888889    0.025641025641    0.000000000000       2
   -0.266666666667    0.025641025641    0.000000000000       2
   -0.244444444444    0.025641025641    0.000000000000       2
   -0.222222222222    0.025641025641    0.000000000000       2
   -0.200000000000    0.025641025641    0.000000000000       2
   -0.177777777778    0.025641025641    0.000000000000       2
   -0.155555555556    0.025641025641    0.000000000000       2
   -0.133333333333    0.025641025641    0.000000000000       2
   -0.111111111111    0.025641025641    0.000000000000       2
   -0.088888888889    0.025641025641    0.000000000000       2
   -0.066666666667    0.025641025641    0.000000000000       2
   -0.044444444444    0.025641025641    0.000000000000       2
   -0.022222222222    0.025641025641    0.000000000000       2
    0.000000000000    0.051282051282    0.000000000000       2
    0.022222222222    0.051282051282    0.000000000000       2
    0.044444444444    0.051282051282    0.000000000000       2
    0.066666666667    0.051282051282    0.000000000000       2
    0.088888888889    0.051282051282    0.000000000000       2
    0.111111111111    0.051282051282    0.000000000000       2
    0.133333333333    0.051282051282    0.000000000000       2
    0.155555555556    0.051282051282    0.000000000000       2
    0.177777777778    0.051282051282    0.000000000000       2
    0.200000000000    0.051282051282    0.000000000000       2
    0.222222222222    0.051282051282    0.000000000000       2
    0.244444444444    0.051282051282    0.000000000000       2
    0.266666666667    0.051282051282    0.000000000000       2
    0.288888888889    0.051282051282    0.000000000000       2
    0.311111111111    0.051282051282    0.000000000000       2
    0.333333333333    0.051282051282    0.000000000000       2
    0.355555555556    0.051282051282    0.000000000000       2
    0.377777777778    0.051282051282    0.000000000000       2
    0.400000000000    0.051282051282    0.000000000000       2
    0.422222222222    0.051282051282    0.000000000000       2
    0.444444444444    0.051282051282    0.000000000000       2
    0.466666666667    0.051282051282    0.000000000000       2
    0.488888888889    0.051282051282    0.000000000000       2
   -0.488888888889    0.051282051282    0.000000000000       2
   -0.466666666667    0.051282051282    0.000000000000       2
   -0.444444444444    0.051282051282    0.000000000000       2
   -0.422222222222    0.051282051282    0.000000000000       2
   -0.400000000000    0.051282051282    0.000000000000       2
   -0.377777777778    0.051282051282    0.000000000000       2
   -0.355555555556    0.051282051282    0.000000000000       2
   -0.333333333333    0.051282051282    0.000000000000       2
   -0.311111111111    0.051282051282    0.000000000000       2
   -0.288888888889    0.051282051282    0.000000000000       2
   -0.266666666667    0.051282051282    0.000000000000       2
   -0.244444444444    0.051282051282    0.000000000000       2
   -0.222222222222    0.051282051282    0.000000000000       2
   -0.200000000000    0.051282051282    0.000000000000       2
   -0.177777777778    0.051282051282    0.000000000000       2
   -0.155555555556    0.051282051282    0.000000000000       2
   -0.133333333333    0.051282051282    0.000000000000       2
   -0.111111111111    0.051282051282    0.000000000000       2
   -0.088888888889    0.051282051282    0.000000000000       2
   -0.066666666667    0.051282051282    0.000000000000       2
   -0.044444444444    0.051282051282    0.000000000000       2
   -0.022222222222    0.051282051282    0.000000000000       2
    0.000000000000    0.076923076923    0.000000000000       2
    0.022222222222    0.076923076923    0.000000000000       2
    0.044444444444    0.076923076923    0.000000000000       2
    0.066666666667    0.076923076923    0.000000000000       2
    0.088888888889    0.076923076923    0.000000000000       2
    0.111111111111    0.076923076923    0.000000000000       2
    0.133333333333    0.076923076923    0.000000000000       2
    0.155555555556    0.076923076923    0.000000000000       2
    0.177777777778    0.076923076923    0.000000000000       2
    0.200000000000    0.076923076923    0.000000000000       2
    0.222222222222    0.076923076923    0.000000000000       2
    0.244444444444    0.076923076923    0.000000000000       2
    0.266666666667    0.076923076923    0.000000000000       2
    0.288888888889    0.076923076923    0.000000000000       2
    0.311111111111    0.076923076923    0.000000000000       2
    0.333333333333    0.076923076923    0.000000000000       2
    0.355555555556    0.076923076923    0.000000000000       2
    0.377777777778    0.076923076923    0.000000000000       2
    0.400000000000    0.076923076923    0.000000000000       2
    0.422222222222    0.076923076923    0.000000000000       2
    0.444444444444    0.076923076923    0.000000000000       2
    0.466666666667    0.076923076923    0.000000000000       2
    0.488888888889    0.076923076923    0.000000000000       2
   -0.488888888889    0.076923076923    0.000000000000       2
   -0.466666666667    0.076923076923    0.000000000000       2
   -0.444444444444    0.076923076923    0.000000000000       2
   -0.422222222222    0.076923076923    0.000000000000       2
   -0.400000000000    0.076923076923    0.000000000000       2
   -0.377777777778    0.076923076923    0.000000000000       2
   -0.355555555556    0.076923076923    0.000000000000       2
   -0.333333333333    0.076923076923    0.000000000000       2
   -0.311111111111    0.076923076923    0.000000000000       2
   -0.288888888889    0.076923076923    0.000000000000       2
   -0.266666666667    0.076923076923    0.000000000000       2
   -0.244444444444    0.076923076923    0.000000000000       2
   -0.222222222222    0.076923076923    0.000000000000       2
   -0.200000000000    0.076923076923    0.000000000000       2
   -0.177777777778    0.076923076923    0.000000000000       2
   -0.155555555556    0.076923076923    0.000000000000       2
   -0.133333333333    0.076923076923    0.000000000000       2
   -0.111111111111    0.076923076923    0.000000000000       2
   -0.088888888889    0.076923076923    0.000000000000       2
   -0.066666666667    0.076923076923    0.000000000000       2
   -0.044444444444    0.076923076923    0.000000000000       2
   -0.022222222222    0.076923076923    0.000000000000       2
    0.000000000000    0.102564102564    0.000000000000       2
    0.022222222222    0.102564102564    0.000000000000       2
    0.044444444444    0.102564102564    0.000000000000       2
    0.066666666667    0.102564102564    0.000000000000       2
    0.088888888889    0.102564102564    0.000000000000       2
    0.111111111111    0.102564102564    0.000000000000       2
    0.133333333333    0.102564102564    0.000000000000       2
    0.155555555556    0.102564102564    0.000000000000       2
    0.177777777778    0.102564102564    0.000000000000       2
    0.200000000000    0.102564102564    0.000000000000       2
    0.222222222222    0.102564102564    0.000000000000       2
    0.244444444444    0.102564102564    0.000000000000       2
    0.266666666667    0.102564102564    0.000000000000       2
    0.288888888889    0.102564102564    0.000000000000       2
    0.311111111111    0.102564102564    0.000000000000       2
    0.333333333333    0.102564102564    0.000000000000       2
    0.355555555556    0.102564102564    0.000000000000       2
    0.377777777778    0.102564102564    0.000000000000       2
    0.400000000000    0.102564102564    0.000000000000       2
    0.422222222222    0.102564102564    0.000000000000       2
    0.444444444444    0.102564102564    0.000000000000       2
    0.466666666667    0.102564102564    0.000000000000       2
    0.488888888889    0.102564102564    0.000000000000       2
   -0.488888888889    0.102564102564    0.000000000000       2
   -0.466666666667    0.102564102564    0.000000000000       2
   -0.444444444444    0.102564102564    0.000000000000       2
   -0.422222222222    0.102564102564    0.000000000000       2
   -0.400000000000    0.102564102564    0.000000000000       2
   -0.377777777778    0.102564102564    0.000000000000       2
   -0.355555555556    0.102564102564    0.000000000000       2
   -0.333333333333    0.102564102564    0.000000000000       2
   -0.311111111111    0.102564102564    0.000000000000       2
   -0.288888888889    0.102564102564    0.000000000000       2
   -0.266666666667    0.102564102564    0.000000000000       2
   -0.244444444444    0.102564102564    0.000000000000       2
   -0.222222222222    0.102564102564    0.000000000000       2
   -0.200000000000    0.102564102564    0.000000000000       2
   -0.177777777778    0.102564102564    0.000000000000       2
   -0.155555555556    0.102564102564    0.000000000000       2
   -0.133333333333    0.102564102564    0.000000000000       2
   -0.111111111111    0.102564102564    0.000000000000       2
   -0.088888888889    0.102564102564    0.000000000000       2
   -0.066666666667    0.102564102564    0.000000000000       2
   -0.044444444444    0.102564102564    0.000000000000       2
   -0.022222222222    0.102564102564    0.000000000000       2
    0.000000000000    0.128205128205    0.000000000000       2
    0.022222222222    0.128205128205    0.000000000000       2
    0.044444444444    0.128205128205    0.000000000000       2
    0.066666666667    0.128205128205    0.000000000000       2
    0.088888888889    0.128205128205    0.000000000000       2
    0.111111111111    0.128205128205    0.000000000000       2
    0.133333333333    0.128205128205    0.000000000000       2
    0.155555555556    0.128205128205    0.000000000000       2
    0.177777777778    0.128205128205    0.000000000000       2
    0.200000000000    0.128205128205    0.000000000000       2
    0.222222222222    0.128205128205    0.000000000000       2
    0.244444444444    0.128205128205    0.000000000000       2
    0.266666666667    0.128205128205    0.000000000000       2
    0.288888888889    0.128205128205    0.000000000000       2
    0.311111111111    0.128205128205    0.000000000000       2
    0.333333333333    0.128205128205    0.000000000000       2
    0.355555555556    0.128205128205    0.000000000000       2
    0.377777777778    0.128205128205    0.000000000000       2
    0.400000000000    0.128205128205    0.000000000000       2
    0.422222222222    0.128205128205    0.000000000000       2
    0.444444444444    0.128205128205    0.000000000000       2
    0.466666666667    0.128205128205    0.000000000000       2
    0.488888888889    0.128205128205    0.000000000000       2
   -0.488888888889    0.128205128205    0.000000000000       2
   -0.466666666667    0.128205128205    0.000000000000       2
   -0.444444444444    0.128205128205    0.000000000000       2
   -0.422222222222    0.128205128205    0.000000000000       2
   -0.400000000000    0.128205128205    0.000000000000       2
   -0.377777777778    0.128205128205    0.000000000000       2
   -0.355555555556    0.128205128205    0.000000000000       2
   -0.333333333333    0.128205128205    0.000000000000       2
   -0.311111111111    0.128205128205    0.000000000000       2
   -0.288888888889    0.128205128205    0.000000000000       2
   -0.266666666667    0.128205128205    0.000000000000       2
   -0.244444444444    0.128205128205    0.000000000000       2
   -0.222222222222    0.128205128205    0.000000000000       2
   -0.200000000000    0.128205128205    0.000000000000       2
   -0.177777777778    0.128205128205    0.000000000000       2
   -0.155555555556    0.128205128205    0.000000000000       2
   -0.133333333333    0.128205128205    0.000000000000       2
   -0.111111111111    0.128205128205    0.000000000000       2
   -0.088888888889    0.128205128205    0.000000000000       2
   -0.066666666667    0.128205128205    0.000000000000       2
   -0.044444444444    0.128205128205    0.000000000000       2
   -0.022222222222    0.128205128205    0.000000000000       2
    0.000000000000    0.153846153846    0.000000000000       2
    0.022222222222    0.153846153846    0.000000000000       2
    0.044444444444    0.153846153846    0.000000000000       2
    0.066666666667    0.153846153846    0.000000000000       2
    0.088888888889    0.153846153846    0.000000000000       2
    0.111111111111    0.153846153846    0.000000000000       2
    0.133333333333    0.153846153846    0.000000000000       2
    0.155555555556    0.153846153846    0.000000000000       2
    0.177777777778    0.153846153846    0.000000000000       2
    0.200000000000    0.153846153846    0.000000000000       2
    0.222222222222    0.153846153846    0.000000000000       2
    0.244444444444    0.153846153846    0.000000000000       2
    0.266666666667    0.153846153846    0.000000000000       2
    0.288888888889    0.153846153846    0.000000000000       2
    0.311111111111    0.153846153846    0.000000000000       2
    0.333333333333    0.153846153846    0.000000000000       2
    0.355555555556    0.153846153846    0.000000000000       2
    0.377777777778    0.153846153846    0.000000000000       2
    0.400000000000    0.153846153846    0.000000000000       2
    0.422222222222    0.153846153846    0.000000000000       2
    0.444444444444    0.153846153846    0.000000000000       2
    0.466666666667    0.153846153846    0.000000000000       2
    0.488888888889    0.153846153846    0.000000000000       2
   -0.488888888889    0.153846153846    0.000000000000       2
   -0.466666666667    0.153846153846    0.000000000000       2
   -0.444444444444    0.153846153846    0.000000000000       2
   -0.422222222222    0.153846153846    0.000000000000       2
   -0.400000000000    0.153846153846    0.000000000000       2
   -0.377777777778    0.153846153846    0.000000000000       2
   -0.355555555556    0.153846153846    0.000000000000       2
   -0.333333333333    0.153846153846    0.000000000000       2
   -0.311111111111    0.153846153846    0.000000000000       2
   -0.288888888889    0.153846153846    0.000000000000       2
   -0.266666666667    0.153846153846    0.000000000000       2
   -0.244444444444    0.153846153846    0.000000000000       2
   -0.222222222222    0.153846153846    0.000000000000       2
   -0.200000000000    0.153846153846    0.000000000000       2
   -0.177777777778    0.153846153846    0.000000000000       2
   -0.155555555556    0.153846153846    0.000000000000       2
   -0.133333333333    0.153846153846    0.000000000000       2
   -0.111111111111    0.153846153846    0.000000000000       2
   -0.088888888889    0.153846153846    0.000000000000       2
   -0.066666666667    0.153846153846    0.000000000000       2
   -0.044444444444    0.153846153846    0.000000000000       2
   -0.022222222222    0.153846153846    0.000000000000       2
    0.000000000000    0.179487179487    0.000000000000       2
    0.022222222222    0.179487179487    0.000000000000       2
    0.044444444444    0.179487179487    0.000000000000       2
    0.066666666667    0.179487179487    0.000000000000       2
    0.088888888889    0.179487179487    0.000000000000       2
    0.111111111111    0.179487179487    0.000000000000       2
    0.133333333333    0.179487179487    0.000000000000       2
    0.155555555556    0.179487179487    0.000000000000       2
    0.177777777778    0.179487179487    0.000000000000       2
    0.200000000000    0.179487179487    0.000000000000       2
    0.222222222222    0.179487179487    0.000000000000       2
    0.244444444444    0.179487179487    0.000000000000       2
    0.266666666667    0.179487179487    0.000000000000       2
    0.288888888889    0.179487179487    0.000000000000       2
    0.311111111111    0.179487179487    0.000000000000       2
    0.333333333333    0.179487179487    0.000000000000       2
    0.355555555556    0.179487179487    0.000000000000       2
    0.377777777778    0.179487179487    0.000000000000       2
    0.400000000000    0.179487179487    0.000000000000       2
    0.422222222222    0.179487179487    0.000000000000       2
    0.444444444444    0.179487179487    0.000000000000       2
    0.466666666667    0.179487179487    0.000000000000       2
    0.488888888889    0.179487179487    0.000000000000       2
   -0.488888888889    0.179487179487    0.000000000000       2
   -0.466666666667    0.179487179487    0.000000000000       2
   -0.444444444444    0.179487179487    0.000000000000       2
   -0.422222222222    0.179487179487    0.000000000000       2
   -0.400000000000    0.179487179487    0.000000000000       2
   -0.377777777778    0.179487179487    0.000000000000       2
   -0.355555555556    0.179487179487    0.000000000000       2
   -0.333333333333    0.179487179487    0.000000000000       2
   -0.311111111111    0.179487179487    0.000000000000       2
   -0.288888888889    0.179487179487    0.000000000000       2
   -0.266666666667    0.179487179487    0.000000000000       2
   -0.244444444444    0.179487179487    0.000000000000       2
   -0.222222222222    0.179487179487    0.000000000000       2
   -0.200000000000    0.179487179487    0.000000000000       2
   -0.177777777778    0.179487179487    0.000000000000       2
   -0.155555555556    0.179487179487    0.000000000000       2
   -0.133333333333    0.179487179487    0.000000000000       2
   -0.111111111111    0.179487179487    0.000000000000       2
   -0.088888888889    0.179487179487    0.000000000000       2
   -0.066666666667    0.179487179487    0.000000000000       2
   -0.044444444444    0.179487179487    0.000000000000       2
   -0.022222222222    0.179487179487    0.000000000000       2
    0.000000000000    0.205128205128    0.000000000000       2
    0.022222222222    0.205128205128    0.000000000000       2
    0.044444444444    0.205128205128    0.000000000000       2
    0.066666666667    0.205128205128    0.000000000000       2
    0.088888888889    0.205128205128    0.000000000000       2
    0.111111111111    0.205128205128    0.000000000000       2
    0.133333333333    0.205128205128    0.000000000000       2
    0.155555555556    0.205128205128    0.000000000000       2
    0.177777777778    0.205128205128    0.000000000000       2
    0.200000000000    0.205128205128    0.000000000000       2
    0.222222222222    0.205128205128    0.000000000000       2
    0.244444444444    0.205128205128    0.000000000000       2
    0.266666666667    0.205128205128    0.000000000000       2
    0.288888888889    0.205128205128    0.000000000000       2
    0.311111111111    0.205128205128    0.000000000000       2
    0.333333333333    0.205128205128    0.000000000000       2
    0.355555555556    0.205128205128    0.000000000000       2
    0.377777777778    0.205128205128    0.000000000000       2
    0.400000000000    0.205128205128    0.000000000000       2
    0.422222222222    0.205128205128    0.000000000000       2
    0.444444444444    0.205128205128    0.000000000000       2
    0.466666666667    0.205128205128    0.000000000000       2
    0.488888888889    0.205128205128    0.000000000000       2
   -0.488888888889    0.205128205128    0.000000000000       2
   -0.466666666667    0.205128205128    0.000000000000       2
   -0.444444444444    0.205128205128    0.000000000000       2
   -0.422222222222    0.205128205128    0.000000000000       2
   -0.400000000000    0.205128205128    0.000000000000       2
   -0.377777777778    0.205128205128    0.000000000000       2
   -0.355555555556    0.205128205128    0.000000000000       2
   -0.333333333333    0.205128205128    0.000000000000       2
   -0.311111111111    0.205128205128    0.000000000000       2
   -0.288888888889    0.205128205128    0.000000000000       2
   -0.266666666667    0.205128205128    0.000000000000       2
   -0.244444444444    0.205128205128    0.000000000000       2
   -0.222222222222    0.205128205128    0.000000000000       2
   -0.200000000000    0.205128205128    0.000000000000       2
   -0.177777777778    0.205128205128    0.000000000000       2
   -0.155555555556    0.205128205128    0.000000000000       2
   -0.133333333333    0.205128205128    0.000000000000       2
   -0.111111111111    0.205128205128    0.000000000000       2
   -0.088888888889    0.205128205128    0.000000000000       2
   -0.066666666667    0.205128205128    0.000000000000       2
   -0.044444444444    0.205128205128    0.000000000000       2
   -0.022222222222    0.205128205128    0.000000000000       2
    0.000000000000    0.230769230769    0.000000000000       2
    0.022222222222    0.230769230769    0.000000000000       2
    0.044444444444    0.230769230769    0.000000000000       2
    0.066666666667    0.230769230769    0.000000000000       2
    0.088888888889    0.230769230769    0.000000000000       2
    0.111111111111    0.230769230769    0.000000000000       2
    0.133333333333    0.230769230769    0.000000000000       2
    0.155555555556    0.230769230769    0.000000000000       2
    0.177777777778    0.230769230769    0.000000000000       2
    0.200000000000    0.230769230769    0.000000000000       2
    0.222222222222    0.230769230769    0.000000000000       2
    0.244444444444    0.230769230769    0.000000000000       2
    0.266666666667    0.230769230769    0.000000000000       2
    0.288888888889    0.230769230769    0.000000000000       2
    0.311111111111    0.230769230769    0.000000000000       2
    0.333333333333    0.230769230769    0.000000000000       2
    0.355555555556    0.230769230769    0.000000000000       2
    0.377777777778    0.230769230769    0.000000000000       2
    0.400000000000    0.230769230769    0.000000000000       2
    0.422222222222    0.230769230769    0.000000000000       2
    0.444444444444    0.230769230769    0.000000000000       2
    0.466666666667    0.230769230769    0.000000000000       2
    0.488888888889    0.230769230769    0.000000000000       2
   -0.488888888889    0.230769230769    0.000000000000       2
   -0.466666666667    0.230769230769    0.000000000000       2
   -0.444444444444    0.230769230769    0.000000000000       2
   -0.422222222222    0.230769230769    0.000000000000       2
   -0.400000000000    0.230769230769    0.000000000000       2
   -0.377777777778    0.230769230769    0.000000000000       2
   -0.355555555556    0.230769230769    0.000000000000       2
   -0.333333333333    0.230769230769    0.000000000000       2
   -0.311111111111    0.230769230769    0.000000000000       2
   -0.288888888889    0.230769230769    0.000000000000       2
   -0.266666666667    0.230769230769    0.000000000000       2
   -0.244444444444    0.230769230769    0.000000000000       2
   -0.222222222222    0.230769230769    0.000000000000       2
   -0.200000000000    0.230769230769    0.000000000000       2
   -0.177777777778    0.230769230769    0.000000000000       2
   -0.155555555556    0.230769230769    0.000000000000       2
   -0.133333333333    0.230769230769    0.000000000000       2
   -0.111111111111    0.230769230769    0.000000000000       2
   -0.088888888889    0.230769230769    0.000000000000       2
   -0.066666666667    0.230769230769    0.000000000000       2
   -0.044444444444    0.230769230769    0.000000000000       2
   -0.022222222222    0.230769230769    0.000000000000       2
    0.000000000000    0.256410256410    0.000000000000       2
    0.022222222222    0.256410256410    0.000000000000       2
    0.044444444444    0.256410256410    0.000000000000       2
    0.066666666667    0.256410256410    0.000000000000       2
    0.088888888889    0.256410256410    0.000000000000       2
    0.111111111111    0.256410256410    0.000000000000       2
    0.133333333333    0.256410256410    0.000000000000       2
    0.155555555556    0.256410256410    0.000000000000       2
    0.177777777778    0.256410256410    0.000000000000       2
    0.200000000000    0.256410256410    0.000000000000       2
    0.222222222222    0.256410256410    0.000000000000       2
    0.244444444444    0.256410256410    0.000000000000       2
    0.266666666667    0.256410256410    0.000000000000       2
    0.288888888889    0.256410256410    0.000000000000       2
    0.311111111111    0.256410256410    0.000000000000       2
    0.333333333333    0.256410256410    0.000000000000       2
    0.355555555556    0.256410256410    0.000000000000       2
    0.377777777778    0.256410256410    0.000000000000       2
    0.400000000000    0.256410256410    0.000000000000       2
    0.422222222222    0.256410256410    0.000000000000       2
    0.444444444444    0.256410256410    0.000000000000       2
    0.466666666667    0.256410256410    0.000000000000       2
    0.488888888889    0.256410256410    0.000000000000       2
   -0.488888888889    0.256410256410    0.000000000000       2
   -0.466666666667    0.256410256410    0.000000000000       2
   -0.444444444444    0.256410256410    0.000000000000       2
   -0.422222222222    0.256410256410    0.000000000000       2
   -0.400000000000    0.256410256410    0.000000000000       2
   -0.377777777778    0.256410256410    0.000000000000       2
   -0.355555555556    0.256410256410    0.000000000000       2
   -0.333333333333    0.256410256410    0.000000000000       2
   -0.311111111111    0.256410256410    0.000000000000       2
   -0.288888888889    0.256410256410    0.000000000000       2
   -0.266666666667    0.256410256410    0.000000000000       2
   -0.244444444444    0.256410256410    0.000000000000       2
   -0.222222222222    0.256410256410    0.000000000000       2
   -0.200000000000    0.256410256410    0.000000000000       2
   -0.177777777778    0.256410256410    0.000000000000       2
   -0.155555555556    0.256410256410    0.000000000000       2
   -0.133333333333    0.256410256410    0.000000000000       2
   -0.111111111111    0.256410256410    0.000000000000       2
   -0.088888888889    0.256410256410    0.000000000000       2
   -0.066666666667    0.256410256410    0.000000000000       2
   -0.044444444444    0.256410256410    0.000000000000       2
   -0.022222222222    0.256410256410    0.000000000000       2
    0.000000000000    0.282051282051    0.000000000000       2