CONTCAR\(12)                            
   1.00000000000000     
    12.2558002471999998    0.0000000000000000    0.0000000000000000
     6.1279165570999998   10.6146331497999995    0.0000000000000000
     0.0000000000000000    0.0000000000000000   18.0618000031000001
   Ni   P    Se   O 
     8     8    24     1
Direct
  0.1666633505044032  0.1666656691362100  0.4958999222113777
  0.3291073200398039  0.3383032690605297  0.4958575446286180
  0.6709034330869417  0.1674540535597775  0.4958286099181441
  0.8325897473085402  0.3291905443023583  0.4958313349880362
  0.1674078568397038  0.6617386775007310  0.4958541124229297
  0.3383456972314035  0.8326048215580416  0.4958887001862616
  0.6616761894970240  0.6709107029812329  0.4958480994750599
  0.8333283161814490  0.8333963672596796  0.4958574998127626
  0.0038219356657740  0.9962773443016888  0.4338278842678651
  0.5000672699867118  0.0030008607556160  0.5571565221908306
  0.4999071123077697  0.0038310025053467  0.4338339363535645
  0.0029994761477306  0.9970382643413014  0.5571261255360901
  0.9962396483255777  0.5000087569959397  0.4338329563621011
  0.4999944668912604  0.5000455069122727  0.6470949071153967
  0.5000019355994280  0.5000064717243720  0.4849237025524051
  0.9969481910164645  0.5000512717036673  0.5571411003283698
  0.3229240491494017  0.0017681895237123  0.4086675801454980
  0.1818336902005559  0.9971583386393976  0.5814143914555248
  0.1752946344942878  0.3228030688410080  0.4087013467317862
  0.0018233152533820  0.1752812784119951  0.4087041680667017
  0.3210184567754090  0.1817964702560792  0.5814066091431583
  0.5000417009690318  0.3304415488659457  0.5781818626059098
  0.8247571021666369  0.9981040701315800  0.4086383514828409
  0.6791055280482269  0.0029409598212104  0.5813297263892883
  0.6651542213620171  0.3348469442063099  0.4193480206589359
  0.4999734466846413  0.1888696986931614  0.4144077958718079
  0.8221884796511764  0.1778050059404600  0.5822268171375898
  0.9972201252147305  0.3209619720576783  0.5813988958714990
  0.3347632511121202  0.5000404846411383  0.4193128063185172
  0.1777188820954170  0.5000734705613608  0.5822185098534566
  0.1887978183714423  0.8112630299958214  0.4144388006375428
  0.9980265774811061  0.6771786461814906  0.4086474622680911
  0.3305121290378220  0.6695001836567646  0.5782052446024488
  0.5000283773422618  0.8221990262758773  0.5822393886900551
  0.8111492037563971  0.5000567138753563  0.4144183597939994
  0.6695761645941949  0.5000124146916848  0.5781711935583839
  0.6771205176800746  0.8248341571286595  0.4086496757675180
  0.5000647361937018  0.6652425344603083  0.4193360139050213
  0.8180398113045098  0.6790981192478567  0.5813020774787085
  0.0028743923608196  0.8181290787760968  0.5813747374957993
  0.5000407370706237  0.4999717425202579  0.7292566647201125
 
  0.00000000E+00  0.00000000E+00  0.00000000E+00
  0.00000000E+00  0.00000000E+00  0.00000000E+00
  0.00000000E+00  0.00000000E+00  0.00000000E+00
  0.00000000E+00  0.00000000E+00  0.00000000E+00
  0.00000000E+00  0.00000000E+00  0.00000000E+00
  0.00000000E+00  0.00000000E+00  0.00000000E+00
  0.00000000E+00  0.00000000E+00  0.00000000E+00
  0.00000000E+00  0.00000000E+00  0.00000000E+00
  0.00000000E+00  0.00000000E+00  0.00000000E+00
  0.00000000E+00  0.00000000E+00  0.00000000E+00
  0.00000000E+00  0.00000000E+00  0.00000000E+00
  0.00000000E+00  0.00000000E+00  0.00000000E+00
  0.00000000E+00  0.00000000E+00  0.00000000E+00
  0.00000000E+00  0.00000000E+00  0.00000000E+00
  0.00000000E+00  0.00000000E+00  0.00000000E+00
  0.00000000E+00  0.00000000E+00  0.00000000E+00
  0.00000000E+00  0.00000000E+00  0.00000000E+00
  0.00000000E+00  0.00000000E+00  0.00000000E+00
  0.00000000E+00  0.00000000E+00  0.00000000E+00
  0.00000000E+00  0.00000000E+00  0.00000000E+00
  0.00000000E+00  0.00000000E+00  0.00000000E+00
  0.00000000E+00  0.00000000E+00  0.00000000E+00
  0.00000000E+00  0.00000000E+00  0.00000000E+00
  0.00000000E+00  0.00000000E+00  0.00000000E+00
  0.00000000E+00  0.00000000E+00  0.00000000E+00
  0.00000000E+00  0.00000000E+00  0.00000000E+00
  0.00000000E+00  0.00000000E+00  0.00000000E+00
  0.00000000E+00  0.00000000E+00  0.00000000E+00
  0.00000000E+00  0.00000000E+00  0.00000000E+00
  0.00000000E+00  0.00000000E+00  0.00000000E+00
  0.00000000E+00  0.00000000E+00  0.00000000E+00
  0.00000000E+00  0.00000000E+00  0.00000000E+00
  0.00000000E+00  0.00000000E+00  0.00000000E+00
  0.00000000E+00  0.00000000E+00  0.00000000E+00
  0.00000000E+00  0.00000000E+00  0.00000000E+00
  0.00000000E+00  0.00000000E+00  0.00000000E+00
  0.00000000E+00  0.00000000E+00  0.00000000E+00
  0.00000000E+00  0.00000000E+00  0.00000000E+00
  0.00000000E+00  0.00000000E+00  0.00000000E+00
  0.00000000E+00  0.00000000E+00  0.00000000E+00
  0.00000000E+00  0.00000000E+00  0.00000000E+00
