G   41   41    1    0.005     # Parameters to Generate KPOINTS (Don't Edit This Line)
     841
Reciprocal lattice
    0.000000000000    0.000000000000    0.000000000000       1
    0.024390243902    0.000000000000    0.000000000000       2
    0.048780487805    0.000000000000    0.000000000000       2
    0.073170731707    0.000000000000    0.000000000000       2
    0.097560975610    0.000000000000    0.000000000000       2
    0.121951219512    0.000000000000    0.000000000000       2
    0.146341463415    0.000000000000    0.000000000000       2
    0.170731707317    0.000000000000    0.000000000000       2
    0.195121951220    0.000000000000    0.000000000000       2
    0.219512195122    0.000000000000    0.000000000000       2
    0.243902439024    0.000000000000    0.000000000000       2
    0.268292682927    0.000000000000    0.000000000000       2
    0.292682926829    0.000000000000    0.000000000000       2
    0.317073170732    0.000000000000    0.000000000000       2
    0.341463414634    0.000000000000    0.000000000000       2
    0.365853658537    0.000000000000    0.000000000000       2
    0.390243902439    0.000000000000    0.000000000000       2
    0.414634146341    0.000000000000    0.000000000000       2
    0.439024390244    0.000000000000    0.000000000000       2
    0.463414634146    0.000000000000    0.000000000000       2
    0.487804878049    0.000000000000    0.000000000000       2
    0.000000000000    0.024390243902    0.000000000000       2
    0.024390243902    0.024390243902    0.000000000000       2
    0.048780487805    0.024390243902    0.000000000000       2
    0.073170731707    0.024390243902    0.000000000000       2
    0.097560975610    0.024390243902    0.000000000000       2
    0.121951219512    0.024390243902    0.000000000000       2
    0.146341463415    0.024390243902    0.000000000000       2
    0.170731707317    0.024390243902    0.000000000000       2
    0.195121951220    0.024390243902    0.000000000000       2
    0.219512195122    0.024390243902    0.000000000000       2
    0.243902439024    0.024390243902    0.000000000000       2
    0.268292682927    0.024390243902    0.000000000000       2
    0.292682926829    0.024390243902    0.000000000000       2
    0.317073170732    0.024390243902    0.000000000000       2
    0.341463414634    0.024390243902    0.000000000000       2
    0.365853658537    0.024390243902    0.000000000000       2
    0.390243902439    0.024390243902    0.000000000000       2
    0.414634146341    0.024390243902    0.000000000000       2
    0.439024390244    0.024390243902    0.000000000000       2
    0.463414634146    0.024390243902    0.000000000000       2
    0.487804878049    0.024390243902    0.000000000000       2
   -0.487804878049    0.024390243902    0.000000000000       2
   -0.463414634146    0.024390243902    0.000000000000       2
   -0.439024390244    0.024390243902    0.000000000000       2
   -0.414634146341    0.024390243902    0.000000000000       2
   -0.390243902439    0.024390243902    0.000000000000       2
   -0.365853658537    0.024390243902    0.000000000000       2
   -0.341463414634    0.024390243902    0.000000000000       2
   -0.317073170732    0.024390243902    0.000000000000       2
   -0.292682926829    0.024390243902    0.000000000000       2
   -0.268292682927    0.024390243902    0.000000000000       2
   -0.243902439024    0.024390243902    0.000000000000       2
   -0.219512195122    0.024390243902    0.000000000000       2
   -0.195121951220    0.024390243902    0.000000000000       2
   -0.170731707317    0.024390243902    0.000000000000       2
   -0.146341463415    0.024390243902    0.000000000000       2
   -0.121951219512    0.024390243902    0.000000000000       2
   -0.097560975610    0.024390243902    0.000000000000       2
   -0.073170731707    0.024390243902    0.000000000000       2
   -0.048780487805    0.024390243902    0.000000000000       2
   -0.024390243902    0.024390243902    0.000000000000       2
    0.000000000000    0.048780487805    0.000000000000       2
    0.024390243902    0.048780487805    0.000000000000       2
    0.048780487805    0.048780487805    0.000000000000       2
    0.073170731707    0.048780487805    0.000000000000       2
    0.097560975610    0.048780487805    0.000000000000       2
    0.121951219512    0.048780487805    0.000000000000       2
    0.146341463415    0.048780487805    0.000000000000       2
    0.170731707317    0.048780487805    0.000000000000       2
    0.195121951220    0.048780487805    0.000000000000       2
    0.219512195122    0.048780487805    0.000000000000       2
    0.243902439024    0.048780487805    0.000000000000       2
    0.268292682927    0.048780487805    0.000000000000       2
    0.292682926829    0.048780487805    0.000000000000       2
    0.317073170732    0.048780487805    0.000000000000       2
    0.341463414634    0.048780487805    0.000000000000       2
    0.365853658537    0.048780487805    0.000000000000       2
    0.390243902439    0.048780487805    0.000000000000       2
    0.414634146341    0.048780487805    0.000000000000       2
    0.439024390244    0.048780487805    0.000000000000       2
    0.463414634146    0.048780487805    0.000000000000       2
    0.487804878049    0.048780487805    0.000000000000       2
   -0.487804878049    0.048780487805    0.000000000000       2
   -0.463414634146    0.048780487805    0.000000000000       2
   -0.439024390244    0.048780487805    0.000000000000       2
   -0.414634146341    0.048780487805    0.000000000000       2
   -0.390243902439    0.048780487805    0.000000000000       2
   -0.365853658537    0.048780487805    0.000000000000       2
   -0.341463414634    0.048780487805    0.000000000000       2
   -0.317073170732    0.048780487805    0.000000000000       2
   -0.292682926829    0.048780487805    0.000000000000       2
   -0.268292682927    0.048780487805    0.000000000000       2
   -0.243902439024    0.048780487805    0.000000000000       2
   -0.219512195122    0.048780487805    0.000000000000       2
   -0.195121951220    0.048780487805    0.000000000000       2
   -0.170731707317    0.048780487805    0.000000000000       2
   -0.146341463415    0.048780487805    0.000000000000       2
   -0.121951219512    0.048780487805    0.000000000000       2
   -0.097560975610    0.048780487805    0.000000000000       2
   -0.073170731707    0.048780487805    0.000000000000       2
   -0.048780487805    0.048780487805    0.000000000000       2
   -0.024390243902    0.048780487805    0.000000000000       2
    0.000000000000    0.073170731707    0.000000000000       2
    0.024390243902    0.073170731707    0.000000000000       2
    0.048780487805    0.073170731707    0.000000000000       2
    0.073170731707    0.073170731707    0.000000000000       2
    0.097560975610    0.073170731707    0.000000000000       2
    0.121951219512    0.073170731707    0.000000000000       2
    0.146341463415    0.073170731707    0.000000000000       2
    0.170731707317    0.073170731707    0.000000000000       2
    0.195121951220    0.073170731707    0.000000000000       2
    0.219512195122    0.073170731707    0.000000000000       2
    0.243902439024    0.073170731707    0.000000000000       2
    0.268292682927    0.073170731707    0.000000000000       2
    0.292682926829    0.073170731707    0.000000000000       2
    0.317073170732    0.073170731707    0.000000000000       2
    0.341463414634    0.073170731707    0.000000000000       2
    0.365853658537    0.073170731707    0.000000000000       2
    0.390243902439    0.073170731707    0.000000000000       2
    0.414634146341    0.073170731707    0.000000000000       2
    0.439024390244    0.073170731707    0.000000000000       2
    0.463414634146    0.073170731707    0.000000000000       2
    0.487804878049    0.073170731707    0.000000000000       2
   -0.487804878049    0.073170731707    0.000000000000       2
   -0.463414634146    0.073170731707    0.000000000000       2
   -0.439024390244    0.073170731707    0.000000000000       2
   -0.414634146341    0.073170731707    0.000000000000       2
   -0.390243902439    0.073170731707    0.000000000000       2
   -0.365853658537    0.073170731707    0.000000000000       2
   -0.341463414634    0.073170731707    0.000000000000       2
   -0.317073170732    0.073170731707    0.000000000000       2
   -0.292682926829    0.073170731707    0.000000000000       2
   -0.268292682927    0.073170731707    0.000000000000       2
   -0.243902439024    0.073170731707    0.000000000000       2
   -0.219512195122    0.073170731707    0.000000000000       2
   -0.195121951220    0.073170731707    0.000000000000       2
   -0.170731707317    0.073170731707    0.000000000000       2
   -0.146341463415    0.073170731707    0.000000000000       2
   -0.121951219512    0.073170731707    0.000000000000       2
   -0.097560975610    0.073170731707    0.000000000000       2
   -0.073170731707    0.073170731707    0.000000000000       2
   -0.048780487805    0.073170731707    0.000000000000       2
   -0.024390243902    0.073170731707    0.000000000000       2
    0.000000000000    0.097560975610    0.000000000000       2
    0.024390243902    0.097560975610    0.000000000000       2
    0.048780487805    0.097560975610    0.000000000000       2
    0.073170731707    0.097560975610    0.000000000000       2
    0.097560975610    0.097560975610    0.000000000000       2
    0.121951219512    0.097560975610    0.000000000000       2
    0.146341463415    0.097560975610    0.000000000000       2
    0.170731707317    0.097560975610    0.000000000000       2
    0.195121951220    0.097560975610    0.000000000000       2
    0.219512195122    0.097560975610    0.000000000000       2
    0.243902439024    0.097560975610    0.000000000000       2
    0.268292682927    0.097560975610    0.000000000000       2
    0.292682926829    0.097560975610    0.000000000000       2
    0.317073170732    0.097560975610    0.000000000000       2
    0.341463414634    0.097560975610    0.000000000000       2
    0.365853658537    0.097560975610    0.000000000000       2
    0.390243902439    0.097560975610    0.000000000000       2
    0.414634146341    0.097560975610    0.000000000000       2
    0.439024390244    0.097560975610    0.000000000000       2
    0.463414634146    0.097560975610    0.000000000000       2
    0.487804878049    0.097560975610    0.000000000000       2
   -0.487804878049    0.097560975610    0.000000000000       2
   -0.463414634146    0.097560975610    0.000000000000       2
   -0.439024390244    0.097560975610    0.000000000000       2
   -0.414634146341    0.097560975610    0.000000000000       2
   -0.390243902439    0.097560975610    0.000000000000       2
   -0.365853658537    0.097560975610    0.000000000000       2
   -0.341463414634    0.097560975610    0.000000000000       2
   -0.317073170732    0.097560975610    0.000000000000       2
   -0.292682926829    0.097560975610    0.000000000000       2
   -0.268292682927    0.097560975610    0.000000000000       2
   -0.243902439024    0.097560975610    0.000000000000       2
   -0.219512195122    0.097560975610    0.000000000000       2
   -0.195121951220    0.097560975610    0.000000000000       2
   -0.170731707317    0.097560975610    0.000000000000       2
   -0.146341463415    0.097560975610    0.000000000000       2
   -0.121951219512    0.097560975610    0.000000000000       2
   -0.097560975610    0.097560975610    0.000000000000       2
   -0.073170731707    0.097560975610    0.000000000000       2
   -0.048780487805    0.097560975610    0.000000000000       2
   -0.024390243902    0.097560975610    0.000000000000       2
    0.000000000000    0.121951219512    0.000000000000       2
    0.024390243902    0.121951219512    0.000000000000       2
    0.048780487805    0.121951219512    0.000000000000       2
    0.073170731707    0.121951219512    0.000000000000       2
    0.097560975610    0.121951219512    0.000000000000       2
    0.121951219512    0.121951219512    0.000000000000       2
    0.146341463415    0.121951219512    0.000000000000       2
    0.170731707317    0.121951219512    0.000000000000       2
    0.195121951220    0.121951219512    0.000000000000       2
    0.219512195122    0.121951219512    0.000000000000       2
    0.243902439024    0.121951219512    0.000000000000       2
    0.268292682927    0.121951219512    0.000000000000       2
    0.292682926829    0.121951219512    0.000000000000       2
    0.317073170732    0.121951219512    0.000000000000       2
    0.341463414634    0.121951219512    0.000000000000       2
    0.365853658537    0.121951219512    0.000000000000       2
    0.390243902439    0.121951219512    0.000000000000       2
    0.414634146341    0.121951219512    0.000000000000       2
    0.439024390244    0.121951219512    0.000000000000       2
    0.463414634146    0.121951219512    0.000000000000       2
    0.487804878049    0.121951219512    0.000000000000       2
   -0.487804878049    0.121951219512    0.000000000000       2
   -0.463414634146    0.121951219512    0.000000000000       2
   -0.439024390244    0.121951219512    0.000000000000       2
   -0.414634146341    0.121951219512    0.000000000000       2
   -0.390243902439    0.121951219512    0.000000000000       2
   -0.365853658537    0.121951219512    0.000000000000       2
   -0.341463414634    0.121951219512    0.000000000000       2
   -0.317073170732    0.121951219512    0.000000000000       2
   -0.292682926829    0.121951219512    0.000000000000       2
   -0.268292682927    0.121951219512    0.000000000000       2
   -0.243902439024    0.121951219512    0.000000000000       2
   -0.219512195122    0.121951219512    0.000000000000       2
   -0.195121951220    0.121951219512    0.000000000000       2
   -0.170731707317    0.121951219512    0.000000000000       2
   -0.146341463415    0.121951219512    0.000000000000       2
   -0.121951219512    0.121951219512    0.000000000000       2
   -0.097560975610    0.121951219512    0.000000000000       2
   -0.073170731707    0.121951219512    0.000000000000       2
   -0.048780487805    0.121951219512    0.000000000000       2
   -0.024390243902    0.121951219512    0.000000000000       2
    0.000000000000    0.146341463415    0.000000000000       2
    0.024390243902    0.146341463415    0.000000000000       2
    0.048780487805    0.146341463415    0.000000000000       2
    0.073170731707    0.146341463415    0.000000000000       2
    0.097560975610    0.146341463415    0.000000000000       2
    0.121951219512    0.146341463415    0.000000000000       2
    0.146341463415    0.146341463415    0.000000000000       2
    0.170731707317    0.146341463415    0.000000000000       2
    0.195121951220    0.146341463415    0.000000000000       2
    0.219512195122    0.146341463415    0.000000000000       2
    0.243902439024    0.146341463415    0.000000000000       2
    0.268292682927    0.146341463415    0.000000000000       2
    0.292682926829    0.146341463415    0.000000000000       2
    0.317073170732    0.146341463415    0.000000000000       2
    0.341463414634    0.146341463415    0.000000000000       2
    0.365853658537    0.146341463415    0.000000000000       2
    0.390243902439    0.146341463415    0.000000000000       2
    0.414634146341    0.146341463415    0.000000000000       2
    0.439024390244    0.146341463415    0.000000000000       2
    0.463414634146    0.146341463415    0.000000000000       2
    0.487804878049    0.146341463415    0.000000000000       2
   -0.487804878049    0.146341463415    0.000000000000       2
   -0.463414634146    0.146341463415    0.000000000000       2
   -0.439024390244    0.146341463415    0.000000000000       2
   -0.414634146341    0.146341463415    0.000000000000       2
   -0.390243902439    0.146341463415    0.000000000000       2
   -0.365853658537    0.146341463415    0.000000000000       2
   -0.341463414634    0.146341463415    0.000000000000       2
   -0.317073170732    0.146341463415    0.000000000000       2
   -0.292682926829    0.146341463415    0.000000000000       2
   -0.268292682927    0.146341463415    0.000000000000       2
   -0.243902439024    0.146341463415    0.000000000000       2
   -0.219512195122    0.146341463415    0.000000000000       2
   -0.195121951220    0.146341463415    0.000000000000       2
   -0.170731707317    0.146341463415    0.000000000000       2
   -0.146341463415    0.146341463415    0.000000000000       2
   -0.121951219512    0.146341463415    0.000000000000       2
   -0.097560975610    0.146341463415    0.000000000000       2
   -0.073170731707    0.146341463415    0.000000000000       2
   -0.048780487805    0.146341463415    0.000000000000       2
   -0.024390243902    0.146341463415    0.000000000000       2
    0.000000000000    0.170731707317    0.000000000000       2
    0.024390243902    0.170731707317    0.000000000000       2
    0.048780487805    0.170731707317    0.000000000000       2
    0.073170731707    0.170731707317    0.000000000000       2
    0.097560975610    0.170731707317    0.000000000000       2
    0.121951219512    0.170731707317    0.000000000000       2
    0.146341463415    0.170731707317    0.000000000000       2
    0.170731707317    0.170731707317    0.000000000000       2
    0.195121951220    0.170731707317    0.000000000000       2
    0.219512195122    0.170731707317    0.000000000000       2
    0.243902439024    0.170731707317    0.000000000000       2
    0.268292682927    0.170731707317    0.000000000000       2
    0.292682926829    0.170731707317    0.000000000000       2
    0.317073170732    0.170731707317    0.000000000000       2
    0.341463414634    0.170731707317    0.000000000000       2
    0.365853658537    0.170731707317    0.000000000000       2
    0.390243902439    0.170731707317    0.000000000000       2
    0.414634146341    0.170731707317    0.000000000000       2
    0.439024390244    0.170731707317    0.000000000000       2
    0.463414634146    0.170731707317    0.000000000000       2
    0.487804878049    0.170731707317    0.000000000000       2
   -0.487804878049    0.170731707317    0.000000000000       2
   -0.463414634146    0.170731707317    0.000000000000       2
   -0.439024390244    0.170731707317    0.000000000000       2
   -0.414634146341    0.170731707317    0.000000000000       2
   -0.390243902439    0.170731707317    0.000000000000       2
   -0.365853658537    0.170731707317    0.000000000000       2
   -0.341463414634    0.170731707317    0.000000000000       2
   -0.317073170732    0.170731707317    0.000000000000       2
   -0.292682926829    0.170731707317    0.000000000000       2
   -0.268292682927    0.170731707317    0.000000000000       2
   -0.243902439024    0.170731707317    0.000000000000       2
   -0.219512195122    0.170731707317    0.000000000000       2
   -0.195121951220    0.170731707317    0.000000000000       2
   -0.170731707317    0.170731707317    0.000000000000       2
   -0.146341463415    0.170731707317    0.000000000000       2
   -0.121951219512    0.170731707317    0.000000000000       2
   -0.097560975610    0.170731707317    0.000000000000       2
   -0.073170731707    0.170731707317    0.000000000000       2
   -0.048780487805    0.170731707317    0.000000000000       2
   -0.024390243902    0.170731707317    0.000000000000       2
    0.000000000000    0.195121951220    0.000000000000       2
    0.024390243902    0.195121951220    0.000000000000       2
    0.048780487805    0.195121951220    0.000000000000       2
    0.073170731707    0.195121951220    0.000000000000       2
    0.097560975610    0.195121951220    0.000000000000       2
    0.121951219512    0.195121951220    0.000000000000       2
    0.146341463415    0.195121951220    0.000000000000       2
    0.170731707317    0.195121951220    0.000000000000       2
    0.195121951220    0.195121951220    0.000000000000       2
    0.219512195122    0.195121951220    0.000000000000       2
    0.243902439024    0.195121951220    0.000000000000       2
    0.268292682927    0.195121951220    0.000000000000       2
    0.292682926829    0.195121951220    0.000000000000       2
    0.317073170732    0.195121951220    0.000000000000       2
    0.341463414634    0.195121951220    0.000000000000       2
    0.365853658537    0.195121951220    0.000000000000       2
    0.390243902439    0.195121951220    0.000000000000       2
    0.414634146341    0.195121951220    0.000000000000       2
    0.439024390244    0.195121951220    0.000000000000       2
    0.463414634146    0.195121951220    0.000000000000       2
    0.487804878049    0.195121951220    0.000000000000       2
   -0.487804878049    0.195121951220    0.000000000000       2
   -0.463414634146    0.195121951220    0.000000000000       2
   -0.439024390244    0.195121951220    0.000000000000       2
   -0.414634146341    0.195121951220    0.000000000000       2
   -0.390243902439    0.195121951220    0.000000000000       2
   -0.365853658537    0.195121951220    0.000000000000       2
   -0.341463414634    0.195121951220    0.000000000000       2
   -0.317073170732    0.195121951220    0.000000000000       2
   -0.292682926829    0.195121951220    0.000000000000       2
   -0.268292682927    0.195121951220    0.000000000000       2
   -0.243902439024    0.195121951220    0.000000000000       2
   -0.219512195122    0.195121951220    0.000000000000       2
   -0.195121951220    0.195121951220    0.000000000000       2
   -0.170731707317    0.195121951220    0.000000000000       2
   -0.146341463415    0.195121951220    0.000000000000       2
   -0.121951219512    0.195121951220    0.000000000000       2
   -0.097560975610    0.195121951220    0.000000000000       2
   -0.073170731707    0.195121951220    0.000000000000       2
   -0.048780487805    0.195121951220    0.000000000000       2
   -0.024390243902    0.195121951220    0.000000000000       2
    0.000000000000    0.219512195122    0.000000000000       2
    0.024390243902    0.219512195122    0.000000000000       2
    0.048780487805    0.219512195122    0.000000000000       2
    0.073170731707    0.219512195122    0.000000000000       2
    0.097560975610    0.219512195122    0.000000000000       2
    0.121951219512    0.219512195122    0.000000000000       2
    0.146341463415    0.219512195122    0.000000000000       2
    0.170731707317    0.219512195122    0.000000000000       2
    0.195121951220    0.219512195122    0.000000000000       2
    0.219512195122    0.219512195122    0.000000000000       2
    0.243902439024    0.219512195122    0.000000000000       2
    0.268292682927    0.219512195122    0.000000000000       2
    0.292682926829    0.219512195122    0.000000000000       2
    0.317073170732    0.219512195122    0.000000000000       2
    0.341463414634    0.219512195122    0.000000000000       2
    0.365853658537    0.219512195122    0.000000000000       2
    0.390243902439    0.219512195122    0.000000000000       2
    0.414634146341    0.219512195122    0.000000000000       2
    0.439024390244    0.219512195122    0.000000000000       2
    0.463414634146    0.219512195122    0.000000000000       2
    0.487804878049    0.219512195122    0.000000000000       2
   -0.487804878049    0.219512195122    0.000000000000       2
   -0.463414634146    0.219512195122    0.000000000000       2
   -0.439024390244    0.219512195122    0.000000000000       2
   -0.414634146341    0.219512195122    0.000000000000       2
   -0.390243902439    0.219512195122    0.000000000000       2
   -0.365853658537    0.219512195122    0.000000000000       2
   -0.341463414634    0.219512195122    0.000000000000       2
   -0.317073170732    0.219512195122    0.000000000000       2
   -0.292682926829    0.219512195122    0.000000000000       2
   -0.268292682927    0.219512195122    0.000000000000       2
   -0.243902439024    0.219512195122    0.000000000000       2
   -0.219512195122    0.219512195122    0.000000000000       2
   -0.195121951220    0.219512195122    0.000000000000       2
   -0.170731707317    0.219512195122    0.000000000000       2
   -0.146341463415    0.219512195122    0.000000000000       2
   -0.121951219512    0.219512195122    0.000000000000       2
   -0.097560975610    0.219512195122    0.000000000000       2
   -0.073170731707    0.219512195122    0.000000000000       2
   -0.048780487805    0.219512195122    0.000000000000       2
   -0.024390243902    0.219512195122    0.000000000000       2
    0.000000000000    0.243902439024    0.000000000000       2
    0.024390243902    0.243902439024    0.000000000000       2
    0.048780487805    0.243902439024    0.000000000000       2
    0.073170731707    0.243902439024    0.000000000000       2
    0.097560975610    0.243902439024    0.000000000000       2
    0.121951219512    0.243902439024    0.000000000000       2
    0.146341463415    0.243902439024    0.000000000000       2
    0.170731707317    0.243902439024    0.000000000000       2
    0.195121951220    0.243902439024    0.000000000000       2
    0.219512195122    0.243902439024    0.000000000000       2
    0.243902439024    0.243902439024    0.000000000000       2
    0.268292682927    0.243902439024    0.000000000000       2
    0.292682926829    0.243902439024    0.000000000000       2
    0.317073170732    0.243902439024    0.000000000000       2
    0.341463414634    0.243902439024    0.000000000000       2
    0.365853658537    0.243902439024    0.000000000000       2
    0.390243902439    0.243902439024    0.000000000000       2
    0.414634146341    0.243902439024    0.000000000000       2
    0.439024390244    0.243902439024    0.000000000000       2
    0.463414634146    0.243902439024    0.000000000000       2
    0.487804878049    0.243902439024    0.000000000000       2
   -0.487804878049    0.243902439024    0.000000000000       2
   -0.463414634146    0.243902439024    0.000000000000       2
   -0.439024390244    0.243902439024    0.000000000000       2
   -0.414634146341    0.243902439024    0.000000000000       2
   -0.390243902439    0.243902439024    0.000000000000       2
   -0.365853658537    0.243902439024    0.000000000000       2
   -0.341463414634    0.243902439024    0.000000000000       2
   -0.317073170732    0.243902439024    0.000000000000       2
   -0.292682926829    0.243902439024    0.000000000000       2
   -0.268292682927    0.243902439024    0.000000000000       2
   -0.243902439024    0.243902439024    0.000000000000       2
   -0.219512195122    0.243902439024    0.000000000000       2
   -0.195121951220    0.243902439024    0.000000000000       2
   -0.170731707317    0.243902439024    0.000000000000       2
   -0.146341463415    0.243902439024    0.000000000000       2
   -0.121951219512    0.243902439024    0.000000000000       2
   -0.097560975610    0.243902439024    0.000000000000       2
   -0.073170731707    0.243902439024    0.000000000000       2
   -0.048780487805    0.243902439024    0.000000000000       2
   -0.024390243902    0.243902439024    0.000000000000       2
    0.000000000000    0.268292682927    0.000000000000       2
    0.024390243902    0.268292682927    0.000000000000       2
    0.048780487805    0.268292682927    0.000000000000       2
    0.073170731707    0.268292682927    0.000000000000       2
    0.097560975610    0.268292682927    0.000000000000       2
    0.121951219512    0.268292682927    0.000000000000       2
    0.146341463415    0.268292682927    0.000000000000       2
    0.170731707317    0.268292682927    0.000000000000       2
    0.195121951220    0.268292682927    0.000000000000       2
    0.219512195122    0.268292682927    0.000000000000       2
    0.243902439024    0.268292682927    0.000000000000       2
    0.268292682927    0.268292682927    0.000000000000       2
    0.292682926829    0.268292682927    0.000000000000       2
    0.317073170732    0.268292682927    0.000000000000       2
    0.341463414634    0.268292682927    0.000000000000       2
    0.365853658537    0.268292682927    0.000000000000       2
    0.390243902439    0.268292682927    0.000000000000       2
    0.414634146341    0.268292682927    0.000000000000       2
    0.439024390244    0.268292682927    0.000000000000       2
    0.463414634146    0.268292682927    0.000000000000       2
    0.487804878049    0.268292682927    0.000000000000       2
   -0.487804878049    0.268292682927    0.000000000000       2
   -0.463414634146    0.268292682927    0.000000000000       2
   -0.439024390244    0.268292682927    0.000000000000       2
   -0.414634146341    0.268292682927    0.000000000000       2
   -0.390243902439    0.268292682927    0.000000000000       2
   -0.365853658537    0.268292682927    0.000000000000       2
   -0.341463414634    0.268292682927    0.000000000000       2
   -0.317073170732    0.268292682927    0.000000000000       2
   -0.292682926829    0.268292682927    0.000000000000       2
   -0.268292682927    0.268292682927    0.000000000000       2
   -0.243902439024    0.268292682927    0.000000000000       2
   -0.219512195122    0.268292682927    0.000000000000       2
   -0.195121951220    0.268292682927    0.000000000000       2
   -0.170731707317    0.268292682927    0.000000000000       2
   -0.146341463415    0.268292682927    0.000000000000       2
   -0.121951219512    0.268292682927    0.000000000000       2
   -0.097560975610    0.268292682927    0.000000000000       2
   -0.073170731707    0.268292682927    0.000000000000       2
   -0.048780487805    0.268292682927    0.000000000000       2
   -0.024390243902    0.268292682927    0.000000000000       2
    0.000000000000    0.292682926829    0.000000000000       2
    0.024390243902    0.292682926829    0.000000000000       2