 Tl2 Cu1 F4                             
   1.00000000000000     
     4.0919076053351411    0.0000000000000000    0.0000000000000000
     0.0000000000000000    4.0919061558872762    0.0000000000000000
     0.0000000000000000    0.0000000000000000   19.0005590110199982
   Tl   Cu   F 
     2     1     4
Direct
  0.4999999561768433  0.4999999906160184  0.6082539190145705
  0.5000000180936510  0.5000000090535934  0.3917460650836038
  0.9999999920080711  0.0000000058013327  0.5000000086173699
  0.0000000275655978  0.9999999426786346  0.3963147292112796
  0.9999999915171358  0.0000000529436193  0.6036852877738039
  0.0000000190190050  0.5000000054622049  0.4999999922513041
  0.4999999956197101  0.9999999934446038  0.4999999980480681
 
  0.00000000E+00  0.00000000E+00  0.00000000E+00
  0.00000000E+00  0.00000000E+00  0.00000000E+00
  0.00000000E+00  0.00000000E+00  0.00000000E+00
  0.00000000E+00  0.00000000E+00  0.00000000E+00
  0.00000000E+00  0.00000000E+00  0.00000000E+00
  0.00000000E+00  0.00000000E+00  0.00000000E+00
  0.00000000E+00  0.00000000E+00  0.00000000E+00
