CONTCAR\(7)                             
   1.00000000000000     
    14.3652000426999997    0.0000000000000000    0.0000000000000000
     7.1792291409000004   12.4398023524999992    0.0000000000000000
     0.0000000000000000    0.0000000000000000   17.6567993164000008
   Co   Te   O 
    16    32     1
Direct
  0.9798786515349320  0.0165764200547827  0.4976225216515147
  0.2531647338016256  0.0038924725443437  0.4985987513066519
  0.4900695656918899  0.0060229466009147  0.5022791636344834
  0.7612727325677326  0.0131388432763373  0.5011672279716137
  0.9998463690397159  0.2666732886894323  0.5001502047012423
  0.2646412740016828  0.2264952357268299  0.4964068202046334
  0.4937239344442119  0.2576276775905626  0.5174169364914789
  0.7651022999214803  0.2265250505257725  0.5000966155293725
  0.9995126635674652  0.4827425838602295  0.4960998761491311
  0.2411907967903630  0.5092393537139017  0.5106156809485256
  0.5235157920772053  0.5188465716459305  0.4982715018312618
  0.7269228867526394  0.5105922435536456  0.4933689117994220
  0.0242277328770015  0.7354453260661984  0.5039629183965104
  0.2409825571507298  0.7496689715001992  0.5106889897782665
  0.5103706167793618  0.7268212062400465  0.4929154989760960
  0.7528154848261579  0.7553230477013742  0.5001877515749626
  0.1646795124832039  0.1677514034745968  0.5858160295722783
  0.0801626120058856  0.0930115566034999  0.4220230674175127
  0.4154390464155711  0.1625868200942335  0.5932264734299579
  0.3403307240691618  0.0726386171299538  0.4055080757239082
  0.6670989498825080  0.1689194696567853  0.5928689635613580
  0.5810134404392358  0.0930312354292298  0.4296771600229548
  0.9254598274260246  0.1753305667685865  0.5858769066190064
  0.8322426161813610  0.0848936419312167  0.4009807988089804
  0.1651411835393191  0.4023401958510533  0.5800786258059247
  0.0985140826627102  0.3221507007418296  0.4103374064661338
  0.3903503683526921  0.4123470850823239  0.6042756818806865
  0.3342334884085219  0.3369048212611148  0.4290387193704035
  0.6869226641892467  0.3985139911026607  0.5812763685981892
  0.5793353459429369  0.3380745551348241  0.4362275927152055
  0.8932676533145880  0.4304436263519520  0.5840508318972368
  0.8321876350975970  0.3326902557133664  0.4192012119144337
  0.1680168786548819  0.6659246960185641  0.6021779913554610
  0.0843319986259274  0.5731130533526638  0.4190620621841603
  0.4088585333174493  0.6793366815945774  0.5886894105399065
  0.3407750170439598  0.5793211438193708  0.4303105358272461
  0.6702614509477485  0.6713874546421650  0.5820522253329301
  0.5852432774432330  0.5860271274806053  0.3939669210092305
  0.9245111761927660  0.6559814882355397  0.5764678963779488
  0.8290610299653309  0.5849891228109740  0.4173458976399615
  0.1544355081971887  0.9307173445505299  0.5786811038143824
  0.0829372232086314  0.8417796654728491  0.4203765171726985
  0.4213115901072513  0.9000046644554871  0.5808401894490203
  0.3289154539401409  0.8294186609641869  0.4244090995989680
  0.6682833558403516  0.9258653253374831  0.5764072329223708
  0.5823612843702080  0.8345082343724641  0.4210894185239056
  0.9253352033322670  0.9094958452354973  0.5848197569664038
  0.8461094283360922  0.8338905915518779  0.4257801253789566
  0.4652245582417720  0.5010885684874538  0.5990202511571496
 
  0.00000000E+00  0.00000000E+00  0.00000000E+00
  0.00000000E+00  0.00000000E+00  0.00000000E+00
  0.00000000E+00  0.00000000E+00  0.00000000E+00
  0.00000000E+00  0.00000000E+00  0.00000000E+00
  0.00000000E+00  0.00000000E+00  0.00000000E+00
  0.00000000E+00  0.00000000E+00  0.00000000E+00
  0.00000000E+00  0.00000000E+00  0.00000000E+00
  0.00000000E+00  0.00000000E+00  0.00000000E+00
  0.00000000E+00  0.00000000E+00  0.00000000E+00
  0.00000000E+00  0.00000000E+00  0.00000000E+00
  0.00000000E+00  0.00000000E+00  0.00000000E+00
  0.00000000E+00  0.00000000E+00  0.00000000E+00
  0.00000000E+00  0.00000000E+00  0.00000000E+00
  0.00000000E+00  0.00000000E+00  0.00000000E+00
  0.00000000E+00  0.00000000E+00  0.00000000E+00
  0.00000000E+00  0.00000000E+00  0.00000000E+00
  0.00000000E+00  0.00000000E+00  0.00000000E+00
  0.00000000E+00  0.00000000E+00  0.00000000E+00
  0.00000000E+00  0.00000000E+00  0.00000000E+00
  0.00000000E+00  0.00000000E+00  0.00000000E+00
  0.00000000E+00  0.00000000E+00  0.00000000E+00
  0.00000000E+00  0.00000000E+00  0.00000000E+00
  0.00000000E+00  0.00000000E+00  0.00000000E+00
  0.00000000E+00  0.00000000E+00  0.00000000E+00
  0.00000000E+00  0.00000000E+00  0.00000000E+00
  0.00000000E+00  0.00000000E+00  0.00000000E+00
  0.00000000E+00  0.00000000E+00  0.00000000E+00
  0.00000000E+00  0.00000000E+00  0.00000000E+00
  0.00000000E+00  0.00000000E+00  0.00000000E+00
  0.00000000E+00  0.00000000E+00  0.00000000E+00
  0.00000000E+00  0.00000000E+00  0.00000000E+00
  0.00000000E+00  0.00000000E+00  0.00000000E+00
  0.00000000E+00  0.00000000E+00  0.00000000E+00
  0.00000000E+00  0.00000000E+00  0.00000000E+00
  0.00000000E+00  0.00000000E+00  0.00000000E+00
  0.00000000E+00  0.00000000E+00  0.00000000E+00
  0.00000000E+00  0.00000000E+00  0.00000000E+00
  0.00000000E+00  0.00000000E+00  0.00000000E+00
  0.00000000E+00  0.00000000E+00  0.00000000E+00
  0.00000000E+00  0.00000000E+00  0.00000000E+00
  0.00000000E+00  0.00000000E+00  0.00000000E+00
  0.00000000E+00  0.00000000E+00  0.00000000E+00
  0.00000000E+00  0.00000000E+00  0.00000000E+00
  0.00000000E+00  0.00000000E+00  0.00000000E+00
  0.00000000E+00  0.00000000E+00  0.00000000E+00
  0.00000000E+00  0.00000000E+00  0.00000000E+00
  0.00000000E+00  0.00000000E+00  0.00000000E+00
  0.00000000E+00  0.00000000E+00  0.00000000E+00
  0.00000000E+00  0.00000000E+00  0.00000000E+00
