CONTCAR\(13)                            
   1.00000000000000     
    14.5263996124000005    0.0000000000000000    0.0000000000000000
     0.0000000000000000   11.8698997498000001    0.0000000000000000
     0.0000000000000000    0.0000000000000000   16.1145992279000012
   Cu   Br   O 
    10    10    20
Direct
  0.0999999980000013 -0.0000155859385594  0.5000055787701527
  0.3000000199999988 -0.0000155859385594  0.5000055787701527
  0.5000000000000000 -0.0000155859385594  0.5000055787701527
  0.7000000130000004 -0.0000155859385594  0.5000055787701527
  0.8999999609999989 -0.0000155859385594  0.5000055787701527
  0.0999999980000013  0.4999843820614379  0.5000055787701527
  0.3000000199999988  0.4999843820614379  0.5000055787701527
  0.5000000000000000  0.4999843820614379  0.5000055787701527
  0.7000000130000004  0.4999843820614379  0.5000055787701527
  0.8999999609999989  0.4999843820614379  0.5000055787701527
 -0.0000000000000000  0.2500038008367614  0.5000000019996977
  0.1999999969999990  0.2500038008367614  0.5000000019996977
  0.3999999930000016  0.2500038008367614  0.5000000019996977
  0.6000000390000011  0.2500038008367614  0.5000000019996977
  0.7999999869999996  0.2500038008367614  0.5000000019996977
 -0.0000000000000000  0.7500037608367581  0.5000000019996977
  0.1999999969999990  0.7500037608367581  0.5000000019996977
  0.3999999930000016  0.7500037608367581  0.5000000019996977
  0.6000000390000011  0.7500037608367581  0.5000000019996977
  0.7999999869999996  0.7500037608367581  0.5000000019996977
  0.0000000000000000  0.4108418583341945  0.5376506045786740
 -0.0000000000000000  0.0891699187676100  0.4623438146514755
  0.1999999969999990  0.4108418583341945  0.5376506045786740
  0.1999999969999990  0.0891699187676100  0.4623438146514755
  0.3999999930000016  0.4108418583341945  0.5376506045786740
  0.3999999930000016  0.0891699187676100  0.4623438146514755
  0.6000000390000011  0.4108418583341945  0.5376506045786740
  0.6000000390000011  0.0891699187676100  0.4623438146514755
  0.7999999869999996  0.4108418583341945  0.5376506045786740
  0.7999999869999996  0.0891699187676100  0.4623438146514755
  0.0000000000000000  0.9108418583341945  0.5376506045786740
 -0.0000000000000000  0.5891699187676099  0.4623438146514755
  0.1999999969999990  0.9108418583341945  0.5376506045786740
  0.1999999969999990  0.5891699187676099  0.4623438146514755
  0.3999999930000016  0.9108418583341945  0.5376506045786740
  0.3999999930000016  0.5891699187676099  0.4623438146514755
  0.6000000390000011  0.9108418583341945  0.5376506045786740
  0.6000000390000011  0.5891699187676099  0.4623438146514755
  0.7999999869999996  0.9108418583341945  0.5376506045786740
  0.7999999869999996  0.5891699187676099  0.4623438146514755
 
  0.00000000E+00  0.00000000E+00  0.00000000E+00
  0.00000000E+00  0.00000000E+00  0.00000000E+00
  0.00000000E+00  0.00000000E+00  0.00000000E+00
  0.00000000E+00  0.00000000E+00  0.00000000E+00
  0.00000000E+00  0.00000000E+00  0.00000000E+00
  0.00000000E+00  0.00000000E+00  0.00000000E+00
  0.00000000E+00  0.00000000E+00  0.00000000E+00
  0.00000000E+00  0.00000000E+00  0.00000000E+00
  0.00000000E+00  0.00000000E+00  0.00000000E+00
  0.00000000E+00  0.00000000E+00  0.00000000E+00
  0.00000000E+00  0.00000000E+00  0.00000000E+00
  0.00000000E+00  0.00000000E+00  0.00000000E+00
  0.00000000E+00  0.00000000E+00  0.00000000E+00
  0.00000000E+00  0.00000000E+00  0.00000000E+00
  0.00000000E+00  0.00000000E+00  0.00000000E+00
  0.00000000E+00  0.00000000E+00  0.00000000E+00
  0.00000000E+00  0.00000000E+00  0.00000000E+00
  0.00000000E+00  0.00000000E+00  0.00000000E+00
  0.00000000E+00  0.00000000E+00  0.00000000E+00
  0.00000000E+00  0.00000000E+00  0.00000000E+00
  0.00000000E+00  0.00000000E+00  0.00000000E+00
  0.00000000E+00  0.00000000E+00  0.00000000E+00
  0.00000000E+00  0.00000000E+00  0.00000000E+00
  0.00000000E+00  0.00000000E+00  0.00000000E+00
  0.00000000E+00  0.00000000E+00  0.00000000E+00
  0.00000000E+00  0.00000000E+00  0.00000000E+00
  0.00000000E+00  0.00000000E+00  0.00000000E+00
  0.00000000E+00  0.00000000E+00  0.00000000E+00
  0.00000000E+00  0.00000000E+00  0.00000000E+00
  0.00000000E+00  0.00000000E+00  0.00000000E+00
  0.00000000E+00  0.00000000E+00  0.00000000E+00
  0.00000000E+00  0.00000000E+00  0.00000000E+00
  0.00000000E+00  0.00000000E+00  0.00000000E+00
  0.00000000E+00  0.00000000E+00  0.00000000E+00
  0.00000000E+00  0.00000000E+00  0.00000000E+00
  0.00000000E+00  0.00000000E+00  0.00000000E+00
  0.00000000E+00  0.00000000E+00  0.00000000E+00
  0.00000000E+00  0.00000000E+00  0.00000000E+00
  0.00000000E+00  0.00000000E+00  0.00000000E+00
  0.00000000E+00  0.00000000E+00  0.00000000E+00
