CONTCAR\(10)                            
   1.00000000000000     
    13.8203001021999992    0.0000000000000000    0.0000000000000000
     1.7075399424000000   15.0073707208999991    0.0000000000000000
     0.0000000000000000    0.0000000000000000   18.4675998688000007
   Nb   Ir   Se
    18     2    40
Direct
  0.0856409362282024  0.1834071447555976  0.5029896690267763
  0.0052579563460381  0.9784734012469171  0.4959422088024671
  0.4002239585977349  0.8017963220161537  0.4989873112758325
  0.2941849284906722  0.6233159850762069  0.5014864307635918
  0.2508385969171603  0.9829423443888523  0.4978534391004376
  0.1901625331052493  0.4245308546510084  0.5060738520539715
  0.1494984832912654  0.8037366856528468  0.4992016008115307
  0.0459405589283146  0.6220334862538230  0.5010833957360549
  0.4450138511973208  0.3824974563841990  0.4988107957064932
  0.5856409182282010  0.1834071447555976  0.5029896690267763
  0.5052579653460425  0.9784734012469171  0.4959422088024671
  0.9002239585977349  0.8017963220161537  0.4989873112758325
  0.7941849624906679  0.6233159850762069  0.5014864307635918
  0.7508386309171632  0.9829423443888523  0.4978534391004376
  0.6901625331052493  0.4245308546510084  0.5060738520539715
  0.6494885292912660  0.8037366856528468  0.4992016008115307
  0.5459405329283197  0.6220334862538230  0.5010833957360549
  0.9450138511973207  0.3824974563841990  0.4988107957064932
  0.3689014324920022  0.2099925545645046  0.4987651043259663
  0.8689013974920029  0.2099925545645046  0.4987651043259663
  0.4705358576635938  0.2659759901270966  0.5979472157310753
  0.0837106283560543  0.3350795139434896  0.4159130395910417
  0.3675565757976814  0.0707805323075462  0.5749633507057185
  0.4835391306997334  0.1282240678228467  0.4071429292793979
  0.2678387900699465  0.8656530258387284  0.5946917673069829
  0.2212698771081350  0.2668096072010641  0.5730318973435724
  0.3817046391445899  0.9326754188148583  0.4026045322815279
  0.3268691494108535  0.3361312200282551  0.4104206127340658
  0.1638328987515249  0.6738991194292392  0.5965159577443702
  0.1138971378529989  0.0574259899208876  0.5905584310852071
  0.2411956173068305  0.1398334963847040  0.4242085363055887
  0.2822194268177133  0.7399454369468468  0.4041426619413118
  0.0584812481448420  0.4745653843729939  0.5905514246271515
  0.0160899246708958  0.8638108298016339  0.5948182199025107
  0.1797999645737403  0.5433068408931501  0.4104205860470713
  0.1348866495127626  0.9332318654954546  0.4004604317652991
  0.4142819200114559  0.6726869798597925  0.5961307499893677
  0.0317316176617505  0.7395110747706729  0.4041238750664930
  0.3180555258163575  0.4740760796156526  0.5878478947347657
  0.4302900430345746  0.5352813884350043  0.4222920662143443
  0.9705358226635874  0.2659759901270966  0.5979472157310753
  0.5837106283560543  0.3350795139434896  0.4159130395910417
  0.8675566447976836  0.0707805323075462  0.5749633507057185
  0.9835391656997327  0.1282240678228467  0.4071429292793979
  0.7678387900699467  0.8656530258387284  0.5946917673069829
  0.7212698081081400  0.2668096072010641  0.5730318973435724
  0.8817046731445927  0.9326754188148583  0.4026045322815279
  0.8268691844108529  0.3361312200282551  0.4104206127340658
  0.6638330027515265  0.6738991194292392  0.5965159577443702
  0.6138971808529989  0.0574259899208876  0.5905584310852071
  0.7411956173068305  0.1398334963847040  0.4242085363055887
  0.7822194618177127  0.7399454369468468  0.4041426619413118
  0.5584812391448448  0.4745653843729939  0.5905514246271515
  0.5160899076708979  0.8638108298016339  0.5948182199025107
  0.6797999645737403  0.5433068408931501  0.4104205860470713
  0.6348866495127626  0.9332318654954546  0.4004604317652991
  0.9142818860114530  0.6726869798597925  0.5961307499893677
  0.5317315836617477  0.7395110747706729  0.4041238750664930
  0.8180555258163575  0.4740760796156526  0.5878478947347657
  0.9302900430345746  0.5352813884350043  0.4222920662143443
 
  0.00000000E+00  0.00000000E+00  0.00000000E+00
  0.00000000E+00  0.00000000E+00  0.00000000E+00
  0.00000000E+00  0.00000000E+00  0.00000000E+00
  0.00000000E+00  0.00000000E+00  0.00000000E+00
  0.00000000E+00  0.00000000E+00  0.00000000E+00
  0.00000000E+00  0.00000000E+00  0.00000000E+00
  0.00000000E+00  0.00000000E+00  0.00000000E+00
  0.00000000E+00  0.00000000E+00  0.00000000E+00
  0.00000000E+00  0.00000000E+00  0.00000000E+00
  0.00000000E+00  0.00000000E+00  0.00000000E+00
  0.00000000E+00  0.00000000E+00  0.00000000E+00
  0.00000000E+00  0.00000000E+00  0.00000000E+00
  0.00000000E+00  0.00000000E+00  0.00000000E+00
  0.00000000E+00  0.00000000E+00  0.00000000E+00
  0.00000000E+00  0.00000000E+00  0.00000000E+00
  0.00000000E+00  0.00000000E+00  0.00000000E+00
  0.00000000E+00  0.00000000E+00  0.00000000E+00
  0.00000000E+00  0.00000000E+00  0.00000000E+00
  0.00000000E+00  0.00000000E+00  0.00000000E+00
  0.00000000E+00  0.00000000E+00  0.00000000E+00
  0.00000000E+00  0.00000000E+00  0.00000000E+00
  0.00000000E+00  0.00000000E+00  0.00000000E+00
  0.00000000E+00  0.00000000E+00  0.00000000E+00
  0.00000000E+00  0.00000000E+00  0.00000000E+00
  0.00000000E+00  0.00000000E+00  0.00000000E+00
  0.00000000E+00  0.00000000E+00  0.00000000E+00
  0.00000000E+00  0.00000000E+00  0.00000000E+00
  0.00000000E+00  0.00000000E+00  0.00000000E+00
  0.00000000E+00  0.00000000E+00  0.00000000E+00
  0.00000000E+00  0.00000000E+00  0.00000000E+00
  0.00000000E+00  0.00000000E+00  0.00000000E+00
  0.00000000E+00  0.00000000E+00  0.00000000E+00
  0.00000000E+00  0.00000000E+00  0.00000000E+00
  0.00000000E+00  0.00000000E+00  0.00000000E+00
  0.00000000E+00  0.00000000E+00  0.00000000E+00
  0.00000000E+00  0.00000000E+00  0.00000000E+00
  0.00000000E+00  0.00000000E+00  0.00000000E+00
  0.00000000E+00  0.00000000E+00  0.00000000E+00
  0.00000000E+00  0.00000000E+00  0.00000000E+00
  0.00000000E+00  0.00000000E+00  0.00000000E+00
  0.00000000E+00  0.00000000E+00  0.00000000E+00
  0.00000000E+00  0.00000000E+00  0.00000000E+00
  0.00000000E+00  0.00000000E+00  0.00000000E+00
  0.00000000E+00  0.00000000E+00  0.00000000E+00
  0.00000000E+00  0.00000000E+00  0.00000000E+00
  0.00000000E+00  0.00000000E+00  0.00000000E+00
  0.00000000E+00  0.00000000E+00  0.00000000E+00
  0.00000000E+00  0.00000000E+00  0.00000000E+00
  0.00000000E+00  0.00000000E+00  0.00000000E+00
  0.00000000E+00  0.00000000E+00  0.00000000E+00
  0.00000000E+00  0.00000000E+00  0.00000000E+00
  0.00000000E+00  0.00000000E+00  0.00000000E+00
  0.00000000E+00  0.00000000E+00  0.00000000E+00
  0.00000000E+00  0.00000000E+00  0.00000000E+00
  0.00000000E+00  0.00000000E+00  0.00000000E+00
  0.00000000E+00  0.00000000E+00  0.00000000E+00
  0.00000000E+00  0.00000000E+00  0.00000000E+00
  0.00000000E+00  0.00000000E+00  0.00000000E+00
  0.00000000E+00  0.00000000E+00  0.00000000E+00
  0.00000000E+00  0.00000000E+00  0.00000000E+00
