CONTCAR                                 
   1.00000000000000     
    13.2834997176999998    0.0000000000000000    0.0000000000000000
     0.0000000000000000   13.2517004013000008    0.0000000000000000
     0.0000000000000000    0.0000000000000000   28.4766006470000015
   Bi   I    O    H 
    48    12     1     1
Direct
  0.0000287389343754  0.9386725754074874  0.5990587412430131
  0.0000276077552073  0.0612872837990608  0.4008008558847536
  0.1674269791602896  0.7948846329265393  0.3585801702260625
  0.1648646155543574  0.3394180465714101  0.4435357649444001
  0.9998987184969934  0.1617329141176356  0.5695586484375568
  0.9999679983314991  0.6148861593602390  0.4872660081226385
  0.0000029644815811  0.8384995494519245  0.4299657294283534
  0.0000015406517448  0.5224929728507064  0.3129546183253993
  0.1659198936949551  0.1144521163347605  0.4705059590297296
  0.1664948396834944  0.6604913998363813  0.5578263932217311
  0.0002273759252418  0.3901944846123371  0.5157320926448961
  0.1667805177307997  0.8856296268568968  0.5298506004018293
  0.1670996175001491  0.2072911257162033  0.6403574022721017
  0.1700589135143034  0.4292888944342792  0.6146970998771977
  0.1669146013093581  0.5713820246977903  0.3843866273616285
  0.9998560821421236  0.4768835941910154  0.6839341788319118
  0.3335879318046722  0.9404871148145588  0.5989987323261232
  0.3329051760122965  0.0591797330317476  0.4013450026585588
  0.4999923453508259  0.7952660785366135  0.3584815728089552
  0.5000244803768368  0.3379838763415464  0.4419215454948784
  0.3343869557654386  0.1625056479522939  0.5687938506587358
  0.3339671490663250  0.6129651543248542  0.4879045888321372
  0.3335967224041809  0.8364828481757485  0.4309561006198521
  0.3334564112652103  0.5218360907545474  0.3124607981277663
  0.5000307520758227  0.1139984355273995  0.4704998987289244
  0.5000529217118199  0.6615749156034099  0.5585555741914519
  0.3330269518990789  0.3863573894290440  0.5125306766665432
  0.5000410299493581  0.8855612999640385  0.5295765174369507
  0.4999953970500997  0.2052482236532640  0.6415396792048469
  0.4995318804051578  0.4284414710005748  0.6158067738302933
  0.5000332130537117  0.5719856082667718  0.3840923807061145
  0.3449905040860770  0.4806506679654206  0.6933292142424747
  0.6664589630735946  0.9404852944331239  0.5990164287379969
  0.6671241009239068  0.0591617785351062  0.4013400045536102
  0.8326070466176816  0.7948964368687825  0.3585591540019024
  0.8351923070691214  0.3394001638134228  0.4435971833954611
  0.6656660010928306  0.1625182817529947  0.5688441802529169
  0.6660542088690846  0.6130030477549582  0.4878996485358869
  0.6664100690248773  0.8364970489816415  0.4309134532544618
  0.6666215350084315  0.5217904321369602  0.3124650715295729
  0.8340701195214706  0.1144396136050361  0.4705063185746567
  0.8335740579129478  0.6604542391023713  0.5578400472945972
  0.6670993697019796  0.3864152885832510  0.5125939159168524
  0.8332289405880218  0.8855999794479530  0.5298618547412559
  0.8329166820668803  0.2070698072066506  0.6405269712704111
  0.8288550894055646  0.4290254719972850  0.6148030727671738
  0.8331033125530851  0.5713914553529023  0.3843898970196378
  0.6554052187691255  0.4805029958548204  0.6927654006161603
  0.0000469894658792  0.2670914156440958  0.7319320861473315
  0.0000097685491909  0.7339648296069612  0.2669432220064607
  0.0001167510489140  0.2960899762255664  0.3423983378931794
  0.9999897123172587  0.7049236772524381  0.6571106356384533
  0.3349719998857807  0.2651694943870240  0.7343361279278682
  0.3335685453537138  0.7334673671672434  0.2665703379698527
  0.3341467282697366  0.2960893304745156  0.3435806631284422
  0.3341156615846472  0.7034778215309814  0.6572696925506634
  0.6650293753506560  0.2653071122879496  0.7342800286290228
  0.6664444778194536  0.7334390554314751  0.2665712069116921
  0.6663892131021569  0.2960290686922491  0.3436089362665555
  0.6658078858029199  0.7035710742586616  0.6572862294870063
  0.4994714790731294  0.5090413867278514  0.7312365012898354
  0.4992535620346672  0.5136251923791804  0.7655599009032841
 
  0.00000000E+00  0.00000000E+00  0.00000000E+00
  0.00000000E+00  0.00000000E+00  0.00000000E+00
  0.00000000E+00  0.00000000E+00  0.00000000E+00
  0.00000000E+00  0.00000000E+00  0.00000000E+00
  0.00000000E+00  0.00000000E+00  0.00000000E+00
  0.00000000E+00  0.00000000E+00  0.00000000E+00
  0.00000000E+00  0.00000000E+00  0.00000000E+00
  0.00000000E+00  0.00000000E+00  0.00000000E+00
  0.00000000E+00  0.00000000E+00  0.00000000E+00
  0.00000000E+00  0.00000000E+00  0.00000000E+00
  0.00000000E+00  0.00000000E+00  0.00000000E+00
  0.00000000E+00  0.00000000E+00  0.00000000E+00
  0.00000000E+00  0.00000000E+00  0.00000000E+00
  0.00000000E+00  0.00000000E+00  0.00000000E+00
  0.00000000E+00  0.00000000E+00  0.00000000E+00
  0.00000000E+00  0.00000000E+00  0.00000000E+00
  0.00000000E+00  0.00000000E+00  0.00000000E+00
  0.00000000E+00  0.00000000E+00  0.00000000E+00
  0.00000000E+00  0.00000000E+00  0.00000000E+00
  0.00000000E+00  0.00000000E+00  0.00000000E+00
  0.00000000E+00  0.00000000E+00  0.00000000E+00
  0.00000000E+00  0.00000000E+00  0.00000000E+00
  0.00000000E+00  0.00000000E+00  0.00000000E+00
  0.00000000E+00  0.00000000E+00  0.00000000E+00
  0.00000000E+00  0.00000000E+00  0.00000000E+00
  0.00000000E+00  0.00000000E+00  0.00000000E+00
  0.00000000E+00  0.00000000E+00  0.00000000E+00
  0.00000000E+00  0.00000000E+00  0.00000000E+00
  0.00000000E+00  0.00000000E+00  0.00000000E+00
  0.00000000E+00  0.00000000E+00  0.00000000E+00
  0.00000000E+00  0.00000000E+00  0.00000000E+00
  0.00000000E+00  0.00000000E+00  0.00000000E+00
  0.00000000E+00  0.00000000E+00  0.00000000E+00
  0.00000000E+00  0.00000000E+00  0.00000000E+00
  0.00000000E+00  0.00000000E+00  0.00000000E+00
  0.00000000E+00  0.00000000E+00  0.00000000E+00
  0.00000000E+00  0.00000000E+00  0.00000000E+00
  0.00000000E+00  0.00000000E+00  0.00000000E+00
  0.00000000E+00  0.00000000E+00  0.00000000E+00
  0.00000000E+00  0.00000000E+00  0.00000000E+00
  0.00000000E+00  0.00000000E+00  0.00000000E+00
  0.00000000E+00  0.00000000E+00  0.00000000E+00
  0.00000000E+00  0.00000000E+00  0.00000000E+00
  0.00000000E+00  0.00000000E+00  0.00000000E+00
  0.00000000E+00  0.00000000E+00  0.00000000E+00
  0.00000000E+00  0.00000000E+00  0.00000000E+00
  0.00000000E+00  0.00000000E+00  0.00000000E+00
  0.00000000E+00  0.00000000E+00  0.00000000E+00
  0.00000000E+00  0.00000000E+00  0.00000000E+00
  0.00000000E+00  0.00000000E+00  0.00000000E+00
  0.00000000E+00  0.00000000E+00  0.00000000E+00
  0.00000000E+00  0.00000000E+00  0.00000000E+00
  0.00000000E+00  0.00000000E+00  0.00000000E+00
  0.00000000E+00  0.00000000E+00  0.00000000E+00
  0.00000000E+00  0.00000000E+00  0.00000000E+00
  0.00000000E+00  0.00000000E+00  0.00000000E+00
  0.00000000E+00  0.00000000E+00  0.00000000E+00
  0.00000000E+00  0.00000000E+00  0.00000000E+00
  0.00000000E+00  0.00000000E+00  0.00000000E+00
  0.00000000E+00  0.00000000E+00  0.00000000E+00
  0.00000000E+00  0.00000000E+00  0.00000000E+00
  0.00000000E+00  0.00000000E+00  0.00000000E+00
