 Bi6 Te6                                
   1.00000000000000     
     4.4330651401998820    0.0000000000000000    0.0000000000000000
    -2.2165330647568906    3.8387144852522983    0.0000000000000000
     0.0000000000000000    0.0000000000000000   36.9293088183119949
   Bi   Te
     6     6
Direct
  0.3333572376911197  0.6666365016781955  0.6409118855443794
  0.6667030959602807  0.3334098767986597  0.3590851574745948
 -0.0001588797770787 -0.0001160484265685  0.2491492136562066
 -0.0000107391459097 -0.0000692134122992  0.7508499672227398
  0.6667256245976553  0.3334384106442359  0.5227641854182401
  0.3334011826897201  0.6667319232065549  0.4772440813385149
  0.3333176896149146  0.6666256968595313  0.7969417335994999
  0.6666103401204821  0.3332893950059725  0.2030576365606405
  0.0000382231167325  0.0000580239645351  0.4060665773039452
  0.0000193145216520  0.0000051866639693  0.5939311067482999
  0.6666677085463937  0.3333229172142345  0.6954987005083765
  0.3333292020640383  0.6666673298029796  0.3044997546245610
 
  0.00000000E+00  0.00000000E+00  0.00000000E+00
  0.00000000E+00  0.00000000E+00  0.00000000E+00
  0.00000000E+00  0.00000000E+00  0.00000000E+00
  0.00000000E+00  0.00000000E+00  0.00000000E+00
  0.00000000E+00  0.00000000E+00  0.00000000E+00
  0.00000000E+00  0.00000000E+00  0.00000000E+00
  0.00000000E+00  0.00000000E+00  0.00000000E+00
  0.00000000E+00  0.00000000E+00  0.00000000E+00
  0.00000000E+00  0.00000000E+00  0.00000000E+00
  0.00000000E+00  0.00000000E+00  0.00000000E+00
  0.00000000E+00  0.00000000E+00  0.00000000E+00
  0.00000000E+00  0.00000000E+00  0.00000000E+00
