CONTCAR                                 
   1.00000000000000     
    14.0796003342000002    0.0000000000000000    0.0000000000000000
    -7.0398001671000001   12.1932915645000008    0.0000000000000000
     0.0000000000000000    0.0000000000000000   18.0872001647999987
   Ti   Se   O    H 
    16    32     1     1
Direct
 -0.0052136938044729  0.0039616300624858  0.5020886959510739
  0.2375510063453049 -0.0094657037531227  0.5003278423199000
  0.4910492682276038  0.0010716326615274  0.5000163410890789
  0.7374894076030052 -0.0046009633387349  0.5010425082004595
 -0.0074220197563149  0.2467009389259550  0.5028217220304040
  0.2434919623742220  0.2429444943871551  0.5006839179648432
  0.4912645055164411  0.2458739831775750  0.4987602043841141
  0.7469508032236100  0.2438628384799690  0.5017031861677438
 -0.0038222844531027  0.5008672425929737  0.5006255389786187
  0.2356541826410254  0.4918493438037400  0.5017262070075355
  0.4751083200103099  0.4925886687227548  0.4967424983717346
  0.7459563111934165  0.4823382444586229  0.4967089423079521
  0.9926098376790848  0.7461125961859159  0.4986923397466521
  0.2479089448705795  0.7474172196648290  0.4997143383561375
  0.4924889405407503  0.7472832371450145  0.4987062371268896
  0.7551262331577594  0.7637541047233594  0.4965207688744497
  0.0732322487171897  0.1620090709798019  0.4143200439777975
  0.1596628758463638  0.0793660536281634  0.5878521644289875
  0.3245316215058556  0.1639667528880377  0.4135511853980300
  0.4105879015360048  0.0799970161235171  0.5867261904958700
  0.5743800889259026  0.1610439441055929  0.4136322430310684
  0.6576512812446321  0.0791101512023592  0.5878733283603108
  0.8267585205198559  0.1651994159124292  0.4142871386177706
  0.9107876533230946  0.0805757913905461  0.5883403376289675
  0.0767985952449782  0.4116852342080972  0.4142461788414445
  0.1586708704196464  0.3311674344812572  0.5882718188574453
  0.3174089945401183  0.4089327753206009  0.4112517955926506
  0.4067573981393899  0.3280924473471751  0.5858596725836916
  0.5776595255032754  0.4141905671955234  0.4159707394492620
  0.6588480855078568  0.3302594959858864  0.5867720386922746
  0.8297445448604748  0.4089821332277425  0.4114634619330150
  0.9078981645317382  0.3281015366784630  0.5880387639054639
  0.0743857982284314  0.6610575250368190  0.4134162279953416
  0.1595657204142174  0.5811016173647452  0.5875193960015305
  0.3251010427727819  0.6644570046466687  0.4133673525054939
  0.4096519679879759  0.5794455431816558  0.5865970455172993
  0.5751559871392476  0.6612688093457569  0.4159230401787432
  0.6582084742806320  0.5790832045134222  0.5693080641743845
  0.8238013093958714  0.6631715845138700  0.4162975867293490
  0.9102603057641269  0.5789017407273176  0.5861975915663159
  0.0773124042096728  0.9135484898489216  0.4139730345803538
  0.1584040048427471  0.8306450141009548  0.5866156438020284
  0.3255740854905264  0.9134152975957356  0.4133362805230955
  0.4074605176187847  0.8278702101818989  0.5865011318900565
  0.5775924702215665  0.9139469575863590  0.4135943478436856
  0.6593574455245342  0.8314304764849939  0.5860381782141871
  0.8295827873581859  0.9213323078402135  0.4117055275175738
  0.9079394752922406  0.8290429903767861  0.5867732722983393
  0.6502131598454117  0.5743616332575419  0.6707666863731956
  0.7258832708774337  0.6019807438211308  0.6874603826173563
 
  0.00000000E+00  0.00000000E+00  0.00000000E+00
  0.00000000E+00  0.00000000E+00  0.00000000E+00
  0.00000000E+00  0.00000000E+00  0.00000000E+00
  0.00000000E+00  0.00000000E+00  0.00000000E+00
  0.00000000E+00  0.00000000E+00  0.00000000E+00
  0.00000000E+00  0.00000000E+00  0.00000000E+00
  0.00000000E+00  0.00000000E+00  0.00000000E+00
  0.00000000E+00  0.00000000E+00  0.00000000E+00
  0.00000000E+00  0.00000000E+00  0.00000000E+00
  0.00000000E+00  0.00000000E+00  0.00000000E+00
  0.00000000E+00  0.00000000E+00  0.00000000E+00
  0.00000000E+00  0.00000000E+00  0.00000000E+00
  0.00000000E+00  0.00000000E+00  0.00000000E+00
  0.00000000E+00  0.00000000E+00  0.00000000E+00
  0.00000000E+00  0.00000000E+00  0.00000000E+00
  0.00000000E+00  0.00000000E+00  0.00000000E+00
  0.00000000E+00  0.00000000E+00  0.00000000E+00
  0.00000000E+00  0.00000000E+00  0.00000000E+00
  0.00000000E+00  0.00000000E+00  0.00000000E+00
  0.00000000E+00  0.00000000E+00  0.00000000E+00
  0.00000000E+00  0.00000000E+00  0.00000000E+00
  0.00000000E+00  0.00000000E+00  0.00000000E+00
  0.00000000E+00  0.00000000E+00  0.00000000E+00
  0.00000000E+00  0.00000000E+00  0.00000000E+00
  0.00000000E+00  0.00000000E+00  0.00000000E+00
  0.00000000E+00  0.00000000E+00  0.00000000E+00
  0.00000000E+00  0.00000000E+00  0.00000000E+00
  0.00000000E+00  0.00000000E+00  0.00000000E+00
  0.00000000E+00  0.00000000E+00  0.00000000E+00
  0.00000000E+00  0.00000000E+00  0.00000000E+00
  0.00000000E+00  0.00000000E+00  0.00000000E+00
  0.00000000E+00  0.00000000E+00  0.00000000E+00
  0.00000000E+00  0.00000000E+00  0.00000000E+00
  0.00000000E+00  0.00000000E+00  0.00000000E+00
  0.00000000E+00  0.00000000E+00  0.00000000E+00
  0.00000000E+00  0.00000000E+00  0.00000000E+00
  0.00000000E+00  0.00000000E+00  0.00000000E+00
  0.00000000E+00  0.00000000E+00  0.00000000E+00
  0.00000000E+00  0.00000000E+00  0.00000000E+00
  0.00000000E+00  0.00000000E+00  0.00000000E+00
  0.00000000E+00  0.00000000E+00  0.00000000E+00
  0.00000000E+00  0.00000000E+00  0.00000000E+00
  0.00000000E+00  0.00000000E+00  0.00000000E+00
  0.00000000E+00  0.00000000E+00  0.00000000E+00
  0.00000000E+00  0.00000000E+00  0.00000000E+00
  0.00000000E+00  0.00000000E+00  0.00000000E+00
  0.00000000E+00  0.00000000E+00  0.00000000E+00
  0.00000000E+00  0.00000000E+00  0.00000000E+00
  0.00000000E+00  0.00000000E+00  0.00000000E+00
  0.00000000E+00  0.00000000E+00  0.00000000E+00
