CONTCAR\(2)                             
   1.00000000000000     
    14.0071001052999993    0.0000000000000000    0.0000000000000000
     7.0035500525999996   12.1305045244999992    0.0000000000000000
     0.0000000000000000    0.0000000000000000   17.8286991119000007
   Fe   Cl
    16    32
Direct
  0.0000000000000000  0.0000000000000000  0.5000000000000000
  0.2500000000000000  0.0000000000000000  0.5000000000000000
  0.5000000000000000  0.0000000000000000  0.5000000000000000
  0.7500000169999979  0.0000000000000000  0.5000000000000000
  0.9999999990000035  0.2500000020000002  0.5000000000000000
  0.2500000080000007  0.2500000020000002  0.5000000000000000
  0.4999999910000028  0.2500000020000002  0.5000000000000000
  0.7500000420000035  0.2500000020000002  0.5000000000000000
  0.9999999979999998  0.5000000029999967  0.5000000000000000
  0.2499999979999998  0.5000000029999967  0.5000000000000000
  0.5000000149999977  0.5000000029999967  0.5000000000000000
  0.7499999979999998  0.5000000029999967  0.5000000000000000
  0.0000000060000005  0.7500000049999969  0.5000000000000000
  0.2499999890000026  0.7500000049999969  0.5000000000000000
  0.4999999719999977  0.7500000049999969  0.5000000000000000
  0.7500000229999984  0.7500000049999969  0.5000000000000000
  0.1666699860000023  0.1666700030000001  0.4209600120000019
  0.0833300050000005  0.0833299990000000  0.5790400149999968
  0.4166700030000001  0.1666700030000001  0.4209600120000019
  0.3333300050000005  0.0833299990000000  0.5790400149999968
  0.6666700540000008  0.1666700030000001  0.4209600120000019
  0.5833299539999999  0.0833299990000000  0.5790400149999968
  0.9166699689999973  0.1666700030000001  0.4209600120000019
  0.8333300050000005  0.0833299990000000  0.5790400149999968
  0.1666699860000023  0.4166699849999986  0.4209600120000019
  0.0833300019999967  0.3333300210000019  0.5790400149999968
  0.4166700370000029  0.4166699849999986  0.4209600120000019
  0.3333299849999989  0.3333300210000019  0.5790400149999968
  0.6666700199999980  0.4166699849999986  0.4209600120000019
  0.5833299680000010  0.3333300210000019  0.5790400149999968
  0.9166700030000001  0.4166699849999986  0.4209600120000019
  0.8333300199999982  0.3333300210000019  0.5790400149999968
  0.1666699909999991  0.6666700259999985  0.4209600120000019
  0.0833299789999984  0.5833299829999987  0.5790400149999968
  0.4166700430000034  0.6666700259999985  0.4209600120000019
  0.3333300299999991  0.5833299829999987  0.5790400149999968
  0.6666700250000019  0.6666700259999985  0.4209600120000019
  0.5833299450000027  0.5833299829999987  0.5790400149999968
  0.9166700079999970  0.6666700259999985  0.4209600120000019
  0.8333299960000033  0.5833299829999987  0.5790400149999968
  0.1666699479999991  0.9166700270000021  0.4209600120000019
  0.0833300030000004  0.8333299849999989  0.5790400149999968
  0.4166699989999998  0.9166700270000021  0.4209600120000019
  0.3333299860000025  0.8333299849999989  0.5790400149999968
  0.6666700500000005  0.9166700270000021  0.4209600120000019
  0.5833299689999976  0.8333299849999989  0.5790400149999968
  0.9166699649999970  0.9166700270000021  0.4209600120000019
  0.8333299519999997  0.8333299849999989  0.5790400149999968
 
  0.00000000E+00  0.00000000E+00  0.00000000E+00
  0.00000000E+00  0.00000000E+00  0.00000000E+00
  0.00000000E+00  0.00000000E+00  0.00000000E+00
  0.00000000E+00  0.00000000E+00  0.00000000E+00
  0.00000000E+00  0.00000000E+00  0.00000000E+00
  0.00000000E+00  0.00000000E+00  0.00000000E+00
  0.00000000E+00  0.00000000E+00  0.00000000E+00
  0.00000000E+00  0.00000000E+00  0.00000000E+00
  0.00000000E+00  0.00000000E+00  0.00000000E+00
  0.00000000E+00  0.00000000E+00  0.00000000E+00
  0.00000000E+00  0.00000000E+00  0.00000000E+00
  0.00000000E+00  0.00000000E+00  0.00000000E+00
  0.00000000E+00  0.00000000E+00  0.00000000E+00
  0.00000000E+00  0.00000000E+00  0.00000000E+00
  0.00000000E+00  0.00000000E+00  0.00000000E+00
  0.00000000E+00  0.00000000E+00  0.00000000E+00
  0.00000000E+00  0.00000000E+00  0.00000000E+00
  0.00000000E+00  0.00000000E+00  0.00000000E+00
  0.00000000E+00  0.00000000E+00  0.00000000E+00
  0.00000000E+00  0.00000000E+00  0.00000000E+00
  0.00000000E+00  0.00000000E+00  0.00000000E+00
  0.00000000E+00  0.00000000E+00  0.00000000E+00
  0.00000000E+00  0.00000000E+00  0.00000000E+00
  0.00000000E+00  0.00000000E+00  0.00000000E+00
  0.00000000E+00  0.00000000E+00  0.00000000E+00
  0.00000000E+00  0.00000000E+00  0.00000000E+00
  0.00000000E+00  0.00000000E+00  0.00000000E+00
  0.00000000E+00  0.00000000E+00  0.00000000E+00
  0.00000000E+00  0.00000000E+00  0.00000000E+00
  0.00000000E+00  0.00000000E+00  0.00000000E+00
  0.00000000E+00  0.00000000E+00  0.00000000E+00
  0.00000000E+00  0.00000000E+00  0.00000000E+00
  0.00000000E+00  0.00000000E+00  0.00000000E+00
  0.00000000E+00  0.00000000E+00  0.00000000E+00
  0.00000000E+00  0.00000000E+00  0.00000000E+00
  0.00000000E+00  0.00000000E+00  0.00000000E+00
  0.00000000E+00  0.00000000E+00  0.00000000E+00
  0.00000000E+00  0.00000000E+00  0.00000000E+00
  0.00000000E+00  0.00000000E+00  0.00000000E+00
  0.00000000E+00  0.00000000E+00  0.00000000E+00
  0.00000000E+00  0.00000000E+00  0.00000000E+00
  0.00000000E+00  0.00000000E+00  0.00000000E+00
  0.00000000E+00  0.00000000E+00  0.00000000E+00
  0.00000000E+00  0.00000000E+00  0.00000000E+00
  0.00000000E+00  0.00000000E+00  0.00000000E+00
  0.00000000E+00  0.00000000E+00  0.00000000E+00
  0.00000000E+00  0.00000000E+00  0.00000000E+00
  0.00000000E+00  0.00000000E+00  0.00000000E+00
