CONTCAR                                 
   1.00000000000000     
    11.6526002884000004    0.0000000000000000    0.0000000000000000
     0.0000000000000000   17.2355995178000008    0.0000000000000000
     0.0000000000000000    0.0000000000000000   19.4160995483000001
   Te   Pd   Pb   O    H 
    16    24    16     2     1
Direct
  0.2486088977755117  0.1466880133175792  0.6137177154281872
  0.9990398959075506  0.3965679639625961  0.3870060704355041
  0.2455262611514542  0.3600172098880989  0.6142609281020341
  0.9987892224250388  0.1085731537398260  0.3879176266206130
  0.7488075723137158  0.1469396599424755  0.6136296460506756
  0.4989024915647065  0.3978840766524669  0.3894892773962297
  0.7520911725323671  0.3598457919959301  0.6141143651247134
  0.4986565734362571  0.1091693561042604  0.3884893606971360
  0.2437072567657381  0.6474043288186238  0.6114008571508052
  0.9987936868962777  0.8973372623334441  0.3873889099382524
  0.2497073018479341  0.8582221838178512  0.6127871453527334
  0.9993912344414468  0.6092490371444015  0.3840389833118039
  0.7559534340186929  0.6480004188747941  0.6115027184134760
  0.4990357794590281  0.8961719864366273  0.3875561389434097
  0.7485676779719626  0.8585635483381822  0.6128764053156885
  0.4999809667201305  0.6078061589667314  0.3881125307471933
  0.1245250557208806  0.1279608582866132  0.5003228173511332
  0.9987446739829977  0.2526567734722249  0.4335758121547286
  0.1237821131875876  0.3775139098408644  0.5000072000612121
  0.3745138490705102  0.1278110272664108  0.5015037026010063
  0.3747280082121662  0.3773122776821580  0.5038977795798516
  0.2488889965720844  0.0026126621822868  0.5675770844783017
  0.6236514418392360  0.1277910473744370  0.5011404512738764
  0.4988468459743984  0.2533281772961189  0.4349526514979303
  0.6237872049105135  0.3774233147498833  0.5034106011840080
  0.8737143186674388  0.1279112251215011  0.5005869703620007
  0.8745529000381111  0.3779478694860927  0.5002264885011343
  0.7491272019583377  0.0027856308880914  0.5676150609795201
  0.1237364855450735  0.6276532719572003  0.4971272346925701
  0.9990777623624538  0.7529864070334256  0.4320941442775492
  0.1244934281251915  0.8774378670844101  0.4998756253894996
  0.3745042895196136  0.6282424161946949  0.5016645757882685
  0.3743722420498656  0.8775433014900003  0.5003425445822529
  0.2460753240050337  0.5032167767138063  0.5651120867786830
  0.6241927541464776  0.6284133460356074  0.5021782166942828
  0.4991319859358754  0.7522737872022773  0.4340359975868253
  0.6238191783556530  0.8775853101060775  0.5004295894665347
  0.8748550283372012  0.6270208390375913  0.4968671082182325
  0.8737424447789053  0.8773550070842759  0.5000896554021566
  0.7511020826043904  0.5034102137232566  0.5660013012699210
  0.2492457461419377  0.0021831309949931  0.4166936240486265
  0.9993551659967252  0.2522674522698551  0.5845089664019270
  0.2503829804795572  0.2538396113628067  0.4309128758974268
  0.9989344344121420  0.0021801621181723  0.5706530933129486
  0.7490126339667356  0.0021555657708490  0.4167221409461206
  0.4989232874531382  0.2528926066579871  0.5862311608268627
  0.7477232293273559  0.2538238225622678  0.4312543281624173
  0.4991328652076703  0.0018980317584791  0.5723360903882551
  0.2498795055802603  0.5013512081081259  0.4150086940582014
  0.0004165839407122  0.7520950148504255  0.5835588966222858
  0.2499778714187499  0.7515282198899129  0.4287484125082202
  0.9990284181471409  0.5033766479503967  0.5699257966242470
  0.7495156941633994  0.5015497590786779  0.4152322368449219
  0.4980809732297828  0.7486528977480305  0.5863250446165011
  0.7481265032254711  0.7517261908261119  0.4291778961470030
  0.4985068185783774  0.5056661250269201  0.5755754840749816
  0.4974156020043452  0.6050816164480821  0.7037512379106090
  0.4894109066109067  0.5216707280404904  0.6906669948025908
  0.5770857789878008  0.6093077618942360  0.7199139256059084
 
  0.00000000E+00  0.00000000E+00  0.00000000E+00
  0.00000000E+00  0.00000000E+00  0.00000000E+00
  0.00000000E+00  0.00000000E+00  0.00000000E+00
  0.00000000E+00  0.00000000E+00  0.00000000E+00
  0.00000000E+00  0.00000000E+00  0.00000000E+00
  0.00000000E+00  0.00000000E+00  0.00000000E+00
  0.00000000E+00  0.00000000E+00  0.00000000E+00
  0.00000000E+00  0.00000000E+00  0.00000000E+00
  0.00000000E+00  0.00000000E+00  0.00000000E+00
  0.00000000E+00  0.00000000E+00  0.00000000E+00
  0.00000000E+00  0.00000000E+00  0.00000000E+00
  0.00000000E+00  0.00000000E+00  0.00000000E+00
  0.00000000E+00  0.00000000E+00  0.00000000E+00
  0.00000000E+00  0.00000000E+00  0.00000000E+00
  0.00000000E+00  0.00000000E+00  0.00000000E+00
  0.00000000E+00  0.00000000E+00  0.00000000E+00
  0.00000000E+00  0.00000000E+00  0.00000000E+00
  0.00000000E+00  0.00000000E+00  0.00000000E+00
  0.00000000E+00  0.00000000E+00  0.00000000E+00
  0.00000000E+00  0.00000000E+00  0.00000000E+00
  0.00000000E+00  0.00000000E+00  0.00000000E+00
  0.00000000E+00  0.00000000E+00  0.00000000E+00
  0.00000000E+00  0.00000000E+00  0.00000000E+00
  0.00000000E+00  0.00000000E+00  0.00000000E+00
  0.00000000E+00  0.00000000E+00  0.00000000E+00
  0.00000000E+00  0.00000000E+00  0.00000000E+00
  0.00000000E+00  0.00000000E+00  0.00000000E+00
  0.00000000E+00  0.00000000E+00  0.00000000E+00
  0.00000000E+00  0.00000000E+00  0.00000000E+00
  0.00000000E+00  0.00000000E+00  0.00000000E+00
  0.00000000E+00  0.00000000E+00  0.00000000E+00
  0.00000000E+00  0.00000000E+00  0.00000000E+00
  0.00000000E+00  0.00000000E+00  0.00000000E+00
  0.00000000E+00  0.00000000E+00  0.00000000E+00
  0.00000000E+00  0.00000000E+00  0.00000000E+00
  0.00000000E+00  0.00000000E+00  0.00000000E+00
  0.00000000E+00  0.00000000E+00  0.00000000E+00
  0.00000000E+00  0.00000000E+00  0.00000000E+00
  0.00000000E+00  0.00000000E+00  0.00000000E+00
  0.00000000E+00  0.00000000E+00  0.00000000E+00
  0.00000000E+00  0.00000000E+00  0.00000000E+00
  0.00000000E+00  0.00000000E+00  0.00000000E+00
  0.00000000E+00  0.00000000E+00  0.00000000E+00
  0.00000000E+00  0.00000000E+00  0.00000000E+00
  0.00000000E+00  0.00000000E+00  0.00000000E+00
  0.00000000E+00  0.00000000E+00  0.00000000E+00
  0.00000000E+00  0.00000000E+00  0.00000000E+00
  0.00000000E+00  0.00000000E+00  0.00000000E+00
  0.00000000E+00  0.00000000E+00  0.00000000E+00
  0.00000000E+00  0.00000000E+00  0.00000000E+00
  0.00000000E+00  0.00000000E+00  0.00000000E+00
  0.00000000E+00  0.00000000E+00  0.00000000E+00
  0.00000000E+00  0.00000000E+00  0.00000000E+00
  0.00000000E+00  0.00000000E+00  0.00000000E+00
  0.00000000E+00  0.00000000E+00  0.00000000E+00
  0.00000000E+00  0.00000000E+00  0.00000000E+00
  0.00000000E+00  0.00000000E+00  0.00000000E+00
  0.00000000E+00  0.00000000E+00  0.00000000E+00
  0.00000000E+00  0.00000000E+00  0.00000000E+00
