 K4 As4 Pd2                             
   1.00000000000000     
     5.7913107070078595    0.0000000000000000    0.0000000000000000
     0.0000000000000000    6.4766839686868449    0.0000000000000000
     0.0000000000000000    0.0000000000000000   20.9237835477999994
   K    As   Pd
     4     4     2
Direct
  0.2500000147641534  0.0000000038575310  0.4476864627336665
  0.7499999847948469 -0.0000000026082874  0.5523135236249626
  0.2499999707871245  0.4999999999712883  0.3577637246001158
  0.7500000284342043  0.5000000006267157  0.6422362730430065
  0.7500000254621004  0.6887115283329308  0.4185235914250793
  0.2499999738100681  0.3112884746499543  0.5814764151813491
  0.2499999842143665  0.6887115198637996  0.5814764233974298
  0.7500000169876051  0.3112884757824007  0.4185235834166670
  0.0000000056866448  0.4999999950717108  0.5000000012322383
  0.4999999950588864  0.5000000044519566  0.5000000013454849
 
  0.00000000E+00  0.00000000E+00  0.00000000E+00
  0.00000000E+00  0.00000000E+00  0.00000000E+00
  0.00000000E+00  0.00000000E+00  0.00000000E+00
  0.00000000E+00  0.00000000E+00  0.00000000E+00
  0.00000000E+00  0.00000000E+00  0.00000000E+00
  0.00000000E+00  0.00000000E+00  0.00000000E+00
  0.00000000E+00  0.00000000E+00  0.00000000E+00
  0.00000000E+00  0.00000000E+00  0.00000000E+00
  0.00000000E+00  0.00000000E+00  0.00000000E+00
  0.00000000E+00  0.00000000E+00  0.00000000E+00
