CONTCAR\(2)                             
   1.00000000000000     
    11.8118000031000001    0.0000000000000000    0.0000000000000000
     0.0000000000000000   12.8071002959999998    0.0000000000000000
     0.0000000000000000    0.0000000000000000   20.7511997223000009
   Cu   Sb   Se   O 
    12    12    24     1
Direct
  0.1675106861008710  0.3662636571153739  0.4415958592206545
  0.1689327505622094  0.1099855274772626  0.5583932289880100
  0.4998056552625320  0.3678050007686710  0.4409811157331911
  0.4999497749614666  0.1174551838404914  0.5632671495033795
  0.8323284342803661  0.3661917282287154  0.4415369553689433
  0.8309673603706671  0.1100060556973125  0.5584034502912876
  0.1605529082614743  0.8600874997800065  0.4384853386948868
  0.1642489983728173  0.6230338335497975  0.5528288271371294
  0.4999114001122187  0.8646792636162043  0.4473863609743245
  0.4998702368083970  0.6223984043201586  0.5579242370093691
  0.8392173999299007  0.8600758585471966  0.4385222217681543
  0.8356047593318423  0.6230124258986830  0.5528105945245360
 -0.0000347360842699  0.3659656738431121  0.6282545506658087
 -0.0000468025041897  0.1150642210476378  0.3697685523297621
  0.3330222459983500  0.3700044312293351  0.6293707688930280
  0.3364937670971091  0.1128205588245097  0.3704510501067935
  0.6669375528770090  0.3700118094571522  0.6293342798578339
  0.6634464455773005  0.1128577785889450  0.3704955089523157
 -0.0000214998504647  0.8566326651765629  0.6213205624180841
 -0.0000214590253528  0.6124377604738113  0.3638472589631466
  0.3552633068230461  0.8758426617270263  0.6513752939280592
  0.3360469856946114  0.6182718621798812  0.3667176480032876
  0.6445353174218542  0.8758547471571687  0.6514000869161620
  0.6638436957658556  0.6183022102901560  0.3667439417766606
  0.1678523109706523  0.3005906771501713  0.5492251020201664
 -0.0000415523492401  0.3112823740832820  0.3863659273876500
 -0.0001186255865583  0.0577584115717033  0.6108353566732099
  0.1664669747327681  0.0491850171013092  0.4491620061820908
  0.4999737606571635  0.3065936452003227  0.5497224341337230
  0.3335479567026348  0.3096776747642809  0.3854313431575749
  0.3329014586821887  0.0702128473038127  0.6191361688928410
  0.4999155090160031  0.0535374270520844  0.4542477868655535
  0.8321090392670024  0.3005905095094111  0.5491818549183182
  0.6661908704393246  0.3097532102728214  0.3855047376141141
  0.6669780376839382  0.0701957514093769  0.6191818408467880
  0.8334661272672714  0.0491790000229623  0.4491809828659188
  0.1719471806233145  0.8087083783022357  0.5482723230297702
  0.9999347457036213  0.8094617949538990  0.3755446399577290
 -0.0000719198937206  0.5612822433869460  0.6084196853469180
  0.1670274885315039  0.5536964021368366  0.4456403814076823
  0.4999499121761295  0.8097030316640567  0.5577036308237849
  0.3355914325352599  0.8134231406555659  0.3865152168250551
  0.3302957953919982  0.5654092428043812  0.6093082116917758
  0.4998870819399385  0.5556179802999927  0.4491557311887998
  0.8279255204556824  0.8087055655467523  0.5483017389366978
  0.6642536885413872  0.8134038204543724  0.3864828940819327
  0.6695047195829390  0.5653623645394422  0.6092196959963655
  0.8329063498256345  0.5536442821647632  0.4456178225563425
  0.4999511949576267  0.8989542218140536  0.7008077735743613
 
  0.00000000E+00  0.00000000E+00  0.00000000E+00
  0.00000000E+00  0.00000000E+00  0.00000000E+00
  0.00000000E+00  0.00000000E+00  0.00000000E+00
  0.00000000E+00  0.00000000E+00  0.00000000E+00
  0.00000000E+00  0.00000000E+00  0.00000000E+00
  0.00000000E+00  0.00000000E+00  0.00000000E+00
  0.00000000E+00  0.00000000E+00  0.00000000E+00
  0.00000000E+00  0.00000000E+00  0.00000000E+00
  0.00000000E+00  0.00000000E+00  0.00000000E+00
  0.00000000E+00  0.00000000E+00  0.00000000E+00
  0.00000000E+00  0.00000000E+00  0.00000000E+00
  0.00000000E+00  0.00000000E+00  0.00000000E+00
  0.00000000E+00  0.00000000E+00  0.00000000E+00
  0.00000000E+00  0.00000000E+00  0.00000000E+00
  0.00000000E+00  0.00000000E+00  0.00000000E+00
  0.00000000E+00  0.00000000E+00  0.00000000E+00
  0.00000000E+00  0.00000000E+00  0.00000000E+00
  0.00000000E+00  0.00000000E+00  0.00000000E+00
  0.00000000E+00  0.00000000E+00  0.00000000E+00
  0.00000000E+00  0.00000000E+00  0.00000000E+00
  0.00000000E+00  0.00000000E+00  0.00000000E+00
  0.00000000E+00  0.00000000E+00  0.00000000E+00
  0.00000000E+00  0.00000000E+00  0.00000000E+00
  0.00000000E+00  0.00000000E+00  0.00000000E+00
  0.00000000E+00  0.00000000E+00  0.00000000E+00
  0.00000000E+00  0.00000000E+00  0.00000000E+00
  0.00000000E+00  0.00000000E+00  0.00000000E+00
  0.00000000E+00  0.00000000E+00  0.00000000E+00
  0.00000000E+00  0.00000000E+00  0.00000000E+00
  0.00000000E+00  0.00000000E+00  0.00000000E+00
  0.00000000E+00  0.00000000E+00  0.00000000E+00
  0.00000000E+00  0.00000000E+00  0.00000000E+00
  0.00000000E+00  0.00000000E+00  0.00000000E+00
  0.00000000E+00  0.00000000E+00  0.00000000E+00
  0.00000000E+00  0.00000000E+00  0.00000000E+00
  0.00000000E+00  0.00000000E+00  0.00000000E+00
  0.00000000E+00  0.00000000E+00  0.00000000E+00
  0.00000000E+00  0.00000000E+00  0.00000000E+00
  0.00000000E+00  0.00000000E+00  0.00000000E+00
  0.00000000E+00  0.00000000E+00  0.00000000E+00
  0.00000000E+00  0.00000000E+00  0.00000000E+00
  0.00000000E+00  0.00000000E+00  0.00000000E+00
  0.00000000E+00  0.00000000E+00  0.00000000E+00
  0.00000000E+00  0.00000000E+00  0.00000000E+00
  0.00000000E+00  0.00000000E+00  0.00000000E+00
  0.00000000E+00  0.00000000E+00  0.00000000E+00
  0.00000000E+00  0.00000000E+00  0.00000000E+00
  0.00000000E+00  0.00000000E+00  0.00000000E+00
  0.00000000E+00  0.00000000E+00  0.00000000E+00
