CONTCAR\(2)                             
   1.00000000000000     
    18.0454998015999983    0.0000000000000000    0.0000000000000000
    -9.0227856342999999   15.5459183949999993    0.0000000000000000
     0.0000000000000000    0.0000000000000000   17.8997001647999987
   Ti   Cl   O 
    18    54     1
Direct
  0.2848296184797732  0.2559217050672922  0.4951074702084782
  0.0740900021799093  0.1449621161775984  0.4979983365360222
  0.6277218066277046  0.2631470954289611  0.4987884891769222
  0.4083370189803457  0.1430469104653030  0.4970457425546602
  0.9610993288860427  0.2627675009671098  0.4967804335502037
  0.7434238942440977  0.1471860324000891  0.4955816294103229
  0.3030442331729844  0.5986506477249892  0.4932698626341283
  0.0675231165116304  0.4775544299793337  0.4969798189969336
  0.6321372516439007  0.5848443529185289  0.4955686793161601
  0.4074491349784378  0.4816504067403332  0.6273580512882301
  0.9676459861117990  0.5959923625454638  0.4949927980301072
  0.7375856889240344  0.4787274188026643  0.4994514885114580
  0.2946257988570032  0.9293986862011722  0.4964578269866417
  0.0752922501918204  0.8109349449549471  0.4942476490184632
  0.6271179550723123  0.9282193924321546  0.4970102728028074
  0.4141331847380490  0.8185970501978747  0.4965191519106879
  0.9598611832314812  0.9272511625238435  0.4957485742857030
  0.7483208372875163  0.8197027898939880  0.4970806987758169
  0.0693181355070329  0.0355939806743372  0.5769896909847122
  0.3009212961951382  0.0365307624386430  0.4139003145143656
  0.1808531641423063  0.1468002420860992  0.4162040301185126
  0.0706975857685146  0.2561536440712439  0.4221605411835703
  0.2960474158857148  0.1460466962668620  0.5705522415195450
  0.1814783190076975  0.2503492009486265  0.5811909040235929
  0.4033258075830541  0.0363189428605902  0.5785348986310056
  0.6335105569639745  0.0370638968428963  0.4156969084502609
  0.5182315820867917  0.1530619797922512  0.4169735342360963
  0.4012460108650637  0.2545656299853875  0.4253944173307050
  0.6336302857731561  0.1517469273791887  0.5721022077275996
  0.5179091043826575  0.2534003181145530  0.5789522711098680
  0.7382029782864745  0.0389327207603837  0.5760522876915636
  0.9646931966486174  0.0367831101280290  0.4166174768650614
  0.8515881134662983  0.1529669693417121  0.4151835402531274
  0.7354741983823334  0.2562706439177536  0.4206934192551745
  0.9640011046463189  0.1505767219136029  0.5723727690129768
  0.8518226524387711  0.2568481237015230  0.5760457232859222
  0.0678803307393865  0.3702201875449070  0.5777280534390341
  0.2982797260954163  0.3643783354495609  0.4273259138405526
  0.1843014387423481  0.4855550935700521  0.4224985828474523
  0.0687524479982657  0.5877264209670933  0.4149684217808607
  0.2878540996536442  0.4885513921800140  0.5911366089718533
  0.1838949930182359  0.5908449429303081  0.5694909590871651
  0.3978462832675632  0.3531949419417565  0.5918866276824984
  0.6313698516985635  0.3713778275865938  0.4185108126598003
  0.5222290046912180  0.4876766937897633  0.4307577345165209
  0.3993882497181818  0.5867688890339076  0.4269082894515648
  0.6387459743531194  0.4874099893414499  0.5838485814479859
  0.5354206935689763  0.6014304726683989  0.5925788651298676
  0.7373971563385189  0.3698877656687709  0.5787680467072508
  0.9655247732495180  0.3703261993148886  0.4139623191911795
  0.8506916178761573  0.4834348833411125  0.4216434380541933
  0.7404926376923388  0.5894749631072080  0.4186320222036388
  0.9663188590869335  0.4853855337947658  0.5764888375883218
  0.8544389633561703  0.5898460428243912  0.5735135808709135
  0.0720050600324605  0.7039600557458622  0.5765391457297419
  0.3025613292236541  0.7072058144949664  0.4175146478110073
  0.1855543621719294  0.8183879940590932  0.4155425238189710
  0.0701880112469784  0.9222105185103335  0.4198058282491536
  0.3013728189321741  0.8202117925574859  0.5717592690666971
  0.1847391647803304  0.9217698754136004  0.5752233863154139
  0.4025184955911258  0.7073364364263439  0.5789800404302178
  0.6352423347808003  0.7023057092454063  0.4250112957448073
  0.5194850107986781  0.8180108543975563  0.4171494463193920
  0.4054570788439835  0.9242972668897982  0.4202222660482884
  0.6370418189505006  0.8226347950570311  0.5744873318668678
  0.5203301772075789  0.9254570365701997  0.5781277382878131
  0.7421164576976513  0.7061609679187747  0.5731914649557870
  0.9669607021766780  0.7032065759208124  0.4144544494992450
  0.8523930429759367  0.8200252579952961  0.4142590836907315
  0.7372832060240326  0.9225878844616850  0.4195068099188742
  0.9668902814625373  0.8174705202084848  0.5709129000966817
  0.8542563982861361  0.9238938336054421  0.5793685482939506
  0.4065282405234837  0.4812208028215690  0.7176629231983928
 
  0.00000000E+00  0.00000000E+00  0.00000000E+00
  0.00000000E+00  0.00000000E+00  0.00000000E+00
  0.00000000E+00  0.00000000E+00  0.00000000E+00
  0.00000000E+00  0.00000000E+00  0.00000000E+00
  0.00000000E+00  0.00000000E+00  0.00000000E+00
  0.00000000E+00  0.00000000E+00  0.00000000E+00
  0.00000000E+00  0.00000000E+00  0.00000000E+00
  0.00000000E+00  0.00000000E+00  0.00000000E+00
  0.00000000E+00  0.00000000E+00  0.00000000E+00
  0.00000000E+00  0.00000000E+00  0.00000000E+00
  0.00000000E+00  0.00000000E+00  0.00000000E+00
  0.00000000E+00  0.00000000E+00  0.00000000E+00
  0.00000000E+00  0.00000000E+00  0.00000000E+00
  0.00000000E+00  0.00000000E+00  0.00000000E+00
  0.00000000E+00  0.00000000E+00  0.00000000E+00
  0.00000000E+00  0.00000000E+00  0.00000000E+00
  0.00000000E+00  0.00000000E+00  0.00000000E+00
  0.00000000E+00  0.00000000E+00  0.00000000E+00
  0.00000000E+00  0.00000000E+00  0.00000000E+00
  0.00000000E+00  0.00000000E+00  0.00000000E+00
  0.00000000E+00  0.00000000E+00  0.00000000E+00
  0.00000000E+00  0.00000000E+00  0.00000000E+00
  0.00000000E+00  0.00000000E+00  0.00000000E+00
  0.00000000E+00  0.00000000E+00  0.00000000E+00
  0.00000000E+00  0.00000000E+00  0.00000000E+00
  0.00000000E+00  0.00000000E+00  0.00000000E+00
  0.00000000E+00  0.00000000E+00  0.00000000E+00
  0.00000000E+00  0.00000000E+00  0.00000000E+00
  0.00000000E+00  0.00000000E+00  0.00000000E+00
  0.00000000E+00  0.00000000E+00  0.00000000E+00
  0.00000000E+00  0.00000000E+00  0.00000000E+00
  0.00000000E+00  0.00000000E+00  0.00000000E+00
  0.00000000E+00  0.00000000E+00  0.00000000E+00
  0.00000000E+00  0.00000000E+00  0.00000000E+00
  0.00000000E+00  0.00000000E+00  0.00000000E+00
  0.00000000E+00  0.00000000E+00  0.00000000E+00
  0.00000000E+00  0.00000000E+00  0.00000000E+00
  0.00000000E+00  0.00000000E+00  0.00000000E+00
  0.00000000E+00  0.00000000E+00  0.00000000E+00
  0.00000000E+00  0.00000000E+00  0.00000000E+00
  0.00000000E+00  0.00000000E+00  0.00000000E+00
  0.00000000E+00  0.00000000E+00  0.00000000E+00
  0.00000000E+00  0.00000000E+00  0.00000000E+00
  0.00000000E+00  0.00000000E+00  0.00000000E+00
  0.00000000E+00  0.00000000E+00  0.00000000E+00
  0.00000000E+00  0.00000000E+00  0.00000000E+00
  0.00000000E+00  0.00000000E+00  0.00000000E+00
  0.00000000E+00  0.00000000E+00  0.00000000E+00
  0.00000000E+00  0.00000000E+00  0.00000000E+00
  0.00000000E+00  0.00000000E+00  0.00000000E+00
  0.00000000E+00  0.00000000E+00  0.00000000E+00
  0.00000000E+00  0.00000000E+00  0.00000000E+00
  0.00000000E+00  0.00000000E+00  0.00000000E+00
  0.00000000E+00  0.00000000E+00  0.00000000E+00
  0.00000000E+00  0.00000000E+00  0.00000000E+00
  0.00000000E+00  0.00000000E+00  0.00000000E+00
  0.00000000E+00  0.00000000E+00  0.00000000E+00
  0.00000000E+00  0.00000000E+00  0.00000000E+00
  0.00000000E+00  0.00000000E+00  0.00000000E+00
  0.00000000E+00  0.00000000E+00  0.00000000E+00
  0.00000000E+00  0.00000000E+00  0.00000000E+00
  0.00000000E+00  0.00000000E+00  0.00000000E+00
  0.00000000E+00  0.00000000E+00  0.00000000E+00
  0.00000000E+00  0.00000000E+00  0.00000000E+00
  0.00000000E+00  0.00000000E+00  0.00000000E+00
  0.00000000E+00  0.00000000E+00  0.00000000E+00
  0.00000000E+00  0.00000000E+00  0.00000000E+00
  0.00000000E+00  0.00000000E+00  0.00000000E+00
  0.00000000E+00  0.00000000E+00  0.00000000E+00
  0.00000000E+00  0.00000000E+00  0.00000000E+00
  0.00000000E+00  0.00000000E+00  0.00000000E+00
  0.00000000E+00  0.00000000E+00  0.00000000E+00
  0.00000000E+00  0.00000000E+00  0.00000000E+00
