CONTCAR                                 
   1.00000000000000     
    16.6793994904000016    0.0000000000000000    0.0000000000000000
     8.3396997452000008   14.4447836785000003    0.0000000000000000
     0.0000000000000000    0.0000000000000000   17.5718002318999993
   Ag   I    O 
    18     9    55
Direct
  0.2220653156615705  0.2344223246373405  0.4729318140069325
  0.1194892077726646  0.1115734262974611  0.5170311868671601
  0.5645804533637941  0.2214344875980167  0.5193195042262021
  0.4446879856972010  0.1231324135609531  0.4740685274829190
  0.9010318687730002  0.2105341146555649  0.4721324492326733
  0.7894321098882257  0.0989900304473611  0.4722886146598139
  0.2227539907628345  0.5462723492173187  0.5301942897425391
  0.1023629398987357  0.4518611143354938  0.5172367519095928
  0.5640647261143583  0.5564924743749052  0.5311202167667671
  0.4434789935135103  0.4359318986371131  0.5310797960758021
  0.8768503340691214  0.5553054489390342  0.4738401696963224
  0.7785808641782240  0.4354054190053070  0.5190925803821373
  0.2126153061099668  0.8976823176318838  0.5289867049535194
  0.1023121830160587  0.7873756865434269  0.5289024262399246
  0.5482094782848572  0.8976247709034533  0.5175803091685955
  0.4537620195970055  0.7772070709472352  0.5303354250655673
  0.8883481550191508  0.8806074245165566  0.5170851373533202
  0.7655326685477378  0.7779406775548124  0.4732694273435513
  0.0005257330909425 -0.0005323324600151  0.4568164240893202
  0.3336157425916159  0.0120065738795471  0.5082740724245731
  0.6668968309625062 -0.0000940649925861  0.5028293366925751
  0.0001425440707100  0.3331208014920395  0.5023968479139173
  0.3336331392315140  0.3342654891840093  0.4596950739114319
  0.6790526577481800  0.3209671611686264  0.5091692463957660
  0.9879911719168536  0.6663609368197541  0.5082307826443556
  0.3329174106424880  0.6670788299670054  0.5750628917368070
  0.6656936157309761  0.6664187699267108  0.4597789142625621
  0.0784279360560954  0.0091306931547626  0.5372691128270749
  0.0161756368244355  0.2324659130558827  0.5642489136740227
  0.2344665502134405  0.1338644270393863  0.5459612993174385
  0.2338741930599745  0.3305012488420389  0.4083396948808484
  0.3339408518623810  0.0654580919785214  0.4176201390463729
  0.0993210139511561  0.2499920790154092  0.4353383673992220
  0.4313584085582554  0.0355332295463794  0.5470891620796927
  0.3331359017803059  0.2309449769651361  0.5222417591357688
  0.5830270212232316  0.0998151269505069  0.5656542706394865
  0.5579336948703336  0.3416695093633940  0.4705723191438982
  0.6816778134125365  0.0837397105211715  0.4358444487725908
  0.4338555467636609  0.2303137824227370  0.4091828272883167
  0.7675946944858266  0.9838619203552196  0.5645834358693876
  0.7025506782447519  0.1988334804961033  0.5465323556667919
  0.8975075718675894  0.1025324974029036  0.5202128240834697
  0.9163038672795935  0.3182118883380637  0.4355209390710718
  0.9964737930901421  0.1035766964057171  0.4063677128608778
  0.7315817888212599  0.2683680289816820  0.4179742944225358
  0.0844839201611035  0.3487951231644377  0.5648242786498550
  0.9645726656758031  0.5684567014482232  0.5468942340762183
  0.2455986982673262  0.4121904036003737  0.5397347602003495
  0.2144735814312854  0.6666620236812983  0.5103932395193024
  0.3340397734272926  0.4257593507547304  0.4069720899321812
  0.1087631238477134  0.5660827493153795  0.4690231034239315
  0.4209797049510362  0.3243595121221003  0.5403949991672483
  0.3327571423559746  0.5261801612241284  0.5906338540538174
  0.6265732455155580  0.3734727114482314  0.5996642026635141
  0.5741401060991145  0.6660994542804252  0.4070537763052382
  0.6582814427661224  0.4420923893276738  0.4704916662550332
  0.4521062333679222  0.5478939423181818  0.5115615551489566
  0.8012676611058890  0.2974962026466237  0.5463984158694113
  0.6757145752310042  0.5789021396335127  0.5403592703048044
  0.9002533377756829  0.4169856472959396  0.5652806342198058
  0.9343548779133104  0.6662266957834883  0.4176302914918291
  0.9845037520247617  0.4329749373434053  0.4362847973683870
  0.7695383464112424  0.5662753894426141  0.4090602578436957
  0.0413780678077949  0.6670757412074229  0.5981067720441553
  0.9909450677615046  0.9215568481673523  0.5373066826102260
  0.1917160924681052  0.8082204593842416  0.5892390445198606
  0.2332823769684839  0.9916135273190608  0.4683854716667225
  0.3333575100745347  0.7855267204080676  0.5105610185562776
  0.0920537293429346  0.9079429047239365  0.4038731940294903
  0.4738358982437459  0.6671634755600503  0.5907238010996360
  0.3327522441504221  0.9587797222473248  0.5981944575007949
  0.5878688909928332  0.7542885848011340  0.5399615257153266
  0.5670942280491188  0.0153877955691371  0.4367238808011255
  0.6694381337120219  0.7662744535970387  0.4085849079743830
  0.4340133008007314  0.8911984138091615  0.4692553628116941
  0.7691114808303152  0.6667269294796018  0.5223043720336683
  0.6512440343846132  0.9155347878660630  0.5652398188724284
  0.8662824703663518  0.7653129357535723  0.5462110987087152
  0.8963334831450515  0.0035273889161224  0.4064855938307984
  0.0082900810665865  0.7667501557025306  0.4683635092774341
  0.7500813077992506  0.9007237985818151  0.4357665493646653
  0.3321757020886693  0.6677698434522388  0.6765547236655249
 
  0.00000000E+00  0.00000000E+00  0.00000000E+00
  0.00000000E+00  0.00000000E+00  0.00000000E+00
  0.00000000E+00  0.00000000E+00  0.00000000E+00
  0.00000000E+00  0.00000000E+00  0.00000000E+00
  0.00000000E+00  0.00000000E+00  0.00000000E+00
  0.00000000E+00  0.00000000E+00  0.00000000E+00
  0.00000000E+00  0.00000000E+00  0.00000000E+00
  0.00000000E+00  0.00000000E+00  0.00000000E+00
  0.00000000E+00  0.00000000E+00  0.00000000E+00
  0.00000000E+00  0.00000000E+00  0.00000000E+00
  0.00000000E+00  0.00000000E+00  0.00000000E+00
  0.00000000E+00  0.00000000E+00  0.00000000E+00
  0.00000000E+00  0.00000000E+00  0.00000000E+00
  0.00000000E+00  0.00000000E+00  0.00000000E+00
  0.00000000E+00  0.00000000E+00  0.00000000E+00
  0.00000000E+00  0.00000000E+00  0.00000000E+00
  0.00000000E+00  0.00000000E+00  0.00000000E+00
  0.00000000E+00  0.00000000E+00  0.00000000E+00
  0.00000000E+00  0.00000000E+00  0.00000000E+00
  0.00000000E+00  0.00000000E+00  0.00000000E+00
  0.00000000E+00  0.00000000E+00  0.00000000E+00
  0.00000000E+00  0.00000000E+00  0.00000000E+00
  0.00000000E+00  0.00000000E+00  0.00000000E+00
  0.00000000E+00  0.00000000E+00  0.00000000E+00
  0.00000000E+00  0.00000000E+00  0.00000000E+00
  0.00000000E+00  0.00000000E+00  0.00000000E+00
  0.00000000E+00  0.00000000E+00  0.00000000E+00
  0.00000000E+00  0.00000000E+00  0.00000000E+00
  0.00000000E+00  0.00000000E+00  0.00000000E+00
  0.00000000E+00  0.00000000E+00  0.00000000E+00
  0.00000000E+00  0.00000000E+00  0.00000000E+00
  0.00000000E+00  0.00000000E+00  0.00000000E+00
  0.00000000E+00  0.00000000E+00  0.00000000E+00
  0.00000000E+00  0.00000000E+00  0.00000000E+00
  0.00000000E+00  0.00000000E+00  0.00000000E+00
  0.00000000E+00  0.00000000E+00  0.00000000E+00
  0.00000000E+00  0.00000000E+00  0.00000000E+00
  0.00000000E+00  0.00000000E+00  0.00000000E+00
  0.00000000E+00  0.00000000E+00  0.00000000E+00
  0.00000000E+00  0.00000000E+00  0.00000000E+00
  0.00000000E+00  0.00000000E+00  0.00000000E+00
  0.00000000E+00  0.00000000E+00  0.00000000E+00
  0.00000000E+00  0.00000000E+00  0.00000000E+00
  0.00000000E+00  0.00000000E+00  0.00000000E+00
  0.00000000E+00  0.00000000E+00  0.00000000E+00
  0.00000000E+00  0.00000000E+00  0.00000000E+00
  0.00000000E+00  0.00000000E+00  0.00000000E+00
  0.00000000E+00  0.00000000E+00  0.00000000E+00
  0.00000000E+00  0.00000000E+00  0.00000000E+00
  0.00000000E+00  0.00000000E+00  0.00000000E+00
  0.00000000E+00  0.00000000E+00  0.00000000E+00
  0.00000000E+00  0.00000000E+00  0.00000000E+00
  0.00000000E+00  0.00000000E+00  0.00000000E+00
  0.00000000E+00  0.00000000E+00  0.00000000E+00
  0.00000000E+00  0.00000000E+00  0.00000000E+00
  0.00000000E+00  0.00000000E+00  0.00000000E+00
  0.00000000E+00  0.00000000E+00  0.00000000E+00
  0.00000000E+00  0.00000000E+00  0.00000000E+00
  0.00000000E+00  0.00000000E+00  0.00000000E+00
  0.00000000E+00  0.00000000E+00  0.00000000E+00
  0.00000000E+00  0.00000000E+00  0.00000000E+00
  0.00000000E+00  0.00000000E+00  0.00000000E+00
  0.00000000E+00  0.00000000E+00  0.00000000E+00
  0.00000000E+00  0.00000000E+00  0.00000000E+00
  0.00000000E+00  0.00000000E+00  0.00000000E+00
  0.00000000E+00  0.00000000E+00  0.00000000E+00
  0.00000000E+00  0.00000000E+00  0.00000000E+00
  0.00000000E+00  0.00000000E+00  0.00000000E+00
  0.00000000E+00  0.00000000E+00  0.00000000E+00
  0.00000000E+00  0.00000000E+00  0.00000000E+00
  0.00000000E+00  0.00000000E+00  0.00000000E+00
  0.00000000E+00  0.00000000E+00  0.00000000E+00
  0.00000000E+00  0.00000000E+00  0.00000000E+00
  0.00000000E+00  0.00000000E+00  0.00000000E+00
  0.00000000E+00  0.00000000E+00  0.00000000E+00
  0.00000000E+00  0.00000000E+00  0.00000000E+00
  0.00000000E+00  0.00000000E+00  0.00000000E+00
  0.00000000E+00  0.00000000E+00  0.00000000E+00
  0.00000000E+00  0.00000000E+00  0.00000000E+00
  0.00000000E+00  0.00000000E+00  0.00000000E+00
  0.00000000E+00  0.00000000E+00  0.00000000E+00
  0.00000000E+00  0.00000000E+00  0.00000000E+00
