 Ta4 Pt2 Se14                           
   1.00000000000000     
     3.5456715115427890    0.0000000000000000    0.0000000000000000
     0.0000000000000000   18.7943068842279146    0.0000000000000000
     0.0000000000000000    0.0000000000000000   21.0296018206199982
   Ta   Pt   Se
     4     2    14
Direct
  0.7500000000012079  0.4223687554746078  0.5631213378410891
  0.2500000000666418  0.5776312452340022  0.4368786622701748
  0.2500000008462564  0.9036099729733635  0.4895794855504221
  0.7499999990516670  0.0963900244967348  0.5104205158332888
  0.2500000000843912  0.2256226168613438  0.5360233193295727
  0.7499999999134772  0.7743773851559368  0.4639766808762857
  0.2500000002642366  0.6967841388732694  0.5132198967892592
  0.7499999997158682  0.3032158612920313  0.4867801015905968
  0.2499999994272670  0.4349378640675923  0.4686086094856137
  0.7500000007009007  0.5650621379208758  0.5313913907502368
  0.7500000003456719  0.5252276140918823  0.3571785351236727
  0.2499999998221014  0.4747723874530223  0.6428214643402939
  0.7500000006813963  0.9834845763585705  0.4301213243540403
  0.2499999991741078  0.0165154220461261  0.5698786770186999
  0.2500000000022879  0.3364932135323215  0.6153056477879488
  0.7500000000535820  0.6635067861186528  0.3846943513997019
  0.7500000000593872  0.1720341825544978  0.6087460583295297
  0.2499999999097184  0.8279658173415640  0.3912539402876192
  0.2499999994681588  0.1460163963956234  0.4333553956408238
  0.7500000004116743  0.8539836017579887  0.5666446054011232
 
  0.00000000E+00  0.00000000E+00  0.00000000E+00
  0.00000000E+00  0.00000000E+00  0.00000000E+00
  0.00000000E+00  0.00000000E+00  0.00000000E+00
  0.00000000E+00  0.00000000E+00  0.00000000E+00
  0.00000000E+00  0.00000000E+00  0.00000000E+00
  0.00000000E+00  0.00000000E+00  0.00000000E+00
  0.00000000E+00  0.00000000E+00  0.00000000E+00
  0.00000000E+00  0.00000000E+00  0.00000000E+00
  0.00000000E+00  0.00000000E+00  0.00000000E+00
  0.00000000E+00  0.00000000E+00  0.00000000E+00
  0.00000000E+00  0.00000000E+00  0.00000000E+00
  0.00000000E+00  0.00000000E+00  0.00000000E+00
  0.00000000E+00  0.00000000E+00  0.00000000E+00
  0.00000000E+00  0.00000000E+00  0.00000000E+00
  0.00000000E+00  0.00000000E+00  0.00000000E+00
  0.00000000E+00  0.00000000E+00  0.00000000E+00
  0.00000000E+00  0.00000000E+00  0.00000000E+00
  0.00000000E+00  0.00000000E+00  0.00000000E+00
  0.00000000E+00  0.00000000E+00  0.00000000E+00
  0.00000000E+00  0.00000000E+00  0.00000000E+00
