G   56   11    1    0.005     # Parameters to Generate KPOINTS (Don't Edit This Line)
     174
Reciprocal lattice
    0.000000000000    0.000000000000    0.000000000000       1
    0.017857142857    0.000000000000    0.000000000000       2
    0.035714285714    0.000000000000    0.000000000000       2
    0.053571428571    0.000000000000    0.000000000000       2
    0.071428571429    0.000000000000    0.000000000000       2
    0.089285714286    0.000000000000    0.000000000000       2
    0.107142857143    0.000000000000    0.000000000000       2
    0.125000000000    0.000000000000    0.000000000000       2
    0.142857142857    0.000000000000    0.000000000000       2
    0.160714285714    0.000000000000    0.000000000000       2
    0.178571428571    0.000000000000    0.000000000000       2
    0.196428571429    0.000000000000    0.000000000000       2
    0.214285714286    0.000000000000    0.000000000000       2
    0.232142857143    0.000000000000    0.000000000000       2
    0.250000000000    0.000000000000    0.000000000000       2
    0.267857142857    0.000000000000    0.000000000000       2
    0.285714285714    0.000000000000    0.000000000000       2
    0.303571428571    0.000000000000    0.000000000000       2
    0.321428571429    0.000000000000    0.000000000000       2
    0.339285714286    0.000000000000    0.000000000000       2
    0.357142857143    0.000000000000    0.000000000000       2
    0.375000000000    0.000000000000    0.000000000000       2
    0.392857142857    0.000000000000    0.000000000000       2
    0.410714285714    0.000000000000    0.000000000000       2
    0.428571428571    0.000000000000    0.000000000000       2
    0.446428571429    0.000000000000    0.000000000000       2
    0.464285714286    0.000000000000    0.000000000000       2
    0.482142857143    0.000000000000    0.000000000000       2
    0.500000000000    0.000000000000    0.000000000000       1
    0.000000000000    0.090909090909    0.000000000000       2
    0.017857142857    0.090909090909    0.000000000000       4
    0.035714285714    0.090909090909    0.000000000000       4
    0.053571428571    0.090909090909    0.000000000000       4
    0.071428571429    0.090909090909    0.000000000000       4
    0.089285714286    0.090909090909    0.000000000000       4
    0.107142857143    0.090909090909    0.000000000000       4
    0.125000000000    0.090909090909    0.000000000000       4
    0.142857142857    0.090909090909    0.000000000000       4
    0.160714285714    0.090909090909    0.000000000000       4
    0.178571428571    0.090909090909    0.000000000000       4
    0.196428571429    0.090909090909    0.000000000000       4
    0.214285714286    0.090909090909    0.000000000000       4
    0.232142857143    0.090909090909    0.000000000000       4
    0.250000000000    0.090909090909    0.000000000000       4
    0.267857142857    0.090909090909    0.000000000000       4
    0.285714285714    0.090909090909    0.000000000000       4
    0.303571428571    0.090909090909    0.000000000000       4
    0.321428571429    0.090909090909    0.000000000000       4
    0.339285714286    0.090909090909    0.000000000000       4
    0.357142857143    0.090909090909    0.000000000000       4
    0.375000000000    0.090909090909    0.000000000000       4
    0.392857142857    0.090909090909    0.000000000000       4
    0.410714285714    0.090909090909    0.000000000000       4
    0.428571428571    0.090909090909    0.000000000000       4
    0.446428571429    0.090909090909    0.000000000000       4
    0.464285714286    0.090909090909    0.000000000000       4
    0.482142857143    0.090909090909    0.000000000000       4
    0.500000000000    0.090909090909    0.000000000000       2
    0.000000000000    0.181818181818    0.000000000000       2
    0.017857142857    0.181818181818    0.000000000000       4
    0.035714285714    0.181818181818    0.000000000000       4
    0.053571428571    0.181818181818    0.000000000000       4
    0.071428571429    0.181818181818    0.000000000000       4
    0.089285714286    0.181818181818    0.000000000000       4
    0.107142857143    0.181818181818    0.000000000000       4
    0.125000000000    0.181818181818    0.000000000000       4
    0.142857142857    0.181818181818    0.000000000000       4
    0.160714285714    0.181818181818    0.000000000000       4
    0.178571428571    0.181818181818    0.000000000000       4
    0.196428571429    0.181818181818    0.000000000000       4
    0.214285714286    0.181818181818    0.000000000000       4
    0.232142857143    0.181818181818    0.000000000000       4
    0.250000000000    0.181818181818    0.000000000000       4
    0.267857142857    0.181818181818    0.000000000000       4
    0.285714285714    0.181818181818    0.000000000000       4
    0.303571428571    0.181818181818    0.000000000000       4
    0.321428571429    0.181818181818    0.000000000000       4
    0.339285714286    0.181818181818    0.000000000000       4
    0.357142857143    0.181818181818    0.000000000000       4
    0.375000000000    0.181818181818    0.000000000000       4
    0.392857142857    0.181818181818    0.000000000000       4
    0.410714285714    0.181818181818    0.000000000000       4
    0.428571428571    0.181818181818    0.000000000000       4
    0.446428571429    0.181818181818    0.000000000000       4
    0.464285714286    0.181818181818    0.000000000000       4
    0.482142857143    0.181818181818    0.000000000000       4
    0.500000000000    0.181818181818    0.000000000000       2
    0.000000000000    0.272727272727    0.000000000000       2
    0.017857142857    0.272727272727    0.000000000000       4
    0.035714285714    0.272727272727    0.000000000000       4
    0.053571428571    0.272727272727    0.000000000000       4
    0.071428571429    0.272727272727    0.000000000000       4
    0.089285714286    0.272727272727    0.000000000000       4
    0.107142857143    0.272727272727    0.000000000000       4
    0.125000000000    0.272727272727    0.000000000000       4
    0.142857142857    0.272727272727    0.000000000000       4
    0.160714285714    0.272727272727    0.000000000000       4
    0.178571428571    0.272727272727    0.000000000000       4
    0.196428571429    0.272727272727    0.000000000000       4
    0.214285714286    0.272727272727    0.000000000000       4
    0.232142857143    0.272727272727    0.000000000000       4
    0.250000000000    0.272727272727    0.000000000000       4
    0.267857142857    0.272727272727    0.000000000000       4
    0.285714285714    0.272727272727    0.000000000000       4
    0.303571428571    0.272727272727    0.000000000000       4
    0.321428571429    0.272727272727    0.000000000000       4
    0.339285714286    0.272727272727    0.000000000000       4
    0.357142857143    0.272727272727    0.000000000000       4
    0.375000000000    0.272727272727    0.000000000000       4
    0.392857142857    0.272727272727    0.000000000000       4
    0.410714285714    0.272727272727    0.000000000000       4
    0.428571428571    0.272727272727    0.000000000000       4
    0.446428571429    0.272727272727    0.000000000000       4
    0.464285714286    0.272727272727    0.000000000000       4
    0.482142857143    0.272727272727    0.000000000000       4
    0.500000000000    0.272727272727    0.000000000000       2
    0.000000000000    0.363636363636    0.000000000000       2
    0.017857142857    0.363636363636    0.000000000000       4
    0.035714285714    0.363636363636    0.000000000000       4
    0.053571428571    0.363636363636    0.000000000000       4
    0.071428571429    0.363636363636    0.000000000000       4
    0.089285714286    0.363636363636    0.000000000000       4
    0.107142857143    0.363636363636    0.000000000000       4
    0.125000000000    0.363636363636    0.000000000000       4
    0.142857142857    0.363636363636    0.000000000000       4
    0.160714285714    0.363636363636    0.000000000000       4
    0.178571428571    0.363636363636    0.000000000000       4
    0.196428571429    0.363636363636    0.000000000000       4
    0.214285714286    0.363636363636    0.000000000000       4
    0.232142857143    0.363636363636    0.000000000000       4
    0.250000000000    0.363636363636    0.000000000000       4
    0.267857142857    0.363636363636    0.000000000000       4
    0.285714285714    0.363636363636    0.000000000000       4
    0.303571428571    0.363636363636    0.000000000000       4
    0.321428571429    0.363636363636    0.000000000000       4
    0.339285714286    0.363636363636    0.000000000000       4
    0.357142857143    0.363636363636    0.000000000000       4
    0.375000000000    0.363636363636    0.000000000000       4
    0.392857142857    0.363636363636    0.000000000000       4
    0.410714285714    0.363636363636    0.000000000000       4
    0.428571428571    0.363636363636    0.000000000000       4
    0.446428571429    0.363636363636    0.000000000000       4
    0.464285714286    0.363636363636    0.000000000000       4
    0.482142857143    0.363636363636    0.000000000000       4
    0.500000000000    0.363636363636    0.000000000000       2
    0.000000000000    0.454545454545    0.000000000000       2
    0.017857142857    0.454545454545    0.000000000000       4
    0.035714285714    0.454545454545    0.000000000000       4
    0.053571428571    0.454545454545    0.000000000000       4
    0.071428571429    0.454545454545    0.000000000000       4
    0.089285714286    0.454545454545    0.000000000000       4
    0.107142857143    0.454545454545    0.000000000000       4
    0.125000000000    0.454545454545    0.000000000000       4
    0.142857142857    0.454545454545    0.000000000000       4
    0.160714285714    0.454545454545    0.000000000000       4
    0.178571428571    0.454545454545    0.000000000000       4
    0.196428571429    0.454545454545    0.000000000000       4
    0.214285714286    0.454545454545    0.000000000000       4
    0.232142857143    0.454545454545    0.000000000000       4
    0.250000000000    0.454545454545    0.000000000000       4
    0.267857142857    0.454545454545    0.000000000000       4
    0.285714285714    0.454545454545    0.000000000000       4
    0.303571428571    0.454545454545    0.000000000000       4
    0.321428571429    0.454545454545    0.000000000000       4
    0.339285714286    0.454545454545    0.000000000000       4
    0.357142857143    0.454545454545    0.000000000000       4
    0.375000000000    0.454545454545    0.000000000000       4
    0.392857142857    0.454545454545    0.000000000000       4
    0.410714285714    0.454545454545    0.000000000000       4
    0.428571428571    0.454545454545    0.000000000000       4
    0.446428571429    0.454545454545    0.000000000000       4
    0.464285714286    0.454545454545    0.000000000000       4
    0.482142857143    0.454545454545    0.000000000000       4
    0.500000000000    0.454545454545    0.000000000000       2
