CONTCAR                                 
   1.00000000000000     
    13.9937000274999992    0.0000000000000000    0.0000000000000000
     0.0000000000000000   12.1743001938000006    0.0000000000000000
     0.0000000000000000    0.0000000000000000   22.0200004577999984
   Ta   Se   O 
    16    48     1
Direct
  0.0606926112605115  0.9944940119480551  0.4179649345791494
  0.1859005439740151  0.8540512847210285  0.5829106514205884
  0.0606711093121570  0.5872951797542040  0.4755614746821810
  0.1858235014974678  0.2619689864005130  0.5249858917564176
  0.3107992353828659  0.9951253748729468  0.4178010806225894
  0.4379331756331757  0.8508921635806197  0.5836554064618018
  0.3106417202010002  0.5881492742662315  0.4749692180741393
  0.4336132851047917  0.2598097313864687  0.5250129580882869
  0.5606550757583184  0.9957854103072916  0.4178243638787945
  0.6830694969766702  0.8507205277479376  0.5836924982847540
  0.5605523726321215  0.5918516704396649  0.4718462530029713
  0.6878066026568376  0.2597746143218054  0.5252127880490943
  0.8105308521829353  0.9951710049885351  0.4178488975260848
  0.9352020831134018  0.8540010208966267  0.5828880975253011
  0.8105902042178635  0.5881563144579207  0.4752447542073148
  0.9356458450666602  0.2618929850599560  0.5250646753778772
  0.0605418033267872  0.8146197436711424  0.4940953959025361
  0.1859403484455782  0.0342477616475095  0.5067055881694280
  0.0605223745859363  0.9837764875185239  0.6391727416368230
  0.1858149164080745  0.8651986556838120  0.3612592655999569
  0.1860464025702433  0.4361745960073384  0.4410672169028740
  0.0607686341665708  0.4129990864425819  0.5598320368829006
  0.1864486270862355  0.6314641784505400  0.5638445205710495
  0.0606235373364434  0.2176664274022666  0.4366831599519932
  0.1856349834754105  0.0771320748115408  0.3418762154936056
  0.0603592124584295  0.7714243381774168  0.6586984228173516
  0.1853600148928912  0.6559094970011610  0.3936546797370979
  0.0608701696380809  0.1932493270475357  0.6066441232667505
  0.3110170175213647  0.8150794795063646  0.4942168642965320
  0.4357138851095867  0.0337447433927388  0.5068679098087141
  0.3117021263857966  0.9805402745134737  0.6399595830356982
  0.4357083065049303  0.8678471366766138  0.3599695936761984
  0.4386871934976604  0.4366322025974523  0.4429585132417958
  0.3108129843742268  0.4128723252044516  0.5598230279314269
  0.4386686455463537  0.6295884565930780  0.5607484922882046
  0.3103808917794709  0.2182486775159674  0.4360730592491853
  0.4358583402076746  0.0795028181337259  0.3420656511086231
  0.3106706949759700  0.7694163070872365  0.6586576433014919
  0.4341316136837031  0.6583569363920306  0.3917809756782895
  0.3101752121586229  0.1919787513201320  0.6070429060218370
  0.5604173026668022  0.8156562606261274  0.4927058849921438
  0.6856311928397644  0.0337705401680352  0.5068568034887867
  0.5605848951624980  0.9816211775176898  0.6347037092543203
  0.6855550931322677  0.8678079627145470  0.3599653426875847
  0.6827296027018076  0.4365085627855740  0.4432003429694247
  0.5607305127800382  0.3951423684654695  0.5743240200560044
  0.6822984825737638  0.6294105558855405  0.5609732484364859
  0.5608296279509812  0.2182767354753562  0.4385353769212386
  0.6855709804973419  0.0791288399501408  0.3418624385972703
  0.5598444399625675  0.7555198442462818  0.6651927444766202
  0.6871612132406628  0.6582008587216575  0.3919290334489096
  0.5606057078245266  0.2012384898630559  0.6095466153158453
  0.8098193454674888  0.8151215516782629  0.4942422880787437
  0.9354637931026879  0.0340523653720791  0.5067883109298805
  0.8092422104850591  0.9804652991790376  0.6398224558541418
  0.9355169154125984  0.8656145069708542  0.3611907779317889
  0.9352430727340946  0.4364494833798263  0.4411409100874826
  0.8105000374172713  0.4127070561714111  0.5600958292832958
  0.9350383848616052  0.6315238799957426  0.5639502835310707
  0.8111297704478421  0.2181998188989553  0.4362700951699808
  0.9357232283855412  0.0773523106905887  0.3419477269795068
  0.8100453064880619  0.7691920371304596  0.6586604179160614
  0.9357834185508669  0.6562389004176022  0.3938098649139901
  0.8113063624528455  0.1917718674059061  0.6071781611100959
  0.5582035047541648  0.6154389023454252  0.6675963274616903
 
  0.00000000E+00  0.00000000E+00  0.00000000E+00
  0.00000000E+00  0.00000000E+00  0.00000000E+00
  0.00000000E+00  0.00000000E+00  0.00000000E+00
  0.00000000E+00  0.00000000E+00  0.00000000E+00
  0.00000000E+00  0.00000000E+00  0.00000000E+00
  0.00000000E+00  0.00000000E+00  0.00000000E+00
  0.00000000E+00  0.00000000E+00  0.00000000E+00
  0.00000000E+00  0.00000000E+00  0.00000000E+00
  0.00000000E+00  0.00000000E+00  0.00000000E+00
  0.00000000E+00  0.00000000E+00  0.00000000E+00
  0.00000000E+00  0.00000000E+00  0.00000000E+00
  0.00000000E+00  0.00000000E+00  0.00000000E+00
  0.00000000E+00  0.00000000E+00  0.00000000E+00
  0.00000000E+00  0.00000000E+00  0.00000000E+00
  0.00000000E+00  0.00000000E+00  0.00000000E+00
  0.00000000E+00  0.00000000E+00  0.00000000E+00
  0.00000000E+00  0.00000000E+00  0.00000000E+00
  0.00000000E+00  0.00000000E+00  0.00000000E+00
  0.00000000E+00  0.00000000E+00  0.00000000E+00
  0.00000000E+00  0.00000000E+00  0.00000000E+00
  0.00000000E+00  0.00000000E+00  0.00000000E+00
  0.00000000E+00  0.00000000E+00  0.00000000E+00
  0.00000000E+00  0.00000000E+00  0.00000000E+00
  0.00000000E+00  0.00000000E+00  0.00000000E+00
  0.00000000E+00  0.00000000E+00  0.00000000E+00
  0.00000000E+00  0.00000000E+00  0.00000000E+00
  0.00000000E+00  0.00000000E+00  0.00000000E+00
  0.00000000E+00  0.00000000E+00  0.00000000E+00
  0.00000000E+00  0.00000000E+00  0.00000000E+00
  0.00000000E+00  0.00000000E+00  0.00000000E+00
  0.00000000E+00  0.00000000E+00  0.00000000E+00
  0.00000000E+00  0.00000000E+00  0.00000000E+00
  0.00000000E+00  0.00000000E+00  0.00000000E+00
  0.00000000E+00  0.00000000E+00  0.00000000E+00
  0.00000000E+00  0.00000000E+00  0.00000000E+00
  0.00000000E+00  0.00000000E+00  0.00000000E+00
  0.00000000E+00  0.00000000E+00  0.00000000E+00
  0.00000000E+00  0.00000000E+00  0.00000000E+00
  0.00000000E+00  0.00000000E+00  0.00000000E+00
  0.00000000E+00  0.00000000E+00  0.00000000E+00
  0.00000000E+00  0.00000000E+00  0.00000000E+00
  0.00000000E+00  0.00000000E+00  0.00000000E+00
  0.00000000E+00  0.00000000E+00  0.00000000E+00
  0.00000000E+00  0.00000000E+00  0.00000000E+00
  0.00000000E+00  0.00000000E+00  0.00000000E+00
  0.00000000E+00  0.00000000E+00  0.00000000E+00
  0.00000000E+00  0.00000000E+00  0.00000000E+00
  0.00000000E+00  0.00000000E+00  0.00000000E+00
  0.00000000E+00  0.00000000E+00  0.00000000E+00
  0.00000000E+00  0.00000000E+00  0.00000000E+00
  0.00000000E+00  0.00000000E+00  0.00000000E+00
  0.00000000E+00  0.00000000E+00  0.00000000E+00
  0.00000000E+00  0.00000000E+00  0.00000000E+00
  0.00000000E+00  0.00000000E+00  0.00000000E+00
  0.00000000E+00  0.00000000E+00  0.00000000E+00
  0.00000000E+00  0.00000000E+00  0.00000000E+00
  0.00000000E+00  0.00000000E+00  0.00000000E+00
  0.00000000E+00  0.00000000E+00  0.00000000E+00
  0.00000000E+00  0.00000000E+00  0.00000000E+00
  0.00000000E+00  0.00000000E+00  0.00000000E+00
  0.00000000E+00  0.00000000E+00  0.00000000E+00
  0.00000000E+00  0.00000000E+00  0.00000000E+00
  0.00000000E+00  0.00000000E+00  0.00000000E+00
  0.00000000E+00  0.00000000E+00  0.00000000E+00
  0.00000000E+00  0.00000000E+00  0.00000000E+00
