CONTCAR\(4)                             
   1.00000000000000     
    12.8708000183000006    0.0000000000000000    0.0000000000000000
     0.0000000000000000   12.8761997223000009    0.0000000000000000
     0.0000000000000000    0.0000000000000000   24.0524005890000012
   Pr   Te   Se   O 
    18    36    18     1
Selective dynamics
Direct
  0.1665363890937499  0.0018975552619480  0.5771957665410312   F   F   F
  0.9995386611711794  0.1665066595858207  0.4224639403028689   F   F   F
  0.5003454733868722  0.9993031282859306  0.5781260642761339   F   F   F
  0.3326410654899803  0.1659763417863473  0.4227429960923388   F   F   F
  0.8337950031903034  0.0002045326308249  0.5768028104691822   F   F   F
  0.6661211877384474  0.1657834476566791  0.4226172821069270   F   F   F
  0.1673658146871801  0.3342131468915142  0.5779808712806371   F   F   F
  0.9991354004009665  0.4993800744872132  0.4226165553427776   F   F   F
  0.4995563912933605  0.3304972065536376  0.5765619528427095   F   F   F
  0.3326747974536062  0.4995786274873950  0.4233351768853382   F   F   F
  0.8350207174144018  0.3328489925418836  0.5771937292635201   F   F   F
  0.6660041552381273  0.4997441197708028  0.4234212877631052   F   F   F
  0.1638639768780550  0.6664520130308844  0.5766842203154638   F   F   F
  0.9991139341949591  0.8328091696203330  0.4226731821281149   F   F   F
  0.5010668721233529  0.6676648966392307  0.5780698629835115   F   F   F
  0.3330067742173810  0.8328844045510806  0.4233411021897098   F   F   F
  0.8329260568415648  0.6668209273653574  0.5782253914398297   F   F   F
  0.6660154221887424  0.8326657584151249  0.4228526585368684   F   F   F
  0.1666732768079200  0.1675370298971686  0.6886210640234793   F   F   F
  0.9995828548638457  0.9995419985556069  0.3128338312715826   F   F   F
  0.1661701912832427  0.1663569157290823  0.3131332767716657   F   F   F
  0.9997515459757693  0.0030666981884337  0.6871488106262902   F   F   F
  0.4993869735391669  0.1652383773938553  0.6885218631964634   F   F   F
  0.3326250418521610  0.9992472315672245  0.3133179644678208   F   F   F
  0.4991548646151003  0.1660325628722106  0.3130984207750842   F   F   F
  0.3344297998221890  0.0029451805768588  0.6885328981170673   F   F   F
  0.8374453011358298  0.1661899414553929  0.6870047825438306   F   F   F
  0.6657620324761950  0.9991394835302785  0.3131340148207826   F   F   F
  0.8325730470509569  0.1660001578857404  0.3129226087298349   F   F   F
  0.6696364475239989  0.0013054500744403  0.6880504680489778   F   F   F
  0.1700400935870618  0.5031118469527271  0.6887293422673650   F   F   F
  0.9992114933497263  0.3327866374737383  0.3129773264345843   F   F   F
  0.1659139624895332  0.4993629678723011  0.3132061314493910   F   F   F
  0.0013522505340759  0.3337258747614271  0.6883735158089195   F   F   F
  0.5138734230806818  0.4930549486979316  0.6924298983104151   F   F   F
  0.3327410766630834  0.3331522403025673  0.3134508453157849   F   F   F
  0.4995578364446871  0.4996682412779734  0.3138810671497581   F   F   F
  0.3363758605590519  0.3364318630840870  0.6888054177378251   F   F   F
  0.8359588985411648  0.5011918438420295  0.6885457990718464   F   F   F
  0.6659833625903957  0.3330468722454611  0.3133302267913507   F   F   F
  0.8324381691635452  0.4994535814197505  0.3132110924855311   F   F   F
  0.6725428209938684  0.3277185054152341  0.6878264677540002   F   F   F
  0.1616617024626095  0.8386583385487185  0.6879612707554017   F   F   F
  0.9991487100633805  0.6660345637213894  0.3130947939505830   F   F   F
  0.1662523236375009  0.8328458805009475  0.3134387803361278   F   F   F
  0.9984046137848281  0.6662022173240487  0.6886352447489230   F   F   F
  0.5010198309768512  0.8340168293679966  0.6900788352366689   F   F   F
  0.3327519973664437  0.6660975035007937  0.3137853405061364   F   F   F
  0.4992220922716228  0.8326617973653754  0.3134320074344146   F   F   F
  0.3274268622483874  0.6800662256187593  0.6924779238177834   F   F   F
  0.8344599279035734  0.8357480255442340  0.6883521227144342   F   F   F
  0.6661374054244789  0.6662439847250781  0.3135284666415856   F   F   F
  0.8327076950956851  0.8329456377893720  0.3132432626277009   F   F   F
  0.6669079180870057  0.6672434243889285  0.6897261172444615   F   F   F
  0.1662935372689773  0.9992737972897316  0.4522156190014712   F   F   F
  0.0008071491844746  0.1673149642762723  0.5484092181296703   F   F   F
  0.4992423551787439  0.9993151220452390  0.4527110816784159   F   F   F
  0.3332182702468529  0.1664649694310043  0.5490645949497122   F   F   F
  0.8328641043523106  0.9996309591181571  0.4518507265107488   F   F   F
  0.6666280162850100  0.1660889988816621  0.5487611225770266   F   F   F
  0.1663543576262327  0.3333549919840664  0.4525856233151302   F   F   F
  0.9996378856670276  0.4999731269008407  0.5487815281041222   F   F   F
  0.4994252060513702  0.3325625583198217  0.4521833415539547   F   F   F
  0.3346484357499477  0.5013862510910130  0.5499257733890985   F   F   F
  0.8325655641088048  0.3331390550461677  0.4521311491929154   F   F   F
  0.6649907504485952  0.4993480449070233  0.5502206630323414   F   F   F
  0.1657941803440011  0.6661650702630766  0.4522384808038922   F   F   F
  0.9995471795889870  0.8334002770551692  0.5486901427136814   F   F   F
  0.4997732011977405  0.6665926822592709  0.4529066359813783   F   F   F
  0.3328915611729286  0.8316712563745199  0.5502186023401663   F   F   F
  0.8325881779620730  0.6659262933603074  0.4527629058267664   F   F   F
  0.6663309107224507  0.8329488878503071  0.5492711692908472   F   F   F
  0.4131795995755994  0.5792008455172349  0.7373428854904903   T   T   T
 
  0.00000000E+00  0.00000000E+00  0.00000000E+00
  0.00000000E+00  0.00000000E+00  0.00000000E+00
  0.00000000E+00  0.00000000E+00  0.00000000E+00
  0.00000000E+00  0.00000000E+00  0.00000000E+00
  0.00000000E+00  0.00000000E+00  0.00000000E+00
  0.00000000E+00  0.00000000E+00  0.00000000E+00
  0.00000000E+00  0.00000000E+00  0.00000000E+00
  0.00000000E+00  0.00000000E+00  0.00000000E+00
  0.00000000E+00  0.00000000E+00  0.00000000E+00
  0.00000000E+00  0.00000000E+00  0.00000000E+00
  0.00000000E+00  0.00000000E+00  0.00000000E+00
  0.00000000E+00  0.00000000E+00  0.00000000E+00
  0.00000000E+00  0.00000000E+00  0.00000000E+00
  0.00000000E+00  0.00000000E+00  0.00000000E+00
  0.00000000E+00  0.00000000E+00  0.00000000E+00
  0.00000000E+00  0.00000000E+00  0.00000000E+00
  0.00000000E+00  0.00000000E+00  0.00000000E+00
  0.00000000E+00  0.00000000E+00  0.00000000E+00
  0.00000000E+00  0.00000000E+00  0.00000000E+00
  0.00000000E+00  0.00000000E+00  0.00000000E+00
  0.00000000E+00  0.00000000E+00  0.00000000E+00
  0.00000000E+00  0.00000000E+00  0.00000000E+00
  0.00000000E+00  0.00000000E+00  0.00000000E+00
  0.00000000E+00  0.00000000E+00  0.00000000E+00
  0.00000000E+00  0.00000000E+00  0.00000000E+00
  0.00000000E+00  0.00000000E+00  0.00000000E+00
  0.00000000E+00  0.00000000E+00  0.00000000E+00
  0.00000000E+00  0.00000000E+00  0.00000000E+00
  0.00000000E+00  0.00000000E+00  0.00000000E+00
  0.00000000E+00  0.00000000E+00  0.00000000E+00
  0.00000000E+00  0.00000000E+00  0.00000000E+00
  0.00000000E+00  0.00000000E+00  0.00000000E+00
  0.00000000E+00  0.00000000E+00  0.00000000E+00
  0.00000000E+00  0.00000000E+00  0.00000000E+00
  0.00000000E+00  0.00000000E+00  0.00000000E+00
  0.00000000E+00  0.00000000E+00  0.00000000E+00
  0.00000000E+00  0.00000000E+00  0.00000000E+00
  0.00000000E+00  0.00000000E+00  0.00000000E+00
  0.00000000E+00  0.00000000E+00  0.00000000E+00
  0.00000000E+00  0.00000000E+00  0.00000000E+00
  0.00000000E+00  0.00000000E+00  0.00000000E+00
  0.00000000E+00  0.00000000E+00  0.00000000E+00
  0.00000000E+00  0.00000000E+00  0.00000000E+00
  0.00000000E+00  0.00000000E+00  0.00000000E+00
  0.00000000E+00  0.00000000E+00  0.00000000E+00
  0.00000000E+00  0.00000000E+00  0.00000000E+00
  0.00000000E+00  0.00000000E+00  0.00000000E+00
  0.00000000E+00  0.00000000E+00  0.00000000E+00
  0.00000000E+00  0.00000000E+00  0.00000000E+00
  0.00000000E+00  0.00000000E+00  0.00000000E+00
  0.00000000E+00  0.00000000E+00  0.00000000E+00
  0.00000000E+00  0.00000000E+00  0.00000000E+00
  0.00000000E+00  0.00000000E+00  0.00000000E+00
  0.00000000E+00  0.00000000E+00  0.00000000E+00
  0.00000000E+00  0.00000000E+00  0.00000000E+00
  0.00000000E+00  0.00000000E+00  0.00000000E+00
  0.00000000E+00  0.00000000E+00  0.00000000E+00
  0.00000000E+00  0.00000000E+00  0.00000000E+00
  0.00000000E+00  0.00000000E+00  0.00000000E+00
  0.00000000E+00  0.00000000E+00  0.00000000E+00
  0.00000000E+00  0.00000000E+00  0.00000000E+00
  0.00000000E+00  0.00000000E+00  0.00000000E+00
  0.00000000E+00  0.00000000E+00  0.00000000E+00
  0.00000000E+00  0.00000000E+00  0.00000000E+00
  0.00000000E+00  0.00000000E+00  0.00000000E+00
  0.00000000E+00  0.00000000E+00  0.00000000E+00
  0.00000000E+00  0.00000000E+00  0.00000000E+00
  0.00000000E+00  0.00000000E+00  0.00000000E+00
  0.00000000E+00  0.00000000E+00  0.00000000E+00
  0.00000000E+00  0.00000000E+00  0.00000000E+00
  0.00000000E+00  0.00000000E+00  0.00000000E+00
  0.00000000E+00  0.00000000E+00  0.00000000E+00
  0.00000000E+00  0.00000000E+00  0.00000000E+00
