CONTCAR\(6)                             
   1.00000000000000     
    11.1940002440999997    0.0000000000000000    0.0000000000000000
     0.0000000000000000   11.1940002440999997    0.0000000000000000
     0.0000000000000000    0.0000000000000000   21.3455009460000014
   K    Mn   P    O 
    18    18    18     1
Direct
  0.0001752013397440  0.1633512185238082  0.3549170448499129
  0.1672442772196963 -0.0034694835074268  0.6500953938492008
  0.3333481000414563  0.1636208843352732  0.3549166506975939
  0.4993113623941816 -0.0033789410682450  0.6500794736466747
  0.6666784227905637  0.1638948513050350  0.3547091508615781
  0.8329291472975839 -0.0026562549180202  0.6491473581052583
 -0.0000452578071215  0.4971437528437103  0.3550707075648751
  0.1662242715829914  0.3302441866883388  0.6492089496507525
  0.3333243625360690  0.4970627041133996  0.3549330280418346
  0.5003258089421034  0.3301917313534637  0.6490672535641423
  0.6667734628566377  0.4966934582909910  0.3547967781608693
  0.8333555925331820  0.3302053108045900  0.6492860653702830
  0.0003966471316554  0.8304307061304811  0.3548944950809599
  0.1671702381080268  0.6644726969908814  0.6501686884958663
  0.3336752378275920  0.8303445900805643  0.3550468011287210
  0.4995840037840595  0.6640482803559380  0.6499366843951772
  0.6663201501408431  0.8304627518154183  0.3549316367539658
  0.8329939545824265  0.6636137369712853  0.6491433203904234
 -0.0002161712171748 -0.0030688694303606  0.5020578017827884
  0.1666829182371249  0.1638762783978380  0.5022091320946654
  0.3333548837655664 -0.0030668816836386  0.5020104362762002
  0.4999671370862130  0.1639882602665367  0.5021786153673991
  0.6669898755221906 -0.0029962964702470  0.5021330452203872
  0.8334207047653344  0.1635865956938412  0.5021043050771630
 -0.0000231395801598  0.3302949111459448  0.5022397741991906
  0.1666687171962006  0.4967140377141014  0.5022398640242465
  0.3333471111836198  0.3304193620851105  0.5019496386916307
  0.4999209923109766  0.4966268492248693  0.5022065511053263
  0.6666706056613801  0.3302875789453420  0.5020532192506065
  0.8333931004440021  0.4970813195573141  0.5020819149975743
 -0.0003815388908551  0.6637437997366655  0.5021176045854502
  0.1667592181216953  0.8304128846429214  0.5019812582189493
  0.3332548091185805  0.6636625245093494  0.5020460289923919
  0.4999152170559562  0.8303690914489334  0.5020381394066168
  0.6670416107617273  0.6636437002666058  0.5021440737399852
  0.8333511416046868  0.8303015067527284  0.5018632316086149
  0.0000451475312321  0.1633832539023401  0.5633152948320890
  0.1662978348556058 -0.0025056725027800  0.4409678543494436
  0.3332960816333651  0.1634223836786547  0.5634357636098511
  0.5005642460150836 -0.0024587395885151  0.4410480273207135
  0.6667158132907255  0.1637369346567059  0.5632550921531327
  0.8333708269113086 -0.0029451097279363  0.4406789944970781
 -0.0000726417713514  0.4972121444577272  0.5633307849924734
  0.1665270645918362  0.3302333056525956  0.4408586578744854
  0.3333336380960375  0.4973092147881699  0.5635598028895298
  0.5001232107883067  0.3303308436193486  0.4406644792251557
  0.6667582216622191  0.4968604774290892  0.5632471587304885
  0.8333186983582136  0.3302464676179793  0.4409954537334158
  0.0002977626903389  0.8303621780702030  0.5633586844283016
  0.1661493893743380  0.6632358459800312  0.4410821640054586
  0.3333130010462056  0.8302885347812691  0.5613197214477149
  0.5004742100286518  0.6631375377169502  0.4411433770400611
  0.6664098411816419  0.8303513465647605  0.5633397574991353
  0.8333302695875251  0.6636411975283131  0.4406395601881797
  0.3332747246799393  0.8301745364617110  0.6375951489359785
 
  0.00000000E+00  0.00000000E+00  0.00000000E+00
  0.00000000E+00  0.00000000E+00  0.00000000E+00
  0.00000000E+00  0.00000000E+00  0.00000000E+00
  0.00000000E+00  0.00000000E+00  0.00000000E+00
  0.00000000E+00  0.00000000E+00  0.00000000E+00
  0.00000000E+00  0.00000000E+00  0.00000000E+00
  0.00000000E+00  0.00000000E+00  0.00000000E+00
  0.00000000E+00  0.00000000E+00  0.00000000E+00
  0.00000000E+00  0.00000000E+00  0.00000000E+00
  0.00000000E+00  0.00000000E+00  0.00000000E+00
  0.00000000E+00  0.00000000E+00  0.00000000E+00
  0.00000000E+00  0.00000000E+00  0.00000000E+00
  0.00000000E+00  0.00000000E+00  0.00000000E+00
  0.00000000E+00  0.00000000E+00  0.00000000E+00
  0.00000000E+00  0.00000000E+00  0.00000000E+00
  0.00000000E+00  0.00000000E+00  0.00000000E+00
  0.00000000E+00  0.00000000E+00  0.00000000E+00
  0.00000000E+00  0.00000000E+00  0.00000000E+00
  0.00000000E+00  0.00000000E+00  0.00000000E+00
  0.00000000E+00  0.00000000E+00  0.00000000E+00
  0.00000000E+00  0.00000000E+00  0.00000000E+00
  0.00000000E+00  0.00000000E+00  0.00000000E+00
  0.00000000E+00  0.00000000E+00  0.00000000E+00
  0.00000000E+00  0.00000000E+00  0.00000000E+00
  0.00000000E+00  0.00000000E+00  0.00000000E+00
  0.00000000E+00  0.00000000E+00  0.00000000E+00
  0.00000000E+00  0.00000000E+00  0.00000000E+00
  0.00000000E+00  0.00000000E+00  0.00000000E+00
  0.00000000E+00  0.00000000E+00  0.00000000E+00
  0.00000000E+00  0.00000000E+00  0.00000000E+00
  0.00000000E+00  0.00000000E+00  0.00000000E+00
  0.00000000E+00  0.00000000E+00  0.00000000E+00
  0.00000000E+00  0.00000000E+00  0.00000000E+00
  0.00000000E+00  0.00000000E+00  0.00000000E+00
  0.00000000E+00  0.00000000E+00  0.00000000E+00
  0.00000000E+00  0.00000000E+00  0.00000000E+00
  0.00000000E+00  0.00000000E+00  0.00000000E+00
  0.00000000E+00  0.00000000E+00  0.00000000E+00
  0.00000000E+00  0.00000000E+00  0.00000000E+00
  0.00000000E+00  0.00000000E+00  0.00000000E+00
  0.00000000E+00  0.00000000E+00  0.00000000E+00
  0.00000000E+00  0.00000000E+00  0.00000000E+00
  0.00000000E+00  0.00000000E+00  0.00000000E+00
  0.00000000E+00  0.00000000E+00  0.00000000E+00
  0.00000000E+00  0.00000000E+00  0.00000000E+00
  0.00000000E+00  0.00000000E+00  0.00000000E+00
  0.00000000E+00  0.00000000E+00  0.00000000E+00
  0.00000000E+00  0.00000000E+00  0.00000000E+00
  0.00000000E+00  0.00000000E+00  0.00000000E+00
  0.00000000E+00  0.00000000E+00  0.00000000E+00
  0.00000000E+00  0.00000000E+00  0.00000000E+00
  0.00000000E+00  0.00000000E+00  0.00000000E+00
  0.00000000E+00  0.00000000E+00  0.00000000E+00
  0.00000000E+00  0.00000000E+00  0.00000000E+00
  0.00000000E+00  0.00000000E+00  0.00000000E+00
