CONTCAR                                 
   1.00000000000000     
    12.2054004669000005    0.0000000000000000    0.0000000000000000
    -6.1026684629999997   10.5700895834999997    0.0000000000000000
     0.0000000000000000    0.0000000000000000   19.4676990508999985
   Mo   C    O    H 
    32    16    32     1
Direct
  0.1699140502292444  0.0888459121832448  0.5481907371110546
  0.0986233454510602  0.1572420236150795  0.4270645158645505
  0.4208986425745140  0.0828189862849594  0.5537388500418521
  0.3407767056193728  0.1750003025925529  0.4362350121735065
  0.6860203980066437  0.0932862447655118  0.5676544072838692
  0.5685636213540675  0.1440677351728043  0.4339645651574940
  0.8938646870443250  0.0847649841211541  0.5729102042719533
  0.8418554497628813  0.1709331528803327  0.4467207876015933
  0.1491947276119132  0.3435798000168418  0.5720410833594131
  0.0761569687941372  0.4113823828159268  0.4510501787397315
  0.4090295209736766  0.3295724801751557  0.5518483019882818
  0.3560448806802108  0.4187235155088294  0.4277129794721117
  0.6801664364479233  0.3513027994838026  0.5645690983516737
  0.5614577243368102  0.4051253590003174  0.4325509726248875
  0.9069214417177165  0.3258678593295160  0.5635423828023165
  0.8288602127380864  0.4162243672049390  0.4447012688433443
  0.1772648555532054  0.5968170330593335  0.5608552610355947
  0.0926186139266313  0.6763340656296425  0.4430609145827078
  0.3970125786192766  0.5871692898843325  0.5647473372833230
  0.3391005309335979  0.6720176934781896  0.4458653606506839
  0.6759231907450889  0.5764045466167717  0.5554385721634634
  0.6015548619944204  0.6550411999217890  0.4356499732155884
  0.8930429855004812  0.5600586764125420  0.5665088740547420
  0.8378352889628657  0.6889784882494834  0.4306039920656796
  0.1593770689377191  0.8225833193486154  0.5574214430377672
  0.0724259517881107  0.9058164784875145  0.4394659783700206
  0.4148819548806821  0.8105196197533373  0.5706245727839544
  0.3546620979474205  0.9380018684709739  0.4338578213393302
  0.6669269769763982  0.8598638888811022  0.5658557101098222
  0.5678394019952172  0.9123508693600600  0.4415509827766563
  0.9217442020440604  0.8375424091897540  0.5544861513552792
  0.8421914705484771  0.9047885629677124  0.4326220292415757
 -0.0045583341914452  0.0082158756982301  0.4954200292965550
  0.2491661116777898 -0.0022606640600747  0.4918048429611509
  0.5030375389477668 -0.0083313426567946  0.5075817240982381
  0.7527349437991823 -0.0015247678104281  0.4974281468704442
  0.0005666481582666  0.2392062049920386  0.5088981691260960
  0.2482398947507784  0.2622470062029725  0.4908213911968816
  0.5097477866057269  0.2530662899867259  0.4966049580286443
  0.7387081335881004  0.2446189653762018  0.5019837531658106
 -0.0002626214222199  0.5029172612142883  0.5088852435354735
  0.2495566806267198  0.4931000310107058  0.5006900240847527
  0.4988540193845863  0.5074696162071305  0.5011218175484753
  0.7463555190788659  0.5045953370082754  0.4907878810515345
 -0.0147280423917177  0.7349372898725359  0.4990606729732536
  0.2681524813333679  0.7674552886509922  0.5022533151403602
  0.5104533995295040  0.7471331712397976  0.5044648137480008
  0.7465682656786876  0.7541144729621281  0.5029404325960941
  0.0923511389851515  0.1712632380518305  0.6116272567590820
  0.1691264948559339  0.0760836634942687  0.3754640767267981
  0.3330675545286098  0.1672251346979270  0.6085284410926702
  0.4205062009727198  0.0912605059421790  0.3709325250672486
  0.5812551349087518  0.1704882933564435  0.6130822719765087
  0.6703752789384253  0.0816915428946641  0.3850140449197079
  0.8371119232996723  0.1760846296660359  0.6363060763868303
  0.9214939413469464  0.0926577566941192  0.3850726368903369
  0.0793543958050694  0.4240122338364982  0.6242751093441918
  0.1546600711235950  0.3294686953442765  0.3878849416265163
  0.3264041765641173  0.4071985415373592  0.6139175860524599
  0.4113461640470789  0.3256727212228416  0.3639121427667383
  0.5776607639729503  0.4154664922778746  0.6150786858364576
  0.6679454206125255  0.3288022066301636  0.3867379151288703
  0.8279692885660201  0.4085013533396052  0.6296771060862356
  0.9144799293274097  0.3325779198439868  0.3885602069036284
  0.0785590220253607  0.6716247057387973  0.6165775706129879
  0.1673827241381909  0.5788564552461041  0.3928528824761183
  0.3231219384515819  0.6625589853085408  0.6354048550218946
  0.4186478075363661  0.5880057394687807  0.3851214186796307
  0.5839510602306829  0.6665694709115330  0.6199592637784540
  0.6731223928490518  0.5752016726617873  0.3747934580281884
  0.8339939263517666  0.6687553708056868  0.6170451898307366
  0.9233974149141175  0.5845952387115404  0.3890261112872895
  0.0850352431023572  0.9237966180296553  0.6092315513239988
  0.1692082769322424  0.8270308149465359  0.3844919850863862
  0.3281972957872317  0.9166680770291602  0.6111079363740645
  0.4149851985986988  0.8309591452066976  0.3789511995690135
  0.5787078201452730  0.9250205879595620  0.6260885717221504
  0.6645731428455813  0.8308990846807073  0.3891119808796976
  0.8380827843379877  0.9170329273130470  0.6182708844529856
  0.9252524841915685  0.8364215641613258  0.3646645468943538
  0.5876006278567770  0.6594321032336984  0.6698124822421779
 
  0.00000000E+00  0.00000000E+00  0.00000000E+00
  0.00000000E+00  0.00000000E+00  0.00000000E+00
  0.00000000E+00  0.00000000E+00  0.00000000E+00
  0.00000000E+00  0.00000000E+00  0.00000000E+00
  0.00000000E+00  0.00000000E+00  0.00000000E+00
  0.00000000E+00  0.00000000E+00  0.00000000E+00
  0.00000000E+00  0.00000000E+00  0.00000000E+00
  0.00000000E+00  0.00000000E+00  0.00000000E+00
  0.00000000E+00  0.00000000E+00  0.00000000E+00
  0.00000000E+00  0.00000000E+00  0.00000000E+00
  0.00000000E+00  0.00000000E+00  0.00000000E+00
  0.00000000E+00  0.00000000E+00  0.00000000E+00
  0.00000000E+00  0.00000000E+00  0.00000000E+00
  0.00000000E+00  0.00000000E+00  0.00000000E+00
  0.00000000E+00  0.00000000E+00  0.00000000E+00
  0.00000000E+00  0.00000000E+00  0.00000000E+00
  0.00000000E+00  0.00000000E+00  0.00000000E+00
  0.00000000E+00  0.00000000E+00  0.00000000E+00
  0.00000000E+00  0.00000000E+00  0.00000000E+00
  0.00000000E+00  0.00000000E+00  0.00000000E+00
  0.00000000E+00  0.00000000E+00  0.00000000E+00
  0.00000000E+00  0.00000000E+00  0.00000000E+00
  0.00000000E+00  0.00000000E+00  0.00000000E+00
  0.00000000E+00  0.00000000E+00  0.00000000E+00
  0.00000000E+00  0.00000000E+00  0.00000000E+00
  0.00000000E+00  0.00000000E+00  0.00000000E+00
  0.00000000E+00  0.00000000E+00  0.00000000E+00
  0.00000000E+00  0.00000000E+00  0.00000000E+00
  0.00000000E+00  0.00000000E+00  0.00000000E+00
  0.00000000E+00  0.00000000E+00  0.00000000E+00
  0.00000000E+00  0.00000000E+00  0.00000000E+00
  0.00000000E+00  0.00000000E+00  0.00000000E+00
  0.00000000E+00  0.00000000E+00  0.00000000E+00
  0.00000000E+00  0.00000000E+00  0.00000000E+00
  0.00000000E+00  0.00000000E+00  0.00000000E+00
  0.00000000E+00  0.00000000E+00  0.00000000E+00
  0.00000000E+00  0.00000000E+00  0.00000000E+00
  0.00000000E+00  0.00000000E+00  0.00000000E+00
  0.00000000E+00  0.00000000E+00  0.00000000E+00
  0.00000000E+00  0.00000000E+00  0.00000000E+00
  0.00000000E+00  0.00000000E+00  0.00000000E+00
  0.00000000E+00  0.00000000E+00  0.00000000E+00
  0.00000000E+00  0.00000000E+00  0.00000000E+00
  0.00000000E+00  0.00000000E+00  0.00000000E+00
  0.00000000E+00  0.00000000E+00  0.00000000E+00
  0.00000000E+00  0.00000000E+00  0.00000000E+00
  0.00000000E+00  0.00000000E+00  0.00000000E+00
  0.00000000E+00  0.00000000E+00  0.00000000E+00
  0.00000000E+00  0.00000000E+00  0.00000000E+00
  0.00000000E+00  0.00000000E+00  0.00000000E+00
  0.00000000E+00  0.00000000E+00  0.00000000E+00
  0.00000000E+00  0.00000000E+00  0.00000000E+00
  0.00000000E+00  0.00000000E+00  0.00000000E+00
  0.00000000E+00  0.00000000E+00  0.00000000E+00
  0.00000000E+00  0.00000000E+00  0.00000000E+00
  0.00000000E+00  0.00000000E+00  0.00000000E+00
  0.00000000E+00  0.00000000E+00  0.00000000E+00
  0.00000000E+00  0.00000000E+00  0.00000000E+00
  0.00000000E+00  0.00000000E+00  0.00000000E+00
  0.00000000E+00  0.00000000E+00  0.00000000E+00
  0.00000000E+00  0.00000000E+00  0.00000000E+00
  0.00000000E+00  0.00000000E+00  0.00000000E+00
  0.00000000E+00  0.00000000E+00  0.00000000E+00
  0.00000000E+00  0.00000000E+00  0.00000000E+00
  0.00000000E+00  0.00000000E+00  0.00000000E+00
  0.00000000E+00  0.00000000E+00  0.00000000E+00
  0.00000000E+00  0.00000000E+00  0.00000000E+00
  0.00000000E+00  0.00000000E+00  0.00000000E+00
  0.00000000E+00  0.00000000E+00  0.00000000E+00
  0.00000000E+00  0.00000000E+00  0.00000000E+00
  0.00000000E+00  0.00000000E+00  0.00000000E+00
  0.00000000E+00  0.00000000E+00  0.00000000E+00
  0.00000000E+00  0.00000000E+00  0.00000000E+00
  0.00000000E+00  0.00000000E+00  0.00000000E+00
  0.00000000E+00  0.00000000E+00  0.00000000E+00
  0.00000000E+00  0.00000000E+00  0.00000000E+00
  0.00000000E+00  0.00000000E+00  0.00000000E+00
  0.00000000E+00  0.00000000E+00  0.00000000E+00
  0.00000000E+00  0.00000000E+00  0.00000000E+00
  0.00000000E+00  0.00000000E+00  0.00000000E+00
  0.00000000E+00  0.00000000E+00  0.00000000E+00
