CONTCAR\(2)                             
   1.00000000000000     
    14.5429000853999995    0.0000000000000000    0.0000000000000000
     0.0000000000000000   10.6486997603999995    0.0000000000000000
     0.0000000000000000    0.0000000000000000   18.9185009002999998
   Ta   Ni   Te   O    H 
     8    16    24     2     1
Direct
  0.0672655734705219  0.7971757571616838  0.5061028572909003
  0.1915178328165708  0.2074271231118145  0.4907179316812791
  0.3180126938288071  0.7983088293376155  0.5063562667114065
  0.4406101671885104  0.2063210520302824  0.4892980271621121
  0.5655037700987060  0.7980017667862429  0.5042706169030221
  0.6909841858356700  0.2075896407229058  0.4901797329147967
  0.8163547702406597  0.7971202032758867  0.5052139314150146
  0.9419703144030911  0.2070375352556778  0.4911087537647641
  0.0673969128841730  0.4091318678703282  0.4992964370708553
  0.1938238845948357  0.5956646725264149  0.4979040675992960
  0.1915563501663389  0.9653989500604050  0.4586794667121830
  0.0673920969720068  0.0388213167610589  0.5376982658937812
  0.3171718386626293  0.4087128525904736  0.4993675795415965
  0.4430827981509773  0.5957449918902947  0.4967957871541432
  0.4411437577782699  0.9654443133289858  0.4580184546551241
  0.3166563178223253  0.0401637349353697  0.5361828255361402
  0.5662802439423525  0.4093368714557448  0.4966759036089995
  0.6912595175887927  0.5948505152453293  0.4958366082529633
  0.6913100087220662  0.9656739307071057  0.4589685862836813
  0.5656297186971088  0.0376787205615738  0.5377350232051472
  0.8159325646300550  0.4092875512057122  0.4981106766701930
  0.9417412792495266  0.5945400967582384  0.4982326516356583
  0.9421432364371572  0.9656160412295119  0.4593985912794510
  0.8161857209057923  0.0387929794578025  0.5370450632763852
  0.1921221408164123  0.7522931132609670  0.3965077108995062
  0.0668553175524129  0.2518933201197046  0.6007386923043093
  0.1921983058933485  0.4153995130375865  0.4057315410936644
  0.0682517968556029  0.5898684155812777  0.5910631742668828
  0.0666775012459717  0.0859101396102438  0.3930770799084068
  0.1935317031971632  0.9193053213123784  0.6034423713492134
  0.4405626792975632  0.7521260113090087  0.3948481102841024
  0.3172850356048436  0.2509347978072136  0.6004211095175293
  0.4401071162972064  0.4155384006851041  0.4047179230345389
  0.3190414614511307  0.5896534359018697  0.5910967525628337
  0.3159622140267821  0.0861790307705733  0.3919301502695875
  0.4442325445272077  0.9120879001227289  0.6061070982823485
  0.6923384493516176  0.7530129915931723  0.3952397185634153
  0.5655262867393535  0.2526617344562639  0.5990323705567806
  0.6918153304873194  0.4142460675391401  0.4040745385648485
  0.5675241898850760  0.5898676043842479  0.5903504521394169
  0.5665918689605217  0.0852474637748495  0.3929456078953519
  0.6913246343005163  0.9178061002206075  0.6028240286044376
  0.9426474841244223  0.7518521585985882  0.3965992415418280
  0.8159229059588078  0.2522337410127356  0.5998129141398134
  0.9424289973441384  0.4149682569635770  0.4059622822884050
  0.8151455481787244  0.5894016654832022  0.5903746440762800
  0.8170218697846677  0.0853612840977524  0.3933551745008817
  0.9415887776400805  0.9186846085985700  0.6029983802473960
  0.5005763917838182  0.7696208448017455  0.6887146405841407
  0.4674780478398327  0.7846425537149344  0.7601376935804126
  0.5198457357685032  0.8267424709755359  0.7827026377247397
 
  0.00000000E+00  0.00000000E+00  0.00000000E+00
  0.00000000E+00  0.00000000E+00  0.00000000E+00
  0.00000000E+00  0.00000000E+00  0.00000000E+00
  0.00000000E+00  0.00000000E+00  0.00000000E+00
  0.00000000E+00  0.00000000E+00  0.00000000E+00
  0.00000000E+00  0.00000000E+00  0.00000000E+00
  0.00000000E+00  0.00000000E+00  0.00000000E+00
  0.00000000E+00  0.00000000E+00  0.00000000E+00
  0.00000000E+00  0.00000000E+00  0.00000000E+00
  0.00000000E+00  0.00000000E+00  0.00000000E+00
  0.00000000E+00  0.00000000E+00  0.00000000E+00
  0.00000000E+00  0.00000000E+00  0.00000000E+00
  0.00000000E+00  0.00000000E+00  0.00000000E+00
  0.00000000E+00  0.00000000E+00  0.00000000E+00
  0.00000000E+00  0.00000000E+00  0.00000000E+00
  0.00000000E+00  0.00000000E+00  0.00000000E+00
  0.00000000E+00  0.00000000E+00  0.00000000E+00
  0.00000000E+00  0.00000000E+00  0.00000000E+00
  0.00000000E+00  0.00000000E+00  0.00000000E+00
  0.00000000E+00  0.00000000E+00  0.00000000E+00
  0.00000000E+00  0.00000000E+00  0.00000000E+00
  0.00000000E+00  0.00000000E+00  0.00000000E+00
  0.00000000E+00  0.00000000E+00  0.00000000E+00
  0.00000000E+00  0.00000000E+00  0.00000000E+00
  0.00000000E+00  0.00000000E+00  0.00000000E+00
  0.00000000E+00  0.00000000E+00  0.00000000E+00
  0.00000000E+00  0.00000000E+00  0.00000000E+00
  0.00000000E+00  0.00000000E+00  0.00000000E+00
  0.00000000E+00  0.00000000E+00  0.00000000E+00
  0.00000000E+00  0.00000000E+00  0.00000000E+00
  0.00000000E+00  0.00000000E+00  0.00000000E+00
  0.00000000E+00  0.00000000E+00  0.00000000E+00
  0.00000000E+00  0.00000000E+00  0.00000000E+00
  0.00000000E+00  0.00000000E+00  0.00000000E+00
  0.00000000E+00  0.00000000E+00  0.00000000E+00
  0.00000000E+00  0.00000000E+00  0.00000000E+00
  0.00000000E+00  0.00000000E+00  0.00000000E+00
  0.00000000E+00  0.00000000E+00  0.00000000E+00
  0.00000000E+00  0.00000000E+00  0.00000000E+00
  0.00000000E+00  0.00000000E+00  0.00000000E+00
  0.00000000E+00  0.00000000E+00  0.00000000E+00
  0.00000000E+00  0.00000000E+00  0.00000000E+00
  0.00000000E+00  0.00000000E+00  0.00000000E+00
  0.00000000E+00  0.00000000E+00  0.00000000E+00
  0.00000000E+00  0.00000000E+00  0.00000000E+00
  0.00000000E+00  0.00000000E+00  0.00000000E+00
  0.00000000E+00  0.00000000E+00  0.00000000E+00
  0.00000000E+00  0.00000000E+00  0.00000000E+00
  0.00000000E+00  0.00000000E+00  0.00000000E+00
  0.00000000E+00  0.00000000E+00  0.00000000E+00
  0.00000000E+00  0.00000000E+00  0.00000000E+00
