CONTCAR\(6)                             
   1.00000000000000     
    13.7772998809999994    0.0000000000000000    0.0000000000000000
    -0.9002177756999999   20.5238668944999993    0.0000000000000000
     0.0000000000000000    0.0000000000000000   22.2061004639000004
   Cu   Se   O 
    36    36   109
Direct
  0.1654431545782541  0.0461240121308329  0.5111824273667946
  0.3092288202169621  0.0264831884023960  0.6375328572261540
  0.3170733777896299  0.4178428280711535  0.5002659177183164
  0.1356433398702626  0.2905377517306366  0.4894894384084270
  0.3181880711510416  0.1681927546745229  0.5003083570156133
  0.3265777670223851  0.3117178934518431  0.3619027448079994
  0.4993391239194455  0.0437520934280091  0.5122000237495729
  0.6433362089120226  0.0261310240413360  0.6386614387432437
  0.6505370775702246  0.4179587261675575  0.4998799016827646
  0.4690693854973622  0.2904620921170997  0.4898822043919898
  0.6512439419291656  0.1682878293250505  0.4998858799384494
  0.6594545806276835  0.3118096676758980  0.3614354971043319
  0.8332151640521605  0.0461271919869854  0.5098416744674734
  0.9762411804254333  0.0248707860171264  0.6386577854928872
  0.9833039377921337  0.4181535004115741  0.4999779022698984
  0.8017804156341455  0.2907719930684687  0.4892801812572790
  0.9835278520383380  0.1682779127467955  0.4995088157122397
  0.9933508658084604  0.3118080742917961  0.3617223746636876
  0.1652057396574775  0.5442286107183005  0.5115910362566506
  0.3083807616589387  0.5235490357142046  0.6381516329548566
  0.3154040623821329  0.9190235676424353  0.5043910994865998
  0.1326422666058011  0.7897721194767142  0.4887234972913926
  0.3161214857762483  0.6649991229370062  0.4988048453522274
  0.3275224063871500  0.8120919358224460  0.3641268488973663
  0.4991513469688248  0.5434335287561920  0.5105693856685611
  0.6421714207123203  0.5236916562287163  0.6379073234941030
  0.6523043077945548  0.9184449727153055  0.5006403337132681
  0.4731131535185684  0.7939480481669362  0.4903086192024224
  0.6515470544179878  0.6676011982672835  0.5000762098626899
  0.6598809845092328  0.8117568827973338  0.3623805464758039
  0.8325905664021260  0.5449799831689295  0.5104980326802494
  0.9745627478510958  0.5232912713670940  0.6385245527062169
  0.9835350997344631  0.9181880351378238  0.5002330453472056
  0.8031327650164148  0.7903224993930310  0.4902268986750733
  0.9845703121788089  0.6683140226769539  0.5007109602586607
  0.9937476421362056  0.8122341025186997  0.3622162617281566
  0.1223063791380064  0.4224604852061905  0.6189299810670935
  0.1305386796997035  0.1367974578955876  0.6097668589281831
  0.1793723128177916  0.4128548515732518  0.3814958632673302
  0.3342444778590190  0.0419550154772827  0.4120380185470027
  0.1705378142827473  0.2007858575001627  0.3898121007600321
  0.3012464451265167  0.2939601468273484  0.5893523639876339
  0.4558507227232232  0.4224398618485290  0.6191712405147620
  0.4658420386096661  0.1365267982356580  0.6102276281412534
  0.5125038057186405  0.4130574237464193  0.3810573971289056
  0.6674785392388256  0.0423315150749428  0.4107608148085067
  0.5033195489546674  0.2009698202992458  0.3899342655202744
  0.6344777544810669  0.2940490415036877  0.5894163633463687
  0.7888789580103577  0.4223167122179975  0.6187513809858468
  0.7998743850578511  0.1356882352511621  0.6097853226675478
  0.8457529362461559  0.4132869420872395  0.3809496065977193
  0.0011499490573650  0.0423984819585047  0.4104717037206776
  0.8364499535388413  0.2013122655105991  0.3891668986122318
  0.9675852609105015  0.2940508502584283  0.5888830696920520
  0.1247033265064622  0.9243821675712354  0.6184421737224310
  0.1302960416242970  0.6345031861441398  0.6111280110231972
  0.1804510430005081  0.9125660260439903  0.3840940643128579
  0.3338650091186642  0.5410069753498109  0.4105006623847079
  0.1710828903931382  0.7002952279699168  0.3897908783387370
  0.2944946389310403  0.7875661392090098  0.5884751529760793
  0.4578695447086876  0.9240373253001153  0.6208172841931249
  0.4648508366209525  0.6343090765142724  0.6094327475278020
  0.5127513520880350  0.9135076213165939  0.3820563229102210
  0.6676981177411521  0.5424226907569325  0.4104871628663233
  0.5031998984411679  0.7009304621254665  0.3916350451636179
  0.6373446773387885  0.7936427637380997  0.5894639484009129
  0.7893222366412913  0.9241002620705702  0.6199727915221147
  0.7985309018964664  0.6344592323567261  0.6101516175735089
  0.8460904806694418  0.9135391946936390  0.3814592668086371
  0.0012051050141870  0.5426344817114922  0.4110011080808110
  0.8374885936546661  0.7013639298740955  0.3899598866863309
  0.9669722009670284  0.7935958857474134  0.5904333718673737
  0.2864201946129022  0.0080875710491584  0.4805153252400997
  0.0833123451558122  0.1175744832360371  0.5363241580179740
  0.0827768708172385  0.4780014915944990  0.6703661657944854
  0.1801519858080391  0.2973460669719901  0.5740692053139779
  0.3234172641888415  0.2133309060721182  0.5770184630061280
  0.2124832443152049  0.0729407209170621  0.5932116067119348
  0.1221466168233222  0.0396450157353796  0.4262963291556484
  0.2464890347285345  0.4389136618199637  0.6194349085031406
  0.2167456766331173  0.2182063518241747  0.4633181776963327
  0.0903585139102678  0.4570389485258153  0.5488587830226421
  0.0460420381072620  0.1056689641273193  0.6584559789538545
  0.2564928867157489  0.2314212529283156  0.3416725490306470
  0.0551623315332103  0.3964229517988845  0.3809574105583931
  0.2110091707855725  0.3784477339534126  0.4517147266413462
  0.0897602227773298  0.2654739055310926  0.4061458519783913
  0.0158997116986233  0.3292735315481085  0.5209278742179692
  0.2184486382802002  0.3570603667677466  0.3301430465116345
  0.3138256658478133  0.1230765782260266  0.4234697491219689
  0.6215438298264088  0.0074776813395093  0.4792278142145151
  0.4194055788790517  0.1181336686208467  0.5367058186741779
  0.4165686347681035  0.4783105530808560  0.6703525010884444
  0.5132207593668338  0.2971749845264294  0.5744656605099064
  0.6570746873659519  0.2136208834398119  0.5768013345898795
  0.5469868957711285  0.0720933857764054  0.5942825249290646
  0.4553841918267680  0.0383241172972619  0.4274645439337841
  0.5799975715257395  0.4388437160767815  0.6194703301875945
  0.5501265546339309  0.2185023172902535  0.4632877980060122
  0.4235859969289769  0.4569255888225754  0.5490830909305994
  0.3797129213270256  0.1061533118095649  0.6584127935672786
  0.5891351240698760  0.2314399717266915  0.3415811043793805
  0.3882659636729713  0.3966215435409804  0.3805450420037322
  0.5441454437065608  0.3788574778431845  0.4513631599672843
  0.4229019824334008  0.2657677425332733  0.4065072447529277
  0.3495892705333830  0.3291364620326232  0.5213481744403883
  0.5511579156357537  0.3569405122002410  0.3298553150035685
  0.6449241776321402  0.1228683757041848  0.4231159467327469
  0.9521275660907739  0.0071327774548783  0.4784949760114951
  0.7522925339803839  0.1180476587452002  0.5366217451183962
  0.7499683092182040  0.4783477331214034  0.6700231680389928
  0.8465304197564735  0.2974015700025846  0.5738134758532545
  0.9896949643505983  0.2133714185049747  0.5762902584810713
  0.8794101908828951  0.0706254787249326  0.5936019570571858
  0.7890058773705074  0.0394993846045464  0.4251982058559293
  0.9131404455403799  0.4385653777908430  0.6190906250618750
  0.8827581653496470  0.2185156896650011  0.4627352776656707
  0.7571609822968274  0.4568580039661541  0.5487090834332456
  0.7135863673153761  0.1060458460341754  0.6583681843322065
  0.9226853081290358  0.2318364596162268  0.3411567179904445
  0.7215287254956664  0.3966698277396117  0.3797794995396009
  0.8769551996768058  0.3790005066689791  0.4513321638886925
  0.7561295381590458  0.2660453634321151  0.4057752162435222
  0.6821402739867694  0.3291891851949496  0.5211444387126393
  0.8857150494458965  0.3575527625894913  0.3298203896622480
  0.9789186059536579  0.1230707915271856  0.4226603043868209
  0.2867068137563838  0.5070318806063866  0.4789324425722116
  0.0839682322683649  0.6173035593666595  0.5370477070989936
  0.0855185535839706  0.9796502385796857  0.6700188309478875
  0.1747626287197440  0.7936765050106996  0.5745469593731443
  0.3204391731619734  0.7084278594116978  0.5763477910053666
  0.2109260960202700  0.5704269700251241  0.5945031240957074
  0.1223009202472664  0.5392545608437367  0.4266443907096562
  0.2478382224351901  0.9436966384350695  0.6139174338878667
  0.2166274619642046  0.7176289217290502  0.4643374060014491
  0.0882092199834242  0.9581214877243880  0.5486948773574243
  0.0440200794035909  0.6036448813470144  0.6588786205403326
  0.2581953730469791  0.7315062644296223  0.3428825988614355
  0.0561176243761538  0.8963410375714267  0.3831276169255832
  0.2123643140019619  0.8774429167058000  0.4540024174821055
  0.0901338568455571  0.7641740388625786  0.4057463313239081
  0.0140593234585151  0.8289872008368772  0.5224060971067601
  0.2190251523220781  0.8569713071969123  0.3323117331505911
  0.3120138312427920  0.6221244489933000  0.4216603233057443
  0.6207895498455471  0.5072351330960113  0.4786116805601635
  0.4173126794436701  0.6156904101280201  0.5358228427289872
  0.4153184186766062  0.9804632925626119  0.6704160864057591
  0.5168198267125296  0.7982467741167374  0.5742916918827359
  0.6575164973047584  0.7126169908087843  0.5766947340993637
  0.5460288333954422  0.5705633311160767  0.5932028083669760
  0.4551752230036851  0.5386151792140156  0.4258405792002349
  0.5819991036993836  0.9422957478066205  0.6216441945998232
  0.5506531950046715  0.7178877704484540  0.4653030181019617
  0.4267619848835154  0.9572055348048297  0.5497646925857024
  0.3796773219199763  0.6035838184672668  0.6578804594780939
  0.5883571898994111  0.7316133143778754  0.3430671048317199
  0.3886980916917824  0.8972131048651054  0.3819018645749936
  0.5447426694084775  0.8794531138268750  0.4527310275985988
  0.4232848290199706  0.7655219901413498  0.4092108159197005
  0.3495618254098994  0.8298552938420114  0.5287741786882829
  0.5509114238177323  0.8570870916721720  0.3311581821093815
  0.6456290735760317  0.6232131008850600  0.4231683811199426
  0.9533001471224514  0.5075129307703500  0.4789888421450866
  0.7516892104849622  0.6167692869648689  0.5363083417402951
  0.7509281211062846  0.9813805810644159  0.6705279520873197
  0.8458295472418526  0.7968373930830773  0.5753582425191759
  0.9890664110592906  0.7128985581364147  0.5777174519741344
  0.8785465625683253  0.5695570709009837  0.5934295895226337
  0.7889720839701277  0.5397669486603920  0.4254657667096579
  0.9134400406115309  0.9397244807517670  0.6215002029050702
  0.8845988314613418  0.7190626633687744  0.4632615171746127
  0.7587860308453755  0.9576495770575358  0.5493500226316960
  0.7125620529653064  0.6040640151234212  0.6581972917132469
  0.9225724989439733  0.7322319415940889  0.3414241105491965
  0.7220051838035261  0.8966386695319370  0.3800776275624124
  0.8775829666315437  0.8788243020707214  0.4514330952200734
  0.7567257307517290  0.7658652525932682  0.4066544207195058
  0.6847253244902487  0.8293330127062024  0.5210861864358202
  0.8869345039309607  0.8582273196888813  0.3300677153720712
  0.9799634561570806  0.6234088711832592  0.4235131447493818
  0.3248030212902348  0.8097917380116764  0.6564023282280944
 
  0.00000000E+00  0.00000000E+00  0.00000000E+00
  0.00000000E+00  0.00000000E+00  0.00000000E+00
  0.00000000E+00  0.00000000E+00  0.00000000E+00
  0.00000000E+00  0.00000000E+00  0.00000000E+00
  0.00000000E+00  0.00000000E+00  0.00000000E+00
  0.00000000E+00  0.00000000E+00  0.00000000E+00
  0.00000000E+00  0.00000000E+00  0.00000000E+00
  0.00000000E+00  0.00000000E+00  0.00000000E+00
  0.00000000E+00  0.00000000E+00  0.00000000E+00
  0.00000000E+00  0.00000000E+00  0.00000000E+00
  0.00000000E+00  0.00000000E+00  0.00000000E+00
  0.00000000E+00  0.00000000E+00  0.00000000E+00
  0.00000000E+00  0.00000000E+00  0.00000000E+00
  0.00000000E+00  0.00000000E+00  0.00000000E+00
  0.00000000E+00  0.00000000E+00  0.00000000E+00
  0.00000000E+00  0.00000000E+00  0.00000000E+00
  0.00000000E+00  0.00000000E+00  0.00000000E+00
  0.00000000E+00  0.00000000E+00  0.00000000E+00
  0.00000000E+00  0.00000000E+00  0.00000000E+00
  0.00000000E+00  0.00000000E+00  0.00000000E+00
  0.00000000E+00  0.00000000E+00  0.00000000E+00
  0.00000000E+00  0.00000000E+00  0.00000000E+00
  0.00000000E+00  0.00000000E+00  0.00000000E+00
  0.00000000E+00  0.00000000E+00  0.00000000E+00
  0.00000000E+00  0.00000000E+00  0.00000000E+00
  0.00000000E+00  0.00000000E+00  0.00000000E+00
  0.00000000E+00  0.00000000E+00  0.00000000E+00
  0.00000000E+00  0.00000000E+00  0.00000000E+00
  0.00000000E+00  0.00000000E+00  0.00000000E+00
  0.00000000E+00  0.00000000E+00  0.00000000E+00
  0.00000000E+00  0.00000000E+00  0.00000000E+00
  0.00000000E+00  0.00000000E+00  0.00000000E+00
  0.00000000E+00  0.00000000E+00  0.00000000E+00
  0.00000000E+00  0.00000000E+00  0.00000000E+00
  0.00000000E+00  0.00000000E+00  0.00000000E+00
  0.00000000E+00  0.00000000E+00  0.00000000E+00
  0.00000000E+00  0.00000000E+00  0.00000000E+00
  0.00000000E+00  0.00000000E+00  0.00000000E+00
  0.00000000E+00  0.00000000E+00  0.00000000E+00
  0.00000000E+00  0.00000000E+00  0.00000000E+00
  0.00000000E+00  0.00000000E+00  0.00000000E+00
  0.00000000E+00  0.00000000E+00  0.00000000E+00
  0.00000000E+00  0.00000000E+00  0.00000000E+00
  0.00000000E+00  0.00000000E+00  0.00000000E+00
  0.00000000E+00  0.00000000E+00  0.00000000E+00
  0.00000000E+00  0.00000000E+00  0.00000000E+00
  0.00000000E+00  0.00000000E+00  0.00000000E+00
  0.00000000E+00  0.00000000E+00  0.00000000E+00
  0.00000000E+00  0.00000000E+00  0.00000000E+00
  0.00000000E+00  0.00000000E+00  0.00000000E+00
  0.00000000E+00  0.00000000E+00  0.00000000E+00
  0.00000000E+00  0.00000000E+00  0.00000000E+00
  0.00000000E+00  0.00000000E+00  0.00000000E+00
  0.00000000E+00  0.00000000E+00  0.00000000E+00
  0.00000000E+00  0.00000000E+00  0.00000000E+00
  0.00000000E+00  0.00000000E+00  0.00000000E+00
  0.00000000E+00  0.00000000E+00  0.00000000E+00
  0.00000000E+00  0.00000000E+00  0.00000000E+00
  0.00000000E+00  0.00000000E+00  0.00000000E+00
  0.00000000E+00  0.00000000E+00  0.00000000E+00
  0.00000000E+00  0.00000000E+00  0.00000000E+00
  0.00000000E+00  0.00000000E+00  0.00000000E+00
  0.00000000E+00  0.00000000E+00  0.00000000E+00
  0.00000000E+00  0.00000000E+00  0.00000000E+00
  0.00000000E+00  0.00000000E+00  0.00000000E+00
  0.00000000E+00  0.00000000E+00  0.00000000E+00
  0.00000000E+00  0.00000000E+00  0.00000000E+00
  0.00000000E+00  0.00000000E+00  0.00000000E+00
  0.00000000E+00  0.00000000E+00  0.00000000E+00
  0.00000000E+00  0.00000000E+00  0.00000000E+00
  0.00000000E+00  0.00000000E+00  0.00000000E+00
  0.00000000E+00  0.00000000E+00  0.00000000E+00
  0.00000000E+00  0.00000000E+00  0.00000000E+00
  0.00000000E+00  0.00000000E+00  0.00000000E+00
  0.00000000E+00  0.00000000E+00  0.00000000E+00
  0.00000000E+00  0.00000000E+00  0.00000000E+00
  0.00000000E+00  0.00000000E+00  0.00000000E+00
  0.00000000E+00  0.00000000E+00  0.00000000E+00
  0.00000000E+00  0.00000000E+00  0.00000000E+00
  0.00000000E+00  0.00000000E+00  0.00000000E+00
  0.00000000E+00  0.00000000E+00  0.00000000E+00
  0.00000000E+00  0.00000000E+00  0.00000000E+00
  0.00000000E+00  0.00000000E+00  0.00000000E+00
  0.00000000E+00  0.00000000E+00  0.00000000E+00
  0.00000000E+00  0.00000000E+00  0.00000000E+00
  0.00000000E+00  0.00000000E+00  0.00000000E+00
  0.00000000E+00  0.00000000E+00  0.00000000E+00
  0.00000000E+00  0.00000000E+00  0.00000000E+00
  0.00000000E+00  0.00000000E+00  0.00000000E+00
  0.00000000E+00  0.00000000E+00  0.00000000E+00
  0.00000000E+00  0.00000000E+00  0.00000000E+00
  0.00000000E+00  0.00000000E+00  0.00000000E+00
  0.00000000E+00  0.00000000E+00  0.00000000E+00
  0.00000000E+00  0.00000000E+00  0.00000000E+00
  0.00000000E+00  0.00000000E+00  0.00000000E+00
  0.00000000E+00  0.00000000E+00  0.00000000E+00
  0.00000000E+00  0.00000000E+00  0.00000000E+00
  0.00000000E+00  0.00000000E+00  0.00000000E+00
  0.00000000E+00  0.00000000E+00  0.00000000E+00
  0.00000000E+00  0.00000000E+00  0.00000000E+00
  0.00000000E+00  0.00000000E+00  0.00000000E+00
  0.00000000E+00  0.00000000E+00  0.00000000E+00
  0.00000000E+00  0.00000000E+00  0.00000000E+00
  0.00000000E+00  0.00000000E+00  0.00000000E+00
  0.00000000E+00  0.00000000E+00  0.00000000E+00
  0.00000000E+00  0.00000000E+00  0.00000000E+00
  0.00000000E+00  0.00000000E+00  0.00000000E+00
  0.00000000E+00  0.00000000E+00  0.00000000E+00
  0.00000000E+00  0.00000000E+00  0.00000000E+00
  0.00000000E+00  0.00000000E+00  0.00000000E+00
  0.00000000E+00  0.00000000E+00  0.00000000E+00
  0.00000000E+00  0.00000000E+00  0.00000000E+00
  0.00000000E+00  0.00000000E+00  0.00000000E+00
  0.00000000E+00  0.00000000E+00  0.00000000E+00
  0.00000000E+00  0.00000000E+00  0.00000000E+00
  0.00000000E+00  0.00000000E+00  0.00000000E+00
  0.00000000E+00  0.00000000E+00  0.00000000E+00
  0.00000000E+00  0.00000000E+00  0.00000000E+00
  0.00000000E+00  0.00000000E+00  0.00000000E+00
  0.00000000E+00  0.00000000E+00  0.00000000E+00
  0.00000000E+00  0.00000000E+00  0.00000000E+00
  0.00000000E+00  0.00000000E+00  0.00000000E+00
  0.00000000E+00  0.00000000E+00  0.00000000E+00
  0.00000000E+00  0.00000000E+00  0.00000000E+00
  0.00000000E+00  0.00000000E+00  0.00000000E+00
  0.00000000E+00  0.00000000E+00  0.00000000E+00
  0.00000000E+00  0.00000000E+00  0.00000000E+00
  0.00000000E+00  0.00000000E+00  0.00000000E+00
  0.00000000E+00  0.00000000E+00  0.00000000E+00
  0.00000000E+00  0.00000000E+00  0.00000000E+00
  0.00000000E+00  0.00000000E+00  0.00000000E+00
  0.00000000E+00  0.00000000E+00  0.00000000E+00
  0.00000000E+00  0.00000000E+00  0.00000000E+00
  0.00000000E+00  0.00000000E+00  0.00000000E+00
  0.00000000E+00  0.00000000E+00  0.00000000E+00
  0.00000000E+00  0.00000000E+00  0.00000000E+00
  0.00000000E+00  0.00000000E+00  0.00000000E+00
  0.00000000E+00  0.00000000E+00  0.00000000E+00
  0.00000000E+00  0.00000000E+00  0.00000000E+00
  0.00000000E+00  0.00000000E+00  0.00000000E+00
  0.00000000E+00  0.00000000E+00  0.00000000E+00
  0.00000000E+00  0.00000000E+00  0.00000000E+00
  0.00000000E+00  0.00000000E+00  0.00000000E+00
  0.00000000E+00  0.00000000E+00  0.00000000E+00
  0.00000000E+00  0.00000000E+00  0.00000000E+00
  0.00000000E+00  0.00000000E+00  0.00000000E+00
  0.00000000E+00  0.00000000E+00  0.00000000E+00
  0.00000000E+00  0.00000000E+00  0.00000000E+00
  0.00000000E+00  0.00000000E+00  0.00000000E+00
  0.00000000E+00  0.00000000E+00  0.00000000E+00
  0.00000000E+00  0.00000000E+00  0.00000000E+00
  0.00000000E+00  0.00000000E+00  0.00000000E+00
  0.00000000E+00  0.00000000E+00  0.00000000E+00
  0.00000000E+00  0.00000000E+00  0.00000000E+00
  0.00000000E+00  0.00000000E+00  0.00000000E+00
  0.00000000E+00  0.00000000E+00  0.00000000E+00
  0.00000000E+00  0.00000000E+00  0.00000000E+00
  0.00000000E+00  0.00000000E+00  0.00000000E+00
  0.00000000E+00  0.00000000E+00  0.00000000E+00
  0.00000000E+00  0.00000000E+00  0.00000000E+00
  0.00000000E+00  0.00000000E+00  0.00000000E+00
  0.00000000E+00  0.00000000E+00  0.00000000E+00
  0.00000000E+00  0.00000000E+00  0.00000000E+00
  0.00000000E+00  0.00000000E+00  0.00000000E+00
  0.00000000E+00  0.00000000E+00  0.00000000E+00
  0.00000000E+00  0.00000000E+00  0.00000000E+00
  0.00000000E+00  0.00000000E+00  0.00000000E+00
  0.00000000E+00  0.00000000E+00  0.00000000E+00
  0.00000000E+00  0.00000000E+00  0.00000000E+00
  0.00000000E+00  0.00000000E+00  0.00000000E+00
  0.00000000E+00  0.00000000E+00  0.00000000E+00
  0.00000000E+00  0.00000000E+00  0.00000000E+00
  0.00000000E+00  0.00000000E+00  0.00000000E+00
  0.00000000E+00  0.00000000E+00  0.00000000E+00
  0.00000000E+00  0.00000000E+00  0.00000000E+00
  0.00000000E+00  0.00000000E+00  0.00000000E+00
  0.00000000E+00  0.00000000E+00  0.00000000E+00
  0.00000000E+00  0.00000000E+00  0.00000000E+00
  0.00000000E+00  0.00000000E+00  0.00000000E+00
  0.00000000E+00  0.00000000E+00  0.00000000E+00
  0.00000000E+00  0.00000000E+00  0.00000000E+00
