Bi6 Te6                                 
   1.00000000000000     
     4.4697825010282877   -0.0000000000001439    0.0000000000000000
    -2.2348912504643930    3.8709451952637615   -0.0000000000000000
    -0.0000000000000000    0.0000000000000000   24.9111675119413505
   Bi   Te
     6     6
Direct
  0.3333333380000028  0.6666666759999984  0.2909903955370831
  0.6666666690000014  0.3333333380000028  0.7090096044629169
 -0.0000000000000000 -0.0000000000000000  0.8713792874595789
  0.0000000000000000  0.0000000000000000  0.1286207035404168
  0.6666666690000014  0.3333333380000028  0.4664318543318158
  0.3333333380000028  0.6666666759999984  0.5335681456681843
  0.3333333380000028  0.6666666759999984  0.0605166414711408
  0.6666666690000014  0.3333333380000028  0.9394833295288604
  0.0000000000000000 -0.0000000000000000  0.6398094187920713
 -0.0000000000000000  0.0000000000000000  0.3601905812079286
  0.6666666690000014  0.3333333380000028  0.2103354216916402
  0.3333333380000028  0.6666666759999984  0.7896645593083618
 
  0.00000000E+00  0.00000000E+00  0.00000000E+00
  0.00000000E+00  0.00000000E+00  0.00000000E+00
  0.00000000E+00  0.00000000E+00  0.00000000E+00
  0.00000000E+00  0.00000000E+00  0.00000000E+00
  0.00000000E+00  0.00000000E+00  0.00000000E+00
  0.00000000E+00  0.00000000E+00  0.00000000E+00
  0.00000000E+00  0.00000000E+00  0.00000000E+00
  0.00000000E+00  0.00000000E+00  0.00000000E+00
  0.00000000E+00  0.00000000E+00  0.00000000E+00
  0.00000000E+00  0.00000000E+00  0.00000000E+00
  0.00000000E+00  0.00000000E+00  0.00000000E+00
  0.00000000E+00  0.00000000E+00  0.00000000E+00
