CONTCAR\(11)                            
   1.00000000000000     
    16.6394004821999992    0.0000000000000000    0.0000000000000000
     6.4194950950000003   15.5733957347000000    0.0000000000000000
     0.0000000000000000    0.0000000000000000   20.8805007935000013
   Cu   Te   Br   O 
    27    18    18    55
Direct
  0.1442847139225723  0.1428131599131452  0.5521115073581037
  0.0198634692532196  0.0173642388470252  0.4993091293699663
  0.2281487598009964  0.2245371659863264  0.4459147876136230
  0.4775832864072345  0.1428895552609125  0.5534864796039111
  0.3516659780611042  0.0177005140682498  0.4991589641185323
  0.5609846962416496  0.2241112762621201  0.4469295887384252
  0.8112840850606139  0.1432670921357654  0.5520857775912511
  0.6860666408192659  0.0173150301078773  0.5004708711977131
  0.8955052236561341  0.2250821905853568  0.4465268401058534
  0.1442400984647521  0.4765690005323176  0.5538373944129762
  0.0203384011633113  0.3492930882885233  0.4993158181037219
  0.2276208654178028  0.5578692209388734  0.4471780285672243
  0.4775387638426418  0.4759443116799781  0.5518042917132743
  0.3524775778880893  0.3503538378023158  0.5005348960538664
  0.5564362951077334  0.5530292356702644  0.4382318538223504
  0.8153903371241022  0.4763263923645379  0.5572899726173663
  0.6858549307757090  0.3497294003652275  0.4975349945431305
  0.8938591299183366  0.5570111291770319  0.4477517360287215
  0.1452694549391548  0.8103071751636446  0.5528118530421178
  0.0197185504890576  0.6841283303507375  0.5008241029494302
  0.2284902126503807  0.8918440881937696  0.4465252563458736
  0.4768422144363536  0.8125116558969421  0.5561194910105092
  0.3526155992001110  0.6834922836079976  0.4982544546029962
  0.5609510787907469  0.8904759686247713  0.4481292134330161
  0.8113810687020396  0.8101567167227622  0.5537916801993528
  0.6883081450300975  0.6854828070387169  0.5063116742134123
  0.8946299564236209  0.8914082446676759  0.4474333484846892
  0.0982758044877278  0.0945040368660297  0.3975541346230821
  0.2735467942166802  0.2727671018404091  0.6012336462951030
  0.4319797023908977  0.0935755618000810  0.3981458281747798
  0.6075283918065256  0.2736923090981522  0.6000288939697597
  0.7646951824767809  0.0939210654980104  0.3983318848633247
  0.9407312759884036  0.2726033017293152  0.6011290567386001
  0.0976992107120113  0.4283346634941244  0.3983962226489853
  0.2749191804290128  0.6068661680434941  0.6006724547573924
  0.4299847403784609  0.4262137149397543  0.3974582514915200
  0.6081824076655455  0.6053555139540232  0.6007696733202992
  0.7657198203720339  0.4289623189502006  0.3984646458405401
  0.9414525388743715  0.6071848367929776  0.6028652420927914
  0.0977965938247811  0.7610647049085335  0.3986277798457847
  0.2736485855961465  0.9397638299616505  0.6011325126565500
  0.4325643072604750  0.7615752058378538  0.3985435911763786
  0.6078076012137563  0.9403664851761533  0.6025751457220281
  0.7646469770404194  0.7603563016281369  0.4012697966214910
  0.9416337492600764  0.9407699156035128  0.6014397697684269
  0.0896979171353789  0.0903064333330074  0.6441548873866609
  0.2833000845634726  0.2767574937659049  0.3538968467053211
  0.4230274148302917  0.0903315070291698  0.6454761229182413
  0.6127886109951941  0.2754261644160797  0.3528730951841120
  0.7572539715490209  0.0919187567986813  0.6450771658236825
  0.9501819865998915  0.2754467024416659  0.3533997839238390
  0.0908438554966751  0.4247649489074988  0.6468951904415416
  0.2813522691128306  0.6073662345583934  0.3530760527231699
  0.4227793033754697  0.4224936939747645  0.6433423407445125
  0.6206949225063819  0.6145887202238201  0.3574380534637704
  0.7618243957290439  0.4101858397809594  0.6407726354401618
  0.9472833124350727  0.6114001170330065  0.3558768477243157
  0.0911741982175546  0.7573725259990288  0.6449781113393308
  0.2822526997255496  0.9441263966120711  0.3538987510078634
  0.4092103889896690  0.7664386275432609  0.6430283345753440
  0.6166372506078560  0.9406868419535643  0.3553145895169708
  0.7587121157456257  0.7595773404312282  0.6469672725222044
  0.9483942757802856  0.9435057212202169  0.3547068279132132
  0.2235974037930792  0.2180108009351934  0.5460139669551980
  0.1235369918803914  0.3235065681748163  0.4476265284381182
  0.2485990912709778  0.0440864286408193  0.5502145218956789
  0.3245617725066441  0.1180114495887610  0.4453855364543909
  0.0477841377727934  0.2488642152073743  0.5525409154512763
  0.1487122393711298  0.1496097902317823  0.4520978319964317
  0.5567820074887158  0.2176222151017383  0.5464878433835423
  0.4560150471694063  0.3232372587127735  0.4486848272244498
  0.5827403223739763  0.0442343929010490  0.5523011149175273
  0.6580612232596287  0.1178625306947630  0.4465960222638611
  0.3805693810338021  0.2492265932577094  0.5536169475825524
  0.4822450183582840  0.1480809872726110  0.4532842672271912
  0.8909031686340252  0.2178906500680547  0.5455379787229635
  0.7907648679544160  0.3243408216192868  0.4478962723733924
  0.9162666823160869  0.0444401379073588  0.5508778364572322
  0.9916574712307258  0.1180800762007245  0.4457419923976586
  0.7137556479392633  0.2489724931284497  0.5511657434291638
  0.8154317460188940  0.1495465338294014  0.4520544523803378
  0.2238777131967464  0.5514716279769940  0.5467394411906082
  0.1230932618796043  0.6571531150802169  0.4489318662831124
  0.2486616097117026  0.3771888871816302  0.5516383133315471
  0.3242721945190490  0.4510420714307072  0.4466703964245587
  0.0480951119660194  0.5836155229375124  0.5548907538850866
  0.1470485688745458  0.4834146480359258  0.4538296451582167
  0.5568629932490434  0.5490085190479426  0.5489963196985364
  0.4554025056533498  0.6551736367472963  0.4453539206865713
  0.5817492783509632  0.3763780630478467  0.5483391231332465
  0.6564571420918057  0.4496234612344652  0.4424729909493043
  0.3808274157929063  0.5825715686609484  0.5516046365231427
  0.4811092255953542  0.4824187956602550  0.4514834764836742
  0.8929056838151801  0.5499118191228298  0.5482839222797328
  0.7908226964834125  0.6575271937481890  0.4529749504318943
  0.9183463505008391  0.3768616798281182  0.5514229981160875
  0.9904666343744590  0.4501074624796768  0.4452874826706991
  0.7196360568244848  0.5837577290966266  0.5614107408124454
  0.8123465262166969  0.4849807588169604  0.4550973827974258
  0.2230815158038315  0.8856658242541856  0.5455596531980896
  0.1232187768036174  0.9903852682449120  0.4476076902649420
  0.2493554435288179  0.7106695562639783  0.5501790056094820
  0.3254315230581890  0.7852912704128331  0.4460607209835843
  0.0481201948813171  0.9166085371636584  0.5530825660151116
  0.1491127905305319  0.8160804117664826  0.4523310289915800
  0.5558660879859501  0.8861719701640648  0.5482753121981924
  0.4556550722824487  0.9893363898888228  0.4477352069735835
  0.5826942020938397  0.7141017998593580  0.5581192522207905
  0.6591018147968100  0.7851396995816547  0.4509820579845601
  0.3800756366252585  0.9181589383854718  0.5527003840391074
  0.4841854483360133  0.8131912833333906  0.4548944527166900
  0.8908016846947334  0.8854231565199323  0.5474738099898104
  0.7898113363085726  0.9903751522052551  0.4490184590407716
  0.9159900883427241  0.7107878115189852  0.5521328482084515
  0.9915642090420558  0.7850562919404516  0.4472729004924653
  0.7141206802534409  0.9163708759134618  0.5538470034276081
  0.8159406670712762  0.8164402561330740  0.4543154556165626
  0.6018264651159391  0.6052812524455998  0.6871429998193596
 
  0.00000000E+00  0.00000000E+00  0.00000000E+00
  0.00000000E+00  0.00000000E+00  0.00000000E+00
  0.00000000E+00  0.00000000E+00  0.00000000E+00
  0.00000000E+00  0.00000000E+00  0.00000000E+00
  0.00000000E+00  0.00000000E+00  0.00000000E+00
  0.00000000E+00  0.00000000E+00  0.00000000E+00
  0.00000000E+00  0.00000000E+00  0.00000000E+00
  0.00000000E+00  0.00000000E+00  0.00000000E+00
  0.00000000E+00  0.00000000E+00  0.00000000E+00
  0.00000000E+00  0.00000000E+00  0.00000000E+00
  0.00000000E+00  0.00000000E+00  0.00000000E+00
  0.00000000E+00  0.00000000E+00  0.00000000E+00
  0.00000000E+00  0.00000000E+00  0.00000000E+00
  0.00000000E+00  0.00000000E+00  0.00000000E+00
  0.00000000E+00  0.00000000E+00  0.00000000E+00
  0.00000000E+00  0.00000000E+00  0.00000000E+00
  0.00000000E+00  0.00000000E+00  0.00000000E+00
  0.00000000E+00  0.00000000E+00  0.00000000E+00
  0.00000000E+00  0.00000000E+00  0.00000000E+00
  0.00000000E+00  0.00000000E+00  0.00000000E+00
  0.00000000E+00  0.00000000E+00  0.00000000E+00
  0.00000000E+00  0.00000000E+00  0.00000000E+00
  0.00000000E+00  0.00000000E+00  0.00000000E+00
  0.00000000E+00  0.00000000E+00  0.00000000E+00
  0.00000000E+00  0.00000000E+00  0.00000000E+00
  0.00000000E+00  0.00000000E+00  0.00000000E+00
  0.00000000E+00  0.00000000E+00  0.00000000E+00
  0.00000000E+00  0.00000000E+00  0.00000000E+00
  0.00000000E+00  0.00000000E+00  0.00000000E+00
  0.00000000E+00  0.00000000E+00  0.00000000E+00
  0.00000000E+00  0.00000000E+00  0.00000000E+00
  0.00000000E+00  0.00000000E+00  0.00000000E+00
  0.00000000E+00  0.00000000E+00  0.00000000E+00
  0.00000000E+00  0.00000000E+00  0.00000000E+00
  0.00000000E+00  0.00000000E+00  0.00000000E+00
  0.00000000E+00  0.00000000E+00  0.00000000E+00
  0.00000000E+00  0.00000000E+00  0.00000000E+00
  0.00000000E+00  0.00000000E+00  0.00000000E+00
  0.00000000E+00  0.00000000E+00  0.00000000E+00
  0.00000000E+00  0.00000000E+00  0.00000000E+00
  0.00000000E+00  0.00000000E+00  0.00000000E+00
  0.00000000E+00  0.00000000E+00  0.00000000E+00
  0.00000000E+00  0.00000000E+00  0.00000000E+00
  0.00000000E+00  0.00000000E+00  0.00000000E+00
  0.00000000E+00  0.00000000E+00  0.00000000E+00
  0.00000000E+00  0.00000000E+00  0.00000000E+00
  0.00000000E+00  0.00000000E+00  0.00000000E+00
  0.00000000E+00  0.00000000E+00  0.00000000E+00
  0.00000000E+00  0.00000000E+00  0.00000000E+00
  0.00000000E+00  0.00000000E+00  0.00000000E+00
  0.00000000E+00  0.00000000E+00  0.00000000E+00
  0.00000000E+00  0.00000000E+00  0.00000000E+00
  0.00000000E+00  0.00000000E+00  0.00000000E+00
  0.00000000E+00  0.00000000E+00  0.00000000E+00
  0.00000000E+00  0.00000000E+00  0.00000000E+00
  0.00000000E+00  0.00000000E+00  0.00000000E+00
  0.00000000E+00  0.00000000E+00  0.00000000E+00
  0.00000000E+00  0.00000000E+00  0.00000000E+00
  0.00000000E+00  0.00000000E+00  0.00000000E+00
  0.00000000E+00  0.00000000E+00  0.00000000E+00
  0.00000000E+00  0.00000000E+00  0.00000000E+00
  0.00000000E+00  0.00000000E+00  0.00000000E+00
  0.00000000E+00  0.00000000E+00  0.00000000E+00
  0.00000000E+00  0.00000000E+00  0.00000000E+00
  0.00000000E+00  0.00000000E+00  0.00000000E+00
  0.00000000E+00  0.00000000E+00  0.00000000E+00
  0.00000000E+00  0.00000000E+00  0.00000000E+00
  0.00000000E+00  0.00000000E+00  0.00000000E+00
  0.00000000E+00  0.00000000E+00  0.00000000E+00
  0.00000000E+00  0.00000000E+00  0.00000000E+00
  0.00000000E+00  0.00000000E+00  0.00000000E+00
  0.00000000E+00  0.00000000E+00  0.00000000E+00
  0.00000000E+00  0.00000000E+00  0.00000000E+00
  0.00000000E+00  0.00000000E+00  0.00000000E+00
  0.00000000E+00  0.00000000E+00  0.00000000E+00
  0.00000000E+00  0.00000000E+00  0.00000000E+00
  0.00000000E+00  0.00000000E+00  0.00000000E+00
  0.00000000E+00  0.00000000E+00  0.00000000E+00
  0.00000000E+00  0.00000000E+00  0.00000000E+00
  0.00000000E+00  0.00000000E+00  0.00000000E+00
  0.00000000E+00  0.00000000E+00  0.00000000E+00
  0.00000000E+00  0.00000000E+00  0.00000000E+00
  0.00000000E+00  0.00000000E+00  0.00000000E+00
  0.00000000E+00  0.00000000E+00  0.00000000E+00
  0.00000000E+00  0.00000000E+00  0.00000000E+00
  0.00000000E+00  0.00000000E+00  0.00000000E+00
  0.00000000E+00  0.00000000E+00  0.00000000E+00
  0.00000000E+00  0.00000000E+00  0.00000000E+00
  0.00000000E+00  0.00000000E+00  0.00000000E+00
  0.00000000E+00  0.00000000E+00  0.00000000E+00
  0.00000000E+00  0.00000000E+00  0.00000000E+00
  0.00000000E+00  0.00000000E+00  0.00000000E+00
  0.00000000E+00  0.00000000E+00  0.00000000E+00
  0.00000000E+00  0.00000000E+00  0.00000000E+00
  0.00000000E+00  0.00000000E+00  0.00000000E+00
  0.00000000E+00  0.00000000E+00  0.00000000E+00
  0.00000000E+00  0.00000000E+00  0.00000000E+00
  0.00000000E+00  0.00000000E+00  0.00000000E+00
  0.00000000E+00  0.00000000E+00  0.00000000E+00
  0.00000000E+00  0.00000000E+00  0.00000000E+00
  0.00000000E+00  0.00000000E+00  0.00000000E+00
  0.00000000E+00  0.00000000E+00  0.00000000E+00
  0.00000000E+00  0.00000000E+00  0.00000000E+00
  0.00000000E+00  0.00000000E+00  0.00000000E+00
  0.00000000E+00  0.00000000E+00  0.00000000E+00
  0.00000000E+00  0.00000000E+00  0.00000000E+00
  0.00000000E+00  0.00000000E+00  0.00000000E+00
  0.00000000E+00  0.00000000E+00  0.00000000E+00
  0.00000000E+00  0.00000000E+00  0.00000000E+00
  0.00000000E+00  0.00000000E+00  0.00000000E+00
  0.00000000E+00  0.00000000E+00  0.00000000E+00
  0.00000000E+00  0.00000000E+00  0.00000000E+00
  0.00000000E+00  0.00000000E+00  0.00000000E+00
  0.00000000E+00  0.00000000E+00  0.00000000E+00
  0.00000000E+00  0.00000000E+00  0.00000000E+00
  0.00000000E+00  0.00000000E+00  0.00000000E+00
  0.00000000E+00  0.00000000E+00  0.00000000E+00
  0.00000000E+00  0.00000000E+00  0.00000000E+00
