CONTCAR\(6)                             
   1.00000000000000     
    10.0733995438000008    0.0000000000000000    0.0000000000000000
     0.0000000000000000    9.7955999374000005    0.0000000000000000
     0.0000000000000000    0.0000000000000000   18.6921005248999990
   Ta   Se   O    H 
    12    18     1     1
Direct
  0.0737979744205592  0.5499142932330134  0.4952401490998417
  0.2499335949299321  0.3043963384218741  0.4931078998196969
  0.0983277134873338  0.8642894596908496  0.5627221673499125
  0.2500043735445381  0.9886846534732271  0.4547850013636379
  0.4264434544548155  0.5497650009683662  0.4954027702752427
  0.5868243954740326  0.3008986495848205  0.4976954873007088
  0.4010950685875282  0.8645983706944832  0.5628732556420042
  0.5850774168847546  0.9907800201695619  0.4571593290332411
  0.7499892009096963  0.5535348955597573  0.5001839489287504
  0.9134649932496569  0.3009728464831403  0.4975634738928082
  0.7501921024296790  0.8658811232585221  0.5571788477033375
  0.9150160374047462  0.9907457835716190  0.4570003142422099
  0.0825769654019787  0.3690785309627424  0.5943689180885890
  0.2502183874261893  0.4928162661131644  0.3969862275415389
  0.0815178279247561  0.1728736058597097  0.4043264130565523
  0.2501299052427444  0.6493921835110753  0.5846339894196797
  0.2500177341283237  0.0942998295366633  0.5768502687601827
  0.0802350440591992  0.7980667211321739  0.4250878570039361
  0.4175195926346163  0.3687513838747531  0.5944593467020242
  0.5895188891080445  0.4822702470873636  0.3966970537703847
  0.4186068647683028  0.1727323326974967  0.4044169105601995
  0.5810309660809768  0.6742728972103432  0.5963173566897040
  0.5800105914423673  0.0590882703340929  0.5906308261456694
  0.4199000210479620  0.7980651041902370  0.4255260709932083
  0.7501645267664701  0.3683636933180987  0.5983951021598116
  0.9105361484078746  0.4823958752603615  0.3966211739174015
  0.7500083177794143  0.1714920591273959  0.4041108725817871
  0.9189578708940123  0.6739480956580567  0.5962022162238717
  0.9201681845920074  0.0593245840168479  0.5904399682299933
  0.7499582377664622  0.7976747703767286  0.4228521888317077
  0.2473808776286175  0.8729559316406015  0.6544560200065535
  0.2465865421224172  0.9568257329828793  0.6830983246657644
 
  0.00000000E+00  0.00000000E+00  0.00000000E+00
  0.00000000E+00  0.00000000E+00  0.00000000E+00
  0.00000000E+00  0.00000000E+00  0.00000000E+00
  0.00000000E+00  0.00000000E+00  0.00000000E+00
  0.00000000E+00  0.00000000E+00  0.00000000E+00
  0.00000000E+00  0.00000000E+00  0.00000000E+00
  0.00000000E+00  0.00000000E+00  0.00000000E+00
  0.00000000E+00  0.00000000E+00  0.00000000E+00
  0.00000000E+00  0.00000000E+00  0.00000000E+00
  0.00000000E+00  0.00000000E+00  0.00000000E+00
  0.00000000E+00  0.00000000E+00  0.00000000E+00
  0.00000000E+00  0.00000000E+00  0.00000000E+00
  0.00000000E+00  0.00000000E+00  0.00000000E+00
  0.00000000E+00  0.00000000E+00  0.00000000E+00
  0.00000000E+00  0.00000000E+00  0.00000000E+00
  0.00000000E+00  0.00000000E+00  0.00000000E+00
  0.00000000E+00  0.00000000E+00  0.00000000E+00
  0.00000000E+00  0.00000000E+00  0.00000000E+00
  0.00000000E+00  0.00000000E+00  0.00000000E+00
  0.00000000E+00  0.00000000E+00  0.00000000E+00
  0.00000000E+00  0.00000000E+00  0.00000000E+00
  0.00000000E+00  0.00000000E+00  0.00000000E+00
  0.00000000E+00  0.00000000E+00  0.00000000E+00
  0.00000000E+00  0.00000000E+00  0.00000000E+00
  0.00000000E+00  0.00000000E+00  0.00000000E+00
  0.00000000E+00  0.00000000E+00  0.00000000E+00
  0.00000000E+00  0.00000000E+00  0.00000000E+00
  0.00000000E+00  0.00000000E+00  0.00000000E+00
  0.00000000E+00  0.00000000E+00  0.00000000E+00
  0.00000000E+00  0.00000000E+00  0.00000000E+00
  0.00000000E+00  0.00000000E+00  0.00000000E+00
  0.00000000E+00  0.00000000E+00  0.00000000E+00
