CONTCAR\(3)                             
   1.00000000000000     
    12.5215997695999999    0.0000000000000000    0.0000000000000000
    -6.2607811132000002   10.8440343342999999    0.0000000000000000
     0.0000000000000000    0.0000000000000000   23.0615997314000012
   Y    Ga   I    O 
    18    18    18     1
Direct
  0.0022409677163919  0.0010247067631749  0.5869761764849514
  0.9992315060732772  0.9988183880667509  0.4129173869988962
  0.3333550083430974  0.0000205989438873  0.5863132442988941
  0.3333452795433016  0.0000290522428329  0.4115878354616841
  0.6653809134563414  0.0010975989174737  0.5869966369831479
  0.6663341892149516  0.9988453677707760  0.4129425085389359
  0.0000195223926507  0.3333931424017604  0.5871357790496033
  0.9999684642306922  0.3333709167882634  0.4145585568888909
  0.3322466407903203  0.3309858608036367  0.5870062961369130
  0.3344746406225195  0.3341126193784208  0.4129886262280348
  0.6653844683909356  0.3309715177982985  0.5870472741098831
  0.6662902130072311  0.3341490709507346  0.4129717486547971
  0.0022760419386473  0.6679440386483919  0.5870061967610900
  0.9992014162201616  0.6670634461350767  0.4129472447365827
  0.3323000471644744  0.6680045420990587  0.5870317741418363
  0.3344822131140578  0.6670244113388309  0.4129337657851444
  0.6665385214694428  0.6665576115509624  0.6228901471001248
  0.6666600482377495  0.6666382852279671  0.4158792925124331
  0.1102448484266677  0.2230547738929751  0.5128106333030703
  0.2218840880135349  0.1113935658940135  0.4849562348013495
  0.4438959015073067  0.2210960028198136  0.5120195309380412
  0.5562022315686468  0.1114257888678233  0.4849274183094396
  0.7795296216509340  0.2231413300943352  0.5128070585357059
  0.8865863421094262  0.1064752060019813  0.4862534806131438
  0.1102259828973045  0.5539143227463025  0.5127924743097713
  0.2268415337561391  0.4467732679439713  0.4863312745665606
  0.4511938106667456  0.5589923696763949  0.5186675316991547
  0.5547232496406828  0.4428702378377616  0.4862478325229717
  0.7743890896705032  0.5589808906049279  0.5186625066238079
  0.8865437857301608  0.4468283936777235  0.4862689830447716
  0.1121778930734886  0.8894566495717313  0.5120361156077462
  0.2219635878439716  0.7772443476831227  0.4849628848306695
  0.4439369170170637  0.8894995359720321  0.5120425439382962
  0.5547513514899637  0.7786021930438428  0.4862228828141216
  0.7743642423337859  0.8821294436829251  0.5186601423278908
  0.8904800025266649  0.7786402959747903  0.4862096926261217
  0.2222801559045390  0.1108639948955571  0.6714861322911849
  0.1108929837454952  0.2224907310521448  0.3279642344521437
  0.5551592623855427  0.1108257071019153  0.6717080443655932
  0.4446149745865015  0.2226289718963736  0.3265101378709404
  0.8886237992134924  0.1107616818157302  0.6720179414575348
  0.7779921657648848  0.2224042367695478  0.3278646492780848
  0.2225812260173523  0.4446707823501443  0.6721614107891084
  0.1108512390486678  0.5551447078276091  0.3278371226792622
  0.5353279624446282  0.4039777418817945  0.6746515526638820
  0.4462194497861901  0.5563223756630726  0.3282134110294553
  0.8888479092149068  0.4447151409541913  0.6721987008935570
  0.7767125884026247  0.5562429633077679  0.3281966383277209
  0.2223195893587124  0.7781020309147136  0.6715469247081760
  0.1111033450284186  0.8884977873991035  0.3263966691782479
  0.5356592109893147  0.7980722570369716  0.6746304381733916
  0.4446779857305477  0.8889008685628417  0.3264510724863999
  0.9291466669127335  0.7979347260914251  0.6746248932233070
  0.7767625380665696  0.8868554919409692  0.3282080540984526
  0.6663621545496482  0.6664378187253823  0.7051221617491390
 
  0.00000000E+00  0.00000000E+00  0.00000000E+00
  0.00000000E+00  0.00000000E+00  0.00000000E+00
  0.00000000E+00  0.00000000E+00  0.00000000E+00
  0.00000000E+00  0.00000000E+00  0.00000000E+00
  0.00000000E+00  0.00000000E+00  0.00000000E+00
  0.00000000E+00  0.00000000E+00  0.00000000E+00
  0.00000000E+00  0.00000000E+00  0.00000000E+00
  0.00000000E+00  0.00000000E+00  0.00000000E+00
  0.00000000E+00  0.00000000E+00  0.00000000E+00
  0.00000000E+00  0.00000000E+00  0.00000000E+00
  0.00000000E+00  0.00000000E+00  0.00000000E+00
  0.00000000E+00  0.00000000E+00  0.00000000E+00
  0.00000000E+00  0.00000000E+00  0.00000000E+00
  0.00000000E+00  0.00000000E+00  0.00000000E+00
  0.00000000E+00  0.00000000E+00  0.00000000E+00
  0.00000000E+00  0.00000000E+00  0.00000000E+00
  0.00000000E+00  0.00000000E+00  0.00000000E+00
  0.00000000E+00  0.00000000E+00  0.00000000E+00
  0.00000000E+00  0.00000000E+00  0.00000000E+00
  0.00000000E+00  0.00000000E+00  0.00000000E+00
  0.00000000E+00  0.00000000E+00  0.00000000E+00
  0.00000000E+00  0.00000000E+00  0.00000000E+00
  0.00000000E+00  0.00000000E+00  0.00000000E+00
  0.00000000E+00  0.00000000E+00  0.00000000E+00
  0.00000000E+00  0.00000000E+00  0.00000000E+00
  0.00000000E+00  0.00000000E+00  0.00000000E+00
  0.00000000E+00  0.00000000E+00  0.00000000E+00
  0.00000000E+00  0.00000000E+00  0.00000000E+00
  0.00000000E+00  0.00000000E+00  0.00000000E+00
  0.00000000E+00  0.00000000E+00  0.00000000E+00
  0.00000000E+00  0.00000000E+00  0.00000000E+00
  0.00000000E+00  0.00000000E+00  0.00000000E+00
  0.00000000E+00  0.00000000E+00  0.00000000E+00
  0.00000000E+00  0.00000000E+00  0.00000000E+00
  0.00000000E+00  0.00000000E+00  0.00000000E+00
  0.00000000E+00  0.00000000E+00  0.00000000E+00
  0.00000000E+00  0.00000000E+00  0.00000000E+00
  0.00000000E+00  0.00000000E+00  0.00000000E+00
  0.00000000E+00  0.00000000E+00  0.00000000E+00
  0.00000000E+00  0.00000000E+00  0.00000000E+00
  0.00000000E+00  0.00000000E+00  0.00000000E+00
  0.00000000E+00  0.00000000E+00  0.00000000E+00
  0.00000000E+00  0.00000000E+00  0.00000000E+00
  0.00000000E+00  0.00000000E+00  0.00000000E+00
  0.00000000E+00  0.00000000E+00  0.00000000E+00
  0.00000000E+00  0.00000000E+00  0.00000000E+00
  0.00000000E+00  0.00000000E+00  0.00000000E+00
  0.00000000E+00  0.00000000E+00  0.00000000E+00
  0.00000000E+00  0.00000000E+00  0.00000000E+00
  0.00000000E+00  0.00000000E+00  0.00000000E+00
  0.00000000E+00  0.00000000E+00  0.00000000E+00
  0.00000000E+00  0.00000000E+00  0.00000000E+00
  0.00000000E+00  0.00000000E+00  0.00000000E+00
  0.00000000E+00  0.00000000E+00  0.00000000E+00
  0.00000000E+00  0.00000000E+00  0.00000000E+00
