CONTCAR\(4)                             
   1.00000000000000     
    12.9882001877000004    0.0000000000000000    0.0000000000000000
     0.0000000000000000   20.1457004546999983    0.0000000000000000
     0.0000000000000000    0.0000000000000000   19.8038997650000006
   Ce   I    O    H 
    12    36     2     1
Direct
  0.1667328481884454  0.9989851000928313  0.5052540951291711
 -0.0000093335153770  0.2490918464960791  0.4920279422107964
  0.5000793019132919  0.9991302582476884  0.5048623244116006
  0.3330948146210227  0.2492484607399476  0.4919604661789537
  0.8333415706437449  0.9989777058823822  0.5052976714546497
  0.6668689128020169  0.2492554568797423  0.4919331063712215
  0.1663823482864223  0.4993492855138474  0.5039028820552386
  0.0001603741124300  0.7494672713759958  0.4906966051828214
  0.4997398750268386  0.5000090116865419  0.5043214336579698
  0.3335671864837901  0.7493721807027520  0.4905925789577879
  0.8336153620314035  0.4993732040941706  0.5039715238013702
  0.6665258497397416  0.7493385200818229  0.4907315793525945
 -0.0000583838445725  0.4075752699347611  0.4226852456799164
  0.1666991606045768  0.3408823076514843  0.5734726707371507
  0.1665692018073127  0.1577855057951593  0.5740342208012201
  0.0000665823636101  0.0903045202228160  0.4235231321024414
  0.0000228152860590  0.9988648688148589  0.6211280992761344
  0.1665281718577980  0.2491241080209195  0.3761698595279983
  0.3339017749701900  0.4075629584702476  0.4231140497227249
  0.5000177733333047  0.3411429194894802  0.5739468780840437
  0.5000472894830086  0.1582019663277981  0.5735900656402461
  0.3333243395618850  0.0908546822739608  0.4234169800665492
  0.3336060277012190  0.9990952717809980  0.6208082602948966
  0.4999539755209927  0.2492571661123040  0.3763943968354784
  0.6659877910169344  0.4076350202988572  0.4231840711581334
  0.8331580635030031  0.3408944887630788  0.5735406240828880
  0.8334194207039451  0.1577850168734872  0.5740077138680826
  0.6668274733257263  0.0906444562011661  0.4232506124635931
  0.6664859095309211  0.9991307091640949  0.6208801224338416
  0.8333721129957263  0.2491894766714891  0.3761831635908670
  0.0000120153787335  0.9078516215618214  0.4229260761089647
  0.1671427336343792  0.8405609668510609  0.5729670083847140
  0.1667935295400321  0.6580049948699254  0.5721539913253300
  0.0000311675001410  0.5903540788257549  0.4215089255582485
  0.0000211700649626  0.4998125983174960  0.6198527541780232
  0.1669479337176017  0.7494644010570383  0.3748996031850073
  0.3333149221995931  0.9081301997647667  0.4224337629785654
  0.5000090467248430  0.8407322150622607  0.5725503752061833
  0.4998365293151304  0.6583691234146584  0.5726191018405400
  0.3331151044147853  0.5906026119151430  0.4217684434099169
  0.3326327925091263  0.5003503883199107  0.6198762294758172
  0.5001043700095008  0.7496194578894664  0.3749515906920479
  0.6669243679805325  0.9079223644548384  0.4226053921635819
  0.8331010615189487  0.8404436292934804  0.5730371583611931
  0.8333492041319982  0.6580228133760530  0.5722844375293071
  0.6665068643799398  0.5906175770849748  0.4221326371046035
  0.6670328695384790  0.5005942521389596  0.6202178763356394
  0.8332651188197607  0.7492028473068951  0.3750605196578654
  0.5000889934563449  0.4771514175056577  0.7699530922889364
  0.4992844755440436  0.5440032058868838  0.7660494104481484
  0.5070073145657521  0.4617004184422224  0.7223492766369995
 
  0.00000000E+00  0.00000000E+00  0.00000000E+00
  0.00000000E+00  0.00000000E+00  0.00000000E+00
  0.00000000E+00  0.00000000E+00  0.00000000E+00
  0.00000000E+00  0.00000000E+00  0.00000000E+00
  0.00000000E+00  0.00000000E+00  0.00000000E+00
  0.00000000E+00  0.00000000E+00  0.00000000E+00
  0.00000000E+00  0.00000000E+00  0.00000000E+00
  0.00000000E+00  0.00000000E+00  0.00000000E+00
  0.00000000E+00  0.00000000E+00  0.00000000E+00
  0.00000000E+00  0.00000000E+00  0.00000000E+00
  0.00000000E+00  0.00000000E+00  0.00000000E+00
  0.00000000E+00  0.00000000E+00  0.00000000E+00
  0.00000000E+00  0.00000000E+00  0.00000000E+00
  0.00000000E+00  0.00000000E+00  0.00000000E+00
  0.00000000E+00  0.00000000E+00  0.00000000E+00
  0.00000000E+00  0.00000000E+00  0.00000000E+00
  0.00000000E+00  0.00000000E+00  0.00000000E+00
  0.00000000E+00  0.00000000E+00  0.00000000E+00
  0.00000000E+00  0.00000000E+00  0.00000000E+00
  0.00000000E+00  0.00000000E+00  0.00000000E+00
  0.00000000E+00  0.00000000E+00  0.00000000E+00
  0.00000000E+00  0.00000000E+00  0.00000000E+00
  0.00000000E+00  0.00000000E+00  0.00000000E+00
  0.00000000E+00  0.00000000E+00  0.00000000E+00
  0.00000000E+00  0.00000000E+00  0.00000000E+00
  0.00000000E+00  0.00000000E+00  0.00000000E+00
  0.00000000E+00  0.00000000E+00  0.00000000E+00
  0.00000000E+00  0.00000000E+00  0.00000000E+00
  0.00000000E+00  0.00000000E+00  0.00000000E+00
  0.00000000E+00  0.00000000E+00  0.00000000E+00
  0.00000000E+00  0.00000000E+00  0.00000000E+00
  0.00000000E+00  0.00000000E+00  0.00000000E+00
  0.00000000E+00  0.00000000E+00  0.00000000E+00
  0.00000000E+00  0.00000000E+00  0.00000000E+00
  0.00000000E+00  0.00000000E+00  0.00000000E+00
  0.00000000E+00  0.00000000E+00  0.00000000E+00
  0.00000000E+00  0.00000000E+00  0.00000000E+00
  0.00000000E+00  0.00000000E+00  0.00000000E+00
  0.00000000E+00  0.00000000E+00  0.00000000E+00
  0.00000000E+00  0.00000000E+00  0.00000000E+00
  0.00000000E+00  0.00000000E+00  0.00000000E+00
  0.00000000E+00  0.00000000E+00  0.00000000E+00
  0.00000000E+00  0.00000000E+00  0.00000000E+00
  0.00000000E+00  0.00000000E+00  0.00000000E+00
  0.00000000E+00  0.00000000E+00  0.00000000E+00
  0.00000000E+00  0.00000000E+00  0.00000000E+00
  0.00000000E+00  0.00000000E+00  0.00000000E+00
  0.00000000E+00  0.00000000E+00  0.00000000E+00
  0.00000000E+00  0.00000000E+00  0.00000000E+00
  0.00000000E+00  0.00000000E+00  0.00000000E+00
  0.00000000E+00  0.00000000E+00  0.00000000E+00
