CONTCAR\(9)                             
   1.00000000000000     
    13.8964004516999999    0.0000000000000000    0.0000000000000000
     0.0991868080000000   15.6682861384999992    0.0000000000000000
     0.0000000000000000    0.0000000000000000   19.4270992279000012
   Ta   Ni   Se   O 
    16     8    40     1
Direct
  0.0637625637722714  0.1068075509404257  0.4812837528585165
  0.0619493157235732  0.3884172178921297  0.4811542782720628
  0.1863037655821526  0.8871419518929158  0.5185962599068400
  0.1844088249741181  0.6047539271462284  0.5171057014334766
  0.3138504255451459  0.1068729382947373  0.4807798428801567
  0.3119016678954180  0.3876207816676264  0.4804485213857512
  0.4360068541505922  0.8873798267279969  0.5185186998919428
  0.4414676260229552  0.6049066795556185  0.5169002715647323
  0.5638374939554303  0.1069356289845051  0.4808426113883348
  0.5619372304695073  0.3885674117788163  0.4809197738166666
  0.6859564906486141  0.8879703046231026  0.5195331189659457
  0.6879482967867525  0.6069178789800972  0.5199283072998137
  0.8138274425983143  0.1070224655974780  0.4814878043807632
  0.8120422574852451  0.3883896047757059  0.4812157176239741
  0.9362897124551246  0.8880191896699139  0.5196792651289437
  0.9380704646475359  0.6068703543899745  0.5203024529900863
  0.1880372486915579  0.2473396419702144  0.4677649863884412
  0.0618943060048657  0.7476789439189344  0.5321780121480685
  0.4378289743072341  0.2474344662515038  0.4676853356829456
  0.3116997497107385  0.7463336283850761  0.5305197651419830
  0.6883611541488017  0.2476298875681348  0.4679749550520392
  0.5621441063248667  0.7478479891948792  0.5319695878158277
  0.9379403406629071  0.2476346466113394  0.4681300369328735
  0.8120198304473938  0.7476834038322505  0.5330776602714944
  0.1864394263015882  0.1371493138904312  0.3866366063676469
  0.1877706442097308  0.3576468635096516  0.3863284643397691
  0.0636320507786686  0.8578510086424861  0.6136210014064579
  0.0635310170441412  0.6377160417959036  0.6138929716337195
  0.0627280177039972  0.9480730510034354  0.4295919117349362
  0.0604747042476737  0.5470812276917995  0.4283091009559585
  0.1870313205759297  0.0463804770266229  0.5703807911654557
  0.1878205131602517  0.4475909117675401  0.5705663648499441
  0.0631591614362249  0.2477968487893384  0.5516181418936160
  0.1858453325447770  0.7472449057565772  0.4473711160313739
  0.4366104728529833  0.1372359256627030  0.3863206368514128
  0.4384915309734306  0.3578086397114880  0.3862818004295285
  0.3131546158250260  0.8558251724324172  0.6126835880276127
  0.3120821066534669  0.6357709990207848  0.6093888347843128
  0.3130348116084832  0.9481217974780356  0.4291899553601632
  0.3123990697939329  0.5462202086192015  0.4295035007915130
  0.4366218586899030  0.0467433612069891  0.5702315925995881
  0.4378759044801867  0.4476970911078072  0.5704948698832507
  0.3127871688776377  0.2476365822485836  0.5515817647733150
  0.4380478935931430  0.7475082224364398  0.4474763795988717
  0.6870149122406669  0.1373780937403108  0.3867517806808545
  0.6885113314511125  0.3578667873428811  0.3865583860621242
  0.5625047535210024  0.8578846597492905  0.6135584490926982
  0.5606618130672626  0.6378467193333274  0.6135929099393885
  0.5635822347694490  0.9480631781728239  0.4294164169534139
  0.5643819611686867  0.5472918099768664  0.4279415293454480
  0.6863498771217548  0.0471625586053821  0.5708281226758818
  0.6875527241940749  0.4481026321380496  0.5707023939227482
  0.5628468503375830  0.2478359256290820  0.5513285277013880
  0.6879546712035944  0.7474036023200992  0.4487909365380085
  0.9364832319262082  0.1372246196170327  0.3869326179345445
  0.9381057825335409  0.3578476994740481  0.3866381137503074
  0.8130173451759006  0.8581513679654552  0.6141600560264066
  0.8116157783900819  0.6375597363034778  0.6145460681099350
  0.8131634046772708  0.9481773692480552  0.4301363413210345
  0.8125624680412512  0.5474653338960619  0.4302806686812712
  0.9368453073589348  0.0473866506415307  0.5710747207686848
  0.9379228254552725  0.4479757803803449  0.5709810413671111
  0.8128131085496595  0.2478427415524731  0.5519005884720480
  0.9363679503552194  0.7474631747578899  0.4490466000807114
  0.3129782560991913  0.6506654457076504  0.6947768108758775
 
  0.00000000E+00  0.00000000E+00  0.00000000E+00
  0.00000000E+00  0.00000000E+00  0.00000000E+00
  0.00000000E+00  0.00000000E+00  0.00000000E+00
  0.00000000E+00  0.00000000E+00  0.00000000E+00
  0.00000000E+00  0.00000000E+00  0.00000000E+00
  0.00000000E+00  0.00000000E+00  0.00000000E+00
  0.00000000E+00  0.00000000E+00  0.00000000E+00
  0.00000000E+00  0.00000000E+00  0.00000000E+00
  0.00000000E+00  0.00000000E+00  0.00000000E+00
  0.00000000E+00  0.00000000E+00  0.00000000E+00
  0.00000000E+00  0.00000000E+00  0.00000000E+00
  0.00000000E+00  0.00000000E+00  0.00000000E+00
  0.00000000E+00  0.00000000E+00  0.00000000E+00
  0.00000000E+00  0.00000000E+00  0.00000000E+00
  0.00000000E+00  0.00000000E+00  0.00000000E+00
  0.00000000E+00  0.00000000E+00  0.00000000E+00
  0.00000000E+00  0.00000000E+00  0.00000000E+00
  0.00000000E+00  0.00000000E+00  0.00000000E+00
  0.00000000E+00  0.00000000E+00  0.00000000E+00
  0.00000000E+00  0.00000000E+00  0.00000000E+00
  0.00000000E+00  0.00000000E+00  0.00000000E+00
  0.00000000E+00  0.00000000E+00  0.00000000E+00
  0.00000000E+00  0.00000000E+00  0.00000000E+00
  0.00000000E+00  0.00000000E+00  0.00000000E+00
  0.00000000E+00  0.00000000E+00  0.00000000E+00
  0.00000000E+00  0.00000000E+00  0.00000000E+00
  0.00000000E+00  0.00000000E+00  0.00000000E+00
  0.00000000E+00  0.00000000E+00  0.00000000E+00
  0.00000000E+00  0.00000000E+00  0.00000000E+00
  0.00000000E+00  0.00000000E+00  0.00000000E+00
  0.00000000E+00  0.00000000E+00  0.00000000E+00
  0.00000000E+00  0.00000000E+00  0.00000000E+00
  0.00000000E+00  0.00000000E+00  0.00000000E+00
  0.00000000E+00  0.00000000E+00  0.00000000E+00
  0.00000000E+00  0.00000000E+00  0.00000000E+00
  0.00000000E+00  0.00000000E+00  0.00000000E+00
  0.00000000E+00  0.00000000E+00  0.00000000E+00
  0.00000000E+00  0.00000000E+00  0.00000000E+00
  0.00000000E+00  0.00000000E+00  0.00000000E+00
  0.00000000E+00  0.00000000E+00  0.00000000E+00
  0.00000000E+00  0.00000000E+00  0.00000000E+00
  0.00000000E+00  0.00000000E+00  0.00000000E+00
  0.00000000E+00  0.00000000E+00  0.00000000E+00
  0.00000000E+00  0.00000000E+00  0.00000000E+00
  0.00000000E+00  0.00000000E+00  0.00000000E+00
  0.00000000E+00  0.00000000E+00  0.00000000E+00
  0.00000000E+00  0.00000000E+00  0.00000000E+00
  0.00000000E+00  0.00000000E+00  0.00000000E+00
  0.00000000E+00  0.00000000E+00  0.00000000E+00
  0.00000000E+00  0.00000000E+00  0.00000000E+00
  0.00000000E+00  0.00000000E+00  0.00000000E+00
  0.00000000E+00  0.00000000E+00  0.00000000E+00
  0.00000000E+00  0.00000000E+00  0.00000000E+00
  0.00000000E+00  0.00000000E+00  0.00000000E+00
  0.00000000E+00  0.00000000E+00  0.00000000E+00
  0.00000000E+00  0.00000000E+00  0.00000000E+00
  0.00000000E+00  0.00000000E+00  0.00000000E+00
  0.00000000E+00  0.00000000E+00  0.00000000E+00
  0.00000000E+00  0.00000000E+00  0.00000000E+00
  0.00000000E+00  0.00000000E+00  0.00000000E+00
  0.00000000E+00  0.00000000E+00  0.00000000E+00
  0.00000000E+00  0.00000000E+00  0.00000000E+00
  0.00000000E+00  0.00000000E+00  0.00000000E+00
  0.00000000E+00  0.00000000E+00  0.00000000E+00
  0.00000000E+00  0.00000000E+00  0.00000000E+00
