CONTCAR\(10)                            
   1.00000000000000     
    12.0853004455999997    0.0000000000000000    0.0000000000000000
     0.0000000000000000   13.7131004332999993    0.0000000000000000
     0.0000000000000000    0.0000000000000000   20.3784999846999995
   Zr   Te   O    H 
     6    30     2     1
Direct
  0.0034486725592789  0.4942368705020163  0.4454702103173813
  0.1689021899822523  0.9940180705098274  0.5467381087006472
  0.3401667540286816  0.4941589296551787  0.4450254551831548
  0.5021502681863832  0.9935612794738164  0.5484191269514798
  0.6673803540968937  0.4947040338679071  0.4445654495957247
  0.8352473499331794  0.9941471687246919  0.5465998369100994
  0.1701800137934497  0.4948239248944634  0.5558986509541273
  0.0028013417638486 -0.0058884755627866  0.4364339170927276
  0.1708662216274079  0.5953552708152766  0.3632190399416790
  0.0019815999423469  0.8925529213039947  0.6287583124999767
  0.0016011063825049  0.0948369842279054  0.6292580047258867
  0.1708154153013488  0.3934062614444044  0.3626683913290093
  0.0019557554907327  0.3114806085636308  0.5250032141529449
  0.1687178497842829  0.1779838049144005  0.4685071297457624
  0.1697895875418676  0.8106073659674806  0.4677653877368149
  0.0031742273216682  0.6767616855643821  0.5245245334828430
  0.5037047591943478  0.4939135443548416  0.5574638332505929
  0.3366742557891362  0.9949455686012461  0.4370901600306684
  0.5028707093614829  0.5979401502478994  0.3662732418756615
  0.3346531026954042  0.8919919473021475  0.6294434241973460
  0.3344052865364748  0.0946078981363157  0.6300054854504993
  0.5018267196067325  0.3839010695804116  0.3668567324715667
  0.3359704598180129  0.3121289392375504  0.5254051515942851
  0.5008777986720256  0.1754490689776891  0.4697064479144261
  0.5029379765569849  0.8112785130858260  0.4690754176259528
  0.3371154795827007  0.6770430528606209  0.5253146499205286
  0.8369501807049713  0.4953098665432342  0.5557702059583414
  0.6682111460761813 -0.0051513548125864  0.4370144643446227
  0.8364737291838301  0.5956152529598683  0.3631588783895488
  0.6695361829241537  0.8923424525327961  0.6294031098322302
  0.6690412050429578  0.0949516972818584  0.6298580141696791
  0.8364940294357976  0.3939420607363717  0.3626067864083216
  0.6677615270613201  0.3122706120665534  0.5240791726816946
  0.8352081429152350  0.1778541555914428  0.4681615454610442
  0.8361392636067515  0.8108843999845510  0.4675938983700144
  0.6699261619249262  0.6769644958309066  0.5250773077222120
  0.4842818517867362  0.4017812743560384  0.2587337926228576
  0.4582274440027359  0.4964094941662541  0.2334135412313068
  0.3767838537849783  0.4954190825115561  0.2328300931563933
 
  0.00000000E+00  0.00000000E+00  0.00000000E+00
  0.00000000E+00  0.00000000E+00  0.00000000E+00
  0.00000000E+00  0.00000000E+00  0.00000000E+00
  0.00000000E+00  0.00000000E+00  0.00000000E+00
  0.00000000E+00  0.00000000E+00  0.00000000E+00
  0.00000000E+00  0.00000000E+00  0.00000000E+00
  0.00000000E+00  0.00000000E+00  0.00000000E+00
  0.00000000E+00  0.00000000E+00  0.00000000E+00
  0.00000000E+00  0.00000000E+00  0.00000000E+00
  0.00000000E+00  0.00000000E+00  0.00000000E+00
  0.00000000E+00  0.00000000E+00  0.00000000E+00
  0.00000000E+00  0.00000000E+00  0.00000000E+00
  0.00000000E+00  0.00000000E+00  0.00000000E+00
  0.00000000E+00  0.00000000E+00  0.00000000E+00
  0.00000000E+00  0.00000000E+00  0.00000000E+00
  0.00000000E+00  0.00000000E+00  0.00000000E+00
  0.00000000E+00  0.00000000E+00  0.00000000E+00
  0.00000000E+00  0.00000000E+00  0.00000000E+00
  0.00000000E+00  0.00000000E+00  0.00000000E+00
  0.00000000E+00  0.00000000E+00  0.00000000E+00
  0.00000000E+00  0.00000000E+00  0.00000000E+00
  0.00000000E+00  0.00000000E+00  0.00000000E+00
  0.00000000E+00  0.00000000E+00  0.00000000E+00
  0.00000000E+00  0.00000000E+00  0.00000000E+00
  0.00000000E+00  0.00000000E+00  0.00000000E+00
  0.00000000E+00  0.00000000E+00  0.00000000E+00
  0.00000000E+00  0.00000000E+00  0.00000000E+00
  0.00000000E+00  0.00000000E+00  0.00000000E+00
  0.00000000E+00  0.00000000E+00  0.00000000E+00
  0.00000000E+00  0.00000000E+00  0.00000000E+00
  0.00000000E+00  0.00000000E+00  0.00000000E+00
  0.00000000E+00  0.00000000E+00  0.00000000E+00
  0.00000000E+00  0.00000000E+00  0.00000000E+00
  0.00000000E+00  0.00000000E+00  0.00000000E+00
  0.00000000E+00  0.00000000E+00  0.00000000E+00
  0.00000000E+00  0.00000000E+00  0.00000000E+00
  0.00000000E+00  0.00000000E+00  0.00000000E+00
  0.00000000E+00  0.00000000E+00  0.00000000E+00
  0.00000000E+00  0.00000000E+00  0.00000000E+00
