 Nb2 C1 S2                              
   1.00000000000000     
     3.2546692920467879    0.0000000000000000    0.0000000000000000
     1.6273346460233939    2.8186265820539034    0.0000000000000000
     0.0000000000000000    0.0000000000000000   20.7136807730880008
   Nb   C    S 
     2     1     2
Direct
  0.6666665870637729  0.6666666016584486  0.5575478854385949
  0.3333334093749514  0.3333334197167659  0.4424501696473726
  0.9999999936930664  0.9999999920088527  0.4999983483023840
  0.6666666770975311  0.6666666466919438  0.3632179190187870
  0.3333333327706782  0.3333333399239891  0.6367856775928686
 
  0.00000000E+00  0.00000000E+00  0.00000000E+00
  0.00000000E+00  0.00000000E+00  0.00000000E+00
  0.00000000E+00  0.00000000E+00  0.00000000E+00
  0.00000000E+00  0.00000000E+00  0.00000000E+00
  0.00000000E+00  0.00000000E+00  0.00000000E+00
