G   72   72    1    0.005     # Parameters to Generate KPOINTS (Don't Edit This Line)
     469
Reciprocal lattice
    0.000000000000    0.000000000000    0.000000000000       1
    0.013888888889    0.000000000000    0.000000000000       6
    0.027777777778    0.000000000000    0.000000000000       6
    0.041666666667    0.000000000000    0.000000000000       6
    0.055555555556    0.000000000000    0.000000000000       6
    0.069444444444    0.000000000000    0.000000000000       6
    0.083333333333    0.000000000000    0.000000000000       6
    0.097222222222    0.000000000000    0.000000000000       6
    0.111111111111    0.000000000000    0.000000000000       6
    0.125000000000    0.000000000000    0.000000000000       6
    0.138888888889    0.000000000000    0.000000000000       6
    0.152777777778    0.000000000000    0.000000000000       6
    0.166666666667    0.000000000000    0.000000000000       6
    0.180555555556    0.000000000000    0.000000000000       6
    0.194444444444    0.000000000000    0.000000000000       6
    0.208333333333    0.000000000000    0.000000000000       6
    0.222222222222    0.000000000000    0.000000000000       6
    0.236111111111    0.000000000000    0.000000000000       6
    0.250000000000    0.000000000000    0.000000000000       6
    0.263888888889    0.000000000000    0.000000000000       6
    0.277777777778    0.000000000000    0.000000000000       6
    0.291666666667    0.000000000000    0.000000000000       6
    0.305555555556    0.000000000000    0.000000000000       6
    0.319444444444    0.000000000000    0.000000000000       6
    0.333333333333    0.000000000000    0.000000000000       6
    0.347222222222    0.000000000000    0.000000000000       6
    0.361111111111    0.000000000000    0.000000000000       6
    0.375000000000    0.000000000000    0.000000000000       6
    0.388888888889    0.000000000000    0.000000000000       6
    0.402777777778    0.000000000000    0.000000000000       6
    0.416666666667    0.000000000000    0.000000000000       6
    0.430555555556    0.000000000000    0.000000000000       6
    0.444444444444    0.000000000000    0.000000000000       6
    0.458333333333    0.000000000000    0.000000000000       6
    0.472222222222    0.000000000000    0.000000000000       6
    0.486111111111    0.000000000000    0.000000000000       6
    0.500000000000    0.000000000000    0.000000000000       3
    0.027777777778    0.013888888889    0.000000000000       6
    0.041666666667    0.013888888889    0.000000000000      12
    0.055555555556    0.013888888889    0.000000000000      12
    0.069444444444    0.013888888889    0.000000000000      12
    0.083333333333    0.013888888889    0.000000000000      12
    0.097222222222    0.013888888889    0.000000000000      12
    0.111111111111    0.013888888889    0.000000000000      12
    0.125000000000    0.013888888889    0.000000000000      12
    0.138888888889    0.013888888889    0.000000000000      12
    0.152777777778    0.013888888889    0.000000000000      12
    0.166666666667    0.013888888889    0.000000000000      12
    0.180555555556    0.013888888889    0.000000000000      12
    0.194444444444    0.013888888889    0.000000000000      12
    0.208333333333    0.013888888889    0.000000000000      12
    0.222222222222    0.013888888889    0.000000000000      12
    0.236111111111    0.013888888889    0.000000000000      12
    0.250000000000    0.013888888889    0.000000000000      12
    0.263888888889    0.013888888889    0.000000000000      12
    0.277777777778    0.013888888889    0.000000000000      12
    0.291666666667    0.013888888889    0.000000000000      12
    0.305555555556    0.013888888889    0.000000000000      12
    0.319444444444    0.013888888889    0.000000000000      12
    0.333333333333    0.013888888889    0.000000000000      12
    0.347222222222    0.013888888889    0.000000000000      12
    0.361111111111    0.013888888889    0.000000000000      12
    0.375000000000    0.013888888889    0.000000000000      12
    0.388888888889    0.013888888889    0.000000000000      12
    0.402777777778    0.013888888889    0.000000000000      12
    0.416666666667    0.013888888889    0.000000000000      12
    0.430555555556    0.013888888889    0.000000000000      12
    0.444444444444    0.013888888889    0.000000000000      12
    0.458333333333    0.013888888889    0.000000000000      12
    0.472222222222    0.013888888889    0.000000000000      12
    0.486111111111    0.013888888889    0.000000000000      12
    0.500000000000    0.013888888889    0.000000000000      12
    0.055555555556    0.027777777778    0.000000000000       6
    0.069444444444    0.027777777778    0.000000000000      12
    0.083333333333    0.027777777778    0.000000000000      12
    0.097222222222    0.027777777778    0.000000000000      12
    0.111111111111    0.027777777778    0.000000000000      12
    0.125000000000    0.027777777778    0.000000000000      12
    0.138888888889    0.027777777778    0.000000000000      12
    0.152777777778    0.027777777778    0.000000000000      12
    0.166666666667    0.027777777778    0.000000000000      12
    0.180555555556    0.027777777778    0.000000000000      12
    0.194444444444    0.027777777778    0.000000000000      12
    0.208333333333    0.027777777778    0.000000000000      12
    0.222222222222    0.027777777778    0.000000000000      12
    0.236111111111    0.027777777778    0.000000000000      12
    0.250000000000    0.027777777778    0.000000000000      12
    0.263888888889    0.027777777778    0.000000000000      12
    0.277777777778    0.027777777778    0.000000000000      12
    0.291666666667    0.027777777778    0.000000000000      12
    0.305555555556    0.027777777778    0.000000000000      12
    0.319444444444    0.027777777778    0.000000000000      12
    0.333333333333    0.027777777778    0.000000000000      12
    0.347222222222    0.027777777778    0.000000000000      12
    0.361111111111    0.027777777778    0.000000000000      12
    0.375000000000    0.027777777778    0.000000000000      12
    0.388888888889    0.027777777778    0.000000000000      12
    0.402777777778    0.027777777778    0.000000000000      12
    0.416666666667    0.027777777778    0.000000000000      12
    0.430555555556    0.027777777778    0.000000000000      12
    0.444444444444    0.027777777778    0.000000000000      12
    0.458333333333    0.027777777778    0.000000000000      12
    0.472222222222    0.027777777778    0.000000000000      12
    0.486111111111    0.027777777778    0.000000000000      12
    0.500000000000    0.027777777778    0.000000000000      12
   -0.486111111111    0.027777777778    0.000000000000       6
    0.083333333333    0.041666666667    0.000000000000       6
    0.097222222222    0.041666666667    0.000000000000      12
    0.111111111111    0.041666666667    0.000000000000      12
    0.125000000000    0.041666666667    0.000000000000      12
    0.138888888889    0.041666666667    0.000000000000      12
    0.152777777778    0.041666666667    0.000000000000      12
    0.166666666667    0.041666666667    0.000000000000      12
    0.180555555556    0.041666666667    0.000000000000      12
    0.194444444444    0.041666666667    0.000000000000      12
    0.208333333333    0.041666666667    0.000000000000      12
    0.222222222222    0.041666666667    0.000000000000      12
    0.236111111111    0.041666666667    0.000000000000      12
    0.250000000000    0.041666666667    0.000000000000      12
    0.263888888889    0.041666666667    0.000000000000      12
    0.277777777778    0.041666666667    0.000000000000      12
    0.291666666667    0.041666666667    0.000000000000      12
    0.305555555556    0.041666666667    0.000000000000      12
    0.319444444444    0.041666666667    0.000000000000      12
    0.333333333333    0.041666666667    0.000000000000      12
    0.347222222222    0.041666666667    0.000000000000      12
    0.361111111111    0.041666666667    0.000000000000      12
    0.375000000000    0.041666666667    0.000000000000      12
    0.388888888889    0.041666666667    0.000000000000      12
    0.402777777778    0.041666666667    0.000000000000      12
    0.416666666667    0.041666666667    0.000000000000      12
    0.430555555556    0.041666666667    0.000000000000      12
    0.444444444444    0.041666666667    0.000000000000      12
    0.458333333333    0.041666666667    0.000000000000      12
    0.472222222222    0.041666666667    0.000000000000      12
    0.486111111111    0.041666666667    0.000000000000      12
    0.500000000000    0.041666666667    0.000000000000      12
   -0.486111111111    0.041666666667    0.000000000000      12
    0.111111111111    0.055555555556    0.000000000000       6
    0.125000000000    0.055555555556    0.000000000000      12
    0.138888888889    0.055555555556    0.000000000000      12
    0.152777777778    0.055555555556    0.000000000000      12
    0.166666666667    0.055555555556    0.000000000000      12
    0.180555555556    0.055555555556    0.000000000000      12
    0.194444444444    0.055555555556    0.000000000000      12
    0.208333333333    0.055555555556    0.000000000000      12
    0.222222222222    0.055555555556    0.000000000000      12
    0.236111111111    0.055555555556    0.000000000000      12
    0.250000000000    0.055555555556    0.000000000000      12
    0.263888888889    0.055555555556    0.000000000000      12
    0.277777777778    0.055555555556    0.000000000000      12
    0.291666666667    0.055555555556    0.000000000000      12
    0.305555555556    0.055555555556    0.000000000000      12
    0.319444444444    0.055555555556    0.000000000000      12
    0.333333333333    0.055555555556    0.000000000000      12
    0.347222222222    0.055555555556    0.000000000000      12
    0.361111111111    0.055555555556    0.000000000000      12
    0.375000000000    0.055555555556    0.000000000000      12
    0.388888888889    0.055555555556    0.000000000000      12
    0.402777777778    0.055555555556    0.000000000000      12
    0.416666666667    0.055555555556    0.000000000000      12
    0.430555555556    0.055555555556    0.000000000000      12
    0.444444444444    0.055555555556    0.000000000000      12
    0.458333333333    0.055555555556    0.000000000000      12
    0.472222222222    0.055555555556    0.000000000000      12
    0.486111111111    0.055555555556    0.000000000000      12
    0.500000000000    0.055555555556    0.000000000000      12
   -0.486111111111    0.055555555556    0.000000000000      12
   -0.472222222222    0.055555555556    0.000000000000       6
    0.138888888889    0.069444444444    0.000000000000       6
    0.152777777778    0.069444444444    0.000000000000      12
    0.166666666667    0.069444444444    0.000000000000      12
    0.180555555556    0.069444444444    0.000000000000      12
    0.194444444444    0.069444444444    0.000000000000      12
    0.208333333333    0.069444444444    0.000000000000      12
    0.222222222222    0.069444444444    0.000000000000      12
    0.236111111111    0.069444444444    0.000000000000      12
    0.250000000000    0.069444444444    0.000000000000      12
    0.263888888889    0.069444444444    0.000000000000      12
    0.277777777778    0.069444444444    0.000000000000      12
    0.291666666667    0.069444444444    0.000000000000      12
    0.305555555556    0.069444444444    0.000000000000      12
    0.319444444444    0.069444444444    0.000000000000      12
    0.333333333333    0.069444444444    0.000000000000      12
    0.347222222222    0.069444444444    0.000000000000      12
    0.361111111111    0.069444444444    0.000000000000      12
    0.375000000000    0.069444444444    0.000000000000      12
    0.388888888889    0.069444444444    0.000000000000      12
    0.402777777778    0.069444444444    0.000000000000      12
    0.416666666667    0.069444444444    0.000000000000      12
    0.430555555556    0.069444444444    0.000000000000      12
    0.444444444444    0.069444444444    0.000000000000      12
    0.458333333333    0.069444444444    0.000000000000      12
    0.472222222222    0.069444444444    0.000000000000      12
    0.486111111111    0.069444444444    0.000000000000      12
    0.500000000000    0.069444444444    0.000000000000      12
   -0.486111111111    0.069444444444    0.000000000000      12
   -0.472222222222    0.069444444444    0.000000000000      12
    0.166666666667    0.083333333333    0.000000000000       6
    0.180555555556    0.083333333333    0.000000000000      12
    0.194444444444    0.083333333333    0.000000000000      12
    0.208333333333    0.083333333333    0.000000000000      12
    0.222222222222    0.083333333333    0.000000000000      12
    0.236111111111    0.083333333333    0.000000000000      12
    0.250000000000    0.083333333333    0.000000000000      12
    0.263888888889    0.083333333333    0.000000000000      12
    0.277777777778    0.083333333333    0.000000000000      12
    0.291666666667    0.083333333333    0.000000000000      12
    0.305555555556    0.083333333333    0.000000000000      12
    0.319444444444    0.083333333333    0.000000000000      12
    0.333333333333    0.083333333333    0.000000000000      12
    0.347222222222    0.083333333333    0.000000000000      12
    0.361111111111    0.083333333333    0.000000000000      12
    0.375000000000    0.083333333333    0.000000000000      12
    0.388888888889    0.083333333333    0.000000000000      12
    0.402777777778    0.083333333333    0.000000000000      12
    0.416666666667    0.083333333333    0.000000000000      12
    0.430555555556    0.083333333333    0.000000000000      12
    0.444444444444    0.083333333333    0.000000000000      12
    0.458333333333    0.083333333333    0.000000000000      12
    0.472222222222    0.083333333333    0.000000000000      12
    0.486111111111    0.083333333333    0.000000000000      12
    0.500000000000    0.083333333333    0.000000000000      12
   -0.486111111111    0.083333333333    0.000000000000      12
   -0.472222222222    0.083333333333    0.000000000000      12
   -0.458333333333    0.083333333333    0.000000000000       6
    0.194444444444    0.097222222222    0.000000000000       6
    0.208333333333    0.097222222222    0.000000000000      12
    0.222222222222    0.097222222222    0.000000000000      12
    0.236111111111    0.097222222222    0.000000000000      12
    0.250000000000    0.097222222222    0.000000000000      12
    0.263888888889    0.097222222222    0.000000000000      12
    0.277777777778    0.097222222222    0.000000000000      12
    0.291666666667    0.097222222222    0.000000000000      12
    0.305555555556    0.097222222222    0.000000000000      12
    0.319444444444    0.097222222222    0.000000000000      12
    0.333333333333    0.097222222222    0.000000000000      12
    0.347222222222    0.097222222222    0.000000000000      12
    0.361111111111    0.097222222222    0.000000000000      12
    0.375000000000    0.097222222222    0.000000000000      12
    0.388888888889    0.097222222222    0.000000000000      12
    0.402777777778    0.097222222222    0.000000000000      12
    0.416666666667    0.097222222222    0.000000000000      12
    0.430555555556    0.097222222222    0.000000000000      12
    0.444444444444    0.097222222222    0.000000000000      12
    0.458333333333    0.097222222222    0.000000000000      12
    0.472222222222    0.097222222222    0.000000000000      12
    0.486111111111    0.097222222222    0.000000000000      12
    0.500000000000    0.097222222222    0.000000000000      12
   -0.486111111111    0.097222222222    0.000000000000      12
   -0.472222222222    0.097222222222    0.000000000000      12
   -0.458333333333    0.097222222222    0.000000000000      12
    0.222222222222    0.111111111111    0.000000000000       6
    0.236111111111    0.111111111111    0.000000000000      12
    0.250000000000    0.111111111111    0.000000000000      12
    0.263888888889    0.111111111111    0.000000000000      12
    0.277777777778    0.111111111111    0.000000000000      12
    0.291666666667    0.111111111111    0.000000000000      12
    0.305555555556    0.111111111111    0.000000000000      12
    0.319444444444    0.111111111111    0.000000000000      12
    0.333333333333    0.111111111111    0.000000000000      12
    0.347222222222    0.111111111111    0.000000000000      12
    0.361111111111    0.111111111111    0.000000000000      12
    0.375000000000    0.111111111111    0.000000000000      12
    0.388888888889    0.111111111111    0.000000000000      12
    0.402777777778    0.111111111111    0.000000000000      12
    0.416666666667    0.111111111111    0.000000000000      12
    0.430555555556    0.111111111111    0.000000000000      12
    0.444444444444    0.111111111111    0.000000000000      12
    0.458333333333    0.111111111111    0.000000000000      12
    0.472222222222    0.111111111111    0.000000000000      12
    0.486111111111    0.111111111111    0.000000000000      12
    0.500000000000    0.111111111111    0.000000000000      12
   -0.486111111111    0.111111111111    0.000000000000      12
   -0.472222222222    0.111111111111    0.000000000000      12
   -0.458333333333    0.111111111111    0.000000000000      12
   -0.444444444444    0.111111111111    0.000000000000       6
    0.250000000000    0.125000000000    0.000000000000       6
    0.263888888889    0.125000000000    0.000000000000      12
    0.277777777778    0.125000000000    0.000000000000      12
    0.291666666667    0.125000000000    0.000000000000      12
    0.305555555556    0.125000000000    0.000000000000      12
    0.319444444444    0.125000000000    0.000000000000      12
    0.333333333333    0.125000000000    0.000000000000      12
    0.347222222222    0.125000000000    0.000000000000      12
    0.361111111111    0.125000000000    0.000000000000      12
    0.375000000000    0.125000000000    0.000000000000      12
    0.388888888889    0.125000000000    0.000000000000      12
    0.402777777778    0.125000000000    0.000000000000      12
    0.416666666667    0.125000000000    0.000000000000      12
    0.430555555556    0.125000000000    0.000000000000      12
    0.444444444444    0.125000000000    0.000000000000      12
    0.458333333333    0.125000000000    0.000000000000      12
    0.472222222222    0.125000000000    0.000000000000      12
    0.486111111111    0.125000000000    0.000000000000      12
    0.500000000000    0.125000000000    0.000000000000      12
   -0.486111111111    0.125000000000    0.000000000000      12
   -0.472222222222    0.125000000000    0.000000000000      12
   -0.458333333333    0.125000000000    0.000000000000      12
   -0.444444444444    0.125000000000    0.000000000000      12
    0.277777777778    0.138888888889    0.000000000000       6
    0.291666666667    0.138888888889    0.000000000000      12
    0.305555555556    0.138888888889    0.000000000000      12
    0.319444444444    0.138888888889    0.000000000000      12
    0.333333333333    0.138888888889    0.000000000000      12
    0.347222222222    0.138888888889    0.000000000000      12
    0.361111111111    0.138888888889    0.000000000000      12
    0.375000000000    0.138888888889    0.000000000000      12
    0.388888888889    0.138888888889    0.000000000000      12
    0.402777777778    0.138888888889    0.000000000000      12
    0.416666666667    0.138888888889    0.000000000000      12
    0.430555555556    0.138888888889    0.000000000000      12
    0.444444444444    0.138888888889    0.000000000000      12
    0.458333333333    0.138888888889    0.000000000000      12
    0.472222222222    0.138888888889    0.000000000000      12
    0.486111111111    0.138888888889    0.000000000000      12
    0.500000000000    0.138888888889    0.000000000000      12
   -0.486111111111    0.138888888889    0.000000000000      12
   -0.472222222222    0.138888888889    0.000000000000      12
   -0.458333333333    0.138888888889    0.000000000000      12
   -0.444444444444    0.138888888889    0.000000000000      12
   -0.430555555556    0.138888888889    0.000000000000       6
    0.305555555556    0.152777777778    0.000000000000       6
    0.319444444444    0.152777777778    0.000000000000      12
    0.333333333333    0.152777777778    0.000000000000      12
    0.347222222222    0.152777777778    0.000000000000      12
    0.361111111111    0.152777777778    0.000000000000      12
    0.375000000000    0.152777777778    0.000000000000      12
    0.388888888889    0.152777777778    0.000000000000      12
    0.402777777778    0.152777777778    0.000000000000      12
    0.416666666667    0.152777777778    0.000000000000      12
    0.430555555556    0.152777777778    0.000000000000      12
    0.444444444444    0.152777777778    0.000000000000      12
    0.458333333333    0.152777777778    0.000000000000      12
    0.472222222222    0.152777777778    0.000000000000      12
    0.486111111111    0.152777777778    0.000000000000      12
    0.500000000000    0.152777777778    0.000000000000      12
   -0.486111111111    0.152777777778    0.000000000000      12
   -0.472222222222    0.152777777778    0.000000000000      12
   -0.458333333333    0.152777777778    0.000000000000      12
   -0.444444444444    0.152777777778    0.000000000000      12
   -0.430555555556    0.152777777778    0.000000000000      12
    0.333333333333    0.166666666667    0.000000000000       6
    0.347222222222    0.166666666667    0.000000000000      12
    0.361111111111    0.166666666667    0.000000000000      12
    0.375000000000    0.166666666667    0.000000000000      12
    0.388888888889    0.166666666667    0.000000000000      12
    0.402777777778    0.166666666667    0.000000000000      12
    0.416666666667    0.166666666667    0.000000000000      12
    0.430555555556    0.166666666667    0.000000000000      12
    0.444444444444    0.166666666667    0.000000000000      12
    0.458333333333    0.166666666667    0.000000000000      12
    0.472222222222    0.166666666667    0.000000000000      12
    0.486111111111    0.166666666667    0.000000000000      12
    0.500000000000    0.166666666667    0.000000000000      12
   -0.486111111111    0.166666666667    0.000000000000      12
   -0.472222222222    0.166666666667    0.000000000000      12
   -0.458333333333    0.166666666667    0.000000000000      12
   -0.444444444444    0.166666666667    0.000000000000      12
   -0.430555555556    0.166666666667    0.000000000000      12
   -0.416666666667    0.166666666667    0.000000000000       6
    0.361111111111    0.180555555556    0.000000000000       6
    0.375000000000    0.180555555556    0.000000000000      12
    0.388888888889    0.180555555556    0.000000000000      12
    0.402777777778    0.180555555556    0.000000000000      12
    0.416666666667    0.180555555556    0.000000000000      12
    0.430555555556    0.180555555556    0.000000000000      12
    0.444444444444    0.180555555556    0.000000000000      12
    0.458333333333    0.180555555556    0.000000000000      12
    0.472222222222    0.180555555556    0.000000000000      12
    0.486111111111    0.180555555556    0.000000000000      12
    0.500000000000    0.180555555556    0.000000000000      12
   -0.486111111111    0.180555555556    0.000000000000      12
   -0.472222222222    0.180555555556    0.000000000000      12
   -0.458333333333    0.180555555556    0.000000000000      12
   -0.444444444444    0.180555555556    0.000000000000      12
   -0.430555555556    0.180555555556    0.000000000000      12
   -0.416666666667    0.180555555556    0.000000000000      12
    0.388888888889    0.194444444444    0.000000000000       6
    0.402777777778    0.194444444444    0.000000000000      12
    0.416666666667    0.194444444444    0.000000000000      12
    0.430555555556    0.194444444444    0.000000000000      12
    0.444444444444    0.194444444444    0.000000000000      12
    0.458333333333    0.194444444444    0.000000000000      12
    0.472222222222    0.194444444444    0.000000000000      12
    0.486111111111    0.194444444444    0.000000000000      12
    0.500000000000    0.194444444444    0.000000000000      12
   -0.486111111111    0.194444444444    0.000000000000      12
   -0.472222222222    0.194444444444    0.000000000000      12
   -0.458333333333    0.194444444444    0.000000000000      12
   -0.444444444444    0.194444444444    0.000000000000      12
   -0.430555555556    0.194444444444    0.000000000000      12
   -0.416666666667    0.194444444444    0.000000000000      12
   -0.402777777778    0.194444444444    0.000000000000       6
    0.416666666667    0.208333333333    0.000000000000       6
    0.430555555556    0.208333333333    0.000000000000      12
    0.444444444444    0.208333333333    0.000000000000      12
    0.458333333333    0.208333333333    0.000000000000      12
    0.472222222222    0.208333333333    0.000000000000      12
    0.486111111111    0.208333333333    0.000000000000      12
    0.500000000000    0.208333333333    0.000000000000      12
   -0.486111111111    0.208333333333    0.000000000000      12
   -0.472222222222    0.208333333333    0.000000000000      12
   -0.458333333333    0.208333333333    0.000000000000      12
   -0.444444444444    0.208333333333    0.000000000000      12
   -0.430555555556    0.208333333333    0.000000000000      12
   -0.416666666667    0.208333333333    0.000000000000      12
   -0.402777777778    0.208333333333    0.000000000000      12
    0.444444444444    0.222222222222    0.000000000000       6
    0.458333333333    0.222222222222    0.000000000000      12
    0.472222222222    0.222222222222    0.000000000000      12
    0.486111111111    0.222222222222    0.000000000000      12
    0.500000000000    0.222222222222    0.000000000000      12
   -0.486111111111    0.222222222222    0.000000000000      12
   -0.472222222222    0.222222222222    0.000000000000      12
   -0.458333333333    0.222222222222    0.000000000000      12
   -0.444444444444    0.222222222222    0.000000000000      12
   -0.430555555556    0.222222222222    0.000000000000      12
   -0.416666666667    0.222222222222    0.000000000000      12
   -0.402777777778    0.222222222222    0.000000000000      12
   -0.388888888889    0.222222222222    0.000000000000       6
    0.472222222222    0.236111111111    0.000000000000       6
    0.486111111111    0.236111111111    0.000000000000      12
    0.500000000000    0.236111111111    0.000000000000      12
   -0.486111111111    0.236111111111    0.000000000000      12
   -0.472222222222    0.236111111111    0.000000000000      12
   -0.458333333333    0.236111111111    0.000000000000      12
   -0.444444444444    0.236111111111    0.000000000000      12
   -0.430555555556    0.236111111111    0.000000000000      12
   -0.416666666667    0.236111111111    0.000000000000      12
   -0.402777777778    0.236111111111    0.000000000000      12
   -0.388888888889    0.236111111111    0.000000000000      12
    0.500000000000    0.250000000000    0.000000000000       6
   -0.486111111111    0.250000000000    0.000000000000      12
   -0.472222222222    0.250000000000    0.000000000000      12
   -0.458333333333    0.250000000000    0.000000000000      12
   -0.444444444444    0.250000000000    0.000000000000      12
   -0.430555555556    0.250000000000    0.000000000000      12
   -0.416666666667    0.250000000000    0.000000000000      12
   -0.402777777778    0.250000000000    0.000000000000      12
   -0.388888888889    0.250000000000    0.000000000000      12
   -0.375000000000    0.250000000000    0.000000000000       6
   -0.472222222222    0.263888888889    0.000000000000       6
   -0.458333333333    0.263888888889    0.000000000000      12
   -0.444444444444    0.263888888889    0.000000000000      12
   -0.430555555556    0.263888888889    0.000000000000      12
   -0.416666666667    0.263888888889    0.000000000000      12
   -0.402777777778    0.263888888889    0.000000000000      12
   -0.388888888889    0.263888888889    0.000000000000      12
   -0.375000000000    0.263888888889    0.000000000000      12
   -0.444444444444    0.277777777778    0.000000000000       6
   -0.430555555556    0.277777777778    0.000000000000      12
   -0.416666666667    0.277777777778    0.000000000000      12
   -0.402777777778    0.277777777778    0.000000000000      12
   -0.388888888889    0.277777777778    0.000000000000      12
   -0.375000000000    0.277777777778    0.000000000000      12
   -0.361111111111    0.277777777778    0.000000000000       6
   -0.416666666667    0.291666666667    0.000000000000       6
   -0.402777777778    0.291666666667    0.000000000000      12
   -0.388888888889    0.291666666667    0.000000000000      12
   -0.375000000000    0.291666666667    0.000000000000      12
   -0.361111111111    0.291666666667    0.000000000000      12
   -0.388888888889    0.305555555556    0.000000000000       6
   -0.375000000000    0.305555555556    0.000000000000      12
   -0.361111111111    0.305555555556    0.000000000000      12
   -0.347222222222    0.305555555556    0.000000000000       6
   -0.361111111111    0.319444444444    0.000000000000       6
   -0.347222222222    0.319444444444    0.000000000000      12
   -0.333333333333    0.333333333333    0.000000000000       2
