CONTCAR\(3)                             
   1.00000000000000     
    13.7056999207000008    0.0000000000000000    0.0000000000000000
     4.1214080124999999   12.9276297616000004    0.0000000000000000
     0.0000000000000000    0.0000000000000000   18.6212005615000002
   Bi   Rh   S    O    H 
    16    24    16     2     1
Direct
  0.1960331434354208  0.1954144983057136  0.5841259958428584
  0.4410948597066506  0.4468333623174071  0.6034316388585671
  0.0799465662685296  0.0814188759930720  0.4081550192349979
  0.3324311664214789  0.3363544839276077  0.4129388586177553
  0.6923692370444330  0.2004165818571546  0.5847977105583373
  0.9453468396545067  0.4462693303433956  0.5946773460951841
  0.5789024931506487  0.0798965953435441  0.4095899669080451
  0.8343711503671762  0.3347978396853604  0.4112979604933924
  0.2064780281888796  0.6899172935015634  0.5957955768012717
  0.4426504171077660  0.9458470595556974  0.5953083659368588
  0.0829518797793793  0.5818209620450961  0.4093842103478793
  0.3339172034605936  0.8334597631977636  0.4091404841650882
  0.6950302938058258  0.6988186413601170  0.5843838942830792
  0.9456117242844133  0.9454561104532294  0.5934514764672728
  0.5792188062627311  0.5793948352717900  0.4105715235202013
  0.8324550076944871  0.8367552426891370  0.4094945760220586
  0.0124480332994602  0.2598861770100152  0.4957382912885374
  0.4103363795700208  0.1087305840422128  0.5021624507074410
  0.1090804783880027  0.4122112706878012  0.5017493091305256
  0.2583987767563456  0.0121681587213239  0.4946265361642465
  0.3222681065826288  0.3216131776365995  0.5596492124782092
  0.2105571956636257  0.2120192038863886  0.4402137646463876
  0.5105117056691759  0.2584172707444605  0.4937051318650178
  0.9106993188965610  0.1102532163596431  0.5000778375521790
  0.6089306649205795  0.4107427308647342  0.5051684270269589
  0.7565486889207359  0.0147538039610993  0.4966651373983556
  0.8217915877358375  0.3212222777806491  0.5571366705489464
  0.7098168162151053  0.2138054301205817  0.4406343079501199
  0.0079598299161032  0.7632221093030098  0.4895229429870442
  0.4139629681477865  0.6065790183006113  0.5079063968507809
  0.1075373229932378  0.9135099551611929  0.5005449968238554
  0.2586168368018612  0.5134097787961549  0.5006301831020696
  0.3206947569144509  0.8203770384035702  0.5553535218312846
  0.2115736669768699  0.7123418219803737  0.4468479231572248
  0.5106171876366929  0.7596168585062972  0.4929906220359245
  0.9124061815404113  0.6097354055854745  0.5010488383832421
  0.6078981640031290  0.9114031265959871  0.5042222321764701
  0.7585646674811273  0.5135300702233474  0.4964420777663647
  0.8216487373993963  0.8211792846101715  0.5557653374304825
  0.7110540920732231  0.7127656599705049  0.4404530261215894
  0.4599970068843540  0.1895315036506647  0.5985027259478053
  0.1876074486782364  0.4562224635420241  0.6003876648580623
  0.0696520276907602  0.3374652838786860  0.3983418367433295
  0.3361930941155019  0.0706089584869376  0.3986878543498999
  0.9580144829618398  0.1893640210822914  0.5980541486304372
  0.6925595182996324  0.4584588936568597  0.6005709952329361
  0.5688063537773350  0.3402306057159180  0.4004905714180734
  0.8332518150604198  0.0712486101721566  0.3984724198535335
  0.4614365817215043  0.6957120472886967  0.5993929665390705
  0.1895560814527218  0.9569204326918318  0.5979179030408937
  0.0758778110464245  0.8356204231639387  0.3966821544653722
  0.3372567265465345  0.5712647540741858  0.4046438055441994
  0.9627114553926177  0.6934877538990173  0.5955987103704261
  0.6915121536847810  0.9574784829856948  0.5998360652505640
  0.5709552422795179  0.8387181441297826  0.3984658216428449
  0.8358848343510937  0.5709733570602763  0.3991793254534793
  0.3323127894762133  0.5896669146478202  0.6778455599606681
  0.2826120226069578  0.5675543068719756  0.7432014227853624
  0.3125120588382761  0.6030677089013712  0.7788385143369123
 
  0.00000000E+00  0.00000000E+00  0.00000000E+00
  0.00000000E+00  0.00000000E+00  0.00000000E+00
  0.00000000E+00  0.00000000E+00  0.00000000E+00
  0.00000000E+00  0.00000000E+00  0.00000000E+00
  0.00000000E+00  0.00000000E+00  0.00000000E+00
  0.00000000E+00  0.00000000E+00  0.00000000E+00
  0.00000000E+00  0.00000000E+00  0.00000000E+00
  0.00000000E+00  0.00000000E+00  0.00000000E+00
  0.00000000E+00  0.00000000E+00  0.00000000E+00
  0.00000000E+00  0.00000000E+00  0.00000000E+00
  0.00000000E+00  0.00000000E+00  0.00000000E+00
  0.00000000E+00  0.00000000E+00  0.00000000E+00
  0.00000000E+00  0.00000000E+00  0.00000000E+00
  0.00000000E+00  0.00000000E+00  0.00000000E+00
  0.00000000E+00  0.00000000E+00  0.00000000E+00
  0.00000000E+00  0.00000000E+00  0.00000000E+00
  0.00000000E+00  0.00000000E+00  0.00000000E+00
  0.00000000E+00  0.00000000E+00  0.00000000E+00
  0.00000000E+00  0.00000000E+00  0.00000000E+00
  0.00000000E+00  0.00000000E+00  0.00000000E+00
  0.00000000E+00  0.00000000E+00  0.00000000E+00
  0.00000000E+00  0.00000000E+00  0.00000000E+00
  0.00000000E+00  0.00000000E+00  0.00000000E+00
  0.00000000E+00  0.00000000E+00  0.00000000E+00
  0.00000000E+00  0.00000000E+00  0.00000000E+00
  0.00000000E+00  0.00000000E+00  0.00000000E+00
  0.00000000E+00  0.00000000E+00  0.00000000E+00
  0.00000000E+00  0.00000000E+00  0.00000000E+00
  0.00000000E+00  0.00000000E+00  0.00000000E+00
  0.00000000E+00  0.00000000E+00  0.00000000E+00
  0.00000000E+00  0.00000000E+00  0.00000000E+00
  0.00000000E+00  0.00000000E+00  0.00000000E+00
  0.00000000E+00  0.00000000E+00  0.00000000E+00
  0.00000000E+00  0.00000000E+00  0.00000000E+00
  0.00000000E+00  0.00000000E+00  0.00000000E+00
  0.00000000E+00  0.00000000E+00  0.00000000E+00
  0.00000000E+00  0.00000000E+00  0.00000000E+00
  0.00000000E+00  0.00000000E+00  0.00000000E+00
  0.00000000E+00  0.00000000E+00  0.00000000E+00
  0.00000000E+00  0.00000000E+00  0.00000000E+00
  0.00000000E+00  0.00000000E+00  0.00000000E+00
  0.00000000E+00  0.00000000E+00  0.00000000E+00
  0.00000000E+00  0.00000000E+00  0.00000000E+00
  0.00000000E+00  0.00000000E+00  0.00000000E+00
  0.00000000E+00  0.00000000E+00  0.00000000E+00
  0.00000000E+00  0.00000000E+00  0.00000000E+00
  0.00000000E+00  0.00000000E+00  0.00000000E+00
  0.00000000E+00  0.00000000E+00  0.00000000E+00
  0.00000000E+00  0.00000000E+00  0.00000000E+00
  0.00000000E+00  0.00000000E+00  0.00000000E+00
  0.00000000E+00  0.00000000E+00  0.00000000E+00
  0.00000000E+00  0.00000000E+00  0.00000000E+00
  0.00000000E+00  0.00000000E+00  0.00000000E+00
  0.00000000E+00  0.00000000E+00  0.00000000E+00
  0.00000000E+00  0.00000000E+00  0.00000000E+00
  0.00000000E+00  0.00000000E+00  0.00000000E+00
  0.00000000E+00  0.00000000E+00  0.00000000E+00
  0.00000000E+00  0.00000000E+00  0.00000000E+00
  0.00000000E+00  0.00000000E+00  0.00000000E+00
