CONTCAR\(8)                             
   1.00000000000000     
    10.9576997757000001    0.0000000000000000    0.0000000000000000
     0.0000000000000000   18.6480007171999986    0.0000000000000000
     0.0000000000000000    0.0000000000000000   19.2721004485999998
   Ta   Te   Pd
    12    30    18
Direct
  0.0000000000000000  0.9155941051719125  0.5001573447369125
  0.1666699989999998  0.4155940291719133  0.4998426552630875
  0.0000000000000000  0.1676040160597765  0.4962937732360402
  0.1666699989999998  0.6676040030597790  0.5037062267639598
  0.3333300119999976  0.9155941051719125  0.5001573447369125
  0.5000000000000000  0.4155940291719133  0.4998426552630875
  0.3333300119999976  0.1676040160597765  0.4962937732360402
  0.5000000000000000  0.6676040030597790  0.5037062267639598
  0.6666700319999990  0.9155941051719125  0.5001573447369125
  0.8333300119999976  0.4155940291719133  0.4998426552630875
  0.6666700319999990  0.1676040160597765  0.4962937732360402
  0.8333300119999976  0.6676040030597790  0.5037062267639598
  0.0000000000000000  0.7181581303511138  0.6078012419356824
  0.1666699989999998  0.8635466612360929  0.3968837157927254
  0.1666699989999998  0.2181481073511122  0.3921987330643191
  0.0000000000000000  0.3635466102360922  0.6031163092072731
  0.0000000000000000  0.6465703847153819  0.3911378803439476
  0.1666699989999998  0.1465603867153789  0.6088521236560567
  0.1666699989999998  0.5403128221897191  0.5840567789137481
  0.0000000000000000  0.0403028561897187  0.4159332250862562
  0.0000000000000000  0.4389198484736454  0.3881094817577875
  0.1666699989999998  0.9389098754736409  0.6119005392422139
  0.3333300119999976  0.7181581303511138  0.6078012419356824
  0.5000000000000000  0.8635466612360929  0.3968837157927254
  0.5000000000000000  0.2181481073511122  0.3921987330643191
  0.3333300119999976  0.3635466102360922  0.6031163092072731
  0.3333300119999976  0.6465703847153819  0.3911378803439476
  0.5000000000000000  0.1465603867153789  0.6088521236560567
  0.5000000000000000  0.5403128221897191  0.5840567789137481
  0.3333300119999976  0.0403028561897187  0.4159332250862562
  0.3333300119999976  0.4389198484736454  0.3881094817577875
  0.5000000000000000  0.9389098754736409  0.6119005392422139
  0.6666700319999990  0.7181581303511138  0.6078012419356824
  0.8333300119999976  0.8635466612360929  0.3968837157927254
  0.8333300119999976  0.2181481073511122  0.3921987330643191
  0.6666700319999990  0.3635466102360922  0.6031163092072731
  0.6666700319999990  0.6465703847153819  0.3911378803439476
  0.8333300119999976  0.1465603867153789  0.6088521236560567
  0.8333300119999976  0.5403128221897191  0.5840567789137481
  0.6666700319999990  0.0403028561897187  0.4159332250862562
  0.6666700319999990  0.4389198484736454  0.3881094817577875
  0.8333300119999976  0.9389098754736409  0.6119005392422139
  0.0000000000000000  0.3101460892295123  0.4488284223069741
  0.0000000000000000  0.7731690252099668  0.4550100906643451
  0.1666699989999998  0.2731590522099694  0.5449899093356549
  0.1666699989999998  0.8101560612295131  0.5511615816930302
  0.0000000000000000  0.5415990083628799  0.4828794055518415
  0.1666699989999998  0.0415989763628772  0.5171205944481585
  0.3333300119999976  0.3101460892295123  0.4488284223069741
  0.3333300119999976  0.7731690252099668  0.4550100906643451
  0.5000000000000000  0.2731590522099694  0.5449899093356549
  0.5000000000000000  0.8101560612295131  0.5511615816930302
  0.3333300119999976  0.5415990083628799  0.4828794055518415
  0.5000000000000000  0.0415989763628772  0.5171205944481585
  0.6666700319999990  0.3101460892295123  0.4488284223069741
  0.6666700319999990  0.7731690252099668  0.4550100906643451
  0.8333300119999976  0.2731590522099694  0.5449899093356549
  0.8333300119999976  0.8101560612295131  0.5511615816930302
  0.6666700319999990  0.5415990083628799  0.4828794055518415
  0.8333300119999976  0.0415989763628772  0.5171205944481585
 
  0.00000000E+00  0.00000000E+00  0.00000000E+00
  0.00000000E+00  0.00000000E+00  0.00000000E+00
  0.00000000E+00  0.00000000E+00  0.00000000E+00
  0.00000000E+00  0.00000000E+00  0.00000000E+00
  0.00000000E+00  0.00000000E+00  0.00000000E+00
  0.00000000E+00  0.00000000E+00  0.00000000E+00
  0.00000000E+00  0.00000000E+00  0.00000000E+00
  0.00000000E+00  0.00000000E+00  0.00000000E+00
  0.00000000E+00  0.00000000E+00  0.00000000E+00
  0.00000000E+00  0.00000000E+00  0.00000000E+00
  0.00000000E+00  0.00000000E+00  0.00000000E+00
  0.00000000E+00  0.00000000E+00  0.00000000E+00
  0.00000000E+00  0.00000000E+00  0.00000000E+00
  0.00000000E+00  0.00000000E+00  0.00000000E+00
  0.00000000E+00  0.00000000E+00  0.00000000E+00
  0.00000000E+00  0.00000000E+00  0.00000000E+00
  0.00000000E+00  0.00000000E+00  0.00000000E+00
  0.00000000E+00  0.00000000E+00  0.00000000E+00
  0.00000000E+00  0.00000000E+00  0.00000000E+00
  0.00000000E+00  0.00000000E+00  0.00000000E+00
  0.00000000E+00  0.00000000E+00  0.00000000E+00
  0.00000000E+00  0.00000000E+00  0.00000000E+00
  0.00000000E+00  0.00000000E+00  0.00000000E+00
  0.00000000E+00  0.00000000E+00  0.00000000E+00
  0.00000000E+00  0.00000000E+00  0.00000000E+00
  0.00000000E+00  0.00000000E+00  0.00000000E+00
  0.00000000E+00  0.00000000E+00  0.00000000E+00
  0.00000000E+00  0.00000000E+00  0.00000000E+00
  0.00000000E+00  0.00000000E+00  0.00000000E+00
  0.00000000E+00  0.00000000E+00  0.00000000E+00
  0.00000000E+00  0.00000000E+00  0.00000000E+00
  0.00000000E+00  0.00000000E+00  0.00000000E+00
  0.00000000E+00  0.00000000E+00  0.00000000E+00
  0.00000000E+00  0.00000000E+00  0.00000000E+00
  0.00000000E+00  0.00000000E+00  0.00000000E+00
  0.00000000E+00  0.00000000E+00  0.00000000E+00
  0.00000000E+00  0.00000000E+00  0.00000000E+00
  0.00000000E+00  0.00000000E+00  0.00000000E+00
  0.00000000E+00  0.00000000E+00  0.00000000E+00
  0.00000000E+00  0.00000000E+00  0.00000000E+00
  0.00000000E+00  0.00000000E+00  0.00000000E+00
  0.00000000E+00  0.00000000E+00  0.00000000E+00
  0.00000000E+00  0.00000000E+00  0.00000000E+00
  0.00000000E+00  0.00000000E+00  0.00000000E+00
  0.00000000E+00  0.00000000E+00  0.00000000E+00
  0.00000000E+00  0.00000000E+00  0.00000000E+00
  0.00000000E+00  0.00000000E+00  0.00000000E+00
  0.00000000E+00  0.00000000E+00  0.00000000E+00
  0.00000000E+00  0.00000000E+00  0.00000000E+00
  0.00000000E+00  0.00000000E+00  0.00000000E+00
  0.00000000E+00  0.00000000E+00  0.00000000E+00
  0.00000000E+00  0.00000000E+00  0.00000000E+00
  0.00000000E+00  0.00000000E+00  0.00000000E+00
  0.00000000E+00  0.00000000E+00  0.00000000E+00
  0.00000000E+00  0.00000000E+00  0.00000000E+00
  0.00000000E+00  0.00000000E+00  0.00000000E+00
  0.00000000E+00  0.00000000E+00  0.00000000E+00
  0.00000000E+00  0.00000000E+00  0.00000000E+00
  0.00000000E+00  0.00000000E+00  0.00000000E+00
  0.00000000E+00  0.00000000E+00  0.00000000E+00
