 CONTCAR                                
   1.00000000000000     
     3.0043425215251514    0.0000000000000000    0.0000000000000000
    -1.5021712607625757    2.6020772830432186    0.0000000000000000
     0.0000000000000000    0.0000000000000000   22.2564010599999982
   C    Ti   O 
     2     3     2
Direct
  0.6696630080982209  0.3356360951075165  0.5564838473960835
  0.3366958474837781  0.6691318044695510  0.4434994885515946
  0.0032453127731593  0.0024833692532454  0.4999919781872829
  0.3358550181367687  0.6687546466180209  0.6155011159424613
  0.6705354647029943  0.3359523346409237  0.3844779144008593
  0.0030539046643192  0.0022935578497075  0.6570580743754734
  0.0032514471407650  0.0023882450610384  0.3429155295150879
 
  0.00000000E+00  0.00000000E+00  0.00000000E+00
  0.00000000E+00  0.00000000E+00  0.00000000E+00
  0.00000000E+00  0.00000000E+00  0.00000000E+00
  0.00000000E+00  0.00000000E+00  0.00000000E+00
  0.00000000E+00  0.00000000E+00  0.00000000E+00
  0.00000000E+00  0.00000000E+00  0.00000000E+00
  0.00000000E+00  0.00000000E+00  0.00000000E+00
