CONTCAR\(3)                             
   1.00000000000000     
    11.8264999389999996    0.0000000000000000    0.0000000000000000
    -5.9132499694999998   10.2420493849999996    0.0000000000000000
     0.0000000000000000    0.0000000000000000   18.5140991210999992
   Hf   Te   O 
     9    18     1
Direct
  0.9962695687668172  0.9891840229408997  0.5034656845738597
  0.3284172732332206  0.9921938704936374  0.5055499087948577
  0.6620716054448527  0.0130331015794954  0.5003918029315644
  0.9912366288272784  0.3376484047309515  0.4957039850519265
  0.3209457789085738  0.3223777588690747  0.4995803360396979
  0.6579592969295529  0.3405399744229403  0.5012743556024076
  0.9892938279447011  0.6606910605203976  0.5007212503631862
  0.3256885465539583  0.6485615259655736  0.5075632750495351
  0.6333903688398289  0.6755352079845627  0.5222666012117269
  0.0968588149790523  0.2109504534305975  0.4065394977502039
  0.2164644078991056  0.1056809459232159  0.5994668022143212
  0.4347003877545775  0.2140819077485792  0.4059562557490554
  0.5479950541728709  0.1179490898589725  0.5986531272483734
  0.7684812095114867  0.2241664432593498  0.4040220091190317
  0.8985480889404281  0.1150713130820333  0.6074335093126320
  0.1019348878876664  0.5503244839458491  0.4026609689440089
  0.1962037226443505  0.4193171227132308  0.5993015043411596
  0.4364050961453671  0.5458278402021914  0.4043769240072502
  0.5402481052814785  0.4362722142172131  0.6018222279391443
  0.7614188606727362  0.5626656427979312  0.4121881899624962
  0.8803256108659311  0.4405648919302894  0.5971366026275379
  0.1059690590300075  0.8832750069050966  0.4062015905737356
  0.2169006032645625  0.7684072430292846  0.5989038935051277
  0.4375641954913096  0.8780097230065975  0.4115181403797598
  0.6604123103438243  0.8825408262711397  0.6295754580309116
  0.7639216285856452  0.8824541685512846  0.4149633377060996
  0.8876309396692738  0.7709749419616154  0.6004612775584104
  0.4774741564115512  0.6790208316579875  0.5611114834119866
 
  0.00000000E+00  0.00000000E+00  0.00000000E+00
  0.00000000E+00  0.00000000E+00  0.00000000E+00
  0.00000000E+00  0.00000000E+00  0.00000000E+00
  0.00000000E+00  0.00000000E+00  0.00000000E+00
  0.00000000E+00  0.00000000E+00  0.00000000E+00
  0.00000000E+00  0.00000000E+00  0.00000000E+00
  0.00000000E+00  0.00000000E+00  0.00000000E+00
  0.00000000E+00  0.00000000E+00  0.00000000E+00
  0.00000000E+00  0.00000000E+00  0.00000000E+00
  0.00000000E+00  0.00000000E+00  0.00000000E+00
  0.00000000E+00  0.00000000E+00  0.00000000E+00
  0.00000000E+00  0.00000000E+00  0.00000000E+00
  0.00000000E+00  0.00000000E+00  0.00000000E+00
  0.00000000E+00  0.00000000E+00  0.00000000E+00
  0.00000000E+00  0.00000000E+00  0.00000000E+00
  0.00000000E+00  0.00000000E+00  0.00000000E+00
  0.00000000E+00  0.00000000E+00  0.00000000E+00
  0.00000000E+00  0.00000000E+00  0.00000000E+00
  0.00000000E+00  0.00000000E+00  0.00000000E+00
  0.00000000E+00  0.00000000E+00  0.00000000E+00
  0.00000000E+00  0.00000000E+00  0.00000000E+00
  0.00000000E+00  0.00000000E+00  0.00000000E+00
  0.00000000E+00  0.00000000E+00  0.00000000E+00
  0.00000000E+00  0.00000000E+00  0.00000000E+00
  0.00000000E+00  0.00000000E+00  0.00000000E+00
  0.00000000E+00  0.00000000E+00  0.00000000E+00
  0.00000000E+00  0.00000000E+00  0.00000000E+00
  0.00000000E+00  0.00000000E+00  0.00000000E+00
