CONTCAR\(2)                             
   1.00000000000000     
    14.3248996734999992    0.0000000000000000    0.0000000000000000
    -7.1590188013000002   12.4195981305000007    0.0000000000000000
     0.0000000000000000    0.0000000000000000   17.6436004639000004
   Rb   O    H 
    24    13     1
Direct
  0.3348473357395036  0.3483526961377024  0.5725541969463279
  0.4976065649192947  0.3247748110432056  0.4199989135446032
  0.1714193463979541  0.1619167534281303  0.4201283959127053
  0.0139014896104399  0.1798690655363373  0.5747986081561152
  0.3341539726980542  0.9934004014865465  0.4276028957212645
  0.1820761297270508  0.5007038893564442  0.5727771515426170
  0.8350276483826207  0.3366321878152263  0.5825330341813526
  0.9954758513778685  0.3374471511649446  0.4205473031142688
  0.6678106564076458  0.1670910563309036  0.4292366280880415
  0.4984340973137620  0.1653856119089312  0.5821997867695572
  0.8410915454554271  0.0075785719660999  0.4274482820213734
  0.6548670970935433  0.5006417732390815  0.5745916386678260
  0.3346223380982991  0.8211638043522953  0.5751353963033594
  0.5101053837460583  0.8393612208742454  0.4202061606551410
  0.1587443196527829  0.6638768592723991  0.4205484410356206
  0.9991760492420099  0.6644828692068856  0.5826459883383848
  0.3345768303387686  0.5008481927003885  0.4049444383940326
  0.1703440898287951  0.0015798213943654  0.5824406078617770
  0.8337092842651330  0.8359692876900269  0.5822342169585255
  0.0013530049028745  0.8339298391072631  0.4292938967883231
  0.6735212150448788  0.6765981874061424  0.4200825130078201
  0.4872250771046112  0.6530554105911932  0.5726658847460868
  0.8276294509104503  0.5007458039048487  0.4275224948151575
  0.6692258263244000  0.9994461846846860  0.5824926257392633
  0.1659247764012974  0.3320957975359420  0.4791091410759094
  0.3344512906351866  0.1615832877290941  0.5016391110833638
  0.0041159075689450  0.0024045340379715  0.5050552934319512
  0.6647768698560128  0.3326786636072327  0.5052713856769202
  0.8359694441750847  0.1701536953440836  0.5058470227237137
  0.5021789646300761  0.9986287250384365  0.5053710819678372
  0.1665175739016718  0.8308966313694697  0.5060535054359434
  0.3345585217773959  0.6694894446600088  0.4791753683048654
  0.9954586529933636  0.5006068714481131  0.5018991144335132
  0.6734155081467819  0.8395912981978668  0.5017107199734383
  0.8327736337101612  0.6686141257715974  0.5054450950511722
  0.5033994001441400  0.5007086232755000  0.4786454860121268
  0.3352536613083217  0.5008101062663570  0.6765754248835947
  0.3340413171693228  0.5007676311200413  0.7317025526360652
 
  0.00000000E+00  0.00000000E+00  0.00000000E+00
  0.00000000E+00  0.00000000E+00  0.00000000E+00
  0.00000000E+00  0.00000000E+00  0.00000000E+00
  0.00000000E+00  0.00000000E+00  0.00000000E+00
  0.00000000E+00  0.00000000E+00  0.00000000E+00
  0.00000000E+00  0.00000000E+00  0.00000000E+00
  0.00000000E+00  0.00000000E+00  0.00000000E+00
  0.00000000E+00  0.00000000E+00  0.00000000E+00
  0.00000000E+00  0.00000000E+00  0.00000000E+00
  0.00000000E+00  0.00000000E+00  0.00000000E+00
  0.00000000E+00  0.00000000E+00  0.00000000E+00
  0.00000000E+00  0.00000000E+00  0.00000000E+00
  0.00000000E+00  0.00000000E+00  0.00000000E+00
  0.00000000E+00  0.00000000E+00  0.00000000E+00
  0.00000000E+00  0.00000000E+00  0.00000000E+00
  0.00000000E+00  0.00000000E+00  0.00000000E+00
  0.00000000E+00  0.00000000E+00  0.00000000E+00
  0.00000000E+00  0.00000000E+00  0.00000000E+00
  0.00000000E+00  0.00000000E+00  0.00000000E+00
  0.00000000E+00  0.00000000E+00  0.00000000E+00
  0.00000000E+00  0.00000000E+00  0.00000000E+00
  0.00000000E+00  0.00000000E+00  0.00000000E+00
  0.00000000E+00  0.00000000E+00  0.00000000E+00
  0.00000000E+00  0.00000000E+00  0.00000000E+00
  0.00000000E+00  0.00000000E+00  0.00000000E+00
  0.00000000E+00  0.00000000E+00  0.00000000E+00
  0.00000000E+00  0.00000000E+00  0.00000000E+00
  0.00000000E+00  0.00000000E+00  0.00000000E+00
  0.00000000E+00  0.00000000E+00  0.00000000E+00
  0.00000000E+00  0.00000000E+00  0.00000000E+00
  0.00000000E+00  0.00000000E+00  0.00000000E+00
  0.00000000E+00  0.00000000E+00  0.00000000E+00
  0.00000000E+00  0.00000000E+00  0.00000000E+00
  0.00000000E+00  0.00000000E+00  0.00000000E+00
  0.00000000E+00  0.00000000E+00  0.00000000E+00
  0.00000000E+00  0.00000000E+00  0.00000000E+00
  0.00000000E+00  0.00000000E+00  0.00000000E+00
  0.00000000E+00  0.00000000E+00  0.00000000E+00
