CONTCAR\(6)                             
   1.00000000000000     
    14.0796003342000002    0.0000000000000000    0.0000000000000000
    -7.0398001671000001   12.1932915645000008    0.0000000000000000
     0.0000000000000000    0.0000000000000000   18.0872001647999987
   Ti   Se   O    H 
    16    32     2     1
Direct
  0.9956553668587454  0.9997327090822352  0.4974923451552747
  0.2510106736200957  0.0021366944366286  0.4975614561454382
  0.4957757734298587  0.9996722970079595  0.4975649409185811
  0.7508265417302242  0.0018654288657515  0.4975506620337678
  0.0059062263328896  0.2548153674241031  0.4977894602159953
  0.2510308515628878  0.2471721186154353  0.4977926358780789
  0.5059236360729954  0.2549599680368548  0.4979293123073235
  0.7507389276567650  0.2469714029049726  0.4976526371827403
  0.9956872364330128  0.4997164864860326  0.4977949854514631
  0.2511242986492397  0.5019022094304214  0.4978857280428570
  0.4960706681185364  0.4997847054398826  0.4984260938578980
  0.7507987015905372  0.5021938173172771  0.4979375743578361
  0.0057839452078588  0.7548116335658377  0.4977277562372251
  0.2508264275281383  0.7468850864517969  0.4977091715822548
  0.5058102384985910  0.7544587845939277  0.4978715411144384
  0.7506189273598489  0.7465797729038200  0.4978258478531246
  0.0842979701991333  0.1680902177214423  0.4114045636550107
  0.1695621746044551  0.0854544998616913  0.5840473812975868
  0.3324168752923663  0.1672101513902835  0.4111321976284769
  0.4174753432724411  0.0826280421301802  0.5841657103067793
  0.5842140002456516  0.1681076566878895  0.4114266133979986
  0.6696236513771013  0.0854419902697386  0.5840430796359385
  0.8323601521748424  0.1671243893455469  0.4111360298817205
  0.9174191429937826  0.0826629045624237  0.5841065817425091
  0.0843226987530195  0.4162472369021807  0.4113536813631865
  0.1661525049306613  0.3338886683672542  0.5842672307215447
  0.3360161721431534  0.4192278657199161  0.4114219455238505
  0.4176502254577217  0.3345152855505427  0.5841297580532552
  0.5842608959109297  0.4163184513162187  0.4114355084562775
  0.6661485916312188  0.3338826133566501  0.5842737300776740
  0.8356622772962242  0.4190686482907401  0.4112478996137694
  0.9177227944770370  0.3347120342589093  0.5840608487806451
  0.0841460224696998  0.6678925822597949  0.4114733106158796
  0.1696894109861597  0.5856269478741479  0.5841922925763136
  0.3322852112187921  0.6669210316741395  0.4112204681386742
  0.4175603276875826  0.5829706024749707  0.5843626571047601
  0.5841256345648412  0.6677726434527161  0.4115436871533458
  0.6697395477107689  0.5856203901944781  0.5842808594475841
  0.8322878623339857  0.6669723613735704  0.4111519264098779
  0.9175319561153449  0.5828518103030985  0.5842865109070469
  0.0842701670105865  0.9162109376770124  0.4111528652234129
  0.1661531937620141  0.8340666704279178  0.5840130582098779
  0.3356654658253803  0.9189155060297108  0.4110597471219798
  0.4177760909390295  0.8348463136232623  0.5839848728146404
  0.5841521426259205  0.9159967188853823  0.4112530982094572
  0.6661891693644936  0.8339825408360452  0.5841915722065812
  0.8354988056923628  0.9187402274381598  0.4110223772172310
  0.9177849077180710  0.8348396472692157  0.5839554176270053
  0.5225038859521508  0.5055530704107306  0.7963411002301257
  0.4781401629599217  0.4863793369995956  0.7277520681426335
  0.4587365216529277  0.4725420265015418  0.8302563311730586
 
  0.00000000E+00  0.00000000E+00  0.00000000E+00
  0.00000000E+00  0.00000000E+00  0.00000000E+00
  0.00000000E+00  0.00000000E+00  0.00000000E+00
  0.00000000E+00  0.00000000E+00  0.00000000E+00
  0.00000000E+00  0.00000000E+00  0.00000000E+00
  0.00000000E+00  0.00000000E+00  0.00000000E+00
  0.00000000E+00  0.00000000E+00  0.00000000E+00
  0.00000000E+00  0.00000000E+00  0.00000000E+00
  0.00000000E+00  0.00000000E+00  0.00000000E+00
  0.00000000E+00  0.00000000E+00  0.00000000E+00
  0.00000000E+00  0.00000000E+00  0.00000000E+00
  0.00000000E+00  0.00000000E+00  0.00000000E+00
  0.00000000E+00  0.00000000E+00  0.00000000E+00
  0.00000000E+00  0.00000000E+00  0.00000000E+00
  0.00000000E+00  0.00000000E+00  0.00000000E+00
  0.00000000E+00  0.00000000E+00  0.00000000E+00
  0.00000000E+00  0.00000000E+00  0.00000000E+00
  0.00000000E+00  0.00000000E+00  0.00000000E+00
  0.00000000E+00  0.00000000E+00  0.00000000E+00
  0.00000000E+00  0.00000000E+00  0.00000000E+00
  0.00000000E+00  0.00000000E+00  0.00000000E+00
  0.00000000E+00  0.00000000E+00  0.00000000E+00
  0.00000000E+00  0.00000000E+00  0.00000000E+00
  0.00000000E+00  0.00000000E+00  0.00000000E+00
  0.00000000E+00  0.00000000E+00  0.00000000E+00
  0.00000000E+00  0.00000000E+00  0.00000000E+00
  0.00000000E+00  0.00000000E+00  0.00000000E+00
  0.00000000E+00  0.00000000E+00  0.00000000E+00
  0.00000000E+00  0.00000000E+00  0.00000000E+00
  0.00000000E+00  0.00000000E+00  0.00000000E+00
  0.00000000E+00  0.00000000E+00  0.00000000E+00
  0.00000000E+00  0.00000000E+00  0.00000000E+00
  0.00000000E+00  0.00000000E+00  0.00000000E+00
  0.00000000E+00  0.00000000E+00  0.00000000E+00
  0.00000000E+00  0.00000000E+00  0.00000000E+00
  0.00000000E+00  0.00000000E+00  0.00000000E+00
  0.00000000E+00  0.00000000E+00  0.00000000E+00
  0.00000000E+00  0.00000000E+00  0.00000000E+00
  0.00000000E+00  0.00000000E+00  0.00000000E+00
  0.00000000E+00  0.00000000E+00  0.00000000E+00
  0.00000000E+00  0.00000000E+00  0.00000000E+00
  0.00000000E+00  0.00000000E+00  0.00000000E+00
  0.00000000E+00  0.00000000E+00  0.00000000E+00
  0.00000000E+00  0.00000000E+00  0.00000000E+00
  0.00000000E+00  0.00000000E+00  0.00000000E+00
  0.00000000E+00  0.00000000E+00  0.00000000E+00
  0.00000000E+00  0.00000000E+00  0.00000000E+00
  0.00000000E+00  0.00000000E+00  0.00000000E+00
  0.00000000E+00  0.00000000E+00  0.00000000E+00
  0.00000000E+00  0.00000000E+00  0.00000000E+00
  0.00000000E+00  0.00000000E+00  0.00000000E+00
