CONTCAR                                 
   1.00000000000000     
    12.3274002075000002    0.0000000000000000    0.0000000000000000
     0.0000000000000000   15.7540998459000008    0.0000000000000000
     0.0000000000000000    0.0000000000000000   20.2700004577999984
   Pr   Br   O    H 
    12    30     2     1
Direct
  0.2486196585844027  0.6407217157214689  0.5121902781652352
  0.0835748578372417  0.3634800810285697  0.4777428697847412
  0.2491701516703912  0.1368960785304054  0.5255326590738676
  0.0834760853432499  0.8651774685626705  0.4655861610192460
  0.5833761939916471  0.6274401593954977  0.5569179905062711
  0.4144682769626371  0.3621806227638373  0.4815269853073687
  0.5833890672334547  0.1365254245367211  0.5257173503354124
  0.4062475241773740  0.8668914806621260  0.4664824913101313
  0.9180788402355162  0.6408562847290540  0.5122630893920146
  0.7525829430400321  0.3621787032564896  0.4817051902950098
  0.9177041606007421  0.1369756598428395  0.5256024353017921
  0.7606066180463955  0.8669883445410989  0.4666126984336429
  0.2489700961531653  0.8793260548863131  0.3614494240531130
  0.0835879235823285  0.1220875859330945  0.6283832740852517
  0.2509233262086710  0.4833137789118140  0.4177101215609582
  0.0832902741259929  0.5193198651196553  0.5713969369805483
  0.0835310031141674  0.0609251665821162  0.4332053657118706
  0.2459284566016393  0.9435894446641768  0.5586189651685487
  0.0834132439742561  0.7457682761151645  0.5850731721555249
  0.2502986522906454  0.2574916083775562  0.4061634773897964
  0.0832910645357785  0.6845145982480361  0.4098146266830653
  0.2458585818557779  0.3149338898357783  0.5813035801330102
  0.5834762996265965  0.8751841560277853  0.3698777634893702
  0.4170378173220612  0.1203215985817607  0.6273110246612674
  0.5836818554619398  0.4855147553868591  0.4360173779391019
  0.3924681260731475  0.5115019242825340  0.5790134272764647
  0.4160335544401192  0.0604236498636652  0.4340109532981060
  0.5832844409935234  0.9355711538756140  0.5555519664753561
  0.4010600754665177  0.7523106066921201  0.5898691152743680
  0.5836427348740756  0.2586260842857016  0.4077034595545825
  0.4307524466143207  0.6832065397056653  0.4242839125987246
  0.5834222675935550  0.3172202838187204  0.5828565491843634
  0.9179079166912061  0.8791232947692507  0.3614655749522839
  0.7498378860988950  0.1204207154543866  0.6273045030599604
  0.9159218484969500  0.4832603222962035  0.4178107464828926
  0.7741801166377940  0.5115049533188838  0.5792414124977796
  0.7509805395920139  0.0604245028820998  0.4341130730272411
  0.9212322045051806  0.9436180129942073  0.5586375192355888
  0.7656369044489679  0.7524777023858960  0.5900167686322106
  0.9167051278922145  0.2574751573977849  0.4062554255865720
  0.7358719333338897  0.6832596377295985  0.4244792300914426
  0.9214716382087289  0.3150353956616598  0.5814487969913955
  0.5836400302963085  0.6195985102422910  0.6593478052088670
  0.5835208507970933  0.6326085908964103  0.7289473199899703
  0.5892867413694631  0.5740197622063974  0.7450269006456622
 
  0.00000000E+00  0.00000000E+00  0.00000000E+00
  0.00000000E+00  0.00000000E+00  0.00000000E+00
  0.00000000E+00  0.00000000E+00  0.00000000E+00
  0.00000000E+00  0.00000000E+00  0.00000000E+00
  0.00000000E+00  0.00000000E+00  0.00000000E+00
  0.00000000E+00  0.00000000E+00  0.00000000E+00
  0.00000000E+00  0.00000000E+00  0.00000000E+00
  0.00000000E+00  0.00000000E+00  0.00000000E+00
  0.00000000E+00  0.00000000E+00  0.00000000E+00
  0.00000000E+00  0.00000000E+00  0.00000000E+00
  0.00000000E+00  0.00000000E+00  0.00000000E+00
  0.00000000E+00  0.00000000E+00  0.00000000E+00
  0.00000000E+00  0.00000000E+00  0.00000000E+00
  0.00000000E+00  0.00000000E+00  0.00000000E+00
  0.00000000E+00  0.00000000E+00  0.00000000E+00
  0.00000000E+00  0.00000000E+00  0.00000000E+00
  0.00000000E+00  0.00000000E+00  0.00000000E+00
  0.00000000E+00  0.00000000E+00  0.00000000E+00
  0.00000000E+00  0.00000000E+00  0.00000000E+00
  0.00000000E+00  0.00000000E+00  0.00000000E+00
  0.00000000E+00  0.00000000E+00  0.00000000E+00
  0.00000000E+00  0.00000000E+00  0.00000000E+00
  0.00000000E+00  0.00000000E+00  0.00000000E+00
  0.00000000E+00  0.00000000E+00  0.00000000E+00
  0.00000000E+00  0.00000000E+00  0.00000000E+00
  0.00000000E+00  0.00000000E+00  0.00000000E+00
  0.00000000E+00  0.00000000E+00  0.00000000E+00
  0.00000000E+00  0.00000000E+00  0.00000000E+00
  0.00000000E+00  0.00000000E+00  0.00000000E+00
  0.00000000E+00  0.00000000E+00  0.00000000E+00
  0.00000000E+00  0.00000000E+00  0.00000000E+00
  0.00000000E+00  0.00000000E+00  0.00000000E+00
  0.00000000E+00  0.00000000E+00  0.00000000E+00
  0.00000000E+00  0.00000000E+00  0.00000000E+00
  0.00000000E+00  0.00000000E+00  0.00000000E+00
  0.00000000E+00  0.00000000E+00  0.00000000E+00
  0.00000000E+00  0.00000000E+00  0.00000000E+00
  0.00000000E+00  0.00000000E+00  0.00000000E+00
  0.00000000E+00  0.00000000E+00  0.00000000E+00
  0.00000000E+00  0.00000000E+00  0.00000000E+00
  0.00000000E+00  0.00000000E+00  0.00000000E+00
  0.00000000E+00  0.00000000E+00  0.00000000E+00
  0.00000000E+00  0.00000000E+00  0.00000000E+00
  0.00000000E+00  0.00000000E+00  0.00000000E+00
  0.00000000E+00  0.00000000E+00  0.00000000E+00
