CONTCAR\(3)                             
   1.00000000000000     
    13.4425001143999996    0.0000000000000000    0.0000000000000000
     3.3606099258000000   18.5762653218000011    0.0000000000000000
     0.0000000000000000    0.0000000000000000   18.6296005248999990
   V    Te   O 
    24    48     1
Direct
  0.0004831000141152  0.9989383341480575  0.5026849596392466
  0.0890444179144794  0.1439747539393537  0.4990515594721288
  0.1619255321020532  0.3538996067150606  0.5037733797171953
  0.2508067612276648  0.9991440589962508  0.5028393497180659
  0.3390531390877669  0.1440934904006710  0.4987985671201542
  0.4118442046105670  0.3542973379987302  0.5040985424982694
  0.4997032405729200  0.9991245530370563  0.5027764394112992
  0.5889583322456318  0.1437955733316016  0.4989363316813211
  0.6613030764067673  0.3541213114735413  0.5040456634921995
  0.7499061922590329  0.9989117531347631  0.5027829097333196
  0.8388940403303877  0.1438773905258657  0.4991722541000172
  0.9113291316796648  0.3537695925657260  0.5036410454892746
  0.0004163472639220  0.4988841501197356  0.4988179036852500
  0.0887230292272676  0.6433433108994748  0.4950561880933009
  0.1621881232795062  0.8541465950977383  0.5057082157595900
  0.2504298185274791  0.4990190039550342  0.4987093330410630
  0.3363460107630800  0.6409635415100183  0.4928095996799797
  0.4103898748407246  0.8581804231523478  0.5064310210757696
  0.5003704242794029  0.4988229038352827  0.4988283404823832
  0.5928170806962711  0.6409478850363755  0.4929277018682114
  0.6607241743169610  0.8541028752000415  0.5059353343200286
  0.7501874642242825  0.4990917455853960  0.4987340612620983
  0.8395498795726155  0.6434929111773116  0.4951548002894341
  0.9114457672556071  0.8539766686282988  0.5050220466397803
  0.1113682920278194  0.0533483164261028  0.6042086035618794
  0.1390722567766431  0.4436247870351764  0.3978178925693712
  0.1940026088519318  0.2240219072673781  0.5825420253942966
  0.0566763233107324  0.2741398103425468  0.4202424798804429
  0.0268696241715034  0.3926494604801860  0.6042493748339197
  0.2232657737270856  0.1059434916993922  0.3980124686126629
  0.3616131512991458  0.0541072369660469  0.6042923775505926
  0.3891041126677521  0.4432612022167604  0.3978196580203885
  0.4440191398994742  0.2241275512248109  0.5824540703671559
  0.3069846501858962  0.2742007885818154  0.4203342165131687
  0.2770516870810980  0.3932758282121114  0.6044979172919298
  0.4735748328430560  0.1059292398263878  0.3980020047995936
  0.6116617214615161  0.0533690509151796  0.6042636919789004
  0.6393274667549491  0.4432158161477133  0.3978809676523909
  0.6938265926569187  0.2237818965422207  0.5825759296670441
  0.5567213997869445  0.2739584826162158  0.4204666406712150
  0.5268263514495857  0.3936040060259103  0.6047291619875494
  0.7237017518395845  0.1054703428488821  0.3981661222756827
  0.8617577568705954  0.0528451715285030  0.6041115916576487
  0.8891823007760138  0.4436921113080032  0.3977762765742412
  0.9438312726059053  0.2238454686510352  0.5825896603848690
  0.8062796289793823  0.2739143281467520  0.4202404672740201
  0.7765360412897380  0.3932444711094973  0.6044059499701007
  0.9733965463974599  0.1057462364038315  0.3982539584226359
  0.1119445982076286  0.5528335886058002  0.6003324745458585
  0.1387645484149331  0.9453372616465003  0.4011534518236104
  0.1957806126386288  0.7211439416023921  0.5795143190857317
  0.0564743923451303  0.7754943338628806  0.4206214464001476
  0.0272040547244572  0.8912543574313219  0.6065559211239062
  0.2218454876235327  0.6042559160802981  0.3922923648143879
  0.3614153640031290  0.5543463499110786  0.6004963393837173
  0.3883147315909952  0.9465283894903251  0.4002059700766054
  0.4434964996247004  0.7248957953259989  0.5686501925823464
  0.3069032014024557  0.7753225380775817  0.4207902983006520
  0.2762676779744879  0.8928365366999742  0.6078119568114886
  0.4741098153941010  0.6036439967109501  0.3930400530135287
  0.6114810123994303  0.5543605940027660  0.6005728414169837
  0.6386227658047119  0.9451253731069116  0.4012154916940887
  0.6934547434018725  0.7209483844881603  0.5797141418161189
  0.5554363116448471  0.7752221607604710  0.4210181834318192
  0.5271349511476444  0.8928256082993045  0.6078701478261976
  0.7258498738615202  0.6044162559074664  0.3925214449436680
  0.8618886951330467  0.5528546245868000  0.6002552305570603
  0.8885749414506208  0.9455638092254048  0.4007948830377401
  0.9446009868954874  0.7219115764872583  0.5800678043133161
  0.8054120640371494  0.7756161625968971  0.4205520457575247
  0.7772592661997990  0.8912287171776185  0.6066799435987491
  0.9736198609080731  0.6050871906472679  0.3936749404953090
  0.4476931767626766  0.7080200532823966  0.6670889819682841
 
  0.00000000E+00  0.00000000E+00  0.00000000E+00
  0.00000000E+00  0.00000000E+00  0.00000000E+00
  0.00000000E+00  0.00000000E+00  0.00000000E+00
  0.00000000E+00  0.00000000E+00  0.00000000E+00
  0.00000000E+00  0.00000000E+00  0.00000000E+00
  0.00000000E+00  0.00000000E+00  0.00000000E+00
  0.00000000E+00  0.00000000E+00  0.00000000E+00
  0.00000000E+00  0.00000000E+00  0.00000000E+00
  0.00000000E+00  0.00000000E+00  0.00000000E+00
  0.00000000E+00  0.00000000E+00  0.00000000E+00
  0.00000000E+00  0.00000000E+00  0.00000000E+00
  0.00000000E+00  0.00000000E+00  0.00000000E+00
  0.00000000E+00  0.00000000E+00  0.00000000E+00
  0.00000000E+00  0.00000000E+00  0.00000000E+00
  0.00000000E+00  0.00000000E+00  0.00000000E+00
  0.00000000E+00  0.00000000E+00  0.00000000E+00
  0.00000000E+00  0.00000000E+00  0.00000000E+00
  0.00000000E+00  0.00000000E+00  0.00000000E+00
  0.00000000E+00  0.00000000E+00  0.00000000E+00
  0.00000000E+00  0.00000000E+00  0.00000000E+00
  0.00000000E+00  0.00000000E+00  0.00000000E+00
  0.00000000E+00  0.00000000E+00  0.00000000E+00
  0.00000000E+00  0.00000000E+00  0.00000000E+00
  0.00000000E+00  0.00000000E+00  0.00000000E+00
  0.00000000E+00  0.00000000E+00  0.00000000E+00
  0.00000000E+00  0.00000000E+00  0.00000000E+00
  0.00000000E+00  0.00000000E+00  0.00000000E+00
  0.00000000E+00  0.00000000E+00  0.00000000E+00
  0.00000000E+00  0.00000000E+00  0.00000000E+00
  0.00000000E+00  0.00000000E+00  0.00000000E+00
  0.00000000E+00  0.00000000E+00  0.00000000E+00
  0.00000000E+00  0.00000000E+00  0.00000000E+00
  0.00000000E+00  0.00000000E+00  0.00000000E+00
  0.00000000E+00  0.00000000E+00  0.00000000E+00
  0.00000000E+00  0.00000000E+00  0.00000000E+00
  0.00000000E+00  0.00000000E+00  0.00000000E+00
  0.00000000E+00  0.00000000E+00  0.00000000E+00
  0.00000000E+00  0.00000000E+00  0.00000000E+00
  0.00000000E+00  0.00000000E+00  0.00000000E+00
  0.00000000E+00  0.00000000E+00  0.00000000E+00
  0.00000000E+00  0.00000000E+00  0.00000000E+00
  0.00000000E+00  0.00000000E+00  0.00000000E+00
  0.00000000E+00  0.00000000E+00  0.00000000E+00
  0.00000000E+00  0.00000000E+00  0.00000000E+00
  0.00000000E+00  0.00000000E+00  0.00000000E+00
  0.00000000E+00  0.00000000E+00  0.00000000E+00
  0.00000000E+00  0.00000000E+00  0.00000000E+00
  0.00000000E+00  0.00000000E+00  0.00000000E+00
  0.00000000E+00  0.00000000E+00  0.00000000E+00
  0.00000000E+00  0.00000000E+00  0.00000000E+00
  0.00000000E+00  0.00000000E+00  0.00000000E+00
  0.00000000E+00  0.00000000E+00  0.00000000E+00
  0.00000000E+00  0.00000000E+00  0.00000000E+00
  0.00000000E+00  0.00000000E+00  0.00000000E+00
  0.00000000E+00  0.00000000E+00  0.00000000E+00
  0.00000000E+00  0.00000000E+00  0.00000000E+00
  0.00000000E+00  0.00000000E+00  0.00000000E+00
  0.00000000E+00  0.00000000E+00  0.00000000E+00
  0.00000000E+00  0.00000000E+00  0.00000000E+00
  0.00000000E+00  0.00000000E+00  0.00000000E+00
  0.00000000E+00  0.00000000E+00  0.00000000E+00
  0.00000000E+00  0.00000000E+00  0.00000000E+00
  0.00000000E+00  0.00000000E+00  0.00000000E+00
  0.00000000E+00  0.00000000E+00  0.00000000E+00
  0.00000000E+00  0.00000000E+00  0.00000000E+00
  0.00000000E+00  0.00000000E+00  0.00000000E+00
  0.00000000E+00  0.00000000E+00  0.00000000E+00
  0.00000000E+00  0.00000000E+00  0.00000000E+00
  0.00000000E+00  0.00000000E+00  0.00000000E+00
  0.00000000E+00  0.00000000E+00  0.00000000E+00
  0.00000000E+00  0.00000000E+00  0.00000000E+00
  0.00000000E+00  0.00000000E+00  0.00000000E+00
  0.00000000E+00  0.00000000E+00  0.00000000E+00
