CONTCAR                                 
   1.00000000000000     
    13.8964004516999999    0.0000000000000000    0.0000000000000000
     0.0991868080000000   15.6682861384999992    0.0000000000000000
     0.0000000000000000    0.0000000000000000   19.4270992279000012
   Ta   Ni   Se
    16     8    40
Direct
  0.0639612353449266  0.1094800707519141  0.4803090548255184
  0.0610214525361883  0.3907115959602621  0.4803287469105157
  0.1860328345769418  0.8907273738257970  0.5196712809662429
  0.1889721989972486  0.6094860194972469  0.5196846142877760
  0.3139612613449287  0.1094800707519141  0.4803090548255184
  0.3110214565361886  0.3907115959602621  0.4803287469105157
  0.4360328165769474  0.8907273738257970  0.5196712809662429
  0.4389722169972430  0.6094860194972469  0.5196846142877760
  0.5639612613449287  0.1094800707519141  0.4803090548255184
  0.5610214565361886  0.3907115959602621  0.4803287469105157
  0.6860327825769446  0.8907273738257970  0.5196712809662429
  0.6889722509972458  0.6094860194972469  0.5196846142877760
  0.8139612273449259  0.1094800707519141  0.4803090548255184
  0.8110214225361929  0.3907115959602621  0.4803287469105157
  0.9360327825769446  0.8907273738257970  0.5196712809662429
  0.9389722509972458  0.6094860194972469  0.5196846142877760
  0.1874704346677163  0.2500871487026117  0.4668993224971700
  0.0625396385148704  0.7501037988041759  0.5330885305915487
  0.4374704346677163  0.2500871487026117  0.4668993224971700
  0.3125396335148665  0.7501037988041759  0.5330885305915487
  0.6874705036677184  0.2500871487026117  0.4668993224971700
  0.5625396335148665  0.7501037988041759  0.5330885305915487
  0.9374705036677184  0.2500871487026117  0.4668993224971700
  0.8125395995148637  0.7501037988041759  0.5330885305915487
  0.1867901821436178  0.1395011280395764  0.3858100493198933
  0.1882505060247155  0.3606833229326227  0.3858211422810740
  0.0632181812608721  0.8607030427652305  0.6141792881366328
  0.0617630199891153  0.6395095255214613  0.6141913294297865
  0.0632159744987675  0.9501835451206659  0.4297322090373612
  0.0617999967097163  0.5500104118065252  0.4297683073640073
  0.1867752662302067  0.0500136652003036  0.5702493284541248
  0.1881900832964618  0.4501863649750817  0.5702453288179825
  0.0625179723176359  0.2500821578643198  0.5507315992608639
  0.1874810088910124  0.7501008952322010  0.4492700118195145
  0.4367901651436128  0.1395011280395764  0.3858100493198933
  0.4382505410247148  0.3606833229326227  0.3858211422810740
  0.3132181992608736  0.8607030427652305  0.6141792881366328
  0.3117629939891131  0.6395095255214613  0.6141913294297865
  0.3132159924987690  0.9501835451206659  0.4297322090373612
  0.3117999587097202  0.5500104118065252  0.4297683073640073
  0.4367752462302121  0.0500236662003033  0.5702493284541248
  0.4381901002964597  0.4501863649750817  0.5702453288179825
  0.3125179683176427  0.2500821578643198  0.5507315992608639
  0.4374810088910124  0.7501008952322010  0.4492700118195145
  0.6867901991436156  0.1395011280395764  0.3858100493198933
  0.6882505060247155  0.3606833229326227  0.3858211422810740
  0.5632181642608742  0.8607030427652305  0.6141792881366328
  0.5617629939891131  0.6395095255214613  0.6141913294297865
  0.5632159924987690  0.9501835451206659  0.4297322090373612
  0.5617999927097159  0.5500104118065252  0.4297683073640073
  0.6867752812302115  0.0500236662003033  0.5702493284541248
  0.6881901002964597  0.4501863649750817  0.5702453288179825
  0.5625179683176427  0.2500821578643198  0.5507315992608639
  0.6874810438910117  0.7501008952322010  0.4492700118195145
  0.9367901991436156  0.1395011280395764  0.3858100493198933
  0.9382505060247155  0.3606833229326227  0.3858211422810740
  0.8132181302608714  0.8607030427652305  0.6141792881366328
  0.8117630289891125  0.6395095255214613  0.6141913294297865
  0.8132159234987668  0.9501835451206659  0.4297322090373612
  0.8118000617097181  0.5500104118065252  0.4297683073640073
  0.9367752832302116  0.0500136652003036  0.5702493284541248
  0.9381901002964597  0.4501863649750817  0.5702453288179825
  0.8125179683176427  0.2500821578643198  0.5507315992608639
  0.9374810438910117  0.7501008952322010  0.4492700118195145
 
  0.00000000E+00  0.00000000E+00  0.00000000E+00
  0.00000000E+00  0.00000000E+00  0.00000000E+00
  0.00000000E+00  0.00000000E+00  0.00000000E+00
  0.00000000E+00  0.00000000E+00  0.00000000E+00
  0.00000000E+00  0.00000000E+00  0.00000000E+00
  0.00000000E+00  0.00000000E+00  0.00000000E+00
  0.00000000E+00  0.00000000E+00  0.00000000E+00
  0.00000000E+00  0.00000000E+00  0.00000000E+00
  0.00000000E+00  0.00000000E+00  0.00000000E+00
  0.00000000E+00  0.00000000E+00  0.00000000E+00
  0.00000000E+00  0.00000000E+00  0.00000000E+00
  0.00000000E+00  0.00000000E+00  0.00000000E+00
  0.00000000E+00  0.00000000E+00  0.00000000E+00
  0.00000000E+00  0.00000000E+00  0.00000000E+00
  0.00000000E+00  0.00000000E+00  0.00000000E+00
  0.00000000E+00  0.00000000E+00  0.00000000E+00
  0.00000000E+00  0.00000000E+00  0.00000000E+00
  0.00000000E+00  0.00000000E+00  0.00000000E+00
  0.00000000E+00  0.00000000E+00  0.00000000E+00
  0.00000000E+00  0.00000000E+00  0.00000000E+00
  0.00000000E+00  0.00000000E+00  0.00000000E+00
  0.00000000E+00  0.00000000E+00  0.00000000E+00
  0.00000000E+00  0.00000000E+00  0.00000000E+00
  0.00000000E+00  0.00000000E+00  0.00000000E+00
  0.00000000E+00  0.00000000E+00  0.00000000E+00
  0.00000000E+00  0.00000000E+00  0.00000000E+00
  0.00000000E+00  0.00000000E+00  0.00000000E+00
  0.00000000E+00  0.00000000E+00  0.00000000E+00
  0.00000000E+00  0.00000000E+00  0.00000000E+00
  0.00000000E+00  0.00000000E+00  0.00000000E+00
  0.00000000E+00  0.00000000E+00  0.00000000E+00
  0.00000000E+00  0.00000000E+00  0.00000000E+00
  0.00000000E+00  0.00000000E+00  0.00000000E+00
  0.00000000E+00  0.00000000E+00  0.00000000E+00
  0.00000000E+00  0.00000000E+00  0.00000000E+00
  0.00000000E+00  0.00000000E+00  0.00000000E+00
  0.00000000E+00  0.00000000E+00  0.00000000E+00
  0.00000000E+00  0.00000000E+00  0.00000000E+00
  0.00000000E+00  0.00000000E+00  0.00000000E+00
  0.00000000E+00  0.00000000E+00  0.00000000E+00
  0.00000000E+00  0.00000000E+00  0.00000000E+00
  0.00000000E+00  0.00000000E+00  0.00000000E+00
  0.00000000E+00  0.00000000E+00  0.00000000E+00
  0.00000000E+00  0.00000000E+00  0.00000000E+00
  0.00000000E+00  0.00000000E+00  0.00000000E+00
  0.00000000E+00  0.00000000E+00  0.00000000E+00
  0.00000000E+00  0.00000000E+00  0.00000000E+00
  0.00000000E+00  0.00000000E+00  0.00000000E+00
  0.00000000E+00  0.00000000E+00  0.00000000E+00
  0.00000000E+00  0.00000000E+00  0.00000000E+00
  0.00000000E+00  0.00000000E+00  0.00000000E+00
  0.00000000E+00  0.00000000E+00  0.00000000E+00
  0.00000000E+00  0.00000000E+00  0.00000000E+00
  0.00000000E+00  0.00000000E+00  0.00000000E+00
  0.00000000E+00  0.00000000E+00  0.00000000E+00
  0.00000000E+00  0.00000000E+00  0.00000000E+00
  0.00000000E+00  0.00000000E+00  0.00000000E+00
  0.00000000E+00  0.00000000E+00  0.00000000E+00
  0.00000000E+00  0.00000000E+00  0.00000000E+00
  0.00000000E+00  0.00000000E+00  0.00000000E+00
  0.00000000E+00  0.00000000E+00  0.00000000E+00
  0.00000000E+00  0.00000000E+00  0.00000000E+00
  0.00000000E+00  0.00000000E+00  0.00000000E+00
  0.00000000E+00  0.00000000E+00  0.00000000E+00
