CONTCAR\(10)                            
   1.00000000000000     
    13.8427000045999993    0.0000000000000000    0.0000000000000000
    -6.9212999344000004   11.9880431408000003    0.0000000000000000
     0.0000000000000000    0.0000000000000000   18.3542995453000017
   Ta   Se
    16    32
Direct
  0.0000000000000000  0.0000000000000000  0.5000000000000000
  0.2500000000000000  0.0000000000000000  0.5000000000000000
  0.5000000000000000  0.0000000000000000  0.5000000000000000
  0.7499999830000021  0.0000000000000000  0.5000000000000000
  0.9999999970000033  0.2499999939999995  0.5000000000000000
  0.2499999970000033  0.2499999939999995  0.5000000000000000
  0.4999999799999983  0.2499999939999995  0.5000000000000000
  0.7499999970000033  0.2499999939999995  0.5000000000000000
  0.9999999939999995  0.4999999870000025  0.5000000000000000
  0.2499999939999995  0.4999999870000025  0.5000000000000000
  0.4999999939999995  0.4999999870000025  0.5000000000000000
  0.7499999759999980  0.4999999870000025  0.5000000000000000
  0.9999999529999997  0.7499999409999987  0.5000000000000000
  0.2499999529999997  0.7499999409999987  0.5000000000000000
  0.4999999529999997  0.7499999409999987  0.5000000000000000
  0.7499999360000018  0.7499999409999987  0.5000000000000000
  0.0833299900000029  0.1666699869999988  0.4085299979999988
  0.0833299900000029  0.1666699869999988  0.5914700280000034
  0.3333299990000000  0.1666699869999988  0.4085299979999988
  0.3333299990000000  0.1666699869999988  0.5914700280000034
  0.5833299470000028  0.1666699869999988  0.4085299979999988
  0.5833299470000028  0.1666699869999988  0.5914700280000034
  0.8333299640000007  0.1666699869999988  0.4085299979999988
  0.8333299640000007  0.1666699869999988  0.5914700280000034
  0.0833299820000022  0.4166699709999975  0.4085299979999988
  0.0833299820000022  0.4166699709999975  0.5914700280000034
  0.3333299900000029  0.4166699709999975  0.4085299979999988
  0.3333299900000029  0.4166699709999975  0.5914700280000034
  0.5833299560000000  0.4166699709999975  0.4085299979999988
  0.5833299560000000  0.4166699709999975  0.5914700280000034
  0.8333299729999979  0.4166699709999975  0.4085299979999988
  0.8333299729999979  0.4166699709999975  0.5914700280000034
  0.0833299900000029  0.6666700039999967  0.4085299979999988
  0.0833299900000029  0.6666700039999967  0.5914700280000034
  0.3333300070000007  0.6666700039999967  0.4085299979999988
  0.3333300070000007  0.6666700039999967  0.5914700280000034
  0.5833299549999964  0.6666700039999967  0.4085299979999988
  0.5833299549999964  0.6666700039999967  0.5914700280000034
  0.8333299729999979  0.6666700039999967  0.4085299979999988
  0.8333299729999979  0.6666700039999967  0.5914700280000034
  0.0833299689999976  0.9166699969999996  0.4085299979999988
  0.0833299689999976  0.9166699969999996  0.5914700280000034
  0.3333299869999991  0.9166699969999996  0.4085299979999988
  0.3333299869999991  0.9166699969999996  0.5914700280000034
  0.5833299350000019  0.9166699969999996  0.4085299979999988
  0.5833299350000019  0.9166699969999996  0.5914700280000034
  0.8333299519999997  0.9166699969999996  0.4085299979999988
  0.8333299519999997  0.9166699969999996  0.5914700280000034
 
  0.00000000E+00  0.00000000E+00  0.00000000E+00
  0.00000000E+00  0.00000000E+00  0.00000000E+00
  0.00000000E+00  0.00000000E+00  0.00000000E+00
  0.00000000E+00  0.00000000E+00  0.00000000E+00
  0.00000000E+00  0.00000000E+00  0.00000000E+00
  0.00000000E+00  0.00000000E+00  0.00000000E+00
  0.00000000E+00  0.00000000E+00  0.00000000E+00
  0.00000000E+00  0.00000000E+00  0.00000000E+00
  0.00000000E+00  0.00000000E+00  0.00000000E+00
  0.00000000E+00  0.00000000E+00  0.00000000E+00
  0.00000000E+00  0.00000000E+00  0.00000000E+00
  0.00000000E+00  0.00000000E+00  0.00000000E+00
  0.00000000E+00  0.00000000E+00  0.00000000E+00
  0.00000000E+00  0.00000000E+00  0.00000000E+00
  0.00000000E+00  0.00000000E+00  0.00000000E+00
  0.00000000E+00  0.00000000E+00  0.00000000E+00
  0.00000000E+00  0.00000000E+00  0.00000000E+00
  0.00000000E+00  0.00000000E+00  0.00000000E+00
  0.00000000E+00  0.00000000E+00  0.00000000E+00
  0.00000000E+00  0.00000000E+00  0.00000000E+00
  0.00000000E+00  0.00000000E+00  0.00000000E+00
  0.00000000E+00  0.00000000E+00  0.00000000E+00
  0.00000000E+00  0.00000000E+00  0.00000000E+00
  0.00000000E+00  0.00000000E+00  0.00000000E+00
  0.00000000E+00  0.00000000E+00  0.00000000E+00
  0.00000000E+00  0.00000000E+00  0.00000000E+00
  0.00000000E+00  0.00000000E+00  0.00000000E+00
  0.00000000E+00  0.00000000E+00  0.00000000E+00
  0.00000000E+00  0.00000000E+00  0.00000000E+00
  0.00000000E+00  0.00000000E+00  0.00000000E+00
  0.00000000E+00  0.00000000E+00  0.00000000E+00
  0.00000000E+00  0.00000000E+00  0.00000000E+00
  0.00000000E+00  0.00000000E+00  0.00000000E+00
  0.00000000E+00  0.00000000E+00  0.00000000E+00
  0.00000000E+00  0.00000000E+00  0.00000000E+00
  0.00000000E+00  0.00000000E+00  0.00000000E+00
  0.00000000E+00  0.00000000E+00  0.00000000E+00
  0.00000000E+00  0.00000000E+00  0.00000000E+00
  0.00000000E+00  0.00000000E+00  0.00000000E+00
  0.00000000E+00  0.00000000E+00  0.00000000E+00
  0.00000000E+00  0.00000000E+00  0.00000000E+00
  0.00000000E+00  0.00000000E+00  0.00000000E+00
  0.00000000E+00  0.00000000E+00  0.00000000E+00
  0.00000000E+00  0.00000000E+00  0.00000000E+00
  0.00000000E+00  0.00000000E+00  0.00000000E+00
  0.00000000E+00  0.00000000E+00  0.00000000E+00
  0.00000000E+00  0.00000000E+00  0.00000000E+00
  0.00000000E+00  0.00000000E+00  0.00000000E+00
