CONTCAR                                 
   1.00000000000000     
     7.8446002007000004    0.0000000000000000    0.0000000000000000
     3.9223001003000002    6.7936230563000004    0.0000000000000000
     0.0000000000000000    0.0000000000000000   18.9503002167000005
   Te   Pt   O    H 
     8     8     4     4
Direct
  0.3384555531693116  0.3330395180644167  0.6135724045738586
  0.3389644964413992  0.3312114222441694  0.3991768876467636
  0.8372163309763035  0.3302670882122561  0.6017940138081386
  0.8365963149921487  0.3306428972466310  0.3873567365529150
  0.3372163369763038  0.8302670462122521  0.6017940138081386
  0.3365963209921490  0.8306428552466277  0.3873567365529150
  0.8384554971693142  0.8330394760644129  0.6135724045738586
  0.8389644404414024  0.8312113802441663  0.3991768876467636
  0.1730651662897893  0.1697687537841623  0.5425816183374925
  0.0096833634145038  0.0027474901004274  0.4585944623462560
  0.6659886982760056  0.1599370468130744  0.5422644015286948
  0.4995593421914886 -0.0042586297068625  0.4587175151116604
  0.1659886772760068  0.6599370578130717  0.5422644015286948
 -0.0004406548085147  0.4957413642931371  0.4587175151116604
  0.6730652052897891  0.6697587977841627  0.5425816183374925
  0.5096833514145033  0.5027474841004265  0.4585944623462560
  0.3613464944887665  0.2717467477540000  0.2932161194531878
  0.8894251089391844  0.3106186016250181  0.7081462660959582
  0.3894250359391827  0.8106185956250176  0.7081462660959582
  0.8613464814887694  0.7717367747539949  0.2932161194531878
  0.2621023735446301  0.3901358437820860  0.2687584006626424
  0.7711668022764692  0.4132732690806298  0.7316911588824289
  0.2711667722764737  0.9132732980806362  0.7316911588824289
  0.7621023445446313  0.8901358727820851  0.2687584006626424
 
  0.00000000E+00  0.00000000E+00  0.00000000E+00
  0.00000000E+00  0.00000000E+00  0.00000000E+00
  0.00000000E+00  0.00000000E+00  0.00000000E+00
  0.00000000E+00  0.00000000E+00  0.00000000E+00
  0.00000000E+00  0.00000000E+00  0.00000000E+00
  0.00000000E+00  0.00000000E+00  0.00000000E+00
  0.00000000E+00  0.00000000E+00  0.00000000E+00
  0.00000000E+00  0.00000000E+00  0.00000000E+00
  0.00000000E+00  0.00000000E+00  0.00000000E+00
  0.00000000E+00  0.00000000E+00  0.00000000E+00
  0.00000000E+00  0.00000000E+00  0.00000000E+00
  0.00000000E+00  0.00000000E+00  0.00000000E+00
  0.00000000E+00  0.00000000E+00  0.00000000E+00
  0.00000000E+00  0.00000000E+00  0.00000000E+00
  0.00000000E+00  0.00000000E+00  0.00000000E+00
  0.00000000E+00  0.00000000E+00  0.00000000E+00
  0.00000000E+00  0.00000000E+00  0.00000000E+00
  0.00000000E+00  0.00000000E+00  0.00000000E+00
  0.00000000E+00  0.00000000E+00  0.00000000E+00
  0.00000000E+00  0.00000000E+00  0.00000000E+00
  0.00000000E+00  0.00000000E+00  0.00000000E+00
  0.00000000E+00  0.00000000E+00  0.00000000E+00
  0.00000000E+00  0.00000000E+00  0.00000000E+00
  0.00000000E+00  0.00000000E+00  0.00000000E+00
