CONTCAR\(2)                             
   1.00000000000000     
    13.8704996108999996    0.0000000000000000    0.0000000000000000
     6.9352498054999998   12.0122050262000002    0.0000000000000000
     0.0000000000000000    0.0000000000000000   20.7413005828999992
   Sc   H    Cl   O 
    32    32    32     1
Direct
  0.0834084838618875  0.0832612820265528  0.4393945758575936
  0.1667979809181819  0.1664055949806468  0.5607552671359264
  0.3333321170880550  0.0832655858445852  0.4393929160518026
  0.4166955820931383  0.1666562222004685  0.5607281472084167
  0.5833008187125620  0.0833526549714680  0.4393489662724249
  0.6666311324319574  0.1667365597359983  0.5607383878814672
  0.8333460790199969  0.0833534136072237  0.4393486905023269
  0.9166478765481854  0.1666553786092289  0.5607281127445699
  0.0833382497142285  0.3333268557388372  0.4393672032003780
  0.1668089013560162  0.4167896374236449  0.5607561373445555
  0.3333418216229611  0.3334001743356994  0.4393900022667530
  0.4169839372324072  0.4170164369621736  0.5609240994544928
  0.5833136565935362  0.3333731201178210  0.4392811116348680
  0.6659918681773269  0.4170253082603681  0.5609314830336429
  0.8332589263186477  0.3334038611736148  0.4393886791519562
  0.9163985939243867  0.4167919015090980  0.5607531489882424
  0.0834052292291264  0.5833431877113970  0.4393961704580853
  0.1670174163963316  0.6669890524059671  0.5609330779987521
  0.3333882800496338  0.5833974836086917  0.4393678677281107
  0.4166764145903790  0.6666777122275807  0.5616807758266164
  0.5832138589378628  0.5834019729942463  0.4393753572404632
  0.6659269688630542  0.6670326710038211  0.5609628526539979
  0.8332567719983593  0.5833405663240253  0.4393931195234341
  0.9166466572820200  0.6667070768863861  0.5607256935332620
  0.0833830992007998  0.8333023629824599  0.4392815107339056
  0.1670374144469838  0.9159822696723602  0.5609318034974631
  0.3333991527224528  0.8332107642511830  0.4393702280563954
  0.4170250657168846  0.9159233441996026  0.5609547388953370
  0.5833182494299706  0.8333056639110965  0.4392831894330866
  0.6666322609451859  0.9166224690203503  0.5607381646772361
  0.8333508815814447  0.8332970942823155  0.4393437894050279
  0.9167366072562819  0.9166263714376276  0.5607391305350540
  0.0833045835639916  0.0833120996672800  0.5356227686983742
  0.1666690617671172  0.1666630140033715  0.4644087911813833
  0.3333801479801005  0.0833181749202186  0.5356215458584352
  0.4166706260397204  0.1666637789208560  0.4643987031272798
  0.5833628863220937  0.0833171750148150  0.5356111428607361
  0.6666785310626483  0.1666447518960737  0.4644008359062649
  0.8333213241554822  0.0833170171576958  0.5356110375652822
  0.9166669365729313  0.1666631015189632  0.4643992114322505
  0.0833338926968394  0.3333348323212050  0.5356527512779297
  0.1666675661798888  0.4166682519159732  0.4644069738708370
  0.3333822947453812  0.3333035032190941  0.5356193435394303
  0.4167013554234267  0.4166715971811110  0.4644754584352003
  0.5834390146601875  0.3331224136197886  0.5354400701215857
  0.6666304614995093  0.4166694447348238  0.4644761248033654
  0.8333129793070104  0.3333044639459605  0.5356198107536393
  0.9166653367760762  0.4166684768910209  0.4644067591647997
  0.0833042699197154  0.5833789825234835  0.5356224082342470
  0.1666723838796966  0.6666987805739971  0.4644785866116421
  0.3333592484967385  0.5833548773416254  0.5354830191874687
  0.4166680284324967  0.6666638110046720  0.4646992684369822
  0.5832820581529811  0.5833566084090237  0.5354841606760007
  0.6666314669010949  0.6666977687608444  0.4644780601140059
  0.8333211906042670  0.5833764754893407  0.5356216277517561
  0.9166676416199280  0.6666667292335512  0.4643985764223877
  0.0831205053335099  0.8334404587199969  0.5354396513001969
  0.1666686253300422  0.9166313427785039  0.4644760367338888
  0.3333598861743779  0.8332805922665466  0.5354802545948766
  0.4167003676651647  0.9166310268558554  0.4644750068020838
  0.5834365395839040  0.8334373688833573  0.5354406947734853
  0.6666770264129794  0.9166780822625844  0.4643994270747955
  0.8333193789571099  0.8333632568035633  0.5356078243356944
  0.9166471304517783  0.9166780982208517  0.4643991813806440
 -0.0001208382521405  0.0000609781825378  0.6386371811603209
 -0.0000114394298702  0.0000279482751067  0.3612750047242643
  0.2499941722484812  0.0000046976190138  0.6385729753086535
  0.2499923531004034  0.0000135873109369  0.3612735968259077
  0.5000610654328865  0.0000645847487149  0.6386374116327196
  0.4999842873594960  0.0000275182779669  0.3612751409332584
  0.7500006851711037  0.0000012909883978  0.6386684404276421
  0.7500000621427632  0.0000005828635807  0.3612920680628204
 -0.0000007861628513  0.2499975871214609  0.6386709857137368
  0.0000012784395806  0.2499982301702860  0.3612717195632653
  0.2500050968680612  0.2499984283940774  0.6386702761507681
  0.2500003558208135  0.2499998700094439  0.3612713708725029
  0.5000789929341428  0.2498507210673961  0.6386409332953916
  0.4999847743716083  0.2499868124472875  0.3612667479060008
  0.7500726186405251  0.2498517037856068  0.6386420054558337
  0.7500287894342617  0.2499864586525487  0.3612674833876663
  0.0000002022527571  0.5000032066797165  0.6386460858083698
  0.0000018414014123  0.4999993819583034  0.3612786844141274
  0.2500033040624834  0.5000010255307964  0.6385709994772441
  0.2499930730937342  0.4999931191564781  0.3612737902814375
  0.5003616805624570  0.4992539662292320  0.6379233410478075
  0.4999996890394332  0.5000006291399808  0.3612608684079111
  0.7500015180458294  0.4999945607606113  0.6385720971277002
  0.7500131398505885  0.4999925894503492  0.3612737308351539
 -0.0001697672149458  0.7500825277785221  0.6386472898322361
 -0.0000123419876116  0.7499817327740885  0.3612687539929377
  0.2492307661851690  0.7503860644836601  0.6379084252281192
  0.2500015828543590  0.7499975671227109  0.3612534211937790
  0.5003685151571072  0.7503918910695706  0.6378920529593510
  0.5000005316372832  0.7499971063603400  0.3612543509492299
  0.7500931153135603  0.7500802535314137  0.6386485180439863
  0.7500305641374638  0.7499825665545138  0.3612696061843707
  0.4159080375612204  0.6658704900326546  0.7450961998428643
 
  0.00000000E+00  0.00000000E+00  0.00000000E+00
  0.00000000E+00  0.00000000E+00  0.00000000E+00
  0.00000000E+00  0.00000000E+00  0.00000000E+00
  0.00000000E+00  0.00000000E+00  0.00000000E+00
  0.00000000E+00  0.00000000E+00  0.00000000E+00
  0.00000000E+00  0.00000000E+00  0.00000000E+00
  0.00000000E+00  0.00000000E+00  0.00000000E+00
  0.00000000E+00  0.00000000E+00  0.00000000E+00
  0.00000000E+00  0.00000000E+00  0.00000000E+00
  0.00000000E+00  0.00000000E+00  0.00000000E+00
  0.00000000E+00  0.00000000E+00  0.00000000E+00
  0.00000000E+00  0.00000000E+00  0.00000000E+00
  0.00000000E+00  0.00000000E+00  0.00000000E+00
  0.00000000E+00  0.00000000E+00  0.00000000E+00
  0.00000000E+00  0.00000000E+00  0.00000000E+00
  0.00000000E+00  0.00000000E+00  0.00000000E+00
  0.00000000E+00  0.00000000E+00  0.00000000E+00
  0.00000000E+00  0.00000000E+00  0.00000000E+00
  0.00000000E+00  0.00000000E+00  0.00000000E+00
  0.00000000E+00  0.00000000E+00  0.00000000E+00
  0.00000000E+00  0.00000000E+00  0.00000000E+00
  0.00000000E+00  0.00000000E+00  0.00000000E+00
  0.00000000E+00  0.00000000E+00  0.00000000E+00
  0.00000000E+00  0.00000000E+00  0.00000000E+00
  0.00000000E+00  0.00000000E+00  0.00000000E+00
  0.00000000E+00  0.00000000E+00  0.00000000E+00
  0.00000000E+00  0.00000000E+00  0.00000000E+00
  0.00000000E+00  0.00000000E+00  0.00000000E+00
  0.00000000E+00  0.00000000E+00  0.00000000E+00
  0.00000000E+00  0.00000000E+00  0.00000000E+00
  0.00000000E+00  0.00000000E+00  0.00000000E+00
  0.00000000E+00  0.00000000E+00  0.00000000E+00
  0.00000000E+00  0.00000000E+00  0.00000000E+00
  0.00000000E+00  0.00000000E+00  0.00000000E+00
  0.00000000E+00  0.00000000E+00  0.00000000E+00
  0.00000000E+00  0.00000000E+00  0.00000000E+00
  0.00000000E+00  0.00000000E+00  0.00000000E+00
  0.00000000E+00  0.00000000E+00  0.00000000E+00
  0.00000000E+00  0.00000000E+00  0.00000000E+00
  0.00000000E+00  0.00000000E+00  0.00000000E+00
  0.00000000E+00  0.00000000E+00  0.00000000E+00
  0.00000000E+00  0.00000000E+00  0.00000000E+00
  0.00000000E+00  0.00000000E+00  0.00000000E+00
  0.00000000E+00  0.00000000E+00  0.00000000E+00
  0.00000000E+00  0.00000000E+00  0.00000000E+00
  0.00000000E+00  0.00000000E+00  0.00000000E+00
  0.00000000E+00  0.00000000E+00  0.00000000E+00
  0.00000000E+00  0.00000000E+00  0.00000000E+00
  0.00000000E+00  0.00000000E+00  0.00000000E+00
  0.00000000E+00  0.00000000E+00  0.00000000E+00
  0.00000000E+00  0.00000000E+00  0.00000000E+00
  0.00000000E+00  0.00000000E+00  0.00000000E+00
  0.00000000E+00  0.00000000E+00  0.00000000E+00
  0.00000000E+00  0.00000000E+00  0.00000000E+00
  0.00000000E+00  0.00000000E+00  0.00000000E+00
  0.00000000E+00  0.00000000E+00  0.00000000E+00
  0.00000000E+00  0.00000000E+00  0.00000000E+00
  0.00000000E+00  0.00000000E+00  0.00000000E+00
  0.00000000E+00  0.00000000E+00  0.00000000E+00
  0.00000000E+00  0.00000000E+00  0.00000000E+00
  0.00000000E+00  0.00000000E+00  0.00000000E+00
  0.00000000E+00  0.00000000E+00  0.00000000E+00
  0.00000000E+00  0.00000000E+00  0.00000000E+00
  0.00000000E+00  0.00000000E+00  0.00000000E+00
  0.00000000E+00  0.00000000E+00  0.00000000E+00
  0.00000000E+00  0.00000000E+00  0.00000000E+00
  0.00000000E+00  0.00000000E+00  0.00000000E+00
  0.00000000E+00  0.00000000E+00  0.00000000E+00
  0.00000000E+00  0.00000000E+00  0.00000000E+00
  0.00000000E+00  0.00000000E+00  0.00000000E+00
  0.00000000E+00  0.00000000E+00  0.00000000E+00
  0.00000000E+00  0.00000000E+00  0.00000000E+00
  0.00000000E+00  0.00000000E+00  0.00000000E+00
  0.00000000E+00  0.00000000E+00  0.00000000E+00
  0.00000000E+00  0.00000000E+00  0.00000000E+00
  0.00000000E+00  0.00000000E+00  0.00000000E+00
  0.00000000E+00  0.00000000E+00  0.00000000E+00
  0.00000000E+00  0.00000000E+00  0.00000000E+00
  0.00000000E+00  0.00000000E+00  0.00000000E+00
  0.00000000E+00  0.00000000E+00  0.00000000E+00
  0.00000000E+00  0.00000000E+00  0.00000000E+00
  0.00000000E+00  0.00000000E+00  0.00000000E+00
  0.00000000E+00  0.00000000E+00  0.00000000E+00
  0.00000000E+00  0.00000000E+00  0.00000000E+00
  0.00000000E+00  0.00000000E+00  0.00000000E+00
  0.00000000E+00  0.00000000E+00  0.00000000E+00
  0.00000000E+00  0.00000000E+00  0.00000000E+00
  0.00000000E+00  0.00000000E+00  0.00000000E+00
  0.00000000E+00  0.00000000E+00  0.00000000E+00
  0.00000000E+00  0.00000000E+00  0.00000000E+00
  0.00000000E+00  0.00000000E+00  0.00000000E+00
  0.00000000E+00  0.00000000E+00  0.00000000E+00
  0.00000000E+00  0.00000000E+00  0.00000000E+00
  0.00000000E+00  0.00000000E+00  0.00000000E+00
  0.00000000E+00  0.00000000E+00  0.00000000E+00
  0.00000000E+00  0.00000000E+00  0.00000000E+00
  0.00000000E+00  0.00000000E+00  0.00000000E+00
