CONTCAR\(4)                             
   1.00000000000000     
    10.8957996367999996    0.0000000000000000    0.0000000000000000
     0.0000000000000000   12.8001003265000008    0.0000000000000000
     0.0000000000000000    0.0000000000000000   21.8099994658999989
   Cu   Si   P    O    H 
    12    24    36     2     1
Selective dynamics
Direct
  0.9979894294895857  0.1089785553694540  0.4630749748951359   F   F   F
  0.9973002473190462  0.2910638788356508  0.3587686193543362   F   F   F
  0.3311617447140520  0.1089861503278513  0.4630014092455141   F   F   F
  0.3313792410755383  0.2906141978223005  0.3573182041241836   F   F   F
  0.6654616438211747  0.1087887691389540  0.4628270466278153   F   F   F
  0.6640093691274842  0.2903876584833753  0.3572281702066959   F   F   F
  0.9968821569432293  0.6094877932808842  0.4609481999840455   F   F   F
  0.9982561022607612  0.7911085162140665  0.3630890327313168   F   F   F
  0.3311650955786760  0.6098450064855356  0.4615975117887672   F   F   F
  0.3316109765280615  0.7934402013903679  0.3620567045641181   F   F   F
  0.6631471531489836  0.6100071594298768  0.4615121102339685   F   F   F
  0.6632152282751633  0.7936786305788956  0.3619320825108474   F   F   F
  0.1641749074946546  0.0507501069504812  0.3888902352831991   F   F   F
  0.1656941274955201  0.1935575717861227  0.6092133170251017   F   F   F
  0.1643463153442539  0.3548742451969602  0.4789478604605009   F   F   F
  0.9967191475265977  0.4425383617015939  0.6128181331170168   F   F   F
  0.4971436759182026  0.0524849906943103  0.3905123109823805   F   F   F
  0.4982921844762487  0.1815040181844552  0.6062707548573485   F   F   F
  0.4973054362155693  0.3563825188735095  0.4749638335967390   F   F   F
  0.3307704211374727  0.4412703364110371  0.6125067647845341   F   F   F
  0.8299639247509418  0.0501739316977208  0.3886834189925068   F   F   F
  0.8290751470583899  0.1937901971911984  0.6093072287552062   F   F   F
  0.8298983491764957  0.3550868125138038  0.4789415273216449   F   F   F
  0.6630909672748686  0.4415641685847973  0.6126041764014616   F   F   F
  0.1644155965642682  0.5496606156479444  0.3862626667369540   F   F   F
  0.1617714459390172  0.6913261497502248  0.6080747569465004   F   F   F
  0.1655815839736405  0.8567732128473153  0.4843263787516392   F   F   F
  0.9959571496390680  0.9444642097552673  0.6166887320140475   F   F   F
  0.4975895052700565  0.5514409618068612  0.3845176527684799   F   F   F
  0.4965836455836623  0.6925345028768248  0.6105507675192925   F   F   F
  0.4976297904459770  0.8562266704874375  0.4847577973008086   F   F   F
  0.3305269808462867  0.9405528373155860  0.6207286115437185   F   F   F
  0.8304793229646279  0.5499929484595683  0.3860815668993212   F   F   F
  0.8297111643615196  0.6925816767099988  0.6085621350407351   F   F   F
  0.8292156814731939  0.8563853857185393  0.4835207223059470   F   F   F
  0.6607434471756193  0.9434068065832619  0.6201805714129165   F   F   F
  0.9969666255143110  0.1222614023716844  0.3464454899492324   F   F   F
  0.1644542795080426  0.1884329901361994  0.5059373182101723   F   F   F
  0.1647060740940844  0.3777196977754684  0.3776003703211757   F   F   F
  0.9974125451815894  0.2755442630281593  0.6530507849452363   F   F   F
  0.9971199731158507  0.4486724078674413  0.5094748242033944   F   F   F
  0.1625461176537044  0.0305861493568855  0.6576843080137280   F   F   F
  0.3305045964869038  0.1215811260729680  0.3455025077278577   F   F   F
  0.4983004338663619  0.1921767701990191  0.5025626947647481   F   F   F
  0.4977543607728094  0.3808740412580178  0.3736906566096891   F   F   F
  0.3350061075285140  0.2739408445302374  0.6506516881307363   F   F   F
  0.3312293144141307  0.4488769004067308  0.5089090332252724   F   F   F
  0.4951047665646158  0.0113336404762236  0.6742499301797906   F   F   F
  0.6635970258764630  0.1213913308645687  0.3453463607254648   F   F   F
  0.8313970294838455  0.1887413699492555  0.5059770366634808   F   F   F
  0.8301220795259852  0.3780291847508011  0.3776145778949882   F   F   F
  0.6601396794474823  0.2745001043832929  0.6509761327147814   F   F   F
  0.6630136394918651  0.4491211008454030  0.5089882752781278   F   F   F
  0.8301947457688073  0.0311496706483538  0.6577058847467043   F   F   F
  0.9976288973563214  0.6235709200412529  0.3446136789886154   F   F   F
  0.1632213354837475  0.6882913986612635  0.5054171721645346   F   F   F
  0.1646468291100618  0.8790976587160628  0.3832709785873121   F   F   F
  0.9962913496246983  0.7742074307833917  0.6541854298194636   F   F   F
  0.9970509959451022  0.9498156087903382  0.5135808985753698   F   F   F
  0.1632072811777050  0.5274182274134631  0.6535617292524591   F   F   F
  0.3299732802848325  0.6259437908337233  0.3449363525993192   F   F   F
  0.4970348445047179  0.6884496828249098  0.5073697286692678   F   F   F
  0.4973848246944854  0.8805432124315473  0.3838291682395791   F   F   F
  0.3254685822259660  0.7692380374977077  0.6555180782616006   F   F   F
  0.3326529253735728  0.9509795576958595  0.5168199110230347   F   F   F
  0.4967440567362189  0.5268654152535106  0.6546899432540485   F   F   F
  0.6648942441903429  0.6262167043814699  0.3448410779633306   F   F   F
  0.8306123204077025  0.6884224658696780  0.5057720653347104   F   F   F
  0.8310025838375026  0.8785769897321529  0.3823721736569254   F   F   F
  0.6656859100885768  0.7716277217048741  0.6557176931272792   F   F   F
  0.6630100687710012  0.9506626927145447  0.5162054012103994   F   F   F
  0.8301462485256295  0.5279724755507829  0.6536336032691139   F   F   F
  0.5632205067225016  0.9233682376817072  0.7782721901528902   T   T   T
  0.4796161716149783  0.9014412029423156  0.7265013474749651   T   T   T
  0.5039795366410900  0.9488481984567443  0.8079999900604028   T   T   T
 
  0.00000000E+00  0.00000000E+00  0.00000000E+00
  0.00000000E+00  0.00000000E+00  0.00000000E+00
  0.00000000E+00  0.00000000E+00  0.00000000E+00
  0.00000000E+00  0.00000000E+00  0.00000000E+00
  0.00000000E+00  0.00000000E+00  0.00000000E+00
  0.00000000E+00  0.00000000E+00  0.00000000E+00
  0.00000000E+00  0.00000000E+00  0.00000000E+00
  0.00000000E+00  0.00000000E+00  0.00000000E+00
  0.00000000E+00  0.00000000E+00  0.00000000E+00
  0.00000000E+00  0.00000000E+00  0.00000000E+00
  0.00000000E+00  0.00000000E+00  0.00000000E+00
  0.00000000E+00  0.00000000E+00  0.00000000E+00
  0.00000000E+00  0.00000000E+00  0.00000000E+00
  0.00000000E+00  0.00000000E+00  0.00000000E+00
  0.00000000E+00  0.00000000E+00  0.00000000E+00
  0.00000000E+00  0.00000000E+00  0.00000000E+00
  0.00000000E+00  0.00000000E+00  0.00000000E+00
  0.00000000E+00  0.00000000E+00  0.00000000E+00
  0.00000000E+00  0.00000000E+00  0.00000000E+00
  0.00000000E+00  0.00000000E+00  0.00000000E+00
  0.00000000E+00  0.00000000E+00  0.00000000E+00
  0.00000000E+00  0.00000000E+00  0.00000000E+00
  0.00000000E+00  0.00000000E+00  0.00000000E+00
  0.00000000E+00  0.00000000E+00  0.00000000E+00
  0.00000000E+00  0.00000000E+00  0.00000000E+00
  0.00000000E+00  0.00000000E+00  0.00000000E+00
  0.00000000E+00  0.00000000E+00  0.00000000E+00
  0.00000000E+00  0.00000000E+00  0.00000000E+00
  0.00000000E+00  0.00000000E+00  0.00000000E+00
  0.00000000E+00  0.00000000E+00  0.00000000E+00
  0.00000000E+00  0.00000000E+00  0.00000000E+00
  0.00000000E+00  0.00000000E+00  0.00000000E+00
  0.00000000E+00  0.00000000E+00  0.00000000E+00
  0.00000000E+00  0.00000000E+00  0.00000000E+00
  0.00000000E+00  0.00000000E+00  0.00000000E+00
  0.00000000E+00  0.00000000E+00  0.00000000E+00
  0.00000000E+00  0.00000000E+00  0.00000000E+00
  0.00000000E+00  0.00000000E+00  0.00000000E+00
  0.00000000E+00  0.00000000E+00  0.00000000E+00
  0.00000000E+00  0.00000000E+00  0.00000000E+00
  0.00000000E+00  0.00000000E+00  0.00000000E+00
  0.00000000E+00  0.00000000E+00  0.00000000E+00
  0.00000000E+00  0.00000000E+00  0.00000000E+00
  0.00000000E+00  0.00000000E+00  0.00000000E+00
  0.00000000E+00  0.00000000E+00  0.00000000E+00
  0.00000000E+00  0.00000000E+00  0.00000000E+00
  0.00000000E+00  0.00000000E+00  0.00000000E+00
  0.00000000E+00  0.00000000E+00  0.00000000E+00
  0.00000000E+00  0.00000000E+00  0.00000000E+00
  0.00000000E+00  0.00000000E+00  0.00000000E+00
  0.00000000E+00  0.00000000E+00  0.00000000E+00
  0.00000000E+00  0.00000000E+00  0.00000000E+00
  0.00000000E+00  0.00000000E+00  0.00000000E+00
  0.00000000E+00  0.00000000E+00  0.00000000E+00
  0.00000000E+00  0.00000000E+00  0.00000000E+00
  0.00000000E+00  0.00000000E+00  0.00000000E+00
  0.00000000E+00  0.00000000E+00  0.00000000E+00
  0.00000000E+00  0.00000000E+00  0.00000000E+00
  0.00000000E+00  0.00000000E+00  0.00000000E+00
  0.00000000E+00  0.00000000E+00  0.00000000E+00
  0.00000000E+00  0.00000000E+00  0.00000000E+00
  0.00000000E+00  0.00000000E+00  0.00000000E+00
  0.00000000E+00  0.00000000E+00  0.00000000E+00
  0.00000000E+00  0.00000000E+00  0.00000000E+00
  0.00000000E+00  0.00000000E+00  0.00000000E+00
  0.00000000E+00  0.00000000E+00  0.00000000E+00
  0.00000000E+00  0.00000000E+00  0.00000000E+00
  0.00000000E+00  0.00000000E+00  0.00000000E+00
  0.00000000E+00  0.00000000E+00  0.00000000E+00
  0.00000000E+00  0.00000000E+00  0.00000000E+00
  0.00000000E+00  0.00000000E+00  0.00000000E+00
  0.00000000E+00  0.00000000E+00  0.00000000E+00
  0.00000000E+00  0.00000000E+00  0.00000000E+00
  0.00000000E+00  0.00000000E+00  0.00000000E+00
  0.00000000E+00  0.00000000E+00  0.00000000E+00
