 Nb6 Si2 Te12                           
   1.00000000000000     
     6.3422040017609218    0.0000000000000000    0.0000000000000000
     0.0000000000000000   11.4938729688828971    0.0000000000000000
     0.0000000000000000    0.0000000000000000   18.8276757843199967
   Nb   Si   Te
     6     2    12
Direct
  0.1652739670907808  0.0856247342708305  0.5000000318281878
  0.6652897461706659  0.9143855505672480  0.4999999953989906
  0.6977233840387789  0.2144522329823764  0.5000000747159313
  0.1977527605220337  0.7855565775524582  0.4999998942776852
  0.9689682409511776  0.5617479246060441  0.4999999412041871
  0.4689504505112758  0.4382404286825136  0.5000001038282453
  0.0763279672911472  0.3244824533338816  0.4999999727275924
  0.5763375433225912  0.6754998211842675  0.4999999608095934
  0.8486079303676549  0.0665025232128434  0.6028896458292371
  0.3486161481345267  0.9335197999692849  0.3971120022250842
  0.3486160401307737  0.9335196610896386  0.6028879488696657
  0.8486078636201694  0.0665026052365701  0.3971104157389002
  0.7970462935349285  0.4045419024728268  0.5997421145845740
  0.2970553220691510  0.5954522123021904  0.4002576657331645
  0.2970553070263688  0.5954524388791318  0.5997423127822942
  0.7970460481056452  0.4045418031654625  0.4002579565788752
  0.3556199362985382  0.2476290642393419  0.5971598592992773
  0.8556244480557110  0.7523596291719316  0.4028482091158519
  0.8556246118328033  0.7523595251141511  0.5971516840944403
  0.3556199909252657  0.2476291119670064  0.4028402103582235
 
  0.00000000E+00  0.00000000E+00  0.00000000E+00
  0.00000000E+00  0.00000000E+00  0.00000000E+00
  0.00000000E+00  0.00000000E+00  0.00000000E+00
  0.00000000E+00  0.00000000E+00  0.00000000E+00
  0.00000000E+00  0.00000000E+00  0.00000000E+00
  0.00000000E+00  0.00000000E+00  0.00000000E+00
  0.00000000E+00  0.00000000E+00  0.00000000E+00
  0.00000000E+00  0.00000000E+00  0.00000000E+00
  0.00000000E+00  0.00000000E+00  0.00000000E+00
  0.00000000E+00  0.00000000E+00  0.00000000E+00
  0.00000000E+00  0.00000000E+00  0.00000000E+00
  0.00000000E+00  0.00000000E+00  0.00000000E+00
  0.00000000E+00  0.00000000E+00  0.00000000E+00
  0.00000000E+00  0.00000000E+00  0.00000000E+00
  0.00000000E+00  0.00000000E+00  0.00000000E+00
  0.00000000E+00  0.00000000E+00  0.00000000E+00
  0.00000000E+00  0.00000000E+00  0.00000000E+00
  0.00000000E+00  0.00000000E+00  0.00000000E+00
  0.00000000E+00  0.00000000E+00  0.00000000E+00
  0.00000000E+00  0.00000000E+00  0.00000000E+00
