 Cu2 Se2                                
   1.00000000000000     
     3.6430896800511130    0.0000000000000000    0.0000000000000000
     0.0000000000000000    3.6430894606745921    0.0000000000000000
     0.0000000000000000    0.0000000000000000   18.0812517465840017
   Cu   Se
     2     2
Direct
  0.9999999924271918  0.9999999948760774  0.4999999939158073
  0.5000000104821822  0.4999999908710748  0.5000000060218568
  0.9999999811468285  0.5000000180705868  0.5898675858645959
  0.5000000159437974  0.9999999961822610  0.4101324141977400
 
  0.00000000E+00  0.00000000E+00  0.00000000E+00
  0.00000000E+00  0.00000000E+00  0.00000000E+00
  0.00000000E+00  0.00000000E+00  0.00000000E+00
  0.00000000E+00  0.00000000E+00  0.00000000E+00
