G   55   55    1    0.005     # Parameters to Generate KPOINTS (Don't Edit This Line)
     406
Reciprocal lattice
    0.000000000000    0.000000000000    0.000000000000       1
    0.018181818182    0.000000000000    0.000000000000       4
    0.036363636364    0.000000000000    0.000000000000       4
    0.054545454545    0.000000000000    0.000000000000       4
    0.072727272727    0.000000000000    0.000000000000       4
    0.090909090909    0.000000000000    0.000000000000       4
    0.109090909091    0.000000000000    0.000000000000       4
    0.127272727273    0.000000000000    0.000000000000       4
    0.145454545455    0.000000000000    0.000000000000       4
    0.163636363636    0.000000000000    0.000000000000       4
    0.181818181818    0.000000000000    0.000000000000       4
    0.200000000000    0.000000000000    0.000000000000       4
    0.218181818182    0.000000000000    0.000000000000       4
    0.236363636364    0.000000000000    0.000000000000       4
    0.254545454545    0.000000000000    0.000000000000       4
    0.272727272727    0.000000000000    0.000000000000       4
    0.290909090909    0.000000000000    0.000000000000       4
    0.309090909091    0.000000000000    0.000000000000       4
    0.327272727273    0.000000000000    0.000000000000       4
    0.345454545455    0.000000000000    0.000000000000       4
    0.363636363636    0.000000000000    0.000000000000       4
    0.381818181818    0.000000000000    0.000000000000       4
    0.400000000000    0.000000000000    0.000000000000       4
    0.418181818182    0.000000000000    0.000000000000       4
    0.436363636364    0.000000000000    0.000000000000       4
    0.454545454545    0.000000000000    0.000000000000       4
    0.472727272727    0.000000000000    0.000000000000       4
    0.490909090909    0.000000000000    0.000000000000       4
    0.018181818182    0.018181818182    0.000000000000       4
    0.036363636364    0.018181818182    0.000000000000       8
    0.054545454545    0.018181818182    0.000000000000       8
    0.072727272727    0.018181818182    0.000000000000       8
    0.090909090909    0.018181818182    0.000000000000       8
    0.109090909091    0.018181818182    0.000000000000       8
    0.127272727273    0.018181818182    0.000000000000       8
    0.145454545455    0.018181818182    0.000000000000       8
    0.163636363636    0.018181818182    0.000000000000       8
    0.181818181818    0.018181818182    0.000000000000       8
    0.200000000000    0.018181818182    0.000000000000       8
    0.218181818182    0.018181818182    0.000000000000       8
    0.236363636364    0.018181818182    0.000000000000       8
    0.254545454545    0.018181818182    0.000000000000       8
    0.272727272727    0.018181818182    0.000000000000       8
    0.290909090909    0.018181818182    0.000000000000       8
    0.309090909091    0.018181818182    0.000000000000       8
    0.327272727273    0.018181818182    0.000000000000       8
    0.345454545455    0.018181818182    0.000000000000       8
    0.363636363636    0.018181818182    0.000000000000       8
    0.381818181818    0.018181818182    0.000000000000       8
    0.400000000000    0.018181818182    0.000000000000       8
    0.418181818182    0.018181818182    0.000000000000       8
    0.436363636364    0.018181818182    0.000000000000       8
    0.454545454545    0.018181818182    0.000000000000       8
    0.472727272727    0.018181818182    0.000000000000       8
    0.490909090909    0.018181818182    0.000000000000       8
    0.036363636364    0.036363636364    0.000000000000       4
    0.054545454545    0.036363636364    0.000000000000       8
    0.072727272727    0.036363636364    0.000000000000       8
    0.090909090909    0.036363636364    0.000000000000       8
    0.109090909091    0.036363636364    0.000000000000       8
    0.127272727273    0.036363636364    0.000000000000       8
    0.145454545455    0.036363636364    0.000000000000       8
    0.163636363636    0.036363636364    0.000000000000       8
    0.181818181818    0.036363636364    0.000000000000       8
    0.200000000000    0.036363636364    0.000000000000       8
    0.218181818182    0.036363636364    0.000000000000       8
    0.236363636364    0.036363636364    0.000000000000       8
    0.254545454545    0.036363636364    0.000000000000       8
    0.272727272727    0.036363636364    0.000000000000       8
    0.290909090909    0.036363636364    0.000000000000       8
    0.309090909091    0.036363636364    0.000000000000       8
    0.327272727273    0.036363636364    0.000000000000       8
    0.345454545455    0.036363636364    0.000000000000       8
    0.363636363636    0.036363636364    0.000000000000       8
    0.381818181818    0.036363636364    0.000000000000       8
    0.400000000000    0.036363636364    0.000000000000       8
    0.418181818182    0.036363636364    0.000000000000       8
    0.436363636364    0.036363636364    0.000000000000       8
    0.454545454545    0.036363636364    0.000000000000       8
    0.472727272727    0.036363636364    0.000000000000       8
    0.490909090909    0.036363636364    0.000000000000       8
    0.054545454545    0.054545454545    0.000000000000       4
    0.072727272727    0.054545454545    0.000000000000       8
    0.090909090909    0.054545454545    0.000000000000       8
    0.109090909091    0.054545454545    0.000000000000       8
    0.127272727273    0.054545454545    0.000000000000       8
    0.145454545455    0.054545454545    0.000000000000       8
    0.163636363636    0.054545454545    0.000000000000       8
    0.181818181818    0.054545454545    0.000000000000       8
    0.200000000000    0.054545454545    0.000000000000       8
    0.218181818182    0.054545454545    0.000000000000       8
    0.236363636364    0.054545454545    0.000000000000       8
    0.254545454545    0.054545454545    0.000000000000       8
    0.272727272727    0.054545454545    0.000000000000       8
    0.290909090909    0.054545454545    0.000000000000       8
    0.309090909091    0.054545454545    0.000000000000       8
    0.327272727273    0.054545454545    0.000000000000       8
    0.345454545455    0.054545454545    0.000000000000       8
    0.363636363636    0.054545454545    0.000000000000       8
    0.381818181818    0.054545454545    0.000000000000       8
    0.400000000000    0.054545454545    0.000000000000       8
    0.418181818182    0.054545454545    0.000000000000       8
    0.436363636364    0.054545454545    0.000000000000       8
    0.454545454545    0.054545454545    0.000000000000       8
    0.472727272727    0.054545454545    0.000000000000       8
    0.490909090909    0.054545454545    0.000000000000       8
    0.072727272727    0.072727272727    0.000000000000       4
    0.090909090909    0.072727272727    0.000000000000       8
    0.109090909091    0.072727272727    0.000000000000       8
    0.127272727273    0.072727272727    0.000000000000       8
    0.145454545455    0.072727272727    0.000000000000       8
    0.163636363636    0.072727272727    0.000000000000       8
    0.181818181818    0.072727272727    0.000000000000       8
    0.200000000000    0.072727272727    0.000000000000       8
    0.218181818182    0.072727272727    0.000000000000       8
    0.236363636364    0.072727272727    0.000000000000       8
    0.254545454545    0.072727272727    0.000000000000       8
    0.272727272727    0.072727272727    0.000000000000       8
    0.290909090909    0.072727272727    0.000000000000       8
    0.309090909091    0.072727272727    0.000000000000       8
    0.327272727273    0.072727272727    0.000000000000       8
    0.345454545455    0.072727272727    0.000000000000       8
    0.363636363636    0.072727272727    0.000000000000       8
    0.381818181818    0.072727272727    0.000000000000       8
    0.400000000000    0.072727272727    0.000000000000       8
    0.418181818182    0.072727272727    0.000000000000       8
    0.436363636364    0.072727272727    0.000000000000       8
    0.454545454545    0.072727272727    0.000000000000       8
    0.472727272727    0.072727272727    0.000000000000       8
    0.490909090909    0.072727272727    0.000000000000       8
    0.090909090909    0.090909090909    0.000000000000       4
    0.109090909091    0.090909090909    0.000000000000       8
    0.127272727273    0.090909090909    0.000000000000       8
    0.145454545455    0.090909090909    0.000000000000       8
    0.163636363636    0.090909090909    0.000000000000       8
    0.181818181818    0.090909090909    0.000000000000       8
    0.200000000000    0.090909090909    0.000000000000       8
    0.218181818182    0.090909090909    0.000000000000       8
    0.236363636364    0.090909090909    0.000000000000       8
    0.254545454545    0.090909090909    0.000000000000       8
    0.272727272727    0.090909090909    0.000000000000       8
    0.290909090909    0.090909090909    0.000000000000       8
    0.309090909091    0.090909090909    0.000000000000       8
    0.327272727273    0.090909090909    0.000000000000       8
    0.345454545455    0.090909090909    0.000000000000       8
    0.363636363636    0.090909090909    0.000000000000       8
    0.381818181818    0.090909090909    0.000000000000       8
    0.400000000000    0.090909090909    0.000000000000       8
    0.418181818182    0.090909090909    0.000000000000       8
    0.436363636364    0.090909090909    0.000000000000       8
    0.454545454545    0.090909090909    0.000000000000       8
    0.472727272727    0.090909090909    0.000000000000       8
    0.490909090909    0.090909090909    0.000000000000       8
    0.109090909091    0.109090909091    0.000000000000       4
    0.127272727273    0.109090909091    0.000000000000       8
    0.145454545455    0.109090909091    0.000000000000       8
    0.163636363636    0.109090909091    0.000000000000       8
    0.181818181818    0.109090909091    0.000000000000       8
    0.200000000000    0.109090909091    0.000000000000       8
    0.218181818182    0.109090909091    0.000000000000       8
    0.236363636364    0.109090909091    0.000000000000       8
    0.254545454545    0.109090909091    0.000000000000       8
    0.272727272727    0.109090909091    0.000000000000       8
    0.290909090909    0.109090909091    0.000000000000       8
    0.309090909091    0.109090909091    0.000000000000       8
    0.327272727273    0.109090909091    0.000000000000       8
    0.345454545455    0.109090909091    0.000000000000       8
    0.363636363636    0.109090909091    0.000000000000       8
    0.381818181818    0.109090909091    0.000000000000       8
    0.400000000000    0.109090909091    0.000000000000       8
    0.418181818182    0.109090909091    0.000000000000       8
    0.436363636364    0.109090909091    0.000000000000       8
    0.454545454545    0.109090909091    0.000000000000       8
    0.472727272727    0.109090909091    0.000000000000       8
    0.490909090909    0.109090909091    0.000000000000       8
    0.127272727273    0.127272727273    0.000000000000       4
    0.145454545455    0.127272727273    0.000000000000       8
    0.163636363636    0.127272727273    0.000000000000       8
    0.181818181818    0.127272727273    0.000000000000       8
    0.200000000000    0.127272727273    0.000000000000       8
    0.218181818182    0.127272727273    0.000000000000       8
    0.236363636364    0.127272727273    0.000000000000       8
    0.254545454545    0.127272727273    0.000000000000       8
    0.272727272727    0.127272727273    0.000000000000       8
    0.290909090909    0.127272727273    0.000000000000       8
    0.309090909091    0.127272727273    0.000000000000       8
    0.327272727273    0.127272727273    0.000000000000       8
    0.345454545455    0.127272727273    0.000000000000       8
    0.363636363636    0.127272727273    0.000000000000       8
    0.381818181818    0.127272727273    0.000000000000       8
    0.400000000000    0.127272727273    0.000000000000       8
    0.418181818182    0.127272727273    0.000000000000       8
    0.436363636364    0.127272727273    0.000000000000       8
    0.454545454545    0.127272727273    0.000000000000       8
    0.472727272727    0.127272727273    0.000000000000       8
    0.490909090909    0.127272727273    0.000000000000       8
    0.145454545455    0.145454545455    0.000000000000       4
    0.163636363636    0.145454545455    0.000000000000       8
    0.181818181818    0.145454545455    0.000000000000       8
    0.200000000000    0.145454545455    0.000000000000       8
    0.218181818182    0.145454545455    0.000000000000       8
    0.236363636364    0.145454545455    0.000000000000       8
    0.254545454545    0.145454545455    0.000000000000       8
    0.272727272727    0.145454545455    0.000000000000       8
    0.290909090909    0.145454545455    0.000000000000       8
    0.309090909091    0.145454545455    0.000000000000       8
    0.327272727273    0.145454545455    0.000000000000       8
    0.345454545455    0.145454545455    0.000000000000       8
    0.363636363636    0.145454545455    0.000000000000       8
    0.381818181818    0.145454545455    0.000000000000       8
    0.400000000000    0.145454545455    0.000000000000       8
    0.418181818182    0.145454545455    0.000000000000       8
    0.436363636364    0.145454545455    0.000000000000       8
    0.454545454545    0.145454545455    0.000000000000       8
    0.472727272727    0.145454545455    0.000000000000       8
    0.490909090909    0.145454545455    0.000000000000       8
    0.163636363636    0.163636363636    0.000000000000       4
    0.181818181818    0.163636363636    0.000000000000       8
    0.200000000000    0.163636363636    0.000000000000       8
    0.218181818182    0.163636363636    0.000000000000       8
    0.236363636364    0.163636363636    0.000000000000       8
    0.254545454545    0.163636363636    0.000000000000       8
    0.272727272727    0.163636363636    0.000000000000       8
    0.290909090909    0.163636363636    0.000000000000       8
    0.309090909091    0.163636363636    0.000000000000       8
    0.327272727273    0.163636363636    0.000000000000       8
    0.345454545455    0.163636363636    0.000000000000       8
    0.363636363636    0.163636363636    0.000000000000       8
    0.381818181818    0.163636363636    0.000000000000       8
    0.400000000000    0.163636363636    0.000000000000       8
    0.418181818182    0.163636363636    0.000000000000       8
    0.436363636364    0.163636363636    0.000000000000       8
    0.454545454545    0.163636363636    0.000000000000       8
    0.472727272727    0.163636363636    0.000000000000       8
    0.490909090909    0.163636363636    0.000000000000       8
    0.181818181818    0.181818181818    0.000000000000       4
    0.200000000000    0.181818181818    0.000000000000       8
    0.218181818182    0.181818181818    0.000000000000       8
    0.236363636364    0.181818181818    0.000000000000       8
    0.254545454545    0.181818181818    0.000000000000       8
    0.272727272727    0.181818181818    0.000000000000       8
    0.290909090909    0.181818181818    0.000000000000       8
    0.309090909091    0.181818181818    0.000000000000       8
    0.327272727273    0.181818181818    0.000000000000       8
    0.345454545455    0.181818181818    0.000000000000       8
    0.363636363636    0.181818181818    0.000000000000       8
    0.381818181818    0.181818181818    0.000000000000       8
    0.400000000000    0.181818181818    0.000000000000       8
    0.418181818182    0.181818181818    0.000000000000       8
    0.436363636364    0.181818181818    0.000000000000       8
    0.454545454545    0.181818181818    0.000000000000       8
    0.472727272727    0.181818181818    0.000000000000       8
    0.490909090909    0.181818181818    0.000000000000       8
    0.200000000000    0.200000000000    0.000000000000       4
    0.218181818182    0.200000000000    0.000000000000       8
    0.236363636364    0.200000000000    0.000000000000       8
    0.254545454545    0.200000000000    0.000000000000       8
    0.272727272727    0.200000000000    0.000000000000       8
    0.290909090909    0.200000000000    0.000000000000       8
    0.309090909091    0.200000000000    0.000000000000       8
    0.327272727273    0.200000000000    0.000000000000       8
    0.345454545455    0.200000000000    0.000000000000       8
    0.363636363636    0.200000000000    0.000000000000       8
    0.381818181818    0.200000000000    0.000000000000       8
    0.400000000000    0.200000000000    0.000000000000       8
    0.418181818182    0.200000000000    0.000000000000       8
    0.436363636364    0.200000000000    0.000000000000       8
    0.454545454545    0.200000000000    0.000000000000       8
    0.472727272727    0.200000000000    0.000000000000       8
    0.490909090909    0.200000000000    0.000000000000       8
    0.218181818182    0.218181818182    0.000000000000       4
    0.236363636364    0.218181818182    0.000000000000       8
    0.254545454545    0.218181818182    0.000000000000       8
    0.272727272727    0.218181818182    0.000000000000       8
    0.290909090909    0.218181818182    0.000000000000       8
    0.309090909091    0.218181818182    0.000000000000       8
    0.327272727273    0.218181818182    0.000000000000       8
    0.345454545455    0.218181818182    0.000000000000       8
    0.363636363636    0.218181818182    0.000000000000       8
    0.381818181818    0.218181818182    0.000000000000       8
    0.400000000000    0.218181818182    0.000000000000       8
    0.418181818182    0.218181818182    0.000000000000       8
    0.436363636364    0.218181818182    0.000000000000       8
    0.454545454545    0.218181818182    0.000000000000       8
    0.472727272727    0.218181818182    0.000000000000       8
    0.490909090909    0.218181818182    0.000000000000       8
    0.236363636364    0.236363636364    0.000000000000       4
    0.254545454545    0.236363636364    0.000000000000       8
    0.272727272727    0.236363636364    0.000000000000       8
    0.290909090909    0.236363636364    0.000000000000       8
    0.309090909091    0.236363636364    0.000000000000       8
    0.327272727273    0.236363636364    0.000000000000       8
    0.345454545455    0.236363636364    0.000000000000       8
    0.363636363636    0.236363636364    0.000000000000       8
    0.381818181818    0.236363636364    0.000000000000       8
    0.400000000000    0.236363636364    0.000000000000       8
    0.418181818182    0.236363636364    0.000000000000       8
    0.436363636364    0.236363636364    0.000000000000       8
    0.454545454545    0.236363636364    0.000000000000       8
    0.472727272727    0.236363636364    0.000000000000       8
    0.490909090909    0.236363636364    0.000000000000       8
    0.254545454545    0.254545454545    0.000000000000       4
    0.272727272727    0.254545454545    0.000000000000       8
    0.290909090909    0.254545454545    0.000000000000       8
    0.309090909091    0.254545454545    0.000000000000       8
    0.327272727273    0.254545454545    0.000000000000       8
    0.345454545455    0.254545454545    0.000000000000       8
    0.363636363636    0.254545454545    0.000000000000       8
    0.381818181818    0.254545454545    0.000000000000       8
    0.400000000000    0.254545454545    0.000000000000       8
    0.418181818182    0.254545454545    0.000000000000       8
    0.436363636364    0.254545454545    0.000000000000       8
    0.454545454545    0.254545454545    0.000000000000       8
    0.472727272727    0.254545454545    0.000000000000       8
    0.490909090909    0.254545454545    0.000000000000       8
    0.272727272727    0.272727272727    0.000000000000       4
    0.290909090909    0.272727272727    0.000000000000       8
    0.309090909091    0.272727272727    0.000000000000       8
    0.327272727273    0.272727272727    0.000000000000       8
    0.345454545455    0.272727272727    0.000000000000       8
    0.363636363636    0.272727272727    0.000000000000       8
    0.381818181818    0.272727272727    0.000000000000       8
    0.400000000000    0.272727272727    0.000000000000       8
    0.418181818182    0.272727272727    0.000000000000       8
    0.436363636364    0.272727272727    0.000000000000       8
    0.454545454545    0.272727272727    0.000000000000       8
    0.472727272727    0.272727272727    0.000000000000       8
    0.490909090909    0.272727272727    0.000000000000       8
    0.290909090909    0.290909090909    0.000000000000       4
    0.309090909091    0.290909090909    0.000000000000       8
    0.327272727273    0.290909090909    0.000000000000       8
    0.345454545455    0.290909090909    0.000000000000       8
    0.363636363636    0.290909090909    0.000000000000       8
    0.381818181818    0.290909090909    0.000000000000       8
    0.400000000000    0.290909090909    0.000000000000       8
    0.418181818182    0.290909090909    0.000000000000       8
    0.436363636364    0.290909090909    0.000000000000       8
    0.454545454545    0.290909090909    0.000000000000       8
    0.472727272727    0.290909090909    0.000000000000       8
    0.490909090909    0.290909090909    0.000000000000       8
    0.309090909091    0.309090909091    0.000000000000       4
    0.327272727273    0.309090909091    0.000000000000       8
    0.345454545455    0.309090909091    0.000000000000       8
    0.363636363636    0.309090909091    0.000000000000       8
    0.381818181818    0.309090909091    0.000000000000       8
    0.400000000000    0.309090909091    0.000000000000       8
    0.418181818182    0.309090909091    0.000000000000       8
    0.436363636364    0.309090909091    0.000000000000       8
    0.454545454545    0.309090909091    0.000000000000       8
    0.472727272727    0.309090909091    0.000000000000       8
    0.490909090909    0.309090909091    0.000000000000       8
    0.327272727273    0.327272727273    0.000000000000       4
    0.345454545455    0.327272727273    0.000000000000       8
    0.363636363636    0.327272727273    0.000000000000       8
    0.381818181818    0.327272727273    0.000000000000       8
    0.400000000000    0.327272727273    0.000000000000       8
    0.418181818182    0.327272727273    0.000000000000       8
    0.436363636364    0.327272727273    0.000000000000       8
    0.454545454545    0.327272727273    0.000000000000       8
    0.472727272727    0.327272727273    0.000000000000       8
    0.490909090909    0.327272727273    0.000000000000       8
    0.345454545455    0.345454545455    0.000000000000       4
    0.363636363636    0.345454545455    0.000000000000       8
    0.381818181818    0.345454545455    0.000000000000       8
    0.400000000000    0.345454545455    0.000000000000       8
    0.418181818182    0.345454545455    0.000000000000       8
    0.436363636364    0.345454545455    0.000000000000       8
    0.454545454545    0.345454545455    0.000000000000       8
    0.472727272727    0.345454545455    0.000000000000       8
    0.490909090909    0.345454545455    0.000000000000       8
    0.363636363636    0.363636363636    0.000000000000       4
    0.381818181818    0.363636363636    0.000000000000       8
    0.400000000000    0.363636363636    0.000000000000       8
    0.418181818182    0.363636363636    0.000000000000       8
    0.436363636364    0.363636363636    0.000000000000       8
    0.454545454545    0.363636363636    0.000000000000       8
    0.472727272727    0.363636363636    0.000000000000       8
    0.490909090909    0.363636363636    0.000000000000       8
    0.381818181818    0.381818181818    0.000000000000       4
    0.400000000000    0.381818181818    0.000000000000       8
    0.418181818182    0.381818181818    0.000000000000       8
    0.436363636364    0.381818181818    0.000000000000       8
    0.454545454545    0.381818181818    0.000000000000       8
    0.472727272727    0.381818181818    0.000000000000       8
    0.490909090909    0.381818181818    0.000000000000       8
    0.400000000000    0.400000000000    0.000000000000       4
    0.418181818182    0.400000000000    0.000000000000       8
    0.436363636364    0.400000000000    0.000000000000       8
    0.454545454545    0.400000000000    0.000000000000       8
    0.472727272727    0.400000000000    0.000000000000       8
    0.490909090909    0.400000000000    0.000000000000       8
    0.418181818182    0.418181818182    0.000000000000       4
    0.436363636364    0.418181818182    0.000000000000       8
    0.454545454545    0.418181818182    0.000000000000       8
    0.472727272727    0.418181818182    0.000000000000       8
    0.490909090909    0.418181818182    0.000000000000       8
    0.436363636364    0.436363636364    0.000000000000       4
    0.454545454545    0.436363636364    0.000000000000       8
    0.472727272727    0.436363636364    0.000000000000       8
    0.490909090909    0.436363636364    0.000000000000       8
    0.454545454545    0.454545454545    0.000000000000       4
    0.472727272727    0.454545454545    0.000000000000       8
    0.490909090909    0.454545454545    0.000000000000       8
    0.472727272727    0.472727272727    0.000000000000       4
    0.490909090909    0.472727272727    0.000000000000       8
    0.490909090909    0.490909090909    0.000000000000       4
