CONTCAR\(2)                             
   1.00000000000000     
    12.6485004424999996    0.0000000000000000    0.0000000000000000
    -1.2670761195000000   12.5961316350000008    0.0000000000000000
     0.0000000000000000    0.0000000000000000   18.5200004577999984
   Cr   P    S    O    H 
     4     8    28     1     1
Direct
  0.2463552965850411  0.2466488601638408  0.4990341500462069
  0.7498267642536501  0.2477124227933966  0.4970962927802149
  0.2571694716261854  0.7530229577591960  0.4999508984523700
  0.7541779945886402  0.7199458102962724  0.4881480019795231
  0.4748977462479538  0.3287167722392568  0.4750861155358914
  0.1687756735308312  0.0190655893559918  0.5333435327750001
  0.9777611352591195  0.3353736506511936  0.4641182782658693
  0.6747439607415811  0.0191321410959813  0.5296050767035267
  0.4867110878122801  0.8294689392389492  0.4714084987443457
  0.1671290428687559  0.5248365406307353  0.5189365911356271
  0.9784369843611821  0.8320121376855526  0.4780854199104760
  0.6186032288092047  0.4992724766979808  0.5809734663040823
  0.4139414665479571  0.2422068806255001  0.5597940998019718
  0.2092425710342068  0.3945052441127427  0.5715563214392713
  0.3517640379445560  0.3288406472449535  0.4046885314945520
  0.0080229491169209  0.5020198352196904  0.4775216708458149
  0.1711226594142230  0.1491107055541279  0.5985111803095323
  0.0991980893192017  0.2639559029196600  0.4198978472504984
  0.2441679217744897  0.0775365024646514  0.4424086881896574
  0.9169977285358784  0.2648190592637198  0.5566097305126766
  0.7447891767865139  0.4139813863079824  0.5691890738922794
  0.8502806425402117  0.3268904308668560  0.3971842810029772
  0.4995680373848941  0.4945128888140344  0.5021566563190637
  0.6707551752066377  0.1518082440661963  0.5932520234570715
  0.6044663725230284  0.2815066481795620  0.4236072553066283
  0.7610262880132985  0.0855301532782898  0.4434008088347524
  0.4235283432935577  0.7489063798164189  0.5593282268219130
  0.2387142669151908  0.8986821491660751  0.5803008834018646
  0.3587977120997555  0.8324447971998115  0.4043957752766881
  0.0018553648996314  0.9885398758155179  0.5219869219128694
  0.1672199554672247  0.6472655334409968  0.5902218719482940
  0.1093075022861407  0.7916759906207017  0.4254167990378143
  0.2608564069348246  0.5887108196407781  0.4376218890967077
  0.9120944122278896  0.7309965287068276  0.5558335180574652
  0.7286933867035116  0.8957695654003284  0.5780585438200173
  0.8540168414909969  0.8363817847510150  0.4090388651357316
  0.5135809945803890  0.9945652894064337  0.4933062014847088
  0.6637656105084222  0.6581264054694352  0.5939764692848510
  0.6053530662771016  0.7643011283190958  0.4184427096927505
  0.7539896493920695  0.5781587443738176  0.4408421585258945
  0.5546992966601418  0.4630465342070185  0.6537957230747454
  0.5963660324367088  0.4205653841394169  0.6850085821377759
 
  0.00000000E+00  0.00000000E+00  0.00000000E+00
  0.00000000E+00  0.00000000E+00  0.00000000E+00
  0.00000000E+00  0.00000000E+00  0.00000000E+00
  0.00000000E+00  0.00000000E+00  0.00000000E+00
  0.00000000E+00  0.00000000E+00  0.00000000E+00
  0.00000000E+00  0.00000000E+00  0.00000000E+00
  0.00000000E+00  0.00000000E+00  0.00000000E+00
  0.00000000E+00  0.00000000E+00  0.00000000E+00
  0.00000000E+00  0.00000000E+00  0.00000000E+00
  0.00000000E+00  0.00000000E+00  0.00000000E+00
  0.00000000E+00  0.00000000E+00  0.00000000E+00
  0.00000000E+00  0.00000000E+00  0.00000000E+00
  0.00000000E+00  0.00000000E+00  0.00000000E+00
  0.00000000E+00  0.00000000E+00  0.00000000E+00
  0.00000000E+00  0.00000000E+00  0.00000000E+00
  0.00000000E+00  0.00000000E+00  0.00000000E+00
  0.00000000E+00  0.00000000E+00  0.00000000E+00
  0.00000000E+00  0.00000000E+00  0.00000000E+00
  0.00000000E+00  0.00000000E+00  0.00000000E+00
  0.00000000E+00  0.00000000E+00  0.00000000E+00
  0.00000000E+00  0.00000000E+00  0.00000000E+00
  0.00000000E+00  0.00000000E+00  0.00000000E+00
  0.00000000E+00  0.00000000E+00  0.00000000E+00
  0.00000000E+00  0.00000000E+00  0.00000000E+00
  0.00000000E+00  0.00000000E+00  0.00000000E+00
  0.00000000E+00  0.00000000E+00  0.00000000E+00
  0.00000000E+00  0.00000000E+00  0.00000000E+00
  0.00000000E+00  0.00000000E+00  0.00000000E+00
  0.00000000E+00  0.00000000E+00  0.00000000E+00
  0.00000000E+00  0.00000000E+00  0.00000000E+00
  0.00000000E+00  0.00000000E+00  0.00000000E+00
  0.00000000E+00  0.00000000E+00  0.00000000E+00
  0.00000000E+00  0.00000000E+00  0.00000000E+00
  0.00000000E+00  0.00000000E+00  0.00000000E+00
  0.00000000E+00  0.00000000E+00  0.00000000E+00
  0.00000000E+00  0.00000000E+00  0.00000000E+00
  0.00000000E+00  0.00000000E+00  0.00000000E+00
  0.00000000E+00  0.00000000E+00  0.00000000E+00
  0.00000000E+00  0.00000000E+00  0.00000000E+00
  0.00000000E+00  0.00000000E+00  0.00000000E+00
  0.00000000E+00  0.00000000E+00  0.00000000E+00
  0.00000000E+00  0.00000000E+00  0.00000000E+00
