CONTCAR\(2)                             
   1.00000000000000     
    12.8632001877000004    0.0000000000000000    0.0000000000000000
     0.0000000000000000   12.8638000487999999    0.0000000000000000
     0.0000000000000000    0.0000000000000000   23.9482994080000005
   Lu   Te   O    H 
    18    54     1     1
Direct
  0.1688509103307752  0.9992719958541088  0.5831745101652359
  0.0009213482437787  0.1662416307217427  0.4148707940326446
  0.5031697914832023  0.9995404628516837  0.5828395261835340
  0.3346537174952360  0.1661199804183653  0.4148229003847348
  0.8341273841301344  0.9997246675760536  0.5825537364054867
  0.6676206082710721  0.1665927587481875  0.4148004877192477
  0.1673735963187326  0.3245693139471157  0.5811260805726377
  0.0015990727822981  0.4994995756868548  0.4155709644864132
  0.5022102687478949  0.3340648004322944  0.5820836771174740
  0.3339891282785814  0.4998533542845038  0.4159611241806829
  0.8324550194461295  0.3333079887072827  0.5822830493917905
  0.6680108621031238  0.4997180304278359  0.4146968744754105
  0.1659469206827566  0.6738228921917866  0.5809295323729984
  0.0010987048223825  0.8334971381831195  0.4144937258006678
  0.5019049169317285  0.6659623519374733  0.5824425313335908
  0.3345278240159431  0.8330205958206989  0.4150241360267017
  0.8335405213294251  0.6668614703619227  0.5822901568848806
  0.6680145915089071  0.8327688559068918  0.4148150254995997
  0.0008953564520553  0.9998072605417221  0.3123329447006924
  0.1665916239906053  0.1627458799501156  0.6866140879380467
  0.0010581255582451  0.0013150542715294  0.6850020455757786
  0.1678868282088786  0.1661934328134009  0.3124525430336789
  0.1680879873953032  0.9998682731120496  0.4534732175099094
  0.0003213866715726  0.1658777649668011  0.5447509010667488
  0.3344425889790656  0.9997213767934383  0.3124694507134649
  0.4969501804860244  0.1702200754711853  0.6841392988457855
  0.3372916081818857  0.9974286787145417  0.6851037004784644
  0.5015307683647023  0.1661296583170184  0.3125069159401050
  0.5009991320437805  0.9994955149695031  0.4532216926872366
  0.3354197061638970  0.1652671093031444  0.5444522747122207
  0.6684737417882118  0.9998608481872253  0.3122960661525980
  0.8334295061910879  0.1692271702323964  0.6847069166569568
  0.6703282674336748  0.9961726013427423  0.6845584362225665
  0.8347984360454035  0.1668078369802544  0.3124214012061941
  0.8340477783520512  0.9999835245370932  0.4530754000014667
  0.6674768369262907  0.1665493405321570  0.5442808233230991
  0.0017049782780916  0.3332093694418319  0.3127183811124752
  0.1730029698724707  0.4932249051826005  0.7295542245600899
  0.0084347725989957  0.3370790763291112  0.6874863336448769
  0.1686014075126252  0.4996879218478156  0.3130169729214529
  0.1678295411331590  0.3321666009592903  0.4528679957445121
  0.0045607092940472  0.4983564387288624  0.5461015641192120
  0.3347345592751836  0.3329271795997428  0.3128120001015020
  0.5001621089393353  0.5009442051810495  0.6847469910144284
  0.3305250376935902  0.3335342598678679  0.6853862063480634
  0.5009089463032765  0.4995962598543500  0.3126543906610166
  0.5009120974232175  0.3338934957039257  0.4532746856881928
  0.3295646183594556  0.4999875330089196  0.5466545689285880
  0.6678034421786947  0.3334176811693013  0.3123585787536030
  0.8393839548874240  0.4973704416411522  0.6852400043103088
  0.6673455700736781  0.3323090871931882  0.6854556949908002
  0.8346196188705903  0.4996410567688301  0.3125135443106899
  0.8347233455514100  0.3334292967551988  0.4531903669300164
  0.6682456335218063  0.4998919904041799  0.5443328966856242
  0.0014038827192238  0.6660354372511961  0.3124579461197712
  0.1652398330967202  0.8318011861973389  0.6873713820500384
  0.0068296959451146  0.6618505912535966  0.6810038126085161
  0.1677833140099025  0.8333533707395944  0.3121820126314674
  0.1673820351314745  0.6672295063777582  0.4526217982397398
  0.0005029138510224  0.8348032677985842  0.5439774190556932
  0.3346987423126322  0.6667099785951933  0.3129295034552655
  0.4992775493487898  0.8298910598038631  0.6845044509492482
  0.3212289885271460  0.6617567517668519  0.6878057124897481
  0.5017677366007334  0.8329789232093106  0.3126758628853068
  0.5010077451467225  0.6655523263250771  0.4533584768028760
  0.3350688374864603  0.8329360545797044  0.5450350029529076
  0.6678252674134910  0.6660753689671566  0.3123551907506723
  0.8326097734874551  0.8328869884736676  0.6848904429925113
  0.6663004490055755  0.6626523128929094  0.6853839449389341
  0.8347696238064870  0.8327205063578091  0.3122538482603190
  0.8352778831172216  0.6658157816448664  0.4531471147462440
  0.6675599176100206  0.8324349319731610  0.5440781964487584
  0.2306160362838341  0.4258603038203290  0.8002367544213982
  0.1937618291780581  0.4566392232405434  0.8319683545763752
 
  0.00000000E+00  0.00000000E+00  0.00000000E+00
  0.00000000E+00  0.00000000E+00  0.00000000E+00
  0.00000000E+00  0.00000000E+00  0.00000000E+00
  0.00000000E+00  0.00000000E+00  0.00000000E+00
  0.00000000E+00  0.00000000E+00  0.00000000E+00
  0.00000000E+00  0.00000000E+00  0.00000000E+00
  0.00000000E+00  0.00000000E+00  0.00000000E+00
  0.00000000E+00  0.00000000E+00  0.00000000E+00
  0.00000000E+00  0.00000000E+00  0.00000000E+00
  0.00000000E+00  0.00000000E+00  0.00000000E+00
  0.00000000E+00  0.00000000E+00  0.00000000E+00
  0.00000000E+00  0.00000000E+00  0.00000000E+00
  0.00000000E+00  0.00000000E+00  0.00000000E+00
  0.00000000E+00  0.00000000E+00  0.00000000E+00
  0.00000000E+00  0.00000000E+00  0.00000000E+00
  0.00000000E+00  0.00000000E+00  0.00000000E+00
  0.00000000E+00  0.00000000E+00  0.00000000E+00
  0.00000000E+00  0.00000000E+00  0.00000000E+00
  0.00000000E+00  0.00000000E+00  0.00000000E+00
  0.00000000E+00  0.00000000E+00  0.00000000E+00
  0.00000000E+00  0.00000000E+00  0.00000000E+00
  0.00000000E+00  0.00000000E+00  0.00000000E+00
  0.00000000E+00  0.00000000E+00  0.00000000E+00
  0.00000000E+00  0.00000000E+00  0.00000000E+00
  0.00000000E+00  0.00000000E+00  0.00000000E+00
  0.00000000E+00  0.00000000E+00  0.00000000E+00
  0.00000000E+00  0.00000000E+00  0.00000000E+00
  0.00000000E+00  0.00000000E+00  0.00000000E+00
  0.00000000E+00  0.00000000E+00  0.00000000E+00
  0.00000000E+00  0.00000000E+00  0.00000000E+00
  0.00000000E+00  0.00000000E+00  0.00000000E+00
  0.00000000E+00  0.00000000E+00  0.00000000E+00
  0.00000000E+00  0.00000000E+00  0.00000000E+00
  0.00000000E+00  0.00000000E+00  0.00000000E+00
  0.00000000E+00  0.00000000E+00  0.00000000E+00
  0.00000000E+00  0.00000000E+00  0.00000000E+00
  0.00000000E+00  0.00000000E+00  0.00000000E+00
  0.00000000E+00  0.00000000E+00  0.00000000E+00
  0.00000000E+00  0.00000000E+00  0.00000000E+00
  0.00000000E+00  0.00000000E+00  0.00000000E+00
  0.00000000E+00  0.00000000E+00  0.00000000E+00
  0.00000000E+00  0.00000000E+00  0.00000000E+00
  0.00000000E+00  0.00000000E+00  0.00000000E+00
  0.00000000E+00  0.00000000E+00  0.00000000E+00
  0.00000000E+00  0.00000000E+00  0.00000000E+00
  0.00000000E+00  0.00000000E+00  0.00000000E+00
  0.00000000E+00  0.00000000E+00  0.00000000E+00
  0.00000000E+00  0.00000000E+00  0.00000000E+00
  0.00000000E+00  0.00000000E+00  0.00000000E+00
  0.00000000E+00  0.00000000E+00  0.00000000E+00
  0.00000000E+00  0.00000000E+00  0.00000000E+00
  0.00000000E+00  0.00000000E+00  0.00000000E+00
  0.00000000E+00  0.00000000E+00  0.00000000E+00
  0.00000000E+00  0.00000000E+00  0.00000000E+00
  0.00000000E+00  0.00000000E+00  0.00000000E+00
  0.00000000E+00  0.00000000E+00  0.00000000E+00
  0.00000000E+00  0.00000000E+00  0.00000000E+00
  0.00000000E+00  0.00000000E+00  0.00000000E+00
  0.00000000E+00  0.00000000E+00  0.00000000E+00
  0.00000000E+00  0.00000000E+00  0.00000000E+00
  0.00000000E+00  0.00000000E+00  0.00000000E+00
  0.00000000E+00  0.00000000E+00  0.00000000E+00
  0.00000000E+00  0.00000000E+00  0.00000000E+00
  0.00000000E+00  0.00000000E+00  0.00000000E+00
  0.00000000E+00  0.00000000E+00  0.00000000E+00
  0.00000000E+00  0.00000000E+00  0.00000000E+00
  0.00000000E+00  0.00000000E+00  0.00000000E+00
  0.00000000E+00  0.00000000E+00  0.00000000E+00
  0.00000000E+00  0.00000000E+00  0.00000000E+00
  0.00000000E+00  0.00000000E+00  0.00000000E+00
  0.00000000E+00  0.00000000E+00  0.00000000E+00
  0.00000000E+00  0.00000000E+00  0.00000000E+00
  0.00000000E+00  0.00000000E+00  0.00000000E+00
  0.00000000E+00  0.00000000E+00  0.00000000E+00
