CONTCAR\(2)                             
   1.00000000000000     
    13.8427000045999993    0.0000000000000000    0.0000000000000000
    -6.9212999344000004   11.9880431408000003    0.0000000000000000
     0.0000000000000000    0.0000000000000000   18.3542995453000017
   Ta   Se   O 
    16    32     1
Direct
  0.9976929659961431  0.9916819923783601  0.4990846312108826
  0.2466311298652021  0.9932790780877108  0.4988432299399158
  0.4939426798697351  0.9917524048068020  0.4991568140477542
  0.7476829735261995  0.9954430025696489  0.5005787210869611
  0.9963652801254894  0.2462926175457611  0.5007384399175482
  0.2474935153508460  0.2413964798655787  0.5011331217803606
  0.4938785569460727  0.2413911854077382  0.5011930384134454
  0.7499234464049317  0.2462883311836193  0.5007681538844958
  0.0009318945938888  0.5018434050537675  0.5011564159774341
  0.2497014736686455  0.5028753558896918  0.5035931582177198
  0.5036366273811874  0.5073927728189487  0.5173212166035932
  0.7531372208786605  0.5028327938922647  0.5036257110659943
  0.9999395116959376  0.7520070081917294  0.4997264944584874
  0.2520494307270487  0.7520020338648303  0.4997347129555025
  0.4950491899303986  0.7557647159442785  0.5016862530821677
  0.7607112471498676  0.7557399750454521  0.5016735780757918
  0.0816500342253979  0.1642703031934314  0.4094861082335402
  0.0791569798208568  0.1607316821250685  0.5906539556266516
  0.3321679902922976  0.1642978869235480  0.4073287033409489
  0.3299202554035825  0.1598984732959862  0.5931157596330876
  0.5826143805262913  0.1643594012374040  0.4095509662457981
  0.5816022585184799  0.1607713952255241  0.5907090727853122
  0.8316139808226976  0.1632421627821665  0.4087904555594962
  0.8317616314472487  0.1634430467626549  0.5926872233729739
  0.0832385423999909  0.4143339208134886  0.4109369195629736
  0.0798657994683512  0.4134098444872666  0.5925460455006883
  0.3379640752710451  0.4176316208906433  0.4182830361233041
  0.3158866921290173  0.4024509732703912  0.5938257321303618
  0.5795624998083494  0.4176878877861798  0.4183525390662734
  0.5865330736987372  0.4024745774553958  0.5938679042597298
  0.8311029459643871  0.4143140995755478  0.4109647572266152
  0.8336150040003822  0.4134142378312413  0.5925662682371828
  0.0825966136002164  0.6652296470461644  0.4090527096770694
  0.0834901695196035  0.6669815579948045  0.5914154534896209
  0.3326279869838741  0.6635817367973118  0.4089630064205292
  0.3328718820398803  0.6666014769353101  0.5947359591037730
  0.5817375755071202  0.6635236825204505  0.4184880329061841
  0.6052227527629792  0.7103968610613838  0.6016406101580120
  0.8309103257341511  0.6635289986128762  0.4089719990017601
  0.8337268190208339  0.6665811242095812  0.5947322909004092
  0.0828375776949204  0.9140077404643696  0.4058078236501379
  0.0837259236941144  0.9151011518739038  0.5926977497892396
  0.3311400864054787  0.9140028487098967  0.4058239702133130
  0.3312947026289378  0.9150770920509432  0.5927063239064920
  0.5840420310981090  0.9159386127595682  0.4072034644066162
  0.5837421425982233  0.9219685760667432  0.5939667644198241
  0.8317317399881622  0.9158878496298146  0.4071670216660812
  0.8381752476212256  0.9219196980889660  0.5939546387905775
  0.5295319691948542  0.5591560269757618  0.6214334948773899
 
  0.00000000E+00  0.00000000E+00  0.00000000E+00
  0.00000000E+00  0.00000000E+00  0.00000000E+00
  0.00000000E+00  0.00000000E+00  0.00000000E+00
  0.00000000E+00  0.00000000E+00  0.00000000E+00
  0.00000000E+00  0.00000000E+00  0.00000000E+00
  0.00000000E+00  0.00000000E+00  0.00000000E+00
  0.00000000E+00  0.00000000E+00  0.00000000E+00
  0.00000000E+00  0.00000000E+00  0.00000000E+00
  0.00000000E+00  0.00000000E+00  0.00000000E+00
  0.00000000E+00  0.00000000E+00  0.00000000E+00
  0.00000000E+00  0.00000000E+00  0.00000000E+00
  0.00000000E+00  0.00000000E+00  0.00000000E+00
  0.00000000E+00  0.00000000E+00  0.00000000E+00
  0.00000000E+00  0.00000000E+00  0.00000000E+00
  0.00000000E+00  0.00000000E+00  0.00000000E+00
  0.00000000E+00  0.00000000E+00  0.00000000E+00
  0.00000000E+00  0.00000000E+00  0.00000000E+00
  0.00000000E+00  0.00000000E+00  0.00000000E+00
  0.00000000E+00  0.00000000E+00  0.00000000E+00
  0.00000000E+00  0.00000000E+00  0.00000000E+00
  0.00000000E+00  0.00000000E+00  0.00000000E+00
  0.00000000E+00  0.00000000E+00  0.00000000E+00
  0.00000000E+00  0.00000000E+00  0.00000000E+00
  0.00000000E+00  0.00000000E+00  0.00000000E+00
  0.00000000E+00  0.00000000E+00  0.00000000E+00
  0.00000000E+00  0.00000000E+00  0.00000000E+00
  0.00000000E+00  0.00000000E+00  0.00000000E+00
  0.00000000E+00  0.00000000E+00  0.00000000E+00
  0.00000000E+00  0.00000000E+00  0.00000000E+00
  0.00000000E+00  0.00000000E+00  0.00000000E+00
  0.00000000E+00  0.00000000E+00  0.00000000E+00
  0.00000000E+00  0.00000000E+00  0.00000000E+00
  0.00000000E+00  0.00000000E+00  0.00000000E+00
  0.00000000E+00  0.00000000E+00  0.00000000E+00
  0.00000000E+00  0.00000000E+00  0.00000000E+00
  0.00000000E+00  0.00000000E+00  0.00000000E+00
  0.00000000E+00  0.00000000E+00  0.00000000E+00
  0.00000000E+00  0.00000000E+00  0.00000000E+00
  0.00000000E+00  0.00000000E+00  0.00000000E+00
  0.00000000E+00  0.00000000E+00  0.00000000E+00
  0.00000000E+00  0.00000000E+00  0.00000000E+00
  0.00000000E+00  0.00000000E+00  0.00000000E+00
  0.00000000E+00  0.00000000E+00  0.00000000E+00
  0.00000000E+00  0.00000000E+00  0.00000000E+00
  0.00000000E+00  0.00000000E+00  0.00000000E+00
  0.00000000E+00  0.00000000E+00  0.00000000E+00
  0.00000000E+00  0.00000000E+00  0.00000000E+00
  0.00000000E+00  0.00000000E+00  0.00000000E+00
  0.00000000E+00  0.00000000E+00  0.00000000E+00
