 Zr2 H2 Cl2                             
   1.00000000000000     
     3.3108245861771910    0.0000000000000000    0.0000000000000000
    -1.6554113049178480    2.8672590666536646    0.0000000000000000
     0.0000000000000000    0.0000000000000000   21.5361817032520015
   Zr   H    Cl
     2     2     2
Direct
  0.6666667809103809  0.3333332439014358  0.5690299468726182
  0.3333332170079881  0.6666667591457929  0.4309707444040874
  0.6666668896094478  0.3333331296821196  0.4738369375882216
  0.3333331023799054  0.6666668645951773  0.5261624086538393
  0.6666668300308599  0.3333331718921831  0.3483398453981827
  0.3333331800614181  0.6666668307832914  0.6516601170830508
 
  0.00000000E+00  0.00000000E+00  0.00000000E+00
  0.00000000E+00  0.00000000E+00  0.00000000E+00
  0.00000000E+00  0.00000000E+00  0.00000000E+00
  0.00000000E+00  0.00000000E+00  0.00000000E+00
  0.00000000E+00  0.00000000E+00  0.00000000E+00
  0.00000000E+00  0.00000000E+00  0.00000000E+00
