CONTCAR                                 
   1.00000000000000     
    14.2618999480999999    0.0000000000000000    0.0000000000000000
     0.0000000000000000   14.2618999480999999    0.0000000000000000
     0.0000000000000000    0.0000000000000000   18.1191997528000002
   Mn   Se   O 
    32    32     1
Selective dynamics
Direct
  0.1243481708283198  0.1248861952360372  0.4981626839349644   F   F   F
  0.9999977347132187  0.0003727726619118  0.4983426160468056   F   F   F
  0.3748969938177780  0.1249731772277514  0.4980239585665771   F   F   F
  0.2495532327106886  0.0009082116887456  0.4995445778574847   F   F   F
  0.6252013649969825  0.1250114754413829  0.4980930169559201   F   F   F
  0.5000228156586175  0.0004500623700423  0.4995277520104153   F   F   F
  0.8756594183582322  0.1249023030601819  0.4981873460351025   F   F   F
  0.7504574923581870  0.0009290894676823  0.4995521623777819   F   F   F
  0.1240076124567366  0.3746475970632233  0.4990110087937225   F   F   F
  0.0000260718396774  0.2495298193156330  0.4977626240033217   F   F   F
  0.3740061605820770  0.3737651747440722  0.5026012876515296   F   F   F
  0.2495853746584871  0.2491350284189693  0.4993504946988381   F   F   F
  0.6259895307716263  0.3738030354724486  0.5025922368948343   F   F   F
  0.5000284116663494  0.2493814109136494  0.4994937588424051   F   F   F
  0.8760148068365368  0.3746251814313908  0.4989960979900090   F   F   F
  0.7504619071818226  0.2491557892628862  0.4993149595586530   F   F   F
  0.1245568638146608  0.6251108165362496  0.4990281966643266   F   F   F
  0.9999823573470294  0.4999716505627774  0.4976469159243422   F   F   F
  0.3760810003027544  0.6250757084508720  0.5149988589163641   F   F   F
  0.2489242888200422  0.4991679730757781  0.5022554519571543   F   F   F
  0.6238368312546569  0.6250471729693388  0.5150435379257488   F   F   F
  0.4999657711391734  0.5010533847601337  0.5150735317450383   F   F   F
  0.8754366699732330  0.6250866907173531  0.4990863368240994   F   F   F
  0.7510634752959149  0.4991503071922025  0.5022835666406849   F   F   F
  0.1240203999183009  0.8754081346141405  0.4994376065263140   F   F   F
  0.9999633420732295  0.7499921810879400  0.4979928778278264   F   F   F
  0.3740511885030813  0.8761537953159433  0.5026737027898776   F   F   F
  0.2490192844442234  0.7509197871339950  0.5025910255649180   F   F   F
  0.6259587958878541  0.8761387220920440  0.5027222564068765   F   F   F
  0.4999967572015152  0.7488933991090647  0.5152028803697277   F   F   F
  0.8759622873617019  0.8754266199612601  0.4994726782459793   F   F   F
  0.7509819904749477  0.7509549013921841  0.5026387055073869   F   F   F
  0.1245402602661372  0.0002181260807532  0.5859066917377262   F   F   F
  0.9999524182859645  0.1245490796997970  0.4106974422320633   F   F   F
  0.3735596548353257  0.0040562456078277  0.5868046853488309   F   F   F
  0.2507098578995510  0.1248705707712148  0.4115966673665241   F   F   F
  0.6264454238725392  0.0040935716983270  0.5868537011159063   F   F   F
  0.5001741293356616  0.1248369259106070  0.4113405332928863   F   F   F
  0.8754539998735069  0.0002726849453012  0.5859128773306210   F   F   F
  0.7493204315664812  0.1248630524972896  0.4115785739778488   F   F   F
  0.1244612483168552  0.2498154982304683  0.5854929396176516   F   F   F
  0.0000306513784238  0.3758500740482233  0.4111360244173810   F   F   F
  0.3734999211543268  0.2458893618209714  0.5868156482805489   F   F   F
  0.2493341828752520  0.3740806259199658  0.4135203631224016   F   F   F
  0.6265455394237094  0.2459643427237737  0.5868174776598067   F   F   F
  0.4999851486551563  0.3848145540050680  0.4188648531329804   F   F   F
  0.8755889265767038  0.2498368196725025  0.5854802873861971   F   F   F
  0.7506875093092091  0.3740701217620597  0.4134970011143864   F   F   F
  0.1209415202955029  0.4987781833690335  0.5862728005689135   F   F   F
  0.9999737379813851  0.6250101185481753  0.4110019632525308   F   F   F
  0.3655878744714158  0.4908324113845879  0.5951476262906326   F   F   F
  0.2599777357563013  0.6252186773221240  0.4186289994634080   F   F   F
  0.6343705785327103  0.4908106949790110  0.5951813685649228   F   F   F
  0.4999171433830014  0.6248593447846176  0.4231107485964571   F   F   F
  0.8790298514338772  0.4986676033652984  0.5863181557239443   F   F   F
  0.7399810183432365  0.6252180638584761  0.4187004242041752   F   F   F
  0.1210333467997131  0.7512909583956500  0.5866368488329883   F   F   F
  0.9999719491565386  0.8742164396607137  0.4116381457882810   F   F   F
  0.3656950868964515  0.7592433909859864  0.5953956818554929   F   F   F
  0.2489964142416099  0.8761174242058374  0.4137515898926765   F   F   F
  0.6342775321742735  0.7592224370204548  0.5954548421717263   F   F   F
  0.4999996853951529  0.8651144023534698  0.4189159960701119   F   F   F
  0.8790130757225185  0.7512851463288328  0.5866698945665121   F   F   F
  0.7509806914451502  0.8761421714341040  0.4138119417089783   F   F   F
  0.5000146170987421  0.6249229058622490  0.5655146121289107   T   T   T
 
  0.00000000E+00  0.00000000E+00  0.00000000E+00
  0.00000000E+00  0.00000000E+00  0.00000000E+00
  0.00000000E+00  0.00000000E+00  0.00000000E+00
  0.00000000E+00  0.00000000E+00  0.00000000E+00
  0.00000000E+00  0.00000000E+00  0.00000000E+00
  0.00000000E+00  0.00000000E+00  0.00000000E+00
  0.00000000E+00  0.00000000E+00  0.00000000E+00
  0.00000000E+00  0.00000000E+00  0.00000000E+00
  0.00000000E+00  0.00000000E+00  0.00000000E+00
  0.00000000E+00  0.00000000E+00  0.00000000E+00
  0.00000000E+00  0.00000000E+00  0.00000000E+00
  0.00000000E+00  0.00000000E+00  0.00000000E+00
  0.00000000E+00  0.00000000E+00  0.00000000E+00
  0.00000000E+00  0.00000000E+00  0.00000000E+00
  0.00000000E+00  0.00000000E+00  0.00000000E+00
  0.00000000E+00  0.00000000E+00  0.00000000E+00
  0.00000000E+00  0.00000000E+00  0.00000000E+00
  0.00000000E+00  0.00000000E+00  0.00000000E+00
  0.00000000E+00  0.00000000E+00  0.00000000E+00
  0.00000000E+00  0.00000000E+00  0.00000000E+00
  0.00000000E+00  0.00000000E+00  0.00000000E+00
  0.00000000E+00  0.00000000E+00  0.00000000E+00
  0.00000000E+00  0.00000000E+00  0.00000000E+00
  0.00000000E+00  0.00000000E+00  0.00000000E+00
  0.00000000E+00  0.00000000E+00  0.00000000E+00
  0.00000000E+00  0.00000000E+00  0.00000000E+00
  0.00000000E+00  0.00000000E+00  0.00000000E+00
  0.00000000E+00  0.00000000E+00  0.00000000E+00
  0.00000000E+00  0.00000000E+00  0.00000000E+00
  0.00000000E+00  0.00000000E+00  0.00000000E+00
  0.00000000E+00  0.00000000E+00  0.00000000E+00
  0.00000000E+00  0.00000000E+00  0.00000000E+00
  0.00000000E+00  0.00000000E+00  0.00000000E+00
  0.00000000E+00  0.00000000E+00  0.00000000E+00
  0.00000000E+00  0.00000000E+00  0.00000000E+00
  0.00000000E+00  0.00000000E+00  0.00000000E+00
  0.00000000E+00  0.00000000E+00  0.00000000E+00
  0.00000000E+00  0.00000000E+00  0.00000000E+00
  0.00000000E+00  0.00000000E+00  0.00000000E+00
  0.00000000E+00  0.00000000E+00  0.00000000E+00
  0.00000000E+00  0.00000000E+00  0.00000000E+00
  0.00000000E+00  0.00000000E+00  0.00000000E+00
  0.00000000E+00  0.00000000E+00  0.00000000E+00
  0.00000000E+00  0.00000000E+00  0.00000000E+00
  0.00000000E+00  0.00000000E+00  0.00000000E+00
  0.00000000E+00  0.00000000E+00  0.00000000E+00
  0.00000000E+00  0.00000000E+00  0.00000000E+00
  0.00000000E+00  0.00000000E+00  0.00000000E+00
  0.00000000E+00  0.00000000E+00  0.00000000E+00
  0.00000000E+00  0.00000000E+00  0.00000000E+00
  0.00000000E+00  0.00000000E+00  0.00000000E+00
  0.00000000E+00  0.00000000E+00  0.00000000E+00
  0.00000000E+00  0.00000000E+00  0.00000000E+00
  0.00000000E+00  0.00000000E+00  0.00000000E+00
  0.00000000E+00  0.00000000E+00  0.00000000E+00
  0.00000000E+00  0.00000000E+00  0.00000000E+00
  0.00000000E+00  0.00000000E+00  0.00000000E+00
  0.00000000E+00  0.00000000E+00  0.00000000E+00
  0.00000000E+00  0.00000000E+00  0.00000000E+00
  0.00000000E+00  0.00000000E+00  0.00000000E+00
  0.00000000E+00  0.00000000E+00  0.00000000E+00
  0.00000000E+00  0.00000000E+00  0.00000000E+00
  0.00000000E+00  0.00000000E+00  0.00000000E+00
  0.00000000E+00  0.00000000E+00  0.00000000E+00
  0.00000000E+00  0.00000000E+00  0.00000000E+00
