CONTCAR\(2)                             
   1.00000000000000     
    15.6181001662999996    0.0000000000000000    0.0000000000000000
     0.0000000000000000   13.6417999267999992    0.0000000000000000
     0.0000000000000000    0.0000000000000000   21.1772994994999983
   Tb   Br   O 
    20    32     1
Direct
  0.1247481148383068  0.5055404136347388  0.4325186185806276
  0.1295966030772727  0.4962041855042909  0.5857494959675634
  0.0004286287282755  0.6986896071463166  0.5173091170929313
  0.0004041958635271  0.3046876327855602  0.5044794841702713
  0.1457810904434049  0.9964624655280844  0.4915469619980122
  0.3752650004093088  0.5071173993180537  0.4259137190347486
  0.3750670933658649  0.4951814643932696  0.5791743091438455
  0.2666152217728155  0.7161479139804255  0.5090150285774431
  0.2534583634609329  0.2977311092851321  0.4996844720076989
  0.3748184800375319  0.9486136385264768  0.5081756756633321
  0.6255032483570041  0.5059101404141468  0.4328356274225201
  0.6205226592446695  0.4963878534157113  0.5860309553568720
  0.4829529486930340  0.7167076332810580  0.5093806767828890
  0.4966588869783344  0.2979389947570866  0.4998868150398983
  0.6040343177982954  0.9964892733949773  0.4926252701782092
  0.8750925481653776  0.5094182718961413  0.4342731472195557
  0.8751369387252143  0.4941302216023751  0.5885801636599892
  0.7496715736217162  0.6988634493698731  0.5176475038617074
  0.7497714653160881  0.3048806660441672  0.5046961174207888
  0.8748484126803237  0.0025642142088661  0.5188728962825004
  0.1190846965307343  0.1822904520520057  0.4335089993559803
  0.1295943906446658  0.8336427071337401  0.5754087117439544
  0.9968359453561532  0.3796178963290786  0.3750204764467702
  0.0028209127927884  0.6237381960364340  0.6451684462448319
  0.0113269515581478  0.0957025638848296  0.5798718130960239
  0.0025346123906673  0.3523618080342960  0.6349984252801606
  0.9989722723028932  0.6510752552358424  0.3865013154094429
  0.9907339853939593  0.8988057586748931  0.4416682839024256
  0.3750710449451897  0.1652644443267133  0.4343082666825847
  0.3744831735746694  0.8163247023714921  0.4103818402339901
  0.2494570061065861  0.3757416126682469  0.3721775837484322
  0.2551495254844633  0.6302563701782868  0.6372106242477804
  0.2551758906041637  0.0981884717665771  0.5759903532968752
  0.2528351756496940  0.3520538572990314  0.6309299578089494
  0.2398183261241103  0.6401601521746360  0.3784391423205107
  0.1990988172972648  0.9532537201091874  0.3763733778244895
  0.6308927041628056  0.1821188634180415  0.4341787868476891
  0.6203588390166143  0.8336197010862917  0.5761956784274364
  0.5011903385677451  0.3758747818393266  0.3723294406236988
  0.4947347479656783  0.6303174948194119  0.6374062182083805
  0.4939180412901155  0.0982617670980396  0.5764519906458591
  0.4973123115050065  0.3521728733327981  0.6311232862661222
  0.5106633677770827  0.6410975248339416  0.3790223866565268
  0.5496028969026719  0.9529824087168743  0.3777496377991850
  0.8748617927558828  0.1673490354591813  0.4376949510369784
  0.8750979340677589  0.8334779641114981  0.5936880582549343
  0.7531511578802008  0.3796888221260581  0.3752454625118961
  0.7476326009737888  0.6237781376755490  0.6454375132154211
  0.7386562181437593  0.0955200947568759  0.5804306932493337
  0.7476280663681982  0.3525588993151412  0.6351655999159016
  0.7512825898139522  0.6513506011618603  0.3868432323686987
  0.7587201206502414  0.8988166837002979  0.4418943813030997
  0.3746177698250464  0.8077099667868125  0.5491691605642743
 
  0.00000000E+00  0.00000000E+00  0.00000000E+00
  0.00000000E+00  0.00000000E+00  0.00000000E+00
  0.00000000E+00  0.00000000E+00  0.00000000E+00
  0.00000000E+00  0.00000000E+00  0.00000000E+00
  0.00000000E+00  0.00000000E+00  0.00000000E+00
  0.00000000E+00  0.00000000E+00  0.00000000E+00
  0.00000000E+00  0.00000000E+00  0.00000000E+00
  0.00000000E+00  0.00000000E+00  0.00000000E+00
  0.00000000E+00  0.00000000E+00  0.00000000E+00
  0.00000000E+00  0.00000000E+00  0.00000000E+00
  0.00000000E+00  0.00000000E+00  0.00000000E+00
  0.00000000E+00  0.00000000E+00  0.00000000E+00
  0.00000000E+00  0.00000000E+00  0.00000000E+00
  0.00000000E+00  0.00000000E+00  0.00000000E+00
  0.00000000E+00  0.00000000E+00  0.00000000E+00
  0.00000000E+00  0.00000000E+00  0.00000000E+00
  0.00000000E+00  0.00000000E+00  0.00000000E+00
  0.00000000E+00  0.00000000E+00  0.00000000E+00
  0.00000000E+00  0.00000000E+00  0.00000000E+00
  0.00000000E+00  0.00000000E+00  0.00000000E+00
  0.00000000E+00  0.00000000E+00  0.00000000E+00
  0.00000000E+00  0.00000000E+00  0.00000000E+00
  0.00000000E+00  0.00000000E+00  0.00000000E+00
  0.00000000E+00  0.00000000E+00  0.00000000E+00
  0.00000000E+00  0.00000000E+00  0.00000000E+00
  0.00000000E+00  0.00000000E+00  0.00000000E+00
  0.00000000E+00  0.00000000E+00  0.00000000E+00
  0.00000000E+00  0.00000000E+00  0.00000000E+00
  0.00000000E+00  0.00000000E+00  0.00000000E+00
  0.00000000E+00  0.00000000E+00  0.00000000E+00
  0.00000000E+00  0.00000000E+00  0.00000000E+00
  0.00000000E+00  0.00000000E+00  0.00000000E+00
  0.00000000E+00  0.00000000E+00  0.00000000E+00
  0.00000000E+00  0.00000000E+00  0.00000000E+00
  0.00000000E+00  0.00000000E+00  0.00000000E+00
  0.00000000E+00  0.00000000E+00  0.00000000E+00
  0.00000000E+00  0.00000000E+00  0.00000000E+00
  0.00000000E+00  0.00000000E+00  0.00000000E+00
  0.00000000E+00  0.00000000E+00  0.00000000E+00
  0.00000000E+00  0.00000000E+00  0.00000000E+00
  0.00000000E+00  0.00000000E+00  0.00000000E+00
  0.00000000E+00  0.00000000E+00  0.00000000E+00
  0.00000000E+00  0.00000000E+00  0.00000000E+00
  0.00000000E+00  0.00000000E+00  0.00000000E+00
  0.00000000E+00  0.00000000E+00  0.00000000E+00
  0.00000000E+00  0.00000000E+00  0.00000000E+00
  0.00000000E+00  0.00000000E+00  0.00000000E+00
  0.00000000E+00  0.00000000E+00  0.00000000E+00
  0.00000000E+00  0.00000000E+00  0.00000000E+00
  0.00000000E+00  0.00000000E+00  0.00000000E+00
  0.00000000E+00  0.00000000E+00  0.00000000E+00
  0.00000000E+00  0.00000000E+00  0.00000000E+00
  0.00000000E+00  0.00000000E+00  0.00000000E+00
