CONTCAR\(4)                             
   1.00000000000000     
    11.3364000320000002    0.0000000000000000    0.0000000000000000
     0.0000000000000000   11.1918001174999997    0.0000000000000000
     0.0000000000000000    0.0000000000000000   20.5198993682999991
   Mn   Sb   Se   Br   O 
     6     6    12     6     1
Direct
  0.1684439445856201  0.5204683892956380  0.5051626905446136
  0.1683836057279935 -0.0064624908377184  0.4916622871883776
  0.5000026371096246  0.5171229221129982  0.5100421651907792
  0.5000172185912140  0.0027391766819302  0.4946747659039507
  0.8315717885340814  0.5204880794455047  0.5051697986336389
  0.8316418572430586 -0.0064627857264138  0.4916575614685290
 -0.0000063696363736  0.7819483718919328  0.5932837034281113
  0.3330960301837750  0.2934919271926002  0.3988718795262757
  0.3513109569649941  0.8071668853015321  0.6214164994927253
  0.6669063129988375  0.2936370513759227  0.3988545535420355
  0.6486583753426081  0.8071483806912845  0.6214580858174981
  0.0000695900158637  0.2883734030902579  0.3983542487507509
  0.3361815658919844  0.5217935296173362  0.4171529903945794
  0.1669070111029720  0.2480444517201406  0.4866461506917496
  0.1697561770670159  0.7544560024746074  0.5094505995021343
  0.0000398538426069  0.0169054009375888  0.5768733744250889
  0.6638330565357070  0.5218888001646456  0.4171792521943924
  0.5000410519778606  0.2499018155528110  0.4865859829907031
  0.4999536670167948  0.7548549828487906  0.5228725529613875
  0.3304341121737208  0.0291524452097849  0.5796569303274067
  0.0000224598288561  0.5170959742948477  0.4163195901358751
  0.8331172906170339  0.2480494596669109  0.4865792409734280
  0.8303065068735650  0.7544683760219222  0.5094673413399015
  0.6695303641065956  0.0291163664970491  0.5796838456242899
  0.0000169338040701  0.4865340330277139  0.5923522958820980
  0.0000916722564659  0.9860075918164274  0.4025483060975157
  0.3312126253002322  0.4798694915400745  0.5937595969978754
  0.3352637807561168  0.9806902298883177  0.4044764783135568
  0.6687823743339369  0.4799600381795008  0.5937801762914587
  0.6647284014704811  0.9806810680872075  0.4044767433075955
  0.4999152803826893  0.8343107239388642  0.6729306340616403
 
  0.00000000E+00  0.00000000E+00  0.00000000E+00
  0.00000000E+00  0.00000000E+00  0.00000000E+00
  0.00000000E+00  0.00000000E+00  0.00000000E+00
  0.00000000E+00  0.00000000E+00  0.00000000E+00
  0.00000000E+00  0.00000000E+00  0.00000000E+00
  0.00000000E+00  0.00000000E+00  0.00000000E+00
  0.00000000E+00  0.00000000E+00  0.00000000E+00
  0.00000000E+00  0.00000000E+00  0.00000000E+00
  0.00000000E+00  0.00000000E+00  0.00000000E+00
  0.00000000E+00  0.00000000E+00  0.00000000E+00
  0.00000000E+00  0.00000000E+00  0.00000000E+00
  0.00000000E+00  0.00000000E+00  0.00000000E+00
  0.00000000E+00  0.00000000E+00  0.00000000E+00
  0.00000000E+00  0.00000000E+00  0.00000000E+00
  0.00000000E+00  0.00000000E+00  0.00000000E+00
  0.00000000E+00  0.00000000E+00  0.00000000E+00
  0.00000000E+00  0.00000000E+00  0.00000000E+00
  0.00000000E+00  0.00000000E+00  0.00000000E+00
  0.00000000E+00  0.00000000E+00  0.00000000E+00
  0.00000000E+00  0.00000000E+00  0.00000000E+00
  0.00000000E+00  0.00000000E+00  0.00000000E+00
  0.00000000E+00  0.00000000E+00  0.00000000E+00
  0.00000000E+00  0.00000000E+00  0.00000000E+00
  0.00000000E+00  0.00000000E+00  0.00000000E+00
  0.00000000E+00  0.00000000E+00  0.00000000E+00
  0.00000000E+00  0.00000000E+00  0.00000000E+00
  0.00000000E+00  0.00000000E+00  0.00000000E+00
  0.00000000E+00  0.00000000E+00  0.00000000E+00
  0.00000000E+00  0.00000000E+00  0.00000000E+00
  0.00000000E+00  0.00000000E+00  0.00000000E+00
  0.00000000E+00  0.00000000E+00  0.00000000E+00
