CONTCAR\(3)                             
   1.00000000000000     
    13.7100000381000005    0.0000000000000000    0.0000000000000000
    -6.8218533300999997   11.9299668931999996    0.0000000000000000
     0.0000000000000000    0.0000000000000000   18.6952991486000002
   Nb   Ir   Se   O    H 
    12     4    32     2     1
Direct
  0.5020361433497723  0.2315691080567161  0.5024421680367948
  0.4798032118022428  0.9965467583644430  0.5040748726543529
  0.2724587296805918  0.2457703853302278  0.5026217371067518
  0.9777634900651055  0.2541166986443405  0.5014327333316767
  0.9930219152156767  0.0250960023730291  0.4982849881806136
  0.7433882194729831  0.2327724625959818  0.4986586408615394
  0.4785096765038678  0.7546528264465302  0.5013927119779791
  0.4934924398089767  0.5255196201899339  0.4992904657352847
  0.2418553973596348  0.7325992246105220  0.4980477169249273
  0.0029076529457471  0.7341479172951352  0.4983881142782778
  0.9773488238965372  0.4957144948046264  0.5026617291301045
  0.7728147611545509  0.7463207013060872  0.5008542219909127
  0.2779190676508831  0.0297628466167301  0.5021644954294963
  0.7764411202096325  0.0303750274025209  0.4981129815011825
  0.2756710945475508  0.5301699609075017  0.4982564509840122
  0.7814925157677286  0.5336779630310281  0.5009257697176623
  0.4213749240001734  0.0901027976745532  0.6029940356597439
  0.4221184795548708  0.3361796410711944  0.5901019615405311
  0.1657333346986853  0.0814550722188422  0.5869428612978601
  0.1763148517423581  0.3489457812318100  0.5710588804248692
  0.3473138585778880  0.1763256447985274  0.4038556885188693
  0.3291764016106842  0.4185637909377047  0.4144462821700689
  0.0838229525126003  0.1765169893551809  0.4121437758028232
  0.0963481921697077  0.4299263118856168  0.4228782446815181
  0.9221302192853945  0.0982979379356067  0.5975796460882398
  0.9075513212683871  0.3365166021720139  0.5965980769713037
  0.6673836587563176  0.0786166334761878  0.5883802635865307
  0.6763392055025813  0.3462107700861777  0.5829304146906757
  0.8379532224618038  0.1761022673817274  0.3995893876831437
  0.8228631534219041  0.4180905738209593  0.4131115157907839
  0.5809188043345056  0.1585411933213817  0.4063438566729049
  0.5967766704625065  0.4288994381652514  0.4322300839111607
  0.4217069848571333  0.5986014368044822  0.5978512679554091
  0.4054671661158772  0.8342778257043819  0.5964084730781116
  0.1658779901957643  0.5782260199498676  0.5877763644371385
  0.1777805429957275  0.8511641216249305  0.5782608780402603
  0.3383539772607836  0.6767249257291129  0.3997416041685494
  0.3257913796587218  0.9199760705791893  0.4132264129852955
  0.0811062584725006  0.6574756881459047  0.4042297110252244
  0.0962136511847380  0.9305319092931451  0.4284699484128818
  0.9243597639294677  0.5939212870323405  0.6005324928543877
  0.9233296757080993  0.8372081848716668  0.5880440944755772
  0.6674353625305695  0.5813897440459506  0.5859183329959825
  0.6767829930574926  0.8488386007581699  0.5708017080177115
  0.8476719800421726  0.6785818016484106  0.4007997298924377
  0.8289257972048686  0.9186076253364842  0.4132885724519771
  0.5831614994088853  0.6755252969584502  0.4120056618482035
  0.5968140502751514  0.9305199300341426  0.4229151927231378
  0.6003980452313166  0.2328860791285554  0.6777070357277484
  0.6811496580542665  0.2409473172052100  0.7287798613394186
  0.6765200770245959  0.2901627746414971  0.7651081032379869
 
  0.00000000E+00  0.00000000E+00  0.00000000E+00
  0.00000000E+00  0.00000000E+00  0.00000000E+00
  0.00000000E+00  0.00000000E+00  0.00000000E+00
  0.00000000E+00  0.00000000E+00  0.00000000E+00
  0.00000000E+00  0.00000000E+00  0.00000000E+00
  0.00000000E+00  0.00000000E+00  0.00000000E+00
  0.00000000E+00  0.00000000E+00  0.00000000E+00
  0.00000000E+00  0.00000000E+00  0.00000000E+00
  0.00000000E+00  0.00000000E+00  0.00000000E+00
  0.00000000E+00  0.00000000E+00  0.00000000E+00
  0.00000000E+00  0.00000000E+00  0.00000000E+00
  0.00000000E+00  0.00000000E+00  0.00000000E+00
  0.00000000E+00  0.00000000E+00  0.00000000E+00
  0.00000000E+00  0.00000000E+00  0.00000000E+00
  0.00000000E+00  0.00000000E+00  0.00000000E+00
  0.00000000E+00  0.00000000E+00  0.00000000E+00
  0.00000000E+00  0.00000000E+00  0.00000000E+00
  0.00000000E+00  0.00000000E+00  0.00000000E+00
  0.00000000E+00  0.00000000E+00  0.00000000E+00
  0.00000000E+00  0.00000000E+00  0.00000000E+00
  0.00000000E+00  0.00000000E+00  0.00000000E+00
  0.00000000E+00  0.00000000E+00  0.00000000E+00
  0.00000000E+00  0.00000000E+00  0.00000000E+00
  0.00000000E+00  0.00000000E+00  0.00000000E+00
  0.00000000E+00  0.00000000E+00  0.00000000E+00
  0.00000000E+00  0.00000000E+00  0.00000000E+00
  0.00000000E+00  0.00000000E+00  0.00000000E+00
  0.00000000E+00  0.00000000E+00  0.00000000E+00
  0.00000000E+00  0.00000000E+00  0.00000000E+00
  0.00000000E+00  0.00000000E+00  0.00000000E+00
  0.00000000E+00  0.00000000E+00  0.00000000E+00
  0.00000000E+00  0.00000000E+00  0.00000000E+00
  0.00000000E+00  0.00000000E+00  0.00000000E+00
  0.00000000E+00  0.00000000E+00  0.00000000E+00
  0.00000000E+00  0.00000000E+00  0.00000000E+00
  0.00000000E+00  0.00000000E+00  0.00000000E+00
  0.00000000E+00  0.00000000E+00  0.00000000E+00
  0.00000000E+00  0.00000000E+00  0.00000000E+00
  0.00000000E+00  0.00000000E+00  0.00000000E+00
  0.00000000E+00  0.00000000E+00  0.00000000E+00
  0.00000000E+00  0.00000000E+00  0.00000000E+00
  0.00000000E+00  0.00000000E+00  0.00000000E+00
  0.00000000E+00  0.00000000E+00  0.00000000E+00
  0.00000000E+00  0.00000000E+00  0.00000000E+00
  0.00000000E+00  0.00000000E+00  0.00000000E+00
  0.00000000E+00  0.00000000E+00  0.00000000E+00
  0.00000000E+00  0.00000000E+00  0.00000000E+00
  0.00000000E+00  0.00000000E+00  0.00000000E+00
  0.00000000E+00  0.00000000E+00  0.00000000E+00
  0.00000000E+00  0.00000000E+00  0.00000000E+00
  0.00000000E+00  0.00000000E+00  0.00000000E+00
