CONTCAR\(2)                             
   1.00000000000000     
    14.4153003693000006    0.0000000000000000    0.0000000000000000
     0.0000000000000000   14.4153003693000006    0.0000000000000000
     0.0000000000000000    0.0000000000000000   17.7828998566000003
   Co   Se   O    H 
    32    32     2     1
Direct
  0.9999023258870657  0.0000745849745256  0.5010387052761035
  0.1248924031587393  0.1247184602019585  0.5009322817302078
  0.2493104841827417  0.9996996366010819  0.5014426583932881
  0.3749016571203957  0.1241031186153433  0.5023370401666566
  0.4994279162504051  0.9988862018110701  0.5036574099959062
  0.6243818971072452  0.1239075122895321  0.5037843553168154
  0.7506512941468519 -0.0000786974245920  0.5013800211913666
  0.8753310547157764  0.1247102351390927  0.5009937535404135
  0.9999969948996655  0.2496706207941696  0.5008256746531180
  0.1248825850340670  0.3743767270042835  0.5010389746690055
  0.2496197440572033  0.2496337702208304  0.5012224548681145
  0.3748079011890499  0.3750051807778512  0.5029040323629340
  0.4993816717124533  0.2488777130194149  0.5039214178667936
  0.6249505784717718  0.3738905114260821  0.5036673315528218
  0.7501518673470401  0.2491999996175179  0.5014327701918749
  0.8747558645962961  0.3741879747785469  0.5012044523973139
  0.9995880829951166  0.4996016189322596  0.5011090649791099
  0.1242135889520111  0.6240912222704822  0.5023740754452561
  0.2497168026673785  0.4996585485568341  0.5031053818455902
  0.3741366534036653  0.6244007362156864  0.5022401331100923
  0.4995784167541815  0.4994149838105332  0.5010285551219039
  0.6249650653637905  0.6246480382608662  0.5000675687045294
  0.7493604841196509  0.4989937811954538  0.5035254842773501
  0.8742794036820896  0.6241244188467322  0.5035264129355108
  0.9995224777059963  0.7491884821759176  0.5035092192211273
  0.1243520805951077  0.8752119789552297  0.5014170838066845
  0.2487274631053598  0.7499112121869416  0.5036403229139618
  0.3742791728871108  0.8738842639231502  0.5035741394028418
  0.4998353403396870  0.7496670814576181  0.5001828224016661
  0.6254653971513939  0.8745653144896003  0.5037092915801230
  0.7500359733826177  0.7500601279094039  0.5034880577099808
  0.8753511033656123  0.8753622911757878  0.5011876912987528
  0.0001929663036233  0.1250202776425038  0.5825807712292436
  0.1246926433505683  0.9997241559900688  0.4194437116037685
  0.2493570456964971  0.1248545203656522  0.5829185534682575
  0.3751683951085807  0.9982209530220220  0.4215587020200833
  0.4991350573548257  0.1236688275315042  0.5849881748698276
  0.6239990746351614  0.9990735680340622  0.4221934007605193
  0.7510036478925537  0.1245913206368987  0.5832299141794494
  0.8750776926677777 -0.0000446433612000  0.4193107998668456
  0.9999231637446750  0.3744127697335298  0.5824180076990677
  0.1249551499503338  0.2496157512542961  0.4193061483752399
  0.2492195421888668  0.3739452535892817  0.5833325211408155
  0.3757491918153509  0.2495681874395401  0.4214822205307878
  0.4995859116481418  0.3747412736112461  0.5839443285309727
  0.6236499961840631  0.2486546552118153  0.4222161433668039
  0.7508420017816387  0.3733162047657050  0.5839479412032640
  0.8747771710113039  0.2495186824196684  0.4193989981548754
  0.9997064336562025  0.6234226216316593  0.5841035398177312
  0.1254321411261937  0.4997169612894217  0.4203793942284927
  0.2484845187299286  0.6246781259318229  0.5838857676343184
  0.3741947196689002  0.5000902368067127  0.4208253610597668
  0.5018966052725337  0.6261341108698970  0.5811747661393030
  0.6249533153115513  0.4978445560538302  0.4209899944181228
  0.7484980285084517  0.6246733982754512  0.5837320267009193
  0.8733264288243130  0.5000956370859669  0.4210374334090272
  0.9998903438955883  0.8756574703757297  0.5832232989221189
  0.1240765640155343  0.7491405631927525  0.4215435261623134
  0.2485078374881356  0.8756415626876265  0.5838641134954364
  0.3729679705411960  0.7491812767338355  0.4213562414726828
  0.4999162488067593  0.8731316866507386  0.5838056785144174
  0.6261175943827815  0.7509928075823368  0.4202871951505885
  0.7513831258158788  0.8757154932126149  0.5837509280026281
  0.8746022539901153  0.7487445983405939  0.4219758192662433
  0.5410631725914017  0.6585386855178056  0.6946558920804757
  0.4751034597628776  0.6182564543008437  0.7456658264547678
  0.5069072139301338  0.5610346443645324  0.7607846281435895
 
  0.00000000E+00  0.00000000E+00  0.00000000E+00
  0.00000000E+00  0.00000000E+00  0.00000000E+00
  0.00000000E+00  0.00000000E+00  0.00000000E+00
  0.00000000E+00  0.00000000E+00  0.00000000E+00
  0.00000000E+00  0.00000000E+00  0.00000000E+00
  0.00000000E+00  0.00000000E+00  0.00000000E+00
  0.00000000E+00  0.00000000E+00  0.00000000E+00
  0.00000000E+00  0.00000000E+00  0.00000000E+00
  0.00000000E+00  0.00000000E+00  0.00000000E+00
  0.00000000E+00  0.00000000E+00  0.00000000E+00
  0.00000000E+00  0.00000000E+00  0.00000000E+00
  0.00000000E+00  0.00000000E+00  0.00000000E+00
  0.00000000E+00  0.00000000E+00  0.00000000E+00
  0.00000000E+00  0.00000000E+00  0.00000000E+00
  0.00000000E+00  0.00000000E+00  0.00000000E+00
  0.00000000E+00  0.00000000E+00  0.00000000E+00
  0.00000000E+00  0.00000000E+00  0.00000000E+00
  0.00000000E+00  0.00000000E+00  0.00000000E+00
  0.00000000E+00  0.00000000E+00  0.00000000E+00
  0.00000000E+00  0.00000000E+00  0.00000000E+00
  0.00000000E+00  0.00000000E+00  0.00000000E+00
  0.00000000E+00  0.00000000E+00  0.00000000E+00
  0.00000000E+00  0.00000000E+00  0.00000000E+00
  0.00000000E+00  0.00000000E+00  0.00000000E+00
  0.00000000E+00  0.00000000E+00  0.00000000E+00
  0.00000000E+00  0.00000000E+00  0.00000000E+00
  0.00000000E+00  0.00000000E+00  0.00000000E+00
  0.00000000E+00  0.00000000E+00  0.00000000E+00
  0.00000000E+00  0.00000000E+00  0.00000000E+00
  0.00000000E+00  0.00000000E+00  0.00000000E+00
  0.00000000E+00  0.00000000E+00  0.00000000E+00
  0.00000000E+00  0.00000000E+00  0.00000000E+00
  0.00000000E+00  0.00000000E+00  0.00000000E+00
  0.00000000E+00  0.00000000E+00  0.00000000E+00
  0.00000000E+00  0.00000000E+00  0.00000000E+00
  0.00000000E+00  0.00000000E+00  0.00000000E+00
  0.00000000E+00  0.00000000E+00  0.00000000E+00
  0.00000000E+00  0.00000000E+00  0.00000000E+00
  0.00000000E+00  0.00000000E+00  0.00000000E+00
  0.00000000E+00  0.00000000E+00  0.00000000E+00
  0.00000000E+00  0.00000000E+00  0.00000000E+00
  0.00000000E+00  0.00000000E+00  0.00000000E+00
  0.00000000E+00  0.00000000E+00  0.00000000E+00
  0.00000000E+00  0.00000000E+00  0.00000000E+00
  0.00000000E+00  0.00000000E+00  0.00000000E+00
  0.00000000E+00  0.00000000E+00  0.00000000E+00
  0.00000000E+00  0.00000000E+00  0.00000000E+00
  0.00000000E+00  0.00000000E+00  0.00000000E+00
  0.00000000E+00  0.00000000E+00  0.00000000E+00
  0.00000000E+00  0.00000000E+00  0.00000000E+00
  0.00000000E+00  0.00000000E+00  0.00000000E+00
  0.00000000E+00  0.00000000E+00  0.00000000E+00
  0.00000000E+00  0.00000000E+00  0.00000000E+00
  0.00000000E+00  0.00000000E+00  0.00000000E+00
  0.00000000E+00  0.00000000E+00  0.00000000E+00
  0.00000000E+00  0.00000000E+00  0.00000000E+00
  0.00000000E+00  0.00000000E+00  0.00000000E+00
  0.00000000E+00  0.00000000E+00  0.00000000E+00
  0.00000000E+00  0.00000000E+00  0.00000000E+00
  0.00000000E+00  0.00000000E+00  0.00000000E+00
  0.00000000E+00  0.00000000E+00  0.00000000E+00
  0.00000000E+00  0.00000000E+00  0.00000000E+00
  0.00000000E+00  0.00000000E+00  0.00000000E+00
  0.00000000E+00  0.00000000E+00  0.00000000E+00
  0.00000000E+00  0.00000000E+00  0.00000000E+00
  0.00000000E+00  0.00000000E+00  0.00000000E+00
  0.00000000E+00  0.00000000E+00  0.00000000E+00
