CONTCAR\(2)                             
   1.00000000000000     
    13.4693002700999998    0.0000000000000000    0.0000000000000000
     0.0000000000000000   11.7332000732000008    0.0000000000000000
     0.0000000000000000    0.0000000000000000   18.0195999146000005
   Ti   Nb   S    O 
     8     8    32     1
Selective dynamics
Direct
  0.1280207495556951  0.2461987833409438  0.4974173391965735   F   F   F
  0.3704077125357799  0.2451272025924922  0.5021920802299391   F   F   F
  0.6239399461661890  0.2631860192147499  0.5064737536617372   F   F   F
  0.8794557036475723  0.2424240320509270  0.4956291196523779   F   F   F
  0.1314759382334358  0.7486292085819457  0.5004263395165509   F   F   F
  0.3757912284844451  0.7486155992293320  0.5042454379437586   F   F   F
  0.6248411882888334  0.7462565544321507  0.4989473690042487   F   F   F
  0.8803567000349801  0.7622429512795748  0.4999450883562702   F   F   F
  0.0181633284004832  0.9981463452855408  0.4981446603347237   F   F   F
  0.2571420327894103  0.9973237379545949  0.4993566056467458   F   F   F
  0.4909843784808885  0.0047956251277412  0.5030705364846355   F   F   F
  0.7335108442731197  0.0049567633930252  0.4982235077657720   F   F   F
  0.0104561191148846  0.4996958427221045  0.4979485833825521   F   F   F
  0.2397856760471910  0.4959932372780500  0.5015438894746964   F   F   F
  0.4877112028622079  0.5001193591616655  0.5212776576351388   F   F   F
  0.7727887167437189  0.5043938478365959  0.4998520584648318   F   F   F
  0.1308802490091807  0.0855610117647387  0.4119772896740272   F   F   F
  0.0019553356655635  0.1663362466922038  0.5794472423472996   F   F   F
  0.0028328533269431  0.3308900328763258  0.4165054960812711   F   F   F
  0.1197954303438848  0.4082106516164359  0.5856836516470452   F   F   F
  0.3768598779768624  0.0881131196079608  0.4144873730637713   F   F   F
  0.2475666308899847  0.1645098725191971  0.5826265622235169   F   F   F
  0.2532779879549096  0.3327266630455554  0.4176537500446997   F   F   F
  0.3467017114786799  0.3992937276322195  0.5989099600103032   F   F   F
  0.6197294933232129  0.0931913748334523  0.4169954540660612   F   F   F
  0.4985450021315430  0.1697785587880745  0.5851616577899321   F   F   F
  0.4978540400749765  0.3421013498942003  0.4291763337459074   F   F   F
  0.6379270855486183  0.4177017562990883  0.5858038562112640   F   F   F
  0.8758200436047758  0.0844686992110866  0.4186818141877424   F   F   F
  0.7536783636105753  0.1683276113851875  0.5806656425163652   F   F   F
  0.7492512313995832  0.3347799922680963  0.4210325972340669   F   F   F
  0.8812189330299205  0.4127030043678417  0.5834696884606245   F   F   F
  0.1271905839216458  0.5903960328320679  0.4133517921680721   F   F   F
  0.0026476929395756  0.6683328662107044  0.5788807754969483   F   F   F
  0.0043406520005362  0.8333348300529622  0.4162229374874613   F   F   F
  0.1282542986473132  0.9129127875018597  0.5857111160048873   F   F   F
  0.3797560425718487  0.5818639439194939  0.4262215390881394   F   F   F
  0.2493619423531683  0.6679791254402545  0.5847324646999752   F   F   F
  0.2558440078372826  0.8280788704007520  0.4184945453687163   F   F   F
  0.3752837428718934  0.9139517073566950  0.5885901131350124   F   F   F
  0.6196958402898431  0.5784083435149228  0.4301694723047191   F   F   F
  0.5073777590474933  0.6839809865547153  0.5875279602342829   F   F   F
  0.4996239282534276  0.8323513790668002  0.4222376227033280   F   F   F
  0.6259870968742902  0.9185298321435411  0.5851505962145893   F   F   F
  0.8793682937294562  0.5895465792955790  0.4126235656428179   F   F   F
  0.7560225839213999  0.6707404809851170  0.5800930081425264   F   F   F
  0.7498434644208487  0.8356276569623660  0.4189174410444423   F   F   F
  0.8768647465482076  0.9186689578597509  0.5779389005454973   F   F   F
  0.4435419577436832  0.4704369086193196  0.6268813477472679   T   T   T
 
  0.00000000E+00  0.00000000E+00  0.00000000E+00
  0.00000000E+00  0.00000000E+00  0.00000000E+00
  0.00000000E+00  0.00000000E+00  0.00000000E+00
  0.00000000E+00  0.00000000E+00  0.00000000E+00
  0.00000000E+00  0.00000000E+00  0.00000000E+00
  0.00000000E+00  0.00000000E+00  0.00000000E+00
  0.00000000E+00  0.00000000E+00  0.00000000E+00
  0.00000000E+00  0.00000000E+00  0.00000000E+00
  0.00000000E+00  0.00000000E+00  0.00000000E+00
  0.00000000E+00  0.00000000E+00  0.00000000E+00
  0.00000000E+00  0.00000000E+00  0.00000000E+00
  0.00000000E+00  0.00000000E+00  0.00000000E+00
  0.00000000E+00  0.00000000E+00  0.00000000E+00
  0.00000000E+00  0.00000000E+00  0.00000000E+00
  0.00000000E+00  0.00000000E+00  0.00000000E+00
  0.00000000E+00  0.00000000E+00  0.00000000E+00
  0.00000000E+00  0.00000000E+00  0.00000000E+00
  0.00000000E+00  0.00000000E+00  0.00000000E+00
  0.00000000E+00  0.00000000E+00  0.00000000E+00
  0.00000000E+00  0.00000000E+00  0.00000000E+00
  0.00000000E+00  0.00000000E+00  0.00000000E+00
  0.00000000E+00  0.00000000E+00  0.00000000E+00
  0.00000000E+00  0.00000000E+00  0.00000000E+00
  0.00000000E+00  0.00000000E+00  0.00000000E+00
  0.00000000E+00  0.00000000E+00  0.00000000E+00
  0.00000000E+00  0.00000000E+00  0.00000000E+00
  0.00000000E+00  0.00000000E+00  0.00000000E+00
  0.00000000E+00  0.00000000E+00  0.00000000E+00
  0.00000000E+00  0.00000000E+00  0.00000000E+00
  0.00000000E+00  0.00000000E+00  0.00000000E+00
  0.00000000E+00  0.00000000E+00  0.00000000E+00
  0.00000000E+00  0.00000000E+00  0.00000000E+00
  0.00000000E+00  0.00000000E+00  0.00000000E+00
  0.00000000E+00  0.00000000E+00  0.00000000E+00
  0.00000000E+00  0.00000000E+00  0.00000000E+00
  0.00000000E+00  0.00000000E+00  0.00000000E+00
  0.00000000E+00  0.00000000E+00  0.00000000E+00
  0.00000000E+00  0.00000000E+00  0.00000000E+00
  0.00000000E+00  0.00000000E+00  0.00000000E+00
  0.00000000E+00  0.00000000E+00  0.00000000E+00
  0.00000000E+00  0.00000000E+00  0.00000000E+00
  0.00000000E+00  0.00000000E+00  0.00000000E+00
  0.00000000E+00  0.00000000E+00  0.00000000E+00
  0.00000000E+00  0.00000000E+00  0.00000000E+00
  0.00000000E+00  0.00000000E+00  0.00000000E+00
  0.00000000E+00  0.00000000E+00  0.00000000E+00
  0.00000000E+00  0.00000000E+00  0.00000000E+00
  0.00000000E+00  0.00000000E+00  0.00000000E+00
  0.00000000E+00  0.00000000E+00  0.00000000E+00
