CONTCAR                                 
   1.00000000000000     
    15.0899000167999997    0.0000000000000000    0.0000000000000000
     0.0000000000000000   15.0899000167999997    0.0000000000000000
     0.0000000000000000    0.0000000000000000   20.7000007629000002
   Eu   Br   O 
    32    32    33
Direct
  0.9968480901900567  0.1250375484513479  0.4358835039733110
  0.1207231558167350  0.9981564425750878  0.5636214591874517
  0.2475872776916220  0.1250898364613924  0.4213908539914652
  0.3572488851943608  0.0056483479232774  0.5540885747083265
  0.4889967806746349  0.1260861925661704  0.4324285419680542
  0.6322813816180284  0.9957543950729651  0.5453546428121728
  0.7400443669740464  0.1179920042569689  0.4200718291468483
  0.8700882850506129  0.9969702285962243  0.5653271033477572
  0.0109406647407688  0.3736847656396684  0.4249767055114893
  0.1122986560432714  0.2544572779058512  0.6032864354129027
  0.2625593878468542  0.3797347448603502  0.4242085942194956
  0.3556770302057953  0.2405615694624305  0.5761415460677521
  0.5164491782856433  0.3817323476394630  0.4189171197323968
  0.6250679632019185  0.2499672383562442  0.5567913340598912
  0.7633822206768572  0.3730098902045000  0.4236089245168583
  0.8646558801443125  0.2480891874284592  0.6077427599552200
  0.0137120427880991  0.6162797248685482  0.4293044027845987
  0.1402987415580064  0.4972837745899847  0.5564656244272885
  0.2527054804193072  0.6254865829409805  0.4357428791375930
  0.3858688264443627  0.4995812787643737  0.5578232133440798
  0.5164433983377271  0.6191616996683926  0.4194615682056401
  0.6481961255709062  0.4989146307319242  0.5378640319913800
  0.7649747620386014  0.6246621542552043  0.4237659868741807
  0.8906968799764160  0.4967886029890325  0.5649839794394375
  0.9996328738227339  0.8749052402017381  0.4354806178682193
  0.1137777360774429  0.7357042294340098  0.5871241322289920
  0.2538504422798067  0.8854394501557726  0.4204963476421356
  0.3535983856287498  0.7696014550145598  0.5713843233235549
  0.4973114223314661  0.8755511490550774  0.4275612198762069
  0.6257539715467149  0.7465722571300483  0.5578416361709496
  0.7437003368402854  0.8777472884702826  0.4189783146052433
  0.8679772462778034  0.7461500559629041  0.6082390287584897
  0.9929036534129302  0.1152091207308173  0.6501512839320918
  0.1143004660055093  0.0014695427282517  0.3545703440750895
  0.2411409298297450  0.1202995863970211  0.6507950785602634
  0.3747884243721000  0.0053323273763733  0.3466741185418419
  0.4996850219521080  0.2132206589939313  0.6674781305965404
  0.6162039947644805  0.9995612262561221  0.3470923711302231
  0.7309995475121590  0.1172610685951974  0.6441235668276366
  0.8793356839655704  0.9989332976421297  0.3546213168273165
  0.9924430708231944  0.3794963217075857  0.6612636316667555
  0.1265185799332139  0.2508283944102216  0.3499734515116087
  0.2554459852654573  0.3793908248345439  0.6456744605706085
  0.3775362753274331  0.2534434604395229  0.3508523175636637
  0.4969466405878941  0.3951648992090253  0.6955506304620845
  0.6276428140125033  0.2490953840517386  0.3473779449965886
  0.7344261362928094  0.3797450358401623  0.6406620568088944
  0.8816279884796877  0.2441158102274622  0.3546357075393782
  0.9978534144333807  0.6134852346929185  0.6580066709179342
  0.1386552583747569  0.4994275341912636  0.3536386920020338
  0.2599806969545818  0.6222678063165932  0.6401319294720867
  0.3833920636566645  0.5027492489682226  0.3501182387376672
  0.4964303191573566  0.6207009389401552  0.6952774187897468
  0.6455999407998336  0.4997058783893545  0.3448828284076286
  0.7354606034571955  0.6160123116188427  0.6413195333956427
  0.8900120108599601  0.4970668748359268  0.3498714150450029
  0.9969603295166432  0.8774661739305440  0.6465860060328453
  0.1261880127435884  0.7510667722635269  0.3567831197655084
  0.2408472336891299  0.8828389289131572  0.6498465723688535
  0.3746380173758385  0.7477683548779347  0.3554526516913003
  0.4975522356683674  0.7996965370488912  0.6646199081471659
  0.6296169812910202  0.7485305047698086  0.3450390408140938
  0.7338509975337386  0.8774102026047413  0.6446034119899688
  0.8854645012305862  0.7519099020133455  0.3551494398020558
  0.1290286921815993  0.1754937880382394  0.5019831684720147
  0.9948875864111939  0.0000772257673333  0.4998836284369447
  0.3588363330796308  0.1381644487718606  0.4971535082057743
  0.2345011815123170  0.0058492428600439  0.4894973274493605
  0.6188685997028545  0.1313132920763757  0.4908328643515308
  0.4914961396036592  0.9984371267313328  0.4989072832392349
  0.8516780925954709  0.1613932015097214  0.5073438499091009
  0.7622774280676858  0.9977171257758209  0.4873692463987386
  0.1390487421283796  0.3364924162909628  0.5009549372295974
  0.9605421757198658  0.2693463050292423  0.5128563050195664
  0.4010115080618837  0.3483799832684869  0.4997576807686360
  0.1896567410754709  0.2521869713464142  0.5034668340463740
  0.6399279664657438  0.3637203095336795  0.4854075818630624
  0.4684590388665650  0.2818165983852779  0.5031258051553464
  0.8977655596293880  0.3348785448609811  0.5096225333531473
  0.7880825617178399  0.2257550114164262  0.5050792755748140
  0.1277435337175039  0.6325059835816530  0.5035639319878532
  0.0097331124451922  0.4896729875530806  0.4960380635587011
  0.4015857882412731  0.6527509529434870  0.5014495087324704
  0.2686182815570691  0.4960419298360423  0.4936232591731001
  0.6411990784125300  0.6341797191819346  0.4854483542359144
  0.5086051386662288  0.5002699508049328  0.4921390406592417
  0.9007908466361096  0.6615224884332989  0.5104221216620076
  0.7834363271656144  0.4987824274595581  0.4863745457703905
  0.1398550187199627  0.8433171295893835  0.5021755326353898
  0.9642149998758336  0.7267743593932425  0.5132442222358661
  0.3734162567830625  0.8765285962958387  0.4949719701236873
  0.2115661338033316  0.7831057484506996  0.5046881409924644
  0.6243402602412076  0.8615667089934447  0.4888920003027946
  0.4706133470538029  0.7164764013789224  0.5052000911395915
  0.8545347436842888  0.8343597353712878  0.5076290133591229
  0.7907984400531388  0.7704387915960687  0.5050194232637062
  0.4967347175509166  0.5079028440263448  0.7371276194150188
 
  0.00000000E+00  0.00000000E+00  0.00000000E+00
  0.00000000E+00  0.00000000E+00  0.00000000E+00
  0.00000000E+00  0.00000000E+00  0.00000000E+00
  0.00000000E+00  0.00000000E+00  0.00000000E+00
  0.00000000E+00  0.00000000E+00  0.00000000E+00
  0.00000000E+00  0.00000000E+00  0.00000000E+00
  0.00000000E+00  0.00000000E+00  0.00000000E+00
  0.00000000E+00  0.00000000E+00  0.00000000E+00
  0.00000000E+00  0.00000000E+00  0.00000000E+00
  0.00000000E+00  0.00000000E+00  0.00000000E+00
  0.00000000E+00  0.00000000E+00  0.00000000E+00
  0.00000000E+00  0.00000000E+00  0.00000000E+00
  0.00000000E+00  0.00000000E+00  0.00000000E+00
  0.00000000E+00  0.00000000E+00  0.00000000E+00
  0.00000000E+00  0.00000000E+00  0.00000000E+00
  0.00000000E+00  0.00000000E+00  0.00000000E+00
  0.00000000E+00  0.00000000E+00  0.00000000E+00
  0.00000000E+00  0.00000000E+00  0.00000000E+00
  0.00000000E+00  0.00000000E+00  0.00000000E+00
  0.00000000E+00  0.00000000E+00  0.00000000E+00
  0.00000000E+00  0.00000000E+00  0.00000000E+00
  0.00000000E+00  0.00000000E+00  0.00000000E+00
  0.00000000E+00  0.00000000E+00  0.00000000E+00
  0.00000000E+00  0.00000000E+00  0.00000000E+00
  0.00000000E+00  0.00000000E+00  0.00000000E+00
  0.00000000E+00  0.00000000E+00  0.00000000E+00
  0.00000000E+00  0.00000000E+00  0.00000000E+00
  0.00000000E+00  0.00000000E+00  0.00000000E+00
  0.00000000E+00  0.00000000E+00  0.00000000E+00
  0.00000000E+00  0.00000000E+00  0.00000000E+00
  0.00000000E+00  0.00000000E+00  0.00000000E+00
  0.00000000E+00  0.00000000E+00  0.00000000E+00
  0.00000000E+00  0.00000000E+00  0.00000000E+00
  0.00000000E+00  0.00000000E+00  0.00000000E+00
  0.00000000E+00  0.00000000E+00  0.00000000E+00
  0.00000000E+00  0.00000000E+00  0.00000000E+00
  0.00000000E+00  0.00000000E+00  0.00000000E+00
  0.00000000E+00  0.00000000E+00  0.00000000E+00
  0.00000000E+00  0.00000000E+00  0.00000000E+00
  0.00000000E+00  0.00000000E+00  0.00000000E+00
  0.00000000E+00  0.00000000E+00  0.00000000E+00
  0.00000000E+00  0.00000000E+00  0.00000000E+00
  0.00000000E+00  0.00000000E+00  0.00000000E+00
  0.00000000E+00  0.00000000E+00  0.00000000E+00
  0.00000000E+00  0.00000000E+00  0.00000000E+00
  0.00000000E+00  0.00000000E+00  0.00000000E+00
  0.00000000E+00  0.00000000E+00  0.00000000E+00
  0.00000000E+00  0.00000000E+00  0.00000000E+00
  0.00000000E+00  0.00000000E+00  0.00000000E+00
  0.00000000E+00  0.00000000E+00  0.00000000E+00
  0.00000000E+00  0.00000000E+00  0.00000000E+00
  0.00000000E+00  0.00000000E+00  0.00000000E+00
  0.00000000E+00  0.00000000E+00  0.00000000E+00
  0.00000000E+00  0.00000000E+00  0.00000000E+00
  0.00000000E+00  0.00000000E+00  0.00000000E+00
  0.00000000E+00  0.00000000E+00  0.00000000E+00
  0.00000000E+00  0.00000000E+00  0.00000000E+00
  0.00000000E+00  0.00000000E+00  0.00000000E+00
  0.00000000E+00  0.00000000E+00  0.00000000E+00
  0.00000000E+00  0.00000000E+00  0.00000000E+00
  0.00000000E+00  0.00000000E+00  0.00000000E+00
  0.00000000E+00  0.00000000E+00  0.00000000E+00
  0.00000000E+00  0.00000000E+00  0.00000000E+00
  0.00000000E+00  0.00000000E+00  0.00000000E+00
  0.00000000E+00  0.00000000E+00  0.00000000E+00
  0.00000000E+00  0.00000000E+00  0.00000000E+00
  0.00000000E+00  0.00000000E+00  0.00000000E+00
  0.00000000E+00  0.00000000E+00  0.00000000E+00
  0.00000000E+00  0.00000000E+00  0.00000000E+00
  0.00000000E+00  0.00000000E+00  0.00000000E+00
  0.00000000E+00  0.00000000E+00  0.00000000E+00
  0.00000000E+00  0.00000000E+00  0.00000000E+00
  0.00000000E+00  0.00000000E+00  0.00000000E+00
  0.00000000E+00  0.00000000E+00  0.00000000E+00
  0.00000000E+00  0.00000000E+00  0.00000000E+00
  0.00000000E+00  0.00000000E+00  0.00000000E+00
  0.00000000E+00  0.00000000E+00  0.00000000E+00
  0.00000000E+00  0.00000000E+00  0.00000000E+00
  0.00000000E+00  0.00000000E+00  0.00000000E+00
  0.00000000E+00  0.00000000E+00  0.00000000E+00
  0.00000000E+00  0.00000000E+00  0.00000000E+00
  0.00000000E+00  0.00000000E+00  0.00000000E+00
  0.00000000E+00  0.00000000E+00  0.00000000E+00
  0.00000000E+00  0.00000000E+00  0.00000000E+00
  0.00000000E+00  0.00000000E+00  0.00000000E+00
  0.00000000E+00  0.00000000E+00  0.00000000E+00
  0.00000000E+00  0.00000000E+00  0.00000000E+00
  0.00000000E+00  0.00000000E+00  0.00000000E+00
  0.00000000E+00  0.00000000E+00  0.00000000E+00
  0.00000000E+00  0.00000000E+00  0.00000000E+00
  0.00000000E+00  0.00000000E+00  0.00000000E+00
  0.00000000E+00  0.00000000E+00  0.00000000E+00
  0.00000000E+00  0.00000000E+00  0.00000000E+00
  0.00000000E+00  0.00000000E+00  0.00000000E+00
  0.00000000E+00  0.00000000E+00  0.00000000E+00
  0.00000000E+00  0.00000000E+00  0.00000000E+00
  0.00000000E+00  0.00000000E+00  0.00000000E+00
