CONTCAR                                 
   1.00000000000000     
    14.6651000976999999    0.0000000000000000    0.0000000000000000
     0.0000000000000000   17.2791004181000005    0.0000000000000000
    -0.1285703978000000    0.0000000000000000   17.7376340898000002
   Cu   Te   O 
    16    16    49
Direct
  0.3430596275765365  0.2630231241622082  0.5291370399187912
  0.8441822224288630  0.2624495412366194  0.5301705532053175
  0.3390281197421843  0.7643361650141437  0.5286897247346775
  0.8428565624601534  0.7630678378266470  0.5302831010313409
  0.0967328798866921  0.4892106600803097  0.5330511892857165
  0.5932376440231540  0.4868116399211832  0.5321623205084098
  0.0924182378277068  0.9876689332597548  0.5274972858057844
  0.5923605743204419  0.9883121259471009  0.5296125516230399
  0.1565970117068479  0.2384292776944216  0.4700405557492618
  0.6573338087747664  0.2384703035159310  0.4700098984689546
  0.1559755609428212  0.7405197353489984  0.4702282742421652
  0.6537814595877273  0.7378904432827859  0.4749480721641619
  0.4053956897173451  0.0128845437136610  0.4696748249316429
  0.9042352803015140  0.0117101582131035  0.4698170150962453
  0.4096551668790899  0.5088112373632139  0.4759089188582672
  0.9081020376916337  0.5134211007739560  0.4756206707624207
  0.2796495910541756  0.1043049400237572  0.5864395925906689
  0.7792277193519599  0.1040935373916576  0.5875754052617667
  0.2796617126354864  0.6090132385107930  0.5896430968884444
  0.7796142076705809  0.6059628118615292  0.5917811317463156
  0.2207239749506032  0.3979727345055022  0.4149792367820891
  0.7212207339319278  0.3983681014618093  0.4156639976272439
  0.2192698071359915  0.8974933136680052  0.4099583440073534
  0.7178745204557252  0.8951462807296259  0.4133530974951065
  0.4717499488707515  0.3534298653912901  0.4123098570354980
  0.9709836111804960  0.3558863426565902  0.4147109512157613
  0.4683860649738562  0.8536569708029329  0.4133880375943070
  0.9684661369499203  0.8536703998722269  0.4112706496967247
  0.0301699359273331  0.1460804164420812  0.5857626458623895
  0.5298882304823219  0.1472397329471065  0.5861310151227839
  0.0306811038340394  0.6497329390063484  0.5882927946048638
  0.5274487495263787  0.6425718874633477  0.5921365377004010
  0.3018852522032657  0.0750310156770206  0.4863524379613871
  0.8009536295655557  0.0736024019350922  0.4878105103032220
  0.3041868100470326  0.5688320639307716  0.4937454168315070
  0.8030528381218662  0.5738485068806785  0.4928305268538599
  0.2670638126611632  0.2954238198414030  0.4412291555603408
  0.7683122951380550  0.2962584316789751  0.4426985580172038
  0.2666296263987455  0.7953667305642729  0.4368135036693888
  0.7646506594130056  0.7938893130027448  0.4436206397753195
  0.3991400513546612  0.1831029856550086  0.5901090355382166
  0.8994790225387039  0.1823367155019400  0.5916416906959282
  0.3940080041540454  0.6803778243258133  0.5872417562850093
  0.8997011112820180  0.6845241618629063  0.5933184401832297
  0.4822362199645499  0.0456479804789124  0.5575982967779524
  0.9824592872314054  0.0446536186634242  0.5565799341570732
  0.4832211526228009  0.5409600522066372  0.5636383860538934
  0.9862847942889786  0.5468156150161706  0.5619037709445917
  0.3511338893502218  0.4333247688615285  0.4114365206588764
  0.8513132280867349  0.4355536034261256  0.4121662155598450
  0.3489823028874504  0.9343201594607089  0.4061420593494006
  0.8473279920944838  0.9326157124891782  0.4074448476795372
  0.1493341742739913  0.0668352953211771  0.5897638370087807
  0.6484665583086623  0.0676437010475221  0.5921717052410440
  0.1530002054814926  0.5716195035361042  0.5925229762157327
  0.6490834894221280  0.5685097915245295  0.5941285238567050
  0.4488827754567828  0.3229318144799755  0.5119177467458538
  0.9484090071170156  0.3239503904778189  0.5139693870629602
  0.4436900137914195  0.8255787245881384  0.5133591267110172
  0.9464980512860951  0.8244120225049562  0.5114627826562193
  0.1974096686861242  0.4244712875691995  0.5156075664323156
  0.6973150893070620  0.4250495892746914  0.5161653794850067
  0.1961609455898284  0.9257184073580810  0.5101974743337907
  0.6956590974497352  0.9260693937448232  0.5129606227787652
  0.0183808838119868  0.4568346432830929  0.4455371730044668
  0.5198597257844995  0.4548458729080562  0.4407128388958565
  0.0147921390636840  0.9555437300149741  0.4398423629386622
  0.5160759274382817  0.9552326288556171  0.4417695850650767
  0.2322832945143193  0.2059727719258883  0.5585574536801629
  0.7329467870097890  0.2057773031020184  0.5581513409659333
  0.2289514611479828  0.7105721547033532  0.5619410075926712
  0.7324489008120780  0.7069304177184061  0.5618225605838011
  0.0527102955541422  0.1760172708585946  0.4858829049654554
  0.5538226251656422  0.1757833859597170  0.4860809283134566
  0.0525021169985777  0.6776487278825039  0.4877559968700728
  0.5508416332600207  0.6753936152458340  0.4934898599605682
  0.1005216563230672  0.3185678498892868  0.4089956674461054
  0.6017598048716583  0.3173537944181439  0.4070378535564660
  0.0983712284031515  0.8177315408437869  0.4062189974539091
  0.5975875651475409  0.8153473328180995  0.4103638884122688
  0.3144347133193987  0.5699311885976293  0.6801736872931321
 
  0.00000000E+00  0.00000000E+00  0.00000000E+00
  0.00000000E+00  0.00000000E+00  0.00000000E+00
  0.00000000E+00  0.00000000E+00  0.00000000E+00
  0.00000000E+00  0.00000000E+00  0.00000000E+00
  0.00000000E+00  0.00000000E+00  0.00000000E+00
  0.00000000E+00  0.00000000E+00  0.00000000E+00
  0.00000000E+00  0.00000000E+00  0.00000000E+00
  0.00000000E+00  0.00000000E+00  0.00000000E+00
  0.00000000E+00  0.00000000E+00  0.00000000E+00
  0.00000000E+00  0.00000000E+00  0.00000000E+00
  0.00000000E+00  0.00000000E+00  0.00000000E+00
  0.00000000E+00  0.00000000E+00  0.00000000E+00
  0.00000000E+00  0.00000000E+00  0.00000000E+00
  0.00000000E+00  0.00000000E+00  0.00000000E+00
  0.00000000E+00  0.00000000E+00  0.00000000E+00
  0.00000000E+00  0.00000000E+00  0.00000000E+00
  0.00000000E+00  0.00000000E+00  0.00000000E+00
  0.00000000E+00  0.00000000E+00  0.00000000E+00
  0.00000000E+00  0.00000000E+00  0.00000000E+00
  0.00000000E+00  0.00000000E+00  0.00000000E+00
  0.00000000E+00  0.00000000E+00  0.00000000E+00
  0.00000000E+00  0.00000000E+00  0.00000000E+00
  0.00000000E+00  0.00000000E+00  0.00000000E+00
  0.00000000E+00  0.00000000E+00  0.00000000E+00
  0.00000000E+00  0.00000000E+00  0.00000000E+00
  0.00000000E+00  0.00000000E+00  0.00000000E+00
  0.00000000E+00  0.00000000E+00  0.00000000E+00
  0.00000000E+00  0.00000000E+00  0.00000000E+00
  0.00000000E+00  0.00000000E+00  0.00000000E+00
  0.00000000E+00  0.00000000E+00  0.00000000E+00
  0.00000000E+00  0.00000000E+00  0.00000000E+00
  0.00000000E+00  0.00000000E+00  0.00000000E+00
  0.00000000E+00  0.00000000E+00  0.00000000E+00
  0.00000000E+00  0.00000000E+00  0.00000000E+00
  0.00000000E+00  0.00000000E+00  0.00000000E+00
  0.00000000E+00  0.00000000E+00  0.00000000E+00
  0.00000000E+00  0.00000000E+00  0.00000000E+00
  0.00000000E+00  0.00000000E+00  0.00000000E+00
  0.00000000E+00  0.00000000E+00  0.00000000E+00
  0.00000000E+00  0.00000000E+00  0.00000000E+00
  0.00000000E+00  0.00000000E+00  0.00000000E+00
  0.00000000E+00  0.00000000E+00  0.00000000E+00
  0.00000000E+00  0.00000000E+00  0.00000000E+00
  0.00000000E+00  0.00000000E+00  0.00000000E+00
  0.00000000E+00  0.00000000E+00  0.00000000E+00
  0.00000000E+00  0.00000000E+00  0.00000000E+00
  0.00000000E+00  0.00000000E+00  0.00000000E+00
  0.00000000E+00  0.00000000E+00  0.00000000E+00
  0.00000000E+00  0.00000000E+00  0.00000000E+00
  0.00000000E+00  0.00000000E+00  0.00000000E+00
  0.00000000E+00  0.00000000E+00  0.00000000E+00
  0.00000000E+00  0.00000000E+00  0.00000000E+00
  0.00000000E+00  0.00000000E+00  0.00000000E+00
  0.00000000E+00  0.00000000E+00  0.00000000E+00
  0.00000000E+00  0.00000000E+00  0.00000000E+00
  0.00000000E+00  0.00000000E+00  0.00000000E+00
  0.00000000E+00  0.00000000E+00  0.00000000E+00
  0.00000000E+00  0.00000000E+00  0.00000000E+00
  0.00000000E+00  0.00000000E+00  0.00000000E+00
  0.00000000E+00  0.00000000E+00  0.00000000E+00
  0.00000000E+00  0.00000000E+00  0.00000000E+00
  0.00000000E+00  0.00000000E+00  0.00000000E+00
  0.00000000E+00  0.00000000E+00  0.00000000E+00
  0.00000000E+00  0.00000000E+00  0.00000000E+00
  0.00000000E+00  0.00000000E+00  0.00000000E+00
  0.00000000E+00  0.00000000E+00  0.00000000E+00
  0.00000000E+00  0.00000000E+00  0.00000000E+00
  0.00000000E+00  0.00000000E+00  0.00000000E+00
  0.00000000E+00  0.00000000E+00  0.00000000E+00
  0.00000000E+00  0.00000000E+00  0.00000000E+00
  0.00000000E+00  0.00000000E+00  0.00000000E+00
  0.00000000E+00  0.00000000E+00  0.00000000E+00
  0.00000000E+00  0.00000000E+00  0.00000000E+00
  0.00000000E+00  0.00000000E+00  0.00000000E+00
  0.00000000E+00  0.00000000E+00  0.00000000E+00
  0.00000000E+00  0.00000000E+00  0.00000000E+00
  0.00000000E+00  0.00000000E+00  0.00000000E+00
  0.00000000E+00  0.00000000E+00  0.00000000E+00
  0.00000000E+00  0.00000000E+00  0.00000000E+00
  0.00000000E+00  0.00000000E+00  0.00000000E+00
  0.00000000E+00  0.00000000E+00  0.00000000E+00
