CONTCAR                                 
   1.00000000000000     
    12.0100002288999992    0.0000000000000000    0.0000000000000000
     0.0000000000000000   13.6953001021999992    0.0000000000000000
     0.0000000000000000    0.0000000000000000   20.2971992493000002
   Hf   Te   O    H 
     6    30     1     1
Direct
  0.1592569278138072  0.0076846473232308  0.5475440052056442
  0.9983728117441331  0.5067394201675697  0.4566014911351672
  0.4922215100138345  0.0072130674732165  0.5493446933984814
  0.3341180517731956  0.5074467856861418  0.4616371931682508
  0.8254399599413063  0.0088613306069192  0.5499214618607056
  0.6655219947485733  0.5085214762504648  0.4548470745069721
  0.9950884797004420  0.6961622844097946  0.5280136900028509
  0.1638560861622196  0.8268190807293507  0.4678498739790271
  0.1620945624566659  0.5181084530303863  0.5680811756650073
  0.9888126824093035  0.0124189387929050  0.4387037853528284
  0.1675820419334570  0.6027167988207722  0.3742015898303492
  0.9937161078303589  0.9046679432029165  0.6291861657435831
  0.9933494858453003  0.1083918353140234  0.6314175021998096
  0.1700546658572506  0.3995037757236162  0.3809596122283381
  0.9981755134436980  0.3227143527069387  0.5337504016906891
  0.1544414593551480  0.1916096414819748  0.4691776075704155
  0.3299441514648223  0.6973805044731236  0.5288494597375859
  0.4968081174656049  0.8279050663332939  0.4669242600438466
  0.5040874361353502  0.5332218574970895  0.5672061373151251
  0.3258187695435097  0.0081088462773948  0.4382037230296518
  0.4954698874905148  0.6029945209632217  0.3714158464300468
  0.3258859839228165  0.9027609142598862  0.6296682066889900
  0.3229535307595270  0.1074223110802777  0.6306640298120172
  0.4968801739927713  0.3998760140984103  0.3802973636830913
  0.3258547652616528  0.3207907935168564  0.5467219945286814
  0.4900567446815742  0.1972562742716590  0.4803070605048561
  0.6623507818912771  0.6968142907156789  0.5257814720887950
  0.8336428892667769  0.8307170180427121  0.4665732306727648
  0.8291640089214383  0.5083476552630941  0.5654037467211097
  0.6594583917144945  0.0174255409887323  0.4399221170968559
  0.8328437616954290  0.6058513742524596  0.3716936522931746
  0.6596902557736755  0.9018982488363818  0.6289407063375663
  0.6573969221998439  0.1050782363536626  0.6346876628852485
  0.8330223205674017  0.4028921303161468  0.3743597184675949
  0.6646679198523131  0.3304850531609915  0.5382918924832722
  0.8217835414834482  0.1952284608072006  0.4762015423847004
  0.4322084523572300  0.3563912511188931  0.6250549978623923
  0.4066488545298128  0.3179938106526023  0.6629639113944990
 
  0.00000000E+00  0.00000000E+00  0.00000000E+00
  0.00000000E+00  0.00000000E+00  0.00000000E+00
  0.00000000E+00  0.00000000E+00  0.00000000E+00
  0.00000000E+00  0.00000000E+00  0.00000000E+00
  0.00000000E+00  0.00000000E+00  0.00000000E+00
  0.00000000E+00  0.00000000E+00  0.00000000E+00
  0.00000000E+00  0.00000000E+00  0.00000000E+00
  0.00000000E+00  0.00000000E+00  0.00000000E+00
  0.00000000E+00  0.00000000E+00  0.00000000E+00
  0.00000000E+00  0.00000000E+00  0.00000000E+00
  0.00000000E+00  0.00000000E+00  0.00000000E+00
  0.00000000E+00  0.00000000E+00  0.00000000E+00
  0.00000000E+00  0.00000000E+00  0.00000000E+00
  0.00000000E+00  0.00000000E+00  0.00000000E+00
  0.00000000E+00  0.00000000E+00  0.00000000E+00
  0.00000000E+00  0.00000000E+00  0.00000000E+00
  0.00000000E+00  0.00000000E+00  0.00000000E+00
  0.00000000E+00  0.00000000E+00  0.00000000E+00
  0.00000000E+00  0.00000000E+00  0.00000000E+00
  0.00000000E+00  0.00000000E+00  0.00000000E+00
  0.00000000E+00  0.00000000E+00  0.00000000E+00
  0.00000000E+00  0.00000000E+00  0.00000000E+00
  0.00000000E+00  0.00000000E+00  0.00000000E+00
  0.00000000E+00  0.00000000E+00  0.00000000E+00
  0.00000000E+00  0.00000000E+00  0.00000000E+00
  0.00000000E+00  0.00000000E+00  0.00000000E+00
  0.00000000E+00  0.00000000E+00  0.00000000E+00
  0.00000000E+00  0.00000000E+00  0.00000000E+00
  0.00000000E+00  0.00000000E+00  0.00000000E+00
  0.00000000E+00  0.00000000E+00  0.00000000E+00
  0.00000000E+00  0.00000000E+00  0.00000000E+00
  0.00000000E+00  0.00000000E+00  0.00000000E+00
  0.00000000E+00  0.00000000E+00  0.00000000E+00
  0.00000000E+00  0.00000000E+00  0.00000000E+00
  0.00000000E+00  0.00000000E+00  0.00000000E+00
  0.00000000E+00  0.00000000E+00  0.00000000E+00
  0.00000000E+00  0.00000000E+00  0.00000000E+00
  0.00000000E+00  0.00000000E+00  0.00000000E+00
