 Tm2 Te6                                
   1.00000000000000     
     4.2991342939062767    0.0000000000000000    0.0000000000000000
     0.0000000000000000    4.2990100150132324    0.0000000000000000
     0.0000000000000000    0.0000000000000000   24.0167176458860041
   Tm   Te
     2     6
Direct
  0.4999998109704807 -0.0000000746438338  0.5843665040077164
  0.0000001660012216  0.5000000805188604  0.4156335259890183
 -0.0000000000330793 -0.0000000433664475  0.3122617779918215
  0.5000000086734370  0.5000000083965461  0.6877382518174403
 -0.0000000009183107  0.0000000151745343  0.6877376999039569
  0.5000000240632502  0.4999999745838285  0.3122623408236817
  0.5000000643924587  0.0000000010651403  0.4538657979163214
 -0.0000000731494580  0.5000000382713715  0.5461341015500434
 
  0.00000000E+00  0.00000000E+00  0.00000000E+00
  0.00000000E+00  0.00000000E+00  0.00000000E+00
  0.00000000E+00  0.00000000E+00  0.00000000E+00
  0.00000000E+00  0.00000000E+00  0.00000000E+00
  0.00000000E+00  0.00000000E+00  0.00000000E+00
  0.00000000E+00  0.00000000E+00  0.00000000E+00
  0.00000000E+00  0.00000000E+00  0.00000000E+00
  0.00000000E+00  0.00000000E+00  0.00000000E+00
