CONTCAR\(7)                             
   1.00000000000000     
    12.8648996353000005    0.0000000000000000    0.0000000000000000
    -6.4324498177000002   11.1413299013000007    0.0000000000000000
     0.0000000000000000    0.0000000000000000   18.7835006713999988
   Li   C    O    H 
     9   108     2     1
Selective dynamics
Direct
  0.9999721491690607  0.0001369980191583  0.5000283700055803   F   F   F
  0.3332639974377756  0.9998103508194589  0.4995257533885678   F   F   F
  0.6664805168228511  0.9997154664082686  0.4998153904131186   F   F   F
  0.9999646820605861  0.3332830412174275  0.4998799731484525   F   F   F
  0.3331987322847283  0.3332853095340482  0.4997305406186854   F   F   F
  0.6666872787755622  0.3335155694652912  0.4999944065239106   F   F   F
  0.0002682692259555  0.6668011987993339  0.4997412867470246   F   F   F
  0.3333167299631867  0.6666038845351565  0.4993563685933751   F   F   F
  0.6667439683646350  0.6668933027685640  0.4998542815268081   F   F   F
  0.2222242145528455  0.0000198623306389  0.3990150172539160   F   F   F
  0.9999747803270438  0.2222557165995838  0.3995861219966272   F   F   F
  0.1110774687931979  0.1111109820596425  0.3995197215071968   F   F   F
  0.1110701171544122  0.0000133348792772  0.3993290381292312   F   F   F
  0.9999706597972491  0.1111028592571799  0.3996339820649908   F   F   F
  0.2222166336404570  0.2222427524609074  0.3994606293140848   F   F   F
  0.1111527648217105  0.0001218107321179  0.6004062053352044   F   F   F
  0.9999752039075531  0.1112558906352561  0.6004315273439644   F   F   F
  0.2222656765503643  0.2223774940109138  0.6002995324588625   F   F   F
  0.2223258844074252  0.0000885651605955  0.6001778357979290   F   F   F
  0.9999951417566209  0.2224354968516167  0.6003633785295790   F   F   F
  0.1111197943447522  0.1112517273946523  0.6003850733490950   F   F   F
  0.5555404360714320  0.0000074808517709  0.3989956090356799   F   F   F
  0.3333257085373944  0.2222529846089785  0.3994270831863886   F   F   F
  0.4444200615859515  0.1111125606068910  0.3991468603587052   F   F   F
  0.4444057526298479  0.9999986330581621  0.3988469207021836   F   F   F
  0.3333266925986678  0.1111043512832737  0.3991789611861023   F   F   F
  0.5555552733735425  0.2222500822519251  0.3995131403267109   F   F   F
  0.4442961121249098  0.9999324325524199  0.5997991088039001   F   F   F
  0.3333580932668312  0.1111386525303075  0.6001720125042453   F   F   F
  0.5555327753966139  0.2223092622754095  0.6002820026812472   F   F   F
  0.5554027286564462  0.9999742112904002  0.6000136640375473   F   F   F
  0.3333473691221869  0.2224041815387920  0.6002133108635235   F   F   F
  0.4443811240492010  0.1111192304334452  0.6001157643306101   F   F   F
  0.8888797801288462  0.0000198912166738  0.3995755806523036   F   F   F
  0.6666417367713890  0.2222509257321619  0.3995652645574737   F   F   F
  0.7777265827108266  0.1111121180241454  0.3994737911407640   F   F   F
  0.7777323261356557  0.0000221825052975  0.3994089343594425   F   F   F
  0.6666363054199209  0.1111159049710579  0.3993427533838982   F   F   F
  0.8888800972815005  0.2222579792841373  0.3995963058900998   F   F   F
  0.7776324362318121  0.0001268517848629  0.6004060597127818   F   F   F
  0.6665361900046847  0.1111476127228883  0.6002083005944030   F   F   F
  0.8888923897151315  0.2224268790810129  0.6003548850066807   F   F   F
  0.8888709293438168  0.0001602408224244  0.6004691262536568   F   F   F
  0.6665995665238214  0.2223098360555653  0.6002762022548467   F   F   F
  0.7776293088356070  0.1111853794831106  0.6003253069581831   F   F   F
  0.2222226254726323  0.3333613890133122  0.3994270782991549   F   F   F
  0.9999909645815421  0.5555878798910001  0.3992582893106942   F   F   F
  0.1110835651157487  0.4444561786051722  0.3992283334277715   F   F   F
  0.1110800754075285  0.3333554822686509  0.3994429502011982   F   F   F
  0.9999860563868594  0.4444567212890007  0.3993877083930499   F   F   F
  0.2222211284989015  0.5555823764790730  0.3989492123768485   F   F   F
  0.1111527699876902  0.3335903733996091  0.6002509232484954   F   F   F
  0.0001151901423455  0.4446899032558775  0.6001451038920749   F   F   F
  0.2223664543538604  0.5559022624005365  0.5997579551457548   F   F   F
  0.2222830005050014  0.3335911694683560  0.6002092008874129   F   F   F
  0.0001681668910010  0.5558450515649795  0.6000851667073164   F   F   F
  0.1112058598436434  0.4447474406266636  0.6000633708991359   F   F   F
  0.5555587257042305  0.3333468503500896  0.3996853617572427   F   F   F
  0.3333174363814493  0.5555849594424984  0.3990287835120938   F   F   F
  0.4444179823611094  0.4444552855285409  0.3995119012668056   F   F   F
  0.4444205780963486  0.3333378251217098  0.3995794690121173   F   F   F
  0.3333180468544086  0.4444487225983735  0.3993007059076703   F   F   F
  0.5555489837979408  0.5555872906314931  0.3995205988181922   F   F   F
  0.4444292299773736  0.3334503374250914  0.6002047057682205   F   F   F
  0.3333585666422465  0.4446647853142309  0.5999931269824046   F   F   F
  0.5555415276104512  0.5557601465549524  0.6001182988343885   F   F   F
  0.5555694711676296  0.3334759686402009  0.6002284464224843   F   F   F
  0.3333355708681154  0.5558844484638001  0.5998115070004317   F   F   F
  0.4444256771049595  0.4446483155462104  0.6000975555285848   F   F   F
  0.8888848228364594  0.3333563561668811  0.3996061606885704   F   F   F
  0.6666495697786701  0.5555840018968397  0.3996720826116729   F   F   F
  0.7777484173526688  0.4444418175089808  0.3997296632575953   F   F   F
  0.7777533113195858  0.3333565738128144  0.3997039033585565   F   F   F
  0.6666492110463125  0.4444408005779366  0.3997772634494225   F   F   F
  0.8888845103190164  0.5555831529608710  0.3995043620612009   F   F   F
  0.7777793384868446  0.3334994683608841  0.6002941969054802   F   F   F
  0.6666871372109568  0.4446020668397779  0.6002289267064995   F   F   F
  0.8890088148989790  0.5557970558541143  0.6002203127494070   F   F   F
  0.8889097524938734  0.3335143158173892  0.6002899657615259   F   F   F
  0.6666799215584760  0.5557552074686143  0.6001831596298430   F   F   F
  0.7777987993141195  0.4446189885573020  0.6002614820064096   F   F   F
  0.2222349101983951  0.6666859385596453  0.3987055610387529   F   F   F
  0.9999820920212343  0.8889207622377313  0.3993769002405898   F   F   F
  0.1110900295309136  0.7777742325378583  0.3988278254375004   F   F   F
  0.1110929393675946  0.6666821593224057  0.3988526078240611   F   F   F
  0.9999772744495914  0.7777746906111958  0.3991768778081237   F   F   F
  0.2222228714991061  0.8889099484020733  0.3987063732051936   F   F   F
  0.1112704024310034  0.6669295416601457  0.5998998834490123   F   F   F
  0.0001279259390117  0.7779256512153481  0.6001910166334952   F   F   F
  0.2224036833573777  0.8889819850235199  0.5998024232735801   F   F   F
  0.2224740361145336  0.6670256450716394  0.5995931579739207   F   F   F
  0.0000713133825130  0.8890430980163870  0.6003635662457398   F   F   F
  0.1112686550058655  0.7779017060238189  0.5999697395186914   F   F   F
  0.5555486985164180  0.6666855320144123  0.3992208635748611   F   F   F
  0.3333150345867466  0.8889123404705117  0.3985855402173755   F   F   F
  0.4444053839875082  0.7777799021395992  0.3987200004859517   F   F   F
  0.4444060350153549  0.6666827046177488  0.3989575831795591   F   F   F
  0.3333128213590655  0.7777748457427336  0.3985731023642387   F   F   F
  0.5555342891197625  0.8889110479284881  0.3988917107276535   F   F   F
  0.4442873212108438  0.6668607048967559  0.5997622961640232   F   F   F
  0.3333393169528946  0.7779048353088243  0.5987956611828906   F   F   F
  0.5553707934065102  0.8889884966004118  0.5999871565959936   F   F   F
  0.5554554144626920  0.6668562576221930  0.6000562933647657   F   F   F
  0.3333491603460885  0.8889569706583060  0.5993970271664679   F   F   F
  0.4441902178933432  0.7778899305310176  0.5996295967911962   F   F   F
  0.8888856692996967  0.6666653143440726  0.3994458645619403   F   F   F
  0.6666290549930594  0.8889107842042279  0.3991706187826551   F   F   F
  0.7777502244640715  0.7777811637916088  0.3994659628067865   F   F   F
  0.7777316632673248  0.6666643174332094  0.3995722862077287   F   F   F
  0.6666304297466326  0.7777706829935767  0.3992762167497688   F   F   F
  0.8888752957986199  0.8889193546850507  0.3995278716484094   F   F   F
  0.7777620383400503  0.6668538212077451  0.6002523040854797   F   F   F
  0.6665374353604605  0.7778981277129091  0.6002415453074477   F   F   F
  0.8888865171706968  0.8890517508293811  0.6004224255184170   F   F   F
  0.8890236585159244  0.6668668418514585  0.6002085327054729   F   F   F
  0.6664718279302306  0.8890117435433211  0.6002389855776258   F   F   F
  0.7777545843802542  0.7779355983504601  0.6003450528664516   F   F   F
  0.3363488354650670  0.7665825949151639  0.7407515724393150   T   T   T
  0.3383956413931486  0.7782149567967451  0.8150257580156435   T   T   T
  0.3363616056773608  0.7047325725222606  0.8309235594624914   T   T   T
 
  0.00000000E+00  0.00000000E+00  0.00000000E+00
  0.00000000E+00  0.00000000E+00  0.00000000E+00
  0.00000000E+00  0.00000000E+00  0.00000000E+00
  0.00000000E+00  0.00000000E+00  0.00000000E+00
  0.00000000E+00  0.00000000E+00  0.00000000E+00
  0.00000000E+00  0.00000000E+00  0.00000000E+00
  0.00000000E+00  0.00000000E+00  0.00000000E+00
  0.00000000E+00  0.00000000E+00  0.00000000E+00
  0.00000000E+00  0.00000000E+00  0.00000000E+00
  0.00000000E+00  0.00000000E+00  0.00000000E+00
  0.00000000E+00  0.00000000E+00  0.00000000E+00
  0.00000000E+00  0.00000000E+00  0.00000000E+00
  0.00000000E+00  0.00000000E+00  0.00000000E+00
  0.00000000E+00  0.00000000E+00  0.00000000E+00
  0.00000000E+00  0.00000000E+00  0.00000000E+00
  0.00000000E+00  0.00000000E+00  0.00000000E+00
  0.00000000E+00  0.00000000E+00  0.00000000E+00
  0.00000000E+00  0.00000000E+00  0.00000000E+00
  0.00000000E+00  0.00000000E+00  0.00000000E+00
  0.00000000E+00  0.00000000E+00  0.00000000E+00
  0.00000000E+00  0.00000000E+00  0.00000000E+00
  0.00000000E+00  0.00000000E+00  0.00000000E+00
  0.00000000E+00  0.00000000E+00  0.00000000E+00
  0.00000000E+00  0.00000000E+00  0.00000000E+00
  0.00000000E+00  0.00000000E+00  0.00000000E+00
  0.00000000E+00  0.00000000E+00  0.00000000E+00
  0.00000000E+00  0.00000000E+00  0.00000000E+00
  0.00000000E+00  0.00000000E+00  0.00000000E+00
  0.00000000E+00  0.00000000E+00  0.00000000E+00
  0.00000000E+00  0.00000000E+00  0.00000000E+00
  0.00000000E+00  0.00000000E+00  0.00000000E+00
  0.00000000E+00  0.00000000E+00  0.00000000E+00
  0.00000000E+00  0.00000000E+00  0.00000000E+00
  0.00000000E+00  0.00000000E+00  0.00000000E+00
  0.00000000E+00  0.00000000E+00  0.00000000E+00
  0.00000000E+00  0.00000000E+00  0.00000000E+00
  0.00000000E+00  0.00000000E+00  0.00000000E+00
  0.00000000E+00  0.00000000E+00  0.00000000E+00
  0.00000000E+00  0.00000000E+00  0.00000000E+00
  0.00000000E+00  0.00000000E+00  0.00000000E+00
  0.00000000E+00  0.00000000E+00  0.00000000E+00
  0.00000000E+00  0.00000000E+00  0.00000000E+00
  0.00000000E+00  0.00000000E+00  0.00000000E+00
  0.00000000E+00  0.00000000E+00  0.00000000E+00
  0.00000000E+00  0.00000000E+00  0.00000000E+00
  0.00000000E+00  0.00000000E+00  0.00000000E+00
  0.00000000E+00  0.00000000E+00  0.00000000E+00
  0.00000000E+00  0.00000000E+00  0.00000000E+00
  0.00000000E+00  0.00000000E+00  0.00000000E+00
  0.00000000E+00  0.00000000E+00  0.00000000E+00
  0.00000000E+00  0.00000000E+00  0.00000000E+00
  0.00000000E+00  0.00000000E+00  0.00000000E+00
  0.00000000E+00  0.00000000E+00  0.00000000E+00
  0.00000000E+00  0.00000000E+00  0.00000000E+00
  0.00000000E+00  0.00000000E+00  0.00000000E+00
  0.00000000E+00  0.00000000E+00  0.00000000E+00
  0.00000000E+00  0.00000000E+00  0.00000000E+00
  0.00000000E+00  0.00000000E+00  0.00000000E+00
  0.00000000E+00  0.00000000E+00  0.00000000E+00
  0.00000000E+00  0.00000000E+00  0.00000000E+00
  0.00000000E+00  0.00000000E+00  0.00000000E+00
  0.00000000E+00  0.00000000E+00  0.00000000E+00
  0.00000000E+00  0.00000000E+00  0.00000000E+00
  0.00000000E+00  0.00000000E+00  0.00000000E+00
  0.00000000E+00  0.00000000E+00  0.00000000E+00
  0.00000000E+00  0.00000000E+00  0.00000000E+00
  0.00000000E+00  0.00000000E+00  0.00000000E+00
  0.00000000E+00  0.00000000E+00  0.00000000E+00
  0.00000000E+00  0.00000000E+00  0.00000000E+00
  0.00000000E+00  0.00000000E+00  0.00000000E+00
  0.00000000E+00  0.00000000E+00  0.00000000E+00
  0.00000000E+00  0.00000000E+00  0.00000000E+00
  0.00000000E+00  0.00000000E+00  0.00000000E+00
  0.00000000E+00  0.00000000E+00  0.00000000E+00
  0.00000000E+00  0.00000000E+00  0.00000000E+00
  0.00000000E+00  0.00000000E+00  0.00000000E+00
  0.00000000E+00  0.00000000E+00  0.00000000E+00
  0.00000000E+00  0.00000000E+00  0.00000000E+00
  0.00000000E+00  0.00000000E+00  0.00000000E+00
  0.00000000E+00  0.00000000E+00  0.00000000E+00
  0.00000000E+00  0.00000000E+00  0.00000000E+00
  0.00000000E+00  0.00000000E+00  0.00000000E+00
  0.00000000E+00  0.00000000E+00  0.00000000E+00
  0.00000000E+00  0.00000000E+00  0.00000000E+00
  0.00000000E+00  0.00000000E+00  0.00000000E+00
  0.00000000E+00  0.00000000E+00  0.00000000E+00
  0.00000000E+00  0.00000000E+00  0.00000000E+00
  0.00000000E+00  0.00000000E+00  0.00000000E+00
  0.00000000E+00  0.00000000E+00  0.00000000E+00
  0.00000000E+00  0.00000000E+00  0.00000000E+00
  0.00000000E+00  0.00000000E+00  0.00000000E+00
  0.00000000E+00  0.00000000E+00  0.00000000E+00
  0.00000000E+00  0.00000000E+00  0.00000000E+00
  0.00000000E+00  0.00000000E+00  0.00000000E+00
  0.00000000E+00  0.00000000E+00  0.00000000E+00
  0.00000000E+00  0.00000000E+00  0.00000000E+00
  0.00000000E+00  0.00000000E+00  0.00000000E+00
  0.00000000E+00  0.00000000E+00  0.00000000E+00
  0.00000000E+00  0.00000000E+00  0.00000000E+00
  0.00000000E+00  0.00000000E+00  0.00000000E+00
  0.00000000E+00  0.00000000E+00  0.00000000E+00
  0.00000000E+00  0.00000000E+00  0.00000000E+00
  0.00000000E+00  0.00000000E+00  0.00000000E+00
  0.00000000E+00  0.00000000E+00  0.00000000E+00
  0.00000000E+00  0.00000000E+00  0.00000000E+00
  0.00000000E+00  0.00000000E+00  0.00000000E+00
  0.00000000E+00  0.00000000E+00  0.00000000E+00
  0.00000000E+00  0.00000000E+00  0.00000000E+00
  0.00000000E+00  0.00000000E+00  0.00000000E+00
  0.00000000E+00  0.00000000E+00  0.00000000E+00
  0.00000000E+00  0.00000000E+00  0.00000000E+00
  0.00000000E+00  0.00000000E+00  0.00000000E+00
  0.00000000E+00  0.00000000E+00  0.00000000E+00
  0.00000000E+00  0.00000000E+00  0.00000000E+00
  0.00000000E+00  0.00000000E+00  0.00000000E+00
  0.00000000E+00  0.00000000E+00  0.00000000E+00
  0.00000000E+00  0.00000000E+00  0.00000000E+00
  0.00000000E+00  0.00000000E+00  0.00000000E+00
  0.00000000E+00  0.00000000E+00  0.00000000E+00
  0.00000000E+00  0.00000000E+00  0.00000000E+00
