CONTCAR                                 
   1.00000000000000     
    12.3037004471000007    0.0000000000000000    0.0000000000000000
     6.1518502235000003   10.6553171476999999    0.0000000000000000
     0.0000000000000000    0.0000000000000000   24.8090991973999984
   Mn   In   Se   O 
     9    18    36     1
Direct
  0.2228431864266444  0.2220848140923863  0.3274660307215749
  0.5574938466278333  0.2209946219244793  0.3275820646748027
  0.8909315850905631  0.2209068036795862  0.3265024233817022
  0.2217909246752184  0.5558829092930604  0.3273417477859604
  0.5560701791144724  0.5544425376034320  0.3250916561932599
  0.8905879583416844  0.5548548350365951  0.3262567601491494
  0.2217724432142973  0.8876313658657030  0.3275678240755230
  0.5570139368466674  0.8878555346289189  0.3276705607954022
  0.8884747402109600  0.8901947456114524  0.3348871141127263
  0.9984996800497673  0.0036679529420160  0.4859807069358987
  0.1060646713678247  0.1144675888532319  0.6540651170010966
  0.3330372338607124  0.9999603462087330  0.4845027270591771
  0.4437056453070978  0.1159938002866333  0.6540498092706645
  0.6645837379838241  0.0034611534923724  0.4859875678162035
  0.7551756687194207  0.1608423535930051  0.6554486701209935
  0.9976248307735893  0.3332315161395621  0.4861228859371252
  0.1034837707009516  0.4465164240589163  0.6515098583550756
  0.3365392592774816  0.3322522358269426  0.4866454896502941
  0.4609250134951204  0.4371252383968870  0.6574213560384561
  0.6709450691983928  0.3314434126758937  0.4890132495064556
  0.7540435410747873  0.4186183637142910  0.6557116645044193
  0.0004578037512755  0.6650106540384745  0.4836705026621531
  0.1017930083433334  0.7861782624202194  0.6508945349620451
  0.3372600861163934  0.6642186295817819  0.4860613787782995
  0.4427354058335651  0.7765090247476981  0.6532622702370845
  0.6671372430219656  0.6624049173036974  0.4848990155927812
  0.7682013499045278  0.7829864823289596  0.6510450412917195
  0.9934776040830487  0.9903332014757747  0.3033668404867498
  0.9907390528254066  0.0064147281096371  0.6984779823976270
  0.2218710636245722  0.2233730369610069  0.4302841928521503
  0.1121636315126116  0.1109630374477923  0.5492410857813703
  0.3341257567373058  0.9983294629027754  0.2988611781482571
  0.3318304120406087  0.0017872021734297  0.6990903475851684
  0.5557746331582886  0.2255026541399297  0.4297305908164297
  0.4429400919722818  0.1109491554335775  0.5491840457093758
  0.6825231408660571 -0.0089115265719238  0.3040877228167242
  0.6684457804017366  0.0064196484584365  0.6963528304248506
  0.8889647366619009  0.2234288913274134  0.4285562585822575
  0.7790809507103349  0.1082923360539829  0.5488926264188463
  0.0014699235828631  0.3325966937211980  0.2957304594351812
  0.9903070956184076  0.3383348885598217  0.6979449902221828
  0.2254707878916347  0.5535326200720558  0.4298461200614986
  0.1108676598413040  0.4446082506013037  0.5474779294851501
  0.3348133432057421  0.3332056348670236  0.2977945551955399
  0.3241991556597766  0.3389600925714183  0.6993624878156728
  0.5567757281657628  0.5516810655917095  0.4290029236936801
  0.4452415250942284  0.4441554301471815  0.5509775498510765
  0.6687534063198820  0.3308396221039646  0.2964436230332129
  0.6318306549868645  0.3495028922141994  0.7387478255796441
  0.8892277271973524  0.5532885972510179  0.4284762166206595
  0.7792561912485512  0.4457122172918362  0.5489592660472423
 -0.0080721766048265  0.6843548660653482  0.3041528796242349
  0.9932071887848295  0.6710345400959284  0.6978179859109680
  0.2230056238677663  0.8874099013891632  0.4300577254083409
  0.1102420899045265  0.7779825810201697  0.5468249012130533
  0.3322386532008572  0.6665048443887402  0.2967750168067991
  0.3235213112930378  0.6723643466979431  0.6983598514221812
  0.5557599177550735  0.8874553347649697  0.4300583421823178
  0.4439558295989989  0.7788613422405084  0.5485698858851790
  0.6682029169347091  0.6663598614571393  0.2973998785701202
  0.6671367726517076  0.6603801464261591  0.6960470716478586
  0.8880095942472503  0.8905876428436246  0.4263551774039864
  0.7771374907836125  0.7772795684240265  0.5466143125177289
  0.5616934458475987  0.3816392609367575  0.7994293747366036
 
  0.00000000E+00  0.00000000E+00  0.00000000E+00
  0.00000000E+00  0.00000000E+00  0.00000000E+00
  0.00000000E+00  0.00000000E+00  0.00000000E+00
  0.00000000E+00  0.00000000E+00  0.00000000E+00
  0.00000000E+00  0.00000000E+00  0.00000000E+00
  0.00000000E+00  0.00000000E+00  0.00000000E+00
  0.00000000E+00  0.00000000E+00  0.00000000E+00
  0.00000000E+00  0.00000000E+00  0.00000000E+00
  0.00000000E+00  0.00000000E+00  0.00000000E+00
  0.00000000E+00  0.00000000E+00  0.00000000E+00
  0.00000000E+00  0.00000000E+00  0.00000000E+00
  0.00000000E+00  0.00000000E+00  0.00000000E+00
  0.00000000E+00  0.00000000E+00  0.00000000E+00
  0.00000000E+00  0.00000000E+00  0.00000000E+00
  0.00000000E+00  0.00000000E+00  0.00000000E+00
  0.00000000E+00  0.00000000E+00  0.00000000E+00
  0.00000000E+00  0.00000000E+00  0.00000000E+00
  0.00000000E+00  0.00000000E+00  0.00000000E+00
  0.00000000E+00  0.00000000E+00  0.00000000E+00
  0.00000000E+00  0.00000000E+00  0.00000000E+00
  0.00000000E+00  0.00000000E+00  0.00000000E+00
  0.00000000E+00  0.00000000E+00  0.00000000E+00
  0.00000000E+00  0.00000000E+00  0.00000000E+00
  0.00000000E+00  0.00000000E+00  0.00000000E+00
  0.00000000E+00  0.00000000E+00  0.00000000E+00
  0.00000000E+00  0.00000000E+00  0.00000000E+00
  0.00000000E+00  0.00000000E+00  0.00000000E+00
  0.00000000E+00  0.00000000E+00  0.00000000E+00
  0.00000000E+00  0.00000000E+00  0.00000000E+00
  0.00000000E+00  0.00000000E+00  0.00000000E+00
  0.00000000E+00  0.00000000E+00  0.00000000E+00
  0.00000000E+00  0.00000000E+00  0.00000000E+00
  0.00000000E+00  0.00000000E+00  0.00000000E+00
  0.00000000E+00  0.00000000E+00  0.00000000E+00
  0.00000000E+00  0.00000000E+00  0.00000000E+00
  0.00000000E+00  0.00000000E+00  0.00000000E+00
  0.00000000E+00  0.00000000E+00  0.00000000E+00
  0.00000000E+00  0.00000000E+00  0.00000000E+00
  0.00000000E+00  0.00000000E+00  0.00000000E+00
  0.00000000E+00  0.00000000E+00  0.00000000E+00
  0.00000000E+00  0.00000000E+00  0.00000000E+00
  0.00000000E+00  0.00000000E+00  0.00000000E+00
  0.00000000E+00  0.00000000E+00  0.00000000E+00
  0.00000000E+00  0.00000000E+00  0.00000000E+00
  0.00000000E+00  0.00000000E+00  0.00000000E+00
  0.00000000E+00  0.00000000E+00  0.00000000E+00
  0.00000000E+00  0.00000000E+00  0.00000000E+00
  0.00000000E+00  0.00000000E+00  0.00000000E+00
  0.00000000E+00  0.00000000E+00  0.00000000E+00
  0.00000000E+00  0.00000000E+00  0.00000000E+00
  0.00000000E+00  0.00000000E+00  0.00000000E+00
  0.00000000E+00  0.00000000E+00  0.00000000E+00
  0.00000000E+00  0.00000000E+00  0.00000000E+00
  0.00000000E+00  0.00000000E+00  0.00000000E+00
  0.00000000E+00  0.00000000E+00  0.00000000E+00
  0.00000000E+00  0.00000000E+00  0.00000000E+00
  0.00000000E+00  0.00000000E+00  0.00000000E+00
  0.00000000E+00  0.00000000E+00  0.00000000E+00
  0.00000000E+00  0.00000000E+00  0.00000000E+00
  0.00000000E+00  0.00000000E+00  0.00000000E+00
  0.00000000E+00  0.00000000E+00  0.00000000E+00
  0.00000000E+00  0.00000000E+00  0.00000000E+00
  0.00000000E+00  0.00000000E+00  0.00000000E+00
  0.00000000E+00  0.00000000E+00  0.00000000E+00
