CONTCAR\(5)                             
   1.00000000000000     
    10.2299003601000003    0.0000000000000000    0.0000000000000000
     0.0000000000000000    9.6009998321999994    0.0000000000000000
     0.0000000000000000    0.0000000000000000   20.0983009338000009
   Ti   S    Cl
    12    12    12
Direct
  0.2498999940000033  0.3750049625210489  0.4604242693086977
  0.0832500010000032  0.1249750474789456  0.5395657186912981
  0.5832300100000012  0.3750049625210489  0.4604242693086977
  0.4165799989999996  0.1249750474789456  0.5395657186912981
  0.9165700240000021  0.3750049625210489  0.4604242693086977
  0.7499099919999992  0.1249750474789456  0.5395657186912981
  0.2498999940000033  0.8750050115210494  0.4604242693086977
  0.0832500010000032  0.6249750724789512  0.5395657186912981
  0.5832300100000012  0.8750050115210494  0.4604242693086977
  0.4165799989999996  0.6249750724789512  0.5395657186912981
  0.9165700240000021  0.8750050115210494  0.4604242693086977
  0.7499099919999992  0.6249750724789512  0.5395657186912981
  0.0832400019999966  0.3749851267574467  0.5475274392610849
  0.2498899949999966  0.1250048652425566  0.4524825727389122
  0.4165799989999996  0.3749851267574467  0.5475274392610849
  0.5832199880000033  0.1250048652425566  0.4524825727389122
  0.7499099919999992  0.3749851267574467  0.5475274392610849
  0.9165599560000004  0.1250048652425566  0.4524825727389122
  0.0832400019999966  0.8749851267574468  0.5475274392610849
  0.2498899949999966  0.6250048402425580  0.4524825727389122
  0.4165799989999996  0.8749851267574468  0.5475274392610849
  0.5832199880000033  0.6250048402425580  0.4524825727389122
  0.7499099919999992  0.8749851267574468  0.5475274392610849
  0.9165599560000004  0.6250048402425580  0.4524825727389122
  0.0832300040000007  0.3750004859573830  0.3727517627015757
  0.2498999940000033  0.1249995140426170  0.6272582502984180
  0.4165600030000007  0.3750004859573830  0.3727517627015757
  0.5832300100000012  0.1249995140426170  0.6272582502984180
  0.7498900419999970  0.3750004859573830  0.3727517627015757
  0.9165599560000004  0.1249995140426170  0.6272582502984180
  0.0832300040000007  0.8750005109573815  0.3727517627015757
  0.2498999940000033  0.6249994890426185  0.6272582502984180
  0.4165600030000007  0.8750005109573815  0.3727517627015757
  0.5832300100000012  0.6249994890426185  0.6272582502984180
  0.7498900419999970  0.8750005109573815  0.3727517627015757
  0.9165599560000004  0.6249994890426185  0.6272582502984180
 
  0.00000000E+00  0.00000000E+00  0.00000000E+00
  0.00000000E+00  0.00000000E+00  0.00000000E+00
  0.00000000E+00  0.00000000E+00  0.00000000E+00
  0.00000000E+00  0.00000000E+00  0.00000000E+00
  0.00000000E+00  0.00000000E+00  0.00000000E+00
  0.00000000E+00  0.00000000E+00  0.00000000E+00
  0.00000000E+00  0.00000000E+00  0.00000000E+00
  0.00000000E+00  0.00000000E+00  0.00000000E+00
  0.00000000E+00  0.00000000E+00  0.00000000E+00
  0.00000000E+00  0.00000000E+00  0.00000000E+00
  0.00000000E+00  0.00000000E+00  0.00000000E+00
  0.00000000E+00  0.00000000E+00  0.00000000E+00
  0.00000000E+00  0.00000000E+00  0.00000000E+00
  0.00000000E+00  0.00000000E+00  0.00000000E+00
  0.00000000E+00  0.00000000E+00  0.00000000E+00
  0.00000000E+00  0.00000000E+00  0.00000000E+00
  0.00000000E+00  0.00000000E+00  0.00000000E+00
  0.00000000E+00  0.00000000E+00  0.00000000E+00
  0.00000000E+00  0.00000000E+00  0.00000000E+00
  0.00000000E+00  0.00000000E+00  0.00000000E+00
  0.00000000E+00  0.00000000E+00  0.00000000E+00
  0.00000000E+00  0.00000000E+00  0.00000000E+00
  0.00000000E+00  0.00000000E+00  0.00000000E+00
  0.00000000E+00  0.00000000E+00  0.00000000E+00
  0.00000000E+00  0.00000000E+00  0.00000000E+00
  0.00000000E+00  0.00000000E+00  0.00000000E+00
  0.00000000E+00  0.00000000E+00  0.00000000E+00
  0.00000000E+00  0.00000000E+00  0.00000000E+00
  0.00000000E+00  0.00000000E+00  0.00000000E+00
  0.00000000E+00  0.00000000E+00  0.00000000E+00
  0.00000000E+00  0.00000000E+00  0.00000000E+00
  0.00000000E+00  0.00000000E+00  0.00000000E+00
  0.00000000E+00  0.00000000E+00  0.00000000E+00
  0.00000000E+00  0.00000000E+00  0.00000000E+00
  0.00000000E+00  0.00000000E+00  0.00000000E+00
  0.00000000E+00  0.00000000E+00  0.00000000E+00
