 Ag2 Cl2 O4                             
   1.00000000000000     
     4.0788741555386707    0.0000000000000000    0.0000000000000000
     0.0000000000000000    4.6619585112588586    0.0000000000000000
     0.0000000000000000    0.0000000000000000   20.6941560372841309
   Ag   Cl   O 
     2     2     4
Direct
  0.2500042437531818  0.1941387137490764  0.4771998142318310
  0.7500049047685735  0.7950364262023228  0.5227885083740844
  0.7499958968237621  0.2914964991280513  0.5697149899502989
  0.2499970279898491  0.6976771459543869  0.4302758149599271
  0.9012230198495246  0.2209748558842080  0.3325679992364243
  0.0987747185184773  0.7680834205162483  0.6674424032925756
  0.4012255647780805  0.7680834051267666  0.6674433993102156
  0.5987746235185583  0.2209752254083313  0.3325670706446289
 
  0.00000000E+00  0.00000000E+00  0.00000000E+00
  0.00000000E+00  0.00000000E+00  0.00000000E+00
  0.00000000E+00  0.00000000E+00  0.00000000E+00
  0.00000000E+00  0.00000000E+00  0.00000000E+00
  0.00000000E+00  0.00000000E+00  0.00000000E+00
  0.00000000E+00  0.00000000E+00  0.00000000E+00
  0.00000000E+00  0.00000000E+00  0.00000000E+00
  0.00000000E+00  0.00000000E+00  0.00000000E+00
