Repeated-UnitCell:     2    1    1      
   1.00000000000000     
     7.4842224121000003    0.0000000000000000    0.0000000000000000
     0.0000000000000000   21.7962265015000014    0.0000000000000000
     0.0000000000000000    0.0000000000000000   19.3752918242999996
   Ta   Te   Pd
     6    27     6
Direct
  0.2500000000000000  0.4749890701460331  0.5071772043305010
  0.7500000000000000  0.4757627628521609  0.5066786377665493
  0.2500000000000000  0.1250300896017776  0.5039383048668564
  0.7500000000000000  0.1238239435024025  0.5007527248448115
  0.2500000000000000  0.7742582637229178  0.5014326117033542
  0.7500000000000000  0.7774508731278462  0.4916927229159673
 -0.0003240163740217  0.4052101927267586  0.4285072926124056
  0.5003240163740216  0.4052101927267586  0.4285072926124056
  0.2500000000000000  0.2430332661326538  0.4345162672789459
  0.7500000000000000  0.2439900313296454  0.4330219617325160
  0.2500000000000000  0.8908193169856718  0.5765739971607803
  0.0005306689367957  0.8471296214793720  0.4239990412585845
  0.4994693310632042  0.8471296214793720  0.4239990412585845
  0.0009485832568278  0.5457189353443875  0.4291173601073974
  0.4990514167431722  0.5457189353443875  0.4291173601073974
 -0.0004183333772948  0.4846495465440966  0.6188637931495462
  0.5004183333772945  0.4846495465440966  0.6188637931495462
  0.2500000000000000  0.0131062220647619  0.4282884655501316
  0.7500000000000000  0.0043234908147445  0.4294809252092151
 -0.0020700201682950  0.0508410752912985  0.5777648364907007
  0.5020700201682954  0.0508410752912985  0.5777648364907007
  0.2500000000000000  0.5948799551083251  0.5724068394280846
  0.7500000000000000  0.5962344217810500  0.5711231934550641
 -0.0025531522824285  0.1948483633557434  0.5809208722367508
  0.5025531522824286  0.1948483633557434  0.5809208722367508
  0.2500000000000000  0.6929686212621335  0.3985765432690740
  0.7500000000000000  0.6903775540305309  0.3991831210811875
  0.0027099073469846  0.1248093998314340  0.3896230919871476
  0.4972900926530154  0.1248093998314340  0.3896230919871476
 -0.0099289398146966  0.7485342069957536  0.5978087531575587
  0.5099289398146971  0.7485342069957536  0.5978087531575587
  0.2500000000000000  0.3594690807910998  0.5852705191556953
  0.7500000000000000  0.3618419092567070  0.5864690793770267
  0.0030324753724011  0.9476827563843159  0.5017643950036297
  0.4969675246275989  0.9476827563843159  0.5017643950036297
 -0.0010884872471698  0.3017092078646209  0.5098024474521072
  0.5010884872471698  0.3017092078646209  0.5098024474521072
  0.0011924431053206  0.6594717814270067  0.4970033524812986
  0.4988075568946795  0.6594717814270067  0.4970033524812986
 
  0.00000000E+00  0.00000000E+00  0.00000000E+00
  0.00000000E+00  0.00000000E+00  0.00000000E+00
  0.00000000E+00  0.00000000E+00  0.00000000E+00
  0.00000000E+00  0.00000000E+00  0.00000000E+00
  0.00000000E+00  0.00000000E+00  0.00000000E+00
  0.00000000E+00  0.00000000E+00  0.00000000E+00
  0.00000000E+00  0.00000000E+00  0.00000000E+00
  0.00000000E+00  0.00000000E+00  0.00000000E+00
  0.00000000E+00  0.00000000E+00  0.00000000E+00
  0.00000000E+00  0.00000000E+00  0.00000000E+00
  0.00000000E+00  0.00000000E+00  0.00000000E+00
  0.00000000E+00  0.00000000E+00  0.00000000E+00
  0.00000000E+00  0.00000000E+00  0.00000000E+00
  0.00000000E+00  0.00000000E+00  0.00000000E+00
  0.00000000E+00  0.00000000E+00  0.00000000E+00
  0.00000000E+00  0.00000000E+00  0.00000000E+00
  0.00000000E+00  0.00000000E+00  0.00000000E+00
  0.00000000E+00  0.00000000E+00  0.00000000E+00
  0.00000000E+00  0.00000000E+00  0.00000000E+00
  0.00000000E+00  0.00000000E+00  0.00000000E+00
  0.00000000E+00  0.00000000E+00  0.00000000E+00
  0.00000000E+00  0.00000000E+00  0.00000000E+00
  0.00000000E+00  0.00000000E+00  0.00000000E+00
  0.00000000E+00  0.00000000E+00  0.00000000E+00
  0.00000000E+00  0.00000000E+00  0.00000000E+00
  0.00000000E+00  0.00000000E+00  0.00000000E+00
  0.00000000E+00  0.00000000E+00  0.00000000E+00
  0.00000000E+00  0.00000000E+00  0.00000000E+00
  0.00000000E+00  0.00000000E+00  0.00000000E+00
  0.00000000E+00  0.00000000E+00  0.00000000E+00
  0.00000000E+00  0.00000000E+00  0.00000000E+00
  0.00000000E+00  0.00000000E+00  0.00000000E+00
  0.00000000E+00  0.00000000E+00  0.00000000E+00
  0.00000000E+00  0.00000000E+00  0.00000000E+00
  0.00000000E+00  0.00000000E+00  0.00000000E+00
  0.00000000E+00  0.00000000E+00  0.00000000E+00
  0.00000000E+00  0.00000000E+00  0.00000000E+00
  0.00000000E+00  0.00000000E+00  0.00000000E+00
  0.00000000E+00  0.00000000E+00  0.00000000E+00
