CONTCAR\(10)                            
   1.00000000000000     
    14.1827001571999993    0.0000000000000000    0.0000000000000000
     0.0000000000000000   18.7943000793000010    0.0000000000000000
     0.0000000000000000    0.0000000000000000   21.0296001433999997
   Ta   Pt   Se   O 
    16     8    56     1
Direct
  0.1872320952868652  0.4218410853391455  0.5632569144267228
  0.0620182897350760  0.5782917636596975  0.4388404527054515
  0.0616963314053498  0.9057083583797501  0.4899232137048934
  0.1872982092268828  0.0972884600335068  0.5101732632669398
  0.4383142375075286  0.4217895654550676  0.5632579461238296
  0.3124927734800035  0.5758053071972428  0.4401082166834560
  0.3123868922376290  0.9057878631971519  0.4904336733692858
  0.4373522381190886  0.0972984287828661  0.5101770433258422
  0.6879703273613325  0.4221616900926667  0.5634655372440794
  0.5628965618533950  0.5782830883142236  0.4388793258546391
  0.5631159026480926  0.9056801524013688  0.4902218252231546
  0.6874871581716803  0.0972779221437454  0.5102361545526021
  0.9374120510330819  0.4221506289358271  0.5633803715942364
  0.8124058125637149  0.5785046974219592  0.4382070819139136
  0.8124551568949911  0.9049583982252920  0.4899191322497019
  0.9372912279777835  0.0972744455440968  0.5101129212398513
  0.0620548946654366  0.2259547766729968  0.5352595093701342
  0.1863358617582476  0.7766903378728904  0.4665450585571386
  0.3123416660998107  0.2256186706867861  0.5351163061784701
  0.4393228184271501  0.7768374309815367  0.4664653800763554
  0.5625602737575547  0.2258606709899541  0.5353700890626076
  0.6878958288810695  0.7751085099424806  0.4655316680022877
  0.8123064715009917  0.2259973986628468  0.5351250972100593
  0.9376113015324155  0.7750911758045266  0.4653228919473147
  0.0618009413252997  0.6978061742370344  0.5155460968157145
  0.1872332984756778  0.3033394364870823  0.4860933327995508
  0.0619828044300898  0.4346308039140134  0.4689734670798336
  0.1866145229003387  0.5638157798259773  0.5327690934748540
  0.1878120513009168  0.5262304672026253  0.3593574602572515
  0.0625264129753967  0.4740533281881582  0.6432748695730978
  0.1868711223224657  0.9846609544132657  0.4299191777794264
  0.0621400149631022  0.0181828010100198  0.5704155776371034
  0.0623563292961391  0.3360464688951024  0.6154406960147940
  0.1884172126108216  0.6648893004481684  0.3879735146998504
  0.1871605672196198  0.1733441036065162  0.6082339171430826
  0.0615483677869838  0.8292804292070505  0.3919907497600931
  0.0623665109785935  0.1466627764589515  0.4328978627771550
  0.1864218448827210  0.8568524847916169  0.5674433387045256
  0.3129297390345535  0.7019647881302327  0.5131954988031913
  0.4376630589489799  0.3032854972624498  0.4860972666788017
  0.3127846298793775  0.4333668324384785  0.4691376300405234
  0.4384452966592276  0.5637498403661604  0.5327444111408327
  0.4368406945390942  0.5263939941362383  0.3592185009163446
  0.3130414670676301  0.4737509265539139  0.6430849933381793
  0.4373090403238769  0.9846492841010789  0.4300217080813443
  0.3123991637287019  0.0183128020252811  0.5706878719420487
  0.3127445167529311  0.3365399253898027  0.6157414702902623
  0.4366272523788685  0.6648863841817508  0.3879700705678240
  0.4372272535587359  0.1732445829591139  0.6083088536356048
  0.3128707247253739  0.8288828709771853  0.3931894651242331
  0.3123700570260426  0.1460643323238229  0.4326266270007002
  0.4377006619053727  0.8567582648433528  0.5675143569148325
  0.5634009296378477  0.6978304358343975  0.5156504886264730
  0.6873579252395894  0.3037305665814988  0.4859855425165667
  0.5633216397362399  0.4345703335655950  0.4689975360543555
  0.6877565344912686  0.5654059833296472  0.5327896471310406
  0.6870416769404600  0.5259902786170665  0.3588279560059650
  0.5631841167780937  0.4740028523414667  0.6433606766916693
  0.6874308105746396  0.9846678092664413  0.4297264865630404
  0.5626553378832405  0.0182148057292728  0.5705367198088852
  0.5630632389813824  0.3359987786836756  0.6155361828589013
  0.6871461089345985  0.6645840051880719  0.3862330707216839
  0.6874689533486857  0.1729908585512828  0.6083917568056645
  0.5642019264065165  0.8293817756980020  0.3921783098008338
  0.5625366645334025  0.1466319593543363  0.4329874706383806
  0.6875059916389135  0.8557971024620241  0.5674374593328042
  0.8127562010772051  0.6975876362827570  0.5149557495096690
  0.9373584937771203  0.3037884920949296  0.4859084295699551
  0.8125482872114386  0.4352065631180130  0.4689878533128287
  0.9370888693403721  0.5654084812625160  0.5327042240847248
  0.9376139710630330  0.5259301075746682  0.3588270810556268
  0.8130206173105281  0.4744297395235896  0.6430853969544689
  0.9365991239341428  0.9845918186523172  0.4294317795241488
  0.8126010866403798  0.0178468529778116  0.5701718332543917
  0.8126366679857174  0.3358292139747330  0.6151935655281138
  0.9376535130574086  0.6645989819000995  0.3862395225188564
  0.9371325459217399  0.1730109736543163  0.6082792106296493
  0.8127166434971895  0.8281943389139081  0.3923147626383674
  0.8124311536652316  0.1468014620467427  0.4327668340403526
  0.9370355165116613  0.8557318855999222  0.5671942376206256
  0.3130959657598195  0.7032396481088448  0.5923429793279190
 
  0.00000000E+00  0.00000000E+00  0.00000000E+00
  0.00000000E+00  0.00000000E+00  0.00000000E+00
  0.00000000E+00  0.00000000E+00  0.00000000E+00
  0.00000000E+00  0.00000000E+00  0.00000000E+00
  0.00000000E+00  0.00000000E+00  0.00000000E+00
  0.00000000E+00  0.00000000E+00  0.00000000E+00
  0.00000000E+00  0.00000000E+00  0.00000000E+00
  0.00000000E+00  0.00000000E+00  0.00000000E+00
  0.00000000E+00  0.00000000E+00  0.00000000E+00
  0.00000000E+00  0.00000000E+00  0.00000000E+00
  0.00000000E+00  0.00000000E+00  0.00000000E+00
  0.00000000E+00  0.00000000E+00  0.00000000E+00
  0.00000000E+00  0.00000000E+00  0.00000000E+00
  0.00000000E+00  0.00000000E+00  0.00000000E+00
  0.00000000E+00  0.00000000E+00  0.00000000E+00
  0.00000000E+00  0.00000000E+00  0.00000000E+00
  0.00000000E+00  0.00000000E+00  0.00000000E+00
  0.00000000E+00  0.00000000E+00  0.00000000E+00
  0.00000000E+00  0.00000000E+00  0.00000000E+00
  0.00000000E+00  0.00000000E+00  0.00000000E+00
  0.00000000E+00  0.00000000E+00  0.00000000E+00
  0.00000000E+00  0.00000000E+00  0.00000000E+00
  0.00000000E+00  0.00000000E+00  0.00000000E+00
  0.00000000E+00  0.00000000E+00  0.00000000E+00
  0.00000000E+00  0.00000000E+00  0.00000000E+00
  0.00000000E+00  0.00000000E+00  0.00000000E+00
  0.00000000E+00  0.00000000E+00  0.00000000E+00
  0.00000000E+00  0.00000000E+00  0.00000000E+00
  0.00000000E+00  0.00000000E+00  0.00000000E+00
  0.00000000E+00  0.00000000E+00  0.00000000E+00
  0.00000000E+00  0.00000000E+00  0.00000000E+00
  0.00000000E+00  0.00000000E+00  0.00000000E+00
  0.00000000E+00  0.00000000E+00  0.00000000E+00
  0.00000000E+00  0.00000000E+00  0.00000000E+00
  0.00000000E+00  0.00000000E+00  0.00000000E+00
  0.00000000E+00  0.00000000E+00  0.00000000E+00
  0.00000000E+00  0.00000000E+00  0.00000000E+00
  0.00000000E+00  0.00000000E+00  0.00000000E+00
  0.00000000E+00  0.00000000E+00  0.00000000E+00
  0.00000000E+00  0.00000000E+00  0.00000000E+00
  0.00000000E+00  0.00000000E+00  0.00000000E+00
  0.00000000E+00  0.00000000E+00  0.00000000E+00
  0.00000000E+00  0.00000000E+00  0.00000000E+00
  0.00000000E+00  0.00000000E+00  0.00000000E+00
  0.00000000E+00  0.00000000E+00  0.00000000E+00
  0.00000000E+00  0.00000000E+00  0.00000000E+00
  0.00000000E+00  0.00000000E+00  0.00000000E+00
  0.00000000E+00  0.00000000E+00  0.00000000E+00
  0.00000000E+00  0.00000000E+00  0.00000000E+00
  0.00000000E+00  0.00000000E+00  0.00000000E+00
  0.00000000E+00  0.00000000E+00  0.00000000E+00
  0.00000000E+00  0.00000000E+00  0.00000000E+00
  0.00000000E+00  0.00000000E+00  0.00000000E+00
  0.00000000E+00  0.00000000E+00  0.00000000E+00
  0.00000000E+00  0.00000000E+00  0.00000000E+00
  0.00000000E+00  0.00000000E+00  0.00000000E+00
  0.00000000E+00  0.00000000E+00  0.00000000E+00
  0.00000000E+00  0.00000000E+00  0.00000000E+00
  0.00000000E+00  0.00000000E+00  0.00000000E+00
  0.00000000E+00  0.00000000E+00  0.00000000E+00
  0.00000000E+00  0.00000000E+00  0.00000000E+00
  0.00000000E+00  0.00000000E+00  0.00000000E+00
  0.00000000E+00  0.00000000E+00  0.00000000E+00
  0.00000000E+00  0.00000000E+00  0.00000000E+00
  0.00000000E+00  0.00000000E+00  0.00000000E+00
  0.00000000E+00  0.00000000E+00  0.00000000E+00
  0.00000000E+00  0.00000000E+00  0.00000000E+00
  0.00000000E+00  0.00000000E+00  0.00000000E+00
  0.00000000E+00  0.00000000E+00  0.00000000E+00
  0.00000000E+00  0.00000000E+00  0.00000000E+00
  0.00000000E+00  0.00000000E+00  0.00000000E+00
  0.00000000E+00  0.00000000E+00  0.00000000E+00
  0.00000000E+00  0.00000000E+00  0.00000000E+00
  0.00000000E+00  0.00000000E+00  0.00000000E+00
  0.00000000E+00  0.00000000E+00  0.00000000E+00
  0.00000000E+00  0.00000000E+00  0.00000000E+00
  0.00000000E+00  0.00000000E+00  0.00000000E+00
  0.00000000E+00  0.00000000E+00  0.00000000E+00
  0.00000000E+00  0.00000000E+00  0.00000000E+00
  0.00000000E+00  0.00000000E+00  0.00000000E+00
  0.00000000E+00  0.00000000E+00  0.00000000E+00
