CONTCAR\(12)                            
   1.00000000000000     
    13.8203001021999992    0.0000000000000000    0.0000000000000000
     1.7075399424000000   15.0073707208999991    0.0000000000000000
     0.0000000000000000    0.0000000000000000   18.4675998688000007
   Nb   Ir   Se   O    H 
    18     2    40     1     1
Direct
  0.0806296168907252  0.1763704837881335  0.5045373302112282
  0.0105751333146102  0.9792028479934558  0.4992714492725412
  0.3860838696709408  0.8004747866019528  0.5018182548950989
  0.2899700524105242  0.6231522949033987  0.5031806322148356
  0.2463530806229173  0.9809784228789127  0.5013464427075078
  0.1909494902934199  0.4344814516893862  0.5018330010916259
  0.1527972640493545  0.8033758977256369  0.5017382703234929
  0.0528812603552424  0.6204115807572492  0.5031515140016793
  0.4462653135326917  0.3815385647783316  0.5011709525983079
  0.5855740586446032  0.1817031926002670  0.5063653299933222
  0.4983625649203063  0.9753614175327243  0.4975103109522365
  0.9151772274889112  0.8009597614274355  0.5020442866260240
  0.7977816957974326  0.6238729348268848  0.5056607788755585
  0.7508315151921607  0.9800614855937653  0.4993936983124243
  0.6908544935959711  0.4239981812690843  0.5109163562882628
  0.6426524593319556  0.8033077303046170  0.5023490578610108
  0.5403004534079301  0.6230962766253683  0.5050783710938518
  0.9460226207907283  0.3815245214247582  0.5026569334065343
  0.3682691261187827  0.2073510194904458  0.5015577642652502
  0.8675236722654773  0.2086296314426050  0.5011379730259833
  0.4694597605886770  0.2645173927078943  0.6008301854413318
  0.0866417208404684  0.3304488237440992  0.4214828776682324
  0.3665074400876094  0.0687558658106013  0.5781028711035532
  0.4829604211767844  0.1266389330342079  0.4101856490529201
  0.2652284016957083  0.8659954004735226  0.6014487600632776
  0.2166787464909206  0.2707495781430254  0.5609936898374599
  0.3773860661088904  0.9304581944648476  0.4039874883018868
  0.3278136200010593  0.3361684090984767  0.4125743113534313
  0.1642379882611920  0.6750468352648866  0.6010777268806677
  0.1150288760817233  0.0570494694072678  0.5968677045112756
  0.2400739888871826  0.1361782145828698  0.4267545562986967
  0.2803153701902232  0.7382862844164251  0.4026917713434912
  0.0607642480248458  0.4752559794836841  0.5915130928830408
  0.0189370680002057  0.8651257141549209  0.6002001522601645
  0.1799426567299776  0.5487000451972079  0.4051754551034605
  0.1350601821848301  0.9308000890552464  0.4008521615503540
  0.4101697060280074  0.6723514207593198  0.5998638676466115
  0.0345837524335266  0.7383041367732091  0.4041358062482061
  0.3156675541600009  0.4744347428432718  0.5902439115300098
  0.4301181664577172  0.5343602795545621  0.4254750061880230
  0.9704490675549664  0.2627269399881911  0.6006801704500973
  0.5845372820559902  0.3345344628420364  0.4194426237863809
  0.8662348644800630  0.0687355545416182  0.5767751721530985
  0.9791906548704361  0.1249435538026873  0.4079672186939405
  0.7689350916276467  0.8625975366272129  0.5943007002033625
  0.7212041516656740  0.2650570163432278  0.5762026251224555
  0.8844584540185920  0.9310957674875482  0.4062351687543853
  0.8269352285597620  0.3368999659158902  0.4141645509676835
  0.6631726347767568  0.6716147408086073  0.5987340002127866
  0.6122415470177316  0.0548486800862094  0.5917383852047777
  0.7400118986587430  0.1387305365449762  0.4267710726209515
  0.7834105448424467  0.7409293632730751  0.4108624722384420
  0.5567378283044206  0.4735283683135023  0.5939766956742929
  0.5113549335647889  0.8622208345194622  0.5968091419598096
  0.6793173673971253  0.5431245737050432  0.4163404960784831
  0.6325252809021578  0.9334892069278240  0.4033935792629180
  0.9183371945607917  0.6722995856994487  0.5988843515358226
  0.5275796421708492  0.7389693413845677  0.4079498337602843
  0.8189959919194152  0.4729471419038092  0.5924345689487467
  0.9305162041245580  0.5342327136588381  0.4260140405184103
  0.2233354524527300  0.2654249114965737  0.6605875715318348
  0.2565378813501127  0.3167011775056920  0.6752600140381517
 
  0.00000000E+00  0.00000000E+00  0.00000000E+00
  0.00000000E+00  0.00000000E+00  0.00000000E+00
  0.00000000E+00  0.00000000E+00  0.00000000E+00
  0.00000000E+00  0.00000000E+00  0.00000000E+00
  0.00000000E+00  0.00000000E+00  0.00000000E+00
  0.00000000E+00  0.00000000E+00  0.00000000E+00
  0.00000000E+00  0.00000000E+00  0.00000000E+00
  0.00000000E+00  0.00000000E+00  0.00000000E+00
  0.00000000E+00  0.00000000E+00  0.00000000E+00
  0.00000000E+00  0.00000000E+00  0.00000000E+00
  0.00000000E+00  0.00000000E+00  0.00000000E+00
  0.00000000E+00  0.00000000E+00  0.00000000E+00
  0.00000000E+00  0.00000000E+00  0.00000000E+00
  0.00000000E+00  0.00000000E+00  0.00000000E+00
  0.00000000E+00  0.00000000E+00  0.00000000E+00
  0.00000000E+00  0.00000000E+00  0.00000000E+00
  0.00000000E+00  0.00000000E+00  0.00000000E+00
  0.00000000E+00  0.00000000E+00  0.00000000E+00
  0.00000000E+00  0.00000000E+00  0.00000000E+00
  0.00000000E+00  0.00000000E+00  0.00000000E+00
  0.00000000E+00  0.00000000E+00  0.00000000E+00
  0.00000000E+00  0.00000000E+00  0.00000000E+00
  0.00000000E+00  0.00000000E+00  0.00000000E+00
  0.00000000E+00  0.00000000E+00  0.00000000E+00
  0.00000000E+00  0.00000000E+00  0.00000000E+00
  0.00000000E+00  0.00000000E+00  0.00000000E+00
  0.00000000E+00  0.00000000E+00  0.00000000E+00
  0.00000000E+00  0.00000000E+00  0.00000000E+00
  0.00000000E+00  0.00000000E+00  0.00000000E+00
  0.00000000E+00  0.00000000E+00  0.00000000E+00
  0.00000000E+00  0.00000000E+00  0.00000000E+00
  0.00000000E+00  0.00000000E+00  0.00000000E+00
  0.00000000E+00  0.00000000E+00  0.00000000E+00
  0.00000000E+00  0.00000000E+00  0.00000000E+00
  0.00000000E+00  0.00000000E+00  0.00000000E+00
  0.00000000E+00  0.00000000E+00  0.00000000E+00
  0.00000000E+00  0.00000000E+00  0.00000000E+00
  0.00000000E+00  0.00000000E+00  0.00000000E+00
  0.00000000E+00  0.00000000E+00  0.00000000E+00
  0.00000000E+00  0.00000000E+00  0.00000000E+00
  0.00000000E+00  0.00000000E+00  0.00000000E+00
  0.00000000E+00  0.00000000E+00  0.00000000E+00
  0.00000000E+00  0.00000000E+00  0.00000000E+00
  0.00000000E+00  0.00000000E+00  0.00000000E+00
  0.00000000E+00  0.00000000E+00  0.00000000E+00
  0.00000000E+00  0.00000000E+00  0.00000000E+00
  0.00000000E+00  0.00000000E+00  0.00000000E+00
  0.00000000E+00  0.00000000E+00  0.00000000E+00
  0.00000000E+00  0.00000000E+00  0.00000000E+00
  0.00000000E+00  0.00000000E+00  0.00000000E+00
  0.00000000E+00  0.00000000E+00  0.00000000E+00
  0.00000000E+00  0.00000000E+00  0.00000000E+00
  0.00000000E+00  0.00000000E+00  0.00000000E+00
  0.00000000E+00  0.00000000E+00  0.00000000E+00
  0.00000000E+00  0.00000000E+00  0.00000000E+00
  0.00000000E+00  0.00000000E+00  0.00000000E+00
  0.00000000E+00  0.00000000E+00  0.00000000E+00
  0.00000000E+00  0.00000000E+00  0.00000000E+00
  0.00000000E+00  0.00000000E+00  0.00000000E+00
  0.00000000E+00  0.00000000E+00  0.00000000E+00
  0.00000000E+00  0.00000000E+00  0.00000000E+00
  0.00000000E+00  0.00000000E+00  0.00000000E+00
