CONTCAR\(7)                             
   1.00000000000000     
    12.6855001450000007    0.0000000000000000    0.0000000000000000
     6.3427500725000003   10.9859653852000001    0.0000000000000000
     0.0000000000000000    0.0000000000000000   18.4181995391999997
   Mn   P    Se   O 
     8     8    24     1
Selective dynamics
Direct
  0.1649510100844509  0.1672854820640097  0.4969144887235046   F   F   F
  0.3346179569680103  0.3386093628602467  0.4960109859721840   F   F   F
  0.6682691703480259  0.1755799130066293  0.4985675697400325   F   F   F
  0.8270857500665656  0.3331225466041943  0.5002917807516525   F   F   F
  0.1735892155356211  0.6610308439453050  0.4958409261998256   F   F   F
  0.3379105154795923  0.8269602799594580  0.4983945644964436   F   F   F
  0.6639999682497404  0.6623428062663450  0.4969608579351075   F   F   F
  0.8328039696060188  0.8336664985203015  0.4974881450828050   F   F   F
  0.9975118367961358  0.0038072872814467  0.4381478853001326   F   F   F
  0.9999270156806475  0.0013125012844881  0.5588698202148734   F   F   F
  0.4995473711699319  0.9999485033018516  0.4369896465197556   F   F   F
  0.4997063666337525  0.0016768029242158  0.5583698779624342   F   F   F
  0.9977798746244844  0.4980302376533885  0.4375478372649368   F   F   F
  0.9974313557876258  0.4986264463326933  0.5583419341881140   F   F   F
  0.4979419158641676  0.5010933724898123  0.4669892022757978   F   F   F
  0.5061593134189124  0.4964614549393787  0.6273928229958443   F   F   F
  0.1646877222461072  0.5008678318450919  0.5910531402000316   F   F   F
  0.5031358878438610  0.3212509201188354  0.5852269345789125   F   F   F
  0.3294323547481639  0.1719163621664705  0.5873239676515354   F   F   F
  0.3306824174714720  0.9979868823407827  0.4068545864725905   F   F   F
  0.9882181081563459  0.1821108881521951  0.4117581057641146   F   F   F
  0.1700688982895002  0.3312119017463857  0.4067276557756614   F   F   F
  0.6876237283162538  0.4907715685335674  0.5819500222113376   F   F   F
  0.9947337166666941  0.3264017284700884  0.5852239349444162   F   F   F
  0.8273858196381738  0.1825641749666431  0.5856182974182289   F   F   F
  0.8244150822658440  0.0079136324098172  0.4090265111010538   F   F   F
  0.5017403494559147  0.1683303826531528  0.4054271668413918   F   F   F
  0.6730158426757455  0.3359975524044927  0.4167267717325913   F   F   F
  0.1716323299886540  0.9990021183320366  0.5876834342098931   F   F   F
  0.5000890099021760  0.8324368498150250  0.5907060943464515   F   F   F
  0.3279421986328828  0.6722715428213561  0.5883220014878248   F   F   F
  0.3403678396190131  0.4982042634080628  0.4073312651637764   F   F   F
  0.9961404129154161  0.6672277202349335  0.4050329546775373   F   F   F
  0.1649155146983290  0.8354080584695183  0.4043127548810830   F   F   F
  0.6699772161212536  0.0023251481624271  0.5872492520448134   F   F   F
  0.9982397524231743  0.8330984245579600  0.5891476308117234   F   F   F
  0.8248313421569762  0.6693703999752856  0.5863941115321722   F   F   F
  0.8271265248028143  0.4884726419197492  0.4111518676496289   F   F   F
  0.5028735195926899  0.6629874100969673  0.4123817926573849   F   F   F
  0.6678049605450056  0.8283205001009293  0.4071220075260626   F   F   F
  0.5119464075138538  0.4948075648644804  0.7072750118441996   T   T   T
 
  0.00000000E+00  0.00000000E+00  0.00000000E+00
  0.00000000E+00  0.00000000E+00  0.00000000E+00
  0.00000000E+00  0.00000000E+00  0.00000000E+00
  0.00000000E+00  0.00000000E+00  0.00000000E+00
  0.00000000E+00  0.00000000E+00  0.00000000E+00
  0.00000000E+00  0.00000000E+00  0.00000000E+00
  0.00000000E+00  0.00000000E+00  0.00000000E+00
  0.00000000E+00  0.00000000E+00  0.00000000E+00
  0.00000000E+00  0.00000000E+00  0.00000000E+00
  0.00000000E+00  0.00000000E+00  0.00000000E+00
  0.00000000E+00  0.00000000E+00  0.00000000E+00
  0.00000000E+00  0.00000000E+00  0.00000000E+00
  0.00000000E+00  0.00000000E+00  0.00000000E+00
  0.00000000E+00  0.00000000E+00  0.00000000E+00
  0.00000000E+00  0.00000000E+00  0.00000000E+00
  0.00000000E+00  0.00000000E+00  0.00000000E+00
  0.00000000E+00  0.00000000E+00  0.00000000E+00
  0.00000000E+00  0.00000000E+00  0.00000000E+00
  0.00000000E+00  0.00000000E+00  0.00000000E+00
  0.00000000E+00  0.00000000E+00  0.00000000E+00
  0.00000000E+00  0.00000000E+00  0.00000000E+00
  0.00000000E+00  0.00000000E+00  0.00000000E+00
  0.00000000E+00  0.00000000E+00  0.00000000E+00
  0.00000000E+00  0.00000000E+00  0.00000000E+00
  0.00000000E+00  0.00000000E+00  0.00000000E+00
  0.00000000E+00  0.00000000E+00  0.00000000E+00
  0.00000000E+00  0.00000000E+00  0.00000000E+00
  0.00000000E+00  0.00000000E+00  0.00000000E+00
  0.00000000E+00  0.00000000E+00  0.00000000E+00
  0.00000000E+00  0.00000000E+00  0.00000000E+00
  0.00000000E+00  0.00000000E+00  0.00000000E+00
  0.00000000E+00  0.00000000E+00  0.00000000E+00
  0.00000000E+00  0.00000000E+00  0.00000000E+00
  0.00000000E+00  0.00000000E+00  0.00000000E+00
  0.00000000E+00  0.00000000E+00  0.00000000E+00
  0.00000000E+00  0.00000000E+00  0.00000000E+00
  0.00000000E+00  0.00000000E+00  0.00000000E+00
  0.00000000E+00  0.00000000E+00  0.00000000E+00
  0.00000000E+00  0.00000000E+00  0.00000000E+00
  0.00000000E+00  0.00000000E+00  0.00000000E+00
  0.00000000E+00  0.00000000E+00  0.00000000E+00
