CONTCAR\(4)                             
   1.00000000000000     
    13.7187995910999998    0.0000000000000000    0.0000000000000000
    -4.5729412920000003   17.9978325079000001    0.0000000000000000
     0.0000000000000000    0.0000000000000000   21.4340000153000005
   Ag   Te   Mo   O    H 
     6    36    36     2     1
Direct
  0.0033752254256001  0.9981682792433659  0.5031045126738221
  0.3308286020206808  0.9983414892701319  0.5027128036358022
  0.6664017537501152  0.9982161308488102  0.4995858915140019
  0.0013821947797439  0.4982793767359226  0.4960923536427373
  0.3362138534053614  0.4984424453671608  0.4938077288359537
  0.6664231503004174  0.4985192269178427  0.4942614438272557
  0.2584291891903518  0.2735835759628671  0.6475863372056878
  0.1389602822958196  0.4139728410570953  0.5614905441231812
  0.1946102742060916  0.0830279738820892  0.4350162211403799
  0.0361736543419013  0.1074351537982494  0.5969718937346826
  0.2963963836129508  0.3890033725759707  0.3998664526137432
  0.0747850348731376  0.2235286874242561  0.3493152263519193
  0.5917790485652006  0.2733991400849334  0.6477230965500738
  0.4721749740831882  0.4137982631792241  0.5616141492676263
  0.5275567153956260  0.0825750748838487  0.4356631393038555
  0.3699021955990460  0.1073458839099359  0.5970142896748811
  0.6302518756798463  0.3889253088914444  0.3999976927665330
  0.4083594930173007  0.2233423440643207  0.3493509938277981
  0.9250692119028869  0.2731286912213164  0.6477992695654464
  0.8053078407661118  0.4138130528824533  0.5616244286156018
  0.8616584230364737  0.0826798902711801  0.4359570577102048
  0.7024432626769013  0.1069971696494036  0.5963140388380452
  0.9634720967088839  0.3895090682870119  0.4004396993111499
  0.7417546562373616  0.2232729274689973  0.3492797912226635
  0.2600154363264977  0.7680809300730687  0.6489064636127821
  0.1388609455385961  0.9117884893885559  0.5674939821808778
  0.1959179821838788  0.5852057402026389  0.4323291565499758
  0.0367099906201815  0.6050291447623408  0.5941880128143495
  0.2987615594235038  0.8928750420804548  0.4047589877094424
  0.0779576711851888  0.7295160725185994  0.3497548734831639
  0.5895264916142651  0.7626832637843819  0.6518242093493640
  0.4757271795256699  0.9108805642661864  0.5655451760866654
  0.5296690053650579  0.5843903185851360  0.4305812066750576
  0.3693588030506945  0.6037406280130710  0.5921343393884584
  0.6321958033253665  0.8913138839773964  0.4008662565109873
  0.4095540454164848  0.7283728032820491  0.3483415661293776
  0.9220609303950269  0.7681770383307551  0.6490217689922915
  0.8014174270542895  0.9110769788955650  0.5651518421968902
  0.8637575991875721  0.5850076552174812  0.4326849403841990
  0.7025189615928795  0.6040569774598694  0.5931147179317549
  0.9659368541578104  0.8927827524581033  0.4050070674781310
  0.7457987937136821  0.7277676228017498  0.3486128794895791
  0.1057757281930947  0.3160550282941230  0.4548055231764465
  0.2274291614799040  0.1807641899907466  0.5422229987782714
  0.0567794386383795  0.1690812398031625  0.4724691462449115
  0.2765428879535179  0.3277727449407593  0.5245313060554295
  0.0871496145759707  0.2600008842407888  0.5694361834394854
  0.2460506286930269  0.2368101467837818  0.4275689172895625
  0.4391694053798503  0.3159319981136832  0.4547254819499571
  0.5607275213351670  0.1806791693126897  0.5422355019716463
  0.3900981774014696  0.1689766092126845  0.4724139206880977
  0.6098434981658443  0.3276288387270867  0.5245804120329467
  0.4204841992602866  0.2598407410093841  0.5694001428198305
  0.5794645979134785  0.2366658281973386  0.4275723705406094
  0.7725457455702553  0.3159043851925247  0.4548701511168574
  0.8939770628372159  0.1806232797677580  0.5423416322203352
  0.7234271034599189  0.1689296093854580  0.4723981017124075
  0.9430418027796108  0.3276636180839674  0.5247762278428922
  0.7538082567635200  0.2597742166399968  0.5695095197198938
  0.9127426896632969  0.2367622380235446  0.4277191555292674
  0.1074574401760628  0.8178397215455320  0.4578961785738400
  0.2286999161395258  0.6797300726838102  0.5413156124562022
  0.0583469884430343  0.6705911499099670  0.4715984979129928
  0.2785565218610131  0.8272248081949201  0.5275072995522763
  0.0876009231253221  0.7581283794106284  0.5710182778940336
  0.2477705272083170  0.7394467131462079  0.4279593046838883
  0.4397354452336799  0.8170118174853513  0.4556635694832138
  0.5608891436532701  0.6787392838946218  0.5392740214831591
  0.3912957845990448  0.6701292440327578  0.4699870743244290
  0.6104440434808325  0.8267560331345862  0.5221842168895989
  0.4230876467426157  0.7565431815671388  0.5704592699841200
  0.5810133709500107  0.7384897275125581  0.4258322907332328
  0.7746180563586691  0.8168138945028360  0.4557286888297938
  0.8941326740518605  0.6796923257189036  0.5415559831321346
  0.7250096282847736  0.6700104742818525  0.4703885153131893
  0.9427372965876089  0.8271904741070344  0.5276312807264745
  0.7511150268535189  0.7569304802015111  0.5706776751588336
  0.9148468937332694  0.7393170650733509  0.4281790420199414
  0.4687535340531142  0.6418179189659696  0.7353723905747813
  0.5661567626862549  0.6603438629014065  0.7055614233753715
  0.4832807021667094  0.6669293840344110  0.7758661138532403
 
  0.00000000E+00  0.00000000E+00  0.00000000E+00
  0.00000000E+00  0.00000000E+00  0.00000000E+00
  0.00000000E+00  0.00000000E+00  0.00000000E+00
  0.00000000E+00  0.00000000E+00  0.00000000E+00
  0.00000000E+00  0.00000000E+00  0.00000000E+00
  0.00000000E+00  0.00000000E+00  0.00000000E+00
  0.00000000E+00  0.00000000E+00  0.00000000E+00
  0.00000000E+00  0.00000000E+00  0.00000000E+00
  0.00000000E+00  0.00000000E+00  0.00000000E+00
  0.00000000E+00  0.00000000E+00  0.00000000E+00
  0.00000000E+00  0.00000000E+00  0.00000000E+00
  0.00000000E+00  0.00000000E+00  0.00000000E+00
  0.00000000E+00  0.00000000E+00  0.00000000E+00
  0.00000000E+00  0.00000000E+00  0.00000000E+00
  0.00000000E+00  0.00000000E+00  0.00000000E+00
  0.00000000E+00  0.00000000E+00  0.00000000E+00
  0.00000000E+00  0.00000000E+00  0.00000000E+00
  0.00000000E+00  0.00000000E+00  0.00000000E+00
  0.00000000E+00  0.00000000E+00  0.00000000E+00
  0.00000000E+00  0.00000000E+00  0.00000000E+00
  0.00000000E+00  0.00000000E+00  0.00000000E+00
  0.00000000E+00  0.00000000E+00  0.00000000E+00
  0.00000000E+00  0.00000000E+00  0.00000000E+00
  0.00000000E+00  0.00000000E+00  0.00000000E+00
  0.00000000E+00  0.00000000E+00  0.00000000E+00
  0.00000000E+00  0.00000000E+00  0.00000000E+00
  0.00000000E+00  0.00000000E+00  0.00000000E+00
  0.00000000E+00  0.00000000E+00  0.00000000E+00
  0.00000000E+00  0.00000000E+00  0.00000000E+00
  0.00000000E+00  0.00000000E+00  0.00000000E+00
  0.00000000E+00  0.00000000E+00  0.00000000E+00
  0.00000000E+00  0.00000000E+00  0.00000000E+00
  0.00000000E+00  0.00000000E+00  0.00000000E+00
  0.00000000E+00  0.00000000E+00  0.00000000E+00
  0.00000000E+00  0.00000000E+00  0.00000000E+00
  0.00000000E+00  0.00000000E+00  0.00000000E+00
  0.00000000E+00  0.00000000E+00  0.00000000E+00
  0.00000000E+00  0.00000000E+00  0.00000000E+00
  0.00000000E+00  0.00000000E+00  0.00000000E+00
  0.00000000E+00  0.00000000E+00  0.00000000E+00
  0.00000000E+00  0.00000000E+00  0.00000000E+00
  0.00000000E+00  0.00000000E+00  0.00000000E+00
  0.00000000E+00  0.00000000E+00  0.00000000E+00
  0.00000000E+00  0.00000000E+00  0.00000000E+00
  0.00000000E+00  0.00000000E+00  0.00000000E+00
  0.00000000E+00  0.00000000E+00  0.00000000E+00
  0.00000000E+00  0.00000000E+00  0.00000000E+00
  0.00000000E+00  0.00000000E+00  0.00000000E+00
  0.00000000E+00  0.00000000E+00  0.00000000E+00
  0.00000000E+00  0.00000000E+00  0.00000000E+00
  0.00000000E+00  0.00000000E+00  0.00000000E+00
  0.00000000E+00  0.00000000E+00  0.00000000E+00
  0.00000000E+00  0.00000000E+00  0.00000000E+00
  0.00000000E+00  0.00000000E+00  0.00000000E+00
  0.00000000E+00  0.00000000E+00  0.00000000E+00
  0.00000000E+00  0.00000000E+00  0.00000000E+00
  0.00000000E+00  0.00000000E+00  0.00000000E+00
  0.00000000E+00  0.00000000E+00  0.00000000E+00
  0.00000000E+00  0.00000000E+00  0.00000000E+00
  0.00000000E+00  0.00000000E+00  0.00000000E+00
  0.00000000E+00  0.00000000E+00  0.00000000E+00
  0.00000000E+00  0.00000000E+00  0.00000000E+00
  0.00000000E+00  0.00000000E+00  0.00000000E+00
  0.00000000E+00  0.00000000E+00  0.00000000E+00
  0.00000000E+00  0.00000000E+00  0.00000000E+00
  0.00000000E+00  0.00000000E+00  0.00000000E+00
  0.00000000E+00  0.00000000E+00  0.00000000E+00
  0.00000000E+00  0.00000000E+00  0.00000000E+00
  0.00000000E+00  0.00000000E+00  0.00000000E+00
  0.00000000E+00  0.00000000E+00  0.00000000E+00
  0.00000000E+00  0.00000000E+00  0.00000000E+00
  0.00000000E+00  0.00000000E+00  0.00000000E+00
  0.00000000E+00  0.00000000E+00  0.00000000E+00
  0.00000000E+00  0.00000000E+00  0.00000000E+00
  0.00000000E+00  0.00000000E+00  0.00000000E+00
  0.00000000E+00  0.00000000E+00  0.00000000E+00
  0.00000000E+00  0.00000000E+00  0.00000000E+00
  0.00000000E+00  0.00000000E+00  0.00000000E+00
  0.00000000E+00  0.00000000E+00  0.00000000E+00
  0.00000000E+00  0.00000000E+00  0.00000000E+00
  0.00000000E+00  0.00000000E+00  0.00000000E+00
