 Sr2 Cu1 Br2 O2                         
   1.00000000000000     
     3.9345611467806090    0.0000000000000000    0.0000000000000000
     0.0000000000000000    3.9345616532786529    0.0000000000000000
     0.0000000000000000    0.0000000000000000   21.3113259082499980
   Sr   Cu   Br   O 
     2     1     2     2
Direct
  0.9999999950475029  0.0000003452471091  0.4200210121462504
  0.0000000634748716  0.9999998367855980  0.5799789805968487
  0.4999999118124876  0.4999998172460138  0.5000000138004950
  0.5000001178152260  0.4999999213132966  0.6503032824157131
  0.5000000016184600  0.5000004917601615  0.3496967148980588
  0.9999999147787832  0.4999997900996007  0.5000000371319402
  0.4999999954526686  0.9999997975482131  0.4999999590106867
 
  0.00000000E+00  0.00000000E+00  0.00000000E+00
  0.00000000E+00  0.00000000E+00  0.00000000E+00
  0.00000000E+00  0.00000000E+00  0.00000000E+00
  0.00000000E+00  0.00000000E+00  0.00000000E+00
  0.00000000E+00  0.00000000E+00  0.00000000E+00
  0.00000000E+00  0.00000000E+00  0.00000000E+00
  0.00000000E+00  0.00000000E+00  0.00000000E+00
