G   51   51    1    0.005     # Parameters to Generate KPOINTS (Don't Edit This Line)
     351
Reciprocal lattice
    0.000000000000    0.000000000000    0.000000000000       1
    0.019607843137    0.000000000000    0.000000000000       4
    0.039215686275    0.000000000000    0.000000000000       4
    0.058823529412    0.000000000000    0.000000000000       4
    0.078431372549    0.000000000000    0.000000000000       4
    0.098039215686    0.000000000000    0.000000000000       4
    0.117647058824    0.000000000000    0.000000000000       4
    0.137254901961    0.000000000000    0.000000000000       4
    0.156862745098    0.000000000000    0.000000000000       4
    0.176470588235    0.000000000000    0.000000000000       4
    0.196078431373    0.000000000000    0.000000000000       4
    0.215686274510    0.000000000000    0.000000000000       4
    0.235294117647    0.000000000000    0.000000000000       4
    0.254901960784    0.000000000000    0.000000000000       4
    0.274509803922    0.000000000000    0.000000000000       4
    0.294117647059    0.000000000000    0.000000000000       4
    0.313725490196    0.000000000000    0.000000000000       4
    0.333333333333    0.000000000000    0.000000000000       4
    0.352941176471    0.000000000000    0.000000000000       4
    0.372549019608    0.000000000000    0.000000000000       4
    0.392156862745    0.000000000000    0.000000000000       4
    0.411764705882    0.000000000000    0.000000000000       4
    0.431372549020    0.000000000000    0.000000000000       4
    0.450980392157    0.000000000000    0.000000000000       4
    0.470588235294    0.000000000000    0.000000000000       4
    0.490196078431    0.000000000000    0.000000000000       4
    0.019607843137    0.019607843137    0.000000000000       4
    0.039215686275    0.019607843137    0.000000000000       8
    0.058823529412    0.019607843137    0.000000000000       8
    0.078431372549    0.019607843137    0.000000000000       8
    0.098039215686    0.019607843137    0.000000000000       8
    0.117647058824    0.019607843137    0.000000000000       8
    0.137254901961    0.019607843137    0.000000000000       8
    0.156862745098    0.019607843137    0.000000000000       8
    0.176470588235    0.019607843137    0.000000000000       8
    0.196078431373    0.019607843137    0.000000000000       8
    0.215686274510    0.019607843137    0.000000000000       8
    0.235294117647    0.019607843137    0.000000000000       8
    0.254901960784    0.019607843137    0.000000000000       8
    0.274509803922    0.019607843137    0.000000000000       8
    0.294117647059    0.019607843137    0.000000000000       8
    0.313725490196    0.019607843137    0.000000000000       8
    0.333333333333    0.019607843137    0.000000000000       8
    0.352941176471    0.019607843137    0.000000000000       8
    0.372549019608    0.019607843137    0.000000000000       8
    0.392156862745    0.019607843137    0.000000000000       8
    0.411764705882    0.019607843137    0.000000000000       8
    0.431372549020    0.019607843137    0.000000000000       8
    0.450980392157    0.019607843137    0.000000000000       8
    0.470588235294    0.019607843137    0.000000000000       8
    0.490196078431    0.019607843137    0.000000000000       8
    0.039215686275    0.039215686275    0.000000000000       4
    0.058823529412    0.039215686275    0.000000000000       8
    0.078431372549    0.039215686275    0.000000000000       8
    0.098039215686    0.039215686275    0.000000000000       8
    0.117647058824    0.039215686275    0.000000000000       8
    0.137254901961    0.039215686275    0.000000000000       8
    0.156862745098    0.039215686275    0.000000000000       8
    0.176470588235    0.039215686275    0.000000000000       8
    0.196078431373    0.039215686275    0.000000000000       8
    0.215686274510    0.039215686275    0.000000000000       8
    0.235294117647    0.039215686275    0.000000000000       8
    0.254901960784    0.039215686275    0.000000000000       8
    0.274509803922    0.039215686275    0.000000000000       8
    0.294117647059    0.039215686275    0.000000000000       8
    0.313725490196    0.039215686275    0.000000000000       8
    0.333333333333    0.039215686275    0.000000000000       8
    0.352941176471    0.039215686275    0.000000000000       8
    0.372549019608    0.039215686275    0.000000000000       8
    0.392156862745    0.039215686275    0.000000000000       8
    0.411764705882    0.039215686275    0.000000000000       8
    0.431372549020    0.039215686275    0.000000000000       8
    0.450980392157    0.039215686275    0.000000000000       8
    0.470588235294    0.039215686275    0.000000000000       8
    0.490196078431    0.039215686275    0.000000000000       8
    0.058823529412    0.058823529412    0.000000000000       4
    0.078431372549    0.058823529412    0.000000000000       8
    0.098039215686    0.058823529412    0.000000000000       8
    0.117647058824    0.058823529412    0.000000000000       8
    0.137254901961    0.058823529412    0.000000000000       8
    0.156862745098    0.058823529412    0.000000000000       8
    0.176470588235    0.058823529412    0.000000000000       8
    0.196078431373    0.058823529412    0.000000000000       8
    0.215686274510    0.058823529412    0.000000000000       8
    0.235294117647    0.058823529412    0.000000000000       8
    0.254901960784    0.058823529412    0.000000000000       8
    0.274509803922    0.058823529412    0.000000000000       8
    0.294117647059    0.058823529412    0.000000000000       8
    0.313725490196    0.058823529412    0.000000000000       8
    0.333333333333    0.058823529412    0.000000000000       8
    0.352941176471    0.058823529412    0.000000000000       8
    0.372549019608    0.058823529412    0.000000000000       8
    0.392156862745    0.058823529412    0.000000000000       8
    0.411764705882    0.058823529412    0.000000000000       8
    0.431372549020    0.058823529412    0.000000000000       8
    0.450980392157    0.058823529412    0.000000000000       8
    0.470588235294    0.058823529412    0.000000000000       8
    0.490196078431    0.058823529412    0.000000000000       8
    0.078431372549    0.078431372549    0.000000000000       4
    0.098039215686    0.078431372549    0.000000000000       8
    0.117647058824    0.078431372549    0.000000000000       8
    0.137254901961    0.078431372549    0.000000000000       8
    0.156862745098    0.078431372549    0.000000000000       8
    0.176470588235    0.078431372549    0.000000000000       8
    0.196078431373    0.078431372549    0.000000000000       8
    0.215686274510    0.078431372549    0.000000000000       8
    0.235294117647    0.078431372549    0.000000000000       8
    0.254901960784    0.078431372549    0.000000000000       8
    0.274509803922    0.078431372549    0.000000000000       8
    0.294117647059    0.078431372549    0.000000000000       8
    0.313725490196    0.078431372549    0.000000000000       8
    0.333333333333    0.078431372549    0.000000000000       8
    0.352941176471    0.078431372549    0.000000000000       8
    0.372549019608    0.078431372549    0.000000000000       8
    0.392156862745    0.078431372549    0.000000000000       8
    0.411764705882    0.078431372549    0.000000000000       8
    0.431372549020    0.078431372549    0.000000000000       8
    0.450980392157    0.078431372549    0.000000000000       8
    0.470588235294    0.078431372549    0.000000000000       8
    0.490196078431    0.078431372549    0.000000000000       8
    0.098039215686    0.098039215686    0.000000000000       4
    0.117647058824    0.098039215686    0.000000000000       8
    0.137254901961    0.098039215686    0.000000000000       8
    0.156862745098    0.098039215686    0.000000000000       8
    0.176470588235    0.098039215686    0.000000000000       8
    0.196078431373    0.098039215686    0.000000000000       8
    0.215686274510    0.098039215686    0.000000000000       8
    0.235294117647    0.098039215686    0.000000000000       8
    0.254901960784    0.098039215686    0.000000000000       8
    0.274509803922    0.098039215686    0.000000000000       8
    0.294117647059    0.098039215686    0.000000000000       8
    0.313725490196    0.098039215686    0.000000000000       8
    0.333333333333    0.098039215686    0.000000000000       8
    0.352941176471    0.098039215686    0.000000000000       8
    0.372549019608    0.098039215686    0.000000000000       8
    0.392156862745    0.098039215686    0.000000000000       8
    0.411764705882    0.098039215686    0.000000000000       8
    0.431372549020    0.098039215686    0.000000000000       8
    0.450980392157    0.098039215686    0.000000000000       8
    0.470588235294    0.098039215686    0.000000000000       8
    0.490196078431    0.098039215686    0.000000000000       8
    0.117647058824    0.117647058824    0.000000000000       4
    0.137254901961    0.117647058824    0.000000000000       8
    0.156862745098    0.117647058824    0.000000000000       8
    0.176470588235    0.117647058824    0.000000000000       8
    0.196078431373    0.117647058824    0.000000000000       8
    0.215686274510    0.117647058824    0.000000000000       8
    0.235294117647    0.117647058824    0.000000000000       8
    0.254901960784    0.117647058824    0.000000000000       8
    0.274509803922    0.117647058824    0.000000000000       8
    0.294117647059    0.117647058824    0.000000000000       8
    0.313725490196    0.117647058824    0.000000000000       8
    0.333333333333    0.117647058824    0.000000000000       8
    0.352941176471    0.117647058824    0.000000000000       8
    0.372549019608    0.117647058824    0.000000000000       8
    0.392156862745    0.117647058824    0.000000000000       8
    0.411764705882    0.117647058824    0.000000000000       8
    0.431372549020    0.117647058824    0.000000000000       8
    0.450980392157    0.117647058824    0.000000000000       8
    0.470588235294    0.117647058824    0.000000000000       8
    0.490196078431    0.117647058824    0.000000000000       8
    0.137254901961    0.137254901961    0.000000000000       4
    0.156862745098    0.137254901961    0.000000000000       8
    0.176470588235    0.137254901961    0.000000000000       8
    0.196078431373    0.137254901961    0.000000000000       8
    0.215686274510    0.137254901961    0.000000000000       8
    0.235294117647    0.137254901961    0.000000000000       8
    0.254901960784    0.137254901961    0.000000000000       8
    0.274509803922    0.137254901961    0.000000000000       8
    0.294117647059    0.137254901961    0.000000000000       8
    0.313725490196    0.137254901961    0.000000000000       8
    0.333333333333    0.137254901961    0.000000000000       8
    0.352941176471    0.137254901961    0.000000000000       8
    0.372549019608    0.137254901961    0.000000000000       8
    0.392156862745    0.137254901961    0.000000000000       8
    0.411764705882    0.137254901961    0.000000000000       8
    0.431372549020    0.137254901961    0.000000000000       8
    0.450980392157    0.137254901961    0.000000000000       8
    0.470588235294    0.137254901961    0.000000000000       8
    0.490196078431    0.137254901961    0.000000000000       8
    0.156862745098    0.156862745098    0.000000000000       4
    0.176470588235    0.156862745098    0.000000000000       8
    0.196078431373    0.156862745098    0.000000000000       8
    0.215686274510    0.156862745098    0.000000000000       8
    0.235294117647    0.156862745098    0.000000000000       8
    0.254901960784    0.156862745098    0.000000000000       8
    0.274509803922    0.156862745098    0.000000000000       8
    0.294117647059    0.156862745098    0.000000000000       8
    0.313725490196    0.156862745098    0.000000000000       8
    0.333333333333    0.156862745098    0.000000000000       8
    0.352941176471    0.156862745098    0.000000000000       8
    0.372549019608    0.156862745098    0.000000000000       8
    0.392156862745    0.156862745098    0.000000000000       8
    0.411764705882    0.156862745098    0.000000000000       8
    0.431372549020    0.156862745098    0.000000000000       8
    0.450980392157    0.156862745098    0.000000000000       8
    0.470588235294    0.156862745098    0.000000000000       8
    0.490196078431    0.156862745098    0.000000000000       8
    0.176470588235    0.176470588235    0.000000000000       4
    0.196078431373    0.176470588235    0.000000000000       8
    0.215686274510    0.176470588235    0.000000000000       8
    0.235294117647    0.176470588235    0.000000000000       8
    0.254901960784    0.176470588235    0.000000000000       8
    0.274509803922    0.176470588235    0.000000000000       8
    0.294117647059    0.176470588235    0.000000000000       8
    0.313725490196    0.176470588235    0.000000000000       8
    0.333333333333    0.176470588235    0.000000000000       8
    0.352941176471    0.176470588235    0.000000000000       8
    0.372549019608    0.176470588235    0.000000000000       8
    0.392156862745    0.176470588235    0.000000000000       8
    0.411764705882    0.176470588235    0.000000000000       8
    0.431372549020    0.176470588235    0.000000000000       8
    0.450980392157    0.176470588235    0.000000000000       8
    0.470588235294    0.176470588235    0.000000000000       8
    0.490196078431    0.176470588235    0.000000000000       8
    0.196078431373    0.196078431373    0.000000000000       4
    0.215686274510    0.196078431373    0.000000000000       8
    0.235294117647    0.196078431373    0.000000000000       8
    0.254901960784    0.196078431373    0.000000000000       8
    0.274509803922    0.196078431373    0.000000000000       8
    0.294117647059    0.196078431373    0.000000000000       8
    0.313725490196    0.196078431373    0.000000000000       8
    0.333333333333    0.196078431373    0.000000000000       8
    0.352941176471    0.196078431373    0.000000000000       8
    0.372549019608    0.196078431373    0.000000000000       8
    0.392156862745    0.196078431373    0.000000000000       8
    0.411764705882    0.196078431373    0.000000000000       8
    0.431372549020    0.196078431373    0.000000000000       8
    0.450980392157    0.196078431373    0.000000000000       8
    0.470588235294    0.196078431373    0.000000000000       8
    0.490196078431    0.196078431373    0.000000000000       8
    0.215686274510    0.215686274510    0.000000000000       4
    0.235294117647    0.215686274510    0.000000000000       8
    0.254901960784    0.215686274510    0.000000000000       8
    0.274509803922    0.215686274510    0.000000000000       8
    0.294117647059    0.215686274510    0.000000000000       8
    0.313725490196    0.215686274510    0.000000000000       8
    0.333333333333    0.215686274510    0.000000000000       8
    0.352941176471    0.215686274510    0.000000000000       8
    0.372549019608    0.215686274510    0.000000000000       8
    0.392156862745    0.215686274510    0.000000000000       8
    0.411764705882    0.215686274510    0.000000000000       8
    0.431372549020    0.215686274510    0.000000000000       8
    0.450980392157    0.215686274510    0.000000000000       8
    0.470588235294    0.215686274510    0.000000000000       8
    0.490196078431    0.215686274510    0.000000000000       8
    0.235294117647    0.235294117647    0.000000000000       4
    0.254901960784    0.235294117647    0.000000000000       8
    0.274509803922    0.235294117647    0.000000000000       8
    0.294117647059    0.235294117647    0.000000000000       8
    0.313725490196    0.235294117647    0.000000000000       8
    0.333333333333    0.235294117647    0.000000000000       8
    0.352941176471    0.235294117647    0.000000000000       8
    0.372549019608    0.235294117647    0.000000000000       8
    0.392156862745    0.235294117647    0.000000000000       8
    0.411764705882    0.235294117647    0.000000000000       8
    0.431372549020    0.235294117647    0.000000000000       8
    0.450980392157    0.235294117647    0.000000000000       8
    0.470588235294    0.235294117647    0.000000000000       8
    0.490196078431    0.235294117647    0.000000000000       8
    0.254901960784    0.254901960784    0.000000000000       4
    0.274509803922    0.254901960784    0.000000000000       8
    0.294117647059    0.254901960784    0.000000000000       8
    0.313725490196    0.254901960784    0.000000000000       8
    0.333333333333    0.254901960784    0.000000000000       8
    0.352941176471    0.254901960784    0.000000000000       8
    0.372549019608    0.254901960784    0.000000000000       8
    0.392156862745    0.254901960784    0.000000000000       8
    0.411764705882    0.254901960784    0.000000000000       8
    0.431372549020    0.254901960784    0.000000000000       8
    0.450980392157    0.254901960784    0.000000000000       8
    0.470588235294    0.254901960784    0.000000000000       8
    0.490196078431    0.254901960784    0.000000000000       8
    0.274509803922    0.274509803922    0.000000000000       4
    0.294117647059    0.274509803922    0.000000000000       8
    0.313725490196    0.274509803922    0.000000000000       8
    0.333333333333    0.274509803922    0.000000000000       8
    0.352941176471    0.274509803922    0.000000000000       8
    0.372549019608    0.274509803922    0.000000000000       8
    0.392156862745    0.274509803922    0.000000000000       8
    0.411764705882    0.274509803922    0.000000000000       8
    0.431372549020    0.274509803922    0.000000000000       8
    0.450980392157    0.274509803922    0.000000000000       8
    0.470588235294    0.274509803922    0.000000000000       8
    0.490196078431    0.274509803922    0.000000000000       8
    0.294117647059    0.294117647059    0.000000000000       4
    0.313725490196    0.294117647059    0.000000000000       8
    0.333333333333    0.294117647059    0.000000000000       8
    0.352941176471    0.294117647059    0.000000000000       8
    0.372549019608    0.294117647059    0.000000000000       8
    0.392156862745    0.294117647059    0.000000000000       8
    0.411764705882    0.294117647059    0.000000000000       8
    0.431372549020    0.294117647059    0.000000000000       8
    0.450980392157    0.294117647059    0.000000000000       8
    0.470588235294    0.294117647059    0.000000000000       8
    0.490196078431    0.294117647059    0.000000000000       8
    0.313725490196    0.313725490196    0.000000000000       4
    0.333333333333    0.313725490196    0.000000000000       8
    0.352941176471    0.313725490196    0.000000000000       8
    0.372549019608    0.313725490196    0.000000000000       8
    0.392156862745    0.313725490196    0.000000000000       8
    0.411764705882    0.313725490196    0.000000000000       8
    0.431372549020    0.313725490196    0.000000000000       8
    0.450980392157    0.313725490196    0.000000000000       8
    0.470588235294    0.313725490196    0.000000000000       8
    0.490196078431    0.313725490196    0.000000000000       8
    0.333333333333    0.333333333333    0.000000000000       4
    0.352941176471    0.333333333333    0.000000000000       8
    0.372549019608    0.333333333333    0.000000000000       8
    0.392156862745    0.333333333333    0.000000000000       8
    0.411764705882    0.333333333333    0.000000000000       8
    0.431372549020    0.333333333333    0.000000000000       8
    0.450980392157    0.333333333333    0.000000000000       8
    0.470588235294    0.333333333333    0.000000000000       8
    0.490196078431    0.333333333333    0.000000000000       8
    0.352941176471    0.352941176471    0.000000000000       4
    0.372549019608    0.352941176471    0.000000000000       8
    0.392156862745    0.352941176471    0.000000000000       8
    0.411764705882    0.352941176471    0.000000000000       8
    0.431372549020    0.352941176471    0.000000000000       8
    0.450980392157    0.352941176471    0.000000000000       8
    0.470588235294    0.352941176471    0.000000000000       8
    0.490196078431    0.352941176471    0.000000000000       8
    0.372549019608    0.372549019608    0.000000000000       4
    0.392156862745    0.372549019608    0.000000000000       8
    0.411764705882    0.372549019608    0.000000000000       8
    0.431372549020    0.372549019608    0.000000000000       8
    0.450980392157    0.372549019608    0.000000000000       8
    0.470588235294    0.372549019608    0.000000000000       8
    0.490196078431    0.372549019608    0.000000000000       8
    0.392156862745    0.392156862745    0.000000000000       4
    0.411764705882    0.392156862745    0.000000000000       8
    0.431372549020    0.392156862745    0.000000000000       8
    0.450980392157    0.392156862745    0.000000000000       8
    0.470588235294    0.392156862745    0.000000000000       8
    0.490196078431    0.392156862745    0.000000000000       8
    0.411764705882    0.411764705882    0.000000000000       4
    0.431372549020    0.411764705882    0.000000000000       8
    0.450980392157    0.411764705882    0.000000000000       8
    0.470588235294    0.411764705882    0.000000000000       8
    0.490196078431    0.411764705882    0.000000000000       8
    0.431372549020    0.431372549020    0.000000000000       4
    0.450980392157    0.431372549020    0.000000000000       8
    0.470588235294    0.431372549020    0.000000000000       8
    0.490196078431    0.431372549020    0.000000000000       8
    0.450980392157    0.450980392157    0.000000000000       4
    0.470588235294    0.450980392157    0.000000000000       8
    0.490196078431    0.450980392157    0.000000000000       8
    0.470588235294    0.470588235294    0.000000000000       4
    0.490196078431    0.470588235294    0.000000000000       8
    0.490196078431    0.490196078431    0.000000000000       4
