 Te4 Pd6 Pb4                            
   1.00000000000000     
     5.8263039855730083    0.0000000000000000    0.0000000000000000
     0.0000000000000000    8.6177807499981629    0.0000000000000000
     0.0000000000000000    0.0000000000000000   19.4160603609599960
   Te   Pd   Pb
     4     6     4
Direct
  0.5000000037799486  0.2876416405622848  0.6126943742088858
  0.0000000005117142  0.7876420415121980  0.3873050697026234
  0.4999999971175779  0.7123583376183718  0.6126943877837708
 -0.0000000016459040  0.2123580086869877  0.3873050873769475
  0.2500010209677098  0.2499999651411753  0.5000002427423575
  0.0000000021010457  0.4999999354403641  0.4339182511545004
  0.2500010367029109  0.7500000383054994  0.5000002585478724
  0.7499989794330524  0.2499999640150084  0.5000002436872679
  0.7499989629117867  0.7500000371161214  0.5000002578731445
  0.4999999975755993  0.0000000398376069  0.5660817068291816
  0.5000000040809266 -0.0000000177774891  0.4154961355409578
 -0.0000000025483697  0.4999999862387598  0.5845038575532225
  0.5000000015600163  0.4999999987125902  0.4295563743729078
 -0.0000000025480149  0.0000000245905212  0.5704437526263596
 
  0.00000000E+00  0.00000000E+00  0.00000000E+00
  0.00000000E+00  0.00000000E+00  0.00000000E+00
  0.00000000E+00  0.00000000E+00  0.00000000E+00
  0.00000000E+00  0.00000000E+00  0.00000000E+00
  0.00000000E+00  0.00000000E+00  0.00000000E+00
  0.00000000E+00  0.00000000E+00  0.00000000E+00
  0.00000000E+00  0.00000000E+00  0.00000000E+00
  0.00000000E+00  0.00000000E+00  0.00000000E+00
  0.00000000E+00  0.00000000E+00  0.00000000E+00
  0.00000000E+00  0.00000000E+00  0.00000000E+00
  0.00000000E+00  0.00000000E+00  0.00000000E+00
  0.00000000E+00  0.00000000E+00  0.00000000E+00
  0.00000000E+00  0.00000000E+00  0.00000000E+00
  0.00000000E+00  0.00000000E+00  0.00000000E+00
