G   29   29    1    0.005     # Parameters to Generate KPOINTS (Don't Edit This Line)
     120
Reciprocal lattice
    0.000000000000    0.000000000000    0.000000000000       1
    0.034482758621    0.000000000000    0.000000000000       4
    0.068965517241    0.000000000000    0.000000000000       4
    0.103448275862    0.000000000000    0.000000000000       4
    0.137931034483    0.000000000000    0.000000000000       4
    0.172413793103    0.000000000000    0.000000000000       4
    0.206896551724    0.000000000000    0.000000000000       4
    0.241379310345    0.000000000000    0.000000000000       4
    0.275862068966    0.000000000000    0.000000000000       4
    0.310344827586    0.000000000000    0.000000000000       4
    0.344827586207    0.000000000000    0.000000000000       4
    0.379310344828    0.000000000000    0.000000000000       4
    0.413793103448    0.000000000000    0.000000000000       4
    0.448275862069    0.000000000000    0.000000000000       4
    0.482758620690    0.000000000000    0.000000000000       4
    0.034482758621    0.034482758621    0.000000000000       4
    0.068965517241    0.034482758621    0.000000000000       8
    0.103448275862    0.034482758621    0.000000000000       8
    0.137931034483    0.034482758621    0.000000000000       8
    0.172413793103    0.034482758621    0.000000000000       8
    0.206896551724    0.034482758621    0.000000000000       8
    0.241379310345    0.034482758621    0.000000000000       8
    0.275862068966    0.034482758621    0.000000000000       8
    0.310344827586    0.034482758621    0.000000000000       8
    0.344827586207    0.034482758621    0.000000000000       8
    0.379310344828    0.034482758621    0.000000000000       8
    0.413793103448    0.034482758621    0.000000000000       8
    0.448275862069    0.034482758621    0.000000000000       8
    0.482758620690    0.034482758621    0.000000000000       8
    0.068965517241    0.068965517241    0.000000000000       4
    0.103448275862    0.068965517241    0.000000000000       8
    0.137931034483    0.068965517241    0.000000000000       8
    0.172413793103    0.068965517241    0.000000000000       8
    0.206896551724    0.068965517241    0.000000000000       8
    0.241379310345    0.068965517241    0.000000000000       8
    0.275862068966    0.068965517241    0.000000000000       8
    0.310344827586    0.068965517241    0.000000000000       8
    0.344827586207    0.068965517241    0.000000000000       8
    0.379310344828    0.068965517241    0.000000000000       8
    0.413793103448    0.068965517241    0.000000000000       8
    0.448275862069    0.068965517241    0.000000000000       8
    0.482758620690    0.068965517241    0.000000000000       8
    0.103448275862    0.103448275862    0.000000000000       4
    0.137931034483    0.103448275862    0.000000000000       8
    0.172413793103    0.103448275862    0.000000000000       8
    0.206896551724    0.103448275862    0.000000000000       8
    0.241379310345    0.103448275862    0.000000000000       8
    0.275862068966    0.103448275862    0.000000000000       8
    0.310344827586    0.103448275862    0.000000000000       8
    0.344827586207    0.103448275862    0.000000000000       8
    0.379310344828    0.103448275862    0.000000000000       8
    0.413793103448    0.103448275862    0.000000000000       8
    0.448275862069    0.103448275862    0.000000000000       8
    0.482758620690    0.103448275862    0.000000000000       8
    0.137931034483    0.137931034483    0.000000000000       4
    0.172413793103    0.137931034483    0.000000000000       8
    0.206896551724    0.137931034483    0.000000000000       8
    0.241379310345    0.137931034483    0.000000000000       8
    0.275862068966    0.137931034483    0.000000000000       8
    0.310344827586    0.137931034483    0.000000000000       8
    0.344827586207    0.137931034483    0.000000000000       8
    0.379310344828    0.137931034483    0.000000000000       8
    0.413793103448    0.137931034483    0.000000000000       8
    0.448275862069    0.137931034483    0.000000000000       8
    0.482758620690    0.137931034483    0.000000000000       8
    0.172413793103    0.172413793103    0.000000000000       4
    0.206896551724    0.172413793103    0.000000000000       8
    0.241379310345    0.172413793103    0.000000000000       8
    0.275862068966    0.172413793103    0.000000000000       8
    0.310344827586    0.172413793103    0.000000000000       8
    0.344827586207    0.172413793103    0.000000000000       8
    0.379310344828    0.172413793103    0.000000000000       8
    0.413793103448    0.172413793103    0.000000000000       8
    0.448275862069    0.172413793103    0.000000000000       8
    0.482758620690    0.172413793103    0.000000000000       8
    0.206896551724    0.206896551724    0.000000000000       4
    0.241379310345    0.206896551724    0.000000000000       8
    0.275862068966    0.206896551724    0.000000000000       8
    0.310344827586    0.206896551724    0.000000000000       8
    0.344827586207    0.206896551724    0.000000000000       8
    0.379310344828    0.206896551724    0.000000000000       8
    0.413793103448    0.206896551724    0.000000000000       8
    0.448275862069    0.206896551724    0.000000000000       8
    0.482758620690    0.206896551724    0.000000000000       8
    0.241379310345    0.241379310345    0.000000000000       4
    0.275862068966    0.241379310345    0.000000000000       8
    0.310344827586    0.241379310345    0.000000000000       8
    0.344827586207    0.241379310345    0.000000000000       8
    0.379310344828    0.241379310345    0.000000000000       8
    0.413793103448    0.241379310345    0.000000000000       8
    0.448275862069    0.241379310345    0.000000000000       8
    0.482758620690    0.241379310345    0.000000000000       8
    0.275862068966    0.275862068966    0.000000000000       4
    0.310344827586    0.275862068966    0.000000000000       8
    0.344827586207    0.275862068966    0.000000000000       8
    0.379310344828    0.275862068966    0.000000000000       8
    0.413793103448    0.275862068966    0.000000000000       8
    0.448275862069    0.275862068966    0.000000000000       8
    0.482758620690    0.275862068966    0.000000000000       8
    0.310344827586    0.310344827586    0.000000000000       4
    0.344827586207    0.310344827586    0.000000000000       8
    0.379310344828    0.310344827586    0.000000000000       8
    0.413793103448    0.310344827586    0.000000000000       8
    0.448275862069    0.310344827586    0.000000000000       8
    0.482758620690    0.310344827586    0.000000000000       8
    0.344827586207    0.344827586207    0.000000000000       4
    0.379310344828    0.344827586207    0.000000000000       8
    0.413793103448    0.344827586207    0.000000000000       8
    0.448275862069    0.344827586207    0.000000000000       8
    0.482758620690    0.344827586207    0.000000000000       8
    0.379310344828    0.379310344828    0.000000000000       4
    0.413793103448    0.379310344828    0.000000000000       8
    0.448275862069    0.379310344828    0.000000000000       8
    0.482758620690    0.379310344828    0.000000000000       8
    0.413793103448    0.413793103448    0.000000000000       4
    0.448275862069    0.413793103448    0.000000000000       8
    0.482758620690    0.413793103448    0.000000000000       8
    0.448275862069    0.448275862069    0.000000000000       4
    0.482758620690    0.448275862069    0.000000000000       8
    0.482758620690    0.482758620690    0.000000000000       4
