 Sr2 Cu1 Br2 O2                         
   1.00000000000000     
     3.9345611467806090    0.0000000000000000    0.0000000000000000
     0.0000000000000000    3.9345616532786529    0.0000000000000000
     0.0000000000000000    0.0000000000000000   21.3113259082499980
   Sr   Cu   Br   O 
     2     1     2     2
Direct
 -0.0000000049524976  0.0000003452471113  0.4200210121462495
  0.0000000634748729 -0.0000001632143994  0.5799789805968466
  0.4999999118124847  0.4999998172460140  0.5000000138004976
  0.5000001178152287  0.4999999213132957  0.6503032824157140
  0.5000000016184605  0.5000004917601586  0.3496967148980561
 -0.0000000852212136  0.4999997900996031  0.5000000371319427
  0.4999999954526667 -0.0000002024517839  0.4999999590106889
 
  0.00000000E+00  0.00000000E+00  0.00000000E+00
  0.00000000E+00  0.00000000E+00  0.00000000E+00
  0.00000000E+00  0.00000000E+00  0.00000000E+00
  0.00000000E+00  0.00000000E+00  0.00000000E+00
  0.00000000E+00  0.00000000E+00  0.00000000E+00
  0.00000000E+00  0.00000000E+00  0.00000000E+00
  0.00000000E+00  0.00000000E+00  0.00000000E+00
