 Sr2 Cu1 I2 O2                          
   1.00000000000000     
     4.0053845149145326    0.0000000000000000    0.0000000000000000
     0.0000000000000000    4.0053825866794694    0.0000000000000000
     0.0000000000000000    0.0000000000000000   21.8733913938550053
   Sr   Cu   I    O 
     2     1     2     2
Direct
  0.0000000630910520  0.0000000475414346  0.5767120182388775
 -0.0000000457255120 -0.0000000197974857  0.4231946779364253
  0.4999999449157302  0.4999999510585741  0.4999508734430185
  0.4999999848139112  0.4999999697451286  0.3417833004367241
  0.5000000232835632  0.5000000033262079  0.6581346405179423
 -0.0000000058808607  0.5000000078873789  0.4999508868920211
  0.5000000355021158  0.0000000402387613  0.4999509007847064
 
  0.00000000E+00  0.00000000E+00  0.00000000E+00
  0.00000000E+00  0.00000000E+00  0.00000000E+00
  0.00000000E+00  0.00000000E+00  0.00000000E+00
  0.00000000E+00  0.00000000E+00  0.00000000E+00
  0.00000000E+00  0.00000000E+00  0.00000000E+00
  0.00000000E+00  0.00000000E+00  0.00000000E+00
  0.00000000E+00  0.00000000E+00  0.00000000E+00
