CONTCAR\(6)                             
   1.00000000000000     
    11.6387996674000007    0.0000000000000000    0.0000000000000000
     5.8194217944000002   10.1357943405000004    0.0000000000000000
     0.0000000000000000    0.0000000000000000   18.1699008942000013
   Li   Ni   P    S    O 
     4     4     8    24     1
Direct
  0.3466429292228643  0.3204039393580248  0.5100613868409289
  0.8364298527143951  0.3313901309956257  0.5010759654643875
  0.3342268724161944  0.8302490172099436  0.4930410502796947
  0.8315278525036390  0.8359805390077185  0.5054473066137186
  0.1704366176074673  0.1572350995950212  0.5027119390855427
  0.6771096156545047  0.1645670307615880  0.4978579714425285
  0.1662874277177757  0.6630107763266192  0.5050714593963860
  0.6642448748267101  0.6687389891383642  0.4993666973729515
  0.5055333686191740  0.4956448770787277  0.5556687087324877
  0.0004120654703325  0.4972141562277321  0.4518432016127469
  0.9842742109899222  0.5061596809376722  0.5718117664794162
  0.5001254519743593  0.4967871302979270  0.4356186915838162
  0.5030707556770593  0.9910745175195496  0.5590665579495652
  0.0040186012211837  0.9972481774604722  0.4415960730577133
  0.0021366431554126  0.0011217887826679  0.5610769494495372
  0.5052353913439157  0.9949553176030639  0.4390527094414099
  0.0146148047110444  0.3293769337370099  0.6028708738173717
  0.3248653115851870  0.1471838184580150  0.5879535311083741
  0.0196525908483114  0.1610792719599315  0.4173685241873785
  0.1640249532397536  0.3217504817468352  0.4255707378490717
  0.3310340838099330  0.0097002256726321  0.4084101422677080
  0.1682469106695967  0.0105062822039068  0.5868988973184236
  0.5363604532498848  0.3125373496335999  0.5847184170717478
  0.8254600917965083  0.1651495347030116  0.5859211983327018
  0.5213504236433316  0.1563780651220372  0.4138673584336082
  0.6652092490136198  0.3241350688542511  0.4084855491542282
  0.8248152641677537  0.0146051162675621  0.4149649877557957
  0.6589565556456368  0.0095655548810374  0.5919111467629325
  0.0103185794911349  0.8319937094654678  0.5930506534604995
  0.3268070534137014  0.6546948569076276  0.5859437124836583
  0.0166136643743444  0.6589908904347362  0.4251278351341086
  0.1608623477948161  0.8200520533104627  0.4131654166517206
  0.3237330989154545  0.5034065228384129  0.4174166760685169
  0.1479079926912686  0.5459584028536811  0.6027988258366868
  0.5105895046913304  0.8150423829597104  0.5810405602266966
  0.8153404280921007  0.6726562021507797  0.5948483348425492
  0.5100573800823073  0.6590198370803683  0.4066233478486838
  0.6707464363059008  0.8168092810641550  0.4159777551632968
  0.8245653086926437  0.5143456401624987  0.4186809258089189
  0.6634367898467702  0.5177486914130959  0.5833006799626645
  0.2647378811127667  0.4071035708185126  0.6049554746498209
 
  0.00000000E+00  0.00000000E+00  0.00000000E+00
  0.00000000E+00  0.00000000E+00  0.00000000E+00
  0.00000000E+00  0.00000000E+00  0.00000000E+00
  0.00000000E+00  0.00000000E+00  0.00000000E+00
  0.00000000E+00  0.00000000E+00  0.00000000E+00
  0.00000000E+00  0.00000000E+00  0.00000000E+00
  0.00000000E+00  0.00000000E+00  0.00000000E+00
  0.00000000E+00  0.00000000E+00  0.00000000E+00
  0.00000000E+00  0.00000000E+00  0.00000000E+00
  0.00000000E+00  0.00000000E+00  0.00000000E+00
  0.00000000E+00  0.00000000E+00  0.00000000E+00
  0.00000000E+00  0.00000000E+00  0.00000000E+00
  0.00000000E+00  0.00000000E+00  0.00000000E+00
  0.00000000E+00  0.00000000E+00  0.00000000E+00
  0.00000000E+00  0.00000000E+00  0.00000000E+00
  0.00000000E+00  0.00000000E+00  0.00000000E+00
  0.00000000E+00  0.00000000E+00  0.00000000E+00
  0.00000000E+00  0.00000000E+00  0.00000000E+00
  0.00000000E+00  0.00000000E+00  0.00000000E+00
  0.00000000E+00  0.00000000E+00  0.00000000E+00
  0.00000000E+00  0.00000000E+00  0.00000000E+00
  0.00000000E+00  0.00000000E+00  0.00000000E+00
  0.00000000E+00  0.00000000E+00  0.00000000E+00
  0.00000000E+00  0.00000000E+00  0.00000000E+00
  0.00000000E+00  0.00000000E+00  0.00000000E+00
  0.00000000E+00  0.00000000E+00  0.00000000E+00
  0.00000000E+00  0.00000000E+00  0.00000000E+00
  0.00000000E+00  0.00000000E+00  0.00000000E+00
  0.00000000E+00  0.00000000E+00  0.00000000E+00
  0.00000000E+00  0.00000000E+00  0.00000000E+00
  0.00000000E+00  0.00000000E+00  0.00000000E+00
  0.00000000E+00  0.00000000E+00  0.00000000E+00
  0.00000000E+00  0.00000000E+00  0.00000000E+00
  0.00000000E+00  0.00000000E+00  0.00000000E+00
  0.00000000E+00  0.00000000E+00  0.00000000E+00
  0.00000000E+00  0.00000000E+00  0.00000000E+00
  0.00000000E+00  0.00000000E+00  0.00000000E+00
  0.00000000E+00  0.00000000E+00  0.00000000E+00
  0.00000000E+00  0.00000000E+00  0.00000000E+00
  0.00000000E+00  0.00000000E+00  0.00000000E+00
  0.00000000E+00  0.00000000E+00  0.00000000E+00
