CONTCAR\(3)                             
   1.00000000000000     
    15.6891002655000005    0.0000000000000000    0.0000000000000000
     7.8445501328000002   13.5871593924000003    0.0000000000000000
     0.0000000000000000    0.0000000000000000   18.9503002167000005
   Te   Pt   O    H 
    32    32     2     1
Selective dynamics
Direct
  0.1640946418995313  0.1698803094685530  0.6125739355985900   F   F   F
  0.1639839925072977  0.1702889628999174  0.3926502151098035   F   F   F
  0.4145273537017786  0.1689863138459700  0.6139156775234582   F   F   F
  0.4161553122732542  0.1681991103666789  0.3951485374722807   F   F   F
  0.6647157177497078  0.1683777058218396  0.6143420911170026   F   F   F
  0.6645614982736063  0.1686005376931732  0.3950405241330230   F   F   F
  0.9145220707273509  0.1686726803845104  0.6140250769125046   F   F   F
  0.9136802195649096  0.1684332588211745  0.3952149558873259   F   F   F
  0.1639483252069951  0.4184816696382612  0.6126801688544177   F   F   F
  0.1639395651443181  0.4188353603111992  0.3927494707995152   F   F   F
  0.4144314424239539  0.4167907661561685  0.6152256824390179   F   F   F
  0.4151092095362117  0.4180458674798828  0.3956695070566028   F   F   F
  0.6672910137655990  0.4163152477581349  0.6151519098875866   F   F   F
  0.6650615969589921  0.4183050732677600  0.3956017640389575   F   F   F
  0.9158146952637409  0.4182497280591733  0.6125915934472985   F   F   F
  0.9151735743674863  0.4189115865401689  0.3929009296231385   F   F   F
  0.1623568887429698  0.6691783845206203  0.6149968380022486   F   F   F
  0.1637971785350487  0.6692590225526160  0.3953179710011057   F   F   F
  0.4137568605929545  0.6702979698544809  0.5968781379022943   F   F   F
  0.4144939571507962  0.6687613120368638  0.3960318029606427   F   F   F
  0.6669371694244361  0.6690092461511625  0.6152047246688213   F   F   F
  0.6645845673329376  0.6693526923502588  0.3956050926366146   F   F   F
  0.9147994567100781  0.6688728164354742  0.6140268046633608   F   F   F
  0.9139363347369027  0.6703077132565696  0.3952587064679278   F   F   F
  0.1616380037064502  0.9218943168640550  0.6147647514988464   F   F   F
  0.1638664536753893  0.9193234195543951  0.3951471853194803   F   F   F
  0.4145482887829814  0.9216314352108697  0.6146312729065713   F   F   F
  0.4147331269126866  0.9190417110273472  0.3951462511786517   F   F   F
  0.6648355332553493  0.9187413183401034  0.6145603969567901   F   F   F
  0.6646470073516468  0.9190615368319044  0.3949637936685875   F   F   F
  0.9141551461836173  0.9191928264184099  0.6142385831449104   F   F   F
  0.9139942208414240  0.9191994151097873  0.3948407710801547   F   F   F
  0.0801259596322481  0.0869823751725392  0.5444597471222465   F   F   F
  0.9974717719971338  0.0020591498324407  0.4638297435757721   F   F   F
  0.3309377374139402  0.0869921131213118  0.5444801577379863   F   F   F
  0.2466487901344152  0.0047574661121246  0.4621858643295838   F   F   F
  0.5814366949695682  0.0851356058606427  0.5459022332755623   F   F   F
  0.4984455240042394  0.0018303624650287  0.4639252707951300   F   F   F
  0.8311670867805887  0.0854666816076346  0.5456441008807573   F   F   F
  0.7477477553120977  0.0022408740996482  0.4638588564746087   F   F   F
  0.0814365950733205  0.3354405475928601  0.5432690025715701   F   F   F
  0.9976413172929384  0.2524228914404603  0.4615952566775618   F   F   F
  0.3310706339782001  0.3347967519952491  0.5449156760641429   F   F   F
  0.2482635500846087  0.2523676140707920  0.4616266006035232   F   F   F
  0.5810436901470126  0.3359371143556942  0.5468066844292281   F   F   F
  0.4986236050927317  0.2517842946898199  0.4644711268722617   F   F   F
  0.8326034063687757  0.3343418754505194  0.5447718817164358   F   F   F
  0.7475138274464115  0.2518782587447959  0.4641251178422721   F   F   F
  0.0805587911438579  0.5855148508176171  0.5447794010330824   F   F   F
  0.9976876244187665  0.5027126424387873  0.4620740017056733   F   F   F
  0.3279940025340196  0.5820307150351525  0.5450926012501611   F   F   F
  0.2467950209109304  0.5011499714806291  0.4624519602194255   F   F   F
  0.5878452554891282  0.5821258193646486  0.5455090610310762   F   F   F
  0.4983091876521755  0.5016144366065873  0.4636024791049209   F   F   F
  0.8324036440883162  0.5854401391679716  0.5450240934532928   F   F   F
  0.7501385834482690  0.5012381854757351  0.4627834682785945   F   F   F
  0.0814840312809721  0.8355587750850830  0.5462818713753919   F   F   F
  0.9974471430849832  0.7530846157103710  0.4640654091963654   F   F   F
  0.3272665830128787  0.8431687307888822  0.5449759285132814   F   F   F
  0.2471638138179912  0.7526358714527817  0.4634034307629946   F   F   F
  0.5811424786585349  0.8353719896505751  0.5462935830524742   F   F   F
  0.4978755215349722  0.7525641757287715  0.4637160300570855   F   F   F
  0.8312290091795234  0.8355854681370971  0.5458268966862079   F   F   F
  0.7476577007883591  0.7528912928947307  0.4640038911037792   F   F   F
  0.4086322878921820  0.6842351837211851  0.7070848263209726   T   T   T
  0.4592891154623970  0.5858757086922637  0.7382100312274673   T   T   T
  0.5240812845731212  0.5783981431120894  0.7477662275133042   T   T   T
 
  0.00000000E+00  0.00000000E+00  0.00000000E+00
  0.00000000E+00  0.00000000E+00  0.00000000E+00
  0.00000000E+00  0.00000000E+00  0.00000000E+00
  0.00000000E+00  0.00000000E+00  0.00000000E+00
  0.00000000E+00  0.00000000E+00  0.00000000E+00
  0.00000000E+00  0.00000000E+00  0.00000000E+00
  0.00000000E+00  0.00000000E+00  0.00000000E+00
  0.00000000E+00  0.00000000E+00  0.00000000E+00
  0.00000000E+00  0.00000000E+00  0.00000000E+00
  0.00000000E+00  0.00000000E+00  0.00000000E+00
  0.00000000E+00  0.00000000E+00  0.00000000E+00
  0.00000000E+00  0.00000000E+00  0.00000000E+00
  0.00000000E+00  0.00000000E+00  0.00000000E+00
  0.00000000E+00  0.00000000E+00  0.00000000E+00
  0.00000000E+00  0.00000000E+00  0.00000000E+00
  0.00000000E+00  0.00000000E+00  0.00000000E+00
  0.00000000E+00  0.00000000E+00  0.00000000E+00
  0.00000000E+00  0.00000000E+00  0.00000000E+00
  0.00000000E+00  0.00000000E+00  0.00000000E+00
  0.00000000E+00  0.00000000E+00  0.00000000E+00
  0.00000000E+00  0.00000000E+00  0.00000000E+00
  0.00000000E+00  0.00000000E+00  0.00000000E+00
  0.00000000E+00  0.00000000E+00  0.00000000E+00
  0.00000000E+00  0.00000000E+00  0.00000000E+00
  0.00000000E+00  0.00000000E+00  0.00000000E+00
  0.00000000E+00  0.00000000E+00  0.00000000E+00
  0.00000000E+00  0.00000000E+00  0.00000000E+00
  0.00000000E+00  0.00000000E+00  0.00000000E+00
  0.00000000E+00  0.00000000E+00  0.00000000E+00
  0.00000000E+00  0.00000000E+00  0.00000000E+00
  0.00000000E+00  0.00000000E+00  0.00000000E+00
  0.00000000E+00  0.00000000E+00  0.00000000E+00
  0.00000000E+00  0.00000000E+00  0.00000000E+00
  0.00000000E+00  0.00000000E+00  0.00000000E+00
  0.00000000E+00  0.00000000E+00  0.00000000E+00
  0.00000000E+00  0.00000000E+00  0.00000000E+00
  0.00000000E+00  0.00000000E+00  0.00000000E+00
  0.00000000E+00  0.00000000E+00  0.00000000E+00
  0.00000000E+00  0.00000000E+00  0.00000000E+00
  0.00000000E+00  0.00000000E+00  0.00000000E+00
  0.00000000E+00  0.00000000E+00  0.00000000E+00
  0.00000000E+00  0.00000000E+00  0.00000000E+00
  0.00000000E+00  0.00000000E+00  0.00000000E+00
  0.00000000E+00  0.00000000E+00  0.00000000E+00
  0.00000000E+00  0.00000000E+00  0.00000000E+00
  0.00000000E+00  0.00000000E+00  0.00000000E+00
  0.00000000E+00  0.00000000E+00  0.00000000E+00
  0.00000000E+00  0.00000000E+00  0.00000000E+00
  0.00000000E+00  0.00000000E+00  0.00000000E+00
  0.00000000E+00  0.00000000E+00  0.00000000E+00
  0.00000000E+00  0.00000000E+00  0.00000000E+00
  0.00000000E+00  0.00000000E+00  0.00000000E+00
  0.00000000E+00  0.00000000E+00  0.00000000E+00
  0.00000000E+00  0.00000000E+00  0.00000000E+00
  0.00000000E+00  0.00000000E+00  0.00000000E+00
  0.00000000E+00  0.00000000E+00  0.00000000E+00
  0.00000000E+00  0.00000000E+00  0.00000000E+00
  0.00000000E+00  0.00000000E+00  0.00000000E+00
  0.00000000E+00  0.00000000E+00  0.00000000E+00
  0.00000000E+00  0.00000000E+00  0.00000000E+00
  0.00000000E+00  0.00000000E+00  0.00000000E+00
  0.00000000E+00  0.00000000E+00  0.00000000E+00
  0.00000000E+00  0.00000000E+00  0.00000000E+00
  0.00000000E+00  0.00000000E+00  0.00000000E+00
  0.00000000E+00  0.00000000E+00  0.00000000E+00
  0.00000000E+00  0.00000000E+00  0.00000000E+00
  0.00000000E+00  0.00000000E+00  0.00000000E+00
