CONTCAR\(10)                            
   1.00000000000000     
    12.0179996490000001    0.0000000000000000    0.0000000000000000
     5.5443836140000000   17.3830097696000010    0.0000000000000000
     0.0000000000000000    0.0000000000000000   18.4081001282000010
   Nb   Ir   Se   O    H 
    16     4    40     1     1
Direct
  0.3306429200757748  0.3899252878199277  0.5022482436912696
  0.3800072368376135  0.1945497877839060  0.5026606928966117
  0.0481283906791958  0.9920240380193093  0.5019937120712470
  0.0813999423238627  0.3111123574463903  0.4995751652287055
  0.8124872780299199  0.4180266357920885  0.4977572492126257
  0.8695982717925546  0.2016290746224456  0.5040861791364577
  0.5394110175578817  0.9995469440948952  0.5043130359594912
  0.5941090759085128  0.3093679334173913  0.4970746692425649
  0.3150780715792010  0.9143604933266403  0.5011764636281200
  0.3754397098314470  0.7013860452639094  0.5033570466309669
  0.0470792788928449  0.5029704727765676  0.4998661891761031
  0.0936331295049655  0.7861534307818019  0.5081265301133797
  0.8179034902305631  0.9103470769079038  0.5022966185154658
  0.8696447085243690  0.7060391017902248  0.5011439285272772
  0.5412359347057603  0.4983243123994257  0.5006187360686951
  0.5820130282856795  0.8166374274765005  0.4981222270519865
  0.2099631103081947  0.0897103842445048  0.5039159062670606
  0.7155600432093649  0.0879683543413634  0.5010712461781708
  0.2037180645492001  0.6127389221957316  0.5013270757533164
  0.7128968654302810  0.5931170676831883  0.5003787749821171
  0.1851683257799195  0.9998973549844408  0.6025085841495397
  0.0389760905655905  0.1034594705181462  0.4187019165071035
  0.2666980370967025  0.3000395865735825  0.5909369129015829
  0.1533585865138463  0.3960134072369002  0.4109166819372092
  0.3740177399567557  0.0935494716284211  0.5921732453661690
  0.2250190632490785  0.1943966281651726  0.4123788776558470
  0.4825774327274246  0.4000289139398276  0.5955644064707641
  0.3509988305652172  0.0057384401069740  0.4131155682720191
  0.0700027084596258  0.1950578204733446  0.5774074727920109
  0.4382483014235774  0.2956476073000189  0.4066634412731034
  0.6874941753601433  0.0010873820383708  0.6008214377761547
  0.5455025613414151  0.1008614765580376  0.4138943054576103
  0.7685448868625855  0.3068095172147025  0.5883000649967087
  0.6510057303164345  0.3997845029150753  0.4062638647752479
  0.8787303460817171  0.0933266810327638  0.5877783460329624
  0.7272172185315924  0.1935846690363334  0.4092750881247795
  0.9770094653252883  0.4069447021001338  0.5933228584296018
  0.8589480282417128  0.0000287608727447  0.4129162532147959
  0.5755297281908582  0.1934410335401395  0.5745428631814633
  0.9278367710525970  0.3026581793846574  0.4108489210263713
  0.1931526241620247  0.5057803740846865  0.5926747072490386
  0.0436547517894397  0.6072949625225021  0.4130151367003236
  0.2709693684192445  0.8007976773637537  0.5910225126555346
  0.1500529821230288  0.8944225612261647  0.4136280338138221
  0.3770583668296936  0.5949574470972152  0.5884398387795784
  0.2289512691095865  0.7028616353361556  0.4058518081457905
  0.4755640859330299  0.9047063065087855  0.5979569953386132
  0.3438145420956218  0.5058452017669595  0.4257820075535861
  0.0640823553454908  0.6988293806652806  0.6039502286945364
  0.4285507608290331  0.8038646550944861  0.4106410322403917
  0.6839393936012286  0.5049721830537663  0.5989565867046025
  0.5420834374648678  0.6039521537478905  0.4138866548922451
  0.7632852617819594  0.8039068361862434  0.5897480448882533
  0.6510064842224921  0.9014917032923080  0.4092518738366664
  0.8805712517534587  0.5944871562488387  0.5850502540045852
  0.7204027501540864  0.7008016874485250  0.4112007296706253
  0.9828494981629561  0.8999087473745675  0.5942265382817524
  0.8553344878167763  0.5076635735234305  0.4097449098330372
  0.5725406392446359  0.6970120610755970  0.5751905367652554
  0.9345353499317852  0.7975920783120500  0.4131091502434572
  0.0768359137269385  0.7373534260327119  0.7016256163902241
  0.0990613736033268  0.7845057552341217  0.6958457176453905
 
  0.00000000E+00  0.00000000E+00  0.00000000E+00
  0.00000000E+00  0.00000000E+00  0.00000000E+00
  0.00000000E+00  0.00000000E+00  0.00000000E+00
  0.00000000E+00  0.00000000E+00  0.00000000E+00
  0.00000000E+00  0.00000000E+00  0.00000000E+00
  0.00000000E+00  0.00000000E+00  0.00000000E+00
  0.00000000E+00  0.00000000E+00  0.00000000E+00
  0.00000000E+00  0.00000000E+00  0.00000000E+00
  0.00000000E+00  0.00000000E+00  0.00000000E+00
  0.00000000E+00  0.00000000E+00  0.00000000E+00
  0.00000000E+00  0.00000000E+00  0.00000000E+00
  0.00000000E+00  0.00000000E+00  0.00000000E+00
  0.00000000E+00  0.00000000E+00  0.00000000E+00
  0.00000000E+00  0.00000000E+00  0.00000000E+00
  0.00000000E+00  0.00000000E+00  0.00000000E+00
  0.00000000E+00  0.00000000E+00  0.00000000E+00
  0.00000000E+00  0.00000000E+00  0.00000000E+00
  0.00000000E+00  0.00000000E+00  0.00000000E+00
  0.00000000E+00  0.00000000E+00  0.00000000E+00
  0.00000000E+00  0.00000000E+00  0.00000000E+00
  0.00000000E+00  0.00000000E+00  0.00000000E+00
  0.00000000E+00  0.00000000E+00  0.00000000E+00
  0.00000000E+00  0.00000000E+00  0.00000000E+00
  0.00000000E+00  0.00000000E+00  0.00000000E+00
  0.00000000E+00  0.00000000E+00  0.00000000E+00
  0.00000000E+00  0.00000000E+00  0.00000000E+00
  0.00000000E+00  0.00000000E+00  0.00000000E+00
  0.00000000E+00  0.00000000E+00  0.00000000E+00
  0.00000000E+00  0.00000000E+00  0.00000000E+00
  0.00000000E+00  0.00000000E+00  0.00000000E+00
  0.00000000E+00  0.00000000E+00  0.00000000E+00
  0.00000000E+00  0.00000000E+00  0.00000000E+00
  0.00000000E+00  0.00000000E+00  0.00000000E+00
  0.00000000E+00  0.00000000E+00  0.00000000E+00
  0.00000000E+00  0.00000000E+00  0.00000000E+00
  0.00000000E+00  0.00000000E+00  0.00000000E+00
  0.00000000E+00  0.00000000E+00  0.00000000E+00
  0.00000000E+00  0.00000000E+00  0.00000000E+00
  0.00000000E+00  0.00000000E+00  0.00000000E+00
  0.00000000E+00  0.00000000E+00  0.00000000E+00
  0.00000000E+00  0.00000000E+00  0.00000000E+00
  0.00000000E+00  0.00000000E+00  0.00000000E+00
  0.00000000E+00  0.00000000E+00  0.00000000E+00
  0.00000000E+00  0.00000000E+00  0.00000000E+00
  0.00000000E+00  0.00000000E+00  0.00000000E+00
  0.00000000E+00  0.00000000E+00  0.00000000E+00
  0.00000000E+00  0.00000000E+00  0.00000000E+00
  0.00000000E+00  0.00000000E+00  0.00000000E+00
  0.00000000E+00  0.00000000E+00  0.00000000E+00
  0.00000000E+00  0.00000000E+00  0.00000000E+00
  0.00000000E+00  0.00000000E+00  0.00000000E+00
  0.00000000E+00  0.00000000E+00  0.00000000E+00
  0.00000000E+00  0.00000000E+00  0.00000000E+00
  0.00000000E+00  0.00000000E+00  0.00000000E+00
  0.00000000E+00  0.00000000E+00  0.00000000E+00
  0.00000000E+00  0.00000000E+00  0.00000000E+00
  0.00000000E+00  0.00000000E+00  0.00000000E+00
  0.00000000E+00  0.00000000E+00  0.00000000E+00
  0.00000000E+00  0.00000000E+00  0.00000000E+00
  0.00000000E+00  0.00000000E+00  0.00000000E+00
  0.00000000E+00  0.00000000E+00  0.00000000E+00
  0.00000000E+00  0.00000000E+00  0.00000000E+00
