 Cu1 Au1 O2                             
   1.00000000000000     
     2.7803689138594057    0.0000000000000000    0.0000000000000000
     0.0000000000000000    5.9156751994590859    0.0000000000000000
     0.0000000000000000    0.0000000000000000   16.0608497548648614
   Cu   Au   O 
     1     1     2
Direct
  0.5000000066491523  0.0008457831901498  0.4999866424859946
  0.0000000005375278  0.5006916574969521  0.5000017314961434
 -0.0000000035136267  0.1824861790256212  0.4600727956266890
 -0.0000000036730502  0.8189827266351364  0.5399275296192446
 
  0.00000000E+00  0.00000000E+00  0.00000000E+00
  0.00000000E+00  0.00000000E+00  0.00000000E+00
  0.00000000E+00  0.00000000E+00  0.00000000E+00
  0.00000000E+00  0.00000000E+00  0.00000000E+00
