Layer                                   
   1.00000000000000     
     3.5271000861999999    0.0000000000000000    0.0000000000000000
     1.7537552164000001    9.5587496525999995    0.0000000000000000
     0.0000000000000000    0.0000000000000000   15.5000000000000000
   H    O    Ta   Te
    16    10     3     6
Direct
  0.3823159519732111  0.0948906423904665  0.5963659599775536
  0.3588788337306560  0.2448976792173594  0.5623819741516178
  0.5765533891359116  0.5086911742557580  0.3194199291859901
  0.2799858212667233  0.4647014400857378  0.3847884579023632
  0.9566760765199384  0.7241568094610573  0.5037329045229140
  0.9713158211103974  0.6498449106914967  0.6075713690389033
  0.3334498316313035  0.0031439894324104  0.2224403629297665
  0.0971520794558698  0.9419734827762425  0.5478749170301176
  0.0291824295887449  0.4823641702303060  0.5330664153826272
  0.9184149259911891  0.3515330290784442  0.4880634329313074
  0.3027211686316842  0.8737595361787711  0.2724689594193771
  0.4035079160165698  0.8098245207563831  0.5604075604350579
  0.3225871874195838  0.8358292668193694  0.4125818384910144
  0.2006479078283139  0.6954332320271637  0.3845674601341530
  0.1530924822940201  0.3192633971737770  0.3004808663235940
  0.8848792904704877  0.3375053250994878  0.2200685274836117
  0.5385332002112714  0.1681028291037839  0.5909266785290871
  0.3098751282395151  0.5300618558508333  0.3428536399815437
  0.8166749893836194  0.6632979745425976  0.5480544476034981
  0.4637958342653204  0.9044001022756613  0.2295525617291283
  0.1361542625350107  0.3912202102991406  0.5027390565697657
  0.3640787098452949  0.9139105111188810  0.5576813028963103
  0.1011129470967327  0.7915484436320257  0.4067046736198468
  0.8978919121881528  0.3063532412339801  0.2819638486256664
  0.7806165296300005  0.3642418432548233  0.1041713496137247
  0.0893431204156304  0.6353751905358024  0.7148609157546920
  0.6837877764416116  0.7179628847446471  0.9304743442518993
  0.3675355111740875  0.2603438156127710  0.8849172355615467
  0.0537325778374749  0.9804997995389187  0.9088842145642462
  0.5797350942429943  0.8678512498106836  0.7808621698482312
  0.4931583769510564  0.1099172361554401  0.0333517114746563
  0.2700725020463471  0.5571027078090111  0.8259382093437327
  0.1486700771318704  0.7812193522793942  0.0571382775683015
  0.9182795487634071  0.1829300011981033  0.7590224842303775
  0.8096678008977285  0.4347813062274772  0.9912506150737039
 
  0.25703531E-01  0.14051486E-03  0.24425278E-01
 -0.24688991E-02 -0.37925530E-02 -0.33812780E-02
 -0.41943849E-02 -0.25708567E-01  0.78649800E-02
 -0.12770247E-01 -0.10925576E-01  0.29845045E-01
 -0.22976841E-01 -0.23957547E-01  0.25906762E-01
 -0.16291054E-01  0.39317792E-02 -0.26117119E-01
 -0.12225411E-01 -0.44039971E-02  0.18729228E-01
  0.13128721E-01 -0.59140206E-02  0.10771737E-02
  0.37973102E-02  0.16708114E-01 -0.89036220E-02
 -0.16536489E-01  0.13241591E-02  0.14608929E-01
  0.16593078E-03  0.74006551E-03  0.42570614E-01
  0.23720260E-01 -0.87710752E-03  0.14317004E-01
  0.73897113E-02  0.15755747E-01  0.40537484E-02
  0.15702382E-01 -0.16334971E-01  0.15798192E-03
 -0.91603104E-02 -0.23706011E-01  0.25347068E-02
  0.18439413E-01 -0.66853242E-02 -0.96990404E-02
  0.34444256E-02  0.63350460E-03 -0.72832755E-02
  0.55980013E-02  0.17474710E-02 -0.55199722E-02
  0.37856168E-03  0.13729719E-02 -0.23201908E-02
  0.35251304E-03 -0.49746224E-02  0.18805644E-04
 -0.14512688E-03 -0.12043537E-02 -0.11525763E-02
 -0.95157757E-03 -0.43071709E-02  0.76426663E-04
 -0.44192195E-02 -0.35232013E-02  0.77563497E-04
 -0.23037832E-02  0.66376014E-02 -0.43688832E-02
 -0.57054600E-02  0.34414248E-02 -0.92805824E-03
 -0.24381337E-02  0.62482407E-02 -0.32533579E-02
 -0.95789036E-04  0.68694970E-03  0.15896639E-03
  0.11201074E-02 -0.57351837E-03 -0.14214588E-02
 -0.75598586E-03  0.65480831E-03  0.73746038E-03
 -0.11609074E-03  0.10750575E-02  0.28605688E-03
 -0.48232463E-03  0.12662354E-03  0.92166239E-03
  0.15869514E-02 -0.15809877E-02  0.31595109E-03
  0.68519455E-03  0.58702412E-03 -0.13979776E-04
 -0.28680241E-03 -0.11649408E-02 -0.37452964E-03
 -0.10808238E-02 -0.23757274E-03  0.16193015E-02
 
           1
   1.00000000000000     
  0.22014214E+01  0.56665591E-01  0.73044171E-18  0.00000000E+00
  0.38959608E+00  0.94905343E-01  0.59794178E+00
  0.35837613E+00  0.24450092E+00  0.56216383E+00
  0.57670150E+00  0.50600164E+00  0.31992735E+00
  0.27693354E+00  0.46355845E+00  0.38671394E+00
  0.95140792E+00  0.72165046E+00  0.50540431E+00
  0.96649248E+00  0.65025624E+00  0.60588639E+00
  0.33021278E+00  0.26832600E-02  0.22364870E+00
  0.10118195E+00  0.94135478E+00  0.54794441E+00
  0.29389924E-01  0.48411211E+00  0.53249199E+00
  0.91365764E+00  0.35167156E+00  0.48900594E+00
  0.30272972E+00  0.87383696E+00  0.27521545E+00
  0.41027869E+00  0.80973276E+00  0.56133124E+00
  0.32386274E+00  0.83747757E+00  0.41284337E+00
  0.20594954E+00  0.69372433E+00  0.38457765E+00
  0.15172849E+00  0.31678336E+00  0.30064440E+00
  0.89045497E+00  0.33680593E+00  0.21944278E+00
  0.53947681E+00  0.16816910E+00  0.59045679E+00
  0.31137137E+00  0.53024467E+00  0.34249751E+00
  0.81671090E+00  0.66344161E+00  0.54790476E+00
  0.46415455E+00  0.90387968E+00  0.22955377E+00
  0.13617576E+00  0.39109422E+00  0.50266470E+00
  0.36403297E+00  0.91345991E+00  0.55768623E+00
  0.10004328E+00  0.79117986E+00  0.40670968E+00
  0.89689347E+00  0.30704764E+00  0.28168199E+00
  0.77881991E+00  0.36460187E+00  0.10411147E+00
  0.88326845E-01  0.63602886E+00  0.71465102E+00
  0.68372488E+00  0.71803475E+00  0.93048460E+00
  0.36788292E+00  0.26028382E+00  0.88482553E+00
  0.53484180E-01  0.98056830E+00  0.90893179E+00
  0.57964626E+00  0.86796372E+00  0.78088063E+00
  0.49301504E+00  0.10993048E+00  0.33411174E-01
  0.27060467E+00  0.55693731E+00  0.82595859E+00
  0.14883381E+00  0.78128076E+00  0.57137376E-01
  0.91825883E+00  0.18280813E+00  0.75899832E+00
  0.80937372E+00  0.43475645E+00  0.99135509E+00
  0.67437256E-02  0.17702148E-03  0.16432287E-02
 -0.84109851E-03 -0.57613137E-03 -0.21702896E-03
  0.11289689E-02 -0.25906867E-02  0.39557774E-03
 -0.31102915E-02 -0.25176995E-03  0.12719424E-02
 -0.41624022E-02 -0.18600844E-02  0.12839382E-02
 -0.34515405E-02  0.14566142E-03 -0.12033567E-02
 -0.39799311E-02 -0.11681264E-03  0.12163889E-02
  0.64240080E-02 -0.91844023E-03  0.17272048E-03
  0.10884908E-03  0.19638446E-02 -0.37369244E-03
 -0.31766872E-02  0.38110369E-03  0.10708786E-02
  0.79362896E-03  0.37708231E-03  0.25821354E-02
  0.60893401E-02 -0.27728694E-03  0.89256886E-03
  0.60169486E-03  0.15314457E-02  0.18155524E-03
  0.52824298E-02 -0.16274873E-02  0.87899065E-04
 -0.13800833E-02 -0.24946518E-02  0.20445398E-03
  0.56317430E-02 -0.59173106E-03 -0.80652101E-03
  0.98498173E-03  0.62864120E-04 -0.47633925E-03
  0.14565922E-02  0.11061016E-03 -0.31756987E-03
 -0.13551344E-03  0.12741657E-03 -0.16159063E-03
  0.36239094E-03 -0.56834063E-03  0.13167574E-04
 -0.54076947E-04 -0.15505798E-03 -0.87675038E-04
 -0.13068413E-03 -0.43146548E-03 -0.34477135E-05
 -0.10375783E-02 -0.35999555E-03  0.56009775E-05
 -0.10090377E-02  0.69809078E-03 -0.27074435E-03
 -0.18288611E-02  0.35784693E-03 -0.52726060E-04
 -0.10835207E-02  0.67466595E-03 -0.22756080E-03
 -0.59700890E-04  0.72764874E-04  0.11452288E-04
  0.34830772E-03 -0.61483275E-04 -0.94010843E-04
 -0.24718462E-03  0.67940330E-04  0.47669482E-04
 -0.95607126E-04  0.11503374E-03  0.18377325E-04
 -0.14306457E-03  0.13035386E-04  0.61473166E-04
  0.54623112E-03 -0.16795334E-03  0.23573073E-04
  0.16479194E-03  0.60932810E-04 -0.16579870E-05
 -0.20423721E-04 -0.12358366E-03 -0.25391540E-04
 -0.29983282E-03 -0.21855876E-04  0.10522927E-03
  0.00000000E+00  0.00000000E+00  0.00000000E+00
  0.00000000E+00  0.00000000E+00  0.00000000E+00
  0.00000000E+00  0.00000000E+00  0.00000000E+00
  0.00000000E+00  0.00000000E+00  0.00000000E+00
  0.00000000E+00  0.00000000E+00  0.00000000E+00
  0.00000000E+00  0.00000000E+00  0.00000000E+00
  0.00000000E+00  0.00000000E+00  0.00000000E+00
  0.00000000E+00  0.00000000E+00  0.00000000E+00
  0.00000000E+00  0.00000000E+00  0.00000000E+00
  0.00000000E+00  0.00000000E+00  0.00000000E+00
  0.00000000E+00  0.00000000E+00  0.00000000E+00
  0.00000000E+00  0.00000000E+00  0.00000000E+00
  0.00000000E+00  0.00000000E+00  0.00000000E+00
  0.00000000E+00  0.00000000E+00  0.00000000E+00
  0.00000000E+00  0.00000000E+00  0.00000000E+00
  0.00000000E+00  0.00000000E+00  0.00000000E+00
  0.00000000E+00  0.00000000E+00  0.00000000E+00
  0.00000000E+00  0.00000000E+00  0.00000000E+00
  0.00000000E+00  0.00000000E+00  0.00000000E+00
  0.00000000E+00  0.00000000E+00  0.00000000E+00
  0.00000000E+00  0.00000000E+00  0.00000000E+00
  0.00000000E+00  0.00000000E+00  0.00000000E+00
  0.00000000E+00  0.00000000E+00  0.00000000E+00
  0.00000000E+00  0.00000000E+00  0.00000000E+00
  0.00000000E+00  0.00000000E+00  0.00000000E+00
  0.00000000E+00  0.00000000E+00  0.00000000E+00
  0.00000000E+00  0.00000000E+00  0.00000000E+00
  0.00000000E+00  0.00000000E+00  0.00000000E+00
  0.00000000E+00  0.00000000E+00  0.00000000E+00
  0.00000000E+00  0.00000000E+00  0.00000000E+00
  0.00000000E+00  0.00000000E+00  0.00000000E+00
  0.00000000E+00  0.00000000E+00  0.00000000E+00
  0.00000000E+00  0.00000000E+00  0.00000000E+00
  0.00000000E+00  0.00000000E+00  0.00000000E+00
  0.00000000E+00  0.00000000E+00  0.00000000E+00
