 Ti2 S6                                 
   1.00000000000000     
     3.3989388738978694    0.0000000000000000    0.0000000000000000
     0.0000000000000000    4.9627600743575186    0.0000000000000000
     0.0000000000000000    0.0000000000000000   20.6939919630559963
   Ti   S 
     2     6
Direct
  0.2499999965861867  0.1301878079824572  0.5648741579455177
  0.7499999886179569  0.6303671300882530  0.4351251272056024
  0.2499999978283504  0.4246409430775407  0.3623892571260742
  0.7500000051279641  0.3359227738983698  0.6376153370353848
  0.7500000044947115  0.1303189401251946  0.4787613123424830
  0.2500000042769667  0.6303074897495703  0.5212371880895397
  0.7500000033283920  0.9245965195237568  0.6376710724137133
  0.2499999997394719  0.8359803955548564  0.3623265478416847
 
  0.00000000E+00  0.00000000E+00  0.00000000E+00
  0.00000000E+00  0.00000000E+00  0.00000000E+00
  0.00000000E+00  0.00000000E+00  0.00000000E+00
  0.00000000E+00  0.00000000E+00  0.00000000E+00
  0.00000000E+00  0.00000000E+00  0.00000000E+00
  0.00000000E+00  0.00000000E+00  0.00000000E+00
  0.00000000E+00  0.00000000E+00  0.00000000E+00
  0.00000000E+00  0.00000000E+00  0.00000000E+00
