CONTCAR                                 
   1.00000000000000     
    12.3037004471000007    0.0000000000000000    0.0000000000000000
     6.1518502235000003   10.6553171476999999    0.0000000000000000
     0.0000000000000000    0.0000000000000000   24.8090991973999984
   Mn   In   Se   O 
     9    18    36     1
Direct
  0.2221076754815947  0.2221076724815980  0.3279835798819345
  0.5525564340034554  0.2227479758036078  0.3275371343282863
  0.8909386996923435  0.2226891928248176  0.3275063502921511
  0.2227479678036071  0.5525564520034498  0.3275371343282863
  0.5553603631306487  0.5553604311306473  0.2766498879960489
  0.8908363046214917  0.5526312252720621  0.3275257655492146
  0.2226892258248168  0.8909386366923419  0.3275063502921511
  0.5526312362720666  0.8908362916214870  0.3275257655492146
  0.8887375085544059  0.8887374935544011  0.3280897753870961
  0.9995032989207331  0.9995032989207331  0.4875704735367120
  0.1118720222553809  0.1118720202553808  0.6562144446320978
  0.3330449795506605 -0.0002014484447629  0.4875401439708995
  0.4452586162783854  0.1117258531816223  0.6561421508557308
  0.6670389921913187  0.9996089915838008  0.4875536853745543
  0.7791173380732060  0.1099329257632496  0.6537706183268610
 -0.0002014574447601  0.3330449985506656  0.4875401439708995
  0.1117258561816190  0.4452585722783818  0.6561421508557308
  0.3331624440932862  0.3331624720932885  0.4875711397167848
  0.4443894157527974  0.4443894087528004  0.6537633189455202
  0.6640078396273664  0.3383406182892944  0.4836763126938003
  0.7793158428071524  0.4438122618144721  0.6538527115130340
  0.9996089825838036  0.6670390101913131  0.4875536853745543
  0.1099329567632486  0.7791173550732039  0.6537706183268610
  0.3383405512892924  0.6640078676273616  0.4836763126938003
  0.4438122968144715  0.7793157798071508  0.6538527115130340
  0.6640208302320427  0.6640208192320383  0.4837202614259047
  0.7784029670916840  0.7784029540916794  0.6538863378996126
  0.0003978719245581  0.0003978719245581  0.2990248243202725
 -0.0001214633833054 -0.0001214633833054  0.7035874540248717
  0.2220925839289577  0.2220925809289610  0.4311625025407673
  0.1107450346018917  0.1107450326018915  0.5520737475015760
  0.3320589089479234  0.0018946953014196  0.2969351862964648
  0.3347260928366858  0.9992435163331366  0.7043961208852185
  0.5550415019822587  0.2209862391951296  0.4309331378721900
  0.4447236250939343  0.1107951160393190  0.5520084221864732
  0.6654244878002035  0.0004216876484789  0.2990668988605154
  0.6687934544491588 -0.0007467369350312  0.7036571933511080
  0.8903725336838646  0.2206462079419067  0.4308934037282764
  0.7762826888084713  0.1137030659678189  0.5502129855811789
  0.0018946863014224  0.3320589279479286  0.2969351862964648
  0.9992435073331394  0.3347261118366838  0.7043961208852185
  0.2209862311951290  0.5550415199822530  0.4309331378721900
  0.1107951190393157  0.4447235810939306  0.5520084221864732
  0.3321544219719881  0.3321544499719903  0.2967793250186884
  0.3343702129059057  0.3343702409059080  0.7044679456777432
  0.5555287374174521  0.5555288054174506  0.4288111923519001
  0.4443135020434966  0.4443134950434995  0.5505427682132421
  0.6612686310802802  0.3437587947657346  0.3096021220164255
  0.6672948461440681  0.3329522169987142  0.7018248879822421
  0.8903798699123343  0.5549669160316877  0.4309608444653968
  0.7777818636649758  0.4442420709733985  0.5505872382645307
  0.0004216786484817  0.6654245058001979  0.2990668988605154
 -0.0007467459350284  0.6687934724491532  0.7036571933511080
  0.2206462409419059  0.8903724706838629  0.4308934037282764
  0.1137030969678179  0.7762827058084691  0.5502129855811789
  0.3437587277657326  0.6612686590802754  0.3096021220164255
  0.3329521499987123  0.6672948741440633  0.7018248879822421
  0.5549669270316921  0.8903798569123297  0.4309608444653968
  0.4442421059733979  0.7777818006649742  0.5505872382645307
  0.6612432008565475  0.6612431898565430  0.3095632793814319
  0.6668591109231230  0.6668590999231185  0.7018441714657460
  0.8887433507100210  0.8887433357100162  0.4310564353381615
  0.7762999234717833  0.7762999104717787  0.5503002547471514
  0.5552926935156213  0.5552826805156206  0.2123802942075464
 
  0.00000000E+00  0.00000000E+00  0.00000000E+00
  0.00000000E+00  0.00000000E+00  0.00000000E+00
  0.00000000E+00  0.00000000E+00  0.00000000E+00
  0.00000000E+00  0.00000000E+00  0.00000000E+00
  0.00000000E+00  0.00000000E+00  0.00000000E+00
  0.00000000E+00  0.00000000E+00  0.00000000E+00
  0.00000000E+00  0.00000000E+00  0.00000000E+00
  0.00000000E+00  0.00000000E+00  0.00000000E+00
  0.00000000E+00  0.00000000E+00  0.00000000E+00
  0.00000000E+00  0.00000000E+00  0.00000000E+00
  0.00000000E+00  0.00000000E+00  0.00000000E+00
  0.00000000E+00  0.00000000E+00  0.00000000E+00
  0.00000000E+00  0.00000000E+00  0.00000000E+00
  0.00000000E+00  0.00000000E+00  0.00000000E+00
  0.00000000E+00  0.00000000E+00  0.00000000E+00
  0.00000000E+00  0.00000000E+00  0.00000000E+00
  0.00000000E+00  0.00000000E+00  0.00000000E+00
  0.00000000E+00  0.00000000E+00  0.00000000E+00
  0.00000000E+00  0.00000000E+00  0.00000000E+00
  0.00000000E+00  0.00000000E+00  0.00000000E+00
  0.00000000E+00  0.00000000E+00  0.00000000E+00
  0.00000000E+00  0.00000000E+00  0.00000000E+00
  0.00000000E+00  0.00000000E+00  0.00000000E+00
  0.00000000E+00  0.00000000E+00  0.00000000E+00
  0.00000000E+00  0.00000000E+00  0.00000000E+00
  0.00000000E+00  0.00000000E+00  0.00000000E+00
  0.00000000E+00  0.00000000E+00  0.00000000E+00
  0.00000000E+00  0.00000000E+00  0.00000000E+00
  0.00000000E+00  0.00000000E+00  0.00000000E+00
  0.00000000E+00  0.00000000E+00  0.00000000E+00
  0.00000000E+00  0.00000000E+00  0.00000000E+00
  0.00000000E+00  0.00000000E+00  0.00000000E+00
  0.00000000E+00  0.00000000E+00  0.00000000E+00
  0.00000000E+00  0.00000000E+00  0.00000000E+00
  0.00000000E+00  0.00000000E+00  0.00000000E+00
  0.00000000E+00  0.00000000E+00  0.00000000E+00
  0.00000000E+00  0.00000000E+00  0.00000000E+00
  0.00000000E+00  0.00000000E+00  0.00000000E+00
  0.00000000E+00  0.00000000E+00  0.00000000E+00
  0.00000000E+00  0.00000000E+00  0.00000000E+00
  0.00000000E+00  0.00000000E+00  0.00000000E+00
  0.00000000E+00  0.00000000E+00  0.00000000E+00
  0.00000000E+00  0.00000000E+00  0.00000000E+00
  0.00000000E+00  0.00000000E+00  0.00000000E+00
  0.00000000E+00  0.00000000E+00  0.00000000E+00
  0.00000000E+00  0.00000000E+00  0.00000000E+00
  0.00000000E+00  0.00000000E+00  0.00000000E+00
  0.00000000E+00  0.00000000E+00  0.00000000E+00
  0.00000000E+00  0.00000000E+00  0.00000000E+00
  0.00000000E+00  0.00000000E+00  0.00000000E+00
  0.00000000E+00  0.00000000E+00  0.00000000E+00
  0.00000000E+00  0.00000000E+00  0.00000000E+00
  0.00000000E+00  0.00000000E+00  0.00000000E+00
  0.00000000E+00  0.00000000E+00  0.00000000E+00
  0.00000000E+00  0.00000000E+00  0.00000000E+00
  0.00000000E+00  0.00000000E+00  0.00000000E+00
  0.00000000E+00  0.00000000E+00  0.00000000E+00
  0.00000000E+00  0.00000000E+00  0.00000000E+00
  0.00000000E+00  0.00000000E+00  0.00000000E+00
  0.00000000E+00  0.00000000E+00  0.00000000E+00
  0.00000000E+00  0.00000000E+00  0.00000000E+00
  0.00000000E+00  0.00000000E+00  0.00000000E+00
  0.00000000E+00  0.00000000E+00  0.00000000E+00
  0.00000000E+00  0.00000000E+00  0.00000000E+00
