SYSTEM =gra_geo_opt
PREC=Normal
ENCUT = 400
ISTART = 0
ICHARG = 2
EDIFF = 1E-05
LREAL = Auto
EDIFFG = -2E-02
#NSW =1000
IBRION =-1
ISIF = 2
ISMEAR = 0
MAGMOM = 16*3 35*-1
SIGMA =0.2
SYMPREC=1E-04
GGA = PE
ALGO=Normal
ISPIN = 2
NCORE=4
NELM=150
LWAVE=.FALSE.
#LCHARG=.FALSE.
LAECHG=.TRUE.
IVDW=11

