CONTCAR\(9)                             
   1.00000000000000     
    13.5033998488999991    0.0000000000000000    0.0000000000000000
     0.0000000000000000   19.6100006104000002    0.0000000000000000
     0.0000000000000000    0.0000000000000000   18.7679004668999987
   Nb   Se   O 
    32    48     1
Direct
  0.0651496115567623  0.4361652779936556  0.4996038633347435
  0.1862410423020993  0.0634387188500675  0.4976080265509673
  0.0624393817921205  0.2808657705686503  0.4474912134466776
  0.1878246495864371  0.2193910959899175  0.5492842089439349
  0.3156092476401002  0.4364995169105637  0.4993147750465188
  0.4374614263680281  0.0634473497517286  0.4975184740896259
  0.3123754582226654  0.2805148837648350  0.4477562279203062
  0.4372678426650390  0.2190523883382140  0.5495349180293320
  0.5591741409516238  0.4364832222168861  0.4994024419698331
  0.6882842564617030  0.0634380143859467  0.4978332176551734
  0.5622253680731260  0.2805389234906446  0.4478843917368738
  0.6865924885939145  0.2193633263219617  0.5494283460729036
  0.8092272234870632  0.4361957579165917  0.4996790975796318
  0.9374069715229542  0.0633385810869397  0.4979645060485691
  0.8121222619502173  0.2808695035563269  0.4475029669090965
  0.9372220426592702  0.2194698120889381  0.5491524419096466
  0.0613283892130776  0.9371136610724897  0.4984958794965149
  0.1853134110709135  0.5631253339959400  0.5003030888556557
  0.0610899567657330  0.7804722000755049  0.4489630607726398
  0.1892208207569469  0.7205921658956411  0.5540996358287635
  0.3129326944281935  0.9374234089723968  0.4985553548335640
  0.4372086417792448  0.5642608931845601  0.5030851595173289
  0.3031441909418115  0.7809127337575344  0.4522153678508385
  0.4374874811177467  0.7181584728209970  0.5942694249197206
  0.5624966139259915  0.9374724850530384  0.4985946501681507
  0.6895401568771464  0.5630918543745433  0.5006038919699062
  0.5719459204721835  0.7808080696473234  0.4521624496147310
  0.6854842614599294  0.7204677312160942  0.5541717146623503
  0.8131599627679537  0.9371723369884425  0.4985467220473463
  0.9373519049134751  0.5636288309386510  0.4998463493670063
  0.8138225936229301  0.7803188275254795  0.4490522980921859
  0.9373159498649326  0.7199733380702249  0.5513296104838591
  0.0617100492721539  0.0278458008175035  0.3996888584491590
  0.1881040437915125  0.4701054094099829  0.5973268570174906
  0.0623559626680289  0.1248054272495180  0.5916864829410909
  0.1881783494260886  0.3757017592531766  0.4052844703040989
  0.1872553544882261  0.1841976056314999  0.4165415138063174
  0.0624676990861371  0.3156411286028833  0.5804920851865213
  0.3123903897576394  0.0284633207090304  0.4000757646398116
  0.4373422047778414  0.4709694060868858  0.5994873227783487
  0.3119454638675869  0.1244729322892407  0.5916082021980157
  0.4373225238025609  0.3760029241160622  0.4050106084043529
  0.4373498950133472  0.1842686045119110  0.4165408130095282
  0.3126461221916721  0.3156765913931865  0.5805283691559814
  0.5624516249799227  0.0285133970930925  0.4000582208991258
  0.6864539118591531  0.4700538689496419  0.5976071866408363
  0.5624315202262562  0.1245300458371706  0.5919239057645517
  0.6864660493453920  0.3758271413546136  0.4054588384822498
  0.6872381340591137  0.1842240386228280  0.4166761623509382
  0.5617688534724635  0.3157267435723881  0.5806708094876051
  0.8127560123652474  0.0281236152604499  0.3998372445012132
  0.9372828081936211  0.4701908439967302  0.5958324670938409
  0.8122108452619180  0.1247776931978292  0.5916647308267117
  0.9372763916829107  0.3753683738873870  0.4058240417264585
  0.9372705633189188  0.1844728845801993  0.4163908635849661
  0.8119974120983501  0.3155881671885820  0.5804261196844723
  0.0622859869558685  0.5277261665402468  0.4018201877046746
  0.1863917336062332  0.9722372608868430  0.5959718829288905
  0.0613776143163326  0.6238694423496824  0.5927716855327813
  0.1877876924536631  0.8749952547644418  0.4038854349250509
  0.1850621110407905  0.6833451287252360  0.4210637475040950
  0.0615957115629839  0.8167773405318652  0.5815547816704090
  0.3135945873208256  0.5306459728358568  0.4034768357216121
  0.4376490519226422  0.9732493874193034  0.5961590549668491
  0.3061602597469589  0.6193453682749541  0.5973304655769930
  0.4377251222601373  0.8717879720309641  0.4106834751191944
  0.4373726599246069  0.6888956100204086  0.4365825507983480
  0.3098743921804716  0.8203295185483097  0.5806720520212216
  0.5612800013043463  0.5308378849259782  0.4037972286923572
  0.6884589817875257  0.9723694788019616  0.5963534026928449
  0.5684113633802691  0.6192483390745078  0.5974556524836826
  0.6874773844508492  0.8749906243232939  0.4038740144624136
  0.6898285047448801  0.6831021248580131  0.4210876658860944
  0.5651004403477927  0.8203725174829252  0.5806376427552540
  0.8122098069917572  0.5278195590606629  0.4019259674348554
  0.9374217962797602  0.9721331473370439  0.5965808428138831
  0.8135034205622441  0.6238235320377506  0.5930430509143284
  0.9373057383124955  0.8748643092953847  0.4050423244958124
  0.9375470405834320  0.6840132218600059  0.4184874673097787
  0.8130356633714277  0.8167642590543170  0.5817070179224539
  0.4373545847742976  0.7234238905275581  0.6858007570080191
 
  0.00000000E+00  0.00000000E+00  0.00000000E+00
  0.00000000E+00  0.00000000E+00  0.00000000E+00
  0.00000000E+00  0.00000000E+00  0.00000000E+00
  0.00000000E+00  0.00000000E+00  0.00000000E+00
  0.00000000E+00  0.00000000E+00  0.00000000E+00
  0.00000000E+00  0.00000000E+00  0.00000000E+00
  0.00000000E+00  0.00000000E+00  0.00000000E+00
  0.00000000E+00  0.00000000E+00  0.00000000E+00
  0.00000000E+00  0.00000000E+00  0.00000000E+00
  0.00000000E+00  0.00000000E+00  0.00000000E+00
  0.00000000E+00  0.00000000E+00  0.00000000E+00
  0.00000000E+00  0.00000000E+00  0.00000000E+00
  0.00000000E+00  0.00000000E+00  0.00000000E+00
  0.00000000E+00  0.00000000E+00  0.00000000E+00
  0.00000000E+00  0.00000000E+00  0.00000000E+00
  0.00000000E+00  0.00000000E+00  0.00000000E+00
  0.00000000E+00  0.00000000E+00  0.00000000E+00
  0.00000000E+00  0.00000000E+00  0.00000000E+00
  0.00000000E+00  0.00000000E+00  0.00000000E+00
  0.00000000E+00  0.00000000E+00  0.00000000E+00
  0.00000000E+00  0.00000000E+00  0.00000000E+00
  0.00000000E+00  0.00000000E+00  0.00000000E+00
  0.00000000E+00  0.00000000E+00  0.00000000E+00
  0.00000000E+00  0.00000000E+00  0.00000000E+00
  0.00000000E+00  0.00000000E+00  0.00000000E+00
  0.00000000E+00  0.00000000E+00  0.00000000E+00
  0.00000000E+00  0.00000000E+00  0.00000000E+00
  0.00000000E+00  0.00000000E+00  0.00000000E+00
  0.00000000E+00  0.00000000E+00  0.00000000E+00
  0.00000000E+00  0.00000000E+00  0.00000000E+00
  0.00000000E+00  0.00000000E+00  0.00000000E+00
  0.00000000E+00  0.00000000E+00  0.00000000E+00
  0.00000000E+00  0.00000000E+00  0.00000000E+00
  0.00000000E+00  0.00000000E+00  0.00000000E+00
  0.00000000E+00  0.00000000E+00  0.00000000E+00
  0.00000000E+00  0.00000000E+00  0.00000000E+00
  0.00000000E+00  0.00000000E+00  0.00000000E+00
  0.00000000E+00  0.00000000E+00  0.00000000E+00
  0.00000000E+00  0.00000000E+00  0.00000000E+00
  0.00000000E+00  0.00000000E+00  0.00000000E+00
  0.00000000E+00  0.00000000E+00  0.00000000E+00
  0.00000000E+00  0.00000000E+00  0.00000000E+00
  0.00000000E+00  0.00000000E+00  0.00000000E+00
  0.00000000E+00  0.00000000E+00  0.00000000E+00
  0.00000000E+00  0.00000000E+00  0.00000000E+00
  0.00000000E+00  0.00000000E+00  0.00000000E+00
  0.00000000E+00  0.00000000E+00  0.00000000E+00
  0.00000000E+00  0.00000000E+00  0.00000000E+00
  0.00000000E+00  0.00000000E+00  0.00000000E+00
  0.00000000E+00  0.00000000E+00  0.00000000E+00
  0.00000000E+00  0.00000000E+00  0.00000000E+00
  0.00000000E+00  0.00000000E+00  0.00000000E+00
  0.00000000E+00  0.00000000E+00  0.00000000E+00
  0.00000000E+00  0.00000000E+00  0.00000000E+00
  0.00000000E+00  0.00000000E+00  0.00000000E+00
  0.00000000E+00  0.00000000E+00  0.00000000E+00
  0.00000000E+00  0.00000000E+00  0.00000000E+00
  0.00000000E+00  0.00000000E+00  0.00000000E+00
  0.00000000E+00  0.00000000E+00  0.00000000E+00
  0.00000000E+00  0.00000000E+00  0.00000000E+00
  0.00000000E+00  0.00000000E+00  0.00000000E+00
  0.00000000E+00  0.00000000E+00  0.00000000E+00
  0.00000000E+00  0.00000000E+00  0.00000000E+00
  0.00000000E+00  0.00000000E+00  0.00000000E+00
  0.00000000E+00  0.00000000E+00  0.00000000E+00
  0.00000000E+00  0.00000000E+00  0.00000000E+00
  0.00000000E+00  0.00000000E+00  0.00000000E+00
  0.00000000E+00  0.00000000E+00  0.00000000E+00
  0.00000000E+00  0.00000000E+00  0.00000000E+00
  0.00000000E+00  0.00000000E+00  0.00000000E+00
  0.00000000E+00  0.00000000E+00  0.00000000E+00
  0.00000000E+00  0.00000000E+00  0.00000000E+00
  0.00000000E+00  0.00000000E+00  0.00000000E+00
  0.00000000E+00  0.00000000E+00  0.00000000E+00
  0.00000000E+00  0.00000000E+00  0.00000000E+00
  0.00000000E+00  0.00000000E+00  0.00000000E+00
  0.00000000E+00  0.00000000E+00  0.00000000E+00
  0.00000000E+00  0.00000000E+00  0.00000000E+00
  0.00000000E+00  0.00000000E+00  0.00000000E+00
  0.00000000E+00  0.00000000E+00  0.00000000E+00
  0.00000000E+00  0.00000000E+00  0.00000000E+00
