CONTCAR\(10)                            
   1.00000000000000     
    11.1955995559999995    0.0000000000000000    0.0000000000000000
    -5.5977997779999997    9.6956736260999996    0.0000000000000000
     0.0000000000000000    0.0000000000000000   18.4459991455000001
   Ti   Te   O    H 
     9    18     1     1
Selective dynamics
Direct
  0.0000240826735052  0.9999573742497105  0.4990323952995368   F   F   F
  0.3318565046875719  0.9963813124986061  0.4985924911523014   F   F   F
  0.6646540783166586  0.9964237708577954  0.4985507191346983   F   F   F
  0.0035429941733369  0.3353741661646978  0.4985679756034784   F   F   F
  0.3318933109725748  0.3354050098417645  0.4985417706486501   F   F   F
  0.6666960661953780  0.3333228189842217  0.4969169208826969   F   F   F
  0.0036116872022305  0.6681174530071203  0.4985962245888587   F   F   F
  0.3333347775117943  0.6666588631128718  0.4952060746852140   F   F   F
  0.6645920641564089  0.6680847880935232  0.4985386496541437   F   F   F
  0.2233885842473171  0.1116758047367270  0.5933888838032928   F   F   F
  0.1103343281976734  0.2206031672281270  0.4026127220046902   F   F   F
  0.5563480883922054  0.1125301682181075  0.5927118658184085   F   F   F
  0.4420750142088892  0.2209979070209300  0.4033495391070119   F   F   F
  0.8883393570369691  0.1116576693384417  0.5933834578923154   F   F   F
  0.7789782735929194  0.2210275529759897  0.4033408490468346   F   F   F
  0.2244887623521095  0.4489851364862574  0.5931102484758952   F   F   F
  0.1092738985987438  0.5546184191904757  0.4014434096805815   F   F   F
  0.5562612152380169  0.4437639139003622  0.5927253810225892   F   F   F
  0.4453786583226957  0.5546138423113760  0.4014219220297193   F   F   F
  0.8875634474899243  0.4436947477833755  0.5927278929568374   F   F   F
  0.7790087151189553  0.5578978147872320  0.4033550724216894   F   F   F
  0.2245892262803295  0.7754173608020238  0.5931726665956845   F   F   F
  0.1103523910314266  0.8896490130891124  0.4026045090002484   F   F   F
  0.5510061473240668  0.7754952988163879  0.5931107387824355   F   F   F
  0.4453799412042230  0.8907241890526052  0.4014466791961979   F   F   F
  0.8883322763482155  0.7766051204290605  0.5933836277480111   F   F   F
  0.7793937643067466  0.8896599334012052  0.4026154833696225   F   F   F
  0.3329412018051627  0.6670606801560055  0.6860184278571992   T   T   T
  0.3326814420139499  0.6673374594658555  0.7384006680732919   T   T   T
 
  0.00000000E+00  0.00000000E+00  0.00000000E+00
  0.00000000E+00  0.00000000E+00  0.00000000E+00
  0.00000000E+00  0.00000000E+00  0.00000000E+00
  0.00000000E+00  0.00000000E+00  0.00000000E+00
  0.00000000E+00  0.00000000E+00  0.00000000E+00
  0.00000000E+00  0.00000000E+00  0.00000000E+00
  0.00000000E+00  0.00000000E+00  0.00000000E+00
  0.00000000E+00  0.00000000E+00  0.00000000E+00
  0.00000000E+00  0.00000000E+00  0.00000000E+00
  0.00000000E+00  0.00000000E+00  0.00000000E+00
  0.00000000E+00  0.00000000E+00  0.00000000E+00
  0.00000000E+00  0.00000000E+00  0.00000000E+00
  0.00000000E+00  0.00000000E+00  0.00000000E+00
  0.00000000E+00  0.00000000E+00  0.00000000E+00
  0.00000000E+00  0.00000000E+00  0.00000000E+00
  0.00000000E+00  0.00000000E+00  0.00000000E+00
  0.00000000E+00  0.00000000E+00  0.00000000E+00
  0.00000000E+00  0.00000000E+00  0.00000000E+00
  0.00000000E+00  0.00000000E+00  0.00000000E+00
  0.00000000E+00  0.00000000E+00  0.00000000E+00
  0.00000000E+00  0.00000000E+00  0.00000000E+00
  0.00000000E+00  0.00000000E+00  0.00000000E+00
  0.00000000E+00  0.00000000E+00  0.00000000E+00
  0.00000000E+00  0.00000000E+00  0.00000000E+00
  0.00000000E+00  0.00000000E+00  0.00000000E+00
  0.00000000E+00  0.00000000E+00  0.00000000E+00
  0.00000000E+00  0.00000000E+00  0.00000000E+00
  0.00000000E+00  0.00000000E+00  0.00000000E+00
  0.00000000E+00  0.00000000E+00  0.00000000E+00
