G   48   48    1    0.005     # Parameters to Generate KPOINTS (Don't Edit This Line)
     325
Reciprocal lattice
    0.000000000000    0.000000000000    0.000000000000       1
    0.020833333333    0.000000000000    0.000000000000       4
    0.041666666667    0.000000000000    0.000000000000       4
    0.062500000000    0.000000000000    0.000000000000       4
    0.083333333333    0.000000000000    0.000000000000       4
    0.104166666667    0.000000000000    0.000000000000       4
    0.125000000000    0.000000000000    0.000000000000       4
    0.145833333333    0.000000000000    0.000000000000       4
    0.166666666667    0.000000000000    0.000000000000       4
    0.187500000000    0.000000000000    0.000000000000       4
    0.208333333333    0.000000000000    0.000000000000       4
    0.229166666667    0.000000000000    0.000000000000       4
    0.250000000000    0.000000000000    0.000000000000       4
    0.270833333333    0.000000000000    0.000000000000       4
    0.291666666667    0.000000000000    0.000000000000       4
    0.312500000000    0.000000000000    0.000000000000       4
    0.333333333333    0.000000000000    0.000000000000       4
    0.354166666667    0.000000000000    0.000000000000       4
    0.375000000000    0.000000000000    0.000000000000       4
    0.395833333333    0.000000000000    0.000000000000       4
    0.416666666667    0.000000000000    0.000000000000       4
    0.437500000000    0.000000000000    0.000000000000       4
    0.458333333333    0.000000000000    0.000000000000       4
    0.479166666667    0.000000000000    0.000000000000       4
    0.500000000000    0.000000000000    0.000000000000       2
    0.020833333333    0.020833333333    0.000000000000       4
    0.041666666667    0.020833333333    0.000000000000       8
    0.062500000000    0.020833333333    0.000000000000       8
    0.083333333333    0.020833333333    0.000000000000       8
    0.104166666667    0.020833333333    0.000000000000       8
    0.125000000000    0.020833333333    0.000000000000       8
    0.145833333333    0.020833333333    0.000000000000       8
    0.166666666667    0.020833333333    0.000000000000       8
    0.187500000000    0.020833333333    0.000000000000       8
    0.208333333333    0.020833333333    0.000000000000       8
    0.229166666667    0.020833333333    0.000000000000       8
    0.250000000000    0.020833333333    0.000000000000       8
    0.270833333333    0.020833333333    0.000000000000       8
    0.291666666667    0.020833333333    0.000000000000       8
    0.312500000000    0.020833333333    0.000000000000       8
    0.333333333333    0.020833333333    0.000000000000       8
    0.354166666667    0.020833333333    0.000000000000       8
    0.375000000000    0.020833333333    0.000000000000       8
    0.395833333333    0.020833333333    0.000000000000       8
    0.416666666667    0.020833333333    0.000000000000       8
    0.437500000000    0.020833333333    0.000000000000       8
    0.458333333333    0.020833333333    0.000000000000       8
    0.479166666667    0.020833333333    0.000000000000       8
    0.500000000000    0.020833333333    0.000000000000       4
    0.041666666667    0.041666666667    0.000000000000       4
    0.062500000000    0.041666666667    0.000000000000       8
    0.083333333333    0.041666666667    0.000000000000       8
    0.104166666667    0.041666666667    0.000000000000       8
    0.125000000000    0.041666666667    0.000000000000       8
    0.145833333333    0.041666666667    0.000000000000       8
    0.166666666667    0.041666666667    0.000000000000       8
    0.187500000000    0.041666666667    0.000000000000       8
    0.208333333333    0.041666666667    0.000000000000       8
    0.229166666667    0.041666666667    0.000000000000       8
    0.250000000000    0.041666666667    0.000000000000       8
    0.270833333333    0.041666666667    0.000000000000       8
    0.291666666667    0.041666666667    0.000000000000       8
    0.312500000000    0.041666666667    0.000000000000       8
    0.333333333333    0.041666666667    0.000000000000       8
    0.354166666667    0.041666666667    0.000000000000       8
    0.375000000000    0.041666666667    0.000000000000       8
    0.395833333333    0.041666666667    0.000000000000       8
    0.416666666667    0.041666666667    0.000000000000       8
    0.437500000000    0.041666666667    0.000000000000       8
    0.458333333333    0.041666666667    0.000000000000       8
    0.479166666667    0.041666666667    0.000000000000       8
    0.500000000000    0.041666666667    0.000000000000       4
    0.062500000000    0.062500000000    0.000000000000       4
    0.083333333333    0.062500000000    0.000000000000       8
    0.104166666667    0.062500000000    0.000000000000       8
    0.125000000000    0.062500000000    0.000000000000       8
    0.145833333333    0.062500000000    0.000000000000       8
    0.166666666667    0.062500000000    0.000000000000       8
    0.187500000000    0.062500000000    0.000000000000       8
    0.208333333333    0.062500000000    0.000000000000       8
    0.229166666667    0.062500000000    0.000000000000       8
    0.250000000000    0.062500000000    0.000000000000       8
    0.270833333333    0.062500000000    0.000000000000       8
    0.291666666667    0.062500000000    0.000000000000       8
    0.312500000000    0.062500000000    0.000000000000       8
    0.333333333333    0.062500000000    0.000000000000       8
    0.354166666667    0.062500000000    0.000000000000       8
    0.375000000000    0.062500000000    0.000000000000       8
    0.395833333333    0.062500000000    0.000000000000       8
    0.416666666667    0.062500000000    0.000000000000       8
    0.437500000000    0.062500000000    0.000000000000       8
    0.458333333333    0.062500000000    0.000000000000       8
    0.479166666667    0.062500000000    0.000000000000       8
    0.500000000000    0.062500000000    0.000000000000       4
    0.083333333333    0.083333333333    0.000000000000       4
    0.104166666667    0.083333333333    0.000000000000       8
    0.125000000000    0.083333333333    0.000000000000       8
    0.145833333333    0.083333333333    0.000000000000       8
    0.166666666667    0.083333333333    0.000000000000       8
    0.187500000000    0.083333333333    0.000000000000       8
    0.208333333333    0.083333333333    0.000000000000       8
    0.229166666667    0.083333333333    0.000000000000       8
    0.250000000000    0.083333333333    0.000000000000       8
    0.270833333333    0.083333333333    0.000000000000       8
    0.291666666667    0.083333333333    0.000000000000       8
    0.312500000000    0.083333333333    0.000000000000       8
    0.333333333333    0.083333333333    0.000000000000       8
    0.354166666667    0.083333333333    0.000000000000       8
    0.375000000000    0.083333333333    0.000000000000       8
    0.395833333333    0.083333333333    0.000000000000       8
    0.416666666667    0.083333333333    0.000000000000       8
    0.437500000000    0.083333333333    0.000000000000       8
    0.458333333333    0.083333333333    0.000000000000       8
    0.479166666667    0.083333333333    0.000000000000       8
    0.500000000000    0.083333333333    0.000000000000       4
    0.104166666667    0.104166666667    0.000000000000       4
    0.125000000000    0.104166666667    0.000000000000       8
    0.145833333333    0.104166666667    0.000000000000       8
    0.166666666667    0.104166666667    0.000000000000       8
    0.187500000000    0.104166666667    0.000000000000       8
    0.208333333333    0.104166666667    0.000000000000       8
    0.229166666667    0.104166666667    0.000000000000       8
    0.250000000000    0.104166666667    0.000000000000       8
    0.270833333333    0.104166666667    0.000000000000       8
    0.291666666667    0.104166666667    0.000000000000       8
    0.312500000000    0.104166666667    0.000000000000       8
    0.333333333333    0.104166666667    0.000000000000       8
    0.354166666667    0.104166666667    0.000000000000       8
    0.375000000000    0.104166666667    0.000000000000       8
    0.395833333333    0.104166666667    0.000000000000       8
    0.416666666667    0.104166666667    0.000000000000       8
    0.437500000000    0.104166666667    0.000000000000       8
    0.458333333333    0.104166666667    0.000000000000       8
    0.479166666667    0.104166666667    0.000000000000       8
    0.500000000000    0.104166666667    0.000000000000       4
    0.125000000000    0.125000000000    0.000000000000       4
    0.145833333333    0.125000000000    0.000000000000       8
    0.166666666667    0.125000000000    0.000000000000       8
    0.187500000000    0.125000000000    0.000000000000       8
    0.208333333333    0.125000000000    0.000000000000       8
    0.229166666667    0.125000000000    0.000000000000       8
    0.250000000000    0.125000000000    0.000000000000       8
    0.270833333333    0.125000000000    0.000000000000       8
    0.291666666667    0.125000000000    0.000000000000       8
    0.312500000000    0.125000000000    0.000000000000       8
    0.333333333333    0.125000000000    0.000000000000       8
    0.354166666667    0.125000000000    0.000000000000       8
    0.375000000000    0.125000000000    0.000000000000       8
    0.395833333333    0.125000000000    0.000000000000       8
    0.416666666667    0.125000000000    0.000000000000       8
    0.437500000000    0.125000000000    0.000000000000       8
    0.458333333333    0.125000000000    0.000000000000       8
    0.479166666667    0.125000000000    0.000000000000       8
    0.500000000000    0.125000000000    0.000000000000       4
    0.145833333333    0.145833333333    0.000000000000       4
    0.166666666667    0.145833333333    0.000000000000       8
    0.187500000000    0.145833333333    0.000000000000       8
    0.208333333333    0.145833333333    0.000000000000       8
    0.229166666667    0.145833333333    0.000000000000       8
    0.250000000000    0.145833333333    0.000000000000       8
    0.270833333333    0.145833333333    0.000000000000       8
    0.291666666667    0.145833333333    0.000000000000       8
    0.312500000000    0.145833333333    0.000000000000       8
    0.333333333333    0.145833333333    0.000000000000       8
    0.354166666667    0.145833333333    0.000000000000       8
    0.375000000000    0.145833333333    0.000000000000       8
    0.395833333333    0.145833333333    0.000000000000       8
    0.416666666667    0.145833333333    0.000000000000       8
    0.437500000000    0.145833333333    0.000000000000       8
    0.458333333333    0.145833333333    0.000000000000       8
    0.479166666667    0.145833333333    0.000000000000       8
    0.500000000000    0.145833333333    0.000000000000       4
    0.166666666667    0.166666666667    0.000000000000       4
    0.187500000000    0.166666666667    0.000000000000       8
    0.208333333333    0.166666666667    0.000000000000       8
    0.229166666667    0.166666666667    0.000000000000       8
    0.250000000000    0.166666666667    0.000000000000       8
    0.270833333333    0.166666666667    0.000000000000       8
    0.291666666667    0.166666666667    0.000000000000       8
    0.312500000000    0.166666666667    0.000000000000       8
    0.333333333333    0.166666666667    0.000000000000       8
    0.354166666667    0.166666666667    0.000000000000       8
    0.375000000000    0.166666666667    0.000000000000       8
    0.395833333333    0.166666666667    0.000000000000       8
    0.416666666667    0.166666666667    0.000000000000       8
    0.437500000000    0.166666666667    0.000000000000       8
    0.458333333333    0.166666666667    0.000000000000       8
    0.479166666667    0.166666666667    0.000000000000       8
    0.500000000000    0.166666666667    0.000000000000       4
    0.187500000000    0.187500000000    0.000000000000       4
    0.208333333333    0.187500000000    0.000000000000       8
    0.229166666667    0.187500000000    0.000000000000       8
    0.250000000000    0.187500000000    0.000000000000       8
    0.270833333333    0.187500000000    0.000000000000       8
    0.291666666667    0.187500000000    0.000000000000       8
    0.312500000000    0.187500000000    0.000000000000       8
    0.333333333333    0.187500000000    0.000000000000       8
    0.354166666667    0.187500000000    0.000000000000       8
    0.375000000000    0.187500000000    0.000000000000       8
    0.395833333333    0.187500000000    0.000000000000       8
    0.416666666667    0.187500000000    0.000000000000       8
    0.437500000000    0.187500000000    0.000000000000       8
    0.458333333333    0.187500000000    0.000000000000       8
    0.479166666667    0.187500000000    0.000000000000       8
    0.500000000000    0.187500000000    0.000000000000       4
    0.208333333333    0.208333333333    0.000000000000       4
    0.229166666667    0.208333333333    0.000000000000       8
    0.250000000000    0.208333333333    0.000000000000       8
    0.270833333333    0.208333333333    0.000000000000       8
    0.291666666667    0.208333333333    0.000000000000       8
    0.312500000000    0.208333333333    0.000000000000       8
    0.333333333333    0.208333333333    0.000000000000       8
    0.354166666667    0.208333333333    0.000000000000       8
    0.375000000000    0.208333333333    0.000000000000       8
    0.395833333333    0.208333333333    0.000000000000       8
    0.416666666667    0.208333333333    0.000000000000       8
    0.437500000000    0.208333333333    0.000000000000       8
    0.458333333333    0.208333333333    0.000000000000       8
    0.479166666667    0.208333333333    0.000000000000       8
    0.500000000000    0.208333333333    0.000000000000       4
    0.229166666667    0.229166666667    0.000000000000       4
    0.250000000000    0.229166666667    0.000000000000       8
    0.270833333333    0.229166666667    0.000000000000       8
    0.291666666667    0.229166666667    0.000000000000       8
    0.312500000000    0.229166666667    0.000000000000       8
    0.333333333333    0.229166666667    0.000000000000       8
    0.354166666667    0.229166666667    0.000000000000       8
    0.375000000000    0.229166666667    0.000000000000       8
    0.395833333333    0.229166666667    0.000000000000       8
    0.416666666667    0.229166666667    0.000000000000       8
    0.437500000000    0.229166666667    0.000000000000       8
    0.458333333333    0.229166666667    0.000000000000       8
    0.479166666667    0.229166666667    0.000000000000       8
    0.500000000000    0.229166666667    0.000000000000       4
    0.250000000000    0.250000000000    0.000000000000       4
    0.270833333333    0.250000000000    0.000000000000       8
    0.291666666667    0.250000000000    0.000000000000       8
    0.312500000000    0.250000000000    0.000000000000       8
    0.333333333333    0.250000000000    0.000000000000       8
    0.354166666667    0.250000000000    0.000000000000       8
    0.375000000000    0.250000000000    0.000000000000       8
    0.395833333333    0.250000000000    0.000000000000       8
    0.416666666667    0.250000000000    0.000000000000       8
    0.437500000000    0.250000000000    0.000000000000       8
    0.458333333333    0.250000000000    0.000000000000       8
    0.479166666667    0.250000000000    0.000000000000       8
    0.500000000000    0.250000000000    0.000000000000       4
    0.270833333333    0.270833333333    0.000000000000       4
    0.291666666667    0.270833333333    0.000000000000       8
    0.312500000000    0.270833333333    0.000000000000       8
    0.333333333333    0.270833333333    0.000000000000       8
    0.354166666667    0.270833333333    0.000000000000       8
    0.375000000000    0.270833333333    0.000000000000       8
    0.395833333333    0.270833333333    0.000000000000       8
    0.416666666667    0.270833333333    0.000000000000       8
    0.437500000000    0.270833333333    0.000000000000       8
    0.458333333333    0.270833333333    0.000000000000       8
    0.479166666667    0.270833333333    0.000000000000       8
    0.500000000000    0.270833333333    0.000000000000       4
    0.291666666667    0.291666666667    0.000000000000       4
    0.312500000000    0.291666666667    0.000000000000       8
    0.333333333333    0.291666666667    0.000000000000       8
    0.354166666667    0.291666666667    0.000000000000       8
    0.375000000000    0.291666666667    0.000000000000       8
    0.395833333333    0.291666666667    0.000000000000       8
    0.416666666667    0.291666666667    0.000000000000       8
    0.437500000000    0.291666666667    0.000000000000       8
    0.458333333333    0.291666666667    0.000000000000       8
    0.479166666667    0.291666666667    0.000000000000       8
    0.500000000000    0.291666666667    0.000000000000       4
    0.312500000000    0.312500000000    0.000000000000       4
    0.333333333333    0.312500000000    0.000000000000       8
    0.354166666667    0.312500000000    0.000000000000       8
    0.375000000000    0.312500000000    0.000000000000       8
    0.395833333333    0.312500000000    0.000000000000       8
    0.416666666667    0.312500000000    0.000000000000       8
    0.437500000000    0.312500000000    0.000000000000       8
    0.458333333333    0.312500000000    0.000000000000       8
    0.479166666667    0.312500000000    0.000000000000       8
    0.500000000000    0.312500000000    0.000000000000       4
    0.333333333333    0.333333333333    0.000000000000       4
    0.354166666667    0.333333333333    0.000000000000       8
    0.375000000000    0.333333333333    0.000000000000       8
    0.395833333333    0.333333333333    0.000000000000       8
    0.416666666667    0.333333333333    0.000000000000       8
    0.437500000000    0.333333333333    0.000000000000       8
    0.458333333333    0.333333333333    0.000000000000       8
    0.479166666667    0.333333333333    0.000000000000       8
    0.500000000000    0.333333333333    0.000000000000       4
    0.354166666667    0.354166666667    0.000000000000       4
    0.375000000000    0.354166666667    0.000000000000       8
    0.395833333333    0.354166666667    0.000000000000       8
    0.416666666667    0.354166666667    0.000000000000       8
    0.437500000000    0.354166666667    0.000000000000       8
    0.458333333333    0.354166666667    0.000000000000       8
    0.479166666667    0.354166666667    0.000000000000       8
    0.500000000000    0.354166666667    0.000000000000       4
    0.375000000000    0.375000000000    0.000000000000       4
    0.395833333333    0.375000000000    0.000000000000       8
    0.416666666667    0.375000000000    0.000000000000       8
    0.437500000000    0.375000000000    0.000000000000       8
    0.458333333333    0.375000000000    0.000000000000       8
    0.479166666667    0.375000000000    0.000000000000       8
    0.500000000000    0.375000000000    0.000000000000       4
    0.395833333333    0.395833333333    0.000000000000       4
    0.416666666667    0.395833333333    0.000000000000       8
    0.437500000000    0.395833333333    0.000000000000       8
    0.458333333333    0.395833333333    0.000000000000       8
    0.479166666667    0.395833333333    0.000000000000       8
    0.500000000000    0.395833333333    0.000000000000       4
    0.416666666667    0.416666666667    0.000000000000       4
    0.437500000000    0.416666666667    0.000000000000       8
    0.458333333333    0.416666666667    0.000000000000       8
    0.479166666667    0.416666666667    0.000000000000       8
    0.500000000000    0.416666666667    0.000000000000       4
    0.437500000000    0.437500000000    0.000000000000       4
    0.458333333333    0.437500000000    0.000000000000       8
    0.479166666667    0.437500000000    0.000000000000       8
    0.500000000000    0.437500000000    0.000000000000       4
    0.458333333333    0.458333333333    0.000000000000       4
    0.479166666667    0.458333333333    0.000000000000       8
    0.500000000000    0.458333333333    0.000000000000       4
    0.479166666667    0.479166666667    0.000000000000       4
    0.500000000000    0.479166666667    0.000000000000       4
    0.500000000000    0.500000000000    0.000000000000       1
