 Sc2 Cl2                                
   1.00000000000000     
     3.4658869880936773    0.0000000000000000    0.0000000000000000
     1.7329439936714575    3.0015459717278281    0.0000000000000000
     0.0000000000000000    0.0000000000000000   20.7935787079560015
   Sc   Cl
     2     2
Direct
  0.0000000369583546  0.0000000618767757  0.5604921692417122
  0.3333330721559733  0.3333330870600477  0.4395076481933273
  0.6666669186665573  0.6666669220488117  0.3606613904853830
  0.6666669722191116  0.6666669290143616  0.6393387920795774
 
  0.00000000E+00  0.00000000E+00  0.00000000E+00
  0.00000000E+00  0.00000000E+00  0.00000000E+00
  0.00000000E+00  0.00000000E+00  0.00000000E+00
  0.00000000E+00  0.00000000E+00  0.00000000E+00
