CONTCAR\(19)                            
   1.00000000000000     
    11.2035999297999993    0.0000000000000000    0.0000000000000000
     0.0000000000000000   12.2031002045000001    0.0000000000000000
     0.0000000000000000    0.0000000000000000   20.4333000182999989
   Cu   Sb   S    O 
    12    12    24     1
Direct
  0.0007058019917877  0.1233698632985099  0.5504640280944954
 -0.0011581844118358  0.3772627660493882  0.4457581634660862
  0.3317567508629528  0.1235537574509413  0.5505883747113670
  0.3339143367828462  0.3775985665674083  0.4460425853505831
  0.6672411273330041  0.1227906249512399  0.5551214293921523
  0.6672591613108999  0.3754960040328091  0.4457917770333216
  0.9993214305981132  0.6322070947899037  0.5531270581487679
  0.0044249937916962  0.8810221930390822  0.4433328789963478
  0.3339435168052642  0.6323448616006405  0.5532350776401526
  0.3286224466687523  0.8814659206104822  0.4438353260225809
  0.6670353791911487  0.6258387118513498  0.5563975650841619
  0.6667334189554386  0.8805395948034684  0.4551353714145376
  0.1662194491618780  0.1298569368412252  0.3683996203472822
  0.1664516886297341  0.3772396555476976  0.6268695198723050
  0.5021886728875544  0.1245896833885673  0.3713819400068454
  0.4996459447342492  0.3748374778043894  0.6272275256678574
  0.8304727024254863  0.1244381190032944  0.3709899403914340
  0.8344378463573310  0.3748494140869193  0.6275747083177136
  0.1665454100514929  0.6266305981289251  0.3710112867402358
  0.1662188857083848  0.8860046890021888  0.6194291300713075
  0.5025402638806393  0.6298667308702293  0.3729300147824964
  0.5176282181399960  0.8646000320326116  0.6480292767549128
  0.8300829808087700  0.6298850691502585  0.3726108514406427
  0.8176852695554392  0.8642635857382471  0.6480525169573152
  0.1665669680339436  0.4342083580630732  0.3922061214983123
  0.1662828377014496  0.1854307055800841  0.6044433048071793
 -0.0002090978761043  0.4417623620360859  0.5496024683281217
  0.9990179260580715  0.1906248542429807  0.4469754467480778
  0.5006659941046818  0.4366074695401266  0.3925683868392978
  0.4977460470491499  0.1825754999326552  0.6052550671501763
  0.3335743199788287  0.4418858907269687  0.5498365789653240
  0.3331524495559979  0.1908594152300405  0.4470632537883774
  0.8325412794500044  0.4363789674071722  0.3916943555314493
  0.8358599332527422  0.1824298472758795  0.6059500946262432
  0.6672914437599332  0.4367135254115763  0.5503524964009947
  0.6667212387569803  0.1884646659203192  0.4503463687804081
  0.1665675962392719  0.9360313857397877  0.3842971728578786
  0.1665204652770476  0.6874244722256581  0.6045959566487307
  0.9980602337915866  0.9378627049905165  0.5478416770620992
  0.0004563598167070  0.6929239522433542  0.4481476811811487
  0.5031909605192674  0.9332868022437067  0.3949375334966908
  0.4994597815987588  0.6755289506027367  0.6098095639956275
  0.3352062307166954  0.9379801689236958  0.5484243665217196
  0.3322262509001881  0.6931819288829308  0.4483848890024887
  0.8296333109442502  0.9331184440209731  0.3945010652853569
  0.8343006269057331  0.6750681737717363  0.6100131967333785
  0.6675136413047116  0.9355980631253740  0.5609370611839011
  0.6666711105478990  0.6920696805104739  0.4530387179326381
  0.6675850123911685  0.8360416167122782  0.6992914959294452
 
  0.00000000E+00  0.00000000E+00  0.00000000E+00
  0.00000000E+00  0.00000000E+00  0.00000000E+00
  0.00000000E+00  0.00000000E+00  0.00000000E+00
  0.00000000E+00  0.00000000E+00  0.00000000E+00
  0.00000000E+00  0.00000000E+00  0.00000000E+00
  0.00000000E+00  0.00000000E+00  0.00000000E+00
  0.00000000E+00  0.00000000E+00  0.00000000E+00
  0.00000000E+00  0.00000000E+00  0.00000000E+00
  0.00000000E+00  0.00000000E+00  0.00000000E+00
  0.00000000E+00  0.00000000E+00  0.00000000E+00
  0.00000000E+00  0.00000000E+00  0.00000000E+00
  0.00000000E+00  0.00000000E+00  0.00000000E+00
  0.00000000E+00  0.00000000E+00  0.00000000E+00
  0.00000000E+00  0.00000000E+00  0.00000000E+00
  0.00000000E+00  0.00000000E+00  0.00000000E+00
  0.00000000E+00  0.00000000E+00  0.00000000E+00
  0.00000000E+00  0.00000000E+00  0.00000000E+00
  0.00000000E+00  0.00000000E+00  0.00000000E+00
  0.00000000E+00  0.00000000E+00  0.00000000E+00
  0.00000000E+00  0.00000000E+00  0.00000000E+00
  0.00000000E+00  0.00000000E+00  0.00000000E+00
  0.00000000E+00  0.00000000E+00  0.00000000E+00
  0.00000000E+00  0.00000000E+00  0.00000000E+00
  0.00000000E+00  0.00000000E+00  0.00000000E+00
  0.00000000E+00  0.00000000E+00  0.00000000E+00
  0.00000000E+00  0.00000000E+00  0.00000000E+00
  0.00000000E+00  0.00000000E+00  0.00000000E+00
  0.00000000E+00  0.00000000E+00  0.00000000E+00
  0.00000000E+00  0.00000000E+00  0.00000000E+00
  0.00000000E+00  0.00000000E+00  0.00000000E+00
  0.00000000E+00  0.00000000E+00  0.00000000E+00
  0.00000000E+00  0.00000000E+00  0.00000000E+00
  0.00000000E+00  0.00000000E+00  0.00000000E+00
  0.00000000E+00  0.00000000E+00  0.00000000E+00
  0.00000000E+00  0.00000000E+00  0.00000000E+00
  0.00000000E+00  0.00000000E+00  0.00000000E+00
  0.00000000E+00  0.00000000E+00  0.00000000E+00
  0.00000000E+00  0.00000000E+00  0.00000000E+00
  0.00000000E+00  0.00000000E+00  0.00000000E+00
  0.00000000E+00  0.00000000E+00  0.00000000E+00
  0.00000000E+00  0.00000000E+00  0.00000000E+00
  0.00000000E+00  0.00000000E+00  0.00000000E+00
  0.00000000E+00  0.00000000E+00  0.00000000E+00
  0.00000000E+00  0.00000000E+00  0.00000000E+00
  0.00000000E+00  0.00000000E+00  0.00000000E+00
  0.00000000E+00  0.00000000E+00  0.00000000E+00
  0.00000000E+00  0.00000000E+00  0.00000000E+00
  0.00000000E+00  0.00000000E+00  0.00000000E+00
  0.00000000E+00  0.00000000E+00  0.00000000E+00
