CONTCAR\(6)                             
   1.00000000000000     
    10.4815998077000003    0.0000000000000000    0.0000000000000000
     0.0000000000000000   10.4815998077000003    0.0000000000000000
     0.0000000000000000    0.0000000000000000   21.6266002654999987
   Hf   Si   Se   O 
    18    18    18     1
Selective dynamics
Direct
  0.1624146967659215  0.0058223103111317  0.5997444648568120   F   F   F
  0.9994791732208839  0.1640216723890120  0.4018936168792777   F   F   F
  0.5043471121604668  0.0058178358160745  0.5997434597413616   F   F   F
  0.3333933862094796  0.1648205711164366  0.4019009102545255   F   F   F
  0.8333796459086429  0.9953913000512671  0.6001071789897736   F   F   F
  0.6673109069934213  0.1640366746348292  0.4018867351949780   F   F   F
  0.1636301283387880  0.3281724071627110  0.5991616703745564   F   F   F
  0.0002626680246749  0.4982778130102616  0.4026226145644785   F   F   F
  0.5031272661304911  0.3281668449988260  0.5991585374508190   F   F   F
  0.3333916704752014  0.4968963061845031  0.4028032380055038   F   F   F
  0.8333790286055418  0.3317500800978266  0.5998361188996526   F   F   F
  0.6665454472095718  0.4982868646025693  0.4026154277040561   F   F   F
  0.1743255025287738  0.6587568911780721  0.6029360974800753   F   F   F
  0.0005631578537830  0.8302127298090340  0.4034174235864683   F   F   F
  0.4924369869857799  0.6587584563508315  0.6029361946255634   F   F   F
  0.3333962270564399  0.8313040988387144  0.4037507492609365   F   F   F
  0.8333855784263093  0.6647155123392281  0.6008292813280676   F   F   F
  0.6662418792624081  0.8302087737897494  0.4034118794442563   F   F   F
  0.9993622333469432  0.9968185745432265  0.5008125919965565   F   F   F
  0.1657293044666446  0.1650044533146513  0.5002320469656354   F   F   F
  0.3333946460625725  0.9991309645511564  0.5023320366316071   F   F   F
  0.5010429154871261  0.1650139707431393  0.5002225256939425   F   F   F
  0.6674079140245226  0.9968188085680723  0.5008027473870555   F   F   F
  0.8333795205904408  0.1642303767995941  0.5013532362568611   F   F   F
  0.9986952260924511  0.3312965788570068  0.5006701567188756   F   F   F
  0.1663235059697143  0.4964245123751141  0.5015842356237243   F   F   F
  0.3333905187836876  0.3299724654580771  0.5011006644861453   F   F   F
  0.5004753411111054  0.4964256777258171  0.5015734908342608   F   F   F
  0.6680753974999760  0.3313009404014053  0.5006699231432492   F   F   F
  0.8333856873080592  0.4985525419445693  0.5015013502231440   F   F   F
  0.0013525742623983  0.6643228086515123  0.5021604375448092   F   F   F
  0.1680303743667366  0.8310039519767898  0.5038147221514180   F   F   F
  0.3333855644474895  0.6627062473929399  0.5014614055655287   F   F   F
  0.4987402849753479  0.8310009324003715  0.5038106864241030   F   F   F
  0.6654315059233085  0.6643225299410531  0.5021629946198232   F   F   F
  0.8333822760762644  0.8295839049029468  0.5015467129043358   F   F   F
  0.9968275138870197  0.1649608970078091  0.6561746727874223   F   F   F
  0.1669294203213383  0.9971487388401954  0.3478548992709207   F   F   F
  0.3333708220455662  0.1703190327241160  0.6583201306175255   F   F   F
  0.4998374420101896  0.9971686056551476  0.3478517460858654   F   F   F
  0.6699204642774035  0.1649687045580279  0.6561670298044575   F   F   F
  0.8334190385047364  0.9967180262567936  0.3473706785117372   F   F   F
  0.0002563660843293  0.4977803363651745  0.6556863442007170   F   F   F
  0.1664885217535499  0.3313016271668516  0.3471332277737176   F   F   F
  0.3333918899267587  0.4786613416548988  0.6559459185153500   F   F   F
  0.5002992469157093  0.3313352918757815  0.3471206137999872   F   F   F
  0.6664840115177810  0.4977514749493466  0.6556763543861877   F   F   F
  0.8334122050870576  0.3316806199746338  0.3471828897740679   F   F   F
  0.0042890010007710  0.8292436061293245  0.6547877124574271   F   F   F
  0.1674162831672632  0.6647182311408315  0.3479855195848742   F   F   F
  0.3333735461623490  0.9106962572316419  0.6766723405308994   F   F   F
  0.4993596212972236  0.6647259236371852  0.3479842676176617   F   F   F
  0.6624565774799578  0.8292434134664788  0.6547816719104986   F   F   F
  0.8334587164578195  0.6648490405494414  0.3474971087862784   F   F   F
  0.3333839351518293  0.7343613755877599  0.6519965254798058   T   T   T
 
  0.00000000E+00  0.00000000E+00  0.00000000E+00
  0.00000000E+00  0.00000000E+00  0.00000000E+00
  0.00000000E+00  0.00000000E+00  0.00000000E+00
  0.00000000E+00  0.00000000E+00  0.00000000E+00
  0.00000000E+00  0.00000000E+00  0.00000000E+00
  0.00000000E+00  0.00000000E+00  0.00000000E+00
  0.00000000E+00  0.00000000E+00  0.00000000E+00
  0.00000000E+00  0.00000000E+00  0.00000000E+00
  0.00000000E+00  0.00000000E+00  0.00000000E+00
  0.00000000E+00  0.00000000E+00  0.00000000E+00
  0.00000000E+00  0.00000000E+00  0.00000000E+00
  0.00000000E+00  0.00000000E+00  0.00000000E+00
  0.00000000E+00  0.00000000E+00  0.00000000E+00
  0.00000000E+00  0.00000000E+00  0.00000000E+00
  0.00000000E+00  0.00000000E+00  0.00000000E+00
  0.00000000E+00  0.00000000E+00  0.00000000E+00
  0.00000000E+00  0.00000000E+00  0.00000000E+00
  0.00000000E+00  0.00000000E+00  0.00000000E+00
  0.00000000E+00  0.00000000E+00  0.00000000E+00
  0.00000000E+00  0.00000000E+00  0.00000000E+00
  0.00000000E+00  0.00000000E+00  0.00000000E+00
  0.00000000E+00  0.00000000E+00  0.00000000E+00
  0.00000000E+00  0.00000000E+00  0.00000000E+00
  0.00000000E+00  0.00000000E+00  0.00000000E+00
  0.00000000E+00  0.00000000E+00  0.00000000E+00
  0.00000000E+00  0.00000000E+00  0.00000000E+00
  0.00000000E+00  0.00000000E+00  0.00000000E+00
  0.00000000E+00  0.00000000E+00  0.00000000E+00
  0.00000000E+00  0.00000000E+00  0.00000000E+00
  0.00000000E+00  0.00000000E+00  0.00000000E+00
  0.00000000E+00  0.00000000E+00  0.00000000E+00
  0.00000000E+00  0.00000000E+00  0.00000000E+00
  0.00000000E+00  0.00000000E+00  0.00000000E+00
  0.00000000E+00  0.00000000E+00  0.00000000E+00
  0.00000000E+00  0.00000000E+00  0.00000000E+00
  0.00000000E+00  0.00000000E+00  0.00000000E+00
  0.00000000E+00  0.00000000E+00  0.00000000E+00
  0.00000000E+00  0.00000000E+00  0.00000000E+00
  0.00000000E+00  0.00000000E+00  0.00000000E+00
  0.00000000E+00  0.00000000E+00  0.00000000E+00
  0.00000000E+00  0.00000000E+00  0.00000000E+00
  0.00000000E+00  0.00000000E+00  0.00000000E+00
  0.00000000E+00  0.00000000E+00  0.00000000E+00
  0.00000000E+00  0.00000000E+00  0.00000000E+00
  0.00000000E+00  0.00000000E+00  0.00000000E+00
  0.00000000E+00  0.00000000E+00  0.00000000E+00
  0.00000000E+00  0.00000000E+00  0.00000000E+00
  0.00000000E+00  0.00000000E+00  0.00000000E+00
  0.00000000E+00  0.00000000E+00  0.00000000E+00
  0.00000000E+00  0.00000000E+00  0.00000000E+00
  0.00000000E+00  0.00000000E+00  0.00000000E+00
  0.00000000E+00  0.00000000E+00  0.00000000E+00
  0.00000000E+00  0.00000000E+00  0.00000000E+00
  0.00000000E+00  0.00000000E+00  0.00000000E+00
  0.00000000E+00  0.00000000E+00  0.00000000E+00
