 In3 Te4                                
   1.00000000000000     
     4.3405760000000004    0.0000000000000000    0.0000000000000000
     2.1702880000000002    3.7590490000000001    0.0000000000000000
     0.0000000000000000    0.0000000000000000   25.6978358356799959
   In   Te
     3     4
Direct
  0.0000000000000000  0.0000000000000000  0.5000000000000000
  0.3333330000000032  0.3333330000000032  0.3491855559440182
  0.6666669999999968  0.6666669999999968  0.6508144440559818
  0.0000000000000000  0.0000000000000000  0.2918533703755202
  0.0000000000000000  0.0000000000000000  0.7081466296244798
  0.3333330000000032  0.3333330000000032  0.5690652506735887
  0.6666669999999968  0.6666669999999968  0.4309347493264113
 
  0.00000000E+00  0.00000000E+00  0.00000000E+00
  0.00000000E+00  0.00000000E+00  0.00000000E+00
  0.00000000E+00  0.00000000E+00  0.00000000E+00
  0.00000000E+00  0.00000000E+00  0.00000000E+00
  0.00000000E+00  0.00000000E+00  0.00000000E+00
  0.00000000E+00  0.00000000E+00  0.00000000E+00
  0.00000000E+00  0.00000000E+00  0.00000000E+00
