CONTCAR                                 
   1.00000000000000     
    12.9397001266000000    0.0000000000000000    0.0000000000000000
     0.0000000000000000   12.9407997131000005    0.0000000000000000
     0.0000000000000000    0.0000000000000000   24.2110004425000014
   Y    Te   O    H 
    18    54     2     1
Direct
  0.9968422329781429  0.1687731758877637  0.5858094461364601
  0.1644387477242820  0.0020935639225020  0.4159317827029388
  0.3306722103106405  0.1689329379134158  0.5859015705606847
  0.4975094935451821  0.0022815938943739  0.4160706227937939
  0.6629848132118331  0.1694727299300285  0.5861900388608939
  0.8304297009971670  0.0020796825056950  0.4159186956753828
  0.9970555671985744  0.5034681727335624  0.5851521016366270
  0.1632895204919778  0.3350845980499727  0.4145704909471842
  0.3214643718536122  0.4998165027725008  0.5817236217760290
  0.4974988849278275  0.3355040332423290  0.4150066603805074
  0.6725344761918506  0.5014716253550895  0.5820235392291599
  0.8312991173962214  0.3351117922432797  0.4146575712415440
  0.9970216789637504  0.8380425229394632  0.5861415229718911
  0.1637370003450470  0.6695527066258439  0.4150723917861305
  0.3304132003110818  0.8369145837791813  0.5867257102249853
  0.4975060104493347  0.6681223184875176  0.4152471415332240
  0.6637552038926721  0.8371733269748247  0.5864573806296733
  0.8312882457906330  0.6694053433247096  0.4149461724819579
  0.1641522913803997  0.1688153966662041  0.3125199294040633
  0.9967749139707683  0.0069114314407051  0.6896338134224692
  0.1632017567650265  0.1693904218645123  0.6892224187322891
  0.9979278514458174  0.0019145111361181  0.3129086366915899
  0.9971857679129773  0.1680789920780864  0.4540841805023597
  0.1643526464601545  0.0026067943145463  0.5473449461288373
  0.4977378286368749  0.1691284424417807  0.3128028208462492
  0.3303709399258998  0.0029760861532854  0.6897727595946835
  0.4969090074950137  0.1738713085785861  0.6892215466111761
  0.3314949919291081  0.0026551359109207  0.3133048354454824
  0.3310656860309750  0.1697512041223932  0.4544972694544252
  0.4971903961230549  0.0026013054049754  0.5477939526750207
  0.8311838477963553  0.1684408005772965  0.3125126508253733
  0.6630315784654855  0.0035887728550965  0.6896984342967920
  0.8300110746358438  0.1689664256046630  0.6895746111171195
  0.6640631310679206  0.0023185346379125  0.3131472978529204
  0.6636448755374498  0.1694477113823860  0.4545847992357502
  0.8297647061188450  0.0028412078906250  0.5474587636867163
  0.1640567560838488  0.5025907608647762  0.3119670815452383
  0.9961062942075656  0.3376787056956126  0.6885793595170939
  0.1629057129109854  0.5021257731916788  0.6875367645261105
  0.9974454564747250  0.3354519126210105  0.3117305438200475
  0.9974243079559788  0.5023838463400569  0.4536898391406740
  0.1614803137078137  0.3338916072722636  0.5459543567529083
  0.4979058830229974  0.5018795167083216  0.3121188504576057
  0.3297655686551804  0.3360336941526456  0.6869212184041875
  0.4973934496346771  0.5107625509690579  0.6784564417048724
  0.3307208882915801  0.3356911410766386  0.3119959380024547
  0.3296256842294033  0.5020595393276275  0.4525135727164407
  0.4971161283235819  0.3376279481264008  0.5472877508091024
  0.8313983961054525  0.5027423767916006  0.3118052903503392
  0.6630425825194346  0.3380521966691432  0.6886808228185366
  0.8307940132059847  0.5023039710871336  0.6875283596260749
  0.6648451978385567  0.3353933552005307  0.3118323555978115
  0.6651486077552982  0.5022614508488824  0.4526657869523631
  0.8322336834531343  0.3343683366564978  0.5462172496820087
  0.1649253471054137  0.8358346695543576  0.3129708410887025
  0.9973195323310635  0.6724794956018891  0.6890849702607628
  0.1634984119722144  0.8365496281362449  0.6895316019952116
  0.9978190306393026  0.6695249836017793  0.3119723336033943
  0.9973236326090019  0.8362561820924513  0.4544334422879738
  0.1628851976660620  0.6709599659483161  0.5467591014305395
  0.4974774420798371  0.8355091741058318  0.3128536503023699
  0.3282369381627516  0.6696184883105384  0.6902608355019146
  0.4962383323235861  0.8389473034925655  0.6897410596775134
  0.3312577312083381  0.6688798336922696  0.3123191452269078
  0.3323290726497273  0.8344304028727842  0.4550514124480983
  0.4970713697504827  0.6659577164900590  0.5493641614996911
  0.8307824484949796  0.8359247100095553  0.3127542520286375
  0.6657212400166390  0.6715378458820883  0.6883496663372489
  0.8310910864508475  0.8367353142938192  0.6897175061823861
  0.6641013057200633  0.6689997590438316  0.3122641317363195
  0.6628759424252680  0.8343595026639551  0.4548948595479180
  0.8317757196255672  0.6711619829542900  0.5465511611768902
  0.4335883116443587  0.5292690524643366  0.7997109272098186
  0.5091396274690255  0.4767899315591674  0.7666092470165768
  0.4698102820014445  0.5934694379878732  0.8095739809248456
 
  0.00000000E+00  0.00000000E+00  0.00000000E+00
  0.00000000E+00  0.00000000E+00  0.00000000E+00
  0.00000000E+00  0.00000000E+00  0.00000000E+00
  0.00000000E+00  0.00000000E+00  0.00000000E+00
  0.00000000E+00  0.00000000E+00  0.00000000E+00
  0.00000000E+00  0.00000000E+00  0.00000000E+00
  0.00000000E+00  0.00000000E+00  0.00000000E+00
  0.00000000E+00  0.00000000E+00  0.00000000E+00
  0.00000000E+00  0.00000000E+00  0.00000000E+00
  0.00000000E+00  0.00000000E+00  0.00000000E+00
  0.00000000E+00  0.00000000E+00  0.00000000E+00
  0.00000000E+00  0.00000000E+00  0.00000000E+00
  0.00000000E+00  0.00000000E+00  0.00000000E+00
  0.00000000E+00  0.00000000E+00  0.00000000E+00
  0.00000000E+00  0.00000000E+00  0.00000000E+00
  0.00000000E+00  0.00000000E+00  0.00000000E+00
  0.00000000E+00  0.00000000E+00  0.00000000E+00
  0.00000000E+00  0.00000000E+00  0.00000000E+00
  0.00000000E+00  0.00000000E+00  0.00000000E+00
  0.00000000E+00  0.00000000E+00  0.00000000E+00
  0.00000000E+00  0.00000000E+00  0.00000000E+00
  0.00000000E+00  0.00000000E+00  0.00000000E+00
  0.00000000E+00  0.00000000E+00  0.00000000E+00
  0.00000000E+00  0.00000000E+00  0.00000000E+00
  0.00000000E+00  0.00000000E+00  0.00000000E+00
  0.00000000E+00  0.00000000E+00  0.00000000E+00
  0.00000000E+00  0.00000000E+00  0.00000000E+00
  0.00000000E+00  0.00000000E+00  0.00000000E+00
  0.00000000E+00  0.00000000E+00  0.00000000E+00
  0.00000000E+00  0.00000000E+00  0.00000000E+00
  0.00000000E+00  0.00000000E+00  0.00000000E+00
  0.00000000E+00  0.00000000E+00  0.00000000E+00
  0.00000000E+00  0.00000000E+00  0.00000000E+00
  0.00000000E+00  0.00000000E+00  0.00000000E+00
  0.00000000E+00  0.00000000E+00  0.00000000E+00
  0.00000000E+00  0.00000000E+00  0.00000000E+00
  0.00000000E+00  0.00000000E+00  0.00000000E+00
  0.00000000E+00  0.00000000E+00  0.00000000E+00
  0.00000000E+00  0.00000000E+00  0.00000000E+00
  0.00000000E+00  0.00000000E+00  0.00000000E+00
  0.00000000E+00  0.00000000E+00  0.00000000E+00
  0.00000000E+00  0.00000000E+00  0.00000000E+00
  0.00000000E+00  0.00000000E+00  0.00000000E+00
  0.00000000E+00  0.00000000E+00  0.00000000E+00
  0.00000000E+00  0.00000000E+00  0.00000000E+00
  0.00000000E+00  0.00000000E+00  0.00000000E+00
  0.00000000E+00  0.00000000E+00  0.00000000E+00
  0.00000000E+00  0.00000000E+00  0.00000000E+00
  0.00000000E+00  0.00000000E+00  0.00000000E+00
  0.00000000E+00  0.00000000E+00  0.00000000E+00
  0.00000000E+00  0.00000000E+00  0.00000000E+00
  0.00000000E+00  0.00000000E+00  0.00000000E+00
  0.00000000E+00  0.00000000E+00  0.00000000E+00
  0.00000000E+00  0.00000000E+00  0.00000000E+00
  0.00000000E+00  0.00000000E+00  0.00000000E+00
  0.00000000E+00  0.00000000E+00  0.00000000E+00
  0.00000000E+00  0.00000000E+00  0.00000000E+00
  0.00000000E+00  0.00000000E+00  0.00000000E+00
  0.00000000E+00  0.00000000E+00  0.00000000E+00
  0.00000000E+00  0.00000000E+00  0.00000000E+00
  0.00000000E+00  0.00000000E+00  0.00000000E+00
  0.00000000E+00  0.00000000E+00  0.00000000E+00
  0.00000000E+00  0.00000000E+00  0.00000000E+00
  0.00000000E+00  0.00000000E+00  0.00000000E+00
  0.00000000E+00  0.00000000E+00  0.00000000E+00
  0.00000000E+00  0.00000000E+00  0.00000000E+00
  0.00000000E+00  0.00000000E+00  0.00000000E+00
  0.00000000E+00  0.00000000E+00  0.00000000E+00
  0.00000000E+00  0.00000000E+00  0.00000000E+00
  0.00000000E+00  0.00000000E+00  0.00000000E+00
  0.00000000E+00  0.00000000E+00  0.00000000E+00
  0.00000000E+00  0.00000000E+00  0.00000000E+00
  0.00000000E+00  0.00000000E+00  0.00000000E+00
  0.00000000E+00  0.00000000E+00  0.00000000E+00
  0.00000000E+00  0.00000000E+00  0.00000000E+00
