CONTCAR\(7)                             
   1.00000000000000     
    12.4510002136000004    0.0000000000000000    0.0000000000000000
     6.2255001068000002   10.7828824875000002    0.0000000000000000
     0.0000000000000000    0.0000000000000000   35.7985992432000018
   Ge   Te   As   O 
    36    63    18     1
Direct
  0.9922113064579665  0.9968408734608034  0.6489572449886579
  0.2180007588416473  0.2194924631263199  0.4509968619913222
  0.1083818471412643  0.1064773347054990  0.5492730353221639
  0.9955642889327105  0.9978299112957144  0.3521431014883988
  0.3258182091872101  0.9934731766208166  0.6470526503313130
  0.5513939686735326  0.2196812482310991  0.4510011932915009
  0.4417897232589192  0.1078015961107693  0.5492694485578470
  0.3305861501621016  0.9970832556296531  0.3519115576155832
  0.6642477804719084  0.9956626010839232  0.6479899415400879
  0.8861193719525842  0.2189495696864152  0.4507424323520528
  0.7760404613053979  0.1063786706016495  0.5488218209282842
  0.6627648842816040  0.9975303171181295  0.3523266348878927
  0.9964812439863003  0.3290666402562526  0.6479434911827148
  0.2170126826763654  0.5531319711280579  0.4510922116949874
  0.1077177402345551  0.4405804404848078  0.5495791978171816
  0.9963099501861429  0.3307420056218902  0.3519622415970242
  0.3314322502364823  0.3297440080151416  0.6477163562821351
  0.5522574344365920  0.5524470864658269  0.4509173402423136
  0.4414204859410294  0.4406535278851913  0.5490144122376670
  0.3291603307488682  0.3312169710016182  0.3523633361064648
  0.6640811129607731  0.3281674103931888  0.6482359082651665
  0.8847632664259653  0.5521511252828897  0.4511904575794824
  0.7743344230147641  0.4406333710553656  0.5494375937249141
  0.6619845853303907  0.3314505241197310  0.3523477409129089
  0.9966430299411546  0.6611515867780005  0.6485734416713961
  0.2200546363834614  0.8852713264190760  0.4502980851728838
  0.1068445374799879  0.7732506040397493  0.5489243621057398
  0.9956439698791695  0.6642603816343227  0.3520893325579442
  0.3319816543717630  0.6578557687139676  0.6488329468917433
  0.5518706361769928  0.8855929409976762  0.4509551425613000
  0.4400264548832021  0.7744697437759005  0.5494137107636486
  0.3297396915153422  0.6638671061112283  0.3520988894047815
  0.6636772602858053  0.6615895278808166  0.6481249462064327
  0.8852847222930720  0.8855238562336216  0.4508427659286671
  0.7724226095617731  0.7752556483973626  0.5496751311698821
  0.6642659932601750  0.6629268498590837  0.3518586511805054
  0.0001750825885774  0.0031412602983673  0.7911824202177219
  0.1132536573280372  0.1133870157380604  0.6950502817415726
  0.2220505272784264  0.2282279179337279  0.3040192458831952
  0.9991447699107298  0.0062573845051827  0.2090428437721475
  0.0009988754020954  0.0064831149664924  0.5000000931372257
  0.1118176167104288  0.1182805648338477  0.4019180007201037
  0.2237323139091011  0.2287196125166601  0.5978845483138981
  0.3315855687368610  0.0015241225891909  0.7916645943263397
  0.4419964111283072  0.1114011483067292  0.6951450268090743
  0.5551724622080606  0.2285600196967595  0.3038908190869946
  0.3328309441874587  0.0054695256788379  0.2092794023803566
  0.3344895296669042  0.0072136886039311  0.5002835343293635
  0.4447420625761718  0.1183973942889795  0.4019963412872308
  0.5568160425882067  0.2280727827523349  0.5983612832606723
  0.6631314510034727  0.0010132637248624  0.7906536570295272
  0.7767052444143431  0.1155642780886866  0.6965626717707462
  0.8884866043416533  0.2283204707395048  0.3038276235363488
  0.6659213296839679  0.0059084652952495  0.2090538067326069
  0.6682961225283863  0.0064646453083727  0.4998701480527190
  0.7782790585585339  0.1182419416158591  0.4018182272005746
  0.8898976028958110  0.2280257014749105  0.5983317354132870
  0.9942628081266662  0.3354564005498423  0.7925289317331022
  0.1114519912161174  0.4473918359348312  0.6965121257234249
  0.2219048962150949  0.5620952345257024  0.3039489319708998
  0.9996955981568493  0.3385311804448513  0.2090702026732358
  0.0001729985598984  0.3400477585839496  0.5000627060378177
  0.1109028335991532  0.4519068679717748  0.4017268092737905
  0.2225102400237977  0.5614312801134500  0.5980962090239648
  0.3318358267211096  0.3331108720674923  0.7908406261988834
  0.4452952064279972  0.4473488674184612  0.6966511454810237
  0.5554910317534837  0.5614779292209224  0.3038333543996641
  0.3328676924622542  0.3389499130681664  0.2091850291436000
  0.3339182557218348  0.3407001138922838  0.4999304710084461
  0.4448672184491277  0.4516075335815276  0.4018426310720118
  0.5556359458403969  0.5621013214071409  0.5984356739821675
  0.6834497945597788  0.3544373966904720  0.7969209378567410
  0.7782561483175916  0.4485882195311364  0.6960731958266252
  0.8886625382144563  0.5619030322839493  0.3039353066810656
  0.6655814075100758  0.3392692362596084  0.2090971211847905
  0.6676012153645465  0.3399220732509788  0.5001182009981915
  0.7782226379858073  0.4510784670720794  0.4017408826721317
  0.8897618202405700  0.5618234438807069  0.5981453681818761
 -0.0000044215139450  0.6687686432258551  0.7911392552497439
  0.1105678949457874  0.7814635714244684  0.6963735031645756
  0.2221586604018337  0.8951897508040828  0.3039503195632579
  0.9995985913498256  0.6725547409117026  0.2092633132595249
  0.9997874293523705  0.6734128286311385  0.4996418457089325
  0.1120669647017706  0.7850021055942066  0.4018356881814788
  0.2214302158322869  0.8938256305435731  0.5977058901146832
  0.3341830369776984  0.6706364834430409  0.7911749090155124
  0.4428804148699447  0.7837019751706141  0.6950543977044925
  0.5553445297423983  0.8951198914922867  0.3039631415689101
  0.3327507367898889  0.6727779563097150  0.2091549728282238
  0.3340774991871394  0.6731635202383263  0.5000457575578612
  0.4452987946853174  0.7848043606160318  0.4019291550573226
  0.5566773159448914  0.8953359693522054  0.5978641194412014
  0.6667178224972755  0.6630615712419577  0.7925183771972424
  0.7775446328318744  0.7806094112017038  0.6965121401236577
  0.8884099975704802  0.8956825983629509  0.3039375582647859
  0.6659485503167255  0.6723580981241132  0.2090782848099041
  0.6669942758558199  0.6731798408393509  0.4999470121667395
  0.7781420714473686  0.7847233678813325  0.4016816852523017
  0.8899499037624933  0.8939171174299089  0.5980069091852077
  0.1066486189935057  0.1090645006172393  0.2521715102878443
  0.2089001522391961  0.2181677386923115  0.7501139709880943
  0.4414726181589279  0.1079246080060003  0.2521464459966762
  0.5395180088384308  0.2037549421608944  0.7460384461442591
  0.7738469926400329  0.1089059262486572  0.2521366816241016
  0.8886592814782053  0.2151970859195742  0.7482991973675763
  0.1085260303568171  0.4408977177198503  0.2518880903752164
  0.2184304968930860  0.5480669376750910  0.7478469379386502
  0.4405232442401486  0.4417209533560256  0.2523829591706990
  0.5495076938751615  0.5569784392324186  0.7481143378009698
  0.7736127301548297  0.4418279246358192  0.2520273751623275
  0.8852453116161013  0.5490552538683307  0.7482212072644735
  0.1076026913542246  0.7757618223403668  0.2520848157643567
  0.2175546788741484  0.8835431536274715  0.7482958716892865
  0.4399008102746753  0.7763136960930123  0.2521230155817139
  0.5525657393854143  0.8758507439784443  0.7498110037765122
  0.7745002517467987  0.7746958217215324  0.2518806993334171
  0.8859156614863090  0.8805892976742182  0.7476544469394586
  0.7622333158557085  0.4313907866665641  0.8220782107007075
 
  0.00000000E+00  0.00000000E+00  0.00000000E+00
  0.00000000E+00  0.00000000E+00  0.00000000E+00
  0.00000000E+00  0.00000000E+00  0.00000000E+00
  0.00000000E+00  0.00000000E+00  0.00000000E+00
  0.00000000E+00  0.00000000E+00  0.00000000E+00
  0.00000000E+00  0.00000000E+00  0.00000000E+00
  0.00000000E+00  0.00000000E+00  0.00000000E+00
  0.00000000E+00  0.00000000E+00  0.00000000E+00
  0.00000000E+00  0.00000000E+00  0.00000000E+00
  0.00000000E+00  0.00000000E+00  0.00000000E+00
  0.00000000E+00  0.00000000E+00  0.00000000E+00
  0.00000000E+00  0.00000000E+00  0.00000000E+00
  0.00000000E+00  0.00000000E+00  0.00000000E+00
  0.00000000E+00  0.00000000E+00  0.00000000E+00
  0.00000000E+00  0.00000000E+00  0.00000000E+00
  0.00000000E+00  0.00000000E+00  0.00000000E+00
  0.00000000E+00  0.00000000E+00  0.00000000E+00
  0.00000000E+00  0.00000000E+00  0.00000000E+00
  0.00000000E+00  0.00000000E+00  0.00000000E+00
  0.00000000E+00  0.00000000E+00  0.00000000E+00
  0.00000000E+00  0.00000000E+00  0.00000000E+00
  0.00000000E+00  0.00000000E+00  0.00000000E+00
  0.00000000E+00  0.00000000E+00  0.00000000E+00
  0.00000000E+00  0.00000000E+00  0.00000000E+00
  0.00000000E+00  0.00000000E+00  0.00000000E+00
  0.00000000E+00  0.00000000E+00  0.00000000E+00
  0.00000000E+00  0.00000000E+00  0.00000000E+00
  0.00000000E+00  0.00000000E+00  0.00000000E+00
  0.00000000E+00  0.00000000E+00  0.00000000E+00
  0.00000000E+00  0.00000000E+00  0.00000000E+00
  0.00000000E+00  0.00000000E+00  0.00000000E+00
  0.00000000E+00  0.00000000E+00  0.00000000E+00
  0.00000000E+00  0.00000000E+00  0.00000000E+00
  0.00000000E+00  0.00000000E+00  0.00000000E+00
  0.00000000E+00  0.00000000E+00  0.00000000E+00
  0.00000000E+00  0.00000000E+00  0.00000000E+00
  0.00000000E+00  0.00000000E+00  0.00000000E+00
  0.00000000E+00  0.00000000E+00  0.00000000E+00
  0.00000000E+00  0.00000000E+00  0.00000000E+00
  0.00000000E+00  0.00000000E+00  0.00000000E+00
  0.00000000E+00  0.00000000E+00  0.00000000E+00
  0.00000000E+00  0.00000000E+00  0.00000000E+00
  0.00000000E+00  0.00000000E+00  0.00000000E+00
  0.00000000E+00  0.00000000E+00  0.00000000E+00
  0.00000000E+00  0.00000000E+00  0.00000000E+00
  0.00000000E+00  0.00000000E+00  0.00000000E+00
  0.00000000E+00  0.00000000E+00  0.00000000E+00
  0.00000000E+00  0.00000000E+00  0.00000000E+00
  0.00000000E+00  0.00000000E+00  0.00000000E+00
  0.00000000E+00  0.00000000E+00  0.00000000E+00
  0.00000000E+00  0.00000000E+00  0.00000000E+00
  0.00000000E+00  0.00000000E+00  0.00000000E+00
  0.00000000E+00  0.00000000E+00  0.00000000E+00
  0.00000000E+00  0.00000000E+00  0.00000000E+00
  0.00000000E+00  0.00000000E+00  0.00000000E+00
  0.00000000E+00  0.00000000E+00  0.00000000E+00
  0.00000000E+00  0.00000000E+00  0.00000000E+00
  0.00000000E+00  0.00000000E+00  0.00000000E+00
  0.00000000E+00  0.00000000E+00  0.00000000E+00
  0.00000000E+00  0.00000000E+00  0.00000000E+00
  0.00000000E+00  0.00000000E+00  0.00000000E+00
  0.00000000E+00  0.00000000E+00  0.00000000E+00
  0.00000000E+00  0.00000000E+00  0.00000000E+00
  0.00000000E+00  0.00000000E+00  0.00000000E+00
  0.00000000E+00  0.00000000E+00  0.00000000E+00
  0.00000000E+00  0.00000000E+00  0.00000000E+00
  0.00000000E+00  0.00000000E+00  0.00000000E+00
  0.00000000E+00  0.00000000E+00  0.00000000E+00
  0.00000000E+00  0.00000000E+00  0.00000000E+00
  0.00000000E+00  0.00000000E+00  0.00000000E+00
  0.00000000E+00  0.00000000E+00  0.00000000E+00
  0.00000000E+00  0.00000000E+00  0.00000000E+00
  0.00000000E+00  0.00000000E+00  0.00000000E+00
  0.00000000E+00  0.00000000E+00  0.00000000E+00
  0.00000000E+00  0.00000000E+00  0.00000000E+00
  0.00000000E+00  0.00000000E+00  0.00000000E+00
  0.00000000E+00  0.00000000E+00  0.00000000E+00
  0.00000000E+00  0.00000000E+00  0.00000000E+00
  0.00000000E+00  0.00000000E+00  0.00000000E+00
  0.00000000E+00  0.00000000E+00  0.00000000E+00
  0.00000000E+00  0.00000000E+00  0.00000000E+00
  0.00000000E+00  0.00000000E+00  0.00000000E+00
  0.00000000E+00  0.00000000E+00  0.00000000E+00
  0.00000000E+00  0.00000000E+00  0.00000000E+00
  0.00000000E+00  0.00000000E+00  0.00000000E+00
  0.00000000E+00  0.00000000E+00  0.00000000E+00
  0.00000000E+00  0.00000000E+00  0.00000000E+00
  0.00000000E+00  0.00000000E+00  0.00000000E+00
  0.00000000E+00  0.00000000E+00  0.00000000E+00
  0.00000000E+00  0.00000000E+00  0.00000000E+00
  0.00000000E+00  0.00000000E+00  0.00000000E+00
  0.00000000E+00  0.00000000E+00  0.00000000E+00
  0.00000000E+00  0.00000000E+00  0.00000000E+00
  0.00000000E+00  0.00000000E+00  0.00000000E+00
  0.00000000E+00  0.00000000E+00  0.00000000E+00
  0.00000000E+00  0.00000000E+00  0.00000000E+00
  0.00000000E+00  0.00000000E+00  0.00000000E+00
  0.00000000E+00  0.00000000E+00  0.00000000E+00
  0.00000000E+00  0.00000000E+00  0.00000000E+00
  0.00000000E+00  0.00000000E+00  0.00000000E+00
  0.00000000E+00  0.00000000E+00  0.00000000E+00
  0.00000000E+00  0.00000000E+00  0.00000000E+00
  0.00000000E+00  0.00000000E+00  0.00000000E+00
  0.00000000E+00  0.00000000E+00  0.00000000E+00
  0.00000000E+00  0.00000000E+00  0.00000000E+00
  0.00000000E+00  0.00000000E+00  0.00000000E+00
  0.00000000E+00  0.00000000E+00  0.00000000E+00
  0.00000000E+00  0.00000000E+00  0.00000000E+00
  0.00000000E+00  0.00000000E+00  0.00000000E+00
  0.00000000E+00  0.00000000E+00  0.00000000E+00
  0.00000000E+00  0.00000000E+00  0.00000000E+00
  0.00000000E+00  0.00000000E+00  0.00000000E+00
  0.00000000E+00  0.00000000E+00  0.00000000E+00
  0.00000000E+00  0.00000000E+00  0.00000000E+00
  0.00000000E+00  0.00000000E+00  0.00000000E+00
  0.00000000E+00  0.00000000E+00  0.00000000E+00
  0.00000000E+00  0.00000000E+00  0.00000000E+00
  0.00000000E+00  0.00000000E+00  0.00000000E+00
