CONTCAR\(7)                             
   1.00000000000000     
    12.0179996490000001    0.0000000000000000    0.0000000000000000
     5.5443836140000000   17.3830097696000010    0.0000000000000000
     0.0000000000000000    0.0000000000000000   18.4081001282000010
   Nb   Ir   Se   O 
    16     4    40     1
Direct
  0.3190700936797342  0.4153964008745561  0.4986203543904537
  0.3740368316730738  0.2031843282482768  0.5059610059686435
  0.0458309334675846  0.9977994785152404  0.5044074578005393
  0.0802963308946900  0.3080062006161768  0.4968282462873432
  0.8128261402419952  0.4168847611848463  0.4998674362634148
  0.8838243431286728  0.1899107989950579  0.5000144685451744
  0.5467653344266665  0.9981425485602884  0.5025261929373670
  0.5946938181030887  0.3170040466313395  0.4984965961843173
  0.3141615974149659  0.9184696610068812  0.5006456271366631
  0.3834923876039227  0.6912850059021451  0.5013627367638875
  0.0462972521879621  0.4992721383220342  0.5005393862512264
  0.1049793674631800  0.8240627818845923  0.4980936424895006
  0.8206066230813960  0.9147372787682926  0.5024849814847556
  0.8646795360764017  0.7020535192908213  0.5053664360839818
  0.5450241461628806  0.4961310387243927  0.5036444693262183
  0.5793242621963870  0.8098099058764276  0.4978691485694853
  0.2177836854142043  0.0932488657227211  0.5023694951427515
  0.7139845768093451  0.0913770767090227  0.5021024202488249
  0.2134707975620032  0.5931662018336610  0.4994533737436910
  0.7167066854251374  0.5915116131279348  0.5023681308635730
  0.1874376525557793  0.0057599610089696  0.6022054073303451
  0.0496687938488520  0.1029639070524695  0.4137932802613093
  0.2671863612797480  0.3047517476576900  0.5886884336343599
  0.1554960312374973  0.3961412374780195  0.4114403626617715
  0.3836162162592203  0.0932659718620954  0.5891629551742170
  0.2286580233654476  0.1977644323206036  0.4108298132151589
  0.4798850217062949  0.4042964257798189  0.5967068715945629
  0.3574452911290109  0.0073332447557348  0.4114527550181961
  0.0744310112151680  0.1950081251657352  0.5781955392742759
  0.4364424133361950  0.3004516971479489  0.4130472618501528
  0.6891767529177599  0.0023961751422235  0.6016634024026146
  0.5459971106271624  0.1021486934047147  0.4152796818985607
  0.7769559728193016  0.3017838857695025  0.5828793651100597
  0.6535756377726329  0.4018971436159831  0.4049194203181514
  0.8769559308792481  0.0938875652349935  0.5916924742674752
  0.7273286659487255  0.1959371480332734  0.4108056190525318
  0.9796386639408823  0.4033540614145323  0.5933711867574019
  0.8573399809199103  0.0038140233102482  0.4129265472541448
  0.5739884065160581  0.1981382277170951  0.5745066921356994
  0.9267727775445636  0.3032008973344276  0.4093132967528987
  0.1886452725486834  0.5034682099399674  0.5987943255426558
  0.0429626029212500  0.6041039771790793  0.4147460462582799
  0.2767689017426704  0.8023817842042646  0.5861235718536619
  0.1543460904550074  0.9071940097561679  0.4020503465542973
  0.3755900345164633  0.5935756860032697  0.5907652276290207
  0.2292060408855932  0.6988723954607252  0.4108131837436204
  0.4784167830676438  0.9035404376929961  0.5957406877666784
  0.3583382004617022  0.5041544120752235  0.4100233934481707
  0.0709716185571025  0.7009418765514397  0.5656966009238502
  0.4266475403271102  0.8050040757960844  0.4099924869290987
  0.6867504833068381  0.5034493129549844  0.6017052826652005
  0.5474780547558069  0.6020874732755956  0.4146477488963995
  0.7669852654106180  0.8034818888798299  0.5906775299251308
  0.6580627963683838  0.8958570843242555  0.4128190494937130
  0.8833932896930747  0.5921560460769086  0.5892129351286712
  0.7211881212325153  0.6973709569505147  0.4104642716476121
  0.9840929526772300  0.9051280514864004  0.5981649035265733
  0.8565188204719192  0.5063147890896786  0.4109174214869213
  0.5745498269589362  0.6944831885310236  0.5779573550551049
  0.9406493546911747  0.7981206164345735  0.4203997157634944
  0.0870670131175544  0.6907139103362212  0.6565055953161192
 
  0.00000000E+00  0.00000000E+00  0.00000000E+00
  0.00000000E+00  0.00000000E+00  0.00000000E+00
  0.00000000E+00  0.00000000E+00  0.00000000E+00
  0.00000000E+00  0.00000000E+00  0.00000000E+00
  0.00000000E+00  0.00000000E+00  0.00000000E+00
  0.00000000E+00  0.00000000E+00  0.00000000E+00
  0.00000000E+00  0.00000000E+00  0.00000000E+00
  0.00000000E+00  0.00000000E+00  0.00000000E+00
  0.00000000E+00  0.00000000E+00  0.00000000E+00
  0.00000000E+00  0.00000000E+00  0.00000000E+00
  0.00000000E+00  0.00000000E+00  0.00000000E+00
  0.00000000E+00  0.00000000E+00  0.00000000E+00
  0.00000000E+00  0.00000000E+00  0.00000000E+00
  0.00000000E+00  0.00000000E+00  0.00000000E+00
  0.00000000E+00  0.00000000E+00  0.00000000E+00
  0.00000000E+00  0.00000000E+00  0.00000000E+00
  0.00000000E+00  0.00000000E+00  0.00000000E+00
  0.00000000E+00  0.00000000E+00  0.00000000E+00
  0.00000000E+00  0.00000000E+00  0.00000000E+00
  0.00000000E+00  0.00000000E+00  0.00000000E+00
  0.00000000E+00  0.00000000E+00  0.00000000E+00
  0.00000000E+00  0.00000000E+00  0.00000000E+00
  0.00000000E+00  0.00000000E+00  0.00000000E+00
  0.00000000E+00  0.00000000E+00  0.00000000E+00
  0.00000000E+00  0.00000000E+00  0.00000000E+00
  0.00000000E+00  0.00000000E+00  0.00000000E+00
  0.00000000E+00  0.00000000E+00  0.00000000E+00
  0.00000000E+00  0.00000000E+00  0.00000000E+00
  0.00000000E+00  0.00000000E+00  0.00000000E+00
  0.00000000E+00  0.00000000E+00  0.00000000E+00
  0.00000000E+00  0.00000000E+00  0.00000000E+00
  0.00000000E+00  0.00000000E+00  0.00000000E+00
  0.00000000E+00  0.00000000E+00  0.00000000E+00
  0.00000000E+00  0.00000000E+00  0.00000000E+00
  0.00000000E+00  0.00000000E+00  0.00000000E+00
  0.00000000E+00  0.00000000E+00  0.00000000E+00
  0.00000000E+00  0.00000000E+00  0.00000000E+00
  0.00000000E+00  0.00000000E+00  0.00000000E+00
  0.00000000E+00  0.00000000E+00  0.00000000E+00
  0.00000000E+00  0.00000000E+00  0.00000000E+00
  0.00000000E+00  0.00000000E+00  0.00000000E+00
  0.00000000E+00  0.00000000E+00  0.00000000E+00
  0.00000000E+00  0.00000000E+00  0.00000000E+00
  0.00000000E+00  0.00000000E+00  0.00000000E+00
  0.00000000E+00  0.00000000E+00  0.00000000E+00
  0.00000000E+00  0.00000000E+00  0.00000000E+00
  0.00000000E+00  0.00000000E+00  0.00000000E+00
  0.00000000E+00  0.00000000E+00  0.00000000E+00
  0.00000000E+00  0.00000000E+00  0.00000000E+00
  0.00000000E+00  0.00000000E+00  0.00000000E+00
  0.00000000E+00  0.00000000E+00  0.00000000E+00
  0.00000000E+00  0.00000000E+00  0.00000000E+00
  0.00000000E+00  0.00000000E+00  0.00000000E+00
  0.00000000E+00  0.00000000E+00  0.00000000E+00
  0.00000000E+00  0.00000000E+00  0.00000000E+00
  0.00000000E+00  0.00000000E+00  0.00000000E+00
  0.00000000E+00  0.00000000E+00  0.00000000E+00
  0.00000000E+00  0.00000000E+00  0.00000000E+00
  0.00000000E+00  0.00000000E+00  0.00000000E+00
  0.00000000E+00  0.00000000E+00  0.00000000E+00
  0.00000000E+00  0.00000000E+00  0.00000000E+00
