CONTCAR                                 
   1.00000000000000     
    11.3336000443000007    0.0000000000000000    0.0000000000000000
     0.0000000000000000   11.3336000443000007    0.0000000000000000
     0.0000000000000000    0.0000000000000000   27.5830993651999989
   Sr   Co   Cl   O    H 
    36    18    18    55     1
Direct
  0.1668121421628683  0.9999910817358213  0.4498862940477650
  0.0006694868332957  0.1673313491121178  0.5505748605764396
  0.1667491707021611  0.0000022117010019  0.3200270468453752
  0.9985883743179045  0.1652526349279526  0.6799043813378063
  0.4998427243997909  0.9999887429284300  0.4498936154394428
  0.3333625134050209  0.1674760104730026  0.5510027701974209
  0.4999081350173142  0.0000011731247866  0.3200216070085773
  0.3333658023022465  0.1668874694530516  0.6812027003355681
  0.8333510981771042  0.9999780179716780  0.4497231080869213
  0.6659948930699713  0.1673721047743371  0.5505805861711295
  0.8333415153781729  0.9999869009509581  0.3200343905022152
  0.6680896072601712  0.1652780615140514  0.6798934164543766
  0.1670412500968013  0.3337004262803589  0.4503409733355994
  0.0007976652031374  0.5000327053692217  0.5509964456430154
  0.1668079605419237  0.3334601907760373  0.3200750794033596
  0.0002098488773328  0.5000288809231677  0.6812002665182249
  0.4996167269233212  0.3337060208667992  0.4503443701835508
  0.3333550993108076  0.5000158178660143  0.5529002748425995
  0.4998584900051455  0.3334702076641918  0.3200742239109218
  0.3333607603800885  0.5000270348676636  0.6923790181945790
  0.8333461149695438  0.3334861595931216  0.4499010507911478
  0.6658746881940516  0.4999779656326666  0.5510035093942918
  0.8333337710958872  0.3334257330485926  0.3200223391662789
  0.6664758207091097  0.4999801044224910  0.6811930793777350
  0.1670338238316944  0.6663098801489014  0.4503444351356265
  0.0006941779944114  0.8326480792516264  0.5505872853072020
  0.1667942409947045  0.6665363840386433  0.3200767565712255
  0.9986061216997868  0.8347430574135117  0.6798911330701927
  0.4996265637084392  0.6663066349394029  0.4503390428990102
  0.3333080602210501  0.8325272418233567  0.5510018896380373
  0.4998719990522460  0.6665270504570273  0.3200755267055371
  0.3333166639888674  0.8331332948609500  0.6811939128648419
  0.8333436728558965  0.6665359468827674  0.4498921080226950
  0.6660216248522843  0.8326600527522032  0.5505712443931969
  0.8333323894443936  0.6665839379397696  0.3200276317587196
  0.6681220268291028  0.8347654692965207  0.6798983708330013
  0.0002737235745016  0.1669128266042179  0.3934663859999787
  0.1671990686660934  0.9999861733509547  0.6064936289643086
  0.3333357984809240  0.1669500930577286  0.3935747791377580
  0.4994760612491405  0.0000379306543863  0.6064759303548612
  0.6663916971806074  0.1669429957727431  0.3934805356017108
  0.8333586160209450  0.0000036317798049  0.6057878183040160
  0.0002631907679316  0.5000048496107752  0.3936020193843390
  0.1678231718534207  0.3344648884749262  0.6077127921997416
  0.3333532696332782  0.4999703278463343  0.3938517430883550
  0.4989073717172943  0.3344296055996026  0.6077543923102766
  0.6663864064693357  0.4999901122113712  0.3935842335006328
  0.8333192460866528  0.3338602959804078  0.6064790659315875
  0.0002527051501389  0.8330810741115471  0.3934678890551240
  0.1677724079751854  0.6655733685212937  0.6077547422268310
  0.3333212780149566  0.8330760207479457  0.3936099362537107
  0.4988833226303910  0.6655349090940419  0.6077195291872428
  0.6664266454427690  0.8330657287292027  0.3934580653006918
  0.8333726553377971  0.6661557061122494  0.6064763197720708
  0.0000589823871024  0.1667246679458074  0.2723580069122562
  0.1660453215848179  0.0000032207316210  0.7272164858657248
  0.3333329836226753  0.1667299230663204  0.2722983989639474
  0.5006492461146124  0.0000030989223703  0.7272122076926024
  0.6666055557462585  0.1667249888088520  0.2723587524236351
  0.8333532389675398  0.0000100222767401  0.7280410954627570
  0.0000632616467513  0.4999995237804455  0.2722985209540880
  0.1582512300632288  0.3249173498147897  0.7256017266424664
  0.3333334975071978  0.4999993198610397  0.2722250001019333
  0.5084594487447873  0.3248973390456129  0.7255995187762991
  0.6666011724215153  0.4999995617870567  0.2722992102062562
  0.8333462299391599  0.3327005798809353  0.7272074541618565
  0.0000584790648404  0.8332724347143454  0.2723564535261929
  0.1582429863248933  0.6751244197540132  0.7256170614318194
  0.3333329778122618  0.8332685206441113  0.2722978570864001
  0.5084597910583568  0.6751354940781127  0.7256052495323715
  0.6666063243943512  0.8332718900911544  0.2723579346026668
  0.8333455620471497  0.6673135734258437  0.7272086949114467
  0.1672964320653350  0.0000066178266778  0.5394172827037096
  0.0004689976237202  0.1671338460097829  0.4607366273898847
  0.1666298295389552  0.1663193576965156  0.6190428062908282
  0.1667894977474234  0.1667786990786126  0.3809151074035313
  0.0000937798513831  0.0000082571460780  0.3809494358381613
  0.9998703455805469  0.0000102293571658  0.6183393030653832
  0.4993875320783587  0.9999965753203099  0.5394197792518938
  0.3333333141938652  0.1671135315475638  0.4609153529495202
  0.5000560246730430  0.1662694594040914  0.6190387817659087
  0.4998814778486675  0.1667757566726280  0.3809144409873753
  0.3333351666520628  0.9999859132718001  0.3810457104925220
  0.3333548796974313  0.0000060607692660  0.6192764229938845
  0.8333409832923948  0.0000047953833331  0.5388530296839349
  0.6662037676155279  0.1671284540967264  0.4607257839099077
  0.8333539433159558  0.1665340458446423  0.6183361088090535
  0.8333298069693313  0.1667615623913008  0.3809484331371209
  0.6665707028682490  0.0000015046144455  0.3809493296422275
  0.6668103029313386  0.0000043925550699  0.6183371350454365
  0.1674425883938042  0.3341115663296890  0.5404205245901323
  0.0004527065038005  0.4999984764216876  0.4608995417831636
  0.1665984378311904  0.4999767256697325  0.6205485095961976
  0.1668329485642133  0.4999990062899471  0.3810833354621792
  0.0001107459004857  0.3334703334239535  0.3809097693567196
  0.9996580961780523  0.3332967133170612  0.6190436064719904
  0.4992376769761719  0.3341113367161839  0.5403976046670138
  0.3333338873090099  0.5000028237174590  0.4612371936441235
  0.5000888214495376  0.5000532000679740  0.6205471991096800
  0.4998228761271903  0.5000011478055200  0.3810859438266476
  0.3333323095096787  0.3335148485185400  0.3810865705986970
  0.3332992850352454  0.3332630190884984  0.6205435815654710
  0.8333479141471614  0.3339618096663060  0.5394106893368189
  0.6662176399645645  0.5000035163322494  0.4609086275324685
  0.8333464144501193  0.4999992871394880  0.6192774077135610
  0.8333426912957123  0.4999981926532584  0.3810444192479139
  0.6665565239373024  0.3334566609433338  0.3809129549995163
  0.6670721038317922  0.3332973427035100  0.6190369774963358
  0.1674486767512775  0.6658950325108108  0.5403926526449041
  0.0004667274079964  0.8328687402752024  0.4607369249667386
  0.1666345051457441  0.8337189717489082  0.6190374519059461
  0.1668135598263660  0.8332208320605616  0.3809109349586137
  0.0001110784921181  0.6665198780984980  0.3809112235872405
  0.9996335263477434  0.6667092224745090  0.6190398102017696
  0.4992384341381424  0.6659020116845795  0.5404153416727695
  0.3333385574826622  0.8328848928735653  0.4608959199225140
  0.5000593811679579  0.8337042909385914  0.6190410224417633
  0.4998628358725625  0.8332211925277875  0.3809105625541633
  0.3333345615173045  0.6665004958213956  0.3810833299287566
  0.3333761020081880  0.6667458229742707  0.6205445182002123
  0.8333371343909732  0.6660442517864666  0.5394120331522316
  0.6661996949224616  0.8328683277345164  0.4607429455258725
  0.8333470238658194  0.8334819750148910  0.6183343495790723
  0.8333236696594497  0.8332374170541783  0.3809492913781227
  0.6665535430512790  0.6665390935014344  0.3809145144530746
  0.6670315647618992  0.6667158859077276  0.6190409360142723
  0.3334003000470602  0.4999410777696767  0.7757654627348387
  0.3339007116894521  0.5016149837811525  0.8109220760266709
 
  0.00000000E+00  0.00000000E+00  0.00000000E+00
  0.00000000E+00  0.00000000E+00  0.00000000E+00
  0.00000000E+00  0.00000000E+00  0.00000000E+00
  0.00000000E+00  0.00000000E+00  0.00000000E+00
  0.00000000E+00  0.00000000E+00  0.00000000E+00
  0.00000000E+00  0.00000000E+00  0.00000000E+00
  0.00000000E+00  0.00000000E+00  0.00000000E+00
  0.00000000E+00  0.00000000E+00  0.00000000E+00
  0.00000000E+00  0.00000000E+00  0.00000000E+00
  0.00000000E+00  0.00000000E+00  0.00000000E+00
  0.00000000E+00  0.00000000E+00  0.00000000E+00
  0.00000000E+00  0.00000000E+00  0.00000000E+00
  0.00000000E+00  0.00000000E+00  0.00000000E+00
  0.00000000E+00  0.00000000E+00  0.00000000E+00
  0.00000000E+00  0.00000000E+00  0.00000000E+00
  0.00000000E+00  0.00000000E+00  0.00000000E+00
  0.00000000E+00  0.00000000E+00  0.00000000E+00
  0.00000000E+00  0.00000000E+00  0.00000000E+00
  0.00000000E+00  0.00000000E+00  0.00000000E+00
  0.00000000E+00  0.00000000E+00  0.00000000E+00
  0.00000000E+00  0.00000000E+00  0.00000000E+00
  0.00000000E+00  0.00000000E+00  0.00000000E+00
  0.00000000E+00  0.00000000E+00  0.00000000E+00
  0.00000000E+00  0.00000000E+00  0.00000000E+00
  0.00000000E+00  0.00000000E+00  0.00000000E+00
  0.00000000E+00  0.00000000E+00  0.00000000E+00
  0.00000000E+00  0.00000000E+00  0.00000000E+00
  0.00000000E+00  0.00000000E+00  0.00000000E+00
  0.00000000E+00  0.00000000E+00  0.00000000E+00
  0.00000000E+00  0.00000000E+00  0.00000000E+00
  0.00000000E+00  0.00000000E+00  0.00000000E+00
  0.00000000E+00  0.00000000E+00  0.00000000E+00
  0.00000000E+00  0.00000000E+00  0.00000000E+00
  0.00000000E+00  0.00000000E+00  0.00000000E+00
  0.00000000E+00  0.00000000E+00  0.00000000E+00
  0.00000000E+00  0.00000000E+00  0.00000000E+00
  0.00000000E+00  0.00000000E+00  0.00000000E+00
  0.00000000E+00  0.00000000E+00  0.00000000E+00
  0.00000000E+00  0.00000000E+00  0.00000000E+00
  0.00000000E+00  0.00000000E+00  0.00000000E+00
  0.00000000E+00  0.00000000E+00  0.00000000E+00
  0.00000000E+00  0.00000000E+00  0.00000000E+00
  0.00000000E+00  0.00000000E+00  0.00000000E+00
  0.00000000E+00  0.00000000E+00  0.00000000E+00
  0.00000000E+00  0.00000000E+00  0.00000000E+00
  0.00000000E+00  0.00000000E+00  0.00000000E+00
  0.00000000E+00  0.00000000E+00  0.00000000E+00
  0.00000000E+00  0.00000000E+00  0.00000000E+00
  0.00000000E+00  0.00000000E+00  0.00000000E+00
  0.00000000E+00  0.00000000E+00  0.00000000E+00
  0.00000000E+00  0.00000000E+00  0.00000000E+00
  0.00000000E+00  0.00000000E+00  0.00000000E+00
  0.00000000E+00  0.00000000E+00  0.00000000E+00
  0.00000000E+00  0.00000000E+00  0.00000000E+00
  0.00000000E+00  0.00000000E+00  0.00000000E+00
  0.00000000E+00  0.00000000E+00  0.00000000E+00
  0.00000000E+00  0.00000000E+00  0.00000000E+00
  0.00000000E+00  0.00000000E+00  0.00000000E+00
  0.00000000E+00  0.00000000E+00  0.00000000E+00
  0.00000000E+00  0.00000000E+00  0.00000000E+00
  0.00000000E+00  0.00000000E+00  0.00000000E+00
  0.00000000E+00  0.00000000E+00  0.00000000E+00
  0.00000000E+00  0.00000000E+00  0.00000000E+00
  0.00000000E+00  0.00000000E+00  0.00000000E+00
  0.00000000E+00  0.00000000E+00  0.00000000E+00
  0.00000000E+00  0.00000000E+00  0.00000000E+00
  0.00000000E+00  0.00000000E+00  0.00000000E+00
  0.00000000E+00  0.00000000E+00  0.00000000E+00
  0.00000000E+00  0.00000000E+00  0.00000000E+00
  0.00000000E+00  0.00000000E+00  0.00000000E+00
  0.00000000E+00  0.00000000E+00  0.00000000E+00
  0.00000000E+00  0.00000000E+00  0.00000000E+00
  0.00000000E+00  0.00000000E+00  0.00000000E+00
  0.00000000E+00  0.00000000E+00  0.00000000E+00
  0.00000000E+00  0.00000000E+00  0.00000000E+00
  0.00000000E+00  0.00000000E+00  0.00000000E+00
  0.00000000E+00  0.00000000E+00  0.00000000E+00
  0.00000000E+00  0.00000000E+00  0.00000000E+00
  0.00000000E+00  0.00000000E+00  0.00000000E+00
  0.00000000E+00  0.00000000E+00  0.00000000E+00
  0.00000000E+00  0.00000000E+00  0.00000000E+00
  0.00000000E+00  0.00000000E+00  0.00000000E+00
  0.00000000E+00  0.00000000E+00  0.00000000E+00
  0.00000000E+00  0.00000000E+00  0.00000000E+00
  0.00000000E+00  0.00000000E+00  0.00000000E+00
  0.00000000E+00  0.00000000E+00  0.00000000E+00
  0.00000000E+00  0.00000000E+00  0.00000000E+00
  0.00000000E+00  0.00000000E+00  0.00000000E+00
  0.00000000E+00  0.00000000E+00  0.00000000E+00
  0.00000000E+00  0.00000000E+00  0.00000000E+00
  0.00000000E+00  0.00000000E+00  0.00000000E+00
  0.00000000E+00  0.00000000E+00  0.00000000E+00
  0.00000000E+00  0.00000000E+00  0.00000000E+00
  0.00000000E+00  0.00000000E+00  0.00000000E+00
  0.00000000E+00  0.00000000E+00  0.00000000E+00
  0.00000000E+00  0.00000000E+00  0.00000000E+00
  0.00000000E+00  0.00000000E+00  0.00000000E+00
  0.00000000E+00  0.00000000E+00  0.00000000E+00
  0.00000000E+00  0.00000000E+00  0.00000000E+00
  0.00000000E+00  0.00000000E+00  0.00000000E+00
  0.00000000E+00  0.00000000E+00  0.00000000E+00
  0.00000000E+00  0.00000000E+00  0.00000000E+00
  0.00000000E+00  0.00000000E+00  0.00000000E+00
  0.00000000E+00  0.00000000E+00  0.00000000E+00
  0.00000000E+00  0.00000000E+00  0.00000000E+00
  0.00000000E+00  0.00000000E+00  0.00000000E+00
  0.00000000E+00  0.00000000E+00  0.00000000E+00
  0.00000000E+00  0.00000000E+00  0.00000000E+00
  0.00000000E+00  0.00000000E+00  0.00000000E+00
  0.00000000E+00  0.00000000E+00  0.00000000E+00
  0.00000000E+00  0.00000000E+00  0.00000000E+00
  0.00000000E+00  0.00000000E+00  0.00000000E+00
  0.00000000E+00  0.00000000E+00  0.00000000E+00
  0.00000000E+00  0.00000000E+00  0.00000000E+00
  0.00000000E+00  0.00000000E+00  0.00000000E+00
  0.00000000E+00  0.00000000E+00  0.00000000E+00
  0.00000000E+00  0.00000000E+00  0.00000000E+00
  0.00000000E+00  0.00000000E+00  0.00000000E+00
  0.00000000E+00  0.00000000E+00  0.00000000E+00
  0.00000000E+00  0.00000000E+00  0.00000000E+00
  0.00000000E+00  0.00000000E+00  0.00000000E+00
  0.00000000E+00  0.00000000E+00  0.00000000E+00
  0.00000000E+00  0.00000000E+00  0.00000000E+00
  0.00000000E+00  0.00000000E+00  0.00000000E+00
  0.00000000E+00  0.00000000E+00  0.00000000E+00
  0.00000000E+00  0.00000000E+00  0.00000000E+00
  0.00000000E+00  0.00000000E+00  0.00000000E+00
  0.00000000E+00  0.00000000E+00  0.00000000E+00
