CONTCAR\(4)                             
   1.00000000000000     
    11.2371997832999995    0.0000000000000000    0.0000000000000000
     0.0000000000000000   14.7250003814999992    0.0000000000000000
     0.0000000000000000    0.0000000000000000   22.6672992706000009
   Li   Cu   F    O 
    32    32    80     1
Direct
  0.1885117910196215  0.0697171383020745  0.5175216982458863
  0.1929597699150420  0.4219370972565741  0.6032148125180470
  0.0625765140657535  0.0756542217958796  0.3909106657520240
  0.0618809247617449  0.4333304960949746  0.4788322181136166
  0.4384650935929173  0.0761673036202879  0.5256184243319737
  0.4377206386846382  0.3279114827156775  0.6730683342630286
  0.3130283544123103  0.0781017729725377  0.3924642539409859
  0.3137002750864895  0.4318254720196535  0.4817538072287846
  0.6883461168645226  0.0680848746541116  0.5175939230130737
  0.6815280103094068  0.4220792883372937  0.6028838725974310
  0.5621402671598474  0.0777849732738431  0.3924945707928202
  0.5605341450791528  0.4316337916388093  0.4818385717090692
  0.9378177328337003  0.0697711002552595  0.5191557955092705
  0.9376328196915722  0.4261875435173650  0.6050686442850335
  0.8121032499233252  0.0754948966136695  0.3906978740252995
  0.8124906002186449  0.4333933021763485  0.4788812742626760
  0.1858022936062653  0.5723398473272354  0.5195816143101695
  0.1951413370772173  0.9334085896600257  0.6102807396882213
  0.0620509038828487  0.5782587952545910  0.3914605451522490
  0.0631313564058189  0.9314532040262335  0.4809328358295133
  0.4370302118495104  0.5677564247454541  0.5246544460077658
  0.4378932367504476  0.9365455554704383  0.6117633692040343
  0.3121055078139747  0.5772660219211971  0.3937968360210604
  0.3146340007109174  0.9331470042103973  0.4808971564431843
  0.6885457601145788  0.5726928964099471  0.5192896231968334
  0.6804524728150980  0.9330476217244481  0.6106634048802562
  0.5627201908212598  0.5769455841360340  0.3934539687686609
  0.5610433815669253  0.9327969188829144  0.4806484704005669
  0.9371900270624991  0.5727259211653148  0.5199033291188471
  0.9370503860630635  0.9270993848328217  0.6072704565861642
  0.8126172681432848  0.5780428245078610  0.3910235812510976
  0.8125484039075985  0.9308081266930728  0.4805070082139622
  0.0631701511502740  0.2508455575282937  0.5637282073919536
  0.0675786555528077  0.0905214486834041  0.6559282104079998
  0.1874892931022885  0.4191764405456908  0.3391933058878891
  0.1838161787660511  0.2506593983876968  0.4289272063035625
  0.3021175151484030  0.2481387925175085  0.5618289482307048
  0.3207180438602890  0.1123916368325055  0.6835271461722456
  0.4367098517686188  0.4186791671352310  0.3413158332368056
  0.4385459623683374  0.2496091330553867  0.4305419722854253
  0.5769105165738324  0.2460896563379364  0.5631118577573062
  0.5534355165535843  0.1115719835170452  0.6842238439796091
  0.6867312616445389  0.4179642945480992  0.3397928779277493
  0.6905212158509286  0.2502030723669932  0.4300403250403946
  0.8114855877488409  0.2504120929391362  0.5655036355832266
  0.8084020752801351  0.0914014926172158  0.6578102074386294
  0.9376057547529300  0.4176293862093843  0.3384333833681978
  0.9359744954937455  0.2499056850730170  0.4304149690749881
  0.0666330553532859  0.7536643699124781  0.5720841013235898
  0.0641323820328452  0.5803406859242699  0.6596685292684441
  0.1877207094628162  0.9166780688206515  0.3428595070904592
  0.1878828672188746  0.7509561863456682  0.4358864412553061
  0.3148863063184066  0.7521747428091317  0.5707537928629947
  0.3163463406765672  0.5624199547117783  0.6554953183753227
  0.4374475368399544  0.9173448475321706  0.3429854854211030
  0.4375213635096387  0.7490826085805580  0.4349873911318198
  0.5608722387618030  0.7521024195932284  0.5702832125413693
  0.5572939141472872  0.5622715219205574  0.6543870637818046
  0.6873711244087843  0.9167134303165696  0.3424343662860920
  0.6870757767134492  0.7505359747053646  0.4337901508012862
  0.8061847737526975  0.7541657206593939  0.5709656709462649
  0.8102989073762714  0.5806257196572560  0.6584219855467595
  0.9376540285690638  0.9156197678190736  0.3419161788084111
  0.9378243890078579  0.7507534877494280  0.4370152335021658
  0.0612603396917990  0.1604809616435858  0.5050532736946991
  0.0595167547284916  0.4962844139816553  0.5542890343646647
  0.0625781632061688  0.3447448706198344  0.6166101498859575
  0.1929388027763181  0.1746802741793303  0.6338174530939114
  0.1989444612025792  0.0152616873049851  0.6791159599596810
  0.0620821161027720  0.5042490694405544  0.3193754305972831
  0.0630275003661964  0.3361688155197626  0.3673031450453266
  0.1859925493032577  0.1566308631370177  0.3752858268387982
  0.1865652374624602  0.0053643956576792  0.4419428046698854
  0.1869751183292010  0.3404927070700623  0.4896444393019479
  0.3007000408387128  0.1659506296340894  0.4947798209039149
  0.3026385089081955  0.4972863948864870  0.5545191544184078
  0.3115064167131365  0.3375195211347730  0.6199500832280407
  0.4384315088887689  0.1646667480017712  0.5881741072076423
  0.4378513058688114  0.0084963893182248  0.6816505867272653
  0.3126268182135234  0.5045650403798021  0.3207095327357621
  0.3113934316423439  0.3370298579238309  0.3696150492836878
  0.4378232522295349  0.1580640699316405  0.3753979513119390
  0.4379368364708540  0.0084842129950289  0.4431365358106447
  0.4369794196513084  0.3377244984558700  0.4909271975149991
  0.5775975130328490  0.1643693791248353  0.4961912815640375
  0.5715295152129514  0.4974838366626599  0.5544211720158785
  0.5637567976495745  0.3372162377592574  0.6199174550133009
  0.6840169349557783  0.1784869809827541  0.6414037472228102
  0.6764557726061895  0.0147198556211734  0.6789009276115152
  0.5618465749246013  0.5030127750199398  0.3207876586982437
  0.5619722958497562  0.3375503204647785  0.3718519669062132
  0.6887788460580921  0.1570849494496187  0.3757520073358052
  0.6891701734672964  0.0052933519424840  0.4417275488481209
  0.6875255371820899  0.3409151201073684  0.4900026773996586
  0.8144747277842725  0.1601194434262112  0.5070487845273135
  0.8148418365009817  0.4966436199457505  0.5541863628264210
  0.8122389341485885  0.3455797506909661  0.6171638921267402
  0.9379599217579511  0.1666336370768349  0.6242636350796147
  0.9376720214667813  0.0086439795153410  0.6754733565198521
  0.8122225213386187  0.5029262055442132  0.3193161793702401
  0.8119685554434639  0.3362246506558648  0.3681183488754698
  0.9371355351174131  0.1560528433235078  0.3771419860830321
  0.9377154968765069  0.0054764746710418  0.4431788709363005
  0.9372025952952754  0.3416593535698311  0.4884481558718008
  0.0622953909692114  0.6652025785421074  0.5111039023867008
  0.0630057331235960  0.9976423832053740  0.5557835696587574
  0.0661952250441544  0.8498375219253802  0.6237190228982996
  0.1942904881443326  0.6543690743563602  0.6297415279961740
  0.1835480225721398  0.4890297984149115  0.6791356236385511
  0.0623750692842506  0.9990362657757430  0.3193280856507030
  0.0626128865079849  0.8374335199321692  0.3750457302259278
  0.1875556358206012  0.6593507939626804  0.3808868084083272
  0.1867117579125406  0.5074082681725471  0.4427494155394314
  0.1879216160652390  0.8418571787565341  0.4944917370315167
  0.3128010750053676  0.6647600316823556  0.5091197420770754
  0.3111996805987332  0.9976490901196726  0.5540439769689698
  0.3153531970781671  0.8474118144459766  0.6228480916741219
  0.4365897699376617  0.6453374921773189  0.6235305110824569
  0.4372007808112528  0.4807074051185154  0.6873764694216931
  0.3123999939183761  0.0004209537797237  0.3206398096202960
  0.3128396177869988  0.8373376235596339  0.3745247132450586
  0.4374618831111903  0.6577042951200553  0.3798146171385568
  0.4371234288759354  0.5074260277212801  0.4452459768824610
  0.4377847680135858  0.8413789315278137  0.4926350515629352
  0.5614711009635727  0.6648268453290811  0.5085835040641769
  0.5649232827534192  0.9967355122764872  0.5541134173080806
  0.5600438678181519  0.8467787029702691  0.6227792713548723
  0.6798924961272590  0.6537220554286947  0.6269433969026679
  0.6905710880240647  0.4901304718787358  0.6784537282185283
  0.5625240322086995  0.0004634706938518  0.3205122526581548
  0.5622615308642480  0.8371420815497785  0.3739204976621409
  0.6871313275600670  0.6587310165502984  0.3788557058696682
  0.6877825452463284  0.5078517904746107  0.4426858263132303
  0.6873262292227622  0.8411493370967662  0.4927178945688340
  0.8121376648424032  0.6655318767795890  0.5100771938881650
  0.8129733928290719  0.9962709305152302  0.5555684385125446
  0.8086818331912511  0.8489342154667057  0.6236737903412575
  0.9376942975632474  0.6637684788831351  0.6315209761446638
  0.9369939744426219  0.4982927000179984  0.6795505456973316
  0.8128601738819086  0.9990566181098757  0.3191790989261492
  0.8124943129353923  0.8373030975325335  0.3745809629143295
  0.9373484391529985  0.6605075118643029  0.3809520963766744
  0.9373418748855329  0.5091126284639884  0.4427665377665519
  0.9378611160157462  0.8414835528515425  0.4961161303425712
  0.4367688286512248  0.1933096806354513  0.7050387819430313
 
  0.00000000E+00  0.00000000E+00  0.00000000E+00
  0.00000000E+00  0.00000000E+00  0.00000000E+00
  0.00000000E+00  0.00000000E+00  0.00000000E+00
  0.00000000E+00  0.00000000E+00  0.00000000E+00
  0.00000000E+00  0.00000000E+00  0.00000000E+00
  0.00000000E+00  0.00000000E+00  0.00000000E+00
  0.00000000E+00  0.00000000E+00  0.00000000E+00
  0.00000000E+00  0.00000000E+00  0.00000000E+00
  0.00000000E+00  0.00000000E+00  0.00000000E+00
  0.00000000E+00  0.00000000E+00  0.00000000E+00
  0.00000000E+00  0.00000000E+00  0.00000000E+00
  0.00000000E+00  0.00000000E+00  0.00000000E+00
  0.00000000E+00  0.00000000E+00  0.00000000E+00
  0.00000000E+00  0.00000000E+00  0.00000000E+00
  0.00000000E+00  0.00000000E+00  0.00000000E+00
  0.00000000E+00  0.00000000E+00  0.00000000E+00
  0.00000000E+00  0.00000000E+00  0.00000000E+00
  0.00000000E+00  0.00000000E+00  0.00000000E+00
  0.00000000E+00  0.00000000E+00  0.00000000E+00
  0.00000000E+00  0.00000000E+00  0.00000000E+00
  0.00000000E+00  0.00000000E+00  0.00000000E+00
  0.00000000E+00  0.00000000E+00  0.00000000E+00
  0.00000000E+00  0.00000000E+00  0.00000000E+00
  0.00000000E+00  0.00000000E+00  0.00000000E+00
  0.00000000E+00  0.00000000E+00  0.00000000E+00
  0.00000000E+00  0.00000000E+00  0.00000000E+00
  0.00000000E+00  0.00000000E+00  0.00000000E+00
  0.00000000E+00  0.00000000E+00  0.00000000E+00
  0.00000000E+00  0.00000000E+00  0.00000000E+00
  0.00000000E+00  0.00000000E+00  0.00000000E+00
  0.00000000E+00  0.00000000E+00  0.00000000E+00
  0.00000000E+00  0.00000000E+00  0.00000000E+00
  0.00000000E+00  0.00000000E+00  0.00000000E+00
  0.00000000E+00  0.00000000E+00  0.00000000E+00
  0.00000000E+00  0.00000000E+00  0.00000000E+00
  0.00000000E+00  0.00000000E+00  0.00000000E+00
  0.00000000E+00  0.00000000E+00  0.00000000E+00
  0.00000000E+00  0.00000000E+00  0.00000000E+00
  0.00000000E+00  0.00000000E+00  0.00000000E+00
  0.00000000E+00  0.00000000E+00  0.00000000E+00
  0.00000000E+00  0.00000000E+00  0.00000000E+00
  0.00000000E+00  0.00000000E+00  0.00000000E+00
  0.00000000E+00  0.00000000E+00  0.00000000E+00
  0.00000000E+00  0.00000000E+00  0.00000000E+00
  0.00000000E+00  0.00000000E+00  0.00000000E+00
  0.00000000E+00  0.00000000E+00  0.00000000E+00
  0.00000000E+00  0.00000000E+00  0.00000000E+00
  0.00000000E+00  0.00000000E+00  0.00000000E+00
  0.00000000E+00  0.00000000E+00  0.00000000E+00
  0.00000000E+00  0.00000000E+00  0.00000000E+00
  0.00000000E+00  0.00000000E+00  0.00000000E+00
  0.00000000E+00  0.00000000E+00  0.00000000E+00
  0.00000000E+00  0.00000000E+00  0.00000000E+00
  0.00000000E+00  0.00000000E+00  0.00000000E+00
  0.00000000E+00  0.00000000E+00  0.00000000E+00
  0.00000000E+00  0.00000000E+00  0.00000000E+00
  0.00000000E+00  0.00000000E+00  0.00000000E+00
  0.00000000E+00  0.00000000E+00  0.00000000E+00
  0.00000000E+00  0.00000000E+00  0.00000000E+00
  0.00000000E+00  0.00000000E+00  0.00000000E+00
  0.00000000E+00  0.00000000E+00  0.00000000E+00
  0.00000000E+00  0.00000000E+00  0.00000000E+00
  0.00000000E+00  0.00000000E+00  0.00000000E+00
  0.00000000E+00  0.00000000E+00  0.00000000E+00
  0.00000000E+00  0.00000000E+00  0.00000000E+00
  0.00000000E+00  0.00000000E+00  0.00000000E+00
  0.00000000E+00  0.00000000E+00  0.00000000E+00
  0.00000000E+00  0.00000000E+00  0.00000000E+00
  0.00000000E+00  0.00000000E+00  0.00000000E+00
  0.00000000E+00  0.00000000E+00  0.00000000E+00
  0.00000000E+00  0.00000000E+00  0.00000000E+00
  0.00000000E+00  0.00000000E+00  0.00000000E+00
  0.00000000E+00  0.00000000E+00  0.00000000E+00
  0.00000000E+00  0.00000000E+00  0.00000000E+00
  0.00000000E+00  0.00000000E+00  0.00000000E+00
  0.00000000E+00  0.00000000E+00  0.00000000E+00
  0.00000000E+00  0.00000000E+00  0.00000000E+00
  0.00000000E+00  0.00000000E+00  0.00000000E+00
  0.00000000E+00  0.00000000E+00  0.00000000E+00
  0.00000000E+00  0.00000000E+00  0.00000000E+00
  0.00000000E+00  0.00000000E+00  0.00000000E+00
  0.00000000E+00  0.00000000E+00  0.00000000E+00
  0.00000000E+00  0.00000000E+00  0.00000000E+00
  0.00000000E+00  0.00000000E+00  0.00000000E+00
  0.00000000E+00  0.00000000E+00  0.00000000E+00
  0.00000000E+00  0.00000000E+00  0.00000000E+00
  0.00000000E+00  0.00000000E+00  0.00000000E+00
  0.00000000E+00  0.00000000E+00  0.00000000E+00
  0.00000000E+00  0.00000000E+00  0.00000000E+00
  0.00000000E+00  0.00000000E+00  0.00000000E+00
  0.00000000E+00  0.00000000E+00  0.00000000E+00
  0.00000000E+00  0.00000000E+00  0.00000000E+00
  0.00000000E+00  0.00000000E+00  0.00000000E+00
  0.00000000E+00  0.00000000E+00  0.00000000E+00
  0.00000000E+00  0.00000000E+00  0.00000000E+00
  0.00000000E+00  0.00000000E+00  0.00000000E+00
  0.00000000E+00  0.00000000E+00  0.00000000E+00
  0.00000000E+00  0.00000000E+00  0.00000000E+00
  0.00000000E+00  0.00000000E+00  0.00000000E+00
  0.00000000E+00  0.00000000E+00  0.00000000E+00
  0.00000000E+00  0.00000000E+00  0.00000000E+00
  0.00000000E+00  0.00000000E+00  0.00000000E+00
  0.00000000E+00  0.00000000E+00  0.00000000E+00
  0.00000000E+00  0.00000000E+00  0.00000000E+00
  0.00000000E+00  0.00000000E+00  0.00000000E+00
  0.00000000E+00  0.00000000E+00  0.00000000E+00
  0.00000000E+00  0.00000000E+00  0.00000000E+00
  0.00000000E+00  0.00000000E+00  0.00000000E+00
  0.00000000E+00  0.00000000E+00  0.00000000E+00
  0.00000000E+00  0.00000000E+00  0.00000000E+00
  0.00000000E+00  0.00000000E+00  0.00000000E+00
  0.00000000E+00  0.00000000E+00  0.00000000E+00
  0.00000000E+00  0.00000000E+00  0.00000000E+00
  0.00000000E+00  0.00000000E+00  0.00000000E+00
  0.00000000E+00  0.00000000E+00  0.00000000E+00
  0.00000000E+00  0.00000000E+00  0.00000000E+00
  0.00000000E+00  0.00000000E+00  0.00000000E+00
  0.00000000E+00  0.00000000E+00  0.00000000E+00
  0.00000000E+00  0.00000000E+00  0.00000000E+00
  0.00000000E+00  0.00000000E+00  0.00000000E+00
  0.00000000E+00  0.00000000E+00  0.00000000E+00
  0.00000000E+00  0.00000000E+00  0.00000000E+00
  0.00000000E+00  0.00000000E+00  0.00000000E+00
  0.00000000E+00  0.00000000E+00  0.00000000E+00
  0.00000000E+00  0.00000000E+00  0.00000000E+00
  0.00000000E+00  0.00000000E+00  0.00000000E+00
  0.00000000E+00  0.00000000E+00  0.00000000E+00
  0.00000000E+00  0.00000000E+00  0.00000000E+00
  0.00000000E+00  0.00000000E+00  0.00000000E+00
  0.00000000E+00  0.00000000E+00  0.00000000E+00
  0.00000000E+00  0.00000000E+00  0.00000000E+00
  0.00000000E+00  0.00000000E+00  0.00000000E+00
  0.00000000E+00  0.00000000E+00  0.00000000E+00
  0.00000000E+00  0.00000000E+00  0.00000000E+00
  0.00000000E+00  0.00000000E+00  0.00000000E+00
  0.00000000E+00  0.00000000E+00  0.00000000E+00
  0.00000000E+00  0.00000000E+00  0.00000000E+00
  0.00000000E+00  0.00000000E+00  0.00000000E+00
  0.00000000E+00  0.00000000E+00  0.00000000E+00
  0.00000000E+00  0.00000000E+00  0.00000000E+00
  0.00000000E+00  0.00000000E+00  0.00000000E+00
  0.00000000E+00  0.00000000E+00  0.00000000E+00
  0.00000000E+00  0.00000000E+00  0.00000000E+00
  0.00000000E+00  0.00000000E+00  0.00000000E+00
  0.00000000E+00  0.00000000E+00  0.00000000E+00
