CONTCAR\(4)                             
   1.00000000000000     
    10.0733995438000008    0.0000000000000000    0.0000000000000000
     0.0000000000000000    9.7955999374000005    0.0000000000000000
     0.0000000000000000    0.0000000000000000   18.6921005248999990
   Ta   Se   O 
    12    18     1
Direct
  0.0654149150026572  0.5512351848861718  0.5023335440750221
  0.2344671941939875  0.2993704683905707  0.5167495326811293
  0.0861456707350839  0.8581065020574957  0.5532211974607882
  0.2531617952438625  0.9876922768514288  0.4555266567222999
  0.4412073890066325  0.5520312693107078  0.5013266501537229
  0.6089885106851339  0.3014433268629637  0.4974670146927181
  0.4224187928872677  0.8577230910607672  0.5520825491241588
  0.5861572199287212  0.9890898402248196  0.4503103691266439
  0.7518786535173705  0.5546971542350877  0.5015917170924965
  0.9075556740594142  0.2966743579517627  0.5009290507827411
  0.7524308239635203  0.8676299569706940  0.5507574647950089
  0.9193171414319276  0.9840696828727069  0.4507322975956397
  0.0327000592126765  0.3916232435698154  0.6108234225661540
  0.2527973536704224  0.4834562034812352  0.4153518212489517
  0.0882186511930943  0.1782056195033909  0.4139363877513860
  0.2540976845452709  0.6678019366606093  0.5942116072128679
  0.2558049866731482  0.0368139901538693  0.5937062691772499
  0.0869560003872989  0.7943458904733379  0.4176766504286291
  0.4414329120741364  0.3644613476674811  0.5945692505889625
  0.5915077358530443  0.4829184015121499  0.3976680055057337
  0.4149253043305459  0.1825800411780683  0.4157880102483530
  0.5896589910958835  0.6740918127410321  0.5979750606225260
  0.5873688647129908  0.0557658430901363  0.5855468725008391
  0.4198168931481066  0.7980454243316889  0.4160061391520339
  0.7482670289886609  0.3722350409280218  0.6039139514752329
  0.9172336702917691  0.4786785859362024  0.3992658920405141
  0.7551265763706190  0.1704194655932380  0.3998737850302738
  0.9140232933461775  0.6804502379410541  0.5990454451282035
  0.9214843529673562  0.0566430024758693  0.5851594785258960
  0.7516583485573817  0.7945192987883559  0.4158670482471650
  0.1976073289258506  0.3101310262992832  0.6206265992466260
 
  0.00000000E+00  0.00000000E+00  0.00000000E+00
  0.00000000E+00  0.00000000E+00  0.00000000E+00
  0.00000000E+00  0.00000000E+00  0.00000000E+00
  0.00000000E+00  0.00000000E+00  0.00000000E+00
  0.00000000E+00  0.00000000E+00  0.00000000E+00
  0.00000000E+00  0.00000000E+00  0.00000000E+00
  0.00000000E+00  0.00000000E+00  0.00000000E+00
  0.00000000E+00  0.00000000E+00  0.00000000E+00
  0.00000000E+00  0.00000000E+00  0.00000000E+00
  0.00000000E+00  0.00000000E+00  0.00000000E+00
  0.00000000E+00  0.00000000E+00  0.00000000E+00
  0.00000000E+00  0.00000000E+00  0.00000000E+00
  0.00000000E+00  0.00000000E+00  0.00000000E+00
  0.00000000E+00  0.00000000E+00  0.00000000E+00
  0.00000000E+00  0.00000000E+00  0.00000000E+00
  0.00000000E+00  0.00000000E+00  0.00000000E+00
  0.00000000E+00  0.00000000E+00  0.00000000E+00
  0.00000000E+00  0.00000000E+00  0.00000000E+00
  0.00000000E+00  0.00000000E+00  0.00000000E+00
  0.00000000E+00  0.00000000E+00  0.00000000E+00
  0.00000000E+00  0.00000000E+00  0.00000000E+00
  0.00000000E+00  0.00000000E+00  0.00000000E+00
  0.00000000E+00  0.00000000E+00  0.00000000E+00
  0.00000000E+00  0.00000000E+00  0.00000000E+00
  0.00000000E+00  0.00000000E+00  0.00000000E+00
  0.00000000E+00  0.00000000E+00  0.00000000E+00
  0.00000000E+00  0.00000000E+00  0.00000000E+00
  0.00000000E+00  0.00000000E+00  0.00000000E+00
  0.00000000E+00  0.00000000E+00  0.00000000E+00
  0.00000000E+00  0.00000000E+00  0.00000000E+00
  0.00000000E+00  0.00000000E+00  0.00000000E+00
