CONTCAR\(2)                             
   1.00000000000000     
    15.6181001662999996    0.0000000000000000    0.0000000000000000
     0.0000000000000000   13.6417999267999992    0.0000000000000000
     0.0000000000000000    0.0000000000000000   21.1772994994999983
   Tb   Br   O 
    20    32     1
Direct
  0.1256370962790530  0.5250669077761724  0.4052772982305942
  0.1150375975113029  0.4760564512431631  0.5963424367524592
  0.9969422827957700  0.6410038040018859  0.5131560620887031
  0.9972357720600392  0.3613495058936995  0.4832773990666098
  0.1249325568173016  0.0019697096791851  0.4981636136040662
  0.3749947293722736  0.5263444744761077  0.4009998618369434
  0.3749777333823980  0.4593133677212238  0.6592846047994011
  0.2513450021787690  0.6442233634808705  0.5138747829936902
  0.2512510901825409  0.3580453585070770  0.4833272794395151
  0.3749491045705726  0.9986026156065242  0.5004508463936465
  0.6243225343841347  0.5250579988109383  0.4052915741367771
  0.6349231250599006  0.4760460766165491  0.5963237339095685
  0.4986468893477875  0.6442606133629252  0.5138838426250096
  0.4987103303284680  0.3580390424767693  0.4833058371880081
  0.6249880750893539  0.0020295608508412  0.4981169966598051
  0.8749716734622024  0.5272067405133408  0.3974480912999656
  0.8749660860029934  0.4756686286759594  0.5959090637874501
  0.7529894895341125  0.6410572635486270  0.5131343466562551
  0.7527350142548337  0.3613178890559148  0.4833018306152870
  0.8749661931543248  0.0011364912669459  0.4979459923824848
  0.1253473589814945  0.2000346643186874  0.4570819238815371
  0.1250344726050472  0.8023937355758393  0.5367965045161447
  0.0016299131571752  0.3926867834456901  0.3471995452218303
  0.9965460595275190  0.6133524358766220  0.6500480719232477
  0.0000124872389410  0.0409848032995787  0.5894296245793995
  0.9970688386820081  0.3181921889349424  0.6181002727307247
  0.0015687508383087  0.6800305036159043  0.3783457973800786
  0.0002239923409149  0.9617619989197322  0.4066156509906995
  0.3749733569907104  0.1981228438167567  0.4598887994596103
  0.3749777830626738  0.8020662806457821  0.5455985349855366
  0.2487178307301968  0.3913823992710983  0.3490421460815708
  0.2417284168151462  0.6116123772117992  0.6472824150690766
  0.2491797948193958  0.0422269958064110  0.5901952262083335
  0.2414661482596666  0.3212211279664343  0.6156811311749627
  0.2485099714327094  0.6804358238494711  0.3803939449309727
  0.2513079039054385  0.9592262072473579  0.4080736797587741
  0.6245959878505386  0.2000373247779580  0.4570569565965780
  0.6249172396975489  0.8024865695196073  0.5368570162413357
  0.5012683250539562  0.3913541124188510  0.3490248208525104
  0.5082401571018350  0.6115739636385056  0.6472901702420868
  0.5007014535131522  0.0422897565950126  0.5901402695335591
  0.5084928102019374  0.3212159907586588  0.6156337642765829
  0.5014597483535852  0.6804196622465480  0.3803937790031694
  0.4985875959052563  0.9592821481292392  0.4080683802311969
  0.8749935309590270  0.1989889661332695  0.4569197504342701
  0.8749618340234337  0.8038485317436488  0.5397587699634703
  0.7483427846104489  0.3927005302383771  0.3472183594266211
  0.7533839288873095  0.6134291939607661  0.6500128577255623
  0.7499116459607562  0.0410927783915667  0.5894067457572629
  0.7529012792204677  0.3182194107646963  0.6181438825888250
  0.7483852194996100  0.6800493219538889  0.3783437104456056
  0.7497311573179108  0.9617729680416435  0.4065908301737362
  0.3749998626877403  0.4367319343209635  0.7462513441489075
 
  0.00000000E+00  0.00000000E+00  0.00000000E+00
  0.00000000E+00  0.00000000E+00  0.00000000E+00
  0.00000000E+00  0.00000000E+00  0.00000000E+00
  0.00000000E+00  0.00000000E+00  0.00000000E+00
  0.00000000E+00  0.00000000E+00  0.00000000E+00
  0.00000000E+00  0.00000000E+00  0.00000000E+00
  0.00000000E+00  0.00000000E+00  0.00000000E+00
  0.00000000E+00  0.00000000E+00  0.00000000E+00
  0.00000000E+00  0.00000000E+00  0.00000000E+00
  0.00000000E+00  0.00000000E+00  0.00000000E+00
  0.00000000E+00  0.00000000E+00  0.00000000E+00
  0.00000000E+00  0.00000000E+00  0.00000000E+00
  0.00000000E+00  0.00000000E+00  0.00000000E+00
  0.00000000E+00  0.00000000E+00  0.00000000E+00
  0.00000000E+00  0.00000000E+00  0.00000000E+00
  0.00000000E+00  0.00000000E+00  0.00000000E+00
  0.00000000E+00  0.00000000E+00  0.00000000E+00
  0.00000000E+00  0.00000000E+00  0.00000000E+00
  0.00000000E+00  0.00000000E+00  0.00000000E+00
  0.00000000E+00  0.00000000E+00  0.00000000E+00
  0.00000000E+00  0.00000000E+00  0.00000000E+00
  0.00000000E+00  0.00000000E+00  0.00000000E+00
  0.00000000E+00  0.00000000E+00  0.00000000E+00
  0.00000000E+00  0.00000000E+00  0.00000000E+00
  0.00000000E+00  0.00000000E+00  0.00000000E+00
  0.00000000E+00  0.00000000E+00  0.00000000E+00
  0.00000000E+00  0.00000000E+00  0.00000000E+00
  0.00000000E+00  0.00000000E+00  0.00000000E+00
  0.00000000E+00  0.00000000E+00  0.00000000E+00
  0.00000000E+00  0.00000000E+00  0.00000000E+00
  0.00000000E+00  0.00000000E+00  0.00000000E+00
  0.00000000E+00  0.00000000E+00  0.00000000E+00
  0.00000000E+00  0.00000000E+00  0.00000000E+00
  0.00000000E+00  0.00000000E+00  0.00000000E+00
  0.00000000E+00  0.00000000E+00  0.00000000E+00
  0.00000000E+00  0.00000000E+00  0.00000000E+00
  0.00000000E+00  0.00000000E+00  0.00000000E+00
  0.00000000E+00  0.00000000E+00  0.00000000E+00
  0.00000000E+00  0.00000000E+00  0.00000000E+00
  0.00000000E+00  0.00000000E+00  0.00000000E+00
  0.00000000E+00  0.00000000E+00  0.00000000E+00
  0.00000000E+00  0.00000000E+00  0.00000000E+00
  0.00000000E+00  0.00000000E+00  0.00000000E+00
  0.00000000E+00  0.00000000E+00  0.00000000E+00
  0.00000000E+00  0.00000000E+00  0.00000000E+00
  0.00000000E+00  0.00000000E+00  0.00000000E+00
  0.00000000E+00  0.00000000E+00  0.00000000E+00
  0.00000000E+00  0.00000000E+00  0.00000000E+00
  0.00000000E+00  0.00000000E+00  0.00000000E+00
  0.00000000E+00  0.00000000E+00  0.00000000E+00
  0.00000000E+00  0.00000000E+00  0.00000000E+00
  0.00000000E+00  0.00000000E+00  0.00000000E+00
  0.00000000E+00  0.00000000E+00  0.00000000E+00
