CONTCAR\(14)                            
   1.00000000000000     
    11.7227001190000006    0.0000000000000000    0.0000000000000000
     1.9537737858999999   10.6868737691000000    0.0000000000000000
     0.0000000000000000    0.0000000000000000   24.3673000335999994
   Y    C    I    O    H 
    18     6    21     1     1
Direct
  0.2806954457086778  0.3161948185765177  0.6538977433028605
  0.2562569769556929  0.4618672287651744  0.4458890649814309
  0.2054408577294011  0.7649562185340162  0.4762420620672722
  0.1305847248228653  0.2357185130106454  0.5250595680161753
  0.0778798800332619  0.5382810378078773  0.5561047796203876
  0.0549230892828453  0.6700023982826863  0.3643312929256586
  0.6142319725094136  0.3287811201125662  0.6365729905556246
  0.5898982400660963  0.4618281704136873  0.4452472631491098
  0.5398566973934250  0.7640935864906364  0.4760855080007697
  0.4573818443948139  0.2357303052887908  0.5249839243536853
  0.4091272468519827  0.5382483459943067  0.5560787086566745
  0.3887785045156034  0.6701941542931241  0.3643970966146251
  0.9430725843881840  0.3287507255538901  0.6366086917010553
  0.9226773723022810  0.4617480455647548  0.4452513422158822
  0.8723737732142646  0.7643316720672079  0.4759181485982915
  0.7938271008737716  0.2361839447795517  0.5243020846753723
  0.7435581068629959  0.5382664245993993  0.5556940252764819
  0.7220059069997171  0.6700152354127958  0.3640909559056346
  0.2705457193900719  0.3764242625942623  0.5431283871700021
  0.0634571325201732  0.6220328360370779  0.4584455006837294
  0.6009022541439867  0.3773995604595127  0.5429763154976847
  0.3956320128259382  0.6222182219709768  0.4584632290681075
  0.9398555541205968  0.3773957421847759  0.5430131118332163
  0.7297259791813493  0.6213069002685820  0.4581274320333118
  0.1854524038518392  0.8878282058449460  0.3571455803995225
  0.1420738762553223  0.1050358929474031  0.6385086222282643
  0.2088203516331481  0.7467328207792321  0.5985326909541614
  0.1246458870325090  0.2535956008263506  0.4021270482169639
  0.9991103601527360  0.9999724744176501  0.4981463757630324
  0.2510259490936958  0.4969573589917475  0.3083223999867800
  0.0757979386608402  0.5108904937165952  0.6897957469247390
  0.5187278241850245  0.8881367299537455  0.3570814037556773
  0.4904200856469346  0.1050834737980283  0.6384484259761446
  0.5430545017942890  0.7472607970381229  0.5980134209322454
  0.4572407709728886  0.2538786619402940  0.4019803213451785
  0.3337597224986660  0.9990193593981448  0.4994179011349585
  0.5841204126138330  0.4971801425390387  0.3079271826630388
  0.4207767712045650  0.5103880146985053  0.6898361136652592
  0.8522483492673232  0.8881255734634864  0.3566862291061325
  0.8151430848146041  0.1090873271429492  0.6421250456866450
  0.8742655994950648  0.7477093273573143  0.5978215567163834
  0.7906944638655169  0.2546487385395400  0.4016558026699297
  0.6673751813124984  0.0002478317042691  0.4976273550417432
  0.9179098745420839  0.4967259234346805  0.3079105786067861
  0.7493546012501745  0.5037312452260595  0.6926786880940993
  0.2908690545379912  0.2563921451165067  0.7325319589104634
  0.2975842982310472  0.2204816650626334  0.7688904113187753
 
  0.00000000E+00  0.00000000E+00  0.00000000E+00
  0.00000000E+00  0.00000000E+00  0.00000000E+00
  0.00000000E+00  0.00000000E+00  0.00000000E+00
  0.00000000E+00  0.00000000E+00  0.00000000E+00
  0.00000000E+00  0.00000000E+00  0.00000000E+00
  0.00000000E+00  0.00000000E+00  0.00000000E+00
  0.00000000E+00  0.00000000E+00  0.00000000E+00
  0.00000000E+00  0.00000000E+00  0.00000000E+00
  0.00000000E+00  0.00000000E+00  0.00000000E+00
  0.00000000E+00  0.00000000E+00  0.00000000E+00
  0.00000000E+00  0.00000000E+00  0.00000000E+00
  0.00000000E+00  0.00000000E+00  0.00000000E+00
  0.00000000E+00  0.00000000E+00  0.00000000E+00
  0.00000000E+00  0.00000000E+00  0.00000000E+00
  0.00000000E+00  0.00000000E+00  0.00000000E+00
  0.00000000E+00  0.00000000E+00  0.00000000E+00
  0.00000000E+00  0.00000000E+00  0.00000000E+00
  0.00000000E+00  0.00000000E+00  0.00000000E+00
  0.00000000E+00  0.00000000E+00  0.00000000E+00
  0.00000000E+00  0.00000000E+00  0.00000000E+00
  0.00000000E+00  0.00000000E+00  0.00000000E+00
  0.00000000E+00  0.00000000E+00  0.00000000E+00
  0.00000000E+00  0.00000000E+00  0.00000000E+00
  0.00000000E+00  0.00000000E+00  0.00000000E+00
  0.00000000E+00  0.00000000E+00  0.00000000E+00
  0.00000000E+00  0.00000000E+00  0.00000000E+00
  0.00000000E+00  0.00000000E+00  0.00000000E+00
  0.00000000E+00  0.00000000E+00  0.00000000E+00
  0.00000000E+00  0.00000000E+00  0.00000000E+00
  0.00000000E+00  0.00000000E+00  0.00000000E+00
  0.00000000E+00  0.00000000E+00  0.00000000E+00
  0.00000000E+00  0.00000000E+00  0.00000000E+00
  0.00000000E+00  0.00000000E+00  0.00000000E+00
  0.00000000E+00  0.00000000E+00  0.00000000E+00
  0.00000000E+00  0.00000000E+00  0.00000000E+00
  0.00000000E+00  0.00000000E+00  0.00000000E+00
  0.00000000E+00  0.00000000E+00  0.00000000E+00
  0.00000000E+00  0.00000000E+00  0.00000000E+00
  0.00000000E+00  0.00000000E+00  0.00000000E+00
  0.00000000E+00  0.00000000E+00  0.00000000E+00
  0.00000000E+00  0.00000000E+00  0.00000000E+00
  0.00000000E+00  0.00000000E+00  0.00000000E+00
  0.00000000E+00  0.00000000E+00  0.00000000E+00
  0.00000000E+00  0.00000000E+00  0.00000000E+00
  0.00000000E+00  0.00000000E+00  0.00000000E+00
  0.00000000E+00  0.00000000E+00  0.00000000E+00
  0.00000000E+00  0.00000000E+00  0.00000000E+00
