CONTCAR                                 
   1.00000000000000     
     9.7571001052999993    0.0000000000000000    0.0000000000000000
    -3.0063686365000000   15.8319856181999992    0.0000000000000000
     0.0000000000000000    0.0000000000000000   18.2793006897000012
   V    P    S    O    H 
     4     8    26     2     1
Direct
  0.6119848529048124  0.6007203187990247  0.5029443064824501
  0.6093087448830775  0.1015037303727359  0.4996835525385069
  0.3784334039830552  0.3895357776099730  0.5101516635591433
  0.3932542677507539  0.9117823265087457  0.4871963947157775
  0.8272836785256387  0.2564503993860599  0.4987693881925480
  0.6913319825456404  0.4299999840874913  0.5437329270259537
  0.1811115762181215  0.7533739056057319  0.5096943342497509
  0.1693200304397594  0.2268432424573553  0.4984177050424403
  0.3070066753610464  0.0458443969822921  0.5262401492966952
  0.6972768287131114  0.9362138579563046  0.4557493100557687
  0.3018641384876705  0.5646130426081487  0.4741509385157018
  0.8192556152338313  0.7600557442147367  0.5012635377813672
  0.1144770267574388  0.0932932413004489  0.5206926082150922
  0.8824689645723776  0.8858042085474422  0.4611675161180517
 -0.0048304092226289  0.7603870123564722  0.5887558281004133
  0.3996980014731725  0.0499172165830843  0.4230829377612838
  0.5381448081998832  0.3492974912337762  0.5961643473100979
  0.2229785306934413  0.4519932434956802  0.4285790441982224
  0.1941492834102949  0.3053126869677563  0.5856003036935969
  0.6531726227110596  0.7350196572031295  0.5680559086129793
  0.4514884936658479  0.6408786849172637  0.4164578347659249
  0.5998283256966377  0.4558939543873637  0.4459025926751563
  0.6614339762158415  0.2302832909757975  0.4306966410919922
  0.8834939567128117  0.3868138209643816  0.5301161732528143
 -0.0007767441869497  0.2448333356904290  0.4294188356122389
  0.6138559004370080  0.9617510885919183  0.5560219883592181
  0.8037320726679581  0.6706095775519230  0.4243551737790345
  0.3937956789402243  0.5361067882817189  0.5702938689968747
  0.1920748800929742  0.8300166189969987  0.4223296910511752
  0.7565276026859894  0.5430801527518908  0.5922433675568582
  0.5364750155659594  0.8597285757996751  0.4038661847941419
  0.0330801331166787  0.8706143771582036  0.6337790536617437
  0.3470090338810872  0.7984149597017292  0.5732276280725641
  0.7964435984223899  0.1743632824324357  0.5815830233840250
  0.7657815841479855  0.0484898641553281  0.4091223461114709
  0.4512376340588660  0.1271791216320886  0.5880201774840172
  0.1204331251824716  0.6206928212149918  0.4919836521819936
  0.3358388180155524  0.2655061682718032  0.4328014755374774
  0.2497504776512030  0.4013509657382846  0.7215363660451860
  0.1803083355978939  0.3318795591004972  0.7552959402967627
  0.1549873577899838  0.2898816034088742  0.7148254028234940
 
  0.00000000E+00  0.00000000E+00  0.00000000E+00
  0.00000000E+00  0.00000000E+00  0.00000000E+00
  0.00000000E+00  0.00000000E+00  0.00000000E+00
  0.00000000E+00  0.00000000E+00  0.00000000E+00
  0.00000000E+00  0.00000000E+00  0.00000000E+00
  0.00000000E+00  0.00000000E+00  0.00000000E+00
  0.00000000E+00  0.00000000E+00  0.00000000E+00
  0.00000000E+00  0.00000000E+00  0.00000000E+00
  0.00000000E+00  0.00000000E+00  0.00000000E+00
  0.00000000E+00  0.00000000E+00  0.00000000E+00
  0.00000000E+00  0.00000000E+00  0.00000000E+00
  0.00000000E+00  0.00000000E+00  0.00000000E+00
  0.00000000E+00  0.00000000E+00  0.00000000E+00
  0.00000000E+00  0.00000000E+00  0.00000000E+00
  0.00000000E+00  0.00000000E+00  0.00000000E+00
  0.00000000E+00  0.00000000E+00  0.00000000E+00
  0.00000000E+00  0.00000000E+00  0.00000000E+00
  0.00000000E+00  0.00000000E+00  0.00000000E+00
  0.00000000E+00  0.00000000E+00  0.00000000E+00
  0.00000000E+00  0.00000000E+00  0.00000000E+00
  0.00000000E+00  0.00000000E+00  0.00000000E+00
  0.00000000E+00  0.00000000E+00  0.00000000E+00
  0.00000000E+00  0.00000000E+00  0.00000000E+00
  0.00000000E+00  0.00000000E+00  0.00000000E+00
  0.00000000E+00  0.00000000E+00  0.00000000E+00
  0.00000000E+00  0.00000000E+00  0.00000000E+00
  0.00000000E+00  0.00000000E+00  0.00000000E+00
  0.00000000E+00  0.00000000E+00  0.00000000E+00
  0.00000000E+00  0.00000000E+00  0.00000000E+00
  0.00000000E+00  0.00000000E+00  0.00000000E+00
  0.00000000E+00  0.00000000E+00  0.00000000E+00
  0.00000000E+00  0.00000000E+00  0.00000000E+00
  0.00000000E+00  0.00000000E+00  0.00000000E+00
  0.00000000E+00  0.00000000E+00  0.00000000E+00
  0.00000000E+00  0.00000000E+00  0.00000000E+00
  0.00000000E+00  0.00000000E+00  0.00000000E+00
  0.00000000E+00  0.00000000E+00  0.00000000E+00
  0.00000000E+00  0.00000000E+00  0.00000000E+00
  0.00000000E+00  0.00000000E+00  0.00000000E+00
  0.00000000E+00  0.00000000E+00  0.00000000E+00
  0.00000000E+00  0.00000000E+00  0.00000000E+00
