CONTCAR\(3)                             
   1.00000000000000     
    14.5429000853999995    0.0000000000000000    0.0000000000000000
     0.0000000000000000   10.6486997603999995    0.0000000000000000
     0.0000000000000000    0.0000000000000000   18.9185009002999998
   Ta   Ni   Te   O    H 
     8    16    24     1     1
Direct
  0.0621159607151824  0.8016126172291639  0.5064981703001945
  0.1869602743912058  0.2101689067934636  0.4916198419078130
  0.3113587212931508  0.8012797246028053  0.5067250107319993
  0.4356144299491847  0.2113836897222088  0.4904636337090416
  0.5623682298520295  0.8023472304972055  0.5034583656946554
  0.6891042143715013  0.2113439858425435  0.4904776786380288
  0.8132176802012907  0.8010081946929379  0.5073002388770047
  0.9374928330515261  0.2102124971088120  0.4916453624489945
  0.0623862447694980  0.4124177871491324  0.5001933967306769
  0.1870026997449717  0.5988243545447210  0.4977505332140538
  0.1870134173605370  0.9693364369441653  0.4600183255829502
  0.0623413460322358  0.0428154725933627  0.5384099955117979
  0.3121517907581102  0.4129522017691371  0.5000085269815101
  0.4329348479748708  0.5965207949831715  0.4968068247630381
  0.4365957672663620  0.9690794556798291  0.4598645426151082
  0.3125992042325665  0.0425965932933152  0.5381890059596391
  0.5618492531560242  0.4076600293686927  0.4933739344114738
  0.6898926000693587  0.5969296071501593  0.4986275044526262
  0.6882346950973129  0.9689142771338382  0.4599978659031662
  0.5623277930435454  0.0428504385006589  0.5372177062160307
  0.8128440491139887  0.4129688707649676  0.5002267505199988
  0.9373431190907635  0.5988826870310122  0.4980345357514332
  0.9373512851193516  0.9693963338729646  0.4601118262945137
  0.8121434617909709  0.0426030914571221  0.5383345635439162
  0.1866265290962116  0.7560887054709178  0.3967328019974182
  0.0622184472313061  0.2556344445673794  0.6015537499556998
  0.1865058886229897  0.4176190840126437  0.4063397108719634
  0.0622480631365076  0.5936522237678988  0.5916480877436930
  0.0622584691912339  0.0887732718443553  0.3936619587007660
  0.1876620495712978  0.9225912141768834  0.6044014534915575
  0.4359063574242341  0.7555540757527209  0.3962653445582049
  0.3120356501267962  0.2554289929579473  0.6010721666210681
  0.4348129206666938  0.4190757057633896  0.4042173796128274
  0.3095033607779490  0.5936807664031040  0.5923222539001183
  0.3119078392715884  0.0888395362580458  0.3933280915677680
  0.4387661038006962  0.9189503421294736  0.6034860504439091
  0.6893118715850941  0.7548569551461453  0.3967412847311970
  0.5623594019971083  0.2558255253367797  0.5990335404020115
  0.6899194672393418  0.4198928558064755  0.4050158735681006
  0.5612955694518231  0.5950566254600224  0.5888048602671822
  0.5625381234722817  0.0881608759433494  0.3942190512702740
  0.6858938250602544  0.9191360331533206  0.6037062002407290
  0.9375639892617394  0.7560208888494271  0.3970158380960711
  0.8123955385761712  0.2554607524699764  0.6012389380006546
  0.9380988896450017  0.4177785467906632  0.4064225581278634
  0.8144594594172363  0.5932970224481664  0.5926877857037269
  0.8127726513624774  0.0889940320230230  0.3932512741034933
  0.9370540106033569  0.9229068521200489  0.6046389423520159
  0.5702675969225804  0.6924465635411940  0.6872153545784833
  0.5708439290425047  0.6294630050813216  0.7249453743335329
 
  0.00000000E+00  0.00000000E+00  0.00000000E+00
  0.00000000E+00  0.00000000E+00  0.00000000E+00
  0.00000000E+00  0.00000000E+00  0.00000000E+00
  0.00000000E+00  0.00000000E+00  0.00000000E+00
  0.00000000E+00  0.00000000E+00  0.00000000E+00
  0.00000000E+00  0.00000000E+00  0.00000000E+00
  0.00000000E+00  0.00000000E+00  0.00000000E+00
  0.00000000E+00  0.00000000E+00  0.00000000E+00
  0.00000000E+00  0.00000000E+00  0.00000000E+00
  0.00000000E+00  0.00000000E+00  0.00000000E+00
  0.00000000E+00  0.00000000E+00  0.00000000E+00
  0.00000000E+00  0.00000000E+00  0.00000000E+00
  0.00000000E+00  0.00000000E+00  0.00000000E+00
  0.00000000E+00  0.00000000E+00  0.00000000E+00
  0.00000000E+00  0.00000000E+00  0.00000000E+00
  0.00000000E+00  0.00000000E+00  0.00000000E+00
  0.00000000E+00  0.00000000E+00  0.00000000E+00
  0.00000000E+00  0.00000000E+00  0.00000000E+00
  0.00000000E+00  0.00000000E+00  0.00000000E+00
  0.00000000E+00  0.00000000E+00  0.00000000E+00
  0.00000000E+00  0.00000000E+00  0.00000000E+00
  0.00000000E+00  0.00000000E+00  0.00000000E+00
  0.00000000E+00  0.00000000E+00  0.00000000E+00
  0.00000000E+00  0.00000000E+00  0.00000000E+00
  0.00000000E+00  0.00000000E+00  0.00000000E+00
  0.00000000E+00  0.00000000E+00  0.00000000E+00
  0.00000000E+00  0.00000000E+00  0.00000000E+00
  0.00000000E+00  0.00000000E+00  0.00000000E+00
  0.00000000E+00  0.00000000E+00  0.00000000E+00
  0.00000000E+00  0.00000000E+00  0.00000000E+00
  0.00000000E+00  0.00000000E+00  0.00000000E+00
  0.00000000E+00  0.00000000E+00  0.00000000E+00
  0.00000000E+00  0.00000000E+00  0.00000000E+00
  0.00000000E+00  0.00000000E+00  0.00000000E+00
  0.00000000E+00  0.00000000E+00  0.00000000E+00
  0.00000000E+00  0.00000000E+00  0.00000000E+00
  0.00000000E+00  0.00000000E+00  0.00000000E+00
  0.00000000E+00  0.00000000E+00  0.00000000E+00
  0.00000000E+00  0.00000000E+00  0.00000000E+00
  0.00000000E+00  0.00000000E+00  0.00000000E+00
  0.00000000E+00  0.00000000E+00  0.00000000E+00
  0.00000000E+00  0.00000000E+00  0.00000000E+00
  0.00000000E+00  0.00000000E+00  0.00000000E+00
  0.00000000E+00  0.00000000E+00  0.00000000E+00
  0.00000000E+00  0.00000000E+00  0.00000000E+00
  0.00000000E+00  0.00000000E+00  0.00000000E+00
  0.00000000E+00  0.00000000E+00  0.00000000E+00
  0.00000000E+00  0.00000000E+00  0.00000000E+00
  0.00000000E+00  0.00000000E+00  0.00000000E+00
  0.00000000E+00  0.00000000E+00  0.00000000E+00
