CONTCAR\(3)                             
   1.00000000000000     
    13.3121995926000007    0.0000000000000000    0.0000000000000000
    -6.6560997963000004   11.5287030274000006    0.0000000000000000
     0.0000000000000000    0.0000000000000000   18.1366004943999997
   Nb   S    O    H 
    16    32     2     1
Direct
  0.9972675838486111  0.0023780414847110  0.5044838125447413
  0.2513865267374626  0.0011198146987752  0.5052274976297682
  0.4987760905319973  0.0009337931384366  0.5051382605877066
  0.7541864545363097  0.0023030855017439  0.5044662608844561
  0.0004329293278218  0.2519303978754834  0.5047922951581327
  0.2497937768371941  0.2547933990201088  0.5047054460020917
  0.5002198979742971  0.2519311083642393  0.5049192555686801
  0.7541913241061238  0.2545709529331575  0.5047523664678550
  0.9972588368735131  0.4980557971803350  0.5054784926857181
  0.2500081337357685  0.4980204605822820  0.5054045225212533
  0.4858891295450576  0.4941911827419645  0.5050405443210266
  0.7573635275528758  0.4944283494031438  0.5045075964309618
  0.0004922552633246  0.7520803362767836  0.5049218499659389
  0.2514443907526385  0.7535969696612028  0.5054920540640495
  0.5005324234779351  0.7517818786931798  0.5047645101105971
  0.7577046034946875  0.7661125661549661  0.5039131249320405
  0.1673328842474007  0.0850251361539449  0.4198855254432843
  0.1666875725853458  0.0851670010922589  0.5896356699973850
  0.4171659490045130  0.0851846874065103  0.4185827096074988
  0.4175581029248576  0.0857248015712599  0.5917503348415067
  0.6667873148050489  0.0850347163138849  0.4198641265575347
  0.6674876936702177  0.0850116416104498  0.5896965307969353
  0.9179928979094001  0.0868869732894595  0.4171619021603661
  0.9178102881494041  0.0865449856146867  0.5919489120805039
  0.1656585686686753  0.3346231063251039  0.4175673152873784
  0.1652900011836280  0.3338636031577025  0.5923351040400604
  0.4156415981998265  0.3325586808380478  0.4176488525214594
  0.4152240224613664  0.3325179761489352  0.5920527847250625
  0.6657570393815320  0.3322146207765684  0.4178351309453490
  0.6663901719297556  0.3325566222140566  0.5921295214805085
  0.9180837180569910  0.3347822404486038  0.4176167707388458
  0.9177194810148421  0.3339008654429634  0.5924453876606748
  0.1671440262774908  0.5852553878073650  0.4206646249953465
  0.1670258755481981  0.5849621070287867  0.5902601067255659
  0.4153853906585709  0.5858999270976071  0.4179921685993691
  0.4159049816572065  0.5860954129451912  0.5923348372093571
  0.6665709805313611  0.5845099830520653  0.4294521897416743
  0.6688595108988196  0.5879860313191898  0.5787446036835178
  0.9199472122400323  0.5862735565030732  0.4181351277606424
  0.9189827368044732  0.5860918724096393  0.5923769171600597
  0.1671765847318980  0.8350070385373769  0.4186764879365228
  0.1663795068838212  0.8349087831365836  0.5917938535077525
  0.4169563412885608  0.8349829362121639  0.4184967171000409
  0.4178250523379319  0.8348753958737376  0.5917373752293216
  0.6655117132501971  0.8363356839843519  0.4172351018505296
  0.6665592738999067  0.8366300084833611  0.5916709985644033
  0.9201073759444185  0.8365890327053762  0.4172716456911232
  0.9193346760347865  0.8369453747279820  0.5917877156495379
  0.6824659424917243  0.6098385276257119  0.6707513878593900
  0.6210100178025755  0.5001312367927113  0.7109222338280716
  0.6827776219296311  0.4802755046428118  0.7160511931483811
 
  0.00000000E+00  0.00000000E+00  0.00000000E+00
  0.00000000E+00  0.00000000E+00  0.00000000E+00
  0.00000000E+00  0.00000000E+00  0.00000000E+00
  0.00000000E+00  0.00000000E+00  0.00000000E+00
  0.00000000E+00  0.00000000E+00  0.00000000E+00
  0.00000000E+00  0.00000000E+00  0.00000000E+00
  0.00000000E+00  0.00000000E+00  0.00000000E+00
  0.00000000E+00  0.00000000E+00  0.00000000E+00
  0.00000000E+00  0.00000000E+00  0.00000000E+00
  0.00000000E+00  0.00000000E+00  0.00000000E+00
  0.00000000E+00  0.00000000E+00  0.00000000E+00
  0.00000000E+00  0.00000000E+00  0.00000000E+00
  0.00000000E+00  0.00000000E+00  0.00000000E+00
  0.00000000E+00  0.00000000E+00  0.00000000E+00
  0.00000000E+00  0.00000000E+00  0.00000000E+00
  0.00000000E+00  0.00000000E+00  0.00000000E+00
  0.00000000E+00  0.00000000E+00  0.00000000E+00
  0.00000000E+00  0.00000000E+00  0.00000000E+00
  0.00000000E+00  0.00000000E+00  0.00000000E+00
  0.00000000E+00  0.00000000E+00  0.00000000E+00
  0.00000000E+00  0.00000000E+00  0.00000000E+00
  0.00000000E+00  0.00000000E+00  0.00000000E+00
  0.00000000E+00  0.00000000E+00  0.00000000E+00
  0.00000000E+00  0.00000000E+00  0.00000000E+00
  0.00000000E+00  0.00000000E+00  0.00000000E+00
  0.00000000E+00  0.00000000E+00  0.00000000E+00
  0.00000000E+00  0.00000000E+00  0.00000000E+00
  0.00000000E+00  0.00000000E+00  0.00000000E+00
  0.00000000E+00  0.00000000E+00  0.00000000E+00
  0.00000000E+00  0.00000000E+00  0.00000000E+00
  0.00000000E+00  0.00000000E+00  0.00000000E+00
  0.00000000E+00  0.00000000E+00  0.00000000E+00
  0.00000000E+00  0.00000000E+00  0.00000000E+00
  0.00000000E+00  0.00000000E+00  0.00000000E+00
  0.00000000E+00  0.00000000E+00  0.00000000E+00
  0.00000000E+00  0.00000000E+00  0.00000000E+00
  0.00000000E+00  0.00000000E+00  0.00000000E+00
  0.00000000E+00  0.00000000E+00  0.00000000E+00
  0.00000000E+00  0.00000000E+00  0.00000000E+00
  0.00000000E+00  0.00000000E+00  0.00000000E+00
  0.00000000E+00  0.00000000E+00  0.00000000E+00
  0.00000000E+00  0.00000000E+00  0.00000000E+00
  0.00000000E+00  0.00000000E+00  0.00000000E+00
  0.00000000E+00  0.00000000E+00  0.00000000E+00
  0.00000000E+00  0.00000000E+00  0.00000000E+00
  0.00000000E+00  0.00000000E+00  0.00000000E+00
  0.00000000E+00  0.00000000E+00  0.00000000E+00
  0.00000000E+00  0.00000000E+00  0.00000000E+00
  0.00000000E+00  0.00000000E+00  0.00000000E+00
  0.00000000E+00  0.00000000E+00  0.00000000E+00
  0.00000000E+00  0.00000000E+00  0.00000000E+00
