CONTCAR\(7)                             
   1.00000000000000     
    11.2299995421999999    0.0000000000000000    0.0000000000000000
     0.0000000000000000   11.2298002242999999    0.0000000000000000
     0.0000000000000000    0.0000000000000000   19.9979991912999999
   Na   Mn   As   O 
    18    18    18     1
Direct
  0.0000000000000000  0.1634746567179516  0.6388103806227307
  0.1640278847168149  0.9993232047361484  0.3633405255356132
  0.3347448338413347  0.1634137458840783  0.6407224284040699
  0.5000000000000000  0.9991138562861284  0.3628019718914334
  0.6652551871586636  0.1634137458840783  0.6407224284040699
  0.8359721042831877  0.9993232047361484  0.3633405255356132
  0.0000000000000000  0.4979515115060028  0.6407219838511908
  0.1638545437515582  0.3286424680183926  0.3632216957482066
  0.3469117888220272  0.5099128546239313  0.6430388801850351
  0.5000000000000000  0.3286407955736730  0.3626448762893502
  0.6530882321779710  0.5099128546239313  0.6430388801850351
  0.8361454452484446  0.3286424680183926  0.3632216957482066
  0.0000000000000000  0.8296161269829139  0.6407573461493464
  0.1641924143005662  0.6634248538331698  0.3629456034583071
  0.3469009473505116  0.8172330862977206  0.6431208092153279
  0.5000000000000000  0.6634849269035559  0.3654226551246429
  0.6530990736494868  0.8172330862977206  0.6431208092153279
  0.8358075746994433  0.6634248538331698  0.3629456034583071
  0.1675954610075427  0.1638426201309792  0.5043988887354691
  0.0000000000000000  0.3310489607100875  0.5047147442837303
  0.5000000000000000  0.1636913463438783  0.5012030314928718
  0.3327416637074575  0.3300640841353364  0.5018044161166062
  0.8324045279924597  0.1638426201309792  0.5043988887354691
  0.6672583572925407  0.3300640841353364  0.5018044161166062
  0.1668103534782109  0.4964791632430179  0.5021788489919223
  0.0000000000000000  0.6638145123916476  0.5021195218909840
  0.5000000000000000  0.4910822394039518  0.4978038500545486
  0.3273422372522879  0.6634818446831255  0.4978694169281579
  0.8331896355217919  0.4964791632430179  0.5021788489919223
  0.6726577837477103  0.6634818446831255  0.4978694169281579
  0.1667102593531092  0.8306116536264718  0.5021340112632799
  0.0000000000000000 -0.0036176067245704  0.5045042677809382
  0.5000000000000000  0.8360575405229023  0.4976253105708981
  0.3327723919348357  0.9971490135045500  0.5015815742638234
  0.8332897296468936  0.8306116536264718  0.5021340112632799
  0.6672276290651622  0.9971490135045500  0.5015815742638234
  0.0000000000000000  0.1639591185385999  0.4299057178566248
  0.1699093575029277  0.9942495446076349  0.5794089731755941
  0.3319188640359214  0.1638776888359701  0.4264776656606490
  0.5000000000000000  0.9972345694635288  0.5771461411659311
  0.6680811569640770  0.1638776888359701  0.4264776656606490
  0.8300906314970747  0.9942495446076349  0.5794089731755941
  0.0000000000000000  0.4962485384542583  0.4273112424851979
  0.1699152783117538  0.3330926350530652  0.5796588022946099
  0.3298925986998647  0.4932382710917310  0.4236930037748425
  0.5000000000000000  0.3298388693838170  0.5773676336807758
  0.6701074223001338  0.4932382710917310  0.4236930037748425
  0.8300847106882490  0.3330926350530652  0.5796588022946099
  0.0000000000000000  0.8312029023542605  0.4271402829253685
  0.1665711406691935  0.6634843648670105  0.5779319039376940
  0.3297608570240367  0.8333432953979266  0.4236259630580633
  0.5000000000000000  0.6637212726455808  0.5629309400620748
  0.6702391639759615  0.8333432953979266  0.4236259630580633
  0.8334288483308092  0.6634843648670105  0.5779319039376940
  0.4999600020000017  0.6638369034013869  0.6559214163268486
 
  0.00000000E+00  0.00000000E+00  0.00000000E+00
  0.00000000E+00  0.00000000E+00  0.00000000E+00
  0.00000000E+00  0.00000000E+00  0.00000000E+00
  0.00000000E+00  0.00000000E+00  0.00000000E+00
  0.00000000E+00  0.00000000E+00  0.00000000E+00
  0.00000000E+00  0.00000000E+00  0.00000000E+00
  0.00000000E+00  0.00000000E+00  0.00000000E+00
  0.00000000E+00  0.00000000E+00  0.00000000E+00
  0.00000000E+00  0.00000000E+00  0.00000000E+00
  0.00000000E+00  0.00000000E+00  0.00000000E+00
  0.00000000E+00  0.00000000E+00  0.00000000E+00
  0.00000000E+00  0.00000000E+00  0.00000000E+00
  0.00000000E+00  0.00000000E+00  0.00000000E+00
  0.00000000E+00  0.00000000E+00  0.00000000E+00
  0.00000000E+00  0.00000000E+00  0.00000000E+00
  0.00000000E+00  0.00000000E+00  0.00000000E+00
  0.00000000E+00  0.00000000E+00  0.00000000E+00
  0.00000000E+00  0.00000000E+00  0.00000000E+00
  0.00000000E+00  0.00000000E+00  0.00000000E+00
  0.00000000E+00  0.00000000E+00  0.00000000E+00
  0.00000000E+00  0.00000000E+00  0.00000000E+00
  0.00000000E+00  0.00000000E+00  0.00000000E+00
  0.00000000E+00  0.00000000E+00  0.00000000E+00
  0.00000000E+00  0.00000000E+00  0.00000000E+00
  0.00000000E+00  0.00000000E+00  0.00000000E+00
  0.00000000E+00  0.00000000E+00  0.00000000E+00
  0.00000000E+00  0.00000000E+00  0.00000000E+00
  0.00000000E+00  0.00000000E+00  0.00000000E+00
  0.00000000E+00  0.00000000E+00  0.00000000E+00
  0.00000000E+00  0.00000000E+00  0.00000000E+00
  0.00000000E+00  0.00000000E+00  0.00000000E+00
  0.00000000E+00  0.00000000E+00  0.00000000E+00
  0.00000000E+00  0.00000000E+00  0.00000000E+00
  0.00000000E+00  0.00000000E+00  0.00000000E+00
  0.00000000E+00  0.00000000E+00  0.00000000E+00
  0.00000000E+00  0.00000000E+00  0.00000000E+00
  0.00000000E+00  0.00000000E+00  0.00000000E+00
  0.00000000E+00  0.00000000E+00  0.00000000E+00
  0.00000000E+00  0.00000000E+00  0.00000000E+00
  0.00000000E+00  0.00000000E+00  0.00000000E+00
  0.00000000E+00  0.00000000E+00  0.00000000E+00
  0.00000000E+00  0.00000000E+00  0.00000000E+00
  0.00000000E+00  0.00000000E+00  0.00000000E+00
  0.00000000E+00  0.00000000E+00  0.00000000E+00
  0.00000000E+00  0.00000000E+00  0.00000000E+00
  0.00000000E+00  0.00000000E+00  0.00000000E+00
  0.00000000E+00  0.00000000E+00  0.00000000E+00
  0.00000000E+00  0.00000000E+00  0.00000000E+00
  0.00000000E+00  0.00000000E+00  0.00000000E+00
  0.00000000E+00  0.00000000E+00  0.00000000E+00
  0.00000000E+00  0.00000000E+00  0.00000000E+00
  0.00000000E+00  0.00000000E+00  0.00000000E+00
  0.00000000E+00  0.00000000E+00  0.00000000E+00
  0.00000000E+00  0.00000000E+00  0.00000000E+00
  0.00000000E+00  0.00000000E+00  0.00000000E+00
