Er1 Re2 O8                              
   1.00000000000000     
     6.0241508314552670   -0.0000000007436988   -0.0000000000000000
    -3.0120754151333045    5.2170676566464627    0.0000000000000000
     0.0000000000000000   -0.0000000000000000    6.2647824229069657
   Er   Re   O 
     1     2     8
Direct
 -0.0000000000000000  0.0000000000000000  0.0000000000000000
  0.6666667040000007  0.3333333280000019  0.7014198888059456
  0.3333333280000019  0.6666666570000004  0.2985801111940545
  0.3479980322742440  0.2077920186109876  0.7999388821086374
  0.2077920276109848  0.8597939623367488  0.2000611748913637
  0.1402060566632565  0.3479980422742378  0.2000611748913637
  0.6666667040000007  0.3333333280000019  0.4233295709284320
  0.3333333280000019  0.6666666570000004  0.5766704290715752
  0.8597939443367473  0.6520019207257558  0.7999388821086374
  0.7922079373890160  0.1402060456632520  0.7999388821086374
  0.6520019327257568  0.7922079893890132  0.2000611748913637
 
  0.00000000E+00  0.00000000E+00  0.00000000E+00
  0.00000000E+00  0.00000000E+00  0.00000000E+00
  0.00000000E+00  0.00000000E+00  0.00000000E+00
  0.00000000E+00  0.00000000E+00  0.00000000E+00
  0.00000000E+00  0.00000000E+00  0.00000000E+00
  0.00000000E+00  0.00000000E+00  0.00000000E+00
  0.00000000E+00  0.00000000E+00  0.00000000E+00
  0.00000000E+00  0.00000000E+00  0.00000000E+00
  0.00000000E+00  0.00000000E+00  0.00000000E+00
  0.00000000E+00  0.00000000E+00  0.00000000E+00
  0.00000000E+00  0.00000000E+00  0.00000000E+00
