CONTCAR\(5)                             
   1.00000000000000     
     7.8445000648000001    0.0000000000000000    0.0000000000000000
     3.9223001003000002    6.7936230563000004    0.0000000000000000
     0.0000000000000000    0.0000000000000000   18.9503002167000005
   Te   Pt   O 
     8     8     3
Direct
  0.3352597133355755  0.3346705975563323  0.6081210093743440
  0.3366329777085350  0.3319314805476256  0.3943910062210079
  0.8337373201078000  0.3322625919327400  0.6125813461872879
  0.8334664155122521  0.3324543932679003  0.3845937525155917
  0.3334731222159874  0.8323733731259517  0.6016329469949948
  0.3339315305535899  0.8328077849846509  0.3889981529585935
  0.8356367363016833  0.8343779861705952  0.6080825602455999
  0.8337421556836009  0.8346252349805817  0.3943375423054145
  0.1628481160856293  0.1729861525536899  0.5416005736582011
  0.0020935398586047  0.0054240058225587  0.4568994218970646
  0.6693606694058808  0.1683826009188533  0.5411822610792426
  0.4982880475800721 -0.0030784654141916  0.4599698844742428
  0.1654444897474691  0.6643468218460966  0.5382077784509057
 -0.0025428499214279  0.4961734427485089  0.4565975379161509
  0.6744802299536520  0.6613929394860386  0.5416430103452223
  0.5065168048672660  0.5010620264732408  0.4569105779021557
  0.3386320799147168  0.3278227183435382  0.2978002936111626
  0.3311270536258447  0.8313703933661890  0.6985352533798347
  0.8342117464632804  0.8325039092890902  0.2977349534829746
 
  0.00000000E+00  0.00000000E+00  0.00000000E+00
  0.00000000E+00  0.00000000E+00  0.00000000E+00
  0.00000000E+00  0.00000000E+00  0.00000000E+00
  0.00000000E+00  0.00000000E+00  0.00000000E+00
  0.00000000E+00  0.00000000E+00  0.00000000E+00
  0.00000000E+00  0.00000000E+00  0.00000000E+00
  0.00000000E+00  0.00000000E+00  0.00000000E+00
  0.00000000E+00  0.00000000E+00  0.00000000E+00
  0.00000000E+00  0.00000000E+00  0.00000000E+00
  0.00000000E+00  0.00000000E+00  0.00000000E+00
  0.00000000E+00  0.00000000E+00  0.00000000E+00
  0.00000000E+00  0.00000000E+00  0.00000000E+00
  0.00000000E+00  0.00000000E+00  0.00000000E+00
  0.00000000E+00  0.00000000E+00  0.00000000E+00
  0.00000000E+00  0.00000000E+00  0.00000000E+00
  0.00000000E+00  0.00000000E+00  0.00000000E+00
  0.00000000E+00  0.00000000E+00  0.00000000E+00
  0.00000000E+00  0.00000000E+00  0.00000000E+00
  0.00000000E+00  0.00000000E+00  0.00000000E+00
