CONTCAR\(6)                             
   1.00000000000000     
    12.9315996169999998    0.0000000000000000    0.0000000000000000
     0.0000000000000000   12.9343004226999998    0.0000000000000000
     0.0000000000000000    0.0000000000000000   24.0856990814000014
   La   Te   Se
    18    36    18
Direct
  0.1666699980000033  0.0000000000000000  0.5771548843206276
  0.0000000000000000  0.1666699969999996  0.4228451156793724
  0.5000000000000000  0.0000000000000000  0.5771548843206276
  0.3333300019999967  0.1666699969999996  0.4228451156793724
  0.8333300019999967  0.0000000000000000  0.5771548843206276
  0.6666700339999991  0.1666699969999996  0.4228451156793724
  0.1666699980000033  0.3333300030000004  0.5771548843206276
  0.0000000000000000  0.5000000000000000  0.4228451156793724
  0.5000000000000000  0.3333300030000004  0.5771548843206276
  0.3333300019999967  0.5000000000000000  0.4228451156793724
  0.8333300019999967  0.3333300030000004  0.5771548843206276
  0.6666700339999991  0.5000000000000000  0.4228451156793724
  0.1666699980000033  0.6666700339999991  0.5771548843206276
  0.0000000000000000  0.8333300030000004  0.4228451156793724
  0.5000000000000000  0.6666700339999991  0.5771548843206276
  0.3333300019999967  0.8333300030000004  0.4228451156793724
  0.8333300019999967  0.6666700339999991  0.5771548843206276
  0.6666700339999991  0.8333300030000004  0.4228451156793724
  0.0000000000000000  0.0000000000000000  0.6885942448444595
  0.1666699980000033  0.1666699969999996  0.3114056951555426
  0.1666699980000033  0.1666699969999996  0.6885874362407094
  0.0000000000000000  0.0000000000000000  0.3114225607592900
  0.3333300019999967  0.0000000000000000  0.6885942448444595
  0.5000000000000000  0.1666699969999996  0.3114056951555426
  0.5000000000000000  0.1666699969999996  0.6885874362407094
  0.3333300019999967  0.0000000000000000  0.3114225607592900
  0.6666700339999991  0.0000000000000000  0.6885942448444595
  0.8333300019999967  0.1666699969999996  0.3114056951555426
  0.8333300019999967  0.1666699969999996  0.6885874362407094
  0.6666700339999991  0.0000000000000000  0.3114225607592900
  0.0000000000000000  0.3333300030000004  0.6885942448444595
  0.1666699980000033  0.5000000000000000  0.3114056951555426
  0.1666699980000033  0.5000000000000000  0.6885874362407094
  0.0000000000000000  0.3333300030000004  0.3114225607592900
  0.3333300019999967  0.3333300030000004  0.6885942448444595
  0.5000000000000000  0.5000000000000000  0.3114056951555426
  0.5000000000000000  0.5000000000000000  0.6885874362407094
  0.3333300019999967  0.3333300030000004  0.3114225607592900
  0.6666700339999991  0.3333300030000004  0.6885942448444595
  0.8333300019999967  0.5000000000000000  0.3114056951555426
  0.8333300019999967  0.5000000000000000  0.6885874362407094
  0.6666700339999991  0.3333300030000004  0.3114225607592900
  0.0000000000000000  0.6666700339999991  0.6885942448444595
  0.1666699980000033  0.8333300030000004  0.3114056951555426
  0.1666699980000033  0.8333300030000004  0.6885874362407094
  0.0000000000000000  0.6666700339999991  0.3114225607592900
  0.3333300019999967  0.6666700339999991  0.6885942448444595
  0.5000000000000000  0.8333300030000004  0.3114056951555426
  0.5000000000000000  0.8333300030000004  0.6885874362407094
  0.3333300019999967  0.6666700339999991  0.3114225607592900
  0.6666700339999991  0.6666700339999991  0.6885942448444595
  0.8333300019999967  0.8333300030000004  0.3114056951555426
  0.8333300019999967  0.8333300030000004  0.6885874362407094
  0.6666700339999991  0.6666700339999991  0.3114225607592900
  0.0000000000000000  0.1666699969999996  0.5494715441930111
  0.1666699980000033  0.0000000000000000  0.4505284158069927
  0.3333300019999967  0.1666699969999996  0.5494715441930111
  0.5000000000000000  0.0000000000000000  0.4505284158069927
  0.6666700339999991  0.1666699969999996  0.5494715441930111
  0.8333300019999967  0.0000000000000000  0.4505284158069927
  0.0000000000000000  0.5000000000000000  0.5494715441930111
  0.1666699980000033  0.3333300030000004  0.4505284158069927
  0.3333300019999967  0.5000000000000000  0.5494715441930111
  0.5000000000000000  0.3333300030000004  0.4505284158069927
  0.6666700339999991  0.5000000000000000  0.5494715441930111
  0.8333300019999967  0.3333300030000004  0.4505284158069927
  0.0000000000000000  0.8333300030000004  0.5494715441930111
  0.1666699980000033  0.6666700339999991  0.4505284158069927
  0.3333300019999967  0.8333300030000004  0.5494715441930111
  0.5000000000000000  0.6666700339999991  0.4505284158069927
  0.6666700339999991  0.8333300030000004  0.5494715441930111
  0.8333300019999967  0.6666700339999991  0.4505284158069927
 
  0.00000000E+00  0.00000000E+00  0.00000000E+00
  0.00000000E+00  0.00000000E+00  0.00000000E+00
  0.00000000E+00  0.00000000E+00  0.00000000E+00
  0.00000000E+00  0.00000000E+00  0.00000000E+00
  0.00000000E+00  0.00000000E+00  0.00000000E+00
  0.00000000E+00  0.00000000E+00  0.00000000E+00
  0.00000000E+00  0.00000000E+00  0.00000000E+00
  0.00000000E+00  0.00000000E+00  0.00000000E+00
  0.00000000E+00  0.00000000E+00  0.00000000E+00
  0.00000000E+00  0.00000000E+00  0.00000000E+00
  0.00000000E+00  0.00000000E+00  0.00000000E+00
  0.00000000E+00  0.00000000E+00  0.00000000E+00
  0.00000000E+00  0.00000000E+00  0.00000000E+00
  0.00000000E+00  0.00000000E+00  0.00000000E+00
  0.00000000E+00  0.00000000E+00  0.00000000E+00
  0.00000000E+00  0.00000000E+00  0.00000000E+00
  0.00000000E+00  0.00000000E+00  0.00000000E+00
  0.00000000E+00  0.00000000E+00  0.00000000E+00
  0.00000000E+00  0.00000000E+00  0.00000000E+00
  0.00000000E+00  0.00000000E+00  0.00000000E+00
  0.00000000E+00  0.00000000E+00  0.00000000E+00
  0.00000000E+00  0.00000000E+00  0.00000000E+00
  0.00000000E+00  0.00000000E+00  0.00000000E+00
  0.00000000E+00  0.00000000E+00  0.00000000E+00
  0.00000000E+00  0.00000000E+00  0.00000000E+00
  0.00000000E+00  0.00000000E+00  0.00000000E+00
  0.00000000E+00  0.00000000E+00  0.00000000E+00
  0.00000000E+00  0.00000000E+00  0.00000000E+00
  0.00000000E+00  0.00000000E+00  0.00000000E+00
  0.00000000E+00  0.00000000E+00  0.00000000E+00
  0.00000000E+00  0.00000000E+00  0.00000000E+00
  0.00000000E+00  0.00000000E+00  0.00000000E+00
  0.00000000E+00  0.00000000E+00  0.00000000E+00
  0.00000000E+00  0.00000000E+00  0.00000000E+00
  0.00000000E+00  0.00000000E+00  0.00000000E+00
  0.00000000E+00  0.00000000E+00  0.00000000E+00
  0.00000000E+00  0.00000000E+00  0.00000000E+00
  0.00000000E+00  0.00000000E+00  0.00000000E+00
  0.00000000E+00  0.00000000E+00  0.00000000E+00
  0.00000000E+00  0.00000000E+00  0.00000000E+00
  0.00000000E+00  0.00000000E+00  0.00000000E+00
  0.00000000E+00  0.00000000E+00  0.00000000E+00
  0.00000000E+00  0.00000000E+00  0.00000000E+00
  0.00000000E+00  0.00000000E+00  0.00000000E+00
  0.00000000E+00  0.00000000E+00  0.00000000E+00
  0.00000000E+00  0.00000000E+00  0.00000000E+00
  0.00000000E+00  0.00000000E+00  0.00000000E+00
  0.00000000E+00  0.00000000E+00  0.00000000E+00
  0.00000000E+00  0.00000000E+00  0.00000000E+00
  0.00000000E+00  0.00000000E+00  0.00000000E+00
  0.00000000E+00  0.00000000E+00  0.00000000E+00
  0.00000000E+00  0.00000000E+00  0.00000000E+00
  0.00000000E+00  0.00000000E+00  0.00000000E+00
  0.00000000E+00  0.00000000E+00  0.00000000E+00
  0.00000000E+00  0.00000000E+00  0.00000000E+00
  0.00000000E+00  0.00000000E+00  0.00000000E+00
  0.00000000E+00  0.00000000E+00  0.00000000E+00
  0.00000000E+00  0.00000000E+00  0.00000000E+00
  0.00000000E+00  0.00000000E+00  0.00000000E+00
  0.00000000E+00  0.00000000E+00  0.00000000E+00
  0.00000000E+00  0.00000000E+00  0.00000000E+00
  0.00000000E+00  0.00000000E+00  0.00000000E+00
  0.00000000E+00  0.00000000E+00  0.00000000E+00
  0.00000000E+00  0.00000000E+00  0.00000000E+00
  0.00000000E+00  0.00000000E+00  0.00000000E+00
  0.00000000E+00  0.00000000E+00  0.00000000E+00
  0.00000000E+00  0.00000000E+00  0.00000000E+00
  0.00000000E+00  0.00000000E+00  0.00000000E+00
  0.00000000E+00  0.00000000E+00  0.00000000E+00
  0.00000000E+00  0.00000000E+00  0.00000000E+00
  0.00000000E+00  0.00000000E+00  0.00000000E+00
  0.00000000E+00  0.00000000E+00  0.00000000E+00
