CONTCAR\(10)                            
   1.00000000000000     
    12.9882001877000004    0.0000000000000000    0.0000000000000000
     0.0000000000000000   20.1457004546999983    0.0000000000000000
     0.0000000000000000    0.0000000000000000   19.8038997650000006
   Ce   I 
    12    36
Direct
  0.1666699889999990  0.0000000000000000  0.5061900168323774
 -0.0000000000000000  0.2500000000000000  0.4938099831676226
  0.5000000000000000 -0.0000000000000000  0.5061900168323774
  0.3333299920000030  0.2500000000000000  0.4938099831676226
  0.8333299920000030  0.0000000000000000  0.5061900168323774
  0.6666700440000000  0.2500000000000000  0.4938099831676226
  0.1666699889999990  0.5000000000000000  0.5061900168323774
 -0.0000000000000000  0.7500000240000020  0.4938099831676226
  0.5000000000000000  0.5000000000000000  0.5061900168323774
  0.3333299920000030  0.7500000240000020  0.4938099831676226
  0.8333299920000030  0.5000000000000000  0.5061900168323774
  0.6666700440000000  0.7500000240000020  0.4938099831676226
 -0.0000000000000000  0.4084907894473627  0.4245809601377335
  0.1666699889999990  0.3415092105526373  0.5754190398622665
  0.1666699889999990  0.1584908014473566  0.5754190398622665
 -0.0000000000000000  0.0915091925526429  0.4245809601377335
 -0.0000000000000000  0.0000000000000000  0.6219421880367827
  0.1666699889999990  0.2500000000000000  0.3780578119632172
  0.3333299920000030  0.4084907894473627  0.4245809601377335
  0.5000000000000000  0.3415092105526373  0.5754190398622665
  0.5000000000000000  0.1584908014473566  0.5754190398622665
  0.3333299920000030  0.0915091925526429  0.4245809601377335
  0.3333299920000030  0.0000000000000000  0.6219421880367827
  0.5000000000000000  0.2500000000000000  0.3780578119632172
  0.6666700440000000  0.4084907894473627  0.4245809601377335
  0.8333299920000030  0.3415092105526373  0.5754190398622665
  0.8333299920000030  0.1584908014473566  0.5754190398622665
  0.6666700440000000  0.0915091925526429  0.4245809601377335
  0.6666700440000000  0.0000000000000000  0.6219421880367827
  0.8333299920000030  0.2500000000000000  0.3780578119632172
 -0.0000000000000000  0.9084907894473627  0.4245809601377335
  0.1666699889999990  0.8415092335526427  0.5754190398622665
  0.1666699889999990  0.6584908134473576  0.5754190398622665
 -0.0000000000000000  0.5915092105526373  0.4245809601377335
 -0.0000000000000000  0.5000000000000000  0.6219421880367827
  0.1666699889999990  0.7500000240000020  0.3780578119632172
  0.3333299920000030  0.9084907894473627  0.4245809601377335
  0.5000000000000000  0.8415092335526427  0.5754190398622665
  0.5000000000000000  0.6584908134473576  0.5754190398622665
  0.3333299920000030  0.5915092105526373  0.4245809601377335
  0.3333299920000030  0.5000000000000000  0.6219421880367827
  0.5000000000000000  0.7500000240000020  0.3780578119632172
  0.6666700440000000  0.9084907894473627  0.4245809601377335
  0.8333299920000030  0.8415092335526427  0.5754190398622665
  0.8333299920000030  0.6584908134473576  0.5754190398622665
  0.6666700440000000  0.5915092105526373  0.4245809601377335
  0.6666700440000000  0.5000000000000000  0.6219421880367827
  0.8333299920000030  0.7500000240000020  0.3780578119632172
 
  0.00000000E+00  0.00000000E+00  0.00000000E+00
  0.00000000E+00  0.00000000E+00  0.00000000E+00
  0.00000000E+00  0.00000000E+00  0.00000000E+00
  0.00000000E+00  0.00000000E+00  0.00000000E+00
  0.00000000E+00  0.00000000E+00  0.00000000E+00
  0.00000000E+00  0.00000000E+00  0.00000000E+00
  0.00000000E+00  0.00000000E+00  0.00000000E+00
  0.00000000E+00  0.00000000E+00  0.00000000E+00
  0.00000000E+00  0.00000000E+00  0.00000000E+00
  0.00000000E+00  0.00000000E+00  0.00000000E+00
  0.00000000E+00  0.00000000E+00  0.00000000E+00
  0.00000000E+00  0.00000000E+00  0.00000000E+00
  0.00000000E+00  0.00000000E+00  0.00000000E+00
  0.00000000E+00  0.00000000E+00  0.00000000E+00
  0.00000000E+00  0.00000000E+00  0.00000000E+00
  0.00000000E+00  0.00000000E+00  0.00000000E+00
  0.00000000E+00  0.00000000E+00  0.00000000E+00
  0.00000000E+00  0.00000000E+00  0.00000000E+00
  0.00000000E+00  0.00000000E+00  0.00000000E+00
  0.00000000E+00  0.00000000E+00  0.00000000E+00
  0.00000000E+00  0.00000000E+00  0.00000000E+00
  0.00000000E+00  0.00000000E+00  0.00000000E+00
  0.00000000E+00  0.00000000E+00  0.00000000E+00
  0.00000000E+00  0.00000000E+00  0.00000000E+00
  0.00000000E+00  0.00000000E+00  0.00000000E+00
  0.00000000E+00  0.00000000E+00  0.00000000E+00
  0.00000000E+00  0.00000000E+00  0.00000000E+00
  0.00000000E+00  0.00000000E+00  0.00000000E+00
  0.00000000E+00  0.00000000E+00  0.00000000E+00
  0.00000000E+00  0.00000000E+00  0.00000000E+00
  0.00000000E+00  0.00000000E+00  0.00000000E+00
  0.00000000E+00  0.00000000E+00  0.00000000E+00
  0.00000000E+00  0.00000000E+00  0.00000000E+00
  0.00000000E+00  0.00000000E+00  0.00000000E+00
  0.00000000E+00  0.00000000E+00  0.00000000E+00
  0.00000000E+00  0.00000000E+00  0.00000000E+00
  0.00000000E+00  0.00000000E+00  0.00000000E+00
  0.00000000E+00  0.00000000E+00  0.00000000E+00
  0.00000000E+00  0.00000000E+00  0.00000000E+00
  0.00000000E+00  0.00000000E+00  0.00000000E+00
  0.00000000E+00  0.00000000E+00  0.00000000E+00
  0.00000000E+00  0.00000000E+00  0.00000000E+00
  0.00000000E+00  0.00000000E+00  0.00000000E+00
  0.00000000E+00  0.00000000E+00  0.00000000E+00
  0.00000000E+00  0.00000000E+00  0.00000000E+00
  0.00000000E+00  0.00000000E+00  0.00000000E+00
  0.00000000E+00  0.00000000E+00  0.00000000E+00
  0.00000000E+00  0.00000000E+00  0.00000000E+00
