CONTCAR\(4)                             
   1.00000000000000     
    13.1094999313000002    0.0000000000000000    0.0000000000000000
    -6.5547499657000001   11.3531599714000002    0.0000000000000000
     0.0000000000000000    0.0000000000000000   20.2374000549000002
   Na   Hf   N    O    H 
    32    16    32     2     1
Direct
  0.1669607936637494  0.0830246737358981  0.3742977482687565
  0.0844640552996888  0.1672133481993168  0.6272477388339071
  0.4174941840090615  0.0831172169671717  0.3744782683600346
  0.3341575233494434  0.1681335815176306  0.6272773461926290
  0.6674159478545647  0.0841589578735671  0.3742561479501083
  0.5836576851447884  0.1670928547566880  0.6284576401015314
  0.9166314054360726  0.0835742276096535  0.3742111586454976
  0.8338157121565215  0.1663985185086037  0.6283614866770827
  0.1654579319235077  0.3320329340743837  0.3735245929016793
  0.0858415504182038  0.4170230776730123  0.6277325589121201
  0.4171393920727790  0.3316729144426498  0.3734557755906019
  0.3391687195029055  0.4256772938394179  0.6301828850461760
  0.6677853317273627  0.3323976848675745  0.3742190947013046
  0.5793506435847661  0.4209988441021762  0.6291357220878904
  0.9160363567277641  0.3327623690873467  0.3742418193128981
  0.8331274518307489  0.4165907691909363  0.6284341239161561
  0.1658858367401094  0.5830231464849616  0.3738920467262121
  0.0848474497495477  0.6661662149934251  0.6277966075340657
  0.4169607076974500  0.5832448752675548  0.3727080144459471
  0.3413242399901397  0.6589752479265291  0.6303710888384613
  0.6685326704321829  0.5830384672630713  0.3734304993817418
  0.5747053161753783  0.6612591094916958  0.6301157058730387
  0.9171081227122880  0.5827093972757553  0.3744594664063602
  0.8321121521912507  0.6660504365981924  0.6272404064861182
  0.1672640750932513  0.8329692366917897  0.3745483600771671
  0.0837743575397218  0.9164828309749979  0.6279937541801517
  0.4172000414831749  0.8343905151020022  0.3738735609016737
  0.3340591789990486  0.9153286808548885  0.6277981703817199
  0.6681917106275449  0.8347902585837378  0.3734880419893550
  0.5831985074922431  0.9143095174099509  0.6277217471077547
  0.9172189612131559  0.8332686390235261  0.3742698904996414
  0.8330366012435343  0.9157348669987129  0.6272299449010715
  0.0003729185567345 -0.0001508719243811  0.5008188273285107
  0.2505577220265635  0.9997799762298853  0.5011160604784142
  0.5004436318072123  0.9995491240581375  0.5013189171008837
  0.7500965764398283  0.9994424788295398  0.5010397366155175
  0.0007700769453675  0.2501245221034984  0.5010445729786976
  0.2510335978361058  0.2507557039571450  0.5009535265182430
  0.5003076344038137  0.2504720395509009  0.5012423113748384
  0.7503060938857431  0.2499033106799909  0.5016963572907353
  0.0006670256942628  0.4997722799517456  0.5012984553776484
  0.2513056513763879  0.5000267436050073  0.4997618355402605
  0.5001265574579924  0.5001056358711984  0.4992647631630692
  0.7497453419917708  0.4999043357707735  0.5012102101091204
  0.0004460620462741  0.7496635292644924  0.5010960440907145
  0.2510274654766722  0.7491948149584363  0.5016141801086166
  0.5001952396485463  0.7489182413723577  0.4997277015749952
  0.7494796105047205  0.7491860336737332  0.5009081076791292
  0.1672217347788300  0.0834091464274627  0.5580704016362920
  0.0830368085090220  0.1660894085680195  0.4438976315449375
  0.4170524637298251  0.0831540360400052  0.5584872435218613
  0.3336584475440361  0.1656998468462220  0.4438812538941991
  0.6668514544862209  0.0827487699923535  0.5587370175965773
  0.5840498171534185  0.1664665216463401  0.4446674901228397
  0.9170787752674003  0.0831392190303888  0.5582501117180562
  0.8334484647092270  0.1667721341391158  0.4445835210647289
  0.1682810608285502  0.3341342704695061  0.5576271873789003
  0.0824498030637407  0.4158894152904552  0.4433178704185279
  0.4168654974079906  0.3341333809655599  0.5566645940382312
  0.3327028385213844  0.4148241372638202  0.4414334866702386
  0.6662975628165447  0.3339291146841961  0.5588564005906742
  0.5845326465451208  0.4156660971763290  0.4427246911211660
  0.9174584994224915  0.3333720969702277  0.5587288889274743
  0.8337469486004208  0.4161532391122122  0.4446454989861286
  0.1686828353410788  0.5829555795542223  0.5581549657137787
  0.0835349930470364  0.6662272386457633  0.4444395133105808
  0.4175042284347166  0.5827516074435206  0.5511226014003721
  0.3329666691061843  0.6672653114036471  0.4420600046246349
  0.6661239524131419  0.5833773842921092  0.5566214143691569
  0.5853968999027218  0.6675128325677094  0.4414058746109949
  0.9170669990085684  0.5831657009288381  0.5584547761272306
  0.8345360612146410  0.6665608045302484  0.4438431752556323
  0.1672619893994850  0.8329558710451013  0.5583115821717769
  0.0838396322173631  0.9163964406010309  0.4442553711181256
  0.4172806410076086  0.8315348584256235  0.5581481843383571
  0.3339996537707323  0.9167073929716065  0.4444553631907807
  0.6661232003343395  0.8319509867198804  0.5575954807668615
  0.5843305153166032  0.9177775452061772  0.4433135243728039
  0.9168195818201090  0.8329869940908942  0.5580496064276443
  0.8341521851181399  0.9171957148923190  0.4438767396448601
  0.4193730575830839  0.5808433476411249  0.7110808013670484
  0.4868152428608524  0.5147617997746249  0.7163357391096394
  0.4914435555394214  0.5106335573041086  0.7642796422906414
 
  0.00000000E+00  0.00000000E+00  0.00000000E+00
  0.00000000E+00  0.00000000E+00  0.00000000E+00
  0.00000000E+00  0.00000000E+00  0.00000000E+00
  0.00000000E+00  0.00000000E+00  0.00000000E+00
  0.00000000E+00  0.00000000E+00  0.00000000E+00
  0.00000000E+00  0.00000000E+00  0.00000000E+00
  0.00000000E+00  0.00000000E+00  0.00000000E+00
  0.00000000E+00  0.00000000E+00  0.00000000E+00
  0.00000000E+00  0.00000000E+00  0.00000000E+00
  0.00000000E+00  0.00000000E+00  0.00000000E+00
  0.00000000E+00  0.00000000E+00  0.00000000E+00
  0.00000000E+00  0.00000000E+00  0.00000000E+00
  0.00000000E+00  0.00000000E+00  0.00000000E+00
  0.00000000E+00  0.00000000E+00  0.00000000E+00
  0.00000000E+00  0.00000000E+00  0.00000000E+00
  0.00000000E+00  0.00000000E+00  0.00000000E+00
  0.00000000E+00  0.00000000E+00  0.00000000E+00
  0.00000000E+00  0.00000000E+00  0.00000000E+00
  0.00000000E+00  0.00000000E+00  0.00000000E+00
  0.00000000E+00  0.00000000E+00  0.00000000E+00
  0.00000000E+00  0.00000000E+00  0.00000000E+00
  0.00000000E+00  0.00000000E+00  0.00000000E+00
  0.00000000E+00  0.00000000E+00  0.00000000E+00
  0.00000000E+00  0.00000000E+00  0.00000000E+00
  0.00000000E+00  0.00000000E+00  0.00000000E+00
  0.00000000E+00  0.00000000E+00  0.00000000E+00
  0.00000000E+00  0.00000000E+00  0.00000000E+00
  0.00000000E+00  0.00000000E+00  0.00000000E+00
  0.00000000E+00  0.00000000E+00  0.00000000E+00
  0.00000000E+00  0.00000000E+00  0.00000000E+00
  0.00000000E+00  0.00000000E+00  0.00000000E+00
  0.00000000E+00  0.00000000E+00  0.00000000E+00
  0.00000000E+00  0.00000000E+00  0.00000000E+00
  0.00000000E+00  0.00000000E+00  0.00000000E+00
  0.00000000E+00  0.00000000E+00  0.00000000E+00
  0.00000000E+00  0.00000000E+00  0.00000000E+00
  0.00000000E+00  0.00000000E+00  0.00000000E+00
  0.00000000E+00  0.00000000E+00  0.00000000E+00
  0.00000000E+00  0.00000000E+00  0.00000000E+00
  0.00000000E+00  0.00000000E+00  0.00000000E+00
  0.00000000E+00  0.00000000E+00  0.00000000E+00
  0.00000000E+00  0.00000000E+00  0.00000000E+00
  0.00000000E+00  0.00000000E+00  0.00000000E+00
  0.00000000E+00  0.00000000E+00  0.00000000E+00
  0.00000000E+00  0.00000000E+00  0.00000000E+00
  0.00000000E+00  0.00000000E+00  0.00000000E+00
  0.00000000E+00  0.00000000E+00  0.00000000E+00
  0.00000000E+00  0.00000000E+00  0.00000000E+00
  0.00000000E+00  0.00000000E+00  0.00000000E+00
  0.00000000E+00  0.00000000E+00  0.00000000E+00
  0.00000000E+00  0.00000000E+00  0.00000000E+00
  0.00000000E+00  0.00000000E+00  0.00000000E+00
  0.00000000E+00  0.00000000E+00  0.00000000E+00
  0.00000000E+00  0.00000000E+00  0.00000000E+00
  0.00000000E+00  0.00000000E+00  0.00000000E+00
  0.00000000E+00  0.00000000E+00  0.00000000E+00
  0.00000000E+00  0.00000000E+00  0.00000000E+00
  0.00000000E+00  0.00000000E+00  0.00000000E+00
  0.00000000E+00  0.00000000E+00  0.00000000E+00
  0.00000000E+00  0.00000000E+00  0.00000000E+00
  0.00000000E+00  0.00000000E+00  0.00000000E+00
  0.00000000E+00  0.00000000E+00  0.00000000E+00
  0.00000000E+00  0.00000000E+00  0.00000000E+00
  0.00000000E+00  0.00000000E+00  0.00000000E+00
  0.00000000E+00  0.00000000E+00  0.00000000E+00
  0.00000000E+00  0.00000000E+00  0.00000000E+00
  0.00000000E+00  0.00000000E+00  0.00000000E+00
  0.00000000E+00  0.00000000E+00  0.00000000E+00
  0.00000000E+00  0.00000000E+00  0.00000000E+00
  0.00000000E+00  0.00000000E+00  0.00000000E+00
  0.00000000E+00  0.00000000E+00  0.00000000E+00
  0.00000000E+00  0.00000000E+00  0.00000000E+00
  0.00000000E+00  0.00000000E+00  0.00000000E+00
  0.00000000E+00  0.00000000E+00  0.00000000E+00
  0.00000000E+00  0.00000000E+00  0.00000000E+00
  0.00000000E+00  0.00000000E+00  0.00000000E+00
  0.00000000E+00  0.00000000E+00  0.00000000E+00
  0.00000000E+00  0.00000000E+00  0.00000000E+00
  0.00000000E+00  0.00000000E+00  0.00000000E+00
  0.00000000E+00  0.00000000E+00  0.00000000E+00
  0.00000000E+00  0.00000000E+00  0.00000000E+00
  0.00000000E+00  0.00000000E+00  0.00000000E+00
  0.00000000E+00  0.00000000E+00  0.00000000E+00
