CONTCAR\(2)                             
   1.00000000000000     
    12.0173997879000005    0.0000000000000000    0.0000000000000000
    -6.0086827942000003   10.4083072789000006    0.0000000000000000
     0.0000000000000000    0.0000000000000000   21.9916992186999991
   C    Ti   O    H 
    32    48    32     1
Direct
  0.1669296802461537  0.0830599397069453  0.5571906514596079
  0.0837851824768678  0.1667577484865024  0.4429067046442092
  0.4169232869610339  0.0830594335919138  0.5571885987031019
  0.3338739785479751  0.1669269444335002  0.4429546331393880
  0.6667932095102581  0.0831162239352164  0.5573944621263187
  0.5837984336096056  0.1667546002121497  0.4429056195024063
  0.9171153630691242  0.0831072000815203  0.5573943932097670
  0.8337081644233264  0.1665816059235279  0.4429249268527719
  0.1670602747226838  0.3332415136716398  0.5573449117600950
  0.0837798763047133  0.4165165027095626  0.4429013828654899
  0.4174049713267305  0.3340356191393147  0.5574635879200166
  0.3336214598834032  0.4165736974031584  0.4425201042802733
  0.6669849015141585  0.3332443880814255  0.5573244671773451
  0.5837725775881902  0.4165748785969630  0.4425140405237951
  0.9171149173600381  0.3334289354704706  0.5573902057848301
  0.8335720976694899  0.4165189038493686  0.4428914557578401
  0.1669140799297068  0.5832950890972872  0.5571813079662284
  0.0837594356238480  0.6667051249682503  0.4427825929065628
  0.4174341700278945  0.5828001045097378  0.5575132913522913
  0.3338678368403455  0.6664496760203412  0.4429538358360288
  0.6661785045796501  0.5828252543975867  0.5574845421422061
  0.5837606898595207  0.6667138238782662  0.4425252124719579
  0.9171882395459396  0.5833050834192798  0.5571637936293472
  0.8334008471262108  0.6664508386013773  0.4429341766919801
  0.1670132700949135  0.8332214898154748  0.5573134057839035
  0.0837649934484840  0.9165448641011624  0.4427854108871203
  0.4169353582827605  0.8333345045651962  0.5571833713214238
  0.3335912795318437  0.9165461386879583  0.4427936684255158
  0.6669564179337580  0.8331062090143283  0.5573497922686104
  0.5837735216545307  0.9165304840066756  0.4429020083273242
  0.9172028519763420  0.8333357877269475  0.5571713802318444
  0.8335817866846524  0.9165369282594867  0.4428946226985391
  0.0004555995426535 -0.0001719374784570  0.5001498854115182
  0.0830646942058044  0.1655319667656860  0.6170247527122910
  0.1669485819450409  0.0830218104574683  0.3830636284461213
  0.2503961736469259  0.0000070176724716  0.5001435241960700
  0.3339609723762895  0.1670326551886039  0.6167042178301151
  0.4170203490310671  0.0830082199083607  0.3830655806191173
  0.5001780566280182 -0.0001632466803709  0.5001612539792638
  0.5833531983410558  0.1655523501319994  0.6170119580212796
  0.6674079232382973  0.0834435665138270  0.3833535227172821
  0.7505209299971078  0.0002344231309652  0.4999808488955640
  0.8336896903754196  0.1664756328542658  0.6171470727023294
  0.9169765308374496  0.0834587661108269  0.3833515230425096
  0.0000105539800127  0.2497337250742181  0.5000000322212804
  0.0830316631296219  0.4168754666682694  0.6170003234158040
  0.1673105920525451  0.3333818272461887  0.3829626838659962
  0.2500836608160798  0.2494028857440080  0.4993374388233653
  0.3264798138665575  0.4129123744175006  0.6137070323930247
  0.4171977820278573  0.3334262588857946  0.3829881209826190
  0.5001021524103997  0.2494055853733514  0.4993281986592478
  0.5872606402743266  0.4129295644009615  0.6136718591749935
  0.6670331244312329  0.3333723904775877  0.3829623581846540
  0.7505423692039953  0.2497330708707376  0.4999911014982614
  0.8346465326756087  0.4168678659256870  0.6169878300500420
  0.9169817495549429  0.3330070659297982  0.3833572486693511
  0.0004283571582285  0.5000610883589240  0.5001540228448966
  0.0839156782706617  0.6669536156628355  0.6168609459185601
  0.1669406372586978  0.5833840944523524  0.3830439175105235
  0.2500805855683174  0.5001643875724799  0.4993244040201371
  0.3339602913853714  0.6662412517589118  0.6166990742279639
  0.4171768472365558  0.5832274532929054  0.3829785296192696
  0.5003560746214751  0.4999308470472532  0.5003265322421871
  0.5873191968404090  0.6737674604978534  0.6138154436323895
  0.6670134975297068  0.5832415964202446  0.3829770076649598
  0.7508967135934680  0.5001817280651737  0.4993095877981620
  0.8331649334487512  0.6662433254835292  0.6166694651982402
  0.9173883562244353  0.5833776557629083  0.3830204797409167
  0.0002795023009096  0.7498753374086953  0.5001204302299002
  0.0839116061925720  0.9162850927430466  0.6168751127646418
  0.1671017213621629  0.8333013020140311  0.3836524038195122
  0.2503991319875539  0.7498749298771649  0.5001343193946536
  0.3332607342769783  0.9162889303385066  0.6168765800530517
  0.4170341962008046  0.8335059769469452  0.3830492644138392
  0.5000794120235140  0.7501739847062953  0.4993307365426811
  0.5833334077152587  0.9171738349474567  0.6169710720355899
  0.6670290917398602  0.8331339321761696  0.3829525921212301
  0.7509019223488169  0.7502049470233119  0.4993271571834174
  0.8346958072242172  0.9171568061640399  0.6169705869911918
  0.9174012359619872  0.8335194775885385  0.3830235235604735
  0.0003788853938257 -0.0001891386263212  0.6593335394775688
  0.0003602272400830  0.0000478878526316  0.3411627230821513
  0.2504283382858863  0.0000291216397720  0.6590339530594471
  0.2505740919071920  0.0002792383053171  0.3411551705829464
  0.5002729036203465 -0.0001674936019436  0.6593358297099773
  0.5005527665641003  0.0000295058756772  0.3411691678910833
  0.7504048421886256 -0.0000225384688108  0.6590908071409959
  0.7504919943285551  0.0001190551081873  0.3410771406320838
  0.0002075492116010  0.2498061535974035  0.6591166929734448
  0.0002847585464781  0.2498831465068752  0.3410830893527664
  0.2505360856278706  0.2502989855707363  0.6590560926960392
  0.2502858104997468  0.2496498428580158  0.3409255429821618
  0.5006074471023531  0.2503204267795789  0.6590396290795338
  0.5002482886899178  0.2496468611848001  0.3409246111186923
  0.7504170453089259  0.2498085231047883  0.6591041487787637
  0.7504879602030508  0.2498756863483124  0.3410802047285754
  0.0003695765279815  0.4999462625658208  0.6593284489859011
  0.0003477867709425  0.4998045920996844  0.3411568817448578
  0.2505520836042406  0.4996166050212830  0.6590408568624383
  0.2502860533427618  0.5001214718420565  0.3409153870313656
  0.5002270676030565  0.4995294617039776  0.6661776451796412
  0.5004220897306541  0.4999716772024967  0.3409262277640343
  0.7498779178240248  0.4996254236592642  0.6590162983868438
  0.7507006550276426  0.5001169883797968  0.3409027014203682
  0.0002071371527852  0.7497867649101914  0.6589966783619847
  0.0000773570740411  0.7497917708730891  0.3411170629696716
  0.2504026168550439  0.7497942232778377  0.6590084903601134
  0.2505772402678517  0.7497806595963141  0.3411366374306540
  0.5006009932869888  0.7497093629145678  0.6590476604449858
  0.5002423662324359  0.7500944483562817  0.3409118827083711
  0.7499395281643912  0.7496877223949667  0.6590437612421348
  0.7507021593211252  0.7501029292942878  0.3409035239899652
  0.4996157320822867  0.4978953656111642  0.7105332031418530
 
  0.00000000E+00  0.00000000E+00  0.00000000E+00
  0.00000000E+00  0.00000000E+00  0.00000000E+00
  0.00000000E+00  0.00000000E+00  0.00000000E+00
  0.00000000E+00  0.00000000E+00  0.00000000E+00
  0.00000000E+00  0.00000000E+00  0.00000000E+00
  0.00000000E+00  0.00000000E+00  0.00000000E+00
  0.00000000E+00  0.00000000E+00  0.00000000E+00
  0.00000000E+00  0.00000000E+00  0.00000000E+00
  0.00000000E+00  0.00000000E+00  0.00000000E+00
  0.00000000E+00  0.00000000E+00  0.00000000E+00
  0.00000000E+00  0.00000000E+00  0.00000000E+00
  0.00000000E+00  0.00000000E+00  0.00000000E+00
  0.00000000E+00  0.00000000E+00  0.00000000E+00
  0.00000000E+00  0.00000000E+00  0.00000000E+00
  0.00000000E+00  0.00000000E+00  0.00000000E+00
  0.00000000E+00  0.00000000E+00  0.00000000E+00
  0.00000000E+00  0.00000000E+00  0.00000000E+00
  0.00000000E+00  0.00000000E+00  0.00000000E+00
  0.00000000E+00  0.00000000E+00  0.00000000E+00
  0.00000000E+00  0.00000000E+00  0.00000000E+00
  0.00000000E+00  0.00000000E+00  0.00000000E+00
  0.00000000E+00  0.00000000E+00  0.00000000E+00
  0.00000000E+00  0.00000000E+00  0.00000000E+00
  0.00000000E+00  0.00000000E+00  0.00000000E+00
  0.00000000E+00  0.00000000E+00  0.00000000E+00
  0.00000000E+00  0.00000000E+00  0.00000000E+00
  0.00000000E+00  0.00000000E+00  0.00000000E+00
  0.00000000E+00  0.00000000E+00  0.00000000E+00
  0.00000000E+00  0.00000000E+00  0.00000000E+00
  0.00000000E+00  0.00000000E+00  0.00000000E+00
  0.00000000E+00  0.00000000E+00  0.00000000E+00
  0.00000000E+00  0.00000000E+00  0.00000000E+00
  0.00000000E+00  0.00000000E+00  0.00000000E+00
  0.00000000E+00  0.00000000E+00  0.00000000E+00
  0.00000000E+00  0.00000000E+00  0.00000000E+00
  0.00000000E+00  0.00000000E+00  0.00000000E+00
  0.00000000E+00  0.00000000E+00  0.00000000E+00
  0.00000000E+00  0.00000000E+00  0.00000000E+00
  0.00000000E+00  0.00000000E+00  0.00000000E+00
  0.00000000E+00  0.00000000E+00  0.00000000E+00
  0.00000000E+00  0.00000000E+00  0.00000000E+00
  0.00000000E+00  0.00000000E+00  0.00000000E+00
  0.00000000E+00  0.00000000E+00  0.00000000E+00
  0.00000000E+00  0.00000000E+00  0.00000000E+00
  0.00000000E+00  0.00000000E+00  0.00000000E+00
  0.00000000E+00  0.00000000E+00  0.00000000E+00
  0.00000000E+00  0.00000000E+00  0.00000000E+00
  0.00000000E+00  0.00000000E+00  0.00000000E+00
  0.00000000E+00  0.00000000E+00  0.00000000E+00
  0.00000000E+00  0.00000000E+00  0.00000000E+00
  0.00000000E+00  0.00000000E+00  0.00000000E+00
  0.00000000E+00  0.00000000E+00  0.00000000E+00
  0.00000000E+00  0.00000000E+00  0.00000000E+00
  0.00000000E+00  0.00000000E+00  0.00000000E+00
  0.00000000E+00  0.00000000E+00  0.00000000E+00
  0.00000000E+00  0.00000000E+00  0.00000000E+00
  0.00000000E+00  0.00000000E+00  0.00000000E+00
  0.00000000E+00  0.00000000E+00  0.00000000E+00
  0.00000000E+00  0.00000000E+00  0.00000000E+00
  0.00000000E+00  0.00000000E+00  0.00000000E+00
  0.00000000E+00  0.00000000E+00  0.00000000E+00
  0.00000000E+00  0.00000000E+00  0.00000000E+00
  0.00000000E+00  0.00000000E+00  0.00000000E+00
  0.00000000E+00  0.00000000E+00  0.00000000E+00
  0.00000000E+00  0.00000000E+00  0.00000000E+00
  0.00000000E+00  0.00000000E+00  0.00000000E+00
  0.00000000E+00  0.00000000E+00  0.00000000E+00
  0.00000000E+00  0.00000000E+00  0.00000000E+00
  0.00000000E+00  0.00000000E+00  0.00000000E+00
  0.00000000E+00  0.00000000E+00  0.00000000E+00
  0.00000000E+00  0.00000000E+00  0.00000000E+00
  0.00000000E+00  0.00000000E+00  0.00000000E+00
  0.00000000E+00  0.00000000E+00  0.00000000E+00
  0.00000000E+00  0.00000000E+00  0.00000000E+00
  0.00000000E+00  0.00000000E+00  0.00000000E+00
  0.00000000E+00  0.00000000E+00  0.00000000E+00
  0.00000000E+00  0.00000000E+00  0.00000000E+00
  0.00000000E+00  0.00000000E+00  0.00000000E+00
  0.00000000E+00  0.00000000E+00  0.00000000E+00
  0.00000000E+00  0.00000000E+00  0.00000000E+00
  0.00000000E+00  0.00000000E+00  0.00000000E+00
  0.00000000E+00  0.00000000E+00  0.00000000E+00
  0.00000000E+00  0.00000000E+00  0.00000000E+00
  0.00000000E+00  0.00000000E+00  0.00000000E+00
  0.00000000E+00  0.00000000E+00  0.00000000E+00
  0.00000000E+00  0.00000000E+00  0.00000000E+00
  0.00000000E+00  0.00000000E+00  0.00000000E+00
  0.00000000E+00  0.00000000E+00  0.00000000E+00
  0.00000000E+00  0.00000000E+00  0.00000000E+00
  0.00000000E+00  0.00000000E+00  0.00000000E+00
  0.00000000E+00  0.00000000E+00  0.00000000E+00
  0.00000000E+00  0.00000000E+00  0.00000000E+00
  0.00000000E+00  0.00000000E+00  0.00000000E+00
  0.00000000E+00  0.00000000E+00  0.00000000E+00
  0.00000000E+00  0.00000000E+00  0.00000000E+00
  0.00000000E+00  0.00000000E+00  0.00000000E+00
  0.00000000E+00  0.00000000E+00  0.00000000E+00
  0.00000000E+00  0.00000000E+00  0.00000000E+00
  0.00000000E+00  0.00000000E+00  0.00000000E+00
  0.00000000E+00  0.00000000E+00  0.00000000E+00
  0.00000000E+00  0.00000000E+00  0.00000000E+00
  0.00000000E+00  0.00000000E+00  0.00000000E+00
  0.00000000E+00  0.00000000E+00  0.00000000E+00
  0.00000000E+00  0.00000000E+00  0.00000000E+00
  0.00000000E+00  0.00000000E+00  0.00000000E+00
  0.00000000E+00  0.00000000E+00  0.00000000E+00
  0.00000000E+00  0.00000000E+00  0.00000000E+00
  0.00000000E+00  0.00000000E+00  0.00000000E+00
  0.00000000E+00  0.00000000E+00  0.00000000E+00
  0.00000000E+00  0.00000000E+00  0.00000000E+00
  0.00000000E+00  0.00000000E+00  0.00000000E+00
  0.00000000E+00  0.00000000E+00  0.00000000E+00
  0.00000000E+00  0.00000000E+00  0.00000000E+00
