CONTCAR\(4)                             
   1.00000000000000     
    13.7772998809999994    0.0000000000000000    0.0000000000000000
    -0.9002177756999999   20.5238668944999993    0.0000000000000000
     0.0000000000000000    0.0000000000000000   22.2061004639000004
   Cu   Se   O    H 
    36    36   109     1
Direct
  0.1665453291904768  0.0426763455915875  0.5118773779029695
  0.3093117161183727  0.0234941992148165  0.6386984983474804
  0.3178425742503492  0.4181517178336520  0.5004952908776445
  0.1361530485010434  0.2910911887133238  0.4896495188429952
  0.3170372796317906  0.1675649371380246  0.5002053085823306
  0.3268268944935500  0.3122019218017229  0.3623818514974317
  0.4991895383919740  0.0439405866348963  0.5095718151959900
  0.6405276773037016  0.0223864077408891  0.6365100890063644
  0.6505853279554827  0.4185565042041475  0.5001880193770276
  0.4695503901474680  0.2917421157173692  0.4889681387093319
  0.6519590938852886  0.1682968139984524  0.4998141053638960
  0.6601228380577524  0.3124042247182857  0.3620470613342022
  0.8333847681481714  0.0442651715825733  0.5113392900802651
  0.9747564970514873  0.0240919185360156  0.6384367363929755
  0.9843024159423237  0.4180385627801328  0.5002125410601579
  0.8026540953065791  0.2903702521961193  0.4898154100640397
  0.9848290747520565  0.1676176698115128  0.5003609946830991
  0.9938378716617819  0.3130036947675237  0.3617647238467541
  0.1658095304530889  0.5456966121626152  0.5115640514172526
  0.3075824271529015  0.5236598664498544  0.6394461983972235
  0.3227738005246863  0.9159247031166728  0.4970871150202569
  0.1423290181803623  0.7942515997651896  0.4910503494936052
  0.3188706813121414  0.6703805613017479  0.5028833583161330
  0.3272799884219140  0.8124754851515092  0.3608958961044522
  0.4987804959707134  0.5451506688486631  0.5130080533705268
  0.6416417655359510  0.5244965232477057  0.6387822644540293
  0.6512128952985918  0.9181667306446144  0.4985740536237557
  0.4645691963045735  0.7923848116238048  0.4900796489570425
  0.6496074139284360  0.6693102170145977  0.5013250740691575
  0.6619963060319520  0.8121911079978688  0.3617456847359364
  0.8321424364583621  0.5454633983060901  0.5110809410119685
  0.9747452753181207  0.5241854685600700  0.6382236891401192
  0.9859336859832197  0.9178492157175953  0.5008952434090901
  0.8033724588745983  0.7908986316061970  0.4906245522480290
  0.9846930797895297  0.6678404184940661  0.5007506225832685
  0.9958077542038950  0.8122595389202800  0.3643417938146598
  0.1215589903524403  0.4225548162967456  0.6194098347123003
  0.1319313243370033  0.1346670181828529  0.6102604428398593
  0.1802002048706868  0.4138404476682211  0.3811636404804659
  0.3343616735261605  0.0417208161150029  0.4104985615969596
  0.1699273548285731  0.2015031485490510  0.3902694086220251
  0.3010810790214791  0.2932157274351468  0.5892796324146872
  0.4558946781644480  0.4225963252735383  0.6197429291163417
  0.4652346148866684  0.1343024278771807  0.6091313701721504
  0.5124490974883003  0.4138982010582524  0.3814982406766632
  0.6702133245434894  0.0430885768033704  0.4103625819914853
  0.5041306593194150  0.2009824910514268  0.3901757374144594
  0.6344834398807606  0.2938544312755198  0.5888751015836533
  0.7890440718232909  0.4231639573514983  0.6189551820763839
  0.7969353215060622  0.1343731438325619  0.6105508851717545
  0.8458829074092051  0.4139026244814659  0.3815719446060157
  0.0024797996750578  0.0419589080824210  0.4116419036781735
  0.8379488168565175  0.2017806159724032  0.3895485767116256
  0.9675929578669198  0.2930922621344365  0.5894505056273331
  0.1228677948800296  0.9224871020352268  0.6211917376323797
  0.1313122201203285  0.6352050638015854  0.6115371985041378
  0.1814982738321049  0.9143485241612339  0.3805580401704134
  0.3340402916203047  0.5439473075105283  0.4130227722806765
  0.1720088686165582  0.7014418397146045  0.3927329589272262
  0.2937815277624480  0.7900975833490804  0.6039562512789161
  0.4551166442516887  0.9203480119788381  0.6168113218018476
  0.4630816736794614  0.6355069086813003  0.6125478910719622
  0.5153017858571403  0.9136267575229411  0.3777747797281421
  0.6665093684396766  0.5439365027597134  0.4120426504340884
  0.5042212015746443  0.7022106024191075  0.3908743856934507
  0.6326454872777347  0.7946822015184125  0.5888298578349023
  0.7893956324404385  0.9221591627684944  0.6182948845327090
  0.7983004523292578  0.6355191064320422  0.6107396531299187
  0.8484207336564467  0.9135906636004947  0.3815401044528883
  0.0014733106651192  0.5425428075607499  0.4111992375234692
  0.8375874152549443  0.7014919613450843  0.3907204499294608
  0.9700334264488859  0.7938108783765259  0.5896399998957804
  0.2877759143333591  0.0045869730891610  0.4784582701516769
  0.0858806246212822  0.1171295034167983  0.5363637445778977
  0.0814785034359176  0.4784977269748367  0.6705671767263865
  0.1797000707927836  0.2961228397727993  0.5745768356019809
  0.3227999481848087  0.2122712435139391  0.5769045199511851
  0.2121790570981616  0.0699811342107850  0.5945063380524118
  0.1238360269051313  0.0386784883780678  0.4268370571128131
  0.2456765332578499  0.4388526888477102  0.6209262319686317
  0.2172748439195544  0.2190599003044866  0.4638792170016259
  0.0906943905938888  0.4569003925919972  0.5491933316139352
  0.0454108741672172  0.1043014799873205  0.6582012391011034
  0.2562257818683022  0.2316737450268178  0.3422708861349690
  0.0559346261162403  0.3977074146075879  0.3804150701896134
  0.2111289906075910  0.3796016430581659  0.4514442060555197
  0.0901953682484660  0.2665830865030117  0.4068372981499024
  0.0150525500709833  0.3285558025456297  0.5216057505983827
  0.2192334572522654  0.3574544379268261  0.3301913132954510
  0.3108497549299400  0.1219184453089426  0.4240336944169130
  0.6214945653191606  0.0077084870294186  0.4778815786190194
  0.4170474081523778  0.1164236436600916  0.5356637358839365
  0.4160234915689216  0.4779811331538610  0.6710627840360175
  0.5133240993134152  0.2970655967233284  0.5734681682920169
  0.6559668169791308  0.2129262803570455  0.5767955220803600
  0.5448676554836354  0.0696614442456038  0.5921452736749515
  0.4559065393671347  0.0396856670643615  0.4248367248439919
  0.5800092125302072  0.4394940757855323  0.6202574840364861
  0.5511249458283416  0.2187799122849583  0.4639236770263793
  0.4239451404934158  0.4570240393046774  0.5495711131191356
  0.3802841694542494  0.1038003120529964  0.6579402030750074
  0.5895344305083796  0.2319696117733798  0.3419369358706774
  0.3883137894501019  0.3973327809691938  0.3810889687181884
  0.5439967351230024  0.3796714449167524  0.4518525669836819
  0.4232032948044093  0.2648764989483894  0.4066295104529161
  0.3477331978429063  0.3283566233910449  0.5211601894060109
  0.5513381487149474  0.3578062377856952  0.3304771354772811
  0.6480201997443729  0.1238376486628354  0.4228583103868999
  0.9555507551992051  0.0074241579877778  0.4801157493185144
  0.7515571159528207  0.1172350420958708  0.5364362873346877
  0.7498623241059690  0.4790898796094609  0.6702190511729285
  0.8464164859212033  0.2966493093358622  0.5744176646291237
  0.9899394005216777  0.2124792448963078  0.5770182675892315
  0.8782641588351083  0.0705394937118484  0.5942987441435434
  0.7912167775443635  0.0399461294328489  0.4263392008424631
  0.9132689367060962  0.4395861675917132  0.6196700486928890
  0.8842678654288534  0.2184740924545352  0.4630832583634685
  0.7574821214686978  0.4573702237755768  0.5489166284668130
  0.7102836424637005  0.1028456695296640  0.6577329096194262
  0.9239865066393733  0.2327708766249756  0.3416009617646054
  0.7217320687737043  0.3972421004911979  0.3810634963884496
  0.8782770327463751  0.3789525169409913  0.4513662178268802
  0.7571519716086783  0.2662084590579141  0.4062564127491726
  0.6827467470916844  0.3291081073579747  0.5209073969112126
  0.8856666091903804  0.3585253706032958  0.3299909454898966
  0.9810772762346645  0.1228350805131768  0.4234193789964920
  0.2858957592429689  0.5076818673265748  0.4805520078863736
  0.0853123187172287  0.6176450244636555  0.5376925044706766
  0.0814768992578152  0.9790498887409811  0.6712885493726333
  0.1794138968566799  0.7986452288083470  0.5754064983858385
  0.3206363930968763  0.7123736439515298  0.5804354786157475
  0.2112131714818233  0.5698052460714962  0.5950595104335648
  0.1225580950278840  0.5390009728705039  0.4268075430681648
  0.2467299215113385  0.9387845161704931  0.6241789334647123
  0.2205059270860019  0.7203939513338824  0.4659407840846228
  0.0934083591353385  0.9559525321727662  0.5501123818186286
  0.0445191943309027  0.6039057199222952  0.6589434623393231
  0.2559446605015196  0.7317792451667202  0.3431301024601865
  0.0578383076421005  0.8973000815573826  0.3834978706396086
  0.2153782352571199  0.8795239730552709  0.4511518652523421
  0.0921629722334103  0.7658041347296916  0.4092164437185417
  0.0167942781046619  0.8285066027060495  0.5211999858051826
  0.2179783080920856  0.8574093352715551  0.3297394676400671
  0.3136378134375661  0.6248148470744184  0.4261065136766149
  0.6204089981690259  0.5084760443162111  0.4801578352017017
  0.4175295306525300  0.6183819959260433  0.5384767392994405
  0.4196631660816479  0.9779430135226477  0.6675280655046407
  0.5111094971204651  0.7974431176138523  0.5737961236799478
  0.6547642859869285  0.7137383615219477  0.5780134516328275
  0.5446887762455930  0.5717548789984903  0.5955177707126822
  0.4550427791502401  0.5396915919154992  0.4283378125718897
  0.5791316217139482  0.9373510363240953  0.6155757067669541
  0.5489594898439236  0.7210765077972709  0.4650331080329266
  0.4229025485580351  0.9555466145952423  0.5459501723496345
  0.3781728810753293  0.6033757243566598  0.6604476410251863
  0.5912861424594169  0.7317216020795954  0.3428740245345665
  0.3908641912424073  0.8976256943736587  0.3755054497090029
  0.5466528475591232  0.8796426031153928  0.4480558965817423
  0.4242810063986866  0.7670336418632502  0.4050584212167578
  0.3523997477924823  0.8318319134133105  0.5154045391988333
  0.5558403396913008  0.8574690985496431  0.3272638718069629
  0.6446172166609259  0.6247469597326827  0.4246798492837911
  0.9529341676584835  0.5072504397772377  0.4789423473716994
  0.7505219713202820  0.6179995453897718  0.5372555206378848
  0.7475791671582641  0.9770043895535281  0.6696930598274875
  0.8485388622549124  0.7979312078223799  0.5747055266189420
  0.9904688605194423  0.7129653860103957  0.5774148887298196
  0.8786946452119864  0.5709979701281114  0.5938871888704682
  0.7880821066190649  0.5411149028347921  0.4264485863033016
  0.9133762855606804  0.9394935248988929  0.6196032672505893
  0.8830669477767970  0.7178508445056622  0.4645368860170080
  0.7576497110167111  0.9569754615680779  0.5483620729494305
  0.7129049049572558  0.6047139981342298  0.6590804087450337
  0.9249375539249556  0.7322546422926095  0.3435924597953033
  0.7243929980811714  0.8971689662519537  0.3793955628443868
  0.8787928651865471  0.8792692938878730  0.4518645477069185
  0.7577637119063070  0.7666178029516928  0.4071626863388431
  0.6819758786263321  0.8290618511453545  0.5208658053194384
  0.8897323746131605  0.8579083352908938  0.3306480430459686
  0.9790921696223549  0.6230323488144691  0.4237602150772304
  0.2408093478532223  0.7616071162983218  0.6780129280515368
  0.2829659476059803  0.7801050199624200  0.7097108396270926
 
  0.00000000E+00  0.00000000E+00  0.00000000E+00
  0.00000000E+00  0.00000000E+00  0.00000000E+00
  0.00000000E+00  0.00000000E+00  0.00000000E+00
  0.00000000E+00  0.00000000E+00  0.00000000E+00
  0.00000000E+00  0.00000000E+00  0.00000000E+00
  0.00000000E+00  0.00000000E+00  0.00000000E+00
  0.00000000E+00  0.00000000E+00  0.00000000E+00
  0.00000000E+00  0.00000000E+00  0.00000000E+00
  0.00000000E+00  0.00000000E+00  0.00000000E+00
  0.00000000E+00  0.00000000E+00  0.00000000E+00
  0.00000000E+00  0.00000000E+00  0.00000000E+00
  0.00000000E+00  0.00000000E+00  0.00000000E+00
  0.00000000E+00  0.00000000E+00  0.00000000E+00
  0.00000000E+00  0.00000000E+00  0.00000000E+00
  0.00000000E+00  0.00000000E+00  0.00000000E+00
  0.00000000E+00  0.00000000E+00  0.00000000E+00
  0.00000000E+00  0.00000000E+00  0.00000000E+00
  0.00000000E+00  0.00000000E+00  0.00000000E+00
  0.00000000E+00  0.00000000E+00  0.00000000E+00
  0.00000000E+00  0.00000000E+00  0.00000000E+00
  0.00000000E+00  0.00000000E+00  0.00000000E+00
  0.00000000E+00  0.00000000E+00  0.00000000E+00
  0.00000000E+00  0.00000000E+00  0.00000000E+00
  0.00000000E+00  0.00000000E+00  0.00000000E+00
  0.00000000E+00  0.00000000E+00  0.00000000E+00
  0.00000000E+00  0.00000000E+00  0.00000000E+00
  0.00000000E+00  0.00000000E+00  0.00000000E+00
  0.00000000E+00  0.00000000E+00  0.00000000E+00
  0.00000000E+00  0.00000000E+00  0.00000000E+00
  0.00000000E+00  0.00000000E+00  0.00000000E+00
  0.00000000E+00  0.00000000E+00  0.00000000E+00
  0.00000000E+00  0.00000000E+00  0.00000000E+00
  0.00000000E+00  0.00000000E+00  0.00000000E+00
  0.00000000E+00  0.00000000E+00  0.00000000E+00
  0.00000000E+00  0.00000000E+00  0.00000000E+00
  0.00000000E+00  0.00000000E+00  0.00000000E+00
  0.00000000E+00  0.00000000E+00  0.00000000E+00
  0.00000000E+00  0.00000000E+00  0.00000000E+00
  0.00000000E+00  0.00000000E+00  0.00000000E+00
  0.00000000E+00  0.00000000E+00  0.00000000E+00
  0.00000000E+00  0.00000000E+00  0.00000000E+00
  0.00000000E+00  0.00000000E+00  0.00000000E+00
  0.00000000E+00  0.00000000E+00  0.00000000E+00
  0.00000000E+00  0.00000000E+00  0.00000000E+00
  0.00000000E+00  0.00000000E+00  0.00000000E+00
  0.00000000E+00  0.00000000E+00  0.00000000E+00
  0.00000000E+00  0.00000000E+00  0.00000000E+00
  0.00000000E+00  0.00000000E+00  0.00000000E+00
  0.00000000E+00  0.00000000E+00  0.00000000E+00
  0.00000000E+00  0.00000000E+00  0.00000000E+00
  0.00000000E+00  0.00000000E+00  0.00000000E+00
  0.00000000E+00  0.00000000E+00  0.00000000E+00
  0.00000000E+00  0.00000000E+00  0.00000000E+00
  0.00000000E+00  0.00000000E+00  0.00000000E+00
  0.00000000E+00  0.00000000E+00  0.00000000E+00
  0.00000000E+00  0.00000000E+00  0.00000000E+00
  0.00000000E+00  0.00000000E+00  0.00000000E+00
  0.00000000E+00  0.00000000E+00  0.00000000E+00
  0.00000000E+00  0.00000000E+00  0.00000000E+00
  0.00000000E+00  0.00000000E+00  0.00000000E+00
  0.00000000E+00  0.00000000E+00  0.00000000E+00
  0.00000000E+00  0.00000000E+00  0.00000000E+00
  0.00000000E+00  0.00000000E+00  0.00000000E+00
  0.00000000E+00  0.00000000E+00  0.00000000E+00
  0.00000000E+00  0.00000000E+00  0.00000000E+00
  0.00000000E+00  0.00000000E+00  0.00000000E+00
  0.00000000E+00  0.00000000E+00  0.00000000E+00
  0.00000000E+00  0.00000000E+00  0.00000000E+00
  0.00000000E+00  0.00000000E+00  0.00000000E+00
  0.00000000E+00  0.00000000E+00  0.00000000E+00
  0.00000000E+00  0.00000000E+00  0.00000000E+00
  0.00000000E+00  0.00000000E+00  0.00000000E+00
  0.00000000E+00  0.00000000E+00  0.00000000E+00
  0.00000000E+00  0.00000000E+00  0.00000000E+00
  0.00000000E+00  0.00000000E+00  0.00000000E+00
  0.00000000E+00  0.00000000E+00  0.00000000E+00
  0.00000000E+00  0.00000000E+00  0.00000000E+00
  0.00000000E+00  0.00000000E+00  0.00000000E+00
  0.00000000E+00  0.00000000E+00  0.00000000E+00
  0.00000000E+00  0.00000000E+00  0.00000000E+00
  0.00000000E+00  0.00000000E+00  0.00000000E+00
  0.00000000E+00  0.00000000E+00  0.00000000E+00
  0.00000000E+00  0.00000000E+00  0.00000000E+00
  0.00000000E+00  0.00000000E+00  0.00000000E+00
  0.00000000E+00  0.00000000E+00  0.00000000E+00
  0.00000000E+00  0.00000000E+00  0.00000000E+00
  0.00000000E+00  0.00000000E+00  0.00000000E+00
  0.00000000E+00  0.00000000E+00  0.00000000E+00
  0.00000000E+00  0.00000000E+00  0.00000000E+00
  0.00000000E+00  0.00000000E+00  0.00000000E+00
  0.00000000E+00  0.00000000E+00  0.00000000E+00
  0.00000000E+00  0.00000000E+00  0.00000000E+00
  0.00000000E+00  0.00000000E+00  0.00000000E+00
  0.00000000E+00  0.00000000E+00  0.00000000E+00
  0.00000000E+00  0.00000000E+00  0.00000000E+00
  0.00000000E+00  0.00000000E+00  0.00000000E+00
  0.00000000E+00  0.00000000E+00  0.00000000E+00
  0.00000000E+00  0.00000000E+00  0.00000000E+00
  0.00000000E+00  0.00000000E+00  0.00000000E+00
  0.00000000E+00  0.00000000E+00  0.00000000E+00
  0.00000000E+00  0.00000000E+00  0.00000000E+00
  0.00000000E+00  0.00000000E+00  0.00000000E+00
  0.00000000E+00  0.00000000E+00  0.00000000E+00
  0.00000000E+00  0.00000000E+00  0.00000000E+00
  0.00000000E+00  0.00000000E+00  0.00000000E+00
  0.00000000E+00  0.00000000E+00  0.00000000E+00
  0.00000000E+00  0.00000000E+00  0.00000000E+00
  0.00000000E+00  0.00000000E+00  0.00000000E+00
  0.00000000E+00  0.00000000E+00  0.00000000E+00
  0.00000000E+00  0.00000000E+00  0.00000000E+00
  0.00000000E+00  0.00000000E+00  0.00000000E+00
  0.00000000E+00  0.00000000E+00  0.00000000E+00
  0.00000000E+00  0.00000000E+00  0.00000000E+00
  0.00000000E+00  0.00000000E+00  0.00000000E+00
  0.00000000E+00  0.00000000E+00  0.00000000E+00
  0.00000000E+00  0.00000000E+00  0.00000000E+00
  0.00000000E+00  0.00000000E+00  0.00000000E+00
  0.00000000E+00  0.00000000E+00  0.00000000E+00
  0.00000000E+00  0.00000000E+00  0.00000000E+00
  0.00000000E+00  0.00000000E+00  0.00000000E+00
  0.00000000E+00  0.00000000E+00  0.00000000E+00
  0.00000000E+00  0.00000000E+00  0.00000000E+00
  0.00000000E+00  0.00000000E+00  0.00000000E+00
  0.00000000E+00  0.00000000E+00  0.00000000E+00
  0.00000000E+00  0.00000000E+00  0.00000000E+00
  0.00000000E+00  0.00000000E+00  0.00000000E+00
  0.00000000E+00  0.00000000E+00  0.00000000E+00
  0.00000000E+00  0.00000000E+00  0.00000000E+00
  0.00000000E+00  0.00000000E+00  0.00000000E+00
  0.00000000E+00  0.00000000E+00  0.00000000E+00
  0.00000000E+00  0.00000000E+00  0.00000000E+00
  0.00000000E+00  0.00000000E+00  0.00000000E+00
  0.00000000E+00  0.00000000E+00  0.00000000E+00
  0.00000000E+00  0.00000000E+00  0.00000000E+00
  0.00000000E+00  0.00000000E+00  0.00000000E+00
  0.00000000E+00  0.00000000E+00  0.00000000E+00
  0.00000000E+00  0.00000000E+00  0.00000000E+00
  0.00000000E+00  0.00000000E+00  0.00000000E+00
  0.00000000E+00  0.00000000E+00  0.00000000E+00
  0.00000000E+00  0.00000000E+00  0.00000000E+00
  0.00000000E+00  0.00000000E+00  0.00000000E+00
  0.00000000E+00  0.00000000E+00  0.00000000E+00
  0.00000000E+00  0.00000000E+00  0.00000000E+00
  0.00000000E+00  0.00000000E+00  0.00000000E+00
  0.00000000E+00  0.00000000E+00  0.00000000E+00
  0.00000000E+00  0.00000000E+00  0.00000000E+00
  0.00000000E+00  0.00000000E+00  0.00000000E+00
  0.00000000E+00  0.00000000E+00  0.00000000E+00
  0.00000000E+00  0.00000000E+00  0.00000000E+00
  0.00000000E+00  0.00000000E+00  0.00000000E+00
  0.00000000E+00  0.00000000E+00  0.00000000E+00
  0.00000000E+00  0.00000000E+00  0.00000000E+00
  0.00000000E+00  0.00000000E+00  0.00000000E+00
  0.00000000E+00  0.00000000E+00  0.00000000E+00
  0.00000000E+00  0.00000000E+00  0.00000000E+00
  0.00000000E+00  0.00000000E+00  0.00000000E+00
  0.00000000E+00  0.00000000E+00  0.00000000E+00
  0.00000000E+00  0.00000000E+00  0.00000000E+00
  0.00000000E+00  0.00000000E+00  0.00000000E+00
  0.00000000E+00  0.00000000E+00  0.00000000E+00
  0.00000000E+00  0.00000000E+00  0.00000000E+00
  0.00000000E+00  0.00000000E+00  0.00000000E+00
  0.00000000E+00  0.00000000E+00  0.00000000E+00
  0.00000000E+00  0.00000000E+00  0.00000000E+00
  0.00000000E+00  0.00000000E+00  0.00000000E+00
  0.00000000E+00  0.00000000E+00  0.00000000E+00
  0.00000000E+00  0.00000000E+00  0.00000000E+00
  0.00000000E+00  0.00000000E+00  0.00000000E+00
  0.00000000E+00  0.00000000E+00  0.00000000E+00
  0.00000000E+00  0.00000000E+00  0.00000000E+00
  0.00000000E+00  0.00000000E+00  0.00000000E+00
  0.00000000E+00  0.00000000E+00  0.00000000E+00
  0.00000000E+00  0.00000000E+00  0.00000000E+00
  0.00000000E+00  0.00000000E+00  0.00000000E+00
  0.00000000E+00  0.00000000E+00  0.00000000E+00
  0.00000000E+00  0.00000000E+00  0.00000000E+00
  0.00000000E+00  0.00000000E+00  0.00000000E+00
  0.00000000E+00  0.00000000E+00  0.00000000E+00
  0.00000000E+00  0.00000000E+00  0.00000000E+00
  0.00000000E+00  0.00000000E+00  0.00000000E+00
  0.00000000E+00  0.00000000E+00  0.00000000E+00
  0.00000000E+00  0.00000000E+00  0.00000000E+00
