CONTCAR\(4)                             
   1.00000000000000     
    13.0193004608000003    0.0000000000000000    0.0000000000000000
    -1.6274128543999999    9.0662962906000004    0.0000000000000000
     0.0000000000000000    0.0000000000000000   18.6888999939000016
   Nb   Pd   S 
     8     4    24
Direct
  0.0373379584137234  0.2987350054294055  0.4762118440853392
  0.2126620465862734  0.7012550335705910  0.5237882069146614
  0.2873379484137297  0.2987350054294055  0.4762118440853392
  0.4626620925862702  0.7012550335705910  0.5237882069146614
  0.5373379124137266  0.2987350054294055  0.4762118440853392
  0.7126620185862712  0.7012550335705910  0.5237882069146614
  0.7873379854137291  0.2987350054294055  0.4762118440853392
  0.9626620555862707  0.7012550335705910  0.5237882069146614
  0.1250000000000000  0.0000000000000000  0.5000000000000000
  0.3749999819999985  0.0000000000000000  0.5000000000000000
  0.6250000180000015  0.0000000000000000  0.5000000000000000
  0.8749999819999985  0.0000000000000000  0.5000000000000000
  0.0980565898542376  0.7844969699365012  0.4308041276580403
  0.1519434171457594  0.2155030490634968  0.5691958213419590
  0.0643445929972149  0.5145595740379605  0.5688588640819798
  0.1856554110027854  0.4854404579620422  0.4311410849180194
  0.1451294682172290  0.1603787323763621  0.4016142122007665
  0.1048705417827718  0.8396213116236415  0.5983858137992356
  0.3480565808542404  0.7844969699365012  0.4308041276580403
  0.4019434261457566  0.2155030490634968  0.5691958213419590
  0.3143445979972118  0.5145595740379605  0.5688588640819798
  0.4356554290027869  0.4854404579620422  0.4311410849180194
  0.3951294682172291  0.1603787323763621  0.4016142122007665
  0.3548705417827718  0.8396213116236415  0.5983858137992356
  0.5980566178542399  0.7844969699365012  0.4308041276580403
  0.6519433521457576  0.2155030490634968  0.5691958213419590
  0.5643446159972133  0.5145595740379605  0.5688588640819798
  0.6856553560027844  0.4854404579620422  0.4311410849180194
  0.6451294312172295  0.1603787323763621  0.4016142122007665
  0.6048705787827713  0.8396213116236415  0.5983858137992356
  0.8480566538542429  0.7844969699365012  0.4308041276580403
  0.9019433891457571  0.2155030490634968  0.5691958213419590
  0.8143446529972128  0.5145595740379605  0.5688588640819798
  0.9356553920027874  0.4854404579620422  0.4311410849180194
  0.8951294682172291  0.1603787323763621  0.4016142122007665
  0.8548705787827713  0.8396213116236415  0.5983858137992356
 
  0.00000000E+00  0.00000000E+00  0.00000000E+00
  0.00000000E+00  0.00000000E+00  0.00000000E+00
  0.00000000E+00  0.00000000E+00  0.00000000E+00
  0.00000000E+00  0.00000000E+00  0.00000000E+00
  0.00000000E+00  0.00000000E+00  0.00000000E+00
  0.00000000E+00  0.00000000E+00  0.00000000E+00
  0.00000000E+00  0.00000000E+00  0.00000000E+00
  0.00000000E+00  0.00000000E+00  0.00000000E+00
  0.00000000E+00  0.00000000E+00  0.00000000E+00
  0.00000000E+00  0.00000000E+00  0.00000000E+00
  0.00000000E+00  0.00000000E+00  0.00000000E+00
  0.00000000E+00  0.00000000E+00  0.00000000E+00
  0.00000000E+00  0.00000000E+00  0.00000000E+00
  0.00000000E+00  0.00000000E+00  0.00000000E+00
  0.00000000E+00  0.00000000E+00  0.00000000E+00
  0.00000000E+00  0.00000000E+00  0.00000000E+00
  0.00000000E+00  0.00000000E+00  0.00000000E+00
  0.00000000E+00  0.00000000E+00  0.00000000E+00
  0.00000000E+00  0.00000000E+00  0.00000000E+00
  0.00000000E+00  0.00000000E+00  0.00000000E+00
  0.00000000E+00  0.00000000E+00  0.00000000E+00
  0.00000000E+00  0.00000000E+00  0.00000000E+00
  0.00000000E+00  0.00000000E+00  0.00000000E+00
  0.00000000E+00  0.00000000E+00  0.00000000E+00
  0.00000000E+00  0.00000000E+00  0.00000000E+00
  0.00000000E+00  0.00000000E+00  0.00000000E+00
  0.00000000E+00  0.00000000E+00  0.00000000E+00
  0.00000000E+00  0.00000000E+00  0.00000000E+00
  0.00000000E+00  0.00000000E+00  0.00000000E+00
  0.00000000E+00  0.00000000E+00  0.00000000E+00
  0.00000000E+00  0.00000000E+00  0.00000000E+00
  0.00000000E+00  0.00000000E+00  0.00000000E+00
  0.00000000E+00  0.00000000E+00  0.00000000E+00
  0.00000000E+00  0.00000000E+00  0.00000000E+00
  0.00000000E+00  0.00000000E+00  0.00000000E+00
  0.00000000E+00  0.00000000E+00  0.00000000E+00
