CONTCAR\(6)                             
   1.00000000000000     
    12.3503999709999999    0.0000000000000000    0.0000000000000000
    -6.1751999854999999   10.6957601217999994    0.0000000000000000
     0.0000000000000000    0.0000000000000000   23.1849002838000011
   Ce   Si   I 
    18    18    18
Direct
  0.0000000000000000  0.0000000000000000  0.5831599770000011
  0.0000000000000000  0.0000000000000000  0.4168399819999991
  0.3333299999999966  0.0000000000000000  0.5831599770000011
  0.3333299999999966  0.0000000000000000  0.4168399819999991
  0.6666700390000031  0.0000000000000000  0.5831599770000011
  0.6666700390000031  0.0000000000000000  0.4168399819999991
  0.0000000009999965  0.3333300010000002  0.5831599770000011
  0.0000000009999965  0.3333300010000002  0.4168399819999991
  0.3333300010000002  0.3333300010000002  0.5831599770000011
  0.3333300010000002  0.3333300010000002  0.4168399819999991
  0.6666700580000011  0.3333300010000002  0.5831599770000011
  0.6666700580000011  0.3333300010000002  0.4168399819999991
  0.9999999750000015  0.6666699889999990  0.5831599770000011
  0.9999999750000015  0.6666699889999990  0.4168399819999991
  0.3333299749999981  0.6666699889999990  0.5831599770000011
  0.3333299749999981  0.6666699889999990  0.4168399819999991
  0.6666700139999975  0.6666699889999990  0.5831599770000011
  0.6666700139999975  0.6666699889999990  0.4168399819999991
  0.1111099969999998  0.2222199930000031  0.5020099850000008
  0.2222199979999999  0.1111099969999998  0.4979900149999992
  0.4444399970000035  0.2222199930000031  0.5020099850000008
  0.5555599790000016  0.1111099969999998  0.4979900149999992
  0.7777799579999964  0.2222199930000031  0.5020099850000008
  0.8888900179999979  0.1111099969999998  0.4979900149999992
  0.1111099900000028  0.5555599810000018  0.5020099850000008
  0.2222199930000031  0.4444399870000026  0.4979900149999992
  0.4444399910000030  0.5555599810000018  0.5020099850000008
  0.5555599930000028  0.4444399870000026  0.4979900149999992
  0.7777799899999991  0.5555599810000018  0.5020099850000008
  0.8888900319999991  0.4444399870000026  0.4979900149999992
  0.1111099609999968  0.8888899600000002  0.5020099850000008
  0.2222199759999981  0.7777799520000030  0.4979900149999992
  0.4444399610000005  0.8888899600000002  0.5020099850000008
  0.5555599759999978  0.7777799520000030  0.4979900149999992
  0.7777799599999966  0.8888899600000002  0.5020099850000008
  0.8888900150000012  0.7777799520000030  0.4979900149999992
  0.1111099969999998  0.2222199930000031  0.3236599860000027
  0.2222199979999999  0.1111099969999998  0.6763500089999965
  0.4444399970000035  0.2222199930000031  0.3236599860000027
  0.5555599790000016  0.1111099969999998  0.6763500089999965
  0.7777799579999964  0.2222199930000031  0.3236599860000027
  0.8888900179999979  0.1111099969999998  0.6763500089999965
  0.1111099900000028  0.5555599810000018  0.3236599860000027
  0.2222199930000031  0.4444399870000026  0.6763500089999965
  0.4444399910000030  0.5555599810000018  0.3236599860000027
  0.5555599930000028  0.4444399870000026  0.6763500089999965
  0.7777799899999991  0.5555599810000018  0.3236599860000027
  0.8888900319999991  0.4444399870000026  0.6763500089999965
  0.1111099609999968  0.8888899600000002  0.3236599860000027
  0.2222199759999981  0.7777799520000030  0.6763500089999965
  0.4444399610000005  0.8888899600000002  0.3236599860000027
  0.5555599759999978  0.7777799520000030  0.6763500089999965
  0.7777799599999966  0.8888899600000002  0.3236599860000027
  0.8888900150000012  0.7777799520000030  0.6763500089999965
 
  0.00000000E+00  0.00000000E+00  0.00000000E+00
  0.00000000E+00  0.00000000E+00  0.00000000E+00
  0.00000000E+00  0.00000000E+00  0.00000000E+00
  0.00000000E+00  0.00000000E+00  0.00000000E+00
  0.00000000E+00  0.00000000E+00  0.00000000E+00
  0.00000000E+00  0.00000000E+00  0.00000000E+00
  0.00000000E+00  0.00000000E+00  0.00000000E+00
  0.00000000E+00  0.00000000E+00  0.00000000E+00
  0.00000000E+00  0.00000000E+00  0.00000000E+00
  0.00000000E+00  0.00000000E+00  0.00000000E+00
  0.00000000E+00  0.00000000E+00  0.00000000E+00
  0.00000000E+00  0.00000000E+00  0.00000000E+00
  0.00000000E+00  0.00000000E+00  0.00000000E+00
  0.00000000E+00  0.00000000E+00  0.00000000E+00
  0.00000000E+00  0.00000000E+00  0.00000000E+00
  0.00000000E+00  0.00000000E+00  0.00000000E+00
  0.00000000E+00  0.00000000E+00  0.00000000E+00
  0.00000000E+00  0.00000000E+00  0.00000000E+00
  0.00000000E+00  0.00000000E+00  0.00000000E+00
  0.00000000E+00  0.00000000E+00  0.00000000E+00
  0.00000000E+00  0.00000000E+00  0.00000000E+00
  0.00000000E+00  0.00000000E+00  0.00000000E+00
  0.00000000E+00  0.00000000E+00  0.00000000E+00
  0.00000000E+00  0.00000000E+00  0.00000000E+00
  0.00000000E+00  0.00000000E+00  0.00000000E+00
  0.00000000E+00  0.00000000E+00  0.00000000E+00
  0.00000000E+00  0.00000000E+00  0.00000000E+00
  0.00000000E+00  0.00000000E+00  0.00000000E+00
  0.00000000E+00  0.00000000E+00  0.00000000E+00
  0.00000000E+00  0.00000000E+00  0.00000000E+00
  0.00000000E+00  0.00000000E+00  0.00000000E+00
  0.00000000E+00  0.00000000E+00  0.00000000E+00
  0.00000000E+00  0.00000000E+00  0.00000000E+00
  0.00000000E+00  0.00000000E+00  0.00000000E+00
  0.00000000E+00  0.00000000E+00  0.00000000E+00
  0.00000000E+00  0.00000000E+00  0.00000000E+00
  0.00000000E+00  0.00000000E+00  0.00000000E+00
  0.00000000E+00  0.00000000E+00  0.00000000E+00
  0.00000000E+00  0.00000000E+00  0.00000000E+00
  0.00000000E+00  0.00000000E+00  0.00000000E+00
  0.00000000E+00  0.00000000E+00  0.00000000E+00
  0.00000000E+00  0.00000000E+00  0.00000000E+00
  0.00000000E+00  0.00000000E+00  0.00000000E+00
  0.00000000E+00  0.00000000E+00  0.00000000E+00
  0.00000000E+00  0.00000000E+00  0.00000000E+00
  0.00000000E+00  0.00000000E+00  0.00000000E+00
  0.00000000E+00  0.00000000E+00  0.00000000E+00
  0.00000000E+00  0.00000000E+00  0.00000000E+00
  0.00000000E+00  0.00000000E+00  0.00000000E+00
  0.00000000E+00  0.00000000E+00  0.00000000E+00
  0.00000000E+00  0.00000000E+00  0.00000000E+00
  0.00000000E+00  0.00000000E+00  0.00000000E+00
  0.00000000E+00  0.00000000E+00  0.00000000E+00
  0.00000000E+00  0.00000000E+00  0.00000000E+00
