 Ta2 Ni2 Te10                           
   1.00000000000000     
     3.6834980485924955    0.0000000000000000    0.0000000000000000
     0.0000000000000000   15.0270055718943389    0.0000000000000000
     0.0000000000000000    0.0000000000000000   19.5721236722270007
   Ta   Ni   Te
     2     2    10
Direct
  0.0000000009184689  0.7500007601929752  0.4948408730100198
  0.0000000015648638  0.2500003928107901  0.5051619745388791
  0.4999999985516794  0.5000007576849939  0.5000033370821555
  0.4999999983346726  0.9999980421677748  0.4999949072815895
  0.0000000010974901  0.4242088676310800  0.5718786670589111
  0.5000000012598846  0.3552172719559650  0.4282384545051556
  0.9999999963115940  0.5757932574022320  0.4281281806738235
  0.0000000022387283  0.9242073647252624  0.4281194690278838
  0.9999999956159158  0.0757871468448457  0.5718733128335103
  0.5000000006812613  0.7499917298643624  0.3835820771866594
  0.5000000011889085  0.8552194631836016  0.5717635250038740
  0.5000000004370975  0.2500047010765201  0.6164200815922456
  0.5000000007872316  0.1447841177657807  0.4282370233541499
  0.5000000010121965  0.6447861266938233  0.5717656580140869
 
  0.00000000E+00  0.00000000E+00  0.00000000E+00
  0.00000000E+00  0.00000000E+00  0.00000000E+00
  0.00000000E+00  0.00000000E+00  0.00000000E+00
  0.00000000E+00  0.00000000E+00  0.00000000E+00
  0.00000000E+00  0.00000000E+00  0.00000000E+00
  0.00000000E+00  0.00000000E+00  0.00000000E+00
  0.00000000E+00  0.00000000E+00  0.00000000E+00
  0.00000000E+00  0.00000000E+00  0.00000000E+00
  0.00000000E+00  0.00000000E+00  0.00000000E+00
  0.00000000E+00  0.00000000E+00  0.00000000E+00
  0.00000000E+00  0.00000000E+00  0.00000000E+00
  0.00000000E+00  0.00000000E+00  0.00000000E+00
  0.00000000E+00  0.00000000E+00  0.00000000E+00
  0.00000000E+00  0.00000000E+00  0.00000000E+00
