CONTCAR\(5)                             
   1.00000000000000     
    12.4780998230000009    0.0000000000000000    0.0000000000000000
     0.0000000000000000   15.4434003830000002    0.0000000000000000
     0.0000000000000000    0.0000000000000000   19.6900997161999989
   Nb   Co   Te   O    H 
    16    16    32     2     1
Selective dynamics
Direct
  0.2374488332055762  0.1275310514764456  0.4935602909759069   F   F   F
  0.2551770317044131  0.3262030528656936  0.5043234844591211   F   F   F
  0.4871021746607411  0.0761614956125101  0.5062785524191611   F   F   F
  0.0057594219527815  0.3772218973672352  0.4922670968825358   F   F   F
  0.7373792769480119  0.1274667738088198  0.4935044935103647   F   F   F
  0.7542328037016333  0.3278134078018979  0.5053892990463780   F   F   F
  0.9874792411399866  0.0758826088654914  0.5060117535943292   F   F   F
  0.5055975921103411  0.3774490488404254  0.4919063294041237   F   F   F
  0.2375919774681492  0.6262234357924683  0.4923737813523701   F   F   F
  0.2539195617951293  0.8260694542674258  0.5054319201449005   F   F   F
  0.4914774900306469  0.5765345797218657  0.5018891530600484   F   F   F
  0.0039577344114505  0.8771339127341591  0.4925417225497455   F   F   F
  0.7372769095036986  0.6281889484621175  0.4866486299519082   F   F   F
  0.7529983275017003  0.8252714310882467  0.5048466879608071   F   F   F
  0.9885109726310333  0.5759030580424067  0.5035386263160930   F   F   F
  0.5044415548695085  0.8771364860047655  0.4936442169675246   F   F   F
  0.4242823918028407  0.2294331067036808  0.4580527622773687   F   F   F
  0.1725734764550069  0.4735992679150485  0.5393444717574383   F   F   F
  0.3183658393839792  0.4789422397061642  0.4565909450624872   F   F   F
  0.0693716951740839  0.2240470307852647  0.5405566864963802   F   F   F
  0.9241569272293546  0.2293820813720586  0.4582710546807505   F   F   F
  0.6729915145789320  0.4803148692160875  0.5422429926217944   F   F   F
  0.8188876372920006  0.4788977303159214  0.4578870363392866   F   F   F
  0.5693072185443739  0.2247197583865841  0.5405216369214543   F   F   F
  0.4222682486995595  0.7307817652192270  0.4586319129894321   F   F   F
  0.1730337162933537  0.9733503013644338  0.5406935444001988   F   F   F
  0.3185867865861027  0.9795918079007961  0.4587703858227314   F   F   F
  0.0691980642212684  0.7238837218876668  0.5395435099025363   F   F   F
  0.9236996025918671  0.7288008059570075  0.4567394119685559   F   F   F
  0.6722734143917464  0.9741848198077605  0.5405303106858597   F   F   F
  0.8176999991833256  0.9792928579621787  0.4582139948412660   F   F   F
  0.5680195742153629  0.7208902862820281  0.5420492198811218   F   F   F
  0.1240494198144333  0.4933247717306699  0.4095350833461495   F   F   F
  0.3693471968581363  0.3546567646067871  0.3794896632100588   F   F   F
  0.1205502524694566  0.3480487637426677  0.6175127014944266   F   F   F
  0.3740911495751931  0.2104313735283370  0.5868438684119752   F   F   F
  0.3735408263725546  0.1051349102601193  0.3810220935685038   F   F   F
  0.1233577022247871  0.0978038148629281  0.6183237630446357   F   F   F
  0.1188877080080104  0.2433825222870425  0.4112881645079369   F   F   F
  0.3700052029924024  0.4629278636438201  0.5838278309033882   F   F   F
  0.6264989449546903  0.4906442556458970  0.4094197183774853   F   F   F
  0.8692722923271106  0.3546747373092956  0.3803064340435540   F   F   F
  0.6185712969004271  0.3506210546827404  0.6171927486938884   F   F   F
  0.8737310157737497  0.2103578799813874  0.5864740349487718   F   F   F
  0.8736056477912442  0.1052026270868325  0.3809913479517490   F   F   F
  0.6232578379732630  0.0984124236962174  0.6184634483024567   F   F   F
  0.6193283570664292  0.2432425470811168  0.4115976712170877   F   F   F
  0.8689820315467571  0.4598939195237008  0.5858867302601851   F   F   F
  0.1234268613281415  0.9939695871429279  0.4119122288710386   F   F   F
  0.3677026391683498  0.8561636338230940  0.3808360477584358   F   F   F
  0.1169334700872824  0.8473207294476950  0.6177957546563420   F   F   F
  0.3731306888213055  0.7083494505576979  0.5862092284906240   F   F   F
  0.3769484488555648  0.6052923255620044  0.3799997688563082   F   F   F
  0.1225280340028121  0.5974607367633240  0.6169832402195112   F   F   F
  0.1183455646320937  0.7430194470803997  0.4108690462153888   F   F   F
  0.3679654254745586  0.9589404035699047  0.5874410764510145   F   F   F
  0.6229845888563830  0.9941331515750917  0.4120037637344893   F   F   F
  0.8677491758292391  0.8556636408856733  0.3802003692885734   F   F   F
  0.6184344839014742  0.8475880558213973  0.6179713732999232   F   F   F
  0.8715998948702719  0.7074555058812777  0.5842392940121286   F   F   F
  0.8736402273064243  0.6044233852839085  0.3781230512663072   F   F   F
  0.6337769239577185  0.6025454666890866  0.6211921379806711   F   F   F
  0.6157663211106907  0.7453159429263181  0.4103963182072121   F   F   F
  0.8676213410603282  0.9590677387431725  0.5864662863045425   F   F   F
  0.5206165678873873  0.5659788111788586  0.7541827322991139   T   T   T
  0.4937688603742103  0.5607117637871681  0.6824911154521232   T   T   T
  0.5422965905491424  0.5060871950775265  0.7628939829436003   T   T   T
 
  0.00000000E+00  0.00000000E+00  0.00000000E+00
  0.00000000E+00  0.00000000E+00  0.00000000E+00
  0.00000000E+00  0.00000000E+00  0.00000000E+00
  0.00000000E+00  0.00000000E+00  0.00000000E+00
  0.00000000E+00  0.00000000E+00  0.00000000E+00
  0.00000000E+00  0.00000000E+00  0.00000000E+00
  0.00000000E+00  0.00000000E+00  0.00000000E+00
  0.00000000E+00  0.00000000E+00  0.00000000E+00
  0.00000000E+00  0.00000000E+00  0.00000000E+00
  0.00000000E+00  0.00000000E+00  0.00000000E+00
  0.00000000E+00  0.00000000E+00  0.00000000E+00
  0.00000000E+00  0.00000000E+00  0.00000000E+00
  0.00000000E+00  0.00000000E+00  0.00000000E+00
  0.00000000E+00  0.00000000E+00  0.00000000E+00
  0.00000000E+00  0.00000000E+00  0.00000000E+00
  0.00000000E+00  0.00000000E+00  0.00000000E+00
  0.00000000E+00  0.00000000E+00  0.00000000E+00
  0.00000000E+00  0.00000000E+00  0.00000000E+00
  0.00000000E+00  0.00000000E+00  0.00000000E+00
  0.00000000E+00  0.00000000E+00  0.00000000E+00
  0.00000000E+00  0.00000000E+00  0.00000000E+00
  0.00000000E+00  0.00000000E+00  0.00000000E+00
  0.00000000E+00  0.00000000E+00  0.00000000E+00
  0.00000000E+00  0.00000000E+00  0.00000000E+00
  0.00000000E+00  0.00000000E+00  0.00000000E+00
  0.00000000E+00  0.00000000E+00  0.00000000E+00
  0.00000000E+00  0.00000000E+00  0.00000000E+00
  0.00000000E+00  0.00000000E+00  0.00000000E+00
  0.00000000E+00  0.00000000E+00  0.00000000E+00
  0.00000000E+00  0.00000000E+00  0.00000000E+00
  0.00000000E+00  0.00000000E+00  0.00000000E+00
  0.00000000E+00  0.00000000E+00  0.00000000E+00
  0.00000000E+00  0.00000000E+00  0.00000000E+00
  0.00000000E+00  0.00000000E+00  0.00000000E+00
  0.00000000E+00  0.00000000E+00  0.00000000E+00
  0.00000000E+00  0.00000000E+00  0.00000000E+00
  0.00000000E+00  0.00000000E+00  0.00000000E+00
  0.00000000E+00  0.00000000E+00  0.00000000E+00
  0.00000000E+00  0.00000000E+00  0.00000000E+00
  0.00000000E+00  0.00000000E+00  0.00000000E+00
  0.00000000E+00  0.00000000E+00  0.00000000E+00
  0.00000000E+00  0.00000000E+00  0.00000000E+00
  0.00000000E+00  0.00000000E+00  0.00000000E+00
  0.00000000E+00  0.00000000E+00  0.00000000E+00
  0.00000000E+00  0.00000000E+00  0.00000000E+00
  0.00000000E+00  0.00000000E+00  0.00000000E+00
  0.00000000E+00  0.00000000E+00  0.00000000E+00
  0.00000000E+00  0.00000000E+00  0.00000000E+00
  0.00000000E+00  0.00000000E+00  0.00000000E+00
  0.00000000E+00  0.00000000E+00  0.00000000E+00
  0.00000000E+00  0.00000000E+00  0.00000000E+00
  0.00000000E+00  0.00000000E+00  0.00000000E+00
  0.00000000E+00  0.00000000E+00  0.00000000E+00
  0.00000000E+00  0.00000000E+00  0.00000000E+00
  0.00000000E+00  0.00000000E+00  0.00000000E+00
  0.00000000E+00  0.00000000E+00  0.00000000E+00
  0.00000000E+00  0.00000000E+00  0.00000000E+00
  0.00000000E+00  0.00000000E+00  0.00000000E+00
  0.00000000E+00  0.00000000E+00  0.00000000E+00
  0.00000000E+00  0.00000000E+00  0.00000000E+00
  0.00000000E+00  0.00000000E+00  0.00000000E+00
  0.00000000E+00  0.00000000E+00  0.00000000E+00
  0.00000000E+00  0.00000000E+00  0.00000000E+00
  0.00000000E+00  0.00000000E+00  0.00000000E+00
  0.00000000E+00  0.00000000E+00  0.00000000E+00
  0.00000000E+00  0.00000000E+00  0.00000000E+00
  0.00000000E+00  0.00000000E+00  0.00000000E+00
