CONTCAR\(4)                             
   1.00000000000000     
    10.9011001587000003    0.0000000000000000    0.0000000000000000
     0.0000000000000000   13.0549001693999998    0.0000000000000000
     0.0000000000000000    0.0000000000000000   23.6392002105999985
   Li   Cu   F 
     6    18    60
Direct
  0.1866794080966653  0.4154724063821131  0.6051125244103472
  0.1858134369679545  0.9164000300308849  0.3944514310620143
  0.5200193970966608  0.4154724063821131  0.6051125244103472
  0.5191534489679552  0.9164000300308849  0.3944514310620143
  0.8533493920966605  0.4154724063821131  0.6051125244103472
  0.8524834429679584  0.9164000300308849  0.3944514310620143
  0.0117959495466027  0.0428769730072097  0.5497213590014760
  0.0145905617991805  0.2969396319967902  0.5085500975548248
  0.3204214843146258  0.1114745773963004  0.3925314147697342
  0.0115117871960547  0.5429600271648996  0.4504079954960956
  0.0134338962476804  0.7971349933388004  0.4914425403339478
  0.3186309896713060  0.6115242592612147  0.6074838608742019
  0.3451259285466012  0.0428769730072097  0.5497213590014760
  0.3479205537991834  0.2969396319967902  0.5085500975548248
  0.6537515013146205  0.1114745773963004  0.3925314147697342
  0.3448417911960587  0.5429600271648996  0.4504079954960956
  0.3467739022476806  0.7971349933388004  0.4914425403339478
  0.6519609836713023  0.6115242592612147  0.6074838608742019
  0.6784559225466040  0.0428769730072097  0.5497213590014760
  0.6812505697991813  0.2969396319967902  0.5085500975548248
  0.9870914683146210  0.1114745773963004  0.3925314147697342
  0.6781818021960561  0.5429600271648996  0.4504079954960956
  0.6801039182476784  0.7971349933388004  0.4914425403339478
  0.9852909346713055  0.6115242592612147  0.6074838608742019
  0.0215216181171923  0.3646891986691930  0.5797065600541632
  0.0126122501903732  0.1799992698362317  0.5599921057275168
  0.0010499451165177  0.2287712487998226  0.4379856190659556
  0.3122498845648331  0.9897490778245834  0.3496924311227121
  0.3162288283430397  0.0435679690379722  0.4626624330454709
  0.3212977599251282  0.1875343026045852  0.3299236748180527
  0.0203356625700855  0.8647753832891377  0.4203216753106322
  0.0150488331785496  0.4054741386796343  0.4517292750257265
  0.0119794453887074  0.6800559820592793  0.4401461820877338
  0.3331063029385846  0.7286687067643052  0.5619218892618870
  0.3099061408781884  0.4899694303659831  0.6503605833538944
  0.3146870181888253  0.5432818095697215  0.5374512387418665
  0.3193412015976400  0.6877981256753304  0.6700097018264632
  0.0147803872272812  0.9053664058197687  0.5484334066042192
  0.1781191869690883  0.0413791922487635  0.5665294309692402
  0.1812958602546991  0.3050477109479088  0.5123081048385474
  0.1534719320679809  0.0964714639374177  0.3952920031635339
  0.1778377467122861  0.5415178240502679  0.4334636200895212
  0.1801911915675476  0.8053596101206910  0.4876758520653948
  0.1516813243633887  0.5968600881211752  0.6046831263248306
  0.3548616271171963  0.3646891986691930  0.5797065600541632
  0.3459522701903747  0.1799992698362317  0.5599921057275168
  0.3343799471165214  0.2287712487998226  0.4379856190659556
  0.6455799015648347  0.9897490778245834  0.3496924311227121
  0.6495588233430390  0.0435679690379722  0.4626624330454709
  0.6546377279251254  0.1875343026045852  0.3299236748180527
  0.3536656715700863  0.8647753832891377  0.4203216753106322
  0.3483788341785498  0.4054741386796343  0.4517292750257265
  0.3453194443887107  0.6800559820592793  0.4401461820877338
  0.6664363409385913  0.7286687067643052  0.5619218892618870
  0.6432460858781870  0.4899694303659831  0.6503605833538944
  0.6480269641888206  0.5432818095697215  0.5374512387418665
  0.6526811465976387  0.6877981256753304  0.6700097018264632
  0.3481104042272755  0.9053664058197687  0.5484334066042192
  0.5114491489690889  0.0413791922487635  0.5665294309692402
  0.5146358822546937  0.3050477109479088  0.5123081048385474
  0.4868119000679850  0.0964714639374177  0.3952920031635339
  0.5111677407122822  0.5415178240502679  0.4334636200895212
  0.5135312135675494  0.8053596101206910  0.4876758520653948
  0.4850213243633885  0.5968600881211752  0.6046831263248306
  0.6881916431171941  0.3646891986691930  0.5797065600541632
  0.6792822641903706  0.1799992698362317  0.5599921057275168
  0.6677099631165198  0.2287712487998226  0.4379856190659556
  0.9789099395648344  0.9897490778245834  0.3496924311227121
  0.9828988343430362  0.0435679690379722  0.4626624330454709
  0.9879677659251251  0.1875343026045852  0.3299236748180527
  0.6869956435700878  0.8647753832891377  0.4203216753106322
  0.6817088291785492  0.4054741386796343  0.4517292750257265
  0.6786494393887104  0.6800559820592793  0.4401461820877338
  0.9997663359385910  0.7286687067643052  0.5619218892618870
  0.9765761678781903  0.4899694303659831  0.6503605833538944
  0.9813570021888203  0.5432818095697215  0.5374512387418665
  0.9860111845976384  0.6877981256753304  0.6700097018264632
  0.6814403772272807  0.9053664058197687  0.5484334066042192
  0.8447892479690862  0.0413791922487635  0.5665294309692402
  0.8479658762546969  0.3050477109479088  0.5123081048385474
  0.8201419820679813  0.0964714639374177  0.3952920031635339
  0.8444977787122819  0.5415178240502679  0.4334636200895212
  0.8468611635675489  0.8053596101206910  0.4876758520653948
  0.8183513193633883  0.5968600881211752  0.6046831263248306
 
  0.00000000E+00  0.00000000E+00  0.00000000E+00
  0.00000000E+00  0.00000000E+00  0.00000000E+00
  0.00000000E+00  0.00000000E+00  0.00000000E+00
  0.00000000E+00  0.00000000E+00  0.00000000E+00
  0.00000000E+00  0.00000000E+00  0.00000000E+00
  0.00000000E+00  0.00000000E+00  0.00000000E+00
  0.00000000E+00  0.00000000E+00  0.00000000E+00
  0.00000000E+00  0.00000000E+00  0.00000000E+00
  0.00000000E+00  0.00000000E+00  0.00000000E+00
  0.00000000E+00  0.00000000E+00  0.00000000E+00
  0.00000000E+00  0.00000000E+00  0.00000000E+00
  0.00000000E+00  0.00000000E+00  0.00000000E+00
  0.00000000E+00  0.00000000E+00  0.00000000E+00
  0.00000000E+00  0.00000000E+00  0.00000000E+00
  0.00000000E+00  0.00000000E+00  0.00000000E+00
  0.00000000E+00  0.00000000E+00  0.00000000E+00
  0.00000000E+00  0.00000000E+00  0.00000000E+00
  0.00000000E+00  0.00000000E+00  0.00000000E+00
  0.00000000E+00  0.00000000E+00  0.00000000E+00
  0.00000000E+00  0.00000000E+00  0.00000000E+00
  0.00000000E+00  0.00000000E+00  0.00000000E+00
  0.00000000E+00  0.00000000E+00  0.00000000E+00
  0.00000000E+00  0.00000000E+00  0.00000000E+00
  0.00000000E+00  0.00000000E+00  0.00000000E+00
  0.00000000E+00  0.00000000E+00  0.00000000E+00
  0.00000000E+00  0.00000000E+00  0.00000000E+00
  0.00000000E+00  0.00000000E+00  0.00000000E+00
  0.00000000E+00  0.00000000E+00  0.00000000E+00
  0.00000000E+00  0.00000000E+00  0.00000000E+00
  0.00000000E+00  0.00000000E+00  0.00000000E+00
  0.00000000E+00  0.00000000E+00  0.00000000E+00
  0.00000000E+00  0.00000000E+00  0.00000000E+00
  0.00000000E+00  0.00000000E+00  0.00000000E+00
  0.00000000E+00  0.00000000E+00  0.00000000E+00
  0.00000000E+00  0.00000000E+00  0.00000000E+00
  0.00000000E+00  0.00000000E+00  0.00000000E+00
  0.00000000E+00  0.00000000E+00  0.00000000E+00
  0.00000000E+00  0.00000000E+00  0.00000000E+00
  0.00000000E+00  0.00000000E+00  0.00000000E+00
  0.00000000E+00  0.00000000E+00  0.00000000E+00
  0.00000000E+00  0.00000000E+00  0.00000000E+00
  0.00000000E+00  0.00000000E+00  0.00000000E+00
  0.00000000E+00  0.00000000E+00  0.00000000E+00
  0.00000000E+00  0.00000000E+00  0.00000000E+00
  0.00000000E+00  0.00000000E+00  0.00000000E+00
  0.00000000E+00  0.00000000E+00  0.00000000E+00
  0.00000000E+00  0.00000000E+00  0.00000000E+00
  0.00000000E+00  0.00000000E+00  0.00000000E+00
  0.00000000E+00  0.00000000E+00  0.00000000E+00
  0.00000000E+00  0.00000000E+00  0.00000000E+00
  0.00000000E+00  0.00000000E+00  0.00000000E+00
  0.00000000E+00  0.00000000E+00  0.00000000E+00
  0.00000000E+00  0.00000000E+00  0.00000000E+00
  0.00000000E+00  0.00000000E+00  0.00000000E+00
  0.00000000E+00  0.00000000E+00  0.00000000E+00
  0.00000000E+00  0.00000000E+00  0.00000000E+00
  0.00000000E+00  0.00000000E+00  0.00000000E+00
  0.00000000E+00  0.00000000E+00  0.00000000E+00
  0.00000000E+00  0.00000000E+00  0.00000000E+00
  0.00000000E+00  0.00000000E+00  0.00000000E+00
  0.00000000E+00  0.00000000E+00  0.00000000E+00
  0.00000000E+00  0.00000000E+00  0.00000000E+00
  0.00000000E+00  0.00000000E+00  0.00000000E+00
  0.00000000E+00  0.00000000E+00  0.00000000E+00
  0.00000000E+00  0.00000000E+00  0.00000000E+00
  0.00000000E+00  0.00000000E+00  0.00000000E+00
  0.00000000E+00  0.00000000E+00  0.00000000E+00
  0.00000000E+00  0.00000000E+00  0.00000000E+00
  0.00000000E+00  0.00000000E+00  0.00000000E+00
  0.00000000E+00  0.00000000E+00  0.00000000E+00
  0.00000000E+00  0.00000000E+00  0.00000000E+00
  0.00000000E+00  0.00000000E+00  0.00000000E+00
  0.00000000E+00  0.00000000E+00  0.00000000E+00
  0.00000000E+00  0.00000000E+00  0.00000000E+00
  0.00000000E+00  0.00000000E+00  0.00000000E+00
  0.00000000E+00  0.00000000E+00  0.00000000E+00
  0.00000000E+00  0.00000000E+00  0.00000000E+00
  0.00000000E+00  0.00000000E+00  0.00000000E+00
  0.00000000E+00  0.00000000E+00  0.00000000E+00
  0.00000000E+00  0.00000000E+00  0.00000000E+00
  0.00000000E+00  0.00000000E+00  0.00000000E+00
  0.00000000E+00  0.00000000E+00  0.00000000E+00
  0.00000000E+00  0.00000000E+00  0.00000000E+00
  0.00000000E+00  0.00000000E+00  0.00000000E+00
