CONTCAR\(14)                            
   1.00000000000000     
    10.8957996367999996    0.0000000000000000    0.0000000000000000
     0.0000000000000000   12.8001003265000008    0.0000000000000000
     0.0000000000000000    0.0000000000000000   21.8099994658999989
   Cu   Si   P    O 
    12    24    36     1
Selective dynamics
Direct
  0.0001189130865527  0.1070244413825066  0.4621466035441770   F   F   F
  0.0001118509000477  0.2850530721817535  0.3606522524099702   F   F   F
  0.3333921532941275  0.1069608051501945  0.4619942983036722   F   F   F
  0.3331729894522297  0.2842529960324285  0.3608096702865282   F   F   F
  0.6666440796338620  0.1070094339305427  0.4621133760413016   F   F   F
  0.6662858531140472  0.2850792809527647  0.3607054621629331   F   F   F
  0.0006781870534667  0.6070649662538443  0.4613619023979396   F   F   F
  0.9995700653780446  0.7851983918658334  0.3607853830505121   F   F   F
  0.3339932995086912  0.6061766651302634  0.4617442855179306   F   F   F
  0.3331430133739417  0.7862123179336464  0.3613673681773903   F   F   F
  0.6673844647812359  0.6069827922063595  0.4612934995509761   F   F   F
  0.6668208881162911  0.7852903426206694  0.3607552674621530   F   F   F
  0.1662363442981132  0.0438594018215923  0.3871901830750346   F   F   F
  0.1661708560921298  0.1952124935324093  0.6090751523654632   F   F   F
  0.1666621496051732  0.3529979848986500  0.4807290292196527   F   F   F
  0.9993329223873388  0.4435029655910299  0.6139829263580623   F   F   F
  0.4995818766235871  0.0439047972611135  0.3871123418568345   F   F   F
  0.5005234231012352  0.1952144246640088  0.6090594169143557   F   F   F
  0.4999007802776205  0.3529577740201546  0.4806645667800566   F   F   F
  0.3333768540065449  0.4439975929347924  0.6142093037017062   F   F   F
  0.8329607910500272  0.0441944571564434  0.3871713261968068   F   F   F
  0.8333447269896723  0.1941615455380585  0.6086672704374223   F   F   F
  0.8333623869249394  0.3532327689364934  0.4802753833259743   F   F   F
  0.6673411177657584  0.4435350359775398  0.6139316728986017   F   F   F
  0.1656770829887009  0.5436863625651966  0.3863512099470157   F   F   F
  0.1606190730236605  0.6912176616131589  0.6085329630578684   F   F   F
  0.1661258897377067  0.8531560686139770  0.4817217211886344   F   F   F
  0.0000375664902919  0.9438632238334250  0.6148305951246726   F   F   F
  0.5001760025623980  0.5436641883709825  0.3862673386189428   F   F   F
  0.5063739664279439  0.6913183854369578  0.6083646976777004   F   F   F
  0.5008401438077712  0.8531087177696008  0.4815105681459002   F   F   F
  0.3334639464949660  0.9498204507328225  0.6146165936906343   F   F   F
  0.8329261036765701  0.5437198035155930  0.3862339933504160   F   F   F
  0.8335684775298873  0.6943858243245984  0.6090532481359574   F   F   F
  0.8334974655420737  0.8530125613941664  0.4812227083396579   F   F   F
  0.6667123303159030  0.9438655689737701  0.6147570903427564   F   F   F
  0.9996566931546127  0.1173336247507137  0.3455742425268227   F   F   F
  0.1667655218138790  0.1866898080484276  0.5065237868050332   F   F   F
  0.1667904405708569  0.3722241329630833  0.3794815077361946   F   F   F
  0.9991978460288991  0.2761646347948883  0.6545878785820562   F   F   F
  0.9999449255288937  0.4478135050103731  0.5107413389318580   F   F   F
  0.1656953369995833  0.0320376820790997  0.6565724589061830   F   F   F
  0.3328366427521772  0.1167449632504400  0.3452199644285514   F   F   F
  0.5000031685608306  0.1866999755751237  0.5064922281684900   F   F   F
  0.4995729291758622  0.3721685366858409  0.3794067004504740   F   F   F
  0.3333583076626425  0.2764324849285202  0.6548466004623847   F   F   F
  0.3332992092328482  0.4476724691392420  0.5110446496354086   F   F   F
  0.5011897408325865  0.0320485052240116  0.6565968647979332   F   F   F
  0.6661589481573600  0.1173819961853653  0.3455408606238421   F   F   F
  0.8333536235616066  0.1869448325898233  0.5060859720355353   F   F   F
  0.8332344310304549  0.3722458111717231  0.3790065144719179   F   F   F
  0.6674789945200388  0.2761789203365055  0.6545300912618615   F   F   F
  0.6667268796529484  0.4477864753888241  0.5106940852942614   F   F   F
  0.8333599414281423  0.0303219240619299  0.6559421003675965   F   F   F
  0.9993234159858417  0.6176258384246580  0.3447999140411966   F   F   F
  0.1677095182142807  0.6864010685218034  0.5061940399858855   F   F   F
  0.1659517240325670  0.8723081532538330  0.3804573131170486   F   F   F
  0.9985325409446730  0.7757283160689070  0.6555996602715197   F   F   F
  0.9998326015004153  0.9479966594842750  0.5116559583314739   F   F   F
  0.1655027179105986  0.5285053959593284  0.6560959117138623   F   F   F
  0.3328756011122422  0.6184855184078515  0.3461531069938033   F   F   F
  0.5003167327374172  0.6863507927724726  0.5060081303256467   F   F   F
  0.5003045150514112  0.8723581907174491  0.3802203401401911   F   F   F
  0.3335621957658930  0.7753618335281729  0.6511819040853695   F   F   F
  0.3335255368444408  0.9476332176758291  0.5114064426302320   F   F   F
  0.5012945510408855  0.5286162148260729  0.6560058276775251   F   F   F
  0.6664520397493376  0.6177155337641125  0.3447850641028225   F   F   F
  0.8339199203934911  0.6864521076176544  0.5063483634233847   F   F   F
  0.8332212439643953  0.8727283134942212  0.3800634148834021   F   F   F
  0.6684393921563228  0.7757057306079531  0.6554924849847907   F   F   F
  0.6670150202869891  0.9480008709281549  0.5116094485588363   F   F   F
  0.8333446147938020  0.5299984678952114  0.6555462609668368   F   F   F
  0.3338350224382296  0.7714622707508383  0.7197303976980797   T   T   T
 
  0.00000000E+00  0.00000000E+00  0.00000000E+00
  0.00000000E+00  0.00000000E+00  0.00000000E+00
  0.00000000E+00  0.00000000E+00  0.00000000E+00
  0.00000000E+00  0.00000000E+00  0.00000000E+00
  0.00000000E+00  0.00000000E+00  0.00000000E+00
  0.00000000E+00  0.00000000E+00  0.00000000E+00
  0.00000000E+00  0.00000000E+00  0.00000000E+00
  0.00000000E+00  0.00000000E+00  0.00000000E+00
  0.00000000E+00  0.00000000E+00  0.00000000E+00
  0.00000000E+00  0.00000000E+00  0.00000000E+00
  0.00000000E+00  0.00000000E+00  0.00000000E+00
  0.00000000E+00  0.00000000E+00  0.00000000E+00
  0.00000000E+00  0.00000000E+00  0.00000000E+00
  0.00000000E+00  0.00000000E+00  0.00000000E+00
  0.00000000E+00  0.00000000E+00  0.00000000E+00
  0.00000000E+00  0.00000000E+00  0.00000000E+00
  0.00000000E+00  0.00000000E+00  0.00000000E+00
  0.00000000E+00  0.00000000E+00  0.00000000E+00
  0.00000000E+00  0.00000000E+00  0.00000000E+00
  0.00000000E+00  0.00000000E+00  0.00000000E+00
  0.00000000E+00  0.00000000E+00  0.00000000E+00
  0.00000000E+00  0.00000000E+00  0.00000000E+00
  0.00000000E+00  0.00000000E+00  0.00000000E+00
  0.00000000E+00  0.00000000E+00  0.00000000E+00
  0.00000000E+00  0.00000000E+00  0.00000000E+00
  0.00000000E+00  0.00000000E+00  0.00000000E+00
  0.00000000E+00  0.00000000E+00  0.00000000E+00
  0.00000000E+00  0.00000000E+00  0.00000000E+00
  0.00000000E+00  0.00000000E+00  0.00000000E+00
  0.00000000E+00  0.00000000E+00  0.00000000E+00
  0.00000000E+00  0.00000000E+00  0.00000000E+00
  0.00000000E+00  0.00000000E+00  0.00000000E+00
  0.00000000E+00  0.00000000E+00  0.00000000E+00
  0.00000000E+00  0.00000000E+00  0.00000000E+00
  0.00000000E+00  0.00000000E+00  0.00000000E+00
  0.00000000E+00  0.00000000E+00  0.00000000E+00
  0.00000000E+00  0.00000000E+00  0.00000000E+00
  0.00000000E+00  0.00000000E+00  0.00000000E+00
  0.00000000E+00  0.00000000E+00  0.00000000E+00
  0.00000000E+00  0.00000000E+00  0.00000000E+00
  0.00000000E+00  0.00000000E+00  0.00000000E+00
  0.00000000E+00  0.00000000E+00  0.00000000E+00
  0.00000000E+00  0.00000000E+00  0.00000000E+00
  0.00000000E+00  0.00000000E+00  0.00000000E+00
  0.00000000E+00  0.00000000E+00  0.00000000E+00
  0.00000000E+00  0.00000000E+00  0.00000000E+00
  0.00000000E+00  0.00000000E+00  0.00000000E+00
  0.00000000E+00  0.00000000E+00  0.00000000E+00
  0.00000000E+00  0.00000000E+00  0.00000000E+00
  0.00000000E+00  0.00000000E+00  0.00000000E+00
  0.00000000E+00  0.00000000E+00  0.00000000E+00
  0.00000000E+00  0.00000000E+00  0.00000000E+00
  0.00000000E+00  0.00000000E+00  0.00000000E+00
  0.00000000E+00  0.00000000E+00  0.00000000E+00
  0.00000000E+00  0.00000000E+00  0.00000000E+00
  0.00000000E+00  0.00000000E+00  0.00000000E+00
  0.00000000E+00  0.00000000E+00  0.00000000E+00
  0.00000000E+00  0.00000000E+00  0.00000000E+00
  0.00000000E+00  0.00000000E+00  0.00000000E+00
  0.00000000E+00  0.00000000E+00  0.00000000E+00
  0.00000000E+00  0.00000000E+00  0.00000000E+00
  0.00000000E+00  0.00000000E+00  0.00000000E+00
  0.00000000E+00  0.00000000E+00  0.00000000E+00
  0.00000000E+00  0.00000000E+00  0.00000000E+00
  0.00000000E+00  0.00000000E+00  0.00000000E+00
  0.00000000E+00  0.00000000E+00  0.00000000E+00
  0.00000000E+00  0.00000000E+00  0.00000000E+00
  0.00000000E+00  0.00000000E+00  0.00000000E+00
  0.00000000E+00  0.00000000E+00  0.00000000E+00
  0.00000000E+00  0.00000000E+00  0.00000000E+00
  0.00000000E+00  0.00000000E+00  0.00000000E+00
  0.00000000E+00  0.00000000E+00  0.00000000E+00
  0.00000000E+00  0.00000000E+00  0.00000000E+00
