 Fe2 S2                                 
   1.00000000000000     
     3.5775718400044760    0.0000000000000000    0.0000000000000000
     0.0000000000000000    3.5775717334219430    0.0000000000000000
     0.0000000000000000    0.0000000000000000   17.4471744205999997
   Fe   S 
     2     2
Direct
  0.4999999952675438  0.5000000011729568  0.4999999979487910
  0.0000000028955398  0.9999999954097163  0.5000000019125963
  0.9999999989946886  0.4999999999776179  0.4297613209137268
  0.5000000028422207  0.0000000034397090  0.5702386792248859
 
  0.00000000E+00  0.00000000E+00  0.00000000E+00
  0.00000000E+00  0.00000000E+00  0.00000000E+00
  0.00000000E+00  0.00000000E+00  0.00000000E+00
  0.00000000E+00  0.00000000E+00  0.00000000E+00
