CONTCAR\(3)                             
   1.00000000000000     
    12.5135002136000004    0.0000000000000000    0.0000000000000000
     0.0000000000000000   15.7480001450000007    0.0000000000000000
     0.0000000000000000    0.0000000000000000   19.7180004119999985
   Nb   Fe   Te   O    H 
    16    16    32     1     1
Direct
  0.2338680603716491  0.1554260460667445  0.4931843022554420
  0.0082469533495440  0.4049320513405671  0.4933920438317573
  0.9838778189797746  0.0973373770853850  0.5091817892033614
  0.2586330736785218  0.3470316852761932  0.5073814770375759
  0.7339247918089709  0.1557362409550857  0.4934488134672740
  0.5081191563072917  0.4045673196558546  0.4870699922376669
  0.4848096458543175  0.0981170842806619  0.5094197460920771
  0.7553736586373203  0.3477408016068616  0.5070766814843075
  0.2359777204115771  0.6553038956388284  0.4950491158219655
  0.0093485498960709  0.9056389749492061  0.4953903048483198
  0.9856871863622212  0.5970663683748956  0.5109171535359923
  0.2599541279262625  0.8468520987687964  0.5112734558072578
  0.7357053121926590  0.6555994972460889  0.4955526336848138
  0.5095553100704493  0.9056459560842627  0.4951685397563437
  0.4862028741386188  0.5962890240281061  0.5105405430915518
  0.7597390635077695  0.8469703102098541  0.5115591543461424
  0.0681201344960955  0.2476235988262757  0.5387291642156850
  0.3187127372525762  0.0051258078950132  0.4640600522988613
  0.4243647936281787  0.2551552102891808  0.4623151192002952
  0.1751841497089656  0.9977693704042541  0.5405920415247304
  0.5691844858363516  0.2518622491086323  0.5416722456578283
  0.8180681782855589  0.0051702195828468  0.4640394562879789
  0.9243340006803238  0.2555305459367417  0.4617209919791372
  0.6744898812670642  0.9983909495077243  0.5407655018341101
  0.0702251421613100  0.7470791378637579  0.5421722992458485
  0.3194428566497646  0.5049056698730829  0.4629654872079906
  0.4259855262289569  0.7550519145968263  0.4650570413546910
  0.1764150093374650  0.4966337966725384  0.5399908369139372
  0.5696368764013433  0.7472647306363479  0.5417756350012199
  0.8194796780729171  0.5060586919906284  0.4643584821121242
  0.9258554165923768  0.7550121247152437  0.4655722130942093
  0.6753520733278600  0.4943170090421629  0.5416815203096431
  0.3651134386129854  0.3798818752828459  0.3814776784275043
  0.1230509911908993  0.0227081493100729  0.4132233961149042
  0.3706466016597110  0.9803217608544418  0.5911525135515042
  0.1171943615518100  0.3713219150471719  0.6180086513892352
  0.3731091353659724  0.2301151293441421  0.5891868405272949
  0.1191886979628314  0.2725234575205367  0.4112548684131587
  0.1262435619648531  0.1229763120724867  0.6186595597571860
  0.3768553360358308  0.1296960928613876  0.3840658124641945
  0.8642847128349307  0.3815507594743014  0.3838580540812044
  0.6229283306823037  0.0227040542403952  0.4131992995535743
  0.8700755587406139  0.9804819833466885  0.5913499534694654
  0.6132744322812143  0.3721377541403669  0.6226360094879921
  0.8720593382557925  0.2316046509956038  0.5888836174084781
  0.6180768206499150  0.2707212759283001  0.4113137061929193
  0.6268985674865952  0.1243470625180633  0.6188917422455182
  0.8765622072376493  0.1296592229901275  0.3839179955434515
  0.3668153929800755  0.8800306820542880  0.3856771523606535
  0.1236112069733108  0.5233507235157047  0.4133198841214327
  0.3749250923446831  0.4749966468782770  0.5889850686675507
  0.1172221896356934  0.8726201218310239  0.6205189521619342
  0.3746891577706553  0.7283314848429354  0.5920645867707389
  0.1206701219117327  0.7733416170582340  0.4146852472879286
  0.1294070040666580  0.6204266583546216  0.6201876823180986
  0.3782321231624176  0.6312748379847073  0.3852982485442389
  0.8666416315183529  0.8797855456692315  0.3860313139887114
  0.6256411908800913  0.5255438907417223  0.4131186676386653
  0.8706512348647920  0.4777289772434129  0.5908880191552240
  0.6166582297513782  0.8726813099426679  0.6205100477245060
  0.8748582922316243  0.7289671195809533  0.5924446408327899
  0.6211488954806421  0.7734724504187460  0.4146396604357204
  0.6286775106891153  0.6208544500231419  0.6202135102018136
  0.8786899925920892  0.6314920289225469  0.3856992746752799
  0.7381695584080360  0.3356903875308629  0.6902664902364761
  0.7055945438046080  0.3344134429713527  0.7353780465105236
 
  0.00000000E+00  0.00000000E+00  0.00000000E+00
  0.00000000E+00  0.00000000E+00  0.00000000E+00
  0.00000000E+00  0.00000000E+00  0.00000000E+00
  0.00000000E+00  0.00000000E+00  0.00000000E+00
  0.00000000E+00  0.00000000E+00  0.00000000E+00
  0.00000000E+00  0.00000000E+00  0.00000000E+00
  0.00000000E+00  0.00000000E+00  0.00000000E+00
  0.00000000E+00  0.00000000E+00  0.00000000E+00
  0.00000000E+00  0.00000000E+00  0.00000000E+00
  0.00000000E+00  0.00000000E+00  0.00000000E+00
  0.00000000E+00  0.00000000E+00  0.00000000E+00
  0.00000000E+00  0.00000000E+00  0.00000000E+00
  0.00000000E+00  0.00000000E+00  0.00000000E+00
  0.00000000E+00  0.00000000E+00  0.00000000E+00
  0.00000000E+00  0.00000000E+00  0.00000000E+00
  0.00000000E+00  0.00000000E+00  0.00000000E+00
  0.00000000E+00  0.00000000E+00  0.00000000E+00
  0.00000000E+00  0.00000000E+00  0.00000000E+00
  0.00000000E+00  0.00000000E+00  0.00000000E+00
  0.00000000E+00  0.00000000E+00  0.00000000E+00
  0.00000000E+00  0.00000000E+00  0.00000000E+00
  0.00000000E+00  0.00000000E+00  0.00000000E+00
  0.00000000E+00  0.00000000E+00  0.00000000E+00
  0.00000000E+00  0.00000000E+00  0.00000000E+00
  0.00000000E+00  0.00000000E+00  0.00000000E+00
  0.00000000E+00  0.00000000E+00  0.00000000E+00
  0.00000000E+00  0.00000000E+00  0.00000000E+00
  0.00000000E+00  0.00000000E+00  0.00000000E+00
  0.00000000E+00  0.00000000E+00  0.00000000E+00
  0.00000000E+00  0.00000000E+00  0.00000000E+00
  0.00000000E+00  0.00000000E+00  0.00000000E+00
  0.00000000E+00  0.00000000E+00  0.00000000E+00
  0.00000000E+00  0.00000000E+00  0.00000000E+00
  0.00000000E+00  0.00000000E+00  0.00000000E+00
  0.00000000E+00  0.00000000E+00  0.00000000E+00
  0.00000000E+00  0.00000000E+00  0.00000000E+00
  0.00000000E+00  0.00000000E+00  0.00000000E+00
  0.00000000E+00  0.00000000E+00  0.00000000E+00
  0.00000000E+00  0.00000000E+00  0.00000000E+00
  0.00000000E+00  0.00000000E+00  0.00000000E+00
  0.00000000E+00  0.00000000E+00  0.00000000E+00
  0.00000000E+00  0.00000000E+00  0.00000000E+00
  0.00000000E+00  0.00000000E+00  0.00000000E+00
  0.00000000E+00  0.00000000E+00  0.00000000E+00
  0.00000000E+00  0.00000000E+00  0.00000000E+00
  0.00000000E+00  0.00000000E+00  0.00000000E+00
  0.00000000E+00  0.00000000E+00  0.00000000E+00
  0.00000000E+00  0.00000000E+00  0.00000000E+00
  0.00000000E+00  0.00000000E+00  0.00000000E+00
  0.00000000E+00  0.00000000E+00  0.00000000E+00
  0.00000000E+00  0.00000000E+00  0.00000000E+00
  0.00000000E+00  0.00000000E+00  0.00000000E+00
  0.00000000E+00  0.00000000E+00  0.00000000E+00
  0.00000000E+00  0.00000000E+00  0.00000000E+00
  0.00000000E+00  0.00000000E+00  0.00000000E+00
  0.00000000E+00  0.00000000E+00  0.00000000E+00
  0.00000000E+00  0.00000000E+00  0.00000000E+00
  0.00000000E+00  0.00000000E+00  0.00000000E+00
  0.00000000E+00  0.00000000E+00  0.00000000E+00
  0.00000000E+00  0.00000000E+00  0.00000000E+00
  0.00000000E+00  0.00000000E+00  0.00000000E+00
  0.00000000E+00  0.00000000E+00  0.00000000E+00
  0.00000000E+00  0.00000000E+00  0.00000000E+00
  0.00000000E+00  0.00000000E+00  0.00000000E+00
  0.00000000E+00  0.00000000E+00  0.00000000E+00
  0.00000000E+00  0.00000000E+00  0.00000000E+00
