CONTCAR\(10)                            
   1.00000000000000     
     9.7571001052999993    0.0000000000000000    0.0000000000000000
    -3.0063686365000000   15.8319856181999992    0.0000000000000000
     0.0000000000000000    0.0000000000000000   18.2793006897000012
   V    P    S    O 
     4     8    26     1
Direct
  0.6413615868248361  0.6067604765595102  0.4959587585819994
  0.6099036051115273  0.1057637120974797  0.4980992894749304
  0.3369733977528498  0.4157620114367707  0.5816193704900485
  0.3918156262470990  0.8944743563140413  0.4915329618369541
  0.8242454628309198  0.2596567723217049  0.4978174449855579
  0.6961047233591827  0.4393613659113134  0.5400792016630823
  0.1814890651218312  0.7406991381739182  0.5041575071530839
  0.1717636689751927  0.2259785974157943  0.4783560692296501
  0.2952566943704219  0.0603942245764824  0.5273062762286271
  0.7004035762249311  0.9377430491110026  0.4547782407577561
  0.3214009502877057  0.5681025932408411  0.4776228146922528
  0.8409002744049370  0.7683652453224542  0.4988158654342558
  0.1013894988031276  0.0958916694663117  0.5103392150819723
  0.8960589290925927  0.8972564233362831  0.4642458420772980
  0.0082470079816380  0.7571746515680190  0.5707478935953937
  0.3928026926675439  0.0348938774543205  0.4314523302861145
  0.5432344721696831  0.3612371580530075  0.5981119758177345
  0.2403275599900678  0.4438069552298246  0.4646408621949082
  0.1885720271134222  0.2804058540946800  0.5795865951419928
  0.6758809631920853  0.7410208136190749  0.5652016462469854
  0.4605598086414901  0.6329932397568104  0.4078621220195361
  0.6389732190323959  0.4717975705383444  0.4390420982358212
  0.6545192333769415  0.2376861093654711  0.4323339860123342
  0.8807149145603123  0.3859839751634383  0.5393802243064987
  0.9896438528555231  0.2511859828025700  0.4233494605364093
  0.6128577383441050  0.9615632109330216  0.5541018582158013
  0.8140171853895609  0.6849425296076395  0.4154184396643165
  0.4325667463635948  0.5699320924047565  0.5739979147058123
  0.2080538581523051  0.8134963314720521  0.4145570888028663
  0.7673023817940924  0.5520544343562844  0.5904135544437978
  0.5491982397502809  0.8537269386784299  0.4044721958715297
  0.2452344337354973  0.9488228949357941  0.5796302775043997
  0.3485150339161837  0.7725505228255912  0.5700847449571391
  0.7944810481240339  0.1728601278318175  0.5782668056019290
  0.7538784799266983  0.0511014641035332  0.4058730657156151
  0.4445824956045370  0.1430824542941973  0.5811819417133295
  0.1267593364525033  0.6084298349527391  0.4857257900027867
  0.3150563927244114  0.2461087979064550  0.4041763935768177
  0.2692236267339183  0.4306326457682001  0.6587120361426728
 
  0.00000000E+00  0.00000000E+00  0.00000000E+00
  0.00000000E+00  0.00000000E+00  0.00000000E+00
  0.00000000E+00  0.00000000E+00  0.00000000E+00
  0.00000000E+00  0.00000000E+00  0.00000000E+00
  0.00000000E+00  0.00000000E+00  0.00000000E+00
  0.00000000E+00  0.00000000E+00  0.00000000E+00
  0.00000000E+00  0.00000000E+00  0.00000000E+00
  0.00000000E+00  0.00000000E+00  0.00000000E+00
  0.00000000E+00  0.00000000E+00  0.00000000E+00
  0.00000000E+00  0.00000000E+00  0.00000000E+00
  0.00000000E+00  0.00000000E+00  0.00000000E+00
  0.00000000E+00  0.00000000E+00  0.00000000E+00
  0.00000000E+00  0.00000000E+00  0.00000000E+00
  0.00000000E+00  0.00000000E+00  0.00000000E+00
  0.00000000E+00  0.00000000E+00  0.00000000E+00
  0.00000000E+00  0.00000000E+00  0.00000000E+00
  0.00000000E+00  0.00000000E+00  0.00000000E+00
  0.00000000E+00  0.00000000E+00  0.00000000E+00
  0.00000000E+00  0.00000000E+00  0.00000000E+00
  0.00000000E+00  0.00000000E+00  0.00000000E+00
  0.00000000E+00  0.00000000E+00  0.00000000E+00
  0.00000000E+00  0.00000000E+00  0.00000000E+00
  0.00000000E+00  0.00000000E+00  0.00000000E+00
  0.00000000E+00  0.00000000E+00  0.00000000E+00
  0.00000000E+00  0.00000000E+00  0.00000000E+00
  0.00000000E+00  0.00000000E+00  0.00000000E+00
  0.00000000E+00  0.00000000E+00  0.00000000E+00
  0.00000000E+00  0.00000000E+00  0.00000000E+00
  0.00000000E+00  0.00000000E+00  0.00000000E+00
  0.00000000E+00  0.00000000E+00  0.00000000E+00
  0.00000000E+00  0.00000000E+00  0.00000000E+00
  0.00000000E+00  0.00000000E+00  0.00000000E+00
  0.00000000E+00  0.00000000E+00  0.00000000E+00
  0.00000000E+00  0.00000000E+00  0.00000000E+00
  0.00000000E+00  0.00000000E+00  0.00000000E+00
  0.00000000E+00  0.00000000E+00  0.00000000E+00
  0.00000000E+00  0.00000000E+00  0.00000000E+00
  0.00000000E+00  0.00000000E+00  0.00000000E+00
  0.00000000E+00  0.00000000E+00  0.00000000E+00
