CONTCAR\(18)                            
   1.00000000000000     
    11.5852003097999994    0.0000000000000000    0.0000000000000000
     0.0000000000000000   11.5630998610999995    0.0000000000000000
     0.0000000000000000    0.0000000000000000   21.2658996581999986
   Eu   I    O 
    18    18    18
Direct
  0.1666699900000026  0.0000000000000000  0.4403900060000012
  0.0000000000000000  0.1666699929999993  0.5596200390000021
  0.5000000000000000  0.0000000000000000  0.4403900060000012
  0.3333299990000000  0.1666699929999993  0.5596200390000021
  0.8333299990000000  0.0000000000000000  0.4403900060000012
  0.6666700419999998  0.1666699929999993  0.5596200390000021
  0.1666699900000026  0.3333300070000007  0.4403900060000012
  0.0000000000000000  0.5000000000000000  0.5596200390000021
  0.5000000000000000  0.3333300070000007  0.4403900060000012
  0.3333299990000000  0.5000000000000000  0.5596200390000021
  0.8333299990000000  0.3333300070000007  0.4403900060000012
  0.6666700419999998  0.5000000000000000  0.5596200390000021
  0.1666699900000026  0.6666700339999991  0.4403900060000012
  0.0000000000000000  0.8333299660000009  0.5596200390000021
  0.5000000000000000  0.6666700339999991  0.4403900060000012
  0.3333299990000000  0.8333299660000009  0.5596200390000021
  0.8333299990000000  0.6666700339999991  0.4403900060000012
  0.6666700419999998  0.8333299660000009  0.5596200390000021
  0.1666699900000026  0.0000000000000000  0.6639199709999986
  0.0000000000000000  0.1666699929999993  0.3360599840000020
  0.5000000000000000  0.0000000000000000  0.6639199709999986
  0.3333299990000000  0.1666699929999993  0.3360599840000020
  0.8333299990000000  0.0000000000000000  0.6639199709999986
  0.6666700419999998  0.1666699929999993  0.3360599840000020
  0.1666699900000026  0.3333300070000007  0.6639199709999986
  0.0000000000000000  0.5000000000000000  0.3360599840000020
  0.5000000000000000  0.3333300070000007  0.6639199709999986
  0.3333299990000000  0.5000000000000000  0.3360599840000020
  0.8333299990000000  0.3333300070000007  0.6639199709999986
  0.6666700419999998  0.5000000000000000  0.3360599840000020
  0.1666699900000026  0.6666700339999991  0.6639199709999986
  0.0000000000000000  0.8333299660000009  0.3360599840000020
  0.5000000000000000  0.6666700339999991  0.6639199709999986
  0.3333299990000000  0.8333299660000009  0.3360599840000020
  0.8333299990000000  0.6666700339999991  0.6639199709999986
  0.6666700419999998  0.8333299660000009  0.3360599840000020
  0.0000000000000000  0.0000000000000000  0.4999399969999985
  0.1666699900000026  0.1666699929999993  0.5000699590000011
  0.3333299990000000  0.0000000000000000  0.4999399969999985
  0.5000000000000000  0.1666699929999993  0.5000699590000011
  0.6666700419999998  0.0000000000000000  0.4999399969999985
  0.8333299990000000  0.1666699929999993  0.5000699590000011
  0.0000000000000000  0.3333300070000007  0.4999399969999985
  0.1666699900000026  0.5000000000000000  0.5000699590000011
  0.3333299990000000  0.3333300070000007  0.4999399969999985
  0.5000000000000000  0.5000000000000000  0.5000699590000011
  0.6666700419999998  0.3333300070000007  0.4999399969999985
  0.8333299990000000  0.5000000000000000  0.5000699590000011
  0.0000000000000000  0.6666700339999991  0.4999399969999985
  0.1666699900000026  0.8333299660000009  0.5000699590000011
  0.3333299990000000  0.6666700339999991  0.4999399969999985
  0.5000000000000000  0.8333299660000009  0.5000699590000011
  0.6666700419999998  0.6666700339999991  0.4999399969999985
  0.8333299990000000  0.8333299660000009  0.5000699590000011
 
  0.00000000E+00  0.00000000E+00  0.00000000E+00
  0.00000000E+00  0.00000000E+00  0.00000000E+00
  0.00000000E+00  0.00000000E+00  0.00000000E+00
  0.00000000E+00  0.00000000E+00  0.00000000E+00
  0.00000000E+00  0.00000000E+00  0.00000000E+00
  0.00000000E+00  0.00000000E+00  0.00000000E+00
  0.00000000E+00  0.00000000E+00  0.00000000E+00
  0.00000000E+00  0.00000000E+00  0.00000000E+00
  0.00000000E+00  0.00000000E+00  0.00000000E+00
  0.00000000E+00  0.00000000E+00  0.00000000E+00
  0.00000000E+00  0.00000000E+00  0.00000000E+00
  0.00000000E+00  0.00000000E+00  0.00000000E+00
  0.00000000E+00  0.00000000E+00  0.00000000E+00
  0.00000000E+00  0.00000000E+00  0.00000000E+00
  0.00000000E+00  0.00000000E+00  0.00000000E+00
  0.00000000E+00  0.00000000E+00  0.00000000E+00
  0.00000000E+00  0.00000000E+00  0.00000000E+00
  0.00000000E+00  0.00000000E+00  0.00000000E+00
  0.00000000E+00  0.00000000E+00  0.00000000E+00
  0.00000000E+00  0.00000000E+00  0.00000000E+00
  0.00000000E+00  0.00000000E+00  0.00000000E+00
  0.00000000E+00  0.00000000E+00  0.00000000E+00
  0.00000000E+00  0.00000000E+00  0.00000000E+00
  0.00000000E+00  0.00000000E+00  0.00000000E+00
  0.00000000E+00  0.00000000E+00  0.00000000E+00
  0.00000000E+00  0.00000000E+00  0.00000000E+00
  0.00000000E+00  0.00000000E+00  0.00000000E+00
  0.00000000E+00  0.00000000E+00  0.00000000E+00
  0.00000000E+00  0.00000000E+00  0.00000000E+00
  0.00000000E+00  0.00000000E+00  0.00000000E+00
  0.00000000E+00  0.00000000E+00  0.00000000E+00
  0.00000000E+00  0.00000000E+00  0.00000000E+00
  0.00000000E+00  0.00000000E+00  0.00000000E+00
  0.00000000E+00  0.00000000E+00  0.00000000E+00
  0.00000000E+00  0.00000000E+00  0.00000000E+00
  0.00000000E+00  0.00000000E+00  0.00000000E+00
  0.00000000E+00  0.00000000E+00  0.00000000E+00
  0.00000000E+00  0.00000000E+00  0.00000000E+00
  0.00000000E+00  0.00000000E+00  0.00000000E+00
  0.00000000E+00  0.00000000E+00  0.00000000E+00
  0.00000000E+00  0.00000000E+00  0.00000000E+00
  0.00000000E+00  0.00000000E+00  0.00000000E+00
  0.00000000E+00  0.00000000E+00  0.00000000E+00
  0.00000000E+00  0.00000000E+00  0.00000000E+00
  0.00000000E+00  0.00000000E+00  0.00000000E+00
  0.00000000E+00  0.00000000E+00  0.00000000E+00
  0.00000000E+00  0.00000000E+00  0.00000000E+00
  0.00000000E+00  0.00000000E+00  0.00000000E+00
  0.00000000E+00  0.00000000E+00  0.00000000E+00
  0.00000000E+00  0.00000000E+00  0.00000000E+00
  0.00000000E+00  0.00000000E+00  0.00000000E+00
  0.00000000E+00  0.00000000E+00  0.00000000E+00
  0.00000000E+00  0.00000000E+00  0.00000000E+00
  0.00000000E+00  0.00000000E+00  0.00000000E+00
