 Ta8 Ag2 S16                            
   1.00000000000000     
     5.8201223547437726    0.0000000000000000    0.0000000000000000
     0.0000000000000000    6.7252640341448195    0.0000000000000000
     0.0000000000000000    0.0000000000000000   25.4929162924299995
   Ta   Ag   S 
     8     2    16
Direct
  0.4911565953334966  0.9951956773869788  0.3602780136073636
  0.4911819857417575  0.5037170892886589  0.3602908165152937
  0.0037413291286927  0.7493793842045007  0.3623369499671509
  0.1743307998870151  0.4949263882795620  0.6397113267394030
  0.0058247881358542  0.2494442351890760  0.3599851310915473
  0.1743684069852833  0.0034169746298285  0.6397211466787610
  0.6617231150067389  0.2492484110319666  0.6376570955726540
  0.6596035900940637  0.7491772914238015  0.6400192996789527
  0.9957112640732501  0.7494122986592988  0.4870511703443197
  0.6699167035689099  0.2492724910823742  0.5129538616372834
  0.4968675253253149  0.9903695086447943  0.5767249830138506
  0.5034592504428875  0.0017497156031047  0.7001240436637706
  0.4968498561680946  0.5080958907913234  0.5767168524811196
  0.5034151982943066  0.4967287614110389  0.7001269579628474
  0.1620824110068259  0.5018658951859084  0.2998817384322192
  0.1686262364574143  0.4905410336421304  0.4232774260309446
  0.9987272962768303  0.7492583374570340  0.5804938204609601
  0.0010644460090955  0.7492735697568741  0.6986972556911123
  0.1620317705780554  0.9968913349706521  0.2998790938064715
  0.1686368254230638  0.0082462054026607  0.4232664041046423
  0.0105218456114869  0.2492306416937210  0.5775734005663796
  0.9950014537721238  0.2492545933865060  0.6990733379912557
  0.6643912381403979  0.2493549542860811  0.3012993941339180
  0.6667147756369876  0.2493785412288445  0.4195129787155612
  0.6704557311636160  0.7493720491471801  0.3009159181276903
  0.6549907188919106  0.7494227262161101  0.4224315829845349
 
  0.00000000E+00  0.00000000E+00  0.00000000E+00
  0.00000000E+00  0.00000000E+00  0.00000000E+00
  0.00000000E+00  0.00000000E+00  0.00000000E+00
  0.00000000E+00  0.00000000E+00  0.00000000E+00
  0.00000000E+00  0.00000000E+00  0.00000000E+00
  0.00000000E+00  0.00000000E+00  0.00000000E+00
  0.00000000E+00  0.00000000E+00  0.00000000E+00
  0.00000000E+00  0.00000000E+00  0.00000000E+00
  0.00000000E+00  0.00000000E+00  0.00000000E+00
  0.00000000E+00  0.00000000E+00  0.00000000E+00
  0.00000000E+00  0.00000000E+00  0.00000000E+00
  0.00000000E+00  0.00000000E+00  0.00000000E+00
  0.00000000E+00  0.00000000E+00  0.00000000E+00
  0.00000000E+00  0.00000000E+00  0.00000000E+00
  0.00000000E+00  0.00000000E+00  0.00000000E+00
  0.00000000E+00  0.00000000E+00  0.00000000E+00
  0.00000000E+00  0.00000000E+00  0.00000000E+00
  0.00000000E+00  0.00000000E+00  0.00000000E+00
  0.00000000E+00  0.00000000E+00  0.00000000E+00
  0.00000000E+00  0.00000000E+00  0.00000000E+00
  0.00000000E+00  0.00000000E+00  0.00000000E+00
  0.00000000E+00  0.00000000E+00  0.00000000E+00
  0.00000000E+00  0.00000000E+00  0.00000000E+00
  0.00000000E+00  0.00000000E+00  0.00000000E+00
  0.00000000E+00  0.00000000E+00  0.00000000E+00
  0.00000000E+00  0.00000000E+00  0.00000000E+00
