Layer\(2)                               
   1.00000000000000     
     7.8796000481000004    0.0000000000000000    0.0000000000000000
     0.0000000000000000    7.8758001328000002    0.0000000000000000
     0.0000000000000000    0.0000000000000000   11.5000000000000000
   Fe   S    O    H 
     8    10    12    20
Direct
  0.8642981675759752  0.3514843704038152  0.2761660130415131
  0.6975731853983962  0.6310751718789441  0.2325238339940511
  0.6505909769838151  0.9425269847515938  0.2426351547822608
  0.5658620872504414  0.2684981327939849  0.2771364273830593
  0.0519194461861018  0.7060443784665467  0.2572576047194277
  0.1703425070672099  0.4186012264138483  0.2668072270429795
  0.2657913766774919  0.1288403816793562  0.2682378020041848
  0.3578695667540169  0.8413548080763126  0.2304321020057407
  0.0083125129226918  0.5264937365426953  0.3920107694647301
  0.7441097898013392  0.1169974212010414  0.3692672779663118
  0.6913220097965658  0.4042890869221412  0.1334570861663337
  0.5299470149816384  0.7792492545046892  0.3679908997023387
  0.4539077636752568  0.0910147927159394  0.1379575299746632
  0.0619395623035941  0.2395376640912885  0.1597761559066694
  0.1595863598200010  0.9163010270637487  0.3592385189663184
  0.2508514398686660  0.6070625826469970  0.1636485662093628
  0.3484479186666313  0.3234484564617465  0.3907471484866013
  0.8647370726909445  0.8297508318558409  0.1622496577530394
  0.6660207082278734  0.4618285655375952  0.3527622642881027
  0.5485656611863562  0.7755557533073656  0.1311539436750925
  0.8884546169839869  0.8917187799128501  0.5842174084120848
  0.1260453190521193  0.9599158725949050  0.9500581314793425
  0.3757835783544157  0.2575147998132482  0.8503809492314270
  0.1598913299087338  0.3378281163676021  0.6674578529858682
  0.8442910688382141  0.1269210606388841  0.9011031665086263
  0.5948527747030550  0.0030655683644143  0.7369634186835303
  0.4843202354665859  0.7686252304223041  0.8948077275850337
  0.6247209835029005  0.4682255564379574  0.8375384255480253
  0.1694859790677286  0.6929900826610959  0.6281887044644469
  0.1203156679228177  0.6654038397039284  0.8752906290423794
  0.7747946609922832  0.9062598368620303  0.6148123946313814
  0.9132207485228934  0.0024553864213969  0.5609593235530633
  0.2322817840581351  0.0112937984875602  0.9229668052866862
  0.0354786147143034  0.0486407877346674  0.9319345562524235
  0.3015560248072811  0.3019443768628081  0.7898953636227255
  0.4589177386532771  0.3413379739269260  0.8671711686131771
  0.2023015855409457  0.2641625857831312  0.6033935266231147
  0.1588327734111277  0.4532091727786418  0.6279899338091640
  0.7973492947498467  0.0595966665397894  0.8398941201497429
  0.8320434376401729  0.2416313509364979  0.8708100453405309
  0.5026216371480882  0.9561823530218222  0.7826602343436297
  0.5651968666891621  0.1201182842222979  0.7149925107326125
  0.5078007961170707  0.7551118578307222  0.9783413860784188
  0.3700865262375696  0.7245258336328979  0.8805307672481129
  0.5898944074315313  0.5849555890525775  0.8410101842554958
  0.6528013253703621  0.4444485288392479  0.7571091644443849
  0.1776960053601110  0.7104390605456532  0.7136678783669542
  0.0672649774150281  0.7662983024397534  0.6106263154781739
  0.0718278394638837  0.5612945582313847  0.9147473576326889
  0.1057812703128035  0.7757139839861685  0.9104438706282710
 
 -0.80256996E-03  0.74534638E-03 -0.44269484E-02
 -0.29584134E-02 -0.80097003E-03  0.35754097E-02
  0.35786621E-02 -0.90435723E-03  0.27109051E-02
 -0.75732867E-03  0.12582706E-02  0.43820731E-03
 -0.13286728E-02  0.15088255E-02 -0.29433927E-02
 -0.19874756E-02 -0.17850703E-03 -0.46283498E-03
  0.23566691E-02  0.80673917E-03  0.25915295E-03
 -0.15167093E-02 -0.18078474E-02 -0.61856201E-03
  0.11019984E-02 -0.24372254E-02 -0.66435075E-03
  0.10404878E-02 -0.55392066E-03  0.17940023E-02
  0.19972963E-02 -0.23890384E-02 -0.10671396E-02
  0.43809748E-02 -0.23947174E-02 -0.60700093E-03
  0.57383512E-02  0.36433299E-02  0.20334744E-02
  0.47984723E-02  0.38452061E-02 -0.66120150E-03
 -0.23890056E-02 -0.28362087E-03 -0.10411450E-02
 -0.33237522E-02 -0.29704618E-02 -0.47298013E-03
  0.54637911E-03 -0.25694134E-03 -0.43397032E-02
 -0.47902461E-02  0.55619766E-03  0.31311783E-02
 -0.21106989E-02  0.29916976E-02 -0.41921705E-02
 -0.47402858E-02 -0.17161304E-02 -0.28801508E-02
 -0.25819876E-02  0.57301043E-02  0.39012681E-02
  0.66607552E-02  0.56062199E-03  0.34803033E-02
  0.37674241E-02 -0.35966920E-02 -0.33406689E-02
 -0.45373866E-04  0.15623993E-02  0.26476291E-03
 -0.14209951E-02  0.29779910E-02  0.17935776E-02
  0.52027953E-02 -0.18718783E-03  0.44522152E-02
 -0.22457448E-02  0.16436315E-02 -0.35232653E-02
 -0.30475404E-02 -0.21550377E-02  0.25703761E-02
 -0.20855764E-02 -0.11114495E-02  0.50403795E-03
  0.44974910E-02 -0.14182306E-02 -0.26985687E-02
 -0.16755969E-01 -0.20995565E-02  0.41131381E-01
  0.12807556E-02 -0.41491043E-03  0.15619518E-01
  0.53864130E-03  0.15471227E-02 -0.51643942E-02
  0.15805045E-01 -0.66783643E-02 -0.85371566E-02
 -0.13106414E-01 -0.25271414E-02 -0.10291917E-01
 -0.96285224E-02  0.16038931E-02  0.11522444E-01
 -0.30087941E-01  0.16440894E-02  0.43402960E-02
  0.16758960E-01 -0.19011935E-01 -0.43887000E-04
 -0.87675752E-02 -0.65954161E-02 -0.11183804E-01
 -0.10220843E-01 -0.86141116E-02  0.67303467E-02
 -0.17473016E-01  0.37788081E-02 -0.20452774E-02
  0.65895130E-02 -0.14999219E-01  0.16653933E-01
 -0.26133018E-01 -0.91411004E-02  0.12561390E-01
 -0.37457881E-01 -0.12058959E-01  0.14243928E-01
 -0.70443340E-02  0.16905386E-02  0.50341373E-02
 -0.53566414E-02  0.94845481E-02 -0.19623272E-01
  0.49689831E-02  0.92041412E-02  0.35848661E-01
  0.11175899E-02 -0.66918233E-02  0.13305811E-01
  0.43281505E-02  0.15605982E-01 -0.69652712E-02
 -0.26611334E-04  0.28654011E-01  0.24303354E-01
 
           1
   1.00000000000000     
  0.32468191E+01  0.86438078E-02 -0.38913827E-17  0.00000000E+00
  0.86419631E+00  0.35157901E+00  0.27578106E+00
  0.69719773E+00  0.63097347E+00  0.23283474E+00
  0.65104514E+00  0.94241216E+00  0.24287089E+00
  0.56576597E+00  0.26865790E+00  0.27717453E+00
  0.51750824E-01  0.70623596E+00  0.25700166E+00
  0.17009028E+00  0.41857856E+00  0.26676698E+00
  0.26609046E+00  0.12894281E+00  0.26826034E+00
  0.35767708E+00  0.84112526E+00  0.23037831E+00
  0.84523675E-02  0.52618428E+00  0.39195300E+00
  0.74424184E+00  0.11692709E+00  0.36942328E+00
  0.69157549E+00  0.40398575E+00  0.13336429E+00
  0.53050300E+00  0.77894519E+00  0.36793812E+00
  0.45463602E+00  0.91477391E-01  0.13813435E+00
  0.62548536E-01  0.24002589E+00  0.15971866E+00
  0.15928317E+00  0.91626502E+00  0.35914798E+00
  0.25042962E+00  0.60668542E+00  0.16360744E+00
  0.34851726E+00  0.32341583E+00  0.39036978E+00
  0.86412914E+00  0.82982145E+00  0.16252193E+00
  0.66575284E+00  0.46220843E+00  0.35239773E+00
  0.54796407E+00  0.77533785E+00  0.13090350E+00
  0.88812694E+00  0.89244634E+00  0.58455665E+00
  0.12689064E+00  0.95998706E+00  0.95036077E+00
  0.37626170E+00  0.25705812E+00  0.85009046E+00
  0.15988557E+00  0.33802650E+00  0.66748088E+00
  0.84411073E+00  0.12729918E+00  0.90125913E+00
  0.59551306E+00  0.30418009E-02  0.73735057E+00
  0.48403523E+00  0.76883392E+00  0.89450136E+00
  0.62433422E+00  0.46795193E+00  0.83776194E+00
  0.16922130E+00  0.69284896E+00  0.62823253E+00
  0.12088644E+00  0.66522377E+00  0.87505597E+00
  0.77266816E+00  0.90599325E+00  0.61838904E+00
  0.91338329E+00  0.24027047E-02  0.56231754E+00
  0.23235014E+00  0.11490239E-01  0.92251773E+00
  0.37484433E-01  0.47792828E-01  0.93119219E+00
  0.29989269E+00  0.30162350E+00  0.78900041E+00
  0.45769578E+00  0.34154162E+00  0.86817312E+00
  0.19848313E+00  0.26437134E+00  0.60377094E+00
  0.16095965E+00  0.45079520E+00  0.62798612E+00
  0.79623660E+00  0.58759238E-01  0.83892162E+00
  0.83074631E+00  0.24053761E+00  0.87139529E+00
  0.50040414E+00  0.95666215E+00  0.78248238E+00
  0.56603314E+00  0.11821381E+00  0.71644068E+00
  0.50448425E+00  0.75395120E+00  0.97943368E+00
  0.36533275E+00  0.72299469E+00  0.88176937E+00
  0.58900041E+00  0.58517024E+00  0.84144794E+00
  0.65212151E+00  0.44565279E+00  0.75540279E+00
  0.17832662E+00  0.71160772E+00  0.71678515E+00
  0.67406811E-01  0.76544863E+00  0.61178334E+00
  0.72377125E-01  0.56327607E+00  0.91414168E+00
  0.10577789E+00  0.77935222E+00  0.91255721E+00
 -0.10033440E-03  0.91459778E-04 -0.38855662E-03
 -0.36476188E-03 -0.11053734E-03  0.30812316E-03
  0.46650224E-03 -0.12379217E-03  0.23966894E-03
 -0.90362829E-04  0.16037209E-03  0.39395919E-04
 -0.16766997E-03  0.17888061E-03 -0.26497323E-03
 -0.25384620E-03 -0.17800901E-04 -0.51518878E-04
  0.30533441E-03  0.94467891E-04  0.21443479E-04
 -0.19625949E-03 -0.22293922E-03 -0.53109537E-04
  0.15343804E-03 -0.30280039E-03 -0.56325246E-04
  0.12052730E-03 -0.80985404E-04  0.15811275E-03
  0.25027890E-03 -0.30526521E-03 -0.84785522E-04
  0.54496260E-03 -0.29948528E-03 -0.42000547E-04
  0.72798638E-03  0.47526737E-03  0.16230974E-03
  0.61452569E-03  0.50591779E-03 -0.62604855E-04
 -0.30532108E-03 -0.35553735E-04 -0.80005215E-04
 -0.43487979E-03 -0.39354068E-03 -0.18988554E-04
  0.68505953E-04 -0.19253477E-04 -0.37164695E-03
 -0.61711250E-03  0.79063732E-04  0.27666609E-03
 -0.29573497E-03  0.39217283E-03 -0.35442907E-03
 -0.61870010E-03 -0.19846284E-03 -0.27114489E-03
 -0.31687040E-03  0.79155122E-03  0.33228487E-03
  0.84634752E-03  0.25747307E-04  0.30603563E-03
  0.53891313E-03 -0.38382686E-03 -0.29824724E-03
 -0.18008249E-04  0.18822457E-03  0.64942002E-04
 -0.20814187E-03  0.34845494E-03  0.13894344E-03
  0.63464522E-03 -0.40883222E-04  0.41337175E-03
 -0.28884442E-03  0.21029673E-03 -0.29562404E-03
 -0.42011096E-03 -0.23167406E-03  0.22368904E-03
 -0.24391399E-03 -0.16897290E-03  0.35465023E-04
  0.56479704E-03 -0.52841225E-04 -0.21191037E-03
 -0.17815719E-02 -0.70846303E-04  0.33527723E-02
 -0.34288698E-03 -0.12579182E-02  0.16573593E-02
  0.10745752E-03  0.15920802E-03 -0.49654384E-03
  0.19432281E-02 -0.46582715E-03 -0.78148811E-03
 -0.15357111E-02 -0.48464637E-03 -0.76345454E-03
 -0.19929450E-02 -0.51812779E-03  0.98726869E-03
 -0.36519368E-02  0.43969864E-04  0.45617455E-04
  0.21657312E-02 -0.21731038E-02 -0.36399735E-03
 -0.62304022E-03 -0.31415510E-03 -0.64359655E-03
 -0.13063820E-02 -0.12173682E-02  0.48363558E-03
 -0.22044423E-02  0.46326839E-03 -0.34840838E-03
  0.97433938E-03 -0.15649838E-02  0.12836688E-02
 -0.32806985E-02 -0.12925858E-02  0.96752375E-03
 -0.45522070E-02 -0.13941355E-02  0.11089562E-02
 -0.67143565E-03 -0.59655478E-03  0.35465910E-03
 -0.68187318E-03  0.11714760E-02 -0.16468492E-02
  0.68597849E-03  0.14733699E-02  0.32425116E-02
 -0.16471744E-03 -0.50504743E-03  0.11795210E-02
  0.18940311E-03  0.86505510E-03 -0.39147736E-03
  0.34326373E-03  0.28810225E-02  0.16133823E-02
  0.00000000E+00  0.00000000E+00  0.00000000E+00
  0.00000000E+00  0.00000000E+00  0.00000000E+00
  0.00000000E+00  0.00000000E+00  0.00000000E+00
  0.00000000E+00  0.00000000E+00  0.00000000E+00
  0.00000000E+00  0.00000000E+00  0.00000000E+00
  0.00000000E+00  0.00000000E+00  0.00000000E+00
  0.00000000E+00  0.00000000E+00  0.00000000E+00
  0.00000000E+00  0.00000000E+00  0.00000000E+00
  0.00000000E+00  0.00000000E+00  0.00000000E+00
  0.00000000E+00  0.00000000E+00  0.00000000E+00
  0.00000000E+00  0.00000000E+00  0.00000000E+00
  0.00000000E+00  0.00000000E+00  0.00000000E+00
  0.00000000E+00  0.00000000E+00  0.00000000E+00
  0.00000000E+00  0.00000000E+00  0.00000000E+00
  0.00000000E+00  0.00000000E+00  0.00000000E+00
  0.00000000E+00  0.00000000E+00  0.00000000E+00
  0.00000000E+00  0.00000000E+00  0.00000000E+00
  0.00000000E+00  0.00000000E+00  0.00000000E+00
  0.00000000E+00  0.00000000E+00  0.00000000E+00
  0.00000000E+00  0.00000000E+00  0.00000000E+00
  0.00000000E+00  0.00000000E+00  0.00000000E+00
  0.00000000E+00  0.00000000E+00  0.00000000E+00
  0.00000000E+00  0.00000000E+00  0.00000000E+00
  0.00000000E+00  0.00000000E+00  0.00000000E+00
  0.00000000E+00  0.00000000E+00  0.00000000E+00
  0.00000000E+00  0.00000000E+00  0.00000000E+00
  0.00000000E+00  0.00000000E+00  0.00000000E+00
  0.00000000E+00  0.00000000E+00  0.00000000E+00
  0.00000000E+00  0.00000000E+00  0.00000000E+00
  0.00000000E+00  0.00000000E+00  0.00000000E+00
  0.00000000E+00  0.00000000E+00  0.00000000E+00
  0.00000000E+00  0.00000000E+00  0.00000000E+00
  0.00000000E+00  0.00000000E+00  0.00000000E+00
  0.00000000E+00  0.00000000E+00  0.00000000E+00
  0.00000000E+00  0.00000000E+00  0.00000000E+00
  0.00000000E+00  0.00000000E+00  0.00000000E+00
  0.00000000E+00  0.00000000E+00  0.00000000E+00
  0.00000000E+00  0.00000000E+00  0.00000000E+00
  0.00000000E+00  0.00000000E+00  0.00000000E+00
  0.00000000E+00  0.00000000E+00  0.00000000E+00
  0.00000000E+00  0.00000000E+00  0.00000000E+00
  0.00000000E+00  0.00000000E+00  0.00000000E+00
  0.00000000E+00  0.00000000E+00  0.00000000E+00
  0.00000000E+00  0.00000000E+00  0.00000000E+00
  0.00000000E+00  0.00000000E+00  0.00000000E+00
  0.00000000E+00  0.00000000E+00  0.00000000E+00
  0.00000000E+00  0.00000000E+00  0.00000000E+00
  0.00000000E+00  0.00000000E+00  0.00000000E+00
  0.00000000E+00  0.00000000E+00  0.00000000E+00
  0.00000000E+00  0.00000000E+00  0.00000000E+00
