CONTCAR\(3)                             
   1.00000000000000     
    13.7960996627999997    0.0000000000000000    0.0000000000000000
    -6.5035079245000000   17.1935171878000013    0.0000000000000000
     0.0000000000000000    0.0000000000000000   23.1921005248999990
   Ce   P    H    O 
     8    24    64    57
Direct
  0.3218804837402306  0.4157843983170133  0.4859436868747301
  0.1812364823309768  0.0837005719601415  0.5297917080092641
  0.8304346347093473  0.4208519597275502  0.4823582795372533
  0.6707012071871927  0.0742942286343198  0.5190632483651336
  0.3262098206892646  0.9250805192580384  0.4804109553944672
  0.1733410068732130  0.5754459159458170  0.5220633478022331
  0.8306940309129082  0.9228898063710353  0.4791773753945534
  0.6680547104444067  0.5721648445085429  0.5199577804092066
  0.0634812374444452  0.3646307136817572  0.5241443356283284
  0.4369299891267012  0.1301532677716471  0.4773691367930497
  0.4630900510599865  0.4727629086660741  0.6282971294497405
  0.0366660956862026  0.0230603576219618  0.3713896982773754
  0.2480479512079354  0.2616134976220658  0.5954645607321795
  0.2570357550702235  0.2367254948532264  0.4155585340332580
  0.5641635173670138  0.3691981366622181  0.5222217521142930
  0.9404584916844104  0.1240521868287378  0.4812088173881238
  0.9602417381476100  0.4733295076406949  0.6263833869158683
  0.5403185814531457  0.0250708874472718  0.3747202883266727
  0.7409886371313270  0.2609462732600772  0.5864641023360433
  0.7586628372304384  0.2348810627559263  0.4159609676800840
  0.0632837737357125  0.8689803035812789  0.5215531802079801
  0.4353900987584062  0.6285931933135839  0.4792112441204803
  0.4582908171199835  0.9776048498388508  0.6231254018270734
  0.0412229184938304  0.5239116279055090  0.3767167486670301
  0.2444097582391982  0.7647484172941897  0.5863160526172984
  0.2541237111139243  0.7348458911469905  0.4158336479148641
  0.5614834932114851  0.8673674667903446  0.5184287915078696
  0.9358630833703622  0.6284875281418435  0.4810189708532119
  0.9551083138543393  0.9735683773847833  0.6254360151779292
  0.5345866510871652  0.5207479757034154  0.3763856802272350
  0.7415518658418953  0.7621223009079822  0.5838247978484611
  0.7522649141169364  0.7327382531132233  0.4150615198138445
  0.0648690144330036  0.3086665757054272  0.4827023509321604
  0.4360948657057083  0.1865067319343251  0.5184845867519220
  0.0655367102181283  0.3298728324086855  0.5783090882589789
  0.4459613358982281  0.1667605900536797  0.4228837053074024
  0.4536663362584398  0.5073204081690239  0.6819064161602878
  0.0434812087274771  0.9940969814111419  0.3151050876046037
  0.4447523061749356  0.3939842326573066  0.6428462953047872
  0.0502673214320962  0.1023702087768114  0.3606828159081583
  0.2210921810108221  0.3167017183083335  0.6281380816452028
  0.2660913543892053  0.2042121478642225  0.3610199573158550
  0.3487516163160120  0.2722897269101080  0.5742977528091985
  0.1524294822374663  0.2334991271962373  0.4162220857062373
  0.1791060167989630  0.4572857959359632  0.4029150513978768
  0.3304710818134619  0.0640511591369277  0.5976668516813409
  0.2612483009510150  0.4289883347252680  0.3704015500049591
  0.2925609946890634  0.1814253634882595  0.6503371378083275
  0.5590182715305639  0.3114264614274879  0.4809127695436730
  0.9483873309996705  0.1791374758276577  0.5252314488527874
  0.5550153493935679  0.3319696879379893  0.5763794357259792
  0.9503805955334814  0.1661338923718474  0.4289823455126126
  0.9479131051885633  0.5101993380495122  0.6783337856082382
  0.5527758686761570  0.9906011459965800  0.3216584166710639
  0.9441729701651435  0.3957795057413258  0.6438101693866763
  0.5533811279717605  0.1027664675776817  0.3588412896324614
  0.7199530912062897  0.2944594754282619  0.6380729504037463
  0.7753963532404016  0.2005204606391531  0.3637215352146362
  0.8473006619032428  0.2701034706048938  0.5915945288259229
  0.6527078550274213  0.2276041358055291  0.4126020697883966
  0.6755202376666681  0.4563123951906713  0.4025074439563379
  0.8191808075846743  0.0358757007646956  0.5983899588176741
  0.7523998341586493  0.4257198252335963  0.3661114059373159
  0.7485028823050154  0.0721290713329802  0.6351869342241059
  0.0656997191197612  0.8111844702428485  0.4818899097043041
  0.4385143003966064  0.6886226190463079  0.5181220305791808
  0.0596705542871264  0.8348945741452291  0.5766536544196624
  0.4358552601553057  0.6606165703453101  0.4236552153102510
  0.4499286088684935  0.0199180016262246  0.6729962244800141
  0.0527352468480632  0.4873963197236822  0.3244052409642569
  0.4371663821426877  0.9008387694970624  0.6446166463487342
  0.0563508508291385  0.6014510231253111  0.3593436878872073
  0.2258602848443533  0.7983040691530554  0.6384923376180957
  0.2692901555920993  0.7002620560227740  0.3633085887041614
  0.3507842411270809  0.7732927281675074  0.5900551078500843
  0.1478361426705624  0.7270798715888811  0.4135072039851231
  0.1724694613491013  0.9564856553204677  0.3991842963728919
  0.3276679212586889  0.5411023903231653  0.6016571504068710
  0.2453894379693098  0.9191853229347522  0.3642234973883583
  0.2552579919012224  0.5749699851960072  0.6392911887716546
  0.5608196994113656  0.8100553560339832  0.4775901644983150
  0.9354747864438692  0.6853315532708214  0.5220013383918611
  0.5559805429958924  0.8311583194856785  0.5728378991680406
  0.9437887458394046  0.6656441663971637  0.4268259296112558
  0.9452709314043051  0.0154311078591230  0.6752956804394477
  0.5440554790533741  0.4817906797329666  0.3248265383128275
  0.9370726284795252  0.8972520909078009  0.6467262310515549
  0.5569766950091722  0.5988470978603403  0.3577631240468427
  0.7227528944832433  0.7957620286175117  0.6359362714377683
  0.7671199133471588  0.6988372778285901  0.3621759959998743
  0.8477706483895504  0.7704390002994806  0.5879947598400176
  0.6463266377440454  0.7257118211648161  0.4129797018753305
  0.6798281672891965  0.9605498670314896  0.3997907771477259
  0.8218058388760334  0.5381714408618349  0.5994529795750664
  0.7570787596596462  0.9295640752034224  0.3644608705086522
  0.7458910312747290  0.5703448811714247  0.6348975557006670
  0.9632845471580888  0.3811822237327095  0.5186399704433642
  0.5326536697988568  0.1082519251661964  0.4863192461262931
  0.1605496071675389  0.4379506236904480  0.5166584954044126
  0.3350359574503476  0.0605215675999046  0.4803034924206712
  0.3755618628677643  0.4760950161777251  0.5891701671703232
  0.1274526554089670  0.0202255814278784  0.4069988099471966
  0.5741302592195030  0.5103548875166239  0.6071049845838150
  0.9260709421513480  0.9819530605388411  0.3925928510404613
  0.1600750682897467  0.1873724480262953  0.5724798811317598
  0.3298641235084189  0.3210219522330848  0.4154925007548786
  0.2414770406596232  0.3202233030951389  0.5345677079114661
  0.2713029020791805  0.1833988848439746  0.4621247642208747
  0.2051815571755915  0.4129679391213185  0.3987273241275409
  0.2999700794466045  0.1049935282783535  0.5951571735841781
  0.4751137219131927  0.3982702358194447  0.5138628191261752
  0.0262331587690202  0.0908836315384872  0.4857639084793253
  0.6695688267969429  0.4356443731808342  0.5176177089217519
  0.8325421291245295  0.0599521552399410  0.4836341306061721
  0.8717590217380062  0.4720028525776916  0.5861571578076963
  0.6309441153190080  0.0273715656462870  0.4135550118681789
  0.0707482600126876  0.5110817731940898  0.6053917798003680
  0.4306645128862076  0.9849339104986072  0.3961304107665846
  0.6748025541568555  0.1753457079504168  0.5860921226988348
  0.8266531802212019  0.3201961671199706  0.4152812763819188
  0.7286399022972958  0.3099545994806824  0.5358507948013151
  0.7723669359228864  0.1861225172014186  0.4662226079514349
  0.7060207039443109  0.4139121730797127  0.3992652017943494
  0.7938452609607154  0.0811752361001225  0.6016792962267211
  0.9634792861111011  0.8846256940498827  0.5129016507474635
  0.5329103351420572  0.6093844746182363  0.4862483194223736
  0.1631061210121511  0.9397707738802772  0.5151784877851212
  0.3343289043101708  0.5596406949766304  0.4884412865914229
  0.3728546659828765  0.9770931266664156  0.5814439389703472
  0.1300208879387946  0.5254941749864858  0.4165324123097148
  0.5700343655072796  0.0081648821047561  0.6022491070737066
  0.9307227288165036  0.4863488023556286  0.3980320394998231
  0.1778215437015021  0.6791350811512917  0.5865304767223084
  0.3220675050380942  0.8198479959646566  0.4151063167775465
  0.2306435410137934  0.8137345083350765  0.5362051698105597
  0.2684536264501133  0.6851077570475141  0.4654566459630600
  0.2024108584459501  0.9125786975311765  0.3985201790128893
  0.2976582326352316  0.5841189456818527  0.6046093300924864
  0.4663299767748682  0.8893511841093945  0.5106679755120114
  0.0305109566208970  0.6058611596461749  0.4898295036401092
  0.6641932032899139  0.9361694493070483  0.5130650404462908
  0.8333621887893365  0.5593573149058259  0.4849388950561580
  0.8652707693306603  0.9694261657690755  0.5850819270261431
  0.6224958249996666  0.5196974417406358  0.4163919176329987
  0.0645501683551461  0.0068312561523763  0.6027838822329356
  0.4238937885889748  0.4885262831497541  0.3977070422156499
  0.6747086940723820  0.6765559368143864  0.5842230557092768
  0.8208805415456173  0.8176813928878246  0.4146618439801784
  0.7283351696083521  0.8110711774718480  0.5335037917918267
  0.7666095356816842  0.6822294663204522  0.4641090297376973
  0.7064125189559416  0.9162710492668577  0.3957098505911958
  0.7946515411611650  0.5822468974110883  0.6027605071728357
  0.2745066415697242  0.2278922511684122  0.6589638060376484
 
  0.00000000E+00  0.00000000E+00  0.00000000E+00
  0.00000000E+00  0.00000000E+00  0.00000000E+00
  0.00000000E+00  0.00000000E+00  0.00000000E+00
  0.00000000E+00  0.00000000E+00  0.00000000E+00
  0.00000000E+00  0.00000000E+00  0.00000000E+00
  0.00000000E+00  0.00000000E+00  0.00000000E+00
  0.00000000E+00  0.00000000E+00  0.00000000E+00
  0.00000000E+00  0.00000000E+00  0.00000000E+00
  0.00000000E+00  0.00000000E+00  0.00000000E+00
  0.00000000E+00  0.00000000E+00  0.00000000E+00
  0.00000000E+00  0.00000000E+00  0.00000000E+00
  0.00000000E+00  0.00000000E+00  0.00000000E+00
  0.00000000E+00  0.00000000E+00  0.00000000E+00
  0.00000000E+00  0.00000000E+00  0.00000000E+00
  0.00000000E+00  0.00000000E+00  0.00000000E+00
  0.00000000E+00  0.00000000E+00  0.00000000E+00
  0.00000000E+00  0.00000000E+00  0.00000000E+00
  0.00000000E+00  0.00000000E+00  0.00000000E+00
  0.00000000E+00  0.00000000E+00  0.00000000E+00
  0.00000000E+00  0.00000000E+00  0.00000000E+00
  0.00000000E+00  0.00000000E+00  0.00000000E+00
  0.00000000E+00  0.00000000E+00  0.00000000E+00
  0.00000000E+00  0.00000000E+00  0.00000000E+00
  0.00000000E+00  0.00000000E+00  0.00000000E+00
  0.00000000E+00  0.00000000E+00  0.00000000E+00
  0.00000000E+00  0.00000000E+00  0.00000000E+00
  0.00000000E+00  0.00000000E+00  0.00000000E+00
  0.00000000E+00  0.00000000E+00  0.00000000E+00
  0.00000000E+00  0.00000000E+00  0.00000000E+00
  0.00000000E+00  0.00000000E+00  0.00000000E+00
  0.00000000E+00  0.00000000E+00  0.00000000E+00
  0.00000000E+00  0.00000000E+00  0.00000000E+00
  0.00000000E+00  0.00000000E+00  0.00000000E+00
  0.00000000E+00  0.00000000E+00  0.00000000E+00
  0.00000000E+00  0.00000000E+00  0.00000000E+00
  0.00000000E+00  0.00000000E+00  0.00000000E+00
  0.00000000E+00  0.00000000E+00  0.00000000E+00
  0.00000000E+00  0.00000000E+00  0.00000000E+00
  0.00000000E+00  0.00000000E+00  0.00000000E+00
  0.00000000E+00  0.00000000E+00  0.00000000E+00
  0.00000000E+00  0.00000000E+00  0.00000000E+00
  0.00000000E+00  0.00000000E+00  0.00000000E+00
  0.00000000E+00  0.00000000E+00  0.00000000E+00
  0.00000000E+00  0.00000000E+00  0.00000000E+00
  0.00000000E+00  0.00000000E+00  0.00000000E+00
  0.00000000E+00  0.00000000E+00  0.00000000E+00
  0.00000000E+00  0.00000000E+00  0.00000000E+00
  0.00000000E+00  0.00000000E+00  0.00000000E+00
  0.00000000E+00  0.00000000E+00  0.00000000E+00
  0.00000000E+00  0.00000000E+00  0.00000000E+00
  0.00000000E+00  0.00000000E+00  0.00000000E+00
  0.00000000E+00  0.00000000E+00  0.00000000E+00
  0.00000000E+00  0.00000000E+00  0.00000000E+00
  0.00000000E+00  0.00000000E+00  0.00000000E+00
  0.00000000E+00  0.00000000E+00  0.00000000E+00
  0.00000000E+00  0.00000000E+00  0.00000000E+00
  0.00000000E+00  0.00000000E+00  0.00000000E+00
  0.00000000E+00  0.00000000E+00  0.00000000E+00
  0.00000000E+00  0.00000000E+00  0.00000000E+00
  0.00000000E+00  0.00000000E+00  0.00000000E+00
  0.00000000E+00  0.00000000E+00  0.00000000E+00
  0.00000000E+00  0.00000000E+00  0.00000000E+00
  0.00000000E+00  0.00000000E+00  0.00000000E+00
  0.00000000E+00  0.00000000E+00  0.00000000E+00
  0.00000000E+00  0.00000000E+00  0.00000000E+00
  0.00000000E+00  0.00000000E+00  0.00000000E+00
  0.00000000E+00  0.00000000E+00  0.00000000E+00
  0.00000000E+00  0.00000000E+00  0.00000000E+00
  0.00000000E+00  0.00000000E+00  0.00000000E+00
  0.00000000E+00  0.00000000E+00  0.00000000E+00
  0.00000000E+00  0.00000000E+00  0.00000000E+00
  0.00000000E+00  0.00000000E+00  0.00000000E+00
  0.00000000E+00  0.00000000E+00  0.00000000E+00
  0.00000000E+00  0.00000000E+00  0.00000000E+00
  0.00000000E+00  0.00000000E+00  0.00000000E+00
  0.00000000E+00  0.00000000E+00  0.00000000E+00
  0.00000000E+00  0.00000000E+00  0.00000000E+00
  0.00000000E+00  0.00000000E+00  0.00000000E+00
  0.00000000E+00  0.00000000E+00  0.00000000E+00
  0.00000000E+00  0.00000000E+00  0.00000000E+00
  0.00000000E+00  0.00000000E+00  0.00000000E+00
  0.00000000E+00  0.00000000E+00  0.00000000E+00
  0.00000000E+00  0.00000000E+00  0.00000000E+00
  0.00000000E+00  0.00000000E+00  0.00000000E+00
  0.00000000E+00  0.00000000E+00  0.00000000E+00
  0.00000000E+00  0.00000000E+00  0.00000000E+00
  0.00000000E+00  0.00000000E+00  0.00000000E+00
  0.00000000E+00  0.00000000E+00  0.00000000E+00
  0.00000000E+00  0.00000000E+00  0.00000000E+00
  0.00000000E+00  0.00000000E+00  0.00000000E+00
  0.00000000E+00  0.00000000E+00  0.00000000E+00
  0.00000000E+00  0.00000000E+00  0.00000000E+00
  0.00000000E+00  0.00000000E+00  0.00000000E+00
  0.00000000E+00  0.00000000E+00  0.00000000E+00
  0.00000000E+00  0.00000000E+00  0.00000000E+00
  0.00000000E+00  0.00000000E+00  0.00000000E+00
  0.00000000E+00  0.00000000E+00  0.00000000E+00
  0.00000000E+00  0.00000000E+00  0.00000000E+00
  0.00000000E+00  0.00000000E+00  0.00000000E+00
  0.00000000E+00  0.00000000E+00  0.00000000E+00
  0.00000000E+00  0.00000000E+00  0.00000000E+00
  0.00000000E+00  0.00000000E+00  0.00000000E+00
  0.00000000E+00  0.00000000E+00  0.00000000E+00
  0.00000000E+00  0.00000000E+00  0.00000000E+00
  0.00000000E+00  0.00000000E+00  0.00000000E+00
  0.00000000E+00  0.00000000E+00  0.00000000E+00
  0.00000000E+00  0.00000000E+00  0.00000000E+00
  0.00000000E+00  0.00000000E+00  0.00000000E+00
  0.00000000E+00  0.00000000E+00  0.00000000E+00
  0.00000000E+00  0.00000000E+00  0.00000000E+00
  0.00000000E+00  0.00000000E+00  0.00000000E+00
  0.00000000E+00  0.00000000E+00  0.00000000E+00
  0.00000000E+00  0.00000000E+00  0.00000000E+00
  0.00000000E+00  0.00000000E+00  0.00000000E+00
  0.00000000E+00  0.00000000E+00  0.00000000E+00
  0.00000000E+00  0.00000000E+00  0.00000000E+00
  0.00000000E+00  0.00000000E+00  0.00000000E+00
  0.00000000E+00  0.00000000E+00  0.00000000E+00
  0.00000000E+00  0.00000000E+00  0.00000000E+00
  0.00000000E+00  0.00000000E+00  0.00000000E+00
  0.00000000E+00  0.00000000E+00  0.00000000E+00
  0.00000000E+00  0.00000000E+00  0.00000000E+00
  0.00000000E+00  0.00000000E+00  0.00000000E+00
  0.00000000E+00  0.00000000E+00  0.00000000E+00
  0.00000000E+00  0.00000000E+00  0.00000000E+00
  0.00000000E+00  0.00000000E+00  0.00000000E+00
  0.00000000E+00  0.00000000E+00  0.00000000E+00
  0.00000000E+00  0.00000000E+00  0.00000000E+00
  0.00000000E+00  0.00000000E+00  0.00000000E+00
  0.00000000E+00  0.00000000E+00  0.00000000E+00
  0.00000000E+00  0.00000000E+00  0.00000000E+00
  0.00000000E+00  0.00000000E+00  0.00000000E+00
  0.00000000E+00  0.00000000E+00  0.00000000E+00
  0.00000000E+00  0.00000000E+00  0.00000000E+00
  0.00000000E+00  0.00000000E+00  0.00000000E+00
  0.00000000E+00  0.00000000E+00  0.00000000E+00
  0.00000000E+00  0.00000000E+00  0.00000000E+00
  0.00000000E+00  0.00000000E+00  0.00000000E+00
  0.00000000E+00  0.00000000E+00  0.00000000E+00
  0.00000000E+00  0.00000000E+00  0.00000000E+00
  0.00000000E+00  0.00000000E+00  0.00000000E+00
  0.00000000E+00  0.00000000E+00  0.00000000E+00
  0.00000000E+00  0.00000000E+00  0.00000000E+00
  0.00000000E+00  0.00000000E+00  0.00000000E+00
  0.00000000E+00  0.00000000E+00  0.00000000E+00
  0.00000000E+00  0.00000000E+00  0.00000000E+00
  0.00000000E+00  0.00000000E+00  0.00000000E+00
  0.00000000E+00  0.00000000E+00  0.00000000E+00
  0.00000000E+00  0.00000000E+00  0.00000000E+00
  0.00000000E+00  0.00000000E+00  0.00000000E+00
  0.00000000E+00  0.00000000E+00  0.00000000E+00
  0.00000000E+00  0.00000000E+00  0.00000000E+00
  0.00000000E+00  0.00000000E+00  0.00000000E+00
