CONTCAR\(3)                             
   1.00000000000000     
    13.3121995926000007    0.0000000000000000    0.0000000000000000
    -6.6560997963000004   11.5287030274000006    0.0000000000000000
     0.0000000000000000    0.0000000000000000   18.1366004943999997
   Nb   S    O    H 
    16    32     1     1
Selective dynamics
Direct
  0.9985408980942623  0.0020892644601602  0.5038487786812951   F   F   F
  0.2522664232581633  0.0005293613775095  0.5041028476011959   F   F   F
  0.4998367470903986  0.0004754332982486  0.5040948978989661   F   F   F
  0.7553055289018644  0.0018812499634677  0.5038826488288919   F   F   F
  0.0015139937622806  0.2514732204482542  0.5038473252641822   F   F   F
  0.2508397941310321  0.2544161153226980  0.5037682030444728   F   F   F
  0.5014116743130046  0.2510092033874329  0.5030768257022018   F   F   F
  0.7551681275325350  0.2545201787625899  0.5038088341392424   F   F   F
  0.9983951578354393  0.4978574672760061  0.5035927971070322   F   F   F
  0.2508498453846215  0.4977068742985864  0.5034084352556576   F   F   F
  0.4874544201654558  0.4943491411115915  0.5009472818093172   F   F   F
  0.7586379664558933  0.4943674123205923  0.5017893115254140   F   F   F
  0.0014984518670786  0.7515139871131211  0.5033076363578104   F   F   F
  0.2523008543540612  0.7531080763816149  0.5040069038789383   F   F   F
  0.5015402152488946  0.7514950638634232  0.5031723386059070   F   F   F
  0.7588154842349013  0.7654772762153002  0.5027001153073343   F   F   F
  0.1682474809952197  0.0846445273802132  0.4190926956198169   F   F   F
  0.1683124343427238  0.0852317249099599  0.5888649675041435   F   F   F
  0.4180366809129481  0.0841227862346017  0.4172316223059411   F   F   F
  0.4188182460627488  0.0858472147843159  0.5904418096118889   F   F   F
  0.6681441205394663  0.0845275695064345  0.4191570857119302   F   F   F
  0.6686147072278246  0.0849797478791317  0.5888214756783583   F   F   F
  0.9190715911336085  0.0864015497945729  0.4165275846165812   F   F   F
  0.9190416332413136  0.0863240460870358  0.5912829091436222   F   F   F
  0.1665057636830198  0.3335998487740923  0.4164212996796124   F   F   F
  0.1668473278887959  0.3341338563016265  0.5911439391404514   F   F   F
  0.4159437988971604  0.3306826643495739  0.4158182507015482   F   F   F
  0.4182382635123929  0.3342797353027933  0.5904879678048260   F   F   F
  0.6667385860289201  0.3312085720055080  0.4160013379081491   F   F   F
  0.6674529615767497  0.3335565025406595  0.5903136716855641   F   F   F
  0.9189360681494136  0.3339939658294284  0.4164088496446468   F   F   F
  0.9190473339450804  0.3341851401348066  0.5911481723776220   F   F   F
  0.1682106506592405  0.5849780245936458  0.4188156531883891   F   F   F
  0.1681019646523580  0.5843306546040878  0.5885487677523429   F   F   F
  0.4160441959169532  0.5864321807358053  0.4155281916944062   F   F   F
  0.4174312164126377  0.5850288465649029  0.5899663400120403   F   F   F
  0.6688139444371970  0.5852822254832759  0.4266795375620589   F   F   F
  0.6663147357637058  0.5842348255388998  0.5763708542955541   F   F   F
  0.9217137734884986  0.5863986443416209  0.4158468287003458   F   F   F
  0.9192283847746410  0.5852600045049101  0.5902064187602249   F   F   F
  0.1683475783947372  0.8348431752909491  0.4172201056656988   F   F   F
  0.1671440585857766  0.8341578510402883  0.5904836757585485   F   F   F
  0.4180572517566645  0.8349123953275850  0.4172300663583712   F   F   F
  0.4187487361168536  0.8341173042892649  0.5903821420684991   F   F   F
  0.6671116760252005  0.8365173662265946  0.4162316403716630   F   F   F
  0.6673383262615005  0.8353895197879950  0.5905158758861262   F   F   F
  0.9213878928920778  0.8368382638209155  0.4161760338080072   F   F   F
  0.9197647802474336  0.8356045468409761  0.5906880190349710   F   F   F
  0.6654112193446196  0.5868462492282092  0.6671060372577600   T   T   T
  0.5967470365026557  0.5148787723647388  0.6829876588144680   T   T   T
 
  0.00000000E+00  0.00000000E+00  0.00000000E+00
  0.00000000E+00  0.00000000E+00  0.00000000E+00
  0.00000000E+00  0.00000000E+00  0.00000000E+00
  0.00000000E+00  0.00000000E+00  0.00000000E+00
  0.00000000E+00  0.00000000E+00  0.00000000E+00
  0.00000000E+00  0.00000000E+00  0.00000000E+00
  0.00000000E+00  0.00000000E+00  0.00000000E+00
  0.00000000E+00  0.00000000E+00  0.00000000E+00
  0.00000000E+00  0.00000000E+00  0.00000000E+00
  0.00000000E+00  0.00000000E+00  0.00000000E+00
  0.00000000E+00  0.00000000E+00  0.00000000E+00
  0.00000000E+00  0.00000000E+00  0.00000000E+00
  0.00000000E+00  0.00000000E+00  0.00000000E+00
  0.00000000E+00  0.00000000E+00  0.00000000E+00
  0.00000000E+00  0.00000000E+00  0.00000000E+00
  0.00000000E+00  0.00000000E+00  0.00000000E+00
  0.00000000E+00  0.00000000E+00  0.00000000E+00
  0.00000000E+00  0.00000000E+00  0.00000000E+00
  0.00000000E+00  0.00000000E+00  0.00000000E+00
  0.00000000E+00  0.00000000E+00  0.00000000E+00
  0.00000000E+00  0.00000000E+00  0.00000000E+00
  0.00000000E+00  0.00000000E+00  0.00000000E+00
  0.00000000E+00  0.00000000E+00  0.00000000E+00
  0.00000000E+00  0.00000000E+00  0.00000000E+00
  0.00000000E+00  0.00000000E+00  0.00000000E+00
  0.00000000E+00  0.00000000E+00  0.00000000E+00
  0.00000000E+00  0.00000000E+00  0.00000000E+00
  0.00000000E+00  0.00000000E+00  0.00000000E+00
  0.00000000E+00  0.00000000E+00  0.00000000E+00
  0.00000000E+00  0.00000000E+00  0.00000000E+00
  0.00000000E+00  0.00000000E+00  0.00000000E+00
  0.00000000E+00  0.00000000E+00  0.00000000E+00
  0.00000000E+00  0.00000000E+00  0.00000000E+00
  0.00000000E+00  0.00000000E+00  0.00000000E+00
  0.00000000E+00  0.00000000E+00  0.00000000E+00
  0.00000000E+00  0.00000000E+00  0.00000000E+00
  0.00000000E+00  0.00000000E+00  0.00000000E+00
  0.00000000E+00  0.00000000E+00  0.00000000E+00
  0.00000000E+00  0.00000000E+00  0.00000000E+00
  0.00000000E+00  0.00000000E+00  0.00000000E+00
  0.00000000E+00  0.00000000E+00  0.00000000E+00
  0.00000000E+00  0.00000000E+00  0.00000000E+00
  0.00000000E+00  0.00000000E+00  0.00000000E+00
  0.00000000E+00  0.00000000E+00  0.00000000E+00
  0.00000000E+00  0.00000000E+00  0.00000000E+00
  0.00000000E+00  0.00000000E+00  0.00000000E+00
  0.00000000E+00  0.00000000E+00  0.00000000E+00
  0.00000000E+00  0.00000000E+00  0.00000000E+00
  0.00000000E+00  0.00000000E+00  0.00000000E+00
  0.00000000E+00  0.00000000E+00  0.00000000E+00
