CONTCAR\(4)                             
   1.00000000000000     
    11.0504999160999997    0.0000000000000000    0.0000000000000000
     0.0000000000000000   15.0270004272000008    0.0000000000000000
     0.0000000000000000    0.0000000000000000   19.5720996856999996
   Ta   Ni   Te   O 
     6     6    30     1
Direct
  0.0004442462252774  0.7518280281498960  0.4956079275182796
 -0.0019721025025774  0.2540722151015010  0.5067764991487678
  0.3336072963991396  0.7522774565361763  0.4957878014035342
  0.3303014045421780  0.2508750276449518  0.5066278885302337
  0.6661599927099179  0.7544388565981868  0.4950499415799194
  0.6635527345049951  0.2522369880365138  0.5065719216371494
  0.1660047743947989  0.5028151561026158  0.4989908693141916
  0.1651067087218120  0.0003628937840610  0.5007370047239954
  0.5111901110127068  0.5072163689142261  0.4972780973008456
  0.4980422599420030  0.0037864343846215  0.5003981165051722
  0.8242344477951421  0.5040485250017490  0.4963240581069167
  0.8353761182122876  0.0040508603870934  0.5023833434238999
  0.9909460056769390  0.4329323334703685  0.5661369755799561
  0.1647324615948028  0.3553927748194178  0.4282365156459862
  0.9990792430767450  0.5789056655419552  0.4279435185519071
 -0.0008347800451884  0.9250437898812356  0.4286334398379351
  0.0017890864517748  0.0798981207097436  0.5745236979901218
  0.1671782574172740  0.7514408920173382  0.3843199787855968
  0.1665004437722329  0.8562479396987132  0.5732056595176493
  0.1662127418248736  0.2496155907786722  0.6215131660355898
  0.1637376351585012  0.1469349129781390  0.4300303872900744
  0.1672126905673118  0.6473236286076374  0.5727592646226611
  0.3244934359092368  0.4240633508497617  0.5729402658399065
  0.4955140192292196  0.3610885422774500  0.4327621996466000
  0.3371775597513926  0.5775345245137675  0.4293254152031989
  0.3323335540939887  0.9255974251363945  0.4285321424873497
  0.3328682683902006  0.0763264585096279  0.5727024828154491
  0.4992356355092957  0.7583166185759369  0.3838311455128302
  0.4995339793055882  0.8589074938093781  0.5720391363050956
  0.4980846409131860  0.2509775966722247  0.6183768772652807
  0.4981323642524050  0.1484879296286732  0.4284460083840134
  0.5027052564565695  0.6478233143900940  0.5720785305996849
  0.6626881244140235  0.4266715282049977  0.5729465683985410
  0.8287924500849679  0.3561017824671547  0.4286446564147732
  0.6709141503615950  0.5859106132687545  0.4206763565729885
  0.6674780442713900  0.9292375454603131  0.4310209661439618
  0.6657292689795744  0.0786705481171974  0.5734511107962795
  0.8337151460351686  0.7544034420236639  0.3837659162428146
  0.8338239495295177  0.8568283552846698  0.5727095882892047
  0.8299562718821297  0.2514540962200382  0.6179931548898263
  0.8320270581301993  0.1483337814084546  0.4295435683613363
  0.8310798848237505  0.6478404574421434  0.5710403097006943
  0.2121847282236683  0.3749800745944801  0.6500573850798295
 
  0.00000000E+00  0.00000000E+00  0.00000000E+00
  0.00000000E+00  0.00000000E+00  0.00000000E+00
  0.00000000E+00  0.00000000E+00  0.00000000E+00
  0.00000000E+00  0.00000000E+00  0.00000000E+00
  0.00000000E+00  0.00000000E+00  0.00000000E+00
  0.00000000E+00  0.00000000E+00  0.00000000E+00
  0.00000000E+00  0.00000000E+00  0.00000000E+00
  0.00000000E+00  0.00000000E+00  0.00000000E+00
  0.00000000E+00  0.00000000E+00  0.00000000E+00
  0.00000000E+00  0.00000000E+00  0.00000000E+00
  0.00000000E+00  0.00000000E+00  0.00000000E+00
  0.00000000E+00  0.00000000E+00  0.00000000E+00
  0.00000000E+00  0.00000000E+00  0.00000000E+00
  0.00000000E+00  0.00000000E+00  0.00000000E+00
  0.00000000E+00  0.00000000E+00  0.00000000E+00
  0.00000000E+00  0.00000000E+00  0.00000000E+00
  0.00000000E+00  0.00000000E+00  0.00000000E+00
  0.00000000E+00  0.00000000E+00  0.00000000E+00
  0.00000000E+00  0.00000000E+00  0.00000000E+00
  0.00000000E+00  0.00000000E+00  0.00000000E+00
  0.00000000E+00  0.00000000E+00  0.00000000E+00
  0.00000000E+00  0.00000000E+00  0.00000000E+00
  0.00000000E+00  0.00000000E+00  0.00000000E+00
  0.00000000E+00  0.00000000E+00  0.00000000E+00
  0.00000000E+00  0.00000000E+00  0.00000000E+00
  0.00000000E+00  0.00000000E+00  0.00000000E+00
  0.00000000E+00  0.00000000E+00  0.00000000E+00
  0.00000000E+00  0.00000000E+00  0.00000000E+00
  0.00000000E+00  0.00000000E+00  0.00000000E+00
  0.00000000E+00  0.00000000E+00  0.00000000E+00
  0.00000000E+00  0.00000000E+00  0.00000000E+00
  0.00000000E+00  0.00000000E+00  0.00000000E+00
  0.00000000E+00  0.00000000E+00  0.00000000E+00
  0.00000000E+00  0.00000000E+00  0.00000000E+00
  0.00000000E+00  0.00000000E+00  0.00000000E+00
  0.00000000E+00  0.00000000E+00  0.00000000E+00
  0.00000000E+00  0.00000000E+00  0.00000000E+00
  0.00000000E+00  0.00000000E+00  0.00000000E+00
  0.00000000E+00  0.00000000E+00  0.00000000E+00
  0.00000000E+00  0.00000000E+00  0.00000000E+00
  0.00000000E+00  0.00000000E+00  0.00000000E+00
  0.00000000E+00  0.00000000E+00  0.00000000E+00
  0.00000000E+00  0.00000000E+00  0.00000000E+00
