CONTCAR\(3)                             
   1.00000000000000     
    15.7967996596999996    0.0000000000000000    0.0000000000000000
    -7.8983998298999998   13.6804298037999992    0.0000000000000000
     0.0000000000000000    0.0000000000000000   18.1074008942000013
   Co   I    O    H 
    16    32     1     1
Selective dynamics
Direct
  0.9966274288115073  0.9981382532393184  0.4997806215634384   F   F   F
  0.2436442139703416  0.9941380887230977  0.5047731328378191   F   F   F
  0.4966861473639952  0.9983382104843912  0.4998924525593935   F   F   F
  0.7465941778600822  0.0011548947407718  0.4949667603816934   F   F   F
  0.9934073313522305  0.2465241046767588  0.4941976811636550   F   F   F
  0.2482091965234332  0.2498520535694837  0.4974052682870962   F   F   F
  0.4960480258496318  0.2491817857671279  0.4991001055516548   F   F   F
  0.7475126422552663  0.2449700883604322  0.4944220002996431   F   F   F
  0.9959948400623517  0.4971848720358309  0.4989221703480027   F   F   F
  0.2481354092083734  0.4982721488665263  0.4974170405350193   F   F   F
  0.4944325452918790  0.4975020318291357  0.4947141898660732   F   F   F
  0.7447297969361770  0.4965131049591989  0.4989411855786798   F   F   F
  0.0023455760145410  0.7514497623542837  0.5048169418530009   F   F   F
  0.2437951917470258  0.7496026286289421  0.5046469719826021   F   F   F
  0.4955824670942022  0.7463424346505931  0.4992349017100537   F   F   F
  0.7446744719589802  0.7469057460438293  0.4997086313419246   F   F   F
  0.0878175245374635  0.1678383146232818  0.4150162983783687   F   F   F
  0.1660484484013480  0.0890262177456549  0.5814596735457158   F   F   F
  0.3341346021479552  0.1726504750515900  0.4203966879114418   F   F   F
  0.4167985728345514  0.0886986240565761  0.5826324198579229   F   F   F
  0.5753923046020901  0.1675203031576018  0.4161322552526272   F   F   F
  0.6638703209167076  0.0818332134990030  0.5834283039602326   F   F   F
  0.8299550438550511  0.1641630610057092  0.4059273656450415   F   F   F
  0.9121969435471939  0.0819777511386093  0.5822391873222301   F   F   F
  0.0881607838945158  0.4199267670023801  0.4151341082176856   F   F   F
  0.1714737819368892  0.3357342518520099  0.5748008761254795   F   F   F
  0.3259814671326069  0.4130193860598155  0.4151816403935911   F   F   F
  0.4103914681572860  0.3285861493422217  0.5776655498850332   F   F   F
  0.5847845959497846  0.4141741648027804  0.4193039906936065   F   F   F
  0.6589528785435448  0.3347330303736697  0.5770770208898739   F   F   F
  0.8285620399527573  0.4172717238877013  0.4130745691892628   F   F   F
  0.9121926365745239  0.3296112889290939  0.5823360147186065   F   F   F
  0.0796884675787695  0.6663948197822123  0.4159385116591423   F   F   F
  0.1658598896053363  0.5768863218654872  0.5812817546577023   F   F   F
  0.3338206214143895  0.6613438140571617  0.4203945244038962   F   F   F
  0.4095010986447605  0.5815042695280397  0.5775054921094949   F   F   F
  0.5836651907348340  0.6697782232074232  0.4194175270545131   F   F   F
  0.6685957107630855  0.5836542299673155  0.5804587930740581   F   F   F
  0.8169461444499007  0.6579095597329783  0.4258287009697241   F   F   F
  0.9030425398683235  0.5744684592140885  0.5815914630786381   F   F   F
  0.0798785102251856  0.9134371253095566  0.4159790858591705   F   F   F
  0.1623306558624833  0.8310439220993331  0.5940178358725348   F   F   F
  0.3284325953382989  0.9142578434183903  0.4168441631191797   F   F   F
  0.4168387020174151  0.8279331930197031  0.5827826616999587   F   F   F
  0.5749238295411985  0.9070268015078327  0.4164399543636605   F   F   F
  0.6582707907838028  0.8234050709051530  0.5778051410070901   F   F   F
  0.8277419533257202  0.9093970448461022  0.4145398036166767   F   F   F
  0.9042873462681413  0.8283131235295116  0.5824453915820769   F   F   F
  0.5710829211964565  0.5410112418199446  0.6774966847234083   T   T   T
  0.6145999450976518  0.5624394777322905  0.7196581477407022   T   T   T
 
  0.00000000E+00  0.00000000E+00  0.00000000E+00
  0.00000000E+00  0.00000000E+00  0.00000000E+00
  0.00000000E+00  0.00000000E+00  0.00000000E+00
  0.00000000E+00  0.00000000E+00  0.00000000E+00
  0.00000000E+00  0.00000000E+00  0.00000000E+00
  0.00000000E+00  0.00000000E+00  0.00000000E+00
  0.00000000E+00  0.00000000E+00  0.00000000E+00
  0.00000000E+00  0.00000000E+00  0.00000000E+00
  0.00000000E+00  0.00000000E+00  0.00000000E+00
  0.00000000E+00  0.00000000E+00  0.00000000E+00
  0.00000000E+00  0.00000000E+00  0.00000000E+00
  0.00000000E+00  0.00000000E+00  0.00000000E+00
  0.00000000E+00  0.00000000E+00  0.00000000E+00
  0.00000000E+00  0.00000000E+00  0.00000000E+00
  0.00000000E+00  0.00000000E+00  0.00000000E+00
  0.00000000E+00  0.00000000E+00  0.00000000E+00
  0.00000000E+00  0.00000000E+00  0.00000000E+00
  0.00000000E+00  0.00000000E+00  0.00000000E+00
  0.00000000E+00  0.00000000E+00  0.00000000E+00
  0.00000000E+00  0.00000000E+00  0.00000000E+00
  0.00000000E+00  0.00000000E+00  0.00000000E+00
  0.00000000E+00  0.00000000E+00  0.00000000E+00
  0.00000000E+00  0.00000000E+00  0.00000000E+00
  0.00000000E+00  0.00000000E+00  0.00000000E+00
  0.00000000E+00  0.00000000E+00  0.00000000E+00
  0.00000000E+00  0.00000000E+00  0.00000000E+00
  0.00000000E+00  0.00000000E+00  0.00000000E+00
  0.00000000E+00  0.00000000E+00  0.00000000E+00
  0.00000000E+00  0.00000000E+00  0.00000000E+00
  0.00000000E+00  0.00000000E+00  0.00000000E+00
  0.00000000E+00  0.00000000E+00  0.00000000E+00
  0.00000000E+00  0.00000000E+00  0.00000000E+00
  0.00000000E+00  0.00000000E+00  0.00000000E+00
  0.00000000E+00  0.00000000E+00  0.00000000E+00
  0.00000000E+00  0.00000000E+00  0.00000000E+00
  0.00000000E+00  0.00000000E+00  0.00000000E+00
  0.00000000E+00  0.00000000E+00  0.00000000E+00
  0.00000000E+00  0.00000000E+00  0.00000000E+00
  0.00000000E+00  0.00000000E+00  0.00000000E+00
  0.00000000E+00  0.00000000E+00  0.00000000E+00
  0.00000000E+00  0.00000000E+00  0.00000000E+00
  0.00000000E+00  0.00000000E+00  0.00000000E+00
  0.00000000E+00  0.00000000E+00  0.00000000E+00
  0.00000000E+00  0.00000000E+00  0.00000000E+00
  0.00000000E+00  0.00000000E+00  0.00000000E+00
  0.00000000E+00  0.00000000E+00  0.00000000E+00
  0.00000000E+00  0.00000000E+00  0.00000000E+00
  0.00000000E+00  0.00000000E+00  0.00000000E+00
  0.00000000E+00  0.00000000E+00  0.00000000E+00
  0.00000000E+00  0.00000000E+00  0.00000000E+00
