CONTCAR\(2)                             
   1.00000000000000     
    12.9397001266000000    0.0000000000000000    0.0000000000000000
     0.0000000000000000   12.9407997131000005    0.0000000000000000
     0.0000000000000000    0.0000000000000000   24.2110004425000014
   Y    Te   O 
    18    54     1
Direct
  0.9996357048396203  0.1664380112074270  0.5845329625292565
  0.1674909041897459  0.0012279246404286  0.4146714944268027
  0.3336573880799366  0.1661625132176502  0.5861163738385390
  0.5009270239037524  0.0011874251758047  0.4150169717821221
  0.6676291146556096  0.1637476483027026  0.5841182162001037
  0.8338970979750414  0.0005563077187887  0.4143962571751628
  0.9996902039969854  0.5001909211835686  0.5860785791493170
  0.1675708980607954  0.3340885612650675  0.4158839859099948
  0.3318595696885031  0.4984150089076854  0.5883748474476698
  0.5004846996322870  0.3345722894000965  0.4161973565834053
  0.6700382139181131  0.4995475888919644  0.5843683073850594
  0.8345078768081440  0.3340784352393301  0.4145650358149006
  0.9970947034376709  0.8342095889142573  0.5841380337904561
  0.1679052718954178  0.6671857370366497  0.4161942720572711
  0.3329775306732344  0.8366244523642392  0.5843715641720357
  0.5006335066450135  0.6672799166615201  0.4168473190546191
  0.6651090521569527  0.8317535007290757  0.5857951760134873
  0.8345117706218415  0.6675912857433203  0.4151430201591715
  0.1681141045434502  0.1683315505919406  0.3123700181114674
  0.9939134409296353  0.0005011971922731  0.6871997971302829
  0.1649205323035386  0.1645933429532579  0.6881931526234983
  0.0013796118131684  0.0013718196126681  0.3116141267315694
  0.0002699821149165  0.1670117061907808  0.4534483294100306
  0.1663009917275772  0.0012217428166877  0.5459520468889035
  0.5011868114363797  0.1686741928559624  0.3125338223459380
  0.3325133164835121  0.0006482505722601  0.6891374157263376
  0.4992680889422800  0.1640629732133512  0.6884684222517137
  0.3351799483709590  0.0018104819474063  0.3121393355391533
  0.3340671299776107  0.1673722614305455  0.4544804565728510
  0.4999243523918792  0.0000081282942809  0.5464393183587094
  0.8347420929623894  0.1681429628269283  0.3114898351598041
  0.6638312880522883  0.9976164207390900  0.6881227491368920
  0.8341792508586848  0.1605519359963717  0.6873994991923804
  0.6678479575780600  0.0014709903584445  0.3117803202220975
  0.6671291271868034  0.1678666428656307  0.4533583883714243
  0.8320809871559722  0.9988770956483335  0.5454579350203469
  0.1684612435363674  0.5015211601711596  0.3133757133949075
  0.9979624684059679  0.3317107649256820  0.6881659740001417
  0.1637660802959245  0.4987182052998720  0.6914387900225172
  0.0019858881551125  0.3351191387262747  0.3124817655807969
  0.0006945924276607  0.5004873636540116  0.4544469690465034
  0.1670773705748471  0.3335909490503894  0.5476255807571584
  0.5011446260586838  0.5016362029092055  0.3137936379031795
  0.3315444819614839  0.3300923272670837  0.6914856935473914
  0.5039732884253124  0.4860529110409547  0.6975660589049338
  0.3346358322969968  0.3350222213014430  0.3132320028355176
  0.3337042262441636  0.5003144215112713  0.4560652074398047
  0.4998426634277454  0.3342665489493037  0.5484073993317884
  0.8351017830112265  0.5020052230613734  0.3121207882401110
  0.6703010452377837  0.3287127770803583  0.6840594529822355
  0.8340236517471016  0.4992910111327148  0.6889578169782969
  0.6679334018327304  0.3351511067723349  0.3125634961778893
  0.6681079066250489  0.5006376310855134  0.4540756937614423
  0.8344250705908889  0.3330900473816546  0.5458956602097825
  0.1682417805841115  0.8347870222447216  0.3125632770762969
  0.9974010784620450  0.6657471274025065  0.6885343006003569
  0.1620865849373420  0.8367794267931605  0.6842650686361349
  0.0017327151065943  0.6682466506678890  0.3126326412795944
  0.0014163950348839  0.8338787802997621  0.4535020561144338
  0.1677462401319036  0.6665057973971238  0.5483159898451573
  0.5016537018286467  0.8346717851771007  0.3128247251651278
  0.3196638811903063  0.6708089576711577  0.6975325657658628
  0.4944430448252898  0.8311317126055431  0.6888714015373993
  0.3349221804928260  0.6680509099321277  0.3136207331989368
  0.3341155825744034  0.8346067788014920  0.4541020090033518
  0.4983634764782445  0.6646309163694732  0.5490677840963916
  0.8346127180606381  0.8344590377024019  0.3120064781595277
  0.6640908475650487  0.6613705404675575  0.6886813331396953
  0.8308577952051260  0.8302928799603716  0.6881944923134048
  0.6677438120982011  0.6680459896736037  0.3130533244861235
  0.6669102630638771  0.8336823798506448  0.4543326588361178
  0.8335031059983384  0.6665012081442422  0.5466532767420264
  0.4226803214993132  0.5891510268127308  0.7431534236068131
 
  0.00000000E+00  0.00000000E+00  0.00000000E+00
  0.00000000E+00  0.00000000E+00  0.00000000E+00
  0.00000000E+00  0.00000000E+00  0.00000000E+00
  0.00000000E+00  0.00000000E+00  0.00000000E+00
  0.00000000E+00  0.00000000E+00  0.00000000E+00
  0.00000000E+00  0.00000000E+00  0.00000000E+00
  0.00000000E+00  0.00000000E+00  0.00000000E+00
  0.00000000E+00  0.00000000E+00  0.00000000E+00
  0.00000000E+00  0.00000000E+00  0.00000000E+00
  0.00000000E+00  0.00000000E+00  0.00000000E+00
  0.00000000E+00  0.00000000E+00  0.00000000E+00
  0.00000000E+00  0.00000000E+00  0.00000000E+00
  0.00000000E+00  0.00000000E+00  0.00000000E+00
  0.00000000E+00  0.00000000E+00  0.00000000E+00
  0.00000000E+00  0.00000000E+00  0.00000000E+00
  0.00000000E+00  0.00000000E+00  0.00000000E+00
  0.00000000E+00  0.00000000E+00  0.00000000E+00
  0.00000000E+00  0.00000000E+00  0.00000000E+00
  0.00000000E+00  0.00000000E+00  0.00000000E+00
  0.00000000E+00  0.00000000E+00  0.00000000E+00
  0.00000000E+00  0.00000000E+00  0.00000000E+00
  0.00000000E+00  0.00000000E+00  0.00000000E+00
  0.00000000E+00  0.00000000E+00  0.00000000E+00
  0.00000000E+00  0.00000000E+00  0.00000000E+00
  0.00000000E+00  0.00000000E+00  0.00000000E+00
  0.00000000E+00  0.00000000E+00  0.00000000E+00
  0.00000000E+00  0.00000000E+00  0.00000000E+00
  0.00000000E+00  0.00000000E+00  0.00000000E+00
  0.00000000E+00  0.00000000E+00  0.00000000E+00
  0.00000000E+00  0.00000000E+00  0.00000000E+00
  0.00000000E+00  0.00000000E+00  0.00000000E+00
  0.00000000E+00  0.00000000E+00  0.00000000E+00
  0.00000000E+00  0.00000000E+00  0.00000000E+00
  0.00000000E+00  0.00000000E+00  0.00000000E+00
  0.00000000E+00  0.00000000E+00  0.00000000E+00
  0.00000000E+00  0.00000000E+00  0.00000000E+00
  0.00000000E+00  0.00000000E+00  0.00000000E+00
  0.00000000E+00  0.00000000E+00  0.00000000E+00
  0.00000000E+00  0.00000000E+00  0.00000000E+00
  0.00000000E+00  0.00000000E+00  0.00000000E+00
  0.00000000E+00  0.00000000E+00  0.00000000E+00
  0.00000000E+00  0.00000000E+00  0.00000000E+00
  0.00000000E+00  0.00000000E+00  0.00000000E+00
  0.00000000E+00  0.00000000E+00  0.00000000E+00
  0.00000000E+00  0.00000000E+00  0.00000000E+00
  0.00000000E+00  0.00000000E+00  0.00000000E+00
  0.00000000E+00  0.00000000E+00  0.00000000E+00
  0.00000000E+00  0.00000000E+00  0.00000000E+00
  0.00000000E+00  0.00000000E+00  0.00000000E+00
  0.00000000E+00  0.00000000E+00  0.00000000E+00
  0.00000000E+00  0.00000000E+00  0.00000000E+00
  0.00000000E+00  0.00000000E+00  0.00000000E+00
  0.00000000E+00  0.00000000E+00  0.00000000E+00
  0.00000000E+00  0.00000000E+00  0.00000000E+00
  0.00000000E+00  0.00000000E+00  0.00000000E+00
  0.00000000E+00  0.00000000E+00  0.00000000E+00
  0.00000000E+00  0.00000000E+00  0.00000000E+00
  0.00000000E+00  0.00000000E+00  0.00000000E+00
  0.00000000E+00  0.00000000E+00  0.00000000E+00
  0.00000000E+00  0.00000000E+00  0.00000000E+00
  0.00000000E+00  0.00000000E+00  0.00000000E+00
  0.00000000E+00  0.00000000E+00  0.00000000E+00
  0.00000000E+00  0.00000000E+00  0.00000000E+00
  0.00000000E+00  0.00000000E+00  0.00000000E+00
  0.00000000E+00  0.00000000E+00  0.00000000E+00
  0.00000000E+00  0.00000000E+00  0.00000000E+00
  0.00000000E+00  0.00000000E+00  0.00000000E+00
  0.00000000E+00  0.00000000E+00  0.00000000E+00
  0.00000000E+00  0.00000000E+00  0.00000000E+00
  0.00000000E+00  0.00000000E+00  0.00000000E+00
  0.00000000E+00  0.00000000E+00  0.00000000E+00
  0.00000000E+00  0.00000000E+00  0.00000000E+00
  0.00000000E+00  0.00000000E+00  0.00000000E+00
