CONTCAR\(2)                             
   1.00000000000000     
    14.3102998734000000    0.0000000000000000    0.0000000000000000
     0.0000000000000000   14.3102998734000000    0.0000000000000000
     0.0000000000000000    0.0000000000000000   17.4472007751000007
   Fe   S    O    H 
    32    32     2     1
Direct
  0.1264097416451264  0.1263536531997360  0.5048436269365766
  0.0016155459031779  0.0015864302514643  0.5047218474524442
  0.3766878641120783  0.1265413542369984  0.5048583077938744
  0.2516215839274807  0.0016226297046984  0.5052457429460802
  0.6268193325551081  0.1263991039024717  0.5047054247916947
  0.5017850875906547  0.0016190033848105  0.5052023527610956
  0.8767199908233465  0.1264308182421843  0.5047114846338658
  0.7518499652776569  0.0016643149625395  0.5048905397908285
  0.1259005542104816  0.3762431563773916  0.5038745172286454
  0.0014207353030429  0.2513344141575473  0.5044514698638380
  0.3767250423393591  0.3751979713686566  0.5019304563986111
  0.2511609383155502  0.2512534580175796  0.5043522900979980
  0.6273183676915721  0.3763337775566455  0.5035951238719036
  0.5020988236688524  0.2513028265897930  0.5039066290593439
  0.8767613738986313  0.3764584446689199  0.5044842284010826
  0.7519228906691779  0.2514002283740666  0.5044812126121840
  0.1261255305282134  0.6268800391887694  0.5034044000604609
  0.0015493247456533  0.5017083658039994  0.5033925782651849
  0.3767600924460410  0.6279406945342103  0.5027044755225063
  0.2502032600760984  0.5015646909210076  0.5026386354252637
  0.6273269346816761  0.6270181271456750  0.5038504185343839
  0.5031766127353094  0.5014830436284186  0.5024740389886375
  0.8767284039519510  0.6268100655620117  0.5040729146226326
  0.7519136250872052  0.5016697256323681  0.5037274885269341
  0.1264781143259128  0.8767611187045929  0.5045937762992665
  0.0015230985184616  0.7517897002663290  0.5040497092786040
  0.3767041187413227  0.8766953593671261  0.5046973221847679
  0.2514479653669639  0.7520045176036234  0.5040577562173283
  0.6269187254793351  0.8769002086727511  0.5047757724892037
  0.5021772216540086  0.7521528579439902  0.5042251025691726
  0.8767557431190980  0.8767795936883473  0.5045677358767477
  0.7519537100012101  0.7518606928137217  0.5043339184569362
  0.0015761537330050  0.1263258051202527  0.4343340962730622
  0.1263815889322046  0.0014547439931860  0.5751945625161383
  0.2514851646443788  0.1259791855656829  0.4346854632155868
  0.3767378268173616  0.0015480706224622  0.5752823476440554
  0.5017769601541104  0.1258256287034811  0.4344609820627952
  0.6269680380952494  0.0016750900191553  0.5752515494407291
  0.7518161157585652  0.1263396237806731  0.4343988873147779
  0.8768143591504014  0.0015437698246572  0.5750711907312649
  0.0009908472791054  0.3760739957868466  0.4337305048057232
  0.1261927966469116  0.2515672071749506  0.5747446847938207
  0.2497161864713036  0.3748386322128709  0.4333134291964313
  0.3768446895049991  0.2520047800640413  0.5741474616177129
  0.5034784909802426  0.3749995692864232  0.4329024960280776
  0.6269229977158517  0.2516640162445469  0.5744785350127088
  0.7525306677031551  0.3761423215105282  0.4338193919234286
  0.8767295922970888  0.2515241231419836  0.5748877758594091
  0.0010918310360779  0.6270306999078770  0.4333642299624927
  0.1261127398670610  0.5017439229390419  0.5737053169770618
  0.2503865546349999  0.6281918697187976  0.4332363553688836
  0.3767883551694524  0.5012276874382593  0.5644861418649540
  0.5033466889092182  0.6283889311656594  0.4334376128664985
  0.6271155112704534  0.5015821352334555  0.5737992254480773
  0.7522202609213053  0.6270454829184757  0.4336934162512449
  0.8768582792062531  0.5018085878524232  0.5741202299608901
  0.0015748722134177  0.8769574324015252  0.4341263663971446
  0.1263355726514845  0.7514568174972283  0.5742992701772920
  0.2515619024890441  0.8773480662623214  0.4344735634898171
  0.3767523498945380  0.7515450914258253  0.5742645764707603
  0.5018736225064373  0.8773307492434270  0.4344771217413594
  0.6271917207852553  0.7517449701168246  0.5746123660195792
  0.7517779216183627  0.8770098945499072  0.4343740406206962
  0.8768877152713657  0.7515945139474667  0.5745863317061222
  0.3829060197010108  0.4987368724050683  0.6666983891025211
  0.3056947865747901  0.4455274541112146  0.6976290978759820
  0.3305904600058085  0.3813317893409689  0.6955221393048063
 
  0.00000000E+00  0.00000000E+00  0.00000000E+00
  0.00000000E+00  0.00000000E+00  0.00000000E+00
  0.00000000E+00  0.00000000E+00  0.00000000E+00
  0.00000000E+00  0.00000000E+00  0.00000000E+00
  0.00000000E+00  0.00000000E+00  0.00000000E+00
  0.00000000E+00  0.00000000E+00  0.00000000E+00
  0.00000000E+00  0.00000000E+00  0.00000000E+00
  0.00000000E+00  0.00000000E+00  0.00000000E+00
  0.00000000E+00  0.00000000E+00  0.00000000E+00
  0.00000000E+00  0.00000000E+00  0.00000000E+00
  0.00000000E+00  0.00000000E+00  0.00000000E+00
  0.00000000E+00  0.00000000E+00  0.00000000E+00
  0.00000000E+00  0.00000000E+00  0.00000000E+00
  0.00000000E+00  0.00000000E+00  0.00000000E+00
  0.00000000E+00  0.00000000E+00  0.00000000E+00
  0.00000000E+00  0.00000000E+00  0.00000000E+00
  0.00000000E+00  0.00000000E+00  0.00000000E+00
  0.00000000E+00  0.00000000E+00  0.00000000E+00
  0.00000000E+00  0.00000000E+00  0.00000000E+00
  0.00000000E+00  0.00000000E+00  0.00000000E+00
  0.00000000E+00  0.00000000E+00  0.00000000E+00
  0.00000000E+00  0.00000000E+00  0.00000000E+00
  0.00000000E+00  0.00000000E+00  0.00000000E+00
  0.00000000E+00  0.00000000E+00  0.00000000E+00
  0.00000000E+00  0.00000000E+00  0.00000000E+00
  0.00000000E+00  0.00000000E+00  0.00000000E+00
  0.00000000E+00  0.00000000E+00  0.00000000E+00
  0.00000000E+00  0.00000000E+00  0.00000000E+00
  0.00000000E+00  0.00000000E+00  0.00000000E+00
  0.00000000E+00  0.00000000E+00  0.00000000E+00
  0.00000000E+00  0.00000000E+00  0.00000000E+00
  0.00000000E+00  0.00000000E+00  0.00000000E+00
  0.00000000E+00  0.00000000E+00  0.00000000E+00
  0.00000000E+00  0.00000000E+00  0.00000000E+00
  0.00000000E+00  0.00000000E+00  0.00000000E+00
  0.00000000E+00  0.00000000E+00  0.00000000E+00
  0.00000000E+00  0.00000000E+00  0.00000000E+00
  0.00000000E+00  0.00000000E+00  0.00000000E+00
  0.00000000E+00  0.00000000E+00  0.00000000E+00
  0.00000000E+00  0.00000000E+00  0.00000000E+00
  0.00000000E+00  0.00000000E+00  0.00000000E+00
  0.00000000E+00  0.00000000E+00  0.00000000E+00
  0.00000000E+00  0.00000000E+00  0.00000000E+00
  0.00000000E+00  0.00000000E+00  0.00000000E+00
  0.00000000E+00  0.00000000E+00  0.00000000E+00
  0.00000000E+00  0.00000000E+00  0.00000000E+00
  0.00000000E+00  0.00000000E+00  0.00000000E+00
  0.00000000E+00  0.00000000E+00  0.00000000E+00
  0.00000000E+00  0.00000000E+00  0.00000000E+00
  0.00000000E+00  0.00000000E+00  0.00000000E+00
  0.00000000E+00  0.00000000E+00  0.00000000E+00
  0.00000000E+00  0.00000000E+00  0.00000000E+00
  0.00000000E+00  0.00000000E+00  0.00000000E+00
  0.00000000E+00  0.00000000E+00  0.00000000E+00
  0.00000000E+00  0.00000000E+00  0.00000000E+00
  0.00000000E+00  0.00000000E+00  0.00000000E+00
  0.00000000E+00  0.00000000E+00  0.00000000E+00
  0.00000000E+00  0.00000000E+00  0.00000000E+00
  0.00000000E+00  0.00000000E+00  0.00000000E+00
  0.00000000E+00  0.00000000E+00  0.00000000E+00
  0.00000000E+00  0.00000000E+00  0.00000000E+00
  0.00000000E+00  0.00000000E+00  0.00000000E+00
  0.00000000E+00  0.00000000E+00  0.00000000E+00
  0.00000000E+00  0.00000000E+00  0.00000000E+00
  0.00000000E+00  0.00000000E+00  0.00000000E+00
  0.00000000E+00  0.00000000E+00  0.00000000E+00
  0.00000000E+00  0.00000000E+00  0.00000000E+00
