CONTCAR\(9)                             
   1.00000000000000     
    11.2744998931999998    0.0000000000000000    0.0000000000000000
     0.0000000000000000   12.4884996414000007    0.0000000000000000
     0.0000000000000000    0.0000000000000000   19.0002002716000007
   Nb   Te   Ir
     6    24     6
Direct
  0.0000000000000000  0.0514097053681795  0.5044035850730992
  0.1666699940000029  0.7330149279399762  0.4949682859275129
  0.3333300059999971  0.0514097053681795  0.5044035850730992
  0.5000000000000000  0.7330149279399762  0.4949682859275129
  0.6666700359999993  0.0514097053681795  0.5044035850730992
  0.8333300059999971  0.7330149279399762  0.4949682859275129
  0.1666699940000029  0.9357750914329444  0.4192478084704447
  0.0000000000000000  0.1950440142716516  0.4003095857309305
  0.0000000000000000  0.3484680502665896  0.5711953794525542
  0.1666699940000029  0.5883493208145225  0.5983877368397259
  0.1666699940000029  0.4357654223729668  0.4271721406376798
  0.0000000000000000  0.6773505306025172  0.3934759821237606
  0.0000000000000000  0.8485088928157154  0.5803057362773103
  0.1666699940000029  0.1079454369927149  0.6057114707123503
  0.5000000000000000  0.9357750914329444  0.4192478084704447
  0.3333300059999971  0.1950440142716516  0.4003095857309305
  0.3333300059999971  0.3484680502665896  0.5711953794525542
  0.5000000000000000  0.5883493208145225  0.5983877368397259
  0.5000000000000000  0.4357654223729668  0.4271721406376798
  0.3333300059999971  0.6773505306025172  0.3934759821237606
  0.3333300059999971  0.8485088928157154  0.5803057362773103
  0.5000000000000000  0.1079454369927149  0.6057114707123503
  0.8333300059999971  0.9357750914329444  0.4192478084704447
  0.6666700359999993  0.1950440142716516  0.4003095857309305
  0.6666700359999993  0.3484680502665896  0.5711953794525542
  0.8333300059999971  0.5883493208145225  0.5983877368397259
  0.8333300059999971  0.4357654223729668  0.4271721406376798
  0.6666700359999993  0.6773505306025172  0.3934759821237606
  0.6666700359999993  0.8485088928157154  0.5803057362773103
  0.8333300059999971  0.1079454369927149  0.6057114707123503
  0.0000000000000000  0.5371099901594434  0.5012382782544620
  0.1666699940000029  0.2470687389627741  0.4972540635001863
  0.3333300059999971  0.5371099901594434  0.5012382782544620
  0.5000000000000000  0.2470687389627741  0.4972540635001863
  0.6666700359999993  0.5371099901594434  0.5012382782544620
  0.8333300059999971  0.2470687389627741  0.4972540635001863
 
  0.00000000E+00  0.00000000E+00  0.00000000E+00
  0.00000000E+00  0.00000000E+00  0.00000000E+00
  0.00000000E+00  0.00000000E+00  0.00000000E+00
  0.00000000E+00  0.00000000E+00  0.00000000E+00
  0.00000000E+00  0.00000000E+00  0.00000000E+00
  0.00000000E+00  0.00000000E+00  0.00000000E+00
  0.00000000E+00  0.00000000E+00  0.00000000E+00
  0.00000000E+00  0.00000000E+00  0.00000000E+00
  0.00000000E+00  0.00000000E+00  0.00000000E+00
  0.00000000E+00  0.00000000E+00  0.00000000E+00
  0.00000000E+00  0.00000000E+00  0.00000000E+00
  0.00000000E+00  0.00000000E+00  0.00000000E+00
  0.00000000E+00  0.00000000E+00  0.00000000E+00
  0.00000000E+00  0.00000000E+00  0.00000000E+00
  0.00000000E+00  0.00000000E+00  0.00000000E+00
  0.00000000E+00  0.00000000E+00  0.00000000E+00
  0.00000000E+00  0.00000000E+00  0.00000000E+00
  0.00000000E+00  0.00000000E+00  0.00000000E+00
  0.00000000E+00  0.00000000E+00  0.00000000E+00
  0.00000000E+00  0.00000000E+00  0.00000000E+00
  0.00000000E+00  0.00000000E+00  0.00000000E+00
  0.00000000E+00  0.00000000E+00  0.00000000E+00
  0.00000000E+00  0.00000000E+00  0.00000000E+00
  0.00000000E+00  0.00000000E+00  0.00000000E+00
  0.00000000E+00  0.00000000E+00  0.00000000E+00
  0.00000000E+00  0.00000000E+00  0.00000000E+00
  0.00000000E+00  0.00000000E+00  0.00000000E+00
  0.00000000E+00  0.00000000E+00  0.00000000E+00
  0.00000000E+00  0.00000000E+00  0.00000000E+00
  0.00000000E+00  0.00000000E+00  0.00000000E+00
  0.00000000E+00  0.00000000E+00  0.00000000E+00
  0.00000000E+00  0.00000000E+00  0.00000000E+00
  0.00000000E+00  0.00000000E+00  0.00000000E+00
  0.00000000E+00  0.00000000E+00  0.00000000E+00
  0.00000000E+00  0.00000000E+00  0.00000000E+00
  0.00000000E+00  0.00000000E+00  0.00000000E+00
