CONTCAR\(5)                             
   1.00000000000000     
    15.0899000167999997    0.0000000000000000    0.0000000000000000
     0.0000000000000000   15.0899000167999997    0.0000000000000000
     0.0000000000000000    0.0000000000000000   20.7000007629000002
   Eu   Br   O 
    32    32    33
Direct
 -0.0018624442403164  0.1264117571348630  0.4362480329682472
  0.1242544923178107  0.0043689099033217  0.5686847516281591
  0.2504260709869978  0.1207928665505538  0.4298677314438982
  0.3723411606230375  0.0015521121568988  0.5699487981508162
  0.4995592208171035  0.1304079366326765  0.4277982621611356
  0.6303269307766569 -0.0046220663172415  0.5672958253026255
  0.7478665063272337  0.1255735252616593  0.4268959551995299
  0.8757367074961215  0.0027255777322868  0.5728717959849232
  0.0005433374131254  0.3751616237098169  0.4264314165181402
  0.1213921217332755  0.2567206076408970  0.5692592873280989
  0.2483413705095077  0.3729243413399765  0.4305720156875354
  0.3670613237400027  0.2490614895513616  0.5625526437759021
  0.4992929174784870  0.3807501073548272  0.4283410825917027
  0.6299667338488775  0.2449874719236009  0.5622671015732094
  0.7516078659886115  0.3761132352295234  0.4343999273806959
  0.8748994337423203  0.2512655906471686  0.5741622527607504
 -0.0030944233410077  0.6225456003309447  0.4339500753945629
  0.1241672560083762  0.5067602879548271  0.5730450910812375
  0.2478790025039145  0.6250144531561072  0.4329431481961452
  0.3711558517870409  0.5007857601583748  0.5633893635230759
  0.4980206787518942  0.6289918690560027  0.4224736561997692
  0.6268831658194574  0.4970333684914041  0.5654062643204398
  0.7455568030666163  0.6291764089782665  0.4308764262441873
  0.8744837290075878  0.5001318608437207  0.5710375363963009
  0.0007282197268888  0.8733626225426100  0.4328683253777149
  0.1216304969213921  0.7551172171651978  0.5759983510523849
  0.2476421278000402  0.8733718672494872  0.4254113175995773
  0.3658423837089432  0.7581724822352643  0.5653143976770337
  0.4980968899641287  0.8786235776124053  0.4367216288832044
  0.6243865920254791  0.7514794687064217  0.5672111443039439
  0.7505774336894443  0.8784719629781588  0.4286462582463023
  0.8725021849528618  0.7512385031604055  0.5672365518648458
  0.0007856327231746  0.1281699025189771  0.6485048368259105
  0.1214224854306954  0.0001298401145362  0.3529829876506773
  0.2499772859276672  0.1276032453862767  0.6471466674279978
  0.3766821004278169 -0.0001604805431228  0.3503691334846227
  0.4991756522463245  0.1553647007940722  0.6704407450134073
  0.6218171779727741 -0.0001319062895703  0.3510919764157894
  0.7453213096201223  0.1229772391895834  0.6492127816643924
  0.8771364238068650  0.0023790398214047  0.3519529614443471
  0.0000630089576246  0.3793147470357061  0.6515305720370905
  0.1233393744540664  0.2480819202043982  0.3513820391492539
  0.2533628826460373  0.3770930734333414  0.6457922723689419
  0.3731477663200618  0.2509823243992526  0.3507454081736341
  0.4987598922562644  0.3238657645535695  0.6676058805987839
  0.6258085581726566  0.2542229559219461  0.3513348877270439
  0.7443022894940188  0.3741857479353514  0.6461506783797000
  0.8750827523881124  0.2502516087024718  0.3506274949813570
 -0.0047872916319683  0.6276086555193978  0.6493372030697421
  0.1243082901727947  0.5024660486027100  0.3512954472315733
  0.2582876039053665  0.6293705969273093  0.6472020845690826
  0.3710093068927974  0.5014185793056972  0.3510523629475695
  0.4988625160608746  0.5492038133405018  0.7029533023015605
  0.6266043463786901  0.5018133645171811  0.3506510670584828
  0.7403209778542819  0.6262999638383578  0.6466701023563017
  0.8729943740994606  0.5007320748614722  0.3521750055290188
 -0.0021387659506258  0.8781830291997774  0.6501084045856123
  0.1217700946396352  0.7464210090149591  0.3514817008443072
  0.2474733661350036  0.8809455265788568  0.6511252675036791
  0.3727995956653067  0.7526183877256397  0.3509963115715324
  0.4985101858189890  0.8746612270275445  0.6459874168394951
  0.6225898818488808  0.7556266098578877  0.3504699302096483
  0.7506999505044402  0.8739984466613598  0.6492060622808213
  0.8752792844196970  0.7499598729213461  0.3536988148101549
  0.1282459013115998  0.1318049957660774  0.5009451638187675
 -0.0023544399043890 -0.0030886700794565  0.5019170427056681
  0.3780742641472434  0.1218069371744985  0.4985575622544369
  0.2498559054512710 -0.0074732509444527  0.4992990660725773
  0.6223228761618755  0.1175489012691728  0.4975602433426373
  0.5008894077552668  0.0122912684106472  0.5035583463399509
  0.8666818240009305  0.1282034656490840  0.5019775705205083
  0.7559055575695969  0.0037763913976767  0.4989416754280047
  0.1221383020927390  0.3865414257978708  0.5002046723175317
 -0.0050526320080257  0.2564623980905573  0.5010555737570001
  0.3761434591237615  0.3746900046046499  0.4979472418119090
  0.2410146120529771  0.2446844944960840  0.4971135979940454
  0.6207433274852570  0.3722447011211232  0.4992632763734590
  0.4986987844253587  0.2580214545789115  0.4995455723028695
  0.8821328426322520  0.3734403746560297  0.5015495456816140
  0.7582388920432465  0.2463348819779435  0.4987269228900180
  0.1228220371559129  0.6349142004905022  0.5032267264111755
  0.0009277952297525  0.4934239323138193  0.5015829189128890
  0.3813815607092852  0.6302178579540153  0.4993549005164703
  0.2429327435419577  0.4971571282594170  0.4991146996096327
  0.6148674953469385  0.6241199679852648  0.4995794249035110
  0.5003652217476446  0.5111920588841131  0.4976436055132394
  0.8686457074106229  0.6229062864609491  0.5007384953324311
  0.7529805526941253  0.5059049831355235  0.4993568489271061
  0.1286931526107612  0.8765851182745698  0.5011861924625776
  0.0021772732557344  0.7471476750379362  0.5023508676713451
  0.3664091665557653  0.8819881032009820  0.4989016350480010
  0.2385456638663481  0.7523237738894599  0.4995185392919372
  0.6285273027008270  0.8724377154191907  0.4991579072209996
  0.4949748169796185  0.7435796052213736  0.5016038989595040
  0.8747045698808141  0.8812886713724767  0.5007613544640976
  0.7465627133359064  0.7561845793239087  0.4988076473252707
  0.4972929940272085  0.4607893466601113  0.6411622129512490
 
  0.00000000E+00  0.00000000E+00  0.00000000E+00
  0.00000000E+00  0.00000000E+00  0.00000000E+00
  0.00000000E+00  0.00000000E+00  0.00000000E+00
  0.00000000E+00  0.00000000E+00  0.00000000E+00
  0.00000000E+00  0.00000000E+00  0.00000000E+00
  0.00000000E+00  0.00000000E+00  0.00000000E+00
  0.00000000E+00  0.00000000E+00  0.00000000E+00
  0.00000000E+00  0.00000000E+00  0.00000000E+00
  0.00000000E+00  0.00000000E+00  0.00000000E+00
  0.00000000E+00  0.00000000E+00  0.00000000E+00
  0.00000000E+00  0.00000000E+00  0.00000000E+00
  0.00000000E+00  0.00000000E+00  0.00000000E+00
  0.00000000E+00  0.00000000E+00  0.00000000E+00
  0.00000000E+00  0.00000000E+00  0.00000000E+00
  0.00000000E+00  0.00000000E+00  0.00000000E+00
  0.00000000E+00  0.00000000E+00  0.00000000E+00
  0.00000000E+00  0.00000000E+00  0.00000000E+00
  0.00000000E+00  0.00000000E+00  0.00000000E+00
  0.00000000E+00  0.00000000E+00  0.00000000E+00
  0.00000000E+00  0.00000000E+00  0.00000000E+00
  0.00000000E+00  0.00000000E+00  0.00000000E+00
  0.00000000E+00  0.00000000E+00  0.00000000E+00
  0.00000000E+00  0.00000000E+00  0.00000000E+00
  0.00000000E+00  0.00000000E+00  0.00000000E+00
  0.00000000E+00  0.00000000E+00  0.00000000E+00
  0.00000000E+00  0.00000000E+00  0.00000000E+00
  0.00000000E+00  0.00000000E+00  0.00000000E+00
  0.00000000E+00  0.00000000E+00  0.00000000E+00
  0.00000000E+00  0.00000000E+00  0.00000000E+00
  0.00000000E+00  0.00000000E+00  0.00000000E+00
  0.00000000E+00  0.00000000E+00  0.00000000E+00
  0.00000000E+00  0.00000000E+00  0.00000000E+00
  0.00000000E+00  0.00000000E+00  0.00000000E+00
  0.00000000E+00  0.00000000E+00  0.00000000E+00
  0.00000000E+00  0.00000000E+00  0.00000000E+00
  0.00000000E+00  0.00000000E+00  0.00000000E+00
  0.00000000E+00  0.00000000E+00  0.00000000E+00
  0.00000000E+00  0.00000000E+00  0.00000000E+00
  0.00000000E+00  0.00000000E+00  0.00000000E+00
  0.00000000E+00  0.00000000E+00  0.00000000E+00
  0.00000000E+00  0.00000000E+00  0.00000000E+00
  0.00000000E+00  0.00000000E+00  0.00000000E+00
  0.00000000E+00  0.00000000E+00  0.00000000E+00
  0.00000000E+00  0.00000000E+00  0.00000000E+00
  0.00000000E+00  0.00000000E+00  0.00000000E+00
  0.00000000E+00  0.00000000E+00  0.00000000E+00
  0.00000000E+00  0.00000000E+00  0.00000000E+00
  0.00000000E+00  0.00000000E+00  0.00000000E+00
  0.00000000E+00  0.00000000E+00  0.00000000E+00
  0.00000000E+00  0.00000000E+00  0.00000000E+00
  0.00000000E+00  0.00000000E+00  0.00000000E+00
  0.00000000E+00  0.00000000E+00  0.00000000E+00
  0.00000000E+00  0.00000000E+00  0.00000000E+00
  0.00000000E+00  0.00000000E+00  0.00000000E+00
  0.00000000E+00  0.00000000E+00  0.00000000E+00
  0.00000000E+00  0.00000000E+00  0.00000000E+00
  0.00000000E+00  0.00000000E+00  0.00000000E+00
  0.00000000E+00  0.00000000E+00  0.00000000E+00
  0.00000000E+00  0.00000000E+00  0.00000000E+00
  0.00000000E+00  0.00000000E+00  0.00000000E+00
  0.00000000E+00  0.00000000E+00  0.00000000E+00
  0.00000000E+00  0.00000000E+00  0.00000000E+00
  0.00000000E+00  0.00000000E+00  0.00000000E+00
  0.00000000E+00  0.00000000E+00  0.00000000E+00
  0.00000000E+00  0.00000000E+00  0.00000000E+00
  0.00000000E+00  0.00000000E+00  0.00000000E+00
  0.00000000E+00  0.00000000E+00  0.00000000E+00
  0.00000000E+00  0.00000000E+00  0.00000000E+00
  0.00000000E+00  0.00000000E+00  0.00000000E+00
  0.00000000E+00  0.00000000E+00  0.00000000E+00
  0.00000000E+00  0.00000000E+00  0.00000000E+00
  0.00000000E+00  0.00000000E+00  0.00000000E+00
  0.00000000E+00  0.00000000E+00  0.00000000E+00
  0.00000000E+00  0.00000000E+00  0.00000000E+00
  0.00000000E+00  0.00000000E+00  0.00000000E+00
  0.00000000E+00  0.00000000E+00  0.00000000E+00
  0.00000000E+00  0.00000000E+00  0.00000000E+00
  0.00000000E+00  0.00000000E+00  0.00000000E+00
  0.00000000E+00  0.00000000E+00  0.00000000E+00
  0.00000000E+00  0.00000000E+00  0.00000000E+00
  0.00000000E+00  0.00000000E+00  0.00000000E+00
  0.00000000E+00  0.00000000E+00  0.00000000E+00
  0.00000000E+00  0.00000000E+00  0.00000000E+00
  0.00000000E+00  0.00000000E+00  0.00000000E+00
  0.00000000E+00  0.00000000E+00  0.00000000E+00
  0.00000000E+00  0.00000000E+00  0.00000000E+00
  0.00000000E+00  0.00000000E+00  0.00000000E+00
  0.00000000E+00  0.00000000E+00  0.00000000E+00
  0.00000000E+00  0.00000000E+00  0.00000000E+00
  0.00000000E+00  0.00000000E+00  0.00000000E+00
  0.00000000E+00  0.00000000E+00  0.00000000E+00
  0.00000000E+00  0.00000000E+00  0.00000000E+00
  0.00000000E+00  0.00000000E+00  0.00000000E+00
  0.00000000E+00  0.00000000E+00  0.00000000E+00
  0.00000000E+00  0.00000000E+00  0.00000000E+00
  0.00000000E+00  0.00000000E+00  0.00000000E+00
  0.00000000E+00  0.00000000E+00  0.00000000E+00
