CONTCAR\(13)                            
   1.00000000000000     
    10.9738998412999997    0.0000000000000000    0.0000000000000000
     0.0000000000000000   10.9738998412999997    0.0000000000000000
     0.0000000000000000    0.0000000000000000   19.0231990814000014
   Li   Co   As   O 
    18    18    18     1
Direct
  0.1683693085404876  0.0006552712853728  0.6059891936599866
  0.9995217992200240  0.1692116358476452  0.3957702005692943
  0.4982681758310707  0.0006965951100591  0.6059106865300294
  0.3332332376413834  0.1701764647693900  0.3954758291125671
  0.8332792919579256  0.0021315637465190  0.6085652400849572
  0.6672132744994158  0.1690691943987278  0.3956632059375500
  0.1683793322092070  0.3377014733649960  0.6066491500740449
  0.9980478740014993  0.5016468036663839  0.3953522751221934
  0.4983915628780823  0.3377696321121375  0.6067412688102772
  0.3330954631272280  0.4992332050786563  0.3926833720375356
  0.8331928484314731  0.3364914446098826  0.6074804619681576
  0.6687919017116746  0.5017852781706712  0.3952845703035709
  0.1896363832695918  0.6584621126566922  0.6277514622433894
  0.9972190271839323  0.8361510198418045  0.3950667128707056
  0.4777722168411554  0.6586338955171414  0.6274399859998406
  0.3332445098720479  0.8385639422516215  0.3930799666916462
  0.8331935801132043  0.6685277037765772  0.6069387595984463
  0.6694777383775825  0.8362777740032571  0.3950111185200894
  0.1662923962903851  0.1683266632633329  0.5019635850657352
 -0.0002109468737437  0.0018184096401642  0.5020652871971615
  0.5003323982457452  0.1684491538485992  0.5018371495914455
  0.3332927175629377  0.0031579199408160  0.4996422021749413
  0.8333042601084851  0.1686121633610385  0.5016330034969081
  0.6668732118370997  0.0017965293584715  0.5020974748517573
  0.1642269106594968  0.5036181783049762  0.4981670557196403
 -0.0000046425154650  0.3353693039567828  0.5016950097564228
  0.5021997461709268  0.5036059110421337  0.4975837679883468
  0.3335864656370156  0.3337244639952773  0.5016302586021044
  0.8333900828857481  0.5018410990740231  0.5029634976310832
  0.6664625437991737  0.3352932878326213  0.5014500854081095
  0.1646555127565004  0.8345516266567439  0.4993438463323886
  0.0009796877955501  0.6695554538241911  0.5025784373830595
  0.5019354001170934  0.8345666590183275  0.4993462723759023
  0.3333274452692409  0.6716173170891442  0.4916872444709233
  0.8333233422772827  0.8366128995292108  0.5036602322322367
  0.6655537850956921  0.6696125282407408  0.5024421149584580
 -0.0000488825799414  0.1688990727798644  0.5786179856846194
  0.1651299365470592  0.0025194521619819  0.4242413841557729
  0.3333894121132045  0.1677212008161506  0.5785766222895081
  0.5014688899242270  0.0025370253481055  0.4242562031720932
  0.6665642754130918  0.1689323969086109  0.5785432401412884
  0.8333274520119364  0.0020810019382548  0.4256769896420556
  0.0023086557521340  0.5030571070709488  0.5783854480448333
  0.1662247149458159  0.3336752801581782  0.4238258725202804
  0.3334725442791044  0.5082071262620798  0.5656234995280198
  0.5005254325190048  0.3336400421572224  0.4233361511368467
  0.6641276626962855  0.5030091692433901  0.5779328083994019
  0.8333365862309492  0.3356635492219640  0.4254190954696188
  0.0023179158108234  0.8344646912787446  0.5793043010510890
  0.1620118392638025  0.6698382218240955  0.4197890034483146
  0.3333175899806451  0.8339235507433042  0.5722438699263782
  0.5045066432988397  0.6700573900290717  0.4195675475612809
  0.6642712564743766  0.8344008004964969  0.5792805564274977
  0.8333559216198243  0.6694731726729934  0.4274344109654947
  0.3338139388726289  0.5610047707043765  0.6555552670647214
 
  0.00000000E+00  0.00000000E+00  0.00000000E+00
  0.00000000E+00  0.00000000E+00  0.00000000E+00
  0.00000000E+00  0.00000000E+00  0.00000000E+00
  0.00000000E+00  0.00000000E+00  0.00000000E+00
  0.00000000E+00  0.00000000E+00  0.00000000E+00
  0.00000000E+00  0.00000000E+00  0.00000000E+00
  0.00000000E+00  0.00000000E+00  0.00000000E+00
  0.00000000E+00  0.00000000E+00  0.00000000E+00
  0.00000000E+00  0.00000000E+00  0.00000000E+00
  0.00000000E+00  0.00000000E+00  0.00000000E+00
  0.00000000E+00  0.00000000E+00  0.00000000E+00
  0.00000000E+00  0.00000000E+00  0.00000000E+00
  0.00000000E+00  0.00000000E+00  0.00000000E+00
  0.00000000E+00  0.00000000E+00  0.00000000E+00
  0.00000000E+00  0.00000000E+00  0.00000000E+00
  0.00000000E+00  0.00000000E+00  0.00000000E+00
  0.00000000E+00  0.00000000E+00  0.00000000E+00
  0.00000000E+00  0.00000000E+00  0.00000000E+00
  0.00000000E+00  0.00000000E+00  0.00000000E+00
  0.00000000E+00  0.00000000E+00  0.00000000E+00
  0.00000000E+00  0.00000000E+00  0.00000000E+00
  0.00000000E+00  0.00000000E+00  0.00000000E+00
  0.00000000E+00  0.00000000E+00  0.00000000E+00
  0.00000000E+00  0.00000000E+00  0.00000000E+00
  0.00000000E+00  0.00000000E+00  0.00000000E+00
  0.00000000E+00  0.00000000E+00  0.00000000E+00
  0.00000000E+00  0.00000000E+00  0.00000000E+00
  0.00000000E+00  0.00000000E+00  0.00000000E+00
  0.00000000E+00  0.00000000E+00  0.00000000E+00
  0.00000000E+00  0.00000000E+00  0.00000000E+00
  0.00000000E+00  0.00000000E+00  0.00000000E+00
  0.00000000E+00  0.00000000E+00  0.00000000E+00
  0.00000000E+00  0.00000000E+00  0.00000000E+00
  0.00000000E+00  0.00000000E+00  0.00000000E+00
  0.00000000E+00  0.00000000E+00  0.00000000E+00
  0.00000000E+00  0.00000000E+00  0.00000000E+00
  0.00000000E+00  0.00000000E+00  0.00000000E+00
  0.00000000E+00  0.00000000E+00  0.00000000E+00
  0.00000000E+00  0.00000000E+00  0.00000000E+00
  0.00000000E+00  0.00000000E+00  0.00000000E+00
  0.00000000E+00  0.00000000E+00  0.00000000E+00
  0.00000000E+00  0.00000000E+00  0.00000000E+00
  0.00000000E+00  0.00000000E+00  0.00000000E+00
  0.00000000E+00  0.00000000E+00  0.00000000E+00
  0.00000000E+00  0.00000000E+00  0.00000000E+00
  0.00000000E+00  0.00000000E+00  0.00000000E+00
  0.00000000E+00  0.00000000E+00  0.00000000E+00
  0.00000000E+00  0.00000000E+00  0.00000000E+00
  0.00000000E+00  0.00000000E+00  0.00000000E+00
  0.00000000E+00  0.00000000E+00  0.00000000E+00
  0.00000000E+00  0.00000000E+00  0.00000000E+00
  0.00000000E+00  0.00000000E+00  0.00000000E+00
  0.00000000E+00  0.00000000E+00  0.00000000E+00
  0.00000000E+00  0.00000000E+00  0.00000000E+00
  0.00000000E+00  0.00000000E+00  0.00000000E+00
