Cu1 Mo1 F6                              
   1.00000000000000     
     5.0378152039672059    0.0467108426060621    0.0549469201418393
     2.4226923462482239    4.4844551726118551   -0.0223877041980456
     2.3750877346358568    1.6459030928650975    4.7185836886830828
   Cu   Mo   F 
     1     1     6
Direct
  0.0000000000000000 -0.0000000000000000 -0.0000000000000000
  0.5000000009999965  0.4999999790000018  0.5000000209999982
  0.2570321508343125  0.8844271867949696  0.2588015512058307
  0.7429678611656887  0.1155727002050316  0.7411985407941697
  0.4146741252587393  0.7272433649729766  0.7371105800264663
  0.5853258827412614  0.2727566020270171  0.2628894359735349
  0.8773069900447743  0.6030159151482098  0.2615149862185289
  0.1226929939552243  0.3969841038517953  0.7384850297814726
 
  0.00000000E+00  0.00000000E+00  0.00000000E+00
  0.00000000E+00  0.00000000E+00  0.00000000E+00
  0.00000000E+00  0.00000000E+00  0.00000000E+00
  0.00000000E+00  0.00000000E+00  0.00000000E+00
  0.00000000E+00  0.00000000E+00  0.00000000E+00
  0.00000000E+00  0.00000000E+00  0.00000000E+00
  0.00000000E+00  0.00000000E+00  0.00000000E+00
  0.00000000E+00  0.00000000E+00  0.00000000E+00
