CONTCAR\(2)                             
   1.00000000000000     
    21.4713001251000009    0.0000000000000000    0.0000000000000000
    10.7356067371999995   19.1142855119999986    0.0000000000000000
     0.0000000000000000    0.0000000000000000   19.1464004516999999
   Ta   Te   O 
    36    72     1
Direct
  0.4034231093012167  0.3572134651944138  0.5016903409483571
  0.2586791698369273  0.1456649041754175  0.5000414427138116
  0.0958652599349772  0.1451675096003131  0.5001858257664591
  0.2405060495219711  0.3572362444755424  0.5015113085919175
  0.4277050293028519  0.1457892963380010  0.4984840972517487
  0.0716562543764804  0.3565621772403989  0.5032605448033859
  0.0983540894277884  0.0007559491479057  0.5011017250779035
  0.4005915249439072  0.0012222874621509  0.5009952904957262
  0.2499268168578403  0.0009873592503820  0.5011114207575246
  0.9025173467596814  0.3569924137118243  0.5015852593642243
  0.7590504610650880  0.1440258497410377  0.5007656023878876
  0.5968839434565317  0.1445354508169234  0.5007080764054992
  0.7400258536269517  0.3569142242934503  0.5018402977136138
  0.9267004346392396  0.1450584891821144  0.4986992991862282
  0.5725783891328472  0.3563711500304414  0.5040502541017088
  0.5978496076126867  0.0010590784403555  0.5012971056833975
  0.9009435814631915  0.0007799675931100  0.5013153920827178
  0.7494830884096370  0.0008880399028611  0.5011249326306516
  0.4000439127466978  0.8615248137392280  0.5028354876125021
  0.2600214925331789  0.6443594692573427  0.4981847916954196
  0.0968993009899179  0.6449167655245902  0.5003648406829309
  0.2413937952369171  0.8574539913645584  0.5021326475593219
  0.4267327065561231  0.6408137031135209  0.4900097461506902
  0.0729237340668181  0.8566565626247473  0.5034430687981404
  0.0982190118446047  0.5010973724726788  0.5009697711945994
  0.4014876832974223  0.5018796983345685  0.4991551845486012
  0.2496063969191110  0.5012818433648629  0.5002856862010454
  0.9032003075427328  0.8565678488597057  0.5016112982216580
  0.7583810099922733  0.6440520686859176  0.4987977512354639
  0.5995403896340530  0.6418014515730746  0.4935015055040999
  0.7393543875397220  0.8570440330508977  0.5015847745088636
  0.9270492493431167  0.6455170366177863  0.4986682876062971
  0.5687224236675114  0.8576811321950008  0.5049180587709066
  0.5978340233495596  0.5005531124637866  0.4984826070815346
  0.9007774895402284  0.5009027393496691  0.5004827722257120
  0.7491506602430004  0.5012082667706448  0.4992391488411900
  0.4712024914587121  0.2251855457497524  0.5809253766951501
  0.1947760293730796  0.2776874663265969  0.4205436499805931
  0.0277674775040865  0.2772262824338476  0.4207073999195901
  0.3042021242109507  0.2254659015185893  0.5806982405540783
  0.3621605750916205  0.2767702739779154  0.4188890349269260
  0.1369087223024995  0.2260324960723642  0.5826616186435181
  0.3568678021342622  0.4469585805047512  0.3921704679892056
  0.3027292102743708  0.0558009268562113  0.6092983901572324
  0.1419336510892933  0.0547549725554903  0.6091658113287136
  0.1947996036458367  0.1104400068593506  0.3949131611640824
  0.3041348904762657  0.3926899073264758  0.6069669065321412
  0.3606293837577765  0.1093999984817243  0.3965681793190650
  0.4679971371646679  0.3951450198719855  0.6049947300951476
  0.1386128648039986  0.3931981157660938  0.6052233511706629
  0.0303613857753052  0.1088722732577338  0.3967582383420897
  0.0228826867819925  0.4546204000298971  0.4051384254768379
  0.4759596774580610  0.0482407090027669  0.5969283372768596
  0.1953026867923001  0.4479405252764250  0.3924709428871651
  0.9706350511392627  0.2250070421231109  0.5806772676697669
  0.6954673807667878  0.2759299658302075  0.4217011475383962
  0.5287463197019634  0.2767433733834752  0.4214261271733685
  0.8041931168074875  0.2246541135719163  0.5811034797609151
  0.8617540262563126  0.2759156899865159  0.4191779023680779
  0.6375885464906011  0.2251242615610166  0.5834450645073579
  0.8577669962276762  0.4468042968406877  0.3920406060019828
  0.8039108953379859  0.0532428315756243  0.6097651388992544
  0.6425179554278233  0.0536381722770235  0.6095910149059455
  0.6953363352153645  0.1093908644392169  0.3947773675272627
  0.8030303503821722  0.3933301346144036  0.6068616551978445
  0.8604650784519658  0.1082335799929205  0.3965354117073474
  0.9680392372836359  0.3934271122882961  0.6052255687968393
  0.6375670694747899  0.3951709577330854  0.6053592771076980
  0.5311550383044377  0.1086756847814351  0.3966234970268180
  0.5241017328970011  0.4515851574942215  0.4034369286686820
  0.9765592733741594  0.0470342438798200  0.5968261908614370
  0.6969751262758395  0.4454187489939733  0.3914938729959825
  0.4696414001710068  0.7266816157017906  0.5680524636155070
  0.1957363366595291  0.7776008260451502  0.4210030695785763
  0.0287126471181566  0.7770146850656463  0.4212878269745399
  0.3081002297200336  0.7232769227092538  0.5776810771001005
  0.3632879343149040  0.7759920006252798  0.4191585999700057
  0.1393770425248566  0.7249774795914593  0.5819914770293262
  0.3560795277843281  0.9490223544694371  0.3916556243324030
  0.3040295955033376  0.5546087195193583  0.6077700068014965
  0.1428288823337518  0.5539853480741022  0.6091742345092137
  0.1947091103275603  0.6096133094442625  0.3937274832958452
  0.3030445978009585  0.8937507134297644  0.6090005364607466
  0.3588484293291291  0.6066721627743764  0.3902730795723979
  0.4664776734400106  0.8948753073620417  0.6077039643375044
  0.1398474253637002  0.8926503684712829  0.6058711529000046
  0.0305510824922929  0.6091891447335287  0.3968343952913836
  0.0229269116091313  0.9544636994753927  0.4052638552595971
  0.4750892706917912  0.5506768541871393  0.5947717456780516
  0.1955177242803168  0.9479372698502680  0.3927706879022567
  0.9712079559896901  0.7245321373666959  0.5810266831861172
  0.6927890408445487  0.7774761222930063  0.4225148837035940
  0.5263415959327120  0.7772711610047150  0.4210814279668734
  0.8027601260996137  0.7244040446517557  0.5799545421622005
  0.8613105030081165  0.7763480057544857  0.4192971874766984
  0.6348260178647425  0.7242340023676479  0.5799842822063761
  0.8568187227504168  0.9475014328965704  0.3928436873291810
  0.8027928385865604  0.5541973445611538  0.6083841957690188
  0.6400677028817539  0.5566435666971697  0.6063890241466094
  0.6982447923340221  0.6074566182509792  0.3900166526507509
  0.8040309106372777  0.8913906227702060  0.6068695953496627
  0.8607745481880227  0.6088226913037419  0.3959211363551218
  0.9692877548949695  0.8922119317827373  0.6052989384850488
  0.6378613526944164  0.8927624622012617  0.6058292973628037
  0.5325224457196104  0.6057396608170217  0.3909072063624326
  0.5225322343456238  0.9543934350945931  0.4054633510371161
  0.9761537548688415  0.5473232450773202  0.5966278208779064
  0.6950622375805716  0.9478614131017140  0.3928245972489176
  0.4757936746905645  0.7131328362835098  0.6641689661388757
 
  0.00000000E+00  0.00000000E+00  0.00000000E+00
  0.00000000E+00  0.00000000E+00  0.00000000E+00
  0.00000000E+00  0.00000000E+00  0.00000000E+00
  0.00000000E+00  0.00000000E+00  0.00000000E+00
  0.00000000E+00  0.00000000E+00  0.00000000E+00
  0.00000000E+00  0.00000000E+00  0.00000000E+00
  0.00000000E+00  0.00000000E+00  0.00000000E+00
  0.00000000E+00  0.00000000E+00  0.00000000E+00
  0.00000000E+00  0.00000000E+00  0.00000000E+00
  0.00000000E+00  0.00000000E+00  0.00000000E+00
  0.00000000E+00  0.00000000E+00  0.00000000E+00
  0.00000000E+00  0.00000000E+00  0.00000000E+00
  0.00000000E+00  0.00000000E+00  0.00000000E+00
  0.00000000E+00  0.00000000E+00  0.00000000E+00
  0.00000000E+00  0.00000000E+00  0.00000000E+00
  0.00000000E+00  0.00000000E+00  0.00000000E+00
  0.00000000E+00  0.00000000E+00  0.00000000E+00
  0.00000000E+00  0.00000000E+00  0.00000000E+00
  0.00000000E+00  0.00000000E+00  0.00000000E+00
  0.00000000E+00  0.00000000E+00  0.00000000E+00
  0.00000000E+00  0.00000000E+00  0.00000000E+00
  0.00000000E+00  0.00000000E+00  0.00000000E+00
  0.00000000E+00  0.00000000E+00  0.00000000E+00
  0.00000000E+00  0.00000000E+00  0.00000000E+00
  0.00000000E+00  0.00000000E+00  0.00000000E+00
  0.00000000E+00  0.00000000E+00  0.00000000E+00
  0.00000000E+00  0.00000000E+00  0.00000000E+00
  0.00000000E+00  0.00000000E+00  0.00000000E+00
  0.00000000E+00  0.00000000E+00  0.00000000E+00
  0.00000000E+00  0.00000000E+00  0.00000000E+00
  0.00000000E+00  0.00000000E+00  0.00000000E+00
  0.00000000E+00  0.00000000E+00  0.00000000E+00
  0.00000000E+00  0.00000000E+00  0.00000000E+00
  0.00000000E+00  0.00000000E+00  0.00000000E+00
  0.00000000E+00  0.00000000E+00  0.00000000E+00
  0.00000000E+00  0.00000000E+00  0.00000000E+00
  0.00000000E+00  0.00000000E+00  0.00000000E+00
  0.00000000E+00  0.00000000E+00  0.00000000E+00
  0.00000000E+00  0.00000000E+00  0.00000000E+00
  0.00000000E+00  0.00000000E+00  0.00000000E+00
  0.00000000E+00  0.00000000E+00  0.00000000E+00
  0.00000000E+00  0.00000000E+00  0.00000000E+00
  0.00000000E+00  0.00000000E+00  0.00000000E+00
  0.00000000E+00  0.00000000E+00  0.00000000E+00
  0.00000000E+00  0.00000000E+00  0.00000000E+00
  0.00000000E+00  0.00000000E+00  0.00000000E+00
  0.00000000E+00  0.00000000E+00  0.00000000E+00
  0.00000000E+00  0.00000000E+00  0.00000000E+00
  0.00000000E+00  0.00000000E+00  0.00000000E+00
  0.00000000E+00  0.00000000E+00  0.00000000E+00
  0.00000000E+00  0.00000000E+00  0.00000000E+00
  0.00000000E+00  0.00000000E+00  0.00000000E+00
  0.00000000E+00  0.00000000E+00  0.00000000E+00
  0.00000000E+00  0.00000000E+00  0.00000000E+00
  0.00000000E+00  0.00000000E+00  0.00000000E+00
  0.00000000E+00  0.00000000E+00  0.00000000E+00
  0.00000000E+00  0.00000000E+00  0.00000000E+00
  0.00000000E+00  0.00000000E+00  0.00000000E+00
  0.00000000E+00  0.00000000E+00  0.00000000E+00
  0.00000000E+00  0.00000000E+00  0.00000000E+00
  0.00000000E+00  0.00000000E+00  0.00000000E+00
  0.00000000E+00  0.00000000E+00  0.00000000E+00
  0.00000000E+00  0.00000000E+00  0.00000000E+00
  0.00000000E+00  0.00000000E+00  0.00000000E+00
  0.00000000E+00  0.00000000E+00  0.00000000E+00
  0.00000000E+00  0.00000000E+00  0.00000000E+00
  0.00000000E+00  0.00000000E+00  0.00000000E+00
  0.00000000E+00  0.00000000E+00  0.00000000E+00
  0.00000000E+00  0.00000000E+00  0.00000000E+00
  0.00000000E+00  0.00000000E+00  0.00000000E+00
  0.00000000E+00  0.00000000E+00  0.00000000E+00
  0.00000000E+00  0.00000000E+00  0.00000000E+00
  0.00000000E+00  0.00000000E+00  0.00000000E+00
  0.00000000E+00  0.00000000E+00  0.00000000E+00
  0.00000000E+00  0.00000000E+00  0.00000000E+00
  0.00000000E+00  0.00000000E+00  0.00000000E+00
  0.00000000E+00  0.00000000E+00  0.00000000E+00
  0.00000000E+00  0.00000000E+00  0.00000000E+00
  0.00000000E+00  0.00000000E+00  0.00000000E+00
  0.00000000E+00  0.00000000E+00  0.00000000E+00
  0.00000000E+00  0.00000000E+00  0.00000000E+00
  0.00000000E+00  0.00000000E+00  0.00000000E+00
  0.00000000E+00  0.00000000E+00  0.00000000E+00
  0.00000000E+00  0.00000000E+00  0.00000000E+00
  0.00000000E+00  0.00000000E+00  0.00000000E+00
  0.00000000E+00  0.00000000E+00  0.00000000E+00
  0.00000000E+00  0.00000000E+00  0.00000000E+00
  0.00000000E+00  0.00000000E+00  0.00000000E+00
  0.00000000E+00  0.00000000E+00  0.00000000E+00
  0.00000000E+00  0.00000000E+00  0.00000000E+00
  0.00000000E+00  0.00000000E+00  0.00000000E+00
  0.00000000E+00  0.00000000E+00  0.00000000E+00
  0.00000000E+00  0.00000000E+00  0.00000000E+00
  0.00000000E+00  0.00000000E+00  0.00000000E+00
  0.00000000E+00  0.00000000E+00  0.00000000E+00
  0.00000000E+00  0.00000000E+00  0.00000000E+00
  0.00000000E+00  0.00000000E+00  0.00000000E+00
  0.00000000E+00  0.00000000E+00  0.00000000E+00
  0.00000000E+00  0.00000000E+00  0.00000000E+00
  0.00000000E+00  0.00000000E+00  0.00000000E+00
  0.00000000E+00  0.00000000E+00  0.00000000E+00
  0.00000000E+00  0.00000000E+00  0.00000000E+00
  0.00000000E+00  0.00000000E+00  0.00000000E+00
  0.00000000E+00  0.00000000E+00  0.00000000E+00
  0.00000000E+00  0.00000000E+00  0.00000000E+00
  0.00000000E+00  0.00000000E+00  0.00000000E+00
  0.00000000E+00  0.00000000E+00  0.00000000E+00
  0.00000000E+00  0.00000000E+00  0.00000000E+00
  0.00000000E+00  0.00000000E+00  0.00000000E+00
