 Co2 Se2                                
   1.00000000000000     
     3.6038246137881114    0.0000000000000000    0.0000000000000000
     0.0000000000000000    3.6038244421733112    0.0000000000000000
     0.0000000000000000    0.0000000000000000   17.7828840476240018
   Co   Se
     2     2
Direct
  0.0000000010285248  0.9999999988445580  0.5000000002431193
  0.4999999985903116  0.5000000008633663  0.4999999997598010
  0.9999999978473824  0.4999999982858796  0.5812970947047873
  0.5000000025337812  0.0000000020061961  0.4187029052922995
 
  0.00000000E+00  0.00000000E+00  0.00000000E+00
  0.00000000E+00  0.00000000E+00  0.00000000E+00
  0.00000000E+00  0.00000000E+00  0.00000000E+00
  0.00000000E+00  0.00000000E+00  0.00000000E+00
