 Cu2 I4 O12                             
   1.00000000000000     
     4.7754424766239989    0.0000000000000000    0.0000000000000000
     0.0000000000000000    6.2164433554071516    0.0000000000000000
     0.0000000000000000    0.0000000000000000   21.6999909490640022
   Cu   I    O 
     2     4    12
Direct
  0.5000000030112063  0.5000000007474440  0.5000000001696698
  0.5000000045462334  0.0000000010378596  0.4999999997715193
  0.5558353588212916  0.7499866241950551  0.3685619171501190
  0.0464472462628201  0.2499961209816882  0.3953389184779875
  0.9535527506537286  0.7500038794858164  0.6046610824804435
  0.4441646395226942  0.2500133751930202  0.6314380827986211
  0.7237638081950263  0.9753940948310456  0.5755865047807993
  0.2762361916298244  0.0246059053361691  0.4244134956644606
  0.3349494107970340  0.2500069261141117  0.5461198967651881
  0.6650505891486711  0.7499930744721299  0.4538801030615723
  0.8039562745705662  0.2500168162591014  0.4588842747263215
  0.2199867824152225  0.4724435331244878  0.6571382055005577
  0.2762471848238538  0.4753923572587560  0.4244111200736605
  0.2199799442140846  0.0275685300182528  0.6571380430320156
  0.7800132141393097  0.5275564655252503  0.3428617948910669
  0.7800200564482385  0.9724314682553816  0.3428619567092343
  0.7237528147294179  0.5246076435258891  0.5755888807751974
  0.1960437260707791  0.7499831836385376  0.5411157231715628
 
  0.00000000E+00  0.00000000E+00  0.00000000E+00
  0.00000000E+00  0.00000000E+00  0.00000000E+00
  0.00000000E+00  0.00000000E+00  0.00000000E+00
  0.00000000E+00  0.00000000E+00  0.00000000E+00
  0.00000000E+00  0.00000000E+00  0.00000000E+00
  0.00000000E+00  0.00000000E+00  0.00000000E+00
  0.00000000E+00  0.00000000E+00  0.00000000E+00
  0.00000000E+00  0.00000000E+00  0.00000000E+00
  0.00000000E+00  0.00000000E+00  0.00000000E+00
  0.00000000E+00  0.00000000E+00  0.00000000E+00
  0.00000000E+00  0.00000000E+00  0.00000000E+00
  0.00000000E+00  0.00000000E+00  0.00000000E+00
  0.00000000E+00  0.00000000E+00  0.00000000E+00
  0.00000000E+00  0.00000000E+00  0.00000000E+00
  0.00000000E+00  0.00000000E+00  0.00000000E+00
  0.00000000E+00  0.00000000E+00  0.00000000E+00
  0.00000000E+00  0.00000000E+00  0.00000000E+00
  0.00000000E+00  0.00000000E+00  0.00000000E+00
