CONTCAR\(11)                            
   1.00000000000000     
    12.7552003860000003    0.0000000000000000    0.0000000000000000
     0.0000000000000000   11.8367004394999995    0.0000000000000000
     0.0000000000000000    0.0000000000000000   18.9375991821000014
   Cu   Te   O    H 
    24    24     1     1
Selective dynamics
Direct
  0.9982238558172156  0.1688240140515092  0.4848162537599521   F   F   F
  0.1238731465618557  0.0035244100880902  0.5140066891565880   F   F   F
  0.2505169820032691  0.1699576181986657  0.4874831971414437   F   F   F
  0.3757113417771123  0.0029806360085942  0.5167552673874880   F   F   F
  0.5014574318295217  0.1707919539380924  0.4892087728745906   F   F   F
  0.6233010958730105  0.0008596149520059  0.5178952061021391   F   F   F
  0.7480382751948724  0.1679874179022605  0.4884124526384781   F   F   F
  0.8749177991929429  0.0030246560186242  0.5148237254038222   F   F   F
  0.9964912862661492  0.5040876145686752  0.4807107830663426   F   F   F
  0.1189142534551806  0.3354778936058196  0.5121395306849834   F   F   F
  0.2438055766468423  0.5034921740673539  0.4821541906397329   F   F   F
  0.3730188118400761  0.3385232997733354  0.5173013954072445   F   F   F
  0.5050799536707729  0.5012673704045056  0.5005402538183077   F   F   F
  0.6309047157225578  0.3381129311883555  0.5209542340138427   F   F   F
  0.7581282129653530  0.5031070989747519  0.4837654196900658   F   F   F
  0.8778239677118975  0.3348960649731936  0.5145894045079444   F   F   F
  0.9985879383616236  0.8385038095490742  0.4834030261225024   F   F   F
  0.1197834621905756  0.6721376958895107  0.5105005162985208   F   F   F
  0.2504293709986385  0.8365514931266631  0.4857795693117666   F   F   F
  0.3731936276089343  0.6670201753846428  0.5159440055679170   F   F   F
  0.5004467603525171  0.8338450917732416  0.4886789652978933   F   F   F
  0.6271809573205047  0.6642201981218179  0.5203469147742226   F   F   F
  0.7468394016914957  0.8361342190548200  0.4874415551270843   F   F   F
  0.8754961894770474  0.6730856649659458  0.5125700835694147   F   F   F
  0.9989051341547182  0.0047771403130668  0.3954639946455671   F   F   F
  0.1241576082164499  0.1707828451863236  0.6029324299394716   F   F   F
  0.2507167170271600  0.0042692829324480  0.3979010873067139   F   F   F
  0.3736747267226690  0.1705435185112023  0.6051349865156439   F   F   F
  0.4999767166531939  0.0020876392925189  0.3997631219141198   F   F   F
  0.6257858677417687  0.1667137791794673  0.6065769805380086   F   F   F
  0.7481470756490225  0.0026832651700559  0.3985405698862152   F   F   F
  0.8750461500282967  0.1698359947037815  0.6041373401900714   F   F   F
  0.9984139242670054  0.3346722921172542  0.3941678249291414   F   F   F
  0.1225678936426746  0.5050509835067984  0.5998200248238774   F   F   F
  0.2499749421608186  0.3338452383783945  0.3970543658574002   F   F   F
  0.3536765049134658  0.5030813058156127  0.6060031407359858   F   F   F
  0.5003250045745631  0.3420001653837872  0.4037785867623001   F   F   F
  0.6350991420692225  0.4916309108655241  0.6173208469270008   F   F   F
  0.7477491156147877  0.3334650076276588  0.3989426556205800   F   F   F
  0.8752339556527460  0.5061283936075682  0.6009762500204374   F   F   F
  0.9980429451066541  0.6728629777454955  0.3931574741911064   F   F   F
  0.1236317722475775  0.8358170049829283  0.6019305403267623   F   F   F
  0.2496458681635332  0.6718542444590128  0.3956543521401912   F   F   F
  0.3725716671744053  0.8346017581595859  0.6043683975177530   F   F   F
  0.5007040604570889  0.6610627233187643  0.4038303977576589   F   F   F
  0.6261265618870979  0.8325135162497190  0.6066021109474775   F   F   F
  0.7473656562047566  0.6708677171472033  0.3975365808784019   F   F   F
  0.8757152515569331  0.8367224041814154  0.6033876086930476   F   F   F
  0.5154168903559224  0.4175189352806754  0.6831658927743405   T   T   T
  0.5194843092274866  0.4584376653042242  0.7272394737388144   T   T   T
 
  0.00000000E+00  0.00000000E+00  0.00000000E+00
  0.00000000E+00  0.00000000E+00  0.00000000E+00
  0.00000000E+00  0.00000000E+00  0.00000000E+00
  0.00000000E+00  0.00000000E+00  0.00000000E+00
  0.00000000E+00  0.00000000E+00  0.00000000E+00
  0.00000000E+00  0.00000000E+00  0.00000000E+00
  0.00000000E+00  0.00000000E+00  0.00000000E+00
  0.00000000E+00  0.00000000E+00  0.00000000E+00
  0.00000000E+00  0.00000000E+00  0.00000000E+00
  0.00000000E+00  0.00000000E+00  0.00000000E+00
  0.00000000E+00  0.00000000E+00  0.00000000E+00
  0.00000000E+00  0.00000000E+00  0.00000000E+00
  0.00000000E+00  0.00000000E+00  0.00000000E+00
  0.00000000E+00  0.00000000E+00  0.00000000E+00
  0.00000000E+00  0.00000000E+00  0.00000000E+00
  0.00000000E+00  0.00000000E+00  0.00000000E+00
  0.00000000E+00  0.00000000E+00  0.00000000E+00
  0.00000000E+00  0.00000000E+00  0.00000000E+00
  0.00000000E+00  0.00000000E+00  0.00000000E+00
  0.00000000E+00  0.00000000E+00  0.00000000E+00
  0.00000000E+00  0.00000000E+00  0.00000000E+00
  0.00000000E+00  0.00000000E+00  0.00000000E+00
  0.00000000E+00  0.00000000E+00  0.00000000E+00
  0.00000000E+00  0.00000000E+00  0.00000000E+00
  0.00000000E+00  0.00000000E+00  0.00000000E+00
  0.00000000E+00  0.00000000E+00  0.00000000E+00
  0.00000000E+00  0.00000000E+00  0.00000000E+00
  0.00000000E+00  0.00000000E+00  0.00000000E+00
  0.00000000E+00  0.00000000E+00  0.00000000E+00
  0.00000000E+00  0.00000000E+00  0.00000000E+00
  0.00000000E+00  0.00000000E+00  0.00000000E+00
  0.00000000E+00  0.00000000E+00  0.00000000E+00
  0.00000000E+00  0.00000000E+00  0.00000000E+00
  0.00000000E+00  0.00000000E+00  0.00000000E+00
  0.00000000E+00  0.00000000E+00  0.00000000E+00
  0.00000000E+00  0.00000000E+00  0.00000000E+00
  0.00000000E+00  0.00000000E+00  0.00000000E+00
  0.00000000E+00  0.00000000E+00  0.00000000E+00
  0.00000000E+00  0.00000000E+00  0.00000000E+00
  0.00000000E+00  0.00000000E+00  0.00000000E+00
  0.00000000E+00  0.00000000E+00  0.00000000E+00
  0.00000000E+00  0.00000000E+00  0.00000000E+00
  0.00000000E+00  0.00000000E+00  0.00000000E+00
  0.00000000E+00  0.00000000E+00  0.00000000E+00
  0.00000000E+00  0.00000000E+00  0.00000000E+00
  0.00000000E+00  0.00000000E+00  0.00000000E+00
  0.00000000E+00  0.00000000E+00  0.00000000E+00
  0.00000000E+00  0.00000000E+00  0.00000000E+00
  0.00000000E+00  0.00000000E+00  0.00000000E+00
  0.00000000E+00  0.00000000E+00  0.00000000E+00
