 Li4 Nb2 P8 O26                         
   1.00000000000000     
     4.9824797831457079    0.0000000000000000    0.0000000000000000
    -1.2640419440135007    7.7111073819612947    0.0000000000000000
     0.0000000000000000    0.0000000000000000   27.0882670890640043
   Li   Nb   P    O 
     4     2     8    26
Direct
  0.3542942403072745  0.4950929440461381  0.5095888423834136
  0.2093128001343992  0.1432162605651391  0.4904128250389016
  0.7049912349074137  0.3698451656565211  0.7232886649357783
  0.8590573392616879  0.2683793048245762  0.2767046238541672
  0.8093857627584718  0.9600285944866047  0.3767864594994733
  0.7542786093885239  0.6782179380558614  0.6232113087424199
  0.2912744769751477  0.8716795882241712  0.5673791523286756
  0.9555871175379639  0.5840960948971206  0.3532435263768602
  0.5990898644524976  0.3213126796010310  0.4124691211474559
  0.9645466836315337  0.3169346135541335  0.5875364883854521
  0.3483243468209365  0.1495697514930225  0.3207783525043510
  0.2723702930670985  0.7665782029586518  0.4326176782302266
  0.6080948425083503  0.0541333166873669  0.6467646973072184
  0.2154259898720363  0.4887082027415488  0.6792176559497636
  0.4384921963295471  0.7137611484298659  0.5767567718231528
  0.3873640999847685  0.2802630672221528  0.3685029822726689
  0.7992263777619836  0.1922069314842650  0.4121268507548943
  0.4708674999020063  0.2381853129077635  0.2753971999026809
  0.3326818850777019  0.9907677627864228  0.6179740939844877
  0.2310080004384261  0.6474830327960452  0.3820255258337313
 -0.0177529401773013  0.8036290679262180  0.5705438698266019
  0.5813834558673023  0.8346315588318119  0.4294547540187885
  0.5293372683783306  0.5410282282444385  0.6810445932640908
  0.1762973108833205  0.3579950740963689  0.6314980005285843
  0.7606020854870191  0.5063809921355423  0.3984804776838471
  0.7266554399784648  0.8944545487644867  0.6628709619922030
  0.5732309301264289  0.1800529126315527  0.6857074051731905
  0.9904709772243960  0.4581689570116144  0.3143018042371656
  0.0929212917716905  0.4000833949695337  0.7246006102856145
  0.4760885274910915  0.9909682793247871  0.3366715667531601
  0.3814911510185255  0.9834102530164184  0.5243349478527096
  0.7643888737243846  0.4460261840787578  0.5878861832168472
  0.1251537528387912  0.9244917546380610  0.4232293203181662
  0.0876288658756537  0.6472979786095941  0.6633244375114620
  0.1820915310532676  0.6548444052236131  0.4756567470416195
  0.4537814875686520  0.3354860470511559  0.4599035570292290
  0.8030604223499113  0.1318609681813314  0.6015261240201623
  0.0343977790840908  0.0972237320640820  0.3189529564948861
  0.8370327292744294  0.7437773511476600  0.3371343257236795
  0.1097963990637925  0.3027963986345732  0.5400945357722128
 
  0.00000000E+00  0.00000000E+00  0.00000000E+00
  0.00000000E+00  0.00000000E+00  0.00000000E+00
  0.00000000E+00  0.00000000E+00  0.00000000E+00
  0.00000000E+00  0.00000000E+00  0.00000000E+00
  0.00000000E+00  0.00000000E+00  0.00000000E+00
  0.00000000E+00  0.00000000E+00  0.00000000E+00
  0.00000000E+00  0.00000000E+00  0.00000000E+00
  0.00000000E+00  0.00000000E+00  0.00000000E+00
  0.00000000E+00  0.00000000E+00  0.00000000E+00
  0.00000000E+00  0.00000000E+00  0.00000000E+00
  0.00000000E+00  0.00000000E+00  0.00000000E+00
  0.00000000E+00  0.00000000E+00  0.00000000E+00
  0.00000000E+00  0.00000000E+00  0.00000000E+00
  0.00000000E+00  0.00000000E+00  0.00000000E+00
  0.00000000E+00  0.00000000E+00  0.00000000E+00
  0.00000000E+00  0.00000000E+00  0.00000000E+00
  0.00000000E+00  0.00000000E+00  0.00000000E+00
  0.00000000E+00  0.00000000E+00  0.00000000E+00
  0.00000000E+00  0.00000000E+00  0.00000000E+00
  0.00000000E+00  0.00000000E+00  0.00000000E+00
  0.00000000E+00  0.00000000E+00  0.00000000E+00
  0.00000000E+00  0.00000000E+00  0.00000000E+00
  0.00000000E+00  0.00000000E+00  0.00000000E+00
  0.00000000E+00  0.00000000E+00  0.00000000E+00
  0.00000000E+00  0.00000000E+00  0.00000000E+00
  0.00000000E+00  0.00000000E+00  0.00000000E+00
  0.00000000E+00  0.00000000E+00  0.00000000E+00
  0.00000000E+00  0.00000000E+00  0.00000000E+00
  0.00000000E+00  0.00000000E+00  0.00000000E+00
  0.00000000E+00  0.00000000E+00  0.00000000E+00
  0.00000000E+00  0.00000000E+00  0.00000000E+00
  0.00000000E+00  0.00000000E+00  0.00000000E+00
  0.00000000E+00  0.00000000E+00  0.00000000E+00
  0.00000000E+00  0.00000000E+00  0.00000000E+00
  0.00000000E+00  0.00000000E+00  0.00000000E+00
  0.00000000E+00  0.00000000E+00  0.00000000E+00
  0.00000000E+00  0.00000000E+00  0.00000000E+00
  0.00000000E+00  0.00000000E+00  0.00000000E+00
  0.00000000E+00  0.00000000E+00  0.00000000E+00
  0.00000000E+00  0.00000000E+00  0.00000000E+00
