CONTCAR\(5)                             
   1.00000000000000     
     7.8445000648000001    0.0000000000000000    0.0000000000000000
     3.9223001003000002    6.7936230563000004    0.0000000000000000
     0.0000000000000000    0.0000000000000000   18.9503002167000005
   Te   Pt   O    H 
     8     8     1     1
Selective dynamics
Direct
  0.3340675656675174  0.3323788541025152  0.6142559758663495   F   F   F
  0.3335138093277834  0.3335463183439416  0.3926784184211911   F   F   F
  0.8307707488770149  0.3328532027376170  0.6148780037584629   F   F   F
  0.8299840978233561  0.3330517336896932  0.3923314439586463   F   F   F
  0.3314508162649759  0.8329647369975390  0.5980673264594429   F   F   F
  0.3320623837381262  0.8341331849142648  0.3956043011968191   F   F   F
  0.8303490534229709  0.8368837940737848  0.6147720616062955   F   F   F
  0.8308179770915203  0.8360419844101301  0.3926693929633345   F   F   F
  0.1597250625067872  0.1774577407196887  0.5435261729437855   F   F   F
  0.9969956627548058  0.0016199325988779  0.4620113490415676   F   F   F
  0.6653740796165124  0.1675447462969828  0.5449472346963020   F   F   F
  0.4990767998658612  0.0017341582357986  0.4620843891769795   F   F   F
  0.1594561522978495  0.6623843207146933  0.5434100390020760   F   F   F
  0.9976621190212711  0.5008360357980877  0.4600428946684332   F   F   F
  0.6751274590451288  0.6624741959104554  0.5438328440467330   F   F   F
  0.4990656843478547  0.4994451812772169  0.4623611791681910   F   F   F
  0.3404128530279280  0.8230910792513484  0.7051002539543134   T   T   T
  0.2322375053027343  0.8048288129273401  0.7206951028829294   T   T   T
 
  0.00000000E+00  0.00000000E+00  0.00000000E+00
  0.00000000E+00  0.00000000E+00  0.00000000E+00
  0.00000000E+00  0.00000000E+00  0.00000000E+00
  0.00000000E+00  0.00000000E+00  0.00000000E+00
  0.00000000E+00  0.00000000E+00  0.00000000E+00
  0.00000000E+00  0.00000000E+00  0.00000000E+00
  0.00000000E+00  0.00000000E+00  0.00000000E+00
  0.00000000E+00  0.00000000E+00  0.00000000E+00
  0.00000000E+00  0.00000000E+00  0.00000000E+00
  0.00000000E+00  0.00000000E+00  0.00000000E+00
  0.00000000E+00  0.00000000E+00  0.00000000E+00
  0.00000000E+00  0.00000000E+00  0.00000000E+00
  0.00000000E+00  0.00000000E+00  0.00000000E+00
  0.00000000E+00  0.00000000E+00  0.00000000E+00
  0.00000000E+00  0.00000000E+00  0.00000000E+00
  0.00000000E+00  0.00000000E+00  0.00000000E+00
  0.00000000E+00  0.00000000E+00  0.00000000E+00
  0.00000000E+00  0.00000000E+00  0.00000000E+00
