Nb9 Ir1 Se20                            
   1.00000000000000     
     6.9939392994555201    0.0097101469023999    0.0058623792987753
     3.4732417129222255    8.7789688416256801    0.3429884655118978
     1.7526733383866060    1.4420469293269631   10.9754541312578517
   Nb   Ir   Se
     9     1    20
Direct
  0.5000000000000000 -0.0000000000000000  0.0000000000000000
  0.0880684654255757  0.2208056835770038  0.2198180970762411
  0.6935744805987836  0.4105841468951305  0.4112100679493876
  0.3064255314012176  0.5894158101048698  0.5887898980506097
  0.5847690297115108  0.2203105985094894  0.2187039405762555
  0.9119315555744224  0.7791943264229899  0.7801818689237562
  0.1921930590070328  0.4093875622221678  0.4101823199196084
  0.8078069619929656  0.5906124467778365  0.5898176470803925
  0.4152310292884905  0.7796894134905115  0.7812960054237471
 -0.0000000000000000 -0.0000000000000000  0.0000000000000000
  0.2496683194205895  0.0754057591068931  0.8306150224818311
  0.6522806111217943  0.7119443450950000  0.9632852828091096
  0.8535550706447780  0.2760028926723549  0.0397468444603368
  0.2391523518930956  0.9254080442065387  0.1694542921296684
  0.4429438539615507  0.5027996909709485  0.2307202451712253
  0.7608477411069013  0.0745919037934640  0.8305456428703297
  0.8487810772970554  0.1125736189583683  0.3804011809665553
  0.1464449623552282  0.7239970433276467  0.9602530775396639
  0.0439301880869425  0.7004536155922716  0.4222100752606828
  0.3477193418782055  0.2880556649050008  0.0367146731908939
  0.7503317915794091  0.9245942928931041  0.1693849135181707
  0.4558015219771232  0.2985861546772303  0.5772745495010257
  0.6491922736795976  0.8907729150879796  0.6192813488704971
  0.9404502159917699  0.5040850949004759  0.2301432295541684
  0.0595498000082315  0.4959149120995280  0.7698567584458303
  0.3508077883204005  0.1092270809120199  0.3807186181295037
  0.5441983820228761  0.7014138813227655  0.4227254164989713
  0.9560698589130580  0.2995463404077250  0.5777898917393111
  0.1512189497029432  0.8874263300416311  0.6195987430334454
  0.5570562090384511  0.4972003230290528  0.7692796788287686
 
  0.00000000E+00  0.00000000E+00  0.00000000E+00
  0.00000000E+00  0.00000000E+00  0.00000000E+00
  0.00000000E+00  0.00000000E+00  0.00000000E+00
  0.00000000E+00  0.00000000E+00  0.00000000E+00
  0.00000000E+00  0.00000000E+00  0.00000000E+00
  0.00000000E+00  0.00000000E+00  0.00000000E+00
  0.00000000E+00  0.00000000E+00  0.00000000E+00
  0.00000000E+00  0.00000000E+00  0.00000000E+00
  0.00000000E+00  0.00000000E+00  0.00000000E+00
  0.00000000E+00  0.00000000E+00  0.00000000E+00
  0.00000000E+00  0.00000000E+00  0.00000000E+00
  0.00000000E+00  0.00000000E+00  0.00000000E+00
  0.00000000E+00  0.00000000E+00  0.00000000E+00
  0.00000000E+00  0.00000000E+00  0.00000000E+00
  0.00000000E+00  0.00000000E+00  0.00000000E+00
  0.00000000E+00  0.00000000E+00  0.00000000E+00
  0.00000000E+00  0.00000000E+00  0.00000000E+00
  0.00000000E+00  0.00000000E+00  0.00000000E+00
  0.00000000E+00  0.00000000E+00  0.00000000E+00
  0.00000000E+00  0.00000000E+00  0.00000000E+00
  0.00000000E+00  0.00000000E+00  0.00000000E+00
  0.00000000E+00  0.00000000E+00  0.00000000E+00
  0.00000000E+00  0.00000000E+00  0.00000000E+00
  0.00000000E+00  0.00000000E+00  0.00000000E+00
  0.00000000E+00  0.00000000E+00  0.00000000E+00
  0.00000000E+00  0.00000000E+00  0.00000000E+00
  0.00000000E+00  0.00000000E+00  0.00000000E+00
  0.00000000E+00  0.00000000E+00  0.00000000E+00
  0.00000000E+00  0.00000000E+00  0.00000000E+00
  0.00000000E+00  0.00000000E+00  0.00000000E+00
