CONTCAR\(5)                             
   1.00000000000000     
    11.6526002884000004    0.0000000000000000    0.0000000000000000
     0.0000000000000000   17.2355995178000008    0.0000000000000000
     0.0000000000000000    0.0000000000000000   19.4160995483000001
   Te   Pd   Pb   O 
    16    24    16     1
Direct
  0.2495226423418256  0.1473361300416832  0.6137353572089614
  0.0006339183835231  0.3900300909126989  0.3889102680952869
  0.2556589377339710  0.3744986158717023  0.6163727836735189
  0.9969604212745661  0.1039171971017952  0.3892369670003937
  0.7493343427493522  0.1443560509541317  0.6155249015794196
  0.4984850717609011  0.3917499283268813  0.3886563672754672
  0.7487726270776969  0.3568123429941909  0.6149635851489575
  0.5014325921670341  0.1044354718134248  0.3891723917408677
  0.2556589377339710  0.6255013841282978  0.6163727836735189
  0.9969604212745661  0.8960828028982047  0.3892369670003937
  0.2495226423418256  0.8526638699583166  0.6137353572089614
  0.0006339183835231  0.6099699090873012  0.3889102680952869
  0.7487726270776969  0.6431876570058094  0.6149635851489575
  0.5014325921670341  0.8955645281865749  0.3891723917408677
  0.7493343427493522  0.8556439490458683  0.6155249015794196
  0.4984850717609011  0.6082500716731192  0.3886563672754672
  0.1243878424693295  0.1225033632755663  0.5013110211572481
  0.9970284502304452  0.2472501499513348  0.4361515200793876
  0.1216623558745680  0.3673268568568382  0.5055439765905174
  0.3745436728172108  0.1235281043852838  0.5013683681744489
  0.3770402507846043  0.3696687995653601  0.5026275711828907
  0.2503525735422363 -0.0000000000000000  0.5700641384148418
  0.6236268829937839  0.1236461747789139  0.5033442716129622
  0.5004020499303854  0.2480718653489426  0.4353868402820847
  0.6240667509193688  0.3754316004064779  0.5021598617034002
  0.8748206797952923  0.1239698024513713  0.5035826799434672
  0.8740280417605341  0.3753565199160925  0.5018571171690959
  0.7505097195378322 -0.0000000000000000  0.5702177292066254
  0.1216623558745680  0.6326731151431595  0.5055439765905174
  0.9970284502304452  0.7527498500486653  0.4361515200793876
  0.1243878424693295  0.8774966647244359  0.5013110211572481
  0.3770402507846043  0.6303311724346374  0.5026275711828907
  0.3745436728172108  0.8764719236147186  0.5013683681744489
  0.2466706684853488  0.5000000000000000  0.5276029393855846
  0.6240667509193688  0.6245683715935202  0.5021598617034002
  0.5004020499303854  0.7519281346510575  0.4353868402820847
  0.6236268829937839  0.8763538532210885  0.5033442716129622
  0.8740280417605341  0.6246434520839051  0.5018571171690959
  0.8748206797952923  0.8760302255486309  0.5035826799434672
  0.7495355765659161  0.5000000000000000  0.5681197828853863
  0.2499466342896099 -0.0000000000000000  0.4175071894659695
  0.0017205793866044  0.2487218753178485  0.5867218472043100
  0.2481543434614990  0.2483168425177602  0.4313921127855855
  0.0002175736108958 -0.0000000000000000  0.5741000676099834
  0.7497412055034409 -0.0000000000000000  0.4180086783271850
  0.4970430757736534  0.2500606336973745  0.5870822791048985
  0.7475365058265306  0.2497290779609274  0.4348081084909711
  0.4991754609111498 -0.0000000000000000  0.5740532864354486
  0.2373414912867178  0.5000000000000000  0.3884381890766264
  0.0017205793866044  0.7512781246821514  0.5867218472043100
  0.2481543434614990  0.7516831574822400  0.4313921127855855
  0.9981531991225429  0.5000000000000000  0.5706327767460330
  0.7489080498123503  0.5000000000000000  0.4175476427520272
  0.4970430757736534  0.7499393663026255  0.5870822791048985
  0.7475365058265306  0.7502709220390721  0.4348081084909711
  0.4908063342022838  0.5000000000000000  0.5767003949153130
  0.3053375321043440  0.5000900249999987  0.6464970713706700
 
  0.00000000E+00  0.00000000E+00  0.00000000E+00
  0.00000000E+00  0.00000000E+00  0.00000000E+00
  0.00000000E+00  0.00000000E+00  0.00000000E+00
  0.00000000E+00  0.00000000E+00  0.00000000E+00
  0.00000000E+00  0.00000000E+00  0.00000000E+00
  0.00000000E+00  0.00000000E+00  0.00000000E+00
  0.00000000E+00  0.00000000E+00  0.00000000E+00
  0.00000000E+00  0.00000000E+00  0.00000000E+00
  0.00000000E+00  0.00000000E+00  0.00000000E+00
  0.00000000E+00  0.00000000E+00  0.00000000E+00
  0.00000000E+00  0.00000000E+00  0.00000000E+00
  0.00000000E+00  0.00000000E+00  0.00000000E+00
  0.00000000E+00  0.00000000E+00  0.00000000E+00
  0.00000000E+00  0.00000000E+00  0.00000000E+00
  0.00000000E+00  0.00000000E+00  0.00000000E+00
  0.00000000E+00  0.00000000E+00  0.00000000E+00
  0.00000000E+00  0.00000000E+00  0.00000000E+00
  0.00000000E+00  0.00000000E+00  0.00000000E+00
  0.00000000E+00  0.00000000E+00  0.00000000E+00
  0.00000000E+00  0.00000000E+00  0.00000000E+00
  0.00000000E+00  0.00000000E+00  0.00000000E+00
  0.00000000E+00  0.00000000E+00  0.00000000E+00
  0.00000000E+00  0.00000000E+00  0.00000000E+00
  0.00000000E+00  0.00000000E+00  0.00000000E+00
  0.00000000E+00  0.00000000E+00  0.00000000E+00
  0.00000000E+00  0.00000000E+00  0.00000000E+00
  0.00000000E+00  0.00000000E+00  0.00000000E+00
  0.00000000E+00  0.00000000E+00  0.00000000E+00
  0.00000000E+00  0.00000000E+00  0.00000000E+00
  0.00000000E+00  0.00000000E+00  0.00000000E+00
  0.00000000E+00  0.00000000E+00  0.00000000E+00
  0.00000000E+00  0.00000000E+00  0.00000000E+00
  0.00000000E+00  0.00000000E+00  0.00000000E+00
  0.00000000E+00  0.00000000E+00  0.00000000E+00
  0.00000000E+00  0.00000000E+00  0.00000000E+00
  0.00000000E+00  0.00000000E+00  0.00000000E+00
  0.00000000E+00  0.00000000E+00  0.00000000E+00
  0.00000000E+00  0.00000000E+00  0.00000000E+00
  0.00000000E+00  0.00000000E+00  0.00000000E+00
  0.00000000E+00  0.00000000E+00  0.00000000E+00
  0.00000000E+00  0.00000000E+00  0.00000000E+00
  0.00000000E+00  0.00000000E+00  0.00000000E+00
  0.00000000E+00  0.00000000E+00  0.00000000E+00
  0.00000000E+00  0.00000000E+00  0.00000000E+00
  0.00000000E+00  0.00000000E+00  0.00000000E+00
  0.00000000E+00  0.00000000E+00  0.00000000E+00
  0.00000000E+00  0.00000000E+00  0.00000000E+00
  0.00000000E+00  0.00000000E+00  0.00000000E+00
  0.00000000E+00  0.00000000E+00  0.00000000E+00
  0.00000000E+00  0.00000000E+00  0.00000000E+00
  0.00000000E+00  0.00000000E+00  0.00000000E+00
  0.00000000E+00  0.00000000E+00  0.00000000E+00
  0.00000000E+00  0.00000000E+00  0.00000000E+00
  0.00000000E+00  0.00000000E+00  0.00000000E+00
  0.00000000E+00  0.00000000E+00  0.00000000E+00
  0.00000000E+00  0.00000000E+00  0.00000000E+00
  0.00000000E+00  0.00000000E+00  0.00000000E+00
