CONTCAR\(16)                            
   1.00000000000000     
    12.3274002075000002    0.0000000000000000    0.0000000000000000
     0.0000000000000000   15.7540998459000008    0.0000000000000000
     0.0000000000000000    0.0000000000000000   20.2700004577999984
   Pr   Br   O 
    12    30     1
Direct
  0.2506412738032537  0.6314243509505104  0.5118475384036643
  0.0877923782220975  0.3667160239668306  0.4726899993982485
  0.2358239731944636  0.1356776820864383  0.5212427621603695
  0.0802442930893079  0.8643457190340058  0.4618790919580533
  0.5826887201967494  0.6314243509505104  0.5118475384036643
  0.4166700059999968  0.3478368799266462  0.6587082251871053
  0.5975060208055396  0.1356776820864383  0.5212427621603695
  0.4166700059999968  0.8679042395102030  0.4612673438648542
  0.9166700450000036  0.6403349936868210  0.5109568411397589
  0.7455376157779057  0.3667160239668306  0.4726899993982485
  0.9166700450000036  0.1362040119336640  0.5206760603388076
  0.7530857009106953  0.8643457190340058  0.4618790919580533
  0.2498338599472874  0.8792061123639030  0.3608314544755942
  0.0766309612895029  0.1097767465310042  0.6250879964447762
  0.2493144515431993  0.4859168387737256  0.4210754688259186
  0.0788879996789049  0.5197103537069481  0.5731988002039756
  0.0780946807944005  0.0574106851758316  0.4280158014554658
  0.2497881466139518  0.9420535447172611  0.5532216656230773
  0.0868911616658679  0.7456175421330116  0.5817366706197404
  0.2417395914263381  0.2540273332900398  0.4094797060931441
  0.0846514456128133  0.6843371024859621  0.4097866226778137
  0.2061860828564832  0.3091568489223491  0.5891849032576815
  0.5834961340527158  0.8792061123639030  0.3608314544755942
  0.4166700059999968  0.1438909866501206  0.6207651185395946
  0.5840155424568039  0.4859168387737256  0.4210754688259186
  0.4166700059999968  0.5230957909568232  0.5837693630774154
  0.4166700059999968  0.0651812654189214  0.4348554544366152
  0.5835418473860514  0.9420535447172611  0.5532216656230773
  0.4166700059999968  0.7477076414077573  0.5793542533357083
  0.5915904025736651  0.2540273332900398  0.4094797060931441
  0.4166700059999968  0.6845967280072784  0.4104115097993386
  0.6271439111435200  0.3091568489223491  0.5891849032576815
  0.9166700450000036  0.8753028024993057  0.3583961967326772
  0.7566990327104932  0.1097767465310042  0.6250879964447762
  0.9166700450000036  0.4864763134349914  0.4163690105677418
  0.7544419943210983  0.5197103537069481  0.5731988002039756
  0.7552353132056027  0.0574106851758316  0.4280158014554658
  0.9166700450000036  0.9379316295929172  0.5534819776720994
  0.7464388323341353  0.7456175421330116  0.5817366706197404
  0.9166700450000036  0.2602414402358306  0.4019672672437267
  0.7486785483871898  0.6843371024859621  0.4097866226778137
  0.9166700450000036  0.3176403960633891  0.5728702750088885
  0.4166700059999968  0.3724307353996892  0.7514839428606095
 
  0.00000000E+00  0.00000000E+00  0.00000000E+00
  0.00000000E+00  0.00000000E+00  0.00000000E+00
  0.00000000E+00  0.00000000E+00  0.00000000E+00
  0.00000000E+00  0.00000000E+00  0.00000000E+00
  0.00000000E+00  0.00000000E+00  0.00000000E+00
  0.00000000E+00  0.00000000E+00  0.00000000E+00
  0.00000000E+00  0.00000000E+00  0.00000000E+00
  0.00000000E+00  0.00000000E+00  0.00000000E+00
  0.00000000E+00  0.00000000E+00  0.00000000E+00
  0.00000000E+00  0.00000000E+00  0.00000000E+00
  0.00000000E+00  0.00000000E+00  0.00000000E+00
  0.00000000E+00  0.00000000E+00  0.00000000E+00
  0.00000000E+00  0.00000000E+00  0.00000000E+00
  0.00000000E+00  0.00000000E+00  0.00000000E+00
  0.00000000E+00  0.00000000E+00  0.00000000E+00
  0.00000000E+00  0.00000000E+00  0.00000000E+00
  0.00000000E+00  0.00000000E+00  0.00000000E+00
  0.00000000E+00  0.00000000E+00  0.00000000E+00
  0.00000000E+00  0.00000000E+00  0.00000000E+00
  0.00000000E+00  0.00000000E+00  0.00000000E+00
  0.00000000E+00  0.00000000E+00  0.00000000E+00
  0.00000000E+00  0.00000000E+00  0.00000000E+00
  0.00000000E+00  0.00000000E+00  0.00000000E+00
  0.00000000E+00  0.00000000E+00  0.00000000E+00
  0.00000000E+00  0.00000000E+00  0.00000000E+00
  0.00000000E+00  0.00000000E+00  0.00000000E+00
  0.00000000E+00  0.00000000E+00  0.00000000E+00
  0.00000000E+00  0.00000000E+00  0.00000000E+00
  0.00000000E+00  0.00000000E+00  0.00000000E+00
  0.00000000E+00  0.00000000E+00  0.00000000E+00
  0.00000000E+00  0.00000000E+00  0.00000000E+00
  0.00000000E+00  0.00000000E+00  0.00000000E+00
  0.00000000E+00  0.00000000E+00  0.00000000E+00
  0.00000000E+00  0.00000000E+00  0.00000000E+00
  0.00000000E+00  0.00000000E+00  0.00000000E+00
  0.00000000E+00  0.00000000E+00  0.00000000E+00
  0.00000000E+00  0.00000000E+00  0.00000000E+00
  0.00000000E+00  0.00000000E+00  0.00000000E+00
  0.00000000E+00  0.00000000E+00  0.00000000E+00
  0.00000000E+00  0.00000000E+00  0.00000000E+00
  0.00000000E+00  0.00000000E+00  0.00000000E+00
  0.00000000E+00  0.00000000E+00  0.00000000E+00
  0.00000000E+00  0.00000000E+00  0.00000000E+00
