 Tb2 Br2                                
   1.00000000000000     
     3.7934405896656398    0.0000000000000000    0.0000000000000000
     1.8967202948328199    3.2852158774490929    0.0000000000000000
     0.0000000000000000    0.0000000000000000   21.6411226733339994
   Tb   Br
     2     2
Direct
  0.3333332658346572  0.3333328528572511  0.4359125768884272
  0.6666667438085744  0.6666670858284242  0.5640874110532685
 -0.0000001266364929  0.0000000582289584  0.3467150191093855
  0.0000001169932614  0.0000000030853663  0.6532849929489187
 
  0.00000000E+00  0.00000000E+00  0.00000000E+00
  0.00000000E+00  0.00000000E+00  0.00000000E+00
  0.00000000E+00  0.00000000E+00  0.00000000E+00
  0.00000000E+00  0.00000000E+00  0.00000000E+00
