CONTCAR\(12)                            
   1.00000000000000     
    13.8203001021999992    0.0000000000000000    0.0000000000000000
     1.7075399424000000   15.0073707208999991    0.0000000000000000
     0.0000000000000000    0.0000000000000000   18.4675998688000007
   Nb   Ir   Se   O    H 
    18     2    40     1     1
Direct
  0.0806296168907229  0.1763704837881323  0.5045373302112306
  0.0105751333146081  0.9792028479934558  0.4992714492725405
  0.3860838696709417  0.8004747866019494  0.5018182548951017
  0.2899700524105269  0.6231522949033993  0.5031806322148331
  0.2463530806229186  0.9809784228789099  0.5013464427075109
  0.1909494902934172  0.4344814516893848  0.5018330010916223
  0.1527972640493518  0.8033758977256401  0.5017382703234947
  0.0528812603552394  0.6204115807572472  0.5031515140016761
  0.4462653135326934  0.3815385647783328  0.5011709525983046
  0.5855740586446065  0.1817031926002635  0.5063653299933236
  0.4983625649203094  0.9753614175327261  0.4975103109522351
  0.9151772274889081  0.8009597614274377  0.5020442866260221
  0.7977816957974342  0.6238729348268872  0.5056607788755560
  0.7508315151921631  0.9800614855937620  0.4993936983124246
  0.6908544935959722  0.4239981812690839  0.5109163562882651
  0.6426524593319546  0.8033077303046167  0.5023490578610113
  0.5403004534079283  0.6230962766253648  0.5050783710938531
  0.9460226207907312  0.3815245214247611  0.5026569334065356
  0.3682691261187804  0.2073510194904460  0.5015577642652472
  0.8675236722654778  0.2086296314426052  0.5011379730259834
  0.4694597605886777  0.2645173927078948  0.6008301854413316
  0.0866417208404663  0.3304488237441018  0.4214828776682307
  0.3665074400876129  0.0687558658106033  0.5781028711035544
  0.4829604211767875  0.1266389330342085  0.4101856490529236
  0.2652284016957071  0.8659954004735239  0.6014487600632790
  0.2166787464909194  0.2707495781430239  0.5609936898374616
  0.3773860661088890  0.9304581944648468  0.4039874883018901
  0.3278136200010607  0.3361684090984769  0.4125743113534301
  0.1642379882611904  0.6750468352648890  0.6010777268806669
  0.1150288760817230  0.0570494694072650  0.5968677045112771
  0.2400739888871858  0.1361782145828674  0.4267545562986988
  0.2803153701902207  0.7382862844164285  0.4026917713434946
  0.0607642480248446  0.4752559794836812  0.5915130928830400
  0.0189370680002053  0.8651257141549219  0.6002001522601653
  0.1799426567299769  0.5487000451972109  0.4051754551034607
  0.1350601821848329  0.9308000890552494  0.4008521615503546
  0.4101697060280063  0.6723514207593205  0.5998638676466108
  0.0345837524335250  0.7383041367732074  0.4041358062482073
  0.3156675541599986  0.4744347428432731  0.5902439115300067
  0.4301181664577159  0.5343602795545654  0.4254750061880248
  0.9704490675549675  0.2627269399881881  0.6006801704501004
  0.5845372820559868  0.3345344628420338  0.4194426237863781
  0.8662348644800605  0.0687355545416198  0.5767751721530986
  0.9791906548704358  0.1249435538026848  0.4079672186939422
  0.7689350916276473  0.8625975366272127  0.5943007002033610
  0.7212041516656764  0.2650570163432289  0.5762026251224540
  0.8844584540185919  0.9310957674875467  0.4062351687543887
  0.8269352285597611  0.3368999659158888  0.4141645509676867
  0.6631726347767591  0.6716147408086078  0.5987340002127886
  0.6122415470177329  0.0548486800862102  0.5917383852047773
  0.7400118986587408  0.1387305365449754  0.4267710726209517
  0.7834105448424459  0.7409293632730762  0.4108624722384389
  0.5567378283044196  0.4735283683135024  0.5939766956742925
  0.5113549335647873  0.8622208345194600  0.5968091419598095
  0.6793173673971280  0.5431245737050427  0.4163404960784860
  0.6325252809021602  0.9334892069278221  0.4033935792629207
  0.9183371945607909  0.6722995856994451  0.5988843515358209
  0.5275796421708497  0.7389693413845662  0.4079498337602828
  0.8189959919194143  0.4729471419038124  0.5924345689487462
  0.9305162041245613  0.5342327136588393  0.4260140405184117
  0.2233354524527335  0.2654249114965716  0.6605875715318323
  0.2565378813501145  0.3167011775056929  0.6752600140381515
 
  0.00000000E+00  0.00000000E+00  0.00000000E+00
  0.00000000E+00  0.00000000E+00  0.00000000E+00
  0.00000000E+00  0.00000000E+00  0.00000000E+00
  0.00000000E+00  0.00000000E+00  0.00000000E+00
  0.00000000E+00  0.00000000E+00  0.00000000E+00
  0.00000000E+00  0.00000000E+00  0.00000000E+00
  0.00000000E+00  0.00000000E+00  0.00000000E+00
  0.00000000E+00  0.00000000E+00  0.00000000E+00
  0.00000000E+00  0.00000000E+00  0.00000000E+00
  0.00000000E+00  0.00000000E+00  0.00000000E+00
  0.00000000E+00  0.00000000E+00  0.00000000E+00
  0.00000000E+00  0.00000000E+00  0.00000000E+00
  0.00000000E+00  0.00000000E+00  0.00000000E+00
  0.00000000E+00  0.00000000E+00  0.00000000E+00
  0.00000000E+00  0.00000000E+00  0.00000000E+00
  0.00000000E+00  0.00000000E+00  0.00000000E+00
  0.00000000E+00  0.00000000E+00  0.00000000E+00
  0.00000000E+00  0.00000000E+00  0.00000000E+00
  0.00000000E+00  0.00000000E+00  0.00000000E+00
  0.00000000E+00  0.00000000E+00  0.00000000E+00
  0.00000000E+00  0.00000000E+00  0.00000000E+00
  0.00000000E+00  0.00000000E+00  0.00000000E+00
  0.00000000E+00  0.00000000E+00  0.00000000E+00
  0.00000000E+00  0.00000000E+00  0.00000000E+00
  0.00000000E+00  0.00000000E+00  0.00000000E+00
  0.00000000E+00  0.00000000E+00  0.00000000E+00
  0.00000000E+00  0.00000000E+00  0.00000000E+00
  0.00000000E+00  0.00000000E+00  0.00000000E+00
  0.00000000E+00  0.00000000E+00  0.00000000E+00
  0.00000000E+00  0.00000000E+00  0.00000000E+00
  0.00000000E+00  0.00000000E+00  0.00000000E+00
  0.00000000E+00  0.00000000E+00  0.00000000E+00
  0.00000000E+00  0.00000000E+00  0.00000000E+00
  0.00000000E+00  0.00000000E+00  0.00000000E+00
  0.00000000E+00  0.00000000E+00  0.00000000E+00
  0.00000000E+00  0.00000000E+00  0.00000000E+00
  0.00000000E+00  0.00000000E+00  0.00000000E+00
  0.00000000E+00  0.00000000E+00  0.00000000E+00
  0.00000000E+00  0.00000000E+00  0.00000000E+00
  0.00000000E+00  0.00000000E+00  0.00000000E+00
  0.00000000E+00  0.00000000E+00  0.00000000E+00
  0.00000000E+00  0.00000000E+00  0.00000000E+00
  0.00000000E+00  0.00000000E+00  0.00000000E+00
  0.00000000E+00  0.00000000E+00  0.00000000E+00
  0.00000000E+00  0.00000000E+00  0.00000000E+00
  0.00000000E+00  0.00000000E+00  0.00000000E+00
  0.00000000E+00  0.00000000E+00  0.00000000E+00
  0.00000000E+00  0.00000000E+00  0.00000000E+00
  0.00000000E+00  0.00000000E+00  0.00000000E+00
  0.00000000E+00  0.00000000E+00  0.00000000E+00
  0.00000000E+00  0.00000000E+00  0.00000000E+00
  0.00000000E+00  0.00000000E+00  0.00000000E+00
  0.00000000E+00  0.00000000E+00  0.00000000E+00
  0.00000000E+00  0.00000000E+00  0.00000000E+00
  0.00000000E+00  0.00000000E+00  0.00000000E+00
  0.00000000E+00  0.00000000E+00  0.00000000E+00
  0.00000000E+00  0.00000000E+00  0.00000000E+00
  0.00000000E+00  0.00000000E+00  0.00000000E+00
  0.00000000E+00  0.00000000E+00  0.00000000E+00
  0.00000000E+00  0.00000000E+00  0.00000000E+00
  0.00000000E+00  0.00000000E+00  0.00000000E+00
  0.00000000E+00  0.00000000E+00  0.00000000E+00
