CONTCAR\(5)                             
   1.00000000000000     
    11.0214996337999995    0.0000000000000000    0.0000000000000000
     0.0000000000000000   14.9139995575000004    0.0000000000000000
     0.0000000000000000    0.0000000000000000   19.5716991425000018
   Nb   Ni   Te   O    H 
     6     6    30     2     1
Selective dynamics
Direct
  0.0003649234751464  0.2465112584673292  0.4964324847021970   F   F   F
  0.9995334469374555  0.7487227572274548  0.5022898439611438   F   F   F
  0.3329208986459733  0.2482605180599009  0.4957849075563203   F   F   F
  0.3328252341673306  0.7498216895260370  0.5017756349545124   F   F   F
  0.6655070158799248  0.2462094026505355  0.4966229609719619   F   F   F
  0.6659717944031058  0.7486605900772076  0.5023346189211750   F   F   F
  0.1669370528863823  0.9978377681411388  0.4972377307319604   F   F   F
  0.1698143650085484  0.5009244582024195  0.4998937318447148   F   F   F
  0.4989121624837907  0.9973978738581906  0.4970930422265951   F   F   F
  0.4952340937394268  0.5011100696058861  0.5002925308566475   F   F   F
  0.8329947346452400  0.9986840199726075  0.4975998299265925   F   F   F
  0.8328987448223018  0.4986657281799083  0.5020681574666810   F   F   F
  0.9994267129952021  0.0742973072024142  0.4263009738093402   F   F   F
  0.9993379101569246  0.9229344623074454  0.5691446268083524   F   F   F
  0.0009335118828986  0.5755435750096396  0.5716399073146903   F   F   F
  0.0010363503473627  0.4222909898224501  0.4325198846064566   F   F   F
  0.1673214551091817  0.2493653989879689  0.3843392579550127   F   F   F
  0.1660690844994974  0.7508957042721534  0.6138469048873532   F   F   F
  0.1662268986173814  0.8545037994302334  0.4241022343318477   F   F   F
  0.1670045699381433  0.1387172224897810  0.5712640455579390   F   F   F
  0.1678420370384828  0.3573964533591294  0.5716896151828550   F   F   F
  0.1669755207928318  0.6436118990223463  0.4251945331925668   F   F   F
  0.3330117972513662  0.0748794160926991  0.4253447624478923   F   F   F
  0.3329406278628326  0.9220019939025121  0.5706974296613225   F   F   F
  0.3324965591031628  0.5792118182163506  0.5731459316831433   F   F   F
  0.3328883300192516  0.4226400458610655  0.4267732308332697   F   F   F
  0.4988518728808486  0.2492074319685429  0.3844128282180677   F   F   F
  0.4992677035056374  0.7507344756121128  0.6139081676793552   F   F   F
  0.4993865029371847  0.8543734252944617  0.4239217355710565   F   F   F
  0.4991506244499817  0.1379328298530851  0.5709900077430774   F   F   F
  0.4977515979184091  0.3572723707153926  0.5720620778005809   F   F   F
  0.4986043335518175  0.6435800392081816  0.4253293393513360   F   F   F
  0.6666066406202020  0.0742085054556654  0.4261621830818569   F   F   F
  0.6665685256519893  0.9227421480173703  0.5692171422542884   F   F   F
  0.6647706807322749  0.5756060357285548  0.5716845575515279   F   F   F
  0.6638135709746109  0.4221007067659386  0.4333661065193439   F   F   F
  0.8328156896324828  0.2471433121852229  0.3851483965793534   F   F   F
  0.8327256738442088  0.7496003887933966  0.6143388872181532   F   F   F
  0.8326299397313477  0.8528257521977309  0.4245009640825685   F   F   F
  0.8331615387505309  0.1419091277553335  0.5737179168343971   F   F   F
  0.8328414228983334  0.3509694517988535  0.5736126001042692   F   F   F
  0.8327161557069545  0.6425977413533985  0.4262280898593005   F   F   F
  0.3423358918103148  0.2525202197874279  0.7155765080036574   T   T   T
  0.3369944907190856  0.2935727154165519  0.6491665199292953   T   T   T
  0.3430515559746396  0.1881468471479550  0.7030307444638161   T   T   T
 
  0.00000000E+00  0.00000000E+00  0.00000000E+00
  0.00000000E+00  0.00000000E+00  0.00000000E+00
  0.00000000E+00  0.00000000E+00  0.00000000E+00
  0.00000000E+00  0.00000000E+00  0.00000000E+00
  0.00000000E+00  0.00000000E+00  0.00000000E+00
  0.00000000E+00  0.00000000E+00  0.00000000E+00
  0.00000000E+00  0.00000000E+00  0.00000000E+00
  0.00000000E+00  0.00000000E+00  0.00000000E+00
  0.00000000E+00  0.00000000E+00  0.00000000E+00
  0.00000000E+00  0.00000000E+00  0.00000000E+00
  0.00000000E+00  0.00000000E+00  0.00000000E+00
  0.00000000E+00  0.00000000E+00  0.00000000E+00
  0.00000000E+00  0.00000000E+00  0.00000000E+00
  0.00000000E+00  0.00000000E+00  0.00000000E+00
  0.00000000E+00  0.00000000E+00  0.00000000E+00
  0.00000000E+00  0.00000000E+00  0.00000000E+00
  0.00000000E+00  0.00000000E+00  0.00000000E+00
  0.00000000E+00  0.00000000E+00  0.00000000E+00
  0.00000000E+00  0.00000000E+00  0.00000000E+00
  0.00000000E+00  0.00000000E+00  0.00000000E+00
  0.00000000E+00  0.00000000E+00  0.00000000E+00
  0.00000000E+00  0.00000000E+00  0.00000000E+00
  0.00000000E+00  0.00000000E+00  0.00000000E+00
  0.00000000E+00  0.00000000E+00  0.00000000E+00
  0.00000000E+00  0.00000000E+00  0.00000000E+00
  0.00000000E+00  0.00000000E+00  0.00000000E+00
  0.00000000E+00  0.00000000E+00  0.00000000E+00
  0.00000000E+00  0.00000000E+00  0.00000000E+00
  0.00000000E+00  0.00000000E+00  0.00000000E+00
  0.00000000E+00  0.00000000E+00  0.00000000E+00
  0.00000000E+00  0.00000000E+00  0.00000000E+00
  0.00000000E+00  0.00000000E+00  0.00000000E+00
  0.00000000E+00  0.00000000E+00  0.00000000E+00
  0.00000000E+00  0.00000000E+00  0.00000000E+00
  0.00000000E+00  0.00000000E+00  0.00000000E+00
  0.00000000E+00  0.00000000E+00  0.00000000E+00
  0.00000000E+00  0.00000000E+00  0.00000000E+00
  0.00000000E+00  0.00000000E+00  0.00000000E+00
  0.00000000E+00  0.00000000E+00  0.00000000E+00
  0.00000000E+00  0.00000000E+00  0.00000000E+00
  0.00000000E+00  0.00000000E+00  0.00000000E+00
  0.00000000E+00  0.00000000E+00  0.00000000E+00
  0.00000000E+00  0.00000000E+00  0.00000000E+00
  0.00000000E+00  0.00000000E+00  0.00000000E+00
  0.00000000E+00  0.00000000E+00  0.00000000E+00
