CONTCAR\(3)                             
   1.00000000000000     
    15.7967996596999996    0.0000000000000000    0.0000000000000000
    -7.8983998298999998   13.6804298037999992    0.0000000000000000
     0.0000000000000000    0.0000000000000000   18.1074008942000013
   Co   I    O    H 
    16    32     2     1
Direct
  0.9989405279967772  0.0003938571057437  0.4982297420145354
  0.2473011223952175  0.9964764516509503  0.4977108510965226
  0.4983922269854300 -0.0000423329647526  0.4985816218371849
  0.7507554772341091  0.0032144211367905  0.4979412142630063
  0.9976315483842160  0.2502099478038410  0.4973972349566272
  0.2511981689397261  0.2505149314340451  0.4967538158177190
  0.4989360256334450  0.2519947543485949  0.4984695728955821
  0.7505630245989464  0.2489907586396977  0.4985387462757536
  0.0013229479193374  0.5012914605709954  0.4983021933110608
  0.2490085515309556  0.5017227822608390  0.4970578960952449
  0.4984022867011914  0.5010296129728623  0.4968674047849250
  0.7473575942180414  0.5005805265852593  0.4985811807534243
  0.0030161489114080  0.7525175924915146  0.4984910760004010
  0.2478986056114226  0.7517005546327609  0.4970512706460808
  0.5001140407290224  0.7503801022986403  0.4965281134261173
  0.7475092434237770  0.7486548945183523  0.4971312661614394
  0.0896069310232406  0.1705235147010410  0.4146512397708962
  0.1698590081330081  0.0911916320285456  0.5787761175950672
  0.3370325101400079  0.1750967867933814  0.4199929642467430
  0.4197826838433488  0.0907877171510401  0.5802575058139808
  0.5787136401325403  0.1704835083025576  0.4161955499985784
  0.6659501425773493  0.0837573964865591  0.5843848112579716
  0.8314214052100669  0.1665257736124481  0.4094921203508258
  0.9152686312403405  0.0833853554537052  0.5838351449526186
  0.0829539408210652  0.4182471649807430  0.4110241737331206
  0.1728853338707362  0.3316014265587410  0.5784779739053152
  0.3300760399942216  0.4096537116074024  0.4139304495974875
  0.4114661792585122  0.3285864345954451  0.5766916511856944
  0.5860663099784267  0.4156842924692036  0.4190958818198921
  0.6620054392428725  0.3381533312162962  0.5776664052531089
  0.8287015390257695  0.4214227994906035  0.4164957553676860
  0.9165815704546100  0.3337898611531821  0.5839133602661595
  0.0823680596993726  0.6675376691208648  0.4113472976017009
  0.1659082964643556  0.5839168783631374  0.5837902238404672
  0.3411105681208433  0.6700390972331802  0.4145800089667762
  0.4200926401496641  0.5911382877514999  0.5780749326843488
  0.5850382664445430  0.6714755447775248  0.4172590952601526
  0.6712048027177880  0.5872492503133853  0.5772850769862241
  0.8225011933078807  0.6619707044841968  0.4202190529990341
  0.9075149620994171  0.5797291370881091  0.5797470458182652
  0.0821485018083597  0.9166798702806945  0.4107497571329714
  0.1659409819333570  0.8348630527811910  0.5862914016751590
  0.3324161876684086  0.9181749260438912  0.4110197307871182
  0.4195254213281830  0.8300331147444224  0.5787514706923347
  0.5797613940623698  0.9111176419747459  0.4156876046818724
  0.6624765010898682  0.8258106213580430  0.5755467699261664
  0.8294180542179355  0.9103663057748995  0.4141431414637304
  0.9080523101895007  0.8303816071011282  0.5791095801517743
  0.5225300621478054  0.4829646613384738  0.6733450882892701
  0.5171218496488692  0.4960517621652905  0.7502749808588834
  0.5455608637423296  0.4575883222182504  0.7715634877329682
 
  0.00000000E+00  0.00000000E+00  0.00000000E+00
  0.00000000E+00  0.00000000E+00  0.00000000E+00
  0.00000000E+00  0.00000000E+00  0.00000000E+00
  0.00000000E+00  0.00000000E+00  0.00000000E+00
  0.00000000E+00  0.00000000E+00  0.00000000E+00
  0.00000000E+00  0.00000000E+00  0.00000000E+00
  0.00000000E+00  0.00000000E+00  0.00000000E+00
  0.00000000E+00  0.00000000E+00  0.00000000E+00
  0.00000000E+00  0.00000000E+00  0.00000000E+00
  0.00000000E+00  0.00000000E+00  0.00000000E+00
  0.00000000E+00  0.00000000E+00  0.00000000E+00
  0.00000000E+00  0.00000000E+00  0.00000000E+00
  0.00000000E+00  0.00000000E+00  0.00000000E+00
  0.00000000E+00  0.00000000E+00  0.00000000E+00
  0.00000000E+00  0.00000000E+00  0.00000000E+00
  0.00000000E+00  0.00000000E+00  0.00000000E+00
  0.00000000E+00  0.00000000E+00  0.00000000E+00
  0.00000000E+00  0.00000000E+00  0.00000000E+00
  0.00000000E+00  0.00000000E+00  0.00000000E+00
  0.00000000E+00  0.00000000E+00  0.00000000E+00
  0.00000000E+00  0.00000000E+00  0.00000000E+00
  0.00000000E+00  0.00000000E+00  0.00000000E+00
  0.00000000E+00  0.00000000E+00  0.00000000E+00
  0.00000000E+00  0.00000000E+00  0.00000000E+00
  0.00000000E+00  0.00000000E+00  0.00000000E+00
  0.00000000E+00  0.00000000E+00  0.00000000E+00
  0.00000000E+00  0.00000000E+00  0.00000000E+00
  0.00000000E+00  0.00000000E+00  0.00000000E+00
  0.00000000E+00  0.00000000E+00  0.00000000E+00
  0.00000000E+00  0.00000000E+00  0.00000000E+00
  0.00000000E+00  0.00000000E+00  0.00000000E+00
  0.00000000E+00  0.00000000E+00  0.00000000E+00
  0.00000000E+00  0.00000000E+00  0.00000000E+00
  0.00000000E+00  0.00000000E+00  0.00000000E+00
  0.00000000E+00  0.00000000E+00  0.00000000E+00
  0.00000000E+00  0.00000000E+00  0.00000000E+00
  0.00000000E+00  0.00000000E+00  0.00000000E+00
  0.00000000E+00  0.00000000E+00  0.00000000E+00
  0.00000000E+00  0.00000000E+00  0.00000000E+00
  0.00000000E+00  0.00000000E+00  0.00000000E+00
  0.00000000E+00  0.00000000E+00  0.00000000E+00
  0.00000000E+00  0.00000000E+00  0.00000000E+00
  0.00000000E+00  0.00000000E+00  0.00000000E+00
  0.00000000E+00  0.00000000E+00  0.00000000E+00
  0.00000000E+00  0.00000000E+00  0.00000000E+00
  0.00000000E+00  0.00000000E+00  0.00000000E+00
  0.00000000E+00  0.00000000E+00  0.00000000E+00
  0.00000000E+00  0.00000000E+00  0.00000000E+00
  0.00000000E+00  0.00000000E+00  0.00000000E+00
  0.00000000E+00  0.00000000E+00  0.00000000E+00
  0.00000000E+00  0.00000000E+00  0.00000000E+00
