CONTCAR                                 
   1.00000000000000     
    10.2665004730000007    0.0000000000000000    0.0000000000000000
     0.0000000000000000   17.1711997986000000    0.0000000000000000
     0.0000000000000000    0.0000000000000000   18.9181995391999997
   K    Fe   S    O    H 
     8    16    24     2     1
Direct
  0.1237204504229510  0.2500498182440083  0.4098733250344537
  0.3734849686047070  0.2501147131293706  0.5889636912853078
  0.6237658319909087  0.2500582305835408  0.4097786448704852
  0.8744001782603519  0.2502011025377655  0.5891816832514891
  0.1236656522697501  0.7500925491042381  0.4124763887036949
  0.3988326406883118  0.7499726543872853  0.6158688246741590
  0.6240874252434594  0.7501445257518995  0.4082137533972485
  0.8530431225812123  0.7502079506935573  0.6159546287527462
  0.9988072862069615  0.0729325327437493  0.4995606684688596
  0.2487471256630087  0.9250415435760715  0.4978596171063501
  0.9988894468416305  0.9250477202951402  0.4982012278190950
  0.2486668452893426  0.0729276614724625  0.4994512625996776
  0.4988138680820100  0.0741986981757279  0.4986673127849528
  0.7487531161017458  0.9269260146449199  0.4947751528992796
  0.4986138719045599  0.9268558830118891  0.4944890877950314
  0.7486785824080471  0.0741426200670077  0.4987231833699042
  0.9989206421247090  0.5751483024454700  0.4980787789524541
  0.2486684608019303  0.4272319612293316  0.4993262196660311
  0.9987975567657017  0.4272357835762293  0.4994182529282156
  0.2487834627582970  0.5751382235396463  0.4977604569868674
  0.4986433862373119  0.5732824802716294  0.4943515356888497
  0.7486901338162468  0.4260022670245931  0.4986050126565544
  0.4987797320835838  0.4259568475280417  0.4985159182185086
  0.7487924200738263  0.5732267532474253  0.4946342416572733
  0.3724707643178604  0.8592344851680735  0.4309194361254214
  0.1237825524554808  0.1409227741954311  0.5644247903311808
  0.1242475023576759  0.8552191947014975  0.5607983535848646
  0.3751596818669114  0.9984167595846571  0.5621153036336537
  0.1236645118834119  0.9999290233562022  0.4344124707987191
  0.3723695342796489  0.1433435593022523  0.4358158120847051
  0.8750788970243804  0.8591022066558125  0.4314879298139331
  0.6238544843296125  0.1419987388240713  0.5638207270081637
  0.6235606286036273  0.8567883553779296  0.5551874932661462
  0.8723170488486502  0.9985138156550661  0.5623522938247518
  0.6237751551265092  0.0029843194018326  0.4317386971091182
  0.8750582148304247  0.1432575875762652  0.4358032979586284
  0.3723288020744917  0.3567880050179468  0.4356884936425374
  0.1242879665734478  0.6450077100898710  0.5606995263985937
  0.1237775126529286  0.3592473525317388  0.5643238377630979
  0.3751611832219979  0.5017419104072260  0.5619760243042080
  0.1236925637124742  0.5002653420862515  0.4343095177205782
  0.3724890201045312  0.6410234096649816  0.4308827993779687
  0.8750307267243329  0.3568875616871097  0.4356863880639921
  0.6235820639591623  0.6431773861197243  0.5551462272299901
  0.6237933702034866  0.3581438225834574  0.5636959072714873
  0.8724059354001170  0.5016562145734795  0.5622145207036340
  0.6237809365903857  0.4971363209800757  0.4316098814487077
  0.8750696155052751  0.6410828543235993  0.4313819588280552
  0.7179236244888472  0.7494569500059498  0.7380937774074710
  0.6199319710073254  0.7507392670044979  0.6822421533895948
  0.6654195106364398  0.7536680258439930  0.7809635753432929
 
  0.00000000E+00  0.00000000E+00  0.00000000E+00
  0.00000000E+00  0.00000000E+00  0.00000000E+00
  0.00000000E+00  0.00000000E+00  0.00000000E+00
  0.00000000E+00  0.00000000E+00  0.00000000E+00
  0.00000000E+00  0.00000000E+00  0.00000000E+00
  0.00000000E+00  0.00000000E+00  0.00000000E+00
  0.00000000E+00  0.00000000E+00  0.00000000E+00
  0.00000000E+00  0.00000000E+00  0.00000000E+00
  0.00000000E+00  0.00000000E+00  0.00000000E+00
  0.00000000E+00  0.00000000E+00  0.00000000E+00
  0.00000000E+00  0.00000000E+00  0.00000000E+00
  0.00000000E+00  0.00000000E+00  0.00000000E+00
  0.00000000E+00  0.00000000E+00  0.00000000E+00
  0.00000000E+00  0.00000000E+00  0.00000000E+00
  0.00000000E+00  0.00000000E+00  0.00000000E+00
  0.00000000E+00  0.00000000E+00  0.00000000E+00
  0.00000000E+00  0.00000000E+00  0.00000000E+00
  0.00000000E+00  0.00000000E+00  0.00000000E+00
  0.00000000E+00  0.00000000E+00  0.00000000E+00
  0.00000000E+00  0.00000000E+00  0.00000000E+00
  0.00000000E+00  0.00000000E+00  0.00000000E+00
  0.00000000E+00  0.00000000E+00  0.00000000E+00
  0.00000000E+00  0.00000000E+00  0.00000000E+00
  0.00000000E+00  0.00000000E+00  0.00000000E+00
  0.00000000E+00  0.00000000E+00  0.00000000E+00
  0.00000000E+00  0.00000000E+00  0.00000000E+00
  0.00000000E+00  0.00000000E+00  0.00000000E+00
  0.00000000E+00  0.00000000E+00  0.00000000E+00
  0.00000000E+00  0.00000000E+00  0.00000000E+00
  0.00000000E+00  0.00000000E+00  0.00000000E+00
  0.00000000E+00  0.00000000E+00  0.00000000E+00
  0.00000000E+00  0.00000000E+00  0.00000000E+00
  0.00000000E+00  0.00000000E+00  0.00000000E+00
  0.00000000E+00  0.00000000E+00  0.00000000E+00
  0.00000000E+00  0.00000000E+00  0.00000000E+00
  0.00000000E+00  0.00000000E+00  0.00000000E+00
  0.00000000E+00  0.00000000E+00  0.00000000E+00
  0.00000000E+00  0.00000000E+00  0.00000000E+00
  0.00000000E+00  0.00000000E+00  0.00000000E+00
  0.00000000E+00  0.00000000E+00  0.00000000E+00
  0.00000000E+00  0.00000000E+00  0.00000000E+00
  0.00000000E+00  0.00000000E+00  0.00000000E+00
  0.00000000E+00  0.00000000E+00  0.00000000E+00
  0.00000000E+00  0.00000000E+00  0.00000000E+00
  0.00000000E+00  0.00000000E+00  0.00000000E+00
  0.00000000E+00  0.00000000E+00  0.00000000E+00
  0.00000000E+00  0.00000000E+00  0.00000000E+00
  0.00000000E+00  0.00000000E+00  0.00000000E+00
  0.00000000E+00  0.00000000E+00  0.00000000E+00
  0.00000000E+00  0.00000000E+00  0.00000000E+00
  0.00000000E+00  0.00000000E+00  0.00000000E+00
