CONTCAR\(6)                             
   1.00000000000000     
    11.2130002975000007    0.0000000000000000    0.0000000000000000
     0.0000000000000000   15.4723997115999996    0.0000000000000000
     0.0000000000000000    0.0000000000000000   19.4957008362000010
   Ta   Te   Pt   O 
     6    30     6     1
Direct
  0.9995432035217104  0.2518488259132431  0.5035968358610147
 -0.0002363381050965  0.7533851031725708  0.4963841973520596
  0.3335736286081607  0.2507801015947971  0.5055926710120240
  0.3332423293712983  0.7530440295570890  0.4970861635898486
  0.6673568929745327  0.2520948076880831  0.5036740581850810
  0.6669202866860855  0.7534453246972579  0.4963352093712576
  0.1650436301103022  0.2500945910062369  0.6151994476367577
  0.1671974595199731  0.7530141434059840  0.3851290848624648
  0.0009959926275942  0.9189663590165472  0.4242716532985132
  0.9990474039460391  0.0856385625331894  0.5746849632029660
  0.1678381771045212  0.1501966936119937  0.4268337608402495
  0.1664158691516409  0.8544758951042888  0.5745568161238298
  0.1652726073883146  0.6516692612034884  0.5740917765263022
  0.1674667500400920  0.3535598439678846  0.4270708633690452
 -0.0019310159888386  0.5879291689527436  0.4242486138921306
  0.9992927761240542  0.4175651687920454  0.5761158677507456
  0.5019507245725342  0.2503254052300894  0.6153406649446492
  0.4994737102911604  0.7533441793275222  0.3851261749399648
  0.3335052148951598  0.9182576457734763  0.4246322072299197
  0.3335377613756158  0.0851200992763701  0.5765459048067806
  0.4995578570663861  0.1505718555767778  0.4265355391727670
  0.5002333910202710  0.8547547086089919  0.5740379648398690
  0.5012345545888705  0.6520109371519479  0.5742419908568693
  0.4994187197917904  0.3539612408681526  0.4271605575863291
  0.3329970065378131  0.5871276633987392  0.4262973261613552
  0.3330273915270273  0.4240683852949038  0.5689216139224407
  0.8333879069698388  0.2506659286222422  0.6149826288102628
  0.8333020284738385  0.7540430796653311  0.3848473987193941
  0.6661186486743759  0.9189882100306049  0.4241730131365827
  0.6677757858334646  0.0858503718173755  0.5746069688341067
  0.8333242433109095  0.1512779374988629  0.4252834393896122
  0.8333816597516277  0.8551621120329227  0.5733984937223151
  0.8332569113381487  0.6517609392383071  0.5738572680314832
  0.8334335237487360  0.3547179457962419  0.4268629435476075
  0.6681770120108211  0.5879440982119986  0.4243166233208727
  0.6669765958775686  0.4178505559191419  0.5762880163505607
  0.1672751881178189  0.0023266380603392  0.5003849426439982
  0.1629173063816214  0.5041783682876969  0.5005369359133055
  0.4996745503927374  0.0026994866123194  0.5000894840597111
  0.5032501532968795  0.5043910206749345  0.5007303224734210
  0.8333605873129784  0.0027851611648746  0.4987425313005788
  0.8332211847959757  0.5027827731008898  0.5005677729423444
  0.3326809849656531  0.4507052365415318  0.6611595174686228
 
  0.00000000E+00  0.00000000E+00  0.00000000E+00
  0.00000000E+00  0.00000000E+00  0.00000000E+00
  0.00000000E+00  0.00000000E+00  0.00000000E+00
  0.00000000E+00  0.00000000E+00  0.00000000E+00
  0.00000000E+00  0.00000000E+00  0.00000000E+00
  0.00000000E+00  0.00000000E+00  0.00000000E+00
  0.00000000E+00  0.00000000E+00  0.00000000E+00
  0.00000000E+00  0.00000000E+00  0.00000000E+00
  0.00000000E+00  0.00000000E+00  0.00000000E+00
  0.00000000E+00  0.00000000E+00  0.00000000E+00
  0.00000000E+00  0.00000000E+00  0.00000000E+00
  0.00000000E+00  0.00000000E+00  0.00000000E+00
  0.00000000E+00  0.00000000E+00  0.00000000E+00
  0.00000000E+00  0.00000000E+00  0.00000000E+00
  0.00000000E+00  0.00000000E+00  0.00000000E+00
  0.00000000E+00  0.00000000E+00  0.00000000E+00
  0.00000000E+00  0.00000000E+00  0.00000000E+00
  0.00000000E+00  0.00000000E+00  0.00000000E+00
  0.00000000E+00  0.00000000E+00  0.00000000E+00
  0.00000000E+00  0.00000000E+00  0.00000000E+00
  0.00000000E+00  0.00000000E+00  0.00000000E+00
  0.00000000E+00  0.00000000E+00  0.00000000E+00
  0.00000000E+00  0.00000000E+00  0.00000000E+00
  0.00000000E+00  0.00000000E+00  0.00000000E+00
  0.00000000E+00  0.00000000E+00  0.00000000E+00
  0.00000000E+00  0.00000000E+00  0.00000000E+00
  0.00000000E+00  0.00000000E+00  0.00000000E+00
  0.00000000E+00  0.00000000E+00  0.00000000E+00
  0.00000000E+00  0.00000000E+00  0.00000000E+00
  0.00000000E+00  0.00000000E+00  0.00000000E+00
  0.00000000E+00  0.00000000E+00  0.00000000E+00
  0.00000000E+00  0.00000000E+00  0.00000000E+00
  0.00000000E+00  0.00000000E+00  0.00000000E+00
  0.00000000E+00  0.00000000E+00  0.00000000E+00
  0.00000000E+00  0.00000000E+00  0.00000000E+00
  0.00000000E+00  0.00000000E+00  0.00000000E+00
  0.00000000E+00  0.00000000E+00  0.00000000E+00
  0.00000000E+00  0.00000000E+00  0.00000000E+00
  0.00000000E+00  0.00000000E+00  0.00000000E+00
  0.00000000E+00  0.00000000E+00  0.00000000E+00
  0.00000000E+00  0.00000000E+00  0.00000000E+00
  0.00000000E+00  0.00000000E+00  0.00000000E+00
  0.00000000E+00  0.00000000E+00  0.00000000E+00
