CONTCAR                                 
   1.00000000000000     
    11.3364000320000002    0.0000000000000000    0.0000000000000000
     0.0000000000000000   11.1918001174999997    0.0000000000000000
     0.0000000000000000    0.0000000000000000   20.5198993682999991
   Mn   Sb   Se   Br   O    H 
     6     6    12     6     2     1
Direct
  0.1685708080900099  0.5105415421148720  0.5053569971628491
  0.1712044498791556  0.9913514904987650  0.4946935018441607
  0.4995761191076156  0.5060086627107339  0.5114090071313626
  0.5014579485778370  0.9952763450529147  0.4993984718176705
  0.8333828885469288  0.5033450337009810  0.5060159683120773
  0.8366856977731842  0.9965364864799895  0.4902520095251788
  0.0064719865467211  0.7760844970519614  0.5933264476405995
  0.3357024684147447  0.2839574041266957  0.4015112630689615
  0.3271780203142995  0.7916360752233373  0.6211388550324273
  0.6641886479663839  0.2848762442523523  0.4008844433520906
  0.6783708698333655  0.7879910277158473  0.6086020260526368
  0.0015478263430637  0.2824885950829881  0.3981801108635423
  0.3370897980352154  0.5118215463386235  0.4171708155280243
  0.1666042111603190  0.2407242007029353  0.4881065276843728
  0.1640207931682909  0.7462734703387000  0.5034129006204111
  0.0020476865513928  0.0085013547330277  0.5802853367899843
  0.6636331944715295  0.5122505313149901  0.4179288665845178
  0.5009402906944231  0.2415754452646794  0.4911632575973641
  0.4961966267785272  0.7466662283152985  0.5307370407909957
  0.3333669899797940  0.0152975042882204  0.5879639119659572
  0.0004231854824965  0.5094736649150349  0.4150736124001710
  0.8346448807981872  0.2422611447115486  0.4871335633317457
  0.8299090515622396  0.7439450530576082  0.5099296412051117
  0.6798663563927221  0.0151692541155768  0.5825958639253059
  0.0011023608576934  0.4770618403867886  0.5937614025880649
  0.9999547075196631  0.9789787160867860  0.4022277425853531
  0.3301834860296893  0.4719923905157728  0.5954416877643069
  0.3382184495413725  0.9729761011434661  0.4080305169362788
  0.6699638749697741  0.4727300042559648  0.5963513057190681
  0.6637969661759513  0.9708892420006379  0.4067453099414138
  0.4393081225374473  0.7968164828567339  0.7009172171250881
  0.5334157631648679  0.8892429583983485  0.6978412400181071
  0.5615156157351038  0.8859795132478183  0.7430834350947606
 
  0.00000000E+00  0.00000000E+00  0.00000000E+00
  0.00000000E+00  0.00000000E+00  0.00000000E+00
  0.00000000E+00  0.00000000E+00  0.00000000E+00
  0.00000000E+00  0.00000000E+00  0.00000000E+00
  0.00000000E+00  0.00000000E+00  0.00000000E+00
  0.00000000E+00  0.00000000E+00  0.00000000E+00
  0.00000000E+00  0.00000000E+00  0.00000000E+00
  0.00000000E+00  0.00000000E+00  0.00000000E+00
  0.00000000E+00  0.00000000E+00  0.00000000E+00
  0.00000000E+00  0.00000000E+00  0.00000000E+00
  0.00000000E+00  0.00000000E+00  0.00000000E+00
  0.00000000E+00  0.00000000E+00  0.00000000E+00
  0.00000000E+00  0.00000000E+00  0.00000000E+00
  0.00000000E+00  0.00000000E+00  0.00000000E+00
  0.00000000E+00  0.00000000E+00  0.00000000E+00
  0.00000000E+00  0.00000000E+00  0.00000000E+00
  0.00000000E+00  0.00000000E+00  0.00000000E+00
  0.00000000E+00  0.00000000E+00  0.00000000E+00
  0.00000000E+00  0.00000000E+00  0.00000000E+00
  0.00000000E+00  0.00000000E+00  0.00000000E+00
  0.00000000E+00  0.00000000E+00  0.00000000E+00
  0.00000000E+00  0.00000000E+00  0.00000000E+00
  0.00000000E+00  0.00000000E+00  0.00000000E+00
  0.00000000E+00  0.00000000E+00  0.00000000E+00
  0.00000000E+00  0.00000000E+00  0.00000000E+00
  0.00000000E+00  0.00000000E+00  0.00000000E+00
  0.00000000E+00  0.00000000E+00  0.00000000E+00
  0.00000000E+00  0.00000000E+00  0.00000000E+00
  0.00000000E+00  0.00000000E+00  0.00000000E+00
  0.00000000E+00  0.00000000E+00  0.00000000E+00
  0.00000000E+00  0.00000000E+00  0.00000000E+00
  0.00000000E+00  0.00000000E+00  0.00000000E+00
  0.00000000E+00  0.00000000E+00  0.00000000E+00
