CONTCAR\(11)                            
   1.00000000000000     
    13.2923002242999999    0.0000000000000000    0.0000000000000000
     6.5701190447000002   11.5675693128999999    0.0000000000000000
     0.0000000000000000    0.0000000000000000   18.3850994109999988
   Nb   Ir   S    O    H 
    12     4    32     1     1
Selective dynamics
Direct
  0.2405886806338771  0.0219926083341875  0.5030249599745105   F   F   F
  0.4816096250706252  0.9982057018366461  0.5050248795422760   F   F   F
  0.4894174404084737  0.2321488365557229  0.5010769059467677   F   F   F
  0.7664632898150927  0.0112928800549739  0.5064194050686837   F   F   F
  0.0011536994745853  0.0218131489330204  0.5037652411633005   F   F   F
  0.9795934832195030  0.2620244666199625  0.5049079001427970   F   F   F
  0.2608839359692610  0.5168277966938390  0.4986643901763443   F   F   F
  0.4972418569198780  0.5249291662219804  0.5052984431548282   F   F   F
  0.4795292475872515  0.7604024476782243  0.5057790467461771   F   F   F
  0.7378754673807890  0.5225147450954282  0.5020669695897837   F   F   F
  0.9839952017271401  0.4995658169440418  0.5037046445259392   F   F   F
  0.9908588104218481  0.7352198662364700  0.5023418121611627   F   F   F
  0.2726824502676806  0.2283133442191030  0.5014916519243258   F   F   F
  0.7715835287867705  0.2303545727290555  0.5070075681962365   F   F   F
  0.2708028248226810  0.7323661179230783  0.5057281726087410   F   F   F
  0.7725061856234063  0.7278487025031311  0.5019647304020651   F   F   F
  0.3384087281327055  0.0774004051761068  0.4103209820929408   F   F   F
  0.0794400340159811  0.0972021190752699  0.4149937410272031   F   F   F
  0.0972280340137743  0.3242837572761132  0.4290731735794111   F   F   F
  0.3310029528369753  0.3316116889995584  0.4193227391461676   F   F   F
  0.1641788874792667  0.1792953546521971  0.5859536765715987   F   F   F
  0.4197076642345365  0.1581212353056713  0.5949041559049135   F   F   F
  0.4229131472270993  0.4167046814552933  0.5777387614390790   F   F   F
  0.1791319975230223  0.4063404463084694  0.5698631617149701   F   F   F
  0.8416886959708521  0.0829125802919322  0.4138765393136978   F   F   F
  0.5867802106144211  0.0779180706306590  0.4221040699426624   F   F   F
  0.5919511996580766  0.3276170990392018  0.4402660480202059   F   F   F
  0.8221312354772863  0.3369866727841639  0.4218919343645879   F   F   F
  0.6673368630164944  0.1697670205703616  0.5871131880951737   F   F   F
  0.9227076630463742  0.1654874978026371  0.5980524904010309   F   F   F
  0.9061290393756991  0.4235009254696749  0.5921774134653788   F   F   F
  0.6777692915144016  0.4069776021670606  0.5780299493852326   F   F   F
  0.3440995546188148  0.5878399607855656  0.4104261189452174   F   F   F
  0.0841954818304558  0.5814694256492672  0.4191184787156885   F   F   F
  0.0942066636136190  0.8275846621852665  0.4364516475329268   F   F   F
  0.3232096524643850  0.8384081830763677  0.4218838143681936   F   F   F
  0.1703909574196629  0.6682020567833433  0.5858799687939609   F   F   F
  0.4190116419449907  0.6678515161610292  0.5990353758236466   F   F   F
  0.4035194022838979  0.9227198797013472  0.5937602810017779   F   F   F
  0.1754482376782391  0.9066249819555381  0.5787116067809848   F   F   F
  0.8390835855278098  0.5768644155850779  0.4104546545752328   F   F   F
  0.5797846861483364  0.5987543884610389  0.4148598219820769   F   F   F
  0.5966077216670342  0.8250700670907989  0.4298548032441190   F   F   F
  0.8311635597401761  0.8333871665876345  0.4218858676086228   F   F   F
  0.6645799224173672  0.6777605220315408  0.5862521397021894   F   F   F
  0.9212414181998199  0.6575989208048725  0.5945938363285350   F   F   F
  0.9230384872445683  0.9150111072948661  0.5853479364359231   F   F   F
  0.6768032300027613  0.9045548683564206  0.5714359266964024   F   F   F
  0.4072643181013973  0.4223149150606176  0.6677187691267719   T   T   T
  0.3260992198308089  0.4442863768461720  0.6765244694482696   T   T   T
 
  0.00000000E+00  0.00000000E+00  0.00000000E+00
  0.00000000E+00  0.00000000E+00  0.00000000E+00
  0.00000000E+00  0.00000000E+00  0.00000000E+00
  0.00000000E+00  0.00000000E+00  0.00000000E+00
  0.00000000E+00  0.00000000E+00  0.00000000E+00
  0.00000000E+00  0.00000000E+00  0.00000000E+00
  0.00000000E+00  0.00000000E+00  0.00000000E+00
  0.00000000E+00  0.00000000E+00  0.00000000E+00
  0.00000000E+00  0.00000000E+00  0.00000000E+00
  0.00000000E+00  0.00000000E+00  0.00000000E+00
  0.00000000E+00  0.00000000E+00  0.00000000E+00
  0.00000000E+00  0.00000000E+00  0.00000000E+00
  0.00000000E+00  0.00000000E+00  0.00000000E+00
  0.00000000E+00  0.00000000E+00  0.00000000E+00
  0.00000000E+00  0.00000000E+00  0.00000000E+00
  0.00000000E+00  0.00000000E+00  0.00000000E+00
  0.00000000E+00  0.00000000E+00  0.00000000E+00
  0.00000000E+00  0.00000000E+00  0.00000000E+00
  0.00000000E+00  0.00000000E+00  0.00000000E+00
  0.00000000E+00  0.00000000E+00  0.00000000E+00
  0.00000000E+00  0.00000000E+00  0.00000000E+00
  0.00000000E+00  0.00000000E+00  0.00000000E+00
  0.00000000E+00  0.00000000E+00  0.00000000E+00
  0.00000000E+00  0.00000000E+00  0.00000000E+00
  0.00000000E+00  0.00000000E+00  0.00000000E+00
  0.00000000E+00  0.00000000E+00  0.00000000E+00
  0.00000000E+00  0.00000000E+00  0.00000000E+00
  0.00000000E+00  0.00000000E+00  0.00000000E+00
  0.00000000E+00  0.00000000E+00  0.00000000E+00
  0.00000000E+00  0.00000000E+00  0.00000000E+00
  0.00000000E+00  0.00000000E+00  0.00000000E+00
  0.00000000E+00  0.00000000E+00  0.00000000E+00
  0.00000000E+00  0.00000000E+00  0.00000000E+00
  0.00000000E+00  0.00000000E+00  0.00000000E+00
  0.00000000E+00  0.00000000E+00  0.00000000E+00
  0.00000000E+00  0.00000000E+00  0.00000000E+00
  0.00000000E+00  0.00000000E+00  0.00000000E+00
  0.00000000E+00  0.00000000E+00  0.00000000E+00
  0.00000000E+00  0.00000000E+00  0.00000000E+00
  0.00000000E+00  0.00000000E+00  0.00000000E+00
  0.00000000E+00  0.00000000E+00  0.00000000E+00
  0.00000000E+00  0.00000000E+00  0.00000000E+00
  0.00000000E+00  0.00000000E+00  0.00000000E+00
  0.00000000E+00  0.00000000E+00  0.00000000E+00
  0.00000000E+00  0.00000000E+00  0.00000000E+00
  0.00000000E+00  0.00000000E+00  0.00000000E+00
  0.00000000E+00  0.00000000E+00  0.00000000E+00
  0.00000000E+00  0.00000000E+00  0.00000000E+00
  0.00000000E+00  0.00000000E+00  0.00000000E+00
  0.00000000E+00  0.00000000E+00  0.00000000E+00
