 Cu1 Br2                                
   1.00000000000000     
     3.4683548931423425    0.0000000000000000    0.0000000000000000
    -1.7341774465711712    3.6286972418934251    0.0000000000000000
     0.0000000000000000    0.0000000000000000   17.9979696339759982
   Cu   Br
     1     2
Direct
  0.0000000541646585  0.0000000818286097  0.4999999898958194
  0.4009755618793562  0.8019885285937178  0.4151777729524539
  0.5990243839559852  0.1980113895776796  0.5848222371517267
 
  0.00000000E+00  0.00000000E+00  0.00000000E+00
  0.00000000E+00  0.00000000E+00  0.00000000E+00
  0.00000000E+00  0.00000000E+00  0.00000000E+00
