CONTCAR\(2)                             
   1.00000000000000     
    12.0352001190000006    0.0000000000000000    0.0000000000000000
     0.0000000000000000   12.2138004302999992    0.0000000000000000
     0.0000000000000000    0.0000000000000000   16.9626007080000001
   Cu   Se   O    H 
     8     8    26     1
Selective dynamics
Direct
  0.0880649708810424  0.9141634555215319  0.4818312470944690   F   F   F
  0.3349503162286638  0.5945805398935704  0.5125530570526280   F   F   F
  0.4179334313510026  0.0982116303118801  0.5439470593793985   F   F   F
  0.1687795791980804  0.4112325555894145  0.4828261251389918   F   F   F
  0.5816900105336273  0.9134011190293236  0.4983428058401245   F   F   F
  0.8339106170904671  0.5957172435610829  0.4992752519270667   F   F   F
  0.9194828775905464  0.0966141472442814  0.5055921532937759   F   F   F
  0.6648357572217947  0.4117289323821396  0.4787779217220560   F   F   F
  0.1987772006276245  0.1515420052484870  0.4830898826658796   F   F   F
  0.4443080262072172  0.3570490147009977  0.5258031497230249   F   F   F
  0.3076942449766591  0.8538422029611183  0.5284854128882870   F   F   F
  0.0618488415702387  0.6548992008814736  0.4702521049761472   F   F   F
  0.6893153132167882  0.1519375928086149  0.4830687860123604   F   F   F
  0.9414025213181532  0.3529195549515123  0.5093451633928368   F   F   F
  0.8123168489682939  0.8523270213363645  0.5166540394932539   F   F   F
  0.5581788236446528  0.6574808746908332  0.4771487346338859   F   F   F
  0.4858020492223503  0.5889263718942885  0.5502579354726862   F   F   F
  0.2423867189392013  0.9190012054708632  0.4506836666479046   F   F   F
  0.0227262349262674  0.4112745730004477  0.4366725837299654   F   F   F
  0.2576710626655014  0.0912563597152527  0.5651504452930212   F   F   F
  0.1837688470881176  0.5715155950599780  0.4774884946125866   F   F   F
  0.4312455793344228  0.9336216716857280  0.5368777836239644   F   F   F
  0.3188607008063187  0.4369225457923136  0.5188547839724720   F   F   F
  0.0727493815173545  0.0724425907418507  0.4763298512795160   F   F   F
  0.1414270176299013  0.2672553008373981  0.5249255905010699   F   F   F
  0.3925083127782614  0.2368641025921647  0.4878172595587102   F   F   F
  0.3608800816699826  0.7424722617770527  0.4783471184095376   F   F   F
  0.1083664170165335  0.7674986002125124  0.5217771897729051   F   F   F
  0.9819481357569302  0.5924866200894101  0.5419090138083931   F   F   F
  0.7262385741661888  0.9176278179170936  0.4497322531932966   F   F   F
  0.5133078685069634  0.4073680384207634  0.4437658086792595   F   F   F
  0.7756757315910647  0.0973358551229353  0.5546106582610832   F   F   F
  0.6791657518304817  0.5724373342675335  0.4736123156002563   F   F   F
  0.9323475829177070  0.9371547733558927  0.5060209903447515   F   F   F
  0.8204167301423269  0.4372357937023068  0.4987441564965778   F   F   F
  0.5676767198138037  0.0713618109443175  0.5001006749938881   F   F   F
  0.6467063703918754  0.2707302944768202  0.5288678833502161   F   F   F
  0.8917466038204367  0.2390319035293587  0.4608985475175302   F   F   F
  0.8573176110926042  0.7426484030531384  0.4612655193258490   F   F   F
  0.6114120456795433  0.7648758150017301  0.5313497968515719   F   F   F
  0.4700108962259577  0.1587262015665445  0.6495517656253895   T   T   T
  0.3987725025993782  0.1533314906848844  0.7132382665060746   T   T   T
  0.4076052352456613  0.0775595139747694  0.7316527289765949   T   T   T
 
  0.00000000E+00  0.00000000E+00  0.00000000E+00
  0.00000000E+00  0.00000000E+00  0.00000000E+00
  0.00000000E+00  0.00000000E+00  0.00000000E+00
  0.00000000E+00  0.00000000E+00  0.00000000E+00
  0.00000000E+00  0.00000000E+00  0.00000000E+00
  0.00000000E+00  0.00000000E+00  0.00000000E+00
  0.00000000E+00  0.00000000E+00  0.00000000E+00
  0.00000000E+00  0.00000000E+00  0.00000000E+00
  0.00000000E+00  0.00000000E+00  0.00000000E+00
  0.00000000E+00  0.00000000E+00  0.00000000E+00
  0.00000000E+00  0.00000000E+00  0.00000000E+00
  0.00000000E+00  0.00000000E+00  0.00000000E+00
  0.00000000E+00  0.00000000E+00  0.00000000E+00
  0.00000000E+00  0.00000000E+00  0.00000000E+00
  0.00000000E+00  0.00000000E+00  0.00000000E+00
  0.00000000E+00  0.00000000E+00  0.00000000E+00
  0.00000000E+00  0.00000000E+00  0.00000000E+00
  0.00000000E+00  0.00000000E+00  0.00000000E+00
  0.00000000E+00  0.00000000E+00  0.00000000E+00
  0.00000000E+00  0.00000000E+00  0.00000000E+00
  0.00000000E+00  0.00000000E+00  0.00000000E+00
  0.00000000E+00  0.00000000E+00  0.00000000E+00
  0.00000000E+00  0.00000000E+00  0.00000000E+00
  0.00000000E+00  0.00000000E+00  0.00000000E+00
  0.00000000E+00  0.00000000E+00  0.00000000E+00
  0.00000000E+00  0.00000000E+00  0.00000000E+00
  0.00000000E+00  0.00000000E+00  0.00000000E+00
  0.00000000E+00  0.00000000E+00  0.00000000E+00
  0.00000000E+00  0.00000000E+00  0.00000000E+00
  0.00000000E+00  0.00000000E+00  0.00000000E+00
  0.00000000E+00  0.00000000E+00  0.00000000E+00
  0.00000000E+00  0.00000000E+00  0.00000000E+00
  0.00000000E+00  0.00000000E+00  0.00000000E+00
  0.00000000E+00  0.00000000E+00  0.00000000E+00
  0.00000000E+00  0.00000000E+00  0.00000000E+00
  0.00000000E+00  0.00000000E+00  0.00000000E+00
  0.00000000E+00  0.00000000E+00  0.00000000E+00
  0.00000000E+00  0.00000000E+00  0.00000000E+00
  0.00000000E+00  0.00000000E+00  0.00000000E+00
  0.00000000E+00  0.00000000E+00  0.00000000E+00
  0.00000000E+00  0.00000000E+00  0.00000000E+00
  0.00000000E+00  0.00000000E+00  0.00000000E+00
  0.00000000E+00  0.00000000E+00  0.00000000E+00
