CONTCAR\(2)                             
   1.00000000000000     
    13.2992000580000003    0.0000000000000000    0.0000000000000000
    -6.6496130274000000   11.5161678841999997    0.0000000000000000
     0.0000000000000000    0.0000000000000000   36.9292984009000023
   Bi   Te   O 
    54    54     1
Direct
  0.1107614939968546  0.2207226374781649  0.6375672411051333
  0.2222774124533880  0.1120681068112069  0.3622261120302226
  0.3343677597610916  0.3342006099923479  0.2527127595978302
  0.3232935464608918  0.3134369539570322  0.7433889511784512
  0.2227844967768479  0.1127503352047134  0.5228360979100871
  0.1115656335883136  0.2231300391275279  0.4772101497335087
  0.4448192531907390  0.2216461935232884  0.6373445385823372
  0.5564397114028741  0.1125260157836386  0.3627417076783936
  0.6666939566954322  0.3333969374404390  0.2527708719739599
  0.6661854822252897  0.3327379954643068  0.7470185705485884
  0.5568113963301312  0.1135142583414141  0.5225040242196060
  0.4448561011994169  0.2239128945072207  0.4771812670307285
  0.7775146051715314  0.2205081787589084  0.6379148338693095
  0.8899787596840421  0.1120816901347116  0.3622117493160091
 -0.0000595525145840  0.3342382871534254  0.2526817517109834
  0.9998388739187424  0.3335188005495559  0.7471806875197119
  0.8896939496799936  0.1124917210016581  0.5227524676721950
  0.7788686217037909  0.2235548137502350  0.4770561931971682
  0.1112726253829238  0.5532560607215002  0.6375236270416744
  0.2227035387159661  0.4454125570004382  0.3626954533950891
  0.3334199443166970  0.6668222652654548  0.2530916382889335
  0.3328759283607927  0.6661956183720205  0.7472217396932171
  0.2227140783964478  0.4452906744614024  0.5228867117234699
  0.1132248133242277  0.5577211678665444  0.4774638720999430
  0.4457618339179893  0.5560685879613497  0.6374710759288510
  0.5556937343232191  0.4457932018106014  0.3625620073824450
  0.6660408882269366  0.6659244585384905  0.2527238995447898
  0.6650226588267055  0.6657960174446329  0.7475756530811432
  0.5561952366686649  0.4463650183685996  0.5227761310337236
  0.4449870532754782  0.5574108294597818  0.4775357044178374
  0.7767347454404550  0.5544887900166736  0.6376171665459817
  0.8901118472714448  0.4458338290387626  0.3625608615861709
  0.9998946964794310  0.6659057131394313  0.2527215769930474
  0.9995638773548340  0.6650925864270172  0.7472075009211822
  0.8904101952741917  0.4460025641688915  0.5224813318361674
  0.7784610052773111  0.5570908373831792  0.4772674970527251
  0.1080512156054681  0.8826116943919398  0.6367316295420519
  0.2226358176365769  0.7790874934705136  0.3623605025723283
  0.3342740122069085  0.0002943546650370  0.2527539727778016
  0.3350643587438785  0.9918854094395229  0.7489959295362687
  0.2232577656487499  0.7798615082926982  0.5229702190952811
  0.1125330701870789  0.8909205058689854  0.4772223092421877
  0.4442625291887907  0.8900316184396018  0.6373758052915561
  0.5564781341223434  0.7790318836476056  0.3623567439154999
  0.6659864101654688  0.0002654493093607  0.2527179531888600
  0.6650097586264375  0.9979225444879239  0.7476038063179873
  0.5569023009708992  0.7796604369261521  0.5229870236821342
  0.4458363083564313  0.8908517225171254  0.4774347737664804
  0.7784967819357309  0.8895688739805578  0.6377778051498065
  0.8893757857530372  0.7785704115171997  0.3622684567443894
  0.0003243650891897  0.0005740681944605  0.2533601187109500
  0.9914538957245204  0.9923479199420621  0.7489240995492037
  0.8900200465563310  0.7798934257223014  0.5225358162616914
  0.7786013636062216  0.8907000614956796  0.4772208390790169
  0.1111064365184080  0.2201001382110510  0.7925680560908765
  0.2223634963031544  0.1115586142393203  0.2069533954323511
  0.0006190201720886  0.0012116697431407  0.4091695955805962
  0.9991235023272894  0.0003490779866426  0.5903020587295382
  0.2214742149549903  0.1095432202102270  0.6923128131542733
  0.1119557165673648  0.2239036916654680  0.3079771505335157
  0.4419080453402741  0.2196978394378595  0.7925468574268930
  0.5559459691241531  0.1119954035012888  0.2064066033440730
  0.3337419185575003  0.0015459640215887  0.4092615780884852
  0.3343695258657186  0.0009461860358929  0.5900796986325426
  0.5546768117343925  0.1099059447503447  0.6920265909975363
  0.4453362495876759  0.2233282995271305  0.3080255601689121
  0.7771648518210178  0.2217370942396661  0.7932302808530407
  0.8892121930877426  0.1116523436429890  0.2069640247345098
  0.6680305891393935  0.0013101236119904  0.4092520874622280
  0.6668407041214632 -0.0001027511269065  0.5905656424234134
  0.8888003577751591  0.1101279369691854  0.6922218331425164
  0.7783188791274022  0.2235867945999903  0.3080494426526804
  0.1112134496234066  0.5552415220724044  0.7934562550601225
  0.2227282277321793  0.4453347479957491  0.2067717170663251
  0.0004179849012829  0.3340099118964980  0.4093833153641103
  0.9993006669141578  0.3313548240369631  0.5907200191611903
  0.2228343611202288  0.4443793900314918  0.6919922531208482
  0.1118004182235820  0.5566519970633618  0.3082279143908237
  0.4644062650348955  0.5989255520796374  0.8024307353377798
  0.5559697075569113  0.4446164612181614  0.2063925597207575
  0.3335160755175412  0.3340169817560935  0.4093997219676370
  0.3334394205676919  0.3332059237038689  0.5907181221702285
  0.5548681601758005  0.4442318387655340  0.6919215962991981
  0.4448845328779155  0.5563312094916368  0.3082114451901112
  0.7768950899110666  0.5549405797750017  0.7931371244016083
  0.8886812530333776  0.4447274195734206  0.2063771008997905
  0.6675246627715062  0.3349276360553059  0.4093703278778708
  0.6669917664085457  0.3324156304780886  0.5907151824861261
  0.8887476408211630  0.4437824531124983  0.6919080103812943
  0.7780792776404001  0.5562061197343675  0.3080372175672458
  0.1099316840487383  0.8857129528136325  0.7938043777889671
  0.2226034921297290  0.7779559141588087  0.2068097594107146
  0.0007415701471883  0.6683885570046433  0.4093474127639482
  0.9983076968560882  0.6630112519325204  0.5899874368769135
  0.2199521443036773  0.7791071966995893  0.6905408228712188
  0.1118104493958090  0.8896787981128815  0.3079485354692846
  0.4450246702937952  0.8831693842881284  0.7948046497367547
  0.5554261107645134  0.7780200428908994  0.2067992284360522
  0.3341204865291710  0.6681928881432359  0.4092726179308935
  0.3334427588086715  0.6665466614790130  0.5906931691896098
  0.5549093829567648  0.7778299636825368  0.6917123670025904
  0.4450986370013953  0.8901635422024411  0.3081656871106566
  0.7721597363273185  0.8843435462210795  0.7945435433401439
  0.8892844821496380  0.7785455668684585  0.2070094531833991
  0.6676704031302693  0.6682789590756065  0.4093204229205065
  0.6678167109531330  0.6672467204949273  0.5906352818303182
  0.8920483364826119  0.7790798213478429  0.6907777144811187
  0.7778253314534513  0.8895855337048124  0.3079340271016243
  0.5335044636286206  0.7439671090387160  0.8264885327800920
 
  0.00000000E+00  0.00000000E+00  0.00000000E+00
  0.00000000E+00  0.00000000E+00  0.00000000E+00
  0.00000000E+00  0.00000000E+00  0.00000000E+00
  0.00000000E+00  0.00000000E+00  0.00000000E+00
  0.00000000E+00  0.00000000E+00  0.00000000E+00
  0.00000000E+00  0.00000000E+00  0.00000000E+00
  0.00000000E+00  0.00000000E+00  0.00000000E+00
  0.00000000E+00  0.00000000E+00  0.00000000E+00
  0.00000000E+00  0.00000000E+00  0.00000000E+00
  0.00000000E+00  0.00000000E+00  0.00000000E+00
  0.00000000E+00  0.00000000E+00  0.00000000E+00
  0.00000000E+00  0.00000000E+00  0.00000000E+00
  0.00000000E+00  0.00000000E+00  0.00000000E+00
  0.00000000E+00  0.00000000E+00  0.00000000E+00
  0.00000000E+00  0.00000000E+00  0.00000000E+00
  0.00000000E+00  0.00000000E+00  0.00000000E+00
  0.00000000E+00  0.00000000E+00  0.00000000E+00
  0.00000000E+00  0.00000000E+00  0.00000000E+00
  0.00000000E+00  0.00000000E+00  0.00000000E+00
  0.00000000E+00  0.00000000E+00  0.00000000E+00
  0.00000000E+00  0.00000000E+00  0.00000000E+00
  0.00000000E+00  0.00000000E+00  0.00000000E+00
  0.00000000E+00  0.00000000E+00  0.00000000E+00
  0.00000000E+00  0.00000000E+00  0.00000000E+00
  0.00000000E+00  0.00000000E+00  0.00000000E+00
  0.00000000E+00  0.00000000E+00  0.00000000E+00
  0.00000000E+00  0.00000000E+00  0.00000000E+00
  0.00000000E+00  0.00000000E+00  0.00000000E+00
  0.00000000E+00  0.00000000E+00  0.00000000E+00
  0.00000000E+00  0.00000000E+00  0.00000000E+00
  0.00000000E+00  0.00000000E+00  0.00000000E+00
  0.00000000E+00  0.00000000E+00  0.00000000E+00
  0.00000000E+00  0.00000000E+00  0.00000000E+00
  0.00000000E+00  0.00000000E+00  0.00000000E+00
  0.00000000E+00  0.00000000E+00  0.00000000E+00
  0.00000000E+00  0.00000000E+00  0.00000000E+00
  0.00000000E+00  0.00000000E+00  0.00000000E+00
  0.00000000E+00  0.00000000E+00  0.00000000E+00
  0.00000000E+00  0.00000000E+00  0.00000000E+00
  0.00000000E+00  0.00000000E+00  0.00000000E+00
  0.00000000E+00  0.00000000E+00  0.00000000E+00
  0.00000000E+00  0.00000000E+00  0.00000000E+00
  0.00000000E+00  0.00000000E+00  0.00000000E+00
  0.00000000E+00  0.00000000E+00  0.00000000E+00
  0.00000000E+00  0.00000000E+00  0.00000000E+00
  0.00000000E+00  0.00000000E+00  0.00000000E+00
  0.00000000E+00  0.00000000E+00  0.00000000E+00
  0.00000000E+00  0.00000000E+00  0.00000000E+00
  0.00000000E+00  0.00000000E+00  0.00000000E+00
  0.00000000E+00  0.00000000E+00  0.00000000E+00
  0.00000000E+00  0.00000000E+00  0.00000000E+00
  0.00000000E+00  0.00000000E+00  0.00000000E+00
  0.00000000E+00  0.00000000E+00  0.00000000E+00
  0.00000000E+00  0.00000000E+00  0.00000000E+00
  0.00000000E+00  0.00000000E+00  0.00000000E+00
  0.00000000E+00  0.00000000E+00  0.00000000E+00
  0.00000000E+00  0.00000000E+00  0.00000000E+00
  0.00000000E+00  0.00000000E+00  0.00000000E+00
  0.00000000E+00  0.00000000E+00  0.00000000E+00
  0.00000000E+00  0.00000000E+00  0.00000000E+00
  0.00000000E+00  0.00000000E+00  0.00000000E+00
  0.00000000E+00  0.00000000E+00  0.00000000E+00
  0.00000000E+00  0.00000000E+00  0.00000000E+00
  0.00000000E+00  0.00000000E+00  0.00000000E+00
  0.00000000E+00  0.00000000E+00  0.00000000E+00
  0.00000000E+00  0.00000000E+00  0.00000000E+00
  0.00000000E+00  0.00000000E+00  0.00000000E+00
  0.00000000E+00  0.00000000E+00  0.00000000E+00
  0.00000000E+00  0.00000000E+00  0.00000000E+00
  0.00000000E+00  0.00000000E+00  0.00000000E+00
  0.00000000E+00  0.00000000E+00  0.00000000E+00
  0.00000000E+00  0.00000000E+00  0.00000000E+00
  0.00000000E+00  0.00000000E+00  0.00000000E+00
  0.00000000E+00  0.00000000E+00  0.00000000E+00
  0.00000000E+00  0.00000000E+00  0.00000000E+00
  0.00000000E+00  0.00000000E+00  0.00000000E+00
  0.00000000E+00  0.00000000E+00  0.00000000E+00
  0.00000000E+00  0.00000000E+00  0.00000000E+00
  0.00000000E+00  0.00000000E+00  0.00000000E+00
  0.00000000E+00  0.00000000E+00  0.00000000E+00
  0.00000000E+00  0.00000000E+00  0.00000000E+00
  0.00000000E+00  0.00000000E+00  0.00000000E+00
  0.00000000E+00  0.00000000E+00  0.00000000E+00
  0.00000000E+00  0.00000000E+00  0.00000000E+00
  0.00000000E+00  0.00000000E+00  0.00000000E+00
  0.00000000E+00  0.00000000E+00  0.00000000E+00
  0.00000000E+00  0.00000000E+00  0.00000000E+00
  0.00000000E+00  0.00000000E+00  0.00000000E+00
  0.00000000E+00  0.00000000E+00  0.00000000E+00
  0.00000000E+00  0.00000000E+00  0.00000000E+00
  0.00000000E+00  0.00000000E+00  0.00000000E+00
  0.00000000E+00  0.00000000E+00  0.00000000E+00
  0.00000000E+00  0.00000000E+00  0.00000000E+00
  0.00000000E+00  0.00000000E+00  0.00000000E+00
  0.00000000E+00  0.00000000E+00  0.00000000E+00
  0.00000000E+00  0.00000000E+00  0.00000000E+00
  0.00000000E+00  0.00000000E+00  0.00000000E+00
  0.00000000E+00  0.00000000E+00  0.00000000E+00
  0.00000000E+00  0.00000000E+00  0.00000000E+00
  0.00000000E+00  0.00000000E+00  0.00000000E+00
  0.00000000E+00  0.00000000E+00  0.00000000E+00
  0.00000000E+00  0.00000000E+00  0.00000000E+00
  0.00000000E+00  0.00000000E+00  0.00000000E+00
  0.00000000E+00  0.00000000E+00  0.00000000E+00
  0.00000000E+00  0.00000000E+00  0.00000000E+00
  0.00000000E+00  0.00000000E+00  0.00000000E+00
  0.00000000E+00  0.00000000E+00  0.00000000E+00
  0.00000000E+00  0.00000000E+00  0.00000000E+00
  0.00000000E+00  0.00000000E+00  0.00000000E+00
