CONTCAR\(3)                             
   1.00000000000000     
    13.6564998627000005    0.0000000000000000    0.0000000000000000
     0.0000000000000000   10.3198995589999996    0.0000000000000000
     0.0000000000000000    0.0000000000000000   19.5949993133999989
   Ta   Fe   Te   O 
     8     8    24     1
Direct
  0.0616866110893065  0.2457784401410462  0.4885119413832835
  0.1872122636120846  0.6360626374513839  0.5147798881807416
  0.3086058863687599  0.2396807334874489  0.4842511728021230
  0.4374242347578042  0.6463731753614893  0.5155667925090254
  0.5665938960337399  0.2394682102189468  0.4842687362108277
  0.6877195902378488  0.6360108922529560  0.5148373360123629
  0.8132755709106899  0.2455887426739320  0.4883627993475160
  0.9374964008260578  0.6342404404356204  0.5140068564514489
  0.1850260128762502  0.0346050107135347  0.4901906398171998
  0.0618704503042642  0.8444756218967668  0.5116939820812658
  0.4376674068277084  0.0357208328521808  0.4910927598736420
  0.3104265223714543  0.8489963533669858  0.5112953436475225
  0.6900241847561628  0.0342588666681444  0.4900422999610151
  0.5645822379895903  0.8487130697694860  0.5112007112801467
  0.9376434339770241  0.0349527555150386  0.4908450470530841
  0.8132211552386085  0.8443498130940592  0.5115907935397592
  0.1901260915147044  0.3785634568376459  0.5798054245251659
  0.0630577845395737  0.5002413274473433  0.4217575189071871
  0.1864423262204158  0.8287882826266082  0.4129549230582820
  0.0621419130879805  0.0498156349869836  0.5892133293773745
  0.0619463909505725  0.7010304887306993  0.6197456021294780
  0.1838928073793984  0.1756134578945606  0.3809237805637976
  0.4375656158026379  0.3869084390550552  0.5692081945830929
  0.3138982169608941  0.5000524514719938  0.4236838705860594
  0.4374134588313972  0.8319552046806399  0.4128445370040515
  0.3118603256454470  0.0557258811888639  0.5888902499475362
  0.3113305566252912  0.7073938903276799  0.6201460662852889
  0.4375841486900766  0.1738210697864207  0.3808510554575859
  0.6850022645703205  0.3784758505838994  0.5797893467739245
  0.5608926888817802  0.4998732392507896  0.4238407034493404
  0.6886845477281412  0.8284018812417157  0.4128593541322583
  0.5635757268313299  0.0552177533383137  0.5888762039995753
  0.5634055744474933  0.7074890212003130  0.6202184597082109
  0.6911228067234462  0.1749987088346583  0.3807995276046207
  0.9373307351480671  0.3799099904962630  0.5812331234139505
  0.8117812465284989  0.5002219022532370  0.4217444922234531
  0.9375164479322140  0.8298366902665572  0.4131552623926293
  0.8128803956799309  0.0496462505006431  0.5890139750618164
  0.8130485563389316  0.7012299404765923  0.6197273200618347
  0.9375650290646806  0.1781283726017107  0.3828476471711193
  0.4373386376994490  0.3339152520218049  0.6598629224313957
 
  0.00000000E+00  0.00000000E+00  0.00000000E+00
  0.00000000E+00  0.00000000E+00  0.00000000E+00
  0.00000000E+00  0.00000000E+00  0.00000000E+00
  0.00000000E+00  0.00000000E+00  0.00000000E+00
  0.00000000E+00  0.00000000E+00  0.00000000E+00
  0.00000000E+00  0.00000000E+00  0.00000000E+00
  0.00000000E+00  0.00000000E+00  0.00000000E+00
  0.00000000E+00  0.00000000E+00  0.00000000E+00
  0.00000000E+00  0.00000000E+00  0.00000000E+00
  0.00000000E+00  0.00000000E+00  0.00000000E+00
  0.00000000E+00  0.00000000E+00  0.00000000E+00
  0.00000000E+00  0.00000000E+00  0.00000000E+00
  0.00000000E+00  0.00000000E+00  0.00000000E+00
  0.00000000E+00  0.00000000E+00  0.00000000E+00
  0.00000000E+00  0.00000000E+00  0.00000000E+00
  0.00000000E+00  0.00000000E+00  0.00000000E+00
  0.00000000E+00  0.00000000E+00  0.00000000E+00
  0.00000000E+00  0.00000000E+00  0.00000000E+00
  0.00000000E+00  0.00000000E+00  0.00000000E+00
  0.00000000E+00  0.00000000E+00  0.00000000E+00
  0.00000000E+00  0.00000000E+00  0.00000000E+00
  0.00000000E+00  0.00000000E+00  0.00000000E+00
  0.00000000E+00  0.00000000E+00  0.00000000E+00
  0.00000000E+00  0.00000000E+00  0.00000000E+00
  0.00000000E+00  0.00000000E+00  0.00000000E+00
  0.00000000E+00  0.00000000E+00  0.00000000E+00
  0.00000000E+00  0.00000000E+00  0.00000000E+00
  0.00000000E+00  0.00000000E+00  0.00000000E+00
  0.00000000E+00  0.00000000E+00  0.00000000E+00
  0.00000000E+00  0.00000000E+00  0.00000000E+00
  0.00000000E+00  0.00000000E+00  0.00000000E+00
  0.00000000E+00  0.00000000E+00  0.00000000E+00
  0.00000000E+00  0.00000000E+00  0.00000000E+00
  0.00000000E+00  0.00000000E+00  0.00000000E+00
  0.00000000E+00  0.00000000E+00  0.00000000E+00
  0.00000000E+00  0.00000000E+00  0.00000000E+00
  0.00000000E+00  0.00000000E+00  0.00000000E+00
  0.00000000E+00  0.00000000E+00  0.00000000E+00
  0.00000000E+00  0.00000000E+00  0.00000000E+00
  0.00000000E+00  0.00000000E+00  0.00000000E+00
  0.00000000E+00  0.00000000E+00  0.00000000E+00
