CONTCAR\(25)                            
   1.00000000000000     
    11.2371997832999995    0.0000000000000000    0.0000000000000000
     0.0000000000000000   14.7250003814999992    0.0000000000000000
     0.0000000000000000    0.0000000000000000   22.6672992706000009
   Li   Cu   F 
    32    32    80
Direct
  0.1875000109999974  0.0692634786678281  0.5203539807971220
  0.1875000109999974  0.4237232696054289  0.6082374877146962
  0.0625000000000000  0.0762824614156179  0.3917733499245690
  0.0625000000000000  0.4307289457580115  0.4796450394545534
  0.4375000109999974  0.0692634786678281  0.5203539807971220
  0.4375000109999974  0.4237232696054289  0.6082374877146962
  0.3124999890000026  0.0762824614156179  0.3917733499245690
  0.3124999890000026  0.4307289457580115  0.4796450394545534
  0.6875000109999974  0.0692634786678281  0.5203539807971220
  0.6875000109999974  0.4237232696054289  0.6082374877146962
  0.5624999890000026  0.0762824614156179  0.3917733499245690
  0.5624999890000026  0.4307289457580115  0.4796450394545534
  0.9375000109999974  0.0692634786678281  0.5203539807971220
  0.9375000109999974  0.4237232696054289  0.6082374877146962
  0.8125000320000026  0.0762824614156179  0.3917733499245690
  0.8125000320000026  0.4307289457580115  0.4796450394545534
  0.1875000109999974  0.5692634706678273  0.5203539807971220
  0.1875000109999974  0.9237232376054332  0.6082374877146962
  0.0625000000000000  0.5762824614156180  0.3917733499245690
  0.0625000000000000  0.9307289787580109  0.4796450394545534
  0.4375000109999974  0.5692634706678273  0.5203539807971220
  0.4375000109999974  0.9237232376054332  0.6082374877146962
  0.3124999890000026  0.5762824614156180  0.3917733499245690
  0.3124999890000026  0.9307289787580109  0.4796450394545534
  0.6875000109999974  0.5692634706678273  0.5203539807971220
  0.6875000109999974  0.9237232376054332  0.6082374877146962
  0.5624999890000026  0.5762824614156180  0.3917733499245690
  0.5624999890000026  0.9307289787580109  0.4796450394545534
  0.9375000109999974  0.5692634706678273  0.5203539807971220
  0.9375000109999974  0.9237232376054332  0.6082374877146962
  0.8125000320000026  0.5762824614156180  0.3917733499245690
  0.8125000320000026  0.9307289787580109  0.4796450394545534
  0.0625000000000000  0.2503285050261720  0.5672898167179315
  0.0625000000000000  0.0831607332949618  0.6600410710504506
  0.1875000109999974  0.4168410204259824  0.3399774233292452
  0.1875000109999974  0.2496899239805581  0.4327132913560028
  0.3124999890000026  0.2503285050261720  0.5672898167179315
  0.3124999890000026  0.0831607332949618  0.6600410710504506
  0.4375000109999974  0.4168410204259824  0.3399774233292452
  0.4375000109999974  0.2496899239805581  0.4327132913560028
  0.5624999890000026  0.2503285050261720  0.5672898167179315
  0.5624999890000026  0.0831607332949618  0.6600410710504506
  0.6875000109999974  0.4168410204259824  0.3399774233292452
  0.6875000109999974  0.2496899239805581  0.4327132913560028
  0.8125000320000026  0.2503285050261720  0.5672898167179315
  0.8125000320000026  0.0831607332949618  0.6600410710504506
  0.9375000109999974  0.4168410204259824  0.3399774233292452
  0.9375000109999974  0.2496899239805581  0.4327132913560028
  0.0625000000000000  0.7503285220261696  0.5672898167179315
  0.0625000000000000  0.5831607012949593  0.6600410710504506
  0.1875000109999974  0.9168409564259844  0.3399774233292452
  0.1875000109999974  0.7496899399805594  0.4327132913560028
  0.3124999890000026  0.7503285220261696  0.5672898167179315
  0.3124999890000026  0.5831607012949593  0.6600410710504506
  0.4375000109999974  0.9168409564259844  0.3399774233292452
  0.4375000109999974  0.7496899399805594  0.4327132913560028
  0.5624999890000026  0.7503285220261696  0.5672898167179315
  0.5624999890000026  0.5831607012949593  0.6600410710504506
  0.6875000109999974  0.9168409564259844  0.3399774233292452
  0.6875000109999974  0.7496899399805594  0.4327132913560028
  0.8125000320000026  0.7503285220261696  0.5672898167179315
  0.8125000320000026  0.5831607012949593  0.6600410710504506
  0.9375000109999974  0.9168409564259844  0.3399774233292452
  0.9375000109999974  0.7496899399805594  0.4327132913560028
  0.0625000000000000  0.1599253960088118  0.5078500632430838
  0.0625000000000000  0.4935238258277597  0.5561078827061675
  0.0625000000000000  0.3430476428193274  0.6216320671050964
  0.1875000109999974  0.1626726815418414  0.6279538633920435
  0.1875000109999974  0.9983441973761078  0.6805894305972179
  0.0625000000000000  0.5016395615631744  0.3194265874270701
  0.0625000000000000  0.3373450058556544  0.3720410823092971
  0.1875000109999974  0.1569645605232064  0.3783605428021739
  0.1875000109999974  0.0064766640816390  0.4438890235615241
  0.1875000109999974  0.3400520922279179  0.4921280715117531
  0.3124999890000026  0.1599253960088118  0.5078500632430838
  0.3124999890000026  0.4935238258277597  0.5561078827061675
  0.3124999890000026  0.3430476428193274  0.6216320671050964
  0.4375000109999974  0.1626726815418414  0.6279538633920435
  0.4375000109999974  0.9983441973761078  0.6805894305972179
  0.3124999890000026  0.5016395615631744  0.3194265874270701
  0.3124999890000026  0.3373450058556544  0.3720410823092971
  0.4375000109999974  0.1569645605232064  0.3783605428021739
  0.4375000109999974  0.0064766640816390  0.4438890235615241
  0.4375000109999974  0.3400520922279179  0.4921280715117531
  0.5624999890000026  0.1599253960088118  0.5078500632430838
  0.5624999890000026  0.4935238258277597  0.5561078827061675
  0.5624999890000026  0.3430476428193274  0.6216320671050964
  0.6875000109999974  0.1626726815418414  0.6279538633920435
  0.6875000109999974  0.9983441973761078  0.6805894305972179
  0.5624999890000026  0.5016395615631744  0.3194265874270701
  0.5624999890000026  0.3373450058556544  0.3720410823092971
  0.6875000109999974  0.1569645605232064  0.3783605428021739
  0.6875000109999974  0.0064766640816390  0.4438890235615241
  0.6875000109999974  0.3400520922279179  0.4921280715117531
  0.8125000320000026  0.1599253960088118  0.5078500632430838
  0.8125000320000026  0.4935238258277597  0.5561078827061675
  0.8125000320000026  0.3430476428193274  0.6216320671050964
  0.9375000109999974  0.1626726815418414  0.6279538633920435
  0.9375000109999974  0.9983441973761078  0.6805894305972179
  0.8125000320000026  0.5016395615631744  0.3194265874270701
  0.8125000320000026  0.3373450058556544  0.3720410823092971
  0.9375000109999974  0.1569645605232064  0.3783605428021739
  0.9375000109999974  0.0064766640816390  0.4438890235615241
  0.9375000109999974  0.3400520922279179  0.4921280715117531
  0.0625000000000000  0.6599254120088131  0.5078500632430838
  0.0625000000000000  0.9935237938277568  0.5561078827061675
  0.0625000000000000  0.8430476428193269  0.6216320671050964
  0.1875000109999974  0.6626726815418418  0.6279538633920435
  0.1875000109999974  0.4983441973761076  0.6805894305972179
  0.0625000000000000  0.0016396275631727  0.3194265874270701
  0.0625000000000000  0.8373450378556564  0.3720410823092971
  0.1875000109999974  0.6569645765232078  0.3783605428021739
  0.1875000109999974  0.5064766460816373  0.4438890235615241
  0.1875000109999974  0.8400520922279180  0.4921280715117531
  0.3124999890000026  0.6599254120088131  0.5078500632430838
  0.3124999890000026  0.9935237938277568  0.5561078827061675
  0.3124999890000026  0.8430476428193269  0.6216320671050964
  0.4375000109999974  0.6626726815418418  0.6279538633920435
  0.4375000109999974  0.4983441973761076  0.6805894305972179
  0.3124999890000026  0.0016396275631727  0.3194265874270701
  0.3124999890000026  0.8373450378556564  0.3720410823092971
  0.4375000109999974  0.6569645765232078  0.3783605428021739
  0.4375000109999974  0.5064766460816373  0.4438890235615241
  0.4375000109999974  0.8400520922279180  0.4921280715117531
  0.5624999890000026  0.6599254120088131  0.5078500632430838
  0.5624999890000026  0.9935237938277568  0.5561078827061675
  0.5624999890000026  0.8430476428193269  0.6216320671050964
  0.6875000109999974  0.6626726815418418  0.6279538633920435
  0.6875000109999974  0.4983441973761076  0.6805894305972179
  0.5624999890000026  0.0016396275631727  0.3194265874270701
  0.5624999890000026  0.8373450378556564  0.3720410823092971
  0.6875000109999974  0.6569645765232078  0.3783605428021739
  0.6875000109999974  0.5064766460816373  0.4438890235615241
  0.6875000109999974  0.8400520922279180  0.4921280715117531
  0.8125000320000026  0.6599254120088131  0.5078500632430838
  0.8125000320000026  0.9935237938277568  0.5561078827061675
  0.8125000320000026  0.8430476428193269  0.6216320671050964
  0.9375000109999974  0.6626726815418418  0.6279538633920435
  0.9375000109999974  0.4983441973761076  0.6805894305972179
  0.8125000320000026  0.0016396275631727  0.3194265874270701
  0.8125000320000026  0.8373450378556564  0.3720410823092971
  0.9375000109999974  0.6569645765232078  0.3783605428021739
  0.9375000109999974  0.5064766460816373  0.4438890235615241
  0.9375000109999974  0.8400520922279180  0.4921280715117531
 
  0.00000000E+00  0.00000000E+00  0.00000000E+00
  0.00000000E+00  0.00000000E+00  0.00000000E+00
  0.00000000E+00  0.00000000E+00  0.00000000E+00
  0.00000000E+00  0.00000000E+00  0.00000000E+00
  0.00000000E+00  0.00000000E+00  0.00000000E+00
  0.00000000E+00  0.00000000E+00  0.00000000E+00
  0.00000000E+00  0.00000000E+00  0.00000000E+00
  0.00000000E+00  0.00000000E+00  0.00000000E+00
  0.00000000E+00  0.00000000E+00  0.00000000E+00
  0.00000000E+00  0.00000000E+00  0.00000000E+00
  0.00000000E+00  0.00000000E+00  0.00000000E+00
  0.00000000E+00  0.00000000E+00  0.00000000E+00
  0.00000000E+00  0.00000000E+00  0.00000000E+00
  0.00000000E+00  0.00000000E+00  0.00000000E+00
  0.00000000E+00  0.00000000E+00  0.00000000E+00
  0.00000000E+00  0.00000000E+00  0.00000000E+00
  0.00000000E+00  0.00000000E+00  0.00000000E+00
  0.00000000E+00  0.00000000E+00  0.00000000E+00
  0.00000000E+00  0.00000000E+00  0.00000000E+00
  0.00000000E+00  0.00000000E+00  0.00000000E+00
  0.00000000E+00  0.00000000E+00  0.00000000E+00
  0.00000000E+00  0.00000000E+00  0.00000000E+00
  0.00000000E+00  0.00000000E+00  0.00000000E+00
  0.00000000E+00  0.00000000E+00  0.00000000E+00
  0.00000000E+00  0.00000000E+00  0.00000000E+00
  0.00000000E+00  0.00000000E+00  0.00000000E+00
  0.00000000E+00  0.00000000E+00  0.00000000E+00
  0.00000000E+00  0.00000000E+00  0.00000000E+00
  0.00000000E+00  0.00000000E+00  0.00000000E+00
  0.00000000E+00  0.00000000E+00  0.00000000E+00
  0.00000000E+00  0.00000000E+00  0.00000000E+00
  0.00000000E+00  0.00000000E+00  0.00000000E+00
  0.00000000E+00  0.00000000E+00  0.00000000E+00
  0.00000000E+00  0.00000000E+00  0.00000000E+00
  0.00000000E+00  0.00000000E+00  0.00000000E+00
  0.00000000E+00  0.00000000E+00  0.00000000E+00
  0.00000000E+00  0.00000000E+00  0.00000000E+00
  0.00000000E+00  0.00000000E+00  0.00000000E+00
  0.00000000E+00  0.00000000E+00  0.00000000E+00
  0.00000000E+00  0.00000000E+00  0.00000000E+00
  0.00000000E+00  0.00000000E+00  0.00000000E+00
  0.00000000E+00  0.00000000E+00  0.00000000E+00
  0.00000000E+00  0.00000000E+00  0.00000000E+00
  0.00000000E+00  0.00000000E+00  0.00000000E+00
  0.00000000E+00  0.00000000E+00  0.00000000E+00
  0.00000000E+00  0.00000000E+00  0.00000000E+00
  0.00000000E+00  0.00000000E+00  0.00000000E+00
  0.00000000E+00  0.00000000E+00  0.00000000E+00
  0.00000000E+00  0.00000000E+00  0.00000000E+00
  0.00000000E+00  0.00000000E+00  0.00000000E+00
  0.00000000E+00  0.00000000E+00  0.00000000E+00
  0.00000000E+00  0.00000000E+00  0.00000000E+00
  0.00000000E+00  0.00000000E+00  0.00000000E+00
  0.00000000E+00  0.00000000E+00  0.00000000E+00
  0.00000000E+00  0.00000000E+00  0.00000000E+00
  0.00000000E+00  0.00000000E+00  0.00000000E+00
  0.00000000E+00  0.00000000E+00  0.00000000E+00
  0.00000000E+00  0.00000000E+00  0.00000000E+00
  0.00000000E+00  0.00000000E+00  0.00000000E+00
  0.00000000E+00  0.00000000E+00  0.00000000E+00
  0.00000000E+00  0.00000000E+00  0.00000000E+00
  0.00000000E+00  0.00000000E+00  0.00000000E+00
  0.00000000E+00  0.00000000E+00  0.00000000E+00
  0.00000000E+00  0.00000000E+00  0.00000000E+00
  0.00000000E+00  0.00000000E+00  0.00000000E+00
  0.00000000E+00  0.00000000E+00  0.00000000E+00
  0.00000000E+00  0.00000000E+00  0.00000000E+00
  0.00000000E+00  0.00000000E+00  0.00000000E+00
  0.00000000E+00  0.00000000E+00  0.00000000E+00
  0.00000000E+00  0.00000000E+00  0.00000000E+00
  0.00000000E+00  0.00000000E+00  0.00000000E+00
  0.00000000E+00  0.00000000E+00  0.00000000E+00
  0.00000000E+00  0.00000000E+00  0.00000000E+00
  0.00000000E+00  0.00000000E+00  0.00000000E+00
  0.00000000E+00  0.00000000E+00  0.00000000E+00
  0.00000000E+00  0.00000000E+00  0.00000000E+00
  0.00000000E+00  0.00000000E+00  0.00000000E+00
  0.00000000E+00  0.00000000E+00  0.00000000E+00
  0.00000000E+00  0.00000000E+00  0.00000000E+00
  0.00000000E+00  0.00000000E+00  0.00000000E+00
  0.00000000E+00  0.00000000E+00  0.00000000E+00
  0.00000000E+00  0.00000000E+00  0.00000000E+00
  0.00000000E+00  0.00000000E+00  0.00000000E+00
  0.00000000E+00  0.00000000E+00  0.00000000E+00
  0.00000000E+00  0.00000000E+00  0.00000000E+00
  0.00000000E+00  0.00000000E+00  0.00000000E+00
  0.00000000E+00  0.00000000E+00  0.00000000E+00
  0.00000000E+00  0.00000000E+00  0.00000000E+00
  0.00000000E+00  0.00000000E+00  0.00000000E+00
  0.00000000E+00  0.00000000E+00  0.00000000E+00
  0.00000000E+00  0.00000000E+00  0.00000000E+00
  0.00000000E+00  0.00000000E+00  0.00000000E+00
  0.00000000E+00  0.00000000E+00  0.00000000E+00
  0.00000000E+00  0.00000000E+00  0.00000000E+00
  0.00000000E+00  0.00000000E+00  0.00000000E+00
  0.00000000E+00  0.00000000E+00  0.00000000E+00
  0.00000000E+00  0.00000000E+00  0.00000000E+00
  0.00000000E+00  0.00000000E+00  0.00000000E+00
  0.00000000E+00  0.00000000E+00  0.00000000E+00
  0.00000000E+00  0.00000000E+00  0.00000000E+00
  0.00000000E+00  0.00000000E+00  0.00000000E+00
  0.00000000E+00  0.00000000E+00  0.00000000E+00
  0.00000000E+00  0.00000000E+00  0.00000000E+00
  0.00000000E+00  0.00000000E+00  0.00000000E+00
  0.00000000E+00  0.00000000E+00  0.00000000E+00
  0.00000000E+00  0.00000000E+00  0.00000000E+00
  0.00000000E+00  0.00000000E+00  0.00000000E+00
  0.00000000E+00  0.00000000E+00  0.00000000E+00
  0.00000000E+00  0.00000000E+00  0.00000000E+00
  0.00000000E+00  0.00000000E+00  0.00000000E+00
  0.00000000E+00  0.00000000E+00  0.00000000E+00
  0.00000000E+00  0.00000000E+00  0.00000000E+00
  0.00000000E+00  0.00000000E+00  0.00000000E+00
  0.00000000E+00  0.00000000E+00  0.00000000E+00
  0.00000000E+00  0.00000000E+00  0.00000000E+00
  0.00000000E+00  0.00000000E+00  0.00000000E+00
  0.00000000E+00  0.00000000E+00  0.00000000E+00
  0.00000000E+00  0.00000000E+00  0.00000000E+00
  0.00000000E+00  0.00000000E+00  0.00000000E+00
  0.00000000E+00  0.00000000E+00  0.00000000E+00
  0.00000000E+00  0.00000000E+00  0.00000000E+00
  0.00000000E+00  0.00000000E+00  0.00000000E+00
  0.00000000E+00  0.00000000E+00  0.00000000E+00
  0.00000000E+00  0.00000000E+00  0.00000000E+00
  0.00000000E+00  0.00000000E+00  0.00000000E+00
  0.00000000E+00  0.00000000E+00  0.00000000E+00
  0.00000000E+00  0.00000000E+00  0.00000000E+00
  0.00000000E+00  0.00000000E+00  0.00000000E+00
  0.00000000E+00  0.00000000E+00  0.00000000E+00
  0.00000000E+00  0.00000000E+00  0.00000000E+00
  0.00000000E+00  0.00000000E+00  0.00000000E+00
  0.00000000E+00  0.00000000E+00  0.00000000E+00
  0.00000000E+00  0.00000000E+00  0.00000000E+00
  0.00000000E+00  0.00000000E+00  0.00000000E+00
  0.00000000E+00  0.00000000E+00  0.00000000E+00
  0.00000000E+00  0.00000000E+00  0.00000000E+00
  0.00000000E+00  0.00000000E+00  0.00000000E+00
  0.00000000E+00  0.00000000E+00  0.00000000E+00
  0.00000000E+00  0.00000000E+00  0.00000000E+00
  0.00000000E+00  0.00000000E+00  0.00000000E+00
  0.00000000E+00  0.00000000E+00  0.00000000E+00
  0.00000000E+00  0.00000000E+00  0.00000000E+00
  0.00000000E+00  0.00000000E+00  0.00000000E+00
  0.00000000E+00  0.00000000E+00  0.00000000E+00
