CONTCAR\(3)                             
   1.00000000000000     
    13.5726995467999991    0.0000000000000000    0.0000000000000000
     0.0000000000000000   13.5726995467999991    0.0000000000000000
     0.0000000000000000    0.0000000000000000   18.0848999022999983
   Pt   Pb   O    H 
     8    32     1     1
Direct
  0.9999196068572118  0.0000115323230858  0.5020898927900745
  0.2490712736579894  0.2480733647338837  0.4987694845487383
  0.5000003800463730  0.9999785155946199  0.5004911993485379
  0.7517973589444225  0.2491378015882546  0.4988413732817847
  0.9999190302112382  0.4999816633331520  0.5005069032231191
  0.2479198780302596  0.7509161934955841  0.4986609481499187
  0.5001541706678907  0.4997154356622744  0.4913402072131845
  0.7509863470445666  0.7519874281191434  0.4986508523192725
  0.3326907813127988  0.4123877349281599  0.4194643167605676
  0.0824635900466291  0.3351770597058419  0.4183715917886488
  0.0832923758841133  0.1670191230234579  0.5809444076535399
  0.4199656152193683  0.3400596561609674  0.5848672391308014
  0.1652703022504269  0.4136276626910700  0.5804454829771970
  0.3351474293419088  0.0871536658975316  0.5803358026019225
  0.1638016703074072  0.0830983562355812  0.4182496289326920
  0.4162116068488615  0.1654537030028393  0.4177496202943303
  0.8342083880033258  0.4163407250579496  0.4177539481925834
  0.5879211504987083  0.3327758821880025  0.4189395800055848
  0.5865033727487017  0.1649117799697706  0.5804713739824763
  0.9128305357394879  0.3352456613854571  0.5803733835572018
  0.6599440770037717  0.4196076346472353  0.5845093843984088
  0.8329855907864783  0.0832739830308569  0.5809702341128542
  0.6649173515064604  0.0824658945852761  0.4183100459386893
  0.9167315681394541  0.1639662849310781  0.4183663405330549
  0.3350900554869156  0.9175816083082466  0.4182846705677079
  0.0831653564223771  0.8362621185534849  0.4181155348823680
  0.0872622493577140  0.6647711738890507  0.5803390614948469
  0.4134432268619648  0.8348707040812968  0.5804200471447842
  0.1669646233906477  0.9167293067832745  0.5809085640834297
  0.3421933726472233  0.5796234647282716  0.5864598338210456
  0.1654038832373743  0.5836969684912887  0.4177206975264980
  0.4124108610751733  0.6670711013677035  0.4198084936781328
  0.8362106790787465  0.9167487830623813  0.4181656383007990
  0.5836869655287984  0.8344306866067797  0.4176725454850470
  0.5805386029213224  0.6599418979156795  0.5847026176365944
  0.9167183784699304  0.8329987764230040  0.5809640892938077
  0.6647806218061376  0.9128583318805212  0.5803506960065832
  0.8349148384252203  0.5865342177225656  0.5803856780739949
  0.6671169972064774  0.5879556155585135  0.4189788504110936
  0.9175832926137133  0.6649244356579302  0.4182707500921197
  0.4976862115539404  0.5006886483687225  0.6635111194458290
  0.4976160438184749  0.5007051123101789  0.7176878303201235
 
  0.00000000E+00  0.00000000E+00  0.00000000E+00
  0.00000000E+00  0.00000000E+00  0.00000000E+00
  0.00000000E+00  0.00000000E+00  0.00000000E+00
  0.00000000E+00  0.00000000E+00  0.00000000E+00
  0.00000000E+00  0.00000000E+00  0.00000000E+00
  0.00000000E+00  0.00000000E+00  0.00000000E+00
  0.00000000E+00  0.00000000E+00  0.00000000E+00
  0.00000000E+00  0.00000000E+00  0.00000000E+00
  0.00000000E+00  0.00000000E+00  0.00000000E+00
  0.00000000E+00  0.00000000E+00  0.00000000E+00
  0.00000000E+00  0.00000000E+00  0.00000000E+00
  0.00000000E+00  0.00000000E+00  0.00000000E+00
  0.00000000E+00  0.00000000E+00  0.00000000E+00
  0.00000000E+00  0.00000000E+00  0.00000000E+00
  0.00000000E+00  0.00000000E+00  0.00000000E+00
  0.00000000E+00  0.00000000E+00  0.00000000E+00
  0.00000000E+00  0.00000000E+00  0.00000000E+00
  0.00000000E+00  0.00000000E+00  0.00000000E+00
  0.00000000E+00  0.00000000E+00  0.00000000E+00
  0.00000000E+00  0.00000000E+00  0.00000000E+00
  0.00000000E+00  0.00000000E+00  0.00000000E+00
  0.00000000E+00  0.00000000E+00  0.00000000E+00
  0.00000000E+00  0.00000000E+00  0.00000000E+00
  0.00000000E+00  0.00000000E+00  0.00000000E+00
  0.00000000E+00  0.00000000E+00  0.00000000E+00
  0.00000000E+00  0.00000000E+00  0.00000000E+00
  0.00000000E+00  0.00000000E+00  0.00000000E+00
  0.00000000E+00  0.00000000E+00  0.00000000E+00
  0.00000000E+00  0.00000000E+00  0.00000000E+00
  0.00000000E+00  0.00000000E+00  0.00000000E+00
  0.00000000E+00  0.00000000E+00  0.00000000E+00
  0.00000000E+00  0.00000000E+00  0.00000000E+00
  0.00000000E+00  0.00000000E+00  0.00000000E+00
  0.00000000E+00  0.00000000E+00  0.00000000E+00
  0.00000000E+00  0.00000000E+00  0.00000000E+00
  0.00000000E+00  0.00000000E+00  0.00000000E+00
  0.00000000E+00  0.00000000E+00  0.00000000E+00
  0.00000000E+00  0.00000000E+00  0.00000000E+00
  0.00000000E+00  0.00000000E+00  0.00000000E+00
  0.00000000E+00  0.00000000E+00  0.00000000E+00
  0.00000000E+00  0.00000000E+00  0.00000000E+00
  0.00000000E+00  0.00000000E+00  0.00000000E+00
