CONTCAR                                 
   1.00000000000000     
    13.3114004134999995    0.0000000000000000    0.0000000000000000
     0.0000000000000000   13.2841997146999997    0.0000000000000000
     0.0000000000000000    0.0000000000000000   29.9494991301999995
   Bi   I 
    54    12
Direct
  0.2500000000000000  0.6582138777102772  0.6537603731382405
  0.0833299990000000  0.3417861582897257  0.3462496578617614
  0.2500000000000000  0.2988984980227385  0.4146809216565606
  0.0833299990000000  0.7011015019772614  0.5853190783434393
  0.2500000000000000  0.0775273727757341  0.3852823417850759
  0.0833299990000000  0.9224726452242672  0.6147176262149214
  0.2500000000000000  0.9768908875100675  0.5489896336939624
  0.0833299990000000  0.0231091064899320  0.4510103663060376
  0.2500000000000000  0.2012586687174205  0.5754961948966750
  0.0833299990000000  0.7987412772825822  0.4245137711033255
  0.2500000000000000  0.7510636995098081  0.4916626103703080
  0.0833299990000000  0.2489363004901921  0.5083473876296950
  0.2500000000000000  0.5259849726737038  0.4669023466143422
  0.0833299990000000  0.4740149913262933  0.5331076523856574
  0.0833299990000000  0.5650901862585497  0.3699757436176992
  0.2500000000000000  0.4349098137414505  0.6300242243822981
  0.0833299990000000  0.3845855534949119  0.6982847875002460
  0.2500000000000000  0.6154144825050912  0.3017151804997586
  0.5833299720000014  0.6582138777102772  0.6537603731382405
  0.4166699920000028  0.3417861582897257  0.3462496578617614
  0.5833299720000014  0.2988984980227385  0.4146809216565606
  0.4166699920000028  0.7011015019772614  0.5853190783434393
  0.5833299720000014  0.0775273727757341  0.3852823417850759
  0.4166699920000028  0.9224726452242672  0.6147176262149214
  0.5833299720000014  0.9768908875100675  0.5489896336939624
  0.4166699920000028  0.0231091064899320  0.4510103663060376
  0.5833299720000014  0.2012586687174205  0.5754961948966750
  0.4166699920000028  0.7987412772825822  0.4245137711033255
  0.5833299720000014  0.7510636995098081  0.4916626103703080
  0.4166699920000028  0.2489363004901921  0.5083473876296950
  0.5833299720000014  0.5259849726737038  0.4669023466143422
  0.4166699920000028  0.4740149913262933  0.5331076523856574
  0.4166699920000028  0.5650901862585497  0.3699757436176992
  0.5833299720000014  0.4349098137414505  0.6300242243822981
  0.4166699920000028  0.3845855534949119  0.6982847875002460
  0.5833299720000014  0.6154144825050912  0.3017151804997586
  0.9166700279999986  0.6582138777102772  0.6537603731382405
  0.7499999819999985  0.3417861582897257  0.3462496578617614
  0.9166700279999986  0.2988984980227385  0.4146809216565606
  0.7499999819999985  0.7011015019772614  0.5853190783434393
  0.9166700279999986  0.0775273727757341  0.3852823417850759
  0.7499999819999985  0.9224726452242672  0.6147176262149214
  0.9166700279999986  0.9768908875100675  0.5489896336939624
  0.7499999819999985  0.0231091064899320  0.4510103663060376
  0.9166700279999986  0.2012586687174205  0.5754961948966750
  0.7499999819999985  0.7987412772825822  0.4245137711033255
  0.9166700279999986  0.7510636995098081  0.4916626103703080
  0.7499999819999985  0.2489363004901921  0.5083473876296950
  0.9166700279999986  0.5259849726737038  0.4669023466143422
  0.7499999819999985  0.4740149913262933  0.5331076523856574
  0.7499999819999985  0.5650901862585497  0.3699757436176992
  0.9166700279999986  0.4349098137414505  0.6300242243822981
  0.7499999819999985  0.3845855534949119  0.6982847875002460
  0.9166700279999986  0.6154144825050912  0.3017151804997586
  0.0833299990000000  0.5950133929794081  0.7413007457681965
  0.2500000000000000  0.4049866070205917  0.2586892552318038
  0.0833299990000000  0.1591328752048045  0.6691290907387719
  0.2500000000000000  0.8408671427951970  0.3308509122612255
  0.4166699920000028  0.5950133929794081  0.7413007457681965
  0.5833299720000014  0.4049866070205917  0.2586892552318038
  0.4166699920000028  0.1591328752048045  0.6691290907387719
  0.5833299720000014  0.8408671427951970  0.3308509122612255
  0.7499999819999985  0.5950133929794081  0.7413007457681965
  0.9166700279999986  0.4049866070205917  0.2586892552318038
  0.7499999819999985  0.1591328752048045  0.6691290907387719
  0.9166700279999986  0.8408671427951970  0.3308509122612255
 
  0.00000000E+00  0.00000000E+00  0.00000000E+00
  0.00000000E+00  0.00000000E+00  0.00000000E+00
  0.00000000E+00  0.00000000E+00  0.00000000E+00
  0.00000000E+00  0.00000000E+00  0.00000000E+00
  0.00000000E+00  0.00000000E+00  0.00000000E+00
  0.00000000E+00  0.00000000E+00  0.00000000E+00
  0.00000000E+00  0.00000000E+00  0.00000000E+00
  0.00000000E+00  0.00000000E+00  0.00000000E+00
  0.00000000E+00  0.00000000E+00  0.00000000E+00
  0.00000000E+00  0.00000000E+00  0.00000000E+00
  0.00000000E+00  0.00000000E+00  0.00000000E+00
  0.00000000E+00  0.00000000E+00  0.00000000E+00
  0.00000000E+00  0.00000000E+00  0.00000000E+00
  0.00000000E+00  0.00000000E+00  0.00000000E+00
  0.00000000E+00  0.00000000E+00  0.00000000E+00
  0.00000000E+00  0.00000000E+00  0.00000000E+00
  0.00000000E+00  0.00000000E+00  0.00000000E+00
  0.00000000E+00  0.00000000E+00  0.00000000E+00
  0.00000000E+00  0.00000000E+00  0.00000000E+00
  0.00000000E+00  0.00000000E+00  0.00000000E+00
  0.00000000E+00  0.00000000E+00  0.00000000E+00
  0.00000000E+00  0.00000000E+00  0.00000000E+00
  0.00000000E+00  0.00000000E+00  0.00000000E+00
  0.00000000E+00  0.00000000E+00  0.00000000E+00
  0.00000000E+00  0.00000000E+00  0.00000000E+00
  0.00000000E+00  0.00000000E+00  0.00000000E+00
  0.00000000E+00  0.00000000E+00  0.00000000E+00
  0.00000000E+00  0.00000000E+00  0.00000000E+00
  0.00000000E+00  0.00000000E+00  0.00000000E+00
  0.00000000E+00  0.00000000E+00  0.00000000E+00
  0.00000000E+00  0.00000000E+00  0.00000000E+00
  0.00000000E+00  0.00000000E+00  0.00000000E+00
  0.00000000E+00  0.00000000E+00  0.00000000E+00
  0.00000000E+00  0.00000000E+00  0.00000000E+00
  0.00000000E+00  0.00000000E+00  0.00000000E+00
  0.00000000E+00  0.00000000E+00  0.00000000E+00
  0.00000000E+00  0.00000000E+00  0.00000000E+00
  0.00000000E+00  0.00000000E+00  0.00000000E+00
  0.00000000E+00  0.00000000E+00  0.00000000E+00
  0.00000000E+00  0.00000000E+00  0.00000000E+00
  0.00000000E+00  0.00000000E+00  0.00000000E+00
  0.00000000E+00  0.00000000E+00  0.00000000E+00
  0.00000000E+00  0.00000000E+00  0.00000000E+00
  0.00000000E+00  0.00000000E+00  0.00000000E+00
  0.00000000E+00  0.00000000E+00  0.00000000E+00
  0.00000000E+00  0.00000000E+00  0.00000000E+00
  0.00000000E+00  0.00000000E+00  0.00000000E+00
  0.00000000E+00  0.00000000E+00  0.00000000E+00
  0.00000000E+00  0.00000000E+00  0.00000000E+00
  0.00000000E+00  0.00000000E+00  0.00000000E+00
  0.00000000E+00  0.00000000E+00  0.00000000E+00
  0.00000000E+00  0.00000000E+00  0.00000000E+00
  0.00000000E+00  0.00000000E+00  0.00000000E+00
  0.00000000E+00  0.00000000E+00  0.00000000E+00
  0.00000000E+00  0.00000000E+00  0.00000000E+00
  0.00000000E+00  0.00000000E+00  0.00000000E+00
  0.00000000E+00  0.00000000E+00  0.00000000E+00
  0.00000000E+00  0.00000000E+00  0.00000000E+00
  0.00000000E+00  0.00000000E+00  0.00000000E+00
  0.00000000E+00  0.00000000E+00  0.00000000E+00
  0.00000000E+00  0.00000000E+00  0.00000000E+00
  0.00000000E+00  0.00000000E+00  0.00000000E+00
  0.00000000E+00  0.00000000E+00  0.00000000E+00
  0.00000000E+00  0.00000000E+00  0.00000000E+00
  0.00000000E+00  0.00000000E+00  0.00000000E+00
  0.00000000E+00  0.00000000E+00  0.00000000E+00
