CONTCAR\(6)                             
   1.00000000000000     
    14.1683998108000004    0.0000000000000000    0.0000000000000000
     0.0000000000000000   20.5298995972000000    0.0000000000000000
     0.0000000000000000    0.0000000000000000   19.1021003723000007
   Nb   Te
    32    48
Direct
  0.0625199950000024  0.1357390537497582  0.5487697900984848
  0.1875199910000021  0.0755019626600259  0.4512656931366102
  0.0625199950000024  0.2938621669472291  0.4986289535905443
  0.1875199910000021  0.4174553299998553  0.5013565305854359
  0.3125200079999999  0.1357390537497582  0.5487697900984848
  0.4375200079999999  0.0755019626600259  0.4512656931366102
  0.3125200079999999  0.2938621669472291  0.4986289535905443
  0.4375200079999999  0.4174553299998553  0.5013565305854359
  0.5625200420000027  0.1357390537497582  0.5487697900984848
  0.6875200079999999  0.0755019626600259  0.4512656931366102
  0.5625200420000027  0.2938621669472291  0.4986289535905443
  0.6875200079999999  0.4174553299998553  0.5013565305854359
  0.8125200420000027  0.1357390537497582  0.5487697900984848
  0.9375200079999999  0.0755019626600259  0.4512656931366102
  0.8125200420000027  0.2938621669472291  0.4986289535905443
  0.9375200079999999  0.4174553299998553  0.5013565305854359
  0.0625199950000024  0.6357390537497581  0.5487697900984848
  0.1875199910000021  0.5755019736600233  0.4512656931366102
  0.0625199950000024  0.7938622129472258  0.4986289535905443
  0.1875199910000021  0.9174552829998550  0.5013565305854359
  0.3125200079999999  0.6357390537497581  0.5487697900984848
  0.4375200079999999  0.5755019736600233  0.4512656931366102
  0.3125200079999999  0.7938622129472258  0.4986289535905443
  0.4375200079999999  0.9174552829998550  0.5013565305854359
  0.5625200420000027  0.6357390537497581  0.5487697900984848
  0.6875200079999999  0.5755019736600233  0.4512656931366102
  0.5625200420000027  0.7938622129472258  0.4986289535905443
  0.6875200079999999  0.9174552829998550  0.5013565305854359
  0.8125200420000027  0.6357390537497581  0.5487697900984848
  0.9375200079999999  0.5755019736600233  0.4512656931366102
  0.8125200420000027  0.7938622129472258  0.4986289535905443
  0.9375200079999999  0.9174552829998550  0.5013565305854359
  0.1875199910000021  0.3284391891072532  0.3925155654537375
  0.0625199950000024  0.1738566430855278  0.4095261738348746
  0.1875199910000021  0.2318079241244396  0.5995247945260218
  0.0625199950000024  0.4794846285095379  0.4004319136733569
  0.0625199950000024  0.3828669116705678  0.6074691735312124
  0.1875199910000021  0.0374062801458085  0.5905212955697079
  0.4375200079999999  0.3284391891072532  0.3925155654537375
  0.3125200079999999  0.1738566430855278  0.4095261738348746
  0.4375200079999999  0.2318079241244396  0.5995247945260218
  0.3125200079999999  0.4794846285095379  0.4004319136733569
  0.3125200079999999  0.3828669116705678  0.6074691735312124
  0.4375200079999999  0.0374062801458085  0.5905212955697079
  0.6875200079999999  0.3284391891072532  0.3925155654537375
  0.5625200420000027  0.1738566430855278  0.4095261738348746
  0.6875200079999999  0.2318079241244396  0.5995247945260218
  0.5625200420000027  0.4794846285095379  0.4004319136733569
  0.5625200420000027  0.3828669116705678  0.6074691735312124
  0.6875200079999999  0.0374062801458085  0.5905212955697079
  0.9375200079999999  0.3284391891072532  0.3925155654537375
  0.8125200420000027  0.1738566430855278  0.4095261738348746
  0.9375200079999999  0.2318079241244396  0.5995247945260218
  0.8125200420000027  0.4794846285095379  0.4004319136733569
  0.8125200420000027  0.3828669116705678  0.6074691735312124
  0.9375200079999999  0.0374062801458085  0.5905212955697079
  0.1875199910000021  0.8284391891072531  0.3925155654537375
  0.0625199950000024  0.6738566200855295  0.4095261738348746
  0.1875199910000021  0.7318078781244429  0.5995247945260218
  0.0625199950000024  0.9794846285095378  0.4004319136733569
  0.0625199950000024  0.8828669346705661  0.6074691735312124
  0.1875199910000021  0.5374062541458065  0.5905212955697079
  0.4375200079999999  0.8284391891072531  0.3925155654537375
  0.3125200079999999  0.6738566200855295  0.4095261738348746
  0.4375200079999999  0.7318078781244429  0.5995247945260218
  0.3125200079999999  0.9794846285095378  0.4004319136733569
  0.3125200079999999  0.8828669346705661  0.6074691735312124
  0.4375200079999999  0.5374062541458065  0.5905212955697079
  0.6875200079999999  0.8284391891072531  0.3925155654537375
  0.5625200420000027  0.6738566200855295  0.4095261738348746
  0.6875200079999999  0.7318078781244429  0.5995247945260218
  0.5625200420000027  0.9794846285095378  0.4004319136733569
  0.5625200420000027  0.8828669346705661  0.6074691735312124
  0.6875200079999999  0.5374062541458065  0.5905212955697079
  0.9375200079999999  0.8284391891072531  0.3925155654537375
  0.8125200420000027  0.6738566200855295  0.4095261738348746
  0.9375200079999999  0.7318078781244429  0.5995247945260218
  0.8125200420000027  0.9794846285095378  0.4004319136733569
  0.8125200420000027  0.8828669346705661  0.6074691735312124
  0.9375200079999999  0.5374062541458065  0.5905212955697079
 
  0.00000000E+00  0.00000000E+00  0.00000000E+00
  0.00000000E+00  0.00000000E+00  0.00000000E+00
  0.00000000E+00  0.00000000E+00  0.00000000E+00
  0.00000000E+00  0.00000000E+00  0.00000000E+00
  0.00000000E+00  0.00000000E+00  0.00000000E+00
  0.00000000E+00  0.00000000E+00  0.00000000E+00
  0.00000000E+00  0.00000000E+00  0.00000000E+00
  0.00000000E+00  0.00000000E+00  0.00000000E+00
  0.00000000E+00  0.00000000E+00  0.00000000E+00
  0.00000000E+00  0.00000000E+00  0.00000000E+00
  0.00000000E+00  0.00000000E+00  0.00000000E+00
  0.00000000E+00  0.00000000E+00  0.00000000E+00
  0.00000000E+00  0.00000000E+00  0.00000000E+00
  0.00000000E+00  0.00000000E+00  0.00000000E+00
  0.00000000E+00  0.00000000E+00  0.00000000E+00
  0.00000000E+00  0.00000000E+00  0.00000000E+00
  0.00000000E+00  0.00000000E+00  0.00000000E+00
  0.00000000E+00  0.00000000E+00  0.00000000E+00
  0.00000000E+00  0.00000000E+00  0.00000000E+00
  0.00000000E+00  0.00000000E+00  0.00000000E+00
  0.00000000E+00  0.00000000E+00  0.00000000E+00
  0.00000000E+00  0.00000000E+00  0.00000000E+00
  0.00000000E+00  0.00000000E+00  0.00000000E+00
  0.00000000E+00  0.00000000E+00  0.00000000E+00
  0.00000000E+00  0.00000000E+00  0.00000000E+00
  0.00000000E+00  0.00000000E+00  0.00000000E+00
  0.00000000E+00  0.00000000E+00  0.00000000E+00
  0.00000000E+00  0.00000000E+00  0.00000000E+00
  0.00000000E+00  0.00000000E+00  0.00000000E+00
  0.00000000E+00  0.00000000E+00  0.00000000E+00
  0.00000000E+00  0.00000000E+00  0.00000000E+00
  0.00000000E+00  0.00000000E+00  0.00000000E+00
  0.00000000E+00  0.00000000E+00  0.00000000E+00
  0.00000000E+00  0.00000000E+00  0.00000000E+00
  0.00000000E+00  0.00000000E+00  0.00000000E+00
  0.00000000E+00  0.00000000E+00  0.00000000E+00
  0.00000000E+00  0.00000000E+00  0.00000000E+00
  0.00000000E+00  0.00000000E+00  0.00000000E+00
  0.00000000E+00  0.00000000E+00  0.00000000E+00
  0.00000000E+00  0.00000000E+00  0.00000000E+00
  0.00000000E+00  0.00000000E+00  0.00000000E+00
  0.00000000E+00  0.00000000E+00  0.00000000E+00
  0.00000000E+00  0.00000000E+00  0.00000000E+00
  0.00000000E+00  0.00000000E+00  0.00000000E+00
  0.00000000E+00  0.00000000E+00  0.00000000E+00
  0.00000000E+00  0.00000000E+00  0.00000000E+00
  0.00000000E+00  0.00000000E+00  0.00000000E+00
  0.00000000E+00  0.00000000E+00  0.00000000E+00
  0.00000000E+00  0.00000000E+00  0.00000000E+00
  0.00000000E+00  0.00000000E+00  0.00000000E+00
  0.00000000E+00  0.00000000E+00  0.00000000E+00
  0.00000000E+00  0.00000000E+00  0.00000000E+00
  0.00000000E+00  0.00000000E+00  0.00000000E+00
  0.00000000E+00  0.00000000E+00  0.00000000E+00
  0.00000000E+00  0.00000000E+00  0.00000000E+00
  0.00000000E+00  0.00000000E+00  0.00000000E+00
  0.00000000E+00  0.00000000E+00  0.00000000E+00
  0.00000000E+00  0.00000000E+00  0.00000000E+00
  0.00000000E+00  0.00000000E+00  0.00000000E+00
  0.00000000E+00  0.00000000E+00  0.00000000E+00
  0.00000000E+00  0.00000000E+00  0.00000000E+00
  0.00000000E+00  0.00000000E+00  0.00000000E+00
  0.00000000E+00  0.00000000E+00  0.00000000E+00
  0.00000000E+00  0.00000000E+00  0.00000000E+00
  0.00000000E+00  0.00000000E+00  0.00000000E+00
  0.00000000E+00  0.00000000E+00  0.00000000E+00
  0.00000000E+00  0.00000000E+00  0.00000000E+00
  0.00000000E+00  0.00000000E+00  0.00000000E+00
  0.00000000E+00  0.00000000E+00  0.00000000E+00
  0.00000000E+00  0.00000000E+00  0.00000000E+00
  0.00000000E+00  0.00000000E+00  0.00000000E+00
  0.00000000E+00  0.00000000E+00  0.00000000E+00
  0.00000000E+00  0.00000000E+00  0.00000000E+00
  0.00000000E+00  0.00000000E+00  0.00000000E+00
  0.00000000E+00  0.00000000E+00  0.00000000E+00
  0.00000000E+00  0.00000000E+00  0.00000000E+00
  0.00000000E+00  0.00000000E+00  0.00000000E+00
  0.00000000E+00  0.00000000E+00  0.00000000E+00
  0.00000000E+00  0.00000000E+00  0.00000000E+00
  0.00000000E+00  0.00000000E+00  0.00000000E+00
