CONTCAR\(3)                             
   1.00000000000000     
    10.8077001571999993    0.0000000000000000    0.0000000000000000
     0.0000000000000000   10.7910995483000001    0.0000000000000000
     0.0000000000000000    0.0000000000000000   18.5930995940999999
   V    Br   O 
     9    18     9
Direct
  0.3333199870000030  0.3333300050000005  0.5000000000000000
  0.6666600049999971  0.3333300050000005  0.5000000000000000
  0.9999900290000028  0.3333300050000005  0.5000000000000000
  0.3333199870000030  0.6666600089999974  0.5000000000000000
  0.6666600049999971  0.6666600089999974  0.5000000000000000
  0.9999900290000028  0.6666600089999974  0.5000000000000000
  0.3333199870000030  0.0000000000000000  0.5000000000000000
  0.6666600049999971  0.0000000000000000  0.5000000000000000
  0.9999900290000028  0.0000000000000000  0.5000000000000000
  0.0000199999999992  0.1667100080000026  0.5972099909999997
  0.0000199999999992  0.1666400029999977  0.4027900090000003
  0.3333599819999975  0.1667100080000026  0.5972099909999997
  0.3333500110000003  0.1666400029999977  0.4027900090000003
  0.6666900060000032  0.1667100080000026  0.5972099909999997
  0.6666900060000032  0.1666400029999977  0.4027900090000003
  0.0000199999999992  0.5000399899999977  0.5972099909999997
  0.0000199999999992  0.4999699959999973  0.4027900090000003
  0.3333599819999975  0.5000399899999977  0.5972099909999997
  0.3333500110000003  0.4999699959999973  0.4027900090000003
  0.6666900060000032  0.5000399899999977  0.5972099909999997
  0.6666900060000032  0.4999699959999973  0.4027900090000003
  0.0000199999999992  0.8333699499999980  0.5972099909999997
  0.0000199999999992  0.8332999570000013  0.4027900090000003
  0.3333599819999975  0.8333699499999980  0.5972099909999997
  0.3333500110000003  0.8332999570000013  0.4027900090000003
  0.6666900060000032  0.8333699499999980  0.5972099909999997
  0.6666900060000032  0.8332999570000013  0.4027900090000003
  0.1667200079999986  0.3333300050000005  0.5000000000000000
  0.5000499880000007  0.3333300050000005  0.5000000000000000
  0.8333799680000027  0.3333300050000005  0.5000000000000000
  0.1667200079999986  0.6666600089999974  0.5000000000000000
  0.5000499880000007  0.6666600089999974  0.5000000000000000
  0.8333799680000027  0.6666600089999974  0.5000000000000000
  0.1667200079999986  0.9999900139999980  0.5000000000000000
  0.5000499880000007  0.9999900139999980  0.5000000000000000
  0.8333799680000027  0.9999900139999980  0.5000000000000000
 
  0.00000000E+00  0.00000000E+00  0.00000000E+00
  0.00000000E+00  0.00000000E+00  0.00000000E+00
  0.00000000E+00  0.00000000E+00  0.00000000E+00
  0.00000000E+00  0.00000000E+00  0.00000000E+00
  0.00000000E+00  0.00000000E+00  0.00000000E+00
  0.00000000E+00  0.00000000E+00  0.00000000E+00
  0.00000000E+00  0.00000000E+00  0.00000000E+00
  0.00000000E+00  0.00000000E+00  0.00000000E+00
  0.00000000E+00  0.00000000E+00  0.00000000E+00
  0.00000000E+00  0.00000000E+00  0.00000000E+00
  0.00000000E+00  0.00000000E+00  0.00000000E+00
  0.00000000E+00  0.00000000E+00  0.00000000E+00
  0.00000000E+00  0.00000000E+00  0.00000000E+00
  0.00000000E+00  0.00000000E+00  0.00000000E+00
  0.00000000E+00  0.00000000E+00  0.00000000E+00
  0.00000000E+00  0.00000000E+00  0.00000000E+00
  0.00000000E+00  0.00000000E+00  0.00000000E+00
  0.00000000E+00  0.00000000E+00  0.00000000E+00
  0.00000000E+00  0.00000000E+00  0.00000000E+00
  0.00000000E+00  0.00000000E+00  0.00000000E+00
  0.00000000E+00  0.00000000E+00  0.00000000E+00
  0.00000000E+00  0.00000000E+00  0.00000000E+00
  0.00000000E+00  0.00000000E+00  0.00000000E+00
  0.00000000E+00  0.00000000E+00  0.00000000E+00
  0.00000000E+00  0.00000000E+00  0.00000000E+00
  0.00000000E+00  0.00000000E+00  0.00000000E+00
  0.00000000E+00  0.00000000E+00  0.00000000E+00
  0.00000000E+00  0.00000000E+00  0.00000000E+00
  0.00000000E+00  0.00000000E+00  0.00000000E+00
  0.00000000E+00  0.00000000E+00  0.00000000E+00
  0.00000000E+00  0.00000000E+00  0.00000000E+00
  0.00000000E+00  0.00000000E+00  0.00000000E+00
  0.00000000E+00  0.00000000E+00  0.00000000E+00
  0.00000000E+00  0.00000000E+00  0.00000000E+00
  0.00000000E+00  0.00000000E+00  0.00000000E+00
  0.00000000E+00  0.00000000E+00  0.00000000E+00
