CONTCAR\(3)                             
   1.00000000000000     
    12.5215997695999999    0.0000000000000000    0.0000000000000000
    -6.2607811132000002   10.8440343342999999    0.0000000000000000
     0.0000000000000000    0.0000000000000000   23.0615997314000012
   Y    Ga   I    O 
    18    18    18     1
Direct
 -0.0000844448205424  0.0004124954247426  0.5903386796574335
  0.9998862119935965  0.9996714440149219  0.4160591891872625
  0.3336475632788165  0.0003592334056874  0.5902656575429897
  0.3330587556667328  0.9996393067424838  0.4160664440948623
  0.6663915642621563  0.9996988266156961  0.5905666507607006
  0.6683120153517732  0.0032719805706623  0.4150833542929916
  0.0005384001271549  0.3334544667956891  0.5905450967926873
  0.9968206696002199  0.3316577464487807  0.4151727831121197
  0.3416131500833298  0.3498653670690056  0.5926779646410023
  0.3317835066742360  0.3301026624768095  0.4157673919481688
  0.6663731729323353  0.3335206599488293  0.5905358939901518
  0.6683534034414450  0.3316302234526274  0.4151508289835140
 -0.0001598729004525  0.6661834219906404  0.5904228608358856
  0.9998955151647145  0.6666029496169111  0.4162184230416231
  0.3415276446993388  0.6589883798943096  0.5927612474712305
  0.3316591325994087  0.6680603811724415  0.4157965188502400
  0.6510433900326603  0.6591117860622198  0.5927117428233182
  0.6696542037315377  0.6680668176720592  0.4157348345315773
  0.1137150214384096  0.2233428137771298  0.5188114392646056
  0.2218054188060523  0.1103186681117231  0.4883890540471972
  0.4430168649080449  0.2234011439870336  0.5188059079887634
  0.5547688132748987  0.1106793859416991  0.4891538420896971
  0.7777729862230695  0.2221206961426122  0.5174402520331621
  0.8893138103560365  0.1106989824803049  0.4891697604394899
  0.1136777141784776  0.5567109355690265  0.5189508982103573
  0.2158284601207661  0.4411097698295584  0.4847988841336942
  0.4446006213248194  0.5556545034013203  0.4979653146651989
  0.5588407049285370  0.4411411546858579  0.4847100994608775
  0.7765753834916923  0.5567506905586690  0.5189202545770615
  0.8892985461685641  0.4450501402980881  0.4892132899496864
  0.1108937727710999  0.8887316313690609  0.5182055457514073
  0.2218153310610762  0.7778586353147366  0.4885872087414480
  0.4430926928445151  0.8863535143955646  0.5188719067621140
  0.5587866045422334  0.7843241925243595  0.4845906223800655
  0.7765059790435167  0.8864880677594615  0.5188665057704389
  0.8891850055664005  0.7779251750769013  0.4885882476897295
  0.2242434755941431  0.1152047747207126  0.6748707596011669
  0.1099554254524166  0.2206732899261054  0.3295623318007326
  0.5552214642878377  0.1111031035268207  0.6759389039230141
  0.4444730376142880  0.2209438591970568  0.3296952481453109
  0.8888262975382470  0.1113480882700244  0.6759554157177473
  0.7779690148942006  0.2223531682672647  0.3274905196976354
  0.2106244095438598  0.4389641925725834  0.6825217411903844
  0.1097473615752182  0.5553969761608144  0.3297041569416699
  0.5619324831918678  0.4392767585637989  0.6824136793256227
  0.4441919941795698  0.5551564265581664  0.3296807922748636
  0.8889885742068817  0.4444760048198700  0.6759199242826386
  0.7787740108336693  0.5553938608749415  0.3296964620555248
  0.2240984356812059  0.7764653631483318  0.6748431810794189
  0.1107979929201199  0.8883934248130622  0.3299860850670714
  0.5618299205809336  0.7900510737948072  0.6824923243257018
  0.4442154492210813  0.8897645978784541  0.3296360099336478
  0.8858066518581968  0.7763475142023449  0.6748290603981797
  0.7789320672681778  0.8898535464851333  0.3295050198848380
  0.4446640695914157  0.5559455896221053  0.5881436898421090
 
  0.00000000E+00  0.00000000E+00  0.00000000E+00
  0.00000000E+00  0.00000000E+00  0.00000000E+00
  0.00000000E+00  0.00000000E+00  0.00000000E+00
  0.00000000E+00  0.00000000E+00  0.00000000E+00
  0.00000000E+00  0.00000000E+00  0.00000000E+00
  0.00000000E+00  0.00000000E+00  0.00000000E+00
  0.00000000E+00  0.00000000E+00  0.00000000E+00
  0.00000000E+00  0.00000000E+00  0.00000000E+00
  0.00000000E+00  0.00000000E+00  0.00000000E+00
  0.00000000E+00  0.00000000E+00  0.00000000E+00
  0.00000000E+00  0.00000000E+00  0.00000000E+00
  0.00000000E+00  0.00000000E+00  0.00000000E+00
  0.00000000E+00  0.00000000E+00  0.00000000E+00
  0.00000000E+00  0.00000000E+00  0.00000000E+00
  0.00000000E+00  0.00000000E+00  0.00000000E+00
  0.00000000E+00  0.00000000E+00  0.00000000E+00
  0.00000000E+00  0.00000000E+00  0.00000000E+00
  0.00000000E+00  0.00000000E+00  0.00000000E+00
  0.00000000E+00  0.00000000E+00  0.00000000E+00
  0.00000000E+00  0.00000000E+00  0.00000000E+00
  0.00000000E+00  0.00000000E+00  0.00000000E+00
  0.00000000E+00  0.00000000E+00  0.00000000E+00
  0.00000000E+00  0.00000000E+00  0.00000000E+00
  0.00000000E+00  0.00000000E+00  0.00000000E+00
  0.00000000E+00  0.00000000E+00  0.00000000E+00
  0.00000000E+00  0.00000000E+00  0.00000000E+00
  0.00000000E+00  0.00000000E+00  0.00000000E+00
  0.00000000E+00  0.00000000E+00  0.00000000E+00
  0.00000000E+00  0.00000000E+00  0.00000000E+00
  0.00000000E+00  0.00000000E+00  0.00000000E+00
  0.00000000E+00  0.00000000E+00  0.00000000E+00
  0.00000000E+00  0.00000000E+00  0.00000000E+00
  0.00000000E+00  0.00000000E+00  0.00000000E+00
  0.00000000E+00  0.00000000E+00  0.00000000E+00
  0.00000000E+00  0.00000000E+00  0.00000000E+00
  0.00000000E+00  0.00000000E+00  0.00000000E+00
  0.00000000E+00  0.00000000E+00  0.00000000E+00
  0.00000000E+00  0.00000000E+00  0.00000000E+00
  0.00000000E+00  0.00000000E+00  0.00000000E+00
  0.00000000E+00  0.00000000E+00  0.00000000E+00
  0.00000000E+00  0.00000000E+00  0.00000000E+00
  0.00000000E+00  0.00000000E+00  0.00000000E+00
  0.00000000E+00  0.00000000E+00  0.00000000E+00
  0.00000000E+00  0.00000000E+00  0.00000000E+00
  0.00000000E+00  0.00000000E+00  0.00000000E+00
  0.00000000E+00  0.00000000E+00  0.00000000E+00
  0.00000000E+00  0.00000000E+00  0.00000000E+00
  0.00000000E+00  0.00000000E+00  0.00000000E+00
  0.00000000E+00  0.00000000E+00  0.00000000E+00
  0.00000000E+00  0.00000000E+00  0.00000000E+00
  0.00000000E+00  0.00000000E+00  0.00000000E+00
  0.00000000E+00  0.00000000E+00  0.00000000E+00
  0.00000000E+00  0.00000000E+00  0.00000000E+00
  0.00000000E+00  0.00000000E+00  0.00000000E+00
  0.00000000E+00  0.00000000E+00  0.00000000E+00
