CONTCAR\(2)                             
   1.00000000000000     
    11.4911003113000003    0.0000000000000000    0.0000000000000000
     0.0000000000000000   11.4911003113000003    0.0000000000000000
     0.0000000000000000    0.0000000000000000   24.1816997528000002
   Ca   Cu   Br   O 
    27    18    18    36
Direct
  0.0000000000000000  0.0000000000000000  0.6303999980000015
  0.0000000000000000  0.0000000000000000  0.3696000019999985
  0.0000000000000000  0.0000000000000000  0.5000000000000000
  0.3333299999999966  0.0000000000000000  0.6303999980000015
  0.3333299999999966  0.0000000000000000  0.3696000019999985
  0.3333299999999966  0.0000000000000000  0.5000000000000000
  0.6666700419999998  0.0000000000000000  0.6303999980000015
  0.6666700419999998  0.0000000000000000  0.3696000019999985
  0.6666700419999998  0.0000000000000000  0.5000000000000000
  0.0000000000000000  0.3333299999999966  0.6303999980000015
  0.0000000000000000  0.3333299999999966  0.3696000019999985
  0.0000000000000000  0.3333299999999966  0.5000000000000000
  0.3333299999999966  0.3333299999999966  0.6303999980000015
  0.3333299999999966  0.3333299999999966  0.3696000019999985
  0.3333299999999966  0.3333299999999966  0.5000000000000000
  0.6666700419999998  0.3333299999999966  0.6303999980000015
  0.6666700419999998  0.3333299999999966  0.3696000019999985
  0.6666700419999998  0.3333299999999966  0.5000000000000000
  0.0000000000000000  0.6666700419999998  0.6303999980000015
  0.0000000000000000  0.6666700419999998  0.3696000019999985
  0.0000000000000000  0.6666700419999998  0.5000000000000000
  0.3333299999999966  0.6666700419999998  0.6303999980000015
  0.3333299999999966  0.6666700419999998  0.3696000019999985
  0.3333299999999966  0.6666700419999998  0.5000000000000000
  0.6666700419999998  0.6666700419999998  0.6303999980000015
  0.6666700419999998  0.6666700419999998  0.3696000019999985
  0.6666700419999998  0.6666700419999998  0.5000000000000000
  0.1666699900000026  0.1666699900000026  0.4366100009999982
  0.1666699900000026  0.1666699900000026  0.5633899990000018
  0.5000000000000000  0.1666699900000026  0.4366100009999982
  0.5000000000000000  0.1666699900000026  0.5633899990000018
  0.8333299580000002  0.1666699900000026  0.4366100009999982
  0.8333299580000002  0.1666699900000026  0.5633899990000018
  0.1666699900000026  0.5000000000000000  0.4366100009999982
  0.1666699900000026  0.5000000000000000  0.5633899990000018
  0.5000000000000000  0.5000000000000000  0.4366100009999982
  0.5000000000000000  0.5000000000000000  0.5633899990000018
  0.8333299580000002  0.5000000000000000  0.4366100009999982
  0.8333299580000002  0.5000000000000000  0.5633899990000018
  0.1666699900000026  0.8333299580000002  0.4366100009999982
  0.1666699900000026  0.8333299580000002  0.5633899990000018
  0.5000000000000000  0.8333299580000002  0.4366100009999982
  0.5000000000000000  0.8333299580000002  0.5633899990000018
  0.8333299580000002  0.8333299580000002  0.4366100009999982
  0.8333299580000002  0.8333299580000002  0.5633899990000018
  0.1666699900000026  0.1666699900000026  0.3095700089999980
  0.1666699900000026  0.1666699900000026  0.6904299710000004
  0.5000000000000000  0.1666699900000026  0.3095700089999980
  0.5000000000000000  0.1666699900000026  0.6904299710000004
  0.8333299580000002  0.1666699900000026  0.3095700089999980
  0.8333299580000002  0.1666699900000026  0.6904299710000004
  0.1666699900000026  0.5000000000000000  0.3095700089999980
  0.1666699900000026  0.5000000000000000  0.6904299710000004
  0.5000000000000000  0.5000000000000000  0.3095700089999980
  0.5000000000000000  0.5000000000000000  0.6904299710000004
  0.8333299580000002  0.5000000000000000  0.3095700089999980
  0.8333299580000002  0.5000000000000000  0.6904299710000004
  0.1666699900000026  0.8333299580000002  0.3095700089999980
  0.1666699900000026  0.8333299580000002  0.6904299710000004
  0.5000000000000000  0.8333299580000002  0.3095700089999980
  0.5000000000000000  0.8333299580000002  0.6904299710000004
  0.8333299580000002  0.8333299580000002  0.3095700089999980
  0.8333299580000002  0.8333299580000002  0.6904299710000004
  0.0000000000000000  0.1666699900000026  0.4335200060000020
  0.0000000000000000  0.1666699900000026  0.5664799939999980
  0.1666699900000026  0.0000000000000000  0.4335200060000020
  0.1666699900000026  0.0000000000000000  0.5664799939999980
  0.3333299999999966  0.1666699900000026  0.4335200060000020
  0.3333299999999966  0.1666699900000026  0.5664799939999980
  0.5000000000000000  0.0000000000000000  0.4335200060000020
  0.5000000000000000  0.0000000000000000  0.5664799939999980
  0.6666700419999998  0.1666699900000026  0.4335200060000020
  0.6666700419999998  0.1666699900000026  0.5664799939999980
  0.8333299580000002  0.0000000000000000  0.4335200060000020
  0.8333299580000002  0.0000000000000000  0.5664799939999980
  0.0000000000000000  0.5000000000000000  0.4335200060000020
  0.0000000000000000  0.5000000000000000  0.5664799939999980
  0.1666699900000026  0.3333299999999966  0.4335200060000020
  0.1666699900000026  0.3333299999999966  0.5664799939999980
  0.3333299999999966  0.5000000000000000  0.4335200060000020
  0.3333299999999966  0.5000000000000000  0.5664799939999980
  0.5000000000000000  0.3333299999999966  0.4335200060000020
  0.5000000000000000  0.3333299999999966  0.5664799939999980
  0.6666700419999998  0.5000000000000000  0.4335200060000020
  0.6666700419999998  0.5000000000000000  0.5664799939999980
  0.8333299580000002  0.3333299999999966  0.4335200060000020
  0.8333299580000002  0.3333299999999966  0.5664799939999980
  0.0000000000000000  0.8333299580000002  0.4335200060000020
  0.0000000000000000  0.8333299580000002  0.5664799939999980
  0.1666699900000026  0.6666700419999998  0.4335200060000020
  0.1666699900000026  0.6666700419999998  0.5664799939999980
  0.3333299999999966  0.8333299580000002  0.4335200060000020
  0.3333299999999966  0.8333299580000002  0.5664799939999980
  0.5000000000000000  0.6666700419999998  0.4335200060000020
  0.5000000000000000  0.6666700419999998  0.5664799939999980
  0.6666700419999998  0.8333299580000002  0.4335200060000020
  0.6666700419999998  0.8333299580000002  0.5664799939999980
  0.8333299580000002  0.6666700419999998  0.4335200060000020
  0.8333299580000002  0.6666700419999998  0.5664799939999980
 
  0.00000000E+00  0.00000000E+00  0.00000000E+00
  0.00000000E+00  0.00000000E+00  0.00000000E+00
  0.00000000E+00  0.00000000E+00  0.00000000E+00
  0.00000000E+00  0.00000000E+00  0.00000000E+00
  0.00000000E+00  0.00000000E+00  0.00000000E+00
  0.00000000E+00  0.00000000E+00  0.00000000E+00
  0.00000000E+00  0.00000000E+00  0.00000000E+00
  0.00000000E+00  0.00000000E+00  0.00000000E+00
  0.00000000E+00  0.00000000E+00  0.00000000E+00
  0.00000000E+00  0.00000000E+00  0.00000000E+00
  0.00000000E+00  0.00000000E+00  0.00000000E+00
  0.00000000E+00  0.00000000E+00  0.00000000E+00
  0.00000000E+00  0.00000000E+00  0.00000000E+00
  0.00000000E+00  0.00000000E+00  0.00000000E+00
  0.00000000E+00  0.00000000E+00  0.00000000E+00
  0.00000000E+00  0.00000000E+00  0.00000000E+00
  0.00000000E+00  0.00000000E+00  0.00000000E+00
  0.00000000E+00  0.00000000E+00  0.00000000E+00
  0.00000000E+00  0.00000000E+00  0.00000000E+00
  0.00000000E+00  0.00000000E+00  0.00000000E+00
  0.00000000E+00  0.00000000E+00  0.00000000E+00
  0.00000000E+00  0.00000000E+00  0.00000000E+00
  0.00000000E+00  0.00000000E+00  0.00000000E+00
  0.00000000E+00  0.00000000E+00  0.00000000E+00
  0.00000000E+00  0.00000000E+00  0.00000000E+00
  0.00000000E+00  0.00000000E+00  0.00000000E+00
  0.00000000E+00  0.00000000E+00  0.00000000E+00
  0.00000000E+00  0.00000000E+00  0.00000000E+00
  0.00000000E+00  0.00000000E+00  0.00000000E+00
  0.00000000E+00  0.00000000E+00  0.00000000E+00
  0.00000000E+00  0.00000000E+00  0.00000000E+00
  0.00000000E+00  0.00000000E+00  0.00000000E+00
  0.00000000E+00  0.00000000E+00  0.00000000E+00
  0.00000000E+00  0.00000000E+00  0.00000000E+00
  0.00000000E+00  0.00000000E+00  0.00000000E+00
  0.00000000E+00  0.00000000E+00  0.00000000E+00
  0.00000000E+00  0.00000000E+00  0.00000000E+00
  0.00000000E+00  0.00000000E+00  0.00000000E+00
  0.00000000E+00  0.00000000E+00  0.00000000E+00
  0.00000000E+00  0.00000000E+00  0.00000000E+00
  0.00000000E+00  0.00000000E+00  0.00000000E+00
  0.00000000E+00  0.00000000E+00  0.00000000E+00
  0.00000000E+00  0.00000000E+00  0.00000000E+00
  0.00000000E+00  0.00000000E+00  0.00000000E+00
  0.00000000E+00  0.00000000E+00  0.00000000E+00
  0.00000000E+00  0.00000000E+00  0.00000000E+00
  0.00000000E+00  0.00000000E+00  0.00000000E+00
  0.00000000E+00  0.00000000E+00  0.00000000E+00
  0.00000000E+00  0.00000000E+00  0.00000000E+00
  0.00000000E+00  0.00000000E+00  0.00000000E+00
  0.00000000E+00  0.00000000E+00  0.00000000E+00
  0.00000000E+00  0.00000000E+00  0.00000000E+00
  0.00000000E+00  0.00000000E+00  0.00000000E+00
  0.00000000E+00  0.00000000E+00  0.00000000E+00
  0.00000000E+00  0.00000000E+00  0.00000000E+00
  0.00000000E+00  0.00000000E+00  0.00000000E+00
  0.00000000E+00  0.00000000E+00  0.00000000E+00
  0.00000000E+00  0.00000000E+00  0.00000000E+00
  0.00000000E+00  0.00000000E+00  0.00000000E+00
  0.00000000E+00  0.00000000E+00  0.00000000E+00
  0.00000000E+00  0.00000000E+00  0.00000000E+00
  0.00000000E+00  0.00000000E+00  0.00000000E+00
  0.00000000E+00  0.00000000E+00  0.00000000E+00
  0.00000000E+00  0.00000000E+00  0.00000000E+00
  0.00000000E+00  0.00000000E+00  0.00000000E+00
  0.00000000E+00  0.00000000E+00  0.00000000E+00
  0.00000000E+00  0.00000000E+00  0.00000000E+00
  0.00000000E+00  0.00000000E+00  0.00000000E+00
  0.00000000E+00  0.00000000E+00  0.00000000E+00
  0.00000000E+00  0.00000000E+00  0.00000000E+00
  0.00000000E+00  0.00000000E+00  0.00000000E+00
  0.00000000E+00  0.00000000E+00  0.00000000E+00
  0.00000000E+00  0.00000000E+00  0.00000000E+00
  0.00000000E+00  0.00000000E+00  0.00000000E+00
  0.00000000E+00  0.00000000E+00  0.00000000E+00
  0.00000000E+00  0.00000000E+00  0.00000000E+00
  0.00000000E+00  0.00000000E+00  0.00000000E+00
  0.00000000E+00  0.00000000E+00  0.00000000E+00
  0.00000000E+00  0.00000000E+00  0.00000000E+00
  0.00000000E+00  0.00000000E+00  0.00000000E+00
  0.00000000E+00  0.00000000E+00  0.00000000E+00
  0.00000000E+00  0.00000000E+00  0.00000000E+00
  0.00000000E+00  0.00000000E+00  0.00000000E+00
  0.00000000E+00  0.00000000E+00  0.00000000E+00
  0.00000000E+00  0.00000000E+00  0.00000000E+00
  0.00000000E+00  0.00000000E+00  0.00000000E+00
  0.00000000E+00  0.00000000E+00  0.00000000E+00
  0.00000000E+00  0.00000000E+00  0.00000000E+00
  0.00000000E+00  0.00000000E+00  0.00000000E+00
  0.00000000E+00  0.00000000E+00  0.00000000E+00
  0.00000000E+00  0.00000000E+00  0.00000000E+00
  0.00000000E+00  0.00000000E+00  0.00000000E+00
  0.00000000E+00  0.00000000E+00  0.00000000E+00
  0.00000000E+00  0.00000000E+00  0.00000000E+00
  0.00000000E+00  0.00000000E+00  0.00000000E+00
  0.00000000E+00  0.00000000E+00  0.00000000E+00
  0.00000000E+00  0.00000000E+00  0.00000000E+00
  0.00000000E+00  0.00000000E+00  0.00000000E+00
  0.00000000E+00  0.00000000E+00  0.00000000E+00
