CONTCAR                                 
   1.00000000000000     
    11.9160003662000005    0.0000000000000000    0.0000000000000000
    -5.9580032889999996   10.3494530515999994    0.0000000000000000
     0.0000000000000000    0.0000000000000000   17.8166999817000011
   Hf   Fe   Cl   O 
     4     4    24     1
Direct
  0.1606328028995526  0.3238576521661566  0.4960686061997667
  0.6615075789290061  0.3394840192387545  0.4953081937974738
  0.1778273277106632  0.8371514675977531  0.4952039907740299
  0.6661098934902041  0.8329456802208732  0.5536501548977559
  0.4878726693960286  0.4897688550301503  0.4997392829821674
  0.0036761479636522  0.5015787106049534  0.4976810174274725
  0.5017076701945210  0.0115613132525424  0.4997402963119487
  0.0093438781225719  0.9977105477208812  0.4998390235872535
  0.1494741047306853  0.4854269590571381  0.5774914707698707
  0.3310925624975793  0.3247262833666035  0.5722794241768305
  0.0070421287984391  0.1521240480517136  0.5795932250178050
  0.1478943097367781  0.1546853839201259  0.4135054743053097
  0.9962187410171685  0.3412642452461294  0.4209693248815935
  0.3357419994802601  0.4911476879586520  0.4192961303782646
  0.6441244111542553  0.4922977004928736  0.5797254673511780
  0.8358996700473651  0.3518894841978181  0.5759248951212770
  0.4941725354899712  0.1688113676159053  0.5723318737448299
  0.6544863166089313  0.1635780319314307  0.4192791939077231
  0.5051835808816186  0.3515609542676509  0.4125156108445981
  0.8414109531693025  0.5038640339366696  0.4199869307059227
  0.1745078676967702  0.0047662225915420  0.5721466708812745
  0.3481529063835312  0.8550349389020330  0.5798358192175883
  0.0149059843609669  0.6610024975295644  0.5748877239019181
  0.1638252245650614  0.6584924156023837  0.4192271416928454
  0.0091481178896071  0.8452142450183036  0.4192601301950360
  0.3458154428262001  0.9949754694783930  0.4130186718910994
  0.6559906345073240  0.0342704037258987  0.5796271987223381
  0.8782762452295293  0.8439365831436314  0.5798526412912944
  0.4654250014637097  0.6209666587876064  0.5798673884104223
  0.6453284474641071  0.6627296091604219  0.4418423098324399
  0.5170430610527188  0.8540877517314550  0.4416724514878625
  0.8363106583269621  0.9822903749051273  0.4418210512142849
  0.6656306729149617  0.8328682335488924  0.6548613960785122
 
  0.00000000E+00  0.00000000E+00  0.00000000E+00
  0.00000000E+00  0.00000000E+00  0.00000000E+00
  0.00000000E+00  0.00000000E+00  0.00000000E+00
  0.00000000E+00  0.00000000E+00  0.00000000E+00
  0.00000000E+00  0.00000000E+00  0.00000000E+00
  0.00000000E+00  0.00000000E+00  0.00000000E+00
  0.00000000E+00  0.00000000E+00  0.00000000E+00
  0.00000000E+00  0.00000000E+00  0.00000000E+00
  0.00000000E+00  0.00000000E+00  0.00000000E+00
  0.00000000E+00  0.00000000E+00  0.00000000E+00
  0.00000000E+00  0.00000000E+00  0.00000000E+00
  0.00000000E+00  0.00000000E+00  0.00000000E+00
  0.00000000E+00  0.00000000E+00  0.00000000E+00
  0.00000000E+00  0.00000000E+00  0.00000000E+00
  0.00000000E+00  0.00000000E+00  0.00000000E+00
  0.00000000E+00  0.00000000E+00  0.00000000E+00
  0.00000000E+00  0.00000000E+00  0.00000000E+00
  0.00000000E+00  0.00000000E+00  0.00000000E+00
  0.00000000E+00  0.00000000E+00  0.00000000E+00
  0.00000000E+00  0.00000000E+00  0.00000000E+00
  0.00000000E+00  0.00000000E+00  0.00000000E+00
  0.00000000E+00  0.00000000E+00  0.00000000E+00
  0.00000000E+00  0.00000000E+00  0.00000000E+00
  0.00000000E+00  0.00000000E+00  0.00000000E+00
  0.00000000E+00  0.00000000E+00  0.00000000E+00
  0.00000000E+00  0.00000000E+00  0.00000000E+00
  0.00000000E+00  0.00000000E+00  0.00000000E+00
  0.00000000E+00  0.00000000E+00  0.00000000E+00
  0.00000000E+00  0.00000000E+00  0.00000000E+00
  0.00000000E+00  0.00000000E+00  0.00000000E+00
  0.00000000E+00  0.00000000E+00  0.00000000E+00
  0.00000000E+00  0.00000000E+00  0.00000000E+00
  0.00000000E+00  0.00000000E+00  0.00000000E+00
