 Y2 Ge1 I2                              
   1.00000000000000     
     4.2007811167909441    0.0000000000000000    0.0000000000000000
     2.1003905583954721    3.6379807318296016    0.0000000000000000
     0.0000000000000000    0.0000000000000000   22.1669692600840023
   Y    Ge   I 
     2     1     2
Direct
  0.3333332142150935  0.3333332928601941  0.5705330547372089
 -0.0000000632131913 -0.0000001449178460  0.4294854426206808
  0.6666669041850422  0.6666669100831233  0.5000036976038492
 -0.0000001855031037 -0.0000001028726409  0.6608199336755601
  0.3333331303161628  0.3333330448471727  0.3391578713627014
 
  0.00000000E+00  0.00000000E+00  0.00000000E+00
  0.00000000E+00  0.00000000E+00  0.00000000E+00
  0.00000000E+00  0.00000000E+00  0.00000000E+00
  0.00000000E+00  0.00000000E+00  0.00000000E+00
  0.00000000E+00  0.00000000E+00  0.00000000E+00
