G   42   42    1    0.005     # Parameters to Generate KPOINTS (Don't Edit This Line)
     463
Reciprocal lattice
    0.000000000000    0.000000000000    0.000000000000       1
    0.023809523810    0.000000000000    0.000000000000       4
    0.047619047619    0.000000000000    0.000000000000       4
    0.071428571429    0.000000000000    0.000000000000       4
    0.095238095238    0.000000000000    0.000000000000       4
    0.119047619048    0.000000000000    0.000000000000       4
    0.142857142857    0.000000000000    0.000000000000       4
    0.166666666667    0.000000000000    0.000000000000       4
    0.190476190476    0.000000000000    0.000000000000       4
    0.214285714286    0.000000000000    0.000000000000       4
    0.238095238095    0.000000000000    0.000000000000       4
    0.261904761905    0.000000000000    0.000000000000       4
    0.285714285714    0.000000000000    0.000000000000       4
    0.309523809524    0.000000000000    0.000000000000       4
    0.333333333333    0.000000000000    0.000000000000       4
    0.357142857143    0.000000000000    0.000000000000       4
    0.380952380952    0.000000000000    0.000000000000       4
    0.404761904762    0.000000000000    0.000000000000       4
    0.428571428571    0.000000000000    0.000000000000       4
    0.452380952381    0.000000000000    0.000000000000       4
    0.476190476190    0.000000000000    0.000000000000       4
    0.500000000000    0.000000000000    0.000000000000       2
    0.000000000000    0.023809523810    0.000000000000       2
    0.023809523810    0.023809523810    0.000000000000       4
    0.047619047619    0.023809523810    0.000000000000       4
    0.071428571429    0.023809523810    0.000000000000       4
    0.095238095238    0.023809523810    0.000000000000       4
    0.119047619048    0.023809523810    0.000000000000       4
    0.142857142857    0.023809523810    0.000000000000       4
    0.166666666667    0.023809523810    0.000000000000       4
    0.190476190476    0.023809523810    0.000000000000       4
    0.214285714286    0.023809523810    0.000000000000       4
    0.238095238095    0.023809523810    0.000000000000       4
    0.261904761905    0.023809523810    0.000000000000       4
    0.285714285714    0.023809523810    0.000000000000       4
    0.309523809524    0.023809523810    0.000000000000       4
    0.333333333333    0.023809523810    0.000000000000       4
    0.357142857143    0.023809523810    0.000000000000       4
    0.380952380952    0.023809523810    0.000000000000       4
    0.404761904762    0.023809523810    0.000000000000       4
    0.428571428571    0.023809523810    0.000000000000       4
    0.452380952381    0.023809523810    0.000000000000       4
    0.476190476190    0.023809523810    0.000000000000       4
    0.500000000000    0.023809523810    0.000000000000       4
   -0.476190476190    0.023809523810    0.000000000000       4
   -0.452380952381    0.023809523810    0.000000000000       4
   -0.428571428571    0.023809523810    0.000000000000       4
   -0.404761904762    0.023809523810    0.000000000000       4
   -0.380952380952    0.023809523810    0.000000000000       4
   -0.357142857143    0.023809523810    0.000000000000       4
   -0.333333333333    0.023809523810    0.000000000000       4
   -0.309523809524    0.023809523810    0.000000000000       4
   -0.285714285714    0.023809523810    0.000000000000       4
   -0.261904761905    0.023809523810    0.000000000000       4
   -0.238095238095    0.023809523810    0.000000000000       4
   -0.214285714286    0.023809523810    0.000000000000       4
   -0.190476190476    0.023809523810    0.000000000000       4
   -0.166666666667    0.023809523810    0.000000000000       4
   -0.142857142857    0.023809523810    0.000000000000       4
   -0.119047619048    0.023809523810    0.000000000000       4
   -0.095238095238    0.023809523810    0.000000000000       4
   -0.071428571429    0.023809523810    0.000000000000       4
   -0.047619047619    0.023809523810    0.000000000000       2
    0.000000000000    0.047619047619    0.000000000000       2
    0.023809523810    0.047619047619    0.000000000000       4
    0.047619047619    0.047619047619    0.000000000000       4
    0.071428571429    0.047619047619    0.000000000000       4
    0.095238095238    0.047619047619    0.000000000000       4
    0.119047619048    0.047619047619    0.000000000000       4
    0.142857142857    0.047619047619    0.000000000000       4
    0.166666666667    0.047619047619    0.000000000000       4
    0.190476190476    0.047619047619    0.000000000000       4
    0.214285714286    0.047619047619    0.000000000000       4
    0.238095238095    0.047619047619    0.000000000000       4
    0.261904761905    0.047619047619    0.000000000000       4
    0.285714285714    0.047619047619    0.000000000000       4
    0.309523809524    0.047619047619    0.000000000000       4
    0.333333333333    0.047619047619    0.000000000000       4
    0.357142857143    0.047619047619    0.000000000000       4
    0.380952380952    0.047619047619    0.000000000000       4
    0.404761904762    0.047619047619    0.000000000000       4
    0.428571428571    0.047619047619    0.000000000000       4
    0.452380952381    0.047619047619    0.000000000000       4
    0.476190476190    0.047619047619    0.000000000000       4
    0.500000000000    0.047619047619    0.000000000000       4
   -0.476190476190    0.047619047619    0.000000000000       4
   -0.452380952381    0.047619047619    0.000000000000       4
   -0.428571428571    0.047619047619    0.000000000000       4
   -0.404761904762    0.047619047619    0.000000000000       4
   -0.380952380952    0.047619047619    0.000000000000       4
   -0.357142857143    0.047619047619    0.000000000000       4
   -0.333333333333    0.047619047619    0.000000000000       4
   -0.309523809524    0.047619047619    0.000000000000       4
   -0.285714285714    0.047619047619    0.000000000000       4
   -0.261904761905    0.047619047619    0.000000000000       4
   -0.238095238095    0.047619047619    0.000000000000       4
   -0.214285714286    0.047619047619    0.000000000000       4
   -0.190476190476    0.047619047619    0.000000000000       4
   -0.166666666667    0.047619047619    0.000000000000       4
   -0.142857142857    0.047619047619    0.000000000000       4
   -0.119047619048    0.047619047619    0.000000000000       4
   -0.095238095238    0.047619047619    0.000000000000       2
    0.000000000000    0.071428571429    0.000000000000       2
    0.023809523810    0.071428571429    0.000000000000       4
    0.047619047619    0.071428571429    0.000000000000       4
    0.071428571429    0.071428571429    0.000000000000       4
    0.095238095238    0.071428571429    0.000000000000       4
    0.119047619048    0.071428571429    0.000000000000       4
    0.142857142857    0.071428571429    0.000000000000       4
    0.166666666667    0.071428571429    0.000000000000       4
    0.190476190476    0.071428571429    0.000000000000       4
    0.214285714286    0.071428571429    0.000000000000       4
    0.238095238095    0.071428571429    0.000000000000       4
    0.261904761905    0.071428571429    0.000000000000       4
    0.285714285714    0.071428571429    0.000000000000       4
    0.309523809524    0.071428571429    0.000000000000       4
    0.333333333333    0.071428571429    0.000000000000       4
    0.357142857143    0.071428571429    0.000000000000       4
    0.380952380952    0.071428571429    0.000000000000       4
    0.404761904762    0.071428571429    0.000000000000       4
    0.428571428571    0.071428571429    0.000000000000       4
    0.452380952381    0.071428571429    0.000000000000       4
    0.476190476190    0.071428571429    0.000000000000       4
    0.500000000000    0.071428571429    0.000000000000       4
   -0.476190476190    0.071428571429    0.000000000000       4
   -0.452380952381    0.071428571429    0.000000000000       4
   -0.428571428571    0.071428571429    0.000000000000       4
   -0.404761904762    0.071428571429    0.000000000000       4
   -0.380952380952    0.071428571429    0.000000000000       4
   -0.357142857143    0.071428571429    0.000000000000       4
   -0.333333333333    0.071428571429    0.000000000000       4
   -0.309523809524    0.071428571429    0.000000000000       4
   -0.285714285714    0.071428571429    0.000000000000       4
   -0.261904761905    0.071428571429    0.000000000000       4
   -0.238095238095    0.071428571429    0.000000000000       4
   -0.214285714286    0.071428571429    0.000000000000       4
   -0.190476190476    0.071428571429    0.000000000000       4
   -0.166666666667    0.071428571429    0.000000000000       4
   -0.142857142857    0.071428571429    0.000000000000       2
    0.000000000000    0.095238095238    0.000000000000       2
    0.023809523810    0.095238095238    0.000000000000       4
    0.047619047619    0.095238095238    0.000000000000       4
    0.071428571429    0.095238095238    0.000000000000       4
    0.095238095238    0.095238095238    0.000000000000       4
    0.119047619048    0.095238095238    0.000000000000       4
    0.142857142857    0.095238095238    0.000000000000       4
    0.166666666667    0.095238095238    0.000000000000       4
    0.190476190476    0.095238095238    0.000000000000       4
    0.214285714286    0.095238095238    0.000000000000       4
    0.238095238095    0.095238095238    0.000000000000       4
    0.261904761905    0.095238095238    0.000000000000       4
    0.285714285714    0.095238095238    0.000000000000       4
    0.309523809524    0.095238095238    0.000000000000       4
    0.333333333333    0.095238095238    0.000000000000       4
    0.357142857143    0.095238095238    0.000000000000       4
    0.380952380952    0.095238095238    0.000000000000       4
    0.404761904762    0.095238095238    0.000000000000       4
    0.428571428571    0.095238095238    0.000000000000       4
    0.452380952381    0.095238095238    0.000000000000       4
    0.476190476190    0.095238095238    0.000000000000       4
    0.500000000000    0.095238095238    0.000000000000       4
   -0.476190476190    0.095238095238    0.000000000000       4
   -0.452380952381    0.095238095238    0.000000000000       4
   -0.428571428571    0.095238095238    0.000000000000       4
   -0.404761904762    0.095238095238    0.000000000000       4
   -0.380952380952    0.095238095238    0.000000000000       4
   -0.357142857143    0.095238095238    0.000000000000       4
   -0.333333333333    0.095238095238    0.000000000000       4
   -0.309523809524    0.095238095238    0.000000000000       4
   -0.285714285714    0.095238095238    0.000000000000       4
   -0.261904761905    0.095238095238    0.000000000000       4
   -0.238095238095    0.095238095238    0.000000000000       4
   -0.214285714286    0.095238095238    0.000000000000       4
   -0.190476190476    0.095238095238    0.000000000000       2
    0.000000000000    0.119047619048    0.000000000000       2
    0.023809523810    0.119047619048    0.000000000000       4
    0.047619047619    0.119047619048    0.000000000000       4
    0.071428571429    0.119047619048    0.000000000000       4
    0.095238095238    0.119047619048    0.000000000000       4
    0.119047619048    0.119047619048    0.000000000000       4
    0.142857142857    0.119047619048    0.000000000000       4
    0.166666666667    0.119047619048    0.000000000000       4
    0.190476190476    0.119047619048    0.000000000000       4
    0.214285714286    0.119047619048    0.000000000000       4
    0.238095238095    0.119047619048    0.000000000000       4
    0.261904761905    0.119047619048    0.000000000000       4
    0.285714285714    0.119047619048    0.000000000000       4
    0.309523809524    0.119047619048    0.000000000000       4
    0.333333333333    0.119047619048    0.000000000000       4
    0.357142857143    0.119047619048    0.000000000000       4
    0.380952380952    0.119047619048    0.000000000000       4
    0.404761904762    0.119047619048    0.000000000000       4
    0.428571428571    0.119047619048    0.000000000000       4
    0.452380952381    0.119047619048    0.000000000000       4
    0.476190476190    0.119047619048    0.000000000000       4
    0.500000000000    0.119047619048    0.000000000000       4
   -0.476190476190    0.119047619048    0.000000000000       4
   -0.452380952381    0.119047619048    0.000000000000       4
   -0.428571428571    0.119047619048    0.000000000000       4
   -0.404761904762    0.119047619048    0.000000000000       4
   -0.380952380952    0.119047619048    0.000000000000       4
   -0.357142857143    0.119047619048    0.000000000000       4
   -0.333333333333    0.119047619048    0.000000000000       4
   -0.309523809524    0.119047619048    0.000000000000       4
   -0.285714285714    0.119047619048    0.000000000000       4
   -0.261904761905    0.119047619048    0.000000000000       4
   -0.238095238095    0.119047619048    0.000000000000       2
    0.000000000000    0.142857142857    0.000000000000       2
    0.023809523810    0.142857142857    0.000000000000       4
    0.047619047619    0.142857142857    0.000000000000       4
    0.071428571429    0.142857142857    0.000000000000       4
    0.095238095238    0.142857142857    0.000000000000       4
    0.119047619048    0.142857142857    0.000000000000       4
    0.142857142857    0.142857142857    0.000000000000       4
    0.166666666667    0.142857142857    0.000000000000       4
    0.190476190476    0.142857142857    0.000000000000       4
    0.214285714286    0.142857142857    0.000000000000       4
    0.238095238095    0.142857142857    0.000000000000       4
    0.261904761905    0.142857142857    0.000000000000       4
    0.285714285714    0.142857142857    0.000000000000       4
    0.309523809524    0.142857142857    0.000000000000       4
    0.333333333333    0.142857142857    0.000000000000       4
    0.357142857143    0.142857142857    0.000000000000       4
    0.380952380952    0.142857142857    0.000000000000       4
    0.404761904762    0.142857142857    0.000000000000       4
    0.428571428571    0.142857142857    0.000000000000       4
    0.452380952381    0.142857142857    0.000000000000       4
    0.476190476190    0.142857142857    0.000000000000       4
    0.500000000000    0.142857142857    0.000000000000       4
   -0.476190476190    0.142857142857    0.000000000000       4
   -0.452380952381    0.142857142857    0.000000000000       4
   -0.428571428571    0.142857142857    0.000000000000       4
   -0.404761904762    0.142857142857    0.000000000000       4
   -0.380952380952    0.142857142857    0.000000000000       4
   -0.357142857143    0.142857142857    0.000000000000       4
   -0.333333333333    0.142857142857    0.000000000000       4
   -0.309523809524    0.142857142857    0.000000000000       4
   -0.285714285714    0.142857142857    0.000000000000       2
    0.000000000000    0.166666666667    0.000000000000       2
    0.023809523810    0.166666666667    0.000000000000       4
    0.047619047619    0.166666666667    0.000000000000       4
    0.071428571429    0.166666666667    0.000000000000       4
    0.095238095238    0.166666666667    0.000000000000       4
    0.119047619048    0.166666666667    0.000000000000       4
    0.142857142857    0.166666666667    0.000000000000       4
    0.166666666667    0.166666666667    0.000000000000       4
    0.190476190476    0.166666666667    0.000000000000       4
    0.214285714286    0.166666666667    0.000000000000       4
    0.238095238095    0.166666666667    0.000000000000       4
    0.261904761905    0.166666666667    0.000000000000       4
    0.285714285714    0.166666666667    0.000000000000       4
    0.309523809524    0.166666666667    0.000000000000       4
    0.333333333333    0.166666666667    0.000000000000       4
    0.357142857143    0.166666666667    0.000000000000       4
    0.380952380952    0.166666666667    0.000000000000       4
    0.404761904762    0.166666666667    0.000000000000       4
    0.428571428571    0.166666666667    0.000000000000       4
    0.452380952381    0.166666666667    0.000000000000       4
    0.476190476190    0.166666666667    0.000000000000       4
    0.500000000000    0.166666666667    0.000000000000       4
   -0.476190476190    0.166666666667    0.000000000000       4
   -0.452380952381    0.166666666667    0.000000000000       4
   -0.428571428571    0.166666666667    0.000000000000       4
   -0.404761904762    0.166666666667    0.000000000000       4
   -0.380952380952    0.166666666667    0.000000000000       4
   -0.357142857143    0.166666666667    0.000000000000       4
   -0.333333333333    0.166666666667    0.000000000000       2
    0.000000000000    0.190476190476    0.000000000000       2
    0.023809523810    0.190476190476    0.000000000000       4
    0.047619047619    0.190476190476    0.000000000000       4
    0.071428571429    0.190476190476    0.000000000000       4
    0.095238095238    0.190476190476    0.000000000000       4
    0.119047619048    0.190476190476    0.000000000000       4
    0.142857142857    0.190476190476    0.000000000000       4
    0.166666666667    0.190476190476    0.000000000000       4
    0.190476190476    0.190476190476    0.000000000000       4
    0.214285714286    0.190476190476    0.000000000000       4
    0.238095238095    0.190476190476    0.000000000000       4
    0.261904761905    0.190476190476    0.000000000000       4
    0.285714285714    0.190476190476    0.000000000000       4
    0.309523809524    0.190476190476    0.000000000000       4
    0.333333333333    0.190476190476    0.000000000000       4
    0.357142857143    0.190476190476    0.000000000000       4
    0.380952380952    0.190476190476    0.000000000000       4
    0.404761904762    0.190476190476    0.000000000000       4
    0.428571428571    0.190476190476    0.000000000000       4
    0.452380952381    0.190476190476    0.000000000000       4
    0.476190476190    0.190476190476    0.000000000000       4
    0.500000000000    0.190476190476    0.000000000000       4
   -0.476190476190    0.190476190476    0.000000000000       4
   -0.452380952381    0.190476190476    0.000000000000       4
   -0.428571428571    0.190476190476    0.000000000000       4
   -0.404761904762    0.190476190476    0.000000000000       4
   -0.380952380952    0.190476190476    0.000000000000       2
    0.000000000000    0.214285714286    0.000000000000       2
    0.023809523810    0.214285714286    0.000000000000       4
    0.047619047619    0.214285714286    0.000000000000       4
    0.071428571429    0.214285714286    0.000000000000       4
    0.095238095238    0.214285714286    0.000000000000       4
    0.119047619048    0.214285714286    0.000000000000       4
    0.142857142857    0.214285714286    0.000000000000       4
    0.166666666667    0.214285714286    0.000000000000       4
    0.190476190476    0.214285714286    0.000000000000       4
    0.214285714286    0.214285714286    0.000000000000       4
    0.238095238095    0.214285714286    0.000000000000       4
    0.261904761905    0.214285714286    0.000000000000       4
    0.285714285714    0.214285714286    0.000000000000       4
    0.309523809524    0.214285714286    0.000000000000       4
    0.333333333333    0.214285714286    0.000000000000       4
    0.357142857143    0.214285714286    0.000000000000       4
    0.380952380952    0.214285714286    0.000000000000       4
    0.404761904762    0.214285714286    0.000000000000       4
    0.428571428571    0.214285714286    0.000000000000       4
    0.452380952381    0.214285714286    0.000000000000       4
    0.476190476190    0.214285714286    0.000000000000       4
    0.500000000000    0.214285714286    0.000000000000       4
   -0.476190476190    0.214285714286    0.000000000000       4
   -0.452380952381    0.214285714286    0.000000000000       4
   -0.428571428571    0.214285714286    0.000000000000       2
    0.000000000000    0.238095238095    0.000000000000       2
    0.023809523810    0.238095238095    0.000000000000       4
    0.047619047619    0.238095238095    0.000000000000       4
    0.071428571429    0.238095238095    0.000000000000       4
    0.095238095238    0.238095238095    0.000000000000       4
    0.119047619048    0.238095238095    0.000000000000       4
    0.142857142857    0.238095238095    0.000000000000       4
    0.166666666667    0.238095238095    0.000000000000       4
    0.190476190476    0.238095238095    0.000000000000       4
    0.214285714286    0.238095238095    0.000000000000       4
    0.238095238095    0.238095238095    0.000000000000       4
    0.261904761905    0.238095238095    0.000000000000       4
    0.285714285714    0.238095238095    0.000000000000       4
    0.309523809524    0.238095238095    0.000000000000       4
    0.333333333333    0.238095238095    0.000000000000       4
    0.357142857143    0.238095238095    0.000000000000       4
    0.380952380952    0.238095238095    0.000000000000       4
    0.404761904762    0.238095238095    0.000000000000       4
    0.428571428571    0.238095238095    0.000000000000       4
    0.452380952381    0.238095238095    0.000000000000       4
    0.476190476190    0.238095238095    0.000000000000       4
    0.500000000000    0.238095238095    0.000000000000       4
   -0.476190476190    0.238095238095    0.000000000000       2
    0.000000000000    0.261904761905    0.000000000000       2
    0.023809523810    0.261904761905    0.000000000000       4
    0.047619047619    0.261904761905    0.000000000000       4
    0.071428571429    0.261904761905    0.000000000000       4
    0.095238095238    0.261904761905    0.000000000000       4
    0.119047619048    0.261904761905    0.000000000000       4
    0.142857142857    0.261904761905    0.000000000000       4
    0.166666666667    0.261904761905    0.000000000000       4
    0.190476190476    0.261904761905    0.000000000000       4
    0.214285714286    0.261904761905    0.000000000000       4
    0.238095238095    0.261904761905    0.000000000000       4
    0.261904761905    0.261904761905    0.000000000000       4
    0.285714285714    0.261904761905    0.000000000000       4
    0.309523809524    0.261904761905    0.000000000000       4
    0.333333333333    0.261904761905    0.000000000000       4
    0.357142857143    0.261904761905    0.000000000000       4
    0.380952380952    0.261904761905    0.000000000000       4
    0.404761904762    0.261904761905    0.000000000000       4
    0.428571428571    0.261904761905    0.000000000000       4
    0.452380952381    0.261904761905    0.000000000000       4
    0.476190476190    0.261904761905    0.000000000000       2
    0.000000000000    0.285714285714    0.000000000000       2
    0.023809523810    0.285714285714    0.000000000000       4
    0.047619047619    0.285714285714    0.000000000000       4
    0.071428571429    0.285714285714    0.000000000000       4
    0.095238095238    0.285714285714    0.000000000000       4
    0.119047619048    0.285714285714    0.000000000000       4
    0.142857142857    0.285714285714    0.000000000000       4
    0.166666666667    0.285714285714    0.000000000000       4
    0.190476190476    0.285714285714    0.000000000000       4
    0.214285714286    0.285714285714    0.000000000000       4
    0.238095238095    0.285714285714    0.000000000000       4
    0.261904761905    0.285714285714    0.000000000000       4
    0.285714285714    0.285714285714    0.000000000000       4
    0.309523809524    0.285714285714    0.000000000000       4
    0.333333333333    0.285714285714    0.000000000000       4
    0.357142857143    0.285714285714    0.000000000000       4
    0.380952380952    0.285714285714    0.000000000000       4
    0.404761904762    0.285714285714    0.000000000000       4
    0.428571428571    0.285714285714    0.000000000000       2
    0.000000000000    0.309523809524    0.000000000000       2
    0.023809523810    0.309523809524    0.000000000000       4
    0.047619047619    0.309523809524    0.000000000000       4
    0.071428571429    0.309523809524    0.000000000000       4
    0.095238095238    0.309523809524    0.000000000000       4
    0.119047619048    0.309523809524    0.000000000000       4
    0.142857142857    0.309523809524    0.000000000000       4
    0.166666666667    0.309523809524    0.000000000000       4
    0.190476190476    0.309523809524    0.000000000000       4
    0.214285714286    0.309523809524    0.000000000000       4
    0.238095238095    0.309523809524    0.000000000000       4
    0.261904761905    0.309523809524    0.000000000000       4
    0.285714285714    0.309523809524    0.000000000000       4
    0.309523809524    0.309523809524    0.000000000000       4
    0.333333333333    0.309523809524    0.000000000000       4
    0.357142857143    0.309523809524    0.000000000000       4
    0.380952380952    0.309523809524    0.000000000000       2
    0.000000000000    0.333333333333    0.000000000000       2
    0.023809523810    0.333333333333    0.000000000000       4
    0.047619047619    0.333333333333    0.000000000000       4
    0.071428571429    0.333333333333    0.000000000000       4
    0.095238095238    0.333333333333    0.000000000000       4
    0.119047619048    0.333333333333    0.000000000000       4
    0.142857142857    0.333333333333    0.000000000000       4
    0.166666666667    0.333333333333    0.000000000000       4
    0.190476190476    0.333333333333    0.000000000000       4
    0.214285714286    0.333333333333    0.000000000000       4
    0.238095238095    0.333333333333    0.000000000000       4
    0.261904761905    0.333333333333    0.000000000000       4
    0.285714285714    0.333333333333    0.000000000000       4
    0.309523809524    0.333333333333    0.000000000000       4
    0.333333333333    0.333333333333    0.000000000000       2
    0.000000000000    0.357142857143    0.000000000000       2
    0.023809523810    0.357142857143    0.000000000000       4
    0.047619047619    0.357142857143    0.000000000000       4
    0.071428571429    0.357142857143    0.000000000000       4
    0.095238095238    0.357142857143    0.000000000000       4
    0.119047619048    0.357142857143    0.000000000000       4
    0.142857142857    0.357142857143    0.000000000000       4
    0.166666666667    0.357142857143    0.000000000000       4
    0.190476190476    0.357142857143    0.000000000000       4
    0.214285714286    0.357142857143    0.000000000000       4
    0.238095238095    0.357142857143    0.000000000000       4
    0.261904761905    0.357142857143    0.000000000000       4
    0.285714285714    0.357142857143    0.000000000000       2
    0.000000000000    0.380952380952    0.000000000000       2
    0.023809523810    0.380952380952    0.000000000000       4
    0.047619047619    0.380952380952    0.000000000000       4
    0.071428571429    0.380952380952    0.000000000000       4
    0.095238095238    0.380952380952    0.000000000000       4
    0.119047619048    0.380952380952    0.000000000000       4
    0.142857142857    0.380952380952    0.000000000000       4
    0.166666666667    0.380952380952    0.000000000000       4
    0.190476190476    0.380952380952    0.000000000000       4
    0.214285714286    0.380952380952    0.000000000000       4
    0.238095238095    0.380952380952    0.000000000000       2
    0.000000000000    0.404761904762    0.000000000000       2
    0.023809523810    0.404761904762    0.000000000000       4
    0.047619047619    0.404761904762    0.000000000000       4
    0.071428571429    0.404761904762    0.000000000000       4
    0.095238095238    0.404761904762    0.000000000000       4
    0.119047619048    0.404761904762    0.000000000000       4
    0.142857142857    0.404761904762    0.000000000000       4
    0.166666666667    0.404761904762    0.000000000000       4
    0.190476190476    0.404761904762    0.000000000000       2
    0.000000000000    0.428571428571    0.000000000000       2
    0.023809523810    0.428571428571    0.000000000000       4
    0.047619047619    0.428571428571    0.000000000000       4
    0.071428571429    0.428571428571    0.000000000000       4
    0.095238095238    0.428571428571    0.000000000000       4
    0.119047619048    0.428571428571    0.000000000000       4
    0.142857142857    0.428571428571    0.000000000000       2
    0.000000000000    0.452380952381    0.000000000000       2
    0.023809523810    0.452380952381    0.000000000000       4
    0.047619047619    0.452380952381    0.000000000000       4
    0.071428571429    0.452380952381    0.000000000000       4
    0.095238095238    0.452380952381    0.000000000000       2
    0.000000000000    0.476190476190    0.000000000000       2
    0.023809523810    0.476190476190    0.000000000000       4
    0.047619047619    0.476190476190    0.000000000000       2
    0.000000000000    0.500000000000    0.000000000000       1
