CONTCAR\(7)                             
   1.00000000000000     
    11.3503999709999999    0.0000000000000000    0.0000000000000000
    -5.6751999854999999    9.8297347179999992    0.0000000000000000
     0.0000000000000000    0.0000000000000000   18.1851005553999983
   Zr   Se   O    H 
     9    18     1     1
Selective dynamics
Direct
  0.9988950447977700  0.0007891427252531  0.4917064196894003   F   F   F
  0.3321002505157367  0.0004164565777245  0.4949457951114340   F   F   F
  0.6653682325326216  0.0007903269838323  0.4959111451250706   F   F   F
  0.9988985517037250  0.3343385408870674  0.4963565753108270   F   F   F
  0.3324172021994656  0.3338762365708376  0.4952654982230840   F   F   F
  0.6654797258270264  0.3335408966221465  0.4951132055253424   F   F   F
  0.9990313894137017  0.6672535149039120  0.4945824311271849   F   F   F
  0.3322572048007899  0.6682130705709781  0.5472150489390870   F   F   F
  0.6659820776074312  0.6670312452042850  0.4945635230886936   F   F   F
  0.2171414657335760  0.1100217358679885  0.5824023969284156   F   F   F
  0.1109700351176954  0.2254313430288875  0.4060202396225563   F   F   F
  0.5554677309378349  0.1146221347401593  0.5835098612394134   F   F   F
  0.4420370900790331  0.2224163517128233  0.4071344771253962   F   F   F
  0.8899522965413524  0.1095621522326908  0.5828465928984272   F   F   F
  0.7777343277100073  0.2219618988522143  0.4078730287629568   F   F   F
  0.2016134763438515  0.4037146280262291  0.5922315780850127   F   F   F
  0.1326476432452708  0.5669794494690876  0.4249347779777537   F   F   F
  0.5564290526148454  0.4435178944298457  0.5832200725991470   F   F   F
  0.4306019037711408  0.5688471830598445  0.4258388306754952   F   F   F
  0.8844962213345156  0.4442175624698947  0.5834241133274034   F   F   F
  0.7769219428852736  0.5566343359307808  0.4068488966835062   F   F   F
  0.1983499019727617  0.8002050962007417  0.5907695390494467   F   F   F
  0.1108565613549501  0.8890864724441769  0.4051520638534925   F   F   F
  0.5973759835783952  0.7983189966058646  0.5915949260773843   F   F   F
  0.4321862226299302  0.8666732523157918  0.4250629491642499   F   F   F
  0.8896441554806600  0.7824296224527885  0.5821476596380819   F   F   F
  0.7747360685657156  0.8889565037039304  0.4057098023086922   F   F   F
  0.3305977673703282  0.6736043206647224  0.6560413496994855   T   T   T
  0.3727007903346546  0.6461399867455668  0.6929121020543464   T   T   T
 
  0.00000000E+00  0.00000000E+00  0.00000000E+00
  0.00000000E+00  0.00000000E+00  0.00000000E+00
  0.00000000E+00  0.00000000E+00  0.00000000E+00
  0.00000000E+00  0.00000000E+00  0.00000000E+00
  0.00000000E+00  0.00000000E+00  0.00000000E+00
  0.00000000E+00  0.00000000E+00  0.00000000E+00
  0.00000000E+00  0.00000000E+00  0.00000000E+00
  0.00000000E+00  0.00000000E+00  0.00000000E+00
  0.00000000E+00  0.00000000E+00  0.00000000E+00
  0.00000000E+00  0.00000000E+00  0.00000000E+00
  0.00000000E+00  0.00000000E+00  0.00000000E+00
  0.00000000E+00  0.00000000E+00  0.00000000E+00
  0.00000000E+00  0.00000000E+00  0.00000000E+00
  0.00000000E+00  0.00000000E+00  0.00000000E+00
  0.00000000E+00  0.00000000E+00  0.00000000E+00
  0.00000000E+00  0.00000000E+00  0.00000000E+00
  0.00000000E+00  0.00000000E+00  0.00000000E+00
  0.00000000E+00  0.00000000E+00  0.00000000E+00
  0.00000000E+00  0.00000000E+00  0.00000000E+00
  0.00000000E+00  0.00000000E+00  0.00000000E+00
  0.00000000E+00  0.00000000E+00  0.00000000E+00
  0.00000000E+00  0.00000000E+00  0.00000000E+00
  0.00000000E+00  0.00000000E+00  0.00000000E+00
  0.00000000E+00  0.00000000E+00  0.00000000E+00
  0.00000000E+00  0.00000000E+00  0.00000000E+00
  0.00000000E+00  0.00000000E+00  0.00000000E+00
  0.00000000E+00  0.00000000E+00  0.00000000E+00
  0.00000000E+00  0.00000000E+00  0.00000000E+00
  0.00000000E+00  0.00000000E+00  0.00000000E+00
