CONTCAR\(4)                             
   1.00000000000000     
    12.9882001877000004    0.0000000000000000    0.0000000000000000
     0.0000000000000000   20.1457004546999983    0.0000000000000000
     0.0000000000000000    0.0000000000000000   19.8038997650000006
   Ce   I    O    H 
    12    36     1     1
Direct
  0.1676075455199211  0.0000420694083161  0.5052878353455199
  0.0000287066765452  0.2463101646356378  0.4886491093458574
  0.4999836795488477  0.0000279156743161  0.5049942391789344
  0.3331030656551803  0.2516171166530512  0.4950191355023037
  0.8323839703102749  0.0000182843682168  0.5052430473837006
  0.6668898462074750  0.2516569162155236  0.4949763767418887
  0.1639824179538039  0.4999666155147651  0.4964735256534567
  0.9999837293717988  0.7537041910128792  0.4886701540247955
  0.5006291813669819  0.5000669597582927  0.5557032381740612
  0.3330456731493356  0.7484583724643841  0.4949893808877306
  0.8363473456228192  0.5000004302405259  0.4960636202263800
  0.6668225617346550  0.7484076911878361  0.4950088759315605
  0.0006779176670975  0.4073503800233738  0.4156108551257276
  0.1582066353417986  0.3380460374293506  0.5714554696776943
  0.1663504069496469  0.1567361604521622  0.5733696533380410
  0.0000742750327305  0.0907831101726018  0.4216659632835231
  0.0000194579028161  0.0000155418707237  0.6207916396670257
  0.1713968710706055  0.2498370432804791  0.3761599536575702
  0.3425313422072875  0.4090078554435763  0.4361118408249425
  0.4999644374716965  0.3374884171431347  0.5892164111311899
  0.5000080545915537  0.1576221007499541  0.5737862219154337
  0.3340578333063107  0.0914527611674245  0.4237673252093686
  0.3338138285660222  0.0001101905922098  0.6213708450392730
  0.4999476309619411  0.2512227331908150  0.3796343970256970
  0.6569479245534282  0.4089462633572154  0.4360907397449765
  0.8419194993171075  0.3380152416497566  0.5714108193723462
  0.8336114536345249  0.1566833597023276  0.5732882866234164
  0.6659169583735292  0.0914599316770648  0.4237324092053143
  0.6661862129477569  0.0000228509881950  0.6213360304483828
  0.8287130221638961  0.2500320108068195  0.3761190322340866
  0.9999779149460295  0.9093223581954106  0.4216180266180913
  0.1663738270170967  0.8433339330982577  0.5733162985369731
  0.1581797685459705  0.6620234508030620  0.5715112910676794
  0.0007438771489134  0.5926746354197832  0.4156467422502814
  0.0004343012278625  0.5000121321266704  0.6101320535985053
  0.1713598558229563  0.7501937674800132  0.3761578832372265
  0.3340407679990349  0.9085958115767312  0.4238003521033988
  0.4999546519556830  0.8424726005799812  0.5738366046324970
  0.4996989969827084  0.6626610876327916  0.5891702728582260
  0.3424197710716470  0.5910008466767920  0.4361648320421949
  0.2804866707344615  0.4999990368704417  0.6276916550763190
  0.4999348405786037  0.7487827539364744  0.3795898446570902
  0.6659183935224320  0.9085541826744219  0.4237493968176267
  0.8336064919850372  0.8433324303831782  0.5732934992612400
  0.8419016524984997  0.6620098651671142  0.5714408051574793
  0.6566120609968991  0.5910782910705379  0.4365137825816419
  0.7201304311807846  0.4999819420810994  0.6278642205470106
  0.8286508625499209  0.7499054179461666  0.3761551025967194
  0.5001721737869431  0.5001946157458761  0.6587063418097969
  0.5011313372711470  0.5003223437042834  0.7076945676298081
 
  0.00000000E+00  0.00000000E+00  0.00000000E+00
  0.00000000E+00  0.00000000E+00  0.00000000E+00
  0.00000000E+00  0.00000000E+00  0.00000000E+00
  0.00000000E+00  0.00000000E+00  0.00000000E+00
  0.00000000E+00  0.00000000E+00  0.00000000E+00
  0.00000000E+00  0.00000000E+00  0.00000000E+00
  0.00000000E+00  0.00000000E+00  0.00000000E+00
  0.00000000E+00  0.00000000E+00  0.00000000E+00
  0.00000000E+00  0.00000000E+00  0.00000000E+00
  0.00000000E+00  0.00000000E+00  0.00000000E+00
  0.00000000E+00  0.00000000E+00  0.00000000E+00
  0.00000000E+00  0.00000000E+00  0.00000000E+00
  0.00000000E+00  0.00000000E+00  0.00000000E+00
  0.00000000E+00  0.00000000E+00  0.00000000E+00
  0.00000000E+00  0.00000000E+00  0.00000000E+00
  0.00000000E+00  0.00000000E+00  0.00000000E+00
  0.00000000E+00  0.00000000E+00  0.00000000E+00
  0.00000000E+00  0.00000000E+00  0.00000000E+00
  0.00000000E+00  0.00000000E+00  0.00000000E+00
  0.00000000E+00  0.00000000E+00  0.00000000E+00
  0.00000000E+00  0.00000000E+00  0.00000000E+00
  0.00000000E+00  0.00000000E+00  0.00000000E+00
  0.00000000E+00  0.00000000E+00  0.00000000E+00
  0.00000000E+00  0.00000000E+00  0.00000000E+00
  0.00000000E+00  0.00000000E+00  0.00000000E+00
  0.00000000E+00  0.00000000E+00  0.00000000E+00
  0.00000000E+00  0.00000000E+00  0.00000000E+00
  0.00000000E+00  0.00000000E+00  0.00000000E+00
  0.00000000E+00  0.00000000E+00  0.00000000E+00
  0.00000000E+00  0.00000000E+00  0.00000000E+00
  0.00000000E+00  0.00000000E+00  0.00000000E+00
  0.00000000E+00  0.00000000E+00  0.00000000E+00
  0.00000000E+00  0.00000000E+00  0.00000000E+00
  0.00000000E+00  0.00000000E+00  0.00000000E+00
  0.00000000E+00  0.00000000E+00  0.00000000E+00
  0.00000000E+00  0.00000000E+00  0.00000000E+00
  0.00000000E+00  0.00000000E+00  0.00000000E+00
  0.00000000E+00  0.00000000E+00  0.00000000E+00
  0.00000000E+00  0.00000000E+00  0.00000000E+00
  0.00000000E+00  0.00000000E+00  0.00000000E+00
  0.00000000E+00  0.00000000E+00  0.00000000E+00
  0.00000000E+00  0.00000000E+00  0.00000000E+00
  0.00000000E+00  0.00000000E+00  0.00000000E+00
  0.00000000E+00  0.00000000E+00  0.00000000E+00
  0.00000000E+00  0.00000000E+00  0.00000000E+00
  0.00000000E+00  0.00000000E+00  0.00000000E+00
  0.00000000E+00  0.00000000E+00  0.00000000E+00
  0.00000000E+00  0.00000000E+00  0.00000000E+00
  0.00000000E+00  0.00000000E+00  0.00000000E+00
  0.00000000E+00  0.00000000E+00  0.00000000E+00
