 K2 Fe4 Se6                             
   1.00000000000000     
     5.3088368727299304    0.0000000000000000    0.0000000000000000
     0.0000000000000000    8.8424634354486287    0.0000000000000000
     0.0000000000000000    0.0000000000000000   18.8054441750559995
   K    Fe   Se
     2     4     6
Direct
  0.7500051950182751  0.4996326145236765  0.4097885998698629
  0.2499366147207951  0.4996405287409473  0.5901930223441028
  0.4999922844693430  0.1447775098458948  0.4999952852553946
  0.0000003291617432  0.1447848515452534  0.5000091309508008
  0.5000181583343490  0.8553258315511769  0.5000028440004627
  0.0000248855353249  0.8553572844091306  0.5000078438130657
  0.7500106497131966  0.0000669239345186  0.4262824274670507
  0.2500326189804483  0.0000708088613024  0.5737279234797015
  0.7499703772791193  0.2866666986847193  0.5707804593105692
  0.2499855514052385  0.2866316787973417  0.4292059822762369
  0.2500023759296539  0.7135187690105411  0.4292224358556069
  0.7500209594525060  0.7135265000954902  0.5707840453771809
 
  0.00000000E+00  0.00000000E+00  0.00000000E+00
  0.00000000E+00  0.00000000E+00  0.00000000E+00
  0.00000000E+00  0.00000000E+00  0.00000000E+00
  0.00000000E+00  0.00000000E+00  0.00000000E+00
  0.00000000E+00  0.00000000E+00  0.00000000E+00
  0.00000000E+00  0.00000000E+00  0.00000000E+00
  0.00000000E+00  0.00000000E+00  0.00000000E+00
  0.00000000E+00  0.00000000E+00  0.00000000E+00
  0.00000000E+00  0.00000000E+00  0.00000000E+00
  0.00000000E+00  0.00000000E+00  0.00000000E+00
  0.00000000E+00  0.00000000E+00  0.00000000E+00
  0.00000000E+00  0.00000000E+00  0.00000000E+00
