G   38   23    1    0.005     # Parameters to Generate KPOINTS (Don't Edit This Line)
     438
Reciprocal lattice
    0.000000000000    0.000000000000    0.000000000000       1
    0.026315789474    0.000000000000    0.000000000000       2
    0.052631578947    0.000000000000    0.000000000000       2
    0.078947368421    0.000000000000    0.000000000000       2
    0.105263157895    0.000000000000    0.000000000000       2
    0.131578947368    0.000000000000    0.000000000000       2
    0.157894736842    0.000000000000    0.000000000000       2
    0.184210526316    0.000000000000    0.000000000000       2
    0.210526315789    0.000000000000    0.000000000000       2
    0.236842105263    0.000000000000    0.000000000000       2
    0.263157894737    0.000000000000    0.000000000000       2
    0.289473684211    0.000000000000    0.000000000000       2
    0.315789473684    0.000000000000    0.000000000000       2
    0.342105263158    0.000000000000    0.000000000000       2
    0.368421052632    0.000000000000    0.000000000000       2
    0.394736842105    0.000000000000    0.000000000000       2
    0.421052631579    0.000000000000    0.000000000000       2
    0.447368421053    0.000000000000    0.000000000000       2
    0.473684210526    0.000000000000    0.000000000000       2
    0.500000000000    0.000000000000    0.000000000000       1
    0.000000000000    0.043478260870    0.000000000000       2
    0.026315789474    0.043478260870    0.000000000000       2
    0.052631578947    0.043478260870    0.000000000000       2
    0.078947368421    0.043478260870    0.000000000000       2
    0.105263157895    0.043478260870    0.000000000000       2
    0.131578947368    0.043478260870    0.000000000000       2
    0.157894736842    0.043478260870    0.000000000000       2
    0.184210526316    0.043478260870    0.000000000000       2
    0.210526315789    0.043478260870    0.000000000000       2
    0.236842105263    0.043478260870    0.000000000000       2
    0.263157894737    0.043478260870    0.000000000000       2
    0.289473684211    0.043478260870    0.000000000000       2
    0.315789473684    0.043478260870    0.000000000000       2
    0.342105263158    0.043478260870    0.000000000000       2
    0.368421052632    0.043478260870    0.000000000000       2
    0.394736842105    0.043478260870    0.000000000000       2
    0.421052631579    0.043478260870    0.000000000000       2
    0.447368421053    0.043478260870    0.000000000000       2
    0.473684210526    0.043478260870    0.000000000000       2
    0.500000000000    0.043478260870    0.000000000000       2
   -0.473684210526    0.043478260870    0.000000000000       2
   -0.447368421053    0.043478260870    0.000000000000       2
   -0.421052631579    0.043478260870    0.000000000000       2
   -0.394736842105    0.043478260870    0.000000000000       2
   -0.368421052632    0.043478260870    0.000000000000       2
   -0.342105263158    0.043478260870    0.000000000000       2
   -0.315789473684    0.043478260870    0.000000000000       2
   -0.289473684211    0.043478260870    0.000000000000       2
   -0.263157894737    0.043478260870    0.000000000000       2
   -0.236842105263    0.043478260870    0.000000000000       2
   -0.210526315789    0.043478260870    0.000000000000       2
   -0.184210526316    0.043478260870    0.000000000000       2
   -0.157894736842    0.043478260870    0.000000000000       2
   -0.131578947368    0.043478260870    0.000000000000       2
   -0.105263157895    0.043478260870    0.000000000000       2
   -0.078947368421    0.043478260870    0.000000000000       2
   -0.052631578947    0.043478260870    0.000000000000       2
   -0.026315789474    0.043478260870    0.000000000000       2
    0.000000000000    0.086956521739    0.000000000000       2
    0.026315789474    0.086956521739    0.000000000000       2
    0.052631578947    0.086956521739    0.000000000000       2
    0.078947368421    0.086956521739    0.000000000000       2
    0.105263157895    0.086956521739    0.000000000000       2
    0.131578947368    0.086956521739    0.000000000000       2
    0.157894736842    0.086956521739    0.000000000000       2
    0.184210526316    0.086956521739    0.000000000000       2
    0.210526315789    0.086956521739    0.000000000000       2
    0.236842105263    0.086956521739    0.000000000000       2
    0.263157894737    0.086956521739    0.000000000000       2
    0.289473684211    0.086956521739    0.000000000000       2
    0.315789473684    0.086956521739    0.000000000000       2
    0.342105263158    0.086956521739    0.000000000000       2
    0.368421052632    0.086956521739    0.000000000000       2
    0.394736842105    0.086956521739    0.000000000000       2
    0.421052631579    0.086956521739    0.000000000000       2
    0.447368421053    0.086956521739    0.000000000000       2
    0.473684210526    0.086956521739    0.000000000000       2
    0.500000000000    0.086956521739    0.000000000000       2
   -0.473684210526    0.086956521739    0.000000000000       2
   -0.447368421053    0.086956521739    0.000000000000       2
   -0.421052631579    0.086956521739    0.000000000000       2
   -0.394736842105    0.086956521739    0.000000000000       2
   -0.368421052632    0.086956521739    0.000000000000       2
   -0.342105263158    0.086956521739    0.000000000000       2
   -0.315789473684    0.086956521739    0.000000000000       2
   -0.289473684211    0.086956521739    0.000000000000       2
   -0.263157894737    0.086956521739    0.000000000000       2
   -0.236842105263    0.086956521739    0.000000000000       2
   -0.210526315789    0.086956521739    0.000000000000       2
   -0.184210526316    0.086956521739    0.000000000000       2
   -0.157894736842    0.086956521739    0.000000000000       2
   -0.131578947368    0.086956521739    0.000000000000       2
   -0.105263157895    0.086956521739    0.000000000000       2
   -0.078947368421    0.086956521739    0.000000000000       2
   -0.052631578947    0.086956521739    0.000000000000       2
   -0.026315789474    0.086956521739    0.000000000000       2
    0.000000000000    0.130434782609    0.000000000000       2
    0.026315789474    0.130434782609    0.000000000000       2
    0.052631578947    0.130434782609    0.000000000000       2
    0.078947368421    0.130434782609    0.000000000000       2
    0.105263157895    0.130434782609    0.000000000000       2
    0.131578947368    0.130434782609    0.000000000000       2
    0.157894736842    0.130434782609    0.000000000000       2
    0.184210526316    0.130434782609    0.000000000000       2
    0.210526315789    0.130434782609    0.000000000000       2
    0.236842105263    0.130434782609    0.000000000000       2
    0.263157894737    0.130434782609    0.000000000000       2
    0.289473684211    0.130434782609    0.000000000000       2
    0.315789473684    0.130434782609    0.000000000000       2
    0.342105263158    0.130434782609    0.000000000000       2
    0.368421052632    0.130434782609    0.000000000000       2
    0.394736842105    0.130434782609    0.000000000000       2
    0.421052631579    0.130434782609    0.000000000000       2
    0.447368421053    0.130434782609    0.000000000000       2
    0.473684210526    0.130434782609    0.000000000000       2
    0.500000000000    0.130434782609    0.000000000000       2
   -0.473684210526    0.130434782609    0.000000000000       2
   -0.447368421053    0.130434782609    0.000000000000       2
   -0.421052631579    0.130434782609    0.000000000000       2
   -0.394736842105    0.130434782609    0.000000000000       2
   -0.368421052632    0.130434782609    0.000000000000       2
   -0.342105263158    0.130434782609    0.000000000000       2
   -0.315789473684    0.130434782609    0.000000000000       2
   -0.289473684211    0.130434782609    0.000000000000       2
   -0.263157894737    0.130434782609    0.000000000000       2
   -0.236842105263    0.130434782609    0.000000000000       2
   -0.210526315789    0.130434782609    0.000000000000       2
   -0.184210526316    0.130434782609    0.000000000000       2
   -0.157894736842    0.130434782609    0.000000000000       2
   -0.131578947368    0.130434782609    0.000000000000       2
   -0.105263157895    0.130434782609    0.000000000000       2
   -0.078947368421    0.130434782609    0.000000000000       2
   -0.052631578947    0.130434782609    0.000000000000       2
   -0.026315789474    0.130434782609    0.000000000000       2
    0.000000000000    0.173913043478    0.000000000000       2
    0.026315789474    0.173913043478    0.000000000000       2
    0.052631578947    0.173913043478    0.000000000000       2
    0.078947368421    0.173913043478    0.000000000000       2
    0.105263157895    0.173913043478    0.000000000000       2
    0.131578947368    0.173913043478    0.000000000000       2
    0.157894736842    0.173913043478    0.000000000000       2
    0.184210526316    0.173913043478    0.000000000000       2
    0.210526315789    0.173913043478    0.000000000000       2
    0.236842105263    0.173913043478    0.000000000000       2
    0.263157894737    0.173913043478    0.000000000000       2
    0.289473684211    0.173913043478    0.000000000000       2
    0.315789473684    0.173913043478    0.000000000000       2
    0.342105263158    0.173913043478    0.000000000000       2
    0.368421052632    0.173913043478    0.000000000000       2
    0.394736842105    0.173913043478    0.000000000000       2
    0.421052631579    0.173913043478    0.000000000000       2
    0.447368421053    0.173913043478    0.000000000000       2
    0.473684210526    0.173913043478    0.000000000000       2
    0.500000000000    0.173913043478    0.000000000000       2
   -0.473684210526    0.173913043478    0.000000000000       2
   -0.447368421053    0.173913043478    0.000000000000       2
   -0.421052631579    0.173913043478    0.000000000000       2
   -0.394736842105    0.173913043478    0.000000000000       2
   -0.368421052632    0.173913043478    0.000000000000       2
   -0.342105263158    0.173913043478    0.000000000000       2
   -0.315789473684    0.173913043478    0.000000000000       2
   -0.289473684211    0.173913043478    0.000000000000       2
   -0.263157894737    0.173913043478    0.000000000000       2
   -0.236842105263    0.173913043478    0.000000000000       2
   -0.210526315789    0.173913043478    0.000000000000       2
   -0.184210526316    0.173913043478    0.000000000000       2
   -0.157894736842    0.173913043478    0.000000000000       2
   -0.131578947368    0.173913043478    0.000000000000       2
   -0.105263157895    0.173913043478    0.000000000000       2
   -0.078947368421    0.173913043478    0.000000000000       2
   -0.052631578947    0.173913043478    0.000000000000       2
   -0.026315789474    0.173913043478    0.000000000000       2
    0.000000000000    0.217391304348    0.000000000000       2
    0.026315789474    0.217391304348    0.000000000000       2
    0.052631578947    0.217391304348    0.000000000000       2
    0.078947368421    0.217391304348    0.000000000000       2
    0.105263157895    0.217391304348    0.000000000000       2
    0.131578947368    0.217391304348    0.000000000000       2
    0.157894736842    0.217391304348    0.000000000000       2
    0.184210526316    0.217391304348    0.000000000000       2
    0.210526315789    0.217391304348    0.000000000000       2
    0.236842105263    0.217391304348    0.000000000000       2
    0.263157894737    0.217391304348    0.000000000000       2
    0.289473684211    0.217391304348    0.000000000000       2
    0.315789473684    0.217391304348    0.000000000000       2
    0.342105263158    0.217391304348    0.000000000000       2
    0.368421052632    0.217391304348    0.000000000000       2
    0.394736842105    0.217391304348    0.000000000000       2
    0.421052631579    0.217391304348    0.000000000000       2
    0.447368421053    0.217391304348    0.000000000000       2
    0.473684210526    0.217391304348    0.000000000000       2
    0.500000000000    0.217391304348    0.000000000000       2
   -0.473684210526    0.217391304348    0.000000000000       2
   -0.447368421053    0.217391304348    0.000000000000       2
   -0.421052631579    0.217391304348    0.000000000000       2
   -0.394736842105    0.217391304348    0.000000000000       2
   -0.368421052632    0.217391304348    0.000000000000       2
   -0.342105263158    0.217391304348    0.000000000000       2
   -0.315789473684    0.217391304348    0.000000000000       2
   -0.289473684211    0.217391304348    0.000000000000       2
   -0.263157894737    0.217391304348    0.000000000000       2
   -0.236842105263    0.217391304348    0.000000000000       2
   -0.210526315789    0.217391304348    0.000000000000       2
   -0.184210526316    0.217391304348    0.000000000000       2
   -0.157894736842    0.217391304348    0.000000000000       2
   -0.131578947368    0.217391304348    0.000000000000       2
   -0.105263157895    0.217391304348    0.000000000000       2
   -0.078947368421    0.217391304348    0.000000000000       2
   -0.052631578947    0.217391304348    0.000000000000       2
   -0.026315789474    0.217391304348    0.000000000000       2
    0.000000000000    0.260869565217    0.000000000000       2
    0.026315789474    0.260869565217    0.000000000000       2
    0.052631578947    0.260869565217    0.000000000000       2
    0.078947368421    0.260869565217    0.000000000000       2
    0.105263157895    0.260869565217    0.000000000000       2
    0.131578947368    0.260869565217    0.000000000000       2
    0.157894736842    0.260869565217    0.000000000000       2
    0.184210526316    0.260869565217    0.000000000000       2
    0.210526315789    0.260869565217    0.000000000000       2
    0.236842105263    0.260869565217    0.000000000000       2
    0.263157894737    0.260869565217    0.000000000000       2
    0.289473684211    0.260869565217    0.000000000000       2
    0.315789473684    0.260869565217    0.000000000000       2
    0.342105263158    0.260869565217    0.000000000000       2
    0.368421052632    0.260869565217    0.000000000000       2
    0.394736842105    0.260869565217    0.000000000000       2
    0.421052631579    0.260869565217    0.000000000000       2
    0.447368421053    0.260869565217    0.000000000000       2
    0.473684210526    0.260869565217    0.000000000000       2
    0.500000000000    0.260869565217    0.000000000000       2
   -0.473684210526    0.260869565217    0.000000000000       2
   -0.447368421053    0.260869565217    0.000000000000       2
   -0.421052631579    0.260869565217    0.000000000000       2
   -0.394736842105    0.260869565217    0.000000000000       2
   -0.368421052632    0.260869565217    0.000000000000       2
   -0.342105263158    0.260869565217    0.000000000000       2
   -0.315789473684    0.260869565217    0.000000000000       2
   -0.289473684211    0.260869565217    0.000000000000       2
   -0.263157894737    0.260869565217    0.000000000000       2
   -0.236842105263    0.260869565217    0.000000000000       2
   -0.210526315789    0.260869565217    0.000000000000       2
   -0.184210526316    0.260869565217    0.000000000000       2
   -0.157894736842    0.260869565217    0.000000000000       2
   -0.131578947368    0.260869565217    0.000000000000       2
   -0.105263157895    0.260869565217    0.000000000000       2
   -0.078947368421    0.260869565217    0.000000000000       2
   -0.052631578947    0.260869565217    0.000000000000       2
   -0.026315789474    0.260869565217    0.000000000000       2
    0.000000000000    0.304347826087    0.000000000000       2
    0.026315789474    0.304347826087    0.000000000000       2
    0.052631578947    0.304347826087    0.000000000000       2
    0.078947368421    0.304347826087    0.000000000000       2
    0.105263157895    0.304347826087    0.000000000000       2
    0.131578947368    0.304347826087    0.000000000000       2
    0.157894736842    0.304347826087    0.000000000000       2
    0.184210526316    0.304347826087    0.000000000000       2
    0.210526315789    0.304347826087    0.000000000000       2
    0.236842105263    0.304347826087    0.000000000000       2
    0.263157894737    0.304347826087    0.000000000000       2
    0.289473684211    0.304347826087    0.000000000000       2
    0.315789473684    0.304347826087    0.000000000000       2
    0.342105263158    0.304347826087    0.000000000000       2
    0.368421052632    0.304347826087    0.000000000000       2
    0.394736842105    0.304347826087    0.000000000000       2
    0.421052631579    0.304347826087    0.000000000000       2
    0.447368421053    0.304347826087    0.000000000000       2
    0.473684210526    0.304347826087    0.000000000000       2
    0.500000000000    0.304347826087    0.000000000000       2
   -0.473684210526    0.304347826087    0.000000000000       2
   -0.447368421053    0.304347826087    0.000000000000       2
   -0.421052631579    0.304347826087    0.000000000000       2
   -0.394736842105    0.304347826087    0.000000000000       2
   -0.368421052632    0.304347826087    0.000000000000       2
   -0.342105263158    0.304347826087    0.000000000000       2
   -0.315789473684    0.304347826087    0.000000000000       2
   -0.289473684211    0.304347826087    0.000000000000       2
   -0.263157894737    0.304347826087    0.000000000000       2
   -0.236842105263    0.304347826087    0.000000000000       2
   -0.210526315789    0.304347826087    0.000000000000       2
   -0.184210526316    0.304347826087    0.000000000000       2
   -0.157894736842    0.304347826087    0.000000000000       2
   -0.131578947368    0.304347826087    0.000000000000       2
   -0.105263157895    0.304347826087    0.000000000000       2
   -0.078947368421    0.304347826087    0.000000000000       2
   -0.052631578947    0.304347826087    0.000000000000       2
   -0.026315789474    0.304347826087    0.000000000000       2
    0.000000000000    0.347826086957    0.000000000000       2
    0.026315789474    0.347826086957    0.000000000000       2
    0.052631578947    0.347826086957    0.000000000000       2
    0.078947368421    0.347826086957    0.000000000000       2
    0.105263157895    0.347826086957    0.000000000000       2
    0.131578947368    0.347826086957    0.000000000000       2
    0.157894736842    0.347826086957    0.000000000000       2
    0.184210526316    0.347826086957    0.000000000000       2
    0.210526315789    0.347826086957    0.000000000000       2
    0.236842105263    0.347826086957    0.000000000000       2
    0.263157894737    0.347826086957    0.000000000000       2
    0.289473684211    0.347826086957    0.000000000000       2
    0.315789473684    0.347826086957    0.000000000000       2
    0.342105263158    0.347826086957    0.000000000000       2
    0.368421052632    0.347826086957    0.000000000000       2
    0.394736842105    0.347826086957    0.000000000000       2
    0.421052631579    0.347826086957    0.000000000000       2
    0.447368421053    0.347826086957    0.000000000000       2
    0.473684210526    0.347826086957    0.000000000000       2
    0.500000000000    0.347826086957    0.000000000000       2
   -0.473684210526    0.347826086957    0.000000000000       2
   -0.447368421053    0.347826086957    0.000000000000       2
   -0.421052631579    0.347826086957    0.000000000000       2
   -0.394736842105    0.347826086957    0.000000000000       2
   -0.368421052632    0.347826086957    0.000000000000       2
   -0.342105263158    0.347826086957    0.000000000000       2
   -0.315789473684    0.347826086957    0.000000000000       2
   -0.289473684211    0.347826086957    0.000000000000       2
   -0.263157894737    0.347826086957    0.000000000000       2
   -0.236842105263    0.347826086957    0.000000000000       2
   -0.210526315789    0.347826086957    0.000000000000       2
   -0.184210526316    0.347826086957    0.000000000000       2
   -0.157894736842    0.347826086957    0.000000000000       2
   -0.131578947368    0.347826086957    0.000000000000       2
   -0.105263157895    0.347826086957    0.000000000000       2
   -0.078947368421    0.347826086957    0.000000000000       2
   -0.052631578947    0.347826086957    0.000000000000       2
   -0.026315789474    0.347826086957    0.000000000000       2
    0.000000000000    0.391304347826    0.000000000000       2
    0.026315789474    0.391304347826    0.000000000000       2
    0.052631578947    0.391304347826    0.000000000000       2
    0.078947368421    0.391304347826    0.000000000000       2
    0.105263157895    0.391304347826    0.000000000000       2
    0.131578947368    0.391304347826    0.000000000000       2
    0.157894736842    0.391304347826    0.000000000000       2
    0.184210526316    0.391304347826    0.000000000000       2
    0.210526315789    0.391304347826    0.000000000000       2
    0.236842105263    0.391304347826    0.000000000000       2
    0.263157894737    0.391304347826    0.000000000000       2
    0.289473684211    0.391304347826    0.000000000000       2
    0.315789473684    0.391304347826    0.000000000000       2
    0.342105263158    0.391304347826    0.000000000000       2
    0.368421052632    0.391304347826    0.000000000000       2
    0.394736842105    0.391304347826    0.000000000000       2
    0.421052631579    0.391304347826    0.000000000000       2
    0.447368421053    0.391304347826    0.000000000000       2
    0.473684210526    0.391304347826    0.000000000000       2
    0.500000000000    0.391304347826    0.000000000000       2
   -0.473684210526    0.391304347826    0.000000000000       2
   -0.447368421053    0.391304347826    0.000000000000       2
   -0.421052631579    0.391304347826    0.000000000000       2
   -0.394736842105    0.391304347826    0.000000000000       2
   -0.368421052632    0.391304347826    0.000000000000       2
   -0.342105263158    0.391304347826    0.000000000000       2
   -0.315789473684    0.391304347826    0.000000000000       2
   -0.289473684211    0.391304347826    0.000000000000       2
   -0.263157894737    0.391304347826    0.000000000000       2
   -0.236842105263    0.391304347826    0.000000000000       2
   -0.210526315789    0.391304347826    0.000000000000       2
   -0.184210526316    0.391304347826    0.000000000000       2
   -0.157894736842    0.391304347826    0.000000000000       2
   -0.131578947368    0.391304347826    0.000000000000       2
   -0.105263157895    0.391304347826    0.000000000000       2
   -0.078947368421    0.391304347826    0.000000000000       2
   -0.052631578947    0.391304347826    0.000000000000       2
   -0.026315789474    0.391304347826    0.000000000000       2
    0.000000000000    0.434782608696    0.000000000000       2
    0.026315789474    0.434782608696    0.000000000000       2
    0.052631578947    0.434782608696    0.000000000000       2
    0.078947368421    0.434782608696    0.000000000000       2
    0.105263157895    0.434782608696    0.000000000000       2
    0.131578947368    0.434782608696    0.000000000000       2
    0.157894736842    0.434782608696    0.000000000000       2
    0.184210526316    0.434782608696    0.000000000000       2
    0.210526315789    0.434782608696    0.000000000000       2
    0.236842105263    0.434782608696    0.000000000000       2
    0.263157894737    0.434782608696    0.000000000000       2
    0.289473684211    0.434782608696    0.000000000000       2
    0.315789473684    0.434782608696    0.000000000000       2
    0.342105263158    0.434782608696    0.000000000000       2
    0.368421052632    0.434782608696    0.000000000000       2
    0.394736842105    0.434782608696    0.000000000000       2
    0.421052631579    0.434782608696    0.000000000000       2
    0.447368421053    0.434782608696    0.000000000000       2
    0.473684210526    0.434782608696    0.000000000000       2
    0.500000000000    0.434782608696    0.000000000000       2
   -0.473684210526    0.434782608696    0.000000000000       2
   -0.447368421053    0.434782608696    0.000000000000       2
   -0.421052631579    0.434782608696    0.000000000000       2
   -0.394736842105    0.434782608696    0.000000000000       2
   -0.368421052632    0.434782608696    0.000000000000       2
   -0.342105263158    0.434782608696    0.000000000000       2
   -0.315789473684    0.434782608696    0.000000000000       2
   -0.289473684211    0.434782608696    0.000000000000       2
   -0.263157894737    0.434782608696    0.000000000000       2
   -0.236842105263    0.434782608696    0.000000000000       2
   -0.210526315789    0.434782608696    0.000000000000       2
   -0.184210526316    0.434782608696    0.000000000000       2
   -0.157894736842    0.434782608696    0.000000000000       2
   -0.131578947368    0.434782608696    0.000000000000       2
   -0.105263157895    0.434782608696    0.000000000000       2
   -0.078947368421    0.434782608696    0.000000000000       2
   -0.052631578947    0.434782608696    0.000000000000       2
   -0.026315789474    0.434782608696    0.000000000000       2
    0.000000000000    0.478260869565    0.000000000000       2
    0.026315789474    0.478260869565    0.000000000000       2
    0.052631578947    0.478260869565    0.000000000000       2
    0.078947368421    0.478260869565    0.000000000000       2
    0.105263157895    0.478260869565    0.000000000000       2
    0.131578947368    0.478260869565    0.000000000000       2
    0.157894736842    0.478260869565    0.000000000000       2
    0.184210526316    0.478260869565    0.000000000000       2
    0.210526315789    0.478260869565    0.000000000000       2
    0.236842105263    0.478260869565    0.000000000000       2
    0.263157894737    0.478260869565    0.000000000000       2
    0.289473684211    0.478260869565    0.000000000000       2
    0.315789473684    0.478260869565    0.000000000000       2
    0.342105263158    0.478260869565    0.000000000000       2
    0.368421052632    0.478260869565    0.000000000000       2
    0.394736842105    0.478260869565    0.000000000000       2
    0.421052631579    0.478260869565    0.000000000000       2
    0.447368421053    0.478260869565    0.000000000000       2
    0.473684210526    0.478260869565    0.000000000000       2
    0.500000000000    0.478260869565    0.000000000000       2
   -0.473684210526    0.478260869565    0.000000000000       2
   -0.447368421053    0.478260869565    0.000000000000       2
   -0.421052631579    0.478260869565    0.000000000000       2
   -0.394736842105    0.478260869565    0.000000000000       2
   -0.368421052632    0.478260869565    0.000000000000       2
   -0.342105263158    0.478260869565    0.000000000000       2
   -0.315789473684    0.478260869565    0.000000000000       2
   -0.289473684211    0.478260869565    0.000000000000       2
   -0.263157894737    0.478260869565    0.000000000000       2
   -0.236842105263    0.478260869565    0.000000000000       2
   -0.210526315789    0.478260869565    0.000000000000       2
   -0.184210526316    0.478260869565    0.000000000000       2
   -0.157894736842    0.478260869565    0.000000000000       2
   -0.131578947368    0.478260869565    0.000000000000       2
   -0.105263157895    0.478260869565    0.000000000000       2
   -0.078947368421    0.478260869565    0.000000000000       2
   -0.052631578947    0.478260869565    0.000000000000       2
   -0.026315789474    0.478260869565    0.000000000000       2
