CONTCAR\(10)                            
   1.00000000000000     
    11.1367998122999996    0.0000000000000000    0.0000000000000000
    -5.5683999061999998    9.6447515543000009    0.0000000000000000
     0.0000000000000000    0.0000000000000000   17.5949001311999993
   Ni   Te   O 
     9    18     1
Direct
  0.0024589150058105  0.9983381513524776  0.5030113298467711
  0.3350530853327811  0.9991178735556119  0.5011259934708079
  0.6774559123111601  0.0188056367546423  0.4893049475049267
  0.9814240608218014  0.3228032191659054  0.4888133994764132
  0.3359612463952999  0.3337158757569938  0.5079285687685271
  0.6696947340475532  0.3303877269019750  0.4989253258833770
  0.0015341661517283  0.6656872971472154  0.5012178357379611
  0.3328947833627467  0.6667309359682889  0.5021594078614413
  0.6661326087526049  0.6640449140032132  0.5085511050270881
  0.1165139686709438  0.2257152867395789  0.4261487970751219
  0.2237308411194050  0.1076947703367068  0.5837238461140615
  0.4435743708994337  0.2222977067613243  0.4233421429029676
  0.5610571818749150  0.1062554221856615  0.5784271169709641
  0.7663057917123126  0.2331721521783976  0.4001339642811388
  0.8865113155991082  0.1143606975800751  0.5756389909610462
  0.1108127868414286  0.5517140257561834  0.4209290040496114
  0.2428726261104330  0.4586579417761598  0.5905378864357402
  0.4467519338101837  0.5536727603327307  0.4268387691637727
  0.5625803039842410  0.4368603772280366  0.5839433218663643
  0.7780338376503479  0.5570364334756022  0.4239683643359342
  0.8941655337360359  0.4390300519745480  0.5782338658232788
  0.1121195737773846  0.8887463907227868  0.4221068822095546
  0.2224912930905205  0.7781083695719957  0.5809284186796688
  0.4488467659967483  0.8892765032364807  0.4213677030531002
  0.5392517365063014  0.7543525367331796  0.5915427533157498
  0.7743720640384950  0.8836047431509968  0.4267453692940535
  0.8929855232920332  0.7771641971793670  0.5838533791242497
  0.4188132171082231  0.5783582994738907  0.6550412807663122
 
  0.00000000E+00  0.00000000E+00  0.00000000E+00
  0.00000000E+00  0.00000000E+00  0.00000000E+00
  0.00000000E+00  0.00000000E+00  0.00000000E+00
  0.00000000E+00  0.00000000E+00  0.00000000E+00
  0.00000000E+00  0.00000000E+00  0.00000000E+00
  0.00000000E+00  0.00000000E+00  0.00000000E+00
  0.00000000E+00  0.00000000E+00  0.00000000E+00
  0.00000000E+00  0.00000000E+00  0.00000000E+00
  0.00000000E+00  0.00000000E+00  0.00000000E+00
  0.00000000E+00  0.00000000E+00  0.00000000E+00
  0.00000000E+00  0.00000000E+00  0.00000000E+00
  0.00000000E+00  0.00000000E+00  0.00000000E+00
  0.00000000E+00  0.00000000E+00  0.00000000E+00
  0.00000000E+00  0.00000000E+00  0.00000000E+00
  0.00000000E+00  0.00000000E+00  0.00000000E+00
  0.00000000E+00  0.00000000E+00  0.00000000E+00
  0.00000000E+00  0.00000000E+00  0.00000000E+00
  0.00000000E+00  0.00000000E+00  0.00000000E+00
  0.00000000E+00  0.00000000E+00  0.00000000E+00
  0.00000000E+00  0.00000000E+00  0.00000000E+00
  0.00000000E+00  0.00000000E+00  0.00000000E+00
  0.00000000E+00  0.00000000E+00  0.00000000E+00
  0.00000000E+00  0.00000000E+00  0.00000000E+00
  0.00000000E+00  0.00000000E+00  0.00000000E+00
  0.00000000E+00  0.00000000E+00  0.00000000E+00
  0.00000000E+00  0.00000000E+00  0.00000000E+00
  0.00000000E+00  0.00000000E+00  0.00000000E+00
  0.00000000E+00  0.00000000E+00  0.00000000E+00
