CONTCAR\(9)                             
   1.00000000000000     
    15.7593002318999993    0.0000000000000000    0.0000000000000000
     0.0000000000000000   15.7517004013000008    0.0000000000000000
     0.0000000000000000    0.0000000000000000   17.5345993042000003
   Fe   S 
    32    40
Direct
  0.4435708555943023  0.1340810290298720  0.4962724468908846
  0.3898407415017715  0.2856789859243918  0.4964195136404754
  0.3450889791427088  0.4378467372664900  0.5041841200164967
  0.2913904481771468  0.0894070701510614  0.5041530741830087
  0.0413998283758232  0.3394081165807208  0.4964779788328499
  0.0950836377699744  0.1878326407485247  0.4964029415761502
  0.1398579334266614  0.0356739688967096  0.5042571832619913
  0.1935311257810497  0.3840541334158232  0.5042931382602163
  0.9435708555943023  0.1340810290298720  0.4962724468908846
  0.8898407115017690  0.2856789859243918  0.4964195136404754
  0.8450890391427066  0.4378467372664900  0.5041841200164967
  0.7913904481771468  0.0894070701510614  0.5041530741830087
  0.5413998313758199  0.3394081165807208  0.4964779788328499
  0.5950835917699777  0.1878326407485247  0.4964029415761502
  0.6398579334266614  0.0356739688967096  0.5042571832619913
  0.6935311257810497  0.3840541334158232  0.5042931382602163
  0.4435708555943023  0.6340810440298696  0.4962724468908846
  0.3898407415017715  0.7856789559243964  0.4964195136404754
  0.3450889791427088  0.9378467372664900  0.5041841200164967
  0.2913904481771468  0.5893970271510653  0.5041530741830087
  0.0413998283758232  0.8394081775807223  0.4964779788328499
  0.0950836377699744  0.6878326107485222  0.4964029415761502
  0.1398579334266614  0.5356739728967099  0.5042571832619913
  0.1935311257810497  0.8840541634158257  0.5042931382602163
  0.9435708555943023  0.6340810440298696  0.4962724468908846
  0.8898407115017690  0.7856789559243964  0.4964195136404754
  0.8450890391427066  0.9378467372664900  0.5041841200164967
  0.7913904481771468  0.5893970271510653  0.5041530741830087
  0.5413998313758199  0.8394081775807223  0.4964779788328499
  0.5950835917699777  0.6878326107485222  0.4964029415761502
  0.6398579334266614  0.5356739728967099  0.5042571832619913
  0.6935311257810497  0.8840541634158257  0.5042931382602163
  0.4924289964955761  0.2367095280993254  0.5672153265867905
  0.3921871265835506  0.0407154234690523  0.5720444603931227
  0.3427898429503031  0.1828767323105254  0.4284364514850338
  0.2964039431708869  0.3370542801049652  0.5721123995528998
  0.2424252333261094  0.4867022221135997  0.4334168920595829
  0.0464558756147255  0.0869761908064035  0.4285207658429826
  0.0928519125374265  0.4328666765282989  0.5722114836706851
  0.1421019186426875  0.2907316029985125  0.4284983815595922
  0.1885826801117574  0.1365076006681463  0.5720504311220225
  0.4385788887975437  0.3864569998875638  0.4285630090652219
  0.9924289964955761  0.2367095280993254  0.5672153265867905
  0.8921871265835506  0.0407154234690523  0.5720444603931227
  0.8427898129503006  0.1828767323105254  0.4284364514850338
  0.7964038821708854  0.3370542801049652  0.5721123995528998
  0.7424252173261081  0.4867022221135997  0.4334168920595829
  0.5464558606147278  0.0869761908064035  0.4285207658429826
  0.5928519205374272  0.4328666765282989  0.5722114836706851
  0.6421019036426898  0.2907316029985125  0.4284983815595922
  0.6885826651117526  0.1365076006681463  0.5720504311220225
  0.9385789497975452  0.3864569998875638  0.4285630090652219
  0.4924289964955761  0.7367095130993278  0.5672153265867905
  0.3921871265835506  0.5407154314690530  0.5720444603931227
  0.3427898429503031  0.6828767013105193  0.4284364514850338
  0.2964039431708869  0.8370542801049723  0.5721123995528998
  0.2424252333261094  0.9867021921136043  0.4334168920595829
  0.0464558756147255  0.5869761908064035  0.4285207658429826
  0.0928519125374265  0.9328666765282989  0.5722114836706851
  0.1421019186426875  0.7907315729985172  0.4284983815595922
  0.1885826801117574  0.6365076006681463  0.5720504311220225
  0.4385788887975437  0.8864569998875638  0.4285630090652219
  0.9924289964955761  0.7367095130993278  0.5672153265867905
  0.8921871265835506  0.5407154314690530  0.5720444603931227
  0.8427898129503006  0.6828767013105193  0.4284364514850338
  0.7964038821708854  0.8370542801049723  0.5721123995528998
  0.7424252173261081  0.9867021921136043  0.4334168920595829
  0.5464558606147278  0.5869761908064035  0.4285207658429826
  0.5928519205374272  0.9328666765282989  0.5722114836706851
  0.6421019036426898  0.7907315729985172  0.4284983815595922
  0.6885826651117526  0.6365076006681463  0.5720504311220225
  0.9385789497975452  0.8864569998875638  0.4285630090652219
 
  0.00000000E+00  0.00000000E+00  0.00000000E+00
  0.00000000E+00  0.00000000E+00  0.00000000E+00
  0.00000000E+00  0.00000000E+00  0.00000000E+00
  0.00000000E+00  0.00000000E+00  0.00000000E+00
  0.00000000E+00  0.00000000E+00  0.00000000E+00
  0.00000000E+00  0.00000000E+00  0.00000000E+00
  0.00000000E+00  0.00000000E+00  0.00000000E+00
  0.00000000E+00  0.00000000E+00  0.00000000E+00
  0.00000000E+00  0.00000000E+00  0.00000000E+00
  0.00000000E+00  0.00000000E+00  0.00000000E+00
  0.00000000E+00  0.00000000E+00  0.00000000E+00
  0.00000000E+00  0.00000000E+00  0.00000000E+00
  0.00000000E+00  0.00000000E+00  0.00000000E+00
  0.00000000E+00  0.00000000E+00  0.00000000E+00
  0.00000000E+00  0.00000000E+00  0.00000000E+00
  0.00000000E+00  0.00000000E+00  0.00000000E+00
  0.00000000E+00  0.00000000E+00  0.00000000E+00
  0.00000000E+00  0.00000000E+00  0.00000000E+00
  0.00000000E+00  0.00000000E+00  0.00000000E+00
  0.00000000E+00  0.00000000E+00  0.00000000E+00
  0.00000000E+00  0.00000000E+00  0.00000000E+00
  0.00000000E+00  0.00000000E+00  0.00000000E+00
  0.00000000E+00  0.00000000E+00  0.00000000E+00
  0.00000000E+00  0.00000000E+00  0.00000000E+00
  0.00000000E+00  0.00000000E+00  0.00000000E+00
  0.00000000E+00  0.00000000E+00  0.00000000E+00
  0.00000000E+00  0.00000000E+00  0.00000000E+00
  0.00000000E+00  0.00000000E+00  0.00000000E+00
  0.00000000E+00  0.00000000E+00  0.00000000E+00
  0.00000000E+00  0.00000000E+00  0.00000000E+00
  0.00000000E+00  0.00000000E+00  0.00000000E+00
  0.00000000E+00  0.00000000E+00  0.00000000E+00
  0.00000000E+00  0.00000000E+00  0.00000000E+00
  0.00000000E+00  0.00000000E+00  0.00000000E+00
  0.00000000E+00  0.00000000E+00  0.00000000E+00
  0.00000000E+00  0.00000000E+00  0.00000000E+00
  0.00000000E+00  0.00000000E+00  0.00000000E+00
  0.00000000E+00  0.00000000E+00  0.00000000E+00
  0.00000000E+00  0.00000000E+00  0.00000000E+00
  0.00000000E+00  0.00000000E+00  0.00000000E+00
  0.00000000E+00  0.00000000E+00  0.00000000E+00
  0.00000000E+00  0.00000000E+00  0.00000000E+00
  0.00000000E+00  0.00000000E+00  0.00000000E+00
  0.00000000E+00  0.00000000E+00  0.00000000E+00
  0.00000000E+00  0.00000000E+00  0.00000000E+00
  0.00000000E+00  0.00000000E+00  0.00000000E+00
  0.00000000E+00  0.00000000E+00  0.00000000E+00
  0.00000000E+00  0.00000000E+00  0.00000000E+00
  0.00000000E+00  0.00000000E+00  0.00000000E+00
  0.00000000E+00  0.00000000E+00  0.00000000E+00
  0.00000000E+00  0.00000000E+00  0.00000000E+00
  0.00000000E+00  0.00000000E+00  0.00000000E+00
  0.00000000E+00  0.00000000E+00  0.00000000E+00
  0.00000000E+00  0.00000000E+00  0.00000000E+00
  0.00000000E+00  0.00000000E+00  0.00000000E+00
  0.00000000E+00  0.00000000E+00  0.00000000E+00
  0.00000000E+00  0.00000000E+00  0.00000000E+00
  0.00000000E+00  0.00000000E+00  0.00000000E+00
  0.00000000E+00  0.00000000E+00  0.00000000E+00
  0.00000000E+00  0.00000000E+00  0.00000000E+00
  0.00000000E+00  0.00000000E+00  0.00000000E+00
  0.00000000E+00  0.00000000E+00  0.00000000E+00
  0.00000000E+00  0.00000000E+00  0.00000000E+00
  0.00000000E+00  0.00000000E+00  0.00000000E+00
  0.00000000E+00  0.00000000E+00  0.00000000E+00
  0.00000000E+00  0.00000000E+00  0.00000000E+00
  0.00000000E+00  0.00000000E+00  0.00000000E+00
  0.00000000E+00  0.00000000E+00  0.00000000E+00
  0.00000000E+00  0.00000000E+00  0.00000000E+00
  0.00000000E+00  0.00000000E+00  0.00000000E+00
  0.00000000E+00  0.00000000E+00  0.00000000E+00
  0.00000000E+00  0.00000000E+00  0.00000000E+00
