CONTCAR\(3)                             
   1.00000000000000     
    14.5429000853999995    0.0000000000000000    0.0000000000000000
     0.0000000000000000   10.6486997603999995    0.0000000000000000
     0.0000000000000000    0.0000000000000000   18.9185009002999998
   Ta   Ni   Te   O    H 
     8    16    24     2     1
Selective dynamics
Direct
  0.0597275630693161  0.7944894878547970  0.5078339529044911   F   F   F
  0.1855061843289505  0.2034006238475214  0.4937395350747380   F   F   F
  0.3100869102997450  0.7926997744762119  0.5088809901601365   F   F   F
  0.4356498452917350  0.2016525985686712  0.4949367618123048   F   F   F
  0.5597057531171572  0.7922790214683602  0.5107519554247517   F   F   F
  0.6848068471016617  0.2020681649742500  0.4948744393644446   F   F   F
  0.8098876543466389  0.7939716833795032  0.5076760735400754   F   F   F
  0.9348308058577217  0.2035692317963083  0.4933989951905744   F   F   F
  0.0586382535319032  0.4057672115017823  0.5009946565912529   F   F   F
  0.1833924846988424  0.5919587239160435  0.4994499048969274   F   F   F
  0.1850780499614899  0.9620140167233373  0.4621322654569511   F   F   F
  0.0597663605811363  0.0355002957715840  0.5399060158658244   F   F   F
  0.3100659433753847  0.4047861697415129  0.5027911366621680   F   F   F
  0.4382456472852141  0.5903890393725604  0.5037612785082501   F   F   F
  0.4363170039641773  0.9599726760934857  0.4626088233961951   F   F   F
  0.3107022791006955  0.0335280260958655  0.5404614331426387   F   F   F
  0.5612551845106495  0.4031681899835462  0.5048828106886489   F   F   F
  0.6927490958415774  0.5910753960198036  0.4940661218031011   F   F   F
  0.6842219338752358  0.9621638649602957  0.4628111809816460   F   F   F
  0.5601447726903857  0.0331068298172070  0.5416522812890889   F   F   F
  0.8086915772265684  0.4054188345389207  0.5020907333035041   F   F   F
  0.9341453594017608  0.5920600649322765  0.4989513085740356   F   F   F
  0.9349169668187400  0.9627769128893888  0.4616725566129816   F   F   F
  0.8098109653342505  0.0341465636737865  0.5407476058066081   F   F   F
  0.1856580684199898  0.7491736184824020  0.3986629424892740   F   F   F
  0.0603622593637070  0.2489798306912405  0.6027259416004824   F   F   F
  0.1853952631002755  0.4102238518505459  0.4084876074565216   F   F   F
  0.0591430580209433  0.5862825563210166  0.5929375113539166   F   F   F
  0.0604640996670938  0.0820911982061716  0.3958131751523695   F   F   F
  0.1847737886278296  0.9150916780648828  0.6061973985579314   F   F   F
  0.4355486903367449  0.7464418483492778  0.4004038828007666   F   F   F
  0.3103135609364713  0.2470723245253552  0.6038941823006851   F   F   F
  0.4356584133366539  0.4109897484981744  0.4109631107942562   F   F   F
  0.3063525489769319  0.5848034047814465  0.5930629001463927   F   F   F
  0.3112677634743122  0.0810509316397372  0.3968832993780111   F   F   F
  0.4352824609105213  0.9133340964216501  0.6076879238435993   F   F   F
  0.6830721500616548  0.7525192878903439  0.3980490688100105   F   F   F
  0.5601950346499862  0.2442807071821207  0.6055607188220833   F   F   F
  0.6822059321504526  0.4077777671275271  0.4080858009148898   F   F   F
  0.5694221814883633  0.5818346346180050  0.5928962277312877   F   F   F
  0.5601161542953648  0.0827270679794623  0.3965767129547046   F   F   F
  0.6856111575274397  0.9126242476784938  0.6070933130177352   F   F   F
  0.9353470888180624  0.7499324695015233  0.3979614423511535   F   F   F
  0.8109475070086418  0.2481535972751914  0.6034655620015528   F   F   F
  0.9337968371572103  0.4106741748993983  0.4079344492493462   F   F   F
  0.8121456559879405  0.5867080475841178  0.5936870910896133   F   F   F
  0.8093604910515708  0.0817369441566527  0.3964620539070580   F   F   F
  0.9353640815538213  0.9143731320202519  0.6061610725248627   F   F   F
  0.4980396883613167  0.5498297001592007  0.6958963490592325   T   T   T
  0.4591210779561621  0.6607993803200003  0.7263768283152530   T   T   T
  0.3945815511495994  0.6553704243788374  0.7091878396640088   T   T   T
 
  0.00000000E+00  0.00000000E+00  0.00000000E+00
  0.00000000E+00  0.00000000E+00  0.00000000E+00
  0.00000000E+00  0.00000000E+00  0.00000000E+00
  0.00000000E+00  0.00000000E+00  0.00000000E+00
  0.00000000E+00  0.00000000E+00  0.00000000E+00
  0.00000000E+00  0.00000000E+00  0.00000000E+00
  0.00000000E+00  0.00000000E+00  0.00000000E+00
  0.00000000E+00  0.00000000E+00  0.00000000E+00
  0.00000000E+00  0.00000000E+00  0.00000000E+00
  0.00000000E+00  0.00000000E+00  0.00000000E+00
  0.00000000E+00  0.00000000E+00  0.00000000E+00
  0.00000000E+00  0.00000000E+00  0.00000000E+00
  0.00000000E+00  0.00000000E+00  0.00000000E+00
  0.00000000E+00  0.00000000E+00  0.00000000E+00
  0.00000000E+00  0.00000000E+00  0.00000000E+00
  0.00000000E+00  0.00000000E+00  0.00000000E+00
  0.00000000E+00  0.00000000E+00  0.00000000E+00
  0.00000000E+00  0.00000000E+00  0.00000000E+00
  0.00000000E+00  0.00000000E+00  0.00000000E+00
  0.00000000E+00  0.00000000E+00  0.00000000E+00
  0.00000000E+00  0.00000000E+00  0.00000000E+00
  0.00000000E+00  0.00000000E+00  0.00000000E+00
  0.00000000E+00  0.00000000E+00  0.00000000E+00
  0.00000000E+00  0.00000000E+00  0.00000000E+00
  0.00000000E+00  0.00000000E+00  0.00000000E+00
  0.00000000E+00  0.00000000E+00  0.00000000E+00
  0.00000000E+00  0.00000000E+00  0.00000000E+00
  0.00000000E+00  0.00000000E+00  0.00000000E+00
  0.00000000E+00  0.00000000E+00  0.00000000E+00
  0.00000000E+00  0.00000000E+00  0.00000000E+00
  0.00000000E+00  0.00000000E+00  0.00000000E+00
  0.00000000E+00  0.00000000E+00  0.00000000E+00
  0.00000000E+00  0.00000000E+00  0.00000000E+00
  0.00000000E+00  0.00000000E+00  0.00000000E+00
  0.00000000E+00  0.00000000E+00  0.00000000E+00
  0.00000000E+00  0.00000000E+00  0.00000000E+00
  0.00000000E+00  0.00000000E+00  0.00000000E+00
  0.00000000E+00  0.00000000E+00  0.00000000E+00
  0.00000000E+00  0.00000000E+00  0.00000000E+00
  0.00000000E+00  0.00000000E+00  0.00000000E+00
  0.00000000E+00  0.00000000E+00  0.00000000E+00
  0.00000000E+00  0.00000000E+00  0.00000000E+00
  0.00000000E+00  0.00000000E+00  0.00000000E+00
  0.00000000E+00  0.00000000E+00  0.00000000E+00
  0.00000000E+00  0.00000000E+00  0.00000000E+00
  0.00000000E+00  0.00000000E+00  0.00000000E+00
  0.00000000E+00  0.00000000E+00  0.00000000E+00
  0.00000000E+00  0.00000000E+00  0.00000000E+00
  0.00000000E+00  0.00000000E+00  0.00000000E+00
  0.00000000E+00  0.00000000E+00  0.00000000E+00
  0.00000000E+00  0.00000000E+00  0.00000000E+00
