CONTCAR\(5)                             
   1.00000000000000     
    11.0214996337999995    0.0000000000000000    0.0000000000000000
     0.0000000000000000   14.9139995575000004    0.0000000000000000
     0.0000000000000000    0.0000000000000000   19.5716991425000018
   Nb   Ni   Te   O    H 
     6     6    30     1     1
Direct
  0.9990177679339147  0.2498649156954300  0.4994308577219673
  0.0011088160195031  0.7501275025782489  0.5017429233541092
  0.3330926539029629  0.2506315281313586  0.5121877232344494
  0.3335339035997204  0.7508957562403143  0.4999154528636857
  0.6671070752092668  0.2500619809807517  0.4997449836785643
  0.6660984415631964  0.7504863214667525  0.5020240261658132
  0.1639400052489182  0.9978035480784391  0.4984838070475301
  0.1654004259104065  0.5040555692017122  0.4991862559475037
  0.5026196136953295  0.9984075207714375  0.4995966365419342
  0.5028854878793064  0.5041605910558078  0.4988903115302230
  0.8338151871786483  0.0005586727545391  0.5004744814995294
  0.8331922753528836  0.5006478972962857  0.5015758658674150
  0.9981892852784218  0.0775448793051720  0.4283337646701728
  0.9985824335983802  0.9223166558534234  0.5716688311831295
  0.9991398539233368  0.5782084759541617  0.5723202791711234
 -0.0005866104151566  0.4232324649564818  0.4313037048364236
  0.1737238600234139  0.2509046720878976  0.3921067126663608
  0.1684617684684408  0.7505546046701326  0.6131515504961677
  0.1670011425683566  0.8575872069221746  0.4239144075526008
  0.1567981115625841  0.1338944599229017  0.5744911595109018
  0.1571875536901471  0.3668671052228316  0.5746307755517162
  0.1677997128874128  0.6443598499585292  0.4236149869405749
  0.3336061435892774  0.0807842672718315  0.4337697550427054
  0.3330422981276134  0.9223412649204519  0.5701831923562575
  0.3339302000975483  0.5794386484527965  0.5707746718962998
  0.3337916276454915  0.4206528346635221  0.4335158465301202
  0.4930514411007812  0.2504074587592939  0.3923008695913478
  0.4986156080306350  0.7512638894040086  0.6132653515569675
  0.5000980609801859  0.8582861164631138  0.4246434909641130
  0.5089440455226131  0.1349910215755478  0.5757437438487564
  0.5089827355799199  0.3673297948992518  0.5745336241730594
  0.4997678672473674  0.6447299459981595  0.4235878015732442
  0.6684328164811355  0.0774550637869063  0.4292627927190808
  0.6688999916285150  0.9229502746776344  0.5718491212091344
  0.6680412997764643  0.5784454445120992  0.5726303186832433
  0.6680940706368577  0.4230186549906321  0.4307112496015177
  0.8330151284825210  0.2500584574836954  0.3875820514080589
  0.8338615969033309  0.7506488989339493  0.6137824391878669
  0.8335922810646320  0.8558330845071824  0.4260034883923294
  0.8331925048722021  0.1444193966698997  0.5763940553380287
  0.8333049580294509  0.3559749841011050  0.5761446579723946
  0.8333660919783601  0.6446215781869060  0.4258520397454870
  0.3319347764901304  0.2648850825105731  0.6254912013617804
  0.3276559266556006  0.2084314021266388  0.6514987088163063
 
  0.00000000E+00  0.00000000E+00  0.00000000E+00
  0.00000000E+00  0.00000000E+00  0.00000000E+00
  0.00000000E+00  0.00000000E+00  0.00000000E+00
  0.00000000E+00  0.00000000E+00  0.00000000E+00
  0.00000000E+00  0.00000000E+00  0.00000000E+00
  0.00000000E+00  0.00000000E+00  0.00000000E+00
  0.00000000E+00  0.00000000E+00  0.00000000E+00
  0.00000000E+00  0.00000000E+00  0.00000000E+00
  0.00000000E+00  0.00000000E+00  0.00000000E+00
  0.00000000E+00  0.00000000E+00  0.00000000E+00
  0.00000000E+00  0.00000000E+00  0.00000000E+00
  0.00000000E+00  0.00000000E+00  0.00000000E+00
  0.00000000E+00  0.00000000E+00  0.00000000E+00
  0.00000000E+00  0.00000000E+00  0.00000000E+00
  0.00000000E+00  0.00000000E+00  0.00000000E+00
  0.00000000E+00  0.00000000E+00  0.00000000E+00
  0.00000000E+00  0.00000000E+00  0.00000000E+00
  0.00000000E+00  0.00000000E+00  0.00000000E+00
  0.00000000E+00  0.00000000E+00  0.00000000E+00
  0.00000000E+00  0.00000000E+00  0.00000000E+00
  0.00000000E+00  0.00000000E+00  0.00000000E+00
  0.00000000E+00  0.00000000E+00  0.00000000E+00
  0.00000000E+00  0.00000000E+00  0.00000000E+00
  0.00000000E+00  0.00000000E+00  0.00000000E+00
  0.00000000E+00  0.00000000E+00  0.00000000E+00
  0.00000000E+00  0.00000000E+00  0.00000000E+00
  0.00000000E+00  0.00000000E+00  0.00000000E+00
  0.00000000E+00  0.00000000E+00  0.00000000E+00
  0.00000000E+00  0.00000000E+00  0.00000000E+00
  0.00000000E+00  0.00000000E+00  0.00000000E+00
  0.00000000E+00  0.00000000E+00  0.00000000E+00
  0.00000000E+00  0.00000000E+00  0.00000000E+00
  0.00000000E+00  0.00000000E+00  0.00000000E+00
  0.00000000E+00  0.00000000E+00  0.00000000E+00
  0.00000000E+00  0.00000000E+00  0.00000000E+00
  0.00000000E+00  0.00000000E+00  0.00000000E+00
  0.00000000E+00  0.00000000E+00  0.00000000E+00
  0.00000000E+00  0.00000000E+00  0.00000000E+00
  0.00000000E+00  0.00000000E+00  0.00000000E+00
  0.00000000E+00  0.00000000E+00  0.00000000E+00
  0.00000000E+00  0.00000000E+00  0.00000000E+00
  0.00000000E+00  0.00000000E+00  0.00000000E+00
  0.00000000E+00  0.00000000E+00  0.00000000E+00
  0.00000000E+00  0.00000000E+00  0.00000000E+00
