CONTCAR\(2)                             
   1.00000000000000     
    11.3502998351999995    0.0000000000000000    0.0000000000000000
    -5.6751499175999998    9.8296479979000004    0.0000000000000000
     0.0000000000000000    0.0000000000000000   21.7800998688000007
   Gd   Br   O    H 
    18    18     1     1
Direct
  0.1067416972554298  0.2153224512947318  0.5598316827240808
  0.2238405250649009  0.1128981057783491  0.4255714929699010
  0.4409135297815894  0.2162552320324309  0.5593556104237791
  0.5553853412634027  0.1101679919083409  0.4286847773380913
  0.7775273935176372  0.2227834382046439  0.5589442141225405
  0.8897565703981201  0.1104965036164813  0.4290796911309585
  0.1072872630199058  0.5597337127450857  0.5595227902208890
  0.2155510332999810  0.4406047543839406  0.4337445929413377
  0.4437072588211919  0.5568996013589356  0.6428474166391567
  0.5606119404934944  0.4397376730459968  0.4326409166682623
  0.7840774326725963  0.5593102408723922  0.5593853285270924
  0.8902238169642018  0.4450556512834467  0.4287111408431130
  0.1107205965935307  0.8896505790393334  0.5586092802033420
  0.2237147168188116  0.7764532461700426  0.4254325157784180
  0.4404057272585149  0.8931672457894138  0.5594808964873721
  0.5596744910373133  0.7847242633761269  0.4337543659250187
  0.7851083223311477  0.8935849492575727  0.5598449379975463
  0.8874896454149166  0.7764152314464710  0.4255826900020310
  0.1122963232943093  0.2265668380889210  0.3378787612062339
  0.2231297855355052  0.1136483458499455  0.6513990551043918
  0.4489813567911156  0.2255483926546802  0.3372193425410970
  0.5538431584682115  0.1114393958270554  0.6493599503736220
  0.7786384621688995  0.2216809000346203  0.3388908355515809
  0.8888689960303253  0.1114677032342684  0.6499582595514326
  0.1130906172402675  0.5508265486666417  0.3375778420925784
  0.1670387575071146  0.4177590472464061  0.6573623705653588
  0.4452029635185681  0.5549330485053829  0.3504308095085165
  0.5818364903329112  0.4183497316360771  0.6572485990515347
  0.7747497227267246  0.5513149606106609  0.3371903964585030
  0.8889036129355148  0.4463321098220092  0.6494140862478233
  0.1117691569026391  0.8883961147077031  0.3353128557546938
  0.2222505311513601  0.7779601051454677  0.6513778815554119
  0.4495208521014149  0.8872713994595713  0.3376088774342065
  0.5825568023461685  0.8335600897185955  0.6571719625964931
  0.7738028935360006  0.8880105697830771  0.3379011157936347
  0.8865146151984149  0.7770433466020847  0.6514056141758360
  0.4433849031599664  0.5581666158546383  0.7349817304699400
  0.4422132150478930  0.5603542959484145  0.7793255410242068
 
  0.00000000E+00  0.00000000E+00  0.00000000E+00
  0.00000000E+00  0.00000000E+00  0.00000000E+00
  0.00000000E+00  0.00000000E+00  0.00000000E+00
  0.00000000E+00  0.00000000E+00  0.00000000E+00
  0.00000000E+00  0.00000000E+00  0.00000000E+00
  0.00000000E+00  0.00000000E+00  0.00000000E+00
  0.00000000E+00  0.00000000E+00  0.00000000E+00
  0.00000000E+00  0.00000000E+00  0.00000000E+00
  0.00000000E+00  0.00000000E+00  0.00000000E+00
  0.00000000E+00  0.00000000E+00  0.00000000E+00
  0.00000000E+00  0.00000000E+00  0.00000000E+00
  0.00000000E+00  0.00000000E+00  0.00000000E+00
  0.00000000E+00  0.00000000E+00  0.00000000E+00
  0.00000000E+00  0.00000000E+00  0.00000000E+00
  0.00000000E+00  0.00000000E+00  0.00000000E+00
  0.00000000E+00  0.00000000E+00  0.00000000E+00
  0.00000000E+00  0.00000000E+00  0.00000000E+00
  0.00000000E+00  0.00000000E+00  0.00000000E+00
  0.00000000E+00  0.00000000E+00  0.00000000E+00
  0.00000000E+00  0.00000000E+00  0.00000000E+00
  0.00000000E+00  0.00000000E+00  0.00000000E+00
  0.00000000E+00  0.00000000E+00  0.00000000E+00
  0.00000000E+00  0.00000000E+00  0.00000000E+00
  0.00000000E+00  0.00000000E+00  0.00000000E+00
  0.00000000E+00  0.00000000E+00  0.00000000E+00
  0.00000000E+00  0.00000000E+00  0.00000000E+00
  0.00000000E+00  0.00000000E+00  0.00000000E+00
  0.00000000E+00  0.00000000E+00  0.00000000E+00
  0.00000000E+00  0.00000000E+00  0.00000000E+00
  0.00000000E+00  0.00000000E+00  0.00000000E+00
  0.00000000E+00  0.00000000E+00  0.00000000E+00
  0.00000000E+00  0.00000000E+00  0.00000000E+00
  0.00000000E+00  0.00000000E+00  0.00000000E+00
  0.00000000E+00  0.00000000E+00  0.00000000E+00
  0.00000000E+00  0.00000000E+00  0.00000000E+00
  0.00000000E+00  0.00000000E+00  0.00000000E+00
  0.00000000E+00  0.00000000E+00  0.00000000E+00
  0.00000000E+00  0.00000000E+00  0.00000000E+00
