CONTCAR\(2)                             
   1.00000000000000     
    13.3212995528999993    0.0000000000000000    0.0000000000000000
    -6.6606497764999997   11.5365838241999992    0.0000000000000000
     0.0000000000000000    0.0000000000000000   18.1305007935000013
   Ta   S    O    H 
    16    32     2     1
Selective dynamics
Direct
  0.1730529416214353  0.0844012751413672  0.5046298698355471   F   F   F
  0.4156611987484240  0.0848181198008149  0.5055352837160285   F   F   F
  0.6713983458478197  0.0858831885379061  0.5057066961311918   F   F   F
  0.9188859417721460  0.0859874602289139  0.5051931395875116   F   F   F
  0.1696280196845805  0.3353168192719096  0.5048741922417435   F   F   F
  0.4119729158008383  0.3198722577218049  0.5045768499187346   F   F   F
  0.6701854126910902  0.3351876494267287  0.5052034960826930   F   F   F
  0.9190448188456770  0.3333968775416025  0.5053254074455964   F   F   F
  0.1732001357333246  0.5888147742680090  0.5047330405862667   F   F   F
  0.4116321585761895  0.5925277341243955  0.5048430525016556   F   F   F
  0.6854316863292240  0.5930267030744503  0.5038354896661303   F   F   F
  0.9200422923338252  0.5891662334422989  0.5045350525703185   F   F   F
  0.1697504278335060  0.8351517595113478  0.5048470750252321   F   F   F
  0.4156109590131933  0.8310330436862259  0.5053710543309791   F   F   F
  0.6700329154620945  0.8354959756597822  0.5048264919137111   F   F   F
  0.9201085081033327  0.8314415759606675  0.5044459110342316   F   F   F
  0.0031534902167039  0.0012495735183506  0.5896446394550381   F   F   F
  0.0029635963142951  0.0018368102494080  0.4199221585705004   F   F   F
  0.2516408627276050  0.9997645555055144  0.5926300742354229   F   F   F
  0.2525756368024119  0.0001690771281559  0.4174844755254767   F   F   F
  0.5024038184238933  0.0013250482987175  0.5903468066815449   F   F   F
  0.5027566338974410  0.0015885712668435  0.4208357057367209   F   F   F
  0.7528695738145714  0.0010241043867580  0.5919425093146558   F   F   F
  0.7527719408386062  0.0019405372742938  0.4185689413256668   F   F   F
  0.0037461927026143  0.2520214676875341  0.5918475316782192   F   F   F
  0.0031253224848911  0.2518168184285159  0.4185168579226684   F   F   F
  0.2502259273834397  0.2501364776438919  0.5920439740573400   F   F   F
  0.2501832986491621  0.2506568975251113  0.4176086463094322   F   F   F
  0.5043550813830535  0.2511801233422872  0.5927815025013601   F   F   F
  0.5047674520892400  0.2506012505033226  0.4181316331755980   F   F   F
  0.7529533481610642  0.2522624778849050  0.5920725167339711   F   F   F
  0.7527690185117351  0.2515442364104743  0.4188575830070249   F   F   F
  0.0031633577313173  0.5023614853590317  0.5897017573031533   F   F   F
  0.0029035591957083  0.5015695823543496  0.4200464167103632   F   F   F
  0.2506187729649554  0.5005430878345081  0.5922466626465166   F   F   F
  0.2502908424059740  0.5001422764125252  0.4173587778630932   F   F   F
  0.5061501853566952  0.5028695499937328  0.5781048099903217   F   F   F
  0.5027124627582111  0.5018129713344734  0.4299375290578453   F   F   F
  0.7545419029672118  0.5010546755149150  0.5920453233369827   F   F   F
  0.7540436900087641  0.4995638614874593  0.4172249127214442   F   F   F
  0.0045994666195384  0.7525876013833823  0.5922173527886230   F   F   F
  0.0049600570261674  0.7526534596461616  0.4169668416118597   F   F   F
  0.2516579365314797  0.7522248550215593  0.5924921344223719   F   F   F
  0.2523131569062045  0.7526705488117287  0.4174677659604242   F   F   F
  0.5046400421000641  0.7538391784575253  0.5924213572579191   F   F   F
  0.5045293000181132  0.7543333199835089  0.4178035579587061   F   F   F
  0.7543497549044815  0.7540186058634504  0.5919105877276394   F   F   F
  0.7541317867576254  0.7549157209778770  0.4170716733004411   F   F   F
  0.5287882347078678  0.5117937554463339  0.6702923975996242   T   T   T
  0.4189144228773500  0.4531183108577466  0.7105096234612631   T   T   T
  0.4080213043648726  0.3745477048073980  0.7142250723460284   T   T   T
 
  0.00000000E+00  0.00000000E+00  0.00000000E+00
  0.00000000E+00  0.00000000E+00  0.00000000E+00
  0.00000000E+00  0.00000000E+00  0.00000000E+00
  0.00000000E+00  0.00000000E+00  0.00000000E+00
  0.00000000E+00  0.00000000E+00  0.00000000E+00
  0.00000000E+00  0.00000000E+00  0.00000000E+00
  0.00000000E+00  0.00000000E+00  0.00000000E+00
  0.00000000E+00  0.00000000E+00  0.00000000E+00
  0.00000000E+00  0.00000000E+00  0.00000000E+00
  0.00000000E+00  0.00000000E+00  0.00000000E+00
  0.00000000E+00  0.00000000E+00  0.00000000E+00
  0.00000000E+00  0.00000000E+00  0.00000000E+00
  0.00000000E+00  0.00000000E+00  0.00000000E+00
  0.00000000E+00  0.00000000E+00  0.00000000E+00
  0.00000000E+00  0.00000000E+00  0.00000000E+00
  0.00000000E+00  0.00000000E+00  0.00000000E+00
  0.00000000E+00  0.00000000E+00  0.00000000E+00
  0.00000000E+00  0.00000000E+00  0.00000000E+00
  0.00000000E+00  0.00000000E+00  0.00000000E+00
  0.00000000E+00  0.00000000E+00  0.00000000E+00
  0.00000000E+00  0.00000000E+00  0.00000000E+00
  0.00000000E+00  0.00000000E+00  0.00000000E+00
  0.00000000E+00  0.00000000E+00  0.00000000E+00
  0.00000000E+00  0.00000000E+00  0.00000000E+00
  0.00000000E+00  0.00000000E+00  0.00000000E+00
  0.00000000E+00  0.00000000E+00  0.00000000E+00
  0.00000000E+00  0.00000000E+00  0.00000000E+00
  0.00000000E+00  0.00000000E+00  0.00000000E+00
  0.00000000E+00  0.00000000E+00  0.00000000E+00
  0.00000000E+00  0.00000000E+00  0.00000000E+00
  0.00000000E+00  0.00000000E+00  0.00000000E+00
  0.00000000E+00  0.00000000E+00  0.00000000E+00
  0.00000000E+00  0.00000000E+00  0.00000000E+00
  0.00000000E+00  0.00000000E+00  0.00000000E+00
  0.00000000E+00  0.00000000E+00  0.00000000E+00
  0.00000000E+00  0.00000000E+00  0.00000000E+00
  0.00000000E+00  0.00000000E+00  0.00000000E+00
  0.00000000E+00  0.00000000E+00  0.00000000E+00
  0.00000000E+00  0.00000000E+00  0.00000000E+00
  0.00000000E+00  0.00000000E+00  0.00000000E+00
  0.00000000E+00  0.00000000E+00  0.00000000E+00
  0.00000000E+00  0.00000000E+00  0.00000000E+00
  0.00000000E+00  0.00000000E+00  0.00000000E+00
  0.00000000E+00  0.00000000E+00  0.00000000E+00
  0.00000000E+00  0.00000000E+00  0.00000000E+00
  0.00000000E+00  0.00000000E+00  0.00000000E+00
  0.00000000E+00  0.00000000E+00  0.00000000E+00
  0.00000000E+00  0.00000000E+00  0.00000000E+00
  0.00000000E+00  0.00000000E+00  0.00000000E+00
  0.00000000E+00  0.00000000E+00  0.00000000E+00
  0.00000000E+00  0.00000000E+00  0.00000000E+00
