CONTCAR\(11)                            
   1.00000000000000     
    12.0352001190000006    0.0000000000000000    0.0000000000000000
     0.0000000000000000   12.2138004302999992    0.0000000000000000
     0.0000000000000000    0.0000000000000000   16.9626007080000001
   Cu   Se   O 
     8     8    24
Direct
  0.0842024089171503  0.9077286090585801  0.4866059038651187
  0.3342120695862008  0.5922382958163226  0.5134733364371655
  0.4157975770828486  0.0922714199414187  0.5134041031348815
  0.1657879104137976  0.4077617431836771  0.4865166555628306
  0.5842024229171514  0.9077286090585801  0.4866059038651187
  0.8342120695862008  0.5922382958163226  0.5134733364371655
  0.9157975770828486  0.0922714199414187  0.5134041031348815
  0.6657879304137992  0.4077617431836771  0.4865166555628306
  0.1915440446339076  0.1495244307101089  0.4791573606631161
  0.4414308495593744  0.3505359381957192  0.5209067184656817
  0.3084459513660960  0.8504755502898931  0.5208426393368768
  0.0585791594406260  0.6494740568042801  0.4790832175343169
  0.6915440446339076  0.1495244307101089  0.4791573606631161
  0.9414308095593782  0.3505359381957192  0.5209067184656817
  0.8084459713660976  0.8504755502898931  0.5208426393368768
  0.5585791744406237  0.6494740568042801  0.4790832175343169
  0.4833120073116035  0.5892407619922508  0.5543256838997621
  0.2331487429588108  0.9107327792694377  0.4456150635631815
  0.0166979816883952  0.4107492430077500  0.4456643091002377
  0.2668412530411928  0.0892572357305639  0.5543949164368200
  0.1818761119694159  0.5664554299729971  0.4838737999768341
  0.4317689956544584  0.9336336366046822  0.5159958857816136
  0.3181238880305841  0.4335445700270029  0.5161262000231659
  0.0682309993455448  0.0663663583953138  0.4840041142183864
  0.1407711387982644  0.2628898608455259  0.5275345877101643
  0.3906452343268612  0.2371712600536711  0.4724950999153705
  0.3592288612017356  0.7371101391544741  0.4724653562898382
  0.1093447516731416  0.7628387149463336  0.5275249150846264
  0.9833120473116068  0.5892407619922508  0.5543256838997621
  0.7331487629588054  0.9107327792694377  0.4456150635631815
  0.5166979766883983  0.4107492430077500  0.4456643091002377
  0.7668412530411928  0.0892572357305639  0.5543949164368200
  0.6818761119694159  0.5664554299729971  0.4838737999768341
  0.9317690356544546  0.9336336366046822  0.5159958857816136
  0.8181238880305841  0.4335445700270029  0.5161262000231659
  0.5682309643455454  0.0663663583953138  0.4840041142183864
  0.6407711387982644  0.2628898608455259  0.5275345877101643
  0.8906451953268615  0.2371712600536711  0.4724950999153705
  0.8592288612017356  0.7371101391544741  0.4724653562898382
  0.6093447416731408  0.7628387149463336  0.5275249150846264
 
  0.00000000E+00  0.00000000E+00  0.00000000E+00
  0.00000000E+00  0.00000000E+00  0.00000000E+00
  0.00000000E+00  0.00000000E+00  0.00000000E+00
  0.00000000E+00  0.00000000E+00  0.00000000E+00
  0.00000000E+00  0.00000000E+00  0.00000000E+00
  0.00000000E+00  0.00000000E+00  0.00000000E+00
  0.00000000E+00  0.00000000E+00  0.00000000E+00
  0.00000000E+00  0.00000000E+00  0.00000000E+00
  0.00000000E+00  0.00000000E+00  0.00000000E+00
  0.00000000E+00  0.00000000E+00  0.00000000E+00
  0.00000000E+00  0.00000000E+00  0.00000000E+00
  0.00000000E+00  0.00000000E+00  0.00000000E+00
  0.00000000E+00  0.00000000E+00  0.00000000E+00
  0.00000000E+00  0.00000000E+00  0.00000000E+00
  0.00000000E+00  0.00000000E+00  0.00000000E+00
  0.00000000E+00  0.00000000E+00  0.00000000E+00
  0.00000000E+00  0.00000000E+00  0.00000000E+00
  0.00000000E+00  0.00000000E+00  0.00000000E+00
  0.00000000E+00  0.00000000E+00  0.00000000E+00
  0.00000000E+00  0.00000000E+00  0.00000000E+00
  0.00000000E+00  0.00000000E+00  0.00000000E+00
  0.00000000E+00  0.00000000E+00  0.00000000E+00
  0.00000000E+00  0.00000000E+00  0.00000000E+00
  0.00000000E+00  0.00000000E+00  0.00000000E+00
  0.00000000E+00  0.00000000E+00  0.00000000E+00
  0.00000000E+00  0.00000000E+00  0.00000000E+00
  0.00000000E+00  0.00000000E+00  0.00000000E+00
  0.00000000E+00  0.00000000E+00  0.00000000E+00
  0.00000000E+00  0.00000000E+00  0.00000000E+00
  0.00000000E+00  0.00000000E+00  0.00000000E+00
  0.00000000E+00  0.00000000E+00  0.00000000E+00
  0.00000000E+00  0.00000000E+00  0.00000000E+00
  0.00000000E+00  0.00000000E+00  0.00000000E+00
  0.00000000E+00  0.00000000E+00  0.00000000E+00
  0.00000000E+00  0.00000000E+00  0.00000000E+00
  0.00000000E+00  0.00000000E+00  0.00000000E+00
  0.00000000E+00  0.00000000E+00  0.00000000E+00
  0.00000000E+00  0.00000000E+00  0.00000000E+00
  0.00000000E+00  0.00000000E+00  0.00000000E+00
  0.00000000E+00  0.00000000E+00  0.00000000E+00
