CONTCAR\(2)                             
   1.00000000000000     
    12.9092998505000001    0.0000000000000000    0.0000000000000000
     0.0000000000000000   11.5581998825000003    0.0000000000000000
     0.0000000000000000    0.0000000000000000   18.7824001311999993
   Nb   Ge   Te   O 
    12     4    24     1
Direct
  0.3488404681440068  0.7164773646483092  0.5030478231867738
  0.0968998113829913  0.2862011856138223  0.5005594762195984
  0.4806282754508777  0.0666393670980370  0.5003166333335600
  0.2307210800385499  0.9374447645917160  0.5003604745045268
  0.3367114834897657  0.4170421033589309  0.4959644196594659
  0.0875510154164441  0.5852667595080961  0.5002280457940066
  0.8487113580862838  0.7117585157257138  0.4987845495608541
  0.5968964860139406  0.2857251817117067  0.5003377426917839
  0.9794907525905969  0.0649455261810750  0.5012314220613596
  0.7276968482931534  0.9355659432954773  0.5018301304123044
  0.8323779846102121  0.4196014172130810  0.5002321782634999
  0.5925295241374022  0.5768727699409517  0.5007415201448234
  0.2854239386316130  0.1768595039102718  0.4998192189723297
  0.0356621370764136  0.8254803060641296  0.5002422672335753
  0.7854489492975921  0.1761065712102829  0.5013703598667345
  0.5361155906572181  0.8256168199840609  0.5008429309503477
  0.4412786645144434  0.5873825690245590  0.6133594349192427
  0.1763636511060434  0.4331444357076341  0.3970636039866616
  0.1827035028915195  0.4371941285163888  0.6005865941005221
  0.4289685466929362  0.5690574529001703  0.3996953313074528
  0.3890477179102325  0.9128616280043040  0.6006133941545475
  0.1396511821327276  0.0930697645276560  0.4001065424736425
  0.1406443057650152  0.0936518823739904  0.6008820309520485
  0.3924979004971801  0.9080667421614190  0.4006484617578997
  0.1808448295571248  0.7458403591707740  0.5992216358603154
  0.4316368756490681  0.2570267058829892  0.4000568264256281
  0.4308408031670420  0.2618781637316028  0.5974924935287903
  0.1832253932946759  0.7435724701670876  0.4029857107314612
  0.9264592539492564  0.5672518205303150  0.6018748319419076
  0.6765870807176774  0.4321073243648999  0.3963923263218765
  0.6771711431567595  0.4307645174423915  0.6047562076532438
  0.9279702055361713  0.5676649062052008  0.3971980667955824
  0.8882567096203452  0.9050897619351584  0.6009152391498894
  0.6413335060126520  0.0914798927843095  0.3999065772331156
  0.6395934856823963  0.0929432676890702  0.6019418679616867
  0.8890163732261356  0.9098775032920684  0.4005338597070319
  0.6738746753917054  0.7403216062406889  0.6064051215683673
  0.9300810260442965  0.2579752669749757  0.4028644608610417
  0.9309744061225856  0.2595603439101169  0.5985628119231410
  0.6809295424831590  0.7416946036387253  0.4041311635396920
  0.5359438315618104  0.7038687167678040  0.6624764372897081
 
  0.00000000E+00  0.00000000E+00  0.00000000E+00
  0.00000000E+00  0.00000000E+00  0.00000000E+00
  0.00000000E+00  0.00000000E+00  0.00000000E+00
  0.00000000E+00  0.00000000E+00  0.00000000E+00
  0.00000000E+00  0.00000000E+00  0.00000000E+00
  0.00000000E+00  0.00000000E+00  0.00000000E+00
  0.00000000E+00  0.00000000E+00  0.00000000E+00
  0.00000000E+00  0.00000000E+00  0.00000000E+00
  0.00000000E+00  0.00000000E+00  0.00000000E+00
  0.00000000E+00  0.00000000E+00  0.00000000E+00
  0.00000000E+00  0.00000000E+00  0.00000000E+00
  0.00000000E+00  0.00000000E+00  0.00000000E+00
  0.00000000E+00  0.00000000E+00  0.00000000E+00
  0.00000000E+00  0.00000000E+00  0.00000000E+00
  0.00000000E+00  0.00000000E+00  0.00000000E+00
  0.00000000E+00  0.00000000E+00  0.00000000E+00
  0.00000000E+00  0.00000000E+00  0.00000000E+00
  0.00000000E+00  0.00000000E+00  0.00000000E+00
  0.00000000E+00  0.00000000E+00  0.00000000E+00
  0.00000000E+00  0.00000000E+00  0.00000000E+00
  0.00000000E+00  0.00000000E+00  0.00000000E+00
  0.00000000E+00  0.00000000E+00  0.00000000E+00
  0.00000000E+00  0.00000000E+00  0.00000000E+00
  0.00000000E+00  0.00000000E+00  0.00000000E+00
  0.00000000E+00  0.00000000E+00  0.00000000E+00
  0.00000000E+00  0.00000000E+00  0.00000000E+00
  0.00000000E+00  0.00000000E+00  0.00000000E+00
  0.00000000E+00  0.00000000E+00  0.00000000E+00
  0.00000000E+00  0.00000000E+00  0.00000000E+00
  0.00000000E+00  0.00000000E+00  0.00000000E+00
  0.00000000E+00  0.00000000E+00  0.00000000E+00
  0.00000000E+00  0.00000000E+00  0.00000000E+00
  0.00000000E+00  0.00000000E+00  0.00000000E+00
  0.00000000E+00  0.00000000E+00  0.00000000E+00
  0.00000000E+00  0.00000000E+00  0.00000000E+00
  0.00000000E+00  0.00000000E+00  0.00000000E+00
  0.00000000E+00  0.00000000E+00  0.00000000E+00
  0.00000000E+00  0.00000000E+00  0.00000000E+00
  0.00000000E+00  0.00000000E+00  0.00000000E+00
  0.00000000E+00  0.00000000E+00  0.00000000E+00
  0.00000000E+00  0.00000000E+00  0.00000000E+00
