CONTCAR                                 
   1.00000000000000     
    11.4835996627999997    0.0000000000000000    0.0000000000000000
    -5.7417826159000001    9.9450989742000004    0.0000000000000000
     0.0000000000000000    0.0000000000000000   19.4676990508999985
   V    C    O    H 
    32    16    32     1
Direct
  0.1675054760955246  0.0825745427303725  0.5611717231699631
  0.0824784155193066  0.1674930491850949  0.4385583358880244
  0.4150657452045620  0.0826004631053081  0.5611772853264341
  0.3332578630893626  0.1665286283953418  0.4383892341947213
  0.6655722278874538  0.0837409724787704  0.5612196383907185
  0.5850015068228591  0.1674803836969724  0.4385594340021299
  0.9181663429844670  0.0837562900142734  0.5612166017265098
  0.8322998975276122  0.1646308090703010  0.4383358006417096
  0.1661067137262002  0.3316631574833442  0.5612501981616506
  0.0860319757697755  0.4180768043567691  0.4384114114698888
  0.4171688608107982  0.3344098634469437  0.5599783331222200
  0.3345353216288411  0.4168019026466740  0.4389115245443586
  0.6655130594912508  0.3316480779527989  0.5612591135076910
  0.5822120949349647  0.4167763185462606  0.4389228698286227
  0.9167077378671799  0.3334599812240562  0.5617057592590236
  0.8319763339120018  0.4180794724827776  0.4384314388542597
  0.1662825493224146  0.5845606156058767  0.5612430300951472
  0.0824572728437433  0.6649429970889628  0.4385895073533178
  0.4041126154245760  0.5771142467374366  0.5603333967367728
  0.3346066792999989  0.6679289943864839  0.4388604340105470
  0.6729731087203621  0.5770948236790688  0.5603740367875814
  0.5833254671224229  0.6666328815308052  0.4405901563274297
  0.9183004115438820  0.5845693913632645  0.5612468726388697
  0.8333079860670835  0.6679242756177627  0.4388803807252820
  0.1674372591456707  0.8349078139304631  0.5611799122592087
  0.0835935264376856  0.9167997780334693  0.4383778677078136
  0.4172870052853536  0.8330756183925194  0.5599185362323736
  0.3331566231756959  0.9168141357091993  0.4383847324852967
  0.6728778863612395  0.8457907425915656  0.5601342303470156
  0.5822855337057957  0.9155307608839652  0.4388189041807323
  0.9157226898166342  0.8330641228479304  0.5599327409817672
  0.8332221024224015  0.9155620739013348  0.4388342588579744
  0.0002422285739075  0.0002158799153528  0.4997877087181606
  0.2500151765024785  0.0000643696653556  0.4997201852648940
  0.4999427602149611  0.0002130802339165  0.4997888770094025
  0.7508328253298902  0.0016902185000551  0.4994319140982934
  0.0000342834676901  0.2500820520555987  0.4998820829608056
  0.2498554490637430  0.2498185213078870  0.4998244262636631
  0.4999308793622621  0.2498146082809000  0.4998333203583232
  0.7500167005400923  0.2500795284947087  0.4998870137597216
  0.0000034537106814  0.5000383397758527  0.4998965177324217
  0.2485040474771149  0.4993105988962744  0.4995317884232123
  0.5003772975170667  0.5007761678678359  0.5012794893458693
  0.7507674296278039  0.4993264965669151  0.4995538935693582
  0.0002476126752475  0.7501310808421662  0.4998219072174933
  0.2498500991278677  0.7501216946870665  0.4998141297555184
  0.5003308785263795  0.7497256516860213  0.5011851567397223
  0.7493569646501558  0.7497246326161092  0.5012041059492284
  0.0831603024054931  0.1668409914774245  0.6142866950306067
  0.1667428682954992  0.0833571603080147  0.3858258576985710
  0.3333701905464074  0.1667646002392772  0.6139785577730849
  0.4165789785366791  0.0833630359345438  0.3858285336831714
  0.5836677690143907  0.1668497238355740  0.6142979380416304
  0.6662671774331880  0.0835093786101125  0.3855117701211742
  0.8334234708518485  0.1668688446313879  0.6138316804207038
  0.9172158616402792  0.0835347753765384  0.3855072805863570
  0.0831934945032732  0.4166393880862804  0.6138591780523522
  0.1666030665141235  0.3328931888178385  0.3855393721119454
  0.3330704854402776  0.4166987279966138  0.6149300910548724
  0.4171315575933824  0.3342745947702382  0.3856202545120229
  0.5835808823844075  0.4167070852955853  0.6149431374608355
  0.6662199858284686  0.3328848643990981  0.3855527210215913
  0.8334155885717414  0.4166472220315737  0.6138650834568968
  0.9166996200043731  0.3334649498629393  0.3869000335175001
  0.0831813579781614  0.6663868012082084  0.6143210845296592
  0.1666215510659788  0.5838301935213425  0.3855196496311702
  0.3331154462669502  0.6665367132847350  0.6149274957124468
  0.4173881364903148  0.5837326274428997  0.3864414515904160
  0.5834188027028665  0.6669875686118488  0.6185734685365908
  0.6663245911005895  0.5837020207741719  0.3864445767684593
  0.8333866061935732  0.6665502122718450  0.6149352907078921
  0.9171847726339153  0.5838412781440318  0.3855350400989302
  0.0832502563297499  0.9166625487634448  0.6139555491154379
  0.1667136358088041  0.8334622088392746  0.3858202207142494
  0.3333973206119576  0.9166613377586075  0.6139557001858117
  0.4170676819091893  0.8329748256040568  0.3855912396245184
  0.5836316589770948  0.9170166962199623  0.6149033568004655
  0.6662790828033095  0.8326149496560149  0.3863972487251944
  0.8333613510746484  0.9170158999538202  0.6148965208943049
  0.9158346837402433  0.8329468798487866  0.3855938022311105
  0.5837247904143829  0.6681411579157016  0.6686887656088140
 
  0.00000000E+00  0.00000000E+00  0.00000000E+00
  0.00000000E+00  0.00000000E+00  0.00000000E+00
  0.00000000E+00  0.00000000E+00  0.00000000E+00
  0.00000000E+00  0.00000000E+00  0.00000000E+00
  0.00000000E+00  0.00000000E+00  0.00000000E+00
  0.00000000E+00  0.00000000E+00  0.00000000E+00
  0.00000000E+00  0.00000000E+00  0.00000000E+00
  0.00000000E+00  0.00000000E+00  0.00000000E+00
  0.00000000E+00  0.00000000E+00  0.00000000E+00
  0.00000000E+00  0.00000000E+00  0.00000000E+00
  0.00000000E+00  0.00000000E+00  0.00000000E+00
  0.00000000E+00  0.00000000E+00  0.00000000E+00
  0.00000000E+00  0.00000000E+00  0.00000000E+00
  0.00000000E+00  0.00000000E+00  0.00000000E+00
  0.00000000E+00  0.00000000E+00  0.00000000E+00
  0.00000000E+00  0.00000000E+00  0.00000000E+00
  0.00000000E+00  0.00000000E+00  0.00000000E+00
  0.00000000E+00  0.00000000E+00  0.00000000E+00
  0.00000000E+00  0.00000000E+00  0.00000000E+00
  0.00000000E+00  0.00000000E+00  0.00000000E+00
  0.00000000E+00  0.00000000E+00  0.00000000E+00
  0.00000000E+00  0.00000000E+00  0.00000000E+00
  0.00000000E+00  0.00000000E+00  0.00000000E+00
  0.00000000E+00  0.00000000E+00  0.00000000E+00
  0.00000000E+00  0.00000000E+00  0.00000000E+00
  0.00000000E+00  0.00000000E+00  0.00000000E+00
  0.00000000E+00  0.00000000E+00  0.00000000E+00
  0.00000000E+00  0.00000000E+00  0.00000000E+00
  0.00000000E+00  0.00000000E+00  0.00000000E+00
  0.00000000E+00  0.00000000E+00  0.00000000E+00
  0.00000000E+00  0.00000000E+00  0.00000000E+00
  0.00000000E+00  0.00000000E+00  0.00000000E+00
  0.00000000E+00  0.00000000E+00  0.00000000E+00
  0.00000000E+00  0.00000000E+00  0.00000000E+00
  0.00000000E+00  0.00000000E+00  0.00000000E+00
  0.00000000E+00  0.00000000E+00  0.00000000E+00
  0.00000000E+00  0.00000000E+00  0.00000000E+00
  0.00000000E+00  0.00000000E+00  0.00000000E+00
  0.00000000E+00  0.00000000E+00  0.00000000E+00
  0.00000000E+00  0.00000000E+00  0.00000000E+00
  0.00000000E+00  0.00000000E+00  0.00000000E+00
  0.00000000E+00  0.00000000E+00  0.00000000E+00
  0.00000000E+00  0.00000000E+00  0.00000000E+00
  0.00000000E+00  0.00000000E+00  0.00000000E+00
  0.00000000E+00  0.00000000E+00  0.00000000E+00
  0.00000000E+00  0.00000000E+00  0.00000000E+00
  0.00000000E+00  0.00000000E+00  0.00000000E+00
  0.00000000E+00  0.00000000E+00  0.00000000E+00
  0.00000000E+00  0.00000000E+00  0.00000000E+00
  0.00000000E+00  0.00000000E+00  0.00000000E+00
  0.00000000E+00  0.00000000E+00  0.00000000E+00
  0.00000000E+00  0.00000000E+00  0.00000000E+00
  0.00000000E+00  0.00000000E+00  0.00000000E+00
  0.00000000E+00  0.00000000E+00  0.00000000E+00
  0.00000000E+00  0.00000000E+00  0.00000000E+00
  0.00000000E+00  0.00000000E+00  0.00000000E+00
  0.00000000E+00  0.00000000E+00  0.00000000E+00
  0.00000000E+00  0.00000000E+00  0.00000000E+00
  0.00000000E+00  0.00000000E+00  0.00000000E+00
  0.00000000E+00  0.00000000E+00  0.00000000E+00
  0.00000000E+00  0.00000000E+00  0.00000000E+00
  0.00000000E+00  0.00000000E+00  0.00000000E+00
  0.00000000E+00  0.00000000E+00  0.00000000E+00
  0.00000000E+00  0.00000000E+00  0.00000000E+00
  0.00000000E+00  0.00000000E+00  0.00000000E+00
  0.00000000E+00  0.00000000E+00  0.00000000E+00
  0.00000000E+00  0.00000000E+00  0.00000000E+00
  0.00000000E+00  0.00000000E+00  0.00000000E+00
  0.00000000E+00  0.00000000E+00  0.00000000E+00
  0.00000000E+00  0.00000000E+00  0.00000000E+00
  0.00000000E+00  0.00000000E+00  0.00000000E+00
  0.00000000E+00  0.00000000E+00  0.00000000E+00
  0.00000000E+00  0.00000000E+00  0.00000000E+00
  0.00000000E+00  0.00000000E+00  0.00000000E+00
  0.00000000E+00  0.00000000E+00  0.00000000E+00
  0.00000000E+00  0.00000000E+00  0.00000000E+00
  0.00000000E+00  0.00000000E+00  0.00000000E+00
  0.00000000E+00  0.00000000E+00  0.00000000E+00
  0.00000000E+00  0.00000000E+00  0.00000000E+00
  0.00000000E+00  0.00000000E+00  0.00000000E+00
  0.00000000E+00  0.00000000E+00  0.00000000E+00
