CONTCAR\(7)                             
   1.00000000000000     
    12.3756999968999999    0.0000000000000000    0.0000000000000000
     0.0000000000000000   15.7599000931000006    0.0000000000000000
     0.0000000000000000    0.0000000000000000   19.7080001831000011
   Ta   Ni   Te
    16    16    32
Direct
  0.3750105855767062  0.4778470150999071  0.4999937610506503
  0.1249894144232938  0.0221529849000929  0.4999937610506503
  0.1249894144232938  0.2278470150999072  0.4999937610506503
  0.3750105855767062  0.2721529999000906  0.4999937610506503
  0.8750105855767062  0.4778470150999071  0.4999937610506503
  0.6249894144232938  0.0221529849000929  0.4999937610506503
  0.6249894144232938  0.2278470150999072  0.4999937610506503
  0.8750105855767062  0.2721529999000906  0.4999937610506503
  0.3750105855767062  0.9778470150999071  0.4999937610506503
  0.1249894144232938  0.5221530149000883  0.4999937610506503
  0.1249894144232938  0.7278470300999119  0.4999937610506503
  0.3750105855767062  0.7721529999000906  0.4999937610506503
  0.8750105855767062  0.9778470150999071  0.4999937610506503
  0.6249894144232938  0.5221530149000883  0.4999937610506503
  0.6249894144232938  0.7278470300999119  0.4999937610506503
  0.8750105855767062  0.7721529999000906  0.4999937610506503
  0.0525579891463119  0.3750000080000007  0.5433414975666000
  0.4474519998536868  0.1250000000000000  0.5433414975666000
  0.3025027419258347  0.1250000000000000  0.4566771844979784
  0.1975072750741663  0.3750000080000007  0.4566771844979784
  0.5525579791463111  0.3750000080000007  0.5433414975666000
  0.9474519998536868  0.1250000000000000  0.5433414975666000
  0.8025027039258316  0.1250000000000000  0.4566771844979784
  0.6975072370741632  0.3750000080000007  0.4566771844979784
  0.0525579891463119  0.8749999770000016  0.5433414975666000
  0.4474519998536868  0.6249999919999993  0.5433414975666000
  0.3025027419258347  0.6249999919999993  0.4566771844979784
  0.1975072750741663  0.8749999770000016  0.4566771844979784
  0.5525579791463111  0.8749999770000016  0.5433414975666000
  0.9474519998536868  0.6249999919999993  0.5433414975666000
  0.8025027039258316  0.6249999919999993  0.4566771844979784
  0.6975072370741632  0.8749999770000016  0.4566771844979784
  0.2513747427182373  0.3750000080000007  0.5856502192650619
 -0.0000000000000000  0.2500000000000000  0.6193778470813396
  0.0013108115831161  0.1250000000000000  0.4143479547132143
  0.4986891964168774  0.3750000080000007  0.4143479547132143
  0.2500000000000000  0.2500000000000000  0.3806177737745016
  0.2500000000000000  0.0000000000000000  0.3806177737745016
 -0.0000000000000000  0.0000000000000000  0.6193778470813396
  0.2486252572817627  0.1250000000000000  0.5856602362650629
  0.7513747427182372  0.3750000080000007  0.5856502192650619
  0.5000000000000000  0.2500000000000000  0.6193778470813396
  0.5013108035831226  0.1250000000000000  0.4143479547132143
  0.9986891584168813  0.3750000080000007  0.4143479547132143
  0.7499999610000003  0.2500000000000000  0.3806177737745016
  0.7499999610000003 -0.0000000000000000  0.3806177737745016
  0.5000000000000000 -0.0000000000000000  0.6193778470813396
  0.7486252572817628  0.1250000000000000  0.5856602362650629
  0.2513747427182373  0.8749999770000016  0.5856502192650619
 -0.0000000000000000  0.7500000149999977  0.6193778470813396
  0.0013108115831161  0.6249999919999993  0.4143479547132143
  0.4986891964168774  0.8749999770000016  0.4143479547132143
  0.2500000000000000  0.7500000149999977  0.3806177737745016
  0.2500000000000000  0.5000000000000000  0.3806177737745016
 -0.0000000000000000  0.5000000000000000  0.6193778470813396
  0.2486252572817627  0.6249999919999993  0.5856602362650629
  0.7513747427182372  0.8749999770000016  0.5856502192650619
  0.5000000000000000  0.7500000149999977  0.6193778470813396
  0.5013108035831226  0.6249999919999993  0.4143479547132143
  0.9986891584168813  0.8749999770000016  0.4143479547132143
  0.7499999610000003  0.7500000149999977  0.3806177737745016
  0.7499999610000003  0.5000000000000000  0.3806177737745016
  0.5000000000000000  0.5000000000000000  0.6193778470813396
  0.7486252572817628  0.6249999919999993  0.5856602362650629
 
  0.00000000E+00  0.00000000E+00  0.00000000E+00
  0.00000000E+00  0.00000000E+00  0.00000000E+00
  0.00000000E+00  0.00000000E+00  0.00000000E+00
  0.00000000E+00  0.00000000E+00  0.00000000E+00
  0.00000000E+00  0.00000000E+00  0.00000000E+00
  0.00000000E+00  0.00000000E+00  0.00000000E+00
  0.00000000E+00  0.00000000E+00  0.00000000E+00
  0.00000000E+00  0.00000000E+00  0.00000000E+00
  0.00000000E+00  0.00000000E+00  0.00000000E+00
  0.00000000E+00  0.00000000E+00  0.00000000E+00
  0.00000000E+00  0.00000000E+00  0.00000000E+00
  0.00000000E+00  0.00000000E+00  0.00000000E+00
  0.00000000E+00  0.00000000E+00  0.00000000E+00
  0.00000000E+00  0.00000000E+00  0.00000000E+00
  0.00000000E+00  0.00000000E+00  0.00000000E+00
  0.00000000E+00  0.00000000E+00  0.00000000E+00
  0.00000000E+00  0.00000000E+00  0.00000000E+00
  0.00000000E+00  0.00000000E+00  0.00000000E+00
  0.00000000E+00  0.00000000E+00  0.00000000E+00
  0.00000000E+00  0.00000000E+00  0.00000000E+00
  0.00000000E+00  0.00000000E+00  0.00000000E+00
  0.00000000E+00  0.00000000E+00  0.00000000E+00
  0.00000000E+00  0.00000000E+00  0.00000000E+00
  0.00000000E+00  0.00000000E+00  0.00000000E+00
  0.00000000E+00  0.00000000E+00  0.00000000E+00
  0.00000000E+00  0.00000000E+00  0.00000000E+00
  0.00000000E+00  0.00000000E+00  0.00000000E+00
  0.00000000E+00  0.00000000E+00  0.00000000E+00
  0.00000000E+00  0.00000000E+00  0.00000000E+00
  0.00000000E+00  0.00000000E+00  0.00000000E+00
  0.00000000E+00  0.00000000E+00  0.00000000E+00
  0.00000000E+00  0.00000000E+00  0.00000000E+00
  0.00000000E+00  0.00000000E+00  0.00000000E+00
  0.00000000E+00  0.00000000E+00  0.00000000E+00
  0.00000000E+00  0.00000000E+00  0.00000000E+00
  0.00000000E+00  0.00000000E+00  0.00000000E+00
  0.00000000E+00  0.00000000E+00  0.00000000E+00
  0.00000000E+00  0.00000000E+00  0.00000000E+00
  0.00000000E+00  0.00000000E+00  0.00000000E+00
  0.00000000E+00  0.00000000E+00  0.00000000E+00
  0.00000000E+00  0.00000000E+00  0.00000000E+00
  0.00000000E+00  0.00000000E+00  0.00000000E+00
  0.00000000E+00  0.00000000E+00  0.00000000E+00
  0.00000000E+00  0.00000000E+00  0.00000000E+00
  0.00000000E+00  0.00000000E+00  0.00000000E+00
  0.00000000E+00  0.00000000E+00  0.00000000E+00
  0.00000000E+00  0.00000000E+00  0.00000000E+00
  0.00000000E+00  0.00000000E+00  0.00000000E+00
  0.00000000E+00  0.00000000E+00  0.00000000E+00
  0.00000000E+00  0.00000000E+00  0.00000000E+00
  0.00000000E+00  0.00000000E+00  0.00000000E+00
  0.00000000E+00  0.00000000E+00  0.00000000E+00
  0.00000000E+00  0.00000000E+00  0.00000000E+00
  0.00000000E+00  0.00000000E+00  0.00000000E+00
  0.00000000E+00  0.00000000E+00  0.00000000E+00
  0.00000000E+00  0.00000000E+00  0.00000000E+00
  0.00000000E+00  0.00000000E+00  0.00000000E+00
  0.00000000E+00  0.00000000E+00  0.00000000E+00
  0.00000000E+00  0.00000000E+00  0.00000000E+00
  0.00000000E+00  0.00000000E+00  0.00000000E+00
  0.00000000E+00  0.00000000E+00  0.00000000E+00
  0.00000000E+00  0.00000000E+00  0.00000000E+00
  0.00000000E+00  0.00000000E+00  0.00000000E+00
  0.00000000E+00  0.00000000E+00  0.00000000E+00
