CONTCAR\(10)                            
   1.00000000000000     
    12.0179996490000001    0.0000000000000000    0.0000000000000000
     5.5443836140000000   17.3830097696000010    0.0000000000000000
     0.0000000000000000    0.0000000000000000   18.4081001282000010
   Nb   Ir   Se   O    H 
    16     4    40     2     1
Selective dynamics
Direct
  0.3138698407983256  0.4151144609813713  0.5042513986209016   F   F   F
  0.3710278480059372  0.2071520306991275  0.5074596535970812   F   F   F
  0.0440766715067653  0.0004058479031315  0.5063586549334715   F   F   F
  0.0810893570398932  0.3159718122536219  0.4970733306985480   F   F   F
  0.8104321241512693  0.4184045808053227  0.5035013042835033   F   F   F
  0.8825975900666023  0.1930658743592559  0.5024542316628740   F   F   F
  0.5434385916722135  0.0034239498887132  0.5035787979108903   F   F   F
  0.5937193738190558  0.3207080296217626  0.5020209511572986   F   F   F
  0.3135312817261990  0.9212063798582264  0.5030123199492778   F   F   F
  0.3863121298442138  0.6892746250077977  0.5032269998567074   F   F   F
  0.0441279116954405  0.4934954137479650  0.5074934493135501   F   F   F
  0.1037015298054769  0.8274503127646895  0.5010154240669777   F   F   F
  0.8182751796115468  0.9208126173775710  0.5057796913225445   F   F   F
  0.8647924460380949  0.6955268921013271  0.5073914542287383   F   F   F
  0.5406487796652897  0.4979905171641406  0.5073123977533029   F   F   F
  0.5799927533839480  0.8109441532169299  0.5018629834107315   F   F   F
  0.2157464212206008  0.0957737374777139  0.5039217490632097   F   F   F
  0.7109637988444462  0.0955227767964359  0.5038929425459884   F   F   F
  0.2126797098167614  0.5944106027561276  0.5054513417297315   F   F   F
  0.7131509788409574  0.5926431693030452  0.5055535744234021   F   F   F
  0.1856444591176327  0.0088442211101167  0.6041199982521661   F   F   F
  0.0472029902511579  0.1063278680302417  0.4157442407868359   F   F   F
  0.2638115800438783  0.3056910402222073  0.5927536506183912   F   F   F
  0.1549348855908477  0.4011981801495921  0.4095343118611154   F   F   F
  0.3814639425632294  0.0960362921773807  0.5905658254823649   F   F   F
  0.2245132244925543  0.2018441628619954  0.4131484593675836   F   F   F
  0.4777612679415313  0.4053793528160767  0.6008318274941047   F   F   F
  0.3559210661088770  0.0093667857746595  0.4128095308019653   F   F   F
  0.0728947162068820  0.1994447032639357  0.5777700803781300   F   F   F
  0.4349989621762731  0.3026535254975755  0.4166101931112678   F   F   F
  0.6845170119639619  0.0075657198571051  0.6038176765586414   F   F   F
  0.5444387936315565  0.1054784698342246  0.4159121222571045   F   F   F
  0.7747633458193164  0.3035139276584644  0.5866201582141954   F   F   F
  0.6504391200280679  0.4045085909503570  0.4074599322208883   F   F   F
  0.8743121960692832  0.0974087543792734  0.5938350880626899   F   F   F
  0.7255736028645430  0.2002156486190643  0.4131556554507227   F   F   F
  0.9739093386915485  0.4042274958482395  0.5992078937341532   F   F   F
  0.8546967719866529  0.0081799953531032  0.4145487717585041   F   F   F
  0.5707477198799040  0.2014546085827149  0.5767847522488836   F   F   F
  0.9255337217784643  0.3066650156734312  0.4120765223776601   F   F   F
  0.1860271040206811  0.5027997458984359  0.6047370821263698   F   F   F
  0.0390204690488432  0.6036617963216102  0.4213972135196187   F   F   F
  0.2775030847089326  0.8038722377325485  0.5871073925797532   F   F   F
  0.1530956833715535  0.9096253820350029  0.4046359657788301   F   F   F
  0.3754099310880505  0.5945153022016640  0.5955482217016126   F   F   F
  0.2277916955471397  0.6989505732809960  0.4147209381847929   F   F   F
  0.4781651588099081  0.9062816310899393  0.5978402057594892   F   F   F
  0.3529598611724296  0.5061546450075483  0.4164781231298917   F   F   F
  0.0669893251911517  0.7041355258379909  0.5621936016634663   F   F   F
  0.4261869676874355  0.8060877782727971  0.4139951999896994   F   F   F
  0.6827309253538161  0.5045529905100850  0.6053420068662163   F   F   F
  0.5463971204689955  0.6020734348747894  0.4160055395574744   F   F   F
  0.7698433872901802  0.8058878868074046  0.5884899022927499   F   F   F
  0.6570031527351574  0.8979679940501981  0.4168687458069797   F   F   F
  0.8763258417560991  0.5923224885776719  0.5952869434794508   F   F   F
  0.7186587852386808  0.6974087489487175  0.4130669492859553   F   F   F
  0.9822420717095710  0.9094400764768480  0.6011229080572136   F   F   F
  0.8537590178073060  0.5077032508231127  0.4149020818603049   F   F   F
  0.5731368891507742  0.6962050291566086  0.5821787249668517   F   F   F
  0.9368185378019547  0.8013023150624434  0.4264005650278122   F   F   F
  0.0856007647056032  0.7087542114593290  0.6647756637711737   T   T   T
  0.0389729976780728  0.6557048070336293  0.7034864728874908   T   T   T
  0.1080087368984408  0.6095682987965887  0.7054350484699763   T   T   T
 
  0.00000000E+00  0.00000000E+00  0.00000000E+00
  0.00000000E+00  0.00000000E+00  0.00000000E+00
  0.00000000E+00  0.00000000E+00  0.00000000E+00
  0.00000000E+00  0.00000000E+00  0.00000000E+00
  0.00000000E+00  0.00000000E+00  0.00000000E+00
  0.00000000E+00  0.00000000E+00  0.00000000E+00
  0.00000000E+00  0.00000000E+00  0.00000000E+00
  0.00000000E+00  0.00000000E+00  0.00000000E+00
  0.00000000E+00  0.00000000E+00  0.00000000E+00
  0.00000000E+00  0.00000000E+00  0.00000000E+00
  0.00000000E+00  0.00000000E+00  0.00000000E+00
  0.00000000E+00  0.00000000E+00  0.00000000E+00
  0.00000000E+00  0.00000000E+00  0.00000000E+00
  0.00000000E+00  0.00000000E+00  0.00000000E+00
  0.00000000E+00  0.00000000E+00  0.00000000E+00
  0.00000000E+00  0.00000000E+00  0.00000000E+00
  0.00000000E+00  0.00000000E+00  0.00000000E+00
  0.00000000E+00  0.00000000E+00  0.00000000E+00
  0.00000000E+00  0.00000000E+00  0.00000000E+00
  0.00000000E+00  0.00000000E+00  0.00000000E+00
  0.00000000E+00  0.00000000E+00  0.00000000E+00
  0.00000000E+00  0.00000000E+00  0.00000000E+00
  0.00000000E+00  0.00000000E+00  0.00000000E+00
  0.00000000E+00  0.00000000E+00  0.00000000E+00
  0.00000000E+00  0.00000000E+00  0.00000000E+00
  0.00000000E+00  0.00000000E+00  0.00000000E+00
  0.00000000E+00  0.00000000E+00  0.00000000E+00
  0.00000000E+00  0.00000000E+00  0.00000000E+00
  0.00000000E+00  0.00000000E+00  0.00000000E+00
  0.00000000E+00  0.00000000E+00  0.00000000E+00
  0.00000000E+00  0.00000000E+00  0.00000000E+00
  0.00000000E+00  0.00000000E+00  0.00000000E+00
  0.00000000E+00  0.00000000E+00  0.00000000E+00
  0.00000000E+00  0.00000000E+00  0.00000000E+00
  0.00000000E+00  0.00000000E+00  0.00000000E+00
  0.00000000E+00  0.00000000E+00  0.00000000E+00
  0.00000000E+00  0.00000000E+00  0.00000000E+00
  0.00000000E+00  0.00000000E+00  0.00000000E+00
  0.00000000E+00  0.00000000E+00  0.00000000E+00
  0.00000000E+00  0.00000000E+00  0.00000000E+00
  0.00000000E+00  0.00000000E+00  0.00000000E+00
  0.00000000E+00  0.00000000E+00  0.00000000E+00
  0.00000000E+00  0.00000000E+00  0.00000000E+00
  0.00000000E+00  0.00000000E+00  0.00000000E+00
  0.00000000E+00  0.00000000E+00  0.00000000E+00
  0.00000000E+00  0.00000000E+00  0.00000000E+00
  0.00000000E+00  0.00000000E+00  0.00000000E+00
  0.00000000E+00  0.00000000E+00  0.00000000E+00
  0.00000000E+00  0.00000000E+00  0.00000000E+00
  0.00000000E+00  0.00000000E+00  0.00000000E+00
  0.00000000E+00  0.00000000E+00  0.00000000E+00
  0.00000000E+00  0.00000000E+00  0.00000000E+00
  0.00000000E+00  0.00000000E+00  0.00000000E+00
  0.00000000E+00  0.00000000E+00  0.00000000E+00
  0.00000000E+00  0.00000000E+00  0.00000000E+00
  0.00000000E+00  0.00000000E+00  0.00000000E+00
  0.00000000E+00  0.00000000E+00  0.00000000E+00
  0.00000000E+00  0.00000000E+00  0.00000000E+00
  0.00000000E+00  0.00000000E+00  0.00000000E+00
  0.00000000E+00  0.00000000E+00  0.00000000E+00
  0.00000000E+00  0.00000000E+00  0.00000000E+00
  0.00000000E+00  0.00000000E+00  0.00000000E+00
  0.00000000E+00  0.00000000E+00  0.00000000E+00
