CONTCAR\(10)                            
   1.00000000000000     
     9.7571001052999993    0.0000000000000000    0.0000000000000000
    -3.0063686365000000   15.8319856181999992    0.0000000000000000
     0.0000000000000000    0.0000000000000000   18.2793006897000012
   V    P    S    O 
     4     8    26     1
Direct
  0.6192559587006097  0.6044276192735449  0.4971996604601441
  0.5871474608296738  0.0916659320682582  0.4957602229499644
  0.3795320459017807  0.3919765427078469  0.4988216966170499
  0.3937848343212730  0.9194467128170004  0.4958562760174182
  0.8166778280128953  0.2505159163563929  0.4887426280432534
  0.6932176097219790  0.4298487174507173  0.5318272561995244
  0.1838208753233244  0.7494551744652378  0.5049160352203083
  0.1675584096439637  0.2318744310422542  0.4889311216073459
  0.2632429878320087  0.0823519325972818  0.6039017812608553
  0.7014234600278640  0.9327175780568095  0.4660233424847310
  0.3076454244036673  0.5684548369127790  0.4619091865603623
  0.8352254817058191  0.7599824279269110  0.5086976765915174
  0.1300510389343505  0.1027555446249685  0.5089771400646341
  0.8918332582979426  0.8914978681387590  0.4832368355611654
  0.0090771846669294  0.7511904765733342  0.5764037335024772
  0.3973885012364970  0.0365142214096941  0.4296220874731494
  0.5365650839903741  0.3515133266068284  0.5844417047525761
  0.2359302921525697  0.4562561804021640  0.4136845937990178
  0.1965869734049998  0.3118319407646699  0.5747308724547675
  0.6676932249591913  0.7270525209317630  0.5746967574669497
  0.4666507446833948  0.6449433373111177  0.4093807259296256
  0.6034228575265705  0.4604792103747061  0.4354629739973727
  0.6490782101442990  0.2233847419051600  0.4225593993971552
  0.8788246315590299  0.3818102617242145  0.5158941203117109
 -0.0066930428665873  0.2425497613241528  0.4197661253321815
  0.6066862356506881  0.9647166933015155  0.5632720388260698
  0.8075358899814205  0.6833500981936256  0.4213372693962578
  0.3943556111665038  0.5384239621628174  0.5594220793459077
  0.2034375679473075  0.8323690038316633  0.4218177670500883
  0.7641424022940799  0.5408530116702331  0.5821056353671069
  0.5471332904100085  0.8513021253333788  0.4181575163148196
  0.2567635856009867  0.9536074271700302  0.5945958079123427
  0.3480727160676120  0.7770941182607586  0.5705518950098849
  0.7886973505903490  0.1738952604170361  0.5745817061525829
  0.7628460670292273  0.0443208166437536  0.4163733061090226
  0.4688463318126707  0.1442088944175887  0.5907490807763041
  0.1236355136863993  0.6194570715872652  0.4713827648790491
  0.3310837368643934  0.2736794828382709  0.4203277378070546
  0.1982921717839128  0.1091949344055019  0.6711215689982405
 
  0.00000000E+00  0.00000000E+00  0.00000000E+00
  0.00000000E+00  0.00000000E+00  0.00000000E+00
  0.00000000E+00  0.00000000E+00  0.00000000E+00
  0.00000000E+00  0.00000000E+00  0.00000000E+00
  0.00000000E+00  0.00000000E+00  0.00000000E+00
  0.00000000E+00  0.00000000E+00  0.00000000E+00
  0.00000000E+00  0.00000000E+00  0.00000000E+00
  0.00000000E+00  0.00000000E+00  0.00000000E+00
  0.00000000E+00  0.00000000E+00  0.00000000E+00
  0.00000000E+00  0.00000000E+00  0.00000000E+00
  0.00000000E+00  0.00000000E+00  0.00000000E+00
  0.00000000E+00  0.00000000E+00  0.00000000E+00
  0.00000000E+00  0.00000000E+00  0.00000000E+00
  0.00000000E+00  0.00000000E+00  0.00000000E+00
  0.00000000E+00  0.00000000E+00  0.00000000E+00
  0.00000000E+00  0.00000000E+00  0.00000000E+00
  0.00000000E+00  0.00000000E+00  0.00000000E+00
  0.00000000E+00  0.00000000E+00  0.00000000E+00
  0.00000000E+00  0.00000000E+00  0.00000000E+00
  0.00000000E+00  0.00000000E+00  0.00000000E+00
  0.00000000E+00  0.00000000E+00  0.00000000E+00
  0.00000000E+00  0.00000000E+00  0.00000000E+00
  0.00000000E+00  0.00000000E+00  0.00000000E+00
  0.00000000E+00  0.00000000E+00  0.00000000E+00
  0.00000000E+00  0.00000000E+00  0.00000000E+00
  0.00000000E+00  0.00000000E+00  0.00000000E+00
  0.00000000E+00  0.00000000E+00  0.00000000E+00
  0.00000000E+00  0.00000000E+00  0.00000000E+00
  0.00000000E+00  0.00000000E+00  0.00000000E+00
  0.00000000E+00  0.00000000E+00  0.00000000E+00
  0.00000000E+00  0.00000000E+00  0.00000000E+00
  0.00000000E+00  0.00000000E+00  0.00000000E+00
  0.00000000E+00  0.00000000E+00  0.00000000E+00
  0.00000000E+00  0.00000000E+00  0.00000000E+00
  0.00000000E+00  0.00000000E+00  0.00000000E+00
  0.00000000E+00  0.00000000E+00  0.00000000E+00
  0.00000000E+00  0.00000000E+00  0.00000000E+00
  0.00000000E+00  0.00000000E+00  0.00000000E+00
  0.00000000E+00  0.00000000E+00  0.00000000E+00
