 Zr1 Ti1 Te4                            
   1.00000000000000     
     3.8451488058545085    0.0000000000000000    0.0000000000000000
     0.0000000000000000    6.6728767105617735    0.0000000000000000
     0.0000000000000000    0.0000000000000000   18.6074057397464330
   Zr   Ti   Te
     1     1     4
Direct
  0.4999999949310162  0.5051058782998621  0.4999881049878817
  0.0000000025735338  0.0052659335804996  0.4998587023124952
  0.4999999692452847  0.1611782346389326  0.5940984974879505
  0.5000000346198848  0.8484414170985503  0.4057048733307019
 -0.0000000035939966  0.6826995245274450  0.5970731892659160
  0.0000000022242774  0.3275394832378740  0.4027578338026333
 
  0.00000000E+00  0.00000000E+00  0.00000000E+00
  0.00000000E+00  0.00000000E+00  0.00000000E+00
  0.00000000E+00  0.00000000E+00  0.00000000E+00
  0.00000000E+00  0.00000000E+00  0.00000000E+00
  0.00000000E+00  0.00000000E+00  0.00000000E+00
  0.00000000E+00  0.00000000E+00  0.00000000E+00
