CONTCAR\(2)                             
   1.00000000000000     
    14.4987001419000006    0.0000000000000000    0.0000000000000000
    -0.3851722429000000   15.7714976485000005    0.0000000000000000
     0.0000000000000000    0.0000000000000000   25.2446994780999994
   Cr   P    O    H 
    24    24   121     1
Direct
  0.9964238401058438  0.3517913296085858  0.3452267106349284
  0.2452798438293423  0.3731160275048381  0.5193683991751425
  0.0879959170929712  0.1265114194764487  0.4803770038355620
  0.3364249802814009  0.1435921472827745  0.6546495859850114
  0.3297721056969136  0.3518095286202874  0.3452385680743534
  0.5781927551195162  0.3730905352837365  0.5197744193009168
  0.4213527000040237  0.1261811325851368  0.4796290646079344
  0.6700758729091625  0.1482049037949369  0.6547229335419247
  0.6631463355732157  0.3518375432799007  0.3453166174158633
  0.9119390627836872  0.3734465749892799  0.5195825866010128
  0.7547022005226116  0.1265576023037601  0.4804868431546409
  0.0034299606466361  0.1481087665315544  0.6546831088727879
  0.9964605444316368  0.8518568092974611  0.3452723966904066
  0.2451675969556147  0.8729852353926469  0.5194078602598129
  0.0880849180430505  0.6264867632380868  0.4804988381008186
  0.3368785443425948  0.6478143453905745  0.6545929416090571
  0.3300026074772701  0.8519925546014802  0.3454115165152200
  0.5786789842064036  0.8735002115725347  0.5195924022353592
  0.4213758686416778  0.6264237840592768  0.4805202784445095
  0.6700779254065691  0.6480090623757360  0.6546262451285836
  0.6631973945532835  0.8518819950669080  0.3453328194192983
  0.9119487584019107  0.8734622324440107  0.5195465071105386
  0.7546787259273700  0.6264857661606651  0.4804425783381113
  0.0035146811016066  0.6481218498624126  0.6546457414762269
  0.0739766001555170  0.4396809293131608  0.4464095330149025
  0.2524783951035757  0.2183154852623762  0.4306626277170789
  0.0803642779581125  0.2813014214213204  0.5688526174614557
  0.2583736605116043  0.0597187032138704  0.5535702094508193
  0.4074672126237938  0.4396624672751475  0.4463854982865056
  0.5865888643547680  0.2187368199931274  0.4309385931565473
  0.4138824742496072  0.2791949054615825  0.5674255387292994
  0.5922507224437952  0.0605842241271583  0.5534274349198240
  0.7408068679796651  0.4394950632296212  0.4466179264291771
  0.9194951638067549  0.2186935661782148  0.4310681983829574
  0.7469876192943531  0.2813321941420150  0.5689259999618043
  0.9257318971251360  0.0604153148132960  0.5534156641363925
  0.0742006345039870  0.9394631412604458  0.4464986725367814
  0.2529148634546854  0.7184728972487736  0.4309799244449285
  0.0803956369546341  0.7813574852057981  0.5688910806395895
  0.2591053497995418  0.5601462018421088  0.5534565124825764
  0.4073421354231379  0.9390932420552504  0.4465835385298886
  0.5862221358021383  0.7186592080781552  0.4310889287867716
  0.4137499629736121  0.7812245915340935  0.5689430974387345
  0.5923646668473467  0.5601881573240658  0.5534660721827415
  0.7408929697042377  0.9395685496141286  0.4465651597879223
  0.9195890208381117  0.7186366027553515  0.4310783702895946
  0.7470408682448594  0.7813369816369546  0.5688963123982830
  0.9257431012908756  0.5604168387672309  0.5534217048087549
  0.0790619764781301  0.3961579632904333  0.3893158547030995
  0.3068191645147313  0.4395444944679396  0.4649559504609502
  0.2539075215584946  0.4187129802686707  0.3318177720768231
  0.1335393426378941  0.3841342329312442  0.4809673290871864
  0.2198609321560043  0.4699528862041157  0.5604261459185904
  0.2788636655206155  0.2605232491194915  0.3759053252396520
  0.0473046247194527  0.3251799501152773  0.2927454781653657
  0.1823971170789869  0.3073713866310490  0.5727944911442000
  0.2677519142552574  0.2815193510187328  0.4756218137003649
  0.3149882360343102  0.1421889561805394  0.4379346828736198
  0.0179499289818616  0.3573454281441114  0.5614795476344512
  0.0644088237714811  0.2182929034888550  0.5239174071861213
  0.1504267548658756  0.1923701757552241  0.4266346235645424
  0.2867018513947670  0.1753945388032583  0.7062358996544984
  0.0543659740278290  0.2391752274535478  0.6237847454400918
  0.1135377524333538  0.0295256057552429  0.4393487904420351
  0.1994757662856183  0.1156466809611691  0.5190282312676560
  0.0791588340476291  0.0811212238194621  0.6682643779566023
  0.0262765376261912  0.0604283066703642  0.5347386455326982
  0.2519202254835370  0.0988142237407543  0.6115924516170710
  0.4124341327200011  0.3960689865971215  0.3893658087789666
  0.6403142309224683  0.4396417080280441  0.4653877077891742
  0.5872897470108512  0.4186955516952625  0.3318668820829641
  0.4675697883259831  0.3844428618795279  0.4806746301943191
  0.5531662808998968  0.4699835030172914  0.5603454108213657
  0.6122172208776975  0.2605110056034092  0.3759026943302119
  0.3807557732361415  0.3252921956386866  0.2927770065721237
  0.5162286948115269  0.3045413265525629  0.5713526998715908
  0.6030325150631355  0.2820997869051264  0.4756775409244949
  0.6487260072840373  0.1424365994470922  0.4385115248847632
  0.3503782303534516  0.3543902686044763  0.5593465933613658
  0.3988658404028849  0.2199081680322479  0.5200135809892080
  0.4845328071063782  0.1926544545234967  0.4266008392397189
  0.6193901640709176  0.1747594713852342  0.7072721546821270
  0.3878190571932306  0.2290530391375598  0.6191025381534223
  0.4470214986343814  0.0289871328729323  0.4394106112985163
  0.5325857967116094  0.1159923753205233  0.5189842364871817
  0.4103443073041816  0.0765291678652451  0.6708533099602708
  0.3591326010652637  0.0615744018820168  0.5351936343506953
  0.5874211130601051  0.1038968945519742  0.6106400828667232
  0.7458027817306228  0.3959018964649677  0.3895461022363589
  0.9733613796340530  0.4398123162984410  0.4651165123223618
  0.9205968407499836  0.4187196589528172  0.3318145282438726
  0.8005312286454127  0.3841366643444316  0.4811183007550683
  0.8863211656436816  0.4704174463205936  0.5606317030967073
  0.9456010611090409  0.2607373974417172  0.3762110477473612
  0.7140678267333554  0.3252907141263884  0.2928476705774913
  0.8491097576118546  0.3071213871535891  0.5729515490103848
  0.9357288387178320  0.2816895523215590  0.4761018641808812
  0.9817708369193604  0.1425093633752638  0.4384779314634028
  0.6845201133610481  0.3573284976280000  0.5616039197912277
  0.7309674945708878  0.2183636686904966  0.5239401871421421
  0.8173625089850310  0.1928403907640878  0.4270803051539107
  0.9526190078939704  0.1747505092906823  0.7072301429859973
  0.7211166943234946  0.2391232515124488  0.6238577074291300
  0.7803002262070535  0.0296219106174928  0.4394300561584886
  0.8661598417016700  0.1157755113139554  0.5189174252571952
  0.7459923357239253  0.0812796267964097  0.6682041896283216
  0.6928734935854491  0.0604461392847032  0.5347493820556259
  0.9207880203803689  0.1039878240149837  0.6105337391604262
  0.0791126778444639  0.8959992094648856  0.3894255864619099
  0.3068386637700769  0.9396626262869195  0.4652166048332664
  0.2540552812818605  0.9187000771907761  0.3318553515491772
  0.1337924246927827  0.8839021571761618  0.4809136561824108
  0.2189751913625246  0.9694334427210735  0.5595159152303311
  0.2790031382351270  0.7608609982387300  0.3761915480848219
  0.0473181209570661  0.8252459100125823  0.2927908694294816
  0.1825981028087424  0.8070300048515978  0.5728830876203566
  0.2690661790319286  0.7815351625582518  0.4760233716510837
  0.3153446287264889  0.6424945225011797  0.4385117470569955
  0.0180494189717877  0.8574497180287782  0.5615108072985536
  0.0642846170833893  0.7183819518970483  0.5239493352323104
  0.1507716783324312  0.6928796225430073  0.4270691165171377
  0.2858093724125454  0.6746190922304599  0.7071315328401867
  0.0544151262342109  0.7391965740913528  0.6237929703941323
  0.1136338239665871  0.5296812734211895  0.4392530613193523
  0.1994662758607944  0.6156148950166231  0.5190050228346936
  0.0794077544059006  0.5812406498503693  0.6681577298784286
  0.0263209403382576  0.5604016441394845  0.5347603027247946
  0.2541913788198579  0.6036882551443040  0.6105058290280762
  0.4125768907191446  0.8964622519713854  0.3894375758987603
  0.6403158261843528  0.9395842356418244  0.4652335889329733
  0.5873400148139826  0.9187299258042675  0.3318371459623220
  0.4674762949294962  0.8843964973543764  0.4811515251551164
  0.5529245084371142  0.9704701896987475  0.5605550487917437
  0.6122739833282308  0.7607940379887560  0.3762362791001181
  0.3806829415249420  0.8253080832422718  0.2929102739193677
  0.5158629588041409  0.8071413163643902  0.5729019389966663
  0.6022876320924894  0.7816898967016228  0.4760909271353078
  0.6486215857438439  0.6425466388201174  0.4385364245393446
  0.3513174757478306  0.8573236408030238  0.5614873571249136
  0.3976145405181806  0.7183309731865364  0.5239122331068213
  0.4841017931613273  0.6928258129868805  0.4271137737940911
  0.6192698706445240  0.6746160485702370  0.7071485979709110
  0.3879182038219341  0.7388762105949653  0.6238004391309407
  0.4468642236586237  0.5297879171428636  0.4393375759153448
  0.5327473763747229  0.6155840209337453  0.5190082407385321
  0.4123040487972307  0.5804523661416154  0.6683845960757491
  0.3596561682410756  0.5602550093230456  0.5346651119011915
  0.5874321810182680  0.6035902779091876  0.6105681065488132
  0.7458497926991613  0.8960573964064086  0.3895020211574570
  0.9736232393265946  0.9395573593383586  0.4652477534245473
  0.9206189755590366  0.9187471825075654  0.3317964440135338
  0.8005248566052313  0.8842082832989062  0.4811147251016406
  0.8863550020740733  0.9704196871788456  0.5606003677126923
  0.9455786789395257  0.7607807921044757  0.3762257192693093
  0.7140235130770477  0.8252564735057913  0.2928503664482000
  0.8491341698711296  0.8071432680556112  0.5729449630830913
  0.9356518041132135  0.7816614550788422  0.4760894431059713
  0.9820433687594149  0.6425719470998658  0.4385248235430968
  0.6846413681928424  0.8574431054809949  0.5614894033801465
  0.7309790154437957  0.7183584990475488  0.5239422097507259
  0.8174604031783128  0.6927948665501904  0.4270935520265815
  0.9526850836557462  0.6747268551980484  0.7071798339209213
  0.7209548851176238  0.7391406484350510  0.6237885478957600
  0.7802630732134443  0.5296010906873430  0.4394142077557949
  0.8661562209940687  0.6157575406093687  0.5189069329218240
  0.7460628118141953  0.5812495670187690  0.6681443622917923
  0.6929764248254427  0.5604553307916811  0.5348174453697035
  0.9208479481542721  0.6039721223376678  0.6105316862358980
  0.4251622068589286  0.3897562270836862  0.6525580877480017
  0.4198122161762445  0.4079019360916747  0.6899180367342325
 
  0.00000000E+00  0.00000000E+00  0.00000000E+00
  0.00000000E+00  0.00000000E+00  0.00000000E+00
  0.00000000E+00  0.00000000E+00  0.00000000E+00
  0.00000000E+00  0.00000000E+00  0.00000000E+00
  0.00000000E+00  0.00000000E+00  0.00000000E+00
  0.00000000E+00  0.00000000E+00  0.00000000E+00
  0.00000000E+00  0.00000000E+00  0.00000000E+00
  0.00000000E+00  0.00000000E+00  0.00000000E+00
  0.00000000E+00  0.00000000E+00  0.00000000E+00
  0.00000000E+00  0.00000000E+00  0.00000000E+00
  0.00000000E+00  0.00000000E+00  0.00000000E+00
  0.00000000E+00  0.00000000E+00  0.00000000E+00
  0.00000000E+00  0.00000000E+00  0.00000000E+00
  0.00000000E+00  0.00000000E+00  0.00000000E+00
  0.00000000E+00  0.00000000E+00  0.00000000E+00
  0.00000000E+00  0.00000000E+00  0.00000000E+00
  0.00000000E+00  0.00000000E+00  0.00000000E+00
  0.00000000E+00  0.00000000E+00  0.00000000E+00
  0.00000000E+00  0.00000000E+00  0.00000000E+00
  0.00000000E+00  0.00000000E+00  0.00000000E+00
  0.00000000E+00  0.00000000E+00  0.00000000E+00
  0.00000000E+00  0.00000000E+00  0.00000000E+00
  0.00000000E+00  0.00000000E+00  0.00000000E+00
  0.00000000E+00  0.00000000E+00  0.00000000E+00
  0.00000000E+00  0.00000000E+00  0.00000000E+00
  0.00000000E+00  0.00000000E+00  0.00000000E+00
  0.00000000E+00  0.00000000E+00  0.00000000E+00
  0.00000000E+00  0.00000000E+00  0.00000000E+00
  0.00000000E+00  0.00000000E+00  0.00000000E+00
  0.00000000E+00  0.00000000E+00  0.00000000E+00
  0.00000000E+00  0.00000000E+00  0.00000000E+00
  0.00000000E+00  0.00000000E+00  0.00000000E+00
  0.00000000E+00  0.00000000E+00  0.00000000E+00
  0.00000000E+00  0.00000000E+00  0.00000000E+00
  0.00000000E+00  0.00000000E+00  0.00000000E+00
  0.00000000E+00  0.00000000E+00  0.00000000E+00
  0.00000000E+00  0.00000000E+00  0.00000000E+00
  0.00000000E+00  0.00000000E+00  0.00000000E+00
  0.00000000E+00  0.00000000E+00  0.00000000E+00
  0.00000000E+00  0.00000000E+00  0.00000000E+00
  0.00000000E+00  0.00000000E+00  0.00000000E+00
  0.00000000E+00  0.00000000E+00  0.00000000E+00
  0.00000000E+00  0.00000000E+00  0.00000000E+00
  0.00000000E+00  0.00000000E+00  0.00000000E+00
  0.00000000E+00  0.00000000E+00  0.00000000E+00
  0.00000000E+00  0.00000000E+00  0.00000000E+00
  0.00000000E+00  0.00000000E+00  0.00000000E+00
  0.00000000E+00  0.00000000E+00  0.00000000E+00
  0.00000000E+00  0.00000000E+00  0.00000000E+00
  0.00000000E+00  0.00000000E+00  0.00000000E+00
  0.00000000E+00  0.00000000E+00  0.00000000E+00
  0.00000000E+00  0.00000000E+00  0.00000000E+00
  0.00000000E+00  0.00000000E+00  0.00000000E+00
  0.00000000E+00  0.00000000E+00  0.00000000E+00
  0.00000000E+00  0.00000000E+00  0.00000000E+00
  0.00000000E+00  0.00000000E+00  0.00000000E+00
  0.00000000E+00  0.00000000E+00  0.00000000E+00
  0.00000000E+00  0.00000000E+00  0.00000000E+00
  0.00000000E+00  0.00000000E+00  0.00000000E+00
  0.00000000E+00  0.00000000E+00  0.00000000E+00
  0.00000000E+00  0.00000000E+00  0.00000000E+00
  0.00000000E+00  0.00000000E+00  0.00000000E+00
  0.00000000E+00  0.00000000E+00  0.00000000E+00
  0.00000000E+00  0.00000000E+00  0.00000000E+00
  0.00000000E+00  0.00000000E+00  0.00000000E+00
  0.00000000E+00  0.00000000E+00  0.00000000E+00
  0.00000000E+00  0.00000000E+00  0.00000000E+00
  0.00000000E+00  0.00000000E+00  0.00000000E+00
  0.00000000E+00  0.00000000E+00  0.00000000E+00
  0.00000000E+00  0.00000000E+00  0.00000000E+00
  0.00000000E+00  0.00000000E+00  0.00000000E+00
  0.00000000E+00  0.00000000E+00  0.00000000E+00
  0.00000000E+00  0.00000000E+00  0.00000000E+00
  0.00000000E+00  0.00000000E+00  0.00000000E+00
  0.00000000E+00  0.00000000E+00  0.00000000E+00
  0.00000000E+00  0.00000000E+00  0.00000000E+00
  0.00000000E+00  0.00000000E+00  0.00000000E+00
  0.00000000E+00  0.00000000E+00  0.00000000E+00
  0.00000000E+00  0.00000000E+00  0.00000000E+00
  0.00000000E+00  0.00000000E+00  0.00000000E+00
  0.00000000E+00  0.00000000E+00  0.00000000E+00
  0.00000000E+00  0.00000000E+00  0.00000000E+00
  0.00000000E+00  0.00000000E+00  0.00000000E+00
  0.00000000E+00  0.00000000E+00  0.00000000E+00
  0.00000000E+00  0.00000000E+00  0.00000000E+00
  0.00000000E+00  0.00000000E+00  0.00000000E+00
  0.00000000E+00  0.00000000E+00  0.00000000E+00
  0.00000000E+00  0.00000000E+00  0.00000000E+00
  0.00000000E+00  0.00000000E+00  0.00000000E+00
  0.00000000E+00  0.00000000E+00  0.00000000E+00
  0.00000000E+00  0.00000000E+00  0.00000000E+00
  0.00000000E+00  0.00000000E+00  0.00000000E+00
  0.00000000E+00  0.00000000E+00  0.00000000E+00
  0.00000000E+00  0.00000000E+00  0.00000000E+00
  0.00000000E+00  0.00000000E+00  0.00000000E+00
  0.00000000E+00  0.00000000E+00  0.00000000E+00
  0.00000000E+00  0.00000000E+00  0.00000000E+00
  0.00000000E+00  0.00000000E+00  0.00000000E+00
  0.00000000E+00  0.00000000E+00  0.00000000E+00
  0.00000000E+00  0.00000000E+00  0.00000000E+00
  0.00000000E+00  0.00000000E+00  0.00000000E+00
  0.00000000E+00  0.00000000E+00  0.00000000E+00
  0.00000000E+00  0.00000000E+00  0.00000000E+00
  0.00000000E+00  0.00000000E+00  0.00000000E+00
  0.00000000E+00  0.00000000E+00  0.00000000E+00
  0.00000000E+00  0.00000000E+00  0.00000000E+00
  0.00000000E+00  0.00000000E+00  0.00000000E+00
  0.00000000E+00  0.00000000E+00  0.00000000E+00
  0.00000000E+00  0.00000000E+00  0.00000000E+00
  0.00000000E+00  0.00000000E+00  0.00000000E+00
  0.00000000E+00  0.00000000E+00  0.00000000E+00
  0.00000000E+00  0.00000000E+00  0.00000000E+00
  0.00000000E+00  0.00000000E+00  0.00000000E+00
  0.00000000E+00  0.00000000E+00  0.00000000E+00
  0.00000000E+00  0.00000000E+00  0.00000000E+00
  0.00000000E+00  0.00000000E+00  0.00000000E+00
  0.00000000E+00  0.00000000E+00  0.00000000E+00
  0.00000000E+00  0.00000000E+00  0.00000000E+00
  0.00000000E+00  0.00000000E+00  0.00000000E+00
  0.00000000E+00  0.00000000E+00  0.00000000E+00
  0.00000000E+00  0.00000000E+00  0.00000000E+00
  0.00000000E+00  0.00000000E+00  0.00000000E+00
  0.00000000E+00  0.00000000E+00  0.00000000E+00
  0.00000000E+00  0.00000000E+00  0.00000000E+00
  0.00000000E+00  0.00000000E+00  0.00000000E+00
  0.00000000E+00  0.00000000E+00  0.00000000E+00
  0.00000000E+00  0.00000000E+00  0.00000000E+00
  0.00000000E+00  0.00000000E+00  0.00000000E+00
  0.00000000E+00  0.00000000E+00  0.00000000E+00
  0.00000000E+00  0.00000000E+00  0.00000000E+00
  0.00000000E+00  0.00000000E+00  0.00000000E+00
  0.00000000E+00  0.00000000E+00  0.00000000E+00
  0.00000000E+00  0.00000000E+00  0.00000000E+00
  0.00000000E+00  0.00000000E+00  0.00000000E+00
  0.00000000E+00  0.00000000E+00  0.00000000E+00
  0.00000000E+00  0.00000000E+00  0.00000000E+00
  0.00000000E+00  0.00000000E+00  0.00000000E+00
  0.00000000E+00  0.00000000E+00  0.00000000E+00
  0.00000000E+00  0.00000000E+00  0.00000000E+00
  0.00000000E+00  0.00000000E+00  0.00000000E+00
  0.00000000E+00  0.00000000E+00  0.00000000E+00
  0.00000000E+00  0.00000000E+00  0.00000000E+00
  0.00000000E+00  0.00000000E+00  0.00000000E+00
  0.00000000E+00  0.00000000E+00  0.00000000E+00
  0.00000000E+00  0.00000000E+00  0.00000000E+00
  0.00000000E+00  0.00000000E+00  0.00000000E+00
  0.00000000E+00  0.00000000E+00  0.00000000E+00
  0.00000000E+00  0.00000000E+00  0.00000000E+00
  0.00000000E+00  0.00000000E+00  0.00000000E+00
  0.00000000E+00  0.00000000E+00  0.00000000E+00
  0.00000000E+00  0.00000000E+00  0.00000000E+00
  0.00000000E+00  0.00000000E+00  0.00000000E+00
  0.00000000E+00  0.00000000E+00  0.00000000E+00
  0.00000000E+00  0.00000000E+00  0.00000000E+00
  0.00000000E+00  0.00000000E+00  0.00000000E+00
  0.00000000E+00  0.00000000E+00  0.00000000E+00
  0.00000000E+00  0.00000000E+00  0.00000000E+00
  0.00000000E+00  0.00000000E+00  0.00000000E+00
  0.00000000E+00  0.00000000E+00  0.00000000E+00
  0.00000000E+00  0.00000000E+00  0.00000000E+00
  0.00000000E+00  0.00000000E+00  0.00000000E+00
  0.00000000E+00  0.00000000E+00  0.00000000E+00
  0.00000000E+00  0.00000000E+00  0.00000000E+00
  0.00000000E+00  0.00000000E+00  0.00000000E+00
  0.00000000E+00  0.00000000E+00  0.00000000E+00
  0.00000000E+00  0.00000000E+00  0.00000000E+00
  0.00000000E+00  0.00000000E+00  0.00000000E+00
  0.00000000E+00  0.00000000E+00  0.00000000E+00
  0.00000000E+00  0.00000000E+00  0.00000000E+00
  0.00000000E+00  0.00000000E+00  0.00000000E+00
