Repeated-UnitCell:     2    2    1      
   1.00000000000000     
     8.3006619296483883    0.0000000000000000    0.0000000000000000
     4.1503299747414166    7.1885919993554133    0.0000000000000000
     0.0000000000000000    0.0000000000000000   35.7986177044800016
   Ge   Te   As
    16    28     8
Direct
  0.9999989989414431  0.0000018967786488  0.6482363043761312
  0.4999989989414431  0.0000018967786488  0.6482363043761312
  0.9999989989414431  0.5000018967786488  0.6482363043761312
  0.4999989989414431  0.5000018967786488  0.6482363043761312
  0.3333350604519012  0.3333316442035823  0.4505703774574829
  0.8333350604519012  0.3333316442035823  0.4505703774574829
  0.3333350604519012  0.8333316442035823  0.4505703774574829
  0.8333350604519012  0.8333316442035823  0.4505703774574829
  0.1666682140328177  0.1666657843791768  0.5494257187189489
  0.6666682140328177  0.1666657843791768  0.5494257187189489
  0.1666682140328177  0.6666657843791768  0.5494257187189489
  0.6666682140328177  0.6666657843791768  0.5494257187189489
  0.9999999696947057  0.0000011073616193  0.3517643335558375
  0.4999999696947057  0.0000011073616193  0.3517643335558375
  0.9999999696947057  0.5000011073616193  0.3517643335558375
  0.4999999696947057  0.5000011073616193  0.3517643335558375
  0.0000029863585240  0.9999957601728013  0.7906757925076805
  0.5000029863585240  0.9999957601728013  0.7906757925076805
  0.0000029863585240  0.4999957601728013  0.7906757925076805
  0.5000029863585240  0.4999957601728013  0.7906757925076805
  0.1666593144384194  0.1666712391589513  0.6959594644635670
  0.6666593144384194  0.1666712391589513  0.6959594644635670
  0.1666593144384194  0.6666712391589513  0.6959594644635670
  0.6666593144384194  0.6666712391589513  0.6959594644635670
  0.3333337427874241  0.3333330497713831  0.3040420512394310
  0.8333337427874241  0.3333330497713831  0.3040420512394310
  0.3333337427874241  0.8333330497713831  0.3040420512394310
  0.8333337427874241  0.8333330497713831  0.3040420512394310
  0.0000016290779499  0.9999973158783106  0.2093267202088398
  0.5000016290779499  0.9999973158783106  0.2093267202088398
  0.0000016290779499  0.4999973158783106  0.2093267202088398
  0.5000016290779499  0.4999973158783106  0.2093267202088398
  0.9999997700756822  0.0000007479629147  0.5000012749999243
  0.4999997700756822  0.0000007479629147  0.5000012749999243
  0.9999997700756822  0.5000007479629147  0.5000012749999243
  0.4999997700756822  0.5000007479629147  0.5000012749999243
  0.1666667030917992  0.1666670821612684  0.4018076436763727
  0.6666667030917992  0.1666670821612684  0.4018076436763727
  0.1666667030917992  0.6666670821612684  0.4018076436763727
  0.6666667030917992  0.6666670821612684  0.4018076436763727
  0.3333324135283320  0.3333345598654205  0.5981889222255228
  0.8333324135283320  0.3333345598654205  0.5981889222255228
  0.3333324135283320  0.8333345598654205  0.5981889222255228
  0.8333324135283320  0.8333345598654205  0.5981889222255228
  0.1666671124286978  0.1666665060177692  0.2519761325711374
  0.6666671124286978  0.1666665060177692  0.2519761325711374
  0.1666671124286978  0.6666665060177692  0.2519761325711374
  0.6666671124286978  0.6666665060177692  0.2519761325711374
  0.3333340850923037  0.3333333062881465  0.7480252639991318
  0.8333340850923037  0.3333333062881465  0.7480252639991318
  0.3333340850923037  0.8333333062881465  0.7480252639991318
  0.8333340850923037  0.8333333062881465  0.7480252639991318
 
  0.00000000E+00  0.00000000E+00  0.00000000E+00
  0.00000000E+00  0.00000000E+00  0.00000000E+00
  0.00000000E+00  0.00000000E+00  0.00000000E+00
  0.00000000E+00  0.00000000E+00  0.00000000E+00
  0.00000000E+00  0.00000000E+00  0.00000000E+00
  0.00000000E+00  0.00000000E+00  0.00000000E+00
  0.00000000E+00  0.00000000E+00  0.00000000E+00
  0.00000000E+00  0.00000000E+00  0.00000000E+00
  0.00000000E+00  0.00000000E+00  0.00000000E+00
  0.00000000E+00  0.00000000E+00  0.00000000E+00
  0.00000000E+00  0.00000000E+00  0.00000000E+00
  0.00000000E+00  0.00000000E+00  0.00000000E+00
  0.00000000E+00  0.00000000E+00  0.00000000E+00
  0.00000000E+00  0.00000000E+00  0.00000000E+00
  0.00000000E+00  0.00000000E+00  0.00000000E+00
  0.00000000E+00  0.00000000E+00  0.00000000E+00
  0.00000000E+00  0.00000000E+00  0.00000000E+00
  0.00000000E+00  0.00000000E+00  0.00000000E+00
  0.00000000E+00  0.00000000E+00  0.00000000E+00
  0.00000000E+00  0.00000000E+00  0.00000000E+00
  0.00000000E+00  0.00000000E+00  0.00000000E+00
  0.00000000E+00  0.00000000E+00  0.00000000E+00
  0.00000000E+00  0.00000000E+00  0.00000000E+00
  0.00000000E+00  0.00000000E+00  0.00000000E+00
  0.00000000E+00  0.00000000E+00  0.00000000E+00
  0.00000000E+00  0.00000000E+00  0.00000000E+00
  0.00000000E+00  0.00000000E+00  0.00000000E+00
  0.00000000E+00  0.00000000E+00  0.00000000E+00
  0.00000000E+00  0.00000000E+00  0.00000000E+00
  0.00000000E+00  0.00000000E+00  0.00000000E+00
  0.00000000E+00  0.00000000E+00  0.00000000E+00
  0.00000000E+00  0.00000000E+00  0.00000000E+00
  0.00000000E+00  0.00000000E+00  0.00000000E+00
  0.00000000E+00  0.00000000E+00  0.00000000E+00
  0.00000000E+00  0.00000000E+00  0.00000000E+00
  0.00000000E+00  0.00000000E+00  0.00000000E+00
  0.00000000E+00  0.00000000E+00  0.00000000E+00
  0.00000000E+00  0.00000000E+00  0.00000000E+00
  0.00000000E+00  0.00000000E+00  0.00000000E+00
  0.00000000E+00  0.00000000E+00  0.00000000E+00
  0.00000000E+00  0.00000000E+00  0.00000000E+00
  0.00000000E+00  0.00000000E+00  0.00000000E+00
  0.00000000E+00  0.00000000E+00  0.00000000E+00
  0.00000000E+00  0.00000000E+00  0.00000000E+00
  0.00000000E+00  0.00000000E+00  0.00000000E+00
  0.00000000E+00  0.00000000E+00  0.00000000E+00
  0.00000000E+00  0.00000000E+00  0.00000000E+00
  0.00000000E+00  0.00000000E+00  0.00000000E+00
  0.00000000E+00  0.00000000E+00  0.00000000E+00
  0.00000000E+00  0.00000000E+00  0.00000000E+00
  0.00000000E+00  0.00000000E+00  0.00000000E+00
  0.00000000E+00  0.00000000E+00  0.00000000E+00
