CONTCAR\(2)                             
   1.00000000000000     
    11.3158998488999991    0.0000000000000000    0.0000000000000000
     0.0000000000000000   12.4995002747000008    0.0000000000000000
     0.0000000000000000    0.0000000000000000   18.9974002838000011
   Ta   Te   Ir   O 
     6    24     6     1
Direct
  0.9998817679270915  0.0518567585045993  0.5046865060389516
  0.1662541859529826  0.7278561779506213  0.4960895958368831
  0.3346895515949824  0.0500634962753058  0.5036305820208814
  0.5003553455052488  0.7321558622482797  0.4963707834629268
  0.6662255935602386  0.0504910338881701  0.5038343365110060
  0.8333027476548275  0.7278280416290855  0.4958687977521468
  0.1684910892655675  0.1044290473547500  0.6055697011120640
  0.9999226650176438  0.8465189745374293  0.5791419231475392
  0.0000392316088798  0.6734640905281483  0.3946441292941047
  0.1673555013454159  0.4322909160055727  0.4304374078618229
  0.1664661210884655  0.9321782310067345  0.4223810304954250
  0.0001239241972778  0.1917164807419391  0.3980623162489267
  0.9993937192840359  0.3434103151379960  0.5709174252445530
  0.1654109108218564  0.5861153136968389  0.6015313654207144
  0.5001748900109195  0.1037985162071359  0.6058422329501708
  0.3347219477616396  0.8432994841572585  0.5793461520410018
  0.3331915094745143  0.6751262921487483  0.3949346503537763
  0.4997842624665897  0.4364153887168317  0.4323181020379709
  0.5004132991357579  0.9323343251891202  0.4188165909403643
  0.3339904500500788  0.1944898231659331  0.4005934480609066
  0.3345227443307006  0.3472617983065167  0.5730490759322632
  0.4987044538305475  0.5812484740205974  0.6076909830629956
  0.8316714796605322  0.1049038053498797  0.6058277583419885
  0.6659609190171669  0.8438549191233847  0.5793041390571472
  0.6671761743521574  0.6752599362166248  0.3944659080936044
  0.8320019933553464  0.4316560861132456  0.4305375715013268
  0.8336207952761466  0.9320860640507752  0.4222973211382554
  0.6656350809132273  0.1945809698783815  0.4005996201918295
  0.6634924714739219  0.3488588130027365  0.5736254456399627
  0.8335945262935328  0.5862858408016801  0.6015136369117612
  0.9995611049651542  0.5337762741351151  0.5034071200178728
  0.1658399942351980  0.2426268090930396  0.4968073900189025
  0.3324477773286520  0.5379061787796625  0.5047944091769319
  0.4997980154436238  0.2448908086975071  0.4985905180400604
  0.6672868289222063  0.5382448042174025  0.5044137834130804
  0.8337177686036511  0.2420051239048986  0.4966478524651997
  0.5050989672742041  0.4344345552180680  0.6424703921647006
 
  0.00000000E+00  0.00000000E+00  0.00000000E+00
  0.00000000E+00  0.00000000E+00  0.00000000E+00
  0.00000000E+00  0.00000000E+00  0.00000000E+00
  0.00000000E+00  0.00000000E+00  0.00000000E+00
  0.00000000E+00  0.00000000E+00  0.00000000E+00
  0.00000000E+00  0.00000000E+00  0.00000000E+00
  0.00000000E+00  0.00000000E+00  0.00000000E+00
  0.00000000E+00  0.00000000E+00  0.00000000E+00
  0.00000000E+00  0.00000000E+00  0.00000000E+00
  0.00000000E+00  0.00000000E+00  0.00000000E+00
  0.00000000E+00  0.00000000E+00  0.00000000E+00
  0.00000000E+00  0.00000000E+00  0.00000000E+00
  0.00000000E+00  0.00000000E+00  0.00000000E+00
  0.00000000E+00  0.00000000E+00  0.00000000E+00
  0.00000000E+00  0.00000000E+00  0.00000000E+00
  0.00000000E+00  0.00000000E+00  0.00000000E+00
  0.00000000E+00  0.00000000E+00  0.00000000E+00
  0.00000000E+00  0.00000000E+00  0.00000000E+00
  0.00000000E+00  0.00000000E+00  0.00000000E+00
  0.00000000E+00  0.00000000E+00  0.00000000E+00
  0.00000000E+00  0.00000000E+00  0.00000000E+00
  0.00000000E+00  0.00000000E+00  0.00000000E+00
  0.00000000E+00  0.00000000E+00  0.00000000E+00
  0.00000000E+00  0.00000000E+00  0.00000000E+00
  0.00000000E+00  0.00000000E+00  0.00000000E+00
  0.00000000E+00  0.00000000E+00  0.00000000E+00
  0.00000000E+00  0.00000000E+00  0.00000000E+00
  0.00000000E+00  0.00000000E+00  0.00000000E+00
  0.00000000E+00  0.00000000E+00  0.00000000E+00
  0.00000000E+00  0.00000000E+00  0.00000000E+00
  0.00000000E+00  0.00000000E+00  0.00000000E+00
  0.00000000E+00  0.00000000E+00  0.00000000E+00
  0.00000000E+00  0.00000000E+00  0.00000000E+00
  0.00000000E+00  0.00000000E+00  0.00000000E+00
  0.00000000E+00  0.00000000E+00  0.00000000E+00
  0.00000000E+00  0.00000000E+00  0.00000000E+00
  0.00000000E+00  0.00000000E+00  0.00000000E+00
