CONTCAR\(5)                             
   1.00000000000000     
    13.9656000136999996    0.0000000000000000    0.0000000000000000
     0.0000000000000000   11.8057003021000000    0.0000000000000000
     0.0000000000000000    0.0000000000000000   25.8033008574999982
   Ti   I    N    O 
    24    24    24     1
Direct
  0.1256616686598694  0.1643218573935034  0.4731800596074270
  0.0003106650486153  0.9976522605135946  0.5288880315524175
  0.3765768662039573  0.1629581609021892  0.4735749203802852
  0.2501015127866674  0.9979083487334304  0.5291312788938503
  0.6264422740269510  0.1647482117905261  0.4729313968046321
  0.5024070273532227  0.9974983689796442  0.5290216134300194
  0.8762285683566261  0.1631383535705033  0.4725721832467774
  0.7510625205445746  0.9983625560968687  0.5282912064977842
  0.1243516648806908  0.4967125125212725  0.4727266339791804
  0.0000396656686399  0.3297095016882819  0.5279871807529578
  0.3761231473509291  0.4958255412874589  0.4722767044767838
  0.2505220947871962  0.3308469907495221  0.5278507843686756
  0.6275684017798554  0.5001773866300455  0.4717793711710221
  0.5025126888467865  0.3324086759492128  0.5270679058472798
  0.8756576715113860  0.4951323870490837  0.4718229445727183
  0.7510354486573163  0.3317139747015898  0.5275059224323161
  0.1241800237363124  0.8320142267843185  0.4740842251921557
  0.9961716296748739  0.6628196900269057  0.5257611166788151
  0.3769558229833194  0.8307350239884527  0.4752039541843202
  0.2482042619556908  0.6636776762632624  0.5253632018491229
  0.6258957475329433  0.8296759724533923  0.4742143048781464
  0.4991357361861378  0.6607713437990608  0.5318620465200797
  0.8757144467944725  0.8320065141208904  0.4726032033883092
  0.7517359156743303  0.6649877460105984  0.5287742177755503
  0.0015429022222624  0.1626803933042820  0.3874595210466384
  0.1259728345577237  0.0153337086336812  0.6143361294296221
  0.2512341956963168  0.1649685356327429  0.3880906487892424
  0.3768674946633733  0.9820929590663098  0.6147682293052593
  0.5008197717499167  0.1616270789425865  0.3877853937512473
  0.6261401341501461  0.0234672572953486  0.6137862011264380
  0.7511124630628835  0.1656405177559827  0.3870952411216251
  0.8752013824728340  0.9803024565225570  0.6140418084574603
  0.0017198610031765  0.4956240908869786  0.3864136043560392
  0.1259979050211777  0.3462373106765113  0.6135650024850619
  0.2509464622240744  0.4995291865703758  0.3873320373741194
  0.3772941222192351  0.3218434215813812  0.6130675386677169
  0.5009878016609648  0.4977285153556115  0.3862603019818013
  0.6260345297745009  0.3580434899023160  0.6122832306374331
  0.7512933800129211  0.4994443390807704  0.3861068750267474
  0.8752944441138624  0.3138481168985387  0.6134224882259387
  0.0014841981550193  0.8311756603193360  0.3875729162209252
  0.1160615363481052  0.6839158921665781  0.6266005507583724
  0.2511859989393970  0.8332421962069924  0.3890605815530507
  0.3208254537739326  0.6522847192895811  0.6233292307627095
  0.5001481516786925  0.8283471952866267  0.3893608961492792
  0.6513234778398297  0.7006742261190867  0.6189874482409284
  0.7501659538256111  0.8329822866616458  0.3875876319295867
  0.8858036803160462  0.6440741302863953  0.6130299369699876
  0.1253679499004623  0.9978358842571671  0.4887956845016069
  0.0006312074163200  0.1641098495165743  0.5134456679268457
  0.3762761894083472  0.9971182714556125  0.4893019495532170
  0.2509144053284183  0.1641780114801606  0.5135435734022782
  0.6262444275108673  0.9971599056202890  0.4885725315027656
  0.5016723400276004  0.1649651508255457  0.5131164225676960
  0.8765287493474351  0.9981125414287672  0.4878020371917208
  0.7515646622723071  0.1643851597722187  0.5129383919177627
  0.1251943075754286  0.3300682300957034  0.4877213661001117
 -0.0000132949684971  0.4963062261686299  0.5128244491476265
  0.3757148736486050  0.3311821142445483  0.4874303270322595
  0.2492526489233160  0.4967649500457037  0.5125917496733297
  0.6275896816117691  0.3311783225697290  0.4869864679617492
  0.5022063102504131  0.4963822186646836  0.5087945882259237
  0.8763056764850594  0.3303246714002662  0.4868010986818143
  0.7534527011547228  0.4978601931992360  0.5126220684725493
  0.1238227312012529  0.6637742568522955  0.4875141893712143
  0.0002760182922124  0.8313224921608848  0.5143492568052647
  0.3742757391042554  0.6637235087117832  0.4913676480637118
  0.2490305094652078  0.8309852281308399  0.5146148085577782
  0.6295414051073580  0.6637867388461143  0.4900781935264647
  0.5016496705005041  0.8302990632795586  0.5141552525696718
  0.8775987624773520  0.6644083149608988  0.4858713421008972
  0.7532307954289342  0.8316563061437773  0.5128939605105866
  0.4610184680468770  0.6315915657232439  0.5971395407873024
 
  0.00000000E+00  0.00000000E+00  0.00000000E+00
  0.00000000E+00  0.00000000E+00  0.00000000E+00
  0.00000000E+00  0.00000000E+00  0.00000000E+00
  0.00000000E+00  0.00000000E+00  0.00000000E+00
  0.00000000E+00  0.00000000E+00  0.00000000E+00
  0.00000000E+00  0.00000000E+00  0.00000000E+00
  0.00000000E+00  0.00000000E+00  0.00000000E+00
  0.00000000E+00  0.00000000E+00  0.00000000E+00
  0.00000000E+00  0.00000000E+00  0.00000000E+00
  0.00000000E+00  0.00000000E+00  0.00000000E+00
  0.00000000E+00  0.00000000E+00  0.00000000E+00
  0.00000000E+00  0.00000000E+00  0.00000000E+00
  0.00000000E+00  0.00000000E+00  0.00000000E+00
  0.00000000E+00  0.00000000E+00  0.00000000E+00
  0.00000000E+00  0.00000000E+00  0.00000000E+00
  0.00000000E+00  0.00000000E+00  0.00000000E+00
  0.00000000E+00  0.00000000E+00  0.00000000E+00
  0.00000000E+00  0.00000000E+00  0.00000000E+00
  0.00000000E+00  0.00000000E+00  0.00000000E+00
  0.00000000E+00  0.00000000E+00  0.00000000E+00
  0.00000000E+00  0.00000000E+00  0.00000000E+00
  0.00000000E+00  0.00000000E+00  0.00000000E+00
  0.00000000E+00  0.00000000E+00  0.00000000E+00
  0.00000000E+00  0.00000000E+00  0.00000000E+00
  0.00000000E+00  0.00000000E+00  0.00000000E+00
  0.00000000E+00  0.00000000E+00  0.00000000E+00
  0.00000000E+00  0.00000000E+00  0.00000000E+00
  0.00000000E+00  0.00000000E+00  0.00000000E+00
  0.00000000E+00  0.00000000E+00  0.00000000E+00
  0.00000000E+00  0.00000000E+00  0.00000000E+00
  0.00000000E+00  0.00000000E+00  0.00000000E+00
  0.00000000E+00  0.00000000E+00  0.00000000E+00
  0.00000000E+00  0.00000000E+00  0.00000000E+00
  0.00000000E+00  0.00000000E+00  0.00000000E+00
  0.00000000E+00  0.00000000E+00  0.00000000E+00
  0.00000000E+00  0.00000000E+00  0.00000000E+00
  0.00000000E+00  0.00000000E+00  0.00000000E+00
  0.00000000E+00  0.00000000E+00  0.00000000E+00
  0.00000000E+00  0.00000000E+00  0.00000000E+00
  0.00000000E+00  0.00000000E+00  0.00000000E+00
  0.00000000E+00  0.00000000E+00  0.00000000E+00
  0.00000000E+00  0.00000000E+00  0.00000000E+00
  0.00000000E+00  0.00000000E+00  0.00000000E+00
  0.00000000E+00  0.00000000E+00  0.00000000E+00
  0.00000000E+00  0.00000000E+00  0.00000000E+00
  0.00000000E+00  0.00000000E+00  0.00000000E+00
  0.00000000E+00  0.00000000E+00  0.00000000E+00
  0.00000000E+00  0.00000000E+00  0.00000000E+00
  0.00000000E+00  0.00000000E+00  0.00000000E+00
  0.00000000E+00  0.00000000E+00  0.00000000E+00
  0.00000000E+00  0.00000000E+00  0.00000000E+00
  0.00000000E+00  0.00000000E+00  0.00000000E+00
  0.00000000E+00  0.00000000E+00  0.00000000E+00
  0.00000000E+00  0.00000000E+00  0.00000000E+00
  0.00000000E+00  0.00000000E+00  0.00000000E+00
  0.00000000E+00  0.00000000E+00  0.00000000E+00
  0.00000000E+00  0.00000000E+00  0.00000000E+00
  0.00000000E+00  0.00000000E+00  0.00000000E+00
  0.00000000E+00  0.00000000E+00  0.00000000E+00
  0.00000000E+00  0.00000000E+00  0.00000000E+00
  0.00000000E+00  0.00000000E+00  0.00000000E+00
  0.00000000E+00  0.00000000E+00  0.00000000E+00
  0.00000000E+00  0.00000000E+00  0.00000000E+00
  0.00000000E+00  0.00000000E+00  0.00000000E+00
  0.00000000E+00  0.00000000E+00  0.00000000E+00
  0.00000000E+00  0.00000000E+00  0.00000000E+00
  0.00000000E+00  0.00000000E+00  0.00000000E+00
  0.00000000E+00  0.00000000E+00  0.00000000E+00
  0.00000000E+00  0.00000000E+00  0.00000000E+00
  0.00000000E+00  0.00000000E+00  0.00000000E+00
  0.00000000E+00  0.00000000E+00  0.00000000E+00
  0.00000000E+00  0.00000000E+00  0.00000000E+00
  0.00000000E+00  0.00000000E+00  0.00000000E+00
