CONTCAR\(12)                            
   1.00000000000000     
    13.2992000580000003    0.0000000000000000    0.0000000000000000
    -6.6496130274000000   11.5161678841999997    0.0000000000000000
     0.0000000000000000    0.0000000000000000   36.9292984009000023
   Bi   Te
    54    54
Direct
  0.1106620355472216  0.2216115232294982  0.6375146436104515
  0.2220611327371955  0.1113951827936361  0.3624279348336970
  0.3341666171266624  0.3339778650716596  0.2529794682517377
  0.3337912098900091  0.3340365326748724  0.7470130226758798
  0.2223358505679585  0.1112288046331571  0.5226763746911800
  0.1113836767243725  0.2226653954055706  0.4773029985724833
  0.4435682848142477  0.2215331601798169  0.6374551257570644
  0.5550681940714099  0.1106000493069956  0.3626864139716943
  0.6665810754444621  0.3332559237316062  0.2531416233572301
  0.6664305579084413  0.3330952765348414  0.7470580142268020
  0.5563814646891672  0.1124460547271227  0.5224752087579390
  0.4439115282581696  0.2220417758652431  0.4769124406243890
  0.7777859408797312  0.2216948450208776  0.6374243923441512
  0.8891834265294065  0.1113393645523431  0.3624309171403368
  0.9996922991391983  0.3339310027611759  0.2529826793024910
  0.0000649004570050  0.3341598280288451  0.7470248016667185
  0.8889921695390015  0.1115977047328229  0.5226496541042636
  0.7784721453543000  0.2230987303060346  0.4769855600128849
  0.1098855556272298  0.5544218383681070  0.6373707515937355
  0.2225748036137958  0.4452258009769210  0.3626924386086614
  0.3332045475054670  0.6666017798564710  0.2529356659466089
  0.3332918484812311  0.6667015600974153  0.7468725268888505
  0.2229468033468152  0.4447845236687442  0.5228311146548847
  0.1125848131669684  0.5565068748858195  0.4774091080828740
  0.4444531422455711  0.5544284990388775  0.6374159483435307
  0.5551879651969642  0.4452163199178614  0.3626746967655947
  0.6658795786085534  0.6657441137729023  0.2529844630531244
  0.6656636432375080  0.6658836926793867  0.7470213546519915
  0.5565251738083248  0.4441676452391050  0.5224213047272812
  0.4454618564901978  0.5561342186233844  0.4775633261133763
  0.7773772062613702  0.5547878949120317  0.6373102370366084
  0.8897694395743869  0.4451755005056697  0.3626625190647985
  0.9996857846343730  0.6657216438997295  0.2529818395965151
  0.0000758415722117  0.6659162143675204  0.7470143172255561
  0.8898212790673057  0.4453841937750624  0.5224222628636497
  0.7786603909569649  0.5564112904676293  0.4768947984500471
  0.1102823731686016  0.8883124125180970  0.6375789089735733
  0.2220917665341631  0.7781634812647908  0.3626246506430064
  0.3341996357784396  0.0002032479039613  0.2529802000017369
  0.3338693483799133  0.9996490553203117  0.7470350446334848
  0.2230982219016084  0.7784341317076127  0.5228900918963362
  0.1114426459737103  0.8888878951134274  0.4773352853267880
  0.4441398454643704  0.8887369509701983  0.6372283471747977
  0.5559531032343727  0.7782773309848281  0.3626060443636590
  0.6659200206881764  0.0001908703559579  0.2529664997299577
  0.6656642534496413  0.9997178347858764  0.7470354137166240
  0.5566158032791151  0.7782394309330414  0.5231133004404001
  0.4457509842574083  0.8894947674474238  0.4775973757484806
  0.7776562725039042  0.8884736624975318  0.6375930234382636
  0.8889772009006407  0.7782649378420174  0.3624580451466315
  0.9999989087812864  0.0000289107355513  0.2533522665225760
  0.9997279540666071  0.9996649381061928  0.7467332530148951
  0.8890305080210865  0.7777596220731624  0.5227253005448844
  0.7781488941138406  0.8892354639434288  0.4773743700360455
  0.1111022966009898  0.2224473041160238  0.7928745963501669
  0.2226945619439320  0.1115232517353633  0.2071098644033569
  0.0002221432271483  0.0006125067088121  0.4093225507586666
  0.9994164570532931  0.9992902208370111  0.5906532170307131
  0.2220441482342252  0.1107589843769574  0.6919038328103397
  0.1115174534960630  0.2230947715101905  0.3081579229416747
  0.4442802749105610  0.2220137712969716  0.7930597959281087
  0.5557800499249481  0.1117134119565009  0.2067126170965494
  0.3329928604414292  0.0002276256834577  0.4094333254123228
  0.3323840534205900  0.9995099306499924  0.5906004177688402
  0.5553624437715712  0.1107926752955279  0.6916898833513230
  0.4449501379266820  0.2228166180844084  0.3082353383090890
  0.7775584809497289  0.2220541208323752  0.7930598648560903
  0.8887863198132493  0.1115549257631940  0.2071193058749259
  0.6672361208843895  0.0004397545764974  0.4094328966445246
  0.6668301914503587  0.9996187772220537  0.5905851659927706
  0.8885894765666933  0.1108064495907612  0.6919302412489827
  0.7776323058771979  0.2226894145258242  0.3082567650922456
  0.1113407833541658  0.5555401433753460  0.7932795121550384
  0.2222256515613381  0.4445994055317399  0.2069377660874849
  0.0001968156921208  0.3334435213063713  0.4094392273896119
  0.9995386206271988  0.3324001622805639  0.5905553250289088
  0.2220206172391102  0.4443824441884630  0.6918019605022820
  0.1117960858698481  0.5562140367404780  0.3083432826451258
  0.4440034411631189  0.5555554681606552  0.7932423816805994
  0.5558819260724732  0.4444429439823665  0.2067210862673505
  0.3330744894538284  0.3334112039820738  0.4094322914780264
  0.3326608019720183  0.3322449919440729  0.5905897559152820
  0.5555091791780740  0.4436662184624822  0.6916526114904258
  0.4443270378635944  0.5562471448198565  0.3083426138590610
  0.7775515266567439  0.5552255423019758  0.7930118281299698
  0.8884003931392712  0.4443599597470822  0.2067352285227528
  0.6667817461075956  0.3337362607340495  0.4092426354997798
  0.6662960516327914  0.3325555721031108  0.5905649654637131
  0.8880374188299172  0.4436369510939357  0.6916864406509973
  0.7776125643602469  0.5553899421002200  0.3082611600323730
  0.1110900569592772  0.8882099477629595  0.7929326061304778
  0.2221827734670896  0.7777848569349217  0.2069367123593082
  0.0002597337250876  0.6675250081598207  0.4094141543942484
  0.9996450515487254  0.6663278896525853  0.5905617680120727
  0.2220870164761024  0.7771383291910965  0.6917354389294843
  0.1113262645266389  0.8889944037633768  0.3081119088131175
  0.4440386782547989  0.8881838064644896  0.7933083723134260
  0.5554789440068006  0.7778103541280856  0.2069387608061248
  0.3337664142934784  0.6673392754283967  0.4094804506361172
  0.3328144756076838  0.6657398151767708  0.5906898112499661
  0.5548631693699662  0.7771700479798227  0.6917241041551137
  0.4443521653749798  0.8888479889480010  0.3083141667268379
  0.7769818693095161  0.8881943027576540  0.7929445736947116
  0.8886495181798750  0.7773908268251475  0.2071465943375657
  0.6671285958683768  0.6675974530065716  0.4094006908443788
  0.6665896898873740  0.6662148891041895  0.5905934092824339
  0.8883293575053202  0.7768211963606433  0.6918406944246627
  0.7776613208023164  0.8890646576265553  0.3081012072992522
 
  0.00000000E+00  0.00000000E+00  0.00000000E+00
  0.00000000E+00  0.00000000E+00  0.00000000E+00
  0.00000000E+00  0.00000000E+00  0.00000000E+00
  0.00000000E+00  0.00000000E+00  0.00000000E+00
  0.00000000E+00  0.00000000E+00  0.00000000E+00
  0.00000000E+00  0.00000000E+00  0.00000000E+00
  0.00000000E+00  0.00000000E+00  0.00000000E+00
  0.00000000E+00  0.00000000E+00  0.00000000E+00
  0.00000000E+00  0.00000000E+00  0.00000000E+00
  0.00000000E+00  0.00000000E+00  0.00000000E+00
  0.00000000E+00  0.00000000E+00  0.00000000E+00
  0.00000000E+00  0.00000000E+00  0.00000000E+00
  0.00000000E+00  0.00000000E+00  0.00000000E+00
  0.00000000E+00  0.00000000E+00  0.00000000E+00
  0.00000000E+00  0.00000000E+00  0.00000000E+00
  0.00000000E+00  0.00000000E+00  0.00000000E+00
  0.00000000E+00  0.00000000E+00  0.00000000E+00
  0.00000000E+00  0.00000000E+00  0.00000000E+00
  0.00000000E+00  0.00000000E+00  0.00000000E+00
  0.00000000E+00  0.00000000E+00  0.00000000E+00
  0.00000000E+00  0.00000000E+00  0.00000000E+00
  0.00000000E+00  0.00000000E+00  0.00000000E+00
  0.00000000E+00  0.00000000E+00  0.00000000E+00
  0.00000000E+00  0.00000000E+00  0.00000000E+00
  0.00000000E+00  0.00000000E+00  0.00000000E+00
  0.00000000E+00  0.00000000E+00  0.00000000E+00
  0.00000000E+00  0.00000000E+00  0.00000000E+00
  0.00000000E+00  0.00000000E+00  0.00000000E+00
  0.00000000E+00  0.00000000E+00  0.00000000E+00
  0.00000000E+00  0.00000000E+00  0.00000000E+00
  0.00000000E+00  0.00000000E+00  0.00000000E+00
  0.00000000E+00  0.00000000E+00  0.00000000E+00
  0.00000000E+00  0.00000000E+00  0.00000000E+00
  0.00000000E+00  0.00000000E+00  0.00000000E+00
  0.00000000E+00  0.00000000E+00  0.00000000E+00
  0.00000000E+00  0.00000000E+00  0.00000000E+00
  0.00000000E+00  0.00000000E+00  0.00000000E+00
  0.00000000E+00  0.00000000E+00  0.00000000E+00
  0.00000000E+00  0.00000000E+00  0.00000000E+00
  0.00000000E+00  0.00000000E+00  0.00000000E+00
  0.00000000E+00  0.00000000E+00  0.00000000E+00
  0.00000000E+00  0.00000000E+00  0.00000000E+00
  0.00000000E+00  0.00000000E+00  0.00000000E+00
  0.00000000E+00  0.00000000E+00  0.00000000E+00
  0.00000000E+00  0.00000000E+00  0.00000000E+00
  0.00000000E+00  0.00000000E+00  0.00000000E+00
  0.00000000E+00  0.00000000E+00  0.00000000E+00
  0.00000000E+00  0.00000000E+00  0.00000000E+00
  0.00000000E+00  0.00000000E+00  0.00000000E+00
  0.00000000E+00  0.00000000E+00  0.00000000E+00
  0.00000000E+00  0.00000000E+00  0.00000000E+00
  0.00000000E+00  0.00000000E+00  0.00000000E+00
  0.00000000E+00  0.00000000E+00  0.00000000E+00
  0.00000000E+00  0.00000000E+00  0.00000000E+00
  0.00000000E+00  0.00000000E+00  0.00000000E+00
  0.00000000E+00  0.00000000E+00  0.00000000E+00
  0.00000000E+00  0.00000000E+00  0.00000000E+00
  0.00000000E+00  0.00000000E+00  0.00000000E+00
  0.00000000E+00  0.00000000E+00  0.00000000E+00
  0.00000000E+00  0.00000000E+00  0.00000000E+00
  0.00000000E+00  0.00000000E+00  0.00000000E+00
  0.00000000E+00  0.00000000E+00  0.00000000E+00
  0.00000000E+00  0.00000000E+00  0.00000000E+00
  0.00000000E+00  0.00000000E+00  0.00000000E+00
  0.00000000E+00  0.00000000E+00  0.00000000E+00
  0.00000000E+00  0.00000000E+00  0.00000000E+00
  0.00000000E+00  0.00000000E+00  0.00000000E+00
  0.00000000E+00  0.00000000E+00  0.00000000E+00
  0.00000000E+00  0.00000000E+00  0.00000000E+00
  0.00000000E+00  0.00000000E+00  0.00000000E+00
  0.00000000E+00  0.00000000E+00  0.00000000E+00
  0.00000000E+00  0.00000000E+00  0.00000000E+00
  0.00000000E+00  0.00000000E+00  0.00000000E+00
  0.00000000E+00  0.00000000E+00  0.00000000E+00
  0.00000000E+00  0.00000000E+00  0.00000000E+00
  0.00000000E+00  0.00000000E+00  0.00000000E+00
  0.00000000E+00  0.00000000E+00  0.00000000E+00
  0.00000000E+00  0.00000000E+00  0.00000000E+00
  0.00000000E+00  0.00000000E+00  0.00000000E+00
  0.00000000E+00  0.00000000E+00  0.00000000E+00
  0.00000000E+00  0.00000000E+00  0.00000000E+00
  0.00000000E+00  0.00000000E+00  0.00000000E+00
  0.00000000E+00  0.00000000E+00  0.00000000E+00
  0.00000000E+00  0.00000000E+00  0.00000000E+00
  0.00000000E+00  0.00000000E+00  0.00000000E+00
  0.00000000E+00  0.00000000E+00  0.00000000E+00
  0.00000000E+00  0.00000000E+00  0.00000000E+00
  0.00000000E+00  0.00000000E+00  0.00000000E+00
  0.00000000E+00  0.00000000E+00  0.00000000E+00
  0.00000000E+00  0.00000000E+00  0.00000000E+00
  0.00000000E+00  0.00000000E+00  0.00000000E+00
  0.00000000E+00  0.00000000E+00  0.00000000E+00
  0.00000000E+00  0.00000000E+00  0.00000000E+00
  0.00000000E+00  0.00000000E+00  0.00000000E+00
  0.00000000E+00  0.00000000E+00  0.00000000E+00
  0.00000000E+00  0.00000000E+00  0.00000000E+00
  0.00000000E+00  0.00000000E+00  0.00000000E+00
  0.00000000E+00  0.00000000E+00  0.00000000E+00
  0.00000000E+00  0.00000000E+00  0.00000000E+00
  0.00000000E+00  0.00000000E+00  0.00000000E+00
  0.00000000E+00  0.00000000E+00  0.00000000E+00
  0.00000000E+00  0.00000000E+00  0.00000000E+00
  0.00000000E+00  0.00000000E+00  0.00000000E+00
  0.00000000E+00  0.00000000E+00  0.00000000E+00
  0.00000000E+00  0.00000000E+00  0.00000000E+00
  0.00000000E+00  0.00000000E+00  0.00000000E+00
  0.00000000E+00  0.00000000E+00  0.00000000E+00
  0.00000000E+00  0.00000000E+00  0.00000000E+00
