CONTCAR\(8)                             
   1.00000000000000     
    13.0511999129999996    0.0000000000000000    0.0000000000000000
     6.3390174089000002   12.3852332663000002    0.0000000000000000
     0.0000000000000000    0.0000000000000000   23.7280006408999995
   Te   Os   Cl
     8     4    48
Direct
  0.4073895422762967  0.6747412819759235  0.3927868027217697
  0.0937634029788882  0.3196985984018802  0.6072320931404229
  0.9073895782762926  0.6747412819759235  0.3927868027217697
  0.5937633479788872  0.3196985984018802  0.6072320931404229
  0.4073895272762919  0.1747412759759231  0.3927868027217697
  0.0937633899788907  0.8196986234018787  0.6072320931404229
  0.9073895632762949  0.1747412759759231  0.3927868027217697
  0.5937634269788902  0.8196986234018787  0.6072320931404229
  0.2505188464600418  0.4972690636380565  0.5000558200911158
  0.7505188834600414  0.4972690636380565  0.5000558200911158
  0.2505188714600474  0.9972690496380624  0.5000558200911158
  0.7505188344600409  0.9972690496380624  0.5000558200911158
  0.2781400197670125  0.7403616655473380  0.3159479201923338
  0.2229697985594535  0.2540659384807771  0.6841308188771992
  0.4993082512765160  0.7796311843900032  0.3672140573064128
  0.0508015725520818  0.6037318211871200  0.4945086078496991
  0.4502672765267128  0.3909132163724336  0.5055544377950287
  0.2279705456249967  0.4386854788174062  0.5894022281823473
  0.2731745794694658  0.5558030362192721  0.4106929858804161
  0.2288197790887515  0.3554500371495283  0.4579300774782198
  0.2724425217438657  0.6390008915842802  0.5420722606067794
  0.4632605259650244  0.4745005388281571  0.6563306783869558
  0.0379489802040354  0.5199306995661360  0.3436794274260502
  0.0018445705068645  0.2148563938416847  0.6328018670652612
  0.7781400567670120  0.7403616655473380  0.3159479201923338
  0.7229698355594532  0.2540659384807771  0.6841308188771992
  0.9993082882765154  0.7796311843900032  0.3672140573064128
  0.5508015355520823  0.6037318211871200  0.4945086078496991
  0.9502672395267063  0.3909132163724336  0.5055544377950287
  0.7279705096250008  0.4386854788174062  0.5894022281823473
  0.7731745434694699  0.5558030362192721  0.4106929858804161
  0.7288197420887448  0.3554500371495283  0.4579300774782198
  0.7724424847438661  0.6390008915842802  0.5420722606067794
  0.9632605619650202  0.4745005388281571  0.6563306783869558
  0.5379489982040299  0.5199306995661360  0.3436794274260502
  0.5018445525068630  0.2148563938416847  0.6328018670652612
  0.2781400597670158  0.2403616985473370  0.3159479201923338
  0.2229698055594505  0.7540658864807800  0.6841308188771992
  0.4993082272765140  0.2796311983900044  0.3672140573064128
  0.0508015575520841  0.1037318161871161  0.4945086078496991
  0.4502673005267077  0.8909132023724325  0.5055544377950287
  0.2279705516249972  0.9386855038174119  0.5894022281823473
  0.2731745494694633  0.0558029872192716  0.4106929858804161
  0.2288197110887459  0.8554500621495266  0.4579300774782198
  0.2724424737438617  0.1390009525842817  0.5420722606067794
  0.4632604769650239  0.9745005248281560  0.6563306783869558
  0.0379489772040316  0.0199307645661379  0.3436794274260502
  0.0018445305068612  0.7148563998416781  0.6328018670652612
  0.7781400227670092  0.2403616985473370  0.3159479201923338
  0.7229698785594532  0.7540658864807800  0.6841308188771992
  0.9993081912765180  0.2796311983900044  0.3672140573064128
  0.5508015575520842  0.1037318161871161  0.4945086078496991
  0.9502673375267073  0.8909132023724325  0.5055544377950287
  0.7279704416250022  0.9386855038174119  0.5894022281823473
  0.7731745494694633  0.0558029872192716  0.4106929858804161
  0.7288197480887453  0.8554500621495266  0.4579300774782198
  0.7724424377438658  0.1390009525842817  0.5420722606067794
  0.9632605129650268  0.9745005248281560  0.6563306783869558
  0.5379489502040330  0.0199307645661379  0.3436794274260502
  0.5018445675068607  0.7148563998416781  0.6328018670652612
 
  0.00000000E+00  0.00000000E+00  0.00000000E+00
  0.00000000E+00  0.00000000E+00  0.00000000E+00
  0.00000000E+00  0.00000000E+00  0.00000000E+00
  0.00000000E+00  0.00000000E+00  0.00000000E+00
  0.00000000E+00  0.00000000E+00  0.00000000E+00
  0.00000000E+00  0.00000000E+00  0.00000000E+00
  0.00000000E+00  0.00000000E+00  0.00000000E+00
  0.00000000E+00  0.00000000E+00  0.00000000E+00
  0.00000000E+00  0.00000000E+00  0.00000000E+00
  0.00000000E+00  0.00000000E+00  0.00000000E+00
  0.00000000E+00  0.00000000E+00  0.00000000E+00
  0.00000000E+00  0.00000000E+00  0.00000000E+00
  0.00000000E+00  0.00000000E+00  0.00000000E+00
  0.00000000E+00  0.00000000E+00  0.00000000E+00
  0.00000000E+00  0.00000000E+00  0.00000000E+00
  0.00000000E+00  0.00000000E+00  0.00000000E+00
  0.00000000E+00  0.00000000E+00  0.00000000E+00
  0.00000000E+00  0.00000000E+00  0.00000000E+00
  0.00000000E+00  0.00000000E+00  0.00000000E+00
  0.00000000E+00  0.00000000E+00  0.00000000E+00
  0.00000000E+00  0.00000000E+00  0.00000000E+00
  0.00000000E+00  0.00000000E+00  0.00000000E+00
  0.00000000E+00  0.00000000E+00  0.00000000E+00
  0.00000000E+00  0.00000000E+00  0.00000000E+00
  0.00000000E+00  0.00000000E+00  0.00000000E+00
  0.00000000E+00  0.00000000E+00  0.00000000E+00
  0.00000000E+00  0.00000000E+00  0.00000000E+00
  0.00000000E+00  0.00000000E+00  0.00000000E+00
  0.00000000E+00  0.00000000E+00  0.00000000E+00
  0.00000000E+00  0.00000000E+00  0.00000000E+00
  0.00000000E+00  0.00000000E+00  0.00000000E+00
  0.00000000E+00  0.00000000E+00  0.00000000E+00
  0.00000000E+00  0.00000000E+00  0.00000000E+00
  0.00000000E+00  0.00000000E+00  0.00000000E+00
  0.00000000E+00  0.00000000E+00  0.00000000E+00
  0.00000000E+00  0.00000000E+00  0.00000000E+00
  0.00000000E+00  0.00000000E+00  0.00000000E+00
  0.00000000E+00  0.00000000E+00  0.00000000E+00
  0.00000000E+00  0.00000000E+00  0.00000000E+00
  0.00000000E+00  0.00000000E+00  0.00000000E+00
  0.00000000E+00  0.00000000E+00  0.00000000E+00
  0.00000000E+00  0.00000000E+00  0.00000000E+00
  0.00000000E+00  0.00000000E+00  0.00000000E+00
  0.00000000E+00  0.00000000E+00  0.00000000E+00
  0.00000000E+00  0.00000000E+00  0.00000000E+00
  0.00000000E+00  0.00000000E+00  0.00000000E+00
  0.00000000E+00  0.00000000E+00  0.00000000E+00
  0.00000000E+00  0.00000000E+00  0.00000000E+00
  0.00000000E+00  0.00000000E+00  0.00000000E+00
  0.00000000E+00  0.00000000E+00  0.00000000E+00
  0.00000000E+00  0.00000000E+00  0.00000000E+00
  0.00000000E+00  0.00000000E+00  0.00000000E+00
  0.00000000E+00  0.00000000E+00  0.00000000E+00
  0.00000000E+00  0.00000000E+00  0.00000000E+00
  0.00000000E+00  0.00000000E+00  0.00000000E+00
  0.00000000E+00  0.00000000E+00  0.00000000E+00
  0.00000000E+00  0.00000000E+00  0.00000000E+00
  0.00000000E+00  0.00000000E+00  0.00000000E+00
  0.00000000E+00  0.00000000E+00  0.00000000E+00
  0.00000000E+00  0.00000000E+00  0.00000000E+00
