CONTCAR\(10)                            
   1.00000000000000     
    12.0179996490000001    0.0000000000000000    0.0000000000000000
     5.5443836140000000   17.3830097696000010    0.0000000000000000
     0.0000000000000000    0.0000000000000000   18.4081001282000010
   Nb   Ir   Se   O    H 
    16     4    40     2     1
Direct
  0.3138698407983229  0.4151144609813747  0.5042513986209015
  0.3710278480059349  0.2071520306991246  0.5074596535970824
  0.0440766715067675  0.0004058479031317  0.5063586549334709
  0.0810893570398936  0.3159718122536226  0.4970733306985510
  0.8104321241512691  0.4184045808053260  0.5035013042835063
  0.8825975900666032  0.1930658743592541  0.5024542316628722
  0.5434385916722103  0.0034239498887147  0.5035787979108937
  0.5937193738190590  0.3207080296217600  0.5020209511572971
  0.3135312817261963  0.9212063798582281  0.5030123199492774
  0.3863121298442125  0.6892746250077946  0.5032269998567075
  0.0441279116954411  0.4934954137479631  0.5074934493135507
  0.1037015298054800  0.8274503127646898  0.5010154240669810
  0.8182751796115479  0.9208126173775707  0.5057796913225430
  0.8647924460380956  0.6955268921013251  0.5073914542287408
  0.5406487796652896  0.4979905171641400  0.5073123977533063
  0.5799927533839458  0.8109441532169334  0.5018629834107322
  0.2157464212206009  0.0957737374777126  0.5039217490632133
  0.7109637988444433  0.0955227767964358  0.5038929425459864
  0.2126797098167636  0.5944106027561303  0.5054513417297340
  0.7131509788409593  0.5926431693030469  0.5055535744234005
  0.1856444591176332  0.0088442211101140  0.6041199982521688
  0.0472029902511591  0.1063278680302395  0.4157442407868348
  0.2638115800438795  0.3056910402222045  0.5927536506183941
  0.1549348855908499  0.4011981801495935  0.4095343118611158
  0.3814639425632297  0.0960362921773830  0.5905658254823665
  0.2245132244925529  0.2018441628619963  0.4131484593675818
  0.4777612679415315  0.4053793528160754  0.6008318274941078
  0.3559210661088762  0.0093667857746564  0.4128095308019671
  0.0728947162068851  0.1994447032639338  0.5777700803781275
  0.4349989621762707  0.3026535254975770  0.4166101931112713
  0.6845170119639608  0.0075657198571041  0.6038176765586394
  0.5444387936315563  0.1054784698342255  0.4159121222571016
  0.7747633458193196  0.3035139276584671  0.5866201582141962
  0.6504391200280666  0.4045085909503567  0.4074599322208867
  0.8743121960692811  0.0974087543792702  0.5938350880626880
  0.7255736028645450  0.2002156486190650  0.4131556554507259
  0.9739093386915451  0.4042274958482371  0.5992078937341506
  0.8546967719866552  0.0081799953531017  0.4145487717585037
  0.5707477198799025  0.2014546085827175  0.5767847522488851
  0.9255337217784627  0.3066650156734281  0.4120765223776628
  0.1860271040206778  0.5027997458984338  0.6047370821263692
  0.0390204690488433  0.6036617963216124  0.4213972135196198
  0.2775030847089330  0.8038722377325512  0.5871073925797526
  0.1530956833715566  0.9096253820350025  0.4046359657788320
  0.3754099310880478  0.5945153022016640  0.5955482217016135
  0.2277916955471371  0.6989505732809959  0.4147209381847918
  0.4781651588099052  0.9062816310899418  0.5978402057594903
  0.3529598611724273  0.5061546450075453  0.4164781231298909
  0.0669893251911501  0.7041355258379932  0.5621936016634641
  0.4261869676874330  0.8060877782727984  0.4139951999896993
  0.6827309253538153  0.5045529905100821  0.6053420068662151
  0.5463971204689987  0.6020734348747859  0.4160055395574727
  0.7698433872901829  0.8058878868074023  0.5884899022927516
  0.6570031527351573  0.8979679940501963  0.4168687458069777
  0.8763258417561003  0.5923224885776738  0.5952869434794530
  0.7186587852386831  0.6974087489487205  0.4130669492859564
  0.9822420717095721  0.9094400764768500  0.6011229080572154
  0.8537590178073071  0.5077032508231161  0.4149020818603079
  0.5731368891507774  0.6962050291566119  0.5821787249668501
  0.9368185378019563  0.8013023150624418  0.4264005650278147
  0.0856007647055999  0.7087542114593265  0.6647756637711728
  0.0389729976780744  0.6557048070336302  0.7034864728874937
  0.1080087368984387  0.6095682987965881  0.7062499071406482
 
  0.00000000E+00  0.00000000E+00  0.00000000E+00
  0.00000000E+00  0.00000000E+00  0.00000000E+00
  0.00000000E+00  0.00000000E+00  0.00000000E+00
  0.00000000E+00  0.00000000E+00  0.00000000E+00
  0.00000000E+00  0.00000000E+00  0.00000000E+00
  0.00000000E+00  0.00000000E+00  0.00000000E+00
  0.00000000E+00  0.00000000E+00  0.00000000E+00
  0.00000000E+00  0.00000000E+00  0.00000000E+00
  0.00000000E+00  0.00000000E+00  0.00000000E+00
  0.00000000E+00  0.00000000E+00  0.00000000E+00
  0.00000000E+00  0.00000000E+00  0.00000000E+00
  0.00000000E+00  0.00000000E+00  0.00000000E+00
  0.00000000E+00  0.00000000E+00  0.00000000E+00
  0.00000000E+00  0.00000000E+00  0.00000000E+00
  0.00000000E+00  0.00000000E+00  0.00000000E+00
  0.00000000E+00  0.00000000E+00  0.00000000E+00
  0.00000000E+00  0.00000000E+00  0.00000000E+00
  0.00000000E+00  0.00000000E+00  0.00000000E+00
  0.00000000E+00  0.00000000E+00  0.00000000E+00
  0.00000000E+00  0.00000000E+00  0.00000000E+00
  0.00000000E+00  0.00000000E+00  0.00000000E+00
  0.00000000E+00  0.00000000E+00  0.00000000E+00
  0.00000000E+00  0.00000000E+00  0.00000000E+00
  0.00000000E+00  0.00000000E+00  0.00000000E+00
  0.00000000E+00  0.00000000E+00  0.00000000E+00
  0.00000000E+00  0.00000000E+00  0.00000000E+00
  0.00000000E+00  0.00000000E+00  0.00000000E+00
  0.00000000E+00  0.00000000E+00  0.00000000E+00
  0.00000000E+00  0.00000000E+00  0.00000000E+00
  0.00000000E+00  0.00000000E+00  0.00000000E+00
  0.00000000E+00  0.00000000E+00  0.00000000E+00
  0.00000000E+00  0.00000000E+00  0.00000000E+00
  0.00000000E+00  0.00000000E+00  0.00000000E+00
  0.00000000E+00  0.00000000E+00  0.00000000E+00
  0.00000000E+00  0.00000000E+00  0.00000000E+00
  0.00000000E+00  0.00000000E+00  0.00000000E+00
  0.00000000E+00  0.00000000E+00  0.00000000E+00
  0.00000000E+00  0.00000000E+00  0.00000000E+00
  0.00000000E+00  0.00000000E+00  0.00000000E+00
  0.00000000E+00  0.00000000E+00  0.00000000E+00
  0.00000000E+00  0.00000000E+00  0.00000000E+00
  0.00000000E+00  0.00000000E+00  0.00000000E+00
  0.00000000E+00  0.00000000E+00  0.00000000E+00
  0.00000000E+00  0.00000000E+00  0.00000000E+00
  0.00000000E+00  0.00000000E+00  0.00000000E+00
  0.00000000E+00  0.00000000E+00  0.00000000E+00
  0.00000000E+00  0.00000000E+00  0.00000000E+00
  0.00000000E+00  0.00000000E+00  0.00000000E+00
  0.00000000E+00  0.00000000E+00  0.00000000E+00
  0.00000000E+00  0.00000000E+00  0.00000000E+00
  0.00000000E+00  0.00000000E+00  0.00000000E+00
  0.00000000E+00  0.00000000E+00  0.00000000E+00
  0.00000000E+00  0.00000000E+00  0.00000000E+00
  0.00000000E+00  0.00000000E+00  0.00000000E+00
  0.00000000E+00  0.00000000E+00  0.00000000E+00
  0.00000000E+00  0.00000000E+00  0.00000000E+00
  0.00000000E+00  0.00000000E+00  0.00000000E+00
  0.00000000E+00  0.00000000E+00  0.00000000E+00
  0.00000000E+00  0.00000000E+00  0.00000000E+00
  0.00000000E+00  0.00000000E+00  0.00000000E+00
  0.00000000E+00  0.00000000E+00  0.00000000E+00
  0.00000000E+00  0.00000000E+00  0.00000000E+00
  0.00000000E+00  0.00000000E+00  0.00000000E+00
