CONTCAR\(13)                            
   1.00000000000000     
    10.2920999526999992    0.0000000000000000    0.0000000000000000
     1.7153529658000000    9.6351993213000000    0.0000000000000000
     0.0000000000000000    0.0000000000000000   19.1306991577000005
   Nb   Te   O 
     9    18     1
Direct
  0.9989275985819493  0.0077401549098873  0.5017235291258819
  0.1181340046562329  0.2931308203450149  0.4962748495962941
  0.2134950994550892  0.7213090867239563  0.5071126566899413
  0.3319965146182425  0.0088061462865915  0.5014330676740328
  0.4480679804998983  0.2896570375850704  0.4946162871707672
  0.5454920389424369  0.7296170496609390  0.5067488557656701
  0.6651902739512219  0.0072797492429033  0.5012705124252790
  0.7892652097887229  0.2883364339681652  0.4946259922007479
  0.8788456211608618  0.7208136204864405  0.5072970206988120
  0.1468394808326448  0.1185675888046864  0.6070424261494587
  0.1839585998953606  0.8958673169747717  0.3966392095744483
  0.2588390473359713  0.4557776528363541  0.5828004807484299
  0.0737845283737806  0.5571245532155698  0.4205092932263080
  0.0335123805765509  0.7974360614479816  0.6118037019560151
  0.2954754598514652  0.2155342993152570  0.3900336447439104
  0.4801963200985729  0.1215396907849556  0.6069896352048748
  0.5165762767802718  0.8994281894724028  0.3951095957157216
  0.5898808961813983  0.4630249264351837  0.5725922350639596
  0.4088185338801137  0.5569346646071156  0.4213581999098658
  0.3666344563117596  0.8003722362858603  0.6120351932782941
  0.6311343805536991  0.2146770497662560  0.3906425587082296
  0.8131400138126631  0.1200447349196357  0.6071664610324696
  0.8514520824353226  0.8946362337553652  0.3967043819933073
  0.9223997743721636  0.4552532308088754  0.5827535954528575
  0.7395945931364664  0.5558824575191371  0.4212547603093064
  0.7001906086086431  0.8007147487693674  0.6122813550349996
  0.9665462727574287  0.2137229718398070  0.3901306852410368
  0.5947820255510919  0.4327315642324517  0.6685198093090817
 
  0.00000000E+00  0.00000000E+00  0.00000000E+00
  0.00000000E+00  0.00000000E+00  0.00000000E+00
  0.00000000E+00  0.00000000E+00  0.00000000E+00
  0.00000000E+00  0.00000000E+00  0.00000000E+00
  0.00000000E+00  0.00000000E+00  0.00000000E+00
  0.00000000E+00  0.00000000E+00  0.00000000E+00
  0.00000000E+00  0.00000000E+00  0.00000000E+00
  0.00000000E+00  0.00000000E+00  0.00000000E+00
  0.00000000E+00  0.00000000E+00  0.00000000E+00
  0.00000000E+00  0.00000000E+00  0.00000000E+00
  0.00000000E+00  0.00000000E+00  0.00000000E+00
  0.00000000E+00  0.00000000E+00  0.00000000E+00
  0.00000000E+00  0.00000000E+00  0.00000000E+00
  0.00000000E+00  0.00000000E+00  0.00000000E+00
  0.00000000E+00  0.00000000E+00  0.00000000E+00
  0.00000000E+00  0.00000000E+00  0.00000000E+00
  0.00000000E+00  0.00000000E+00  0.00000000E+00
  0.00000000E+00  0.00000000E+00  0.00000000E+00
  0.00000000E+00  0.00000000E+00  0.00000000E+00
  0.00000000E+00  0.00000000E+00  0.00000000E+00
  0.00000000E+00  0.00000000E+00  0.00000000E+00
  0.00000000E+00  0.00000000E+00  0.00000000E+00
  0.00000000E+00  0.00000000E+00  0.00000000E+00
  0.00000000E+00  0.00000000E+00  0.00000000E+00
  0.00000000E+00  0.00000000E+00  0.00000000E+00
  0.00000000E+00  0.00000000E+00  0.00000000E+00
  0.00000000E+00  0.00000000E+00  0.00000000E+00
  0.00000000E+00  0.00000000E+00  0.00000000E+00
