CONTCAR\(12)                            
   1.00000000000000     
    13.2992000580000003    0.0000000000000000    0.0000000000000000
    -6.6496130274000000   11.5161678841999997    0.0000000000000000
     0.0000000000000000    0.0000000000000000   36.9292984009000023
   Bi   Te
    54    54
Direct
  0.1106620355472243  0.2216115232295003  0.6375146436104537
  0.2220611327371924  0.1113951827936377  0.3624279348336961
  0.3341666171266615  0.3339778650716622  0.2529794682517353
  0.3337912098900088  0.3340365326748745  0.7470130226758820
  0.2223358505679594  0.1112288046331542  0.5226763746911814
  0.1113836767243694  0.2226653954055707  0.4773029985724838
  0.4435682848142464  0.2215331601798183  0.6374551257570636
  0.5550681940714065  0.1106000493069951  0.3626864139716908
  0.6665810754444629  0.3332559237316075  0.2531416233572301
  0.6664305579084425  0.3330952765348399  0.7470580142268010
  0.5563814646891638  0.1124460547271241  0.5224752087579393
  0.4439115282581712  0.2220417758652418  0.4769124406243898
  0.7777859408797325  0.2216948450208742  0.6374243923441538
  0.8891834265294084  0.1113393645523402  0.3624309171403340
  0.9996922991392012  0.3339310027611740  0.2529826793024942
  0.0000649004570052  0.3341598280288470  0.7470248016667164
  0.8889921695390045  0.1115977047328224  0.5226496541042615
  0.7784721453543009  0.2230987303060345  0.4769855600128830
  0.1098855556272268  0.5544218383681060  0.6373707515937354
  0.2225748036137969  0.4452258009769187  0.3626924386086583
  0.3332045475054672  0.6666017798564743  0.2529356659466072
  0.3332918484812321  0.6667015600974164  0.7468725268888504
  0.2229468033468120  0.4447845236687432  0.5228311146548872
  0.1125848131669682  0.5565068748858208  0.4774091080828747
  0.4444531422455736  0.5544284990388799  0.6374159483435272
  0.5551879651969648  0.4452163199178630  0.3626746967655920
  0.6658795786085503  0.6657441137729043  0.2529844630531212
  0.6656636432375074  0.6658836926793847  0.7470213546519922
  0.5565251738083223  0.4441676452391063  0.5224213047272797
  0.4454618564901996  0.5561342186233839  0.4775633261133754
  0.7773772062613689  0.5547878949120308  0.6373102370366105
  0.8897694395743868  0.4451755005056710  0.3626625190647998
  0.9996857846343750  0.6657216438997330  0.2529818395965126
  0.0000758415722141  0.6659162143675219  0.7470143172255562
  0.8898212790673090  0.4453841937750618  0.5224222628636487
  0.7786603909569658  0.5564112904676292  0.4768947984500447
  0.1102823731686021  0.8883124125181004  0.6375789089735712
  0.2220917665341662  0.7781634812647940  0.3626246506430063
  0.3341996357784369  0.0002032479039610  0.2529802000017362
  0.3338693483799138 -0.0003509446796869  0.7470350446334826
  0.2230982219016103  0.7784341317076148  0.5228900918963392
  0.1114426459737086  0.8888878951134277  0.4773352853267911
  0.4441398454643718  0.8887369509701986  0.6372283471747998
  0.5559531032343696  0.7782773309848300  0.3626060443636583
  0.6659200206881731  0.0001908703559602  0.2529664997299597
  0.6656642534496431 -0.0002821652141230  0.7470354137166237
  0.5566158032791130  0.7782394309330380  0.5231133004404032
  0.4457509842574098  0.8894947674474215  0.4775973757484827
  0.7776562725039037  0.8884736624975310  0.6375930234382665
  0.8889772009006420  0.7782649378420186  0.3624580451466325
 -0.0000010912187130  0.0000289107355513  0.2533522665225764
 -0.0002720459333903 -0.0003350618938076  0.7467332530148928
  0.8890305080210843  0.7777596220731647  0.5227253005448832
  0.7781488941138376  0.8892354639434263  0.4773743700360447
  0.1111022966009918  0.2224473041160210  0.7928745963501670
  0.2226945619439339  0.1115232517353634  0.2071098644033538
  0.0002221432271518  0.0006125067088133  0.4093225507586653
 -0.0005835429467077 -0.0007097791629916  0.5906532170307159
  0.2220441482342249  0.1107589843769562  0.6919038328103403
  0.1115174534960661  0.2230947715101920  0.3081579229416738
  0.4442802749105635  0.2220137712969706  0.7930597959281114
  0.5557800499249469  0.1117134119564997  0.2067126170965503
  0.3329928604414266  0.0002276256834575  0.4094333254123261
  0.3323840534205916 -0.0004900693500064  0.5906004177688424
  0.5553624437715680  0.1107926752955258  0.6916898833513205
  0.4449501379266814  0.2228166180844075  0.3082353383090918
  0.7775584809497265  0.2220541208323774  0.7930598648560899
  0.8887863198132462  0.1115549257631958  0.2071193058749270
  0.6672361208843869  0.0004397545764997  0.4094328966445244
  0.6668301914503606 -0.0003812227779445  0.5905851659927672
  0.8885894765666925  0.1108064495907586  0.6919302412489827
  0.7776323058771983  0.2226894145258275  0.3082567650922473
  0.1113407833541656  0.5555401433753449  0.7932795121550370
  0.2222256515613364  0.4445994055317384  0.2069377660874859
  0.0001968156921199  0.3334435213063731  0.4094392273896122
 -0.0004613793728046  0.3324001622805624  0.5905553250289096
  0.2220206172391067  0.4443824441884637  0.6918019605022842
  0.1117960858698465  0.5562140367404771  0.3083432826451224
  0.4440034411631203  0.5555554681606536  0.7932423816805986
  0.5558819260724717  0.4444429439823644  0.2067210862673518
  0.3330744894538277  0.3334112039820724  0.4094322914780231
  0.3326608019720197  0.3322449919440696  0.5905897559152827
  0.5555091791780773  0.4436662184624799  0.6916526114904252
  0.4443270378635951  0.5562471448198535  0.3083426138590581
  0.7775515266567412  0.5552255423019746  0.7930118281299686
  0.8884003931392703  0.4443599597470841  0.2067352285227550
  0.6667817461075921  0.3337362607340493  0.4092426354997789
  0.6662960516327938  0.3325555721031086  0.5905649654637156
  0.8880374188299189  0.4436369510939348  0.6916864406509995
  0.7776125643602497  0.5553899421002176  0.3082611600323696
  0.1110900569592771  0.8882099477629581  0.7929326061304807
  0.2221827734670875  0.7777848569349203  0.2069367123593048
  0.0002597337250904  0.6675250081598195  0.4094141543942507
 -0.0003549484512770  0.6663278896525836  0.5905617680120702
  0.2220870164761049  0.7771383291910989  0.6917354389294826
  0.1113262645266418  0.8889944037633770  0.3081119088131146
  0.4440386782547970  0.8881838064644874  0.7933083723134285
  0.5554789440068021  0.7778103541280836  0.2069387608061215
  0.3337664142934801  0.6673392754283954  0.4094804506361137
  0.3328144756076842  0.6657398151767681  0.5906898112499630
  0.5548631693699648  0.7771700479798233  0.6917241041551153
  0.4443521653749784  0.8888479889480019  0.3083141667268346
  0.7769818693095180  0.8881943027576543  0.7929445736947105
  0.8886495181798721  0.7773908268251480  0.2071465943375655
  0.6671285958683779  0.6675974530065732  0.4094006908443763
  0.6665896898873740  0.6662148891041878  0.5905934092824342
  0.8883293575053235  0.7768211963606467  0.6918406944246656
  0.7776613208023165  0.8890646576265546  0.3081012072992548
 
  0.00000000E+00  0.00000000E+00  0.00000000E+00
  0.00000000E+00  0.00000000E+00  0.00000000E+00
  0.00000000E+00  0.00000000E+00  0.00000000E+00
  0.00000000E+00  0.00000000E+00  0.00000000E+00
  0.00000000E+00  0.00000000E+00  0.00000000E+00
  0.00000000E+00  0.00000000E+00  0.00000000E+00
  0.00000000E+00  0.00000000E+00  0.00000000E+00
  0.00000000E+00  0.00000000E+00  0.00000000E+00
  0.00000000E+00  0.00000000E+00  0.00000000E+00
  0.00000000E+00  0.00000000E+00  0.00000000E+00
  0.00000000E+00  0.00000000E+00  0.00000000E+00
  0.00000000E+00  0.00000000E+00  0.00000000E+00
  0.00000000E+00  0.00000000E+00  0.00000000E+00
  0.00000000E+00  0.00000000E+00  0.00000000E+00
  0.00000000E+00  0.00000000E+00  0.00000000E+00
  0.00000000E+00  0.00000000E+00  0.00000000E+00
  0.00000000E+00  0.00000000E+00  0.00000000E+00
  0.00000000E+00  0.00000000E+00  0.00000000E+00
  0.00000000E+00  0.00000000E+00  0.00000000E+00
  0.00000000E+00  0.00000000E+00  0.00000000E+00
  0.00000000E+00  0.00000000E+00  0.00000000E+00
  0.00000000E+00  0.00000000E+00  0.00000000E+00
  0.00000000E+00  0.00000000E+00  0.00000000E+00
  0.00000000E+00  0.00000000E+00  0.00000000E+00
  0.00000000E+00  0.00000000E+00  0.00000000E+00
  0.00000000E+00  0.00000000E+00  0.00000000E+00
  0.00000000E+00  0.00000000E+00  0.00000000E+00
  0.00000000E+00  0.00000000E+00  0.00000000E+00
  0.00000000E+00  0.00000000E+00  0.00000000E+00
  0.00000000E+00  0.00000000E+00  0.00000000E+00
  0.00000000E+00  0.00000000E+00  0.00000000E+00
  0.00000000E+00  0.00000000E+00  0.00000000E+00
  0.00000000E+00  0.00000000E+00  0.00000000E+00
  0.00000000E+00  0.00000000E+00  0.00000000E+00
  0.00000000E+00  0.00000000E+00  0.00000000E+00
  0.00000000E+00  0.00000000E+00  0.00000000E+00
  0.00000000E+00  0.00000000E+00  0.00000000E+00
  0.00000000E+00  0.00000000E+00  0.00000000E+00
  0.00000000E+00  0.00000000E+00  0.00000000E+00
  0.00000000E+00  0.00000000E+00  0.00000000E+00
  0.00000000E+00  0.00000000E+00  0.00000000E+00
  0.00000000E+00  0.00000000E+00  0.00000000E+00
  0.00000000E+00  0.00000000E+00  0.00000000E+00
  0.00000000E+00  0.00000000E+00  0.00000000E+00
  0.00000000E+00  0.00000000E+00  0.00000000E+00
  0.00000000E+00  0.00000000E+00  0.00000000E+00
  0.00000000E+00  0.00000000E+00  0.00000000E+00
  0.00000000E+00  0.00000000E+00  0.00000000E+00
  0.00000000E+00  0.00000000E+00  0.00000000E+00
  0.00000000E+00  0.00000000E+00  0.00000000E+00
  0.00000000E+00  0.00000000E+00  0.00000000E+00
  0.00000000E+00  0.00000000E+00  0.00000000E+00
  0.00000000E+00  0.00000000E+00  0.00000000E+00
  0.00000000E+00  0.00000000E+00  0.00000000E+00
  0.00000000E+00  0.00000000E+00  0.00000000E+00
  0.00000000E+00  0.00000000E+00  0.00000000E+00
  0.00000000E+00  0.00000000E+00  0.00000000E+00
  0.00000000E+00  0.00000000E+00  0.00000000E+00
  0.00000000E+00  0.00000000E+00  0.00000000E+00
  0.00000000E+00  0.00000000E+00  0.00000000E+00
  0.00000000E+00  0.00000000E+00  0.00000000E+00
  0.00000000E+00  0.00000000E+00  0.00000000E+00
  0.00000000E+00  0.00000000E+00  0.00000000E+00
  0.00000000E+00  0.00000000E+00  0.00000000E+00
  0.00000000E+00  0.00000000E+00  0.00000000E+00
  0.00000000E+00  0.00000000E+00  0.00000000E+00
  0.00000000E+00  0.00000000E+00  0.00000000E+00
  0.00000000E+00  0.00000000E+00  0.00000000E+00
  0.00000000E+00  0.00000000E+00  0.00000000E+00
  0.00000000E+00  0.00000000E+00  0.00000000E+00
  0.00000000E+00  0.00000000E+00  0.00000000E+00
  0.00000000E+00  0.00000000E+00  0.00000000E+00
  0.00000000E+00  0.00000000E+00  0.00000000E+00
  0.00000000E+00  0.00000000E+00  0.00000000E+00
  0.00000000E+00  0.00000000E+00  0.00000000E+00
  0.00000000E+00  0.00000000E+00  0.00000000E+00
  0.00000000E+00  0.00000000E+00  0.00000000E+00
  0.00000000E+00  0.00000000E+00  0.00000000E+00
  0.00000000E+00  0.00000000E+00  0.00000000E+00
  0.00000000E+00  0.00000000E+00  0.00000000E+00
  0.00000000E+00  0.00000000E+00  0.00000000E+00
  0.00000000E+00  0.00000000E+00  0.00000000E+00
  0.00000000E+00  0.00000000E+00  0.00000000E+00
  0.00000000E+00  0.00000000E+00  0.00000000E+00
  0.00000000E+00  0.00000000E+00  0.00000000E+00
  0.00000000E+00  0.00000000E+00  0.00000000E+00
  0.00000000E+00  0.00000000E+00  0.00000000E+00
  0.00000000E+00  0.00000000E+00  0.00000000E+00
  0.00000000E+00  0.00000000E+00  0.00000000E+00
  0.00000000E+00  0.00000000E+00  0.00000000E+00
  0.00000000E+00  0.00000000E+00  0.00000000E+00
  0.00000000E+00  0.00000000E+00  0.00000000E+00
  0.00000000E+00  0.00000000E+00  0.00000000E+00
  0.00000000E+00  0.00000000E+00  0.00000000E+00
  0.00000000E+00  0.00000000E+00  0.00000000E+00
  0.00000000E+00  0.00000000E+00  0.00000000E+00
  0.00000000E+00  0.00000000E+00  0.00000000E+00
  0.00000000E+00  0.00000000E+00  0.00000000E+00
  0.00000000E+00  0.00000000E+00  0.00000000E+00
  0.00000000E+00  0.00000000E+00  0.00000000E+00
  0.00000000E+00  0.00000000E+00  0.00000000E+00
  0.00000000E+00  0.00000000E+00  0.00000000E+00
  0.00000000E+00  0.00000000E+00  0.00000000E+00
  0.00000000E+00  0.00000000E+00  0.00000000E+00
  0.00000000E+00  0.00000000E+00  0.00000000E+00
  0.00000000E+00  0.00000000E+00  0.00000000E+00
  0.00000000E+00  0.00000000E+00  0.00000000E+00
  0.00000000E+00  0.00000000E+00  0.00000000E+00
