CONTCAR\(2)                             
   1.00000000000000     
    13.0193004608000003    0.0000000000000000    0.0000000000000000
    -1.6274128543999999    9.0662962906000004    0.0000000000000000
     0.0000000000000000    0.0000000000000000   18.6888999939000016
   Nb   Pd   S    O    H 
     8     4    24     1     1
Selective dynamics
Direct
  0.0345801127703709  0.2917125071271087  0.4801029807862349   F   F   F
  0.2148358521302711  0.7082554897481259  0.5248543694137737   F   F   F
  0.2855686420300430  0.2998411718420613  0.4815419326515027   F   F   F
  0.4615494539748681  0.7047234285205306  0.5292453828155885   F   F   F
  0.5355722114713402  0.3008530988216407  0.4824291224434205   F   F   F
  0.7104710093259570  0.7041247210536881  0.5295088598110667   F   F   F
  0.7849653304338489  0.2997038345953911  0.4821862384280138   F   F   F
  0.9579886339187951  0.7078341580237080  0.5266348688169913   F   F   F
  0.1232461086475709  0.9998213322082421  0.5043889135171966   F   F   F
  0.3738901470809282  0.0030024874055741  0.5045484661619852   F   F   F
  0.6234773842876464  0.0026648615237548  0.5057717525450869   F   F   F
  0.8723506288932157  0.0003875766906347  0.5047734915952944   F   F   F
  0.0952314778273617  0.7868536033694014  0.4345530094047234   F   F   F
  0.1502295754441150  0.2149871170108639  0.5736304637063157   F   F   F
  0.0619678165696982  0.5134650906669265  0.5649493121556688   F   F   F
  0.1822604561950243  0.4849260647173921  0.4350787652850201   F   F   F
  0.1446033232874697  0.1593957177761567  0.4057893857787107   F   F   F
  0.1031326310685472  0.8384634786811702  0.6026168403327929   F   F   F
  0.3486274437669081  0.7883929510555490  0.4342120551210513   F   F   F
  0.3998860723603457  0.2170319108747307  0.5745954281580694   F   F   F
  0.3098705684746150  0.5181095825557307  0.5746014103859878   F   F   F
  0.4332849248953110  0.4870800693504478  0.4375838337758893   F   F   F
  0.3939864062791827  0.1643847048971310  0.4066696944631190   F   F   F
  0.3533123004725738  0.8425105754285269  0.6029378966264574   F   F   F
  0.5960155894793289  0.7876085272913897  0.4366245360940155   F   F   F
  0.6507554234755943  0.2179490719278760  0.5751766342042473   F   F   F
  0.5622729623991489  0.5182281292230257  0.5751397574792989   F   F   F
  0.6843393455490556  0.4865267878850403  0.4375791103198239   F   F   F
  0.6428647857234893  0.1633690786973148  0.4073688203870987   F   F   F
  0.6030890343262527  0.8422600599855485  0.6042582422096601   F   F   F
  0.8437030992942169  0.7863154688149336  0.4349075463053609   F   F   F
  0.9001053949122806  0.2148279814419567  0.5739869516647715   F   F   F
  0.8141043415477611  0.5183427211220106  0.5745822853300950   F   F   F
  0.9361788125336190  0.4860150568018611  0.4368632211475258   F   F   F
  0.8909355946956765  0.1595924680346386  0.4060845487743379   F   F   F
  0.8526531973073403  0.8418968442075965  0.6039365327416775   F   F   F
  0.0639836284248645  0.4978724820623057  0.6533166574247815   T   T   T
  0.1322105867253640  0.4726801175600031  0.6652077162808516   T   T   T
 
  0.00000000E+00  0.00000000E+00  0.00000000E+00
  0.00000000E+00  0.00000000E+00  0.00000000E+00
  0.00000000E+00  0.00000000E+00  0.00000000E+00
  0.00000000E+00  0.00000000E+00  0.00000000E+00
  0.00000000E+00  0.00000000E+00  0.00000000E+00
  0.00000000E+00  0.00000000E+00  0.00000000E+00
  0.00000000E+00  0.00000000E+00  0.00000000E+00
  0.00000000E+00  0.00000000E+00  0.00000000E+00
  0.00000000E+00  0.00000000E+00  0.00000000E+00
  0.00000000E+00  0.00000000E+00  0.00000000E+00
  0.00000000E+00  0.00000000E+00  0.00000000E+00
  0.00000000E+00  0.00000000E+00  0.00000000E+00
  0.00000000E+00  0.00000000E+00  0.00000000E+00
  0.00000000E+00  0.00000000E+00  0.00000000E+00
  0.00000000E+00  0.00000000E+00  0.00000000E+00
  0.00000000E+00  0.00000000E+00  0.00000000E+00
  0.00000000E+00  0.00000000E+00  0.00000000E+00
  0.00000000E+00  0.00000000E+00  0.00000000E+00
  0.00000000E+00  0.00000000E+00  0.00000000E+00
  0.00000000E+00  0.00000000E+00  0.00000000E+00
  0.00000000E+00  0.00000000E+00  0.00000000E+00
  0.00000000E+00  0.00000000E+00  0.00000000E+00
  0.00000000E+00  0.00000000E+00  0.00000000E+00
  0.00000000E+00  0.00000000E+00  0.00000000E+00
  0.00000000E+00  0.00000000E+00  0.00000000E+00
  0.00000000E+00  0.00000000E+00  0.00000000E+00
  0.00000000E+00  0.00000000E+00  0.00000000E+00
  0.00000000E+00  0.00000000E+00  0.00000000E+00
  0.00000000E+00  0.00000000E+00  0.00000000E+00
  0.00000000E+00  0.00000000E+00  0.00000000E+00
  0.00000000E+00  0.00000000E+00  0.00000000E+00
  0.00000000E+00  0.00000000E+00  0.00000000E+00
  0.00000000E+00  0.00000000E+00  0.00000000E+00
  0.00000000E+00  0.00000000E+00  0.00000000E+00
  0.00000000E+00  0.00000000E+00  0.00000000E+00
  0.00000000E+00  0.00000000E+00  0.00000000E+00
  0.00000000E+00  0.00000000E+00  0.00000000E+00
  0.00000000E+00  0.00000000E+00  0.00000000E+00
