CONTCAR\(6)                             
   1.00000000000000     
    13.4492998122999996    0.0000000000000000    0.0000000000000000
     0.0000000000000000   13.4492998122999996    0.0000000000000000
     0.0000000000000000    0.0000000000000000   22.2562007904000012
   Ta   Se   O 
    64    32     1
Direct
  0.1243349301722317  0.9992464987423519  0.6071736158761480
  0.9987614221907449  0.1249661622152001  0.3931748291762587
  0.9987043471890052  0.1249231236267011  0.5345529197657214
  0.1237717697668263 -0.0000973568941037  0.4660211027338627
  0.3747223609342631  0.9985566812886558  0.6071399669351222
  0.2488797239942533  0.1249304267983820  0.3934294941738857
  0.2488391760000578  0.1249187792551734  0.5343695728177221
  0.3738858610331517 -0.0001181822527666  0.4660249932202684
  0.6229407754489373  0.9987087970189148  0.6071961160103533
  0.4988531803255576  0.1250467405131515  0.3929527159352275
  0.4988326158957595  0.1249871081312958  0.5343736934089860
  0.6237506508062888 -0.0000677262748411  0.4660014481432355
  0.8730811840384812  0.9992822053798500  0.6072008317266232
  0.7487700344134027  0.1249857783288637  0.3933824269270331
  0.7487396517809466  0.1249693314925751  0.5344419839144096
  0.8736918017637776 -0.0000591267841208  0.4660063963827747
  0.1243476783042389  0.2504102886426635  0.6069471005967708
  0.9987299406898111  0.3749670323811760  0.3933647260677519
  0.9986803929793053  0.3749716215972069  0.5343472952229692
  0.1237732118378352  0.2499674565593288  0.4659188491745729
  0.3747782523715458  0.2511696806933731  0.6070007504151361
  0.2491680515204761  0.3754675728395691  0.3933215640103707
  0.2494251679476415  0.3757161518097187  0.5343927970985283
  0.3738721982121819  0.2500890995089682  0.4659499651509269
  0.6229496022804880  0.2511964938076141  0.6071756300441602
  0.4987531573224615  0.3752506737579600  0.3926386799456056
  0.4987825587560155  0.3760170646459206  0.5342621722183262
  0.6237652364686467  0.2501211079218161  0.4659744248259094
  0.8730656402666366  0.2505287695287235  0.6070957488559906
  0.7484083070012216  0.3754859929596355  0.3933799542270651
  0.7480279780703568  0.3756795267899675  0.5345649592423547
  0.8736646632325474  0.2500128847260621  0.4659423187065669
  0.1248820192481338  0.5008839676553831  0.6070358452623575
  0.9987059440974418  0.6249407974465788  0.3929990996755156
  0.9986458676363423  0.6249925365695629  0.5344139584137396
  0.1237460268677844  0.5000977744516031  0.4659431741374090
  0.3787443358120977  0.5049907329524627  0.6083007277513320
  0.2488570913670441  0.6250559532044005  0.3926163998266008
  0.2496528152062559  0.6250350163749375  0.5343105793239381
  0.3733051704801161  0.4996921274560595  0.4650381027912124
  0.6187247017263070  0.5049204884562366  0.6084184379056233
  0.4987402874994777  0.6251049941787347  0.3913580008212535
  0.4987351901860790  0.6250496782905772  0.5313268700802078
  0.6241176829403797  0.4996681924173583  0.4651131479005210
  0.8723214394412075  0.5007493040425285  0.6071144767053638
  0.7486497533316522  0.6250523302187236  0.3926987669008479
  0.7477708446368072  0.6250108574724479  0.5343357773652826
  0.8736145721426474  0.5000594993701251  0.4660034086341750
  0.1249286750606896  0.7491408914157571  0.6072533647107570
  0.9986766026209147  0.8750151010450566  0.3935087823395251
  0.9986892386393064  0.8749686030783016  0.5345206204441888
  0.1237767668579305  0.7499605374966126  0.4660351768959857
  0.3786412143449261  0.7450058709076932  0.6084657448354641
  0.2491997162943954  0.8746477299571891  0.3934162686428523
  0.2494572754706325  0.8742466736998827  0.5345997007484755
  0.3733704519975749  0.7504324716779833  0.4651053490446821
  0.6187936249066568  0.7450393004127672  0.6084433526922484
  0.4988612686751948  0.8749617901026772  0.3926608837798185
  0.4988141699991510  0.8740319255826272  0.5343493567552040
  0.6241675364343140  0.7504147248478940  0.4651318503207871
  0.8723067187899201  0.7492274143616293  0.6072228305873500
  0.7484227301686740  0.8746827513394385  0.3933765827645218
  0.7480464568889291  0.8743170363219823  0.5346500241554354
  0.8736159266371012  0.7499642293875645  0.4660485957458631
  0.9988233210517142  0.1249879588181362  0.6631097940565619
  0.1239482005779594 -0.0001239774185980  0.3369966604688576
  0.2494874026315324  0.1250197718213492  0.6630672316065859
  0.3738755863948109  0.0001881731513466  0.3367516582825165
  0.4988359567849689  0.1250103508460928  0.6632780137681215
  0.6238669582591487  0.0003225178989051  0.3366751121783242
  0.7481827958041525  0.1250160784640315  0.6632451321048893
  0.8737208161918301 -0.0000698069532899  0.3369199479666150
  0.9988145668003356  0.3753740332203738  0.6630510487120068
  0.1239741790336000  0.2500391813630463  0.3370067805595783
  0.2504472606844210  0.3765924515579631  0.6628158513795867
  0.3737396289182472  0.2498349751171929  0.3367739627082058
  0.4988106424348630  0.3746610205464972  0.6646006782711369
  0.6238267794836113  0.2499168490478729  0.3367967892129581
  0.7470865621947109  0.3764900743600826  0.6632798874747609
  0.8735288769890572  0.2500639270761775  0.3369257439761106
  0.9986517654346226  0.6249952604512404  0.6632223931421630
  0.1236132885481142  0.5000450377775321  0.3367007597070930
  0.2483692061471081  0.6250500270247077  0.6645567017845837
  0.3735046078344044  0.5000858745639731  0.3357484639360116
  0.4983199520703148  0.6246094714364921  0.6737829114651490
  0.6239315243372641  0.5001345790444053  0.3358053836483566
  0.7487171980210506  0.6250862017064347  0.6646089164692017
  0.8738959160283611  0.4999910141837306  0.3367201465235256
  0.9987477489479549  0.8742336332955440  0.6633424428433174
  0.1236188436739159  0.7500363710527991  0.3369116829039160
  0.2504028185935688  0.8733513571198401  0.6632986840687333
  0.3735892359055045  0.7502297185197747  0.3358217818671891
  0.4988818215345466  0.8750688182689129  0.6647091672899818
  0.6239296240491576  0.7502394442178955  0.3358633275774571
  0.7470068493253357  0.8733770071466048  0.6634778545478663
  0.8738259613043152  0.7500263009434270  0.3367748256049693
  0.4961103555883513  0.6222142013817831  0.7508342539845799
 
  0.00000000E+00  0.00000000E+00  0.00000000E+00
  0.00000000E+00  0.00000000E+00  0.00000000E+00
  0.00000000E+00  0.00000000E+00  0.00000000E+00
  0.00000000E+00  0.00000000E+00  0.00000000E+00
  0.00000000E+00  0.00000000E+00  0.00000000E+00
  0.00000000E+00  0.00000000E+00  0.00000000E+00
  0.00000000E+00  0.00000000E+00  0.00000000E+00
  0.00000000E+00  0.00000000E+00  0.00000000E+00
  0.00000000E+00  0.00000000E+00  0.00000000E+00
  0.00000000E+00  0.00000000E+00  0.00000000E+00
  0.00000000E+00  0.00000000E+00  0.00000000E+00
  0.00000000E+00  0.00000000E+00  0.00000000E+00
  0.00000000E+00  0.00000000E+00  0.00000000E+00
  0.00000000E+00  0.00000000E+00  0.00000000E+00
  0.00000000E+00  0.00000000E+00  0.00000000E+00
  0.00000000E+00  0.00000000E+00  0.00000000E+00
  0.00000000E+00  0.00000000E+00  0.00000000E+00
  0.00000000E+00  0.00000000E+00  0.00000000E+00
  0.00000000E+00  0.00000000E+00  0.00000000E+00
  0.00000000E+00  0.00000000E+00  0.00000000E+00
  0.00000000E+00  0.00000000E+00  0.00000000E+00
  0.00000000E+00  0.00000000E+00  0.00000000E+00
  0.00000000E+00  0.00000000E+00  0.00000000E+00
  0.00000000E+00  0.00000000E+00  0.00000000E+00
  0.00000000E+00  0.00000000E+00  0.00000000E+00
  0.00000000E+00  0.00000000E+00  0.00000000E+00
  0.00000000E+00  0.00000000E+00  0.00000000E+00
  0.00000000E+00  0.00000000E+00  0.00000000E+00
  0.00000000E+00  0.00000000E+00  0.00000000E+00
  0.00000000E+00  0.00000000E+00  0.00000000E+00
  0.00000000E+00  0.00000000E+00  0.00000000E+00
  0.00000000E+00  0.00000000E+00  0.00000000E+00
  0.00000000E+00  0.00000000E+00  0.00000000E+00
  0.00000000E+00  0.00000000E+00  0.00000000E+00
  0.00000000E+00  0.00000000E+00  0.00000000E+00
  0.00000000E+00  0.00000000E+00  0.00000000E+00
  0.00000000E+00  0.00000000E+00  0.00000000E+00
  0.00000000E+00  0.00000000E+00  0.00000000E+00
  0.00000000E+00  0.00000000E+00  0.00000000E+00
  0.00000000E+00  0.00000000E+00  0.00000000E+00
  0.00000000E+00  0.00000000E+00  0.00000000E+00
  0.00000000E+00  0.00000000E+00  0.00000000E+00
  0.00000000E+00  0.00000000E+00  0.00000000E+00
  0.00000000E+00  0.00000000E+00  0.00000000E+00
  0.00000000E+00  0.00000000E+00  0.00000000E+00
  0.00000000E+00  0.00000000E+00  0.00000000E+00
  0.00000000E+00  0.00000000E+00  0.00000000E+00
  0.00000000E+00  0.00000000E+00  0.00000000E+00
  0.00000000E+00  0.00000000E+00  0.00000000E+00
  0.00000000E+00  0.00000000E+00  0.00000000E+00
  0.00000000E+00  0.00000000E+00  0.00000000E+00
  0.00000000E+00  0.00000000E+00  0.00000000E+00
  0.00000000E+00  0.00000000E+00  0.00000000E+00
  0.00000000E+00  0.00000000E+00  0.00000000E+00
  0.00000000E+00  0.00000000E+00  0.00000000E+00
  0.00000000E+00  0.00000000E+00  0.00000000E+00
  0.00000000E+00  0.00000000E+00  0.00000000E+00
  0.00000000E+00  0.00000000E+00  0.00000000E+00
  0.00000000E+00  0.00000000E+00  0.00000000E+00
  0.00000000E+00  0.00000000E+00  0.00000000E+00
  0.00000000E+00  0.00000000E+00  0.00000000E+00
  0.00000000E+00  0.00000000E+00  0.00000000E+00
  0.00000000E+00  0.00000000E+00  0.00000000E+00
  0.00000000E+00  0.00000000E+00  0.00000000E+00
  0.00000000E+00  0.00000000E+00  0.00000000E+00
  0.00000000E+00  0.00000000E+00  0.00000000E+00
  0.00000000E+00  0.00000000E+00  0.00000000E+00
  0.00000000E+00  0.00000000E+00  0.00000000E+00
  0.00000000E+00  0.00000000E+00  0.00000000E+00
  0.00000000E+00  0.00000000E+00  0.00000000E+00
  0.00000000E+00  0.00000000E+00  0.00000000E+00
  0.00000000E+00  0.00000000E+00  0.00000000E+00
  0.00000000E+00  0.00000000E+00  0.00000000E+00
  0.00000000E+00  0.00000000E+00  0.00000000E+00
  0.00000000E+00  0.00000000E+00  0.00000000E+00
  0.00000000E+00  0.00000000E+00  0.00000000E+00
  0.00000000E+00  0.00000000E+00  0.00000000E+00
  0.00000000E+00  0.00000000E+00  0.00000000E+00
  0.00000000E+00  0.00000000E+00  0.00000000E+00
  0.00000000E+00  0.00000000E+00  0.00000000E+00
  0.00000000E+00  0.00000000E+00  0.00000000E+00
  0.00000000E+00  0.00000000E+00  0.00000000E+00
  0.00000000E+00  0.00000000E+00  0.00000000E+00
  0.00000000E+00  0.00000000E+00  0.00000000E+00
  0.00000000E+00  0.00000000E+00  0.00000000E+00
  0.00000000E+00  0.00000000E+00  0.00000000E+00
  0.00000000E+00  0.00000000E+00  0.00000000E+00
  0.00000000E+00  0.00000000E+00  0.00000000E+00
  0.00000000E+00  0.00000000E+00  0.00000000E+00
  0.00000000E+00  0.00000000E+00  0.00000000E+00
  0.00000000E+00  0.00000000E+00  0.00000000E+00
  0.00000000E+00  0.00000000E+00  0.00000000E+00
  0.00000000E+00  0.00000000E+00  0.00000000E+00
  0.00000000E+00  0.00000000E+00  0.00000000E+00
  0.00000000E+00  0.00000000E+00  0.00000000E+00
  0.00000000E+00  0.00000000E+00  0.00000000E+00
  0.00000000E+00  0.00000000E+00  0.00000000E+00
