CONTCAR\(2)                             
   1.00000000000000     
    11.2229003905999996    0.0000000000000000    0.0000000000000000
    -5.6095795793000001    9.7230512306999994    0.0000000000000000
     0.0000000000000000    0.0000000000000000   22.2192001342999994
   Er   Re   O 
     4     8    33
Direct
  0.5450129053210672  0.5093941984345982  0.4951754522541149
  0.9399318153376728  0.5168371726983986  0.4976156918503709
  0.4713379320041772  0.9287630284901598  0.5258576081032361
  0.0253407323613558  0.0535691114632032  0.5099845726051585
  0.3752537099803795  0.1887113036760090  0.5994474004247877
  0.1905463613410134  0.3994911866906568  0.4124592447007800
  0.8199042937315032  0.1908023774503604  0.5940739145885644
  0.6186733405205159  0.2517233569977640  0.4126526436266708
  0.2714329744112338  0.5674059182580772  0.5937967060722539
  0.1562567751629257  0.8391217923094157  0.4200738838182891
  0.8289854332783626  0.6955457863288068  0.5697454802939846
  0.6797014418977874  0.8319834633669098  0.4174072134148722
  0.4973538444181207  0.3493194918069950  0.5679146226578728
  0.1071384428006751  0.4834989419876987  0.4437581931032273
  0.3693019045323540  0.4904341490000296  0.4277649072806632
  0.3662084073468864  0.1977239657656754  0.6765539514049627
  0.1645668634215723  0.3850805693259504  0.3358060814640594
  0.2130662761868383  0.1386460277633696  0.5653807773922600
  0.4177335209037595  0.0600417877248449  0.5794616898094100
  0.1176050969481515  0.2332141736696115  0.4447289109214643
  0.8153918211751616  0.3283506210163732  0.5565075797860649
  0.5269298281885622  0.3369402090359093  0.4325659265473970
  0.7969456278560583  0.3630066850468756  0.4246140808778958
  0.8369621427429700  0.2171042418624609  0.6707215350844346
  0.5889513884798232  0.2038462290850707  0.3381423471001617
  0.6661865574570589  0.0338117054804731  0.5770029599422198
  0.9599249873586675  0.1773243497203089  0.5638293422837648
  0.5615584131248147  0.1031279066201271  0.4588217275858001
  0.3724774193705628  0.7497999708465873  0.5872154107999751
  0.1074683123744915  0.9576428462065856  0.4478529025610772
  0.2825937310838687  0.8443514789512724  0.4706976568535082
  0.2619675279292766  0.5185128183031051  0.6678864728174345
  0.2279876373041867  0.8917471816834311  0.3496423284889100
  0.1043182549869509  0.5133446431551244  0.5661226322918792
  0.3509771616024486  0.4933853338158125  0.5507552081468409
  0.0125118014339789  0.6698140792488582  0.4179544612865082
  0.9197054606022080  0.8829028740002610  0.5701514224861117
  0.5452604673356054  0.8296665388239192  0.4612739885057769
  0.8397205602075213  0.9550122292856028  0.4500863618882490
  0.7989992694991390  0.6361131041092277  0.6424628109636433
  0.6721870971913523  0.8832053118632499  0.3450901488009161
  0.7555905837699811  0.5404403042481436  0.5123449750074207
  0.9919182435131745  0.6979607224748817  0.5490829075992816
  0.6592064997235352  0.6647387453098136  0.4167482102232479
  0.6648473587822206  0.6902916155979674  0.5480376852845100
 
  0.00000000E+00  0.00000000E+00  0.00000000E+00
  0.00000000E+00  0.00000000E+00  0.00000000E+00
  0.00000000E+00  0.00000000E+00  0.00000000E+00
  0.00000000E+00  0.00000000E+00  0.00000000E+00
  0.00000000E+00  0.00000000E+00  0.00000000E+00
  0.00000000E+00  0.00000000E+00  0.00000000E+00
  0.00000000E+00  0.00000000E+00  0.00000000E+00
  0.00000000E+00  0.00000000E+00  0.00000000E+00
  0.00000000E+00  0.00000000E+00  0.00000000E+00
  0.00000000E+00  0.00000000E+00  0.00000000E+00
  0.00000000E+00  0.00000000E+00  0.00000000E+00
  0.00000000E+00  0.00000000E+00  0.00000000E+00
  0.00000000E+00  0.00000000E+00  0.00000000E+00
  0.00000000E+00  0.00000000E+00  0.00000000E+00
  0.00000000E+00  0.00000000E+00  0.00000000E+00
  0.00000000E+00  0.00000000E+00  0.00000000E+00
  0.00000000E+00  0.00000000E+00  0.00000000E+00
  0.00000000E+00  0.00000000E+00  0.00000000E+00
  0.00000000E+00  0.00000000E+00  0.00000000E+00
  0.00000000E+00  0.00000000E+00  0.00000000E+00
  0.00000000E+00  0.00000000E+00  0.00000000E+00
  0.00000000E+00  0.00000000E+00  0.00000000E+00
  0.00000000E+00  0.00000000E+00  0.00000000E+00
  0.00000000E+00  0.00000000E+00  0.00000000E+00
  0.00000000E+00  0.00000000E+00  0.00000000E+00
  0.00000000E+00  0.00000000E+00  0.00000000E+00
  0.00000000E+00  0.00000000E+00  0.00000000E+00
  0.00000000E+00  0.00000000E+00  0.00000000E+00
  0.00000000E+00  0.00000000E+00  0.00000000E+00
  0.00000000E+00  0.00000000E+00  0.00000000E+00
  0.00000000E+00  0.00000000E+00  0.00000000E+00
  0.00000000E+00  0.00000000E+00  0.00000000E+00
  0.00000000E+00  0.00000000E+00  0.00000000E+00
  0.00000000E+00  0.00000000E+00  0.00000000E+00
  0.00000000E+00  0.00000000E+00  0.00000000E+00
  0.00000000E+00  0.00000000E+00  0.00000000E+00
  0.00000000E+00  0.00000000E+00  0.00000000E+00
  0.00000000E+00  0.00000000E+00  0.00000000E+00
  0.00000000E+00  0.00000000E+00  0.00000000E+00
  0.00000000E+00  0.00000000E+00  0.00000000E+00
  0.00000000E+00  0.00000000E+00  0.00000000E+00
  0.00000000E+00  0.00000000E+00  0.00000000E+00
  0.00000000E+00  0.00000000E+00  0.00000000E+00
  0.00000000E+00  0.00000000E+00  0.00000000E+00
  0.00000000E+00  0.00000000E+00  0.00000000E+00
