CONTCAR\(5)                             
   1.00000000000000     
    11.7456998825000003    0.0000000000000000    0.0000000000000000
     0.0000000000000000   17.6870002747000008    0.0000000000000000
     0.0000000000000000    0.0000000000000000   19.5771007537999999
   Ti   Ge   Te   O 
     6     6    36     1
Direct
  0.0845413404270821  0.4779408463690281  0.5131302492640303
  0.2554116001008850  0.9560793883681713  0.4920439723226576
  0.4163369014766426  0.4767279149920827  0.5123853025260352
  0.5817168356703736  0.9554836801823249  0.4921020642782890
  0.7424971270154578  0.4758902442107240  0.5131919154875980
  0.9191079066418337  0.9540106651844429  0.4910834652764626
  0.2567528577553179  0.8046418062284842  0.4864810145724411
  0.0965578642135656  0.6285853303016337  0.5240523342533659
  0.5861534722311967  0.8046393024524238  0.4802600764510925
  0.4231355155098896  0.6277713289526274  0.5242547735779112
  0.9223192931769596  0.8044266612441178  0.4824262229047795
  0.7787152161856604  0.6213555192258168  0.5066646247215254
  0.0846421058872552  0.9248759518030905  0.3851564318542313
  0.2479351244023651  0.2548730211670515  0.5718872544847845
  0.2529321541967389  0.0638492053449035  0.3823420797726368
  0.0869329793539701  0.8997115315042229  0.5882929051026393
  0.2488778473520208  0.5056537863394490  0.6191692869833992
  0.0844073417026858  0.3668792781191579  0.6183276241938764
  0.0855585935334947  0.1752772922231544  0.4276893341453048
  0.2578629791558223  0.7046516762922481  0.5953410332020334
  0.0914942573306737  0.7279272202031779  0.4152435593088152
  0.2487134946375480  0.3786799620838898  0.4569567354890629
  0.0850990646072161  0.0537130422330210  0.5447210280884243
  0.2510208247794241  0.5333761576288073  0.4159765781158087
  0.4171884158137583  0.9246357230570981  0.3854723295932335
  0.5818342360123318  0.2538646871567988  0.5726299755485178
  0.5820690660080952  0.0648274276674237  0.3826891343930081
  0.4252210708212169  0.9073237224975808  0.5954931671056889
  0.5816553318277763  0.5060725416117147  0.6195910878917262
  0.4154163223581980  0.3645609521249179  0.6178822626167373
  0.4178788767913551  0.1820474731620056  0.4044718123696065
  0.5789157314754916  0.7167420941933628  0.5961587785983690
  0.4188276324515113  0.7252205777579629  0.4136334438057883
  0.5802421847159632  0.3756714654696681  0.4572073880785285
  0.4141976979354263  0.0565362168552805  0.5460353905016321
  0.5821397635948299  0.5299926108516503  0.4143744788738700
  0.7527795942108659  0.9257086741757896  0.3850745383379902
  0.9146333016528672  0.2582118204944341  0.5659474885933855
  0.9186154786286759  0.0610693865348683  0.3833313028870719
  0.7530755215846708  0.8998947137531186  0.5877262254066994
  0.9128777782035365  0.5061805680539063  0.6177625096199599
  0.7459190869054331  0.3670148043324615  0.6191060654018615
  0.7508830979566145  0.1749085405210550  0.4265073171371186
  0.9175742590219665  0.7024456609341604  0.5892137547395548
  0.7517468966907371  0.7311634126430900  0.4100998584389565
  0.9135346312970049  0.3804121632700034  0.4593784741467418
  0.7511038411817973  0.0535090269096993  0.5447877454926841
  0.9206464514013429  0.5407415790348028  0.4165393976711678
  0.4624613111144434  0.7823231372830480  0.6329363853729304
 
  0.00000000E+00  0.00000000E+00  0.00000000E+00
  0.00000000E+00  0.00000000E+00  0.00000000E+00
  0.00000000E+00  0.00000000E+00  0.00000000E+00
  0.00000000E+00  0.00000000E+00  0.00000000E+00
  0.00000000E+00  0.00000000E+00  0.00000000E+00
  0.00000000E+00  0.00000000E+00  0.00000000E+00
  0.00000000E+00  0.00000000E+00  0.00000000E+00
  0.00000000E+00  0.00000000E+00  0.00000000E+00
  0.00000000E+00  0.00000000E+00  0.00000000E+00
  0.00000000E+00  0.00000000E+00  0.00000000E+00
  0.00000000E+00  0.00000000E+00  0.00000000E+00
  0.00000000E+00  0.00000000E+00  0.00000000E+00
  0.00000000E+00  0.00000000E+00  0.00000000E+00
  0.00000000E+00  0.00000000E+00  0.00000000E+00
  0.00000000E+00  0.00000000E+00  0.00000000E+00
  0.00000000E+00  0.00000000E+00  0.00000000E+00
  0.00000000E+00  0.00000000E+00  0.00000000E+00
  0.00000000E+00  0.00000000E+00  0.00000000E+00
  0.00000000E+00  0.00000000E+00  0.00000000E+00
  0.00000000E+00  0.00000000E+00  0.00000000E+00
  0.00000000E+00  0.00000000E+00  0.00000000E+00
  0.00000000E+00  0.00000000E+00  0.00000000E+00
  0.00000000E+00  0.00000000E+00  0.00000000E+00
  0.00000000E+00  0.00000000E+00  0.00000000E+00
  0.00000000E+00  0.00000000E+00  0.00000000E+00
  0.00000000E+00  0.00000000E+00  0.00000000E+00
  0.00000000E+00  0.00000000E+00  0.00000000E+00
  0.00000000E+00  0.00000000E+00  0.00000000E+00
  0.00000000E+00  0.00000000E+00  0.00000000E+00
  0.00000000E+00  0.00000000E+00  0.00000000E+00
  0.00000000E+00  0.00000000E+00  0.00000000E+00
  0.00000000E+00  0.00000000E+00  0.00000000E+00
  0.00000000E+00  0.00000000E+00  0.00000000E+00
  0.00000000E+00  0.00000000E+00  0.00000000E+00
  0.00000000E+00  0.00000000E+00  0.00000000E+00
  0.00000000E+00  0.00000000E+00  0.00000000E+00
  0.00000000E+00  0.00000000E+00  0.00000000E+00
  0.00000000E+00  0.00000000E+00  0.00000000E+00
  0.00000000E+00  0.00000000E+00  0.00000000E+00
  0.00000000E+00  0.00000000E+00  0.00000000E+00
  0.00000000E+00  0.00000000E+00  0.00000000E+00
  0.00000000E+00  0.00000000E+00  0.00000000E+00
  0.00000000E+00  0.00000000E+00  0.00000000E+00
  0.00000000E+00  0.00000000E+00  0.00000000E+00
  0.00000000E+00  0.00000000E+00  0.00000000E+00
  0.00000000E+00  0.00000000E+00  0.00000000E+00
  0.00000000E+00  0.00000000E+00  0.00000000E+00
  0.00000000E+00  0.00000000E+00  0.00000000E+00
  0.00000000E+00  0.00000000E+00  0.00000000E+00
