CONTCAR\(8)                             
   1.00000000000000     
    13.7044000625999995    0.0000000000000000    0.0000000000000000
     6.8522000312999998   11.8683585978000004    0.0000000000000000
     0.0000000000000000    0.0000000000000000   18.4445991515999985
   Cr   Ge   Te
     8     8    24
Direct
  0.1666699969999996  0.1666699920000028  0.4998245256684019
  0.3333299900000029  0.3333299990000000  0.5001754743315981
  0.6666700319999990  0.1666699920000028  0.4998245256684019
  0.8333299199999971  0.3333299990000000  0.5001754743315981
  0.1666699539999996  0.6666700419999998  0.4998245256684019
  0.3333299580000002  0.8333299589999967  0.5001754743315981
  0.6666699889999990  0.6666700419999998  0.4998245256684019
  0.8333299230000009  0.8333299589999967  0.5001754743315981
  0.0000000000000000 -0.0000000000000000  0.4345400957587642
  0.0000000000000000 -0.0000000000000000  0.5654699342412344
  0.5000000000000000 -0.0000000000000000  0.4345400957587642
  0.5000000000000000 -0.0000000000000000  0.5654699342412344
  0.0000000000000000  0.5000000009999965  0.4345400957587642
  0.0000000000000000  0.5000000009999965  0.5654699342412344
  0.5000000169999979  0.5000000009999965  0.4345400957587642
  0.5000000169999979  0.5000000009999965  0.5654699342412344
  0.3128426211407745  0.0002080368514590  0.5942841432377677
  0.0002080338514552  0.1869493340077729  0.5942841432377677
  0.1869493240077721  0.3128426351407756  0.5942841432377677
  0.1871673718592245  0.4997719411485399  0.4057158567622323
  0.4997719841485399  0.3130606699922306  0.4057158567622323
  0.3130606529922327  0.1871673698592244  0.4057158567622323
  0.8128427261407726  0.0002080368514590  0.5942841432377677
  0.5002080338514552  0.1869493340077729  0.5942841432377677
  0.6869492890077727  0.3128426351407756  0.5942841432377677
  0.6871673718592245  0.4997719411485399  0.4057158567622323
  0.9997720191485464  0.3130606699922306  0.4057158567622323
  0.8130606869922284  0.1871673698592244  0.4057158567622323
  0.3128426311407753  0.5002080518514567  0.5942841432377677
  0.0002079958514592  0.6869493750077728  0.5942841432377677
  0.1869493460077739  0.8128426961407701  0.5942841432377677
  0.1871673688592278  0.9997719821485398  0.4057158567622323
  0.4997719671485421  0.8130606709922271  0.4057158567622323
  0.3130606449922321  0.6871673498592298  0.4057158567622323
  0.8128427011407741  0.5002080518514567  0.5942841432377677
  0.5002079958514591  0.6869493750077728  0.5942841432377677
  0.6869493110077675  0.8128426961407701  0.5942841432377677
  0.6871673348592250  0.9997719821485398  0.4057158567622323
  0.9997720711485436  0.8130606709922271  0.4057158567622323
  0.8130606799922314  0.6871673498592298  0.4057158567622323
 
  0.00000000E+00  0.00000000E+00  0.00000000E+00
  0.00000000E+00  0.00000000E+00  0.00000000E+00
  0.00000000E+00  0.00000000E+00  0.00000000E+00
  0.00000000E+00  0.00000000E+00  0.00000000E+00
  0.00000000E+00  0.00000000E+00  0.00000000E+00
  0.00000000E+00  0.00000000E+00  0.00000000E+00
  0.00000000E+00  0.00000000E+00  0.00000000E+00
  0.00000000E+00  0.00000000E+00  0.00000000E+00
  0.00000000E+00  0.00000000E+00  0.00000000E+00
  0.00000000E+00  0.00000000E+00  0.00000000E+00
  0.00000000E+00  0.00000000E+00  0.00000000E+00
  0.00000000E+00  0.00000000E+00  0.00000000E+00
  0.00000000E+00  0.00000000E+00  0.00000000E+00
  0.00000000E+00  0.00000000E+00  0.00000000E+00
  0.00000000E+00  0.00000000E+00  0.00000000E+00
  0.00000000E+00  0.00000000E+00  0.00000000E+00
  0.00000000E+00  0.00000000E+00  0.00000000E+00
  0.00000000E+00  0.00000000E+00  0.00000000E+00
  0.00000000E+00  0.00000000E+00  0.00000000E+00
  0.00000000E+00  0.00000000E+00  0.00000000E+00
  0.00000000E+00  0.00000000E+00  0.00000000E+00
  0.00000000E+00  0.00000000E+00  0.00000000E+00
  0.00000000E+00  0.00000000E+00  0.00000000E+00
  0.00000000E+00  0.00000000E+00  0.00000000E+00
  0.00000000E+00  0.00000000E+00  0.00000000E+00
  0.00000000E+00  0.00000000E+00  0.00000000E+00
  0.00000000E+00  0.00000000E+00  0.00000000E+00
  0.00000000E+00  0.00000000E+00  0.00000000E+00
  0.00000000E+00  0.00000000E+00  0.00000000E+00
  0.00000000E+00  0.00000000E+00  0.00000000E+00
  0.00000000E+00  0.00000000E+00  0.00000000E+00
  0.00000000E+00  0.00000000E+00  0.00000000E+00
  0.00000000E+00  0.00000000E+00  0.00000000E+00
  0.00000000E+00  0.00000000E+00  0.00000000E+00
  0.00000000E+00  0.00000000E+00  0.00000000E+00
  0.00000000E+00  0.00000000E+00  0.00000000E+00
  0.00000000E+00  0.00000000E+00  0.00000000E+00
  0.00000000E+00  0.00000000E+00  0.00000000E+00
  0.00000000E+00  0.00000000E+00  0.00000000E+00
  0.00000000E+00  0.00000000E+00  0.00000000E+00
