CONTCAR\(13)                            
   1.00000000000000     
    11.2263002396000005    0.0000000000000000    0.0000000000000000
     0.0000000000000000   21.7961997986000000    0.0000000000000000
     0.0000000000000000    0.0000000000000000   19.3752994536999985
   Ta   Te   Pd   O    H 
     9    42     9     2     1
Direct
  0.1668527459590773  0.4771245031511957  0.4999157717172712
  0.1654474197811586  0.1228385071516628  0.5006296032900084
  0.1658236229211640  0.7753031325056376  0.5130703628858769
  0.4999718071388831  0.4781175098578659  0.4992583271686846
  0.4999724512319358  0.1240956575238975  0.5097424699769774
  0.5000499220128606  0.7756063382307711  0.5131595659809742
  0.8330805922011463  0.4771310937505783  0.4999597297859373
  0.8345112003709773  0.1228051441594408  0.5006250758910007
  0.8341371431755542  0.7753040271185657  0.5131336315072450
 -0.0000953793105383  0.4083009187754758  0.4213585253773849
  0.1665898685645719  0.2401782777570761  0.4279996970468181
  0.1630162664011298  0.8891511686699324  0.5872547948896455
 -0.0000489762637941  0.8419336452643661  0.4317936128887850
 -0.0000281747756792  0.5496940227490281  0.4250383331171971
  0.0000240627496108  0.4824899838099393  0.6126611823986301
  0.1655362504127134  0.0038518694551309  0.4308259617834809
 -0.0000122260810369  0.0543708618548807  0.5812750908442865
  0.1672558797974921  0.5938908318342331  0.5715938720756844
  0.9999790082902836  0.1956578229760464  0.5762307720069341
  0.1659640227859516  0.6982612917068979  0.4047272946007251
  0.0000037617444685  0.1203341474699195  0.3882381173270323
  0.0000321401248639  0.7400436216930779  0.6112977770713034
  0.1677560056997347  0.3602942573576137  0.5748257413610497
  0.3336112418477524  0.4107499463000087  0.4182924645696288
  0.4999816265228253  0.2389848986002458  0.4272982714060763
  0.5000261950159827  0.8898194426082572  0.5864410606207746
  0.3333378064928467  0.8430463627659153  0.4324262680516567
  0.3326774739868641  0.5514362253140760  0.4253501851650137
  0.3340703081347990  0.4817482614696241  0.6122039897030723
  0.5000077047045717  0.0050450881193909  0.4371125933657087
  0.3259196354060368  0.0507000081923439  0.5801659235670620
  0.4999532362583654  0.5940007438068995  0.5721383021260849
  0.3281515925181995  0.2025484162954505  0.5734705453029347
  0.4999512878685456  0.6989691753600014  0.4047556416747350
  0.3386794791159729  0.1204190705223972  0.3921582824807697
  0.3330694981450413  0.7410524045500930  0.6111899943346072
  0.4999889184641420  0.3619468172210382  0.5743792172540980
  0.6663176204512635  0.4107653534935442  0.4183325828747880
  0.8333231549004668  0.2401586093565496  0.4280156061393565
  0.8369939626320688  0.8891574394429782  0.5873276564499846
  0.6667202062110403  0.8429988664899773  0.4323779557725485
  0.6672924662154015  0.5514584382273036  0.4254053804224444
  0.6658808070737080  0.4817082850385271  0.6122456657848215
  0.8344301397415560  0.0037965209523641  0.4308200010489141
  0.6740455998321039  0.0506548500990394  0.5801523219215129
  0.8327808192607241  0.5938824550676706  0.5716585045723777
  0.6717927940161192  0.2025376472343534  0.5734584836630380
  0.8339855677357639  0.6982454476666096  0.4047634216975059
  0.6613320129766355  0.1203852707332683  0.3921685008735936
  0.6669777332237478  0.7409759340855097  0.6112439737072181
  0.8321689460421844  0.3602769431161748  0.5748326860890298
 -0.0000091500559524  0.9461748991051616  0.5077852330627456
  0.9999563866314163  0.3012334600828319  0.5000326837497827
 -0.0000124869444372  0.6611206315304874  0.5008245683282245
  0.3300153120868917  0.9454430015438247  0.5089943675767579
  0.3334868217460216  0.3037258430858217  0.4964598975247240
  0.3335437156724662  0.6617967335522822  0.5011629887047810
  0.6699892045707503  0.9454159971010410  0.5089789321853810
  0.6664357842182681  0.3037167649103906  0.4964753117592422
  0.6664419661211013  0.6617936475183176  0.5011866186199879
  0.5000817395798837  0.1519961185303565  0.6378610108865636
  0.5000199590979217  0.1146951406128798  0.7004694259891823
  0.5002732085484085  0.0723402264737582  0.6819486529803148
 
  0.00000000E+00  0.00000000E+00  0.00000000E+00
  0.00000000E+00  0.00000000E+00  0.00000000E+00
  0.00000000E+00  0.00000000E+00  0.00000000E+00
  0.00000000E+00  0.00000000E+00  0.00000000E+00
  0.00000000E+00  0.00000000E+00  0.00000000E+00
  0.00000000E+00  0.00000000E+00  0.00000000E+00
  0.00000000E+00  0.00000000E+00  0.00000000E+00
  0.00000000E+00  0.00000000E+00  0.00000000E+00
  0.00000000E+00  0.00000000E+00  0.00000000E+00
  0.00000000E+00  0.00000000E+00  0.00000000E+00
  0.00000000E+00  0.00000000E+00  0.00000000E+00
  0.00000000E+00  0.00000000E+00  0.00000000E+00
  0.00000000E+00  0.00000000E+00  0.00000000E+00
  0.00000000E+00  0.00000000E+00  0.00000000E+00
  0.00000000E+00  0.00000000E+00  0.00000000E+00
  0.00000000E+00  0.00000000E+00  0.00000000E+00
  0.00000000E+00  0.00000000E+00  0.00000000E+00
  0.00000000E+00  0.00000000E+00  0.00000000E+00
  0.00000000E+00  0.00000000E+00  0.00000000E+00
  0.00000000E+00  0.00000000E+00  0.00000000E+00
  0.00000000E+00  0.00000000E+00  0.00000000E+00
  0.00000000E+00  0.00000000E+00  0.00000000E+00
  0.00000000E+00  0.00000000E+00  0.00000000E+00
  0.00000000E+00  0.00000000E+00  0.00000000E+00
  0.00000000E+00  0.00000000E+00  0.00000000E+00
  0.00000000E+00  0.00000000E+00  0.00000000E+00
  0.00000000E+00  0.00000000E+00  0.00000000E+00
  0.00000000E+00  0.00000000E+00  0.00000000E+00
  0.00000000E+00  0.00000000E+00  0.00000000E+00
  0.00000000E+00  0.00000000E+00  0.00000000E+00
  0.00000000E+00  0.00000000E+00  0.00000000E+00
  0.00000000E+00  0.00000000E+00  0.00000000E+00
  0.00000000E+00  0.00000000E+00  0.00000000E+00
  0.00000000E+00  0.00000000E+00  0.00000000E+00
  0.00000000E+00  0.00000000E+00  0.00000000E+00
  0.00000000E+00  0.00000000E+00  0.00000000E+00
  0.00000000E+00  0.00000000E+00  0.00000000E+00
  0.00000000E+00  0.00000000E+00  0.00000000E+00
  0.00000000E+00  0.00000000E+00  0.00000000E+00
  0.00000000E+00  0.00000000E+00  0.00000000E+00
  0.00000000E+00  0.00000000E+00  0.00000000E+00
  0.00000000E+00  0.00000000E+00  0.00000000E+00
  0.00000000E+00  0.00000000E+00  0.00000000E+00
  0.00000000E+00  0.00000000E+00  0.00000000E+00
  0.00000000E+00  0.00000000E+00  0.00000000E+00
  0.00000000E+00  0.00000000E+00  0.00000000E+00
  0.00000000E+00  0.00000000E+00  0.00000000E+00
  0.00000000E+00  0.00000000E+00  0.00000000E+00
  0.00000000E+00  0.00000000E+00  0.00000000E+00
  0.00000000E+00  0.00000000E+00  0.00000000E+00
  0.00000000E+00  0.00000000E+00  0.00000000E+00
  0.00000000E+00  0.00000000E+00  0.00000000E+00
  0.00000000E+00  0.00000000E+00  0.00000000E+00
  0.00000000E+00  0.00000000E+00  0.00000000E+00
  0.00000000E+00  0.00000000E+00  0.00000000E+00
  0.00000000E+00  0.00000000E+00  0.00000000E+00
  0.00000000E+00  0.00000000E+00  0.00000000E+00
  0.00000000E+00  0.00000000E+00  0.00000000E+00
  0.00000000E+00  0.00000000E+00  0.00000000E+00
  0.00000000E+00  0.00000000E+00  0.00000000E+00
  0.00000000E+00  0.00000000E+00  0.00000000E+00
  0.00000000E+00  0.00000000E+00  0.00000000E+00
  0.00000000E+00  0.00000000E+00  0.00000000E+00
