CONTCAR\(2)                             
   1.00000000000000     
    11.0504999160999997    0.0000000000000000    0.0000000000000000
     0.0000000000000000   15.0270004272000008    0.0000000000000000
     0.0000000000000000    0.0000000000000000   19.5720996856999996
   Ta   Ni   Te   O    H 
     6     6    30     2     1
Selective dynamics
Direct
  0.0004933923318333  0.7468811563483797  0.4965317623970407   F   F   F
  0.0003458114378958  0.2487862214316650  0.5026419596853202   F   F   F
  0.3333474920554380  0.7488862240528462  0.4974582595359962   F   F   F
  0.3333441399432360  0.2501907144909623  0.5019578160507763   F   F   F
  0.6661925227362460  0.7468790599858721  0.4965376898265603   F   F   F
  0.6663391412073310  0.2487768341736540  0.5026487892759874   F   F   F
  0.1668002917225664  0.4982752706210576  0.4982585680985991   F   F   F
  0.1701792082518381  0.0012744004716367  0.4989158048627544   F   F   F
  0.4999041168419112  0.4982809111758613  0.4982477977565907   F   F   F
  0.4965200406799326  0.0012681660404397  0.4989339596385847   F   F   F
  0.8333239991865469  0.4985667798367075  0.4986108388374504   F   F   F
  0.8333405567358980  0.9983506479378690  0.5016851821611539   F   F   F
  0.9996388574101829  0.4221972454616534  0.5697182264340697   F   F   F
  0.1666527691413435  0.3554406443638456  0.4258654443283945   F   F   F
  0.9992201009104420  0.5747742486023100  0.4275305200185144   F   F   F
  0.0015863217666023  0.9218556956544646  0.4328068650572874   F   F   F
  0.0015112531285482  0.0757126498035063  0.5706722444581231   F   F   F
  0.1683926159060150  0.7485536800114403  0.3852955569885168   F   F   F
  0.1673636994342260  0.8590319610121142  0.5709190966904103   F   F   F
  0.1670647291626608  0.2505122562269904  0.6139443568509151   F   F   F
  0.1676657238072039  0.1445611602120280  0.4257522295024572   F   F   F
  0.1661840782146271  0.6392344596717123  0.5709933496961028   F   F   F
  0.3333492250909416  0.4221241052841833  0.5707124689010428   F   F   F
  0.5000600052149125  0.3554380735685996  0.4258764195879010   F   F   F
  0.3333507364779251  0.5759422535077263  0.4272794711551029   F   F   F
  0.3333410009985727  0.9220974453624109  0.4268798175623019   F   F   F
  0.3333501351250234  0.0792288930052010  0.5719596947043115   F   F   F
  0.4983165355642996  0.7485367096503310  0.3853058666214011   F   F   F
  0.4993134779547574  0.8590327660844324  0.5709268662073157   F   F   F
  0.4996171739901456  0.2505113360588851  0.6139421049565357   F   F   F
  0.4990128870805037  0.1445604321840932  0.4257528707059990   F   F   F
  0.5005060833015165  0.6392294250483204  0.5710123139098613   F   F   F
  0.6670621689008414  0.4221985471742542  0.5697198040641567   F   F   F
  0.8333410287701000  0.3530130247919487  0.4261309329977649   F   F   F
  0.6675008024383828  0.5747920873585528  0.4275215850565672   F   F   F
  0.6651040664125887  0.9218510083272236  0.4328059770000436   F   F   F
  0.6651735434908375  0.0757107307582032  0.5706755892933728   F   F   F
  0.8333569918115060  0.7470514874797232  0.3854354686735917   F   F   F
  0.8333367334189035  0.8513913785702769  0.5730692703946474   F   F   F
  0.8333428724316292  0.2482733155543499  0.6143954524151738   F   F   F
  0.8333357209439001  0.1431891822616151  0.4272217502085951   F   F   F
  0.8333437281001324  0.6427084638956444  0.5730815911814204   F   F   F
  0.3333488043227817  0.7928904731693152  0.6452051561995162   T   T   T
  0.3333984060332185  0.7467614878126767  0.7096825479316280   T   T   T
  0.3334065681140785  0.6837668595049918  0.6942542070426351   T   T   T
 
  0.00000000E+00  0.00000000E+00  0.00000000E+00
  0.00000000E+00  0.00000000E+00  0.00000000E+00
  0.00000000E+00  0.00000000E+00  0.00000000E+00
  0.00000000E+00  0.00000000E+00  0.00000000E+00
  0.00000000E+00  0.00000000E+00  0.00000000E+00
  0.00000000E+00  0.00000000E+00  0.00000000E+00
  0.00000000E+00  0.00000000E+00  0.00000000E+00
  0.00000000E+00  0.00000000E+00  0.00000000E+00
  0.00000000E+00  0.00000000E+00  0.00000000E+00
  0.00000000E+00  0.00000000E+00  0.00000000E+00
  0.00000000E+00  0.00000000E+00  0.00000000E+00
  0.00000000E+00  0.00000000E+00  0.00000000E+00
  0.00000000E+00  0.00000000E+00  0.00000000E+00
  0.00000000E+00  0.00000000E+00  0.00000000E+00
  0.00000000E+00  0.00000000E+00  0.00000000E+00
  0.00000000E+00  0.00000000E+00  0.00000000E+00
  0.00000000E+00  0.00000000E+00  0.00000000E+00
  0.00000000E+00  0.00000000E+00  0.00000000E+00
  0.00000000E+00  0.00000000E+00  0.00000000E+00
  0.00000000E+00  0.00000000E+00  0.00000000E+00
  0.00000000E+00  0.00000000E+00  0.00000000E+00
  0.00000000E+00  0.00000000E+00  0.00000000E+00
  0.00000000E+00  0.00000000E+00  0.00000000E+00
  0.00000000E+00  0.00000000E+00  0.00000000E+00
  0.00000000E+00  0.00000000E+00  0.00000000E+00
  0.00000000E+00  0.00000000E+00  0.00000000E+00
  0.00000000E+00  0.00000000E+00  0.00000000E+00
  0.00000000E+00  0.00000000E+00  0.00000000E+00
  0.00000000E+00  0.00000000E+00  0.00000000E+00
  0.00000000E+00  0.00000000E+00  0.00000000E+00
  0.00000000E+00  0.00000000E+00  0.00000000E+00
  0.00000000E+00  0.00000000E+00  0.00000000E+00
  0.00000000E+00  0.00000000E+00  0.00000000E+00
  0.00000000E+00  0.00000000E+00  0.00000000E+00
  0.00000000E+00  0.00000000E+00  0.00000000E+00
  0.00000000E+00  0.00000000E+00  0.00000000E+00
  0.00000000E+00  0.00000000E+00  0.00000000E+00
  0.00000000E+00  0.00000000E+00  0.00000000E+00
  0.00000000E+00  0.00000000E+00  0.00000000E+00
  0.00000000E+00  0.00000000E+00  0.00000000E+00
  0.00000000E+00  0.00000000E+00  0.00000000E+00
  0.00000000E+00  0.00000000E+00  0.00000000E+00
  0.00000000E+00  0.00000000E+00  0.00000000E+00
  0.00000000E+00  0.00000000E+00  0.00000000E+00
  0.00000000E+00  0.00000000E+00  0.00000000E+00
