CONTCAR\(8)                             
   1.00000000000000     
    11.4783000945999998    0.0000000000000000    0.0000000000000000
     0.0000000000000000   11.4783000945999998    0.0000000000000000
     0.0000000000000000    0.0000000000000000   27.5627002716000007
   Sr   Mn   Cl   O 
    36    18    18    55
Direct
  0.1665414854865526  0.0000120501797536  0.4510124181983863
  0.0000178640003699  0.1679356410820527  0.5502876928151127
  0.1666547364017321  0.0000088888458413  0.3167504364928615
  0.0000134762562607  0.1666503036756019  0.6840155696284114
  0.5000163742879787 -0.0000003642326779  0.4508961796280764
  0.3334065037984961  0.1678688268104203  0.5503266559604245
  0.5000108205262219  0.0000097992451678  0.3168097112198645
  0.3314610905820926  0.1641333225640556  0.6836469986497213
  0.8334867104425489  0.0000059494665672  0.4510079590242764
  0.6666271431913044  0.1678721019094914  0.5503255043223405
  0.8333703100501318  0.0000090613696578  0.3167497787613648
  0.6685723939324751  0.1641290543520485  0.6836435177636949
  0.1668575354185198  0.3338021410844294  0.4514302418765496
  0.0000205503888315  0.5000058599177416  0.5508329809081488
  0.1667045201186941  0.3334721211696595  0.3166773498998218
  0.0000172064728301  0.5000101808933436  0.6844500525086753
  0.5000195338577219  0.3340304575057864  0.4515668137053561
  0.3339288165755512  0.5000057070602888  0.5518384484990612
  0.5000140861258647  0.3334483512969061  0.3168156213710315
  0.3420678165647772  0.5000082775979899  0.6926454591703912
  0.8331747737110542  0.3338082548504838  0.4514321366325308
  0.6661070306707311  0.5000056426317253  0.5518371331434639
  0.8333297052284104  0.3334726572562705  0.3166783093783652
  0.6579683211898349  0.5000091852035136  0.6926483281623239
  0.1668671590060175  0.6662216473115500  0.4514301407132866
  0.0000160054141525  0.8320799725141764  0.5502903687043782
  0.1667042777424708  0.6665546288511831  0.3166758913092330
  0.0000123985215145  0.8333648749673944  0.6840151343130206
  0.5000227101162195  0.6659952551183427  0.4515658578249550
  0.3334101692362859  0.8321468381225450  0.5503276350229365
  0.5000117217471517  0.6665604617303061  0.3168135507859519
  0.3314612667390530  0.8358831902540739  0.6836462570628316
  0.8331651444663762  0.6662191613346833  0.4514288038100109
  0.6666197785262020  0.8321482277860557  0.5503235201934583
  0.8333330004368334  0.6665495874585016  0.3166752010805028
  0.6685738150561517  0.8358916277708514  0.6836440491082335
  0.0000174821735241  0.1670553278513502  0.3885980393270487
  0.1660264620463155  0.0000024094325522  0.6111005516233252
  0.3332276631167473  0.1670066496020391  0.3886256969012018
  0.5000174936441808  0.0000192734793321  0.6108771226096544
  0.6668000711904936  0.1670132372255323  0.3886199653036803
  0.8340035669842398  0.0000023391122577  0.6111059953208700
  0.0000207854191398  0.5000211623498702  0.3886486765222152
  0.1676141723679716  0.3344897236659360  0.6125748806798708
  0.3332369942270281  0.5000095827839540  0.3888115659900364
  0.5000253811337004  0.3341615023804366  0.6130265149752222
  0.6667810844964662  0.5000049871331453  0.3888167389717231
  0.8324204521410689  0.3344902367699515  0.6125735476553307
  0.0000136668705553  0.8329587968295585  0.3885915498181295
  0.1676058059678535  0.6655269143555617  0.6125768703752181
  0.3332233353753297  0.8330128777883464  0.3886269837882383
  0.5000251462866176  0.6658475787737917  0.6130259240282085
  0.6668048405130087  0.8330085715164358  0.3886256227739791
  0.8324282605156994  0.6655294301591146  0.6125762847853163
  0.0000068968251262  0.1666649630815450  0.2696083350584232
  0.1647794298708281  0.0000085594063020  0.7307763613567870
  0.3333748187437249  0.1666607568975196  0.2696069249659840
  0.5000111751259035  0.0000068355576771  0.7260779237288879
  0.6666483685634843  0.1666650959576590  0.2696088170682339
  0.8352389975115265  0.0000062813342794  0.7307758199993146
  0.0000118240274381  0.5000072446080730  0.2695179125353110
  0.1643628564914352  0.3315047960425808  0.7303216503663804
  0.3333771927106500  0.5000042759080815  0.2695754026462445
  0.5000486904488433  0.2910853210532902  0.7342406084632965
  0.6666486798279671  0.5000036276118952  0.2695771026778001
  0.8356761551946027  0.3315091644066487  0.7303273720606170
  0.0000077503515921  0.8333505218882942  0.2696064422574572
  0.1643626633537455  0.6685072033103513  0.7303212829749646
  0.3333779583975895  0.8333535909433512  0.2696050306865687
  0.5000370472553676  0.7089639207110097  0.7342461116489940
  0.6666458096744491  0.8333502139160031  0.2696061668450740
  0.8356720843488942  0.6685075955771651  0.7303255175183776
  0.1666675860322008  0.1669013753582148  0.3775104200336809
  0.0000114196778208  0.0000082136476166  0.3778433286451137
  0.0000144524623686  0.0000094607587856  0.6226199901746675
  0.1655731308292385  0.1668217928577304  0.6220290670758633
  0.0000135200128957  0.1677847106467260  0.4604783259781301
  0.1655222465458255  0.0000046405074346  0.5401135843931006
  0.5000143504263176  0.1668243514693221  0.3776412834131986
  0.3332002476640051  0.0000123116119242  0.3777669744499370
  0.3325488029800863  0.0000107811912118  0.6209238038624670
  0.5000175455768393  0.1660709587399913  0.6206874328117791
  0.3332280051335069  0.1673788748596632  0.4605463409237641
  0.5000184965045068  0.0000070558536333  0.5401698311040886
  0.8333646596054870  0.1669126268400955  0.3775102365988277
  0.6668314259791008  0.0000086384784041  0.3777645174483154
  0.6674880431098201  0.0000080490585978  0.6209205203429795
  0.8344663019528983  0.1668222261546608  0.6220278754873980
  0.6668038181452193  0.1673771460968592  0.4605451036749995
  0.8345033903643163  0.0000069407486037  0.5401103389960502
  0.1667310097739719  0.5000202923558835  0.3777060127965506
  0.0000233005235335  0.3334613067729441  0.3774442439221886
  0.0000163678544045  0.3335264761230439  0.6228994620164775
  0.1657704435274474  0.5000084806490528  0.6222814116043073
  0.0000322429985645  0.5000263639467406  0.4607233129133811
  0.1673652116101112  0.3332881453528090  0.5411129030934871
  0.5000091579773963  0.5000057081145941  0.3778428140259286
  0.3331950917381958  0.3334875100241585  0.3775661718881317
  0.3335302295789210  0.3331467660566398  0.6237898427959041
  0.5000207974311095  0.5000038568681990  0.6242506386240529
  0.3331197759498252  0.5000118256356753  0.4608363301936135
  0.5000169207457820  0.3348399523088299  0.5412534383950174
  0.8332911790720879  0.5000168101861466  0.3777116196276254
  0.6668366288074211  0.3334846719092318  0.3775645768695317
  0.6665019984733066  0.3331462521462989  0.6237898487468823
  0.8342639529669278  0.5000057436533142  0.6222824274072456
  0.6669141400276744  0.5000140452978724  0.4608351645858668
  0.8326728971931717  0.3332839033767345  0.5411117113824311
  0.1666655934695908  0.8331244705694966  0.3775116532227815
  0.0000227156825706  0.6665479691863430  0.3774365096302439
  0.0000170442984622  0.6664852273195266  0.6228974580631886
  0.1655732347264169  0.8331905285331673  0.6220294881924684
  0.0000121507979588  0.8322399688241562  0.4604788980557510
  0.1673626045321663  0.6667282575123014  0.5411143748783579
  0.5000132830364999  0.8331900983848102  0.3776375764583749
  0.3332059340052322  0.6665330797644105  0.3775641464701049
  0.3335303174210916  0.6668699363958165  0.6237904229754413
  0.5000157154040268  0.8339364503330408  0.6206896986471905
  0.3332293230606415  0.8326354993056234  0.4605467631719501
  0.5000141512705649  0.6651761865546321  0.5412550152484817
  0.8333658229093859  0.8331125989028866  0.3775072831247042
  0.6668282019990557  0.6665315328906960  0.3775591908200707
  0.6665021402727139  0.6668714339826817  0.6237896657767071
  0.8344649717092256  0.8331971102420036  0.6220276771458030
  0.6668032486534020  0.8326339154519243  0.4605413477144948
  0.8326723688595961  0.6667326803320005  0.5411133996974808
  0.5000140341585355  0.5000142254801678  0.7462098504463500
 
  0.00000000E+00  0.00000000E+00  0.00000000E+00
  0.00000000E+00  0.00000000E+00  0.00000000E+00
  0.00000000E+00  0.00000000E+00  0.00000000E+00
  0.00000000E+00  0.00000000E+00  0.00000000E+00
  0.00000000E+00  0.00000000E+00  0.00000000E+00
  0.00000000E+00  0.00000000E+00  0.00000000E+00
  0.00000000E+00  0.00000000E+00  0.00000000E+00
  0.00000000E+00  0.00000000E+00  0.00000000E+00
  0.00000000E+00  0.00000000E+00  0.00000000E+00
  0.00000000E+00  0.00000000E+00  0.00000000E+00
  0.00000000E+00  0.00000000E+00  0.00000000E+00
  0.00000000E+00  0.00000000E+00  0.00000000E+00
  0.00000000E+00  0.00000000E+00  0.00000000E+00
  0.00000000E+00  0.00000000E+00  0.00000000E+00
  0.00000000E+00  0.00000000E+00  0.00000000E+00
  0.00000000E+00  0.00000000E+00  0.00000000E+00
  0.00000000E+00  0.00000000E+00  0.00000000E+00
  0.00000000E+00  0.00000000E+00  0.00000000E+00
  0.00000000E+00  0.00000000E+00  0.00000000E+00
  0.00000000E+00  0.00000000E+00  0.00000000E+00
  0.00000000E+00  0.00000000E+00  0.00000000E+00
  0.00000000E+00  0.00000000E+00  0.00000000E+00
  0.00000000E+00  0.00000000E+00  0.00000000E+00
  0.00000000E+00  0.00000000E+00  0.00000000E+00
  0.00000000E+00  0.00000000E+00  0.00000000E+00
  0.00000000E+00  0.00000000E+00  0.00000000E+00
  0.00000000E+00  0.00000000E+00  0.00000000E+00
  0.00000000E+00  0.00000000E+00  0.00000000E+00
  0.00000000E+00  0.00000000E+00  0.00000000E+00
  0.00000000E+00  0.00000000E+00  0.00000000E+00
  0.00000000E+00  0.00000000E+00  0.00000000E+00
  0.00000000E+00  0.00000000E+00  0.00000000E+00
  0.00000000E+00  0.00000000E+00  0.00000000E+00
  0.00000000E+00  0.00000000E+00  0.00000000E+00
  0.00000000E+00  0.00000000E+00  0.00000000E+00
  0.00000000E+00  0.00000000E+00  0.00000000E+00
  0.00000000E+00  0.00000000E+00  0.00000000E+00
  0.00000000E+00  0.00000000E+00  0.00000000E+00
  0.00000000E+00  0.00000000E+00  0.00000000E+00
  0.00000000E+00  0.00000000E+00  0.00000000E+00
  0.00000000E+00  0.00000000E+00  0.00000000E+00
  0.00000000E+00  0.00000000E+00  0.00000000E+00
  0.00000000E+00  0.00000000E+00  0.00000000E+00
  0.00000000E+00  0.00000000E+00  0.00000000E+00
  0.00000000E+00  0.00000000E+00  0.00000000E+00
  0.00000000E+00  0.00000000E+00  0.00000000E+00
  0.00000000E+00  0.00000000E+00  0.00000000E+00
  0.00000000E+00  0.00000000E+00  0.00000000E+00
  0.00000000E+00  0.00000000E+00  0.00000000E+00
  0.00000000E+00  0.00000000E+00  0.00000000E+00
  0.00000000E+00  0.00000000E+00  0.00000000E+00
  0.00000000E+00  0.00000000E+00  0.00000000E+00
  0.00000000E+00  0.00000000E+00  0.00000000E+00
  0.00000000E+00  0.00000000E+00  0.00000000E+00
  0.00000000E+00  0.00000000E+00  0.00000000E+00
  0.00000000E+00  0.00000000E+00  0.00000000E+00
  0.00000000E+00  0.00000000E+00  0.00000000E+00
  0.00000000E+00  0.00000000E+00  0.00000000E+00
  0.00000000E+00  0.00000000E+00  0.00000000E+00
  0.00000000E+00  0.00000000E+00  0.00000000E+00
  0.00000000E+00  0.00000000E+00  0.00000000E+00
  0.00000000E+00  0.00000000E+00  0.00000000E+00
  0.00000000E+00  0.00000000E+00  0.00000000E+00
  0.00000000E+00  0.00000000E+00  0.00000000E+00
  0.00000000E+00  0.00000000E+00  0.00000000E+00
  0.00000000E+00  0.00000000E+00  0.00000000E+00
  0.00000000E+00  0.00000000E+00  0.00000000E+00
  0.00000000E+00  0.00000000E+00  0.00000000E+00
  0.00000000E+00  0.00000000E+00  0.00000000E+00
  0.00000000E+00  0.00000000E+00  0.00000000E+00
  0.00000000E+00  0.00000000E+00  0.00000000E+00
  0.00000000E+00  0.00000000E+00  0.00000000E+00
  0.00000000E+00  0.00000000E+00  0.00000000E+00
  0.00000000E+00  0.00000000E+00  0.00000000E+00
  0.00000000E+00  0.00000000E+00  0.00000000E+00
  0.00000000E+00  0.00000000E+00  0.00000000E+00
  0.00000000E+00  0.00000000E+00  0.00000000E+00
  0.00000000E+00  0.00000000E+00  0.00000000E+00
  0.00000000E+00  0.00000000E+00  0.00000000E+00
  0.00000000E+00  0.00000000E+00  0.00000000E+00
  0.00000000E+00  0.00000000E+00  0.00000000E+00
  0.00000000E+00  0.00000000E+00  0.00000000E+00
  0.00000000E+00  0.00000000E+00  0.00000000E+00
  0.00000000E+00  0.00000000E+00  0.00000000E+00
  0.00000000E+00  0.00000000E+00  0.00000000E+00
  0.00000000E+00  0.00000000E+00  0.00000000E+00
  0.00000000E+00  0.00000000E+00  0.00000000E+00
  0.00000000E+00  0.00000000E+00  0.00000000E+00
  0.00000000E+00  0.00000000E+00  0.00000000E+00
  0.00000000E+00  0.00000000E+00  0.00000000E+00
  0.00000000E+00  0.00000000E+00  0.00000000E+00
  0.00000000E+00  0.00000000E+00  0.00000000E+00
  0.00000000E+00  0.00000000E+00  0.00000000E+00
  0.00000000E+00  0.00000000E+00  0.00000000E+00
  0.00000000E+00  0.00000000E+00  0.00000000E+00
  0.00000000E+00  0.00000000E+00  0.00000000E+00
  0.00000000E+00  0.00000000E+00  0.00000000E+00
  0.00000000E+00  0.00000000E+00  0.00000000E+00
  0.00000000E+00  0.00000000E+00  0.00000000E+00
  0.00000000E+00  0.00000000E+00  0.00000000E+00
  0.00000000E+00  0.00000000E+00  0.00000000E+00
  0.00000000E+00  0.00000000E+00  0.00000000E+00
  0.00000000E+00  0.00000000E+00  0.00000000E+00
  0.00000000E+00  0.00000000E+00  0.00000000E+00
  0.00000000E+00  0.00000000E+00  0.00000000E+00
  0.00000000E+00  0.00000000E+00  0.00000000E+00
  0.00000000E+00  0.00000000E+00  0.00000000E+00
  0.00000000E+00  0.00000000E+00  0.00000000E+00
  0.00000000E+00  0.00000000E+00  0.00000000E+00
  0.00000000E+00  0.00000000E+00  0.00000000E+00
  0.00000000E+00  0.00000000E+00  0.00000000E+00
  0.00000000E+00  0.00000000E+00  0.00000000E+00
  0.00000000E+00  0.00000000E+00  0.00000000E+00
  0.00000000E+00  0.00000000E+00  0.00000000E+00
  0.00000000E+00  0.00000000E+00  0.00000000E+00
  0.00000000E+00  0.00000000E+00  0.00000000E+00
  0.00000000E+00  0.00000000E+00  0.00000000E+00
  0.00000000E+00  0.00000000E+00  0.00000000E+00
  0.00000000E+00  0.00000000E+00  0.00000000E+00
  0.00000000E+00  0.00000000E+00  0.00000000E+00
  0.00000000E+00  0.00000000E+00  0.00000000E+00
  0.00000000E+00  0.00000000E+00  0.00000000E+00
  0.00000000E+00  0.00000000E+00  0.00000000E+00
  0.00000000E+00  0.00000000E+00  0.00000000E+00
  0.00000000E+00  0.00000000E+00  0.00000000E+00
  0.00000000E+00  0.00000000E+00  0.00000000E+00
  0.00000000E+00  0.00000000E+00  0.00000000E+00
