CONTCAR\(13)                            
   1.00000000000000     
    13.2362003325999993    0.0000000000000000    0.0000000000000000
     6.6181200092000001   11.4628742812999995    0.0000000000000000
     0.0000000000000000    0.0000000000000000   17.6413002014000000
   Mn   S 
    16    32
Direct
  0.0000000000000000  0.0000000000000000  0.5000000000000000
  0.2500000000000000  0.0000000000000000  0.5000000000000000
  0.5000000000000000  0.0000000000000000  0.5000000000000000
  0.7500000360000030  0.0000000000000000  0.5000000000000000
  0.0000000020000002  0.2500000029999967  0.5000000000000000
  0.2500000020000002  0.2500000029999967  0.5000000000000000
  0.5000000380000031  0.2500000029999967  0.5000000000000000
  0.7500000020000002  0.2500000029999967  0.5000000000000000
  0.0000000040000003  0.5000000060000005  0.5000000000000000
  0.2500000040000003  0.5000000060000005  0.5000000000000000
  0.5000000040000003  0.5000000060000005  0.5000000000000000
  0.7500000400000033  0.5000000060000005  0.5000000000000000
  0.0000000169999979  0.7499999879999990  0.5000000000000000
  0.2500000169999979  0.7499999879999990  0.5000000000000000
  0.4999999810000020  0.7499999879999990  0.5000000000000000
  0.7500000889999967  0.7499999879999990  0.5000000000000000
  0.1666699760000014  0.1666699960000031  0.5756799939999979
  0.0833299929999995  0.0833300010000002  0.4243200060000021
  0.4166700119999973  0.1666699960000031  0.5756799939999979
  0.3333299929999995  0.0833300010000002  0.4243200060000021
  0.6666699760000014  0.1666699960000031  0.5756799939999979
  0.5833299569999966  0.0833300010000002  0.4243200060000021
  0.9166700119999973  0.1666699960000031  0.5756799939999979
  0.8333299929999995  0.0833300010000002  0.4243200060000021
  0.1666700030000001  0.4166700199999980  0.5756799939999979
  0.0833299929999995  0.3333300090000009  0.4243200060000021
  0.4166699669999971  0.4166700199999980  0.5756799939999979
  0.3333299929999995  0.3333300090000009  0.4243200060000021
  0.6666700030000001  0.4166700199999980  0.5756799939999979
  0.5833299199999971  0.3333300090000009  0.4243200060000021
  0.9166700390000031  0.4166700199999980  0.5756799939999979
  0.8333300290000025  0.3333300090000009  0.4243200060000021
  0.1666699589999965  0.6666700440000000  0.5756799939999979
  0.0833299689999976  0.5833299909999994  0.4243200060000021
  0.4166699949999995  0.6666700440000000  0.5756799939999979
  0.3333300050000005  0.5833299909999994  0.4243200060000021
  0.6666700310000024  0.6666700440000000  0.5756799939999979
  0.5833299689999976  0.5833299909999994  0.4243200060000021
  0.9166699949999995  0.6666700440000000  0.5756799939999979
  0.8333300050000005  0.5833299909999994  0.4243200060000021
  0.1666700070000005  0.9166700259999985  0.5756799939999979
  0.0833300170000015  0.8333299729999979  0.4243200060000021
  0.4166700430000034  0.9166700259999985  0.5756799939999979
  0.3333300529999974  0.8333299729999979  0.4243200060000021
  0.6666700070000005  0.9166700259999985  0.5756799939999979
  0.5833300170000015  0.8333299729999979  0.4243200060000021
  0.9166699709999975  0.9166700259999985  0.5756799939999979
  0.8333299809999986  0.8333299729999979  0.4243200060000021
 
  0.00000000E+00  0.00000000E+00  0.00000000E+00
  0.00000000E+00  0.00000000E+00  0.00000000E+00
  0.00000000E+00  0.00000000E+00  0.00000000E+00
  0.00000000E+00  0.00000000E+00  0.00000000E+00
  0.00000000E+00  0.00000000E+00  0.00000000E+00
  0.00000000E+00  0.00000000E+00  0.00000000E+00
  0.00000000E+00  0.00000000E+00  0.00000000E+00
  0.00000000E+00  0.00000000E+00  0.00000000E+00
  0.00000000E+00  0.00000000E+00  0.00000000E+00
  0.00000000E+00  0.00000000E+00  0.00000000E+00
  0.00000000E+00  0.00000000E+00  0.00000000E+00
  0.00000000E+00  0.00000000E+00  0.00000000E+00
  0.00000000E+00  0.00000000E+00  0.00000000E+00
  0.00000000E+00  0.00000000E+00  0.00000000E+00
  0.00000000E+00  0.00000000E+00  0.00000000E+00
  0.00000000E+00  0.00000000E+00  0.00000000E+00
  0.00000000E+00  0.00000000E+00  0.00000000E+00
  0.00000000E+00  0.00000000E+00  0.00000000E+00
  0.00000000E+00  0.00000000E+00  0.00000000E+00
  0.00000000E+00  0.00000000E+00  0.00000000E+00
  0.00000000E+00  0.00000000E+00  0.00000000E+00
  0.00000000E+00  0.00000000E+00  0.00000000E+00
  0.00000000E+00  0.00000000E+00  0.00000000E+00
  0.00000000E+00  0.00000000E+00  0.00000000E+00
  0.00000000E+00  0.00000000E+00  0.00000000E+00
  0.00000000E+00  0.00000000E+00  0.00000000E+00
  0.00000000E+00  0.00000000E+00  0.00000000E+00
  0.00000000E+00  0.00000000E+00  0.00000000E+00
  0.00000000E+00  0.00000000E+00  0.00000000E+00
  0.00000000E+00  0.00000000E+00  0.00000000E+00
  0.00000000E+00  0.00000000E+00  0.00000000E+00
  0.00000000E+00  0.00000000E+00  0.00000000E+00
  0.00000000E+00  0.00000000E+00  0.00000000E+00
  0.00000000E+00  0.00000000E+00  0.00000000E+00
  0.00000000E+00  0.00000000E+00  0.00000000E+00
  0.00000000E+00  0.00000000E+00  0.00000000E+00
  0.00000000E+00  0.00000000E+00  0.00000000E+00
  0.00000000E+00  0.00000000E+00  0.00000000E+00
  0.00000000E+00  0.00000000E+00  0.00000000E+00
  0.00000000E+00  0.00000000E+00  0.00000000E+00
  0.00000000E+00  0.00000000E+00  0.00000000E+00
  0.00000000E+00  0.00000000E+00  0.00000000E+00
  0.00000000E+00  0.00000000E+00  0.00000000E+00
  0.00000000E+00  0.00000000E+00  0.00000000E+00
  0.00000000E+00  0.00000000E+00  0.00000000E+00
  0.00000000E+00  0.00000000E+00  0.00000000E+00
  0.00000000E+00  0.00000000E+00  0.00000000E+00
  0.00000000E+00  0.00000000E+00  0.00000000E+00
