 Cu2 Te2                                
   1.00000000000000     
     3.1887856806503838    0.0000000000000000    0.0000000000000000
     0.0000000000000000    3.9455603959550984    0.0000000000000000
     0.0000000000000000    0.0000000000000000   18.9376436714800001
   Cu   Te
     2     2
Direct
  0.0000000217333422  0.4999999686648664  0.4855252520545505
  0.4999999925949581  0.0000000304931689  0.5144745559964221
  0.0000000332641648  0.0000000032039367  0.3964113919699628
  0.4999999524075349  0.4999999976380280  0.6035887999790646
 
  0.00000000E+00  0.00000000E+00  0.00000000E+00
  0.00000000E+00  0.00000000E+00  0.00000000E+00
  0.00000000E+00  0.00000000E+00  0.00000000E+00
  0.00000000E+00  0.00000000E+00  0.00000000E+00
