G   63   51    1    0.005     # Parameters to Generate KPOINTS (Don't Edit This Line)
     832
Reciprocal lattice
    0.000000000000    0.000000000000    0.000000000000       1
    0.015873015873    0.000000000000    0.000000000000       2
    0.031746031746    0.000000000000    0.000000000000       2
    0.047619047619    0.000000000000    0.000000000000       2
    0.063492063492    0.000000000000    0.000000000000       2
    0.079365079365    0.000000000000    0.000000000000       2
    0.095238095238    0.000000000000    0.000000000000       2
    0.111111111111    0.000000000000    0.000000000000       2
    0.126984126984    0.000000000000    0.000000000000       2
    0.142857142857    0.000000000000    0.000000000000       2
    0.158730158730    0.000000000000    0.000000000000       2
    0.174603174603    0.000000000000    0.000000000000       2
    0.190476190476    0.000000000000    0.000000000000       2
    0.206349206349    0.000000000000    0.000000000000       2
    0.222222222222    0.000000000000    0.000000000000       2
    0.238095238095    0.000000000000    0.000000000000       2
    0.253968253968    0.000000000000    0.000000000000       2
    0.269841269841    0.000000000000    0.000000000000       2
    0.285714285714    0.000000000000    0.000000000000       2
    0.301587301587    0.000000000000    0.000000000000       2
    0.317460317460    0.000000000000    0.000000000000       2
    0.333333333333    0.000000000000    0.000000000000       2
    0.349206349206    0.000000000000    0.000000000000       2
    0.365079365079    0.000000000000    0.000000000000       2
    0.380952380952    0.000000000000    0.000000000000       2
    0.396825396825    0.000000000000    0.000000000000       2
    0.412698412698    0.000000000000    0.000000000000       2
    0.428571428571    0.000000000000    0.000000000000       2
    0.444444444444    0.000000000000    0.000000000000       2
    0.460317460317    0.000000000000    0.000000000000       2
    0.476190476190    0.000000000000    0.000000000000       2
    0.492063492063    0.000000000000    0.000000000000       2
    0.000000000000    0.019607843137    0.000000000000       2
    0.015873015873    0.019607843137    0.000000000000       4
    0.031746031746    0.019607843137    0.000000000000       4
    0.047619047619    0.019607843137    0.000000000000       4
    0.063492063492    0.019607843137    0.000000000000       4
    0.079365079365    0.019607843137    0.000000000000       4
    0.095238095238    0.019607843137    0.000000000000       4
    0.111111111111    0.019607843137    0.000000000000       4
    0.126984126984    0.019607843137    0.000000000000       4
    0.142857142857    0.019607843137    0.000000000000       4
    0.158730158730    0.019607843137    0.000000000000       4
    0.174603174603    0.019607843137    0.000000000000       4
    0.190476190476    0.019607843137    0.000000000000       4
    0.206349206349    0.019607843137    0.000000000000       4
    0.222222222222    0.019607843137    0.000000000000       4
    0.238095238095    0.019607843137    0.000000000000       4
    0.253968253968    0.019607843137    0.000000000000       4
    0.269841269841    0.019607843137    0.000000000000       4
    0.285714285714    0.019607843137    0.000000000000       4
    0.301587301587    0.019607843137    0.000000000000       4
    0.317460317460    0.019607843137    0.000000000000       4
    0.333333333333    0.019607843137    0.000000000000       4
    0.349206349206    0.019607843137    0.000000000000       4
    0.365079365079    0.019607843137    0.000000000000       4
    0.380952380952    0.019607843137    0.000000000000       4
    0.396825396825    0.019607843137    0.000000000000       4
    0.412698412698    0.019607843137    0.000000000000       4
    0.428571428571    0.019607843137    0.000000000000       4
    0.444444444444    0.019607843137    0.000000000000       4
    0.460317460317    0.019607843137    0.000000000000       4
    0.476190476190    0.019607843137    0.000000000000       4
    0.492063492063    0.019607843137    0.000000000000       4
    0.000000000000    0.039215686275    0.000000000000       2
    0.015873015873    0.039215686275    0.000000000000       4
    0.031746031746    0.039215686275    0.000000000000       4
    0.047619047619    0.039215686275    0.000000000000       4
    0.063492063492    0.039215686275    0.000000000000       4
    0.079365079365    0.039215686275    0.000000000000       4
    0.095238095238    0.039215686275    0.000000000000       4
    0.111111111111    0.039215686275    0.000000000000       4
    0.126984126984    0.039215686275    0.000000000000       4
    0.142857142857    0.039215686275    0.000000000000       4
    0.158730158730    0.039215686275    0.000000000000       4
    0.174603174603    0.039215686275    0.000000000000       4
    0.190476190476    0.039215686275    0.000000000000       4
    0.206349206349    0.039215686275    0.000000000000       4
    0.222222222222    0.039215686275    0.000000000000       4
    0.238095238095    0.039215686275    0.000000000000       4
    0.253968253968    0.039215686275    0.000000000000       4
    0.269841269841    0.039215686275    0.000000000000       4
    0.285714285714    0.039215686275    0.000000000000       4
    0.301587301587    0.039215686275    0.000000000000       4
    0.317460317460    0.039215686275    0.000000000000       4
    0.333333333333    0.039215686275    0.000000000000       4
    0.349206349206    0.039215686275    0.000000000000       4
    0.365079365079    0.039215686275    0.000000000000       4
    0.380952380952    0.039215686275    0.000000000000       4
    0.396825396825    0.039215686275    0.000000000000       4
    0.412698412698    0.039215686275    0.000000000000       4
    0.428571428571    0.039215686275    0.000000000000       4
    0.444444444444    0.039215686275    0.000000000000       4
    0.460317460317    0.039215686275    0.000000000000       4
    0.476190476190    0.039215686275    0.000000000000       4
    0.492063492063    0.039215686275    0.000000000000       4
    0.000000000000    0.058823529412    0.000000000000       2
    0.015873015873    0.058823529412    0.000000000000       4
    0.031746031746    0.058823529412    0.000000000000       4
    0.047619047619    0.058823529412    0.000000000000       4
    0.063492063492    0.058823529412    0.000000000000       4
    0.079365079365    0.058823529412    0.000000000000       4
    0.095238095238    0.058823529412    0.000000000000       4
    0.111111111111    0.058823529412    0.000000000000       4
    0.126984126984    0.058823529412    0.000000000000       4
    0.142857142857    0.058823529412    0.000000000000       4
    0.158730158730    0.058823529412    0.000000000000       4
    0.174603174603    0.058823529412    0.000000000000       4
    0.190476190476    0.058823529412    0.000000000000       4
    0.206349206349    0.058823529412    0.000000000000       4
    0.222222222222    0.058823529412    0.000000000000       4
    0.238095238095    0.058823529412    0.000000000000       4
    0.253968253968    0.058823529412    0.000000000000       4
    0.269841269841    0.058823529412    0.000000000000       4
    0.285714285714    0.058823529412    0.000000000000       4
    0.301587301587    0.058823529412    0.000000000000       4
    0.317460317460    0.058823529412    0.000000000000       4
    0.333333333333    0.058823529412    0.000000000000       4
    0.349206349206    0.058823529412    0.000000000000       4
    0.365079365079    0.058823529412    0.000000000000       4
    0.380952380952    0.058823529412    0.000000000000       4
    0.396825396825    0.058823529412    0.000000000000       4
    0.412698412698    0.058823529412    0.000000000000       4
    0.428571428571    0.058823529412    0.000000000000       4
    0.444444444444    0.058823529412    0.000000000000       4
    0.460317460317    0.058823529412    0.000000000000       4
    0.476190476190    0.058823529412    0.000000000000       4
    0.492063492063    0.058823529412    0.000000000000       4
    0.000000000000    0.078431372549    0.000000000000       2
    0.015873015873    0.078431372549    0.000000000000       4
    0.031746031746    0.078431372549    0.000000000000       4
    0.047619047619    0.078431372549    0.000000000000       4
    0.063492063492    0.078431372549    0.000000000000       4
    0.079365079365    0.078431372549    0.000000000000       4
    0.095238095238    0.078431372549    0.000000000000       4
    0.111111111111    0.078431372549    0.000000000000       4
    0.126984126984    0.078431372549    0.000000000000       4
    0.142857142857    0.078431372549    0.000000000000       4
    0.158730158730    0.078431372549    0.000000000000       4
    0.174603174603    0.078431372549    0.000000000000       4
    0.190476190476    0.078431372549    0.000000000000       4
    0.206349206349    0.078431372549    0.000000000000       4
    0.222222222222    0.078431372549    0.000000000000       4
    0.238095238095    0.078431372549    0.000000000000       4
    0.253968253968    0.078431372549    0.000000000000       4
    0.269841269841    0.078431372549    0.000000000000       4
    0.285714285714    0.078431372549    0.000000000000       4
    0.301587301587    0.078431372549    0.000000000000       4
    0.317460317460    0.078431372549    0.000000000000       4
    0.333333333333    0.078431372549    0.000000000000       4
    0.349206349206    0.078431372549    0.000000000000       4
    0.365079365079    0.078431372549    0.000000000000       4
    0.380952380952    0.078431372549    0.000000000000       4
    0.396825396825    0.078431372549    0.000000000000       4
    0.412698412698    0.078431372549    0.000000000000       4
    0.428571428571    0.078431372549    0.000000000000       4
    0.444444444444    0.078431372549    0.000000000000       4
    0.460317460317    0.078431372549    0.000000000000       4
    0.476190476190    0.078431372549    0.000000000000       4
    0.492063492063    0.078431372549    0.000000000000       4
    0.000000000000    0.098039215686    0.000000000000       2
    0.015873015873    0.098039215686    0.000000000000       4
    0.031746031746    0.098039215686    0.000000000000       4
    0.047619047619    0.098039215686    0.000000000000       4
    0.063492063492    0.098039215686    0.000000000000       4
    0.079365079365    0.098039215686    0.000000000000       4
    0.095238095238    0.098039215686    0.000000000000       4
    0.111111111111    0.098039215686    0.000000000000       4
    0.126984126984    0.098039215686    0.000000000000       4
    0.142857142857    0.098039215686    0.000000000000       4
    0.158730158730    0.098039215686    0.000000000000       4
    0.174603174603    0.098039215686    0.000000000000       4
    0.190476190476    0.098039215686    0.000000000000       4
    0.206349206349    0.098039215686    0.000000000000       4
    0.222222222222    0.098039215686    0.000000000000       4
    0.238095238095    0.098039215686    0.000000000000       4
    0.253968253968    0.098039215686    0.000000000000       4
    0.269841269841    0.098039215686    0.000000000000       4
    0.285714285714    0.098039215686    0.000000000000       4
    0.301587301587    0.098039215686    0.000000000000       4
    0.317460317460    0.098039215686    0.000000000000       4
    0.333333333333    0.098039215686    0.000000000000       4
    0.349206349206    0.098039215686    0.000000000000       4
    0.365079365079    0.098039215686    0.000000000000       4
    0.380952380952    0.098039215686    0.000000000000       4
    0.396825396825    0.098039215686    0.000000000000       4
    0.412698412698    0.098039215686    0.000000000000       4
    0.428571428571    0.098039215686    0.000000000000       4
    0.444444444444    0.098039215686    0.000000000000       4
    0.460317460317    0.098039215686    0.000000000000       4
    0.476190476190    0.098039215686    0.000000000000       4
    0.492063492063    0.098039215686    0.000000000000       4
    0.000000000000    0.117647058824    0.000000000000       2
    0.015873015873    0.117647058824    0.000000000000       4
    0.031746031746    0.117647058824    0.000000000000       4
    0.047619047619    0.117647058824    0.000000000000       4
    0.063492063492    0.117647058824    0.000000000000       4
    0.079365079365    0.117647058824    0.000000000000       4
    0.095238095238    0.117647058824    0.000000000000       4
    0.111111111111    0.117647058824    0.000000000000       4
    0.126984126984    0.117647058824    0.000000000000       4
    0.142857142857    0.117647058824    0.000000000000       4
    0.158730158730    0.117647058824    0.000000000000       4
    0.174603174603    0.117647058824    0.000000000000       4
    0.190476190476    0.117647058824    0.000000000000       4
    0.206349206349    0.117647058824    0.000000000000       4
    0.222222222222    0.117647058824    0.000000000000       4
    0.238095238095    0.117647058824    0.000000000000       4
    0.253968253968    0.117647058824    0.000000000000       4
    0.269841269841    0.117647058824    0.000000000000       4
    0.285714285714    0.117647058824    0.000000000000       4
    0.301587301587    0.117647058824    0.000000000000       4
    0.317460317460    0.117647058824    0.000000000000       4
    0.333333333333    0.117647058824    0.000000000000       4
    0.349206349206    0.117647058824    0.000000000000       4
    0.365079365079    0.117647058824    0.000000000000       4
    0.380952380952    0.117647058824    0.000000000000       4
    0.396825396825    0.117647058824    0.000000000000       4
    0.412698412698    0.117647058824    0.000000000000       4
    0.428571428571    0.117647058824    0.000000000000       4
    0.444444444444    0.117647058824    0.000000000000       4
    0.460317460317    0.117647058824    0.000000000000       4
    0.476190476190    0.117647058824    0.000000000000       4
    0.492063492063    0.117647058824    0.000000000000       4
    0.000000000000    0.137254901961    0.000000000000       2
    0.015873015873    0.137254901961    0.000000000000       4
    0.031746031746    0.137254901961    0.000000000000       4
    0.047619047619    0.137254901961    0.000000000000       4
    0.063492063492    0.137254901961    0.000000000000       4
    0.079365079365    0.137254901961    0.000000000000       4
    0.095238095238    0.137254901961    0.000000000000       4
    0.111111111111    0.137254901961    0.000000000000       4
    0.126984126984    0.137254901961    0.000000000000       4
    0.142857142857    0.137254901961    0.000000000000       4
    0.158730158730    0.137254901961    0.000000000000       4
    0.174603174603    0.137254901961    0.000000000000       4
    0.190476190476    0.137254901961    0.000000000000       4
    0.206349206349    0.137254901961    0.000000000000       4
    0.222222222222    0.137254901961    0.000000000000       4
    0.238095238095    0.137254901961    0.000000000000       4
    0.253968253968    0.137254901961    0.000000000000       4
    0.269841269841    0.137254901961    0.000000000000       4
    0.285714285714    0.137254901961    0.000000000000       4
    0.301587301587    0.137254901961    0.000000000000       4
    0.317460317460    0.137254901961    0.000000000000       4
    0.333333333333    0.137254901961    0.000000000000       4
    0.349206349206    0.137254901961    0.000000000000       4
    0.365079365079    0.137254901961    0.000000000000       4
    0.380952380952    0.137254901961    0.000000000000       4
    0.396825396825    0.137254901961    0.000000000000       4
    0.412698412698    0.137254901961    0.000000000000       4
    0.428571428571    0.137254901961    0.000000000000       4
    0.444444444444    0.137254901961    0.000000000000       4
    0.460317460317    0.137254901961    0.000000000000       4
    0.476190476190    0.137254901961    0.000000000000       4
    0.492063492063    0.137254901961    0.000000000000       4
    0.000000000000    0.156862745098    0.000000000000       2
    0.015873015873    0.156862745098    0.000000000000       4
    0.031746031746    0.156862745098    0.000000000000       4
    0.047619047619    0.156862745098    0.000000000000       4
    0.063492063492    0.156862745098    0.000000000000       4
    0.079365079365    0.156862745098    0.000000000000       4
    0.095238095238    0.156862745098    0.000000000000       4
    0.111111111111    0.156862745098    0.000000000000       4
    0.126984126984    0.156862745098    0.000000000000       4
    0.142857142857    0.156862745098    0.000000000000       4
    0.158730158730    0.156862745098    0.000000000000       4
    0.174603174603    0.156862745098    0.000000000000       4
    0.190476190476    0.156862745098    0.000000000000       4
    0.206349206349    0.156862745098    0.000000000000       4
    0.222222222222    0.156862745098    0.000000000000       4
    0.238095238095    0.156862745098    0.000000000000       4
    0.253968253968    0.156862745098    0.000000000000       4
    0.269841269841    0.156862745098    0.000000000000       4
    0.285714285714    0.156862745098    0.000000000000       4
    0.301587301587    0.156862745098    0.000000000000       4
    0.317460317460    0.156862745098    0.000000000000       4
    0.333333333333    0.156862745098    0.000000000000       4
    0.349206349206    0.156862745098    0.000000000000       4
    0.365079365079    0.156862745098    0.000000000000       4
    0.380952380952    0.156862745098    0.000000000000       4
    0.396825396825    0.156862745098    0.000000000000       4
    0.412698412698    0.156862745098    0.000000000000       4
    0.428571428571    0.156862745098    0.000000000000       4
    0.444444444444    0.156862745098    0.000000000000       4
    0.460317460317    0.156862745098    0.000000000000       4
    0.476190476190    0.156862745098    0.000000000000       4
    0.492063492063    0.156862745098    0.000000000000       4
    0.000000000000    0.176470588235    0.000000000000       2
    0.015873015873    0.176470588235    0.000000000000       4
    0.031746031746    0.176470588235    0.000000000000       4
    0.047619047619    0.176470588235    0.000000000000       4
    0.063492063492    0.176470588235    0.000000000000       4
    0.079365079365    0.176470588235    0.000000000000       4
    0.095238095238    0.176470588235    0.000000000000       4
    0.111111111111    0.176470588235    0.000000000000       4
    0.126984126984    0.176470588235    0.000000000000       4
    0.142857142857    0.176470588235    0.000000000000       4
    0.158730158730    0.176470588235    0.000000000000       4
    0.174603174603    0.176470588235    0.000000000000       4
    0.190476190476    0.176470588235    0.000000000000       4
    0.206349206349    0.176470588235    0.000000000000       4
    0.222222222222    0.176470588235    0.000000000000       4
    0.238095238095    0.176470588235    0.000000000000       4
    0.253968253968    0.176470588235    0.000000000000       4
    0.269841269841    0.176470588235    0.000000000000       4
    0.285714285714    0.176470588235    0.000000000000       4
    0.301587301587    0.176470588235    0.000000000000       4
    0.317460317460    0.176470588235    0.000000000000       4
    0.333333333333    0.176470588235    0.000000000000       4
    0.349206349206    0.176470588235    0.000000000000       4
    0.365079365079    0.176470588235    0.000000000000       4
    0.380952380952    0.176470588235    0.000000000000       4
    0.396825396825    0.176470588235    0.000000000000       4
    0.412698412698    0.176470588235    0.000000000000       4
    0.428571428571    0.176470588235    0.000000000000       4
    0.444444444444    0.176470588235    0.000000000000       4
    0.460317460317    0.176470588235    0.000000000000       4
    0.476190476190    0.176470588235    0.000000000000       4
    0.492063492063    0.176470588235    0.000000000000       4
    0.000000000000    0.196078431373    0.000000000000       2
    0.015873015873    0.196078431373    0.000000000000       4
    0.031746031746    0.196078431373    0.000000000000       4
    0.047619047619    0.196078431373    0.000000000000       4
    0.063492063492    0.196078431373    0.000000000000       4
    0.079365079365    0.196078431373    0.000000000000       4
    0.095238095238    0.196078431373    0.000000000000       4
    0.111111111111    0.196078431373    0.000000000000       4
    0.126984126984    0.196078431373    0.000000000000       4
    0.142857142857    0.196078431373    0.000000000000       4
    0.158730158730    0.196078431373    0.000000000000       4
    0.174603174603    0.196078431373    0.000000000000       4
    0.190476190476    0.196078431373    0.000000000000       4
    0.206349206349    0.196078431373    0.000000000000       4
    0.222222222222    0.196078431373    0.000000000000       4
    0.238095238095    0.196078431373    0.000000000000       4
    0.253968253968    0.196078431373    0.000000000000       4
    0.269841269841    0.196078431373    0.000000000000       4
    0.285714285714    0.196078431373    0.000000000000       4
    0.301587301587    0.196078431373    0.000000000000       4
    0.317460317460    0.196078431373    0.000000000000       4
    0.333333333333    0.196078431373    0.000000000000       4
    0.349206349206    0.196078431373    0.000000000000       4
    0.365079365079    0.196078431373    0.000000000000       4
    0.380952380952    0.196078431373    0.000000000000       4
    0.396825396825    0.196078431373    0.000000000000       4
    0.412698412698    0.196078431373    0.000000000000       4
    0.428571428571    0.196078431373    0.000000000000       4
    0.444444444444    0.196078431373    0.000000000000       4
    0.460317460317    0.196078431373    0.000000000000       4
    0.476190476190    0.196078431373    0.000000000000       4
    0.492063492063    0.196078431373    0.000000000000       4
    0.000000000000    0.215686274510    0.000000000000       2
    0.015873015873    0.215686274510    0.000000000000       4
    0.031746031746    0.215686274510    0.000000000000       4
    0.047619047619    0.215686274510    0.000000000000       4
    0.063492063492    0.215686274510    0.000000000000       4
    0.079365079365    0.215686274510    0.000000000000       4
    0.095238095238    0.215686274510    0.000000000000       4
    0.111111111111    0.215686274510    0.000000000000       4
    0.126984126984    0.215686274510    0.000000000000       4
    0.142857142857    0.215686274510    0.000000000000       4
    0.158730158730    0.215686274510    0.000000000000       4
    0.174603174603    0.215686274510    0.000000000000       4
    0.190476190476    0.215686274510    0.000000000000       4
    0.206349206349    0.215686274510    0.000000000000       4
    0.222222222222    0.215686274510    0.000000000000       4
    0.238095238095    0.215686274510    0.000000000000       4
    0.253968253968    0.215686274510    0.000000000000       4
    0.269841269841    0.215686274510    0.000000000000       4
    0.285714285714    0.215686274510    0.000000000000       4
    0.301587301587    0.215686274510    0.000000000000       4
    0.317460317460    0.215686274510    0.000000000000       4
    0.333333333333    0.215686274510    0.000000000000       4
    0.349206349206    0.215686274510    0.000000000000       4
    0.365079365079    0.215686274510    0.000000000000       4
    0.380952380952    0.215686274510    0.000000000000       4
    0.396825396825    0.215686274510    0.000000000000       4
    0.412698412698    0.215686274510    0.000000000000       4
    0.428571428571    0.215686274510    0.000000000000       4
    0.444444444444    0.215686274510    0.000000000000       4
    0.460317460317    0.215686274510    0.000000000000       4
    0.476190476190    0.215686274510    0.000000000000       4
    0.492063492063    0.215686274510    0.000000000000       4
    0.000000000000    0.235294117647    0.000000000000       2
    0.015873015873    0.235294117647    0.000000000000       4
    0.031746031746    0.235294117647    0.000000000000       4
    0.047619047619    0.235294117647    0.000000000000       4
    0.063492063492    0.235294117647    0.000000000000       4
    0.079365079365    0.235294117647    0.000000000000       4
    0.095238095238    0.235294117647    0.000000000000       4
    0.111111111111    0.235294117647    0.000000000000       4
    0.126984126984    0.235294117647    0.000000000000       4
    0.142857142857    0.235294117647    0.000000000000       4
    0.158730158730    0.235294117647    0.000000000000       4
    0.174603174603    0.235294117647    0.000000000000       4
    0.190476190476    0.235294117647    0.000000000000       4
    0.206349206349    0.235294117647    0.000000000000       4
    0.222222222222    0.235294117647    0.000000000000       4
    0.238095238095    0.235294117647    0.000000000000       4
    0.253968253968    0.235294117647    0.000000000000       4
    0.269841269841    0.235294117647    0.000000000000       4
    0.285714285714    0.235294117647    0.000000000000       4
    0.301587301587    0.235294117647    0.000000000000       4
    0.317460317460    0.235294117647    0.000000000000       4
    0.333333333333    0.235294117647    0.000000000000       4
    0.349206349206    0.235294117647    0.000000000000       4
    0.365079365079    0.235294117647    0.000000000000       4
    0.380952380952    0.235294117647    0.000000000000       4
    0.396825396825    0.235294117647    0.000000000000       4
    0.412698412698    0.235294117647    0.000000000000       4
    0.428571428571    0.235294117647    0.000000000000       4
    0.444444444444    0.235294117647    0.000000000000       4
    0.460317460317    0.235294117647    0.000000000000       4
    0.476190476190    0.235294117647    0.000000000000       4
    0.492063492063    0.235294117647    0.000000000000       4
    0.000000000000    0.254901960784    0.000000000000       2
    0.015873015873    0.254901960784    0.000000000000       4
    0.031746031746    0.254901960784    0.000000000000       4
    0.047619047619    0.254901960784    0.000000000000       4
    0.063492063492    0.254901960784    0.000000000000       4
    0.079365079365    0.254901960784    0.000000000000       4
    0.095238095238    0.254901960784    0.000000000000       4
    0.111111111111    0.254901960784    0.000000000000       4
    0.126984126984    0.254901960784    0.000000000000       4
    0.142857142857    0.254901960784    0.000000000000       4
    0.158730158730    0.254901960784    0.000000000000       4
    0.174603174603    0.254901960784    0.000000000000       4
    0.190476190476    0.254901960784    0.000000000000       4
    0.206349206349    0.254901960784    0.000000000000       4
    0.222222222222    0.254901960784    0.000000000000       4
    0.238095238095    0.254901960784    0.000000000000       4
    0.253968253968    0.254901960784    0.000000000000       4
    0.269841269841    0.254901960784    0.000000000000       4
    0.285714285714    0.254901960784    0.000000000000       4
    0.301587301587    0.254901960784    0.000000000000       4
    0.317460317460    0.254901960784    0.000000000000       4
    0.333333333333    0.254901960784    0.000000000000       4
    0.349206349206    0.254901960784    0.000000000000       4
    0.365079365079    0.254901960784    0.000000000000       4
    0.380952380952    0.254901960784    0.000000000000       4
    0.396825396825    0.254901960784    0.000000000000       4
    0.412698412698    0.254901960784    0.000000000000       4
    0.428571428571    0.254901960784    0.000000000000       4
    0.444444444444    0.254901960784    0.000000000000       4
    0.460317460317    0.254901960784    0.000000000000       4
    0.476190476190    0.254901960784    0.000000000000       4
    0.492063492063    0.254901960784    0.000000000000       4
    0.000000000000    0.274509803922    0.000000000000       2
    0.015873015873    0.274509803922    0.000000000000       4
    0.031746031746    0.274509803922    0.000000000000       4
    0.047619047619    0.274509803922    0.000000000000       4
    0.063492063492    0.274509803922    0.000000000000       4
    0.079365079365    0.274509803922    0.000000000000       4
    0.095238095238    0.274509803922    0.000000000000       4
    0.111111111111    0.274509803922    0.000000000000       4
    0.126984126984    0.274509803922    0.000000000000       4
    0.142857142857    0.274509803922    0.000000000000       4
    0.158730158730    0.274509803922    0.000000000000       4
    0.174603174603    0.274509803922    0.000000000000       4
    0.190476190476    0.274509803922    0.000000000000       4
    0.206349206349    0.274509803922    0.000000000000       4
    0.222222222222    0.274509803922    0.000000000000       4
    0.238095238095    0.274509803922    0.000000000000       4
    0.253968253968    0.274509803922    0.000000000000       4
    0.269841269841    0.274509803922    0.000000000000       4
    0.285714285714    0.274509803922    0.000000000000       4
    0.301587301587    0.274509803922    0.000000000000       4
    0.317460317460    0.274509803922    0.000000000000       4
    0.333333333333    0.274509803922    0.000000000000       4
    0.349206349206    0.274509803922    0.000000000000       4
    0.365079365079    0.274509803922    0.000000000000       4
    0.380952380952    0.274509803922    0.000000000000       4
    0.396825396825    0.274509803922    0.000000000000       4