CONTCAR\(2)                             
   1.00000000000000     
    11.8893995285000003    0.0000000000000000    0.0000000000000000
     0.0000000000000000   11.8893995285000003    0.0000000000000000
     0.0000000000000000    0.0000000000000000   25.3729991912999999
   Ce   Bi   S    O    H 
    18    18    36    20     1
Direct
  0.0014362997931556  0.9935201931869173  0.4510692611411926
  0.1685844407834622  0.1597882981293282  0.5508762280695763
  0.3341873250768259  0.9935346102312508  0.4510100148548872
  0.5000520873088874  0.1599639303057501  0.5507532026752813
  0.6669042631241950  0.9935411317055340  0.4510397807234483
  0.8342739136291257  0.1588271901471359  0.5503594258073718
  0.0014585746778479  0.3277270386813598  0.4526934897783548
  0.1690551575990042  0.4931734064794995  0.5539018659514880
  0.3341165546933453  0.3279420507684705  0.4530255538740491
  0.4993029335943646  0.4932113891269196  0.5536354630577947
  0.6670567112601162  0.3277739147985059  0.4524626401528167
  0.8342109711625909  0.4931362547455436  0.5516642692703044
  0.0013984455462221  0.6593354671932659  0.4527784182606993
  0.1685213461598281  0.8265741388665830  0.5509297622317746
  0.3340712640738772  0.6591913949111401  0.4530544606442959
  0.4999835466621789  0.8264144802695910  0.5508260081382659
  0.6670035858560226  0.6593651838874095  0.4526173593941252
  0.8342243220435535  0.8274242642184078  0.5503969863217222
  0.0070964334771020  0.9917028228304119  0.7021204893053934
  0.1668485290271349  0.1658852052029118  0.3016240387312550
  0.3368276936831052  0.9915996430679357  0.7016034468326282
  0.5001036888354662  0.1658463738063247  0.3016276261864732
  0.6666639461903259  0.9917011805933740  0.7018894302888157
  0.8335255732572406  0.1657702822306248  0.3018678894798512
  0.0037796849945479  0.3244741775257936  0.7005338288007863
  0.1668164912226615  0.4989026433590524  0.3017038570204704
  0.3373041941929316  0.3371441252037144  0.7043406635282352
  0.5001554209167551  0.4989286917505780  0.3017058217449460
  0.6699609416425076  0.3240629435848845  0.7008332260868997
  0.8335336250229801  0.4988976518836665  0.3018107842715807
  0.0036590789295232  0.6588105165060298  0.7005001800269426
  0.1668043479695385  0.8318714379395900  0.3016631188323018
  0.3373620877056140  0.6460413948488863  0.7043579037214727
  0.5001653302136333  0.8318912751993466  0.3016397827865660
  0.6700176136513250  0.6593971886078194  0.7008233170633247
  0.8335654447535958  0.8319273489087493  0.3018625502459500
  0.0013064387272834  0.9926145614124522  0.6016017087884933
  0.0005427718322437  0.9977522457085897  0.2991688670265589
  0.1676612493895249  0.1628851717848505  0.4018090894354671
  0.1681277999681043  0.1552828455266919  0.7093339347882619
  0.3354078257966719  0.9927530285047865  0.6012133704052971
  0.3336086709787693  0.9973899867253877  0.2979573991391433
  0.5002811043581801  0.1627109167459935  0.4017890480578004
  0.5030765550620799  0.1611537506398051  0.7103974432619609
  0.6673129606152912  0.9926436101817586  0.6015247796978258
  0.6668842478994605  0.9977353297841702  0.2992655718890731
  0.8342807752035952  0.1627801059705973  0.4020273649569575
  0.8334341553478666  0.1623040030401768  0.7098934267987858
  0.9975666667405036  0.3198781190569591  0.6005546922951410
  0.0003452040249101  0.3311329068316411  0.2954976478264939
  0.1673958295022544  0.4945671726979555  0.4021135145538253
  0.1669192646646138  0.4920255863809189  0.6773348044370380
  0.3342748022195892  0.3183699111350720  0.6001808312559902
  0.3337472835832145  0.3313023666053496  0.2952830595497034
  0.5003527853540461  0.4946197531081253  0.4020789551417607
  0.5002191864330925  0.4919394876964347  0.6764224123473781
  0.6712252831166481  0.3209506825543187  0.6006694261325478
  0.6669440817701329  0.3309597422805908  0.2963339136517718
  0.8344030601242878  0.4946390206187061  0.4021717807004634
  0.8384465601781415  0.4914510540775083  0.7041280138802222
  0.9974479135770409  0.6655338552255543  0.6004875247186803
  0.0001915610394434  0.6642596273084109  0.2953933968518427
  0.1673509120654302  0.8262185556706072  0.4018547115199240
  0.1681997159505357  0.8274043895209999  0.7093448311204753
  0.3341137039270805  0.6675618912956693  0.6006106442152941
  0.3337191821717980  0.6642249180763500  0.2951717723636733
  0.5003386407538954  0.8262734603076396  0.4018516912872769
  0.5032907783141525  0.8219948601652405  0.7105350689477561
  0.6712039504990130  0.6644584521868495  0.6006357488204941
  0.6671987652663773  0.6643534998478913  0.2958226991219917
  0.8340375688496096  0.8262794705837564  0.4020494759561544
  0.8333797605512530  0.8212807500605592  0.7098554175876899
  0.0011380753457573  0.1593029990889221  0.5009892684369035
  0.1678806127611168  0.9933214238506736  0.5009851865845505
  0.3342542315488117  0.1590024407328698  0.5005960515069461
  0.5006873314675673  0.9933379453561670  0.5009027402125383
  0.6673076537230713  0.1594600585078538  0.5009575574930309
  0.8342084434124430  0.9933002767438239  0.5007299059258514
  0.0008538801688829  0.4932498594423791  0.5029171468602414
  0.1671446149968006  0.3267285477682904  0.5019643714082136
  0.3341388894034338  0.4934710587132898  0.5024838945798820
  0.5014235984852604  0.3268141534537179  0.5018143776210167
  0.6676044320202337  0.4932987156555555  0.5026981376004045
  0.8342292945429008  0.3267419651075514  0.5015169314907411
  0.0010709863620875  0.8272058121243546  0.5010672397555354
  0.1672313447025360  0.6600002990253344  0.5020125620254134
  0.3341794523137054  0.8274333991231799  0.5006419818718228
  0.5012277148340161  0.6599810932022692  0.5019167388751242
  0.6673120563556907  0.8270724405207091  0.5010681329383999
  0.8341993471707454  0.6599351008904932  0.5015602352278066
  0.2579549877783833  0.4835323558285651  0.8040508705229144
  0.3591382307161126  0.4887433636537324  0.7699556546104915
  0.2941157883037064  0.4755122201897279  0.8384958556213604
 
  0.00000000E+00  0.00000000E+00  0.00000000E+00
  0.00000000E+00  0.00000000E+00  0.00000000E+00
  0.00000000E+00  0.00000000E+00  0.00000000E+00
  0.00000000E+00  0.00000000E+00  0.00000000E+00
  0.00000000E+00  0.00000000E+00  0.00000000E+00
  0.00000000E+00  0.00000000E+00  0.00000000E+00
  0.00000000E+00  0.00000000E+00  0.00000000E+00
  0.00000000E+00  0.00000000E+00  0.00000000E+00
  0.00000000E+00  0.00000000E+00  0.00000000E+00
  0.00000000E+00  0.00000000E+00  0.00000000E+00
  0.00000000E+00  0.00000000E+00  0.00000000E+00
  0.00000000E+00  0.00000000E+00  0.00000000E+00
  0.00000000E+00  0.00000000E+00  0.00000000E+00
  0.00000000E+00  0.00000000E+00  0.00000000E+00
  0.00000000E+00  0.00000000E+00  0.00000000E+00
  0.00000000E+00  0.00000000E+00  0.00000000E+00
  0.00000000E+00  0.00000000E+00  0.00000000E+00
  0.00000000E+00  0.00000000E+00  0.00000000E+00
  0.00000000E+00  0.00000000E+00  0.00000000E+00
  0.00000000E+00  0.00000000E+00  0.00000000E+00
  0.00000000E+00  0.00000000E+00  0.00000000E+00
  0.00000000E+00  0.00000000E+00  0.00000000E+00
  0.00000000E+00  0.00000000E+00  0.00000000E+00
  0.00000000E+00  0.00000000E+00  0.00000000E+00
  0.00000000E+00  0.00000000E+00  0.00000000E+00
  0.00000000E+00  0.00000000E+00  0.00000000E+00
  0.00000000E+00  0.00000000E+00  0.00000000E+00
  0.00000000E+00  0.00000000E+00  0.00000000E+00
  0.00000000E+00  0.00000000E+00  0.00000000E+00
  0.00000000E+00  0.00000000E+00  0.00000000E+00
  0.00000000E+00  0.00000000E+00  0.00000000E+00
  0.00000000E+00  0.00000000E+00  0.00000000E+00
  0.00000000E+00  0.00000000E+00  0.00000000E+00
  0.00000000E+00  0.00000000E+00  0.00000000E+00
  0.00000000E+00  0.00000000E+00  0.00000000E+00
  0.00000000E+00  0.00000000E+00  0.00000000E+00
  0.00000000E+00  0.00000000E+00  0.00000000E+00
  0.00000000E+00  0.00000000E+00  0.00000000E+00
  0.00000000E+00  0.00000000E+00  0.00000000E+00
  0.00000000E+00  0.00000000E+00  0.00000000E+00
  0.00000000E+00  0.00000000E+00  0.00000000E+00
  0.00000000E+00  0.00000000E+00  0.00000000E+00
  0.00000000E+00  0.00000000E+00  0.00000000E+00
  0.00000000E+00  0.00000000E+00  0.00000000E+00
  0.00000000E+00  0.00000000E+00  0.00000000E+00
  0.00000000E+00  0.00000000E+00  0.00000000E+00
  0.00000000E+00  0.00000000E+00  0.00000000E+00
  0.00000000E+00  0.00000000E+00  0.00000000E+00
  0.00000000E+00  0.00000000E+00  0.00000000E+00
  0.00000000E+00  0.00000000E+00  0.00000000E+00
  0.00000000E+00  0.00000000E+00  0.00000000E+00
  0.00000000E+00  0.00000000E+00  0.00000000E+00
  0.00000000E+00  0.00000000E+00  0.00000000E+00
  0.00000000E+00  0.00000000E+00  0.00000000E+00
  0.00000000E+00  0.00000000E+00  0.00000000E+00
  0.00000000E+00  0.00000000E+00  0.00000000E+00
  0.00000000E+00  0.00000000E+00  0.00000000E+00
  0.00000000E+00  0.00000000E+00  0.00000000E+00
  0.00000000E+00  0.00000000E+00  0.00000000E+00
  0.00000000E+00  0.00000000E+00  0.00000000E+00
  0.00000000E+00  0.00000000E+00  0.00000000E+00
  0.00000000E+00  0.00000000E+00  0.00000000E+00
  0.00000000E+00  0.00000000E+00  0.00000000E+00
  0.00000000E+00  0.00000000E+00  0.00000000E+00
  0.00000000E+00  0.00000000E+00  0.00000000E+00
  0.00000000E+00  0.00000000E+00  0.00000000E+00
  0.00000000E+00  0.00000000E+00  0.00000000E+00
  0.00000000E+00  0.00000000E+00  0.00000000E+00
  0.00000000E+00  0.00000000E+00  0.00000000E+00
  0.00000000E+00  0.00000000E+00  0.00000000E+00
  0.00000000E+00  0.00000000E+00  0.00000000E+00
  0.00000000E+00  0.00000000E+00  0.00000000E+00
  0.00000000E+00  0.00000000E+00  0.00000000E+00
  0.00000000E+00  0.00000000E+00  0.00000000E+00
  0.00000000E+00  0.00000000E+00  0.00000000E+00
  0.00000000E+00  0.00000000E+00  0.00000000E+00
  0.00000000E+00  0.00000000E+00  0.00000000E+00
  0.00000000E+00  0.00000000E+00  0.00000000E+00
  0.00000000E+00  0.00000000E+00  0.00000000E+00
  0.00000000E+00  0.00000000E+00  0.00000000E+00
  0.00000000E+00  0.00000000E+00  0.00000000E+00
  0.00000000E+00  0.00000000E+00  0.00000000E+00
  0.00000000E+00  0.00000000E+00  0.00000000E+00
  0.00000000E+00  0.00000000E+00  0.00000000E+00
  0.00000000E+00  0.00000000E+00  0.00000000E+00
  0.00000000E+00  0.00000000E+00  0.00000000E+00
  0.00000000E+00  0.00000000E+00  0.00000000E+00
  0.00000000E+00  0.00000000E+00  0.00000000E+00
  0.00000000E+00  0.00000000E+00  0.00000000E+00
  0.00000000E+00  0.00000000E+00  0.00000000E+00
  0.00000000E+00  0.00000000E+00  0.00000000E+00
  0.00000000E+00  0.00000000E+00  0.00000000E+00
  0.00000000E+00  0.00000000E+00  0.00000000E+00
