CONTCAR                                 
   1.00000000000000     
    11.6387996674000007    0.0000000000000000    0.0000000000000000
     5.8194217944000002   10.1357943405000004    0.0000000000000000
     0.0000000000000000    0.0000000000000000   18.1699008942000013
   Li   Ni   P    S    O    H 
     4     4     8    24     2     1
Direct
  0.3265311691561918  0.3231448771786132  0.4984228970156162
  0.8322235925099006  0.3271515285940605  0.4975082395444714
  0.3291488732301676  0.8303799689586184  0.5023323168601045
  0.8299946690156682  0.8284758199814704  0.4839564506141949
  0.1613408223480198  0.1617355761770939  0.4925307176562410
  0.6699589949607544  0.1438959280550104  0.4898388655156612
  0.1593387398578076  0.6671816808518597  0.4968180670254115
  0.6677957959947732  0.6567194216805009  0.4986211761598122
  0.4947320685009090  0.5089426135068000  0.5751832696186772
  0.9948204846537401  0.4943306329594066  0.4310934038186685
  0.9954346588006294  0.4974635161336398  0.5510837471519190
  0.4962005362930133  0.4896422087311679  0.4539453292590937
  0.4962804494567768  0.9943219173097160  0.5536959526235268
  0.0009999055404802  0.9892126658868676  0.4286579930986471
  0.9914214496872806  0.9950794413311365  0.5485925061054040
  0.4962981911689332  0.9932103842543424  0.4338052694969108
  0.0119343053688371  0.3216748139949469  0.5811423332192025
  0.3186060501216798  0.1547786439786633  0.5813399994697506
  0.0139965286779333  0.1535395556930409  0.4048083640808049
  0.1575456446412755  0.3169717558229180  0.4061251305692387
  0.3189951069446046  0.0097498144112170  0.4070140509765021
  0.1474542200509302  0.0157040549969802  0.5814249802717937
  0.4989684263751273  0.3349805448587171  0.6203989138554128
  0.8107988110230295  0.1554782094306418  0.5736959077030898
  0.5114230110436292  0.1594966404307263  0.4128618030346655
  0.6541379082014527  0.3153532960387002  0.4208763889800319
  0.8337336769907765 -0.0016581133811162  0.3931599812613464
  0.6585017074482141  0.0134422469866375  0.5772199148341203
  0.0041716780563997  0.8189738352672908  0.5761045583076880
  0.3202612954206472  0.6688353413920928  0.5974701640465169
  0.0087458036538990  0.6526955996895158  0.3999176183286704
  0.1721539878921659  0.8108364608551905  0.4129193551268233
  0.3192559805108732  0.5079073586865560  0.4225611071978950
  0.1542049938561471  0.5168915418561968  0.5801583007033977
  0.5152260110008792  0.8187492692011530  0.5845227161122601
  0.8193976045811890  0.6627139559477073  0.5769032233423592
  0.5128111645362332  0.6496487085538227  0.4219236870320539
  0.6545833414717368  0.8200151214265159  0.4037339385861328
  0.8157131034605518  0.5054245504948828  0.4107263750701177
  0.6674282859581128  0.5059132251825665  0.5939273482174627
  0.3867596941333835  0.4013657552198786  0.6864290369932815
  0.4472180713182036  0.4145855298296902  0.7570685451750464
  0.4556928370870329  0.3373950025446047  0.7835700019399670
 
  0.00000000E+00  0.00000000E+00  0.00000000E+00
  0.00000000E+00  0.00000000E+00  0.00000000E+00
  0.00000000E+00  0.00000000E+00  0.00000000E+00
  0.00000000E+00  0.00000000E+00  0.00000000E+00
  0.00000000E+00  0.00000000E+00  0.00000000E+00
  0.00000000E+00  0.00000000E+00  0.00000000E+00
  0.00000000E+00  0.00000000E+00  0.00000000E+00
  0.00000000E+00  0.00000000E+00  0.00000000E+00
  0.00000000E+00  0.00000000E+00  0.00000000E+00
  0.00000000E+00  0.00000000E+00  0.00000000E+00
  0.00000000E+00  0.00000000E+00  0.00000000E+00
  0.00000000E+00  0.00000000E+00  0.00000000E+00
  0.00000000E+00  0.00000000E+00  0.00000000E+00
  0.00000000E+00  0.00000000E+00  0.00000000E+00
  0.00000000E+00  0.00000000E+00  0.00000000E+00
  0.00000000E+00  0.00000000E+00  0.00000000E+00
  0.00000000E+00  0.00000000E+00  0.00000000E+00
  0.00000000E+00  0.00000000E+00  0.00000000E+00
  0.00000000E+00  0.00000000E+00  0.00000000E+00
  0.00000000E+00  0.00000000E+00  0.00000000E+00
  0.00000000E+00  0.00000000E+00  0.00000000E+00
  0.00000000E+00  0.00000000E+00  0.00000000E+00
  0.00000000E+00  0.00000000E+00  0.00000000E+00
  0.00000000E+00  0.00000000E+00  0.00000000E+00
  0.00000000E+00  0.00000000E+00  0.00000000E+00
  0.00000000E+00  0.00000000E+00  0.00000000E+00
  0.00000000E+00  0.00000000E+00  0.00000000E+00
  0.00000000E+00  0.00000000E+00  0.00000000E+00
  0.00000000E+00  0.00000000E+00  0.00000000E+00
  0.00000000E+00  0.00000000E+00  0.00000000E+00
  0.00000000E+00  0.00000000E+00  0.00000000E+00
  0.00000000E+00  0.00000000E+00  0.00000000E+00
  0.00000000E+00  0.00000000E+00  0.00000000E+00
  0.00000000E+00  0.00000000E+00  0.00000000E+00
  0.00000000E+00  0.00000000E+00  0.00000000E+00
  0.00000000E+00  0.00000000E+00  0.00000000E+00
  0.00000000E+00  0.00000000E+00  0.00000000E+00
  0.00000000E+00  0.00000000E+00  0.00000000E+00
  0.00000000E+00  0.00000000E+00  0.00000000E+00
  0.00000000E+00  0.00000000E+00  0.00000000E+00
  0.00000000E+00  0.00000000E+00  0.00000000E+00
  0.00000000E+00  0.00000000E+00  0.00000000E+00
  0.00000000E+00  0.00000000E+00  0.00000000E+00
