 Bi3 Se4                                
   1.00000000000000     
     4.3021116303725764    0.0000000000000000    0.0000000000000000
     2.1510558151862882    3.7257824093384428    0.0000000000000000
     0.0000000000000000    0.0000000000000000   25.2429972670300060
   Bi   Se
     3     4
Direct
  0.0000000413830552 -0.0000000421686107  0.5000352069377736
  0.3333332909041365  0.3333334573533075  0.3540661736506915
  0.6666668159475798  0.6666663792247082  0.6459607658996176
 -0.0000002643219547  0.0000002821459536  0.2977574795409668
  0.0000001041661582 -0.0000000060772449  0.7022223244437370
  0.3333334113038174  0.3333333690646352  0.5659901718802998
  0.6666666006172102  0.6666665604572506  0.4339678776469114
 
  0.00000000E+00  0.00000000E+00  0.00000000E+00
  0.00000000E+00  0.00000000E+00  0.00000000E+00
  0.00000000E+00  0.00000000E+00  0.00000000E+00
  0.00000000E+00  0.00000000E+00  0.00000000E+00
  0.00000000E+00  0.00000000E+00  0.00000000E+00
  0.00000000E+00  0.00000000E+00  0.00000000E+00
  0.00000000E+00  0.00000000E+00  0.00000000E+00
