 Dy2 Te6                                
   1.00000000000000     
     4.3429646286281542    0.0000000000000000    0.0000000000000000
     0.0000000000000000    4.3428737874075614    0.0000000000000000
     0.0000000000000000    0.0000000000000000   24.1073430299040012
   Dy   Te
     2     6
Direct
  0.4999999430959718  0.9999999815311895  0.5852641165401691
  0.0000001023182108  0.5000000455276705  0.4147358672088445
  0.9999999913890179  0.9999999887678968  0.3109162457745295
  0.4999999920546827  0.4999999870924512  0.6890837394167509
  0.0000000024031053  0.9999999868415088  0.6890657016066972
  0.5000000023579645  0.4999999898547571  0.3109342893026901
  0.5000000114845662  0.0000000107168390  0.4531655215401895
  0.9999999548964809  0.5000000096676942  0.5468345186101363
 
  0.00000000E+00  0.00000000E+00  0.00000000E+00
  0.00000000E+00  0.00000000E+00  0.00000000E+00
  0.00000000E+00  0.00000000E+00  0.00000000E+00
  0.00000000E+00  0.00000000E+00  0.00000000E+00
  0.00000000E+00  0.00000000E+00  0.00000000E+00
  0.00000000E+00  0.00000000E+00  0.00000000E+00
  0.00000000E+00  0.00000000E+00  0.00000000E+00
  0.00000000E+00  0.00000000E+00  0.00000000E+00
