CONTCAR\(4)                             
   1.00000000000000     
    14.3999004363999994    0.0000000000000000    0.0000000000000000
    -3.5999958350000001   11.0732005957999995    0.0000000000000000
     0.0000000000000000    0.0000000000000000   23.2912006377999994
   K    V    O 
     8    32    81
Selective dynamics
Direct
  0.1103480155174168  0.4705109625158812  0.4947510199874117   F   F   F
  0.4044362379193203  0.5432023314881036  0.4949830958486316   F   F   F
  0.5879472615262173  0.3621436681680947  0.4977730921019088   F   F   F
  0.8633858807655770  0.5342901687722517  0.4917066192719446   F   F   F
  0.1591105648093816  0.0797840865959714  0.5012319962654459   F   F   F
  0.3117490331935926  0.8145420701618775  0.5318316585655509   F   F   F
  0.6409928796054629  0.0603968138138669  0.4969368962682452   F   F   F
  0.8633017356848924  0.8710880294243424  0.4892933983237526   F   F   F
  0.0505060816999929  0.1956077334602853  0.3543872798989511   F   F   F
  0.0553057592324819  0.2546490355239897  0.6258281056307666   F   F   F
  0.2268038595904969  0.3879006087886765  0.3583151004274399   F   F   F
  0.2366993741029972  0.4717809511422999  0.6435315104165298   F   F   F
  0.3022803596749242  0.1884045935707306  0.3528805162875273   F   F   F
  0.3114811712329697  0.2570950588575016  0.6405580887660918   F   F   F
  0.4760236243559177  0.3979332028485700  0.3476078824673294   F   F   F
  0.4939148296478635  0.4714230178197099  0.6454453586444089   F   F   F
  0.5493012115581664  0.1879383370389078  0.3483725245582079   F   F   F
  0.5516240483767945  0.2369813209672387  0.6552892050157055   F   F   F
  0.7245721486499761  0.3970663056440102  0.3433747171711872   F   F   F
  0.7278729244769480  0.4554627137903537  0.6491995981831593   F   F   F
  0.7968038646698901  0.1928596351804757  0.3466090754386855   F   F   F
  0.7981876382534949  0.2470139211445357  0.6378391979580229   F   F   F
  0.9704946950288686  0.3874829057943572  0.3522752335382791   F   F   F
  0.9770963898316296  0.4614397034687059  0.6403290528624410   F   F   F
  0.0449914662919468  0.6827521357762265  0.3534417702964845   F   F   F
  0.0641489039332512  0.7478657145920664  0.6634677304403027   F   F   F
  0.2240951730566394  0.8930747177803795  0.3600171621532908   F   F   F
  0.2331410298715682  0.9711031520285829  0.6710830577398923   F   F   F
  0.2971432812359609  0.6836869522560320  0.3668842834774111   F   F   F
  0.2818943261616056  0.7228114589015462  0.7124145056588702   F   F   F
  0.4758812542144426  0.8926943009514190  0.3636073921274985   F   F   F
  0.4483591717371951  0.9432084499270204  0.6627771377624256   F   F   F
  0.5549694782219419  0.6901961230123277  0.3565558493647529   F   F   F
  0.5683433507995304  0.7762528253843968  0.6254147848869280   F   F   F
  0.7284576207664983  0.9006966307048003  0.3505677437750379   F   F   F
  0.7562725306753748  0.9662260822155488  0.6148501051541828   F   F   F
  0.8018822353007664  0.6916603438819919  0.3469993625465548   F   F   F
  0.8178550291305910  0.7423274443642853  0.6370018629569927   F   F   F
  0.9839433765662662  0.9027341982954411  0.3467172967923844   F   F   F
  0.9922840820111034  0.9564765721177437  0.6447133812440384   F   F   F
  0.0182620525404644  0.0472778039038104  0.3178698598295995   F   F   F
  0.0544453001542848  0.2355470107648685  0.5571224011649605   F   F   F
  0.0428456296560071  0.1714321207472338  0.4223031564427160   F   F   F
  0.0235831300789116  0.1126456003075873  0.6622965225507684   F   F   F
  0.0954329124614048  0.3704999176535964  0.3411145671897131   F   F   F
  0.0959018833098568  0.4251445493197679  0.6446089614987542   F   F   F
  0.1831352599757707  0.2171484297798898  0.3358749936467404   F   F   F
  0.2368500034659746  0.3974295819539861  0.4276518438558483   F   F   F
  0.1930545784184901  0.3004894444949500  0.6417041447141685   F   F   F
  0.2556396081343166  0.5441207992179287  0.5822695363311894   F   F   F
  0.2643096804538132  0.0367823745667195  0.3263356791465100   F   F   F
  0.3149005198178969  0.2213420905486245  0.5739102728997878   F   F   F
  0.3042641583514651  0.1776253540086543  0.4216149685617623   F   F   F
  0.2518871153580733  0.1293104821203670  0.6822488289971105   F   F   F
  0.3433984965204360  0.3642932214919554  0.3311093770092484   F   F   F
  0.3553869062027957  0.4350397618651201  0.6537256925931914   F   F   F
  0.4329940276824402  0.2207125000807011  0.3295356553734976   F   F   F
  0.4796434949009623  0.4115584164907276  0.4167762290960653   F   F   F
  0.4377310829903962  0.2839607142576881  0.6670293013675064   F   F   F
  0.5056958989891172  0.4704814181846615  0.5761506596571309   F   F   F
  0.5078054996639665  0.0351951342366092  0.3265419979747719   F   F   F
  0.5489943056843103  0.2127478798681750  0.5869420357449400   F   F   F
  0.5545491100236077  0.1838816274259898  0.4177334560829280   F   F   F
  0.5241925770410774  0.0979572214479987  0.6883832547303115   F   F   F
  0.5916140809365231  0.3658335728930524  0.3261366714808034   F   F   F
  0.5970900444798488  0.4199850159474821  0.6727931441455723   F   F   F
  0.6789771136940033  0.2211610291442270  0.3235054983840797   F   F   F
  0.7289503362279390  0.4122298052258699  0.4124992159829617   F   F   F
  0.6889241177477672  0.2818199467109892  0.6695868563895857   F   F   F
  0.7224660005598835  0.4648970361881979  0.5801134206519833   F   F   F
  0.7601266490868994  0.0420428661594414  0.3164478377508644   F   F   F
  0.7777535769748809  0.2461241504743299  0.5699110673636554   F   F   F
  0.7847022062355720  0.1787412674571343  0.4149137669619307   F   F   F
  0.7682706446537253  0.0956034129110748  0.6612721532194215   F   F   F
  0.8416725687037214  0.3648747147626352  0.3249231274949196   F   F   F
  0.8463977592935521  0.4226478367046482  0.6631540157848335   F   F   F
  0.9305968706303389  0.2156871026813860  0.3319045746497693   F   F   F
  0.9622198539339237  0.4043460668826953  0.4207310838995966   F   F   F
  0.9352416978877116  0.2835380575565694  0.6444309121631449   F   F   F
  0.9766593597069217  0.5013384903319889  0.5736893771132827   F   F   F
  0.0116395713824389  0.5395949621595122  0.3220480772852881   F   F   F
  0.0917483256024738  0.7418512505218686  0.5969617425860392   F   F   F
  0.0281896721652117  0.6644719632262976  0.4219395744952124   F   F   F
  0.0191969385759165  0.5920944995619166  0.6848564107362236   F   F   F
  0.0962539888646532  0.8575884215498633  0.3303147240191890   F   F   F
  0.0961233753946829  0.9277020414307060  0.6821232560285537   F   F   F
  0.1813153987301561  0.7151923384118533  0.3458980127339188   F   F   F
  0.2185255228283935  0.9128797112251732  0.4285337211074065   F   F   F
  0.1829598695119472  0.7911391840379949  0.7043437759544062   F   F   F
  0.2426054531140309  0.9590100560757051  0.6024904400995510   F   F   F
  0.2649400410634968  0.5425901498653687  0.3330736308435434   F   F   F
  0.3530104518687978  0.7778193757547385  0.6540470064639621   F   F   F
  0.2872604429286909  0.6622132329430315  0.4363337803961400   F   F   F
  0.2431987074720752  0.5604690265477004  0.7053716698258654   F   F   F
  0.3411555849911139  0.8578473140387786  0.3476564409363547   F   F   F
  0.3461394179908766  0.9714074828626309  0.7012621751526282   F   F   F
  0.4317576314187122  0.7169827915067160  0.3511297540862373   F   F   F
  0.4858095594625382  0.9172323097684298  0.4319265332781370   F   F   F
  0.5310875696394817  0.8573341461190722  0.6805909369426359   F   F   F
  0.4494151326503371  0.9706964524225725  0.5950255085671330   F   F   F
  0.5137617312823721  0.5479614534393775  0.3202600959070026   F   F   F
  0.4951882037336688  0.7289912287104841  0.5713108706329919   F   F   F
  0.5642286458728449  0.6663491053165203  0.4240705108354419   F   F   F
  0.5347321515244090  0.6207058008757613  0.6648315168473147   F   F   F
  0.5916933811535969  0.8634757490261009  0.3389001683152344   F   F   F
  0.6357799922553724  0.9309315190284693  0.5908399323452826   F   F   F
  0.6859269287055554  0.7275099436564147  0.3295428765746919   F   F   F
  0.7351107447129905  0.9217111215757541  0.4191985288826814   F   F   F
  0.7013428391691505  0.7842155651356109  0.6286605433003558   F   F   F
  0.8161013266363710  0.0166644184288245  0.5565073637917450   F   F   F
  0.7632539826017251  0.5463668112932680  0.3142331482556457   F   F   F
  0.8360335695495280  0.7093374688966207  0.5711467273163393   F   F   F
  0.7987524151890071  0.6726142269499178  0.4158848386370622   F   F   F
  0.7670391291387659  0.6061916644372474  0.6763399547456004   F   F   F
  0.8473626046840650  0.8683186247708221  0.3332642500289538   F   F   F
  0.8561423962669821  0.9157309642248279  0.6542684889803283   F   F   F
  0.9346614579967891  0.7250323068495419  0.3278994345637969   F   F   F
  0.9966867203923329  0.9197215913040750  0.4153108458298220   F   F   F
  0.9436219996937112  0.7750704140336708  0.6671735372254162   F   F   F
  0.0122885450204606  0.9533894311705495  0.5764881564555964   F   F   F
  0.3417403837552797  0.7616341189063434  0.7704667887785697   T   T   T
 
  0.00000000E+00  0.00000000E+00  0.00000000E+00
  0.00000000E+00  0.00000000E+00  0.00000000E+00
  0.00000000E+00  0.00000000E+00  0.00000000E+00
  0.00000000E+00  0.00000000E+00  0.00000000E+00
  0.00000000E+00  0.00000000E+00  0.00000000E+00
  0.00000000E+00  0.00000000E+00  0.00000000E+00
  0.00000000E+00  0.00000000E+00  0.00000000E+00
  0.00000000E+00  0.00000000E+00  0.00000000E+00
  0.00000000E+00  0.00000000E+00  0.00000000E+00
  0.00000000E+00  0.00000000E+00  0.00000000E+00
  0.00000000E+00  0.00000000E+00  0.00000000E+00
  0.00000000E+00  0.00000000E+00  0.00000000E+00
  0.00000000E+00  0.00000000E+00  0.00000000E+00
  0.00000000E+00  0.00000000E+00  0.00000000E+00
  0.00000000E+00  0.00000000E+00  0.00000000E+00
  0.00000000E+00  0.00000000E+00  0.00000000E+00
  0.00000000E+00  0.00000000E+00  0.00000000E+00
  0.00000000E+00  0.00000000E+00  0.00000000E+00
  0.00000000E+00  0.00000000E+00  0.00000000E+00
  0.00000000E+00  0.00000000E+00  0.00000000E+00
  0.00000000E+00  0.00000000E+00  0.00000000E+00
  0.00000000E+00  0.00000000E+00  0.00000000E+00
  0.00000000E+00  0.00000000E+00  0.00000000E+00
  0.00000000E+00  0.00000000E+00  0.00000000E+00
  0.00000000E+00  0.00000000E+00  0.00000000E+00
  0.00000000E+00  0.00000000E+00  0.00000000E+00
  0.00000000E+00  0.00000000E+00  0.00000000E+00
  0.00000000E+00  0.00000000E+00  0.00000000E+00
  0.00000000E+00  0.00000000E+00  0.00000000E+00
  0.00000000E+00  0.00000000E+00  0.00000000E+00
  0.00000000E+00  0.00000000E+00  0.00000000E+00
  0.00000000E+00  0.00000000E+00  0.00000000E+00
  0.00000000E+00  0.00000000E+00  0.00000000E+00
  0.00000000E+00  0.00000000E+00  0.00000000E+00
  0.00000000E+00  0.00000000E+00  0.00000000E+00
  0.00000000E+00  0.00000000E+00  0.00000000E+00
  0.00000000E+00  0.00000000E+00  0.00000000E+00
  0.00000000E+00  0.00000000E+00  0.00000000E+00
  0.00000000E+00  0.00000000E+00  0.00000000E+00
  0.00000000E+00  0.00000000E+00  0.00000000E+00
  0.00000000E+00  0.00000000E+00  0.00000000E+00
  0.00000000E+00  0.00000000E+00  0.00000000E+00
  0.00000000E+00  0.00000000E+00  0.00000000E+00
  0.00000000E+00  0.00000000E+00  0.00000000E+00
  0.00000000E+00  0.00000000E+00  0.00000000E+00
  0.00000000E+00  0.00000000E+00  0.00000000E+00
  0.00000000E+00  0.00000000E+00  0.00000000E+00
  0.00000000E+00  0.00000000E+00  0.00000000E+00
  0.00000000E+00  0.00000000E+00  0.00000000E+00
  0.00000000E+00  0.00000000E+00  0.00000000E+00
  0.00000000E+00  0.00000000E+00  0.00000000E+00
  0.00000000E+00  0.00000000E+00  0.00000000E+00
  0.00000000E+00  0.00000000E+00  0.00000000E+00
  0.00000000E+00  0.00000000E+00  0.00000000E+00
  0.00000000E+00  0.00000000E+00  0.00000000E+00
  0.00000000E+00  0.00000000E+00  0.00000000E+00
  0.00000000E+00  0.00000000E+00  0.00000000E+00
  0.00000000E+00  0.00000000E+00  0.00000000E+00
  0.00000000E+00  0.00000000E+00  0.00000000E+00
  0.00000000E+00  0.00000000E+00  0.00000000E+00
  0.00000000E+00  0.00000000E+00  0.00000000E+00
  0.00000000E+00  0.00000000E+00  0.00000000E+00
  0.00000000E+00  0.00000000E+00  0.00000000E+00
  0.00000000E+00  0.00000000E+00  0.00000000E+00
  0.00000000E+00  0.00000000E+00  0.00000000E+00
  0.00000000E+00  0.00000000E+00  0.00000000E+00
  0.00000000E+00  0.00000000E+00  0.00000000E+00
  0.00000000E+00  0.00000000E+00  0.00000000E+00
  0.00000000E+00  0.00000000E+00  0.00000000E+00
  0.00000000E+00  0.00000000E+00  0.00000000E+00
  0.00000000E+00  0.00000000E+00  0.00000000E+00
  0.00000000E+00  0.00000000E+00  0.00000000E+00
  0.00000000E+00  0.00000000E+00  0.00000000E+00
  0.00000000E+00  0.00000000E+00  0.00000000E+00
  0.00000000E+00  0.00000000E+00  0.00000000E+00
  0.00000000E+00  0.00000000E+00  0.00000000E+00
  0.00000000E+00  0.00000000E+00  0.00000000E+00
  0.00000000E+00  0.00000000E+00  0.00000000E+00
  0.00000000E+00  0.00000000E+00  0.00000000E+00
  0.00000000E+00  0.00000000E+00  0.00000000E+00
  0.00000000E+00  0.00000000E+00  0.00000000E+00
  0.00000000E+00  0.00000000E+00  0.00000000E+00
  0.00000000E+00  0.00000000E+00  0.00000000E+00
  0.00000000E+00  0.00000000E+00  0.00000000E+00
  0.00000000E+00  0.00000000E+00  0.00000000E+00
  0.00000000E+00  0.00000000E+00  0.00000000E+00
  0.00000000E+00  0.00000000E+00  0.00000000E+00
  0.00000000E+00  0.00000000E+00  0.00000000E+00
  0.00000000E+00  0.00000000E+00  0.00000000E+00
  0.00000000E+00  0.00000000E+00  0.00000000E+00
  0.00000000E+00  0.00000000E+00  0.00000000E+00
  0.00000000E+00  0.00000000E+00  0.00000000E+00
  0.00000000E+00  0.00000000E+00  0.00000000E+00
  0.00000000E+00  0.00000000E+00  0.00000000E+00
  0.00000000E+00  0.00000000E+00  0.00000000E+00
  0.00000000E+00  0.00000000E+00  0.00000000E+00
  0.00000000E+00  0.00000000E+00  0.00000000E+00
  0.00000000E+00  0.00000000E+00  0.00000000E+00
  0.00000000E+00  0.00000000E+00  0.00000000E+00
  0.00000000E+00  0.00000000E+00  0.00000000E+00
  0.00000000E+00  0.00000000E+00  0.00000000E+00
  0.00000000E+00  0.00000000E+00  0.00000000E+00
  0.00000000E+00  0.00000000E+00  0.00000000E+00
  0.00000000E+00  0.00000000E+00  0.00000000E+00
  0.00000000E+00  0.00000000E+00  0.00000000E+00
  0.00000000E+00  0.00000000E+00  0.00000000E+00
  0.00000000E+00  0.00000000E+00  0.00000000E+00
  0.00000000E+00  0.00000000E+00  0.00000000E+00
  0.00000000E+00  0.00000000E+00  0.00000000E+00
  0.00000000E+00  0.00000000E+00  0.00000000E+00
  0.00000000E+00  0.00000000E+00  0.00000000E+00
  0.00000000E+00  0.00000000E+00  0.00000000E+00
  0.00000000E+00  0.00000000E+00  0.00000000E+00
  0.00000000E+00  0.00000000E+00  0.00000000E+00
  0.00000000E+00  0.00000000E+00  0.00000000E+00
  0.00000000E+00  0.00000000E+00  0.00000000E+00
  0.00000000E+00  0.00000000E+00  0.00000000E+00
  0.00000000E+00  0.00000000E+00  0.00000000E+00
  0.00000000E+00  0.00000000E+00  0.00000000E+00
  0.00000000E+00  0.00000000E+00  0.00000000E+00
  0.00000000E+00  0.00000000E+00  0.00000000E+00
