CONTCAR\(18)                            
   1.00000000000000     
    12.8629999160999997    0.0000000000000000    0.0000000000000000
     0.0000000000000000   14.3196001052999993    0.0000000000000000
     0.0000000000000000    0.0000000000000000   19.5569992064999987
   Ag   Au   S 
    12    24    24
Direct
  0.0821680833282223  0.3215785886562905  0.6016886269342466
  0.2511719156717809  0.0715785806562898  0.6016886269342466
  0.4154980933282197  0.3215785886562905  0.6016886269342466
  0.5845019436717797  0.0715785806562898  0.6016886269342466
  0.7488380743282216  0.3215785886562905  0.6016886269342466
  0.9178319536717771  0.0715785806562898  0.6016886269342466
  0.0821680833282223  0.8215786226562932  0.6016886269342466
  0.2511719156717809  0.5715786386562945  0.6016886269342466
  0.4154980933282197  0.8215786226562932  0.6016886269342466
  0.5845019436717797  0.5715786386562945  0.6016886269342466
  0.7488380743282216  0.8215786226562932  0.6016886269342466
  0.9178319536717771  0.5715786386562945  0.6016886269342466
  0.0341222476437949  0.4932512439248503  0.4881318011166071
  0.2992077543562089  0.2432512599248516  0.4881318011166071
  0.1669699392829801  0.3726604977098650  0.4037699853106834
  0.1663700607170197  0.1226605147098628  0.4037699853106834
  0.3674522276437898  0.4932512439248503  0.4881318011166071
  0.6325477723562103  0.2432512599248516  0.4881318011166071
  0.5002999672829790  0.3726604977098650  0.4037699853106834
  0.4997000327170210  0.1226605147098628  0.4037699853106834
  0.7007922086437914  0.4932512439248503  0.4881318011166071
  0.9658777453562082  0.2432512599248516  0.4881318011166071
  0.8336299392829803  0.3726604977098650  0.4037699853106834
  0.8330300047170224  0.1226605147098628  0.4037699853106834
  0.0341222476437949  0.9932513099248486  0.4881318011166071
  0.2992077543562089  0.7432512599248515  0.4881318011166071
  0.1669699392829801  0.8726605647098599  0.4037699853106834
  0.1663700607170197  0.6226605147098628  0.4037699853106834
  0.3674522276437898  0.9932513099248486  0.4881318011166071
  0.6325477723562103  0.7432512599248515  0.4881318011166071
  0.5002999672829790  0.8726605647098599  0.4037699853106834
  0.4997000327170210  0.6226605147098628  0.4037699853106834
  0.7007922086437914  0.9932513099248486  0.4881318011166071
  0.9658777453562082  0.7432512599248515  0.4881318011166071
  0.8336299392829803  0.8726605647098599  0.4037699853106834
  0.8330300047170224  0.6226605147098628  0.4037699853106834
  0.2778766849171814  0.4979114237430142  0.3847292607155010
  0.2468319933012217  0.2406982269659802  0.6026703059229589
  0.0865080056987745  0.4906982269659801  0.6026703059229589
  0.0554633100828216  0.2479114237430142  0.3847292607155010
  0.6112067129171802  0.4979114237430142  0.3847292607155010
  0.5801620033012261  0.2406982269659802  0.6026703059229589
  0.4198379966987738  0.4906982269659801  0.6026703059229589
  0.3887932870828197  0.2479114237430142  0.3847292607155010
  0.9445366479171821  0.4979114237430142  0.3847292607155010
  0.9134919753012275  0.2406982269659802  0.6026703059229589
  0.7531679696987789  0.4906982269659801  0.6026703059229589
  0.7221232960828207  0.2479114237430142  0.3847292607155010
  0.2778766849171814  0.9979114237430142  0.3847292607155010
  0.2468319933012217  0.7406982099659823  0.6026703059229589
  0.0865080056987745  0.9906981929659845  0.6026703059229589
  0.0554633100828216  0.7479114397430155  0.3847292607155010
  0.6112067129171802  0.9979114237430142  0.3847292607155010
  0.5801620033012261  0.7406982099659823  0.6026703059229589
  0.4198379966987738  0.9906981929659845  0.6026703059229589
  0.3887932870828197  0.7479114397430155  0.3847292607155010
  0.9445366479171821  0.9979114237430142  0.3847292607155010
  0.9134919753012275  0.7406982099659823  0.6026703059229589
  0.7531679696987789  0.9906981929659845  0.6026703059229589
  0.7221232960828207  0.7479114397430155  0.3847292607155010
 
  0.00000000E+00  0.00000000E+00  0.00000000E+00
  0.00000000E+00  0.00000000E+00  0.00000000E+00
  0.00000000E+00  0.00000000E+00  0.00000000E+00
  0.00000000E+00  0.00000000E+00  0.00000000E+00
  0.00000000E+00  0.00000000E+00  0.00000000E+00
  0.00000000E+00  0.00000000E+00  0.00000000E+00
  0.00000000E+00  0.00000000E+00  0.00000000E+00
  0.00000000E+00  0.00000000E+00  0.00000000E+00
  0.00000000E+00  0.00000000E+00  0.00000000E+00
  0.00000000E+00  0.00000000E+00  0.00000000E+00
  0.00000000E+00  0.00000000E+00  0.00000000E+00
  0.00000000E+00  0.00000000E+00  0.00000000E+00
  0.00000000E+00  0.00000000E+00  0.00000000E+00
  0.00000000E+00  0.00000000E+00  0.00000000E+00
  0.00000000E+00  0.00000000E+00  0.00000000E+00
  0.00000000E+00  0.00000000E+00  0.00000000E+00
  0.00000000E+00  0.00000000E+00  0.00000000E+00
  0.00000000E+00  0.00000000E+00  0.00000000E+00
  0.00000000E+00  0.00000000E+00  0.00000000E+00
  0.00000000E+00  0.00000000E+00  0.00000000E+00
  0.00000000E+00  0.00000000E+00  0.00000000E+00
  0.00000000E+00  0.00000000E+00  0.00000000E+00
  0.00000000E+00  0.00000000E+00  0.00000000E+00
  0.00000000E+00  0.00000000E+00  0.00000000E+00
  0.00000000E+00  0.00000000E+00  0.00000000E+00
  0.00000000E+00  0.00000000E+00  0.00000000E+00
  0.00000000E+00  0.00000000E+00  0.00000000E+00
  0.00000000E+00  0.00000000E+00  0.00000000E+00
  0.00000000E+00  0.00000000E+00  0.00000000E+00
  0.00000000E+00  0.00000000E+00  0.00000000E+00
  0.00000000E+00  0.00000000E+00  0.00000000E+00
  0.00000000E+00  0.00000000E+00  0.00000000E+00
  0.00000000E+00  0.00000000E+00  0.00000000E+00
  0.00000000E+00  0.00000000E+00  0.00000000E+00
  0.00000000E+00  0.00000000E+00  0.00000000E+00
  0.00000000E+00  0.00000000E+00  0.00000000E+00
  0.00000000E+00  0.00000000E+00  0.00000000E+00
  0.00000000E+00  0.00000000E+00  0.00000000E+00
  0.00000000E+00  0.00000000E+00  0.00000000E+00
  0.00000000E+00  0.00000000E+00  0.00000000E+00
  0.00000000E+00  0.00000000E+00  0.00000000E+00
  0.00000000E+00  0.00000000E+00  0.00000000E+00
  0.00000000E+00  0.00000000E+00  0.00000000E+00
  0.00000000E+00  0.00000000E+00  0.00000000E+00
  0.00000000E+00  0.00000000E+00  0.00000000E+00
  0.00000000E+00  0.00000000E+00  0.00000000E+00
  0.00000000E+00  0.00000000E+00  0.00000000E+00
  0.00000000E+00  0.00000000E+00  0.00000000E+00
  0.00000000E+00  0.00000000E+00  0.00000000E+00
  0.00000000E+00  0.00000000E+00  0.00000000E+00
  0.00000000E+00  0.00000000E+00  0.00000000E+00
  0.00000000E+00  0.00000000E+00  0.00000000E+00
  0.00000000E+00  0.00000000E+00  0.00000000E+00
  0.00000000E+00  0.00000000E+00  0.00000000E+00
  0.00000000E+00  0.00000000E+00  0.00000000E+00
  0.00000000E+00  0.00000000E+00  0.00000000E+00
  0.00000000E+00  0.00000000E+00  0.00000000E+00
  0.00000000E+00  0.00000000E+00  0.00000000E+00
  0.00000000E+00  0.00000000E+00  0.00000000E+00
  0.00000000E+00  0.00000000E+00  0.00000000E+00
