CONTCAR                                 
   1.00000000000000     
    14.4987001419000006    0.0000000000000000    0.0000000000000000
    -0.3851722429000000   15.7714976485000005    0.0000000000000000
     0.0000000000000000    0.0000000000000000   25.2446994780999994
   Cr   P    O 
    24    24   121
Direct
  0.9943660735175642  0.3552492152783623  0.3477219526955517
  0.2473526111586676  0.3729099117699561  0.5209290615266405
  0.0893706099514809  0.1263850120673209  0.4813013346879154
  0.3328902353824180  0.1570385478395152  0.6548752457432000
  0.3220398184815738  0.3580264068981021  0.3447420147798474
  0.5736898041837198  0.3692653917565157  0.5182133851176609
  0.4221914193242264  0.1353631986515445  0.4785047286700329
  0.6712549618253504  0.1438190188504667  0.6520001765500071
  0.6628930625814554  0.3537055619205322  0.3457505784524031
  0.9122972820614027  0.3728543314991816  0.5213297754682009
  0.7564390246354658  0.1257831705477418  0.4808618301761893
  0.0102317117628541  0.1432794883471883  0.6547065864131874
  0.9915641963838353  0.8528022189985239  0.3463625552861676
  0.2460559464443663  0.8742787316947855  0.5182082387318877
  0.0890883801871571  0.6264867357965853  0.4823499396948120
  0.3422701067637514  0.6472867356569413  0.6552229824841750
  0.3248978313143785  0.8508223634418083  0.3454879532356765
  0.5776680558901907  0.8728325806835023  0.5186704665036848
  0.4211760232317449  0.6259732958215148  0.4813935904455807
  0.6754896749303213  0.6423991190957664  0.6531889642349569
  0.6569449266462840  0.8541133161743204  0.3463243034986749
  0.9114775900678813  0.8725849588048618  0.5193174326072573
  0.7547251961992866  0.6251828876786729  0.4802619484607923
  0.0092047371980308  0.6471274869181963  0.6541406356154961
  0.0760403867127481  0.4385722094039199  0.4489615126868485
  0.2522174795723459  0.2199952036229052  0.4310733872256345
  0.0818810693395615  0.2804302230085938  0.5704822812636777
  0.2624627220522225  0.0621798347077462  0.5525778043070246
  0.4061635840131848  0.4390867263853473  0.4453447065575149
  0.5893025383243062  0.2152367820722789  0.4283648582613081
  0.4210552891199005  0.3334167640180514  0.6028153204970402
  0.5915005892473808  0.0600643017497848  0.5517100070452259
  0.7409673063522162  0.4377485994821048  0.4470297437616292
  0.9211588803731505  0.2187868025612472  0.4321918304440139
  0.7448222702815682  0.2811224239281227  0.5685367170751894
  0.9269639430298616  0.0594319613570332  0.5539635354051733
  0.0736986564339161  0.9395429300119786  0.4464409329416809
  0.2531453757889521  0.7174405256469401  0.4309726736881799
  0.0807260596068848  0.7823437139900086  0.5693237916694238
  0.2592525682363154  0.5602821134688156  0.5543277125048368
  0.4081672115646372  0.9396098738043047  0.4453936603593368
  0.5861890086402879  0.7178712302543606  0.4307554053063897
  0.4125317335375834  0.7814727939981151  0.5690174633644932
  0.5918879866614577  0.5586100056348736  0.5523955386618985
  0.7410834217231564  0.9388045737519443  0.4467167335734097
  0.9209649363535000  0.7168532849997918  0.4313916603020407
  0.7460379702057244  0.7800201695296579  0.5686775787856068
  0.9261595413535132  0.5601518094285149  0.5545287809481402
  0.0792764829479511  0.3977758585272267  0.3911074549949751
  0.3058868668809801  0.4379082164284216  0.4645575791975959
  0.2457317139125233  0.4254671716869426  0.3335259683012823
  0.1353015382359221  0.3804168174653575  0.4820574138091804
  0.2155940240310061  0.4713199502916448  0.5591047852845612
  0.2740936823446591  0.2674980430413137  0.3773534449548552
  0.0413940420156834  0.3328991747443912  0.2932913045651293
  0.1838930560853225  0.3069799534471636  0.5744765737839355
  0.2701996020542446  0.2785044377094866  0.4783770311094058
  0.3164913276643334  0.1439541415415075  0.4342728641143594
  0.0182107127717320  0.3558198739719412  0.5632988180087263
  0.0652629377040758  0.2172315978102425  0.5254985906113672
  0.1501994141091281  0.1934286914973741  0.4276790764602627
  0.2720214236059079  0.1884953674625913  0.7025507984489208
  0.0560361413490814  0.2380099293145986  0.6253220108070429
  0.1137540172790857  0.0295274961317804  0.4399552751555894
  0.2010731327866320  0.1169091294646706  0.5182338876456026
  0.0878087560015658  0.0764697727089911  0.6640254370150535
  0.0273129374152107  0.0588778781436459  0.5347242145236953
  0.2579117401635166  0.1013342242020346  0.6099564452741615
  0.4088738552682094  0.4013851532562873  0.3866656054237294
  0.6400471470158198  0.4355835954668428  0.4649142903949518
  0.5837730599324666  0.4194407196664809  0.3376288146706601
  0.4657078769610112  0.3797423840464053  0.4772102949883334
  0.5492329039860879  0.4694070457547258  0.5562053722579972
  0.6196343424599915  0.2574856309849486  0.3742142590860338
  0.3681613719681522  0.3315302960984320  0.2908002638910714
  0.5102117456266304  0.3106041440818584  0.5707985877771404
  0.5997672008761695  0.2775225226531134  0.4743392245915927
  0.6527352931074617  0.1401650266015188  0.4375188081384400
  0.3515764749716190  0.3642677250100039  0.5604351929157636
  0.4055444264875351  0.2183250450966242  0.5103859158855473
  0.4890338668633388  0.1856579559915593  0.4202037296857942
  0.6266049084969078  0.1641904920435915  0.7073505253121918
  0.3845466809244861  0.2412967465329988  0.6203497073056544
  0.4463113787911432  0.0280689307520812  0.4373665230351576
  0.5343428653390436  0.1144960218575011  0.5157002114779100
  0.4095958352795820  0.0964910191206252  0.6764600596748271
  0.3618447659973936  0.0643579595341134  0.5320478293729701
  0.5846061586298853  0.1029233179055342  0.6089540231349443
  0.7474500938086556  0.3949430404907212  0.3898191328440562
  0.9755882469713315  0.4391983411257406  0.4678090391090804
  0.9166890972733611  0.4218650021431094  0.3379948001424437
  0.8018272267681249  0.3841271618811896  0.4818844042493812
  0.8873754037539404  0.4699776206340806  0.5624451352946879
  0.9480848867867064  0.2610515405945150  0.3774987283534975
  0.7098241261145916  0.3345559230377326  0.2907835596389742
  0.8468196312422839  0.3072854139838865  0.5737525761351205
  0.9365071557280630  0.2813511599378671  0.4775035792810935
  0.9830398854194948  0.1423729387462560  0.4397514417593374
  0.6815741129669135  0.3561421825921218  0.5599932376234562
  0.7312397845064530  0.2178512931011398  0.5232784410135177
  0.8192819122321827  0.1923659255935933  0.4277389970100690
  0.9635620041234975  0.1651360215565568  0.7092976288302344
  0.7166367851779544  0.2392516068354650  0.6231310309362378
  0.7832294181426290  0.0281376740002089  0.4408481578271273
  0.8670960464947794  0.1164237134413392  0.5205668635974887
  0.7493142385523848  0.0768696778491366  0.6596497348543534
  0.6932762028898539  0.0600163115289746  0.5347039959523848
  0.9245300377703163  0.1009556173849900  0.6115598915021109
  0.0765229732808351  0.8973786843287846  0.3889661644798933
  0.3075083735780144  0.9394680636827422  0.4652341549395599
  0.2476632116084094  0.9179235034471509  0.3357082076180144
  0.1338172974993190  0.8829710651995445  0.4799813917945185
  0.2223375710575556  0.9715725159719084  0.5580231325874335
  0.2773152637525516  0.7564926777698662  0.3751279100765514
  0.0379691796449641  0.8314286902770588  0.2915995326373748
  0.1829683770003472  0.8082307608483301  0.5718008422272579
  0.2705139746753604  0.7823743835553849  0.4748508249340394
  0.3150029220437960  0.6411349166086621  0.4392430078705850
  0.0177855973143830  0.8579439928107248  0.5615482173276412
  0.0626198275640419  0.7178531680466571  0.5252574605025273
  0.1506012253122272  0.6919593747007828  0.4286881183433067
  0.2942138852545805  0.6696461951867042  0.7093528127372228
  0.0559449685555452  0.7418064623338573  0.6248720593917414
  0.1171237418917758  0.5283238319547372  0.4433543641188349
  0.2002778908846778  0.6197453903294106  0.5219603217338435
  0.0866282753714628  0.5800853478803316  0.6632351264750356
  0.0268195264038218  0.5599919137134453  0.5358018983642137
  0.2590328611258221  0.6001505743651100  0.6122981031651593
  0.4090911488373822  0.8919227957989265  0.3891472834869831
  0.6407745594075368  0.9403939521294208  0.4658494123576709
  0.5787074812970547  0.9204005418911062  0.3374135029101863
  0.4672177585697979  0.8822792058973483  0.4797104713552739
  0.5522076945710649  0.9697682276514935  0.5590481884229324
  0.6114837599843961  0.7587950107985504  0.3753585654642262
  0.3720543288488525  0.8281595987334919  0.2911125891237900
  0.5151085929674920  0.8063119396859939  0.5718969370640284
  0.6041354843225639  0.7820518767306778  0.4749838760133969
  0.6485502007852068  0.6417468142142588  0.4381934170954611
  0.3516498372685478  0.8583368159202577  0.5604328240832060
  0.3946968192473458  0.7164955671971910  0.5252079160869954
  0.4837400302256347  0.6925505269865853  0.4280829274971976
  0.6292358691765367  0.6641479271996995  0.7079038974635466
  0.3854449169651582  0.7423313711738683  0.6244767572691619
  0.4478815249023744  0.5289318557832883  0.4412202793580604
  0.5329367657688993  0.6183611176680096  0.5202721176650121
  0.4232368627291782  0.5848560629587932  0.6660629324961487
  0.3591122928710333  0.5579818732765329  0.5343090590967320
  0.5903964190018285  0.5976982055457417  0.6106360810404662
  0.7427851149096526  0.8967536976117882  0.3892212978443356
  0.9733526066933903  0.9396047849558544  0.4656585523192970
  0.9122862321573374  0.9179976657868077  0.3371345951705905
  0.8002275316000648  0.8813403316674174  0.4802191259822415
  0.8858013799266732  0.9696818991510616  0.5599025845703239
  0.9478104987146422  0.7575257762847561  0.3761637650568924
  0.7031879840781763  0.8328193928997809  0.2914947863673432
  0.8482852540946986  0.8059737355079816  0.5723656149567042
  0.9369274805365426  0.7812473507742078  0.4757044294172334
  0.9829413016393470  0.6407122707221282  0.4397181069226931
  0.6837223433175345  0.8560827282549073  0.5609847391369258
  0.7300270721008396  0.7163330235187118  0.5239059469637828
  0.8186655795074200  0.6912406203418753  0.4275025858829375
  0.9631510180023763  0.6690551389566061  0.7089123231538034
  0.7194861729499922  0.7377932327224902  0.6234374912362612
  0.7793987803883903  0.5282565974682082  0.4396387849819244
  0.8655936867300994  0.6141731049319769  0.5197384813054035
  0.7548798972004642  0.5773906095094369  0.6625689272974314
  0.6921657007272186  0.5575777891757555  0.5331930102800430
  0.9231441756551035  0.6050877525185855  0.6111851553029386
  0.4350789457899229  0.3912777934736402  0.6483187904188488
 
  0.00000000E+00  0.00000000E+00  0.00000000E+00
  0.00000000E+00  0.00000000E+00  0.00000000E+00
  0.00000000E+00  0.00000000E+00  0.00000000E+00
  0.00000000E+00  0.00000000E+00  0.00000000E+00
  0.00000000E+00  0.00000000E+00  0.00000000E+00
  0.00000000E+00  0.00000000E+00  0.00000000E+00
  0.00000000E+00  0.00000000E+00  0.00000000E+00
  0.00000000E+00  0.00000000E+00  0.00000000E+00
  0.00000000E+00  0.00000000E+00  0.00000000E+00
  0.00000000E+00  0.00000000E+00  0.00000000E+00
  0.00000000E+00  0.00000000E+00  0.00000000E+00
  0.00000000E+00  0.00000000E+00  0.00000000E+00
  0.00000000E+00  0.00000000E+00  0.00000000E+00
  0.00000000E+00  0.00000000E+00  0.00000000E+00
  0.00000000E+00  0.00000000E+00  0.00000000E+00
  0.00000000E+00  0.00000000E+00  0.00000000E+00
  0.00000000E+00  0.00000000E+00  0.00000000E+00
  0.00000000E+00  0.00000000E+00  0.00000000E+00
  0.00000000E+00  0.00000000E+00  0.00000000E+00
  0.00000000E+00  0.00000000E+00  0.00000000E+00
  0.00000000E+00  0.00000000E+00  0.00000000E+00
  0.00000000E+00  0.00000000E+00  0.00000000E+00
  0.00000000E+00  0.00000000E+00  0.00000000E+00
  0.00000000E+00  0.00000000E+00  0.00000000E+00
  0.00000000E+00  0.00000000E+00  0.00000000E+00
  0.00000000E+00  0.00000000E+00  0.00000000E+00
  0.00000000E+00  0.00000000E+00  0.00000000E+00
  0.00000000E+00  0.00000000E+00  0.00000000E+00
  0.00000000E+00  0.00000000E+00  0.00000000E+00
  0.00000000E+00  0.00000000E+00  0.00000000E+00
  0.00000000E+00  0.00000000E+00  0.00000000E+00
  0.00000000E+00  0.00000000E+00  0.00000000E+00
  0.00000000E+00  0.00000000E+00  0.00000000E+00
  0.00000000E+00  0.00000000E+00  0.00000000E+00
  0.00000000E+00  0.00000000E+00  0.00000000E+00
  0.00000000E+00  0.00000000E+00  0.00000000E+00
  0.00000000E+00  0.00000000E+00  0.00000000E+00
  0.00000000E+00  0.00000000E+00  0.00000000E+00
  0.00000000E+00  0.00000000E+00  0.00000000E+00
  0.00000000E+00  0.00000000E+00  0.00000000E+00
  0.00000000E+00  0.00000000E+00  0.00000000E+00
  0.00000000E+00  0.00000000E+00  0.00000000E+00
  0.00000000E+00  0.00000000E+00  0.00000000E+00
  0.00000000E+00  0.00000000E+00  0.00000000E+00
  0.00000000E+00  0.00000000E+00  0.00000000E+00
  0.00000000E+00  0.00000000E+00  0.00000000E+00
  0.00000000E+00  0.00000000E+00  0.00000000E+00
  0.00000000E+00  0.00000000E+00  0.00000000E+00
  0.00000000E+00  0.00000000E+00  0.00000000E+00
  0.00000000E+00  0.00000000E+00  0.00000000E+00
  0.00000000E+00  0.00000000E+00  0.00000000E+00
  0.00000000E+00  0.00000000E+00  0.00000000E+00
  0.00000000E+00  0.00000000E+00  0.00000000E+00
  0.00000000E+00  0.00000000E+00  0.00000000E+00
  0.00000000E+00  0.00000000E+00  0.00000000E+00
  0.00000000E+00  0.00000000E+00  0.00000000E+00
  0.00000000E+00  0.00000000E+00  0.00000000E+00
  0.00000000E+00  0.00000000E+00  0.00000000E+00
  0.00000000E+00  0.00000000E+00  0.00000000E+00
  0.00000000E+00  0.00000000E+00  0.00000000E+00
  0.00000000E+00  0.00000000E+00  0.00000000E+00
  0.00000000E+00  0.00000000E+00  0.00000000E+00
  0.00000000E+00  0.00000000E+00  0.00000000E+00
  0.00000000E+00  0.00000000E+00  0.00000000E+00
  0.00000000E+00  0.00000000E+00  0.00000000E+00
  0.00000000E+00  0.00000000E+00  0.00000000E+00
  0.00000000E+00  0.00000000E+00  0.00000000E+00
  0.00000000E+00  0.00000000E+00  0.00000000E+00
  0.00000000E+00  0.00000000E+00  0.00000000E+00
  0.00000000E+00  0.00000000E+00  0.00000000E+00
  0.00000000E+00  0.00000000E+00  0.00000000E+00
  0.00000000E+00  0.00000000E+00  0.00000000E+00
  0.00000000E+00  0.00000000E+00  0.00000000E+00
  0.00000000E+00  0.00000000E+00  0.00000000E+00
  0.00000000E+00  0.00000000E+00  0.00000000E+00
  0.00000000E+00  0.00000000E+00  0.00000000E+00
  0.00000000E+00  0.00000000E+00  0.00000000E+00
  0.00000000E+00  0.00000000E+00  0.00000000E+00
  0.00000000E+00  0.00000000E+00  0.00000000E+00
  0.00000000E+00  0.00000000E+00  0.00000000E+00
  0.00000000E+00  0.00000000E+00  0.00000000E+00
  0.00000000E+00  0.00000000E+00  0.00000000E+00
  0.00000000E+00  0.00000000E+00  0.00000000E+00
  0.00000000E+00  0.00000000E+00  0.00000000E+00
  0.00000000E+00  0.00000000E+00  0.00000000E+00
  0.00000000E+00  0.00000000E+00  0.00000000E+00
  0.00000000E+00  0.00000000E+00  0.00000000E+00
  0.00000000E+00  0.00000000E+00  0.00000000E+00
  0.00000000E+00  0.00000000E+00  0.00000000E+00
  0.00000000E+00  0.00000000E+00  0.00000000E+00
  0.00000000E+00  0.00000000E+00  0.00000000E+00
  0.00000000E+00  0.00000000E+00  0.00000000E+00
  0.00000000E+00  0.00000000E+00  0.00000000E+00
  0.00000000E+00  0.00000000E+00  0.00000000E+00
  0.00000000E+00  0.00000000E+00  0.00000000E+00
  0.00000000E+00  0.00000000E+00  0.00000000E+00
  0.00000000E+00  0.00000000E+00  0.00000000E+00
  0.00000000E+00  0.00000000E+00  0.00000000E+00
  0.00000000E+00  0.00000000E+00  0.00000000E+00
  0.00000000E+00  0.00000000E+00  0.00000000E+00
  0.00000000E+00  0.00000000E+00  0.00000000E+00
  0.00000000E+00  0.00000000E+00  0.00000000E+00
  0.00000000E+00  0.00000000E+00  0.00000000E+00
  0.00000000E+00  0.00000000E+00  0.00000000E+00
  0.00000000E+00  0.00000000E+00  0.00000000E+00
  0.00000000E+00  0.00000000E+00  0.00000000E+00
  0.00000000E+00  0.00000000E+00  0.00000000E+00
  0.00000000E+00  0.00000000E+00  0.00000000E+00
  0.00000000E+00  0.00000000E+00  0.00000000E+00
  0.00000000E+00  0.00000000E+00  0.00000000E+00
  0.00000000E+00  0.00000000E+00  0.00000000E+00
  0.00000000E+00  0.00000000E+00  0.00000000E+00
  0.00000000E+00  0.00000000E+00  0.00000000E+00
  0.00000000E+00  0.00000000E+00  0.00000000E+00
  0.00000000E+00  0.00000000E+00  0.00000000E+00
  0.00000000E+00  0.00000000E+00  0.00000000E+00
  0.00000000E+00  0.00000000E+00  0.00000000E+00
  0.00000000E+00  0.00000000E+00  0.00000000E+00
  0.00000000E+00  0.00000000E+00  0.00000000E+00
  0.00000000E+00  0.00000000E+00  0.00000000E+00
  0.00000000E+00  0.00000000E+00  0.00000000E+00
  0.00000000E+00  0.00000000E+00  0.00000000E+00
  0.00000000E+00  0.00000000E+00  0.00000000E+00
  0.00000000E+00  0.00000000E+00  0.00000000E+00
  0.00000000E+00  0.00000000E+00  0.00000000E+00
  0.00000000E+00  0.00000000E+00  0.00000000E+00
  0.00000000E+00  0.00000000E+00  0.00000000E+00
  0.00000000E+00  0.00000000E+00  0.00000000E+00
  0.00000000E+00  0.00000000E+00  0.00000000E+00
  0.00000000E+00  0.00000000E+00  0.00000000E+00
  0.00000000E+00  0.00000000E+00  0.00000000E+00
  0.00000000E+00  0.00000000E+00  0.00000000E+00
  0.00000000E+00  0.00000000E+00  0.00000000E+00
  0.00000000E+00  0.00000000E+00  0.00000000E+00
  0.00000000E+00  0.00000000E+00  0.00000000E+00
  0.00000000E+00  0.00000000E+00  0.00000000E+00
  0.00000000E+00  0.00000000E+00  0.00000000E+00
  0.00000000E+00  0.00000000E+00  0.00000000E+00
  0.00000000E+00  0.00000000E+00  0.00000000E+00
  0.00000000E+00  0.00000000E+00  0.00000000E+00
  0.00000000E+00  0.00000000E+00  0.00000000E+00
  0.00000000E+00  0.00000000E+00  0.00000000E+00
  0.00000000E+00  0.00000000E+00  0.00000000E+00
  0.00000000E+00  0.00000000E+00  0.00000000E+00
  0.00000000E+00  0.00000000E+00  0.00000000E+00
  0.00000000E+00  0.00000000E+00  0.00000000E+00
  0.00000000E+00  0.00000000E+00  0.00000000E+00
  0.00000000E+00  0.00000000E+00  0.00000000E+00
  0.00000000E+00  0.00000000E+00  0.00000000E+00
  0.00000000E+00  0.00000000E+00  0.00000000E+00
  0.00000000E+00  0.00000000E+00  0.00000000E+00
  0.00000000E+00  0.00000000E+00  0.00000000E+00
  0.00000000E+00  0.00000000E+00  0.00000000E+00
  0.00000000E+00  0.00000000E+00  0.00000000E+00
  0.00000000E+00  0.00000000E+00  0.00000000E+00
  0.00000000E+00  0.00000000E+00  0.00000000E+00
  0.00000000E+00  0.00000000E+00  0.00000000E+00
  0.00000000E+00  0.00000000E+00  0.00000000E+00
  0.00000000E+00  0.00000000E+00  0.00000000E+00
  0.00000000E+00  0.00000000E+00  0.00000000E+00
  0.00000000E+00  0.00000000E+00  0.00000000E+00
  0.00000000E+00  0.00000000E+00  0.00000000E+00
  0.00000000E+00  0.00000000E+00  0.00000000E+00
  0.00000000E+00  0.00000000E+00  0.00000000E+00
  0.00000000E+00  0.00000000E+00  0.00000000E+00
  0.00000000E+00  0.00000000E+00  0.00000000E+00
  0.00000000E+00  0.00000000E+00  0.00000000E+00
  0.00000000E+00  0.00000000E+00  0.00000000E+00
  0.00000000E+00  0.00000000E+00  0.00000000E+00
