CONTCAR                                 
   1.00000000000000     
    14.6651000976999999    0.0000000000000000    0.0000000000000000
     0.0000000000000000   17.2791004181000005    0.0000000000000000
    -0.1285703978000000    0.0000000000000000   17.7376340898000002
   Cu   Te   O    H 
    16    16    49     1
Direct
  0.3441840039952547  0.2622310436049455  0.5295448949678714
  0.8449475253107137  0.2619507823326029  0.5301217628288485
  0.3403133366884016  0.7614613003806240  0.5312783516914328
  0.8427013872972635  0.7622160456793077  0.5324517439659621
  0.0959168239421849  0.4884568148069556  0.5348299644663669
  0.5928918266436918  0.4884568651029003  0.5326966026277355
  0.0920842772939882  0.9859633152566643  0.5282090751302684
  0.5946031176907748  0.9865472518789109  0.5290386450432106
  0.1571617660104304  0.2377198672314497  0.4700185069105231
  0.6580921276864198  0.2388000703278774  0.4703065096439478
  0.1591597026157995  0.7359954864704719  0.4717620113662105
  0.6589427356816997  0.7368457495679933  0.4757862379194798
  0.4073694098390944  0.0104906670827905  0.4693263971918308
  0.9091276576387326  0.0101051282597917  0.4697063817815752
  0.4062575242796100  0.5153466054602417  0.4712753539207101
  0.9086176453431575  0.5140645670977566  0.4763464149764677
  0.2813305646691164  0.1022159150272684  0.5850280482036669
  0.7819155196064422  0.1020887273260722  0.5851464920217100
  0.2825056861620983  0.6053268269798719  0.5914170410842918
  0.7806866542274861  0.6047011509141087  0.5925787042115639
  0.2200527896316727  0.3981801703270617  0.4157548263895526
  0.7206653025185240  0.3988990686785986  0.4160693825749348
  0.2197519055267192  0.8945949749544655  0.4128960678225682
  0.7202323415347259  0.8937196426394063  0.4136830335614288
  0.4705464637248555  0.3558245759720081  0.4146754633009816
  0.9705721142847772  0.3564445164142589  0.4157192495157420
  0.4695082924485011  0.8501670796287321  0.4157831795052626
  0.9698464425038891  0.8503448730472453  0.4138710204132972
  0.0319093600631670  0.1453343414188531  0.5856412648161334
  0.5313305934230584  0.1459608583828031  0.5852865671696657
  0.0322593751654961  0.6474902825066006  0.5911293170461205
  0.5298660803650362  0.6451412265299959  0.5919788828089100
  0.3037586296724477  0.0729609978965480  0.4849429750358499
  0.8048780328375358  0.0726992148680175  0.4851885796761925
  0.3047257911134969  0.5784918207688846  0.4853067986623407
  0.8037751618138697  0.5755784269767896  0.4927581181436546
  0.2673430020643519  0.2959392895423498  0.4423245538834367
  0.7682314084056865  0.2969305902189904  0.4429512957120490
  0.2684495383672132  0.7929167815464866  0.4391975141030199
  0.7685664048465165  0.7922443598704842  0.4416960970757313
  0.4002767963612192  0.1815951117755670  0.5901527292165624
  0.9012913315007701  0.1814899298256871  0.5905286965696788
  0.3972139330165783  0.6814150887942610  0.5936717624942697
  0.9015242542923277  0.6831204579257935  0.5943486166837019
  0.4842175706819432  0.0444095976206532  0.5564245520098913
  0.9829846455768656  0.0434601139813314  0.5594721254717655
  0.4822875496906335  0.5442900401584025  0.5621922799749655
  0.9856871449764869  0.5450570337358759  0.5649981816931300
  0.3511758352234471  0.4337330920271228  0.4108831124646898
  0.8517163487786327  0.4354678240845639  0.4137934957226239
  0.3506349071465436  0.9303708329638527  0.4088189020673222
  0.8505811276546701  0.9300980032908300  0.4095152161123307
  0.1505526993132939  0.0659455301964288  0.5883623211179685
  0.6508674430932606  0.0668419585744448  0.5900066344025926
  0.1531324526092089  0.5657073209505266  0.5984196176795906
  0.6490918895628609  0.5679869425909703  0.5954086493187555
  0.4480294507641286  0.3246933074737646  0.5141618330048332
  0.9487673134111165  0.3242440149597992  0.5150215274335161
  0.4451196911281878  0.8232119449409946  0.5161254867642737
  0.9476324024096007  0.8234988483737707  0.5146659216301828
  0.1991692314199531  0.4263100500017670  0.5163079483312554
  0.6974029707716269  0.4273254219647793  0.5162060167233364
  0.1969799335537939  0.9238089056004880  0.5128900052672363
  0.6985936035920516  0.9243777520358809  0.5134443198453200
  0.0187183619556128  0.4572154375139997  0.4462105552380208
  0.5173802902337657  0.4573272098194220  0.4436410855511105
  0.0183162416553775  0.9527454150696955  0.4383060239879490
  0.5171523187758235  0.9523178102567721  0.4422097402938741
  0.2338676953526009  0.2040152916095619  0.5573923717838219
  0.7349766358816434  0.2040577490606857  0.5569848570863253
  0.2313358955065719  0.7051620136128065  0.5613127482134586
  0.7329216197985977  0.7065542077683503  0.5664197215988837
  0.0535044705467757  0.1746053475408989  0.4854117188207233
  0.5540843893596964  0.1764336586867349  0.4855856436383008
  0.0550477539743858  0.6738529292821933  0.4903632389000547
  0.5536120821736190  0.6759013989631331  0.4927315262658404
  0.1009780540297925  0.3193328860020961  0.4107247714903116
  0.6019150390736766  0.3200517509423857  0.4106970576459031
  0.1004565589422011  0.8144812225943313  0.4101666231580626
  0.6004375255195536  0.8144226009233533  0.4131918652774842
  0.2751573061320232  0.6333178587488711  0.7040443765748436
  0.2275286636251067  0.5993187777799500  0.7238741373046453
 
  0.00000000E+00  0.00000000E+00  0.00000000E+00
  0.00000000E+00  0.00000000E+00  0.00000000E+00
  0.00000000E+00  0.00000000E+00  0.00000000E+00
  0.00000000E+00  0.00000000E+00  0.00000000E+00
  0.00000000E+00  0.00000000E+00  0.00000000E+00
  0.00000000E+00  0.00000000E+00  0.00000000E+00
  0.00000000E+00  0.00000000E+00  0.00000000E+00
  0.00000000E+00  0.00000000E+00  0.00000000E+00
  0.00000000E+00  0.00000000E+00  0.00000000E+00
  0.00000000E+00  0.00000000E+00  0.00000000E+00
  0.00000000E+00  0.00000000E+00  0.00000000E+00
  0.00000000E+00  0.00000000E+00  0.00000000E+00
  0.00000000E+00  0.00000000E+00  0.00000000E+00
  0.00000000E+00  0.00000000E+00  0.00000000E+00
  0.00000000E+00  0.00000000E+00  0.00000000E+00
  0.00000000E+00  0.00000000E+00  0.00000000E+00
  0.00000000E+00  0.00000000E+00  0.00000000E+00
  0.00000000E+00  0.00000000E+00  0.00000000E+00
  0.00000000E+00  0.00000000E+00  0.00000000E+00
  0.00000000E+00  0.00000000E+00  0.00000000E+00
  0.00000000E+00  0.00000000E+00  0.00000000E+00
  0.00000000E+00  0.00000000E+00  0.00000000E+00
  0.00000000E+00  0.00000000E+00  0.00000000E+00
  0.00000000E+00  0.00000000E+00  0.00000000E+00
  0.00000000E+00  0.00000000E+00  0.00000000E+00
  0.00000000E+00  0.00000000E+00  0.00000000E+00
  0.00000000E+00  0.00000000E+00  0.00000000E+00
  0.00000000E+00  0.00000000E+00  0.00000000E+00
  0.00000000E+00  0.00000000E+00  0.00000000E+00
  0.00000000E+00  0.00000000E+00  0.00000000E+00
  0.00000000E+00  0.00000000E+00  0.00000000E+00
  0.00000000E+00  0.00000000E+00  0.00000000E+00
  0.00000000E+00  0.00000000E+00  0.00000000E+00
  0.00000000E+00  0.00000000E+00  0.00000000E+00
  0.00000000E+00  0.00000000E+00  0.00000000E+00
  0.00000000E+00  0.00000000E+00  0.00000000E+00
  0.00000000E+00  0.00000000E+00  0.00000000E+00
  0.00000000E+00  0.00000000E+00  0.00000000E+00
  0.00000000E+00  0.00000000E+00  0.00000000E+00
  0.00000000E+00  0.00000000E+00  0.00000000E+00
  0.00000000E+00  0.00000000E+00  0.00000000E+00
  0.00000000E+00  0.00000000E+00  0.00000000E+00
  0.00000000E+00  0.00000000E+00  0.00000000E+00
  0.00000000E+00  0.00000000E+00  0.00000000E+00
  0.00000000E+00  0.00000000E+00  0.00000000E+00
  0.00000000E+00  0.00000000E+00  0.00000000E+00
  0.00000000E+00  0.00000000E+00  0.00000000E+00
  0.00000000E+00  0.00000000E+00  0.00000000E+00
  0.00000000E+00  0.00000000E+00  0.00000000E+00
  0.00000000E+00  0.00000000E+00  0.00000000E+00
  0.00000000E+00  0.00000000E+00  0.00000000E+00
  0.00000000E+00  0.00000000E+00  0.00000000E+00
  0.00000000E+00  0.00000000E+00  0.00000000E+00
  0.00000000E+00  0.00000000E+00  0.00000000E+00
  0.00000000E+00  0.00000000E+00  0.00000000E+00
  0.00000000E+00  0.00000000E+00  0.00000000E+00
  0.00000000E+00  0.00000000E+00  0.00000000E+00
  0.00000000E+00  0.00000000E+00  0.00000000E+00
  0.00000000E+00  0.00000000E+00  0.00000000E+00
  0.00000000E+00  0.00000000E+00  0.00000000E+00
  0.00000000E+00  0.00000000E+00  0.00000000E+00
  0.00000000E+00  0.00000000E+00  0.00000000E+00
  0.00000000E+00  0.00000000E+00  0.00000000E+00
  0.00000000E+00  0.00000000E+00  0.00000000E+00
  0.00000000E+00  0.00000000E+00  0.00000000E+00
  0.00000000E+00  0.00000000E+00  0.00000000E+00
  0.00000000E+00  0.00000000E+00  0.00000000E+00
  0.00000000E+00  0.00000000E+00  0.00000000E+00
  0.00000000E+00  0.00000000E+00  0.00000000E+00
  0.00000000E+00  0.00000000E+00  0.00000000E+00
  0.00000000E+00  0.00000000E+00  0.00000000E+00
  0.00000000E+00  0.00000000E+00  0.00000000E+00
  0.00000000E+00  0.00000000E+00  0.00000000E+00
  0.00000000E+00  0.00000000E+00  0.00000000E+00
  0.00000000E+00  0.00000000E+00  0.00000000E+00
  0.00000000E+00  0.00000000E+00  0.00000000E+00
  0.00000000E+00  0.00000000E+00  0.00000000E+00
  0.00000000E+00  0.00000000E+00  0.00000000E+00
  0.00000000E+00  0.00000000E+00  0.00000000E+00
  0.00000000E+00  0.00000000E+00  0.00000000E+00
  0.00000000E+00  0.00000000E+00  0.00000000E+00
  0.00000000E+00  0.00000000E+00  0.00000000E+00
