CONTCAR\(4)                             
   1.00000000000000     
    13.9573001861999995    0.0000000000000000    0.0000000000000000
     0.0000000000000000   20.3449993133999989    0.0000000000000000
     0.0000000000000000    0.0000000000000000   22.8059997559000003
   Nb   Cr   Se
    16    16    80
Direct
  0.1875000089999972  0.2284699989999979  0.5850899880000000
  0.0625000000000000  0.2715300010000021  0.4149099699999965
  0.4375000089999972  0.2284699989999979  0.5850899880000000
  0.3124999910000028  0.2715300010000021  0.4149099699999965
  0.6875000089999972  0.2284699989999979  0.5850899880000000
  0.5624999910000028  0.2715300010000021  0.4149099699999965
  0.9374999739999978  0.2284699989999979  0.5850899880000000
  0.8124999910000028  0.2715300010000021  0.4149099699999965
  0.1875000089999972  0.7284700459999982  0.5850899880000000
  0.0625000000000000  0.7715299540000018  0.4149099699999965
  0.4375000089999972  0.7284700459999982  0.5850899880000000
  0.3124999910000028  0.7715299540000018  0.4149099699999965
  0.6875000089999972  0.7284700459999982  0.5850899880000000
  0.5624999910000028  0.7715299540000018  0.4149099699999965
  0.9374999739999978  0.7284700459999982  0.5850899880000000
  0.8124999910000028  0.7715299540000018  0.4149099699999965
  0.0625000000000000  0.0657600010000010  0.5267799909999979
  0.1875000089999972  0.4342400170000005  0.4732200090000021
  0.3124999910000028  0.0657600010000010  0.5267799909999979
  0.4375000089999972  0.4342400170000005  0.4732200090000021
  0.5624999910000028  0.0657600010000010  0.5267799909999979
  0.6875000089999972  0.4342400170000005  0.4732200090000021
  0.8124999910000028  0.0657600010000010  0.5267799909999979
  0.9374999739999978  0.4342400170000005  0.4732200090000021
  0.0625000000000000  0.5657600299999999  0.5267799909999979
  0.1875000089999972  0.9342400170000005  0.4732200090000021
  0.3124999910000028  0.5657600299999999  0.5267799909999979
  0.4375000089999972  0.9342400170000005  0.4732200090000021
  0.5624999910000028  0.5657600299999999  0.5267799909999979
  0.6875000089999972  0.9342400170000005  0.4732200090000021
  0.8124999910000028  0.5657600299999999  0.5267799909999979
  0.9374999739999978  0.9342400170000005  0.4732200090000021
  0.1875000089999972  0.3140900100000010  0.4931900059999990
  0.0625000000000000  0.4481699910000003  0.5514800139999991
  0.0625000000000000  0.1859100020000000  0.5068099940000010
  0.1875000089999972  0.1822499920000027  0.3730199740000018
  0.0625000000000000  0.3177499960000034  0.6269800259999982
  0.0625000000000000  0.2115000100000017  0.6710299869999972
  0.0625000000000000  0.4053700050000018  0.3982200000000020
  0.1875000089999972  0.2885000140000002  0.3289699919999975
  0.1875000089999972  0.0946199990000025  0.6017799999999980
  0.1875000089999972  0.0518399999999986  0.4485199860000009
  0.4375000089999972  0.3140900100000010  0.4931900059999990
  0.3124999910000028  0.4481699910000003  0.5514800139999991
  0.3124999910000028  0.1859100020000000  0.5068099940000010
  0.4375000089999972  0.1822499920000027  0.3730199740000018
  0.3124999910000028  0.3177499960000034  0.6269800259999982
  0.3124999910000028  0.2115000100000017  0.6710299869999972
  0.3124999910000028  0.4053700050000018  0.3982200000000020
  0.4375000089999972  0.2885000140000002  0.3289699919999975
  0.4375000089999972  0.0946199990000025  0.6017799999999980
  0.4375000089999972  0.0518399999999986  0.4485199860000009
  0.6875000089999972  0.3140900100000010  0.4931900059999990
  0.5624999910000028  0.4481699910000003  0.5514800139999991
  0.5624999910000028  0.1859100020000000  0.5068099940000010
  0.6875000089999972  0.1822499920000027  0.3730199740000018
  0.5624999910000028  0.3177499960000034  0.6269800259999982
  0.5624999910000028  0.2115000100000017  0.6710299869999972
  0.5624999910000028  0.4053700050000018  0.3982200000000020
  0.6875000089999972  0.2885000140000002  0.3289699919999975
  0.6875000089999972  0.0946199990000025  0.6017799999999980
  0.6875000089999972  0.0518399999999986  0.4485199860000009
  0.9374999739999978  0.3140900100000010  0.4931900059999990
  0.8124999910000028  0.4481699910000003  0.5514800139999991
  0.8124999910000028  0.1859100020000000  0.5068099940000010
  0.9374999739999978  0.1822499920000027  0.3730199740000018
  0.8124999910000028  0.3177499960000034  0.6269800259999982
  0.8124999910000028  0.2115000100000017  0.6710299869999972
  0.8124999910000028  0.4053700050000018  0.3982200000000020
  0.9374999739999978  0.2885000140000002  0.3289699919999975
  0.9374999739999978  0.0946199990000025  0.6017799999999980
  0.9374999739999978  0.0518399999999986  0.4485199860000009
  0.1875000089999972  0.8140899870000027  0.4931900059999990
  0.0625000000000000  0.9481699910000003  0.5514800139999991
  0.0625000000000000  0.6859099670000006  0.5068099940000010
  0.1875000089999972  0.6822500039999966  0.3730199740000018
  0.0625000000000000  0.8177499960000034  0.6269800259999982
  0.0625000000000000  0.7114999859999998  0.6710299869999972
  0.0625000000000000  0.9053700050000018  0.3982200000000020
  0.1875000089999972  0.7885000140000002  0.3289699919999975
  0.1875000089999972  0.5946200110000035  0.6017799999999980
  0.1875000089999972  0.5518399939999981  0.4485199860000009
  0.4375000089999972  0.8140899870000027  0.4931900059999990
  0.3124999910000028  0.9481699910000003  0.5514800139999991
  0.3124999910000028  0.6859099670000006  0.5068099940000010
  0.4375000089999972  0.6822500039999966  0.3730199740000018
  0.3124999910000028  0.8177499960000034  0.6269800259999982
  0.3124999910000028  0.7114999859999998  0.6710299869999972
  0.3124999910000028  0.9053700050000018  0.3982200000000020
  0.4375000089999972  0.7885000140000002  0.3289699919999975
  0.4375000089999972  0.5946200110000035  0.6017799999999980
  0.4375000089999972  0.5518399939999981  0.4485199860000009
  0.6875000089999972  0.8140899870000027  0.4931900059999990
  0.5624999910000028  0.9481699910000003  0.5514800139999991
  0.5624999910000028  0.6859099670000006  0.5068099940000010
  0.6875000089999972  0.6822500039999966  0.3730199740000018
  0.5624999910000028  0.8177499960000034  0.6269800259999982
  0.5624999910000028  0.7114999859999998  0.6710299869999972
  0.5624999910000028  0.9053700050000018  0.3982200000000020
  0.6875000089999972  0.7885000140000002  0.3289699919999975
  0.6875000089999972  0.5946200110000035  0.6017799999999980
  0.6875000089999972  0.5518399939999981  0.4485199860000009
  0.9374999739999978  0.8140899870000027  0.4931900059999990
  0.8124999910000028  0.9481699910000003  0.5514800139999991
  0.8124999910000028  0.6859099670000006  0.5068099940000010
  0.9374999739999978  0.6822500039999966  0.3730199740000018
  0.8124999910000028  0.8177499960000034  0.6269800259999982
  0.8124999910000028  0.7114999859999998  0.6710299869999972
  0.8124999910000028  0.9053700050000018  0.3982200000000020
  0.9374999739999978  0.7885000140000002  0.3289699919999975
  0.9374999739999978  0.5946200110000035  0.6017799999999980
  0.9374999739999978  0.5518399939999981  0.4485199860000009
 
  0.00000000E+00  0.00000000E+00  0.00000000E+00
  0.00000000E+00  0.00000000E+00  0.00000000E+00
  0.00000000E+00  0.00000000E+00  0.00000000E+00
  0.00000000E+00  0.00000000E+00  0.00000000E+00
  0.00000000E+00  0.00000000E+00  0.00000000E+00
  0.00000000E+00  0.00000000E+00  0.00000000E+00
  0.00000000E+00  0.00000000E+00  0.00000000E+00
  0.00000000E+00  0.00000000E+00  0.00000000E+00
  0.00000000E+00  0.00000000E+00  0.00000000E+00
  0.00000000E+00  0.00000000E+00  0.00000000E+00
  0.00000000E+00  0.00000000E+00  0.00000000E+00
  0.00000000E+00  0.00000000E+00  0.00000000E+00
  0.00000000E+00  0.00000000E+00  0.00000000E+00
  0.00000000E+00  0.00000000E+00  0.00000000E+00
  0.00000000E+00  0.00000000E+00  0.00000000E+00
  0.00000000E+00  0.00000000E+00  0.00000000E+00
  0.00000000E+00  0.00000000E+00  0.00000000E+00
  0.00000000E+00  0.00000000E+00  0.00000000E+00
  0.00000000E+00  0.00000000E+00  0.00000000E+00
  0.00000000E+00  0.00000000E+00  0.00000000E+00
  0.00000000E+00  0.00000000E+00  0.00000000E+00
  0.00000000E+00  0.00000000E+00  0.00000000E+00
  0.00000000E+00  0.00000000E+00  0.00000000E+00
  0.00000000E+00  0.00000000E+00  0.00000000E+00
  0.00000000E+00  0.00000000E+00  0.00000000E+00
  0.00000000E+00  0.00000000E+00  0.00000000E+00
  0.00000000E+00  0.00000000E+00  0.00000000E+00
  0.00000000E+00  0.00000000E+00  0.00000000E+00
  0.00000000E+00  0.00000000E+00  0.00000000E+00
  0.00000000E+00  0.00000000E+00  0.00000000E+00
  0.00000000E+00  0.00000000E+00  0.00000000E+00
  0.00000000E+00  0.00000000E+00  0.00000000E+00
  0.00000000E+00  0.00000000E+00  0.00000000E+00
  0.00000000E+00  0.00000000E+00  0.00000000E+00
  0.00000000E+00  0.00000000E+00  0.00000000E+00
  0.00000000E+00  0.00000000E+00  0.00000000E+00
  0.00000000E+00  0.00000000E+00  0.00000000E+00
  0.00000000E+00  0.00000000E+00  0.00000000E+00
  0.00000000E+00  0.00000000E+00  0.00000000E+00
  0.00000000E+00  0.00000000E+00  0.00000000E+00
  0.00000000E+00  0.00000000E+00  0.00000000E+00
  0.00000000E+00  0.00000000E+00  0.00000000E+00
  0.00000000E+00  0.00000000E+00  0.00000000E+00
  0.00000000E+00  0.00000000E+00  0.00000000E+00
  0.00000000E+00  0.00000000E+00  0.00000000E+00
  0.00000000E+00  0.00000000E+00  0.00000000E+00
  0.00000000E+00  0.00000000E+00  0.00000000E+00
  0.00000000E+00  0.00000000E+00  0.00000000E+00
  0.00000000E+00  0.00000000E+00  0.00000000E+00
  0.00000000E+00  0.00000000E+00  0.00000000E+00
  0.00000000E+00  0.00000000E+00  0.00000000E+00
  0.00000000E+00  0.00000000E+00  0.00000000E+00
  0.00000000E+00  0.00000000E+00  0.00000000E+00
  0.00000000E+00  0.00000000E+00  0.00000000E+00
  0.00000000E+00  0.00000000E+00  0.00000000E+00
  0.00000000E+00  0.00000000E+00  0.00000000E+00
  0.00000000E+00  0.00000000E+00  0.00000000E+00
  0.00000000E+00  0.00000000E+00  0.00000000E+00
  0.00000000E+00  0.00000000E+00  0.00000000E+00
  0.00000000E+00  0.00000000E+00  0.00000000E+00
  0.00000000E+00  0.00000000E+00  0.00000000E+00
  0.00000000E+00  0.00000000E+00  0.00000000E+00
  0.00000000E+00  0.00000000E+00  0.00000000E+00
  0.00000000E+00  0.00000000E+00  0.00000000E+00
  0.00000000E+00  0.00000000E+00  0.00000000E+00
  0.00000000E+00  0.00000000E+00  0.00000000E+00
  0.00000000E+00  0.00000000E+00  0.00000000E+00
  0.00000000E+00  0.00000000E+00  0.00000000E+00
  0.00000000E+00  0.00000000E+00  0.00000000E+00
  0.00000000E+00  0.00000000E+00  0.00000000E+00
  0.00000000E+00  0.00000000E+00  0.00000000E+00
  0.00000000E+00  0.00000000E+00  0.00000000E+00
  0.00000000E+00  0.00000000E+00  0.00000000E+00
  0.00000000E+00  0.00000000E+00  0.00000000E+00
  0.00000000E+00  0.00000000E+00  0.00000000E+00
  0.00000000E+00  0.00000000E+00  0.00000000E+00
  0.00000000E+00  0.00000000E+00  0.00000000E+00
  0.00000000E+00  0.00000000E+00  0.00000000E+00
  0.00000000E+00  0.00000000E+00  0.00000000E+00
  0.00000000E+00  0.00000000E+00  0.00000000E+00
  0.00000000E+00  0.00000000E+00  0.00000000E+00
  0.00000000E+00  0.00000000E+00  0.00000000E+00
  0.00000000E+00  0.00000000E+00  0.00000000E+00
  0.00000000E+00  0.00000000E+00  0.00000000E+00
  0.00000000E+00  0.00000000E+00  0.00000000E+00
  0.00000000E+00  0.00000000E+00  0.00000000E+00
  0.00000000E+00  0.00000000E+00  0.00000000E+00
  0.00000000E+00  0.00000000E+00  0.00000000E+00
  0.00000000E+00  0.00000000E+00  0.00000000E+00
  0.00000000E+00  0.00000000E+00  0.00000000E+00
  0.00000000E+00  0.00000000E+00  0.00000000E+00
  0.00000000E+00  0.00000000E+00  0.00000000E+00
  0.00000000E+00  0.00000000E+00  0.00000000E+00
  0.00000000E+00  0.00000000E+00  0.00000000E+00
  0.00000000E+00  0.00000000E+00  0.00000000E+00
  0.00000000E+00  0.00000000E+00  0.00000000E+00
  0.00000000E+00  0.00000000E+00  0.00000000E+00
  0.00000000E+00  0.00000000E+00  0.00000000E+00
  0.00000000E+00  0.00000000E+00  0.00000000E+00
  0.00000000E+00  0.00000000E+00  0.00000000E+00
  0.00000000E+00  0.00000000E+00  0.00000000E+00
  0.00000000E+00  0.00000000E+00  0.00000000E+00
  0.00000000E+00  0.00000000E+00  0.00000000E+00
  0.00000000E+00  0.00000000E+00  0.00000000E+00
  0.00000000E+00  0.00000000E+00  0.00000000E+00
  0.00000000E+00  0.00000000E+00  0.00000000E+00
  0.00000000E+00  0.00000000E+00  0.00000000E+00
  0.00000000E+00  0.00000000E+00  0.00000000E+00
  0.00000000E+00  0.00000000E+00  0.00000000E+00
  0.00000000E+00  0.00000000E+00  0.00000000E+00
  0.00000000E+00  0.00000000E+00  0.00000000E+00
  0.00000000E+00  0.00000000E+00  0.00000000E+00
