 Ta2 Te10 Pt2                           
   1.00000000000000     
     3.7376778017787782    0.0000000000000000    0.0000000000000000
     0.0000000000000000   15.4724322663424978    0.0000000000000000
     0.0000000000000000    0.0000000000000000   19.4956495751940011
   Ta   Te   Pt
     2    10     2
Direct
  0.0000000000671179  0.2499999994127293  0.5042079006347677
  0.9999999998649969  0.7500000005779128  0.4957921019809604
  0.4999999999376072  0.2499999992204280  0.6155126477203297
  0.4999999997214957  0.7500000007359020  0.3844873590931925
  0.9999999999591154  0.9164711434551194  0.4244533141893925
  0.9999999997816005  0.0835288498082747  0.5755466856670282
  0.4999999996242650  0.1475447082962376  0.4269706730176708
  0.4999999997756461  0.8524552884780618  0.5730293238003057
  0.4999999996758078  0.6475447147600804  0.5730293245549944
  0.5000000002057803  0.3524552885873504  0.4269706724186761
  0.0000000007358310  0.5835288581159190  0.4244533143420668
  0.0000000004874465  0.4164711485974948  0.5755466854872680
  0.5000000004482175  0.9999999998569322  0.4999999984852650
  0.4999999997150724  0.5000000000975575  0.4999999986080823
 
  0.00000000E+00  0.00000000E+00  0.00000000E+00
  0.00000000E+00  0.00000000E+00  0.00000000E+00
  0.00000000E+00  0.00000000E+00  0.00000000E+00
  0.00000000E+00  0.00000000E+00  0.00000000E+00
  0.00000000E+00  0.00000000E+00  0.00000000E+00
  0.00000000E+00  0.00000000E+00  0.00000000E+00
  0.00000000E+00  0.00000000E+00  0.00000000E+00
  0.00000000E+00  0.00000000E+00  0.00000000E+00
  0.00000000E+00  0.00000000E+00  0.00000000E+00
  0.00000000E+00  0.00000000E+00  0.00000000E+00
  0.00000000E+00  0.00000000E+00  0.00000000E+00
  0.00000000E+00  0.00000000E+00  0.00000000E+00
  0.00000000E+00  0.00000000E+00  0.00000000E+00
  0.00000000E+00  0.00000000E+00  0.00000000E+00
