CONTCAR\(3)                             
   1.00000000000000     
    10.9605998993000000    0.0000000000000000    0.0000000000000000
     5.4620360536000003    9.5107522852000006    0.0000000000000000
     0.0000000000000000    0.0000000000000000   24.0680007935000013
   Cr   Ga   S    O    H 
     9    18    36     1     1
Direct
  0.3334916689003704  0.0026348181192808  0.4981652937375474
  0.6646548568045001  0.0050294942370224  0.4985906909867702
  0.9996633221556963  0.0048859151175800  0.4985087314550889
  0.3331858647017531  0.3377754968364960  0.4980513895036619
  0.6595048318069312  0.3498121992973958  0.4983350201050097
 -0.0016784366222074  0.3377101452854114  0.4982634316026244
  0.3444776561804607  0.6645231159874833  0.4981163614659218
  0.6599901811945592  0.6648341273834594  0.4984293631030788
  0.9995837182862233  0.6696347721640389  0.4985251539002924
  0.1100044611186826  0.1131527807116556  0.3537750308993348
  0.2225663497057236  0.2276138803346801  0.6415612396764284
  0.4435511378537680  0.1131464098765171  0.3537386638170442
  0.5565396427510888  0.2305248739852605  0.6421845822906924
  0.7757326144540895  0.1151941451044846  0.3549401811279465
  0.8852722526813883  0.2303897345546917  0.6421274571911080
  0.1100730637044594  0.4465841832113331  0.3537058726638289
  0.2257487762855782  0.5615479732921659  0.6417744588431344
  0.4440012192518275  0.4471888590523739  0.3524632363074955
  0.5591261139699126  0.5593059839681265  0.7115019544892813
  0.7758945716465909  0.4470203352333970  0.3526675300061825
  0.8853361112895034  0.5619845131957815  0.6421889208052012
  0.1120980958645894  0.7788817798926572  0.3548051094732730
  0.2258087999926459  0.8904286204608302  0.6417758389766447
  0.4439330042855848  0.7791118383422498  0.3525739970454883
  0.5565527782826604  0.8908706939594343  0.6422316828488701
  0.7758679229259857  0.7788966626867189  0.3549047075055706
  0.8889617285574404  0.8945028884421639  0.6424864064113726
  0.1107260838097106  0.1151182501083648  0.4472823039728503
  0.2218796520427429  0.2261730781921674  0.5482494784494710
  0.1107777474117137  0.1152906937892851  0.6818426054592748
  0.2213435841837473  0.2243252628450675  0.3113569034272206
  0.4435030453798082  0.1149792176694380  0.4472408082557023
  0.5554108029079889  0.2305353201682107  0.5487539375858356
  0.4458892088787862  0.1157513812847831  0.6822713272815843
  0.5552737867041190  0.2236284778561395  0.3112261080381306
  0.7742763472518189  0.1205274222787186  0.4479761406052145
  0.8829691084439173  0.2305938191450614  0.5487883494960329
  0.7777135036037591  0.1168647284863894  0.6849102859718164
  0.8880930075328020  0.2236435339874881  0.3112591498501615
  0.1105178946633722  0.4476594573003182  0.4471956558232980
  0.2251478728465296  0.5604346005935048  0.5484550231235998
  0.1108365566889116  0.4511272693912501  0.6819709938581696
  0.2205489996573594  0.5583390754152416  0.3111445513869487
  0.4435488383863309  0.4479875178613882  0.4460803950649371
  0.5544589501619572  0.5598190871944506  0.5513541622104416
  0.4361738783078279  0.4420050770919421  0.6903699288152435
  0.5547451039240278  0.5580057879540674  0.3096169887267513
  0.7775027687081875  0.4482847542610690  0.4462492526890127
  0.8836635070732382  0.5604396400482071  0.5488316744132309
  0.7970930132610990  0.4400237325694851  0.6912292066050474
  0.8881424808346606  0.5583262302619169  0.3112046718582628
  0.1150040634629435  0.7791515526195341  0.4478589037408056
  0.2254933475517481  0.8881580986988611  0.5484402015525082
  0.1120218341989548  0.7826590786509547  0.6844757909101885
  0.2206523424486760  0.8912151322190197  0.3111844468131796
  0.4438308849741932  0.7817165046881192  0.4461369865975145
  0.5559040504592315  0.8884490574053204  0.5488232168429412
  0.4363145259688863  0.7991824755208581  0.6904428096880181
  0.5553817414566683  0.8912079935003315  0.3111734829035494
  0.7743876071109765  0.7795065034520111  0.4479448293211512
  0.8880879967588259  0.8932600274142539  0.5490326784639304
  0.7778497809790149  0.7828283901003541  0.6848872327783855
  0.8878976719754950  0.8912337332660139  0.3141045715947421
  0.5735007065806728  0.5522074353090273  0.7869519087226885
  0.4822051373794873  0.5990055266687039  0.8052906298631964
 
  0.00000000E+00  0.00000000E+00  0.00000000E+00
  0.00000000E+00  0.00000000E+00  0.00000000E+00
  0.00000000E+00  0.00000000E+00  0.00000000E+00
  0.00000000E+00  0.00000000E+00  0.00000000E+00
  0.00000000E+00  0.00000000E+00  0.00000000E+00
  0.00000000E+00  0.00000000E+00  0.00000000E+00
  0.00000000E+00  0.00000000E+00  0.00000000E+00
  0.00000000E+00  0.00000000E+00  0.00000000E+00
  0.00000000E+00  0.00000000E+00  0.00000000E+00
  0.00000000E+00  0.00000000E+00  0.00000000E+00
  0.00000000E+00  0.00000000E+00  0.00000000E+00
  0.00000000E+00  0.00000000E+00  0.00000000E+00
  0.00000000E+00  0.00000000E+00  0.00000000E+00
  0.00000000E+00  0.00000000E+00  0.00000000E+00
  0.00000000E+00  0.00000000E+00  0.00000000E+00
  0.00000000E+00  0.00000000E+00  0.00000000E+00
  0.00000000E+00  0.00000000E+00  0.00000000E+00
  0.00000000E+00  0.00000000E+00  0.00000000E+00
  0.00000000E+00  0.00000000E+00  0.00000000E+00
  0.00000000E+00  0.00000000E+00  0.00000000E+00
  0.00000000E+00  0.00000000E+00  0.00000000E+00
  0.00000000E+00  0.00000000E+00  0.00000000E+00
  0.00000000E+00  0.00000000E+00  0.00000000E+00
  0.00000000E+00  0.00000000E+00  0.00000000E+00
  0.00000000E+00  0.00000000E+00  0.00000000E+00
  0.00000000E+00  0.00000000E+00  0.00000000E+00
  0.00000000E+00  0.00000000E+00  0.00000000E+00
  0.00000000E+00  0.00000000E+00  0.00000000E+00
  0.00000000E+00  0.00000000E+00  0.00000000E+00
  0.00000000E+00  0.00000000E+00  0.00000000E+00
  0.00000000E+00  0.00000000E+00  0.00000000E+00
  0.00000000E+00  0.00000000E+00  0.00000000E+00
  0.00000000E+00  0.00000000E+00  0.00000000E+00
  0.00000000E+00  0.00000000E+00  0.00000000E+00
  0.00000000E+00  0.00000000E+00  0.00000000E+00
  0.00000000E+00  0.00000000E+00  0.00000000E+00
  0.00000000E+00  0.00000000E+00  0.00000000E+00
  0.00000000E+00  0.00000000E+00  0.00000000E+00
  0.00000000E+00  0.00000000E+00  0.00000000E+00
  0.00000000E+00  0.00000000E+00  0.00000000E+00
  0.00000000E+00  0.00000000E+00  0.00000000E+00
  0.00000000E+00  0.00000000E+00  0.00000000E+00
  0.00000000E+00  0.00000000E+00  0.00000000E+00
  0.00000000E+00  0.00000000E+00  0.00000000E+00
  0.00000000E+00  0.00000000E+00  0.00000000E+00
  0.00000000E+00  0.00000000E+00  0.00000000E+00
  0.00000000E+00  0.00000000E+00  0.00000000E+00
  0.00000000E+00  0.00000000E+00  0.00000000E+00
  0.00000000E+00  0.00000000E+00  0.00000000E+00
  0.00000000E+00  0.00000000E+00  0.00000000E+00
  0.00000000E+00  0.00000000E+00  0.00000000E+00
  0.00000000E+00  0.00000000E+00  0.00000000E+00
  0.00000000E+00  0.00000000E+00  0.00000000E+00
  0.00000000E+00  0.00000000E+00  0.00000000E+00
  0.00000000E+00  0.00000000E+00  0.00000000E+00
  0.00000000E+00  0.00000000E+00  0.00000000E+00
  0.00000000E+00  0.00000000E+00  0.00000000E+00
  0.00000000E+00  0.00000000E+00  0.00000000E+00
  0.00000000E+00  0.00000000E+00  0.00000000E+00
  0.00000000E+00  0.00000000E+00  0.00000000E+00
  0.00000000E+00  0.00000000E+00  0.00000000E+00
  0.00000000E+00  0.00000000E+00  0.00000000E+00
  0.00000000E+00  0.00000000E+00  0.00000000E+00
  0.00000000E+00  0.00000000E+00  0.00000000E+00
  0.00000000E+00  0.00000000E+00  0.00000000E+00
