CONTCAR\(9)                             
   1.00000000000000     
    13.6564998627000005    0.0000000000000000    0.0000000000000000
     0.0000000000000000   10.3198995589999996    0.0000000000000000
     0.0000000000000000    0.0000000000000000   19.5949993133999989
   Ta   Fe   Te   O    H 
     8     8    24     1     1
Direct
  0.0628392775631803  0.2535055006449379  0.4871617045979115
  0.1864326239665653  0.6422570745996609  0.5097042698332791
  0.3125666962126662  0.2569961341840929  0.4895012851470082
  0.4384956002731406  0.6422442549656568  0.5097488789521061
  0.5625326182966404  0.2534595895450192  0.4872172491062942
  0.6873266057349677  0.6457849385772308  0.5125262456002305
  0.8126664913230146  0.2541984903237263  0.4874367364584772
  0.9375711339029156  0.6456075519857125  0.5124347696065001
  0.1991706296565325  0.0438948784970429  0.4948754419075616
  0.0638891089041457  0.8559532587364129  0.5092532307975408
  0.4258036262735782  0.0439041052108259  0.4948732982487511
  0.3125755596678401  0.8453600530707448  0.5044856582653022
  0.6895571090607816  0.0439744120051091  0.4909359930667991
  0.5606428463318945  0.8559973079593323  0.5092834330529760
  0.9355850944589322  0.0440032137784533  0.4907467462607674
  0.8127474481436455  0.8553016130432873  0.5105668636704330
  0.1866054077734808  0.3912405720595942  0.5793577994481924
  0.0605746600640016  0.5078565917153388  0.4188754239545404
  0.1849506372900687  0.8428439548905409  0.4101955571201306
  0.0643552486155169  0.0597477421985917  0.5871302786198355
  0.0636426903268962  0.7118574454483783  0.6165038573066528
  0.1886992968896715  0.1833536142772206  0.3844386501292557
  0.4384557828416502  0.3910201604741048  0.5793824350408925
  0.3125127461719878  0.5044229014580837  0.4181914411346653
  0.4399118372572663  0.8429502019791698  0.4100714599763822
  0.3124897610558103  0.0368055465044556  0.5986354303323784
  0.3124063668603637  0.7049719420704862  0.6147157435202859
  0.4366573961475254  0.1838346782557635  0.3844914224256802
  0.6872357442545041  0.3905587843125203  0.5787802976552517
  0.5645413695828709  0.5079029483683780  0.4189836201439988
  0.6870097889745773  0.8405156853234731  0.4120291772676749
  0.5607365431523667  0.0596516527945620  0.5871864396824041
  0.5612672978559817  0.7120589055887340  0.6165320356984262
  0.6875590999965111  0.1847253963010455  0.3824200572295596
  0.9379425858692332  0.3904756639261336  0.5788870718527477
  0.8123498041762079  0.5090018124308434  0.4201734288528565
  0.9378139513795374  0.8403106657025362  0.4117876560797507
  0.8126203423375251  0.0603989550874353  0.5898295367836288
  0.8124506560996123  0.7115762993069240  0.6180011888101560
  0.9378730868164253  0.1851951439100689  0.3823323193983197
  0.3125486146201431  0.2040653408908308  0.6653304065043634
  0.3098569198198288  0.1657950855975535  0.7111054744600329
 
  0.00000000E+00  0.00000000E+00  0.00000000E+00
  0.00000000E+00  0.00000000E+00  0.00000000E+00
  0.00000000E+00  0.00000000E+00  0.00000000E+00
  0.00000000E+00  0.00000000E+00  0.00000000E+00
  0.00000000E+00  0.00000000E+00  0.00000000E+00
  0.00000000E+00  0.00000000E+00  0.00000000E+00
  0.00000000E+00  0.00000000E+00  0.00000000E+00
  0.00000000E+00  0.00000000E+00  0.00000000E+00
  0.00000000E+00  0.00000000E+00  0.00000000E+00
  0.00000000E+00  0.00000000E+00  0.00000000E+00
  0.00000000E+00  0.00000000E+00  0.00000000E+00
  0.00000000E+00  0.00000000E+00  0.00000000E+00
  0.00000000E+00  0.00000000E+00  0.00000000E+00
  0.00000000E+00  0.00000000E+00  0.00000000E+00
  0.00000000E+00  0.00000000E+00  0.00000000E+00
  0.00000000E+00  0.00000000E+00  0.00000000E+00
  0.00000000E+00  0.00000000E+00  0.00000000E+00
  0.00000000E+00  0.00000000E+00  0.00000000E+00
  0.00000000E+00  0.00000000E+00  0.00000000E+00
  0.00000000E+00  0.00000000E+00  0.00000000E+00
  0.00000000E+00  0.00000000E+00  0.00000000E+00
  0.00000000E+00  0.00000000E+00  0.00000000E+00
  0.00000000E+00  0.00000000E+00  0.00000000E+00
  0.00000000E+00  0.00000000E+00  0.00000000E+00
  0.00000000E+00  0.00000000E+00  0.00000000E+00
  0.00000000E+00  0.00000000E+00  0.00000000E+00
  0.00000000E+00  0.00000000E+00  0.00000000E+00
  0.00000000E+00  0.00000000E+00  0.00000000E+00
  0.00000000E+00  0.00000000E+00  0.00000000E+00
  0.00000000E+00  0.00000000E+00  0.00000000E+00
  0.00000000E+00  0.00000000E+00  0.00000000E+00
  0.00000000E+00  0.00000000E+00  0.00000000E+00
  0.00000000E+00  0.00000000E+00  0.00000000E+00
  0.00000000E+00  0.00000000E+00  0.00000000E+00
  0.00000000E+00  0.00000000E+00  0.00000000E+00
  0.00000000E+00  0.00000000E+00  0.00000000E+00
  0.00000000E+00  0.00000000E+00  0.00000000E+00
  0.00000000E+00  0.00000000E+00  0.00000000E+00
  0.00000000E+00  0.00000000E+00  0.00000000E+00
  0.00000000E+00  0.00000000E+00  0.00000000E+00
  0.00000000E+00  0.00000000E+00  0.00000000E+00
  0.00000000E+00  0.00000000E+00  0.00000000E+00
