CONTCAR\(2)                             
   1.00000000000000     
    14.4987001419000006    0.0000000000000000    0.0000000000000000
    -0.3851722429000000   15.7714976485000005    0.0000000000000000
     0.0000000000000000    0.0000000000000000   25.2446994780999994
   Cr   P    O 
    24    24   120
Direct
 -0.0031844301561119  0.3517505323725100  0.3452379855606367
  0.2453111867385490  0.3734895487622918  0.5195800185076248
  0.0880198465393228  0.1265191453318827  0.4804013755547794
  0.3364618711586384  0.1482544531658807  0.6547448978083755
  0.3302030378164933  0.3517447932446061  0.3452531214884509
  0.5786408352994445  0.3734880202753448  0.5195958693435653
  0.4213555485029017  0.1265184584164261  0.4804190678360409
  0.6698500247791792  0.1482500198707936  0.6547639045613033
  0.6635254692733530  0.3517509026896513  0.3452556037712385
  0.9119731725061778  0.3734841922058469  0.5195894890089228
  0.7546791875505596  0.1265165872182834  0.4804200033372789
  1.0031807337401819  0.1482403911967304  0.6547557207478817
 -0.0031844281561117  0.8517505953725063  0.3452379855606367
  0.2453111997385465  0.8734895807622930  0.5195800185076248
  0.0880198515393197  0.6265191553318855  0.4804013755547794
  0.3364618821586358  0.6482544111658867  0.6547448978083755
  0.3302030518164945  0.8517448562446034  0.3452531214884509
  0.5786408482994421  0.8734880522753496  0.5195958693435653
  0.4213555275029035  0.6265184684164248  0.4804190678360409
  0.6698500357791766  0.6482499778707965  0.6547639045613033
  0.6635254172733487  0.8517509656896449  0.3452556037712385
  0.9119731855061824  0.8734842242058570  0.5195894890089228
  0.7546792005505571  0.6265165972182827  0.4804200033372789
  1.0031807447401793  0.6482403491967340  0.6547557207478817
  0.0742734048216774  0.4395295436635107  0.4465198893991567
  0.2529014067205920  0.2186883115382873  0.4310703966168173
  0.0804536444926286  0.2812992598553576  0.5689222753599125
  0.2590358926337939  0.0604627990013326  0.5534664856947912
  0.4076381882249226  0.4395348332886776  0.4465294698343879
  0.5862228642942271  0.2187061509684878  0.4310852915954649
  0.4137753455309237  0.2813057818907402  0.5689293691080017
  0.5923685738454753  0.0604688307383301  0.5534851587897289
  0.7409454014058908  0.4395359414379841  0.4465359354551375
  0.9195406260307682  0.2187007811397374  0.4310743269607180
  0.7471094360110131  0.2813091374943445  0.5689352207615026
  0.9257130754364884  0.0604665938753293  0.5534696844241724
  0.0742734038216809  0.9395295156635204  0.4465198893991567
  0.2529014017205881  0.7186882985382900  0.4310703966168173
  0.0804536434926320  0.7812992628553596  0.5689222753599125
  0.2590358896337901  0.5604628280013330  0.5534664856947912
  0.4076381992249200  0.9395348052886782  0.4465294698343879
  0.5862228762942210  0.7187061379684929  0.4310852915954649
  0.4137753575309175  0.7813057848907430  0.5689293691080017
  0.5923685868454728  0.5604688597383334  0.5534851587897289
  0.7409453474058864  0.9395359134379871  0.4465359354551375
  0.9195406380307621  0.7187007681397284  0.4310743269607180
  0.7471093830110194  0.7813091404943394  0.5689352207615026
  0.9257130884364859  0.5604666228753294  0.5534696844241724
  0.0793501925243892  0.3959818120100491  0.3894930210154657
  0.3070424251336251  0.4395037430357795  0.4652245551210655
  0.2545924462156473  0.4186443706328288  0.3314637745934900
  0.1339122386286541  0.3842976025837893  0.4811415324427046
  0.2197075435816584  0.4703864573927158  0.5606383869260076
  0.2789014647426759  0.2609516141827277  0.3762785130415425
  0.0479152370430096  0.3247161836972213  0.2929268021439436
  0.1825608492590510  0.3071635469380287  0.5729529557763160
  0.2689237410134748  0.2816097492569459  0.4761536855981623
  0.3153230180001139  0.1425917627482281  0.4384900543570964
  0.0180280880782400  0.3574000507136055  0.5615096901183846
  0.0644321129365798  0.2183922732343077  0.5238287474055833
  0.1507915306746479  0.1928205793302304  0.4270313014075108
  0.2853677288706905  0.1752529137609876  0.7070638684658738
  0.0544711834188081  0.2390270140386156  0.6237078728417825
  0.1135959671293817  0.0296124902035525  0.4393524831336686
  0.1994139719618158  0.1156923449469473  0.5188270947995042
  0.0787896176229399  0.0813232168676891  0.6685238907487212
  0.0262917457235001  0.0605020181358412  0.5347511081308309
  0.2539386054355603  0.1040375434391687  0.6104858818590195
  0.4127297025496328  0.3959852652493218  0.3895028706879359
  0.6403569759296561  0.4395020431307953  0.4652342918550739
  0.5879227510159328  0.4186553855397146  0.3314598203364206
  0.4672442513505640  0.3842920613327932  0.4811584032251431
  0.5530409624518452  0.4703970024936596  0.5606514487294580
  0.6122083632611088  0.2609765214217596  0.3762963923136000
  0.3813015792332830  0.3247360572516689  0.2929371616520693
  0.5158777245177549  0.3071725869503146  0.5729701377275674
  0.6022515890230338  0.2816065640065470  0.4761712768440947
  0.6486404721359781  0.1425941398084452  0.4384950945242697
  0.3513541656626614  0.3574157659968541  0.5615088949169874
  0.3977482454293544  0.2183872742703480  0.5238477227457456
  0.4841115211289033  0.1928354665749273  0.4270493597432742
  0.6187615772856013  0.1752468115821122  0.7070870814422784
  0.3877638102345063  0.2390523820186952  0.6237219809739289
  0.4469653835982144  0.0296135841847328  0.4393714976123345
  0.5327500448981846  0.1157114369890141  0.5188568028359432
  0.4120747359465070  0.0813515380704738  0.6685250777619405
  0.3596189918959421  0.0604977788841320  0.5347669065850332
  0.5873075376498348  0.1040345153934575  0.6105062613773046
  0.7460429399471116  0.3959881149914539  0.3895090399195479
  0.9736950911321218  0.4394890841870890  0.4652256825223561
  0.9212172845787888  0.4186590186005264  0.3314439772972330
  0.8005671841427752  0.3842987542317874  0.4811618358715864
  0.8863919368536990  0.4703951914067553  0.5606430963895681
  0.9455074380085018  0.2609803337538542  0.3762865692890781
  0.7146263165424142  0.3247238555656146  0.2929441421108528
  0.8492216057375928  0.3071777899371854  0.5729662112962143
  0.9355659533121936  0.2816010892387109  0.4761660971034405
  0.9819784152754295  0.1426047500863575  0.4384802618529852
  0.6846848156836334  0.3574091969524690  0.5615204572068514
  0.7310860260590574  0.2183866749341237  0.5238500504148670
  0.8174312576071789  0.1928219334351809  0.4270449108234334
  0.9520912551191707  0.1752375200505582  0.7070761570536044
  0.7211225078926636  0.2390481568311906  0.6237273713259039
  0.7802745208269238  0.0296161884688056  0.4393698833336073
  0.8660811108979514  0.1157031108447783  0.5188456352330233
  0.7454653045248453  0.0813478205654914  0.6685326187096110
  0.6929528271399532  0.0604953581712695  0.5347719849941533
  0.9206516943279898  0.1040296728053820  0.6104899319091227
  0.0793501925243892  0.8959818150100489  0.3894930210154657
  0.3070424381336226  0.9395037760357825  0.4652245551210655
  0.2545924592156519  0.9186444336328350  0.3314637745934900
  0.1339122426286544  0.8842976045837811  0.4811415324427046
  0.2197075385816615  0.9703864293927188  0.5606383869260076
  0.2789014607426755  0.7609516161827282  0.3762785130415425
  0.0479152400430062  0.8247161556972240  0.2929268021439436
  0.1825608462590543  0.8071636099380329  0.5729529557763160
  0.2689237370134745  0.7816097522569426  0.4761536855981623
  0.3153230300001149  0.6425917507482346  0.4384900543570964
  0.0180280870782434  0.8574000537136082  0.5615096901183846
  0.0644321089365794  0.7183922752343047  0.5238287474055833
  0.1507915336746446  0.6928205213302250  0.4270313014075108
  0.2853677408706914  0.6752529157609878  0.7070638684658738
  0.0544711834188081  0.7390270310386172  0.6237078728417825
  0.1135959631293813  0.5296125022035409  0.4393524831336686
  0.1994139679618155  0.6156923549469479  0.5188270947995042
  0.0787896176229399  0.5813231818676865  0.6685238907487212
  0.0262917457235001  0.5605019871358415  0.5347511081308309
  0.2539386004355634  0.6040375384391682  0.6104858818590195
  0.4127297155496303  0.8959852682493223  0.3895028706879359
  0.6403569229296624  0.9395020761307988  0.4652342918550739
  0.5879226990159285  0.9186554485397169  0.3314598203364206
  0.4672442633505650  0.8842920633327932  0.4811584032251431
  0.5530409734518497  0.9703969744936560  0.5606514487294580
  0.6122083752611098  0.7609765234217631  0.3762963923136000
  0.3813015572332811  0.8247360292516732  0.2929371616520693
  0.5158777055177569  0.8071726499503145  0.5729701377275674
  0.6022516010230277  0.7816065670065512  0.4761712768440947
  0.6486404841359791  0.6425941278084444  0.4384950945242697
  0.3513541776626624  0.8574157689968626  0.5615088949169874
  0.3977482244293562  0.7183872762703476  0.5238477227457456
  0.4841115311288970  0.6928354085749214  0.4270493597432742
  0.6187615232856040  0.6752468135821154  0.7070870814422784
  0.3877637902345047  0.7390523990187042  0.6237219809739289
  0.4469653635982127  0.5296135961847263  0.4393714976123345
  0.5327500568981856  0.6157114469890095  0.5188568028359432
  0.4120747139465051  0.5813515030704709  0.6685250777619405
  0.3596190028959395  0.5604977478841348  0.5347669065850332
  0.5873075496498287  0.6040345103934514  0.6105062613773046
  0.7460429519471126  0.8959881179914638  0.3895090399195479
  0.9736950381321281  0.9394891171870907  0.4652256825223561
  0.9212172325787916  0.9186590816005330  0.3314439772972330
  0.8005671961427762  0.8842987562317832  0.4811618358715864
  0.8863919488537000  0.9703951634067562  0.5606430963895681
  0.9455074510084993  0.7609803357538599  0.3762865692890781
  0.7146263275424115  0.8247238275656124  0.2929441421108528
  0.8492216197375868  0.8071778529371867  0.5729662112962143
  0.9355659653121946  0.7816010922387105  0.4761660971034405
  0.9819784272754305  0.6426047380863547  0.4384802618529852
  0.6846847626836396  0.8574091999524739  0.5615204572068514
  0.7310860380590584  0.7183866769341251  0.5238500504148670
  0.8174312026071850  0.6928218754351788  0.4270449108234334
  0.9520912021191699  0.6752375220505600  0.7070761570536044
  0.7211225208926612  0.7390481738311970  0.6237273713259039
  0.7802745328269248  0.5296162004688012  0.4393698833336073
  0.8660810578979576  0.6157031208447762  0.5188456352330233
  0.7454653155248425  0.5813477855654924  0.6685326187096110
  0.6929528391399542  0.5604953271712748  0.5347719849941533
  0.9206517073279802  0.6040296678053783  0.6104899319091227
 
  0.00000000E+00  0.00000000E+00  0.00000000E+00
  0.00000000E+00  0.00000000E+00  0.00000000E+00
  0.00000000E+00  0.00000000E+00  0.00000000E+00
  0.00000000E+00  0.00000000E+00  0.00000000E+00
  0.00000000E+00  0.00000000E+00  0.00000000E+00
  0.00000000E+00  0.00000000E+00  0.00000000E+00
  0.00000000E+00  0.00000000E+00  0.00000000E+00
  0.00000000E+00  0.00000000E+00  0.00000000E+00
  0.00000000E+00  0.00000000E+00  0.00000000E+00
  0.00000000E+00  0.00000000E+00  0.00000000E+00
  0.00000000E+00  0.00000000E+00  0.00000000E+00
  0.00000000E+00  0.00000000E+00  0.00000000E+00
  0.00000000E+00  0.00000000E+00  0.00000000E+00
  0.00000000E+00  0.00000000E+00  0.00000000E+00
  0.00000000E+00  0.00000000E+00  0.00000000E+00
  0.00000000E+00  0.00000000E+00  0.00000000E+00
  0.00000000E+00  0.00000000E+00  0.00000000E+00
  0.00000000E+00  0.00000000E+00  0.00000000E+00
  0.00000000E+00  0.00000000E+00  0.00000000E+00
  0.00000000E+00  0.00000000E+00  0.00000000E+00
  0.00000000E+00  0.00000000E+00  0.00000000E+00
  0.00000000E+00  0.00000000E+00  0.00000000E+00
  0.00000000E+00  0.00000000E+00  0.00000000E+00
  0.00000000E+00  0.00000000E+00  0.00000000E+00
  0.00000000E+00  0.00000000E+00  0.00000000E+00
  0.00000000E+00  0.00000000E+00  0.00000000E+00
  0.00000000E+00  0.00000000E+00  0.00000000E+00
  0.00000000E+00  0.00000000E+00  0.00000000E+00
  0.00000000E+00  0.00000000E+00  0.00000000E+00
  0.00000000E+00  0.00000000E+00  0.00000000E+00
  0.00000000E+00  0.00000000E+00  0.00000000E+00
  0.00000000E+00  0.00000000E+00  0.00000000E+00
  0.00000000E+00  0.00000000E+00  0.00000000E+00
  0.00000000E+00  0.00000000E+00  0.00000000E+00
  0.00000000E+00  0.00000000E+00  0.00000000E+00
  0.00000000E+00  0.00000000E+00  0.00000000E+00
  0.00000000E+00  0.00000000E+00  0.00000000E+00
  0.00000000E+00  0.00000000E+00  0.00000000E+00
  0.00000000E+00  0.00000000E+00  0.00000000E+00
  0.00000000E+00  0.00000000E+00  0.00000000E+00
  0.00000000E+00  0.00000000E+00  0.00000000E+00
  0.00000000E+00  0.00000000E+00  0.00000000E+00
  0.00000000E+00  0.00000000E+00  0.00000000E+00
  0.00000000E+00  0.00000000E+00  0.00000000E+00
  0.00000000E+00  0.00000000E+00  0.00000000E+00
  0.00000000E+00  0.00000000E+00  0.00000000E+00
  0.00000000E+00  0.00000000E+00  0.00000000E+00
  0.00000000E+00  0.00000000E+00  0.00000000E+00
  0.00000000E+00  0.00000000E+00  0.00000000E+00
  0.00000000E+00  0.00000000E+00  0.00000000E+00
  0.00000000E+00  0.00000000E+00  0.00000000E+00
  0.00000000E+00  0.00000000E+00  0.00000000E+00
  0.00000000E+00  0.00000000E+00  0.00000000E+00
  0.00000000E+00  0.00000000E+00  0.00000000E+00
  0.00000000E+00  0.00000000E+00  0.00000000E+00
  0.00000000E+00  0.00000000E+00  0.00000000E+00
  0.00000000E+00  0.00000000E+00  0.00000000E+00
  0.00000000E+00  0.00000000E+00  0.00000000E+00
  0.00000000E+00  0.00000000E+00  0.00000000E+00
  0.00000000E+00  0.00000000E+00  0.00000000E+00
  0.00000000E+00  0.00000000E+00  0.00000000E+00
  0.00000000E+00  0.00000000E+00  0.00000000E+00
  0.00000000E+00  0.00000000E+00  0.00000000E+00
  0.00000000E+00  0.00000000E+00  0.00000000E+00
  0.00000000E+00  0.00000000E+00  0.00000000E+00
  0.00000000E+00  0.00000000E+00  0.00000000E+00
  0.00000000E+00  0.00000000E+00  0.00000000E+00
  0.00000000E+00  0.00000000E+00  0.00000000E+00
  0.00000000E+00  0.00000000E+00  0.00000000E+00
  0.00000000E+00  0.00000000E+00  0.00000000E+00
  0.00000000E+00  0.00000000E+00  0.00000000E+00
  0.00000000E+00  0.00000000E+00  0.00000000E+00
  0.00000000E+00  0.00000000E+00  0.00000000E+00
  0.00000000E+00  0.00000000E+00  0.00000000E+00
  0.00000000E+00  0.00000000E+00  0.00000000E+00
  0.00000000E+00  0.00000000E+00  0.00000000E+00
  0.00000000E+00  0.00000000E+00  0.00000000E+00
  0.00000000E+00  0.00000000E+00  0.00000000E+00
  0.00000000E+00  0.00000000E+00  0.00000000E+00
  0.00000000E+00  0.00000000E+00  0.00000000E+00
  0.00000000E+00  0.00000000E+00  0.00000000E+00
  0.00000000E+00  0.00000000E+00  0.00000000E+00
  0.00000000E+00  0.00000000E+00  0.00000000E+00
  0.00000000E+00  0.00000000E+00  0.00000000E+00
  0.00000000E+00  0.00000000E+00  0.00000000E+00
  0.00000000E+00  0.00000000E+00  0.00000000E+00
  0.00000000E+00  0.00000000E+00  0.00000000E+00
  0.00000000E+00  0.00000000E+00  0.00000000E+00
  0.00000000E+00  0.00000000E+00  0.00000000E+00
  0.00000000E+00  0.00000000E+00  0.00000000E+00
  0.00000000E+00  0.00000000E+00  0.00000000E+00
  0.00000000E+00  0.00000000E+00  0.00000000E+00
  0.00000000E+00  0.00000000E+00  0.00000000E+00
  0.00000000E+00  0.00000000E+00  0.00000000E+00
  0.00000000E+00  0.00000000E+00  0.00000000E+00
  0.00000000E+00  0.00000000E+00  0.00000000E+00
  0.00000000E+00  0.00000000E+00  0.00000000E+00
  0.00000000E+00  0.00000000E+00  0.00000000E+00
  0.00000000E+00  0.00000000E+00  0.00000000E+00
  0.00000000E+00  0.00000000E+00  0.00000000E+00
  0.00000000E+00  0.00000000E+00  0.00000000E+00
  0.00000000E+00  0.00000000E+00  0.00000000E+00
  0.00000000E+00  0.00000000E+00  0.00000000E+00
  0.00000000E+00  0.00000000E+00  0.00000000E+00
  0.00000000E+00  0.00000000E+00  0.00000000E+00
  0.00000000E+00  0.00000000E+00  0.00000000E+00
  0.00000000E+00  0.00000000E+00  0.00000000E+00
  0.00000000E+00  0.00000000E+00  0.00000000E+00
  0.00000000E+00  0.00000000E+00  0.00000000E+00
  0.00000000E+00  0.00000000E+00  0.00000000E+00
  0.00000000E+00  0.00000000E+00  0.00000000E+00
  0.00000000E+00  0.00000000E+00  0.00000000E+00
  0.00000000E+00  0.00000000E+00  0.00000000E+00
  0.00000000E+00  0.00000000E+00  0.00000000E+00
  0.00000000E+00  0.00000000E+00  0.00000000E+00
  0.00000000E+00  0.00000000E+00  0.00000000E+00
  0.00000000E+00  0.00000000E+00  0.00000000E+00
  0.00000000E+00  0.00000000E+00  0.00000000E+00
  0.00000000E+00  0.00000000E+00  0.00000000E+00
  0.00000000E+00  0.00000000E+00  0.00000000E+00
  0.00000000E+00  0.00000000E+00  0.00000000E+00
  0.00000000E+00  0.00000000E+00  0.00000000E+00
  0.00000000E+00  0.00000000E+00  0.00000000E+00
  0.00000000E+00  0.00000000E+00  0.00000000E+00
  0.00000000E+00  0.00000000E+00  0.00000000E+00
  0.00000000E+00  0.00000000E+00  0.00000000E+00
  0.00000000E+00  0.00000000E+00  0.00000000E+00
  0.00000000E+00  0.00000000E+00  0.00000000E+00
  0.00000000E+00  0.00000000E+00  0.00000000E+00
  0.00000000E+00  0.00000000E+00  0.00000000E+00
  0.00000000E+00  0.00000000E+00  0.00000000E+00
  0.00000000E+00  0.00000000E+00  0.00000000E+00
  0.00000000E+00  0.00000000E+00  0.00000000E+00
  0.00000000E+00  0.00000000E+00  0.00000000E+00
  0.00000000E+00  0.00000000E+00  0.00000000E+00
  0.00000000E+00  0.00000000E+00  0.00000000E+00
  0.00000000E+00  0.00000000E+00  0.00000000E+00
  0.00000000E+00  0.00000000E+00  0.00000000E+00
  0.00000000E+00  0.00000000E+00  0.00000000E+00
  0.00000000E+00  0.00000000E+00  0.00000000E+00
  0.00000000E+00  0.00000000E+00  0.00000000E+00
  0.00000000E+00  0.00000000E+00  0.00000000E+00
  0.00000000E+00  0.00000000E+00  0.00000000E+00
  0.00000000E+00  0.00000000E+00  0.00000000E+00
  0.00000000E+00  0.00000000E+00  0.00000000E+00
  0.00000000E+00  0.00000000E+00  0.00000000E+00
  0.00000000E+00  0.00000000E+00  0.00000000E+00
  0.00000000E+00  0.00000000E+00  0.00000000E+00
  0.00000000E+00  0.00000000E+00  0.00000000E+00
  0.00000000E+00  0.00000000E+00  0.00000000E+00
  0.00000000E+00  0.00000000E+00  0.00000000E+00
  0.00000000E+00  0.00000000E+00  0.00000000E+00
  0.00000000E+00  0.00000000E+00  0.00000000E+00
  0.00000000E+00  0.00000000E+00  0.00000000E+00
  0.00000000E+00  0.00000000E+00  0.00000000E+00
  0.00000000E+00  0.00000000E+00  0.00000000E+00
  0.00000000E+00  0.00000000E+00  0.00000000E+00
  0.00000000E+00  0.00000000E+00  0.00000000E+00
  0.00000000E+00  0.00000000E+00  0.00000000E+00
  0.00000000E+00  0.00000000E+00  0.00000000E+00
  0.00000000E+00  0.00000000E+00  0.00000000E+00
  0.00000000E+00  0.00000000E+00  0.00000000E+00
  0.00000000E+00  0.00000000E+00  0.00000000E+00
  0.00000000E+00  0.00000000E+00  0.00000000E+00
  0.00000000E+00  0.00000000E+00  0.00000000E+00
  0.00000000E+00  0.00000000E+00  0.00000000E+00
  0.00000000E+00  0.00000000E+00  0.00000000E+00
  0.00000000E+00  0.00000000E+00  0.00000000E+00
