 Ca2 Cu1 Cl2 O2                         
   1.00000000000000     
     3.7960642952876897    0.0000000000000000    0.0000000000000000
     0.0000000000000000    3.7960519724125703    0.0000000000000000
     0.0000000000000000    0.0000000000000000   20.6711508169800027
   Ca   Cu   Cl   O 
     2     1     2     2
Direct
  0.5000002175442708  0.5000002503799631  0.5765143916291717
  0.5000003629054814  0.5000002396698080  0.4234855769536683
 -0.0000012336077436  0.0000009284626888  0.5000000146816851
 -0.0000000720928548 -0.0000003183227143  0.3613444607972255
 -0.0000002063117583  0.0000000045421196  0.6386555383199656
  0.5000010770124471 -0.0000000614756944  0.5000000234317230
 -0.0000001454498423  0.4999989567438291  0.4999999941865611
 
  0.00000000E+00  0.00000000E+00  0.00000000E+00
  0.00000000E+00  0.00000000E+00  0.00000000E+00
  0.00000000E+00  0.00000000E+00  0.00000000E+00
  0.00000000E+00  0.00000000E+00  0.00000000E+00
  0.00000000E+00  0.00000000E+00  0.00000000E+00
  0.00000000E+00  0.00000000E+00  0.00000000E+00
  0.00000000E+00  0.00000000E+00  0.00000000E+00
