CONTCAR\(5)                             
   1.00000000000000     
    15.1182003021000000    0.0000000000000000    0.0000000000000000
     7.5590774867999997   13.0927586063000003    0.0000000000000000
     0.0000000000000000    0.0000000000000000   18.6788005828999992
   Ni   Te   O 
    32    32     1
Direct
  0.0859240485346621  0.0781419019306762  0.5382379779517438
  0.9982658851693503  0.0011204937558421  0.4653722759872310
  0.3372902012620360  0.0837464898349730  0.5352316600297303
  0.2506136210748076  0.0011204937558421  0.4653722759872310
  0.5832620492861371  0.0834658364277276  0.5347692478899372
  0.5026430446767199  0.9977532673345597  0.4626361337390698
  0.8289533079029842  0.0837464898349730  0.5352316600297303
  0.7496036559887178  0.9977532673345597  0.4626361337390698
  0.0814742915092984  0.3325701829130629  0.5362362738007216
  0.0022939202933425  0.2454121514133215  0.4642269488816917
  0.3366814147271423  0.3243008628084972  0.5347202081138884
  0.2485439607152763  0.2479991730882362  0.4624002234752739
  0.5890076194643664  0.3243008628084972  0.5347202081138884
  0.5004382139611769  0.2491235960776552  0.4622611974932055
  0.8359454545776475  0.3325701829130629  0.5362362738007216
  0.7534568281964986  0.2479991730882362  0.4624002234752739
  0.0855266839993889  0.5806486467891256  0.5379831247231339
  0.0001709406267316  0.4995444615862367  0.4641727100921232
  0.3333165568850868  0.5833568082298310  0.5465827550456411
  0.2524243834538111  0.4953005770977593  0.4657691581854642
  0.5838145592114803  0.5806486467891256  0.5379831247231339
  0.5022749934484259  0.4953005770977593  0.4657691581854642
  0.8340645567541242  0.5818606824917458  0.5366956976440493
  0.7502845837870236  0.4995444615862367  0.4641727100921232
  0.0723996187951775  0.8385229421528286  0.5390558637734276
  0.0018536515893603  0.7461742076171880  0.4654618561976832
  0.3390673850519861  0.8385229421528286  0.5390558637734276
  0.2464502488097735  0.7570995123804468  0.4741200445139057
  0.5830270089435391  0.8311587865460326  0.5366213662677417
  0.5019720867934543  0.7461742076171880  0.4654618561976832
  0.8358041185104321  0.8311587865460326  0.5366213662677417
  0.7500621941834200  0.7498754956331576  0.4638561979816916
  0.0852128186819276  0.0795643616361379  0.3990253429701121
  0.9912736377428599  0.0066196573719124  0.6038188102062322
  0.3351788670404793  0.0807786735453068  0.3980385937735249
  0.2521067048852276  0.0066196573719124  0.6038188102062322
  0.5837771335153465  0.0824356679693165  0.3969771002321216
  0.5031381674317371  0.9981052357296202  0.6006507129224491
  0.8340324584142069  0.0807786735453068  0.3980385937735249
  0.7487565648386401  0.9981052357296202  0.6006507129224491
  0.0815807990663980  0.3326696470312384  0.3989787286484368
  0.0017317686762069  0.2465364546475927  0.6017986935111063
  0.3330526154746877  0.3311020375926931  0.3976070171063895
  0.2479591293791570  0.2490338818055611  0.6010638355949246
  0.5858352439326252  0.3311020375926931  0.3976070171063895
  0.5012965198680400  0.2474069842639220  0.6013948152655972
  0.8357394829023651  0.3326696470312384  0.3989787286484368
  0.7530069508152859  0.2490338818055611  0.6010638355949246
  0.0866867115846806  0.5797515288818293  0.3998761938511716
  0.0003883835160860  0.4984498477678473  0.6021667232220023
  0.3300799646538085  0.5898299926923806  0.4114772596227291
  0.2524425334767118  0.4879183425483993  0.6008650159469060
  0.5835516495334920  0.5797515288818293  0.3998761938511716
  0.5096390779748851  0.4879183425483993  0.6008650159469060
  0.8334182327850219  0.5831533304299502  0.3994160812901051
  0.7511617547160584  0.4984498477678473  0.6021667232220023
  0.0839933851022264  0.8324294490027891  0.4026768229804761
  0.0002801379364493  0.7458809618299818  0.6043070261780350
  0.3335671118949839  0.8324294490027891  0.4026768229804761
  0.2291043099597818  0.7917913900804372  0.6091398698011469
  0.5837199565544485  0.8300660902467757  0.3989603863804212
  0.5038388462335716  0.7458809618299818  0.6043070261780350
  0.8362038671987867  0.8300660902467757  0.3989603863804212
  0.7503835489100581  0.7492327861798888  0.6006592118568130
  0.3005694281203871  0.6488611587592165  0.6380396016556257
 
  0.00000000E+00  0.00000000E+00  0.00000000E+00
  0.00000000E+00  0.00000000E+00  0.00000000E+00
  0.00000000E+00  0.00000000E+00  0.00000000E+00
  0.00000000E+00  0.00000000E+00  0.00000000E+00
  0.00000000E+00  0.00000000E+00  0.00000000E+00
  0.00000000E+00  0.00000000E+00  0.00000000E+00
  0.00000000E+00  0.00000000E+00  0.00000000E+00
  0.00000000E+00  0.00000000E+00  0.00000000E+00
  0.00000000E+00  0.00000000E+00  0.00000000E+00
  0.00000000E+00  0.00000000E+00  0.00000000E+00
  0.00000000E+00  0.00000000E+00  0.00000000E+00
  0.00000000E+00  0.00000000E+00  0.00000000E+00
  0.00000000E+00  0.00000000E+00  0.00000000E+00
  0.00000000E+00  0.00000000E+00  0.00000000E+00
  0.00000000E+00  0.00000000E+00  0.00000000E+00
  0.00000000E+00  0.00000000E+00  0.00000000E+00
  0.00000000E+00  0.00000000E+00  0.00000000E+00
  0.00000000E+00  0.00000000E+00  0.00000000E+00
  0.00000000E+00  0.00000000E+00  0.00000000E+00
  0.00000000E+00  0.00000000E+00  0.00000000E+00
  0.00000000E+00  0.00000000E+00  0.00000000E+00
  0.00000000E+00  0.00000000E+00  0.00000000E+00
  0.00000000E+00  0.00000000E+00  0.00000000E+00
  0.00000000E+00  0.00000000E+00  0.00000000E+00
  0.00000000E+00  0.00000000E+00  0.00000000E+00
  0.00000000E+00  0.00000000E+00  0.00000000E+00
  0.00000000E+00  0.00000000E+00  0.00000000E+00
  0.00000000E+00  0.00000000E+00  0.00000000E+00
  0.00000000E+00  0.00000000E+00  0.00000000E+00
  0.00000000E+00  0.00000000E+00  0.00000000E+00
  0.00000000E+00  0.00000000E+00  0.00000000E+00
  0.00000000E+00  0.00000000E+00  0.00000000E+00
  0.00000000E+00  0.00000000E+00  0.00000000E+00
  0.00000000E+00  0.00000000E+00  0.00000000E+00
  0.00000000E+00  0.00000000E+00  0.00000000E+00
  0.00000000E+00  0.00000000E+00  0.00000000E+00
  0.00000000E+00  0.00000000E+00  0.00000000E+00
  0.00000000E+00  0.00000000E+00  0.00000000E+00
  0.00000000E+00  0.00000000E+00  0.00000000E+00
  0.00000000E+00  0.00000000E+00  0.00000000E+00
  0.00000000E+00  0.00000000E+00  0.00000000E+00
  0.00000000E+00  0.00000000E+00  0.00000000E+00
  0.00000000E+00  0.00000000E+00  0.00000000E+00
  0.00000000E+00  0.00000000E+00  0.00000000E+00
  0.00000000E+00  0.00000000E+00  0.00000000E+00
  0.00000000E+00  0.00000000E+00  0.00000000E+00
  0.00000000E+00  0.00000000E+00  0.00000000E+00
  0.00000000E+00  0.00000000E+00  0.00000000E+00
  0.00000000E+00  0.00000000E+00  0.00000000E+00
  0.00000000E+00  0.00000000E+00  0.00000000E+00
  0.00000000E+00  0.00000000E+00  0.00000000E+00
  0.00000000E+00  0.00000000E+00  0.00000000E+00
  0.00000000E+00  0.00000000E+00  0.00000000E+00
  0.00000000E+00  0.00000000E+00  0.00000000E+00
  0.00000000E+00  0.00000000E+00  0.00000000E+00
  0.00000000E+00  0.00000000E+00  0.00000000E+00
  0.00000000E+00  0.00000000E+00  0.00000000E+00
  0.00000000E+00  0.00000000E+00  0.00000000E+00
  0.00000000E+00  0.00000000E+00  0.00000000E+00
  0.00000000E+00  0.00000000E+00  0.00000000E+00
  0.00000000E+00  0.00000000E+00  0.00000000E+00
  0.00000000E+00  0.00000000E+00  0.00000000E+00
  0.00000000E+00  0.00000000E+00  0.00000000E+00
  0.00000000E+00  0.00000000E+00  0.00000000E+00
  0.00000000E+00  0.00000000E+00  0.00000000E+00
