CONTCAR\(2)                             
   1.00000000000000     
    12.9184999466000008    0.0000000000000000    0.0000000000000000
     0.0000000000000000   12.9184999466000008    0.0000000000000000
     0.0000000000000000    0.0000000000000000   24.0865993500000002
   Ho   Te
    18    54
Direct
  0.1666699889999990  0.0000000000000000  0.5852839107338497
  0.0000000000000000  0.1666699889999990  0.4147160502661507
  0.5000000000000000  0.0000000000000000  0.5852839107338497
  0.3333300110000010  0.1666699889999990  0.4147160502661507
  0.8333299740000015  0.0000000000000000  0.5852839107338497
  0.6666699889999990  0.1666699889999990  0.4147160502661507
  0.1666699889999990  0.3333300110000010  0.5852839107338497
  0.0000000000000000  0.5000000000000000  0.4147160502661507
  0.5000000000000000  0.3333300110000010  0.5852839107338497
  0.3333300110000010  0.5000000000000000  0.4147160502661507
  0.8333299740000015  0.3333300110000010  0.5852839107338497
  0.6666699889999990  0.5000000000000000  0.4147160502661507
  0.1666699889999990  0.6666699889999990  0.5852839107338497
  0.0000000000000000  0.8333299740000015  0.4147160502661507
  0.5000000000000000  0.6666699889999990  0.5852839107338497
  0.3333300110000010  0.8333299740000015  0.4147160502661507
  0.8333299740000015  0.6666699889999990  0.5852839107338497
  0.6666699889999990  0.8333299740000015  0.4147160502661507
  0.0000000000000000  0.0000000000000000  0.3117603925393482
  0.1666699889999990  0.1666699889999990  0.6882395884606467
  0.0000000000000000  0.0000000000000000  0.6882395884606467
  0.1666699889999990  0.1666699889999990  0.3117603925393482
  0.1666699889999990  0.0000000000000000  0.4535775129905844
  0.0000000000000000  0.1666699889999990  0.5464224870094085
  0.3333300110000010  0.0000000000000000  0.3117603925393482
  0.5000000000000000  0.1666699889999990  0.6882395884606467
  0.3333300110000010  0.0000000000000000  0.6882395884606467
  0.5000000000000000  0.1666699889999990  0.3117603925393482
  0.5000000000000000  0.0000000000000000  0.4535775129905844
  0.3333300110000010  0.1666699889999990  0.5464224870094085
  0.6666699889999990  0.0000000000000000  0.3117603925393482
  0.8333299740000015  0.1666699889999990  0.6882395884606467
  0.6666699889999990  0.0000000000000000  0.6882395884606467
  0.8333299740000015  0.1666699889999990  0.3117603925393482
  0.8333299740000015  0.0000000000000000  0.4535775129905844
  0.6666699889999990  0.1666699889999990  0.5464224870094085
  0.0000000000000000  0.3333300110000010  0.3117603925393482
  0.1666699889999990  0.5000000000000000  0.6882395884606467
  0.0000000000000000  0.3333300110000010  0.6882395884606467
  0.1666699889999990  0.5000000000000000  0.3117603925393482
  0.1666699889999990  0.3333300110000010  0.4535775129905844
  0.0000000000000000  0.5000000000000000  0.5464224870094085
  0.3333300110000010  0.3333300110000010  0.3117603925393482
  0.5000000000000000  0.5000000000000000  0.6882395884606467
  0.3333300110000010  0.3333300110000010  0.6882395884606467
  0.5000000000000000  0.5000000000000000  0.3117603925393482
  0.5000000000000000  0.3333300110000010  0.4535775129905844
  0.3333300110000010  0.5000000000000000  0.5464224870094085
  0.6666699889999990  0.3333300110000010  0.3117603925393482
  0.8333299740000015  0.5000000000000000  0.6882395884606467
  0.6666699889999990  0.3333300110000010  0.6882395884606467
  0.8333299740000015  0.5000000000000000  0.3117603925393482
  0.8333299740000015  0.3333300110000010  0.4535775129905844
  0.6666699889999990  0.5000000000000000  0.5464224870094085
  0.0000000000000000  0.6666699889999990  0.3117603925393482
  0.1666699889999990  0.8333299740000015  0.6882395884606467
  0.0000000000000000  0.6666699889999990  0.6882395884606467
  0.1666699889999990  0.8333299740000015  0.3117603925393482
  0.1666699889999990  0.6666699889999990  0.4535775129905844
  0.0000000000000000  0.8333299740000015  0.5464224870094085
  0.3333300110000010  0.6666699889999990  0.3117603925393482
  0.5000000000000000  0.8333299740000015  0.6882395884606467
  0.3333300110000010  0.6666699889999990  0.6882395884606467
  0.5000000000000000  0.8333299740000015  0.3117603925393482
  0.5000000000000000  0.6666699889999990  0.4535775129905844
  0.3333300110000010  0.8333299740000015  0.5464224870094085
  0.6666699889999990  0.6666699889999990  0.3117603925393482
  0.8333299740000015  0.8333299740000015  0.6882395884606467
  0.6666699889999990  0.6666699889999990  0.6882395884606467
  0.8333299740000015  0.8333299740000015  0.3117603925393482
  0.8333299740000015  0.6666699889999990  0.4535775129905844
  0.6666699889999990  0.8333299740000015  0.5464224870094085
 
  0.00000000E+00  0.00000000E+00  0.00000000E+00
  0.00000000E+00  0.00000000E+00  0.00000000E+00
  0.00000000E+00  0.00000000E+00  0.00000000E+00
  0.00000000E+00  0.00000000E+00  0.00000000E+00
  0.00000000E+00  0.00000000E+00  0.00000000E+00
  0.00000000E+00  0.00000000E+00  0.00000000E+00
  0.00000000E+00  0.00000000E+00  0.00000000E+00
  0.00000000E+00  0.00000000E+00  0.00000000E+00
  0.00000000E+00  0.00000000E+00  0.00000000E+00
  0.00000000E+00  0.00000000E+00  0.00000000E+00
  0.00000000E+00  0.00000000E+00  0.00000000E+00
  0.00000000E+00  0.00000000E+00  0.00000000E+00
  0.00000000E+00  0.00000000E+00  0.00000000E+00
  0.00000000E+00  0.00000000E+00  0.00000000E+00
  0.00000000E+00  0.00000000E+00  0.00000000E+00
  0.00000000E+00  0.00000000E+00  0.00000000E+00
  0.00000000E+00  0.00000000E+00  0.00000000E+00
  0.00000000E+00  0.00000000E+00  0.00000000E+00
  0.00000000E+00  0.00000000E+00  0.00000000E+00
  0.00000000E+00  0.00000000E+00  0.00000000E+00
  0.00000000E+00  0.00000000E+00  0.00000000E+00
  0.00000000E+00  0.00000000E+00  0.00000000E+00
  0.00000000E+00  0.00000000E+00  0.00000000E+00
  0.00000000E+00  0.00000000E+00  0.00000000E+00
  0.00000000E+00  0.00000000E+00  0.00000000E+00
  0.00000000E+00  0.00000000E+00  0.00000000E+00
  0.00000000E+00  0.00000000E+00  0.00000000E+00
  0.00000000E+00  0.00000000E+00  0.00000000E+00
  0.00000000E+00  0.00000000E+00  0.00000000E+00
  0.00000000E+00  0.00000000E+00  0.00000000E+00
  0.00000000E+00  0.00000000E+00  0.00000000E+00
  0.00000000E+00  0.00000000E+00  0.00000000E+00
  0.00000000E+00  0.00000000E+00  0.00000000E+00
  0.00000000E+00  0.00000000E+00  0.00000000E+00
  0.00000000E+00  0.00000000E+00  0.00000000E+00
  0.00000000E+00  0.00000000E+00  0.00000000E+00
  0.00000000E+00  0.00000000E+00  0.00000000E+00
  0.00000000E+00  0.00000000E+00  0.00000000E+00
  0.00000000E+00  0.00000000E+00  0.00000000E+00
  0.00000000E+00  0.00000000E+00  0.00000000E+00
  0.00000000E+00  0.00000000E+00  0.00000000E+00
  0.00000000E+00  0.00000000E+00  0.00000000E+00
  0.00000000E+00  0.00000000E+00  0.00000000E+00
  0.00000000E+00  0.00000000E+00  0.00000000E+00
  0.00000000E+00  0.00000000E+00  0.00000000E+00
  0.00000000E+00  0.00000000E+00  0.00000000E+00
  0.00000000E+00  0.00000000E+00  0.00000000E+00
  0.00000000E+00  0.00000000E+00  0.00000000E+00
  0.00000000E+00  0.00000000E+00  0.00000000E+00
  0.00000000E+00  0.00000000E+00  0.00000000E+00
  0.00000000E+00  0.00000000E+00  0.00000000E+00
  0.00000000E+00  0.00000000E+00  0.00000000E+00
  0.00000000E+00  0.00000000E+00  0.00000000E+00
  0.00000000E+00  0.00000000E+00  0.00000000E+00
  0.00000000E+00  0.00000000E+00  0.00000000E+00
  0.00000000E+00  0.00000000E+00  0.00000000E+00
  0.00000000E+00  0.00000000E+00  0.00000000E+00
  0.00000000E+00  0.00000000E+00  0.00000000E+00
  0.00000000E+00  0.00000000E+00  0.00000000E+00
  0.00000000E+00  0.00000000E+00  0.00000000E+00
  0.00000000E+00  0.00000000E+00  0.00000000E+00
  0.00000000E+00  0.00000000E+00  0.00000000E+00
  0.00000000E+00  0.00000000E+00  0.00000000E+00
  0.00000000E+00  0.00000000E+00  0.00000000E+00
  0.00000000E+00  0.00000000E+00  0.00000000E+00
  0.00000000E+00  0.00000000E+00  0.00000000E+00
  0.00000000E+00  0.00000000E+00  0.00000000E+00
  0.00000000E+00  0.00000000E+00  0.00000000E+00
  0.00000000E+00  0.00000000E+00  0.00000000E+00
  0.00000000E+00  0.00000000E+00  0.00000000E+00
  0.00000000E+00  0.00000000E+00  0.00000000E+00
  0.00000000E+00  0.00000000E+00  0.00000000E+00
