CONTCAR\(7)                             
   1.00000000000000     
    10.9293003082000002    0.0000000000000000    0.0000000000000000
     0.0000000000000000   10.9293003082000002    0.0000000000000000
     0.0000000000000000    0.0000000000000000   18.0813007355000011
   Cu   Se   O    H 
    18    18     2     1
Selective dynamics
Direct
  0.9999945327984037  0.0052179208671035  0.5007941608262527   F   F   F
  0.1647269847323400  0.1702866435847170  0.5122138528329216   F   F   F
  0.3325488267714860  0.0063727446029418  0.5057410773074693   F   F   F
  0.5008074379245286  0.1680121430855621  0.5056355861816542   F   F   F
  0.6655929009800730  0.0003952562518066  0.5069482327320500   F   F   F
  0.8321265421392852  0.1678209687878365  0.5050174042633699   F   F   F
  0.9977728318444647  0.3341184773528383  0.5100224543066290   F   F   F
  0.1647861818187550  0.4985326604676175  0.5115396171798068   F   F   F
  0.3337111436094347  0.3340697367888694  0.5053582807556012   F   F   F
  0.5014773737794300  0.5001767318295336  0.5057905230788649   F   F   F
  0.6658178473228844  0.3339006291878235  0.5048758484244829   F   F   F
  0.8324276902745922  0.5002694583519158  0.5062165383208708   F   F   F
  0.9999259379431180  0.6641461594296771  0.5020238910860542   F   F   F
  0.1453748616153234  0.8341809916674094  0.4757553127075624   F   F   F
  0.3328176233459672  0.6620283101912392  0.5029660503816444   F   F   F
  0.4983815133635829  0.8339980515542393  0.5098787319781124   F   F   F
  0.6659976824428355  0.6676107811156413  0.5097397276852433   F   F   F
  0.8332296435770843  0.8343175618162988  0.4998314985182901   F   F   F
  0.9939059324679747  0.1631591254006395  0.5972964184737535   F   F   F
  0.1739894566255415  0.0186802400731239  0.4122684880414909   F   F   F
  0.3360146999358946  0.1711494902711621  0.5973803423463764   F   F   F
  0.5008799037964451  0.9979761695107712  0.4174034263918927   F   F   F
  0.6671139105501780  0.1689253285846846  0.5958711621504875   F   F   F
  0.8269085009562289  0.0046653893949085  0.4133373703116945   F   F   F
  0.9955339741835729  0.5048709138556546  0.5977340930865935   F   F   F
  0.1633617220174912  0.3341648771263763  0.4189569251352339   F   F   F
  0.3357861955343893  0.4988207567588674  0.5966259251972232   F   F   F
  0.4994474354205352  0.3344109361588963  0.4151360853168384   F   F   F
  0.6669290697477877  0.4975123747619463  0.5969647219206209   F   F   F
  0.8348623500322105  0.3350059494652342  0.4160555328244300   F   F   F
  0.0008671303479204  0.8354159630457687  0.5872791214646895   F   F   F
  0.1717783432904767  0.6499319676362632  0.4116343302293188   F   F   F
  0.3165953309119871  0.8324201194642384  0.5879521878955885   F   F   F
  0.5045788264993121  0.6699623034935911  0.4174864864585146   F   F   F
  0.6761230668503160  0.8355710117914228  0.5962717219674545   F   F   F
  0.8261509244256402  0.6630101578508203  0.4145905223952226   F   F   F
  0.4059470825261684  0.8292900271834256  0.6812574278744208   T   T   T
  0.3212405681006985  0.8170356174579538  0.7416779769638495   T   T   T
  0.3188779974956262  0.7276559467811978  0.7474811246529625   T   T   T
 
  0.00000000E+00  0.00000000E+00  0.00000000E+00
  0.00000000E+00  0.00000000E+00  0.00000000E+00
  0.00000000E+00  0.00000000E+00  0.00000000E+00
  0.00000000E+00  0.00000000E+00  0.00000000E+00
  0.00000000E+00  0.00000000E+00  0.00000000E+00
  0.00000000E+00  0.00000000E+00  0.00000000E+00
  0.00000000E+00  0.00000000E+00  0.00000000E+00
  0.00000000E+00  0.00000000E+00  0.00000000E+00
  0.00000000E+00  0.00000000E+00  0.00000000E+00
  0.00000000E+00  0.00000000E+00  0.00000000E+00
  0.00000000E+00  0.00000000E+00  0.00000000E+00
  0.00000000E+00  0.00000000E+00  0.00000000E+00
  0.00000000E+00  0.00000000E+00  0.00000000E+00
  0.00000000E+00  0.00000000E+00  0.00000000E+00
  0.00000000E+00  0.00000000E+00  0.00000000E+00
  0.00000000E+00  0.00000000E+00  0.00000000E+00
  0.00000000E+00  0.00000000E+00  0.00000000E+00
  0.00000000E+00  0.00000000E+00  0.00000000E+00
  0.00000000E+00  0.00000000E+00  0.00000000E+00
  0.00000000E+00  0.00000000E+00  0.00000000E+00
  0.00000000E+00  0.00000000E+00  0.00000000E+00
  0.00000000E+00  0.00000000E+00  0.00000000E+00
  0.00000000E+00  0.00000000E+00  0.00000000E+00
  0.00000000E+00  0.00000000E+00  0.00000000E+00
  0.00000000E+00  0.00000000E+00  0.00000000E+00
  0.00000000E+00  0.00000000E+00  0.00000000E+00
  0.00000000E+00  0.00000000E+00  0.00000000E+00
  0.00000000E+00  0.00000000E+00  0.00000000E+00
  0.00000000E+00  0.00000000E+00  0.00000000E+00
  0.00000000E+00  0.00000000E+00  0.00000000E+00
  0.00000000E+00  0.00000000E+00  0.00000000E+00
  0.00000000E+00  0.00000000E+00  0.00000000E+00
  0.00000000E+00  0.00000000E+00  0.00000000E+00
  0.00000000E+00  0.00000000E+00  0.00000000E+00
  0.00000000E+00  0.00000000E+00  0.00000000E+00
  0.00000000E+00  0.00000000E+00  0.00000000E+00
  0.00000000E+00  0.00000000E+00  0.00000000E+00
  0.00000000E+00  0.00000000E+00  0.00000000E+00
  0.00000000E+00  0.00000000E+00  0.00000000E+00
