CONTCAR\(2)                             
   1.00000000000000     
     6.8951001167000001    0.0000000000000000    0.0000000000000000
     3.4475500584000001    5.9713318626999996    0.0000000000000000
     0.0000000000000000    0.0000000000000000   18.3700008391999994
   Nb   Se   O    H 
     4     8     1     1
Direct
  0.1483955606869177  0.1530443186571701  0.5039938619484661
  0.6917847516923883  0.1533938950193756  0.5050711532224517
  0.1484109347877040  0.6971713139591476  0.5041391254505110
  0.6626265335684131  0.6680202944198724  0.5041961253774138
  0.3292629947315390  0.3342450993387205  0.5807915017381465
  0.3301131301484908  0.3344011914046375  0.4232011922858644
  0.8286408889044804  0.3378528111189518  0.5988056575727242
  0.8271321709360654  0.3375851849934935  0.4107821993823493
  0.3322753016995268  0.8332987755698552  0.5984444497039906
  0.3330422420271281  0.8327829341494670  0.4102982517909326
  0.8285739632036172  0.8322819094204310  0.5988389722558490
  0.8272625331229643  0.8338848466729286  0.4107913218238989
  0.3387969973884279  0.3272007045381358  0.6809349371516744
  0.1816511961023287  0.4007470477378229  0.6966714262957086
 
  0.00000000E+00  0.00000000E+00  0.00000000E+00
  0.00000000E+00  0.00000000E+00  0.00000000E+00
  0.00000000E+00  0.00000000E+00  0.00000000E+00
  0.00000000E+00  0.00000000E+00  0.00000000E+00
  0.00000000E+00  0.00000000E+00  0.00000000E+00
  0.00000000E+00  0.00000000E+00  0.00000000E+00
  0.00000000E+00  0.00000000E+00  0.00000000E+00
  0.00000000E+00  0.00000000E+00  0.00000000E+00
  0.00000000E+00  0.00000000E+00  0.00000000E+00
  0.00000000E+00  0.00000000E+00  0.00000000E+00
  0.00000000E+00  0.00000000E+00  0.00000000E+00
  0.00000000E+00  0.00000000E+00  0.00000000E+00
  0.00000000E+00  0.00000000E+00  0.00000000E+00
  0.00000000E+00  0.00000000E+00  0.00000000E+00
