 La2 P1 I2                              
   1.00000000000000     
     4.2992774225734918    0.0000000000000000    0.0000000000000000
    -2.1496397057532115    3.7232885244673333    0.0000000000000000
     0.0000000000000000    0.0000000000000000   22.5038430292079994
   La   P    I 
     2     1     2
Direct
  0.3333335398870503  0.6666671080962701  0.5715713076367166
  0.6666662977430917  0.3333332142516099  0.4284286748938015
  0.9999999520906755  0.9999999245150875  0.5000000219336940
  0.6666670657757834  0.3333329956420243  0.6666293397366090
  0.3333331445033991  0.6666667574950083  0.3333706557991647
 
  0.00000000E+00  0.00000000E+00  0.00000000E+00
  0.00000000E+00  0.00000000E+00  0.00000000E+00
  0.00000000E+00  0.00000000E+00  0.00000000E+00
  0.00000000E+00  0.00000000E+00  0.00000000E+00
  0.00000000E+00  0.00000000E+00  0.00000000E+00
