G   25   25    1    0.005     # Parameters to Generate KPOINTS (Don't Edit This Line)
     313
Reciprocal lattice
    0.000000000000    0.000000000000    0.000000000000       1
    0.040000000000    0.000000000000    0.000000000000       2
    0.080000000000    0.000000000000    0.000000000000       2
    0.120000000000    0.000000000000    0.000000000000       2
    0.160000000000    0.000000000000    0.000000000000       2
    0.200000000000    0.000000000000    0.000000000000       2
    0.240000000000    0.000000000000    0.000000000000       2
    0.280000000000    0.000000000000    0.000000000000       2
    0.320000000000    0.000000000000    0.000000000000       2
    0.360000000000    0.000000000000    0.000000000000       2
    0.400000000000    0.000000000000    0.000000000000       2
    0.440000000000    0.000000000000    0.000000000000       2
    0.480000000000    0.000000000000    0.000000000000       2
    0.000000000000    0.040000000000    0.000000000000       2
    0.040000000000    0.040000000000    0.000000000000       2
    0.080000000000    0.040000000000    0.000000000000       2
    0.120000000000    0.040000000000    0.000000000000       2
    0.160000000000    0.040000000000    0.000000000000       2
    0.200000000000    0.040000000000    0.000000000000       2
    0.240000000000    0.040000000000    0.000000000000       2
    0.280000000000    0.040000000000    0.000000000000       2
    0.320000000000    0.040000000000    0.000000000000       2
    0.360000000000    0.040000000000    0.000000000000       2
    0.400000000000    0.040000000000    0.000000000000       2
    0.440000000000    0.040000000000    0.000000000000       2
    0.480000000000    0.040000000000    0.000000000000       2
   -0.480000000000    0.040000000000    0.000000000000       2
   -0.440000000000    0.040000000000    0.000000000000       2
   -0.400000000000    0.040000000000    0.000000000000       2
   -0.360000000000    0.040000000000    0.000000000000       2
   -0.320000000000    0.040000000000    0.000000000000       2
   -0.280000000000    0.040000000000    0.000000000000       2
   -0.240000000000    0.040000000000    0.000000000000       2
   -0.200000000000    0.040000000000    0.000000000000       2
   -0.160000000000    0.040000000000    0.000000000000       2
   -0.120000000000    0.040000000000    0.000000000000       2
   -0.080000000000    0.040000000000    0.000000000000       2
   -0.040000000000    0.040000000000    0.000000000000       2
    0.000000000000    0.080000000000    0.000000000000       2
    0.040000000000    0.080000000000    0.000000000000       2
    0.080000000000    0.080000000000    0.000000000000       2
    0.120000000000    0.080000000000    0.000000000000       2
    0.160000000000    0.080000000000    0.000000000000       2
    0.200000000000    0.080000000000    0.000000000000       2
    0.240000000000    0.080000000000    0.000000000000       2
    0.280000000000    0.080000000000    0.000000000000       2
    0.320000000000    0.080000000000    0.000000000000       2
    0.360000000000    0.080000000000    0.000000000000       2
    0.400000000000    0.080000000000    0.000000000000       2
    0.440000000000    0.080000000000    0.000000000000       2
    0.480000000000    0.080000000000    0.000000000000       2
   -0.480000000000    0.080000000000    0.000000000000       2
   -0.440000000000    0.080000000000    0.000000000000       2
   -0.400000000000    0.080000000000    0.000000000000       2
   -0.360000000000    0.080000000000    0.000000000000       2
   -0.320000000000    0.080000000000    0.000000000000       2
   -0.280000000000    0.080000000000    0.000000000000       2
   -0.240000000000    0.080000000000    0.000000000000       2
   -0.200000000000    0.080000000000    0.000000000000       2
   -0.160000000000    0.080000000000    0.000000000000       2
   -0.120000000000    0.080000000000    0.000000000000       2
   -0.080000000000    0.080000000000    0.000000000000       2
   -0.040000000000    0.080000000000    0.000000000000       2
    0.000000000000    0.120000000000    0.000000000000       2
    0.040000000000    0.120000000000    0.000000000000       2
    0.080000000000    0.120000000000    0.000000000000       2
    0.120000000000    0.120000000000    0.000000000000       2
    0.160000000000    0.120000000000    0.000000000000       2
    0.200000000000    0.120000000000    0.000000000000       2
    0.240000000000    0.120000000000    0.000000000000       2
    0.280000000000    0.120000000000    0.000000000000       2
    0.320000000000    0.120000000000    0.000000000000       2
    0.360000000000    0.120000000000    0.000000000000       2
    0.400000000000    0.120000000000    0.000000000000       2
    0.440000000000    0.120000000000    0.000000000000       2
    0.480000000000    0.120000000000    0.000000000000       2
   -0.480000000000    0.120000000000    0.000000000000       2
   -0.440000000000    0.120000000000    0.000000000000       2
   -0.400000000000    0.120000000000    0.000000000000       2
   -0.360000000000    0.120000000000    0.000000000000       2
   -0.320000000000    0.120000000000    0.000000000000       2
   -0.280000000000    0.120000000000    0.000000000000       2
   -0.240000000000    0.120000000000    0.000000000000       2
   -0.200000000000    0.120000000000    0.000000000000       2
   -0.160000000000    0.120000000000    0.000000000000       2
   -0.120000000000    0.120000000000    0.000000000000       2
   -0.080000000000    0.120000000000    0.000000000000       2
   -0.040000000000    0.120000000000    0.000000000000       2
    0.000000000000    0.160000000000    0.000000000000       2
    0.040000000000    0.160000000000    0.000000000000       2
    0.080000000000    0.160000000000    0.000000000000       2
    0.120000000000    0.160000000000    0.000000000000       2
    0.160000000000    0.160000000000    0.000000000000       2
    0.200000000000    0.160000000000    0.000000000000       2
    0.240000000000    0.160000000000    0.000000000000       2
    0.280000000000    0.160000000000    0.000000000000       2
    0.320000000000    0.160000000000    0.000000000000       2
    0.360000000000    0.160000000000    0.000000000000       2
    0.400000000000    0.160000000000    0.000000000000       2
    0.440000000000    0.160000000000    0.000000000000       2
    0.480000000000    0.160000000000    0.000000000000       2
   -0.480000000000    0.160000000000    0.000000000000       2
   -0.440000000000    0.160000000000    0.000000000000       2
   -0.400000000000    0.160000000000    0.000000000000       2
   -0.360000000000    0.160000000000    0.000000000000       2
   -0.320000000000    0.160000000000    0.000000000000       2
   -0.280000000000    0.160000000000    0.000000000000       2
   -0.240000000000    0.160000000000    0.000000000000       2
   -0.200000000000    0.160000000000    0.000000000000       2
   -0.160000000000    0.160000000000    0.000000000000       2
   -0.120000000000    0.160000000000    0.000000000000       2
   -0.080000000000    0.160000000000    0.000000000000       2
   -0.040000000000    0.160000000000    0.000000000000       2
    0.000000000000    0.200000000000    0.000000000000       2
    0.040000000000    0.200000000000    0.000000000000       2
    0.080000000000    0.200000000000    0.000000000000       2
    0.120000000000    0.200000000000    0.000000000000       2
    0.160000000000    0.200000000000    0.000000000000       2
    0.200000000000    0.200000000000    0.000000000000       2
    0.240000000000    0.200000000000    0.000000000000       2
    0.280000000000    0.200000000000    0.000000000000       2
    0.320000000000    0.200000000000    0.000000000000       2
    0.360000000000    0.200000000000    0.000000000000       2
    0.400000000000    0.200000000000    0.000000000000       2
    0.440000000000    0.200000000000    0.000000000000       2
    0.480000000000    0.200000000000    0.000000000000       2
   -0.480000000000    0.200000000000    0.000000000000       2
   -0.440000000000    0.200000000000    0.000000000000       2
   -0.400000000000    0.200000000000    0.000000000000       2
   -0.360000000000    0.200000000000    0.000000000000       2
   -0.320000000000    0.200000000000    0.000000000000       2
   -0.280000000000    0.200000000000    0.000000000000       2
   -0.240000000000    0.200000000000    0.000000000000       2
   -0.200000000000    0.200000000000    0.000000000000       2
   -0.160000000000    0.200000000000    0.000000000000       2
   -0.120000000000    0.200000000000    0.000000000000       2
   -0.080000000000    0.200000000000    0.000000000000       2
   -0.040000000000    0.200000000000    0.000000000000       2
    0.000000000000    0.240000000000    0.000000000000       2
    0.040000000000    0.240000000000    0.000000000000       2
    0.080000000000    0.240000000000    0.000000000000       2
    0.120000000000    0.240000000000    0.000000000000       2
    0.160000000000    0.240000000000    0.000000000000       2
    0.200000000000    0.240000000000    0.000000000000       2
    0.240000000000    0.240000000000    0.000000000000       2
    0.280000000000    0.240000000000    0.000000000000       2
    0.320000000000    0.240000000000    0.000000000000       2
    0.360000000000    0.240000000000    0.000000000000       2
    0.400000000000    0.240000000000    0.000000000000       2
    0.440000000000    0.240000000000    0.000000000000       2
    0.480000000000    0.240000000000    0.000000000000       2
   -0.480000000000    0.240000000000    0.000000000000       2
   -0.440000000000    0.240000000000    0.000000000000       2
   -0.400000000000    0.240000000000    0.000000000000       2
   -0.360000000000    0.240000000000    0.000000000000       2
   -0.320000000000    0.240000000000    0.000000000000       2
   -0.280000000000    0.240000000000    0.000000000000       2
   -0.240000000000    0.240000000000    0.000000000000       2
   -0.200000000000    0.240000000000    0.000000000000       2
   -0.160000000000    0.240000000000    0.000000000000       2
   -0.120000000000    0.240000000000    0.000000000000       2
   -0.080000000000    0.240000000000    0.000000000000       2
   -0.040000000000    0.240000000000    0.000000000000       2
    0.000000000000    0.280000000000    0.000000000000       2
    0.040000000000    0.280000000000    0.000000000000       2
    0.080000000000    0.280000000000    0.000000000000       2
    0.120000000000    0.280000000000    0.000000000000       2
    0.160000000000    0.280000000000    0.000000000000       2
    0.200000000000    0.280000000000    0.000000000000       2
    0.240000000000    0.280000000000    0.000000000000       2
    0.280000000000    0.280000000000    0.000000000000       2
    0.320000000000    0.280000000000    0.000000000000       2
    0.360000000000    0.280000000000    0.000000000000       2
    0.400000000000    0.280000000000    0.000000000000       2
    0.440000000000    0.280000000000    0.000000000000       2
    0.480000000000    0.280000000000    0.000000000000       2
   -0.480000000000    0.280000000000    0.000000000000       2
   -0.440000000000    0.280000000000    0.000000000000       2
   -0.400000000000    0.280000000000    0.000000000000       2
   -0.360000000000    0.280000000000    0.000000000000       2
   -0.320000000000    0.280000000000    0.000000000000       2
   -0.280000000000    0.280000000000    0.000000000000       2
   -0.240000000000    0.280000000000    0.000000000000       2
   -0.200000000000    0.280000000000    0.000000000000       2
   -0.160000000000    0.280000000000    0.000000000000       2
   -0.120000000000    0.280000000000    0.000000000000       2
   -0.080000000000    0.280000000000    0.000000000000       2
   -0.040000000000    0.280000000000    0.000000000000       2
    0.000000000000    0.320000000000    0.000000000000       2
    0.040000000000    0.320000000000    0.000000000000       2
    0.080000000000    0.320000000000    0.000000000000       2
    0.120000000000    0.320000000000    0.000000000000       2
    0.160000000000    0.320000000000    0.000000000000       2
    0.200000000000    0.320000000000    0.000000000000       2
    0.240000000000    0.320000000000    0.000000000000       2
    0.280000000000    0.320000000000    0.000000000000       2
    0.320000000000    0.320000000000    0.000000000000       2
    0.360000000000    0.320000000000    0.000000000000       2
    0.400000000000    0.320000000000    0.000000000000       2
    0.440000000000    0.320000000000    0.000000000000       2
    0.480000000000    0.320000000000    0.000000000000       2
   -0.480000000000    0.320000000000    0.000000000000       2
   -0.440000000000    0.320000000000    0.000000000000       2
   -0.400000000000    0.320000000000    0.000000000000       2
   -0.360000000000    0.320000000000    0.000000000000       2
   -0.320000000000    0.320000000000    0.000000000000       2
   -0.280000000000    0.320000000000    0.000000000000       2
   -0.240000000000    0.320000000000    0.000000000000       2
   -0.200000000000    0.320000000000    0.000000000000       2
   -0.160000000000    0.320000000000    0.000000000000       2
   -0.120000000000    0.320000000000    0.000000000000       2
   -0.080000000000    0.320000000000    0.000000000000       2
   -0.040000000000    0.320000000000    0.000000000000       2
    0.000000000000    0.360000000000    0.000000000000       2
    0.040000000000    0.360000000000    0.000000000000       2
    0.080000000000    0.360000000000    0.000000000000       2
    0.120000000000    0.360000000000    0.000000000000       2
    0.160000000000    0.360000000000    0.000000000000       2
    0.200000000000    0.360000000000    0.000000000000       2
    0.240000000000    0.360000000000    0.000000000000       2
    0.280000000000    0.360000000000    0.000000000000       2
    0.320000000000    0.360000000000    0.000000000000       2
    0.360000000000    0.360000000000    0.000000000000       2
    0.400000000000    0.360000000000    0.000000000000       2
    0.440000000000    0.360000000000    0.000000000000       2
    0.480000000000    0.360000000000    0.000000000000       2
   -0.480000000000    0.360000000000    0.000000000000       2
   -0.440000000000    0.360000000000    0.000000000000       2
   -0.400000000000    0.360000000000    0.000000000000       2
   -0.360000000000    0.360000000000    0.000000000000       2
   -0.320000000000    0.360000000000    0.000000000000       2
   -0.280000000000    0.360000000000    0.000000000000       2
   -0.240000000000    0.360000000000    0.000000000000       2
   -0.200000000000    0.360000000000    0.000000000000       2
   -0.160000000000    0.360000000000    0.000000000000       2
   -0.120000000000    0.360000000000    0.000000000000       2
   -0.080000000000    0.360000000000    0.000000000000       2
   -0.040000000000    0.360000000000    0.000000000000       2
    0.000000000000    0.400000000000    0.000000000000       2
    0.040000000000    0.400000000000    0.000000000000       2
    0.080000000000    0.400000000000    0.000000000000       2
    0.120000000000    0.400000000000    0.000000000000       2
    0.160000000000    0.400000000000    0.000000000000       2
    0.200000000000    0.400000000000    0.000000000000       2
    0.240000000000    0.400000000000    0.000000000000       2
    0.280000000000    0.400000000000    0.000000000000       2
    0.320000000000    0.400000000000    0.000000000000       2
    0.360000000000    0.400000000000    0.000000000000       2
    0.400000000000    0.400000000000    0.000000000000       2
    0.440000000000    0.400000000000    0.000000000000       2
    0.480000000000    0.400000000000    0.000000000000       2
   -0.480000000000    0.400000000000    0.000000000000       2
   -0.440000000000    0.400000000000    0.000000000000       2
   -0.400000000000    0.400000000000    0.000000000000       2
   -0.360000000000    0.400000000000    0.000000000000       2
   -0.320000000000    0.400000000000    0.000000000000       2
   -0.280000000000    0.400000000000    0.000000000000       2
   -0.240000000000    0.400000000000    0.000000000000       2
   -0.200000000000    0.400000000000    0.000000000000       2
   -0.160000000000    0.400000000000    0.000000000000       2
   -0.120000000000    0.400000000000    0.000000000000       2
   -0.080000000000    0.400000000000    0.000000000000       2
   -0.040000000000    0.400000000000    0.000000000000       2
    0.000000000000    0.440000000000    0.000000000000       2
    0.040000000000    0.440000000000    0.000000000000       2
    0.080000000000    0.440000000000    0.000000000000       2
    0.120000000000    0.440000000000    0.000000000000       2
    0.160000000000    0.440000000000    0.000000000000       2
    0.200000000000    0.440000000000    0.000000000000       2
    0.240000000000    0.440000000000    0.000000000000       2
    0.280000000000    0.440000000000    0.000000000000       2
    0.320000000000    0.440000000000    0.000000000000       2
    0.360000000000    0.440000000000    0.000000000000       2
    0.400000000000    0.440000000000    0.000000000000       2
    0.440000000000    0.440000000000    0.000000000000       2
    0.480000000000    0.440000000000    0.000000000000       2
   -0.480000000000    0.440000000000    0.000000000000       2
   -0.440000000000    0.440000000000    0.000000000000       2
   -0.400000000000    0.440000000000    0.000000000000       2
   -0.360000000000    0.440000000000    0.000000000000       2
   -0.320000000000    0.440000000000    0.000000000000       2
   -0.280000000000    0.440000000000    0.000000000000       2
   -0.240000000000    0.440000000000    0.000000000000       2
   -0.200000000000    0.440000000000    0.000000000000       2
   -0.160000000000    0.440000000000    0.000000000000       2
   -0.120000000000    0.440000000000    0.000000000000       2
   -0.080000000000    0.440000000000    0.000000000000       2
   -0.040000000000    0.440000000000    0.000000000000       2
    0.000000000000    0.480000000000    0.000000000000       2
    0.040000000000    0.480000000000    0.000000000000       2
    0.080000000000    0.480000000000    0.000000000000       2
    0.120000000000    0.480000000000    0.000000000000       2
    0.160000000000    0.480000000000    0.000000000000       2
    0.200000000000    0.480000000000    0.000000000000       2
    0.240000000000    0.480000000000    0.000000000000       2
    0.280000000000    0.480000000000    0.000000000000       2
    0.320000000000    0.480000000000    0.000000000000       2
    0.360000000000    0.480000000000    0.000000000000       2
    0.400000000000    0.480000000000    0.000000000000       2
    0.440000000000    0.480000000000    0.000000000000       2
    0.480000000000    0.480000000000    0.000000000000       2
   -0.480000000000    0.480000000000    0.000000000000       2
   -0.440000000000    0.480000000000    0.000000000000       2
   -0.400000000000    0.480000000000    0.000000000000       2
   -0.360000000000    0.480000000000    0.000000000000       2
   -0.320000000000    0.480000000000    0.000000000000       2
   -0.280000000000    0.480000000000    0.000000000000       2
   -0.240000000000    0.480000000000    0.000000000000       2
   -0.200000000000    0.480000000000    0.000000000000       2
   -0.160000000000    0.480000000000    0.000000000000       2
   -0.120000000000    0.480000000000    0.000000000000       2
   -0.080000000000    0.480000000000    0.000000000000       2
   -0.040000000000    0.480000000000    0.000000000000       2
