CONTCAR\(5)                             
   1.00000000000000     
    11.3503999709999999    0.0000000000000000    0.0000000000000000
    -5.6751999854999999    9.8297347179999992    0.0000000000000000
     0.0000000000000000    0.0000000000000000   18.1851005553999983
   Zr   Se
     9    18
Direct
  0.0000000000000000  0.0000000000000000  0.5000000000000000
  0.3333300070000007  0.0000000000000000  0.5000000000000000
  0.6666700139999975  0.0000000000000000  0.5000000000000000
  0.9999999990000035  0.3333300050000005  0.5000000000000000
  0.3333300059999971  0.3333300050000005  0.5000000000000000
  0.6666700020000036  0.3333300050000005  0.5000000000000000
  0.0000000189999980  0.6666700520000006  0.5000000000000000
  0.3333300270000024  0.6666700520000006  0.5000000000000000
  0.6666700330000026  0.6666700520000006  0.5000000000000000
  0.2222200029999968  0.1111099980000034  0.5874399929999967
  0.1111099980000034  0.2222199950000032  0.4125599810000011
  0.5555599979999997  0.1111099980000034  0.5874399929999967
  0.4444400049999970  0.2222199950000032  0.4125599810000011
  0.8888900270000022  0.1111099980000034  0.5874399929999967
  0.7777800530000007  0.2222199950000032  0.4125599810000011
  0.2222199950000032  0.4444399910000030  0.5874399929999967
  0.1111100159999978  0.5555600180000013  0.4125599810000011
  0.5555599799999982  0.4444399910000030  0.5874399929999967
  0.4444400240000022  0.5555600180000013  0.4125599810000011
  0.8888900090000007  0.4444399910000030  0.5874399929999967
  0.7777800510000006  0.5555600180000013  0.4125599810000011
  0.2222199810000021  0.7777799890000026  0.5874399929999967
  0.1111100290000024  0.8888900720000024  0.4125599810000011
  0.5555599659999970  0.7777799890000026  0.5874399929999967
  0.4444400360000031  0.8888900720000024  0.4125599810000011
  0.8888899940000030  0.7777799890000026  0.5874399929999967
  0.7777800639999981  0.8888900720000024  0.4125599810000011
 
  0.00000000E+00  0.00000000E+00  0.00000000E+00
  0.00000000E+00  0.00000000E+00  0.00000000E+00
  0.00000000E+00  0.00000000E+00  0.00000000E+00
  0.00000000E+00  0.00000000E+00  0.00000000E+00
  0.00000000E+00  0.00000000E+00  0.00000000E+00
  0.00000000E+00  0.00000000E+00  0.00000000E+00
  0.00000000E+00  0.00000000E+00  0.00000000E+00
  0.00000000E+00  0.00000000E+00  0.00000000E+00
  0.00000000E+00  0.00000000E+00  0.00000000E+00
  0.00000000E+00  0.00000000E+00  0.00000000E+00
  0.00000000E+00  0.00000000E+00  0.00000000E+00
  0.00000000E+00  0.00000000E+00  0.00000000E+00
  0.00000000E+00  0.00000000E+00  0.00000000E+00
  0.00000000E+00  0.00000000E+00  0.00000000E+00
  0.00000000E+00  0.00000000E+00  0.00000000E+00
  0.00000000E+00  0.00000000E+00  0.00000000E+00
  0.00000000E+00  0.00000000E+00  0.00000000E+00
  0.00000000E+00  0.00000000E+00  0.00000000E+00
  0.00000000E+00  0.00000000E+00  0.00000000E+00
  0.00000000E+00  0.00000000E+00  0.00000000E+00
  0.00000000E+00  0.00000000E+00  0.00000000E+00
  0.00000000E+00  0.00000000E+00  0.00000000E+00
  0.00000000E+00  0.00000000E+00  0.00000000E+00
  0.00000000E+00  0.00000000E+00  0.00000000E+00
  0.00000000E+00  0.00000000E+00  0.00000000E+00
  0.00000000E+00  0.00000000E+00  0.00000000E+00
  0.00000000E+00  0.00000000E+00  0.00000000E+00
