CONTCAR\(9)                             
   1.00000000000000     
    11.9372997283999993    0.0000000000000000    0.0000000000000000
    -5.9686498641999997   10.3380048173999999    0.0000000000000000
     0.0000000000000000    0.0000000000000000   21.4568004608000003
   In   Se   O 
    18    27     1
Direct
  0.2284632182718021  0.0924258541399500  0.3949268646185073
  0.1183405967928432  0.2123246538966344  0.5917874025626325
  0.5654179917968130  0.1146949932450131  0.4117576035364501
  0.4606553033012528  0.2276513195376655  0.5940523819006925
  0.9030301577539139  0.1189047370323627  0.4165322701281264
  0.7924914793797486  0.2406424965537334  0.6022892568030517
  0.2449353600866576  0.4578134143348598  0.4177402050859476
  0.1083331223179951  0.5450506297852615  0.5905837665739833
  0.5646681959325771  0.4457187489022044  0.4152044759540952
  0.4667291615748689  0.5540328812904186  0.5880928436599542
  0.8995030891930839  0.4429454830082478  0.4101620882730885
  0.7820958586172052  0.5779008228874528  0.5860370056717994
  0.2332537753806894  0.7819834864187963  0.4118279138057177
  0.1253858983736187  0.8842340133518274  0.5884296964083116
  0.5724036894328258  0.7923248925110532  0.4102320625141637
  0.4589214782977857  0.8744264486731966  0.5931503529006368
  0.8979674866703437  0.7639844640539460  0.4005746877694626
  0.8044755061542470  0.9175419642516770  0.6015973736406933
  0.9739869345012960  0.0139569623097222  0.5085998268388867
  0.2371221696623514  0.1087597734180678  0.6525472516388781
  0.1254523656108792  0.2283040390220110  0.3558840508330631
  0.2914923184302770  0.9919709708221898  0.4920733467534446
  0.5628027967682273  0.1048988982607974  0.6522814806591188
  0.4559069008954346  0.2266814547584028  0.3443787673432365
  0.6283691737542672  0.9785873816452403  0.4987392676553419
  0.9044689951215472  0.1345591173096102  0.6665930260459315
  0.7856186740320107  0.2149128869978234  0.3486541004728642
  0.9573204092902836  0.3292998808403237  0.5044185761796399
  0.1777904369272005  0.4155030819880631  0.6673465628304305
  0.1217289949255123  0.5521686617934486  0.3509031311070216
  0.3146099665968285  0.3502385935955881  0.5110681888827712
  0.5716607349644502  0.4472816432670573  0.6568747395335550
  0.4591254992043394  0.5641195128978365  0.3513636275719360
  0.6285168529456475  0.3124127996967550  0.4994717056311767
  0.8910233464901245  0.4703079508381971  0.6535944337830593
  0.7766298692597349  0.5369393123751629  0.3442468124060937
  0.9720047359571380  0.6694313530997849  0.4959766417899770
  0.2351362623880500  0.7753528190446888  0.6517188808109678
  0.1134691572400543  0.8714159881771968  0.3347081302087614
  0.2998679520051409  0.6577097269811689  0.5045720170873274
  0.5825862782092291  0.7812777824171301  0.6547107700096639
  0.4495625250706705  0.8911976496127937  0.3459730599712292
  0.6516178925261744  0.6538871533237989  0.4991708638713832
  0.9107744081681710  0.7928455776176052  0.6548671930528034
  0.7964444071168832  0.8940922538729732  0.3512425066188533
  0.3420388596098113  0.5429757511422508  0.6604630316052365
 
  0.00000000E+00  0.00000000E+00  0.00000000E+00
  0.00000000E+00  0.00000000E+00  0.00000000E+00
  0.00000000E+00  0.00000000E+00  0.00000000E+00
  0.00000000E+00  0.00000000E+00  0.00000000E+00
  0.00000000E+00  0.00000000E+00  0.00000000E+00
  0.00000000E+00  0.00000000E+00  0.00000000E+00
  0.00000000E+00  0.00000000E+00  0.00000000E+00
  0.00000000E+00  0.00000000E+00  0.00000000E+00
  0.00000000E+00  0.00000000E+00  0.00000000E+00
  0.00000000E+00  0.00000000E+00  0.00000000E+00
  0.00000000E+00  0.00000000E+00  0.00000000E+00
  0.00000000E+00  0.00000000E+00  0.00000000E+00
  0.00000000E+00  0.00000000E+00  0.00000000E+00
  0.00000000E+00  0.00000000E+00  0.00000000E+00
  0.00000000E+00  0.00000000E+00  0.00000000E+00
  0.00000000E+00  0.00000000E+00  0.00000000E+00
  0.00000000E+00  0.00000000E+00  0.00000000E+00
  0.00000000E+00  0.00000000E+00  0.00000000E+00
  0.00000000E+00  0.00000000E+00  0.00000000E+00
  0.00000000E+00  0.00000000E+00  0.00000000E+00
  0.00000000E+00  0.00000000E+00  0.00000000E+00
  0.00000000E+00  0.00000000E+00  0.00000000E+00
  0.00000000E+00  0.00000000E+00  0.00000000E+00
  0.00000000E+00  0.00000000E+00  0.00000000E+00
  0.00000000E+00  0.00000000E+00  0.00000000E+00
  0.00000000E+00  0.00000000E+00  0.00000000E+00
  0.00000000E+00  0.00000000E+00  0.00000000E+00
  0.00000000E+00  0.00000000E+00  0.00000000E+00
  0.00000000E+00  0.00000000E+00  0.00000000E+00
  0.00000000E+00  0.00000000E+00  0.00000000E+00
  0.00000000E+00  0.00000000E+00  0.00000000E+00
  0.00000000E+00  0.00000000E+00  0.00000000E+00
  0.00000000E+00  0.00000000E+00  0.00000000E+00
  0.00000000E+00  0.00000000E+00  0.00000000E+00
  0.00000000E+00  0.00000000E+00  0.00000000E+00
  0.00000000E+00  0.00000000E+00  0.00000000E+00
  0.00000000E+00  0.00000000E+00  0.00000000E+00
  0.00000000E+00  0.00000000E+00  0.00000000E+00
  0.00000000E+00  0.00000000E+00  0.00000000E+00
  0.00000000E+00  0.00000000E+00  0.00000000E+00
  0.00000000E+00  0.00000000E+00  0.00000000E+00
  0.00000000E+00  0.00000000E+00  0.00000000E+00
  0.00000000E+00  0.00000000E+00  0.00000000E+00
  0.00000000E+00  0.00000000E+00  0.00000000E+00
  0.00000000E+00  0.00000000E+00  0.00000000E+00
  0.00000000E+00  0.00000000E+00  0.00000000E+00
