CONTCAR\(3)                             
   1.00000000000000     
     7.8446002007000004    0.0000000000000000    0.0000000000000000
     3.9223001003000002    6.7936230563000004    0.0000000000000000
     0.0000000000000000    0.0000000000000000   18.9503002167000005
   Te   Pt   O    H 
     8     8    12     6
Direct
  0.3562447075069768  0.2881180074300139  0.6012125546272271
  0.3581415692034670  0.2923251416555259  0.3828373499298031
  0.8493375990164467  0.2979022712811581  0.5976390566817749
  0.8560806706709136  0.2919656574341548  0.3953006590855089
  0.3549619000839446  0.7888736082810514  0.6114098029013252
  0.3562138318355927  0.7916279893166484  0.3930218171252025
  0.8578673469173549  0.7904863644101530  0.6143436945929212
  0.8573176908434670  0.7861430506274549  0.3950081134914312
  0.1935425195248690  0.1122609833720624  0.5404551208952841
  0.0251784364267340 -0.0489907048989615  0.4572940123343074
  0.6935627716517896  0.1138265040019904  0.5410187909242966
  0.5185893945330819 -0.0343657110664514  0.4548463716771943
  0.1831982344885159  0.6271444142901108  0.5425625218667413
  0.0359775135536829  0.4454308518743539  0.4569393427983837
  0.6887075831065456  0.6367882490542895  0.5397292907318152
  0.5174524735908728  0.4544660531322200  0.4576267693880259
  0.3756588289857943  0.2988051607886925  0.7113928940799072
  0.5269386184004589  0.1070687707620603  0.7359394630298953
  0.8050147541924391  0.3332268348147052  0.7070773103527777
  0.8514975760604195  0.1521697269080957  0.7426137166430115
  0.8552817534479261  0.3625011461032476  0.2858140533229764
  0.0132401296210029  0.3957209857674035  0.2662610744202283
  0.2274027075351810  0.9699342955454282  0.7096760628724116
  0.3431558778434901  0.8909194868524781  0.7726591770832874
  0.2434757723054554  0.8836619958706220  0.2820680427586825
  0.3196742089827939  0.0033075250553179  0.2527634879323613
  0.8519251385660481  0.8391375845945265  0.2860975966537137
  0.8352974578681239  0.0285249526321086  0.2735817875925403
  0.0009023101846250  0.0698283695243971  0.7370257605374050
  0.1157974042412495  0.2628558676443785  0.2500480835193870
  0.6440288462330871  0.1254705349566047  0.7419976535047742
 -0.0228669585165782  0.9912275236680128  0.2687255171680508
  0.4182782560043853  0.9622138697550019  0.7718605950390542
  0.4303529910898365  0.9093526055611298  0.2235122004383041
 
  0.00000000E+00  0.00000000E+00  0.00000000E+00
  0.00000000E+00  0.00000000E+00  0.00000000E+00
  0.00000000E+00  0.00000000E+00  0.00000000E+00
  0.00000000E+00  0.00000000E+00  0.00000000E+00
  0.00000000E+00  0.00000000E+00  0.00000000E+00
  0.00000000E+00  0.00000000E+00  0.00000000E+00
  0.00000000E+00  0.00000000E+00  0.00000000E+00
  0.00000000E+00  0.00000000E+00  0.00000000E+00
  0.00000000E+00  0.00000000E+00  0.00000000E+00
  0.00000000E+00  0.00000000E+00  0.00000000E+00
  0.00000000E+00  0.00000000E+00  0.00000000E+00
  0.00000000E+00  0.00000000E+00  0.00000000E+00
  0.00000000E+00  0.00000000E+00  0.00000000E+00
  0.00000000E+00  0.00000000E+00  0.00000000E+00
  0.00000000E+00  0.00000000E+00  0.00000000E+00
  0.00000000E+00  0.00000000E+00  0.00000000E+00
  0.00000000E+00  0.00000000E+00  0.00000000E+00
  0.00000000E+00  0.00000000E+00  0.00000000E+00
  0.00000000E+00  0.00000000E+00  0.00000000E+00
  0.00000000E+00  0.00000000E+00  0.00000000E+00
  0.00000000E+00  0.00000000E+00  0.00000000E+00
  0.00000000E+00  0.00000000E+00  0.00000000E+00
  0.00000000E+00  0.00000000E+00  0.00000000E+00
  0.00000000E+00  0.00000000E+00  0.00000000E+00
  0.00000000E+00  0.00000000E+00  0.00000000E+00
  0.00000000E+00  0.00000000E+00  0.00000000E+00
  0.00000000E+00  0.00000000E+00  0.00000000E+00
  0.00000000E+00  0.00000000E+00  0.00000000E+00
  0.00000000E+00  0.00000000E+00  0.00000000E+00
  0.00000000E+00  0.00000000E+00  0.00000000E+00
  0.00000000E+00  0.00000000E+00  0.00000000E+00
  0.00000000E+00  0.00000000E+00  0.00000000E+00
  0.00000000E+00  0.00000000E+00  0.00000000E+00
  0.00000000E+00  0.00000000E+00  0.00000000E+00
