 Cu2 H4 S2 O10                          
   1.00000000000000     
     4.6696250176253891    0.0000000000000000    0.0000000000000000
     2.7594142251621427    6.7909253912734089    0.0000000000000000
     0.0000000000000000    0.0000000000000000   20.1938440917440047
   Cu   H    S    O 
     2     4     2    10
Direct
  0.4999946199726777  0.4999914214327758  0.4999981359084919
  0.0000143192233541  0.9999967132244042  0.5000049083004422
  0.7859336018053679  0.4269676323189095  0.3934693278046064
  0.2140640506785641  0.5730561592512758  0.6065263346530961
  0.0063588175733743  0.3309771460065942  0.4531078964841488
  0.9936322342086460  0.6690055256866341  0.5468864484715635
  0.3854772247224838  0.1978844089324336  0.5700207374509737
  0.6145035864210171  0.8021291303383196  0.4299798099159677
  0.6827565525694775  0.9819679764936347  0.4393262038530673
  0.3172697195634660  0.0180205651258949  0.5606818206379653
  0.2700470948851538  0.8597450650020281  0.4272411744277895
  0.7299525008574087  0.1402650376619870  0.5727631621443871
  0.7179356005873266  0.6794863827949682  0.4941220079239654
  0.2820562218651887  0.3205056919834647  0.5058754492285373
  0.7572310652590027  0.6847850136435185  0.3724387705104230
  0.2427795926002160  0.3152169197291615  0.6275639300464337
  0.1928054846433125  0.6618722496928274  0.5679953895651594
  0.8071877125639756  0.3381269606811532  0.4319984926729697
 
  0.00000000E+00  0.00000000E+00  0.00000000E+00
  0.00000000E+00  0.00000000E+00  0.00000000E+00
  0.00000000E+00  0.00000000E+00  0.00000000E+00
  0.00000000E+00  0.00000000E+00  0.00000000E+00
  0.00000000E+00  0.00000000E+00  0.00000000E+00
  0.00000000E+00  0.00000000E+00  0.00000000E+00
  0.00000000E+00  0.00000000E+00  0.00000000E+00
  0.00000000E+00  0.00000000E+00  0.00000000E+00
  0.00000000E+00  0.00000000E+00  0.00000000E+00
  0.00000000E+00  0.00000000E+00  0.00000000E+00
  0.00000000E+00  0.00000000E+00  0.00000000E+00
  0.00000000E+00  0.00000000E+00  0.00000000E+00
  0.00000000E+00  0.00000000E+00  0.00000000E+00
  0.00000000E+00  0.00000000E+00  0.00000000E+00
  0.00000000E+00  0.00000000E+00  0.00000000E+00
  0.00000000E+00  0.00000000E+00  0.00000000E+00
  0.00000000E+00  0.00000000E+00  0.00000000E+00
  0.00000000E+00  0.00000000E+00  0.00000000E+00
