 Er2 H2 Cl2                             
   1.00000000000000     
     3.6725340244696776    0.0000000000000000    0.0000000000000000
     1.8362680042560706    3.1805079161507464    0.0000000000000000
     0.0000000000000000    0.0000000000000000   21.0473791057679982
   Er   H    Cl
     2     2     2
Direct
  0.9999996021487618  0.9999999045668133  0.4363201247069455
  0.3333334097010905  0.3333335603735250  0.5636797188264495
  0.0000001101463312  0.9999999855247879  0.5388101293613587
  0.3333330630411666  0.3333331907870303  0.4611900086172298
  0.6666672864827845  0.6666663720242667  0.6437765613619675
  0.6666665284798654  0.6666669867235768  0.3562234571260419
 
  0.00000000E+00  0.00000000E+00  0.00000000E+00
  0.00000000E+00  0.00000000E+00  0.00000000E+00
  0.00000000E+00  0.00000000E+00  0.00000000E+00
  0.00000000E+00  0.00000000E+00  0.00000000E+00
  0.00000000E+00  0.00000000E+00  0.00000000E+00
  0.00000000E+00  0.00000000E+00  0.00000000E+00
