 Y4 C1 I5                               
   1.00000000000000     
     3.9533546518173326    0.0000000000000000    0.0000000000000000
     0.0000000000000000    8.4215854580196652    0.0000000000000000
     0.0000000000000000    0.0000000000000000   21.2530740573920021
   Y    C    I 
     4     1     5
Direct
  0.4999998118065676  0.0012905442779783  0.3885436416639507
  0.9999999655495415  0.1926358631841794  0.5004019386524874
  0.5000001426466483  0.9987094143642068  0.6114563788616891
  0.0000000428439151  0.8073641360236437  0.4995980236110569
  0.5000000524818375  0.9999999977946175  0.4999999798080950
  0.0000000553893429  0.2621355101616771  0.3542646135917664
  0.0000000371906381  0.7412638128011011  0.3530419258692206
  0.9999999984158876  0.2587361932911989  0.6469580830962087
  0.4999999421731616  0.5000000050763020  0.5000000105718954
  0.9999999515024669  0.7378645230250953  0.6457354042736227
 
  0.00000000E+00  0.00000000E+00  0.00000000E+00
  0.00000000E+00  0.00000000E+00  0.00000000E+00
  0.00000000E+00  0.00000000E+00  0.00000000E+00
  0.00000000E+00  0.00000000E+00  0.00000000E+00
  0.00000000E+00  0.00000000E+00  0.00000000E+00
  0.00000000E+00  0.00000000E+00  0.00000000E+00
  0.00000000E+00  0.00000000E+00  0.00000000E+00
  0.00000000E+00  0.00000000E+00  0.00000000E+00
  0.00000000E+00  0.00000000E+00  0.00000000E+00
  0.00000000E+00  0.00000000E+00  0.00000000E+00
