G   51   24    1    0.005     # Parameters to Generate KPOINTS (Don't Edit This Line)
     338
Reciprocal lattice
    0.000000000000    0.000000000000    0.000000000000       1
    0.019607843137    0.000000000000    0.000000000000       2
    0.039215686275    0.000000000000    0.000000000000       2
    0.058823529412    0.000000000000    0.000000000000       2
    0.078431372549    0.000000000000    0.000000000000       2
    0.098039215686    0.000000000000    0.000000000000       2
    0.117647058824    0.000000000000    0.000000000000       2
    0.137254901961    0.000000000000    0.000000000000       2
    0.156862745098    0.000000000000    0.000000000000       2
    0.176470588235    0.000000000000    0.000000000000       2
    0.196078431373    0.000000000000    0.000000000000       2
    0.215686274510    0.000000000000    0.000000000000       2
    0.235294117647    0.000000000000    0.000000000000       2
    0.254901960784    0.000000000000    0.000000000000       2
    0.274509803922    0.000000000000    0.000000000000       2
    0.294117647059    0.000000000000    0.000000000000       2
    0.313725490196    0.000000000000    0.000000000000       2
    0.333333333333    0.000000000000    0.000000000000       2
    0.352941176471    0.000000000000    0.000000000000       2
    0.372549019608    0.000000000000    0.000000000000       2
    0.392156862745    0.000000000000    0.000000000000       2
    0.411764705882    0.000000000000    0.000000000000       2
    0.431372549020    0.000000000000    0.000000000000       2
    0.450980392157    0.000000000000    0.000000000000       2
    0.470588235294    0.000000000000    0.000000000000       2
    0.490196078431    0.000000000000    0.000000000000       2
    0.000000000000    0.041666666667    0.000000000000       2
    0.019607843137    0.041666666667    0.000000000000       4
    0.039215686275    0.041666666667    0.000000000000       4
    0.058823529412    0.041666666667    0.000000000000       4
    0.078431372549    0.041666666667    0.000000000000       4
    0.098039215686    0.041666666667    0.000000000000       4
    0.117647058824    0.041666666667    0.000000000000       4
    0.137254901961    0.041666666667    0.000000000000       4
    0.156862745098    0.041666666667    0.000000000000       4
    0.176470588235    0.041666666667    0.000000000000       4
    0.196078431373    0.041666666667    0.000000000000       4
    0.215686274510    0.041666666667    0.000000000000       4
    0.235294117647    0.041666666667    0.000000000000       4
    0.254901960784    0.041666666667    0.000000000000       4
    0.274509803922    0.041666666667    0.000000000000       4
    0.294117647059    0.041666666667    0.000000000000       4
    0.313725490196    0.041666666667    0.000000000000       4
    0.333333333333    0.041666666667    0.000000000000       4
    0.352941176471    0.041666666667    0.000000000000       4
    0.372549019608    0.041666666667    0.000000000000       4
    0.392156862745    0.041666666667    0.000000000000       4
    0.411764705882    0.041666666667    0.000000000000       4
    0.431372549020    0.041666666667    0.000000000000       4
    0.450980392157    0.041666666667    0.000000000000       4
    0.470588235294    0.041666666667    0.000000000000       4
    0.490196078431    0.041666666667    0.000000000000       4
    0.000000000000    0.083333333333    0.000000000000       2
    0.019607843137    0.083333333333    0.000000000000       4
    0.039215686275    0.083333333333    0.000000000000       4
    0.058823529412    0.083333333333    0.000000000000       4
    0.078431372549    0.083333333333    0.000000000000       4
    0.098039215686    0.083333333333    0.000000000000       4
    0.117647058824    0.083333333333    0.000000000000       4
    0.137254901961    0.083333333333    0.000000000000       4
    0.156862745098    0.083333333333    0.000000000000       4
    0.176470588235    0.083333333333    0.000000000000       4
    0.196078431373    0.083333333333    0.000000000000       4
    0.215686274510    0.083333333333    0.000000000000       4
    0.235294117647    0.083333333333    0.000000000000       4
    0.254901960784    0.083333333333    0.000000000000       4
    0.274509803922    0.083333333333    0.000000000000       4
    0.294117647059    0.083333333333    0.000000000000       4
    0.313725490196    0.083333333333    0.000000000000       4
    0.333333333333    0.083333333333    0.000000000000       4
    0.352941176471    0.083333333333    0.000000000000       4
    0.372549019608    0.083333333333    0.000000000000       4
    0.392156862745    0.083333333333    0.000000000000       4
    0.411764705882    0.083333333333    0.000000000000       4
    0.431372549020    0.083333333333    0.000000000000       4
    0.450980392157    0.083333333333    0.000000000000       4
    0.470588235294    0.083333333333    0.000000000000       4
    0.490196078431    0.083333333333    0.000000000000       4
    0.000000000000    0.125000000000    0.000000000000       2
    0.019607843137    0.125000000000    0.000000000000       4
    0.039215686275    0.125000000000    0.000000000000       4
    0.058823529412    0.125000000000    0.000000000000       4
    0.078431372549    0.125000000000    0.000000000000       4
    0.098039215686    0.125000000000    0.000000000000       4
    0.117647058824    0.125000000000    0.000000000000       4
    0.137254901961    0.125000000000    0.000000000000       4
    0.156862745098    0.125000000000    0.000000000000       4
    0.176470588235    0.125000000000    0.000000000000       4
    0.196078431373    0.125000000000    0.000000000000       4
    0.215686274510    0.125000000000    0.000000000000       4
    0.235294117647    0.125000000000    0.000000000000       4
    0.254901960784    0.125000000000    0.000000000000       4
    0.274509803922    0.125000000000    0.000000000000       4
    0.294117647059    0.125000000000    0.000000000000       4
    0.313725490196    0.125000000000    0.000000000000       4
    0.333333333333    0.125000000000    0.000000000000       4
    0.352941176471    0.125000000000    0.000000000000       4
    0.372549019608    0.125000000000    0.000000000000       4
    0.392156862745    0.125000000000    0.000000000000       4
    0.411764705882    0.125000000000    0.000000000000       4
    0.431372549020    0.125000000000    0.000000000000       4
    0.450980392157    0.125000000000    0.000000000000       4
    0.470588235294    0.125000000000    0.000000000000       4
    0.490196078431    0.125000000000    0.000000000000       4
    0.000000000000    0.166666666667    0.000000000000       2
    0.019607843137    0.166666666667    0.000000000000       4
    0.039215686275    0.166666666667    0.000000000000       4
    0.058823529412    0.166666666667    0.000000000000       4
    0.078431372549    0.166666666667    0.000000000000       4
    0.098039215686    0.166666666667    0.000000000000       4
    0.117647058824    0.166666666667    0.000000000000       4
    0.137254901961    0.166666666667    0.000000000000       4
    0.156862745098    0.166666666667    0.000000000000       4
    0.176470588235    0.166666666667    0.000000000000       4
    0.196078431373    0.166666666667    0.000000000000       4
    0.215686274510    0.166666666667    0.000000000000       4
    0.235294117647    0.166666666667    0.000000000000       4
    0.254901960784    0.166666666667    0.000000000000       4
    0.274509803922    0.166666666667    0.000000000000       4
    0.294117647059    0.166666666667    0.000000000000       4
    0.313725490196    0.166666666667    0.000000000000       4
    0.333333333333    0.166666666667    0.000000000000       4
    0.352941176471    0.166666666667    0.000000000000       4
    0.372549019608    0.166666666667    0.000000000000       4
    0.392156862745    0.166666666667    0.000000000000       4
    0.411764705882    0.166666666667    0.000000000000       4
    0.431372549020    0.166666666667    0.000000000000       4
    0.450980392157    0.166666666667    0.000000000000       4
    0.470588235294    0.166666666667    0.000000000000       4
    0.490196078431    0.166666666667    0.000000000000       4
    0.000000000000    0.208333333333    0.000000000000       2
    0.019607843137    0.208333333333    0.000000000000       4
    0.039215686275    0.208333333333    0.000000000000       4
    0.058823529412    0.208333333333    0.000000000000       4
    0.078431372549    0.208333333333    0.000000000000       4
    0.098039215686    0.208333333333    0.000000000000       4
    0.117647058824    0.208333333333    0.000000000000       4
    0.137254901961    0.208333333333    0.000000000000       4
    0.156862745098    0.208333333333    0.000000000000       4
    0.176470588235    0.208333333333    0.000000000000       4
    0.196078431373    0.208333333333    0.000000000000       4
    0.215686274510    0.208333333333    0.000000000000       4
    0.235294117647    0.208333333333    0.000000000000       4
    0.254901960784    0.208333333333    0.000000000000       4
    0.274509803922    0.208333333333    0.000000000000       4
    0.294117647059    0.208333333333    0.000000000000       4
    0.313725490196    0.208333333333    0.000000000000       4
    0.333333333333    0.208333333333    0.000000000000       4
    0.352941176471    0.208333333333    0.000000000000       4
    0.372549019608    0.208333333333    0.000000000000       4
    0.392156862745    0.208333333333    0.000000000000       4
    0.411764705882    0.208333333333    0.000000000000       4
    0.431372549020    0.208333333333    0.000000000000       4
    0.450980392157    0.208333333333    0.000000000000       4
    0.470588235294    0.208333333333    0.000000000000       4
    0.490196078431    0.208333333333    0.000000000000       4
    0.000000000000    0.250000000000    0.000000000000       2
    0.019607843137    0.250000000000    0.000000000000       4
    0.039215686275    0.250000000000    0.000000000000       4
    0.058823529412    0.250000000000    0.000000000000       4
    0.078431372549    0.250000000000    0.000000000000       4
    0.098039215686    0.250000000000    0.000000000000       4
    0.117647058824    0.250000000000    0.000000000000       4
    0.137254901961    0.250000000000    0.000000000000       4
    0.156862745098    0.250000000000    0.000000000000       4
    0.176470588235    0.250000000000    0.000000000000       4
    0.196078431373    0.250000000000    0.000000000000       4
    0.215686274510    0.250000000000    0.000000000000       4
    0.235294117647    0.250000000000    0.000000000000       4
    0.254901960784    0.250000000000    0.000000000000       4
    0.274509803922    0.250000000000    0.000000000000       4
    0.294117647059    0.250000000000    0.000000000000       4
    0.313725490196    0.250000000000    0.000000000000       4
    0.333333333333    0.250000000000    0.000000000000       4
    0.352941176471    0.250000000000    0.000000000000       4
    0.372549019608    0.250000000000    0.000000000000       4
    0.392156862745    0.250000000000    0.000000000000       4
    0.411764705882    0.250000000000    0.000000000000       4
    0.431372549020    0.250000000000    0.000000000000       4
    0.450980392157    0.250000000000    0.000000000000       4
    0.470588235294    0.250000000000    0.000000000000       4
    0.490196078431    0.250000000000    0.000000000000       4
    0.000000000000    0.291666666667    0.000000000000       2
    0.019607843137    0.291666666667    0.000000000000       4
    0.039215686275    0.291666666667    0.000000000000       4
    0.058823529412    0.291666666667    0.000000000000       4
    0.078431372549    0.291666666667    0.000000000000       4
    0.098039215686    0.291666666667    0.000000000000       4
    0.117647058824    0.291666666667    0.000000000000       4
    0.137254901961    0.291666666667    0.000000000000       4
    0.156862745098    0.291666666667    0.000000000000       4
    0.176470588235    0.291666666667    0.000000000000       4
    0.196078431373    0.291666666667    0.000000000000       4
    0.215686274510    0.291666666667    0.000000000000       4
    0.235294117647    0.291666666667    0.000000000000       4
    0.254901960784    0.291666666667    0.000000000000       4
    0.274509803922    0.291666666667    0.000000000000       4
    0.294117647059    0.291666666667    0.000000000000       4
    0.313725490196    0.291666666667    0.000000000000       4
    0.333333333333    0.291666666667    0.000000000000       4
    0.352941176471    0.291666666667    0.000000000000       4
    0.372549019608    0.291666666667    0.000000000000       4
    0.392156862745    0.291666666667    0.000000000000       4
    0.411764705882    0.291666666667    0.000000000000       4
    0.431372549020    0.291666666667    0.000000000000       4
    0.450980392157    0.291666666667    0.000000000000       4
    0.470588235294    0.291666666667    0.000000000000       4
    0.490196078431    0.291666666667    0.000000000000       4
    0.000000000000    0.333333333333    0.000000000000       2
    0.019607843137    0.333333333333    0.000000000000       4
    0.039215686275    0.333333333333    0.000000000000       4
    0.058823529412    0.333333333333    0.000000000000       4
    0.078431372549    0.333333333333    0.000000000000       4
    0.098039215686    0.333333333333    0.000000000000       4
    0.117647058824    0.333333333333    0.000000000000       4
    0.137254901961    0.333333333333    0.000000000000       4
    0.156862745098    0.333333333333    0.000000000000       4
    0.176470588235    0.333333333333    0.000000000000       4
    0.196078431373    0.333333333333    0.000000000000       4
    0.215686274510    0.333333333333    0.000000000000       4
    0.235294117647    0.333333333333    0.000000000000       4
    0.254901960784    0.333333333333    0.000000000000       4
    0.274509803922    0.333333333333    0.000000000000       4
    0.294117647059    0.333333333333    0.000000000000       4
    0.313725490196    0.333333333333    0.000000000000       4
    0.333333333333    0.333333333333    0.000000000000       4
    0.352941176471    0.333333333333    0.000000000000       4
    0.372549019608    0.333333333333    0.000000000000       4
    0.392156862745    0.333333333333    0.000000000000       4
    0.411764705882    0.333333333333    0.000000000000       4
    0.431372549020    0.333333333333    0.000000000000       4
    0.450980392157    0.333333333333    0.000000000000       4
    0.470588235294    0.333333333333    0.000000000000       4
    0.490196078431    0.333333333333    0.000000000000       4
    0.000000000000    0.375000000000    0.000000000000       2
    0.019607843137    0.375000000000    0.000000000000       4
    0.039215686275    0.375000000000    0.000000000000       4
    0.058823529412    0.375000000000    0.000000000000       4
    0.078431372549    0.375000000000    0.000000000000       4
    0.098039215686    0.375000000000    0.000000000000       4
    0.117647058824    0.375000000000    0.000000000000       4
    0.137254901961    0.375000000000    0.000000000000       4
    0.156862745098    0.375000000000    0.000000000000       4
    0.176470588235    0.375000000000    0.000000000000       4
    0.196078431373    0.375000000000    0.000000000000       4
    0.215686274510    0.375000000000    0.000000000000       4
    0.235294117647    0.375000000000    0.000000000000       4
    0.254901960784    0.375000000000    0.000000000000       4
    0.274509803922    0.375000000000    0.000000000000       4
    0.294117647059    0.375000000000    0.000000000000       4
    0.313725490196    0.375000000000    0.000000000000       4
    0.333333333333    0.375000000000    0.000000000000       4
    0.352941176471    0.375000000000    0.000000000000       4
    0.372549019608    0.375000000000    0.000000000000       4
    0.392156862745    0.375000000000    0.000000000000       4
    0.411764705882    0.375000000000    0.000000000000       4
    0.431372549020    0.375000000000    0.000000000000       4
    0.450980392157    0.375000000000    0.000000000000       4
    0.470588235294    0.375000000000    0.000000000000       4
    0.490196078431    0.375000000000    0.000000000000       4
    0.000000000000    0.416666666667    0.000000000000       2
    0.019607843137    0.416666666667    0.000000000000       4
    0.039215686275    0.416666666667    0.000000000000       4
    0.058823529412    0.416666666667    0.000000000000       4
    0.078431372549    0.416666666667    0.000000000000       4
    0.098039215686    0.416666666667    0.000000000000       4
    0.117647058824    0.416666666667    0.000000000000       4
    0.137254901961    0.416666666667    0.000000000000       4
    0.156862745098    0.416666666667    0.000000000000       4
    0.176470588235    0.416666666667    0.000000000000       4
    0.196078431373    0.416666666667    0.000000000000       4
    0.215686274510    0.416666666667    0.000000000000       4
    0.235294117647    0.416666666667    0.000000000000       4
    0.254901960784    0.416666666667    0.000000000000       4
    0.274509803922    0.416666666667    0.000000000000       4
    0.294117647059    0.416666666667    0.000000000000       4
    0.313725490196    0.416666666667    0.000000000000       4
    0.333333333333    0.416666666667    0.000000000000       4
    0.352941176471    0.416666666667    0.000000000000       4
    0.372549019608    0.416666666667    0.000000000000       4
    0.392156862745    0.416666666667    0.000000000000       4
    0.411764705882    0.416666666667    0.000000000000       4
    0.431372549020    0.416666666667    0.000000000000       4
    0.450980392157    0.416666666667    0.000000000000       4
    0.470588235294    0.416666666667    0.000000000000       4
    0.490196078431    0.416666666667    0.000000000000       4
    0.000000000000    0.458333333333    0.000000000000       2
    0.019607843137    0.458333333333    0.000000000000       4
    0.039215686275    0.458333333333    0.000000000000       4
    0.058823529412    0.458333333333    0.000000000000       4
    0.078431372549    0.458333333333    0.000000000000       4
    0.098039215686    0.458333333333    0.000000000000       4
    0.117647058824    0.458333333333    0.000000000000       4
    0.137254901961    0.458333333333    0.000000000000       4
    0.156862745098    0.458333333333    0.000000000000       4
    0.176470588235    0.458333333333    0.000000000000       4
    0.196078431373    0.458333333333    0.000000000000       4
    0.215686274510    0.458333333333    0.000000000000       4
    0.235294117647    0.458333333333    0.000000000000       4
    0.254901960784    0.458333333333    0.000000000000       4
    0.274509803922    0.458333333333    0.000000000000       4
    0.294117647059    0.458333333333    0.000000000000       4
    0.313725490196    0.458333333333    0.000000000000       4
    0.333333333333    0.458333333333    0.000000000000       4
    0.352941176471    0.458333333333    0.000000000000       4
    0.372549019608    0.458333333333    0.000000000000       4
    0.392156862745    0.458333333333    0.000000000000       4
    0.411764705882    0.458333333333    0.000000000000       4
    0.431372549020    0.458333333333    0.000000000000       4
    0.450980392157    0.458333333333    0.000000000000       4
    0.470588235294    0.458333333333    0.000000000000       4
    0.490196078431    0.458333333333    0.000000000000       4
    0.000000000000    0.500000000000    0.000000000000       1
    0.019607843137    0.500000000000    0.000000000000       2
    0.039215686275    0.500000000000    0.000000000000       2
    0.058823529412    0.500000000000    0.000000000000       2
    0.078431372549    0.500000000000    0.000000000000       2
    0.098039215686    0.500000000000    0.000000000000       2
    0.117647058824    0.500000000000    0.000000000000       2
    0.137254901961    0.500000000000    0.000000000000       2
    0.156862745098    0.500000000000    0.000000000000       2
    0.176470588235    0.500000000000    0.000000000000       2
    0.196078431373    0.500000000000    0.000000000000       2
    0.215686274510    0.500000000000    0.000000000000       2
    0.235294117647    0.500000000000    0.000000000000       2
    0.254901960784    0.500000000000    0.000000000000       2
    0.274509803922    0.500000000000    0.000000000000       2
    0.294117647059    0.500000000000    0.000000000000       2
    0.313725490196    0.500000000000    0.000000000000       2
    0.333333333333    0.500000000000    0.000000000000       2
    0.352941176471    0.500000000000    0.000000000000       2
    0.372549019608    0.500000000000    0.000000000000       2
    0.392156862745    0.500000000000    0.000000000000       2
    0.411764705882    0.500000000000    0.000000000000       2
    0.431372549020    0.500000000000    0.000000000000       2
    0.450980392157    0.500000000000    0.000000000000       2
    0.470588235294    0.500000000000    0.000000000000       2
    0.490196078431    0.500000000000    0.000000000000       2
