CONTCAR\(6)                             
   1.00000000000000     
    11.6057996750000001    0.0000000000000000    0.0000000000000000
     5.8029393748000002   10.0514726542999995    0.0000000000000000
     0.0000000000000000    0.0000000000000000   18.0372009276999989
   Ni   P    S    O    H 
     8     8    24     2     1
Selective dynamics
Direct
  0.1697176729143806  0.1663568270167133  0.5001475845673511   F   F   F
  0.3372488516217587  0.3337556197302050  0.5033164729885939   F   F   F
  0.6692181119978002  0.1678843936707821  0.5028142881202768   F   F   F
  0.8359398458436615  0.3336968996242149  0.5025175202345196   F   F   F
  0.1719725015619531  0.6657205908768304  0.5034850497747669   F   F   F
  0.3374969491496529  0.8307799910106866  0.5028518036067169   F   F   F
  0.6701879040981567  0.6657753033814160  0.5029536841677569   F   F   F
  0.8366180437432291  0.8333743165154104  0.5003229473203135   F   F   F
  0.5033733708308787  0.9993057452393614  0.5623531876586298   F   F   F
  0.0016056665022859  0.0013412491340929  0.4403996467253748   F   F   F
  0.0034404989670520  0.9995641309543473  0.5616493853459659   F   F   F
  0.5034028200627390  0.9981369640273101  0.4411177709471019   F   F   F
  0.5048927091659792  0.5003386919210016  0.5877072636365099   F   F   F
  0.0052392241979007  0.4996644492061506  0.4413229944036914   F   F   F
  0.0035912362793482  0.4994705339205652  0.5625024508371226   F   F   F
  0.5039979858775325  0.4999903669862817  0.4609516706115642   F   F   F
  0.3295763682255810  0.1725964599095633  0.5852610859881082   F   F   F
  0.9997099035177541  0.1757798093605700  0.4174193428344424   F   F   F
  0.3312188521698047  0.9957208563417268  0.4180315752853403   F   F   F
  0.1769500741391425  0.9994675412043250  0.5845512255864804   F   F   F
  0.5021229423834086  0.3175444605090476  0.5840263592475310   F   F   F
  0.1793938721037236  0.3273717077100500  0.4180597454381711   F   F   F
  0.8321576305949350  0.1710729686843351  0.5881496256722514   F   F   F
  0.5031624081438508  0.1699404016831636  0.4155555581642503   F   F   F
  0.8271590449972024  0.0032806871817286  0.4175577167334481   F   F   F
  0.6768059741716499  0.9996632155819185  0.5851525244272153   F   F   F
  0.0037952069197331  0.3256705388376986  0.5849692734604446   F   F   F
  0.6726585262599585  0.3304578695319123  0.4246298400377384   F   F   F
  0.3192520097214597  0.6829836464811194  0.5840743610536592   F   F   F
  0.0076944054138082  0.6718187340363571  0.4183661135583563   F   F   F
  0.3338545109413857  0.5004018078604204  0.4256200899944531   F   F   F
  0.1746474423574185  0.4992803546520932  0.5895337479351994   F   F   F
  0.5038266179149744  0.8278267632976934  0.5887804570828123   F   F   F
  0.1729431596193436  0.8298986410087394  0.4147039983254217   F   F   F
  0.8303722469034085  0.6734644691130569  0.5852012684794303   F   F   F
  0.5035942491141441  0.6694968878162015  0.4249009546127027   F   F   F
  0.8335645310210893  0.4998069077066063  0.4155365602120469   F   F   F
  0.6888976383529126  0.4996442614165559  0.5843717890647753   F   F   F
  0.0031287825170523  0.8261942702741862  0.5846682517640929   F   F   F
  0.6759046020112507  0.8240610912707780  0.4178124198175936   F   F   F
  0.5224027457028626  0.4992461981982288  0.6824288147757045   T   T   T
  0.4084439206388311  0.5020584473741962  0.7203086911921162   T   T   T
  0.4416287643289890  0.4058848067423924  0.7242734466897316   T   T   T
 
  0.00000000E+00  0.00000000E+00  0.00000000E+00
  0.00000000E+00  0.00000000E+00  0.00000000E+00
  0.00000000E+00  0.00000000E+00  0.00000000E+00
  0.00000000E+00  0.00000000E+00  0.00000000E+00
  0.00000000E+00  0.00000000E+00  0.00000000E+00
  0.00000000E+00  0.00000000E+00  0.00000000E+00
  0.00000000E+00  0.00000000E+00  0.00000000E+00
  0.00000000E+00  0.00000000E+00  0.00000000E+00
  0.00000000E+00  0.00000000E+00  0.00000000E+00
  0.00000000E+00  0.00000000E+00  0.00000000E+00
  0.00000000E+00  0.00000000E+00  0.00000000E+00
  0.00000000E+00  0.00000000E+00  0.00000000E+00
  0.00000000E+00  0.00000000E+00  0.00000000E+00
  0.00000000E+00  0.00000000E+00  0.00000000E+00
  0.00000000E+00  0.00000000E+00  0.00000000E+00
  0.00000000E+00  0.00000000E+00  0.00000000E+00
  0.00000000E+00  0.00000000E+00  0.00000000E+00
  0.00000000E+00  0.00000000E+00  0.00000000E+00
  0.00000000E+00  0.00000000E+00  0.00000000E+00
  0.00000000E+00  0.00000000E+00  0.00000000E+00
  0.00000000E+00  0.00000000E+00  0.00000000E+00
  0.00000000E+00  0.00000000E+00  0.00000000E+00
  0.00000000E+00  0.00000000E+00  0.00000000E+00
  0.00000000E+00  0.00000000E+00  0.00000000E+00
  0.00000000E+00  0.00000000E+00  0.00000000E+00
  0.00000000E+00  0.00000000E+00  0.00000000E+00
  0.00000000E+00  0.00000000E+00  0.00000000E+00
  0.00000000E+00  0.00000000E+00  0.00000000E+00
  0.00000000E+00  0.00000000E+00  0.00000000E+00
  0.00000000E+00  0.00000000E+00  0.00000000E+00
  0.00000000E+00  0.00000000E+00  0.00000000E+00
  0.00000000E+00  0.00000000E+00  0.00000000E+00
  0.00000000E+00  0.00000000E+00  0.00000000E+00
  0.00000000E+00  0.00000000E+00  0.00000000E+00
  0.00000000E+00  0.00000000E+00  0.00000000E+00
  0.00000000E+00  0.00000000E+00  0.00000000E+00
  0.00000000E+00  0.00000000E+00  0.00000000E+00
  0.00000000E+00  0.00000000E+00  0.00000000E+00
  0.00000000E+00  0.00000000E+00  0.00000000E+00
  0.00000000E+00  0.00000000E+00  0.00000000E+00
  0.00000000E+00  0.00000000E+00  0.00000000E+00
  0.00000000E+00  0.00000000E+00  0.00000000E+00
  0.00000000E+00  0.00000000E+00  0.00000000E+00
