CONTCAR\(5)                             
   1.00000000000000     
    12.6589002608999994    0.0000000000000000    0.0000000000000000
    -6.3294555933999996   10.9637343354999999    0.0000000000000000
     0.0000000000000000    0.0000000000000000   35.9861984253000031
   Bi   Se   O    H 
    54    54     1     1
Direct
  0.2215713452488547  0.1098823597402482  0.5256760899135025
  0.1105017861495279  0.2200160970632065  0.4747007092355173
  0.2221159021156005  0.1111170482207268  0.3592908598495647
  0.1128424783168051  0.2226145378680844  0.6388131028526199
  0.0004827184185298  0.0006298285387969  0.2533032122470018
  0.0009789389481252  0.3346831628719388  0.7451838484271409
  0.5555597057287094  0.1114291197181728  0.5254156161878387
  0.4429056751856205  0.2208913327220196  0.4749444865925289
  0.5556474390063983  0.1112467133798469  0.3590211040299390
  0.4466416351108713  0.2254924139900972  0.6401762947629346
  0.3338873489401468  0.0000139011504007  0.2534871791009923
  0.3345632706367802  0.3347722851889142  0.7447799220971010
  0.8878916619836568  0.1109087534885217  0.5247863665953150
  0.7766060991137028  0.2219895836596421  0.4743385608077113
  0.8890456808923604  0.1111541097141552  0.3593560308398965
  0.7766849592457945  0.2231814586642627  0.6388476639574526
  0.6669876308657040  0.0000544464757139  0.2533621963031207
  0.6680739855870433  0.3346968042817661  0.7446896071633057
  0.2218014414695926  0.4430610294148923  0.5247090371197810
  0.1116543448877985  0.5559079958568319  0.4746096300734739
  0.2224075531360317  0.4448936391817913  0.3595091126088210
  0.1123546289948080  0.5569281211718897  0.6388369981479877
  0.0002037243782534  0.3340911643708320  0.2534870574715799
 -0.0001608066583103  0.6674537643130219  0.7447964728838052
  0.5556549531132562  0.4443795252955847  0.5247489311591252
  0.4441979406604629  0.5555184168217511  0.4745136503793287
  0.5555434830385820  0.4444817467864947  0.3590005087933296
  0.4484270185310290  0.5579267535934646  0.6412758101410039
  0.3339167324501027  0.3340780336623740  0.2534959611524009
  0.3334645293425915  0.6665851293774893  0.7447507313201737
  0.8886812945119008  0.4444400188429659  0.5246199089279842
  0.7772862186873332  0.5546728963604949  0.4741326145681856
  0.8886952137101607  0.4442998154672953  0.3592548400607307
  0.7772297811452255  0.5582250620811188  0.6413065779053101
  0.6668949339406748  0.3335348122730089  0.2533838771145788
  0.6692142021732300  0.6723617217202584  0.7782305714644689
  0.2223015734546513  0.7769470774927244  0.5256637968909803
  0.1121642871667601  0.8884651485358617  0.4749959728609332
  0.2224670677366073  0.7778190142967603  0.3593412433140915
  0.1090248532994627  0.8886485417953137  0.6404140071593981
  0.0001533681237811  0.6670899136711252  0.2534382041503308
  0.0006630699165325  0.0031439306118847  0.7446084682065168
  0.5550271017518124  0.7767040995066933  0.5252890459418700
  0.4442773939223059  0.8888658062496488  0.4751931307213023
  0.5554537387679481  0.7779220522567324  0.3593549448594984
  0.4461437279101647  0.8880883776947405  0.6402978491466274
  0.3333326775563831  0.6666303699834359  0.2533633688110293
  0.3337539176935985  0.0003413060973310  0.7453084434833382
  0.8883982540852479  0.7767090650199935  0.5247014702406364
  0.7769851525410308  0.8883303924131655  0.4747431127334206
  0.8889564294424145  0.7778831226732394  0.3593224435100602
  0.7770797623665008  0.8875526041877889  0.6412875015513866
  0.6671706246565020  0.6674139247169549  0.2534792783434452
  0.6690332430253932  0.0016308643773650  0.7447704227461776
  0.0000184624212965 -0.0001170939066926  0.4028700765217088
  0.3350712530443513  0.3358399040779965  0.5960503058938147
  0.2239418672127825  0.1117827172387935  0.6907011574775709
  0.1113181429202651  0.2225693477000217  0.3072263242636327
  0.2227914149917483  0.1116460685026090  0.2111224722191388
  0.1136793779136979  0.2229560417290334  0.7867561924992976
  0.3340071932349909  0.0002072930600082  0.4027022175807363
  0.6682775407949859  0.3364833001206998  0.5959542605946971
  0.5553484115522807  0.1111932338529234  0.6908163082489147
  0.4443504558222597  0.2222004465741978  0.3070719338837685
  0.5556902300462527  0.1110201039194603  0.2110396613045465
  0.4456365982082286  0.2234778833495200  0.7875267468096351
  0.6661887033364486  0.0002264194111183  0.4027764418625869
  0.0006015730368145  0.3340085452101254  0.5955128695322499
  0.8903769893247501  0.1140931866730490  0.6910445053014026
  0.7778643997532237  0.2222045670821849  0.3070935117977205
  0.8893880952593837  0.1116636520364004  0.2110522138498714
  0.7763611770188579  0.2222762832098765  0.7866954980971437
 -0.0000915711500232  0.3338260729640481  0.4028820312377583
  0.3346702716456086  0.6662926820985903  0.5961053277705777
  0.2216747762107130  0.4444468752416965  0.6912326619497783
  0.1112072759394385  0.5558117232576255  0.3070869124943192
  0.2221210758681859  0.4442323521263891  0.2110528133681918
  0.1126465928431315  0.5587667918599902  0.7867374216525800
  0.3339906090016893  0.3338987678029517  0.4027969776133710
  0.6675520161479589  0.6677712387799858  0.5964363714024755
  0.5567898377351613  0.4465707103599079  0.6915392052189263
  0.4443541835300566  0.5559999199959963  0.3071431601274169
  0.5560113763946740  0.4452029599513038  0.2110978000593722
  0.4102863765633494  0.5372822035479969  0.7922440272064025
  0.6662250351113940  0.3332686467136844  0.4026889220035466
  0.9990326254406824  0.6663845651714715  0.5962957670971730
  0.8902334895304965  0.4445826145302189  0.6912801171141956
  0.7778571937550995  0.5555796693974502  0.3070786842514644
  0.8890658664251990  0.4448981513007031  0.2110318784470157
  0.7942120029498396  0.5380924181133138  0.7921228488216046
  0.0000736296053262  0.6662329408619330  0.4027761460224442
  0.3337381997128097  0.0000221662525887  0.5966299127294593
  0.2229589509237354  0.7782737857986392  0.6913345970527719
  0.1111945946566649  0.8890328611954389  0.3072249971549529
  0.2221783040189592  0.7780189185949049  0.2110480611025699
  0.1108747204896722  0.8898147040328545  0.7873402801148668
  0.3335785191526733  0.6671991656607639  0.4029390377190385
  0.6675670921405644 -0.0001087445662335  0.5961958522129988
  0.5568780614776794  0.7772207570223478  0.6917849044621805
  0.4445365932101076  0.8888166208302328  0.3070117987189796
  0.5558741584246941  0.7779534239748870  0.2110193615784196
  0.4456668060131920  0.8891888895275832  0.7873539018364472
  0.6661384456148354  0.6660777207056107  0.4027451767534247
  0.9987053597729771 -0.0005501337895014  0.5961016360225849
  0.8877647340220753  0.7780001710368241  0.6917918065100706
  0.7779301143690551  0.8891541869549300  0.3072636665423015
  0.8891488201942584  0.7784170863556680  0.2110222698334901
  0.7994320611588009  0.9300828663034544  0.7925311021802576
  0.6763807089634789  0.6875493008533030  0.8367183207600616
  0.6282490818191251  0.6070454914302738  0.8480733251914091
 
  0.00000000E+00  0.00000000E+00  0.00000000E+00
  0.00000000E+00  0.00000000E+00  0.00000000E+00
  0.00000000E+00  0.00000000E+00  0.00000000E+00
  0.00000000E+00  0.00000000E+00  0.00000000E+00
  0.00000000E+00  0.00000000E+00  0.00000000E+00
  0.00000000E+00  0.00000000E+00  0.00000000E+00
  0.00000000E+00  0.00000000E+00  0.00000000E+00
  0.00000000E+00  0.00000000E+00  0.00000000E+00
  0.00000000E+00  0.00000000E+00  0.00000000E+00
  0.00000000E+00  0.00000000E+00  0.00000000E+00
  0.00000000E+00  0.00000000E+00  0.00000000E+00
  0.00000000E+00  0.00000000E+00  0.00000000E+00
  0.00000000E+00  0.00000000E+00  0.00000000E+00
  0.00000000E+00  0.00000000E+00  0.00000000E+00
  0.00000000E+00  0.00000000E+00  0.00000000E+00
  0.00000000E+00  0.00000000E+00  0.00000000E+00
  0.00000000E+00  0.00000000E+00  0.00000000E+00
  0.00000000E+00  0.00000000E+00  0.00000000E+00
  0.00000000E+00  0.00000000E+00  0.00000000E+00
  0.00000000E+00  0.00000000E+00  0.00000000E+00
  0.00000000E+00  0.00000000E+00  0.00000000E+00
  0.00000000E+00  0.00000000E+00  0.00000000E+00
  0.00000000E+00  0.00000000E+00  0.00000000E+00
  0.00000000E+00  0.00000000E+00  0.00000000E+00
  0.00000000E+00  0.00000000E+00  0.00000000E+00
  0.00000000E+00  0.00000000E+00  0.00000000E+00
  0.00000000E+00  0.00000000E+00  0.00000000E+00
  0.00000000E+00  0.00000000E+00  0.00000000E+00
  0.00000000E+00  0.00000000E+00  0.00000000E+00
  0.00000000E+00  0.00000000E+00  0.00000000E+00
  0.00000000E+00  0.00000000E+00  0.00000000E+00
  0.00000000E+00  0.00000000E+00  0.00000000E+00
  0.00000000E+00  0.00000000E+00  0.00000000E+00
  0.00000000E+00  0.00000000E+00  0.00000000E+00
  0.00000000E+00  0.00000000E+00  0.00000000E+00
  0.00000000E+00  0.00000000E+00  0.00000000E+00
  0.00000000E+00  0.00000000E+00  0.00000000E+00
  0.00000000E+00  0.00000000E+00  0.00000000E+00
  0.00000000E+00  0.00000000E+00  0.00000000E+00
  0.00000000E+00  0.00000000E+00  0.00000000E+00
  0.00000000E+00  0.00000000E+00  0.00000000E+00
  0.00000000E+00  0.00000000E+00  0.00000000E+00
  0.00000000E+00  0.00000000E+00  0.00000000E+00
  0.00000000E+00  0.00000000E+00  0.00000000E+00
  0.00000000E+00  0.00000000E+00  0.00000000E+00
  0.00000000E+00  0.00000000E+00  0.00000000E+00
  0.00000000E+00  0.00000000E+00  0.00000000E+00
  0.00000000E+00  0.00000000E+00  0.00000000E+00
  0.00000000E+00  0.00000000E+00  0.00000000E+00
  0.00000000E+00  0.00000000E+00  0.00000000E+00
  0.00000000E+00  0.00000000E+00  0.00000000E+00
  0.00000000E+00  0.00000000E+00  0.00000000E+00
  0.00000000E+00  0.00000000E+00  0.00000000E+00
  0.00000000E+00  0.00000000E+00  0.00000000E+00
  0.00000000E+00  0.00000000E+00  0.00000000E+00
  0.00000000E+00  0.00000000E+00  0.00000000E+00
  0.00000000E+00  0.00000000E+00  0.00000000E+00
  0.00000000E+00  0.00000000E+00  0.00000000E+00
  0.00000000E+00  0.00000000E+00  0.00000000E+00
  0.00000000E+00  0.00000000E+00  0.00000000E+00
  0.00000000E+00  0.00000000E+00  0.00000000E+00
  0.00000000E+00  0.00000000E+00  0.00000000E+00
  0.00000000E+00  0.00000000E+00  0.00000000E+00
  0.00000000E+00  0.00000000E+00  0.00000000E+00
  0.00000000E+00  0.00000000E+00  0.00000000E+00
  0.00000000E+00  0.00000000E+00  0.00000000E+00
  0.00000000E+00  0.00000000E+00  0.00000000E+00
  0.00000000E+00  0.00000000E+00  0.00000000E+00
  0.00000000E+00  0.00000000E+00  0.00000000E+00
  0.00000000E+00  0.00000000E+00  0.00000000E+00
  0.00000000E+00  0.00000000E+00  0.00000000E+00
  0.00000000E+00  0.00000000E+00  0.00000000E+00
  0.00000000E+00  0.00000000E+00  0.00000000E+00
  0.00000000E+00  0.00000000E+00  0.00000000E+00
  0.00000000E+00  0.00000000E+00  0.00000000E+00
  0.00000000E+00  0.00000000E+00  0.00000000E+00
  0.00000000E+00  0.00000000E+00  0.00000000E+00
  0.00000000E+00  0.00000000E+00  0.00000000E+00
  0.00000000E+00  0.00000000E+00  0.00000000E+00
  0.00000000E+00  0.00000000E+00  0.00000000E+00
  0.00000000E+00  0.00000000E+00  0.00000000E+00
  0.00000000E+00  0.00000000E+00  0.00000000E+00
  0.00000000E+00  0.00000000E+00  0.00000000E+00
  0.00000000E+00  0.00000000E+00  0.00000000E+00
  0.00000000E+00  0.00000000E+00  0.00000000E+00
  0.00000000E+00  0.00000000E+00  0.00000000E+00
  0.00000000E+00  0.00000000E+00  0.00000000E+00
  0.00000000E+00  0.00000000E+00  0.00000000E+00
  0.00000000E+00  0.00000000E+00  0.00000000E+00
  0.00000000E+00  0.00000000E+00  0.00000000E+00
  0.00000000E+00  0.00000000E+00  0.00000000E+00
  0.00000000E+00  0.00000000E+00  0.00000000E+00
  0.00000000E+00  0.00000000E+00  0.00000000E+00
  0.00000000E+00  0.00000000E+00  0.00000000E+00
  0.00000000E+00  0.00000000E+00  0.00000000E+00
  0.00000000E+00  0.00000000E+00  0.00000000E+00
  0.00000000E+00  0.00000000E+00  0.00000000E+00
  0.00000000E+00  0.00000000E+00  0.00000000E+00
  0.00000000E+00  0.00000000E+00  0.00000000E+00
  0.00000000E+00  0.00000000E+00  0.00000000E+00
  0.00000000E+00  0.00000000E+00  0.00000000E+00
  0.00000000E+00  0.00000000E+00  0.00000000E+00
  0.00000000E+00  0.00000000E+00  0.00000000E+00
  0.00000000E+00  0.00000000E+00  0.00000000E+00
  0.00000000E+00  0.00000000E+00  0.00000000E+00
  0.00000000E+00  0.00000000E+00  0.00000000E+00
  0.00000000E+00  0.00000000E+00  0.00000000E+00
  0.00000000E+00  0.00000000E+00  0.00000000E+00
  0.00000000E+00  0.00000000E+00  0.00000000E+00
  0.00000000E+00  0.00000000E+00  0.00000000E+00
