CONTCAR\(2)                             
   1.00000000000000     
    14.1827001571999993    0.0000000000000000    0.0000000000000000
     0.0000000000000000   18.7943000793000010    0.0000000000000000
     0.0000000000000000    0.0000000000000000   21.0296001433999997
   Ta   Pt   Se   O    H 
    16     8    56     2     1
Direct
  0.1867649494157904  0.4223269373946478  0.5620243457477250
  0.0616036260800722  0.5782495351030856  0.4366178356876340
  0.0618401012531044  0.9042646234706467  0.4883211154484114
  0.1867293836216937  0.0966990669773417  0.5090251804579321
  0.4365664622781367  0.4223546340948343  0.5617772195652997
  0.3114101712951040  0.5782836110621417  0.4367578765151982
  0.3118939176029292  0.9043418591509769  0.4881238666502444
  0.4364820754966129  0.0964915219731787  0.5090976237007273
  0.6871453835321929  0.4226249887903992  0.5617764984207040
  0.5615744586041546  0.5783174869817368  0.4369066300792177
  0.5618541488688581  0.9041386647265034  0.4884458674253798
  0.6869496272349745  0.0965476374487849  0.5090778662999765
  0.9370058288441063  0.4223942362242067  0.5620519700935975
  0.8115479666398308  0.5783478829380735  0.4366366724532782
  0.8118616047215450  0.9043368269688388  0.4881727432888729
  0.9367783488323350  0.0967548394328820  0.5092006143282893
  0.0615724573511889  0.2260880484547827  0.5343003253036247
  0.1866872701167429  0.7746708076223200  0.4637113897350014
  0.3115710421097955  0.2257891794886129  0.5338494104020131
  0.4366366500389053  0.7748331267381220  0.4638989952570577
  0.5615186970109122  0.2260940346585616  0.5337862829540122
  0.6867035925775582  0.7747043345317726  0.4639391653358834
  0.8117081029056828  0.2260483869600890  0.5340898267406972
  0.9366916108066918  0.7748613916385767  0.4637835918630637
  0.0615062468658389  0.6973840910664221  0.5133277716426745
  0.1865333116479160  0.3035366156138940  0.4848873620828730
  0.0617270132387123  0.4351396087677971  0.4677676350740071
  0.1865231899585788  0.5656271973045289  0.5310445612763085
  0.1864836599542155  0.5254944011111807  0.3572986960855170
  0.0620552495667260  0.4748872423204947  0.6415399383145868
  0.1868019868926858  0.9838181868892949  0.4284646750267249
  0.0620175469585576  0.0171684573833267  0.5688124417511741
  0.0618638095396575  0.3362464812171742  0.6140628850151556
  0.1865907428174652  0.6642413445060769  0.3844308215300881
  0.1867347248822165  0.1727792441233394  0.6070179662083087
  0.0617131240098702  0.8277370407440118  0.3906394620113505
  0.0617775363982361  0.1463928096822332  0.4320093501264137
  0.1871380854622856  0.8549710008931014  0.5655389498140080
  0.3116072127388988  0.6973686256038474  0.5134636514858925
  0.4361771197514739  0.3035216346754867  0.4842429851558935
  0.3116944480822825  0.4351449467832101  0.4677892846349240
  0.4364350243926491  0.5656269562940608  0.5310656689885949
  0.4363945740382054  0.5255436799980778  0.3575417315521207
  0.3122576690457362  0.4739704050451289  0.6419064770233545
  0.4369543533487112  0.9838065902237966  0.4284499017371594
  0.3118891256443939  0.0170840027015426  0.5688461483664781
  0.3119173400679408  0.3363294542410503  0.6139895574894029
  0.4365369203258239  0.6640129785439336  0.3844849745295819
  0.4364164919623861  0.1728100431471259  0.6069239049068651
  0.3117753058843050  0.8276367920660779  0.3905333506248622
  0.3118330809191102  0.1458653502854782  0.4316384049702290
  0.4367448629941006  0.8552618953861566  0.5657001259243100
  0.5614727848415457  0.6975035092875239  0.5136138739241443
  0.6869784745146466  0.3036927001302825  0.4845301028142323
  0.5617301740409708  0.4349792292888364  0.4675974173517012
  0.6866185369336911  0.5658820857814538  0.5310674620942153
  0.6863125619103757  0.5257516911162068  0.3573040531027183
  0.5619748606977665  0.4749858317798698  0.6411082740819417
  0.6867344813395359  0.9837771786236770  0.4284174401376730
  0.5619825313518326  0.0171346313821984  0.5687544983941736
  0.5622626535685963  0.3352389564118703  0.6127046417591470
  0.6864496831680208  0.6643265499317851  0.3845432851482357
  0.6865087050782639  0.1727065324094888  0.6069212352699720
  0.5617220374422948  0.8275569354146403  0.3907876498230049
  0.5618475110705927  0.1462976368568827  0.4320292733749811
  0.6871819184479002  0.8550241221283125  0.5656821053793324
  0.8118331491299884  0.6973379465499778  0.5134529592397478
  0.9367873974785970  0.3036941972331799  0.4848703119705669
  0.8118246441103431  0.4352929870061473  0.4677365844386701
  0.9365869588783448  0.5656484880066465  0.5308279525442172
  0.9364155366101830  0.5258321953715818  0.3570083666136427
  0.8120647325695629  0.4748785183257878  0.6414939706832427
  0.9368440308638067  0.9839768042636740  0.4285274771415031
  0.8120165570081307  0.0171102284924706  0.5689004597276167
  0.8119511317904542  0.3364238880817388  0.6139916227813875
  0.9365286350504287  0.6641110065700940  0.3842605993363745
  0.9364403347656420  0.1728456496113507  0.6072234985120442
  0.8116290740726761  0.8275735218129582  0.3905908731736513
  0.8119578874262229  0.1461054021587175  0.4318483193397066
  0.9367795013355177  0.8552031633984225  0.5656116437174558
  0.4353976546698067  0.4017568830605169  0.7698679409955050
  0.4596308442787699  0.3337046503777081  0.7590801827607110
  0.4958682609275590  0.3344163536870263  0.7179740342657502
 
  0.00000000E+00  0.00000000E+00  0.00000000E+00
  0.00000000E+00  0.00000000E+00  0.00000000E+00
  0.00000000E+00  0.00000000E+00  0.00000000E+00
  0.00000000E+00  0.00000000E+00  0.00000000E+00
  0.00000000E+00  0.00000000E+00  0.00000000E+00
  0.00000000E+00  0.00000000E+00  0.00000000E+00
  0.00000000E+00  0.00000000E+00  0.00000000E+00
  0.00000000E+00  0.00000000E+00  0.00000000E+00
  0.00000000E+00  0.00000000E+00  0.00000000E+00
  0.00000000E+00  0.00000000E+00  0.00000000E+00
  0.00000000E+00  0.00000000E+00  0.00000000E+00
  0.00000000E+00  0.00000000E+00  0.00000000E+00
  0.00000000E+00  0.00000000E+00  0.00000000E+00
  0.00000000E+00  0.00000000E+00  0.00000000E+00
  0.00000000E+00  0.00000000E+00  0.00000000E+00
  0.00000000E+00  0.00000000E+00  0.00000000E+00
  0.00000000E+00  0.00000000E+00  0.00000000E+00
  0.00000000E+00  0.00000000E+00  0.00000000E+00
  0.00000000E+00  0.00000000E+00  0.00000000E+00
  0.00000000E+00  0.00000000E+00  0.00000000E+00
  0.00000000E+00  0.00000000E+00  0.00000000E+00
  0.00000000E+00  0.00000000E+00  0.00000000E+00
  0.00000000E+00  0.00000000E+00  0.00000000E+00
  0.00000000E+00  0.00000000E+00  0.00000000E+00
  0.00000000E+00  0.00000000E+00  0.00000000E+00
  0.00000000E+00  0.00000000E+00  0.00000000E+00
  0.00000000E+00  0.00000000E+00  0.00000000E+00
  0.00000000E+00  0.00000000E+00  0.00000000E+00
  0.00000000E+00  0.00000000E+00  0.00000000E+00
  0.00000000E+00  0.00000000E+00  0.00000000E+00
  0.00000000E+00  0.00000000E+00  0.00000000E+00
  0.00000000E+00  0.00000000E+00  0.00000000E+00
  0.00000000E+00  0.00000000E+00  0.00000000E+00
  0.00000000E+00  0.00000000E+00  0.00000000E+00
  0.00000000E+00  0.00000000E+00  0.00000000E+00
  0.00000000E+00  0.00000000E+00  0.00000000E+00
  0.00000000E+00  0.00000000E+00  0.00000000E+00
  0.00000000E+00  0.00000000E+00  0.00000000E+00
  0.00000000E+00  0.00000000E+00  0.00000000E+00
  0.00000000E+00  0.00000000E+00  0.00000000E+00
  0.00000000E+00  0.00000000E+00  0.00000000E+00
  0.00000000E+00  0.00000000E+00  0.00000000E+00
  0.00000000E+00  0.00000000E+00  0.00000000E+00
  0.00000000E+00  0.00000000E+00  0.00000000E+00
  0.00000000E+00  0.00000000E+00  0.00000000E+00
  0.00000000E+00  0.00000000E+00  0.00000000E+00
  0.00000000E+00  0.00000000E+00  0.00000000E+00
  0.00000000E+00  0.00000000E+00  0.00000000E+00
  0.00000000E+00  0.00000000E+00  0.00000000E+00
  0.00000000E+00  0.00000000E+00  0.00000000E+00
  0.00000000E+00  0.00000000E+00  0.00000000E+00
  0.00000000E+00  0.00000000E+00  0.00000000E+00
  0.00000000E+00  0.00000000E+00  0.00000000E+00
  0.00000000E+00  0.00000000E+00  0.00000000E+00
  0.00000000E+00  0.00000000E+00  0.00000000E+00
  0.00000000E+00  0.00000000E+00  0.00000000E+00
  0.00000000E+00  0.00000000E+00  0.00000000E+00
  0.00000000E+00  0.00000000E+00  0.00000000E+00
  0.00000000E+00  0.00000000E+00  0.00000000E+00
  0.00000000E+00  0.00000000E+00  0.00000000E+00
  0.00000000E+00  0.00000000E+00  0.00000000E+00
  0.00000000E+00  0.00000000E+00  0.00000000E+00
  0.00000000E+00  0.00000000E+00  0.00000000E+00
  0.00000000E+00  0.00000000E+00  0.00000000E+00
  0.00000000E+00  0.00000000E+00  0.00000000E+00
  0.00000000E+00  0.00000000E+00  0.00000000E+00
  0.00000000E+00  0.00000000E+00  0.00000000E+00
  0.00000000E+00  0.00000000E+00  0.00000000E+00
  0.00000000E+00  0.00000000E+00  0.00000000E+00
  0.00000000E+00  0.00000000E+00  0.00000000E+00
  0.00000000E+00  0.00000000E+00  0.00000000E+00
  0.00000000E+00  0.00000000E+00  0.00000000E+00
  0.00000000E+00  0.00000000E+00  0.00000000E+00
  0.00000000E+00  0.00000000E+00  0.00000000E+00
  0.00000000E+00  0.00000000E+00  0.00000000E+00
  0.00000000E+00  0.00000000E+00  0.00000000E+00
  0.00000000E+00  0.00000000E+00  0.00000000E+00
  0.00000000E+00  0.00000000E+00  0.00000000E+00
  0.00000000E+00  0.00000000E+00  0.00000000E+00
  0.00000000E+00  0.00000000E+00  0.00000000E+00
  0.00000000E+00  0.00000000E+00  0.00000000E+00
  0.00000000E+00  0.00000000E+00  0.00000000E+00
  0.00000000E+00  0.00000000E+00  0.00000000E+00
