CONTCAR\(5)                             
   1.00000000000000     
    12.5545997620000005    0.0000000000000000    0.0000000000000000
     6.2753582318000003   10.8725691462000000    0.0000000000000000
     0.0000000000000000    0.0000000000000000   18.6128997803000011
   Ta   Se   O    H 
    13    26     2     1
Selective dynamics
Direct
  0.9991603612382107  0.0005143458694192  0.4970378350172950   F   F   F
  0.7857189412377963  0.9315753501143575  0.4970686395879795   F   F   F
  0.2129109624018781  0.0697134865628684  0.4972049220996411   F   F   F
  0.2817959027804307  0.7867809550123326  0.4965709314211892   F   F   F
  0.7173194013008839  0.2134413418350931  0.4973267527233389   F   F   F
  0.0677622067724926  0.7176799865907739  0.4973557700112750   F   F   F
  0.9308242450052902  0.2829327470722660  0.4969119411162239   F   F   F
  0.8476476503292290  0.6392914967644927  0.4981053706917322   F   F   F
  0.1509987331896809  0.3611606055642298  0.4967026249697852   F   F   F
  0.5117957595663398  0.8492249121138258  0.4981403146952630   F   F   F
  0.4861249817404243  0.1524352147057897  0.4959448344848880   F   F   F
  0.3582329284876380  0.4875866215406504  0.4960080349651221   F   F   F
  0.6398154383785055  0.5141232631893686  0.4975835988522590   F   F   F
  0.9491399610113191  0.8769331728770808  0.5947909525899320   F   F   F
  0.0498707839477888  0.1238295570199313  0.3994153157217113   F   F   F
  0.1733337542236555  0.9498149518847114  0.5944456328988323   F   F   F
  0.8256005655762095  0.0506510697904687  0.3993030950299072   F   F   F
  0.8760626719135729  0.1741692835071404  0.5947669051375328   F   F   F
  0.1224733599000487  0.8263766717940371  0.3994804906644660   F   F   F
  0.2489014804684047  0.6493216356778930  0.5911521344518036   F   F   F
  0.7496912030364413  0.3514748054111578  0.4028104862497415   F   F   F
  0.1008151231673864  0.2498879318976179  0.5917665953762139   F   F   F
  0.8974853886380245  0.7506197946558757  0.4028174267879550   F   F   F
  0.6477535727301316  0.1018434303047044  0.5913818644739166   F   F   F
  0.3507970348855309  0.8989136621476419  0.4027363555201475   F   F   F
  0.0285541074380689  0.5652658053544783  0.5808207936759544   F   F   F
  0.9698884730612392  0.4355395519872118  0.4138408875842856   F   F   F
  0.4049346883125793  0.0301444738639489  0.5807692766673398   F   F   F
  0.5935295118342196  0.9709274372519729  0.4136692496223731   F   F   F
  0.5643538568677968  0.4061668335389896  0.5797968991881319   F   F   F
  0.4346726789527580  0.5941394988322983  0.4141361386429523   F   F   F
  0.7100012170127741  0.8048597985305932  0.5819162884308682   F   F   F
  0.2879604844609531  0.1963947965453556  0.4121481637425362   F   F   F
  0.4841615319213020  0.7112633643174533  0.5817593340312968   F   F   F
  0.5145027112257807  0.2896958189000642  0.4123181345057034   F   F   F
  0.8039583824191610  0.4848646326405230  0.5825352428473636   F   F   F
  0.1940809962058196  0.5157378092146274  0.4117277566223407   F   F   F
  0.3325634292392223  0.3334934694859726  0.5807391265312845   F   F   F
  0.6660111606083916  0.6671420450293652  0.4132608217369906   F   F   F
  0.3031106433157973  0.4804445559646098  0.7341492444509825   T   T   T
  0.4237439588571519  0.4390506997712649  0.7438227970745999   T   T   T
  0.4596694313396767  0.4282630098675782  0.6934851354100254   T   T   T
 
  0.00000000E+00  0.00000000E+00  0.00000000E+00
  0.00000000E+00  0.00000000E+00  0.00000000E+00
  0.00000000E+00  0.00000000E+00  0.00000000E+00
  0.00000000E+00  0.00000000E+00  0.00000000E+00
  0.00000000E+00  0.00000000E+00  0.00000000E+00
  0.00000000E+00  0.00000000E+00  0.00000000E+00
  0.00000000E+00  0.00000000E+00  0.00000000E+00
  0.00000000E+00  0.00000000E+00  0.00000000E+00
  0.00000000E+00  0.00000000E+00  0.00000000E+00
  0.00000000E+00  0.00000000E+00  0.00000000E+00
  0.00000000E+00  0.00000000E+00  0.00000000E+00
  0.00000000E+00  0.00000000E+00  0.00000000E+00
  0.00000000E+00  0.00000000E+00  0.00000000E+00
  0.00000000E+00  0.00000000E+00  0.00000000E+00
  0.00000000E+00  0.00000000E+00  0.00000000E+00
  0.00000000E+00  0.00000000E+00  0.00000000E+00
  0.00000000E+00  0.00000000E+00  0.00000000E+00
  0.00000000E+00  0.00000000E+00  0.00000000E+00
  0.00000000E+00  0.00000000E+00  0.00000000E+00
  0.00000000E+00  0.00000000E+00  0.00000000E+00
  0.00000000E+00  0.00000000E+00  0.00000000E+00
  0.00000000E+00  0.00000000E+00  0.00000000E+00
  0.00000000E+00  0.00000000E+00  0.00000000E+00
  0.00000000E+00  0.00000000E+00  0.00000000E+00
  0.00000000E+00  0.00000000E+00  0.00000000E+00
  0.00000000E+00  0.00000000E+00  0.00000000E+00
  0.00000000E+00  0.00000000E+00  0.00000000E+00
  0.00000000E+00  0.00000000E+00  0.00000000E+00
  0.00000000E+00  0.00000000E+00  0.00000000E+00
  0.00000000E+00  0.00000000E+00  0.00000000E+00
  0.00000000E+00  0.00000000E+00  0.00000000E+00
  0.00000000E+00  0.00000000E+00  0.00000000E+00
  0.00000000E+00  0.00000000E+00  0.00000000E+00
  0.00000000E+00  0.00000000E+00  0.00000000E+00
  0.00000000E+00  0.00000000E+00  0.00000000E+00
  0.00000000E+00  0.00000000E+00  0.00000000E+00
  0.00000000E+00  0.00000000E+00  0.00000000E+00
  0.00000000E+00  0.00000000E+00  0.00000000E+00
  0.00000000E+00  0.00000000E+00  0.00000000E+00
  0.00000000E+00  0.00000000E+00  0.00000000E+00
  0.00000000E+00  0.00000000E+00  0.00000000E+00
  0.00000000E+00  0.00000000E+00  0.00000000E+00
