CONTCAR\(2)                             
   1.00000000000000     
    10.4272003174000005    0.0000000000000000    0.0000000000000000
     0.0000000000000000   15.5413999556999993    0.0000000000000000
     0.0000000000000000    0.0000000000000000   22.9932003021000000
   Nb   Se   O    H 
    18    54     1     1
Direct
  0.0793033174348798  0.4898487916947049  0.4135333469789341
  0.2455038178721837  0.5048346810147009  0.5848851390432683
  0.0786661062365266  0.2449647699841629  0.5712562377390598
  0.2464418322659482  0.7493450424047926  0.4270490725545980
  0.0800368484235622  0.9122398407166512  0.5646888766815797
  0.2469780707792221  0.0806914437054156  0.4342727210995856
  0.4125183068865619  0.4895978288013497  0.4135150602886292
  0.5790342910842610  0.5048191705056367  0.5848667154235488
  0.4104347964285350  0.2454481250373227  0.5712419925854774
  0.5786698370147807  0.7493717785072099  0.4266667892848944
  0.4185041922555378  0.9131692119587652  0.5658655049454289
  0.5783185725616310  0.0814256645932659  0.4334782771042847
  0.7460725440359469  0.4896359467047243  0.4135521723407905
  0.9123448655088758  0.5047088732980067  0.5848800630393333
  0.7455821533912744  0.2450985143253435  0.5710931807726468
  0.9115582231057636  0.7494716404672405  0.4271625449872695
  0.7391824955236629  0.9125395208276122  0.5656624666294837
  0.9099656391875116  0.0804911718801495  0.4345893834360873
  0.0790497352696402  0.6309076707427965  0.6057737735506901
  0.2458214905093838  0.3636100616306050  0.3922308516256494
  0.0790569780558246  0.4153211361845368  0.5220209896664620
  0.2460648010962703  0.5789515323493348  0.4762658301598396
  0.0787322991556411  0.5109749494349789  0.6725957499103732
  0.2459052683941078  0.4836163948210019  0.3257823354165078
  0.2464272151452171  0.9161654141326248  0.4778018903420294
  0.0785535549973389  0.0772947498887066  0.5212790999395571
  0.2449158328458546  0.9859379457248464  0.6365318245859816
  0.0781785047416072  0.0070857383120328  0.3623351354139874
  0.2466300518733843  0.8246540363373943  0.6283500416385236
  0.0780601534820374  0.1688851070492974  0.3715924626095766
  0.2444346819381941  0.1587099974626501  0.6348055167279221
  0.0786893207912649  0.8357454339063172  0.3639931228543141
  0.2448172403708425  0.3432231600817153  0.6303645887107070
  0.0789390885043353  0.6518233437636596  0.3685253042956166
  0.2453563797861337  0.2406169956694058  0.4841684320038918
  0.0791670113860850  0.7531260139379782  0.5140888835860453
  0.4124026561677197  0.6309250837826841  0.6056688362430804
  0.5794416905720574  0.3635060722054398  0.3927232314164546
  0.4122226265185540  0.4154655016645584  0.5221673760895034
  0.5791828418403782  0.5788194833707385  0.4763197076553023
  0.4122101797561830  0.5110508500160857  0.6724896136747393
  0.5793296782697545  0.4834851808467027  0.3259068005101771
  0.5784926376033858  0.9160132304673685  0.4764145175110915
  0.4138128915574933  0.0776370606027793  0.5216581665839434
  0.5762051671924979  0.9940752309029228  0.6350234580798305
  0.4116489420765388  0.0078282626217104  0.3603808452274329
  0.5787299000063035  0.8228603593201832  0.6277764342816921
  0.4116039549607446  0.1695455165846856  0.3702138099554879
  0.5771955963878785  0.1633685907849134  0.6381785282049193
  0.4115401887523255  0.8358346511249636  0.3631730537237289
  0.5786650806835546  0.3418323287827350  0.6303921805334640
  0.4124864492687961  0.6513626010105387  0.3681259478729199
  0.5782887160285293  0.2411282524348812  0.4845224307537254
  0.4131490406962853  0.7533850383608010  0.5140363332682540
  0.7455616755662510  0.6308839307747210  0.6056042929474826
  0.9127927112648924  0.3636369066970020  0.3923256243097010
  0.7457277338207058  0.4153885995219108  0.5221459605902601
  0.9124727692536364  0.5789486199438553  0.4763410199165051
  0.7454633427724626  0.5110497572062755  0.6725170346424185
  0.9126686442076585  0.4835152767830833  0.3257951078535281
  0.9105422547397504  0.9160398739080159  0.4780787784581568
  0.7416543661513465  0.0770963698731930  0.5219987566556826
  0.9122029712161800  0.9866580470921249  0.6358086226656749
  0.7452951925912515  0.0078303241133906  0.3605953130063595
  0.9118033997630763  0.8245295755420412  0.6277804233870820
  0.7454471534257773  0.1696867630950627  0.3705747346691332
  0.9118892538587459  0.1585962031140395  0.6348412584334052
  0.7456885459170458  0.8358517680433819  0.3631556148640201
  0.9119549844646914  0.3427256731753057  0.6302271212703062
  0.7458558520477119  0.6514087533214207  0.3682770772164132
  0.9113803200460011  0.2403530710896784  0.4843643252281116
  0.7442935777272166  0.7533370766237522  0.5140321323497768
  0.5466101360042471  0.9844214617205518  0.7189948529104313
  0.6300309914825328  0.9971267266195779  0.7366853530671895
 
  0.00000000E+00  0.00000000E+00  0.00000000E+00
  0.00000000E+00  0.00000000E+00  0.00000000E+00
  0.00000000E+00  0.00000000E+00  0.00000000E+00
  0.00000000E+00  0.00000000E+00  0.00000000E+00
  0.00000000E+00  0.00000000E+00  0.00000000E+00
  0.00000000E+00  0.00000000E+00  0.00000000E+00
  0.00000000E+00  0.00000000E+00  0.00000000E+00
  0.00000000E+00  0.00000000E+00  0.00000000E+00
  0.00000000E+00  0.00000000E+00  0.00000000E+00
  0.00000000E+00  0.00000000E+00  0.00000000E+00
  0.00000000E+00  0.00000000E+00  0.00000000E+00
  0.00000000E+00  0.00000000E+00  0.00000000E+00
  0.00000000E+00  0.00000000E+00  0.00000000E+00
  0.00000000E+00  0.00000000E+00  0.00000000E+00
  0.00000000E+00  0.00000000E+00  0.00000000E+00
  0.00000000E+00  0.00000000E+00  0.00000000E+00
  0.00000000E+00  0.00000000E+00  0.00000000E+00
  0.00000000E+00  0.00000000E+00  0.00000000E+00
  0.00000000E+00  0.00000000E+00  0.00000000E+00
  0.00000000E+00  0.00000000E+00  0.00000000E+00
  0.00000000E+00  0.00000000E+00  0.00000000E+00
  0.00000000E+00  0.00000000E+00  0.00000000E+00
  0.00000000E+00  0.00000000E+00  0.00000000E+00
  0.00000000E+00  0.00000000E+00  0.00000000E+00
  0.00000000E+00  0.00000000E+00  0.00000000E+00
  0.00000000E+00  0.00000000E+00  0.00000000E+00
  0.00000000E+00  0.00000000E+00  0.00000000E+00
  0.00000000E+00  0.00000000E+00  0.00000000E+00
  0.00000000E+00  0.00000000E+00  0.00000000E+00
  0.00000000E+00  0.00000000E+00  0.00000000E+00
  0.00000000E+00  0.00000000E+00  0.00000000E+00
  0.00000000E+00  0.00000000E+00  0.00000000E+00
  0.00000000E+00  0.00000000E+00  0.00000000E+00
  0.00000000E+00  0.00000000E+00  0.00000000E+00
  0.00000000E+00  0.00000000E+00  0.00000000E+00
  0.00000000E+00  0.00000000E+00  0.00000000E+00
  0.00000000E+00  0.00000000E+00  0.00000000E+00
  0.00000000E+00  0.00000000E+00  0.00000000E+00
  0.00000000E+00  0.00000000E+00  0.00000000E+00
  0.00000000E+00  0.00000000E+00  0.00000000E+00
  0.00000000E+00  0.00000000E+00  0.00000000E+00
  0.00000000E+00  0.00000000E+00  0.00000000E+00
  0.00000000E+00  0.00000000E+00  0.00000000E+00
  0.00000000E+00  0.00000000E+00  0.00000000E+00
  0.00000000E+00  0.00000000E+00  0.00000000E+00
  0.00000000E+00  0.00000000E+00  0.00000000E+00
  0.00000000E+00  0.00000000E+00  0.00000000E+00
  0.00000000E+00  0.00000000E+00  0.00000000E+00
  0.00000000E+00  0.00000000E+00  0.00000000E+00
  0.00000000E+00  0.00000000E+00  0.00000000E+00
  0.00000000E+00  0.00000000E+00  0.00000000E+00
  0.00000000E+00  0.00000000E+00  0.00000000E+00
  0.00000000E+00  0.00000000E+00  0.00000000E+00
  0.00000000E+00  0.00000000E+00  0.00000000E+00
  0.00000000E+00  0.00000000E+00  0.00000000E+00
  0.00000000E+00  0.00000000E+00  0.00000000E+00
  0.00000000E+00  0.00000000E+00  0.00000000E+00
  0.00000000E+00  0.00000000E+00  0.00000000E+00
  0.00000000E+00  0.00000000E+00  0.00000000E+00
  0.00000000E+00  0.00000000E+00  0.00000000E+00
  0.00000000E+00  0.00000000E+00  0.00000000E+00
  0.00000000E+00  0.00000000E+00  0.00000000E+00
  0.00000000E+00  0.00000000E+00  0.00000000E+00
  0.00000000E+00  0.00000000E+00  0.00000000E+00
  0.00000000E+00  0.00000000E+00  0.00000000E+00
  0.00000000E+00  0.00000000E+00  0.00000000E+00
  0.00000000E+00  0.00000000E+00  0.00000000E+00
  0.00000000E+00  0.00000000E+00  0.00000000E+00
  0.00000000E+00  0.00000000E+00  0.00000000E+00
  0.00000000E+00  0.00000000E+00  0.00000000E+00
  0.00000000E+00  0.00000000E+00  0.00000000E+00
  0.00000000E+00  0.00000000E+00  0.00000000E+00
  0.00000000E+00  0.00000000E+00  0.00000000E+00
  0.00000000E+00  0.00000000E+00  0.00000000E+00
