CONTCAR\(9)                             
   1.00000000000000     
    12.3274002075000002    0.0000000000000000    0.0000000000000000
     0.0000000000000000   15.7540998459000008    0.0000000000000000
     0.0000000000000000    0.0000000000000000   20.2700004577999984
   Pr   Br   O    H 
    12    30     1     1
Direct
  0.2488407136175018  0.6335617339082175  0.5063124167977887
  0.0827251629454135  0.3551025280429552  0.4716544179135828
  0.2410089676650589  0.1304225404432691  0.5303025441365150
  0.0816246198327484  0.8594654059470819  0.4658418147034391
  0.5823566523339864  0.6399831610708487  0.5101047805269597
  0.4219989251930796  0.3648510788941349  0.4614263966736082
  0.5824948032128112  0.1164522169768319  0.6060821853554642
  0.4170214543423315  0.8686625556281022  0.4774814818052294
  0.9165731336790457  0.6333253923827178  0.5062826051274721
  0.7430914307231106  0.3650086911263453  0.4613090301079247
  0.9236185328728894  0.1311180586580370  0.5313891756347525
  0.7472207605617120  0.8679304158533361  0.4776586895208031
  0.2579524821834077  0.8898936394455110  0.3712749923162821
  0.0827821374928953  0.1292093619813388  0.6348402519979295
  0.2476146418975029  0.4798068291237705  0.4079728018125764
  0.0828910814258858  0.5095191545807353  0.5644466476614519
  0.0813683229196633  0.0569468596585978  0.4373166947677943
  0.2376829906660218  0.9342330369600935  0.5625244525327074
  0.0823760124148214  0.7337278632346402  0.5821446490427736
  0.2537090621901337  0.2463507412110383  0.4021239150198407
  0.0826980476960298  0.6839547935474829  0.4047470220844416
  0.2619891904565723  0.3149849400466140  0.5701333565806714
  0.5828442543917357  0.8951993581624818  0.3769937663792134
  0.3608103750371901  0.1028672404235784  0.6513200070182494
  0.5824385694299893  0.4940061145067954  0.4077555689864668
  0.4190581881920597  0.5119507760398682  0.5626818668230872
  0.4385311867246565  0.0721354915780302  0.4675482842596794
  0.5823105431043798  0.9224513453562683  0.5839874294707048
  0.4091579192021114  0.7348257710333800  0.5872747849462442
  0.5825332027332458  0.2697829197284649  0.3814538952748461
  0.4172205586357583  0.6927201831568953  0.4102029655508559
  0.5829527830374266  0.3047682043553592  0.5629667018227283
  0.9054916454673251  0.8897325353253697  0.3711247781298905
  0.8042879679395541  0.1042209686301147  0.6535409322422252
  0.9177985752154717  0.4797699250132033  0.4079629031991223
  0.7460251173289478  0.5118209687595463  0.5626069671108427
  0.7227039300899931  0.0746188712600057  0.4709068708301556
  0.9255267561021272  0.9348344469030544  0.5627786115654767
  0.7560387589504699  0.7346755036628889  0.5872912048696687
  0.9109253526722292  0.2462268689367594  0.4027387642150211
  0.7480031762875416  0.6922106375318027  0.4102406075476305
  0.9031171265125828  0.3158981141796085  0.5705339203793429
  0.5812705612279434  0.1767269442630846  0.6998172699364272
  0.6333245663946897  0.1965654214717406  0.7321713563221315
 
  0.00000000E+00  0.00000000E+00  0.00000000E+00
  0.00000000E+00  0.00000000E+00  0.00000000E+00
  0.00000000E+00  0.00000000E+00  0.00000000E+00
  0.00000000E+00  0.00000000E+00  0.00000000E+00
  0.00000000E+00  0.00000000E+00  0.00000000E+00
  0.00000000E+00  0.00000000E+00  0.00000000E+00
  0.00000000E+00  0.00000000E+00  0.00000000E+00
  0.00000000E+00  0.00000000E+00  0.00000000E+00
  0.00000000E+00  0.00000000E+00  0.00000000E+00
  0.00000000E+00  0.00000000E+00  0.00000000E+00
  0.00000000E+00  0.00000000E+00  0.00000000E+00
  0.00000000E+00  0.00000000E+00  0.00000000E+00
  0.00000000E+00  0.00000000E+00  0.00000000E+00
  0.00000000E+00  0.00000000E+00  0.00000000E+00
  0.00000000E+00  0.00000000E+00  0.00000000E+00
  0.00000000E+00  0.00000000E+00  0.00000000E+00
  0.00000000E+00  0.00000000E+00  0.00000000E+00
  0.00000000E+00  0.00000000E+00  0.00000000E+00
  0.00000000E+00  0.00000000E+00  0.00000000E+00
  0.00000000E+00  0.00000000E+00  0.00000000E+00
  0.00000000E+00  0.00000000E+00  0.00000000E+00
  0.00000000E+00  0.00000000E+00  0.00000000E+00
  0.00000000E+00  0.00000000E+00  0.00000000E+00
  0.00000000E+00  0.00000000E+00  0.00000000E+00
  0.00000000E+00  0.00000000E+00  0.00000000E+00
  0.00000000E+00  0.00000000E+00  0.00000000E+00
  0.00000000E+00  0.00000000E+00  0.00000000E+00
  0.00000000E+00  0.00000000E+00  0.00000000E+00
  0.00000000E+00  0.00000000E+00  0.00000000E+00
  0.00000000E+00  0.00000000E+00  0.00000000E+00
  0.00000000E+00  0.00000000E+00  0.00000000E+00
  0.00000000E+00  0.00000000E+00  0.00000000E+00
  0.00000000E+00  0.00000000E+00  0.00000000E+00
  0.00000000E+00  0.00000000E+00  0.00000000E+00
  0.00000000E+00  0.00000000E+00  0.00000000E+00
  0.00000000E+00  0.00000000E+00  0.00000000E+00
  0.00000000E+00  0.00000000E+00  0.00000000E+00
  0.00000000E+00  0.00000000E+00  0.00000000E+00
  0.00000000E+00  0.00000000E+00  0.00000000E+00
  0.00000000E+00  0.00000000E+00  0.00000000E+00
  0.00000000E+00  0.00000000E+00  0.00000000E+00
  0.00000000E+00  0.00000000E+00  0.00000000E+00
  0.00000000E+00  0.00000000E+00  0.00000000E+00
  0.00000000E+00  0.00000000E+00  0.00000000E+00
