 Cu3 Mo3 O12                            
   1.00000000000000     
     6.0845872844125504    0.0000000000000000    0.0000000000000000
    -2.8101639937055150   10.0349189453627865    0.0000000000000000
     0.0000000000000000    0.0000000000000000   17.4300738921400011
   Cu   Mo   O 
     3     3    12
Direct
  0.8924596764996805  0.9300126591352109  0.4535115766218982
  0.6932727272474534  0.3526525028930593  0.4437845550672114
  0.5510876011963571  0.5920384292707730  0.4082677816967810
  0.4087237285460180  0.0224921605052632  0.5047162499365329
  0.0567374166518799  0.6738329984762332  0.4469905122022143
  0.1890385927220148  0.2776198553117827  0.4922783561579069
  0.1664387362715690  0.8718447833916315  0.4611026488202012
  0.0817289467986122  0.6221959492029662  0.5380542039949432
  0.2967917070778189  0.6588511871233768  0.3929288763306281
  0.5026860625059424  0.2110366503423350  0.5042855736374776
  0.1640180776340686  0.3377112572007885  0.5810036266666725
  0.9495226771347235  0.2898899951210195  0.4377765964059675
  0.7878428166652235  0.7507752323548861  0.4232633291196415
  0.1085620134049820  0.0862373882057660  0.4961774200922329
  0.4113480052724138  0.4028341306335504  0.4353313385923045
  0.4465214534861317 -0.0244883210526855  0.5953845225444563
  0.8226793253456153  0.5304141036104651  0.4050489032287040
  0.6273384355394834  0.9891660382735855  0.4471921890930620
 
  0.00000000E+00  0.00000000E+00  0.00000000E+00
  0.00000000E+00  0.00000000E+00  0.00000000E+00
  0.00000000E+00  0.00000000E+00  0.00000000E+00
  0.00000000E+00  0.00000000E+00  0.00000000E+00
  0.00000000E+00  0.00000000E+00  0.00000000E+00
  0.00000000E+00  0.00000000E+00  0.00000000E+00
  0.00000000E+00  0.00000000E+00  0.00000000E+00
  0.00000000E+00  0.00000000E+00  0.00000000E+00
  0.00000000E+00  0.00000000E+00  0.00000000E+00
  0.00000000E+00  0.00000000E+00  0.00000000E+00
  0.00000000E+00  0.00000000E+00  0.00000000E+00
  0.00000000E+00  0.00000000E+00  0.00000000E+00
  0.00000000E+00  0.00000000E+00  0.00000000E+00
  0.00000000E+00  0.00000000E+00  0.00000000E+00
  0.00000000E+00  0.00000000E+00  0.00000000E+00
  0.00000000E+00  0.00000000E+00  0.00000000E+00
  0.00000000E+00  0.00000000E+00  0.00000000E+00
  0.00000000E+00  0.00000000E+00  0.00000000E+00
