CONTCAR\(3)                             
   1.00000000000000     
    10.9738998412999997    0.0000000000000000    0.0000000000000000
     0.0000000000000000   10.9738998412999997    0.0000000000000000
     0.0000000000000000    0.0000000000000000   19.0231990814000014
   Li   Co   As   O    H 
    18    18    18     2     1
Direct
  0.1668801583406777 -0.0000687493903292  0.6084273319232002
 -0.0001061499859820  0.1647961203636404  0.3954996293613364
  0.4998449793542501  0.0001460698465653  0.6072766465963582
  0.3329349367230945  0.1645891227067075  0.3954673569331804
  0.8329780794432718 -0.0000978631111409  0.6084511050529315
  0.6668359563570937  0.1646301558230122  0.3954796203484938
  0.1681622154636252  0.3347712408708376  0.6086837766761107
  0.9999601239242994  0.5000379124957455  0.3941146577265111
  0.5001064417366122  0.3458362982146607  0.6283830392132485
  0.3322805500056060  0.4999093917416215  0.3952855191644795
  0.8316483967092719  0.3346890271403719  0.6086771507432621
  0.6675462602984610  0.4998585411789312  0.3953218161360493
  0.1676511777523736  0.6648070290884109  0.6070996837324966
  0.9999421163941681  0.8348731274731751  0.3955686579976064
  0.5000180006307925  0.6532816075099961  0.6247669376945928
  0.3330783158126995  0.8352043722528986  0.3953585380167532
  0.8321937942251937  0.6648740250131253  0.6071719454445403
  0.6668640060246587  0.8352153378660041  0.3954122733731789
  0.1662529277291146  0.1666005318752218  0.5019284139233747
  0.9999153529195717 -0.0002340629307691  0.5020702024447550
  0.4997931790038048  0.1679748567848467  0.5019827112307462
  0.3328645280421464  0.9998388793532037  0.5023923592067554
  0.8335213898671725  0.1664933384001909  0.5020095731866627
  0.6668400583594536  0.9997550948647007  0.5023638300983178
  0.1638924568031194  0.4999224915732230  0.4982754423292357
  0.9999637435718607  0.3325163958123827  0.5016202047961108
  0.4998337406107689  0.4998928025237711  0.4989026259559445
  0.3329582224255676  0.3315208215606916  0.4994191152373288
  0.8358181277810371  0.4999511249835987  0.4982560645497726
  0.6667273911220962  0.3315091015125838  0.4994217524424398
  0.1664627338101583  0.8333290708727035  0.5020197505947528
  0.9999072917373663  0.6671587744573562  0.5015683633234400
  0.4998621565063846  0.8316385339596375  0.5020445066591002
  0.3331477739325921  0.6682487269073687  0.4993714171413822
  0.8334609554160244  0.8333463168126822  0.5020083034638518
  0.6666344886594840  0.6682903927535211  0.4993506056065411
  0.9999124364853875  0.1665090089478376  0.5791662108998575
  0.1664805533103079 -0.0000350887554970  0.4254723198661000
  0.3335633068382394  0.1677648596835053  0.5781734404694425
  0.4998352209563428 -0.0001635033570392  0.4264634715078440
  0.6660658390038385  0.1676584568410842  0.5781497216563947
  0.8333402989494175 -0.0000505932013920  0.4254770773592396
 -0.0002067501841462  0.4996827445785426  0.5777542031511607
  0.1656502051423051  0.3314131121966874  0.4234801916391376
  0.3308727245692337  0.4995439200518652  0.5719847767217668
  0.4998592911864507  0.3324448200071041  0.4226346482082559
  0.6689179488683505  0.4994760368979625  0.5719070213456020
  0.8342023171557001  0.3313044091706608  0.4235330897317989
 -0.0000115611527532  0.8329871885218594  0.5792398929384617
  0.1657534301038077  0.6684779633060428  0.4235929637913413
  0.3337109286751118  0.8321121536799050  0.5784807126804795
  0.4999101423323223  0.6673322078627052  0.4225133897623636
  0.6660880836087146  0.8321256981116679  0.5784401757542267
  0.8341013789090400  0.6684890224873917  0.4235987903891248
  0.5006275899828267  0.5673003182267516  0.7122394025708689
  0.4995495945528043  0.4327220384017505  0.7104438820354406
  0.4967807881988065  0.5818688611794430  0.7626138301962615
 
  0.00000000E+00  0.00000000E+00  0.00000000E+00
  0.00000000E+00  0.00000000E+00  0.00000000E+00
  0.00000000E+00  0.00000000E+00  0.00000000E+00
  0.00000000E+00  0.00000000E+00  0.00000000E+00
  0.00000000E+00  0.00000000E+00  0.00000000E+00
  0.00000000E+00  0.00000000E+00  0.00000000E+00
  0.00000000E+00  0.00000000E+00  0.00000000E+00
  0.00000000E+00  0.00000000E+00  0.00000000E+00
  0.00000000E+00  0.00000000E+00  0.00000000E+00
  0.00000000E+00  0.00000000E+00  0.00000000E+00
  0.00000000E+00  0.00000000E+00  0.00000000E+00
  0.00000000E+00  0.00000000E+00  0.00000000E+00
  0.00000000E+00  0.00000000E+00  0.00000000E+00
  0.00000000E+00  0.00000000E+00  0.00000000E+00
  0.00000000E+00  0.00000000E+00  0.00000000E+00
  0.00000000E+00  0.00000000E+00  0.00000000E+00
  0.00000000E+00  0.00000000E+00  0.00000000E+00
  0.00000000E+00  0.00000000E+00  0.00000000E+00
  0.00000000E+00  0.00000000E+00  0.00000000E+00
  0.00000000E+00  0.00000000E+00  0.00000000E+00
  0.00000000E+00  0.00000000E+00  0.00000000E+00
  0.00000000E+00  0.00000000E+00  0.00000000E+00
  0.00000000E+00  0.00000000E+00  0.00000000E+00
  0.00000000E+00  0.00000000E+00  0.00000000E+00
  0.00000000E+00  0.00000000E+00  0.00000000E+00
  0.00000000E+00  0.00000000E+00  0.00000000E+00
  0.00000000E+00  0.00000000E+00  0.00000000E+00
  0.00000000E+00  0.00000000E+00  0.00000000E+00
  0.00000000E+00  0.00000000E+00  0.00000000E+00
  0.00000000E+00  0.00000000E+00  0.00000000E+00
  0.00000000E+00  0.00000000E+00  0.00000000E+00
  0.00000000E+00  0.00000000E+00  0.00000000E+00
  0.00000000E+00  0.00000000E+00  0.00000000E+00
  0.00000000E+00  0.00000000E+00  0.00000000E+00
  0.00000000E+00  0.00000000E+00  0.00000000E+00
  0.00000000E+00  0.00000000E+00  0.00000000E+00
  0.00000000E+00  0.00000000E+00  0.00000000E+00
  0.00000000E+00  0.00000000E+00  0.00000000E+00
  0.00000000E+00  0.00000000E+00  0.00000000E+00
  0.00000000E+00  0.00000000E+00  0.00000000E+00
  0.00000000E+00  0.00000000E+00  0.00000000E+00
  0.00000000E+00  0.00000000E+00  0.00000000E+00
  0.00000000E+00  0.00000000E+00  0.00000000E+00
  0.00000000E+00  0.00000000E+00  0.00000000E+00
  0.00000000E+00  0.00000000E+00  0.00000000E+00
  0.00000000E+00  0.00000000E+00  0.00000000E+00
  0.00000000E+00  0.00000000E+00  0.00000000E+00
  0.00000000E+00  0.00000000E+00  0.00000000E+00
  0.00000000E+00  0.00000000E+00  0.00000000E+00
  0.00000000E+00  0.00000000E+00  0.00000000E+00
  0.00000000E+00  0.00000000E+00  0.00000000E+00
  0.00000000E+00  0.00000000E+00  0.00000000E+00
  0.00000000E+00  0.00000000E+00  0.00000000E+00
  0.00000000E+00  0.00000000E+00  0.00000000E+00
  0.00000000E+00  0.00000000E+00  0.00000000E+00
  0.00000000E+00  0.00000000E+00  0.00000000E+00
  0.00000000E+00  0.00000000E+00  0.00000000E+00
