CONTCAR\(4)                             
   1.00000000000000     
    15.8002004622999994    0.0000000000000000    0.0000000000000000
     7.9001002311999997   13.6833749853000004    0.0000000000000000
     0.0000000000000000    0.0000000000000000   21.9174003601000003
   Ce   Br   O 
    32    32    33
Direct
  0.1664753062112183  0.1670463049429571  0.4320559008411635
  0.0840307643511622  0.0829585030427324  0.5658860227586615
  0.4165076423672645  0.1665391914581775  0.4334329593755939
  0.3329832860365940  0.0830042313823043  0.5659296473663389
  0.6649200928758745  0.1701663876950832  0.4380668789500888
  0.5830330145980156  0.0824895708110347  0.5685278432565681
  0.9169823003295789  0.1665198205544343  0.4333896043198351
  0.8344710451824824  0.0824795165756740  0.5685298069563558
  0.1677306251202282  0.4163384724014207  0.4329787497675497
  0.0832271258212671  0.3334942240801055  0.5656631155052025
  0.4201617548735825  0.4149181387412995  0.4381266237100547
  0.3324557742764114  0.3330190245094471  0.5685659520213733
  0.6649175478870646  0.4148812621747595  0.4381098983463971
  0.5833373793888939  0.3333070470457073  0.5955289792580274
  0.9158891881968287  0.4163528059431698  0.4330089883682291
  0.8344860398217762  0.3329685611246944  0.5685908226056284
  0.1677604007076852  0.6659042331208411  0.4329650144036066
  0.0830975731682742  0.5834565125944877  0.5666603674460546
  0.4164972064936379  0.6669814827095024  0.4334607748337405
  0.3324581204482655  0.5845152960089521  0.5685859805017444
  0.6663684467818172  0.6658885124280474  0.4330090670263473
  0.5829873233624241  0.5844849547350748  0.5686050693989912
  0.9166602540998028  0.6666690337102281  0.4327283281422751
  0.8334561192131389  0.5834247898216418  0.5666993366339383
  0.1664836534919729  0.9165071910806262  0.4320445820601719
  0.0832252409453602  0.8332665559955004  0.5656367080871263
  0.4170212299509188  0.9164877193822889  0.4320930966083978
  0.3329629249029153  0.8340474572849743  0.5659533568231652
  0.6663580186970677  0.9177640565228842  0.4329900566703273
  0.5834821674842274  0.8332701866834213  0.5656948582573875
  0.9158787650668998  0.9177804970979651  0.4329542576636243
  0.8334246937887784  0.8331444335778642  0.5666771260904397
  0.0057056260271722  0.9947630516178663  0.6572813371934885
  0.9991709645318068  0.0004942846849474  0.3413291848934961
  0.2500044269462904  0.0000801988652555  0.6574106043366399
  0.2500161065258339  0.9999985495403791  0.3406807322072183
  0.4995010981072738  0.9948262478222247  0.6572845059773513
  0.5003312345080602  0.0004609119414454  0.3413666120536192
  0.7510773813686384  0.9978317631378388  0.6591705972946542
  0.7483235264517560  0.0033332030238640  0.3433197469594731
  0.0057064670806568  0.2495005788590561  0.6573022213143602
  0.9991884484984368  0.2503473172741977  0.3413601823175227
  0.2447806533778802  0.2495215593103168  0.6573083132899455
  0.2504620573267502  0.2503434582434991  0.3413538351876824
  0.4810198418755860  0.2310208493962662  0.6622232222152959
  0.5003628245484677  0.2504025084101045  0.3445148759023908
  0.7881385776684269  0.2308335885016390  0.6622672607338416
  0.7492280674201339  0.2504141969614437  0.3445048329428460
  0.9999111804940313  0.5001757618997900  0.6575722635231358
  0.0001236200407746  0.4997108914088813  0.3419142794042003
  0.2477953924609224  0.5011037669557794  0.6592011956518249
  0.2533227880150122  0.4983463805594326  0.3433546603361677
  0.4809282283657481  0.5380511466973772  0.6622753951816875
  0.5003919627130742  0.4992210640442352  0.3445329192743429
  0.7510937079510782  0.5010623660405571  0.6592095556242015
  0.7482823691627587  0.4983335302259988  0.3433733160382531
  0.9998843173201308  0.7499337023318233  0.6575509642353836
  0.0001384172822938  0.7501396740936883  0.3418955316707226
  0.2447643665022667  0.7557285960206670  0.6573003083329780
  0.2504942165703099  0.7491653323699978  0.3413389957670603
  0.4994932275621693  0.7556993590225503  0.6573190144462586
  0.5003461473068143  0.7491667699970250  0.3413632025760052
  0.7502015782705058  0.7499272691903798  0.6575768619579065
  0.7497072041740651  0.7501275598767023  0.3419062581639309
  0.1666932007218023  0.1666146511732407  0.5387425659539744
  0.0843150409819415  0.0828279830968981  0.4588135354796847
  0.4154434741869864  0.1654723750950211  0.5389868757262803
  0.3328475485407481  0.0828492490534884  0.4588492221567861
  0.6679231128283476  0.1642408838868477  0.5461172446179674
  0.5828672501516294  0.0849955184650568  0.4611638856987526
  0.9191486451830357  0.1654018152875736  0.5389718375929817
  0.8320768564763270  0.0850260378735612  0.4611499379643789
  0.1661352773011089  0.4173496046870255  0.5398270433421004
  0.0830452451783117  0.3338310239325466  0.4590241359069722
  0.4142168863917490  0.4179195048672781  0.5461964688591934
  0.3349627255762826  0.3328949239325425  0.4611958036255857
  0.6678549730269836  0.4178230655922590  0.5462087466445169
  0.5833237160551334  0.3333230825442186  0.4599018169145310
  0.9164461784739473  0.4173307280786744  0.5398601438207251
  0.8320749153187634  0.3329170506883230  0.4612141516695445
  0.1662010783851287  0.6664947109536499  0.5397974782985031
  0.0837081281670962  0.5831418617609216  0.4594772163323881
  0.4153821321148996  0.6691777131015613  0.5390076311376575
  0.3349902721277402  0.5820931169135548  0.4611996646665517
  0.6673642492465675  0.6664573257606108  0.5398594849477902
  0.5829297102052706  0.5820763637388922  0.4612208649909562
  0.9166438583158438  0.6666973278066237  0.5396349310511823
  0.8331292188976320  0.5831603505121237  0.4595111582249274
  0.1667180537712341  0.9166892461859248  0.5387300668291672
  0.0830790903056879  0.8330905613381887  0.4589724584625472
  0.4165825364568008  0.9167158688248307  0.5387644872801260
  0.3328170879182721  0.8343153998165178  0.4588504930144950
  0.6673681114390320  0.9161504675147896  0.5398182999296139
  0.5838493014785016  0.8330526799137559  0.4590282116297075
  0.9164495770128482  0.9162294976191490  0.5397885164642915
  0.8331323822767303  0.8337018912391869  0.4594754048530731
  0.5834813660911493  0.3333181851825699  0.6788385008548374
 
  0.00000000E+00  0.00000000E+00  0.00000000E+00
  0.00000000E+00  0.00000000E+00  0.00000000E+00
  0.00000000E+00  0.00000000E+00  0.00000000E+00
  0.00000000E+00  0.00000000E+00  0.00000000E+00
  0.00000000E+00  0.00000000E+00  0.00000000E+00
  0.00000000E+00  0.00000000E+00  0.00000000E+00
  0.00000000E+00  0.00000000E+00  0.00000000E+00
  0.00000000E+00  0.00000000E+00  0.00000000E+00
  0.00000000E+00  0.00000000E+00  0.00000000E+00
  0.00000000E+00  0.00000000E+00  0.00000000E+00
  0.00000000E+00  0.00000000E+00  0.00000000E+00
  0.00000000E+00  0.00000000E+00  0.00000000E+00
  0.00000000E+00  0.00000000E+00  0.00000000E+00
  0.00000000E+00  0.00000000E+00  0.00000000E+00
  0.00000000E+00  0.00000000E+00  0.00000000E+00
  0.00000000E+00  0.00000000E+00  0.00000000E+00
  0.00000000E+00  0.00000000E+00  0.00000000E+00
  0.00000000E+00  0.00000000E+00  0.00000000E+00
  0.00000000E+00  0.00000000E+00  0.00000000E+00
  0.00000000E+00  0.00000000E+00  0.00000000E+00
  0.00000000E+00  0.00000000E+00  0.00000000E+00
  0.00000000E+00  0.00000000E+00  0.00000000E+00
  0.00000000E+00  0.00000000E+00  0.00000000E+00
  0.00000000E+00  0.00000000E+00  0.00000000E+00
  0.00000000E+00  0.00000000E+00  0.00000000E+00
  0.00000000E+00  0.00000000E+00  0.00000000E+00
  0.00000000E+00  0.00000000E+00  0.00000000E+00
  0.00000000E+00  0.00000000E+00  0.00000000E+00
  0.00000000E+00  0.00000000E+00  0.00000000E+00
  0.00000000E+00  0.00000000E+00  0.00000000E+00
  0.00000000E+00  0.00000000E+00  0.00000000E+00
  0.00000000E+00  0.00000000E+00  0.00000000E+00
  0.00000000E+00  0.00000000E+00  0.00000000E+00
  0.00000000E+00  0.00000000E+00  0.00000000E+00
  0.00000000E+00  0.00000000E+00  0.00000000E+00
  0.00000000E+00  0.00000000E+00  0.00000000E+00
  0.00000000E+00  0.00000000E+00  0.00000000E+00
  0.00000000E+00  0.00000000E+00  0.00000000E+00
  0.00000000E+00  0.00000000E+00  0.00000000E+00
  0.00000000E+00  0.00000000E+00  0.00000000E+00
  0.00000000E+00  0.00000000E+00  0.00000000E+00
  0.00000000E+00  0.00000000E+00  0.00000000E+00
  0.00000000E+00  0.00000000E+00  0.00000000E+00
  0.00000000E+00  0.00000000E+00  0.00000000E+00
  0.00000000E+00  0.00000000E+00  0.00000000E+00
  0.00000000E+00  0.00000000E+00  0.00000000E+00
  0.00000000E+00  0.00000000E+00  0.00000000E+00
  0.00000000E+00  0.00000000E+00  0.00000000E+00
  0.00000000E+00  0.00000000E+00  0.00000000E+00
  0.00000000E+00  0.00000000E+00  0.00000000E+00
  0.00000000E+00  0.00000000E+00  0.00000000E+00
  0.00000000E+00  0.00000000E+00  0.00000000E+00
  0.00000000E+00  0.00000000E+00  0.00000000E+00
  0.00000000E+00  0.00000000E+00  0.00000000E+00
  0.00000000E+00  0.00000000E+00  0.00000000E+00
  0.00000000E+00  0.00000000E+00  0.00000000E+00
  0.00000000E+00  0.00000000E+00  0.00000000E+00
  0.00000000E+00  0.00000000E+00  0.00000000E+00
  0.00000000E+00  0.00000000E+00  0.00000000E+00
  0.00000000E+00  0.00000000E+00  0.00000000E+00
  0.00000000E+00  0.00000000E+00  0.00000000E+00
  0.00000000E+00  0.00000000E+00  0.00000000E+00
  0.00000000E+00  0.00000000E+00  0.00000000E+00
  0.00000000E+00  0.00000000E+00  0.00000000E+00
  0.00000000E+00  0.00000000E+00  0.00000000E+00
  0.00000000E+00  0.00000000E+00  0.00000000E+00
  0.00000000E+00  0.00000000E+00  0.00000000E+00
  0.00000000E+00  0.00000000E+00  0.00000000E+00
  0.00000000E+00  0.00000000E+00  0.00000000E+00
  0.00000000E+00  0.00000000E+00  0.00000000E+00
  0.00000000E+00  0.00000000E+00  0.00000000E+00
  0.00000000E+00  0.00000000E+00  0.00000000E+00
  0.00000000E+00  0.00000000E+00  0.00000000E+00
  0.00000000E+00  0.00000000E+00  0.00000000E+00
  0.00000000E+00  0.00000000E+00  0.00000000E+00
  0.00000000E+00  0.00000000E+00  0.00000000E+00
  0.00000000E+00  0.00000000E+00  0.00000000E+00
  0.00000000E+00  0.00000000E+00  0.00000000E+00
  0.00000000E+00  0.00000000E+00  0.00000000E+00
  0.00000000E+00  0.00000000E+00  0.00000000E+00
  0.00000000E+00  0.00000000E+00  0.00000000E+00
  0.00000000E+00  0.00000000E+00  0.00000000E+00
  0.00000000E+00  0.00000000E+00  0.00000000E+00
  0.00000000E+00  0.00000000E+00  0.00000000E+00
  0.00000000E+00  0.00000000E+00  0.00000000E+00
  0.00000000E+00  0.00000000E+00  0.00000000E+00
  0.00000000E+00  0.00000000E+00  0.00000000E+00
  0.00000000E+00  0.00000000E+00  0.00000000E+00
  0.00000000E+00  0.00000000E+00  0.00000000E+00
  0.00000000E+00  0.00000000E+00  0.00000000E+00
  0.00000000E+00  0.00000000E+00  0.00000000E+00
  0.00000000E+00  0.00000000E+00  0.00000000E+00
  0.00000000E+00  0.00000000E+00  0.00000000E+00
  0.00000000E+00  0.00000000E+00  0.00000000E+00
  0.00000000E+00  0.00000000E+00  0.00000000E+00
  0.00000000E+00  0.00000000E+00  0.00000000E+00
  0.00000000E+00  0.00000000E+00  0.00000000E+00
