Repeated-UnitCell:     3    1    1      
   1.00000000000000     
    10.5813773811478580    0.0000000000000000    0.0000000000000000
     1.7537661773037636    9.5587816967464647    0.0000000000000000
     0.0000000000000000    0.0000000000000000   19.0791961215089998
   Ta   Te
     9    18
Direct
  0.2135812657411186  0.7130171815396658  0.5034851039250536
  0.5469145990744543  0.7130171815396658  0.5034851039250536
  0.8802479324077900  0.7130171815396658  0.5034851039250536
  0.1183279702370150  0.2848165247722064  0.4965592132904414
  0.4516613035703507  0.2848165247722064  0.4965592132904414
  0.7849946369036793  0.2848165247722064  0.4965592132904414
  0.3326644366409781  0.9988592331283694  0.5000132763818674
  0.6659977699743138  0.9988592331283694  0.5000132763818674
  0.9993311033076495  0.9988592331283694  0.5000132763818674
  0.1834218576807825  0.8935334690423364  0.3948521661969195
  0.5167551910141182  0.8935334690423364  0.3948521661969195
  0.8500885243474539  0.8935334690423364  0.3948521661969195
  0.1485699436456258  0.1042600391510550  0.6051638982066125
  0.4819032769789615  0.1042600391510550  0.6051638982066125
  0.8152366103122901  0.1042600391510550  0.6051638982066125
  0.0739113359044726  0.5503173820625830  0.4200587959132445
  0.4072446692378012  0.5503173820625830  0.4200587959132445
  0.7405780025711368  0.5503173820625830  0.4200587959132445
  0.0349180968031744  0.7852496940054893  0.6080133935898925
  0.3682514301365101  0.7852496940054893  0.6080133935898925
  0.7015847634698459  0.7852496940054893  0.6080133935898925
  0.2969688643997815  0.2125216596439030  0.3920503611111608
  0.6303021977331171  0.2125216596439030  0.3920503611111608
  0.9636355310664528  0.2125216596439030  0.3920503611111608
  0.2580597701793210  0.4475308422974855  0.5799796818357480
  0.5913931035126567  0.4475308422974855  0.5799796818357480
  0.9247264368459853  0.4475308422974855  0.5799796818357480
 
  0.00000000E+00  0.00000000E+00  0.00000000E+00
  0.00000000E+00  0.00000000E+00  0.00000000E+00
  0.00000000E+00  0.00000000E+00  0.00000000E+00
  0.00000000E+00  0.00000000E+00  0.00000000E+00
  0.00000000E+00  0.00000000E+00  0.00000000E+00
  0.00000000E+00  0.00000000E+00  0.00000000E+00
  0.00000000E+00  0.00000000E+00  0.00000000E+00
  0.00000000E+00  0.00000000E+00  0.00000000E+00
  0.00000000E+00  0.00000000E+00  0.00000000E+00
  0.00000000E+00  0.00000000E+00  0.00000000E+00
  0.00000000E+00  0.00000000E+00  0.00000000E+00
  0.00000000E+00  0.00000000E+00  0.00000000E+00
  0.00000000E+00  0.00000000E+00  0.00000000E+00
  0.00000000E+00  0.00000000E+00  0.00000000E+00
  0.00000000E+00  0.00000000E+00  0.00000000E+00
  0.00000000E+00  0.00000000E+00  0.00000000E+00
  0.00000000E+00  0.00000000E+00  0.00000000E+00
  0.00000000E+00  0.00000000E+00  0.00000000E+00
  0.00000000E+00  0.00000000E+00  0.00000000E+00
  0.00000000E+00  0.00000000E+00  0.00000000E+00
  0.00000000E+00  0.00000000E+00  0.00000000E+00
  0.00000000E+00  0.00000000E+00  0.00000000E+00
  0.00000000E+00  0.00000000E+00  0.00000000E+00
  0.00000000E+00  0.00000000E+00  0.00000000E+00
  0.00000000E+00  0.00000000E+00  0.00000000E+00
  0.00000000E+00  0.00000000E+00  0.00000000E+00
  0.00000000E+00  0.00000000E+00  0.00000000E+00
