CONTCAR\(16)                            
   1.00000000000000     
    13.4193000792999992    0.0000000000000000    0.0000000000000000
    -6.7096904058000000   11.6164658410000001    0.0000000000000000
     0.0000000000000000    0.0000000000000000   30.7367992401000016
   Bi   Te   Pb   O 
    18    45    18     1
Direct
  0.1100923649321039  0.2217407708368074  0.4353327242249244
  0.2217494448611619  0.1101589087223150  0.5650521269778482
  0.4449783909047023  0.2217407708368074  0.4353327242249244
  0.5538138298728801  0.1087417741541387  0.5652924147933930
  0.7773430852892012  0.2213362425784122  0.4357392513323740
  0.8882779102812587  0.1087417741541387  0.5652924147933930
  0.1102596319636207  0.5535381254236793  0.4352875295687118
  0.2223121274308943  0.4434572693121049  0.5649865182924285
  0.4440440652121078  0.5547681764242117  0.4353543236658888
  0.5544851028812108  0.4434572693121049  0.5649865182924285
  0.7766284374600573  0.5535381254236793  0.4352875295687118
  0.8908620350998476  0.4483840371996898  0.5654703808435071
  0.1113967454310297  0.8894534808620518  0.4345024987235713
  0.2219848843570068  0.7772679055219870  0.5647302398498389
  0.4444965086332711  0.8890235488479945  0.4352032465537124
  0.5545526973394029  0.7757553986788034  0.5650703000198285
  0.7778569932147268  0.8890235488479945  0.4352032465537124
  0.8886230151649795  0.7772679055219870  0.5647302398498389
  0.2240510443232953  0.1147720896465906  0.7589151769464438
  0.2221484191407243  0.1109568522814358  0.3802396002755447
  0.1113832710042526  0.2214955998109601  0.6200233776411195
  0.9996692017811497  0.9989984990198263  0.5002304728784388
  0.1110948028453183  0.2221227906579172  0.2420076408672586
  0.5596817569388187  0.1109703884455948  0.7552431348083724
  0.5553078918904034  0.1102221508354544  0.3801473947482984
  0.4434423528067061  0.2214955998109601  0.6200233776411195
  0.3326593022386765  0.9989984990198263  0.5002304728784388
  0.4443580148126083  0.2221227906579172  0.2420076408672586
  0.8846286505067812  0.1109703884455948  0.7552431348083724
  0.8882542449450563  0.1102221508354544  0.3801473947482984
  0.7753651438578945  0.2174002637157971  0.6214555101117680
  0.6662526889589953  0.9991653159179789  0.5004800132114869
  0.7772928540734230  0.2212455891468405  0.2419718565345756
  0.2231093611436903  0.4491271369221485  0.7589995590626590
  0.2221857325417573  0.4438140751047807  0.3803183711679238
  0.1122769724316400  0.5556703502018338  0.6205768992850896
  0.9988186057524256  0.3314747144346272  0.5004362569021563
  0.1107214362175897  0.5550976671286681  0.2417742228147235
  0.5593477897784698  0.4491271369221485  0.7589995590626590
  0.5549683435630267  0.4438140751047807  0.3803183711679238
  0.4437581219012925  0.5541962248025936  0.6201531419945010
  0.3326185005542327  0.3319070161084662  0.5001614181850508
  0.4443404437671192  0.5553508445342419  0.2415747622760227
  0.8885084709677671  0.4436869979355281  0.7568460621855938
  0.8880940928497771  0.4428681896995469  0.3804051324066892
  0.7767334027701921  0.5556703502018338  0.6205768992850896
  0.6659961136821978  0.3314747144346272  0.5004362569021563
  0.7777162579110767  0.5550976671286681  0.2417742228147235
  0.2218680131401393  0.7802516992825259  0.7578699971434606
  0.2217238288555539  0.7764316315452314  0.3804474349630922
  0.1105904806739180  0.8878409563478252  0.6198517904379427
  0.9986219775208788  0.6639140260417561  0.5005993744153371
  0.1104524834774735  0.8875749809549377  0.2417971244112340
  0.5350042667350916  0.7366685534701858  0.7714502606289872
  0.5552865464955837  0.7772230199911618  0.3804581252733555
  0.4419080539790678  0.8860301338750151  0.6202061480961916
  0.3328327883880489  0.6658851672990678  0.5003635366488709
  0.4441978967827055  0.8880656187232163  0.2414737611332522
  0.8917136271423889  0.7802516992825259  0.7578699971434606
  0.8880377986896807  0.7764316315452314  0.3804474349630922
  0.7774421508959497  0.8860301338750151  0.6202061480961916
  0.6663823439110089  0.6658851672990678  0.5003635366488709
  0.7771978149405182  0.8880656187232163  0.2414737611332522
  0.9995537371515094  0.9994473986133617  0.2939836703746121
  0.0035408379654293  0.0023512400589693  0.7049701412902698
  0.3332336614618521  0.9994473986133617  0.2939836703746121
  0.3321303970935365  0.0023512400589693  0.7049701412902698
  0.6660931976811265  0.9988363383622418  0.2943274823564977
  0.6766199793112908  0.0199098466225830  0.6989555578051553
  0.9996733906935594  0.3331755443019306  0.2942479134668968
  0.0052800321836067  0.3393746454288166  0.7042112127566794
  0.3336351393347388  0.3339302736694736  0.2944357115562582
  0.3360575524189773  0.3388050898379592  0.7071765163972161
  0.6668521796083693  0.3331755443019306  0.2942479134668968
  0.6674246162452102  0.3393746454288166  0.7042112127566794
  0.9995667186420152  0.6657834662840404  0.2945066557113054
  0.0000730865249390  0.6668261940498682  0.7052036462379662
  0.3332153072539125  0.6663051089785020  0.2942254764305565
  0.3330222363624806  0.6698176093636976  0.7065308007655887
  0.6664398077245860  0.6663051089785020  0.2942254764305565
  0.6701153880012219  0.6698176093636976  0.7065308007655887
  0.4602917714278486  0.5872435498556945  0.7958862290209129
 
  0.00000000E+00  0.00000000E+00  0.00000000E+00
  0.00000000E+00  0.00000000E+00  0.00000000E+00
  0.00000000E+00  0.00000000E+00  0.00000000E+00
  0.00000000E+00  0.00000000E+00  0.00000000E+00
  0.00000000E+00  0.00000000E+00  0.00000000E+00
  0.00000000E+00  0.00000000E+00  0.00000000E+00
  0.00000000E+00  0.00000000E+00  0.00000000E+00
  0.00000000E+00  0.00000000E+00  0.00000000E+00
  0.00000000E+00  0.00000000E+00  0.00000000E+00
  0.00000000E+00  0.00000000E+00  0.00000000E+00
  0.00000000E+00  0.00000000E+00  0.00000000E+00
  0.00000000E+00  0.00000000E+00  0.00000000E+00
  0.00000000E+00  0.00000000E+00  0.00000000E+00
  0.00000000E+00  0.00000000E+00  0.00000000E+00
  0.00000000E+00  0.00000000E+00  0.00000000E+00
  0.00000000E+00  0.00000000E+00  0.00000000E+00
  0.00000000E+00  0.00000000E+00  0.00000000E+00
  0.00000000E+00  0.00000000E+00  0.00000000E+00
  0.00000000E+00  0.00000000E+00  0.00000000E+00
  0.00000000E+00  0.00000000E+00  0.00000000E+00
  0.00000000E+00  0.00000000E+00  0.00000000E+00
  0.00000000E+00  0.00000000E+00  0.00000000E+00
  0.00000000E+00  0.00000000E+00  0.00000000E+00
  0.00000000E+00  0.00000000E+00  0.00000000E+00
  0.00000000E+00  0.00000000E+00  0.00000000E+00
  0.00000000E+00  0.00000000E+00  0.00000000E+00
  0.00000000E+00  0.00000000E+00  0.00000000E+00
  0.00000000E+00  0.00000000E+00  0.00000000E+00
  0.00000000E+00  0.00000000E+00  0.00000000E+00
  0.00000000E+00  0.00000000E+00  0.00000000E+00
  0.00000000E+00  0.00000000E+00  0.00000000E+00
  0.00000000E+00  0.00000000E+00  0.00000000E+00
  0.00000000E+00  0.00000000E+00  0.00000000E+00
  0.00000000E+00  0.00000000E+00  0.00000000E+00
  0.00000000E+00  0.00000000E+00  0.00000000E+00
  0.00000000E+00  0.00000000E+00  0.00000000E+00
  0.00000000E+00  0.00000000E+00  0.00000000E+00
  0.00000000E+00  0.00000000E+00  0.00000000E+00
  0.00000000E+00  0.00000000E+00  0.00000000E+00
  0.00000000E+00  0.00000000E+00  0.00000000E+00
  0.00000000E+00  0.00000000E+00  0.00000000E+00
  0.00000000E+00  0.00000000E+00  0.00000000E+00
  0.00000000E+00  0.00000000E+00  0.00000000E+00
  0.00000000E+00  0.00000000E+00  0.00000000E+00
  0.00000000E+00  0.00000000E+00  0.00000000E+00
  0.00000000E+00  0.00000000E+00  0.00000000E+00
  0.00000000E+00  0.00000000E+00  0.00000000E+00
  0.00000000E+00  0.00000000E+00  0.00000000E+00
  0.00000000E+00  0.00000000E+00  0.00000000E+00
  0.00000000E+00  0.00000000E+00  0.00000000E+00
  0.00000000E+00  0.00000000E+00  0.00000000E+00
  0.00000000E+00  0.00000000E+00  0.00000000E+00
  0.00000000E+00  0.00000000E+00  0.00000000E+00
  0.00000000E+00  0.00000000E+00  0.00000000E+00
  0.00000000E+00  0.00000000E+00  0.00000000E+00
  0.00000000E+00  0.00000000E+00  0.00000000E+00
  0.00000000E+00  0.00000000E+00  0.00000000E+00
  0.00000000E+00  0.00000000E+00  0.00000000E+00
  0.00000000E+00  0.00000000E+00  0.00000000E+00
  0.00000000E+00  0.00000000E+00  0.00000000E+00
  0.00000000E+00  0.00000000E+00  0.00000000E+00
  0.00000000E+00  0.00000000E+00  0.00000000E+00
  0.00000000E+00  0.00000000E+00  0.00000000E+00
  0.00000000E+00  0.00000000E+00  0.00000000E+00
  0.00000000E+00  0.00000000E+00  0.00000000E+00
  0.00000000E+00  0.00000000E+00  0.00000000E+00
  0.00000000E+00  0.00000000E+00  0.00000000E+00
  0.00000000E+00  0.00000000E+00  0.00000000E+00
  0.00000000E+00  0.00000000E+00  0.00000000E+00
  0.00000000E+00  0.00000000E+00  0.00000000E+00
  0.00000000E+00  0.00000000E+00  0.00000000E+00
  0.00000000E+00  0.00000000E+00  0.00000000E+00
  0.00000000E+00  0.00000000E+00  0.00000000E+00
  0.00000000E+00  0.00000000E+00  0.00000000E+00
  0.00000000E+00  0.00000000E+00  0.00000000E+00
  0.00000000E+00  0.00000000E+00  0.00000000E+00
  0.00000000E+00  0.00000000E+00  0.00000000E+00
  0.00000000E+00  0.00000000E+00  0.00000000E+00
  0.00000000E+00  0.00000000E+00  0.00000000E+00
  0.00000000E+00  0.00000000E+00  0.00000000E+00
  0.00000000E+00  0.00000000E+00  0.00000000E+00
  0.00000000E+00  0.00000000E+00  0.00000000E+00
