 Y14 C6 I12 O2                          
   1.00000000000000     
     3.8275254141714155    0.0000000000000000    0.0000000000000000
     0.0000000000000000   22.3224512398695758    0.0000000000000000
     0.0000000000000000    0.0000000000000000   23.4783322398319960
   Y    C    I    O 
    14     6    12     2
Direct
  0.5000000615404500  0.9703033199763020  0.4330189177974226
  0.0000000103251737  0.6645844876945139  0.4005774930443654
  0.5000000236462482  0.7500073058159625  0.4913786085208378
  0.0000000560100809  0.6059183589711059  0.5299542351832627
 -0.0000000310329310  0.1645797149160910  0.5994135068948754
  0.4999999966825673  0.2499926887633078  0.5086214057306645
  0.4999999469998592  0.4703003938250044  0.5669866479612135
 -0.0000000820616340  0.8940857281047994  0.5299503716276043
  0.0000001210903029  0.1059142655834815  0.4700496350917763
  0.0000001217163196  0.8354202936048952  0.4005865064043129
  0.4999999933589255  0.5296996027114025  0.4330133522430524
  0.4999999937820586  0.0296966719904879  0.5669810952394242
  0.0000000039061253  0.3354155288374651  0.5994225164106208
 -0.0000001237499710  0.3940816470867475  0.4700457884891740
  0.5000000380560347  0.1367075114275226  0.5376717810303348
  0.5000000098829717  0.6367076390731591  0.4623239761197940
 -0.0000000253291033 -0.0000000051341168  0.4999999939864144
  0.4999999349131270  0.8632924942934530  0.4623282203793280
 -0.0000000025190646  0.5000000059735505  0.4999999931640369
  0.4999999443505460  0.3632923575733418  0.5376760133607608
  0.4999999954811330  0.2499973969381140  0.6812740662612082
 -0.0000000484929543  0.2500006389123831  0.4066899561426674
 -0.0000000271553256  0.0565244384770809  0.6749478288366870
  0.4999999696464885  0.9059658123469412  0.6324792638831828
  0.5000000328863323  0.4059672828476880  0.3675225706315314
  0.0000000360069483  0.9434755607572788  0.3250521698447260
 -0.0000000205360988  0.4434771987239923  0.6749554011660085
  0.5000000108886641  0.0940341877579475  0.3675207375534903
 -0.0000000329596704  0.5565228014239484  0.3250445902341667
  0.0000000490770538  0.7499993509750871  0.5933100308013938
  0.5000000100530824  0.5940327201671384  0.6324774174313395
  0.5000000434046832  0.7500026156949685  0.3187259378682176
 -0.0000000293111790  0.7499984084892248  0.4444366791934261
  0.0000000194427548  0.2500015753997292  0.5555632914726795
 
  0.00000000E+00  0.00000000E+00  0.00000000E+00
  0.00000000E+00  0.00000000E+00  0.00000000E+00
  0.00000000E+00  0.00000000E+00  0.00000000E+00
  0.00000000E+00  0.00000000E+00  0.00000000E+00
  0.00000000E+00  0.00000000E+00  0.00000000E+00
  0.00000000E+00  0.00000000E+00  0.00000000E+00
  0.00000000E+00  0.00000000E+00  0.00000000E+00
  0.00000000E+00  0.00000000E+00  0.00000000E+00
  0.00000000E+00  0.00000000E+00  0.00000000E+00
  0.00000000E+00  0.00000000E+00  0.00000000E+00
  0.00000000E+00  0.00000000E+00  0.00000000E+00
  0.00000000E+00  0.00000000E+00  0.00000000E+00
  0.00000000E+00  0.00000000E+00  0.00000000E+00
  0.00000000E+00  0.00000000E+00  0.00000000E+00
  0.00000000E+00  0.00000000E+00  0.00000000E+00
  0.00000000E+00  0.00000000E+00  0.00000000E+00
  0.00000000E+00  0.00000000E+00  0.00000000E+00
  0.00000000E+00  0.00000000E+00  0.00000000E+00
  0.00000000E+00  0.00000000E+00  0.00000000E+00
  0.00000000E+00  0.00000000E+00  0.00000000E+00
  0.00000000E+00  0.00000000E+00  0.00000000E+00
  0.00000000E+00  0.00000000E+00  0.00000000E+00
  0.00000000E+00  0.00000000E+00  0.00000000E+00
  0.00000000E+00  0.00000000E+00  0.00000000E+00
  0.00000000E+00  0.00000000E+00  0.00000000E+00
  0.00000000E+00  0.00000000E+00  0.00000000E+00
  0.00000000E+00  0.00000000E+00  0.00000000E+00
  0.00000000E+00  0.00000000E+00  0.00000000E+00
  0.00000000E+00  0.00000000E+00  0.00000000E+00
  0.00000000E+00  0.00000000E+00  0.00000000E+00
  0.00000000E+00  0.00000000E+00  0.00000000E+00
  0.00000000E+00  0.00000000E+00  0.00000000E+00
  0.00000000E+00  0.00000000E+00  0.00000000E+00
  0.00000000E+00  0.00000000E+00  0.00000000E+00
