CONTCAR\(2)                             
   1.00000000000000     
    12.0352001190000006    0.0000000000000000    0.0000000000000000
     0.0000000000000000   12.2138004302999992    0.0000000000000000
     0.0000000000000000    0.0000000000000000   16.9626007080000001
   Cu   Se   O    H 
     8     8    25     1
Direct
  0.0805261374422273  0.9211907706154747  0.4866596186643761
  0.3288933756263006  0.6016802556314005  0.4738676045343837
  0.4163038532781940  0.0897816605580317  0.5645161830857646
  0.1621589642346422  0.4170392970146040  0.4587513671271637
  0.5793862463632067  0.9201400736988532  0.5089303183972973
  0.8346101389887508  0.5989278695778708  0.5163265917712891
  0.9209755081037656  0.1023764811235210  0.5288746749893960
  0.6662257214390195  0.4104653894248926  0.5067245700465222
  0.2023580356082277  0.1519150431032656  0.4779357751812583
  0.4232209806797300  0.3508375291229910  0.5022781242339960
  0.3074249726542959  0.8586715435821972  0.5059464571788794
  0.0508353128204035  0.6621648544723087  0.4631923113010501
  0.6848047633916465  0.1586284931748452  0.5243538946443635
  0.9463120391919588  0.3592293470290286  0.5237952950787417
  0.8114254450980880  0.8584813490153635  0.5392134645674815
  0.5670969791077667  0.6619791006360174  0.4722374387182526
  0.4691181081098605  0.5912130557540962  0.5257444058707392
  0.2245820843635897  0.9281734643484683  0.4389119891663285
  0.0050494592548276  0.4134753474841659  0.4395510529715452
  0.2579198028382024  0.0958277758650397  0.5636762493407872
  0.1718355099380346  0.5795701733914669  0.4505347183482158
  0.4225310314553852  0.9529592781378184  0.5027810054813528
  0.3186139309238811  0.4433911441561733  0.4593414259399395
  0.0684987985621532  0.0781064869482222  0.4874781973994828
  0.1519048369599787  0.2761759118126790  0.5113498210782197
  0.3841770690954363  0.2336799222369450  0.4570522599363755
  0.3604679101202137  0.7552194072612224  0.4484410675853994
  0.1101037960103923  0.7710920684857570  0.5124060032704634
  0.9899246853709727  0.5971738629868568  0.5427575515334837
  0.7301756592748561  0.9323602787447527  0.4745118989589585
  0.5364863844658530  0.3885271637896608  0.4448611368147226
  0.7838939179366022  0.1061516472176223  0.5874014869673587
  0.6805383875258997  0.5712886836420523  0.4924944682043275
  0.9345550699823804  0.9411520487547520  0.5322540480366413
  0.8223572937555446  0.4413794976391188  0.5305450137674725
  0.5729398892019404  0.0686691053579622  0.5573855759926474
  0.6457707511140924  0.2782510234685418  0.5696561866638348
  0.8851717825405387  0.2431740462118270  0.4853116886803264
  0.8490420342102709  0.7493822467955837  0.4802877660600657
  0.6002376050891982  0.7666878925248497  0.5358566924000030
  0.4236135496932363  0.1991068532258566  0.6377559255455125
  0.5023923201784157  0.2170824799778543  0.6453688924655836
 
  0.00000000E+00  0.00000000E+00  0.00000000E+00
  0.00000000E+00  0.00000000E+00  0.00000000E+00
  0.00000000E+00  0.00000000E+00  0.00000000E+00
  0.00000000E+00  0.00000000E+00  0.00000000E+00
  0.00000000E+00  0.00000000E+00  0.00000000E+00
  0.00000000E+00  0.00000000E+00  0.00000000E+00
  0.00000000E+00  0.00000000E+00  0.00000000E+00
  0.00000000E+00  0.00000000E+00  0.00000000E+00
  0.00000000E+00  0.00000000E+00  0.00000000E+00
  0.00000000E+00  0.00000000E+00  0.00000000E+00
  0.00000000E+00  0.00000000E+00  0.00000000E+00
  0.00000000E+00  0.00000000E+00  0.00000000E+00
  0.00000000E+00  0.00000000E+00  0.00000000E+00
  0.00000000E+00  0.00000000E+00  0.00000000E+00
  0.00000000E+00  0.00000000E+00  0.00000000E+00
  0.00000000E+00  0.00000000E+00  0.00000000E+00
  0.00000000E+00  0.00000000E+00  0.00000000E+00
  0.00000000E+00  0.00000000E+00  0.00000000E+00
  0.00000000E+00  0.00000000E+00  0.00000000E+00
  0.00000000E+00  0.00000000E+00  0.00000000E+00
  0.00000000E+00  0.00000000E+00  0.00000000E+00
  0.00000000E+00  0.00000000E+00  0.00000000E+00
  0.00000000E+00  0.00000000E+00  0.00000000E+00
  0.00000000E+00  0.00000000E+00  0.00000000E+00
  0.00000000E+00  0.00000000E+00  0.00000000E+00
  0.00000000E+00  0.00000000E+00  0.00000000E+00
  0.00000000E+00  0.00000000E+00  0.00000000E+00
  0.00000000E+00  0.00000000E+00  0.00000000E+00
  0.00000000E+00  0.00000000E+00  0.00000000E+00
  0.00000000E+00  0.00000000E+00  0.00000000E+00
  0.00000000E+00  0.00000000E+00  0.00000000E+00
  0.00000000E+00  0.00000000E+00  0.00000000E+00
  0.00000000E+00  0.00000000E+00  0.00000000E+00
  0.00000000E+00  0.00000000E+00  0.00000000E+00
  0.00000000E+00  0.00000000E+00  0.00000000E+00
  0.00000000E+00  0.00000000E+00  0.00000000E+00
  0.00000000E+00  0.00000000E+00  0.00000000E+00
  0.00000000E+00  0.00000000E+00  0.00000000E+00
  0.00000000E+00  0.00000000E+00  0.00000000E+00
  0.00000000E+00  0.00000000E+00  0.00000000E+00
  0.00000000E+00  0.00000000E+00  0.00000000E+00
  0.00000000E+00  0.00000000E+00  0.00000000E+00
