CONTCAR\(9)                             
   1.00000000000000     
    14.8798999785999992    0.0000000000000000    0.0000000000000000
     7.4399499892999996   12.8863713873000005    0.0000000000000000
     0.0000000000000000    0.0000000000000000   21.2917003632000004
   Tb   Cl   O 
    32    32     1
Direct
  0.1662785907146499  0.1662725205697081  0.4291082083171243
  0.0823341322061878  0.0823123621889781  0.5608255944710819
  0.4174467724467134  0.1662666112488026  0.4290977541225282
  0.3329549630578142  0.0841010237266492  0.5605177570738769
  0.6668370218549746  0.1675931139625978  0.4317026464858434
  0.5853691632977702  0.0823196432396734  0.5608182260593829
  0.9155837976296959  0.1676046959271979  0.4317222957485937
  0.8319867149938617  0.0860447716660121  0.5642452794436067
  0.1662703266286989  0.4174444533757489  0.4290968170318656
  0.0841131408957526  0.3329454784852784  0.5605215192006068
  0.4161494158382892  0.4161441079795619  0.4296921504244849
  0.3329483520427192  0.3329374464324958  0.5605069449633276
  0.6642279159938669  0.4215429209311014  0.4334751294175545
  0.5800516398364631  0.3339306750457464  0.5627047445572113
  0.9176909596617971  0.4161590841668003  0.4297303311500986
  0.8360121028788058  0.3339376056724309  0.5627229151443222
  0.1675998260959302  0.6668261779320718  0.4316988862070383
  0.0823287954151260  0.5853604257599130  0.5608188369053162
  0.4215537203365601  0.6642193176871067  0.4334701814137490
  0.3339473473291910  0.5800343403020725  0.5626937127942805
  0.6642194892431600  0.6642156427290299  0.4335005088979999
  0.5833219395824806  0.5833074734439223  0.6986383922415861
  0.9155562025357494  0.6668297324807149  0.4317123887232079
  0.8360084860777248  0.5800756102299550  0.5627373998645822
  0.1676102928018187  0.9155719564458111  0.4317151461164687
  0.0860507500870460  0.8319764323784354  0.5642371232186690
  0.4161645885634700  0.9176825607233339  0.4297256361966112
  0.3339577982178213  0.8359911832105977  0.5627134932686153
  0.6668363619337593  0.9155555845345063  0.4317110172980416
  0.5800803394567341  0.8359995068350987  0.5627351395368455
  0.9166735841122483  0.9166632280166176  0.4337913734320241
  0.8319944076656000  0.8319891020761665  0.5642388606612964
  0.0002949652985609  0.0002674798135187  0.6455357786105841
  0.9994648831165927  0.9994624077018067  0.3503726021208128
  0.2464288125324547  0.0048637774163435  0.6431481437344203
  0.2490219097923033  0.9988307056001841  0.3475614708330093
  0.4987091794405813  0.0048887512356178  0.6431602980044443
  0.5021648772008338  0.9988118883672096  0.3475544329381621
  0.7494665265892749  0.0002689872351851  0.6455329881409405
  0.7510916825929773  0.9994312374371029  0.3503564449981737
  0.0048936439640804  0.2463996083589526  0.6431516242406248
  0.9988414230158964  0.2490136796342689  0.3475636905142659
  0.2500095820106413  0.2499945447205124  0.6431374705034074
  0.2499945728911864  0.2499934310720463  0.3471086665782694
  0.4987001885867373  0.2464121866763954  0.6431516107878432
  0.5021625020221530  0.2489707255998543  0.3475254998811647
  0.7469402418587011  0.2561066633585660  0.6455355645549451
  0.7475790186641025  0.2548842789639330  0.3506118322428612
  0.0049031963340729  0.4987031132068793  0.6431595826393128
  0.9988133939342707  0.5021631174526388  0.3475568790226678
  0.2464283974398663  0.4986921186428833  0.6431455755222997
  0.2489757461431951  0.5021571896906125  0.3475230605125751
  0.4838340129348949  0.4838269907934177  0.6550054280739638
  0.5003462638317020  0.5003392478943087  0.3491944644538095
  0.7823047175213266  0.4838460928707271  0.6550184989704302
  0.7493298370151388  0.5003357139954627  0.3492143307098258
  0.0002855060637815  0.7494495071033794  0.6455295948728395
  0.9994351522854589  0.7510819535428447  0.3503567317220637
  0.2561271616453196  0.7469134038554816  0.6455214701228842
  0.2548981043431911  0.7475613074338112  0.3506026547717372
  0.4838585913702531  0.7822841337160520  0.6550168170941441
  0.5003446870350911  0.7493225144003256  0.3492094486470519
  0.7469779957389754  0.7469781177363821  0.6455552310754396
  0.7475187158218676  0.7475176382619414  0.3506050015585431
  0.5833056515320644  0.5832932148071709  0.7859406871586336
 
  0.00000000E+00  0.00000000E+00  0.00000000E+00
  0.00000000E+00  0.00000000E+00  0.00000000E+00
  0.00000000E+00  0.00000000E+00  0.00000000E+00
  0.00000000E+00  0.00000000E+00  0.00000000E+00
  0.00000000E+00  0.00000000E+00  0.00000000E+00
  0.00000000E+00  0.00000000E+00  0.00000000E+00
  0.00000000E+00  0.00000000E+00  0.00000000E+00
  0.00000000E+00  0.00000000E+00  0.00000000E+00
  0.00000000E+00  0.00000000E+00  0.00000000E+00
  0.00000000E+00  0.00000000E+00  0.00000000E+00
  0.00000000E+00  0.00000000E+00  0.00000000E+00
  0.00000000E+00  0.00000000E+00  0.00000000E+00
  0.00000000E+00  0.00000000E+00  0.00000000E+00
  0.00000000E+00  0.00000000E+00  0.00000000E+00
  0.00000000E+00  0.00000000E+00  0.00000000E+00
  0.00000000E+00  0.00000000E+00  0.00000000E+00
  0.00000000E+00  0.00000000E+00  0.00000000E+00
  0.00000000E+00  0.00000000E+00  0.00000000E+00
  0.00000000E+00  0.00000000E+00  0.00000000E+00
  0.00000000E+00  0.00000000E+00  0.00000000E+00
  0.00000000E+00  0.00000000E+00  0.00000000E+00
  0.00000000E+00  0.00000000E+00  0.00000000E+00
  0.00000000E+00  0.00000000E+00  0.00000000E+00
  0.00000000E+00  0.00000000E+00  0.00000000E+00
  0.00000000E+00  0.00000000E+00  0.00000000E+00
  0.00000000E+00  0.00000000E+00  0.00000000E+00
  0.00000000E+00  0.00000000E+00  0.00000000E+00
  0.00000000E+00  0.00000000E+00  0.00000000E+00
  0.00000000E+00  0.00000000E+00  0.00000000E+00
  0.00000000E+00  0.00000000E+00  0.00000000E+00
  0.00000000E+00  0.00000000E+00  0.00000000E+00
  0.00000000E+00  0.00000000E+00  0.00000000E+00
  0.00000000E+00  0.00000000E+00  0.00000000E+00
  0.00000000E+00  0.00000000E+00  0.00000000E+00
  0.00000000E+00  0.00000000E+00  0.00000000E+00
  0.00000000E+00  0.00000000E+00  0.00000000E+00
  0.00000000E+00  0.00000000E+00  0.00000000E+00
  0.00000000E+00  0.00000000E+00  0.00000000E+00
  0.00000000E+00  0.00000000E+00  0.00000000E+00
  0.00000000E+00  0.00000000E+00  0.00000000E+00
  0.00000000E+00  0.00000000E+00  0.00000000E+00
  0.00000000E+00  0.00000000E+00  0.00000000E+00
  0.00000000E+00  0.00000000E+00  0.00000000E+00
  0.00000000E+00  0.00000000E+00  0.00000000E+00
  0.00000000E+00  0.00000000E+00  0.00000000E+00
  0.00000000E+00  0.00000000E+00  0.00000000E+00
  0.00000000E+00  0.00000000E+00  0.00000000E+00
  0.00000000E+00  0.00000000E+00  0.00000000E+00
  0.00000000E+00  0.00000000E+00  0.00000000E+00
  0.00000000E+00  0.00000000E+00  0.00000000E+00
  0.00000000E+00  0.00000000E+00  0.00000000E+00
  0.00000000E+00  0.00000000E+00  0.00000000E+00
  0.00000000E+00  0.00000000E+00  0.00000000E+00
  0.00000000E+00  0.00000000E+00  0.00000000E+00
  0.00000000E+00  0.00000000E+00  0.00000000E+00
  0.00000000E+00  0.00000000E+00  0.00000000E+00
  0.00000000E+00  0.00000000E+00  0.00000000E+00
  0.00000000E+00  0.00000000E+00  0.00000000E+00
  0.00000000E+00  0.00000000E+00  0.00000000E+00
  0.00000000E+00  0.00000000E+00  0.00000000E+00
  0.00000000E+00  0.00000000E+00  0.00000000E+00
  0.00000000E+00  0.00000000E+00  0.00000000E+00
  0.00000000E+00  0.00000000E+00  0.00000000E+00
  0.00000000E+00  0.00000000E+00  0.00000000E+00
  0.00000000E+00  0.00000000E+00  0.00000000E+00
