CONTCAR\(8)                             
   1.00000000000000     
    12.0179996490000001    0.0000000000000000    0.0000000000000000
     5.5443836140000000   17.3830097696000010    0.0000000000000000
     0.0000000000000000    0.0000000000000000   18.4081001282000010
   Nb   Ir   Se
    16     4    40
Direct
  0.3156310708178637  0.4169686578944742  0.4992060401252280
  0.3745685479589514  0.1997504218005146  0.5028087553402643
  0.0454147431604824 -0.0016819174502374  0.5018506563308949
  0.0847739667165856  0.3140238774935274  0.4967660918708446
  0.8156311498178668  0.4169686578944742  0.4992060401252280
  0.8745685879589545  0.1997504218005146  0.5028087553402643
  0.5454147471604827 -0.0016819174502374  0.5018506563308949
  0.5847739277165861  0.3140238774935274  0.4967660918708446
  0.3156310848178648  0.9169686618944747  0.4992060401252280
  0.3745685479589514  0.6997503708005141  0.5028087553402643
  0.0454147271604811  0.4983180765497622  0.5018506563308949
  0.0847740067165818  0.8140238274935229  0.4967660918708446
  0.8156311648178645  0.9169686618944747  0.4992060401252280
  0.8745685479589512  0.6997503708005141  0.5028087553402643
  0.5454147661604807  0.4983180765497622  0.5018506563308949
  0.5847739667165858  0.8140238274935229  0.4967660918708446
  0.2134993440433625  0.0935684822205022  0.5010635636453775
  0.7134994030433637  0.0935684822205022  0.5010635636453775
  0.2134993410433658  0.5935684792205053  0.5010635636453775
  0.7134994210433652  0.5935684792205053  0.5010635636453775
  0.1870661945030260  0.0045577719063139  0.6002654676929999
  0.0442576106583429  0.1041679244038678  0.4144783457611792
  0.2694101328615373  0.3048618931775722  0.5860668605011438
  0.1538253006654477  0.4002764339424675  0.4074696272325101
  0.3788785690005288  0.0945717091143768  0.5886742670209519
  0.2250574158182324  0.1985330406018463  0.4099566451573394
  0.4786821874251445  0.4052320276961630  0.5951385113730187
  0.3555268591021179  0.0073178464990488  0.4110869020697440
  0.0721069756963302  0.1977922683384262  0.5751864187099051
  0.4294310215720334  0.3037593993611346  0.4099718741686018
  0.6870661355030248  0.0045577719063139  0.6002654676929999
  0.5442576106583425  0.1041679244038678  0.4144783457611792
  0.7694102128615370  0.3048618931775722  0.5860668605011438
  0.6538252616654481  0.4002764339424675  0.4074696272325100
  0.8788786080005285  0.0945717091143768  0.5886742670209519
  0.7250574358182342  0.1985330406018463  0.4099566451573394
  0.9786821874251445  0.4052320276961630  0.5951385113730187
  0.8555268591021175  0.0073178464990488  0.4110869020697440
  0.5721069556963355  0.1977922683384262  0.5751864187099051
  0.9294310215720334  0.3037593993611346  0.4099718741686018
  0.1870662335030257  0.5045577659063137  0.6002654676929999
  0.0442576186583436  0.6041679414038659  0.4144783457611792
  0.2694100938615376  0.8048618421775714  0.5860668605011438
  0.1538253276654535  0.9002764099424657  0.4074696272325100
  0.3788785490005271  0.5945717001143721  0.5886742670209519
  0.2250574168182360  0.6985330306018452  0.4099566451573394
  0.4786822014251456  0.9052320316961634  0.5951385113730187
  0.3555268931021136  0.5073178084990456  0.4110869020697440
  0.0721069896963313  0.6977922313384268  0.5751864187099051
  0.4294310615720367  0.8037593483611336  0.4099718741686018
  0.6870661535030262  0.5045577659063137  0.6002654676929999
  0.5442575786583470  0.6041679414038659  0.4144783457611792
  0.7694101728615408  0.8048618421775714  0.5860668605011438
  0.6538252886654539  0.9002764099424657  0.4074696272325100
  0.8788786290005267  0.5945717001143721  0.5886742670209519
  0.7250574568182324  0.6985330306018452  0.4099566451573394
  0.9786822014251456  0.9052320316961634  0.5951385113730187
  0.8555268931021132  0.5073178084990456  0.4110869020697440
  0.5721069496963350  0.6977922313384268  0.5751864187099051
  0.9294309815720372  0.8037593483611336  0.4099718741686018
 
  0.00000000E+00  0.00000000E+00  0.00000000E+00
  0.00000000E+00  0.00000000E+00  0.00000000E+00
  0.00000000E+00  0.00000000E+00  0.00000000E+00
  0.00000000E+00  0.00000000E+00  0.00000000E+00
  0.00000000E+00  0.00000000E+00  0.00000000E+00
  0.00000000E+00  0.00000000E+00  0.00000000E+00
  0.00000000E+00  0.00000000E+00  0.00000000E+00
  0.00000000E+00  0.00000000E+00  0.00000000E+00
  0.00000000E+00  0.00000000E+00  0.00000000E+00
  0.00000000E+00  0.00000000E+00  0.00000000E+00
  0.00000000E+00  0.00000000E+00  0.00000000E+00
  0.00000000E+00  0.00000000E+00  0.00000000E+00
  0.00000000E+00  0.00000000E+00  0.00000000E+00
  0.00000000E+00  0.00000000E+00  0.00000000E+00
  0.00000000E+00  0.00000000E+00  0.00000000E+00
  0.00000000E+00  0.00000000E+00  0.00000000E+00
  0.00000000E+00  0.00000000E+00  0.00000000E+00
  0.00000000E+00  0.00000000E+00  0.00000000E+00
  0.00000000E+00  0.00000000E+00  0.00000000E+00
  0.00000000E+00  0.00000000E+00  0.00000000E+00
  0.00000000E+00  0.00000000E+00  0.00000000E+00
  0.00000000E+00  0.00000000E+00  0.00000000E+00
  0.00000000E+00  0.00000000E+00  0.00000000E+00
  0.00000000E+00  0.00000000E+00  0.00000000E+00
  0.00000000E+00  0.00000000E+00  0.00000000E+00
  0.00000000E+00  0.00000000E+00  0.00000000E+00
  0.00000000E+00  0.00000000E+00  0.00000000E+00
  0.00000000E+00  0.00000000E+00  0.00000000E+00
  0.00000000E+00  0.00000000E+00  0.00000000E+00
  0.00000000E+00  0.00000000E+00  0.00000000E+00
  0.00000000E+00  0.00000000E+00  0.00000000E+00
  0.00000000E+00  0.00000000E+00  0.00000000E+00
  0.00000000E+00  0.00000000E+00  0.00000000E+00
  0.00000000E+00  0.00000000E+00  0.00000000E+00
  0.00000000E+00  0.00000000E+00  0.00000000E+00
  0.00000000E+00  0.00000000E+00  0.00000000E+00
  0.00000000E+00  0.00000000E+00  0.00000000E+00
  0.00000000E+00  0.00000000E+00  0.00000000E+00
  0.00000000E+00  0.00000000E+00  0.00000000E+00
  0.00000000E+00  0.00000000E+00  0.00000000E+00
  0.00000000E+00  0.00000000E+00  0.00000000E+00
  0.00000000E+00  0.00000000E+00  0.00000000E+00
  0.00000000E+00  0.00000000E+00  0.00000000E+00
  0.00000000E+00  0.00000000E+00  0.00000000E+00
  0.00000000E+00  0.00000000E+00  0.00000000E+00
  0.00000000E+00  0.00000000E+00  0.00000000E+00
  0.00000000E+00  0.00000000E+00  0.00000000E+00
  0.00000000E+00  0.00000000E+00  0.00000000E+00
  0.00000000E+00  0.00000000E+00  0.00000000E+00
  0.00000000E+00  0.00000000E+00  0.00000000E+00
  0.00000000E+00  0.00000000E+00  0.00000000E+00
  0.00000000E+00  0.00000000E+00  0.00000000E+00
  0.00000000E+00  0.00000000E+00  0.00000000E+00
  0.00000000E+00  0.00000000E+00  0.00000000E+00
  0.00000000E+00  0.00000000E+00  0.00000000E+00
  0.00000000E+00  0.00000000E+00  0.00000000E+00
  0.00000000E+00  0.00000000E+00  0.00000000E+00
  0.00000000E+00  0.00000000E+00  0.00000000E+00
  0.00000000E+00  0.00000000E+00  0.00000000E+00
  0.00000000E+00  0.00000000E+00  0.00000000E+00
