CONTCAR\(5)                             
   1.00000000000000     
     3.9223001003000002    0.0000000000000000    0.0000000000000000
     1.9611500502000001    3.3968115281000002    0.0000000000000000
     0.0000000000000000    0.0000000000000000   18.9503002167000005
   Te   Pt   O 
     2     2     2
Direct
  0.6679513121846363  0.6662619929504473  0.6109310559979904
  0.6669441950112691  0.6667257286241075  0.3890955638180842
  0.3350115186831868  0.3325589756362267  0.5426350366628672
 -0.0012421029249649  0.0008634296238142  0.4573191790981759
  0.6524264098152743  0.6773426739275838  0.7071510389536489
  0.6939887912306127  0.6528372082378151  0.2929580804692334
 
  0.00000000E+00  0.00000000E+00  0.00000000E+00
  0.00000000E+00  0.00000000E+00  0.00000000E+00
  0.00000000E+00  0.00000000E+00  0.00000000E+00
  0.00000000E+00  0.00000000E+00  0.00000000E+00
  0.00000000E+00  0.00000000E+00  0.00000000E+00
  0.00000000E+00  0.00000000E+00  0.00000000E+00
