CONTCAR\(9)                             
   1.00000000000000     
    13.5033998488999991    0.0000000000000000    0.0000000000000000
     0.0000000000000000   19.6100006104000002    0.0000000000000000
     0.0000000000000000    0.0000000000000000   18.7679004668999987
   Nb   Se   O 
    32    48     1
Direct
  0.0626562157563823  0.4364751532320966  0.4991710280577564
  0.1856663658108518  0.0630296206879955  0.4968348868092927
  0.0626033575250605  0.2807438874864688  0.4462262187831535
  0.1872021034668952  0.2192625316094026  0.5479943464228579
  0.3119773127824301  0.4356026554783610  0.4977959974058217
  0.4353393718432773  0.0648929925665679  0.4948219157971794
  0.3107568882275601  0.2806686879505199  0.4459818402920491
  0.4371048419461535  0.2191795459058884  0.5470069749943686
  0.5625015322198563  0.4334401355808056  0.4971226920788698
  0.6896376546565378  0.0649253444075205  0.4947770776059562
  0.5624503066085783  0.2803658014881826  0.4451810239978673
  0.6877925841575704  0.2192000611580808  0.5468447994147222
  0.8129692068811699  0.4355215558346125  0.4977548382308171
  0.9395027818940264  0.0630922970796012  0.4967187120926794
  0.8142114004515801  0.2806458098127586  0.4457882544936545
  0.9377870718918291  0.2192390144199731  0.5477877002755628
  0.0626849892499514  0.9372173442748954  0.4993416727138225
  0.1862254387353110  0.5637901483537167  0.5025953227923974
  0.0624347874346506  0.7803474590623687  0.4537395073151501
  0.1861647391477869  0.7204876458960245  0.5579055962767190
  0.3127060737257559  0.9373231188317612  0.4990667984626820
  0.4341740513745414  0.5588978710700897  0.5003317678057742
  0.3072826137061000  0.7814698814686784  0.4579356446428463
  0.4539922693496709  0.7197709771830711  0.5773531486230910
  0.5623765143254800  0.9400393821768810  0.4945384343777068
  0.6906289620033271  0.5587504669258210  0.5001991891711802
  0.5625225559015179  0.7826954039157171  0.4648151071836200
  0.6711185417498227  0.7198178854662293  0.5773719083719694
  0.8123933863613431  0.9373857583566267  0.4990334028268812
  0.9389374239255757  0.5637370745505601  0.5024993135231991
  0.8175755562050313  0.7815310004043461  0.4578703385355691
  0.9385416727129625  0.7205543618694132  0.5579423985169168
  0.0625595254994938  0.0261265401844596  0.3986732913716255
  0.1878081608193515  0.4696378049209522  0.5974705755457983
  0.0624229511544985  0.1246348605991690  0.5912022452050162
  0.1867287247452120  0.3761844472794870  0.4037531404738905
  0.1867437309996055  0.1837120202199181  0.4153669173610572
  0.0623203597725488  0.3156113342275220  0.5793980892884076
  0.3106989012077606  0.0270225819432864  0.3988630112145675
  0.4371569080071612  0.4661994712643545  0.5965595593475629
  0.3120827156740127  0.1248338167153930  0.5903513146706993
  0.4365122387591425  0.3748444982614422  0.4030410575840013
  0.4361373357089041  0.1850065347631810  0.4138765452415872
  0.3123194572425991  0.3151723335931038  0.5791050102135864
  0.5624921040079516  0.0325202015414210  0.3971934971900630
  0.6878383476026871  0.4660523678322016  0.5965588377368476
  0.5625373758881511  0.1254214894486808  0.5888669494005369
  0.6883438851174247  0.3747732034241548  0.4028795928601667
  0.6887066289392074  0.1850215690864204  0.4135719451236158
  0.5624263197706728  0.3147346480672117  0.5783091981062602
  0.8143568315590999  0.0271481169600956  0.3987454568378970
  0.9371907087073794  0.4694931159071667  0.5973478202906362
  0.8129794823215912  0.1248842507861675  0.5901110783210728
  0.9384534327030440  0.3760768768386616  0.4038585519268049
  0.9384846745385954  0.1838149907281917  0.4150882938389271
  0.8127043857912133  0.3151256930804801  0.5789610336600420
  0.0625910229208174  0.5300625353220870  0.4034255520118010
  0.1875145721581064  0.9727912373605676  0.5964847958552877
  0.0623547316519011  0.6226843580351297  0.5961681397578020
  0.1882641421473747  0.8727246693684121  0.4062488200637572
  0.1878150730584940  0.6846013362398590  0.4247190605216125
  0.0622945743673792  0.8186221358115202  0.5856545988456697
  0.3096486655623760  0.5296832073203351  0.4016049252836348
  0.4373368843602517  0.9762103445988525  0.5942428681550758
  0.3148449876963461  0.6247548792675748  0.5976269566660292
  0.4372928870937721  0.8714951903529607  0.4091625437633364
  0.4381729988710064  0.6861655910155736  0.4395163265765675
  0.3137521865137635  0.8165887705379122  0.5882356879382284
  0.5621543637888491  0.5284260186626847  0.4022219255844183
  0.6876615560932923  0.9760769160233810  0.5941359400878277
  0.5625242656570474  0.6058486430615418  0.5919287508415191
  0.6877865633769181  0.8716095959740617  0.4091976869831332
  0.6867924481693133  0.6860697811818743  0.4395879707445599
  0.5621401923553784  0.8391584361566498  0.5846920343182016
  0.8154215616153937  0.5295650997035382  0.4015797195771923
  0.9379574814822731  0.9728561440947319  0.5963829830434594
  0.8100409685215413  0.6246997526792677  0.5973467429342694
  0.9367360098627158  0.8728625247016607  0.4062209373755614
  0.9370821506164317  0.6846608389558450  0.4248540535074232
  0.8111331059672012  0.8169213564247153  0.5880847953983444
  0.5625830345261634  0.7272865169711135  0.6468362174624620
 
  0.00000000E+00  0.00000000E+00  0.00000000E+00
  0.00000000E+00  0.00000000E+00  0.00000000E+00
  0.00000000E+00  0.00000000E+00  0.00000000E+00
  0.00000000E+00  0.00000000E+00  0.00000000E+00
  0.00000000E+00  0.00000000E+00  0.00000000E+00
  0.00000000E+00  0.00000000E+00  0.00000000E+00
  0.00000000E+00  0.00000000E+00  0.00000000E+00
  0.00000000E+00  0.00000000E+00  0.00000000E+00
  0.00000000E+00  0.00000000E+00  0.00000000E+00
  0.00000000E+00  0.00000000E+00  0.00000000E+00
  0.00000000E+00  0.00000000E+00  0.00000000E+00
  0.00000000E+00  0.00000000E+00  0.00000000E+00
  0.00000000E+00  0.00000000E+00  0.00000000E+00
  0.00000000E+00  0.00000000E+00  0.00000000E+00
  0.00000000E+00  0.00000000E+00  0.00000000E+00
  0.00000000E+00  0.00000000E+00  0.00000000E+00
  0.00000000E+00  0.00000000E+00  0.00000000E+00
  0.00000000E+00  0.00000000E+00  0.00000000E+00
  0.00000000E+00  0.00000000E+00  0.00000000E+00
  0.00000000E+00  0.00000000E+00  0.00000000E+00
  0.00000000E+00  0.00000000E+00  0.00000000E+00
  0.00000000E+00  0.00000000E+00  0.00000000E+00
  0.00000000E+00  0.00000000E+00  0.00000000E+00
  0.00000000E+00  0.00000000E+00  0.00000000E+00
  0.00000000E+00  0.00000000E+00  0.00000000E+00
  0.00000000E+00  0.00000000E+00  0.00000000E+00
  0.00000000E+00  0.00000000E+00  0.00000000E+00
  0.00000000E+00  0.00000000E+00  0.00000000E+00
  0.00000000E+00  0.00000000E+00  0.00000000E+00
  0.00000000E+00  0.00000000E+00  0.00000000E+00
  0.00000000E+00  0.00000000E+00  0.00000000E+00
  0.00000000E+00  0.00000000E+00  0.00000000E+00
  0.00000000E+00  0.00000000E+00  0.00000000E+00
  0.00000000E+00  0.00000000E+00  0.00000000E+00
  0.00000000E+00  0.00000000E+00  0.00000000E+00
  0.00000000E+00  0.00000000E+00  0.00000000E+00
  0.00000000E+00  0.00000000E+00  0.00000000E+00
  0.00000000E+00  0.00000000E+00  0.00000000E+00
  0.00000000E+00  0.00000000E+00  0.00000000E+00
  0.00000000E+00  0.00000000E+00  0.00000000E+00
  0.00000000E+00  0.00000000E+00  0.00000000E+00
  0.00000000E+00  0.00000000E+00  0.00000000E+00
  0.00000000E+00  0.00000000E+00  0.00000000E+00
  0.00000000E+00  0.00000000E+00  0.00000000E+00
  0.00000000E+00  0.00000000E+00  0.00000000E+00
  0.00000000E+00  0.00000000E+00  0.00000000E+00
  0.00000000E+00  0.00000000E+00  0.00000000E+00
  0.00000000E+00  0.00000000E+00  0.00000000E+00
  0.00000000E+00  0.00000000E+00  0.00000000E+00
  0.00000000E+00  0.00000000E+00  0.00000000E+00
  0.00000000E+00  0.00000000E+00  0.00000000E+00
  0.00000000E+00  0.00000000E+00  0.00000000E+00
  0.00000000E+00  0.00000000E+00  0.00000000E+00
  0.00000000E+00  0.00000000E+00  0.00000000E+00
  0.00000000E+00  0.00000000E+00  0.00000000E+00
  0.00000000E+00  0.00000000E+00  0.00000000E+00
  0.00000000E+00  0.00000000E+00  0.00000000E+00
  0.00000000E+00  0.00000000E+00  0.00000000E+00
  0.00000000E+00  0.00000000E+00  0.00000000E+00
  0.00000000E+00  0.00000000E+00  0.00000000E+00
  0.00000000E+00  0.00000000E+00  0.00000000E+00
  0.00000000E+00  0.00000000E+00  0.00000000E+00
  0.00000000E+00  0.00000000E+00  0.00000000E+00
  0.00000000E+00  0.00000000E+00  0.00000000E+00
  0.00000000E+00  0.00000000E+00  0.00000000E+00
  0.00000000E+00  0.00000000E+00  0.00000000E+00
  0.00000000E+00  0.00000000E+00  0.00000000E+00
  0.00000000E+00  0.00000000E+00  0.00000000E+00
  0.00000000E+00  0.00000000E+00  0.00000000E+00
  0.00000000E+00  0.00000000E+00  0.00000000E+00
  0.00000000E+00  0.00000000E+00  0.00000000E+00
  0.00000000E+00  0.00000000E+00  0.00000000E+00
  0.00000000E+00  0.00000000E+00  0.00000000E+00
  0.00000000E+00  0.00000000E+00  0.00000000E+00
  0.00000000E+00  0.00000000E+00  0.00000000E+00
  0.00000000E+00  0.00000000E+00  0.00000000E+00
  0.00000000E+00  0.00000000E+00  0.00000000E+00
  0.00000000E+00  0.00000000E+00  0.00000000E+00
  0.00000000E+00  0.00000000E+00  0.00000000E+00
  0.00000000E+00  0.00000000E+00  0.00000000E+00
  0.00000000E+00  0.00000000E+00  0.00000000E+00
