CONTCAR                                 
   1.00000000000000     
     9.7571001052999993    0.0000000000000000    0.0000000000000000
    -3.0063686365000000   15.8319856181999992    0.0000000000000000
     0.0000000000000000    0.0000000000000000   18.2793006897000012
   V    P    S    O    H 
     4     8    26     2     1
Direct
  0.6072835612178089  0.5826168786085787  0.4916906752544498
  0.6245406353974692  0.1034204745361324  0.5009205079552391
  0.4148811109910817  0.4092686768810527  0.4908233858936347
  0.3867337889804869  0.8931559063335034  0.4967044032490823
  0.8396191738888162  0.2599647489845804  0.4933271151504124
  0.7382962510411699  0.4187619220708662  0.5913106357977685
  0.1698242498521927  0.7385109008586176  0.5074550386366236
  0.1929395780832974  0.2460774289070474  0.4886283538776497
  0.3126030976124262  0.0663311769149130  0.5328134340543476
  0.6980251017794740  0.9295940886319196  0.4608039443277726
  0.3021345237486614  0.5663597496310561  0.4637996725098641
  0.8227879025669235  0.7498350275541830  0.5032804479417039
  0.1279574406540092  0.1155609322246930  0.5163158272102599
  0.8832407682853113  0.8799431707047897  0.4711945992722040
 -0.0033855667339534  0.7476710172617989  0.5755743704460342
  0.4028565566221954  0.0374342322296500  0.4360880943988455
  0.5459918010438377  0.3491190534336765  0.5863987484363123
  0.2400881039456750  0.4544002524042286  0.4138587867249700
  0.2246711422603191  0.3238722972323333  0.5739024780552286
  0.6567624330407104  0.7211877988209897  0.5681700018043923
  0.4549877078270624  0.6475628647188769  0.4141259645172818
  0.6074585893621466  0.4639492833149386  0.4265336803925571
  0.6733184978632282  0.2272026435947637  0.4263460992663911
  0.8920611009621063  0.3919745231446757  0.5168531348235724
  0.0122670105626716  0.2549821143395367  0.4222289709307472
  0.6113941849747887  0.9574856188317202  0.5591927011265768
  0.8036197774159696  0.6680225939820413  0.4197880853137399
  0.3975838386610119  0.5347328126402139  0.5608573313640784
  0.1967020516372693  0.8154752143404701  0.4205169118119784
  0.7572638216057134  0.5450329237450362  0.5923374286042038
  0.5397769781862550  0.8524685778618181  0.4085254071840407
  0.2399822188170362  0.9552146513866607  0.5820842385764655
  0.3377970611226507  0.7688167877696860  0.5731727400967503
  0.8139417030289028  0.1806360596272648  0.5784018101666165
  0.7695063144052008  0.0420416159593719  0.4133764270327797
  0.4680490418542336  0.1433378294134146  0.5869522957458377
  0.1113347032967861  0.6071547694099522  0.4807843775684051
  0.3554566345972877  0.2734967370544328  0.4200479928943577
  0.8202259835256738  0.3896907377907875  0.6636388973453021
  0.7404571524848614  0.4019768533271215  0.7306076911290655
  0.7918839375312161  0.4575391415225917  0.7462474241124568
 
  0.00000000E+00  0.00000000E+00  0.00000000E+00
  0.00000000E+00  0.00000000E+00  0.00000000E+00
  0.00000000E+00  0.00000000E+00  0.00000000E+00
  0.00000000E+00  0.00000000E+00  0.00000000E+00
  0.00000000E+00  0.00000000E+00  0.00000000E+00
  0.00000000E+00  0.00000000E+00  0.00000000E+00
  0.00000000E+00  0.00000000E+00  0.00000000E+00
  0.00000000E+00  0.00000000E+00  0.00000000E+00
  0.00000000E+00  0.00000000E+00  0.00000000E+00
  0.00000000E+00  0.00000000E+00  0.00000000E+00
  0.00000000E+00  0.00000000E+00  0.00000000E+00
  0.00000000E+00  0.00000000E+00  0.00000000E+00
  0.00000000E+00  0.00000000E+00  0.00000000E+00
  0.00000000E+00  0.00000000E+00  0.00000000E+00
  0.00000000E+00  0.00000000E+00  0.00000000E+00
  0.00000000E+00  0.00000000E+00  0.00000000E+00
  0.00000000E+00  0.00000000E+00  0.00000000E+00
  0.00000000E+00  0.00000000E+00  0.00000000E+00
  0.00000000E+00  0.00000000E+00  0.00000000E+00
  0.00000000E+00  0.00000000E+00  0.00000000E+00
  0.00000000E+00  0.00000000E+00  0.00000000E+00
  0.00000000E+00  0.00000000E+00  0.00000000E+00
  0.00000000E+00  0.00000000E+00  0.00000000E+00
  0.00000000E+00  0.00000000E+00  0.00000000E+00
  0.00000000E+00  0.00000000E+00  0.00000000E+00
  0.00000000E+00  0.00000000E+00  0.00000000E+00
  0.00000000E+00  0.00000000E+00  0.00000000E+00
  0.00000000E+00  0.00000000E+00  0.00000000E+00
  0.00000000E+00  0.00000000E+00  0.00000000E+00
  0.00000000E+00  0.00000000E+00  0.00000000E+00
  0.00000000E+00  0.00000000E+00  0.00000000E+00
  0.00000000E+00  0.00000000E+00  0.00000000E+00
  0.00000000E+00  0.00000000E+00  0.00000000E+00
  0.00000000E+00  0.00000000E+00  0.00000000E+00
  0.00000000E+00  0.00000000E+00  0.00000000E+00
  0.00000000E+00  0.00000000E+00  0.00000000E+00
  0.00000000E+00  0.00000000E+00  0.00000000E+00
  0.00000000E+00  0.00000000E+00  0.00000000E+00
  0.00000000E+00  0.00000000E+00  0.00000000E+00
  0.00000000E+00  0.00000000E+00  0.00000000E+00
  0.00000000E+00  0.00000000E+00  0.00000000E+00
