CONTCAR\(2)                             
   1.00000000000000     
    14.4987001419000006    0.0000000000000000    0.0000000000000000
    -0.3851722429000000   15.7714976485000005    0.0000000000000000
     0.0000000000000000    0.0000000000000000   25.2446994780999994
   Cr   P    O 
    24    24   120
Direct
  0.9968155698438892  0.3517505323725132  0.3452379855606367
  0.2453111867385473  0.3734895487622936  0.5195800185076251
  0.0880198465393249  0.1265191453318835  0.4804013755547771
  0.3364618711586402  0.1482544531658831  0.6547448978083779
  0.3302030378164957  0.3517447932446061  0.3452531214884544
  0.5786408352994457  0.3734880202753459  0.5195958693435685
  0.4213555485029019  0.1265184584164274  0.4804190678360385
  0.6698500247791799  0.1482500198707939  0.6547639045613067
  0.6635254692733525  0.3517509026896519  0.3452556037712355
  0.9119731725061797  0.3734841922058436  0.5195894890089221
  0.7546791875505576  0.1265165872182834  0.4804200033372794
  0.0031807337401801  0.1482403911967296  0.6547557207478789
  0.9968155718438894  0.8517505953725077  0.3452379855606367
  0.2453111997385449  0.8734895807622962  0.5195800185076251
  0.0880198515393218  0.6265191553318843  0.4804013755547771
  0.3364618821586376  0.6482544111658868  0.6547448978083779
  0.3302030518164969  0.8517448562446006  0.3452531214884544
  0.5786408482994432  0.8734880522753485  0.5195958693435685
  0.4213555275029037  0.6265184684164282  0.4804190678360385
  0.6698500357791772  0.6482499778707975  0.6547639045613067
  0.6635254172733482  0.8517509656896465  0.3452556037712355
  0.9119731855061843  0.8734842242058605  0.5195894890089221
  0.7546792005505552  0.6265165972182842  0.4804200033372794
  0.0031807447401775  0.6482403491967332  0.6547557207478789
  0.0742734048216747  0.4395295436635109  0.4465198893991555
  0.2529014067205893  0.2186883115382869  0.4310703966168177
  0.0804536444926285  0.2812992598553592  0.5689222753599097
  0.2590358926337970  0.0604627990013356  0.5534664856947913
  0.4076381882249223  0.4395348332886755  0.4465294698343882
  0.5862228642942284  0.2187061509684867  0.4310852915954655
  0.4137753455309223  0.2813057818907367  0.5689293691080053
  0.5923685738454765  0.0604688307383299  0.5534851587897265
  0.7409454014058880  0.4395359414379811  0.4465359354551381
  0.9195406260307664  0.2187007811397379  0.4310743269607187
  0.7471094360110158  0.2813091374943468  0.5689352207615030
  0.9257130754364908  0.0604665938753328  0.5534696844241722
  0.0742734038216781  0.9395295156635228  0.4465198893991555
  0.2529014017205853  0.7186882985382894  0.4310703966168177
  0.0804536434926320  0.7812992628553630  0.5689222753599097
  0.2590358896337932  0.5604628280013344  0.5534664856947913
  0.4076381992249196  0.9395348052886803  0.4465294698343882
  0.5862228762942223  0.7187061379684963  0.4310852915954655
  0.4137753575309162  0.7813057848907405  0.5689293691080053
  0.5923685868454740  0.5604688597383358  0.5534851587897265
  0.7409453474058836  0.9395359134379859  0.4465359354551381
  0.9195406380307602  0.7187007681397262  0.4310743269607187
  0.7471093830110220  0.7813091404943364  0.5689352207615030
  0.9257130884364884  0.5604666228753317  0.5534696844241722
  0.0793501925243874  0.3959818120100493  0.3894930210154683
  0.3070424251336235  0.4395037430357789  0.4652245551210683
  0.2545924462156464  0.4186443706328262  0.3314637745934874
  0.1339122386286533  0.3842976025837928  0.4811415324427060
  0.2197075435816558  0.4703864573927135  0.5606383869260085
  0.2789014647426740  0.2609516141827299  0.3762785130415409
  0.0479152370430072  0.3247161836972197  0.2929268021439455
  0.1825608492590476  0.3071635469380283  0.5729529557763158
  0.2689237410134737  0.2816097492569440  0.4761536855981632
  0.3153230180001145  0.1425917627482249  0.4384900543570964
  0.0180280880782391  0.3574000507136077  0.5615096901183847
  0.0644321129365792  0.2183922732343078  0.5238287474055809
  0.1507915306746455  0.1928205793302311  0.4270313014075100
  0.2853677288706891  0.1752529137609855  0.7070638684658732
  0.0544711834188050  0.2390270140386122  0.6237078728417842
  0.1135959671293847  0.0296124902035544  0.4393524831336677
  0.1994139719618175  0.1156923449469502  0.5188270947995051
  0.0787896176229381  0.0813232168676876  0.6685238907487232
  0.0262917457234977  0.0605020181358427  0.5347511081308340
  0.2539386054355575  0.1040375434391692  0.6104858818590202
  0.4127297025496333  0.3959852652493225  0.3895028706879344
  0.6403569759296559  0.4395020431307941  0.4652342918550758
  0.5879227510159311  0.4186553855397150  0.3314598203364199
  0.4672442513505644  0.3842920613327934  0.4811584032251446
  0.5530409624518455  0.4703970024936623  0.5606514487294589
  0.6122083632611108  0.2609765214217603  0.3762963923135985
  0.3813015792332806  0.3247360572516698  0.2929371616520697
  0.5158777245177575  0.3071725869503155  0.5729701377275660
  0.6022515890230338  0.2816065640065446  0.4761712768440916
  0.6486404721359804  0.1425941398084447  0.4384950945242707
  0.3513541656626629  0.3574157659968549  0.5615088949169902
  0.3977482454293551  0.2183872742703485  0.5238477227457423
  0.4841115211289022  0.1928354665749268  0.4270493597432719
  0.6187615772856034  0.1752468115821131  0.7070870814422818
  0.3877638102345031  0.2390523820186985  0.6237219809739258
  0.4469653835982115  0.0296135841847303  0.4393714976123348
  0.5327500448981866  0.1157114369890166  0.5188568028359413
  0.4120747359465042  0.0813515380704715  0.6685250777619416
  0.3596189918959425  0.0604977788841339  0.5347669065850340
  0.5873075376498349  0.1040345153934581  0.6105062613773029
  0.7460429399471096  0.3959881149914537  0.3895090399195453
  0.9736950911321216  0.4394890841870875  0.4652256825223589
  0.9212172845787876  0.4186590186005290  0.3314439772972335
  0.8005671841427784  0.3842987542317857  0.4811618358715890
  0.8863919368536983  0.4703951914067588  0.5606430963895690
  0.9455074380085051  0.2609803337538565  0.3762865692890784
  0.7146263165424145  0.3247238555656153  0.2929441421108550
  0.8492216057375899  0.3071777899371853  0.5729662112962117
  0.9355659533121923  0.2816010892387126  0.4761660971034374
  0.9819784152754281  0.1426047500863561  0.4384802618529875
  0.6846848156836316  0.3574091969524673  0.5615204572068535
  0.7310860260590601  0.2183866749341234  0.5238500504148647
  0.8174312576071756  0.1928219334351837  0.4270449108234331
  0.9520912551191714  0.1752375200505583  0.7070761570536064
  0.7211225078926660  0.2390481568311884  0.6237273713259057
  0.7802745208269215  0.0296161884688075  0.4393698833336046
  0.8660811108979516  0.1157031108447768  0.5188456352330206
  0.7454653045248421  0.0813478205654903  0.6685326187096123
  0.6929528271399548  0.0604953581712664  0.5347719849941512
  0.9206516943279865  0.1040296728053818  0.6104899319091217
  0.0793501925243874  0.8959818150100460  0.3894930210154683
  0.3070424381336210  0.9395037760357852  0.4652245551210683
  0.2545924592156510  0.9186444336328350  0.3314637745934874
  0.1339122426286536  0.8842976045837787  0.4811415324427060
  0.2197075385816589  0.9703864293927182  0.5606383869260085
  0.2789014607426736  0.7609516161827301  0.3762785130415409
  0.0479152400430038  0.8247161556972245  0.2929268021439455
  0.1825608462590509  0.8071636099380299  0.5729529557763158
  0.2689237370134734  0.7816097522569407  0.4761536855981632
  0.3153230300001155  0.6425917507482382  0.4384900543570964
  0.0180280870782425  0.8574000537136115  0.5615096901183847
  0.0644321089365789  0.7183922752343079  0.5238287474055809
  0.1507915336746422  0.6928205213302263  0.4270313014075100
  0.2853677408706901  0.6752529157609857  0.7070638684658732
  0.0544711834188050  0.7390270310386171  0.6237078728417842
  0.1135959631293844  0.5296125022035412  0.4393524831336677
  0.1994139679618172  0.6156923549469511  0.5188270947995051
  0.0787896176229381  0.5813231818676883  0.6685238907487232
  0.0262917457234977  0.5605019871358436  0.5347511081308340
  0.2539386004355606  0.6040375384391652  0.6104858818590202
  0.4127297155496308  0.8959852682493192  0.3895028706879344
  0.6403569229296622  0.9395020761308004  0.4652342918550758
  0.5879226990159268  0.9186554485397167  0.3314598203364199
  0.4672442633505653  0.8842920633327935  0.4811584032251446
  0.5530409734518500  0.9703969744936529  0.5606514487294589
  0.6122083752611118  0.7609765234217605  0.3762963923135985
  0.3813015572332787  0.8247360292516746  0.2929371616520697
  0.5158777055177595  0.8071726499503171  0.5729701377275660
  0.6022516010230277  0.7816065670065484  0.4761712768440916
  0.6486404841359814  0.6425941278084437  0.4384950945242707
  0.3513541776626639  0.8574157689968658  0.5615088949169902
  0.3977482244293569  0.7183872762703487  0.5238477227457423
  0.4841115311288959  0.6928354085749220  0.4270493597432719
  0.6187615232856061  0.6752468135821132  0.7070870814422818
  0.3877637902345015  0.7390523990187035  0.6237219809739258
  0.4469653635982098  0.5296135961847241  0.4393714976123348
  0.5327500568981876  0.6157114469890104  0.5188568028359413
  0.4120747139465024  0.5813515030704721  0.6685250777619416
  0.3596190028959398  0.5604977478841349  0.5347669065850340
  0.5873075496498288  0.6040345103934541  0.6105062613773029
  0.7460429519471106  0.8959881179914646  0.3895090399195453
  0.9736950381321279  0.9394891171870938  0.4652256825223589
  0.9212172325787904  0.9186590816005307  0.3314439772972335
  0.8005671961427794  0.8842987562317859  0.4811618358715890
  0.8863919488536993  0.9703951634067565  0.5606430963895690
  0.9455074510085026  0.7609803357538567  0.3762865692890784
  0.7146263275424118  0.8247238275656130  0.2929441421108550
  0.8492216197375839  0.8071778529371869  0.5729662112962117
  0.9355659653121933  0.7816010922387093  0.4761660971034374
  0.9819784272754291  0.6426047380863551  0.4384802618529875
  0.6846847626836379  0.8574091999524711  0.5615204572068535
  0.7310860380590611  0.7183866769341236  0.5238500504148647
  0.8174312026071817  0.6928218754351789  0.4270449108234331
  0.9520912021191705  0.6752375220505584  0.7070761570536064
  0.7211225208926635  0.7390481738312005  0.6237273713259057
  0.7802745328269225  0.5296162004688014  0.4393698833336046
  0.8660810578979579  0.6157031208447776  0.5188456352330206
  0.7454653155248394  0.5813477855654909  0.6685326187096123
  0.6929528391399558  0.5604953271712745  0.5347719849941512
  0.9206517073279770  0.6040296678053778  0.6104899319091217
 
  0.00000000E+00  0.00000000E+00  0.00000000E+00
  0.00000000E+00  0.00000000E+00  0.00000000E+00
  0.00000000E+00  0.00000000E+00  0.00000000E+00
  0.00000000E+00  0.00000000E+00  0.00000000E+00
  0.00000000E+00  0.00000000E+00  0.00000000E+00
  0.00000000E+00  0.00000000E+00  0.00000000E+00
  0.00000000E+00  0.00000000E+00  0.00000000E+00
  0.00000000E+00  0.00000000E+00  0.00000000E+00
  0.00000000E+00  0.00000000E+00  0.00000000E+00
  0.00000000E+00  0.00000000E+00  0.00000000E+00
  0.00000000E+00  0.00000000E+00  0.00000000E+00
  0.00000000E+00  0.00000000E+00  0.00000000E+00
  0.00000000E+00  0.00000000E+00  0.00000000E+00
  0.00000000E+00  0.00000000E+00  0.00000000E+00
  0.00000000E+00  0.00000000E+00  0.00000000E+00
  0.00000000E+00  0.00000000E+00  0.00000000E+00
  0.00000000E+00  0.00000000E+00  0.00000000E+00
  0.00000000E+00  0.00000000E+00  0.00000000E+00
  0.00000000E+00  0.00000000E+00  0.00000000E+00
  0.00000000E+00  0.00000000E+00  0.00000000E+00
  0.00000000E+00  0.00000000E+00  0.00000000E+00
  0.00000000E+00  0.00000000E+00  0.00000000E+00
  0.00000000E+00  0.00000000E+00  0.00000000E+00
  0.00000000E+00  0.00000000E+00  0.00000000E+00
  0.00000000E+00  0.00000000E+00  0.00000000E+00
  0.00000000E+00  0.00000000E+00  0.00000000E+00
  0.00000000E+00  0.00000000E+00  0.00000000E+00
  0.00000000E+00  0.00000000E+00  0.00000000E+00
  0.00000000E+00  0.00000000E+00  0.00000000E+00
  0.00000000E+00  0.00000000E+00  0.00000000E+00
  0.00000000E+00  0.00000000E+00  0.00000000E+00
  0.00000000E+00  0.00000000E+00  0.00000000E+00
  0.00000000E+00  0.00000000E+00  0.00000000E+00
  0.00000000E+00  0.00000000E+00  0.00000000E+00
  0.00000000E+00  0.00000000E+00  0.00000000E+00
  0.00000000E+00  0.00000000E+00  0.00000000E+00
  0.00000000E+00  0.00000000E+00  0.00000000E+00
  0.00000000E+00  0.00000000E+00  0.00000000E+00
  0.00000000E+00  0.00000000E+00  0.00000000E+00
  0.00000000E+00  0.00000000E+00  0.00000000E+00
  0.00000000E+00  0.00000000E+00  0.00000000E+00
  0.00000000E+00  0.00000000E+00  0.00000000E+00
  0.00000000E+00  0.00000000E+00  0.00000000E+00
  0.00000000E+00  0.00000000E+00  0.00000000E+00
  0.00000000E+00  0.00000000E+00  0.00000000E+00
  0.00000000E+00  0.00000000E+00  0.00000000E+00
  0.00000000E+00  0.00000000E+00  0.00000000E+00
  0.00000000E+00  0.00000000E+00  0.00000000E+00
  0.00000000E+00  0.00000000E+00  0.00000000E+00
  0.00000000E+00  0.00000000E+00  0.00000000E+00
  0.00000000E+00  0.00000000E+00  0.00000000E+00
  0.00000000E+00  0.00000000E+00  0.00000000E+00
  0.00000000E+00  0.00000000E+00  0.00000000E+00
  0.00000000E+00  0.00000000E+00  0.00000000E+00
  0.00000000E+00  0.00000000E+00  0.00000000E+00
  0.00000000E+00  0.00000000E+00  0.00000000E+00
  0.00000000E+00  0.00000000E+00  0.00000000E+00
  0.00000000E+00  0.00000000E+00  0.00000000E+00
  0.00000000E+00  0.00000000E+00  0.00000000E+00
  0.00000000E+00  0.00000000E+00  0.00000000E+00
  0.00000000E+00  0.00000000E+00  0.00000000E+00
  0.00000000E+00  0.00000000E+00  0.00000000E+00
  0.00000000E+00  0.00000000E+00  0.00000000E+00
  0.00000000E+00  0.00000000E+00  0.00000000E+00
  0.00000000E+00  0.00000000E+00  0.00000000E+00
  0.00000000E+00  0.00000000E+00  0.00000000E+00
  0.00000000E+00  0.00000000E+00  0.00000000E+00
  0.00000000E+00  0.00000000E+00  0.00000000E+00
  0.00000000E+00  0.00000000E+00  0.00000000E+00
  0.00000000E+00  0.00000000E+00  0.00000000E+00
  0.00000000E+00  0.00000000E+00  0.00000000E+00
  0.00000000E+00  0.00000000E+00  0.00000000E+00
  0.00000000E+00  0.00000000E+00  0.00000000E+00
  0.00000000E+00  0.00000000E+00  0.00000000E+00
  0.00000000E+00  0.00000000E+00  0.00000000E+00
  0.00000000E+00  0.00000000E+00  0.00000000E+00
  0.00000000E+00  0.00000000E+00  0.00000000E+00
  0.00000000E+00  0.00000000E+00  0.00000000E+00
  0.00000000E+00  0.00000000E+00  0.00000000E+00
  0.00000000E+00  0.00000000E+00  0.00000000E+00
  0.00000000E+00  0.00000000E+00  0.00000000E+00
  0.00000000E+00  0.00000000E+00  0.00000000E+00
  0.00000000E+00  0.00000000E+00  0.00000000E+00
  0.00000000E+00  0.00000000E+00  0.00000000E+00
  0.00000000E+00  0.00000000E+00  0.00000000E+00
  0.00000000E+00  0.00000000E+00  0.00000000E+00
  0.00000000E+00  0.00000000E+00  0.00000000E+00
  0.00000000E+00  0.00000000E+00  0.00000000E+00
  0.00000000E+00  0.00000000E+00  0.00000000E+00
  0.00000000E+00  0.00000000E+00  0.00000000E+00
  0.00000000E+00  0.00000000E+00  0.00000000E+00
  0.00000000E+00  0.00000000E+00  0.00000000E+00
  0.00000000E+00  0.00000000E+00  0.00000000E+00
  0.00000000E+00  0.00000000E+00  0.00000000E+00
  0.00000000E+00  0.00000000E+00  0.00000000E+00
  0.00000000E+00  0.00000000E+00  0.00000000E+00
  0.00000000E+00  0.00000000E+00  0.00000000E+00
  0.00000000E+00  0.00000000E+00  0.00000000E+00
  0.00000000E+00  0.00000000E+00  0.00000000E+00
  0.00000000E+00  0.00000000E+00  0.00000000E+00
  0.00000000E+00  0.00000000E+00  0.00000000E+00
  0.00000000E+00  0.00000000E+00  0.00000000E+00
  0.00000000E+00  0.00000000E+00  0.00000000E+00
  0.00000000E+00  0.00000000E+00  0.00000000E+00
  0.00000000E+00  0.00000000E+00  0.00000000E+00
  0.00000000E+00  0.00000000E+00  0.00000000E+00
  0.00000000E+00  0.00000000E+00  0.00000000E+00
  0.00000000E+00  0.00000000E+00  0.00000000E+00
  0.00000000E+00  0.00000000E+00  0.00000000E+00
  0.00000000E+00  0.00000000E+00  0.00000000E+00
  0.00000000E+00  0.00000000E+00  0.00000000E+00
  0.00000000E+00  0.00000000E+00  0.00000000E+00
  0.00000000E+00  0.00000000E+00  0.00000000E+00
  0.00000000E+00  0.00000000E+00  0.00000000E+00
  0.00000000E+00  0.00000000E+00  0.00000000E+00
  0.00000000E+00  0.00000000E+00  0.00000000E+00
  0.00000000E+00  0.00000000E+00  0.00000000E+00
  0.00000000E+00  0.00000000E+00  0.00000000E+00
  0.00000000E+00  0.00000000E+00  0.00000000E+00
  0.00000000E+00  0.00000000E+00  0.00000000E+00
  0.00000000E+00  0.00000000E+00  0.00000000E+00
  0.00000000E+00  0.00000000E+00  0.00000000E+00
  0.00000000E+00  0.00000000E+00  0.00000000E+00
  0.00000000E+00  0.00000000E+00  0.00000000E+00
  0.00000000E+00  0.00000000E+00  0.00000000E+00
  0.00000000E+00  0.00000000E+00  0.00000000E+00
  0.00000000E+00  0.00000000E+00  0.00000000E+00
  0.00000000E+00  0.00000000E+00  0.00000000E+00
  0.00000000E+00  0.00000000E+00  0.00000000E+00
  0.00000000E+00  0.00000000E+00  0.00000000E+00
  0.00000000E+00  0.00000000E+00  0.00000000E+00
  0.00000000E+00  0.00000000E+00  0.00000000E+00
  0.00000000E+00  0.00000000E+00  0.00000000E+00
  0.00000000E+00  0.00000000E+00  0.00000000E+00
  0.00000000E+00  0.00000000E+00  0.00000000E+00
  0.00000000E+00  0.00000000E+00  0.00000000E+00
  0.00000000E+00  0.00000000E+00  0.00000000E+00
  0.00000000E+00  0.00000000E+00  0.00000000E+00
  0.00000000E+00  0.00000000E+00  0.00000000E+00
  0.00000000E+00  0.00000000E+00  0.00000000E+00
  0.00000000E+00  0.00000000E+00  0.00000000E+00
  0.00000000E+00  0.00000000E+00  0.00000000E+00
  0.00000000E+00  0.00000000E+00  0.00000000E+00
  0.00000000E+00  0.00000000E+00  0.00000000E+00
  0.00000000E+00  0.00000000E+00  0.00000000E+00
  0.00000000E+00  0.00000000E+00  0.00000000E+00
  0.00000000E+00  0.00000000E+00  0.00000000E+00
  0.00000000E+00  0.00000000E+00  0.00000000E+00
  0.00000000E+00  0.00000000E+00  0.00000000E+00
  0.00000000E+00  0.00000000E+00  0.00000000E+00
  0.00000000E+00  0.00000000E+00  0.00000000E+00
  0.00000000E+00  0.00000000E+00  0.00000000E+00
  0.00000000E+00  0.00000000E+00  0.00000000E+00
  0.00000000E+00  0.00000000E+00  0.00000000E+00
  0.00000000E+00  0.00000000E+00  0.00000000E+00
  0.00000000E+00  0.00000000E+00  0.00000000E+00
  0.00000000E+00  0.00000000E+00  0.00000000E+00
  0.00000000E+00  0.00000000E+00  0.00000000E+00
  0.00000000E+00  0.00000000E+00  0.00000000E+00
  0.00000000E+00  0.00000000E+00  0.00000000E+00
  0.00000000E+00  0.00000000E+00  0.00000000E+00
  0.00000000E+00  0.00000000E+00  0.00000000E+00
  0.00000000E+00  0.00000000E+00  0.00000000E+00
  0.00000000E+00  0.00000000E+00  0.00000000E+00
  0.00000000E+00  0.00000000E+00  0.00000000E+00
  0.00000000E+00  0.00000000E+00  0.00000000E+00
  0.00000000E+00  0.00000000E+00  0.00000000E+00
  0.00000000E+00  0.00000000E+00  0.00000000E+00
