CONTCAR\(6)                             
   1.00000000000000     
    12.5545997620000005    0.0000000000000000    0.0000000000000000
     6.2753582318000003   10.8725691462000000    0.0000000000000000
     0.0000000000000000    0.0000000000000000   18.6128997803000011
   Ta   Se   O 
    13    26     1
Direct
  0.9982634360453915  0.0044197583072361  0.4992468273237520
  0.7863511259953171  0.9304408573668752  0.4975676004084022
  0.2153964015349317  0.0689771521953872  0.4990282932462549
  0.2776525439316089  0.7965443741398559  0.5031152496882498
  0.7248968486391476  0.2078534908745695  0.4995507774717609
  0.0611082991750536  0.7241613259764534  0.5029321655811501
  0.9351676866044372  0.2803885031389370  0.4990112186776727
  0.8514586773570798  0.6342975990756869  0.5022311819787717
  0.1594097654690430  0.3563940487656652  0.4996722087745269
  0.5160705303244484  0.8384492250398381  0.5004162280326483
  0.4941239049051163  0.1355297723986482  0.4985397510583311
  0.3688790499952646  0.4762386101064848  0.5201212310638041
  0.6383009820152026  0.5082995438101747  0.5031019270957486
  0.9411854086398534  0.8845401894076517  0.5985892171545544
  0.0526276316646275  0.1223908616138019  0.4005968317735054
  0.1692076741409139  0.9602771197199687  0.5995219850102913
  0.8284556488235424  0.0473996863649333  0.3995478114425595
  0.8797590244249136  0.1731122412570016  0.5980671938953535
  0.1258699845526152  0.8225087144767258  0.4040551503089915
  0.2163918088586811  0.6954065564763496  0.6056206832323667
  0.7506038996953492  0.3501121022872908  0.4062463551028799
  0.1020533957072658  0.2493517867000250  0.5943690431569379
  0.9004601795361324  0.7448971460672951  0.4058801364602616
  0.6518754433587901  0.0968923353521518  0.5938206229706680
  0.3535500564829590  0.8961094062498773  0.4055008230822565
  0.0317504901306336  0.5633821787379034  0.5853113378091592
  0.9752844236174525  0.4326253200568857  0.4172302415885625
  0.4094386142034665  0.0218275510434935  0.5829394607335558
  0.5981624505618797  0.9627663734011733  0.4128714545335299
  0.5846620124016511  0.3880372533635708  0.5894042451989776
  0.4303958944007462  0.5893743605641504  0.4292546716396686
  0.7117430133542015  0.8013252795660577  0.5839303823599380
  0.2929558400197507  0.1929353468240080  0.4134753699007163
  0.4831065969790345  0.7086622297234442  0.5874987111546233
  0.5116279479834418  0.2928519560791329  0.4249086009659564
  0.8066965999769167  0.4817396287021438  0.5854840562789221
  0.2051187408514537  0.5134751970507452  0.4274093492390989
  0.3409010374292549  0.3098103025195655  0.5878377892450430
  0.6688243178440842  0.6598141529848576  0.4170948242939332
  0.3394223013683444  0.5322404162139804  0.6193988220666284
 
  0.00000000E+00  0.00000000E+00  0.00000000E+00
  0.00000000E+00  0.00000000E+00  0.00000000E+00
  0.00000000E+00  0.00000000E+00  0.00000000E+00
  0.00000000E+00  0.00000000E+00  0.00000000E+00
  0.00000000E+00  0.00000000E+00  0.00000000E+00
  0.00000000E+00  0.00000000E+00  0.00000000E+00
  0.00000000E+00  0.00000000E+00  0.00000000E+00
  0.00000000E+00  0.00000000E+00  0.00000000E+00
  0.00000000E+00  0.00000000E+00  0.00000000E+00
  0.00000000E+00  0.00000000E+00  0.00000000E+00
  0.00000000E+00  0.00000000E+00  0.00000000E+00
  0.00000000E+00  0.00000000E+00  0.00000000E+00
  0.00000000E+00  0.00000000E+00  0.00000000E+00
  0.00000000E+00  0.00000000E+00  0.00000000E+00
  0.00000000E+00  0.00000000E+00  0.00000000E+00
  0.00000000E+00  0.00000000E+00  0.00000000E+00
  0.00000000E+00  0.00000000E+00  0.00000000E+00
  0.00000000E+00  0.00000000E+00  0.00000000E+00
  0.00000000E+00  0.00000000E+00  0.00000000E+00
  0.00000000E+00  0.00000000E+00  0.00000000E+00
  0.00000000E+00  0.00000000E+00  0.00000000E+00
  0.00000000E+00  0.00000000E+00  0.00000000E+00
  0.00000000E+00  0.00000000E+00  0.00000000E+00
  0.00000000E+00  0.00000000E+00  0.00000000E+00
  0.00000000E+00  0.00000000E+00  0.00000000E+00
  0.00000000E+00  0.00000000E+00  0.00000000E+00
  0.00000000E+00  0.00000000E+00  0.00000000E+00
  0.00000000E+00  0.00000000E+00  0.00000000E+00
  0.00000000E+00  0.00000000E+00  0.00000000E+00
  0.00000000E+00  0.00000000E+00  0.00000000E+00
  0.00000000E+00  0.00000000E+00  0.00000000E+00
  0.00000000E+00  0.00000000E+00  0.00000000E+00
  0.00000000E+00  0.00000000E+00  0.00000000E+00
  0.00000000E+00  0.00000000E+00  0.00000000E+00
  0.00000000E+00  0.00000000E+00  0.00000000E+00
  0.00000000E+00  0.00000000E+00  0.00000000E+00
  0.00000000E+00  0.00000000E+00  0.00000000E+00
  0.00000000E+00  0.00000000E+00  0.00000000E+00
  0.00000000E+00  0.00000000E+00  0.00000000E+00
  0.00000000E+00  0.00000000E+00  0.00000000E+00
