CONTCAR\(22)                            
   1.00000000000000     
    15.1381998061999994    0.0000000000000000    0.0000000000000000
     0.0000000000000000   18.7124004363999994    0.0000000000000000
     0.0000000000000000    0.0000000000000000   17.8572998046999984
   Cu   Te   O 
    16    16    48
Direct
  0.3463833433748644  0.2555192513697015  0.5257929971696669
  0.0963833353748638  0.4944807486302985  0.5257929971696669
  0.1536166726251369  0.2444807486302984  0.4742070028303331
  0.4036166726251369  0.0055192513697016  0.4742070028303331
  0.8463833113748620  0.2555192513697015  0.5257929971696669
  0.5963833273748633  0.4944807486302985  0.5257929971696669
  0.6536166566251354  0.2444807486302984  0.4742070028303331
  0.9036166406251340  0.0055192513697016  0.4742070028303331
  0.3463833433748644  0.7555192773697036  0.5257929971696669
  0.0963833353748638  0.9944807486302986  0.5257929971696669
  0.1536166726251369  0.7444807226302964  0.4742070028303331
  0.4036166726251369  0.5055192513697014  0.4742070028303331
  0.8463833113748620  0.7555192773697036  0.5257929971696669
  0.5963833273748633  0.9944807486302986  0.5257929971696669
  0.6536166566251354  0.7444807226302964  0.4742070028303331
  0.9036166406251340  0.5055192513697014  0.4742070028303331
  0.2767983922547656  0.1043235042226354  0.5762282027588693
  0.2232116087452340  0.3956764697773624  0.4237717972411306
  0.4732016237452357  0.3543235302226376  0.4237717972411306
  0.0267883952547591  0.1456764957773646  0.5762282027588693
  0.7767883752547643  0.1043235042226354  0.5762282027588693
  0.7232115927452402  0.3956764697773624  0.4237717972411306
  0.9732016237452360  0.3543235302226376  0.4237717972411306
  0.5267883912547656  0.1456764957773646  0.5762282027588693
  0.2767983922547656  0.6043234792226371  0.5762282027588693
  0.2232116087452340  0.8956764697773623  0.4237717972411306
  0.4732016237452357  0.8543235042226356  0.4237717972411306
  0.0267883952547591  0.6456764957773644  0.5762282027588693
  0.7767883752547643  0.6043234792226371  0.5762282027588693
  0.7232115927452402  0.8956764697773623  0.4237717972411306
  0.9732016237452360  0.8543235042226356  0.4237717972411306
  0.5267883912547656  0.6456764957773644  0.5762282027588693
  0.3045414424853686  0.0665735859176704  0.4819198019044770
  0.2598425031303472  0.3010959864972965  0.4578494335951235
  0.3996361665261223  0.1750277983477821  0.5777361035610327
  0.4901574808696515  0.0510959764972957  0.5421505664048766
  0.3503638484738754  0.4250278113477797  0.4222638964389677
  0.1496361515261246  0.0749722016522179  0.5777361035610327
  0.4454585725146362  0.3165735799176700  0.5180801980955229
  0.1954585725146360  0.4334264200823300  0.5180801980955229
  0.0098425171303484  0.4489040395027057  0.4578494335951235
  0.2401574968696527  0.1989040135027035  0.5421505664048766
  0.0545414274853640  0.1834264200823301  0.4819198019044770
  0.1003638404738747  0.3249721886522203  0.4222638964389677
  0.8045414114853697  0.0665735859176704  0.4819198019044770
  0.7598425351303497  0.3010959864972965  0.4578494335951235
  0.8996361355261233  0.1750277983477821  0.5777361035610327
  0.9901574808696516  0.0510959764972957  0.5421505664048766
  0.8503638804738780  0.4250278113477797  0.4222638964389677
  0.6496361515261246  0.0749722016522179  0.5777361035610327
  0.9454585415146370  0.3165735799176700  0.5180801980955229
  0.6954585575146313  0.4334264200823300  0.5180801980955229
  0.5098425191303484  0.4489040395027057  0.4578494335951235
  0.7401574968696529  0.1989040135027035  0.5421505664048766
  0.5545414274853639  0.1834264200823301  0.4819198019044770
  0.6003638964738722  0.3249721886522203  0.4222638964389677
  0.3045414424853686  0.5665735799176700  0.4819198019044770
  0.2598425031303472  0.8010959354972959  0.4578494335951235
  0.3996361665261223  0.6750277853477847  0.5777361035610327
  0.4901574808696515  0.5510959604972944  0.5421505664048766
  0.3503638484738754  0.9250278113477798  0.4222638964389677
  0.1496361515261246  0.5749722396522209  0.5777361035610327
  0.4454585725146362  0.8165736059176650  0.5180801980955229
  0.1954585725146360  0.9334263690823293  0.5180801980955229
  0.0098425171303484  0.9489040395027056  0.4578494335951235
  0.2401574968696527  0.6989040645027041  0.5421505664048766
  0.0545414274853640  0.6834263940823350  0.4819198019044770
  0.1003638404738747  0.8249722146522153  0.4222638964389677
  0.8045414114853697  0.5665735799176700  0.4819198019044770
  0.7598425351303497  0.8010959354972959  0.4578494335951235
  0.8996361355261233  0.6750277853477847  0.5777361035610327
  0.9901574808696516  0.5510959604972944  0.5421505664048766
  0.8503638804738780  0.9250278113477798  0.4222638964389677
  0.6496361515261246  0.5749722396522209  0.5777361035610327
  0.9454585415146370  0.8165736059176650  0.5180801980955229
  0.6954585575146313  0.9334263690823293  0.5180801980955229
  0.5098425191303484  0.9489040395027056  0.4578494335951235
  0.7401574968696529  0.6989040645027041  0.5421505664048766
  0.5545414274853639  0.6834263940823350  0.4819198019044770
  0.6003638964738722  0.8249722146522153  0.4222638964389677
 
  0.00000000E+00  0.00000000E+00  0.00000000E+00
  0.00000000E+00  0.00000000E+00  0.00000000E+00
  0.00000000E+00  0.00000000E+00  0.00000000E+00
  0.00000000E+00  0.00000000E+00  0.00000000E+00
  0.00000000E+00  0.00000000E+00  0.00000000E+00
  0.00000000E+00  0.00000000E+00  0.00000000E+00
  0.00000000E+00  0.00000000E+00  0.00000000E+00
  0.00000000E+00  0.00000000E+00  0.00000000E+00
  0.00000000E+00  0.00000000E+00  0.00000000E+00
  0.00000000E+00  0.00000000E+00  0.00000000E+00
  0.00000000E+00  0.00000000E+00  0.00000000E+00
  0.00000000E+00  0.00000000E+00  0.00000000E+00
  0.00000000E+00  0.00000000E+00  0.00000000E+00
  0.00000000E+00  0.00000000E+00  0.00000000E+00
  0.00000000E+00  0.00000000E+00  0.00000000E+00
  0.00000000E+00  0.00000000E+00  0.00000000E+00
  0.00000000E+00  0.00000000E+00  0.00000000E+00
  0.00000000E+00  0.00000000E+00  0.00000000E+00
  0.00000000E+00  0.00000000E+00  0.00000000E+00
  0.00000000E+00  0.00000000E+00  0.00000000E+00
  0.00000000E+00  0.00000000E+00  0.00000000E+00
  0.00000000E+00  0.00000000E+00  0.00000000E+00
  0.00000000E+00  0.00000000E+00  0.00000000E+00
  0.00000000E+00  0.00000000E+00  0.00000000E+00
  0.00000000E+00  0.00000000E+00  0.00000000E+00
  0.00000000E+00  0.00000000E+00  0.00000000E+00
  0.00000000E+00  0.00000000E+00  0.00000000E+00
  0.00000000E+00  0.00000000E+00  0.00000000E+00
  0.00000000E+00  0.00000000E+00  0.00000000E+00
  0.00000000E+00  0.00000000E+00  0.00000000E+00
  0.00000000E+00  0.00000000E+00  0.00000000E+00
  0.00000000E+00  0.00000000E+00  0.00000000E+00
  0.00000000E+00  0.00000000E+00  0.00000000E+00
  0.00000000E+00  0.00000000E+00  0.00000000E+00
  0.00000000E+00  0.00000000E+00  0.00000000E+00
  0.00000000E+00  0.00000000E+00  0.00000000E+00
  0.00000000E+00  0.00000000E+00  0.00000000E+00
  0.00000000E+00  0.00000000E+00  0.00000000E+00
  0.00000000E+00  0.00000000E+00  0.00000000E+00
  0.00000000E+00  0.00000000E+00  0.00000000E+00
  0.00000000E+00  0.00000000E+00  0.00000000E+00
  0.00000000E+00  0.00000000E+00  0.00000000E+00
  0.00000000E+00  0.00000000E+00  0.00000000E+00
  0.00000000E+00  0.00000000E+00  0.00000000E+00
  0.00000000E+00  0.00000000E+00  0.00000000E+00
  0.00000000E+00  0.00000000E+00  0.00000000E+00
  0.00000000E+00  0.00000000E+00  0.00000000E+00
  0.00000000E+00  0.00000000E+00  0.00000000E+00
  0.00000000E+00  0.00000000E+00  0.00000000E+00
  0.00000000E+00  0.00000000E+00  0.00000000E+00
  0.00000000E+00  0.00000000E+00  0.00000000E+00
  0.00000000E+00  0.00000000E+00  0.00000000E+00
  0.00000000E+00  0.00000000E+00  0.00000000E+00
  0.00000000E+00  0.00000000E+00  0.00000000E+00
  0.00000000E+00  0.00000000E+00  0.00000000E+00
  0.00000000E+00  0.00000000E+00  0.00000000E+00
  0.00000000E+00  0.00000000E+00  0.00000000E+00
  0.00000000E+00  0.00000000E+00  0.00000000E+00
  0.00000000E+00  0.00000000E+00  0.00000000E+00
  0.00000000E+00  0.00000000E+00  0.00000000E+00
  0.00000000E+00  0.00000000E+00  0.00000000E+00
  0.00000000E+00  0.00000000E+00  0.00000000E+00
  0.00000000E+00  0.00000000E+00  0.00000000E+00
  0.00000000E+00  0.00000000E+00  0.00000000E+00
  0.00000000E+00  0.00000000E+00  0.00000000E+00
  0.00000000E+00  0.00000000E+00  0.00000000E+00
  0.00000000E+00  0.00000000E+00  0.00000000E+00
  0.00000000E+00  0.00000000E+00  0.00000000E+00
  0.00000000E+00  0.00000000E+00  0.00000000E+00
  0.00000000E+00  0.00000000E+00  0.00000000E+00
  0.00000000E+00  0.00000000E+00  0.00000000E+00
  0.00000000E+00  0.00000000E+00  0.00000000E+00
  0.00000000E+00  0.00000000E+00  0.00000000E+00
  0.00000000E+00  0.00000000E+00  0.00000000E+00
  0.00000000E+00  0.00000000E+00  0.00000000E+00
  0.00000000E+00  0.00000000E+00  0.00000000E+00
  0.00000000E+00  0.00000000E+00  0.00000000E+00
  0.00000000E+00  0.00000000E+00  0.00000000E+00
  0.00000000E+00  0.00000000E+00  0.00000000E+00
  0.00000000E+00  0.00000000E+00  0.00000000E+00
