CONTCAR\(2)                             
   1.00000000000000     
    11.7135000228999999    0.0000000000000000    0.0000000000000000
     0.0000000000000000   10.5269002914000005    0.0000000000000000
     0.0000000000000000    0.0000000000000000   20.5844001769999991
   Mn   Sb   Se   I    O    H 
     6     6    12     6     1     1
Direct
  0.3299639851881270 -0.0040846643131417  0.5041527246220993
 -0.0016484901660003  0.4900603588610734  0.5043746622926242
  0.6668419091210104 -0.0142031697389697  0.4978835633384489
  0.3315061262036714  0.4944634692498291  0.5047900717671114
  0.0043291477226145  0.0013642512651920  0.5000493497715700
  0.6668088803623616  0.4852928536685817  0.5036669951388404
  0.1790532894932363  0.2976675373687100  0.6283353375757087
  0.1658948280886145  0.7001146947402805  0.3888222263649464
  0.4948426325440972  0.2864866841655823  0.6239615466211411
  0.4938083551328042  0.7065679121056176  0.3863921148200465
  0.8330065917759109  0.2699427254057230  0.6111862619933829
  0.8380865670111690  0.7095006749116803  0.3860878241239734
  0.0019331272221252  0.2425987332634784  0.5288744281322634
  0.1656114415794996  0.4617788557556780  0.4154954530245554
 -0.0000753113022092  0.7504710985669772  0.4752084614177499
  0.1641129972431781  0.5314276436811115  0.5928577413400944
  0.3326355307828170  0.2405344088030462  0.5353177960557769
  0.5066670748162535  0.4690750046299121  0.4185081205547195
  0.3323195014885827  0.7493049848129362  0.4749828351428341
  0.5097264345142402  0.5230698459570061  0.5892082254352894
  0.6650767194676774  0.2266116573722976  0.5273187546245369
  0.8234953243570193  0.4717558907176437  0.4170870479751988
  0.6664994371722159  0.7719849099582770  0.4734955592543065
  0.8248719382916456  0.5159245527543351  0.5881197469769693
  0.1653420641179150  0.9346633845533092  0.5995349514384721
  0.1689105871047009  0.0531127644347616  0.4030826348269950
  0.5085215077258008  0.9387879119203089  0.5923449831639752
  0.5059860746176027  0.0453206880759095  0.4108587506746999
  0.8262578320227660  0.9434114502238022  0.5904234659137583
  0.8241135469519884  0.0403629567510366  0.4075529017950202
  0.3350632008612666  0.3447019774822108  0.6837871316059495
  0.3369571104872818  0.4372978425957860  0.6890883612169592
 
  0.00000000E+00  0.00000000E+00  0.00000000E+00
  0.00000000E+00  0.00000000E+00  0.00000000E+00
  0.00000000E+00  0.00000000E+00  0.00000000E+00
  0.00000000E+00  0.00000000E+00  0.00000000E+00
  0.00000000E+00  0.00000000E+00  0.00000000E+00
  0.00000000E+00  0.00000000E+00  0.00000000E+00
  0.00000000E+00  0.00000000E+00  0.00000000E+00
  0.00000000E+00  0.00000000E+00  0.00000000E+00
  0.00000000E+00  0.00000000E+00  0.00000000E+00
  0.00000000E+00  0.00000000E+00  0.00000000E+00
  0.00000000E+00  0.00000000E+00  0.00000000E+00
  0.00000000E+00  0.00000000E+00  0.00000000E+00
  0.00000000E+00  0.00000000E+00  0.00000000E+00
  0.00000000E+00  0.00000000E+00  0.00000000E+00
  0.00000000E+00  0.00000000E+00  0.00000000E+00
  0.00000000E+00  0.00000000E+00  0.00000000E+00
  0.00000000E+00  0.00000000E+00  0.00000000E+00
  0.00000000E+00  0.00000000E+00  0.00000000E+00
  0.00000000E+00  0.00000000E+00  0.00000000E+00
  0.00000000E+00  0.00000000E+00  0.00000000E+00
  0.00000000E+00  0.00000000E+00  0.00000000E+00
  0.00000000E+00  0.00000000E+00  0.00000000E+00
  0.00000000E+00  0.00000000E+00  0.00000000E+00
  0.00000000E+00  0.00000000E+00  0.00000000E+00
  0.00000000E+00  0.00000000E+00  0.00000000E+00
  0.00000000E+00  0.00000000E+00  0.00000000E+00
  0.00000000E+00  0.00000000E+00  0.00000000E+00
  0.00000000E+00  0.00000000E+00  0.00000000E+00
  0.00000000E+00  0.00000000E+00  0.00000000E+00
  0.00000000E+00  0.00000000E+00  0.00000000E+00
  0.00000000E+00  0.00000000E+00  0.00000000E+00
  0.00000000E+00  0.00000000E+00  0.00000000E+00
