 Ta4 Ni2 S10                            
   1.00000000000000     
     3.3997137741806269    0.0000000000000000    0.0000000000000000
     0.0000000000000000   15.1191717799417980    0.0000000000000000
     0.0000000000000000    0.0000000000000000   19.1068554386999985
   Ta   Ni   S 
     4     2    10
Direct
 -0.0000000026893061  0.3573922912025025  0.5191978967565284
  0.5000000019545903  0.1426063151539932  0.4808018105147798
  0.4999999903251067  0.8573940977160641  0.4808012551080339
 -0.0000000052372129  0.6426072160041272  0.5191983489730433
 -0.0000000020147255  0.0000003975548732  0.4654856133297109
  0.4999999919686995  0.4999997292730651  0.5345124441366651
  0.4999999992213626  0.0000003992541971  0.5430716371295986
 -0.0000000064634823  0.4999996526952717  0.4569287678182388
  0.0000000175971302  0.1993877930373883  0.5656213686555503
  0.5000000111833186  0.3006112373339116  0.4343790864286253
  0.5000000112245195  0.6993886846076102  0.4343793256214237
 -0.0000000016810881  0.8006121038962388  0.5656210917753247
  0.5000000021296648  0.6138946302527042  0.6078593323451842
 -0.0000000130328409  0.8861043594848039  0.3921413526760718
  0.0000000043010771  0.1138958166431061  0.3921411067790739
  0.5000000012131870  0.3861052758901435  0.6078595619521476
 
  0.00000000E+00  0.00000000E+00  0.00000000E+00
  0.00000000E+00  0.00000000E+00  0.00000000E+00
  0.00000000E+00  0.00000000E+00  0.00000000E+00
  0.00000000E+00  0.00000000E+00  0.00000000E+00
  0.00000000E+00  0.00000000E+00  0.00000000E+00
  0.00000000E+00  0.00000000E+00  0.00000000E+00
  0.00000000E+00  0.00000000E+00  0.00000000E+00
  0.00000000E+00  0.00000000E+00  0.00000000E+00
  0.00000000E+00  0.00000000E+00  0.00000000E+00
  0.00000000E+00  0.00000000E+00  0.00000000E+00
  0.00000000E+00  0.00000000E+00  0.00000000E+00
  0.00000000E+00  0.00000000E+00  0.00000000E+00
  0.00000000E+00  0.00000000E+00  0.00000000E+00
  0.00000000E+00  0.00000000E+00  0.00000000E+00
  0.00000000E+00  0.00000000E+00  0.00000000E+00
  0.00000000E+00  0.00000000E+00  0.00000000E+00
