CONTCAR\(4)                             
   1.00000000000000     
    13.8191995620999997    0.0000000000000000    0.0000000000000000
     0.0000000000000000   12.6052999496000009    0.0000000000000000
     0.0000000000000000    0.0000000000000000   19.1947002411000014
   Te   W    O    H 
    32    16     2     1
Direct
  0.1287584673097183  0.3902462999824429  0.4222867386929037
  0.0050161724934082  0.1455007259203558  0.3926512757920049
  0.1292990220882019  0.0687981629215279  0.6120500434669482
  0.0049488889748305  0.3223417024001243  0.5791448062556994
  0.3803108938222695  0.3936609722089469  0.4255194115826184
  0.2553302461178373  0.1478364739182015  0.3929589741667340
  0.3799449416709642  0.0682039407375815  0.6113680094689310
  0.2537703850424389  0.3219844469750819  0.5800928076548145
  0.6303261340790819  0.3933920931399937  0.4249665749801946
  0.5049926108855368  0.1485199132054740  0.3930534006974080
  0.6307289431938247  0.0684431358235590  0.6114593443306126
  0.5056221038534796  0.3232146172585070  0.5800024247825778
  0.8810768340841102  0.3901860746153972  0.4226341699467995
  0.7548281524109367  0.1474221831472549  0.3927644191199617
  0.8808928929235542  0.0684680319589505  0.6119322719002179
  0.7561853382178861  0.3218865699121617  0.5802217860981626
  0.1295608956619412  0.8919815591082597  0.4242281739366219
  0.0051151506252322  0.6465624053193644  0.3918815370177711
  0.1281675089470930  0.5668473538959011  0.6113863465693714
  0.0048968904707417  0.8223842014448584  0.5805576886959909
  0.3758383199718044  0.8925117301020238  0.4245573257291680
  0.2504117868379085  0.6421143890476416  0.3902861911067905
  0.3764241608438245  0.5655610876708801  0.6107430735527042
  0.2507453587090798  0.8233388758827959  0.5825905566363626
  0.6345590133041418  0.8923764154404423  0.4243254192188303
  0.5050645544641782  0.6495815627829636  0.3992589280370678
  0.6343280421441390  0.5681123148950569  0.6117258516511990
  0.5053349260275296  0.8188810255291232  0.5594575524221611
  0.8808609035558804  0.8917309963593577  0.4242540459440569
  0.7597845078207722  0.6419180804034031  0.3902001816128536
  0.8817552445982133  0.5668162826539200  0.6113871844375890
  0.7595051278500133  0.8230452859260097  0.5827423527373952
  0.0051881969003550  0.0174666729183787  0.5072856079260195
  0.1298019319120532  0.1961861985635720  0.4968644456212993
  0.2538758187174606  0.0190435653032027  0.5077435325938526
  0.3795860107858755  0.1975462672447620  0.4974288734775869
  0.5053357846079400  0.0202829709161170  0.5068038512228481
  0.6308574392535571  0.1973370972762997  0.4972153622983715
  0.7562152913536635  0.0186671554948926  0.5076586988226919
  0.8801985748215728  0.1960657729341405  0.4969001234004839
  0.0050465052148740  0.5173576923120942  0.5060608829601744
  0.1285529411941344  0.6967437977430515  0.4967767101628299
  0.2504568243354784  0.5158230169722410  0.5063106260682849
  0.3641775964070355  0.6956471334319388  0.4978528504465874
  0.5066739192151772  0.5199760006992280  0.5094785204700903
  0.6460831615883658  0.6956645609745301  0.4976298451483289
  0.7588512332049485  0.5158644544101422  0.5065982606418479
  0.8816463181229599  0.6965114458934274  0.4967045521106450
  0.4975735611245236  0.7396140217921248  0.7078239599921050
  0.5082579611823042  0.8370731784567055  0.6682084526844113
  0.4276068730571174  0.7399400820755851  0.7171960437090102
 
  0.00000000E+00  0.00000000E+00  0.00000000E+00
  0.00000000E+00  0.00000000E+00  0.00000000E+00
  0.00000000E+00  0.00000000E+00  0.00000000E+00
  0.00000000E+00  0.00000000E+00  0.00000000E+00
  0.00000000E+00  0.00000000E+00  0.00000000E+00
  0.00000000E+00  0.00000000E+00  0.00000000E+00
  0.00000000E+00  0.00000000E+00  0.00000000E+00
  0.00000000E+00  0.00000000E+00  0.00000000E+00
  0.00000000E+00  0.00000000E+00  0.00000000E+00
  0.00000000E+00  0.00000000E+00  0.00000000E+00
  0.00000000E+00  0.00000000E+00  0.00000000E+00
  0.00000000E+00  0.00000000E+00  0.00000000E+00
  0.00000000E+00  0.00000000E+00  0.00000000E+00
  0.00000000E+00  0.00000000E+00  0.00000000E+00
  0.00000000E+00  0.00000000E+00  0.00000000E+00
  0.00000000E+00  0.00000000E+00  0.00000000E+00
  0.00000000E+00  0.00000000E+00  0.00000000E+00
  0.00000000E+00  0.00000000E+00  0.00000000E+00
  0.00000000E+00  0.00000000E+00  0.00000000E+00
  0.00000000E+00  0.00000000E+00  0.00000000E+00
  0.00000000E+00  0.00000000E+00  0.00000000E+00
  0.00000000E+00  0.00000000E+00  0.00000000E+00
  0.00000000E+00  0.00000000E+00  0.00000000E+00
  0.00000000E+00  0.00000000E+00  0.00000000E+00
  0.00000000E+00  0.00000000E+00  0.00000000E+00
  0.00000000E+00  0.00000000E+00  0.00000000E+00
  0.00000000E+00  0.00000000E+00  0.00000000E+00
  0.00000000E+00  0.00000000E+00  0.00000000E+00
  0.00000000E+00  0.00000000E+00  0.00000000E+00
  0.00000000E+00  0.00000000E+00  0.00000000E+00
  0.00000000E+00  0.00000000E+00  0.00000000E+00
  0.00000000E+00  0.00000000E+00  0.00000000E+00
  0.00000000E+00  0.00000000E+00  0.00000000E+00
  0.00000000E+00  0.00000000E+00  0.00000000E+00
  0.00000000E+00  0.00000000E+00  0.00000000E+00
  0.00000000E+00  0.00000000E+00  0.00000000E+00
  0.00000000E+00  0.00000000E+00  0.00000000E+00
  0.00000000E+00  0.00000000E+00  0.00000000E+00
  0.00000000E+00  0.00000000E+00  0.00000000E+00
  0.00000000E+00  0.00000000E+00  0.00000000E+00
  0.00000000E+00  0.00000000E+00  0.00000000E+00
  0.00000000E+00  0.00000000E+00  0.00000000E+00
  0.00000000E+00  0.00000000E+00  0.00000000E+00
  0.00000000E+00  0.00000000E+00  0.00000000E+00
  0.00000000E+00  0.00000000E+00  0.00000000E+00
  0.00000000E+00  0.00000000E+00  0.00000000E+00
  0.00000000E+00  0.00000000E+00  0.00000000E+00
  0.00000000E+00  0.00000000E+00  0.00000000E+00
  0.00000000E+00  0.00000000E+00  0.00000000E+00
  0.00000000E+00  0.00000000E+00  0.00000000E+00
  0.00000000E+00  0.00000000E+00  0.00000000E+00
