CONTCAR\(4)                             
   1.00000000000000     
    12.9882001877000004    0.0000000000000000    0.0000000000000000
     0.0000000000000000   20.1457004546999983    0.0000000000000000
     0.0000000000000000    0.0000000000000000   19.8038997650000006
   Ce   I    O    H 
    12    36     1     1
Direct
  0.1649558231429921 -0.0006386693988636  0.5067890302018457
  0.0007402809820352  0.2500138408282521  0.4914991688613244
  0.5016453558321783 -0.0003603129139796  0.5072547731979140
  0.3330006933983163  0.2497961271685937  0.4925352571294702
  0.8335673750210556  0.0004933844747918  0.5024040105160592
  0.6663030574177619  0.2499244080355252  0.4914668924616662
  0.1656425541934500  0.5005729911670336  0.5066123381306642
 -0.0005767825868457  0.7499165645613621  0.4895340848408694
  0.5015004610966998  0.5002072488713498  0.5069914831748394
  0.3340451615425709  0.7500021457667554  0.5251780206144593
  0.8334109022298639  0.4993443162232341  0.5022636139777414
  0.6683233782865239  0.7499341638260580  0.4898522103632476
  0.0013204424427921  0.4071105289439767  0.4232927835152586
  0.1670514798848805  0.3412736000093062  0.5743143918097386
  0.1666448332502790  0.1587178594151469  0.5746608142152566
  0.0011747813360646  0.0928961909026707  0.4234422621318257
 -0.0047030875486476  0.0034144564800544  0.6205667697361035
  0.1684930989237061  0.2499750431595006  0.3762313656982821
  0.3334461581164459  0.4096946926023992  0.4246345831007298
  0.4996289579327133  0.3409912484250064  0.5741952431527674
  0.4996917768235403  0.1588296997454828  0.5744398921763062
  0.3330714134202210  0.0904261494903653  0.4251173117550686
  0.3331385003818345 -0.0014262716150188  0.6227181771373511
  0.4986394294019350  0.2498183597977626  0.3762732538727336
  0.6653221660073286  0.4071346878499597  0.4233595055213775
  0.8333576932076798  0.3404875426078714  0.5722431653477563
  0.8333385899644319  0.1594991149332799  0.5723016453631883
  0.6653713089779283  0.0927218451405335  0.4234256533815055
  0.6716007626171734  0.0039666897995466  0.6211682584094186
  0.8333173675554552  0.2499345702436960  0.3757259774459479
 -0.0003661301834234  0.9108130037428884  0.4191178652259222
  0.1454912933010312  0.8459755679560397  0.5769291615443772
  0.1455796425407829  0.6539243402290603  0.5768867820519107
 -0.0003178286715621  0.5890867411656684  0.4191189274386086
 -0.0043460236981621  0.4964443085534411  0.6203776305820025
  0.1764607281430876  0.7500019847043219  0.3879147237124939
  0.3341931954363797  0.9068805597411449  0.4334733041236820
  0.5230333088411061  0.8458620354506565  0.5772511064735388
  0.5229726476108398  0.6540417795103441  0.5771376712523545
  0.3342381408009411  0.5932147150022355  0.4333866880508278
  0.3334775857158780  0.5011848791856071  0.6225580645489932
  0.4921969337154846  0.7500080174859629  0.3881593422378713
  0.6675367413402671  0.9108017968563515  0.4197551196705136
  0.8334917147066571  0.8419468588237792  0.5702967354774607
  0.8334671998354353  0.6576659039454479  0.5701729298318701
  0.6674034580895626  0.5890732194809096  0.4195877202723716
  0.6714528693498391  0.4958651631230812  0.6209077613296334
  0.8329140153127550  0.7499524882520783  0.3735439667407418
  0.3344428402404611  0.7499129891902723  0.6279431612848665
  0.3369038983203191  0.7496416290590781  0.6769293989092300
 
  0.00000000E+00  0.00000000E+00  0.00000000E+00
  0.00000000E+00  0.00000000E+00  0.00000000E+00
  0.00000000E+00  0.00000000E+00  0.00000000E+00
  0.00000000E+00  0.00000000E+00  0.00000000E+00
  0.00000000E+00  0.00000000E+00  0.00000000E+00
  0.00000000E+00  0.00000000E+00  0.00000000E+00
  0.00000000E+00  0.00000000E+00  0.00000000E+00
  0.00000000E+00  0.00000000E+00  0.00000000E+00
  0.00000000E+00  0.00000000E+00  0.00000000E+00
  0.00000000E+00  0.00000000E+00  0.00000000E+00
  0.00000000E+00  0.00000000E+00  0.00000000E+00
  0.00000000E+00  0.00000000E+00  0.00000000E+00
  0.00000000E+00  0.00000000E+00  0.00000000E+00
  0.00000000E+00  0.00000000E+00  0.00000000E+00
  0.00000000E+00  0.00000000E+00  0.00000000E+00
  0.00000000E+00  0.00000000E+00  0.00000000E+00
  0.00000000E+00  0.00000000E+00  0.00000000E+00
  0.00000000E+00  0.00000000E+00  0.00000000E+00
  0.00000000E+00  0.00000000E+00  0.00000000E+00
  0.00000000E+00  0.00000000E+00  0.00000000E+00
  0.00000000E+00  0.00000000E+00  0.00000000E+00
  0.00000000E+00  0.00000000E+00  0.00000000E+00
  0.00000000E+00  0.00000000E+00  0.00000000E+00
  0.00000000E+00  0.00000000E+00  0.00000000E+00
  0.00000000E+00  0.00000000E+00  0.00000000E+00
  0.00000000E+00  0.00000000E+00  0.00000000E+00
  0.00000000E+00  0.00000000E+00  0.00000000E+00
  0.00000000E+00  0.00000000E+00  0.00000000E+00
  0.00000000E+00  0.00000000E+00  0.00000000E+00
  0.00000000E+00  0.00000000E+00  0.00000000E+00
  0.00000000E+00  0.00000000E+00  0.00000000E+00
  0.00000000E+00  0.00000000E+00  0.00000000E+00
  0.00000000E+00  0.00000000E+00  0.00000000E+00
  0.00000000E+00  0.00000000E+00  0.00000000E+00
  0.00000000E+00  0.00000000E+00  0.00000000E+00
  0.00000000E+00  0.00000000E+00  0.00000000E+00
  0.00000000E+00  0.00000000E+00  0.00000000E+00
  0.00000000E+00  0.00000000E+00  0.00000000E+00
  0.00000000E+00  0.00000000E+00  0.00000000E+00
  0.00000000E+00  0.00000000E+00  0.00000000E+00
  0.00000000E+00  0.00000000E+00  0.00000000E+00
  0.00000000E+00  0.00000000E+00  0.00000000E+00
  0.00000000E+00  0.00000000E+00  0.00000000E+00
  0.00000000E+00  0.00000000E+00  0.00000000E+00
  0.00000000E+00  0.00000000E+00  0.00000000E+00
  0.00000000E+00  0.00000000E+00  0.00000000E+00
  0.00000000E+00  0.00000000E+00  0.00000000E+00
  0.00000000E+00  0.00000000E+00  0.00000000E+00
  0.00000000E+00  0.00000000E+00  0.00000000E+00
  0.00000000E+00  0.00000000E+00  0.00000000E+00
