CONTCAR\(12)                            
   1.00000000000000     
    10.0475997924999998    0.0000000000000000    0.0000000000000000
    -1.1209227180000001   12.1269055328000004    0.0000000000000000
     0.0000000000000000    0.0000000000000000   21.6054000853999995
   Li   Cu   F 
    16    16    56
Direct
  0.1598936176186904  0.0295752309707201  0.5818436668385391
  0.4179185687032269  0.4607546930006342  0.5479040719076502
  0.3880127920193815  0.2847312319947806  0.4520537669258999
  0.1461813454976139  0.2164514418001478  0.4182476611501224
  0.6598936536186863  0.0295752309707201  0.5818436668385391
  0.9179186157032279  0.4607546930006342  0.5479040719076502
  0.8880127920193813  0.2847312319947806  0.4520537669258999
  0.6461812984976139  0.2164514418001478  0.4182476611501224
  0.1598936206186871  0.5295752439707175  0.5818436668385391
  0.4179185797032243  0.9607547290006369  0.5479040719076502
  0.3880127750193766  0.7847312279947871  0.4520537669258999
  0.1461813444976173  0.7164514178001454  0.4182476611501224
  0.6598936386186887  0.5295752439707175  0.5818436668385391
  0.9179185567032265  0.9607547290006369  0.5479040719076502
  0.8880127280193760  0.7847312279947871  0.4520537669258999
  0.6461813274976127  0.7164514178001454  0.4182476611501224
  0.0704956085034712  0.3136879172351292  0.6307890486884051
  0.3061715161012139  0.2324247068251618  0.5771167828750251
  0.0002039077771586  0.0134575059227692  0.4229323571567233
  0.2359543226802365  0.4323385602793968  0.3692084125361593
  0.5704956375034701  0.3136879172351292  0.6307890486884051
  0.8061714931012153  0.2324247068251618  0.5771167828750251
  0.5002039567771590  0.0134575059227692  0.4229323571567233
  0.7359543226802363  0.4323385602793968  0.3692084125361593
  0.0704956025034707  0.8136878552351309  0.6307890486884051
  0.3061715281012149  0.7324247418251610  0.5771167828750251
  0.0002039097771588  0.5134574909227646  0.4229323571567233
  0.2359543176802325  0.9323385572794006  0.3692084125361593
  0.5704956625034686  0.8136878552351309  0.6307890486884051
  0.8061714801012178  0.7324247418251610  0.5771167828750251
  0.5002039387771575  0.5134574909227646  0.4229323571567233
  0.7359543056802313  0.9323385572794006  0.3692084125361593
  0.0178420790998703  0.4554810041882520  0.6294573402184835
  0.1437974038196332  0.1757964186572746  0.6230657466623004
  0.4027114608005808  0.2466180605684134  0.6560399310895212
  0.2389954854566298  0.3774566967265596  0.5970590013836659
  0.3395253723534187  0.0844953766148180  0.5694818104996547
  0.0807382901269547  0.0131135769440576  0.5030018408367782
  0.4608789591661400  0.3021154657829594  0.5372749773247809
  0.3456824316999697  0.4431498851648354  0.4627135118215826
  0.2253328490879780  0.2332026606580269  0.4970674121369699
  0.4666283579858500  0.1613586035941751  0.4302996072843090
  0.0675248466032559  0.3685007249354595  0.4029415719653995
  0.4037917161037824  0.4992890250013362  0.3439755964134699
  0.1629009326182825  0.0702100248846739  0.3770885997004162
  0.2884381001766625  0.2904911012504172  0.3704373265841471
  0.5178421320998713  0.4554810041882520  0.6294573402184835
  0.6437973918196324  0.1757964186572746  0.6230657466623004
  0.9027115078005815  0.2466180605684134  0.6560399310895212
  0.7389954744566256  0.3774566967265596  0.5970590013836659
  0.8395253963534208  0.0844953766148180  0.5694818104996547
  0.5807383021269558  0.0131035759440579  0.5030018408367782
  0.9608789591661402  0.3021154657829594  0.5372749773247809
  0.8456824076999677  0.4431498851648354  0.4627135118215826
  0.7253327780879828  0.2332026606580269  0.4970674121369699
  0.9666283579858501  0.1613586035941751  0.4302996072843090
  0.5675248436032517  0.3685007249354595  0.4029415719653995
  0.9037916921037802  0.4992890250013362  0.3439755964134699
  0.6629009796182833  0.0702100248846739  0.3770885997004162
  0.7884381001766623  0.2904911012504172  0.3704373265841471
  0.0178420800998739  0.9554810011882483  0.6294573402184835
  0.1437974028196366  0.6757963946572798  0.6230657466623004
  0.4027114658005848  0.7466180375684150  0.6560399310895212
  0.2389954764566255  0.8774566527265560  0.5970590013836659
  0.3395253813534230  0.5844953926148194  0.5694818104996547
  0.0807382881269545  0.5131035389440586  0.5030018408367782
  0.4608789451661388  0.8021154817829607  0.5372749773247809
  0.3456824346999663  0.9431498421648354  0.4627135118215826
  0.2253328520879818  0.7332026176580267  0.4970674121369699
  0.4666283449858524  0.6613586385941743  0.4302996072843090
  0.0675248486032561  0.8685007599354593  0.4029415719653995
  0.4037917231037795  0.9992890220013326  0.3439755964134699
  0.1629009376182794  0.5702100058846757  0.3770885997004162
  0.2884381091766597  0.7904911172504183  0.3704373265841471
  0.5178421160998700  0.9554810011882483  0.6294573402184835
  0.6437974208196383  0.6757963946572798  0.6230657466623004
  0.9027114418005832  0.7466180375684150  0.6560399310895212
  0.7389955004566278  0.8774566527265560  0.5970590013836659
  0.8395253813534231  0.5844953926148194  0.5694818104996547
  0.5807383291269544  0.5131035389440586  0.5030018408367782
  0.9608788971661422  0.8021154817829607  0.5372749773247809
  0.8456824346999664  0.9431498421648354  0.4627135118215826
  0.7253328050879815  0.7332026176580267  0.4970674121369699
  0.9666283929858495  0.6613586385941743  0.4302996072843090
  0.5675248786032511  0.8685007599354593  0.4029415719653995
  0.9037917231037792  0.9992890220013326  0.3439755964134699
  0.6629009616182818  0.5702100058846757  0.3770885997004162
  0.7884380851766646  0.7904911172504183  0.3704373265841471
 
  0.00000000E+00  0.00000000E+00  0.00000000E+00
  0.00000000E+00  0.00000000E+00  0.00000000E+00
  0.00000000E+00  0.00000000E+00  0.00000000E+00
  0.00000000E+00  0.00000000E+00  0.00000000E+00
  0.00000000E+00  0.00000000E+00  0.00000000E+00
  0.00000000E+00  0.00000000E+00  0.00000000E+00
  0.00000000E+00  0.00000000E+00  0.00000000E+00
  0.00000000E+00  0.00000000E+00  0.00000000E+00
  0.00000000E+00  0.00000000E+00  0.00000000E+00
  0.00000000E+00  0.00000000E+00  0.00000000E+00
  0.00000000E+00  0.00000000E+00  0.00000000E+00
  0.00000000E+00  0.00000000E+00  0.00000000E+00
  0.00000000E+00  0.00000000E+00  0.00000000E+00
  0.00000000E+00  0.00000000E+00  0.00000000E+00
  0.00000000E+00  0.00000000E+00  0.00000000E+00
  0.00000000E+00  0.00000000E+00  0.00000000E+00
  0.00000000E+00  0.00000000E+00  0.00000000E+00
  0.00000000E+00  0.00000000E+00  0.00000000E+00
  0.00000000E+00  0.00000000E+00  0.00000000E+00
  0.00000000E+00  0.00000000E+00  0.00000000E+00
  0.00000000E+00  0.00000000E+00  0.00000000E+00
  0.00000000E+00  0.00000000E+00  0.00000000E+00
  0.00000000E+00  0.00000000E+00  0.00000000E+00
  0.00000000E+00  0.00000000E+00  0.00000000E+00
  0.00000000E+00  0.00000000E+00  0.00000000E+00
  0.00000000E+00  0.00000000E+00  0.00000000E+00
  0.00000000E+00  0.00000000E+00  0.00000000E+00
  0.00000000E+00  0.00000000E+00  0.00000000E+00
  0.00000000E+00  0.00000000E+00  0.00000000E+00
  0.00000000E+00  0.00000000E+00  0.00000000E+00
  0.00000000E+00  0.00000000E+00  0.00000000E+00
  0.00000000E+00  0.00000000E+00  0.00000000E+00
  0.00000000E+00  0.00000000E+00  0.00000000E+00
  0.00000000E+00  0.00000000E+00  0.00000000E+00
  0.00000000E+00  0.00000000E+00  0.00000000E+00
  0.00000000E+00  0.00000000E+00  0.00000000E+00
  0.00000000E+00  0.00000000E+00  0.00000000E+00
  0.00000000E+00  0.00000000E+00  0.00000000E+00
  0.00000000E+00  0.00000000E+00  0.00000000E+00
  0.00000000E+00  0.00000000E+00  0.00000000E+00
  0.00000000E+00  0.00000000E+00  0.00000000E+00
  0.00000000E+00  0.00000000E+00  0.00000000E+00
  0.00000000E+00  0.00000000E+00  0.00000000E+00
  0.00000000E+00  0.00000000E+00  0.00000000E+00
  0.00000000E+00  0.00000000E+00  0.00000000E+00
  0.00000000E+00  0.00000000E+00  0.00000000E+00
  0.00000000E+00  0.00000000E+00  0.00000000E+00
  0.00000000E+00  0.00000000E+00  0.00000000E+00
  0.00000000E+00  0.00000000E+00  0.00000000E+00
  0.00000000E+00  0.00000000E+00  0.00000000E+00
  0.00000000E+00  0.00000000E+00  0.00000000E+00
  0.00000000E+00  0.00000000E+00  0.00000000E+00
  0.00000000E+00  0.00000000E+00  0.00000000E+00
  0.00000000E+00  0.00000000E+00  0.00000000E+00
  0.00000000E+00  0.00000000E+00  0.00000000E+00
  0.00000000E+00  0.00000000E+00  0.00000000E+00
  0.00000000E+00  0.00000000E+00  0.00000000E+00
  0.00000000E+00  0.00000000E+00  0.00000000E+00
  0.00000000E+00  0.00000000E+00  0.00000000E+00
  0.00000000E+00  0.00000000E+00  0.00000000E+00
  0.00000000E+00  0.00000000E+00  0.00000000E+00
  0.00000000E+00  0.00000000E+00  0.00000000E+00
  0.00000000E+00  0.00000000E+00  0.00000000E+00
  0.00000000E+00  0.00000000E+00  0.00000000E+00
  0.00000000E+00  0.00000000E+00  0.00000000E+00
  0.00000000E+00  0.00000000E+00  0.00000000E+00
  0.00000000E+00  0.00000000E+00  0.00000000E+00
  0.00000000E+00  0.00000000E+00  0.00000000E+00
  0.00000000E+00  0.00000000E+00  0.00000000E+00
  0.00000000E+00  0.00000000E+00  0.00000000E+00
  0.00000000E+00  0.00000000E+00  0.00000000E+00
  0.00000000E+00  0.00000000E+00  0.00000000E+00
  0.00000000E+00  0.00000000E+00  0.00000000E+00
  0.00000000E+00  0.00000000E+00  0.00000000E+00
  0.00000000E+00  0.00000000E+00  0.00000000E+00
  0.00000000E+00  0.00000000E+00  0.00000000E+00
  0.00000000E+00  0.00000000E+00  0.00000000E+00
  0.00000000E+00  0.00000000E+00  0.00000000E+00
  0.00000000E+00  0.00000000E+00  0.00000000E+00
  0.00000000E+00  0.00000000E+00  0.00000000E+00
  0.00000000E+00  0.00000000E+00  0.00000000E+00
  0.00000000E+00  0.00000000E+00  0.00000000E+00
  0.00000000E+00  0.00000000E+00  0.00000000E+00
  0.00000000E+00  0.00000000E+00  0.00000000E+00
  0.00000000E+00  0.00000000E+00  0.00000000E+00
  0.00000000E+00  0.00000000E+00  0.00000000E+00
  0.00000000E+00  0.00000000E+00  0.00000000E+00
  0.00000000E+00  0.00000000E+00  0.00000000E+00
