CONTCAR\(7)                             
   1.00000000000000     
    12.3184995650999998    0.0000000000000000    0.0000000000000000
    -6.1592497825999999   10.6681335598999993    0.0000000000000000
     0.0000000000000000    0.0000000000000000   15.0000000000000000
   C    O 
    50     1
Direct
  0.0667460120386388  0.1334210476131550  0.5001047436398293
  0.1334156884517717  0.0667513721481666  0.5001072463087043
  0.2667692806245060  0.1334459353703307  0.5000285795755235
  0.3334285840346803  0.0667657288799051  0.5000798435412948
  0.4667651105429321  0.1334530906286437  0.4999703564884903
  0.5334244127048712  0.0667502815399319  0.5000511453368993
  0.6667571354667148  0.1334276794322422  0.5001254525124963
  0.7333895416963768  0.0667042775944104  0.4999607410972853
  0.8667420061732173  0.1334008952818803  0.5000910491694559
  0.9333729629936947  0.0666795448080397  0.4999183352312101
  0.0667612069668886  0.3334341490159302  0.5000715237072622
  0.1334418393997812  0.2667767403340976  0.5000200093897001
  0.2667734697583771  0.3334338574093725  0.4997356382147567
  0.3334295928024533  0.2667750221944684  0.4997432656811502
  0.4667839266347891  0.3335249565110140  0.4992644516624548
  0.5334129547073823  0.2667939598228822  0.4996857488077566
  0.6667313291369821  0.3334478306393553  0.4997131758227967
  0.7334132779845450  0.2667843727936586  0.5000252016062794
  0.8667536239600722  0.3334347558314533  0.5000966508120980
  0.9334257363345283  0.2667611381772353  0.5001078528017990
  0.0667466111419012  0.5334283925516476  0.5000509694631878
  0.1334514394166525  0.4667723268514935  0.4999615131986362
  0.2667916975659013  0.5334165218042337  0.4996700886001861
  0.3335219643740673  0.4667889492381724  0.4992484990617703
  0.4667642374747888  0.5334066424410393  0.4987361148794296
  0.5334017441798719  0.4667719577459185  0.4987352826094117
  0.6666712800953457  0.5334119993674830  0.4987509714172336
  0.7333131840801315  0.4667976814604091  0.4992633521322813
  0.8666714794301429  0.5334133411471003  0.4995934965642119
  0.9333801878640036  0.4667798210978043  0.4999249200959057
  0.0666974120509204  0.7333973958353004  0.4999645475943302
  0.1334181006241833  0.6667603753951252  0.5001237613703589
  0.2667752439982520  0.7334140426392887  0.5000183621622802
  0.3334445447211070  0.6667355661464980  0.4996977101891267
  0.4667927999102422  0.7333141404071801  0.4992489643525960
  0.5334077813407688  0.6666746736973905  0.4987542755803465
  0.6666630443091098  0.7332995767095829  0.4987374464297771
  0.7332951578434367  0.6666712782352442  0.4987316643997768
  0.8665456028354145  0.7332961750171381  0.4991979746144734
  0.9333311165818270  0.6667250065733495  0.4995936100824493
  0.0666717212968603  0.9333781211970240  0.4999214818084967
  0.1333949712812129  0.8667495313060246  0.5000941884488223
  0.2667567194616920  0.9334333446061508  0.5001099299301747
  0.3334271027455082  0.8667572142279351  0.5000944913192944
  0.4667735939356813  0.9333812070990604  0.4999187578235462
  0.5334100946818002  0.8666723575348615  0.4995728086970405
  0.6667181694145599  0.9333360260829846  0.4995876602428665
  0.7332909044439949  0.8665527127565458  0.4992002450189362
  0.8666525860296184  0.9333135439762275  0.4995432704728449
  0.9333080835751941  0.8666576186837445  0.4995436191129703
  0.6001542908826168  0.6001865281418255  0.6891289809200046
 
  0.00000000E+00  0.00000000E+00  0.00000000E+00
  0.00000000E+00  0.00000000E+00  0.00000000E+00
  0.00000000E+00  0.00000000E+00  0.00000000E+00
  0.00000000E+00  0.00000000E+00  0.00000000E+00
  0.00000000E+00  0.00000000E+00  0.00000000E+00
  0.00000000E+00  0.00000000E+00  0.00000000E+00
  0.00000000E+00  0.00000000E+00  0.00000000E+00
  0.00000000E+00  0.00000000E+00  0.00000000E+00
  0.00000000E+00  0.00000000E+00  0.00000000E+00
  0.00000000E+00  0.00000000E+00  0.00000000E+00
  0.00000000E+00  0.00000000E+00  0.00000000E+00
  0.00000000E+00  0.00000000E+00  0.00000000E+00
  0.00000000E+00  0.00000000E+00  0.00000000E+00
  0.00000000E+00  0.00000000E+00  0.00000000E+00
  0.00000000E+00  0.00000000E+00  0.00000000E+00
  0.00000000E+00  0.00000000E+00  0.00000000E+00
  0.00000000E+00  0.00000000E+00  0.00000000E+00
  0.00000000E+00  0.00000000E+00  0.00000000E+00
  0.00000000E+00  0.00000000E+00  0.00000000E+00
  0.00000000E+00  0.00000000E+00  0.00000000E+00
  0.00000000E+00  0.00000000E+00  0.00000000E+00
  0.00000000E+00  0.00000000E+00  0.00000000E+00
  0.00000000E+00  0.00000000E+00  0.00000000E+00
  0.00000000E+00  0.00000000E+00  0.00000000E+00
  0.00000000E+00  0.00000000E+00  0.00000000E+00
  0.00000000E+00  0.00000000E+00  0.00000000E+00
  0.00000000E+00  0.00000000E+00  0.00000000E+00
  0.00000000E+00  0.00000000E+00  0.00000000E+00
  0.00000000E+00  0.00000000E+00  0.00000000E+00
  0.00000000E+00  0.00000000E+00  0.00000000E+00
  0.00000000E+00  0.00000000E+00  0.00000000E+00
  0.00000000E+00  0.00000000E+00  0.00000000E+00
  0.00000000E+00  0.00000000E+00  0.00000000E+00
  0.00000000E+00  0.00000000E+00  0.00000000E+00
  0.00000000E+00  0.00000000E+00  0.00000000E+00
  0.00000000E+00  0.00000000E+00  0.00000000E+00
  0.00000000E+00  0.00000000E+00  0.00000000E+00
  0.00000000E+00  0.00000000E+00  0.00000000E+00
  0.00000000E+00  0.00000000E+00  0.00000000E+00
  0.00000000E+00  0.00000000E+00  0.00000000E+00
  0.00000000E+00  0.00000000E+00  0.00000000E+00
  0.00000000E+00  0.00000000E+00  0.00000000E+00
  0.00000000E+00  0.00000000E+00  0.00000000E+00
  0.00000000E+00  0.00000000E+00  0.00000000E+00
  0.00000000E+00  0.00000000E+00  0.00000000E+00
  0.00000000E+00  0.00000000E+00  0.00000000E+00
  0.00000000E+00  0.00000000E+00  0.00000000E+00
  0.00000000E+00  0.00000000E+00  0.00000000E+00
  0.00000000E+00  0.00000000E+00  0.00000000E+00
  0.00000000E+00  0.00000000E+00  0.00000000E+00
  0.00000000E+00  0.00000000E+00  0.00000000E+00
