CONTCAR\(7)                             
   1.00000000000000     
    14.4153003693000006    0.0000000000000000    0.0000000000000000
     0.0000000000000000   14.4153003693000006    0.0000000000000000
     0.0000000000000000    0.0000000000000000   17.7828998566000003
   Co   Se   O 
    32    32     1
Direct
  0.9981663050806908 -0.0000132556552881  0.5006789814758709
  0.1230258871148931  0.1250343787564877  0.5005868614874139
  0.2478757492079950  0.0002194895131865  0.5008148690280275
  0.3729166063328916  0.1250650670471139  0.5014877466430790
  0.4976100054658342  0.0000559719783625  0.5019085543498054
  0.6227092757230913  0.1250240413495675  0.5018957164848370
  0.7482392172011570  0.0002959387599898  0.5005673215070681
  0.8732904660793536  0.1250172046091643  0.5004069412462941
  0.9981378929791270  0.2500534539513453  0.5007071461377040
  0.1231239295552583  0.3751358379784326  0.5003189317782490
  0.2478704693879331  0.2499176185288637  0.5007861055975593
  0.3729766651598070  0.3754765404991830  0.5004705492524496
  0.4977335190741323  0.2499571211189242  0.5015851569404524
  0.6231835223697555  0.3753612602111055  0.5007002563685199
  0.7483105757033207  0.2497577725437021  0.5005285270333919
  0.8731613608519352  0.3750397093778316  0.5003650926607024
  0.9983951726822401  0.5002976673775209  0.5004709149252284
  0.1234287872927886  0.6250450980140059  0.5006829905618998
  0.2486604777695523  0.4999863962672995  0.5004025633274670
  0.3739320574321398  0.6249952661379331  0.4993366772495474
  0.4981256189318662  0.5008099580841692  0.4995175739271494
  0.6224205981971720  0.6249985551487014  0.4998328249688412
  0.7477126888989737  0.5000017417777247  0.5009937993455166
  0.8729570478593682  0.6250128675552286  0.5017941684211865
  0.9983684751559665  0.7497241681683415  0.5004702435268770
  0.1231499152883421  0.8749332569775378  0.5003040868789288
  0.2486384737429312  0.7500228729794371  0.5004230139864775
  0.3730465273561233  0.8744955331761106  0.5004194930970197
  0.4981104086405453  0.7492459161509267  0.4995345314547134
  0.6231212655696716  0.8747117164843549  0.5008745399350187
  0.7476352069518977  0.7500369181303035  0.5011780903711688
  0.8731424080511360  0.8750241467259275  0.5003714941892324
  0.9980956761543809  0.1250206724129950  0.5820983510787930
  0.1230157690467338  0.0001110801618738  0.4192279530305205
  0.2475959713495466  0.1251310612906723  0.5824617351066469
  0.3731295430769495  0.0001673592926531  0.4200202561330939
  0.4977154055697413  0.1250982246615328  0.5833051405263264
  0.6223958794119573  0.0002174310624923  0.4203775926567209
  0.7485914335059243  0.1250564548011153  0.5822983728707586
  0.8732796772857412  0.0000360282186363  0.4190856467223336
  0.9981807257844566  0.3753190952936719  0.5818545177058169
  0.1230133756850679  0.2499162201147529  0.4191882917692127
  0.2481254074617558  0.3752297356563927  0.5816523215362224
  0.3730691972022221  0.2498591425870601  0.4199584318500064
  0.4979886889989710  0.3762643931589780  0.5813876007106600
  0.6225667407078923  0.2498198124115035  0.4202100139766398
  0.7481663194312197  0.3748492287052195  0.5817324695300855
  0.8733989302234255  0.2499664717768015  0.4190782738928904
 -0.0013305647657692  0.6250152594352573  0.5822928515715597
  0.1235868694408776  0.5001878371040023  0.4192545803756423
  0.2493440540946355  0.6249868136565937  0.5811548901916312
  0.3731391194927784  0.4998646973637077  0.4179535391941918
  0.4978091789572938  0.6250036760217726  0.5816650765424363
  0.6233615181098890  0.4999648165163174  0.4183669980415903
  0.7468263776915842  0.6249373818409709  0.5818784892305093
  0.8727480850932602  0.5004997541768483  0.4198868483140826
  0.9982219332595947  0.8746721115968790  0.5818010998558599
  0.1236459174476821  0.7498488031357776  0.4192364996191339
  0.2481350943531616  0.8748584307285767  0.5815878480673431
  0.3731683340717435  0.7501387182878237  0.4179603254489107
  0.4978834362188338  0.8736582733923727  0.5815070171849018
  0.6234501379432300  0.7501546337231747  0.4185043066836729
  0.7482275352716753  0.8752984649605425  0.5818434163950098
  0.8726746779183110  0.7495475000907319  0.4199323825221997
  0.4968033863973300  0.6249306176388026  0.6761515485068672
 
  0.00000000E+00  0.00000000E+00  0.00000000E+00
  0.00000000E+00  0.00000000E+00  0.00000000E+00
  0.00000000E+00  0.00000000E+00  0.00000000E+00
  0.00000000E+00  0.00000000E+00  0.00000000E+00
  0.00000000E+00  0.00000000E+00  0.00000000E+00
  0.00000000E+00  0.00000000E+00  0.00000000E+00
  0.00000000E+00  0.00000000E+00  0.00000000E+00
  0.00000000E+00  0.00000000E+00  0.00000000E+00
  0.00000000E+00  0.00000000E+00  0.00000000E+00
  0.00000000E+00  0.00000000E+00  0.00000000E+00
  0.00000000E+00  0.00000000E+00  0.00000000E+00
  0.00000000E+00  0.00000000E+00  0.00000000E+00
  0.00000000E+00  0.00000000E+00  0.00000000E+00
  0.00000000E+00  0.00000000E+00  0.00000000E+00
  0.00000000E+00  0.00000000E+00  0.00000000E+00
  0.00000000E+00  0.00000000E+00  0.00000000E+00
  0.00000000E+00  0.00000000E+00  0.00000000E+00
  0.00000000E+00  0.00000000E+00  0.00000000E+00
  0.00000000E+00  0.00000000E+00  0.00000000E+00
  0.00000000E+00  0.00000000E+00  0.00000000E+00
  0.00000000E+00  0.00000000E+00  0.00000000E+00
  0.00000000E+00  0.00000000E+00  0.00000000E+00
  0.00000000E+00  0.00000000E+00  0.00000000E+00
  0.00000000E+00  0.00000000E+00  0.00000000E+00
  0.00000000E+00  0.00000000E+00  0.00000000E+00
  0.00000000E+00  0.00000000E+00  0.00000000E+00
  0.00000000E+00  0.00000000E+00  0.00000000E+00
  0.00000000E+00  0.00000000E+00  0.00000000E+00
  0.00000000E+00  0.00000000E+00  0.00000000E+00
  0.00000000E+00  0.00000000E+00  0.00000000E+00
  0.00000000E+00  0.00000000E+00  0.00000000E+00
  0.00000000E+00  0.00000000E+00  0.00000000E+00
  0.00000000E+00  0.00000000E+00  0.00000000E+00
  0.00000000E+00  0.00000000E+00  0.00000000E+00
  0.00000000E+00  0.00000000E+00  0.00000000E+00
  0.00000000E+00  0.00000000E+00  0.00000000E+00
  0.00000000E+00  0.00000000E+00  0.00000000E+00
  0.00000000E+00  0.00000000E+00  0.00000000E+00
  0.00000000E+00  0.00000000E+00  0.00000000E+00
  0.00000000E+00  0.00000000E+00  0.00000000E+00
  0.00000000E+00  0.00000000E+00  0.00000000E+00
  0.00000000E+00  0.00000000E+00  0.00000000E+00
  0.00000000E+00  0.00000000E+00  0.00000000E+00
  0.00000000E+00  0.00000000E+00  0.00000000E+00
  0.00000000E+00  0.00000000E+00  0.00000000E+00
  0.00000000E+00  0.00000000E+00  0.00000000E+00
  0.00000000E+00  0.00000000E+00  0.00000000E+00
  0.00000000E+00  0.00000000E+00  0.00000000E+00
  0.00000000E+00  0.00000000E+00  0.00000000E+00
  0.00000000E+00  0.00000000E+00  0.00000000E+00
  0.00000000E+00  0.00000000E+00  0.00000000E+00
  0.00000000E+00  0.00000000E+00  0.00000000E+00
  0.00000000E+00  0.00000000E+00  0.00000000E+00
  0.00000000E+00  0.00000000E+00  0.00000000E+00
  0.00000000E+00  0.00000000E+00  0.00000000E+00
  0.00000000E+00  0.00000000E+00  0.00000000E+00
  0.00000000E+00  0.00000000E+00  0.00000000E+00
  0.00000000E+00  0.00000000E+00  0.00000000E+00
  0.00000000E+00  0.00000000E+00  0.00000000E+00
  0.00000000E+00  0.00000000E+00  0.00000000E+00
  0.00000000E+00  0.00000000E+00  0.00000000E+00
  0.00000000E+00  0.00000000E+00  0.00000000E+00
  0.00000000E+00  0.00000000E+00  0.00000000E+00
  0.00000000E+00  0.00000000E+00  0.00000000E+00
  0.00000000E+00  0.00000000E+00  0.00000000E+00
