CONTCAR\(5)                             
   1.00000000000000     
    11.2744998931999998    0.0000000000000000    0.0000000000000000
     0.0000000000000000   12.4884996414000007    0.0000000000000000
     0.0000000000000000    0.0000000000000000   19.0002002716000007
   Nb   Te   Ir   O 
     6    24     6     1
Direct
 -0.0000341731008949  0.0495735575219823  0.5048047818570752
  0.1676609154310530  0.7276173706961983  0.4945388938069739
  0.3322296413128454  0.0499161324088742  0.5045198021489931
  0.4982939784041073  0.7307546152505976  0.4967613054569993
  0.6645136850657212  0.0479122247785354  0.5045917640104360
  0.8344099258370965  0.7274608372256344  0.4958234553061273
  0.1665928508623168  0.9313246407202971  0.4203679193777156
  0.9988493504974427  0.1899743837364989  0.3984600713308888
  0.0030176368862251  0.3427393890140768  0.5707568226992852
  0.1678241673133880  0.5860232291923599  0.6002183953224468
  0.1685065949649093  0.4296425890112746  0.4293312780711594
  0.9998996281647567  0.6717263368638230  0.3937731901426245
  0.0008235370301865  0.8456044329701513  0.5797856731008102
  0.1677133253119693  0.1068880978212768  0.6060180688563986
  0.4994467584827814  0.9308007630955838  0.4189459299140300
  0.3355235375492117  0.1934627113771277  0.4008267378237315
  0.3398913967066563  0.3524544986337919  0.5750641606361685
  0.5071255146971282  0.5832506354504550  0.6079294721094861
  0.5011855952069095  0.4348918621335915  0.4318873204758570
  0.3334792121395428  0.6740265700492416  0.3932136774588953
  0.3321870224453800  0.8448821901498981  0.5800516457539162
  0.4985894146166707  0.1038677513776123  0.6066803256970458
  0.8332117391878283  0.9310885029977428  0.4208982415581069
  0.6658334290957368  0.1924164835475003  0.4014661294371218
  0.6683521136477402  0.3443070006673973  0.5730555393541834
  0.8369543061297687  0.5851404894546139  0.6009221580703296
  0.8332268119997956  0.4314000696489141  0.4296936270456229
  0.6655638962080690  0.6721474907377738  0.3955447722193038
  0.6648722574318522  0.8420383493058664  0.5805130080311744
  0.8321762553151294  0.1039692793453500  0.6058621885932075
  0.0016804261765100  0.5330110547716000  0.5025076457848709
  0.1665387484607120  0.2398224235361452  0.4954588758598275
  0.3324696689664177  0.5370826536561272  0.5027403943517287
  0.5003623513489223  0.2438944982929763  0.4992818851056793
  0.6684465177513181  0.5357143917754971  0.5052924262242064
  0.8347948732510178  0.2415973935458441  0.4970294401263495
  0.4770373522037505  0.4366050042377502  0.6420530738812241
 
  0.00000000E+00  0.00000000E+00  0.00000000E+00
  0.00000000E+00  0.00000000E+00  0.00000000E+00
  0.00000000E+00  0.00000000E+00  0.00000000E+00
  0.00000000E+00  0.00000000E+00  0.00000000E+00
  0.00000000E+00  0.00000000E+00  0.00000000E+00
  0.00000000E+00  0.00000000E+00  0.00000000E+00
  0.00000000E+00  0.00000000E+00  0.00000000E+00
  0.00000000E+00  0.00000000E+00  0.00000000E+00
  0.00000000E+00  0.00000000E+00  0.00000000E+00
  0.00000000E+00  0.00000000E+00  0.00000000E+00
  0.00000000E+00  0.00000000E+00  0.00000000E+00
  0.00000000E+00  0.00000000E+00  0.00000000E+00
  0.00000000E+00  0.00000000E+00  0.00000000E+00
  0.00000000E+00  0.00000000E+00  0.00000000E+00
  0.00000000E+00  0.00000000E+00  0.00000000E+00
  0.00000000E+00  0.00000000E+00  0.00000000E+00
  0.00000000E+00  0.00000000E+00  0.00000000E+00
  0.00000000E+00  0.00000000E+00  0.00000000E+00
  0.00000000E+00  0.00000000E+00  0.00000000E+00
  0.00000000E+00  0.00000000E+00  0.00000000E+00
  0.00000000E+00  0.00000000E+00  0.00000000E+00
  0.00000000E+00  0.00000000E+00  0.00000000E+00
  0.00000000E+00  0.00000000E+00  0.00000000E+00
  0.00000000E+00  0.00000000E+00  0.00000000E+00
  0.00000000E+00  0.00000000E+00  0.00000000E+00
  0.00000000E+00  0.00000000E+00  0.00000000E+00
  0.00000000E+00  0.00000000E+00  0.00000000E+00
  0.00000000E+00  0.00000000E+00  0.00000000E+00
  0.00000000E+00  0.00000000E+00  0.00000000E+00
  0.00000000E+00  0.00000000E+00  0.00000000E+00
  0.00000000E+00  0.00000000E+00  0.00000000E+00
  0.00000000E+00  0.00000000E+00  0.00000000E+00
  0.00000000E+00  0.00000000E+00  0.00000000E+00
  0.00000000E+00  0.00000000E+00  0.00000000E+00
  0.00000000E+00  0.00000000E+00  0.00000000E+00
  0.00000000E+00  0.00000000E+00  0.00000000E+00
  0.00000000E+00  0.00000000E+00  0.00000000E+00
