CONTCAR\(3)                             
   1.00000000000000     
    13.5864000320000002    0.0000000000000000    0.0000000000000000
     0.0000000000000000   13.0711002349999994    0.0000000000000000
     0.0000000000000000    0.0000000000000000   20.1478996276999993
   Ta   Ni   Te   Se   O    H 
    16    32    16    16     1     1
Selective dynamics
Direct
  0.0008855428759560  0.1904916949265782  0.5263833681964556   F   F   F
  0.0005883403240787  0.4694429334553476  0.4751591933147097   F   F   F
  0.2516372618600755  0.2203609337955470  0.5271273228277238   F   F   F
  0.2514995608056552  0.4409103182043950  0.4765055834043395   F   F   F
  0.5006335888357185  0.1892417915992368  0.5278508087698128   F   F   F
  0.5020312281874979  0.4705525820177741  0.4760651651615859   F   F   F
  0.7502641653073070  0.2203611247675283  0.5273757777897359   F   F   F
  0.7506876127718627  0.4393655837534851  0.4748288227594060   F   F   F
  0.0009175964239105  0.6904780160533193  0.5258056653980816   F   F   F
  0.0011652036937946  0.9694439427070165  0.4758878058735405   F   F   F
  0.2517514486222225  0.7186230998163197  0.5268328689337096   F   F   F
  0.2509560022995529  0.9401608821261433  0.4759890199478889   F   F   F
  0.5017179082940899  0.6913286945280106  0.5240565963637636   F   F   F
  0.5011105088628014  0.9695948383194448  0.4758607702352222   F   F   F
  0.7505192891114305  0.7192413905359132  0.5252378973188030   F   F   F
  0.7511278475268384  0.9408438691095142  0.4759919014021534   F   F   F
  0.1450866867859304  0.0508738819241756  0.5585090659640812   F   F   F
  0.1460747227466683  0.1087132530417421  0.4444391944761534   F   F   F
  0.1071583740652358  0.3018201724342475  0.4438460156255388   F   F   F
  0.1053974070872883  0.3583025620133782  0.5578827780621296   F   F   F
  0.3552519276521551  0.0508061282373760  0.5582418924064854   F   F   F
  0.3565393059948363  0.1086859403586402  0.4444712697177664   F   F   F
  0.3949618870346256  0.3019363090776039  0.4454739639973795   F   F   F
  0.4006322400390800  0.3599510971131679  0.5603569109336632   F   F   F
  0.6469348867151510  0.0512719597039535  0.5586231255725949   F   F   F
  0.6452555672585802  0.1088065145169566  0.4448109029799951   F   F   F
  0.6062633994388236  0.3020632427418022  0.4460478047175371   F   F   F
  0.5997337504631020  0.3605101694270090  0.5617394903189918   F   F   F
  0.8567367642096002  0.0509316488137728  0.5587700431001608   F   F   F
  0.8563968254000898  0.1089114864455354  0.4446480397405921   F   F   F
  0.8955172258104795  0.3016652381284430  0.4437469311170119   F   F   F
  0.8947534746873771  0.3584717157354476  0.5578201835031535   F   F   F
  0.1443856172480977  0.5509329283053503  0.5581994645395554   F   F   F
  0.1458034377251067  0.6082582660328910  0.4441708403302158   F   F   F
  0.1070671848719442  0.8015565907716180  0.4437117570335616   F   F   F
  0.1064997985109741  0.8575346073270254  0.5580084046233296   F   F   F
  0.3632634777601922  0.5496165715989392  0.5590297127363897   F   F   F
  0.3567909282740658  0.6086322494492862  0.4445099994268276   F   F   F
  0.3937886934861936  0.8021680723103373  0.4430717159755559   F   F   F
  0.3965962541165879  0.8574546711800082  0.5578073464895184   F   F   F
  0.6466057039865305  0.5516742578255176  0.5541083559815547   F   F   F
  0.6463071814573382  0.6089545891907449  0.4410312785282784   F   F   F
  0.6084376509601341  0.8022210652029074  0.4426410681088342   F   F   F
  0.6065482411575331  0.8569924856719169  0.5577316920597966   F   F   F
  0.8565438005456585  0.5513433047571255  0.5568157562921172   F   F   F
  0.8559717470511430  0.6082788339193286  0.4426351514974058   F   F   F
  0.8950536920743701  0.8014431269261095  0.4434988282826993   F   F   F
  0.8953278985916029  0.8580033902212065  0.5578146761530078   F   F   F
  0.0013466016308854  0.1805826724550101  0.3763586396937200   F   F   F
  0.0001616394629878  0.4785419152441506  0.6260806550735865   F   F   F
  0.2515015580921585  0.2292013520749236  0.3763013474775789   F   F   F
  0.2512700016721183  0.4290596881568050  0.6244621150578027   F   F   F
  0.5009284847851916  0.1818701728918555  0.3771079911123820   F   F   F
  0.4985467851289442  0.4694077405109738  0.6402854236723172   F   F   F
  0.7503859525519800  0.2291130176623213  0.3767479769622000   F   F   F
  0.7487714461265327  0.4317902003424123  0.6245008038162254   F   F   F
  0.0014437486434886  0.6805347234513661  0.3758895899550510   F   F   F
  0.0010501372128360  0.9779733550173617  0.6263176559553898   F   F   F
  0.2506002382217858  0.7284027721548014  0.3754645727691681   F   F   F
  0.2513123175972254  0.9291086879173704  0.6259776035441433   F   F   F
  0.5005732793783153  0.6815989497929067  0.3751730989647157   F   F   F
  0.5011228026441401  0.9792167197496227  0.6253946726045214   F   F   F
  0.7517299680051934  0.7295511023576324  0.3739932322014852   F   F   F
  0.7508454498375343  0.9292943080412286  0.6262610974055605   F   F   F
  0.1256913734780341  0.2047526914217954  0.6250035708451733   F   F   F
  0.1268833461762284  0.4550368844653576  0.3773142310264035   F   F   F
  0.3751664852219321  0.2034208107812034  0.6254928150942618   F   F   F
  0.3762752717675824  0.4546846534708280  0.3777807503636694   F   F   F
  0.6262338130901739  0.2047369049316430  0.6257693429459863   F   F   F
  0.6257137159331876  0.4535125853908184  0.3764271250866571   F   F   F
  0.8762216101267271  0.2049652551371679  0.6250653170752116   F   F   F
  0.8761530592500293  0.4545095042661345  0.3763133310897828   F   F   F
  0.1259047060752536  0.7037714296067890  0.6248350618551441   F   F   F
  0.1262302100844508  0.9553862034508143  0.3772786444117102   F   F   F
  0.3778265165303907  0.7025355705808565  0.6242138152410632   F   F   F
  0.3759761614093051  0.9556572012244828  0.3772000973449323   F   F   F
  0.6237656430807448  0.6998158763042142  0.6236093004803536   F   F   F
  0.6261587256453964  0.9562122127949024  0.3770704642014095   F   F   F
  0.8751591520419453  0.7041016756743232  0.6241250653508033   F   F   F
  0.8760526663781363  0.9556117733103520  0.3773296939507205   F   F   F
  0.4542805281749693  0.3705409535136326  0.7177631867312613   T   T   T
  0.4772375555348987  0.4019328377347691  0.7582949121736140   T   T   T
 
  0.00000000E+00  0.00000000E+00  0.00000000E+00
  0.00000000E+00  0.00000000E+00  0.00000000E+00
  0.00000000E+00  0.00000000E+00  0.00000000E+00
  0.00000000E+00  0.00000000E+00  0.00000000E+00
  0.00000000E+00  0.00000000E+00  0.00000000E+00
  0.00000000E+00  0.00000000E+00  0.00000000E+00
  0.00000000E+00  0.00000000E+00  0.00000000E+00
  0.00000000E+00  0.00000000E+00  0.00000000E+00
  0.00000000E+00  0.00000000E+00  0.00000000E+00
  0.00000000E+00  0.00000000E+00  0.00000000E+00
  0.00000000E+00  0.00000000E+00  0.00000000E+00
  0.00000000E+00  0.00000000E+00  0.00000000E+00
  0.00000000E+00  0.00000000E+00  0.00000000E+00
  0.00000000E+00  0.00000000E+00  0.00000000E+00
  0.00000000E+00  0.00000000E+00  0.00000000E+00
  0.00000000E+00  0.00000000E+00  0.00000000E+00
  0.00000000E+00  0.00000000E+00  0.00000000E+00
  0.00000000E+00  0.00000000E+00  0.00000000E+00
  0.00000000E+00  0.00000000E+00  0.00000000E+00
  0.00000000E+00  0.00000000E+00  0.00000000E+00
  0.00000000E+00  0.00000000E+00  0.00000000E+00
  0.00000000E+00  0.00000000E+00  0.00000000E+00
  0.00000000E+00  0.00000000E+00  0.00000000E+00
  0.00000000E+00  0.00000000E+00  0.00000000E+00
  0.00000000E+00  0.00000000E+00  0.00000000E+00
  0.00000000E+00  0.00000000E+00  0.00000000E+00
  0.00000000E+00  0.00000000E+00  0.00000000E+00
  0.00000000E+00  0.00000000E+00  0.00000000E+00
  0.00000000E+00  0.00000000E+00  0.00000000E+00
  0.00000000E+00  0.00000000E+00  0.00000000E+00
  0.00000000E+00  0.00000000E+00  0.00000000E+00
  0.00000000E+00  0.00000000E+00  0.00000000E+00
  0.00000000E+00  0.00000000E+00  0.00000000E+00
  0.00000000E+00  0.00000000E+00  0.00000000E+00
  0.00000000E+00  0.00000000E+00  0.00000000E+00
  0.00000000E+00  0.00000000E+00  0.00000000E+00
  0.00000000E+00  0.00000000E+00  0.00000000E+00
  0.00000000E+00  0.00000000E+00  0.00000000E+00
  0.00000000E+00  0.00000000E+00  0.00000000E+00
  0.00000000E+00  0.00000000E+00  0.00000000E+00
  0.00000000E+00  0.00000000E+00  0.00000000E+00
  0.00000000E+00  0.00000000E+00  0.00000000E+00
  0.00000000E+00  0.00000000E+00  0.00000000E+00
  0.00000000E+00  0.00000000E+00  0.00000000E+00
  0.00000000E+00  0.00000000E+00  0.00000000E+00
  0.00000000E+00  0.00000000E+00  0.00000000E+00
  0.00000000E+00  0.00000000E+00  0.00000000E+00
  0.00000000E+00  0.00000000E+00  0.00000000E+00
  0.00000000E+00  0.00000000E+00  0.00000000E+00
  0.00000000E+00  0.00000000E+00  0.00000000E+00
  0.00000000E+00  0.00000000E+00  0.00000000E+00
  0.00000000E+00  0.00000000E+00  0.00000000E+00
  0.00000000E+00  0.00000000E+00  0.00000000E+00
  0.00000000E+00  0.00000000E+00  0.00000000E+00
  0.00000000E+00  0.00000000E+00  0.00000000E+00
  0.00000000E+00  0.00000000E+00  0.00000000E+00
  0.00000000E+00  0.00000000E+00  0.00000000E+00
  0.00000000E+00  0.00000000E+00  0.00000000E+00
  0.00000000E+00  0.00000000E+00  0.00000000E+00
  0.00000000E+00  0.00000000E+00  0.00000000E+00
  0.00000000E+00  0.00000000E+00  0.00000000E+00
  0.00000000E+00  0.00000000E+00  0.00000000E+00
  0.00000000E+00  0.00000000E+00  0.00000000E+00
  0.00000000E+00  0.00000000E+00  0.00000000E+00
  0.00000000E+00  0.00000000E+00  0.00000000E+00
  0.00000000E+00  0.00000000E+00  0.00000000E+00
  0.00000000E+00  0.00000000E+00  0.00000000E+00
  0.00000000E+00  0.00000000E+00  0.00000000E+00
  0.00000000E+00  0.00000000E+00  0.00000000E+00
  0.00000000E+00  0.00000000E+00  0.00000000E+00
  0.00000000E+00  0.00000000E+00  0.00000000E+00
  0.00000000E+00  0.00000000E+00  0.00000000E+00
  0.00000000E+00  0.00000000E+00  0.00000000E+00
  0.00000000E+00  0.00000000E+00  0.00000000E+00
  0.00000000E+00  0.00000000E+00  0.00000000E+00
  0.00000000E+00  0.00000000E+00  0.00000000E+00
  0.00000000E+00  0.00000000E+00  0.00000000E+00
  0.00000000E+00  0.00000000E+00  0.00000000E+00
  0.00000000E+00  0.00000000E+00  0.00000000E+00
  0.00000000E+00  0.00000000E+00  0.00000000E+00
  0.00000000E+00  0.00000000E+00  0.00000000E+00
  0.00000000E+00  0.00000000E+00  0.00000000E+00
