CONTCAR\(17)                            
   1.00000000000000     
    12.4780998230000009    0.0000000000000000    0.0000000000000000
     0.0000000000000000   15.4434003830000002    0.0000000000000000
     0.0000000000000000    0.0000000000000000   19.6900997161999989
   Nb   Co   Te
    16    16    32
Direct
  0.2416139444926557  0.1267145796812486  0.4938311813491580
  0.2584963442890569  0.3256352994589875  0.5061511635449563
  0.4914936247109409  0.0756352924589834  0.5061511635449563
  0.0083860635073449  0.3767245906812491  0.4938311813491580
  0.7416139444926557  0.1267145796812486  0.4938311813491580
  0.7584963252890589  0.3256352994589875  0.5061511635449563
  0.9914936627109441  0.0756352924589834  0.5061511635449563
  0.5083860555073443  0.3767245906812491  0.4938311813491580
  0.2416139444926557  0.6267145406812489  0.4938311813491580
  0.2584963442890569  0.8256352994589875  0.5061511635449563
  0.4914936247109409  0.5756352844589827  0.5061511635449563
  0.0083860635073449  0.8767245606812466  0.4938311813491580
  0.7416139444926557  0.6267145406812489  0.4938311813491580
  0.7584963252890589  0.8256352994589875  0.5061511635449563
  0.9914936627109441  0.5756352844589827  0.5061511635449563
  0.5083860555073443  0.8767245606812466  0.4938311813491580
  0.4269378358576645  0.2287801582689895  0.4587458444466321
  0.1774987193760253  0.4734863184098401  0.5412261490498338
  0.3230621641423355  0.4787801732689942  0.4587458444466321
  0.0725112776239740  0.2234863184098401  0.5412261490498338
  0.9269377968576649  0.2287801582689895  0.4587458444466321
  0.6774987393760270  0.4734863184098401  0.5412261490498338
  0.8230622031423351  0.4787801732689942  0.4587458444466321
  0.5725113116239768  0.2234863184098401  0.5412261490498338
  0.4269378358576645  0.7287801582689895  0.4587458444466321
  0.1774987193760253  0.9734863184098401  0.5412261490498338
  0.3230621641423355  0.9787801732689942  0.4587458444466321
  0.0725112776239740  0.7234863034098424  0.5412261490498338
  0.9269377968576649  0.7287801582689895  0.4587458444466321
  0.6774987393760270  0.9734863184098401  0.5412261490498338
  0.8230622031423351  0.9787801732689942  0.4587458444466321
  0.5725113116239768  0.7234863034098424  0.5412261490498338
  0.1278850418138049  0.4930761525716036  0.4125833400156367
  0.3729048954970082  0.3547743840450863  0.3810911858649391
  0.1226519524332943  0.3474895257163979  0.6187810982846500
  0.3777125073903562  0.2093536098478523  0.5875900604441924
  0.3770951045029918  0.1047743910450833  0.3810911858649391
  0.1273480475667057  0.0974794987163961  0.6187810982846500
  0.1221249511861942  0.2430661325716059  0.4125833400156367
  0.3722774806096467  0.4593635988478511  0.5875900604441924
  0.6278850418138049  0.4930761525716036  0.4125833400156367
  0.8729048564970086  0.3547743840450863  0.3810911858649391
  0.6226519234332955  0.3474895257163979  0.6187810982846500
  0.8777124693903531  0.2093536098478523  0.5875900604441924
  0.8770951435029914  0.1047743910450833  0.3810911858649391
  0.6273480765667045  0.0974794987163961  0.6187810982846500
  0.6221249701861993  0.2430661325716059  0.4125833400156367
  0.8722775186096499  0.4593635988478511  0.5875900604441924
  0.1278850418138049  0.9930760905716056  0.4125833400156367
  0.3729048954970082  0.8547743840450863  0.3810911858649391
  0.1226519524332943  0.8474894947163989  0.6187810982846500
  0.3777125073903562  0.7093536098478523  0.5875900604441924
  0.3770951045029918  0.6047743680450850  0.3810911858649391
  0.1273480475667057  0.5974795377163957  0.6187810982846500
  0.1221249511861942  0.7430661325716059  0.4125833400156367
  0.3722774806096467  0.9593636298478501  0.5875900604441924
  0.6278850418138049  0.9930760905716056  0.4125833400156367
  0.8729048564970086  0.8547743840450863  0.3810911858649391
  0.6226519234332955  0.8474894947163989  0.6187810982846500
  0.8777124693903531  0.7093536098478523  0.5875900604441924
  0.8770951435029914  0.6047743680450850  0.3810911858649391
  0.6273480765667045  0.5974795377163957  0.6187810982846500
  0.6221249701861993  0.7430661325716059  0.4125833400156367
  0.8722775186096499  0.9593636298478501  0.5875900604441924
 
  0.00000000E+00  0.00000000E+00  0.00000000E+00
  0.00000000E+00  0.00000000E+00  0.00000000E+00
  0.00000000E+00  0.00000000E+00  0.00000000E+00
  0.00000000E+00  0.00000000E+00  0.00000000E+00
  0.00000000E+00  0.00000000E+00  0.00000000E+00
  0.00000000E+00  0.00000000E+00  0.00000000E+00
  0.00000000E+00  0.00000000E+00  0.00000000E+00
  0.00000000E+00  0.00000000E+00  0.00000000E+00
  0.00000000E+00  0.00000000E+00  0.00000000E+00
  0.00000000E+00  0.00000000E+00  0.00000000E+00
  0.00000000E+00  0.00000000E+00  0.00000000E+00
  0.00000000E+00  0.00000000E+00  0.00000000E+00
  0.00000000E+00  0.00000000E+00  0.00000000E+00
  0.00000000E+00  0.00000000E+00  0.00000000E+00
  0.00000000E+00  0.00000000E+00  0.00000000E+00
  0.00000000E+00  0.00000000E+00  0.00000000E+00
  0.00000000E+00  0.00000000E+00  0.00000000E+00
  0.00000000E+00  0.00000000E+00  0.00000000E+00
  0.00000000E+00  0.00000000E+00  0.00000000E+00
  0.00000000E+00  0.00000000E+00  0.00000000E+00
  0.00000000E+00  0.00000000E+00  0.00000000E+00
  0.00000000E+00  0.00000000E+00  0.00000000E+00
  0.00000000E+00  0.00000000E+00  0.00000000E+00
  0.00000000E+00  0.00000000E+00  0.00000000E+00
  0.00000000E+00  0.00000000E+00  0.00000000E+00
  0.00000000E+00  0.00000000E+00  0.00000000E+00
  0.00000000E+00  0.00000000E+00  0.00000000E+00
  0.00000000E+00  0.00000000E+00  0.00000000E+00
  0.00000000E+00  0.00000000E+00  0.00000000E+00
  0.00000000E+00  0.00000000E+00  0.00000000E+00
  0.00000000E+00  0.00000000E+00  0.00000000E+00
  0.00000000E+00  0.00000000E+00  0.00000000E+00
  0.00000000E+00  0.00000000E+00  0.00000000E+00
  0.00000000E+00  0.00000000E+00  0.00000000E+00
  0.00000000E+00  0.00000000E+00  0.00000000E+00
  0.00000000E+00  0.00000000E+00  0.00000000E+00
  0.00000000E+00  0.00000000E+00  0.00000000E+00
  0.00000000E+00  0.00000000E+00  0.00000000E+00
  0.00000000E+00  0.00000000E+00  0.00000000E+00
  0.00000000E+00  0.00000000E+00  0.00000000E+00
  0.00000000E+00  0.00000000E+00  0.00000000E+00
  0.00000000E+00  0.00000000E+00  0.00000000E+00
  0.00000000E+00  0.00000000E+00  0.00000000E+00
  0.00000000E+00  0.00000000E+00  0.00000000E+00
  0.00000000E+00  0.00000000E+00  0.00000000E+00
  0.00000000E+00  0.00000000E+00  0.00000000E+00
  0.00000000E+00  0.00000000E+00  0.00000000E+00
  0.00000000E+00  0.00000000E+00  0.00000000E+00
  0.00000000E+00  0.00000000E+00  0.00000000E+00
  0.00000000E+00  0.00000000E+00  0.00000000E+00
  0.00000000E+00  0.00000000E+00  0.00000000E+00
  0.00000000E+00  0.00000000E+00  0.00000000E+00
  0.00000000E+00  0.00000000E+00  0.00000000E+00
  0.00000000E+00  0.00000000E+00  0.00000000E+00
  0.00000000E+00  0.00000000E+00  0.00000000E+00
  0.00000000E+00  0.00000000E+00  0.00000000E+00
  0.00000000E+00  0.00000000E+00  0.00000000E+00
  0.00000000E+00  0.00000000E+00  0.00000000E+00
  0.00000000E+00  0.00000000E+00  0.00000000E+00
  0.00000000E+00  0.00000000E+00  0.00000000E+00
  0.00000000E+00  0.00000000E+00  0.00000000E+00
  0.00000000E+00  0.00000000E+00  0.00000000E+00
  0.00000000E+00  0.00000000E+00  0.00000000E+00
  0.00000000E+00  0.00000000E+00  0.00000000E+00
