CONTCAR\(2)                             
   1.00000000000000     
    11.7750997542999993    0.0000000000000000    0.0000000000000000
     5.8875498771999997   10.1975355193000006    0.0000000000000000
     0.0000000000000000    0.0000000000000000   23.2443008422999995
   Ce   Zn   P    O    H 
    18    18    18    20     1
Selective dynamics
Direct
  0.1122224169612238  0.1106489050692048  0.5648186073124677   F   F   F
  0.0013079398395632  0.9991943999476192  0.4366847158147351   F   F   F
  0.4449668551080350  0.1108955163701282  0.5646637785051567   F   F   F
  0.3341837353436858  0.9994793846357908  0.4366589451999516   F   F   F
  0.7788780815583323  0.1102716509342230  0.5642796276808184   F   F   F
  0.6674208761777507  0.9993541543089890  0.4365106462261608   F   F   F
  0.1118100149604544  0.4449060621282257  0.5655711706528592   F   F   F
  0.0013436331102170  0.3331177923622022  0.4366342194794015   F   F   F
  0.4443447180538129  0.4451904773055091  0.5644433460781926   F   F   F
  0.3335851064719577  0.3332789021278586  0.4366325768544428   F   F   F
  0.7787469056828655  0.4445512395900266  0.5640587565274515   F   F   F
  0.6676517570242808  0.3325728884676593  0.4363954740005198   F   F   F
  0.1137221880164461  0.7766670404102811  0.5657043453898680   F   F   F
  0.0008882875466156  0.6665264780632754  0.4370736676343512   F   F   F
  0.4454211240764678  0.7761263532815974  0.5651152080395434   F   F   F
  0.3337425414868846  0.6666386701620581  0.4364667858456954   F   F   F
  0.7779898338547397  0.7770028564991875  0.5651976197816211   F   F   F
  0.6674537223949031  0.6666666408098934  0.4364432386587040   F   F   F
  0.0038849221212018  0.9981661855795494  0.6742671221200141   F   F   F
  0.1118877403383607  0.1108489987873327  0.3257562501181823   F   F   F
  0.3333626914610903  0.9998558545262952  0.6740676533749266   F   F   F
  0.4451294914764929  0.1109057013251089  0.3257534880874147   F   F   F
  0.6671576933347083  0.9989995017252582  0.6743668772222762   F   F   F
  0.7786339532764970  0.1107247943710519  0.3256626648096628   F   F   F
  0.9987912631687976  0.3361731253960585  0.6751527914747442   F   F   F
  0.1118300317862477  0.4442914459204061  0.3256196727553586   F   F   F
  0.3324064609983282  0.3367353720144308  0.6750901425967299   F   F   F
  0.4450903521322758  0.4441846251874750  0.3257727292158137   F   F   F
  0.6661227061272470  0.3350524087337092  0.6725622939919589   F   F   F
  0.7786562658789293  0.4441579016615762  0.3257499445804868   F   F   F
  0.0024715706622942  0.6635457838884520  0.6759602734261634   F   F   F
  0.1118634674059322  0.7774842987207649  0.3255146012567494   F   F   F
  0.3461216308749542  0.6646881449847228  0.6896861246182340   F   F   F
  0.4452700279938568  0.7773910381799141  0.3257404472296059   F   F   F
  0.6530566581989063  0.6661020448075590  0.6823307102714224   F   F   F
  0.7786717865878074  0.7774124722200142  0.3256172746936414   F   F   F
  0.2228918543957690  0.2220554873802030  0.3443829380149026   F   F   F
  0.2221400469078105  0.2235531689998851  0.6566768121448803   F   F   F
  0.5562683180706998  0.2218926049220542  0.3442870972512111   F   F   F
  0.5557008929303962  0.2220420430129124  0.6558921495302670   F   F   F
  0.8897313992968918  0.2218366973613968  0.3443056204698536   F   F   F
  0.8899730102338097  0.2217450608263576  0.6565067064367938   F   F   F
  0.2227637485279104  0.5553934482177922  0.3443317766463210   F   F   F
  0.2264904562101293  0.5597540475599203  0.6577191024983478   F   F   F
  0.5563115674943333  0.5552558553110032  0.3442883743384755   F   F   F
  0.5574164704404367  0.5516940754671680  0.6415700329351566   F   F   F
  0.8897450420408504  0.5553008027065545  0.3443779501650752   F   F   F
  0.8813903194349990  0.5598466197388419  0.6596263084217071   F   F   F
  0.2229150305871030  0.8886179828569354  0.3442668737356698   F   F   F
  0.2259215707532718  0.8854711939433599  0.6526626370950197   F   F   F
  0.5562848724551657  0.8885968437618175  0.3442581609772475   F   F   F
  0.5560173140764775  0.8878026226050153  0.6538449923737844   F   F   F
  0.8897551658688059  0.8884666066684588  0.3442317411691747   F   F   F
  0.8904782678418641  0.8878643793893275  0.6566631851007756   F   F   F
  0.1117607584386846  0.1109103256031219  0.4626740615434031   F   F   F
  0.0007032699388105  0.9997875466295127  0.5382005676209261   F   F   F
  0.4452909416209252  0.1109881996567594  0.4625886686180891   F   F   F
  0.3335315018972764  0.0010795914431867  0.5377633034248817   F   F   F
  0.7792727658009611  0.1093616806751712  0.4622382719349787   F   F   F
  0.6674118335973418  0.9995697963686609  0.5381281534165652   F   F   F
  0.1116429152184537  0.4448586724215744  0.4629974710475722   F   F   F
  0.0025374247597085  0.3332180094892294  0.5383546077821322   F   F   F
  0.4449906638292873  0.4439510540715688  0.4623793516848309   F   F   F
  0.3323994874551417  0.3330970109324127  0.5382367450478540   F   F   F
  0.7791204934120870  0.4438818328118757  0.4622361140828062   F   F   F
  0.6690583476172307  0.3302649752147104  0.5369153444774213   F   F   F
  0.1112921586145390  0.7776125456509035  0.4629533758520381   F   F   F
  0.0006891235125082  0.6661128434404873  0.5391013787863201   F   F   F
  0.4452018256824815  0.7774420485902027  0.4627002820181971   F   F   F
  0.3325853408046839  0.6666279905137529  0.5372067808859171   F   F   F
  0.7791487894645499  0.7777154265680863  0.4627193530005584   F   F   F
  0.6691289023995637  0.6666551291643117  0.5371834170443108   F   F   F
  0.4300254297200681  0.6462345079664189  0.7650028467765040   T   T   T
  0.5186396483638305  0.7028013167676832  0.7611775719710749   T   T   T
  0.5682853077930119  0.6652410577879947  0.7959905566793237   T   T   T
 
  0.00000000E+00  0.00000000E+00  0.00000000E+00
  0.00000000E+00  0.00000000E+00  0.00000000E+00
  0.00000000E+00  0.00000000E+00  0.00000000E+00
  0.00000000E+00  0.00000000E+00  0.00000000E+00
  0.00000000E+00  0.00000000E+00  0.00000000E+00
  0.00000000E+00  0.00000000E+00  0.00000000E+00
  0.00000000E+00  0.00000000E+00  0.00000000E+00
  0.00000000E+00  0.00000000E+00  0.00000000E+00
  0.00000000E+00  0.00000000E+00  0.00000000E+00
  0.00000000E+00  0.00000000E+00  0.00000000E+00
  0.00000000E+00  0.00000000E+00  0.00000000E+00
  0.00000000E+00  0.00000000E+00  0.00000000E+00
  0.00000000E+00  0.00000000E+00  0.00000000E+00
  0.00000000E+00  0.00000000E+00  0.00000000E+00
  0.00000000E+00  0.00000000E+00  0.00000000E+00
  0.00000000E+00  0.00000000E+00  0.00000000E+00
  0.00000000E+00  0.00000000E+00  0.00000000E+00
  0.00000000E+00  0.00000000E+00  0.00000000E+00
  0.00000000E+00  0.00000000E+00  0.00000000E+00
  0.00000000E+00  0.00000000E+00  0.00000000E+00
  0.00000000E+00  0.00000000E+00  0.00000000E+00
  0.00000000E+00  0.00000000E+00  0.00000000E+00
  0.00000000E+00  0.00000000E+00  0.00000000E+00
  0.00000000E+00  0.00000000E+00  0.00000000E+00
  0.00000000E+00  0.00000000E+00  0.00000000E+00
  0.00000000E+00  0.00000000E+00  0.00000000E+00
  0.00000000E+00  0.00000000E+00  0.00000000E+00
  0.00000000E+00  0.00000000E+00  0.00000000E+00
  0.00000000E+00  0.00000000E+00  0.00000000E+00
  0.00000000E+00  0.00000000E+00  0.00000000E+00
  0.00000000E+00  0.00000000E+00  0.00000000E+00
  0.00000000E+00  0.00000000E+00  0.00000000E+00
  0.00000000E+00  0.00000000E+00  0.00000000E+00
  0.00000000E+00  0.00000000E+00  0.00000000E+00
  0.00000000E+00  0.00000000E+00  0.00000000E+00
  0.00000000E+00  0.00000000E+00  0.00000000E+00
  0.00000000E+00  0.00000000E+00  0.00000000E+00
  0.00000000E+00  0.00000000E+00  0.00000000E+00
  0.00000000E+00  0.00000000E+00  0.00000000E+00
  0.00000000E+00  0.00000000E+00  0.00000000E+00
  0.00000000E+00  0.00000000E+00  0.00000000E+00
  0.00000000E+00  0.00000000E+00  0.00000000E+00
  0.00000000E+00  0.00000000E+00  0.00000000E+00
  0.00000000E+00  0.00000000E+00  0.00000000E+00
  0.00000000E+00  0.00000000E+00  0.00000000E+00
  0.00000000E+00  0.00000000E+00  0.00000000E+00
  0.00000000E+00  0.00000000E+00  0.00000000E+00
  0.00000000E+00  0.00000000E+00  0.00000000E+00
  0.00000000E+00  0.00000000E+00  0.00000000E+00
  0.00000000E+00  0.00000000E+00  0.00000000E+00
  0.00000000E+00  0.00000000E+00  0.00000000E+00
  0.00000000E+00  0.00000000E+00  0.00000000E+00
  0.00000000E+00  0.00000000E+00  0.00000000E+00
  0.00000000E+00  0.00000000E+00  0.00000000E+00
  0.00000000E+00  0.00000000E+00  0.00000000E+00
  0.00000000E+00  0.00000000E+00  0.00000000E+00
  0.00000000E+00  0.00000000E+00  0.00000000E+00
  0.00000000E+00  0.00000000E+00  0.00000000E+00
  0.00000000E+00  0.00000000E+00  0.00000000E+00
  0.00000000E+00  0.00000000E+00  0.00000000E+00
  0.00000000E+00  0.00000000E+00  0.00000000E+00
  0.00000000E+00  0.00000000E+00  0.00000000E+00
  0.00000000E+00  0.00000000E+00  0.00000000E+00
  0.00000000E+00  0.00000000E+00  0.00000000E+00
  0.00000000E+00  0.00000000E+00  0.00000000E+00
  0.00000000E+00  0.00000000E+00  0.00000000E+00
  0.00000000E+00  0.00000000E+00  0.00000000E+00
  0.00000000E+00  0.00000000E+00  0.00000000E+00
  0.00000000E+00  0.00000000E+00  0.00000000E+00
  0.00000000E+00  0.00000000E+00  0.00000000E+00
  0.00000000E+00  0.00000000E+00  0.00000000E+00
  0.00000000E+00  0.00000000E+00  0.00000000E+00
  0.00000000E+00  0.00000000E+00  0.00000000E+00
  0.00000000E+00  0.00000000E+00  0.00000000E+00
  0.00000000E+00  0.00000000E+00  0.00000000E+00
