CONTCAR                                 
   1.00000000000000     
    13.3114004134999995    0.0000000000000000    0.0000000000000000
     0.0000000000000000   13.2841997146999997    0.0000000000000000
     0.0000000000000000    0.0000000000000000   29.9494991301999995
   Bi   I    O 
    54    12     1
Direct
  0.2364058812573958  0.6521204915474554  0.6498815483242034
  0.0860852273320336  0.3433068791611971  0.3484732339082081
  0.2528276312054463  0.3046239894410328  0.4173473827365721
  0.0690264783292637  0.7008715416196121  0.5834660379674456
  0.2519804595324091  0.0833710349522136  0.3867950054108300
  0.0871826322390538  0.9190618024861912  0.6178899026481125
  0.2653025559697328  0.9659457621819308  0.5567844144777802
  0.0865696661141844  0.0256106544789299  0.4528024321935694
  0.2535645824844405  0.1949214989482693  0.5776763944231053
  0.0715529514633094  0.8047708427475544  0.4212482099932959
  0.2445415215677046  0.7627348764189480  0.4865894929861715
  0.0893140094242695  0.2488908724445290  0.5098736564304094
  0.2524895415938291  0.5319115701982035  0.4695042394850064
  0.0853934563165728  0.4754251994834793  0.5339071981716292
  0.0865662780705165  0.5664153195899329  0.3727021766311453
  0.2371701358456824  0.4271347902613393  0.6314487419403501
  0.0713836260412707  0.3809699945162941  0.7000413930746927
  0.2511038428552288  0.6190234279810037  0.3037616124212669
  0.5867231519577021  0.6791994571499708  0.6626219565468151
  0.4192762034174664  0.3425322691077972  0.3478289772755271
  0.5840966125818498  0.3031102128142784  0.4173960805714447
  0.3763619050931361  0.6857737022651043  0.5713186417813624
  0.5865525791162154  0.0820767612447002  0.3867925384836654
  0.4394930115272696  0.9330078102060202  0.6263611241852398
  0.5918578947953196  0.9856386681704401  0.5532277959798076
  0.4190164155412524  0.0235454516662747  0.4515018935344323
  0.5875150007412159  0.2096955568254389  0.5779034993896933
  0.4189039493555817  0.8003111753015169  0.4222206482466224
  0.5781765808433305  0.7576923079601489  0.4941334319947819
  0.4184123037110035  0.2387544979120492  0.5093169889875619
  0.5869482449850978  0.5338751942053170  0.4672412596326256
  0.4249466493269127  0.4674706981506076  0.5330616950017930
  0.4170585548201858  0.5659478102428372  0.3721944394433436
  0.5696196825444623  0.4547508606798991  0.6308224941997452
  0.4087904750442423  0.3939037839101307  0.6999240969017833
  0.5832531856323641  0.6173790099598749  0.3038042324875907
  0.9107113929953994  0.6601859128720302  0.6545815598068955
  0.7514444865123167  0.3443159653772259  0.3489889395439622
  0.9189794925127637  0.3022459876003308  0.4169038488568144
  0.7431569310693538  0.7058773879056515  0.5875687217969491
  0.9187375289207574  0.0806843317354105  0.3879995805002565
  0.7605613950027458  0.9265652517070003  0.6171973062218021
  0.9258069971618987  0.9786735311032788  0.5502304369209632
  0.7514616943561414  0.0284946284132936  0.4533313410561651
  0.9211491207501925  0.2033594439319335  0.5763286453250841
  0.7440744817214653  0.8040338740334320  0.4267580092553653
  0.9143505193576594  0.7547747374605410  0.4919933411389464
  0.7531834783684058  0.2535979547267785  0.5098307332117938
  0.9182791356472375  0.5291588592305382  0.4675277893530544
  0.7527273657155980  0.4792652032422801  0.5340420019602549
  0.7512221617582202  0.5683215723295524  0.3718141560877321
  0.9076741376711195  0.4364587715439051  0.6305266991582371
  0.7373420638986782  0.3919480385388310  0.6969234946557068
  0.9196205827550186  0.6153477466640601  0.3041647014749229
  0.0747573584808229  0.5910900255299211  0.7418103453829115
  0.2503574317900514  0.4101992648709725  0.2603807777289546
  0.0798032482555181  0.1548111272492290  0.6700822089257188
  0.2507937383750208  0.8470746920218709  0.3321551657549000
  0.4039041719643374  0.5976416910279374  0.7434842106921575
  0.5826015679716655  0.4082310851310871  0.2607060202113258
  0.4180447106735938  0.1602097905720881  0.6723561761175580
  0.5865920470074731  0.8451132089127072  0.3323972983963587
  0.7356424246219946  0.6096882449644198  0.7412356629000441
  0.9191744536612649  0.4068673465566045  0.2612632103175453
  0.7462834979540736  0.1690055838003487  0.6713783623152826
  0.9180583962092358  0.8437529470336351  0.3324925888849183
  0.4762508141830455  0.7685898266825143  0.6179319481797979
 
  0.00000000E+00  0.00000000E+00  0.00000000E+00
  0.00000000E+00  0.00000000E+00  0.00000000E+00
  0.00000000E+00  0.00000000E+00  0.00000000E+00
  0.00000000E+00  0.00000000E+00  0.00000000E+00
  0.00000000E+00  0.00000000E+00  0.00000000E+00
  0.00000000E+00  0.00000000E+00  0.00000000E+00
  0.00000000E+00  0.00000000E+00  0.00000000E+00
  0.00000000E+00  0.00000000E+00  0.00000000E+00
  0.00000000E+00  0.00000000E+00  0.00000000E+00
  0.00000000E+00  0.00000000E+00  0.00000000E+00
  0.00000000E+00  0.00000000E+00  0.00000000E+00
  0.00000000E+00  0.00000000E+00  0.00000000E+00
  0.00000000E+00  0.00000000E+00  0.00000000E+00
  0.00000000E+00  0.00000000E+00  0.00000000E+00
  0.00000000E+00  0.00000000E+00  0.00000000E+00
  0.00000000E+00  0.00000000E+00  0.00000000E+00
  0.00000000E+00  0.00000000E+00  0.00000000E+00
  0.00000000E+00  0.00000000E+00  0.00000000E+00
  0.00000000E+00  0.00000000E+00  0.00000000E+00
  0.00000000E+00  0.00000000E+00  0.00000000E+00
  0.00000000E+00  0.00000000E+00  0.00000000E+00
  0.00000000E+00  0.00000000E+00  0.00000000E+00
  0.00000000E+00  0.00000000E+00  0.00000000E+00
  0.00000000E+00  0.00000000E+00  0.00000000E+00
  0.00000000E+00  0.00000000E+00  0.00000000E+00
  0.00000000E+00  0.00000000E+00  0.00000000E+00
  0.00000000E+00  0.00000000E+00  0.00000000E+00
  0.00000000E+00  0.00000000E+00  0.00000000E+00
  0.00000000E+00  0.00000000E+00  0.00000000E+00
  0.00000000E+00  0.00000000E+00  0.00000000E+00
  0.00000000E+00  0.00000000E+00  0.00000000E+00
  0.00000000E+00  0.00000000E+00  0.00000000E+00
  0.00000000E+00  0.00000000E+00  0.00000000E+00
  0.00000000E+00  0.00000000E+00  0.00000000E+00
  0.00000000E+00  0.00000000E+00  0.00000000E+00
  0.00000000E+00  0.00000000E+00  0.00000000E+00
  0.00000000E+00  0.00000000E+00  0.00000000E+00
  0.00000000E+00  0.00000000E+00  0.00000000E+00
  0.00000000E+00  0.00000000E+00  0.00000000E+00
  0.00000000E+00  0.00000000E+00  0.00000000E+00
  0.00000000E+00  0.00000000E+00  0.00000000E+00
  0.00000000E+00  0.00000000E+00  0.00000000E+00
  0.00000000E+00  0.00000000E+00  0.00000000E+00
  0.00000000E+00  0.00000000E+00  0.00000000E+00
  0.00000000E+00  0.00000000E+00  0.00000000E+00
  0.00000000E+00  0.00000000E+00  0.00000000E+00
  0.00000000E+00  0.00000000E+00  0.00000000E+00
  0.00000000E+00  0.00000000E+00  0.00000000E+00
  0.00000000E+00  0.00000000E+00  0.00000000E+00
  0.00000000E+00  0.00000000E+00  0.00000000E+00
  0.00000000E+00  0.00000000E+00  0.00000000E+00
  0.00000000E+00  0.00000000E+00  0.00000000E+00
  0.00000000E+00  0.00000000E+00  0.00000000E+00
  0.00000000E+00  0.00000000E+00  0.00000000E+00
  0.00000000E+00  0.00000000E+00  0.00000000E+00
  0.00000000E+00  0.00000000E+00  0.00000000E+00
  0.00000000E+00  0.00000000E+00  0.00000000E+00
  0.00000000E+00  0.00000000E+00  0.00000000E+00
  0.00000000E+00  0.00000000E+00  0.00000000E+00
  0.00000000E+00  0.00000000E+00  0.00000000E+00
  0.00000000E+00  0.00000000E+00  0.00000000E+00
  0.00000000E+00  0.00000000E+00  0.00000000E+00
  0.00000000E+00  0.00000000E+00  0.00000000E+00
  0.00000000E+00  0.00000000E+00  0.00000000E+00
  0.00000000E+00  0.00000000E+00  0.00000000E+00
  0.00000000E+00  0.00000000E+00  0.00000000E+00
  0.00000000E+00  0.00000000E+00  0.00000000E+00
