CONTCAR                                 
   1.00000000000000     
    13.7857999802000002    0.0000000000000000    0.0000000000000000
    -6.8928999901000001   11.9388529942999995    0.0000000000000000
     0.0000000000000000    0.0000000000000000   18.1305007935000013
   Ru   Se   H 
    16    32     1
Direct
  0.1512295618726917  0.0679984125136957  0.4994972112493444
  0.4364069922947464  0.0709535341666777  0.5006000304516839
  0.6524561589632523  0.0697268064461123  0.4996123987919128
  0.9401249098466242  0.0729148601172009  0.4991306949515417
  0.1778412482920698  0.3580088554165543  0.5018105914767160
  0.4313292913192563  0.3528629274744604  0.5037256802330359
  0.6589401695548248  0.3512054627834031  0.4980448987182812
  0.9365726843681104  0.3570641507462983  0.4992358354006294
  0.1428182933466780  0.5711357163317287  0.5006235478221848
  0.4101381532330921  0.5562360380796091  0.5035193784677486
  0.6525834469450461  0.5738483549337878  0.4876793204022146
  0.9270394774726727  0.5688596388450005  0.4986278707270421
  0.1516210214300565  0.8498777589230230  0.4994650178670552
  0.4323131708157309  0.8524516619158872  0.4999907622651514
  0.6519441476924450  0.8490134844119774  0.4973947368917848
  0.9324166796822064  0.8548418476560576  0.4970510673332457
  0.0043799432719760 -0.0026790756546050  0.5960725372481024
  0.0071443157924751  0.0016996727180068  0.4008639771871771
  0.2656176111246763  0.0139833607781341  0.5806227370905013
  0.2665759818601567  0.0141336687993421  0.4194316934854909
  0.5060729822857479 -0.0011829790512078  0.5968714038400015
  0.5052108412672621 -0.0007869222490920  0.4032592914959175
  0.7677066810606217  0.0148121997172559  0.5788995041163219
  0.7680413120650731  0.0170831893202933  0.4194145105442634
  0.0024844215984360  0.2474101450536200  0.5768791833086321
  0.0059295928633904  0.2492932057124188  0.4231385001374450
  0.2500532916567305  0.2477491827796717  0.5747530624240363
  0.2529623182953069  0.2520805344872473  0.4275539883461426
  0.4943978732863026  0.2413181696334927  0.5811544632928399
  0.4898153636698133  0.2422792092006284  0.4222243025391270
  0.7504700564773181  0.2557387024725356  0.5705001430799809
  0.7507875987937943  0.2545787683609179  0.4274959196685047
 -0.0033643241303907  0.5007691246897237  0.5980305000383752
  0.0004852905628601  0.5018342570664993  0.4010450533523391
  0.2515435315596119  0.5193134235840591  0.5876624470308334
  0.2560827082403671  0.5201561145835587  0.4166877340389382
  0.4898041018895725  0.4930096749382367  0.6090078135049155
  0.4966112211007836  0.5000598966545815  0.4050434425207574
  0.7554433823825295  0.5183545253406153  0.5782307418587543
  0.7625949021661069  0.5135507222531458  0.4147559265742854
 -0.0159071464975129  0.7395170680916701  0.5785454968921871
 -0.0130793623821261  0.7396551197809598  0.4178606790361056
  0.2447476511051093  0.7580827020010289  0.5712463508177106
  0.2447308909824888  0.7575175992840149  0.4293397114553091
  0.4868617371317711  0.7368782406371043  0.5791739416840264
  0.4828873108020090  0.7327913696729842  0.4219083607288107
  0.7439801201674803  0.7525664506283825  0.5663099680619920
  0.7461388217778092  0.7615034143602588  0.4229420526048414
  0.3800136826429036  0.4447298935930415  0.6533150819457834
 
  0.00000000E+00  0.00000000E+00  0.00000000E+00
  0.00000000E+00  0.00000000E+00  0.00000000E+00
  0.00000000E+00  0.00000000E+00  0.00000000E+00
  0.00000000E+00  0.00000000E+00  0.00000000E+00
  0.00000000E+00  0.00000000E+00  0.00000000E+00
  0.00000000E+00  0.00000000E+00  0.00000000E+00
  0.00000000E+00  0.00000000E+00  0.00000000E+00
  0.00000000E+00  0.00000000E+00  0.00000000E+00
  0.00000000E+00  0.00000000E+00  0.00000000E+00
  0.00000000E+00  0.00000000E+00  0.00000000E+00
  0.00000000E+00  0.00000000E+00  0.00000000E+00
  0.00000000E+00  0.00000000E+00  0.00000000E+00
  0.00000000E+00  0.00000000E+00  0.00000000E+00
  0.00000000E+00  0.00000000E+00  0.00000000E+00
  0.00000000E+00  0.00000000E+00  0.00000000E+00
  0.00000000E+00  0.00000000E+00  0.00000000E+00
  0.00000000E+00  0.00000000E+00  0.00000000E+00
  0.00000000E+00  0.00000000E+00  0.00000000E+00
  0.00000000E+00  0.00000000E+00  0.00000000E+00
  0.00000000E+00  0.00000000E+00  0.00000000E+00
  0.00000000E+00  0.00000000E+00  0.00000000E+00
  0.00000000E+00  0.00000000E+00  0.00000000E+00
  0.00000000E+00  0.00000000E+00  0.00000000E+00
  0.00000000E+00  0.00000000E+00  0.00000000E+00
  0.00000000E+00  0.00000000E+00  0.00000000E+00
  0.00000000E+00  0.00000000E+00  0.00000000E+00
  0.00000000E+00  0.00000000E+00  0.00000000E+00
  0.00000000E+00  0.00000000E+00  0.00000000E+00
  0.00000000E+00  0.00000000E+00  0.00000000E+00
  0.00000000E+00  0.00000000E+00  0.00000000E+00
  0.00000000E+00  0.00000000E+00  0.00000000E+00
  0.00000000E+00  0.00000000E+00  0.00000000E+00
  0.00000000E+00  0.00000000E+00  0.00000000E+00
  0.00000000E+00  0.00000000E+00  0.00000000E+00
  0.00000000E+00  0.00000000E+00  0.00000000E+00
  0.00000000E+00  0.00000000E+00  0.00000000E+00
  0.00000000E+00  0.00000000E+00  0.00000000E+00
  0.00000000E+00  0.00000000E+00  0.00000000E+00
  0.00000000E+00  0.00000000E+00  0.00000000E+00
  0.00000000E+00  0.00000000E+00  0.00000000E+00
  0.00000000E+00  0.00000000E+00  0.00000000E+00
  0.00000000E+00  0.00000000E+00  0.00000000E+00
  0.00000000E+00  0.00000000E+00  0.00000000E+00
  0.00000000E+00  0.00000000E+00  0.00000000E+00
  0.00000000E+00  0.00000000E+00  0.00000000E+00
  0.00000000E+00  0.00000000E+00  0.00000000E+00
  0.00000000E+00  0.00000000E+00  0.00000000E+00
  0.00000000E+00  0.00000000E+00  0.00000000E+00
  0.00000000E+00  0.00000000E+00  0.00000000E+00
