CONTCAR\(15)                            
   1.00000000000000     
    11.1623001099000003    0.0000000000000000    0.0000000000000000
     0.0000000000000000   10.7430000304999993    0.0000000000000000
     0.0000000000000000    0.0000000000000000   21.1923999786000010
   Hf   Se
    12    36
Direct
  0.0833299980000035  0.3265187739322660  0.5702131541172684
  0.2500000000000000  0.0765412370677349  0.4297868008827315
  0.4166700130000009  0.3265187739322660  0.5702131541172684
  0.5833299869999991  0.0765412370677349  0.4297868008827315
  0.7500000000000000  0.3265187739322660  0.5702131541172684
  0.9166700560000010  0.0765412370677349  0.4297868008827315
  0.0833299980000035  0.8265187519322641  0.5702131541172684
  0.2500000000000000  0.5765412260677376  0.4297868008827315
  0.4166700130000009  0.8265187519322641  0.5702131541172684
  0.5833299869999991  0.5765412260677376  0.4297868008827315
  0.7500000000000000  0.8265187519322641  0.5702131541172684
  0.9166700560000010  0.5765412260677376  0.4297868008827315
  0.0833299980000035  0.4650473273363580  0.3533778797374876
  0.2500000000000000  0.4379926776636431  0.6466221202625124
  0.2500000000000000  0.3265631227724716  0.4766323576314338
  0.0833299980000035  0.0764768762275291  0.5233676423685663
  0.2500000000000000  0.2148694653404253  0.6465379382444253
  0.0833299980000035  0.1881705166595704  0.3534620847555731
  0.4166700130000009  0.4650473273363580  0.3533778797374876
  0.5833299869999991  0.4379926776636431  0.6466221202625124
  0.5833299869999991  0.3265631227724716  0.4766323576314338
  0.4166700130000009  0.0764768762275291  0.5233676423685663
  0.5833299869999991  0.2148694653404253  0.6465379382444253
  0.4166700130000009  0.1881705166595704  0.3534620847555731
  0.7500000000000000  0.4650473273363580  0.3533778797374876
  0.9166700560000010  0.4379926776636431  0.6466221202625124
  0.9166700560000010  0.3265631227724716  0.4766323576314338
  0.7500000000000000  0.0764768762275291  0.5233676423685663
  0.9166700560000010  0.2148694653404253  0.6465379382444253
  0.7500000000000000  0.1881705166595704  0.3534620847555731
  0.0833299980000035  0.9650472823363577  0.3533778797374876
  0.2500000000000000  0.9379927216636469  0.6466221202625124
  0.2500000000000000  0.8265631447724734  0.4766323576314338
  0.0833299980000035  0.5764768592275312  0.5233676423685663
  0.2500000000000000  0.7148694653404253  0.6465379382444253
  0.0833299980000035  0.6881705386595722  0.3534620847555731
  0.4166700130000009  0.9650472823363577  0.3533778797374876
  0.5833299869999991  0.9379927216636469  0.6466221202625124
  0.5833299869999991  0.8265631447724734  0.4766323576314338
  0.4166700130000009  0.5764768592275312  0.5233676423685663
  0.5833299869999991  0.7148694653404253  0.6465379382444253
  0.4166700130000009  0.6881705386595722  0.3534620847555731
  0.7500000000000000  0.9650472823363577  0.3533778797374876
  0.9166700560000010  0.9379927216636469  0.6466221202625124
  0.9166700560000010  0.8265631447724734  0.4766323576314338
  0.7500000000000000  0.5764768592275312  0.5233676423685663
  0.9166700560000010  0.7148694653404253  0.6465379382444253
  0.7500000000000000  0.6881705386595722  0.3534620847555731
 
  0.00000000E+00  0.00000000E+00  0.00000000E+00
  0.00000000E+00  0.00000000E+00  0.00000000E+00
  0.00000000E+00  0.00000000E+00  0.00000000E+00
  0.00000000E+00  0.00000000E+00  0.00000000E+00
  0.00000000E+00  0.00000000E+00  0.00000000E+00
  0.00000000E+00  0.00000000E+00  0.00000000E+00
  0.00000000E+00  0.00000000E+00  0.00000000E+00
  0.00000000E+00  0.00000000E+00  0.00000000E+00
  0.00000000E+00  0.00000000E+00  0.00000000E+00
  0.00000000E+00  0.00000000E+00  0.00000000E+00
  0.00000000E+00  0.00000000E+00  0.00000000E+00
  0.00000000E+00  0.00000000E+00  0.00000000E+00
  0.00000000E+00  0.00000000E+00  0.00000000E+00
  0.00000000E+00  0.00000000E+00  0.00000000E+00
  0.00000000E+00  0.00000000E+00  0.00000000E+00
  0.00000000E+00  0.00000000E+00  0.00000000E+00
  0.00000000E+00  0.00000000E+00  0.00000000E+00
  0.00000000E+00  0.00000000E+00  0.00000000E+00
  0.00000000E+00  0.00000000E+00  0.00000000E+00
  0.00000000E+00  0.00000000E+00  0.00000000E+00
  0.00000000E+00  0.00000000E+00  0.00000000E+00
  0.00000000E+00  0.00000000E+00  0.00000000E+00
  0.00000000E+00  0.00000000E+00  0.00000000E+00
  0.00000000E+00  0.00000000E+00  0.00000000E+00
  0.00000000E+00  0.00000000E+00  0.00000000E+00
  0.00000000E+00  0.00000000E+00  0.00000000E+00
  0.00000000E+00  0.00000000E+00  0.00000000E+00
  0.00000000E+00  0.00000000E+00  0.00000000E+00
  0.00000000E+00  0.00000000E+00  0.00000000E+00
  0.00000000E+00  0.00000000E+00  0.00000000E+00
  0.00000000E+00  0.00000000E+00  0.00000000E+00
  0.00000000E+00  0.00000000E+00  0.00000000E+00
  0.00000000E+00  0.00000000E+00  0.00000000E+00
  0.00000000E+00  0.00000000E+00  0.00000000E+00
  0.00000000E+00  0.00000000E+00  0.00000000E+00
  0.00000000E+00  0.00000000E+00  0.00000000E+00
  0.00000000E+00  0.00000000E+00  0.00000000E+00
  0.00000000E+00  0.00000000E+00  0.00000000E+00
  0.00000000E+00  0.00000000E+00  0.00000000E+00
  0.00000000E+00  0.00000000E+00  0.00000000E+00
  0.00000000E+00  0.00000000E+00  0.00000000E+00
  0.00000000E+00  0.00000000E+00  0.00000000E+00
  0.00000000E+00  0.00000000E+00  0.00000000E+00
  0.00000000E+00  0.00000000E+00  0.00000000E+00
  0.00000000E+00  0.00000000E+00  0.00000000E+00
  0.00000000E+00  0.00000000E+00  0.00000000E+00
  0.00000000E+00  0.00000000E+00  0.00000000E+00
  0.00000000E+00  0.00000000E+00  0.00000000E+00
