CONTCAR\(6)                             
   1.00000000000000     
    10.8512001038000001    0.0000000000000000    0.0000000000000000
     5.4260522376999996    9.3985392002000001    0.0000000000000000
     0.0000000000000000    0.0000000000000000   22.4130992888999998
   Eu   Re   O 
     4     8    31
Direct
  0.5038773042393424 -0.0010233609493404  0.5004533646337429
 -0.0027464262078888  0.0039417875624942  0.5003863866649630
  0.4989022702488211  0.4970486333834664  0.5003468761514276
 -0.0000168544971657  0.4999691472451017  0.4999871270563394
  0.3309939785718814  0.3323873928556693  0.4039729474977923
  0.1666734758561206  0.1666696698143553  0.5938519077515824
  0.8327883068247057  0.3361371054486321  0.4040443746254295
  0.6667293862383139  0.1668427992015550  0.5850997847469536
  0.3333031934505772  0.8334268930695513  0.4064813519446011
  0.1666426809626104  0.6666807648870172  0.5938463115277999
  0.8360247200765952  0.8311577087641971  0.4041011374173378
  0.6666655356581210  0.6666464166915780  0.5938457191408432
  0.1760958139967972  0.3373271273029707  0.4313025666820557
  0.3367372348112851  0.4811335088724992  0.4324815556535189
  0.3307084755032690  0.3343296363558113  0.3271414208520238
  0.0147914068764864  0.3208827056143836  0.5671282244023536
  0.4810313881329661  0.1771235500100090  0.4310510883136943
  0.1692613524507264  0.1664337912535774  0.6707217895475805
  0.1635945248724429  0.0154096617692472  0.5670504240841933
  0.3192511736210878  0.1644872500367871  0.5653018229074849
  0.6775470090527416  0.3414285975555645  0.4311860093835865
  0.8376464767621956  0.4861814989332098  0.4313076234633944
  0.8346442950725464  0.3345156267700632  0.3272111779911890
  0.5141587192802599  0.3335218142185393  0.5777368460096455
  0.9817054081975305  0.1817835864097227  0.4325365106532807
  0.6527453054278347  0.0142394657975577  0.5774850340339897
  0.8332650614607415  0.1529518497186264  0.5774284883207900
  0.1777843814195403  0.8398905431860999  0.4339992519890261
  0.3397277034858750  0.9824819568740465  0.4340128799763597
  0.3332290097478624  0.8335528152371257  0.3296369133611566
  0.0163649762622609  0.8193944596821574  0.5652998495226603
  0.4823175233523637  0.6778948978215443  0.4340003735830761
  0.1644533600769079  0.6692536758278025  0.6707152673344832
  0.1642701985332564  0.5148644438723857  0.5670905711354453
  0.3210559162769594  0.6634546621729772  0.5670098022399614
  0.6815573552405075  0.8368215645559726  0.4325806284239467
  0.8415250187552130  0.9810112091596662  0.4312229302706223
  0.8344177210034379  0.8310234505181977  0.3272680740895741
  0.5153847327385926  0.8211364993289786  0.5671450647907674
  0.9860632169491120  0.6762252408339444  0.4313491193090491
  0.6665783792809956  0.6640209904856409  0.6707117688804691
  0.6644031328030843  0.5164283039252691  0.5651311501728238
  0.8207556341330676  0.6645510819253670  0.5670884694630047
 
  0.00000000E+00  0.00000000E+00  0.00000000E+00
  0.00000000E+00  0.00000000E+00  0.00000000E+00
  0.00000000E+00  0.00000000E+00  0.00000000E+00
  0.00000000E+00  0.00000000E+00  0.00000000E+00
  0.00000000E+00  0.00000000E+00  0.00000000E+00
  0.00000000E+00  0.00000000E+00  0.00000000E+00
  0.00000000E+00  0.00000000E+00  0.00000000E+00
  0.00000000E+00  0.00000000E+00  0.00000000E+00
  0.00000000E+00  0.00000000E+00  0.00000000E+00
  0.00000000E+00  0.00000000E+00  0.00000000E+00
  0.00000000E+00  0.00000000E+00  0.00000000E+00
  0.00000000E+00  0.00000000E+00  0.00000000E+00
  0.00000000E+00  0.00000000E+00  0.00000000E+00
  0.00000000E+00  0.00000000E+00  0.00000000E+00
  0.00000000E+00  0.00000000E+00  0.00000000E+00
  0.00000000E+00  0.00000000E+00  0.00000000E+00
  0.00000000E+00  0.00000000E+00  0.00000000E+00
  0.00000000E+00  0.00000000E+00  0.00000000E+00
  0.00000000E+00  0.00000000E+00  0.00000000E+00
  0.00000000E+00  0.00000000E+00  0.00000000E+00
  0.00000000E+00  0.00000000E+00  0.00000000E+00
  0.00000000E+00  0.00000000E+00  0.00000000E+00
  0.00000000E+00  0.00000000E+00  0.00000000E+00
  0.00000000E+00  0.00000000E+00  0.00000000E+00
  0.00000000E+00  0.00000000E+00  0.00000000E+00
  0.00000000E+00  0.00000000E+00  0.00000000E+00
  0.00000000E+00  0.00000000E+00  0.00000000E+00
  0.00000000E+00  0.00000000E+00  0.00000000E+00
  0.00000000E+00  0.00000000E+00  0.00000000E+00
  0.00000000E+00  0.00000000E+00  0.00000000E+00
  0.00000000E+00  0.00000000E+00  0.00000000E+00
  0.00000000E+00  0.00000000E+00  0.00000000E+00
  0.00000000E+00  0.00000000E+00  0.00000000E+00
  0.00000000E+00  0.00000000E+00  0.00000000E+00
  0.00000000E+00  0.00000000E+00  0.00000000E+00
  0.00000000E+00  0.00000000E+00  0.00000000E+00
  0.00000000E+00  0.00000000E+00  0.00000000E+00
  0.00000000E+00  0.00000000E+00  0.00000000E+00
  0.00000000E+00  0.00000000E+00  0.00000000E+00
  0.00000000E+00  0.00000000E+00  0.00000000E+00
  0.00000000E+00  0.00000000E+00  0.00000000E+00
  0.00000000E+00  0.00000000E+00  0.00000000E+00
  0.00000000E+00  0.00000000E+00  0.00000000E+00
