CONTCAR\(10)                            
   1.00000000000000     
    15.1086997986000000    0.0000000000000000    0.0000000000000000
     3.7771669926999998   12.0335217063000002    0.0000000000000000
     0.0000000000000000    0.0000000000000000   20.2071990966999984
   Au   Se   O    H 
    32    32     1     1
Direct
  0.2430602747122421  0.0144678657156803  0.6297009499632935
  0.0011276016265711  0.9948112719849860  0.3820010639344034
  0.0855621068634633  0.1508722197910970  0.5036661236284203
  0.1621827753216820  0.8519082151796269  0.5098707456341600
  0.5013546012513359  0.0166486882951489  0.6297614961663811
  0.2513531152484632  0.9934019096187825  0.3869460149476467
  0.3374403763242384  0.1498562052680583  0.5054408299557380
  0.4180723534836019  0.8255209287511747  0.5104941998733281
  0.7514134197679851  0.0058017929064320  0.6248566342602899
  0.5006464691821435  0.9936976277644192  0.3868851788301058
  0.5899578803606431  0.1512012016123592  0.5032922197595795
  0.6616288770617444  0.8527344760832420  0.5097634426464879
  0.9985140183896561  0.0048537071885804  0.6250347984761362
  0.7501656007886126  0.9951688232629436  0.3819594299451197
  0.8386482498228389  0.1485094760784946  0.4980835327184465
  0.9122468944171302  0.8510426856068278  0.5032609761108446
  0.2502093742837346  0.5010145221590960  0.6192828144490790
  0.0002366093291073  0.4953056461318397  0.3784630328054064
  0.0888593481641635  0.6484028702355786  0.4974577729840135
  0.1613664331983244  0.3514150172461825  0.5012490088427413
  0.5005153824730399  0.5017976442461460  0.6182839023921574
  0.2499561782703310  0.4949348889865419  0.3761719343592773
  0.3369925559030946  0.6420217916243445  0.4939004879202642
  0.4121152409755240  0.3509331017758583  0.4985460053229218
  0.7505433418629792  0.5035188325625413  0.6199021421616209
  0.5006676936668271  0.4945818569850147  0.3749307181828598
  0.5922052192145983  0.6429453331834836  0.4939141706534400
  0.6627513382425505  0.3517495858535256  0.4991937393566985
  0.9992519723625932  0.5067634359018811  0.6213543141016444
  0.7509530832904048  0.4947656157124101  0.3764554001598199
  0.8373502562899802  0.6490883608321951  0.4978642215370499
  0.9116570088679765  0.3521984297630638  0.5020677750769806
  0.0838826709900076  0.1485506696737176  0.6250230667459320
  0.1584346306699871  0.8680236338086189  0.6308785131408428
  0.0922991936213649  0.1331653889713209  0.3830535976879403
  0.1603119226448015  0.8553384817301932  0.3888573130669997
  0.3370253354260200  0.1544709880494750  0.6263790450788491
  0.4047516477813318  0.8866873059534370  0.6267004184052283
  0.3413544310590950  0.1324360252072267  0.3849103935600695
  0.4106078220152014  0.8543757666290688  0.3905016677409137
  0.5949940071498432  0.1499761542727356  0.6246974288536293
  0.6586872672653570  0.8698364610941880  0.6306215911088984
  0.5900952119006391  0.1336953312671412  0.3828470877009025
  0.6603288438323318  0.8556677534953465  0.3886921250840061
  0.8407403507494351  0.1444660563960127  0.6190928103700983
  0.9095916670743875  0.8644123933509746  0.6242352118235317
  0.8411918788421886  0.1335683808159658  0.3769183325746681
  0.9099235780325614  0.8565967986659047  0.3820548103559744
  0.0921931925888302  0.6429844344726945  0.6186235034339589
  0.1579018632068383  0.3653450971949184  0.6223071374543352
  0.0902546832619393  0.6346044222553502  0.3764373077553742
  0.1596042304852858  0.3560931703931800  0.3802429033380506
  0.3402969378862508  0.6380544583931851  0.6147053656685699
  0.4100447999992909  0.3626294863883999  0.6195891101104181
  0.3407640062018942  0.6336161269496827  0.3725863647353478
  0.4098042775516788  0.3558401599525283  0.3774474828776135
  0.5920183857121586  0.6403815184512851  0.6147321200510163
  0.6601727020784978  0.3638710369965352  0.6203873126869794
  0.5914235950605402  0.6334312255645074  0.3725378702227147
  0.6603966451682908  0.3556066288843454  0.3780924369435397
  0.8387691882699855  0.6451145915387144  0.6190182824952970
  0.9099062662470274  0.3666752758564229  0.6232357091167557
  0.8409438965247276  0.6344928752575356  0.3768455592329900
  0.9101365839726867  0.3559878715142446  0.3810064678012779
  0.4279132642357411  0.7883218738322455  0.6986963782754074
  0.4080497644762602  0.8365578804152634  0.7374103583455494
 
  0.00000000E+00  0.00000000E+00  0.00000000E+00
  0.00000000E+00  0.00000000E+00  0.00000000E+00
  0.00000000E+00  0.00000000E+00  0.00000000E+00
  0.00000000E+00  0.00000000E+00  0.00000000E+00
  0.00000000E+00  0.00000000E+00  0.00000000E+00
  0.00000000E+00  0.00000000E+00  0.00000000E+00
  0.00000000E+00  0.00000000E+00  0.00000000E+00
  0.00000000E+00  0.00000000E+00  0.00000000E+00
  0.00000000E+00  0.00000000E+00  0.00000000E+00
  0.00000000E+00  0.00000000E+00  0.00000000E+00
  0.00000000E+00  0.00000000E+00  0.00000000E+00
  0.00000000E+00  0.00000000E+00  0.00000000E+00
  0.00000000E+00  0.00000000E+00  0.00000000E+00
  0.00000000E+00  0.00000000E+00  0.00000000E+00
  0.00000000E+00  0.00000000E+00  0.00000000E+00
  0.00000000E+00  0.00000000E+00  0.00000000E+00
  0.00000000E+00  0.00000000E+00  0.00000000E+00
  0.00000000E+00  0.00000000E+00  0.00000000E+00
  0.00000000E+00  0.00000000E+00  0.00000000E+00
  0.00000000E+00  0.00000000E+00  0.00000000E+00
  0.00000000E+00  0.00000000E+00  0.00000000E+00
  0.00000000E+00  0.00000000E+00  0.00000000E+00
  0.00000000E+00  0.00000000E+00  0.00000000E+00
  0.00000000E+00  0.00000000E+00  0.00000000E+00
  0.00000000E+00  0.00000000E+00  0.00000000E+00
  0.00000000E+00  0.00000000E+00  0.00000000E+00
  0.00000000E+00  0.00000000E+00  0.00000000E+00
  0.00000000E+00  0.00000000E+00  0.00000000E+00
  0.00000000E+00  0.00000000E+00  0.00000000E+00
  0.00000000E+00  0.00000000E+00  0.00000000E+00
  0.00000000E+00  0.00000000E+00  0.00000000E+00
  0.00000000E+00  0.00000000E+00  0.00000000E+00
  0.00000000E+00  0.00000000E+00  0.00000000E+00
  0.00000000E+00  0.00000000E+00  0.00000000E+00
  0.00000000E+00  0.00000000E+00  0.00000000E+00
  0.00000000E+00  0.00000000E+00  0.00000000E+00
  0.00000000E+00  0.00000000E+00  0.00000000E+00
  0.00000000E+00  0.00000000E+00  0.00000000E+00
  0.00000000E+00  0.00000000E+00  0.00000000E+00
  0.00000000E+00  0.00000000E+00  0.00000000E+00
  0.00000000E+00  0.00000000E+00  0.00000000E+00
  0.00000000E+00  0.00000000E+00  0.00000000E+00
  0.00000000E+00  0.00000000E+00  0.00000000E+00
  0.00000000E+00  0.00000000E+00  0.00000000E+00
  0.00000000E+00  0.00000000E+00  0.00000000E+00
  0.00000000E+00  0.00000000E+00  0.00000000E+00
  0.00000000E+00  0.00000000E+00  0.00000000E+00
  0.00000000E+00  0.00000000E+00  0.00000000E+00
  0.00000000E+00  0.00000000E+00  0.00000000E+00
  0.00000000E+00  0.00000000E+00  0.00000000E+00
  0.00000000E+00  0.00000000E+00  0.00000000E+00
  0.00000000E+00  0.00000000E+00  0.00000000E+00
  0.00000000E+00  0.00000000E+00  0.00000000E+00
  0.00000000E+00  0.00000000E+00  0.00000000E+00
  0.00000000E+00  0.00000000E+00  0.00000000E+00
  0.00000000E+00  0.00000000E+00  0.00000000E+00
  0.00000000E+00  0.00000000E+00  0.00000000E+00
  0.00000000E+00  0.00000000E+00  0.00000000E+00
  0.00000000E+00  0.00000000E+00  0.00000000E+00
  0.00000000E+00  0.00000000E+00  0.00000000E+00
  0.00000000E+00  0.00000000E+00  0.00000000E+00
  0.00000000E+00  0.00000000E+00  0.00000000E+00
  0.00000000E+00  0.00000000E+00  0.00000000E+00
  0.00000000E+00  0.00000000E+00  0.00000000E+00
  0.00000000E+00  0.00000000E+00  0.00000000E+00
  0.00000000E+00  0.00000000E+00  0.00000000E+00
