CONTCAR\(2)                             
   1.00000000000000     
    13.3212995528999993    0.0000000000000000    0.0000000000000000
    -6.6606497764999997   11.5365838241999992    0.0000000000000000
     0.0000000000000000    0.0000000000000000   18.1305007935000013
   Ta   S    O    H 
    16    32     1     1
Direct
  0.1715476378970728  0.0838401918309255  0.5035283072403842
  0.4140983956902730  0.0839451022441332  0.5032745036465021
  0.6700087204790226  0.0852239012391934  0.5041767767082367
  0.9172468459081079  0.0851873688111539  0.5042764522842658
  0.1673380635865562  0.3340053134254089  0.5030873444321150
  0.4103986209857777  0.3189801813057321  0.5013767478540406
  0.6683547227823370  0.3341437909208524  0.5032934076039545
  0.9172687166025760  0.3326322640725966  0.5042128086782084
  0.1716042446827821  0.5882920385350734  0.5036830289820757
  0.4103013260062840  0.5919740477084934  0.5016448166531213
  0.6833362458780872  0.5920005509559374  0.5025322683588502
  0.9182613323361600  0.5883064245248230  0.5037753881275813
  0.1680871620994260  0.8343494656128327  0.5036673444733384
  0.4141163798965224  0.8306357687048394  0.5035208827527207
  0.6683298666475932  0.8347082645030539  0.5035610883778368
  0.9183172085612485  0.8306144518047729  0.5037937996530859
  0.0019294812685790  0.0007505613287935  0.5887447696198354
  0.0010640049056256  0.0007676966457724  0.4191039049556725
  0.2505979022794657  0.9994057611339503  0.5910253948938541
  0.2501668939912307  0.9990352984199616  0.4159464475085936
  0.5008393230612138  0.0007939756655647  0.5884223147847880
  0.5016416675999079  0.0009495715374504  0.4189282745059344
  0.7509342662515919  0.0001060854663992  0.5907994365679577
  0.7515697547537867  0.0012490308063963  0.4173762392139252
  0.0024935002370805  0.2515455864912305  0.5906557936995473
  0.0008675536701691  0.2507045821209503  0.4172244966897594
  0.2502985256766748  0.2510055421149647  0.5904584325655003
  0.2475254490469828  0.2492935326129501  0.4157174109360500
  0.5022623544104702  0.2504404153997193  0.5900918529618600
  0.5035970897888883  0.2494591627284709  0.4154780390325609
  0.7508643695441223  0.2514386448088599  0.5906400190354310
  0.7515846236197110  0.2507409540383972  0.4172706146515414
  0.0018021028715782  0.5017429807307040  0.5887289442778855
  0.0011926579542948  0.5009949422613227  0.4191434890130823
  0.2501320696561585  0.4997285599616940  0.5904728053291018
  0.2476761091252035  0.4989875081315874  0.4157598497594674
  0.5015374646152494  0.5006638407823919  0.5757124873632544
  0.5016345331691374  0.5011898364929527  0.4273196404559867
  0.7516875194673215  0.4997059150284126  0.5906597455038801
  0.7527134259546047  0.4992140849503496  0.4159625327231402
  0.0031048396298967  0.7518061485391481  0.5913380932154714
  0.0029378074935184  0.7517652658433762  0.4162402582267016
  0.2504927630764783  0.7517516228972549  0.5911646156706414
  0.2503060184887248  0.7517560007099220  0.4161332639950553
  0.5022070489113516  0.7521285975876771  0.5903822514480737
  0.5035856290783473  0.7546231992927104  0.4157507708333272
  0.7517491707023902  0.7523922348779100  0.5908116182110663
  0.7526998485995399  0.7541635669997758  0.4160625813783664
  0.5072979772101294  0.5030407959663403  0.6665227575161432
  0.4280108708507602  0.4531493844267995  0.6849854796302927
 
  0.00000000E+00  0.00000000E+00  0.00000000E+00
  0.00000000E+00  0.00000000E+00  0.00000000E+00
  0.00000000E+00  0.00000000E+00  0.00000000E+00
  0.00000000E+00  0.00000000E+00  0.00000000E+00
  0.00000000E+00  0.00000000E+00  0.00000000E+00
  0.00000000E+00  0.00000000E+00  0.00000000E+00
  0.00000000E+00  0.00000000E+00  0.00000000E+00
  0.00000000E+00  0.00000000E+00  0.00000000E+00
  0.00000000E+00  0.00000000E+00  0.00000000E+00
  0.00000000E+00  0.00000000E+00  0.00000000E+00
  0.00000000E+00  0.00000000E+00  0.00000000E+00
  0.00000000E+00  0.00000000E+00  0.00000000E+00
  0.00000000E+00  0.00000000E+00  0.00000000E+00
  0.00000000E+00  0.00000000E+00  0.00000000E+00
  0.00000000E+00  0.00000000E+00  0.00000000E+00
  0.00000000E+00  0.00000000E+00  0.00000000E+00
  0.00000000E+00  0.00000000E+00  0.00000000E+00
  0.00000000E+00  0.00000000E+00  0.00000000E+00
  0.00000000E+00  0.00000000E+00  0.00000000E+00
  0.00000000E+00  0.00000000E+00  0.00000000E+00
  0.00000000E+00  0.00000000E+00  0.00000000E+00
  0.00000000E+00  0.00000000E+00  0.00000000E+00
  0.00000000E+00  0.00000000E+00  0.00000000E+00
  0.00000000E+00  0.00000000E+00  0.00000000E+00
  0.00000000E+00  0.00000000E+00  0.00000000E+00
  0.00000000E+00  0.00000000E+00  0.00000000E+00
  0.00000000E+00  0.00000000E+00  0.00000000E+00
  0.00000000E+00  0.00000000E+00  0.00000000E+00
  0.00000000E+00  0.00000000E+00  0.00000000E+00
  0.00000000E+00  0.00000000E+00  0.00000000E+00
  0.00000000E+00  0.00000000E+00  0.00000000E+00
  0.00000000E+00  0.00000000E+00  0.00000000E+00
  0.00000000E+00  0.00000000E+00  0.00000000E+00
  0.00000000E+00  0.00000000E+00  0.00000000E+00
  0.00000000E+00  0.00000000E+00  0.00000000E+00
  0.00000000E+00  0.00000000E+00  0.00000000E+00
  0.00000000E+00  0.00000000E+00  0.00000000E+00
  0.00000000E+00  0.00000000E+00  0.00000000E+00
  0.00000000E+00  0.00000000E+00  0.00000000E+00
  0.00000000E+00  0.00000000E+00  0.00000000E+00
  0.00000000E+00  0.00000000E+00  0.00000000E+00
  0.00000000E+00  0.00000000E+00  0.00000000E+00
  0.00000000E+00  0.00000000E+00  0.00000000E+00
  0.00000000E+00  0.00000000E+00  0.00000000E+00
  0.00000000E+00  0.00000000E+00  0.00000000E+00
  0.00000000E+00  0.00000000E+00  0.00000000E+00
  0.00000000E+00  0.00000000E+00  0.00000000E+00
  0.00000000E+00  0.00000000E+00  0.00000000E+00
  0.00000000E+00  0.00000000E+00  0.00000000E+00
  0.00000000E+00  0.00000000E+00  0.00000000E+00
