 Ti2 S2 Cl2                             
   1.00000000000000     
     3.4099766243456804    0.0000000000000000    0.0000000000000000
     0.0000000000000000    4.8005120689335472    0.0000000000000000
     0.0000000000000000    0.0000000000000000   20.0982648346840023
   Ti   S    Cl
     2     2     2
Direct
  0.7496958210727342  0.7500242634854288  0.4604912703687631
  0.2497433813174368  0.2499484246990775  0.5394954680032100
  0.2497259587029959  0.7499869562387147  0.5474745149343789
  0.7496655322173424  0.2500027212864069  0.4525310304869805
  0.2496786942109210  0.7500002258320038  0.3727970452517013
  0.7496922651746090  0.2499975876189637  0.6272106709549661
 
  0.00000000E+00  0.00000000E+00  0.00000000E+00
  0.00000000E+00  0.00000000E+00  0.00000000E+00
  0.00000000E+00  0.00000000E+00  0.00000000E+00
  0.00000000E+00  0.00000000E+00  0.00000000E+00
  0.00000000E+00  0.00000000E+00  0.00000000E+00
  0.00000000E+00  0.00000000E+00  0.00000000E+00
