CONTCAR\(10)                            
   1.00000000000000     
    10.9605998993000000    0.0000000000000000    0.0000000000000000
     5.4620360536000003    9.5107522852000006    0.0000000000000000
     0.0000000000000000    0.0000000000000000   24.0680007935000013
   Cr   Ga   S    O 
     9    18    36     1
Direct
  0.3316229342589310  0.0052115609326506  0.4999989426504996
  0.6634514547729893  0.0079108942709283  0.4985816146222817
  0.9982431251959483  0.0050389395128008  0.4999646652238852
  0.3360998431733009  0.3379782662967301  0.4998283989699033
  0.6609799961958487  0.3378972249980237  0.4997879516477823
  0.9983016809217418  0.3380165659410537  0.5004067615539256
  0.3335467373419476  0.6676387363390148  0.5008141540249653
  0.6626545448269994  0.6707516213131015  0.5006449045016694
  0.0016390149081218  0.6707695529744129  0.5005792104739655
  0.1105761001539918  0.1155720652577727  0.3551842841507309
  0.2214337670137354  0.2280838007075374  0.6445583564531034
  0.4438416759945909  0.1158375941685108  0.3544198070207827
  0.5257138106811254  0.2804307785871600  0.6456402579206326
  0.7770292143256015  0.1158411565739641  0.3544410731454732
  0.8829164868765460  0.2282279357481585  0.6445540607319771
  0.1116649296017300  0.4488909245904154  0.3559575154678001
  0.2545581877568281  0.5414448895296502  0.6487637955358281
  0.4441904548611149  0.4485313290468937  0.3540991764563799
  0.5373298998064300  0.5424294807329701  0.6486118016262736
  0.7762998773809429  0.4489540211379222  0.3558796819416941
  0.8867077983031635  0.5600290126634277  0.6437838888878247
  0.1110697008248636  0.7816335629709386  0.3554126171718579
  0.2203134637520776  0.8922311866377655  0.6445020025722741
  0.4439993611360791  0.7816605097937241  0.3555094071601133
  0.5485885440337626  0.9000098210049643  0.6432619437701206
  0.7765357369129759  0.7836859990701441  0.3555375839273509
  0.8846260507913470  0.8999349941856210  0.6432206964617748
  0.1094959431446156  0.1162526051381008  0.4488387967715823
  0.2215074952394076  0.2280623819129417  0.5501988661689694
  0.1076272141294226  0.1169225452325904  0.6835255330047687
  0.2209161493896943  0.2276507952875662  0.3127386834947217
  0.4420742692397539  0.1167165659579155  0.4479674866701657
  0.5552291434346230  0.2243272070107452  0.5490003109321862
  0.4430689059554354  0.1211562042376144  0.6823949131257905
  0.5553691505377216  0.2262469166339969  0.3118113581397211
  0.7766635157281030  0.1165621154962935  0.4479672340339107
  0.8849092309613340  0.2278766363365534  0.5501861780222228
  0.7679880455848433  0.1212622600531645  0.6821879433820399
  0.8883836063111232  0.2275209363081672  0.3127383655202962
  0.1119967687815233  0.4486606909525435  0.4494734753643570
  0.2239422307106125  0.5578774354265690  0.5518203711314840
  0.1087208906667243  0.4503253453003424  0.6838972277195694
  0.2211717499556727  0.5601916806367200  0.3124261819366865
  0.4429448925156763  0.4495768119711272  0.4478044157909409
  0.5526356475640597  0.5578710136079508  0.5518627348619063
  0.4241816707322030  0.4869733163510048  0.7233649696302606
  0.5555645858916094  0.5603531099193546  0.3124199809643997
  0.7746622415202324  0.4487546623811056  0.4494113965856315
  0.8866464140244901  0.5615372821803746  0.5499031578939224
  0.7738358970319368  0.4505260235095889  0.6837723608967394
  0.8885322707758831  0.5601880701371016  0.3143537382192036
  0.1116661356237287  0.7817523581231285  0.4490092784170088
  0.2206873853255118  0.8932143476619316  0.5501977921899197
  0.1061987038720176  0.7835287722236686  0.6822812188017977
  0.2218928966226912  0.8932380023999755  0.3129430440497103
  0.4418116432029464  0.7818919211766584  0.4491132165204021
  0.5544507794616393  0.8949600034972107  0.5492503514160916
  0.4429464756946189  0.7839250393747434  0.6823361617934580
  0.5549695363500220  0.8928857380070596  0.3127562297934574
  0.7762766613624450  0.7829441634079970  0.4485031662737100
  0.8851799617376841  0.8949176124616542  0.5491557462464627
  0.7738989102270608  0.7851527376408214  0.6828176599114144
  0.8889856489966732  0.8929950065866734  0.3127280043947920
  0.3886926668935331  0.5627703284728511  0.7778477978593301
 
  0.00000000E+00  0.00000000E+00  0.00000000E+00
  0.00000000E+00  0.00000000E+00  0.00000000E+00
  0.00000000E+00  0.00000000E+00  0.00000000E+00
  0.00000000E+00  0.00000000E+00  0.00000000E+00
  0.00000000E+00  0.00000000E+00  0.00000000E+00
  0.00000000E+00  0.00000000E+00  0.00000000E+00
  0.00000000E+00  0.00000000E+00  0.00000000E+00
  0.00000000E+00  0.00000000E+00  0.00000000E+00
  0.00000000E+00  0.00000000E+00  0.00000000E+00
  0.00000000E+00  0.00000000E+00  0.00000000E+00
  0.00000000E+00  0.00000000E+00  0.00000000E+00
  0.00000000E+00  0.00000000E+00  0.00000000E+00
  0.00000000E+00  0.00000000E+00  0.00000000E+00
  0.00000000E+00  0.00000000E+00  0.00000000E+00
  0.00000000E+00  0.00000000E+00  0.00000000E+00
  0.00000000E+00  0.00000000E+00  0.00000000E+00
  0.00000000E+00  0.00000000E+00  0.00000000E+00
  0.00000000E+00  0.00000000E+00  0.00000000E+00
  0.00000000E+00  0.00000000E+00  0.00000000E+00
  0.00000000E+00  0.00000000E+00  0.00000000E+00
  0.00000000E+00  0.00000000E+00  0.00000000E+00
  0.00000000E+00  0.00000000E+00  0.00000000E+00
  0.00000000E+00  0.00000000E+00  0.00000000E+00
  0.00000000E+00  0.00000000E+00  0.00000000E+00
  0.00000000E+00  0.00000000E+00  0.00000000E+00
  0.00000000E+00  0.00000000E+00  0.00000000E+00
  0.00000000E+00  0.00000000E+00  0.00000000E+00
  0.00000000E+00  0.00000000E+00  0.00000000E+00
  0.00000000E+00  0.00000000E+00  0.00000000E+00
  0.00000000E+00  0.00000000E+00  0.00000000E+00
  0.00000000E+00  0.00000000E+00  0.00000000E+00
  0.00000000E+00  0.00000000E+00  0.00000000E+00
  0.00000000E+00  0.00000000E+00  0.00000000E+00
  0.00000000E+00  0.00000000E+00  0.00000000E+00
  0.00000000E+00  0.00000000E+00  0.00000000E+00
  0.00000000E+00  0.00000000E+00  0.00000000E+00
  0.00000000E+00  0.00000000E+00  0.00000000E+00
  0.00000000E+00  0.00000000E+00  0.00000000E+00
  0.00000000E+00  0.00000000E+00  0.00000000E+00
  0.00000000E+00  0.00000000E+00  0.00000000E+00
  0.00000000E+00  0.00000000E+00  0.00000000E+00
  0.00000000E+00  0.00000000E+00  0.00000000E+00
  0.00000000E+00  0.00000000E+00  0.00000000E+00
  0.00000000E+00  0.00000000E+00  0.00000000E+00
  0.00000000E+00  0.00000000E+00  0.00000000E+00
  0.00000000E+00  0.00000000E+00  0.00000000E+00
  0.00000000E+00  0.00000000E+00  0.00000000E+00
  0.00000000E+00  0.00000000E+00  0.00000000E+00
  0.00000000E+00  0.00000000E+00  0.00000000E+00
  0.00000000E+00  0.00000000E+00  0.00000000E+00
  0.00000000E+00  0.00000000E+00  0.00000000E+00
  0.00000000E+00  0.00000000E+00  0.00000000E+00
  0.00000000E+00  0.00000000E+00  0.00000000E+00
  0.00000000E+00  0.00000000E+00  0.00000000E+00
  0.00000000E+00  0.00000000E+00  0.00000000E+00
  0.00000000E+00  0.00000000E+00  0.00000000E+00
  0.00000000E+00  0.00000000E+00  0.00000000E+00
  0.00000000E+00  0.00000000E+00  0.00000000E+00
  0.00000000E+00  0.00000000E+00  0.00000000E+00
  0.00000000E+00  0.00000000E+00  0.00000000E+00
  0.00000000E+00  0.00000000E+00  0.00000000E+00
  0.00000000E+00  0.00000000E+00  0.00000000E+00
  0.00000000E+00  0.00000000E+00  0.00000000E+00
  0.00000000E+00  0.00000000E+00  0.00000000E+00
