CONTCAR\(2)                             
   1.00000000000000     
    13.3212995528999993    0.0000000000000000    0.0000000000000000
    -6.6606497764999997   11.5365838241999992    0.0000000000000000
     0.0000000000000000    0.0000000000000000   18.1305007935000013
   Ta   S    H 
    16    32     1
Selective dynamics
Direct
  0.1705138748059767  0.0837438919925404  0.5008373233779864   F   F   F
  0.4132953501315768  0.0837412021594304  0.5008426408023894   F   F   F
  0.6686904952958912  0.0843402376479432  0.5007120085625658   F   F   F
  0.9157196186281595  0.0843422259807554  0.5007083508396377   F   F   F
  0.1662374306496943  0.3331137193248424  0.5005158834085961   F   F   F
  0.4102578125774841  0.3204378707256197  0.5003864136485703   F   F   F
  0.6669476200490649  0.3331034018836050  0.5005197575822464   F   F   F
  0.9157195746281630  0.3313673556473944  0.5007083508396377   F   F   F
  0.1705138848059775  0.5867599808134329  0.5008373233779864   F   F   F
  0.4102578125774841  0.5898099308518567  0.5003864136485703   F   F   F
  0.6796215756283459  0.5898057728141737  0.5003973083658408   F   F   F
  0.9162993525418983  0.5867535275337730  0.5008428429157519   F   F   F
  0.1667095684372342  0.8333497507186181  0.5009697767749799   F   F   F
  0.4132953411315796  0.8295441089721436  0.5008426408023894   F   F   F
  0.6669476190490684  0.8338341701654599  0.5005197575822464   F   F   F
  0.9162993705418998  0.8295357590081238  0.5008428429157519   F   F   F
  0.0001969013260066  0.9998805432680200  0.5855346562032580   F   F   F
  0.0001572544412554  0.9998867245345195  0.4160519908851512   F   F   F
  0.2492926786157383  0.9985056363730749  0.5882718115305678   F   F   F
  0.2492248654063687  0.9984000868086156  0.4135663299567511   F   F   F
  0.4997485874812000  0.9998742937406035  0.5855397207295852   F   F   F
  0.4997851677163894  0.9998925838581911  0.4160569850388285   F   F   F
  0.7497890927438036  0.9994916170732182  0.5874225374299726   F   F   F
  0.7499255636875546  0.9998009633850700  0.4139316460343778   F   F   F
  0.0005722664956167  0.2502861347478103  0.5874162937892251   F   F   F
  0.0002576969129464  0.2501288499564751  0.4139303381048407   F   F   F
  0.2482021282102096  0.2494315768016264  0.5880073709091391   F   F   F
  0.2478861323994437  0.2492621861525919  0.4135593576037593   F   F   F
  0.5012846729678131  0.2494234606439178  0.5880127780033035   F   F   F
  0.5014393583195229  0.2492542203360770  0.4135617307425790   F   F   F
  0.7497891207438059  0.2502974956705799  0.5874225374299726   F   F   F
  0.7499255916875569  0.2501246203024792  0.4139316460343778   F   F   F
  0.0001969033260067  0.5003163610579833  0.5855346562032580   F   F   F
  0.0001572564412555  0.5002705329067325  0.4160519908851512   F   F   F
  0.2482021292102132  0.4987705554085835  0.5880073709091391   F   F   F
  0.2478861333994473  0.4986239502468521  0.4135593576037593   F   F   F
  0.5000326467632590  0.5000163253816297  0.5790374695235130   F   F   F
  0.5000336727670884  0.5000168383835373  0.4238713731199653   F   F   F
  0.7506261573401716  0.4987616148745602  0.5880154897036434   F   F   F
  0.7507830809888105  0.4986096570150877  0.4135668106709005   F   F   F
  0.0015425942162182  0.7507713121081139  0.5882735988928260   F   F   F
  0.0016449820793270  0.7508225060396612  0.4135697763828645   F   F   F
  0.2492927006157402  0.7507870682426727  0.5882718115305678   F   F   F
  0.2492248874063705  0.7508248045977552  0.4135663299567511   F   F   F
  0.5012847029678156  0.7518612483238982  0.5880127780033035   F   F   F
  0.5014393883195254  0.7521851739834489  0.4135617307425790   F   F   F
  0.7506261953401747  0.7518646054656131  0.5880154897036434   F   F   F
  0.7507831189888137  0.7521734869737244  0.4135668106709005   F   F   F
  0.5000001831950343  0.5000000760975213  0.6532620315092534   T   T   T
 
  0.00000000E+00  0.00000000E+00  0.00000000E+00
  0.00000000E+00  0.00000000E+00  0.00000000E+00
  0.00000000E+00  0.00000000E+00  0.00000000E+00
  0.00000000E+00  0.00000000E+00  0.00000000E+00
  0.00000000E+00  0.00000000E+00  0.00000000E+00
  0.00000000E+00  0.00000000E+00  0.00000000E+00
  0.00000000E+00  0.00000000E+00  0.00000000E+00
  0.00000000E+00  0.00000000E+00  0.00000000E+00
  0.00000000E+00  0.00000000E+00  0.00000000E+00
  0.00000000E+00  0.00000000E+00  0.00000000E+00
  0.00000000E+00  0.00000000E+00  0.00000000E+00
  0.00000000E+00  0.00000000E+00  0.00000000E+00
  0.00000000E+00  0.00000000E+00  0.00000000E+00
  0.00000000E+00  0.00000000E+00  0.00000000E+00
  0.00000000E+00  0.00000000E+00  0.00000000E+00
  0.00000000E+00  0.00000000E+00  0.00000000E+00
  0.00000000E+00  0.00000000E+00  0.00000000E+00
  0.00000000E+00  0.00000000E+00  0.00000000E+00
  0.00000000E+00  0.00000000E+00  0.00000000E+00
  0.00000000E+00  0.00000000E+00  0.00000000E+00
  0.00000000E+00  0.00000000E+00  0.00000000E+00
  0.00000000E+00  0.00000000E+00  0.00000000E+00
  0.00000000E+00  0.00000000E+00  0.00000000E+00
  0.00000000E+00  0.00000000E+00  0.00000000E+00
  0.00000000E+00  0.00000000E+00  0.00000000E+00
  0.00000000E+00  0.00000000E+00  0.00000000E+00
  0.00000000E+00  0.00000000E+00  0.00000000E+00
  0.00000000E+00  0.00000000E+00  0.00000000E+00
  0.00000000E+00  0.00000000E+00  0.00000000E+00
  0.00000000E+00  0.00000000E+00  0.00000000E+00
  0.00000000E+00  0.00000000E+00  0.00000000E+00
  0.00000000E+00  0.00000000E+00  0.00000000E+00
  0.00000000E+00  0.00000000E+00  0.00000000E+00
  0.00000000E+00  0.00000000E+00  0.00000000E+00
  0.00000000E+00  0.00000000E+00  0.00000000E+00
  0.00000000E+00  0.00000000E+00  0.00000000E+00
  0.00000000E+00  0.00000000E+00  0.00000000E+00
  0.00000000E+00  0.00000000E+00  0.00000000E+00
  0.00000000E+00  0.00000000E+00  0.00000000E+00
  0.00000000E+00  0.00000000E+00  0.00000000E+00
  0.00000000E+00  0.00000000E+00  0.00000000E+00
  0.00000000E+00  0.00000000E+00  0.00000000E+00
  0.00000000E+00  0.00000000E+00  0.00000000E+00
  0.00000000E+00  0.00000000E+00  0.00000000E+00
  0.00000000E+00  0.00000000E+00  0.00000000E+00
  0.00000000E+00  0.00000000E+00  0.00000000E+00
  0.00000000E+00  0.00000000E+00  0.00000000E+00
  0.00000000E+00  0.00000000E+00  0.00000000E+00
  0.00000000E+00  0.00000000E+00  0.00000000E+00
