CONTCAR\(10)                            
   1.00000000000000     
     9.7571001052999993    0.0000000000000000    0.0000000000000000
    -3.0063686365000000   15.8319856181999992    0.0000000000000000
     0.0000000000000000    0.0000000000000000   18.2793006897000012
   V    P    S    O 
     4     8    26     1
Direct
  0.6066207498098878  0.5807079439449179  0.4959241961981029
  0.6207924958804688  0.1079159924951584  0.4990639247829775
  0.4130756161584422  0.4085123507898477  0.4958294113350610
  0.3809735488411018  0.8956836597301581  0.4973895324805568
  0.8326283810460532  0.2680924364227387  0.4890833290873682
  0.7366724996573074  0.4175300811608527  0.6039972883172422
  0.1649462713829397  0.7400757692942084  0.5088247170053920
  0.1833510566299966  0.2496456912684307  0.4888567349679469
  0.3069062284147140  0.0702677465351670  0.5320773023097497
  0.6925195177288976  0.9315709614947554  0.4619284603588553
  0.2987981602899868  0.5673815222280739  0.4659706805232328
  0.8167579865113135  0.7505893631055094  0.5048007947828562
  0.1213040418450169  0.1183407239455095  0.5162705875306189
  0.8766550953846654  0.8806586018737131  0.4712741955332900
  0.9911146189618627  0.7487575498660664  0.5764660839711083
  0.3966089348286884  0.0396779522581240  0.4356757641640165
  0.5310489217311667  0.3557442594803588  0.5907962562611304
  0.2374569082110383  0.4558401110715258  0.4162372860881630
  0.2112359807020234  0.3263350167843387  0.5746310071394760
  0.6524452158763892  0.7230762540062105  0.5704189736247390
  0.4530302938020420  0.6488653878848928  0.4181978439270982
  0.6029264921198564  0.4636672524140545  0.4296629472971491
  0.6690570949662691  0.2262498939079207  0.4205352222909220
  0.8701005704372378  0.3971684268331631  0.5091428749408560
  0.0068292135693283  0.2575521948316054  0.4198929829194273
  0.6060336362604940  0.9614864357103617  0.5595586872154503
  0.7971779546943772  0.6676271558125102  0.4218195163053701
  0.3937234166564066  0.5355329712154883  0.5632436002216119
  0.1927577483339226  0.8168692170124764  0.4215579861450801
  0.7431350088700940  0.5462981771626280  0.5947963886228793
  0.5335171624650178  0.8551804182396118  0.4093907026834419
  0.2361243254717030  0.9592326455957313  0.5822679561715886
  0.3324920573655428  0.7730019877105008  0.5748338846967339
  0.8038895047543775  0.1881897925958492  0.5749048819434707
  0.7642142447654143  0.0437852571693267  0.4137556165749882
  0.4636674549985804  0.1484454857295034  0.5846759988078633
  0.1083344941802180  0.6085861423536729  0.4831782642376369
  0.3509727960674536  0.2766394868482457  0.4227341015293724
  0.8015040983297113  0.3905977992167831  0.6712442100071684
 
  0.00000000E+00  0.00000000E+00  0.00000000E+00
  0.00000000E+00  0.00000000E+00  0.00000000E+00
  0.00000000E+00  0.00000000E+00  0.00000000E+00
  0.00000000E+00  0.00000000E+00  0.00000000E+00
  0.00000000E+00  0.00000000E+00  0.00000000E+00
  0.00000000E+00  0.00000000E+00  0.00000000E+00
  0.00000000E+00  0.00000000E+00  0.00000000E+00
  0.00000000E+00  0.00000000E+00  0.00000000E+00
  0.00000000E+00  0.00000000E+00  0.00000000E+00
  0.00000000E+00  0.00000000E+00  0.00000000E+00
  0.00000000E+00  0.00000000E+00  0.00000000E+00
  0.00000000E+00  0.00000000E+00  0.00000000E+00
  0.00000000E+00  0.00000000E+00  0.00000000E+00
  0.00000000E+00  0.00000000E+00  0.00000000E+00
  0.00000000E+00  0.00000000E+00  0.00000000E+00
  0.00000000E+00  0.00000000E+00  0.00000000E+00
  0.00000000E+00  0.00000000E+00  0.00000000E+00
  0.00000000E+00  0.00000000E+00  0.00000000E+00
  0.00000000E+00  0.00000000E+00  0.00000000E+00
  0.00000000E+00  0.00000000E+00  0.00000000E+00
  0.00000000E+00  0.00000000E+00  0.00000000E+00
  0.00000000E+00  0.00000000E+00  0.00000000E+00
  0.00000000E+00  0.00000000E+00  0.00000000E+00
  0.00000000E+00  0.00000000E+00  0.00000000E+00
  0.00000000E+00  0.00000000E+00  0.00000000E+00
  0.00000000E+00  0.00000000E+00  0.00000000E+00
  0.00000000E+00  0.00000000E+00  0.00000000E+00
  0.00000000E+00  0.00000000E+00  0.00000000E+00
  0.00000000E+00  0.00000000E+00  0.00000000E+00
  0.00000000E+00  0.00000000E+00  0.00000000E+00
  0.00000000E+00  0.00000000E+00  0.00000000E+00
  0.00000000E+00  0.00000000E+00  0.00000000E+00
  0.00000000E+00  0.00000000E+00  0.00000000E+00
  0.00000000E+00  0.00000000E+00  0.00000000E+00
  0.00000000E+00  0.00000000E+00  0.00000000E+00
  0.00000000E+00  0.00000000E+00  0.00000000E+00
  0.00000000E+00  0.00000000E+00  0.00000000E+00
  0.00000000E+00  0.00000000E+00  0.00000000E+00
  0.00000000E+00  0.00000000E+00  0.00000000E+00
