CONTCAR\(6)                             
   1.00000000000000     
    10.0733995438000008    0.0000000000000000    0.0000000000000000
     0.0000000000000000    9.7955999374000005    0.0000000000000000
     0.0000000000000000    0.0000000000000000   18.6921005248999990
   Ta   Se   O    H 
    12    18     2     1
Direct
  0.0702202767765589  0.5559768125446879  0.4956960119607241
  0.2499811893866106  0.3098997253982059  0.4947017939616461
  0.0976178780865933  0.8732431059657498  0.5616771632620917
  0.2499943486584311  0.9943943214514286  0.4524217926155356
  0.4297701104506665  0.5559345769248896  0.4956838193622452
  0.5866134711524629  0.3070025995470219  0.4987296909623039
  0.4023960912839377  0.8732359462325324  0.5615928575830594
  0.5851290067171067  0.9966737116120777  0.4559910153154117
  0.7499774860531339  0.5601317390312316  0.5008416444423988
  0.9133864866157851  0.3070010680938849  0.4987182886034238
  0.7500372537584800  0.8730928016127535  0.5570580792089525
  0.9148363966591956  0.9966737667216473  0.4559840249916944
  0.0828820325265949  0.3762394168203502  0.5954610037159199
  0.2499650532747517  0.4972449845478019  0.3987195256533660
  0.0812688172941014  0.1798897089871406  0.4049815740726548
  0.2500537235588705  0.6601066088681249  0.5819253905747390
  0.2500636659010326  0.0932402227039210  0.5769089413727990
  0.0798975263613027  0.8029252306516040  0.4241845930470931
  0.4171313227816152  0.3762553235444110  0.5954679635859706
  0.5900502805075137  0.4871001423101075  0.3969611197156570
  0.4187088845209038  0.1798824297589329  0.4049873659896858
  0.5810094402892447  0.6813666692615240  0.5967800308839045
  0.5803787220241317  0.0673285225187803  0.5893938206529657
  0.4201008719946587  0.8029294603969525  0.4241720615915378
  0.7499912772790763  0.3760326012731739  0.5994277529938418
  0.9099660582159437  0.4871280334622138  0.3969658915495863
  0.7499876687429421  0.1789270515856147  0.4044252937420255
  0.9189443280945520  0.6813917474711658  0.5968127420566939
  0.9196624080252844  0.0674086193819498  0.5893510018295338
  0.7499818202833537  0.8032508907670124  0.4229047515994026
  0.2494139629462681  0.9001856840023771  0.6565684682058005
  0.2487107050979588  0.8114460939547715  0.7220584347660555
  0.2492312456809464  0.7185899465959934  0.7011259301312532
 
  0.00000000E+00  0.00000000E+00  0.00000000E+00
  0.00000000E+00  0.00000000E+00  0.00000000E+00
  0.00000000E+00  0.00000000E+00  0.00000000E+00
  0.00000000E+00  0.00000000E+00  0.00000000E+00
  0.00000000E+00  0.00000000E+00  0.00000000E+00
  0.00000000E+00  0.00000000E+00  0.00000000E+00
  0.00000000E+00  0.00000000E+00  0.00000000E+00
  0.00000000E+00  0.00000000E+00  0.00000000E+00
  0.00000000E+00  0.00000000E+00  0.00000000E+00
  0.00000000E+00  0.00000000E+00  0.00000000E+00
  0.00000000E+00  0.00000000E+00  0.00000000E+00
  0.00000000E+00  0.00000000E+00  0.00000000E+00
  0.00000000E+00  0.00000000E+00  0.00000000E+00
  0.00000000E+00  0.00000000E+00  0.00000000E+00
  0.00000000E+00  0.00000000E+00  0.00000000E+00
  0.00000000E+00  0.00000000E+00  0.00000000E+00
  0.00000000E+00  0.00000000E+00  0.00000000E+00
  0.00000000E+00  0.00000000E+00  0.00000000E+00
  0.00000000E+00  0.00000000E+00  0.00000000E+00
  0.00000000E+00  0.00000000E+00  0.00000000E+00
  0.00000000E+00  0.00000000E+00  0.00000000E+00
  0.00000000E+00  0.00000000E+00  0.00000000E+00
  0.00000000E+00  0.00000000E+00  0.00000000E+00
  0.00000000E+00  0.00000000E+00  0.00000000E+00
  0.00000000E+00  0.00000000E+00  0.00000000E+00
  0.00000000E+00  0.00000000E+00  0.00000000E+00
  0.00000000E+00  0.00000000E+00  0.00000000E+00
  0.00000000E+00  0.00000000E+00  0.00000000E+00
  0.00000000E+00  0.00000000E+00  0.00000000E+00
  0.00000000E+00  0.00000000E+00  0.00000000E+00
  0.00000000E+00  0.00000000E+00  0.00000000E+00
  0.00000000E+00  0.00000000E+00  0.00000000E+00
  0.00000000E+00  0.00000000E+00  0.00000000E+00
