CONTCAR\(6)                             
   1.00000000000000     
    15.7593002318999993    0.0000000000000000    0.0000000000000000
     0.0000000000000000   15.7517004013000008    0.0000000000000000
     0.0000000000000000    0.0000000000000000   17.5345993042000003
   Fe   S    O 
    32    40     1
Direct
  0.4438021858945891  0.1334944079488029  0.4923206631461408
  0.3906914533917561  0.2847338577088211  0.4926220298757868
  0.3440833429160709  0.4358907420145581  0.5056059870138730
  0.2918309842919889  0.0883855104910818  0.5009854170688675
  0.0402730125972980  0.3408223710816953  0.4917674200471190
  0.0948204103693045  0.1900621910723555  0.4900074056315640
  0.1387821868793235  0.0378980801539235  0.5000781011088739
  0.1923271337060314  0.3857511024398267  0.5003659982980698
  0.9437032690574879  0.1350751597796368  0.4896319197100509
  0.8889217434028708  0.2860806866144700  0.4913596057507826
  0.8447433409183339  0.4381236900905502  0.5026862635013245
  0.7915949457223449  0.0897947628801469  0.4970392848649475
  0.5420940853896810  0.3383183876035668  0.4954693476023498
  0.5948088401270060  0.1875482930599238  0.4915930452738566
  0.6404007945450525  0.0361694670015830  0.4985853447554199
  0.6935070734759979  0.3838350750662758  0.5034246369277572
  0.4449527948840333  0.6369354129880624  0.5218240458572304
  0.3850538302331027  0.7805946577497777  0.5201192536951215
  0.3433518208581970  0.9363021713089753  0.5082348905242157
  0.2964720629549775  0.5927331229720895  0.5250510665816739
  0.0402980621446359  0.8392899043937125  0.4993497515135134
  0.0933291470612032  0.6877897433864307  0.5031652985768063
  0.1420110869596088  0.5375507426756811  0.5084965105287697
  0.1906881524291276  0.8880049972338347  0.5091562700813732
  0.9433088504535970  0.6348186151914427  0.4979448600818381
  0.8887895120549347  0.7859386752255327  0.4971145267612562
  0.8441601746647944  0.9380210463212373  0.5001009960954150
  0.7920522535041011  0.5896786288390282  0.5058630378034248
  0.5404813558715926  0.8385059747055366  0.5006898696293550
  0.5978947218767325  0.6876831743126700  0.5056905434104116
  0.6414407649563936  0.5356690727085968  0.5110597015966840
  0.6921866030600564  0.8844638512169970  0.5018009864064285
  0.4927295356929778  0.2351066898575313  0.5639585073248953
  0.3929567584197493  0.0422211815667630  0.5697919860200527
  0.3426673161069850  0.1820862981933847  0.4249323174055488
  0.2929364281604673  0.3313773002217827  0.5664838233289022
  0.2459486535577210  0.4944241392673981  0.4380382879856862
  0.0474291407748600  0.0886171936836777  0.4221182905313277
  0.0914754850912865  0.4317851711415356  0.5693317606871318
  0.1412547549722308  0.2943086555307003  0.4229867408307399
  0.1883959289172574  0.1392957222729609  0.5658118846414457
  0.4398337193613938  0.3893609479882866  0.4295977020994520
  0.9920746254371536  0.2369284117427991  0.5612476987485812
  0.8919652987988507  0.0422217412604837  0.5655201024150887
  0.8429356368285754  0.1837612273848085  0.4218972085425163
  0.7971482222036800  0.3359498193553399  0.5692976400091010
  0.7403739271292841  0.4891890895814822  0.4349246398002468
  0.5458581829293810  0.0864402117471481  0.4239359519698527
  0.5932231769091985  0.4295389208278456  0.5736673251048222
  0.6419791686652226  0.2921659134020386  0.4258978234427908
  0.6897331681870601  0.1371566411138730  0.5655880710494848
  0.9366993061890349  0.3883838722544220  0.4248164264714285
  0.5048696988926267  0.7434075151461353  0.5814709398694753
  0.3977207642624258  0.5233531772339240  0.5821360712848384
  0.3510753742249307  0.6787572090245997  0.4393901497858219
  0.2887992324373017  0.8473045120238745  0.5841569463599692
  0.2428151053213999  0.9833973680229047  0.4333426870679323
  0.0486669581595785  0.5887780130820105  0.4324261160051153
  0.0871308088868138  0.9393979521681892  0.5705875270564732
  0.1445889902333633  0.7891157803317828  0.4367059109843120
  0.1815920371600553  0.6357830495723540  0.5823531041771906
  0.4310944908073718  0.8721429505960012  0.4356427604852685
  0.9891351843400055  0.7377057319583161  0.5705255369228333
  0.8933391559365859  0.5393876705181726  0.5718119999766024
  0.8426744766643668  0.6827846110104853  0.4296048870972096
  0.7949811951166258  0.8398124555315504  0.5705038588470168
  0.7419840937120735  0.9850219939920316  0.4281914624232620
  0.5408345510802723  0.5862629658122985  0.4432509488673619
  0.5935216345972932  0.9369867102469061  0.5697103132497654
  0.6382543564199583  0.7874081546360323  0.4309263662155223
  0.6931254213870158  0.6351360102348759  0.5783869829671372
  0.9398477409806839  0.8844215048299104  0.4280773445773964
  0.3526842693947590  0.6817018043965020  0.5840996176501186
 
  0.00000000E+00  0.00000000E+00  0.00000000E+00
  0.00000000E+00  0.00000000E+00  0.00000000E+00
  0.00000000E+00  0.00000000E+00  0.00000000E+00
  0.00000000E+00  0.00000000E+00  0.00000000E+00
  0.00000000E+00  0.00000000E+00  0.00000000E+00
  0.00000000E+00  0.00000000E+00  0.00000000E+00
  0.00000000E+00  0.00000000E+00  0.00000000E+00
  0.00000000E+00  0.00000000E+00  0.00000000E+00
  0.00000000E+00  0.00000000E+00  0.00000000E+00
  0.00000000E+00  0.00000000E+00  0.00000000E+00
  0.00000000E+00  0.00000000E+00  0.00000000E+00
  0.00000000E+00  0.00000000E+00  0.00000000E+00
  0.00000000E+00  0.00000000E+00  0.00000000E+00
  0.00000000E+00  0.00000000E+00  0.00000000E+00
  0.00000000E+00  0.00000000E+00  0.00000000E+00
  0.00000000E+00  0.00000000E+00  0.00000000E+00
  0.00000000E+00  0.00000000E+00  0.00000000E+00
  0.00000000E+00  0.00000000E+00  0.00000000E+00
  0.00000000E+00  0.00000000E+00  0.00000000E+00
  0.00000000E+00  0.00000000E+00  0.00000000E+00
  0.00000000E+00  0.00000000E+00  0.00000000E+00
  0.00000000E+00  0.00000000E+00  0.00000000E+00
  0.00000000E+00  0.00000000E+00  0.00000000E+00
  0.00000000E+00  0.00000000E+00  0.00000000E+00
  0.00000000E+00  0.00000000E+00  0.00000000E+00
  0.00000000E+00  0.00000000E+00  0.00000000E+00
  0.00000000E+00  0.00000000E+00  0.00000000E+00
  0.00000000E+00  0.00000000E+00  0.00000000E+00
  0.00000000E+00  0.00000000E+00  0.00000000E+00
  0.00000000E+00  0.00000000E+00  0.00000000E+00
  0.00000000E+00  0.00000000E+00  0.00000000E+00
  0.00000000E+00  0.00000000E+00  0.00000000E+00
  0.00000000E+00  0.00000000E+00  0.00000000E+00
  0.00000000E+00  0.00000000E+00  0.00000000E+00
  0.00000000E+00  0.00000000E+00  0.00000000E+00
  0.00000000E+00  0.00000000E+00  0.00000000E+00
  0.00000000E+00  0.00000000E+00  0.00000000E+00
  0.00000000E+00  0.00000000E+00  0.00000000E+00
  0.00000000E+00  0.00000000E+00  0.00000000E+00
  0.00000000E+00  0.00000000E+00  0.00000000E+00
  0.00000000E+00  0.00000000E+00  0.00000000E+00
  0.00000000E+00  0.00000000E+00  0.00000000E+00
  0.00000000E+00  0.00000000E+00  0.00000000E+00
  0.00000000E+00  0.00000000E+00  0.00000000E+00
  0.00000000E+00  0.00000000E+00  0.00000000E+00
  0.00000000E+00  0.00000000E+00  0.00000000E+00
  0.00000000E+00  0.00000000E+00  0.00000000E+00
  0.00000000E+00  0.00000000E+00  0.00000000E+00
  0.00000000E+00  0.00000000E+00  0.00000000E+00
  0.00000000E+00  0.00000000E+00  0.00000000E+00
  0.00000000E+00  0.00000000E+00  0.00000000E+00
  0.00000000E+00  0.00000000E+00  0.00000000E+00
  0.00000000E+00  0.00000000E+00  0.00000000E+00
  0.00000000E+00  0.00000000E+00  0.00000000E+00
  0.00000000E+00  0.00000000E+00  0.00000000E+00
  0.00000000E+00  0.00000000E+00  0.00000000E+00
  0.00000000E+00  0.00000000E+00  0.00000000E+00
  0.00000000E+00  0.00000000E+00  0.00000000E+00
  0.00000000E+00  0.00000000E+00  0.00000000E+00
  0.00000000E+00  0.00000000E+00  0.00000000E+00
  0.00000000E+00  0.00000000E+00  0.00000000E+00
  0.00000000E+00  0.00000000E+00  0.00000000E+00
  0.00000000E+00  0.00000000E+00  0.00000000E+00
  0.00000000E+00  0.00000000E+00  0.00000000E+00
  0.00000000E+00  0.00000000E+00  0.00000000E+00
  0.00000000E+00  0.00000000E+00  0.00000000E+00
  0.00000000E+00  0.00000000E+00  0.00000000E+00
  0.00000000E+00  0.00000000E+00  0.00000000E+00
  0.00000000E+00  0.00000000E+00  0.00000000E+00
  0.00000000E+00  0.00000000E+00  0.00000000E+00
  0.00000000E+00  0.00000000E+00  0.00000000E+00
  0.00000000E+00  0.00000000E+00  0.00000000E+00
  0.00000000E+00  0.00000000E+00  0.00000000E+00
