CONTCAR\(2)                             
   1.00000000000000     
    11.7135000228999999    0.0000000000000000    0.0000000000000000
     0.0000000000000000   10.5269002914000005    0.0000000000000000
     0.0000000000000000    0.0000000000000000   20.5844001769999991
   Mn   Sb   Se   I    O    H 
     6     6    12     6     2     1
Selective dynamics
Direct
  0.3360632819966298  0.9987115123551433  0.5058765107923620   F   F   F
  0.0046285486267621  0.4782879099085733  0.5040042885010223   F   F   F
  0.6621852211781771  0.9929696396315606  0.4985573175307110   F   F   F
  0.3362826716572229  0.4896689523786648  0.5067247338603451   F   F   F
  0.9980216259404173  0.9851862913015239  0.4963681050852742   F   F   F
  0.6722744949304058  0.4934293664283018  0.4995278769362912   F   F   F
  0.1635676884193913  0.2875814157179093  0.6329409858723167   F   F   F
  0.1792379966737627  0.7042967322412181  0.3877712795013011   F   F   F
  0.5119583780538761  0.2948783688747270  0.6211338237088171   F   F   F
  0.4911854745012079  0.6962932852410617  0.3875958391661740   F   F   F
  0.8350079084975306  0.2692260993040776  0.6084528584353777   F   F   F
  0.8361494335534942  0.7076098374985591  0.3839040740898270   F   F   F
  0.9952046474370349  0.2251809926587640  0.5229340793913337   F   F   F
  0.1635551151588928  0.4666860589991941  0.4187892949253325   F   F   F
  0.0013481654244316  0.7705340401099292  0.4731214119500109   F   F   F
  0.1599356685278934  0.5208553005030794  0.5907248742485152   F   F   F
  0.3325024460341339  0.2421397693367950  0.5450662026095685   F   F   F
  0.4980921787553427  0.4588451762059194  0.4138417949248563   F   F   F
  0.3358946703306742  0.7483851875727723  0.4788805830997873   F   F   F
  0.5150206420421810  0.5308771731834909  0.5890340517733108   F   F   F
  0.6633629824814022  0.2394700161691290  0.5246562641374410   F   F   F
  0.8475687783638008  0.4692977457545382  0.4160748376580585   F   F   F
  0.6683292318679221  0.7471028141348341  0.4692159620051655   F   F   F
  0.8453666406945999  0.5146557979252719  0.5862592009457970   F   F   F
  0.1563108999221967  0.9371325133387813  0.5919374283908923   F   F   F
  0.1616653991883368  0.0471667157920663  0.4119231327294344   F   F   F
  0.5035300337308470  0.9330834108438921  0.5998745181186536   F   F   F
  0.4945349207866840  0.0543033467236640  0.4043795401284243   F   F   F
  0.8388701380699857  0.9423897593562884  0.5894193085723600   F   F   F
  0.8403530950439730  0.0364630846394434  0.4046888028147109   F   F   F
  0.2731364485320569  0.3108046070981203  0.7114689686406592   T   T   T
  0.3638989777412007  0.4076545324337104  0.7009929543131506   T   T   T
  0.3912861568375305  0.4180324353389722  0.7450604349726697   T   T   T
 
  0.00000000E+00  0.00000000E+00  0.00000000E+00
  0.00000000E+00  0.00000000E+00  0.00000000E+00
  0.00000000E+00  0.00000000E+00  0.00000000E+00
  0.00000000E+00  0.00000000E+00  0.00000000E+00
  0.00000000E+00  0.00000000E+00  0.00000000E+00
  0.00000000E+00  0.00000000E+00  0.00000000E+00
  0.00000000E+00  0.00000000E+00  0.00000000E+00
  0.00000000E+00  0.00000000E+00  0.00000000E+00
  0.00000000E+00  0.00000000E+00  0.00000000E+00
  0.00000000E+00  0.00000000E+00  0.00000000E+00
  0.00000000E+00  0.00000000E+00  0.00000000E+00
  0.00000000E+00  0.00000000E+00  0.00000000E+00
  0.00000000E+00  0.00000000E+00  0.00000000E+00
  0.00000000E+00  0.00000000E+00  0.00000000E+00
  0.00000000E+00  0.00000000E+00  0.00000000E+00
  0.00000000E+00  0.00000000E+00  0.00000000E+00
  0.00000000E+00  0.00000000E+00  0.00000000E+00
  0.00000000E+00  0.00000000E+00  0.00000000E+00
  0.00000000E+00  0.00000000E+00  0.00000000E+00
  0.00000000E+00  0.00000000E+00  0.00000000E+00
  0.00000000E+00  0.00000000E+00  0.00000000E+00
  0.00000000E+00  0.00000000E+00  0.00000000E+00
  0.00000000E+00  0.00000000E+00  0.00000000E+00
  0.00000000E+00  0.00000000E+00  0.00000000E+00
  0.00000000E+00  0.00000000E+00  0.00000000E+00
  0.00000000E+00  0.00000000E+00  0.00000000E+00
  0.00000000E+00  0.00000000E+00  0.00000000E+00
  0.00000000E+00  0.00000000E+00  0.00000000E+00
  0.00000000E+00  0.00000000E+00  0.00000000E+00
  0.00000000E+00  0.00000000E+00  0.00000000E+00
  0.00000000E+00  0.00000000E+00  0.00000000E+00
  0.00000000E+00  0.00000000E+00  0.00000000E+00
  0.00000000E+00  0.00000000E+00  0.00000000E+00
