CONTCAR                                 
   1.00000000000000     
    13.5033998488999991    0.0000000000000000    0.0000000000000000
     0.0000000000000000   19.6100006104000002    0.0000000000000000
     0.0000000000000000    0.0000000000000000   18.7679004668999987
   Nb   Se   O    H 
    32    48     1     1
Direct
  0.0627995652627275  0.4358265072353364  0.4992412433405388
  0.1862873776119674  0.0628933153603726  0.4988454028435333
  0.0621479194975162  0.2801587537421057  0.4474147112371605
  0.1868642344350546  0.2188611181807949  0.5493389361516546
  0.3123721827915933  0.4352330515382573  0.5001033832426899
  0.4373174900947261  0.0633812286528159  0.4988439068757672
  0.3120821737831247  0.2801468359265942  0.4477315462325929
  0.4371645356774808  0.2188179864741707  0.5495876944294475
  0.5626200545929679  0.4352313825786618  0.4999870981617455
  0.6880980820779741  0.0630232806826215  0.4989069632694248
  0.5624174880822063  0.2801929386084127  0.4478426831267034
  0.6874684931688175  0.2188313376246499  0.5494548830225811
  0.8119311264140914  0.4358420004753228  0.4990258074192150
  0.9374026610164299  0.0625848107257832  0.4988149588421176
  0.8124362930920356  0.2800851434246225  0.4473672881302373
  0.9371646804046314  0.2188744413853155  0.5492616840571830
  0.0628211614541836  0.9360814009259268  0.5004861721456004
  0.1879618210600387  0.5623855659710536  0.5007955019510357
  0.0622761348545052  0.7798228494971334  0.4511334336844422
  0.1922418146214106  0.7193679683650183  0.5552705722993833
  0.3128320593551330  0.9365747753549568  0.5008455114758434
  0.4376843503712274  0.5632138314246997  0.5033602960314639
  0.3113987943205540  0.7801752888351062  0.4541150779345318
  0.4381703578869312  0.7184871852735545  0.5714381217564486
  0.5622804682442125  0.9366039740523682  0.5008594610065513
  0.6873807964838767  0.5624080135092782  0.5004821287036468
  0.5639324121589122  0.7801940831536717  0.4541110940476620
  0.6834476767186117  0.7193809308476586  0.5550983466204152
  0.8120995168604301  0.9361163226152270  0.5005217469059351
  0.9375666347341891  0.5633173747654454  0.4999984428873137
  0.8131551957836287  0.7798119005666535  0.4510269141911468
  0.9376736399025122  0.7192562891861687  0.5526470508395991
  0.0620164033159226  0.0264476882014653  0.4011940740136243
  0.1867501050029086  0.4696335381010788  0.5977325641422713
  0.0620317008475663  0.1244234112470146  0.5923594828435368
  0.1875756540939226  0.3751377406823023  0.4052851992570194
  0.1869908405607739  0.1835973913877713  0.4165912247928827
  0.0620166935476333  0.3153231368435456  0.5802750531099899
  0.3122487108431148  0.0275371986881138  0.4018205736736389
  0.4375564073603713  0.4690705453219239  0.5984960233729697
  0.3117648202730103  0.1246400844748294  0.5923091240281807
  0.4372895365570119  0.3751373212965856  0.4059680403025586
  0.4372490247519223  0.1838575454442820  0.4167087338317621
  0.3119781054999608  0.3150203168224055  0.5806132724421098
  0.5623274849603036  0.0274023304013747  0.4018335523309979
  0.6880937015582026  0.4697294030711442  0.5975402339930979
  0.5624637355069678  0.1246815005960116  0.5924982428964554
  0.6873062218897826  0.3750584336148365  0.4051483272445162
  0.6873368229637348  0.1836105630314830  0.4166855641434158
  0.5623889856666046  0.3149203872332409  0.5808851839631894
  0.8122270579593620  0.0266641998267012  0.4013519010417124
  0.9372315611485070  0.4704778178462638  0.5966423888042925
  0.8124846439229381  0.1243391103912421  0.5923437058335855
  0.9373179615471691  0.3750537393040871  0.4051044616463255
  0.9372347416424873  0.1834493638599436  0.4166080176970319
  0.8123496172501247  0.3153002085885742  0.5800972931419288
  0.0628778371452499  0.5283880478551773  0.4023836666005495
  0.1864617875319865  0.9727132057738984  0.5980335618606306
  0.0626945107699862  0.6239962824056976  0.5935126534281752
  0.1886495198380793  0.8733946778753376  0.4072497943057080
  0.1882420860634369  0.6836792540877646  0.4224091743749948
  0.0632080540650106  0.8156981667824621  0.5833027900405990
  0.3139087037606167  0.5284414449754256  0.4038672435358408
  0.4375699101951571  0.9733153575385927  0.5980775958442596
  0.3088754490964223  0.6191486672878954  0.5963256862742495
  0.4376094903731701  0.8738127738922199  0.4100737026291876
  0.4377255583630161  0.6841228204105371  0.4294290491233292
  0.3109019371609531  0.8203457183107713  0.5831247657539711
  0.5612040505831934  0.5283826231062121  0.4036692262853893
  0.6885343983478101  0.9730032151556680  0.5980784696140200
  0.5671093398403240  0.6190598204744486  0.5961596761755165
  0.6866104433208313  0.8734029631236865  0.4071590249121565
  0.6870762734178167  0.6837966926652355  0.4221995520439384
  0.5648349417396925  0.8204626722315161  0.5831570522447534
  0.8124778088917457  0.5284843125512335  0.4021527418608777
  0.9376612014443294  0.9715249884427458  0.5976134886639999
  0.8127242313678660  0.6238191921791421  0.5933581860555780
  0.9376260082590763  0.8736671876166137  0.4072629302075901
  0.9378679201879766  0.6837721901997937  0.4198350245795470
  0.8121613927508438  0.8158084502807886  0.5832095317444755
  0.4385298286028148  0.7195543758598215  0.6767500167696419
  0.4399598433986052  0.7615294856813198  0.7043660316602715
 
  0.00000000E+00  0.00000000E+00  0.00000000E+00
  0.00000000E+00  0.00000000E+00  0.00000000E+00
  0.00000000E+00  0.00000000E+00  0.00000000E+00
  0.00000000E+00  0.00000000E+00  0.00000000E+00
  0.00000000E+00  0.00000000E+00  0.00000000E+00
  0.00000000E+00  0.00000000E+00  0.00000000E+00
  0.00000000E+00  0.00000000E+00  0.00000000E+00
  0.00000000E+00  0.00000000E+00  0.00000000E+00
  0.00000000E+00  0.00000000E+00  0.00000000E+00
  0.00000000E+00  0.00000000E+00  0.00000000E+00
  0.00000000E+00  0.00000000E+00  0.00000000E+00
  0.00000000E+00  0.00000000E+00  0.00000000E+00
  0.00000000E+00  0.00000000E+00  0.00000000E+00
  0.00000000E+00  0.00000000E+00  0.00000000E+00
  0.00000000E+00  0.00000000E+00  0.00000000E+00
  0.00000000E+00  0.00000000E+00  0.00000000E+00
  0.00000000E+00  0.00000000E+00  0.00000000E+00
  0.00000000E+00  0.00000000E+00  0.00000000E+00
  0.00000000E+00  0.00000000E+00  0.00000000E+00
  0.00000000E+00  0.00000000E+00  0.00000000E+00
  0.00000000E+00  0.00000000E+00  0.00000000E+00
  0.00000000E+00  0.00000000E+00  0.00000000E+00
  0.00000000E+00  0.00000000E+00  0.00000000E+00
  0.00000000E+00  0.00000000E+00  0.00000000E+00
  0.00000000E+00  0.00000000E+00  0.00000000E+00
  0.00000000E+00  0.00000000E+00  0.00000000E+00
  0.00000000E+00  0.00000000E+00  0.00000000E+00
  0.00000000E+00  0.00000000E+00  0.00000000E+00
  0.00000000E+00  0.00000000E+00  0.00000000E+00
  0.00000000E+00  0.00000000E+00  0.00000000E+00
  0.00000000E+00  0.00000000E+00  0.00000000E+00
  0.00000000E+00  0.00000000E+00  0.00000000E+00
  0.00000000E+00  0.00000000E+00  0.00000000E+00
  0.00000000E+00  0.00000000E+00  0.00000000E+00
  0.00000000E+00  0.00000000E+00  0.00000000E+00
  0.00000000E+00  0.00000000E+00  0.00000000E+00
  0.00000000E+00  0.00000000E+00  0.00000000E+00
  0.00000000E+00  0.00000000E+00  0.00000000E+00
  0.00000000E+00  0.00000000E+00  0.00000000E+00
  0.00000000E+00  0.00000000E+00  0.00000000E+00
  0.00000000E+00  0.00000000E+00  0.00000000E+00
  0.00000000E+00  0.00000000E+00  0.00000000E+00
  0.00000000E+00  0.00000000E+00  0.00000000E+00
  0.00000000E+00  0.00000000E+00  0.00000000E+00
  0.00000000E+00  0.00000000E+00  0.00000000E+00
  0.00000000E+00  0.00000000E+00  0.00000000E+00
  0.00000000E+00  0.00000000E+00  0.00000000E+00
  0.00000000E+00  0.00000000E+00  0.00000000E+00
  0.00000000E+00  0.00000000E+00  0.00000000E+00
  0.00000000E+00  0.00000000E+00  0.00000000E+00
  0.00000000E+00  0.00000000E+00  0.00000000E+00
  0.00000000E+00  0.00000000E+00  0.00000000E+00
  0.00000000E+00  0.00000000E+00  0.00000000E+00
  0.00000000E+00  0.00000000E+00  0.00000000E+00
  0.00000000E+00  0.00000000E+00  0.00000000E+00
  0.00000000E+00  0.00000000E+00  0.00000000E+00
  0.00000000E+00  0.00000000E+00  0.00000000E+00
  0.00000000E+00  0.00000000E+00  0.00000000E+00
  0.00000000E+00  0.00000000E+00  0.00000000E+00
  0.00000000E+00  0.00000000E+00  0.00000000E+00
  0.00000000E+00  0.00000000E+00  0.00000000E+00
  0.00000000E+00  0.00000000E+00  0.00000000E+00
  0.00000000E+00  0.00000000E+00  0.00000000E+00
  0.00000000E+00  0.00000000E+00  0.00000000E+00
  0.00000000E+00  0.00000000E+00  0.00000000E+00
  0.00000000E+00  0.00000000E+00  0.00000000E+00
  0.00000000E+00  0.00000000E+00  0.00000000E+00
  0.00000000E+00  0.00000000E+00  0.00000000E+00
  0.00000000E+00  0.00000000E+00  0.00000000E+00
  0.00000000E+00  0.00000000E+00  0.00000000E+00
  0.00000000E+00  0.00000000E+00  0.00000000E+00
  0.00000000E+00  0.00000000E+00  0.00000000E+00
  0.00000000E+00  0.00000000E+00  0.00000000E+00
  0.00000000E+00  0.00000000E+00  0.00000000E+00
  0.00000000E+00  0.00000000E+00  0.00000000E+00
  0.00000000E+00  0.00000000E+00  0.00000000E+00
  0.00000000E+00  0.00000000E+00  0.00000000E+00
  0.00000000E+00  0.00000000E+00  0.00000000E+00
  0.00000000E+00  0.00000000E+00  0.00000000E+00
  0.00000000E+00  0.00000000E+00  0.00000000E+00
  0.00000000E+00  0.00000000E+00  0.00000000E+00
  0.00000000E+00  0.00000000E+00  0.00000000E+00
