 Na2 Hf1 N2                             
   1.00000000000000     
     3.2773786228255535    0.0000000000000000    0.0000000000000000
    -1.6386893114127767    2.8382926178970882    0.0000000000000000
     0.0000000000000000    0.0000000000000000   20.2373514633959992
   Na   Hf   N 
     2     1     2
Direct
  0.6666668835206977  0.3333331973376659  0.3726777470558957
  0.3333331171468430  0.6666668017761097  0.6273222547742989
  0.0000000037979220  0.9999999979982945  0.4999998384431947
  0.6666665945149362  0.3333333984503994  0.5571055265344143
  0.3333334010195941  0.6666666044375305  0.4428946331922035
 
  0.00000000E+00  0.00000000E+00  0.00000000E+00
  0.00000000E+00  0.00000000E+00  0.00000000E+00
  0.00000000E+00  0.00000000E+00  0.00000000E+00
  0.00000000E+00  0.00000000E+00  0.00000000E+00
  0.00000000E+00  0.00000000E+00  0.00000000E+00
