CONTCAR\(4)                             
   1.00000000000000     
    14.3999004363999994    0.0000000000000000    0.0000000000000000
    -3.5999958350000001   11.0732005957999995    0.0000000000000000
     0.0000000000000000    0.0000000000000000   23.2912006377999994
   K    V    O    H 
     8    32    81     1
Direct
  0.1031342288101708  0.4115625225843476  0.4988398310097555
  0.3862770363181800  0.5569822651190941  0.5001616134636117
  0.6419398677788120  0.5692264162870937  0.4991836652095031
  0.9098782557357213  0.5958166740296943  0.5006366312295001
  0.1564324695398144  0.0614523935499695  0.5002684289671734
  0.3267134518760115  0.8456033821947279  0.5080981920039007
  0.6290684141667134  0.0733334563853398  0.5010321100834193
  0.8888936444154270  0.0561588452266766  0.4980411352125765
  0.0518323617451962  0.2092200694559886  0.3571482107284247
  0.0545736820519979  0.2245951792488527  0.6397228996173044
  0.2296915308726890  0.4136060072867467  0.3527280037091834
  0.2331180523862470  0.4378499481154881  0.6456958082158722
  0.3009651103782573  0.2082995317307180  0.3533261555212633
  0.3059579570103338  0.2280925845501019  0.6423284777326774
  0.4771176595111841  0.4132004876524861  0.3555164171310581
  0.4840437780177681  0.4365165888479087  0.6417178544839401
  0.5507034863511457  0.2082419080578429  0.3578720360094929
  0.5582458295379187  0.2304895413880260  0.6419911894271612
  0.7285115790412715  0.4144209461816591  0.3578057624716866
  0.7358180470977492  0.4399738344954696  0.6414897981987209
  0.8009827043968312  0.2065552753094328  0.3573056253368874
  0.8067433659298996  0.2289158017273308  0.6402413094086299
  0.9758865477336831  0.4157551865969356  0.3547621545972396
  0.9837630373430939  0.4415877058294526  0.6434143312226308
  0.0539777965452725  0.7088486913058429  0.3541627429801893
  0.0626173597477186  0.7366213708387298  0.6461503953830001
  0.2289929024372529  0.9146399991573350  0.3528560192575367
  0.2365341596859172  0.9376770593441841  0.6530954250165154
  0.3005766666924817  0.7058362610566814  0.3522554437004009
  0.3064749301956228  0.7321652082296060  0.6756888593530518
  0.4776047295925678  0.9131966455846274  0.3561473541729286
  0.4821346989980260  0.9384360870071243  0.6496971764044560
  0.5505059847347273  0.7069606521595103  0.3568815296942255
  0.5535125691775705  0.7319477043026039  0.6438203268176350
  0.7269237993697256  0.9123669791984423  0.3592293728137929
  0.7327683464140442  0.9342148626817811  0.6382744057091470
  0.8024469167935510  0.7091027689393542  0.3589874208670932
  0.8078779107630462  0.7341527994286530  0.6379452455000678
  0.9793713565393074  0.9133630897641144  0.3586105793455596
  0.9832138064047041  0.9289311200708530  0.6396334793544524
  0.0141976417164125  0.0612797131055857  0.3279611821158516
  0.0515471709967394  0.2089051548334759  0.5701783312027643
  0.0510846697776850  0.1953892669378224  0.4266776188191470
  0.0166440429288887  0.0807388677908961  0.6701070005861424
  0.0945654320368172  0.3843314712530570  0.3389949954728882
  0.0969393756196597  0.3982679634616544  0.6583060754245084
  0.1828986401257206  0.2398600213438509  0.3339471484779148
  0.2412349755443523  0.4318093539924278  0.4215513172367021
  0.1874555104189820  0.2605925383875292  0.6597920544212119
  0.2426758886810609  0.4705104866217603  0.5774926174058402
  0.2650038301076783  0.0608842450074047  0.3218527893908719
  0.2976290531360165  0.2056237784282769  0.5741620830775381
  0.2933169393338158  0.1916562525762318  0.4217191373664709
  0.2697301132394774  0.0885320576336269  0.6797862666221574
  0.3456751786811082  0.3821658286676938  0.3320924436278653
  0.3497667017570467  0.4002528700535686  0.6601280766606936
  0.4345562943539748  0.2384711171631806  0.3364332995027712
  0.4770460396383864  0.4314234136926026  0.4241657532126973
  0.4405372755684537  0.2614611265658592  0.6593431938426740
  0.4887407659510102  0.4556496314043108  0.5729367400068320
  0.5153419947174308  0.0604681505578976  0.3265013860200655
  0.5546973932116148  0.2089954626724884  0.5738817150802137
  0.5445585294547427  0.1907230886979022  0.4261959823796592
  0.5259464092642855  0.0885767813666215  0.6774391388573148
  0.5959205474189330  0.3840802031116843  0.3397145613891792
  0.6015462487945716  0.4062097039762854  0.6592848647250512
  0.6837909641291205  0.2381223954449203  0.3398565144078717
  0.7359672883848666  0.4325626195380566  0.4264445851277090
  0.6923266881625961  0.2649723397635725  0.6602768249241429
  0.7421565068186674  0.4559279265904912  0.5725808186863262
  0.7641444204362514  0.0594448433467244  0.3272769608119009
  0.8022819702096885  0.2129343662084665  0.5713629093047090
  0.7986150930946697  0.1903820353332332  0.4262007747418216
  0.7717641332232037  0.0828617523644149  0.6699340155973248
  0.8437267963629341  0.3808930774180836  0.3350955904222608
  0.8516030652437451  0.4055806698200794  0.6619754050963303
  0.9344157278168758  0.2394735512534449  0.3380473900264839
  0.9752468362668578  0.4355487794942899  0.4234717273601616
  0.9395063421123544  0.2626927086962605  0.6582093392776031
  0.9851910509151365  0.4624459038956454  0.5745926784805080
  0.0140198605764448  0.5612078508886482  0.3228148682350536
  0.0733152370010093  0.7208924343782813  0.5780796841293536
  0.0561629002951926  0.6920149006860328  0.4226958005528465
  0.0237012928746540  0.5837027672250521  0.6758336482738490
  0.0957256045177435  0.8837141603856261  0.3355261278804880
  0.1008827701822996  0.9106456981083455  0.6648449181333937
  0.1853809072531290  0.7404912462029424  0.3315222453468774
  0.2337777533010727  0.9302738299572725  0.4219161422025194
  0.1883244797739563  0.7686711578556870  0.6785701622332134
  0.2439385458034602  0.9477383769478770  0.5839132766670116
  0.2642805240706347  0.5599687202991637  0.3205521367722849
  0.3081865049051996  0.7071185168395459  0.6056090136800607
  0.2935317189589746  0.6862442557123141  0.4212436833968353
  0.2610726123471525  0.5614388300204701  0.6888034281234572
  0.3458471750935529  0.8814011012795351  0.3343372342126694
  0.3542542920767925  0.9146915635025870  0.6753105850635142
  0.4341636478695996  0.7379884749989133  0.3356659221807110
  0.4784414377440834  0.9264306412169311  0.4252974630038215
  0.4508529316322729  0.7724615029037011  0.6756603092528554
  0.4751182859093915  0.9481295786561429  0.5806374700211260
  0.5155480588540853  0.5611348662402316  0.3249567072767289
  0.5362694765130422  0.7142136481340839  0.5753488276494549
  0.5424057671333574  0.6881297283194296  0.4257323115574591
  0.5178891185840592  0.5819193256302486  0.6734928297876979
  0.5947986659829051  0.8818279809893727  0.3382484863076406
  0.6045517500674954  0.9113916719539542  0.6584358673260612
  0.6842824353725701  0.7380622211596398  0.3402185428536556
  0.7288030682362924  0.9310852382415177  0.4279133890876863
  0.6873536786648354  0.7595126503014488  0.6566378165775383
  0.7356400414099573  0.9523210378752355  0.5694109850043740
  0.7655056821447864  0.5620969834964274  0.3275152271877332
  0.8026147698733236  0.7143864995052667  0.5692077142996019
  0.7984954230344939  0.6907520558410849  0.4278565290931315
  0.7700604628174608  0.5860435326157872  0.6710305019603798
  0.8458857109107946  0.8842366141191749  0.3416159910945819
  0.8507454101250590  0.9057619663955795  0.6577375326555862
  0.9346984070763356  0.7389606363063063  0.3392998878375494
  0.9881699826284480  0.9312142390596195  0.4274425183544210
  0.9390944560754739  0.7544884879951271  0.6575406457683159
  0.9925668620891988  0.9470650971282869  0.5708331396345772
  0.3205622943723042  0.7311661949367119  0.7557796341286359
  0.3259202140576446  0.6626626132981777  0.7778756226434724
 
  0.00000000E+00  0.00000000E+00  0.00000000E+00
  0.00000000E+00  0.00000000E+00  0.00000000E+00
  0.00000000E+00  0.00000000E+00  0.00000000E+00
  0.00000000E+00  0.00000000E+00  0.00000000E+00
  0.00000000E+00  0.00000000E+00  0.00000000E+00
  0.00000000E+00  0.00000000E+00  0.00000000E+00
  0.00000000E+00  0.00000000E+00  0.00000000E+00
  0.00000000E+00  0.00000000E+00  0.00000000E+00
  0.00000000E+00  0.00000000E+00  0.00000000E+00
  0.00000000E+00  0.00000000E+00  0.00000000E+00
  0.00000000E+00  0.00000000E+00  0.00000000E+00
  0.00000000E+00  0.00000000E+00  0.00000000E+00
  0.00000000E+00  0.00000000E+00  0.00000000E+00
  0.00000000E+00  0.00000000E+00  0.00000000E+00
  0.00000000E+00  0.00000000E+00  0.00000000E+00
  0.00000000E+00  0.00000000E+00  0.00000000E+00
  0.00000000E+00  0.00000000E+00  0.00000000E+00
  0.00000000E+00  0.00000000E+00  0.00000000E+00
  0.00000000E+00  0.00000000E+00  0.00000000E+00
  0.00000000E+00  0.00000000E+00  0.00000000E+00
  0.00000000E+00  0.00000000E+00  0.00000000E+00
  0.00000000E+00  0.00000000E+00  0.00000000E+00
  0.00000000E+00  0.00000000E+00  0.00000000E+00
  0.00000000E+00  0.00000000E+00  0.00000000E+00
  0.00000000E+00  0.00000000E+00  0.00000000E+00
  0.00000000E+00  0.00000000E+00  0.00000000E+00
  0.00000000E+00  0.00000000E+00  0.00000000E+00
  0.00000000E+00  0.00000000E+00  0.00000000E+00
  0.00000000E+00  0.00000000E+00  0.00000000E+00
  0.00000000E+00  0.00000000E+00  0.00000000E+00
  0.00000000E+00  0.00000000E+00  0.00000000E+00
  0.00000000E+00  0.00000000E+00  0.00000000E+00
  0.00000000E+00  0.00000000E+00  0.00000000E+00
  0.00000000E+00  0.00000000E+00  0.00000000E+00
  0.00000000E+00  0.00000000E+00  0.00000000E+00
  0.00000000E+00  0.00000000E+00  0.00000000E+00
  0.00000000E+00  0.00000000E+00  0.00000000E+00
  0.00000000E+00  0.00000000E+00  0.00000000E+00
  0.00000000E+00  0.00000000E+00  0.00000000E+00
  0.00000000E+00  0.00000000E+00  0.00000000E+00
  0.00000000E+00  0.00000000E+00  0.00000000E+00
  0.00000000E+00  0.00000000E+00  0.00000000E+00
  0.00000000E+00  0.00000000E+00  0.00000000E+00
  0.00000000E+00  0.00000000E+00  0.00000000E+00
  0.00000000E+00  0.00000000E+00  0.00000000E+00
  0.00000000E+00  0.00000000E+00  0.00000000E+00
  0.00000000E+00  0.00000000E+00  0.00000000E+00
  0.00000000E+00  0.00000000E+00  0.00000000E+00
  0.00000000E+00  0.00000000E+00  0.00000000E+00
  0.00000000E+00  0.00000000E+00  0.00000000E+00
  0.00000000E+00  0.00000000E+00  0.00000000E+00
  0.00000000E+00  0.00000000E+00  0.00000000E+00
  0.00000000E+00  0.00000000E+00  0.00000000E+00
  0.00000000E+00  0.00000000E+00  0.00000000E+00
  0.00000000E+00  0.00000000E+00  0.00000000E+00
  0.00000000E+00  0.00000000E+00  0.00000000E+00
  0.00000000E+00  0.00000000E+00  0.00000000E+00
  0.00000000E+00  0.00000000E+00  0.00000000E+00
  0.00000000E+00  0.00000000E+00  0.00000000E+00
  0.00000000E+00  0.00000000E+00  0.00000000E+00
  0.00000000E+00  0.00000000E+00  0.00000000E+00
  0.00000000E+00  0.00000000E+00  0.00000000E+00
  0.00000000E+00  0.00000000E+00  0.00000000E+00
  0.00000000E+00  0.00000000E+00  0.00000000E+00
  0.00000000E+00  0.00000000E+00  0.00000000E+00
  0.00000000E+00  0.00000000E+00  0.00000000E+00
  0.00000000E+00  0.00000000E+00  0.00000000E+00
  0.00000000E+00  0.00000000E+00  0.00000000E+00
  0.00000000E+00  0.00000000E+00  0.00000000E+00
  0.00000000E+00  0.00000000E+00  0.00000000E+00
  0.00000000E+00  0.00000000E+00  0.00000000E+00
  0.00000000E+00  0.00000000E+00  0.00000000E+00
  0.00000000E+00  0.00000000E+00  0.00000000E+00
  0.00000000E+00  0.00000000E+00  0.00000000E+00
  0.00000000E+00  0.00000000E+00  0.00000000E+00
  0.00000000E+00  0.00000000E+00  0.00000000E+00
  0.00000000E+00  0.00000000E+00  0.00000000E+00
  0.00000000E+00  0.00000000E+00  0.00000000E+00
  0.00000000E+00  0.00000000E+00  0.00000000E+00
  0.00000000E+00  0.00000000E+00  0.00000000E+00
  0.00000000E+00  0.00000000E+00  0.00000000E+00
  0.00000000E+00  0.00000000E+00  0.00000000E+00
  0.00000000E+00  0.00000000E+00  0.00000000E+00
  0.00000000E+00  0.00000000E+00  0.00000000E+00
  0.00000000E+00  0.00000000E+00  0.00000000E+00
  0.00000000E+00  0.00000000E+00  0.00000000E+00
  0.00000000E+00  0.00000000E+00  0.00000000E+00
  0.00000000E+00  0.00000000E+00  0.00000000E+00
  0.00000000E+00  0.00000000E+00  0.00000000E+00
  0.00000000E+00  0.00000000E+00  0.00000000E+00
  0.00000000E+00  0.00000000E+00  0.00000000E+00
  0.00000000E+00  0.00000000E+00  0.00000000E+00
  0.00000000E+00  0.00000000E+00  0.00000000E+00
  0.00000000E+00  0.00000000E+00  0.00000000E+00
  0.00000000E+00  0.00000000E+00  0.00000000E+00
  0.00000000E+00  0.00000000E+00  0.00000000E+00
  0.00000000E+00  0.00000000E+00  0.00000000E+00
  0.00000000E+00  0.00000000E+00  0.00000000E+00
  0.00000000E+00  0.00000000E+00  0.00000000E+00
  0.00000000E+00  0.00000000E+00  0.00000000E+00
  0.00000000E+00  0.00000000E+00  0.00000000E+00
  0.00000000E+00  0.00000000E+00  0.00000000E+00
  0.00000000E+00  0.00000000E+00  0.00000000E+00
  0.00000000E+00  0.00000000E+00  0.00000000E+00
  0.00000000E+00  0.00000000E+00  0.00000000E+00
  0.00000000E+00  0.00000000E+00  0.00000000E+00
  0.00000000E+00  0.00000000E+00  0.00000000E+00
  0.00000000E+00  0.00000000E+00  0.00000000E+00
  0.00000000E+00  0.00000000E+00  0.00000000E+00
  0.00000000E+00  0.00000000E+00  0.00000000E+00
  0.00000000E+00  0.00000000E+00  0.00000000E+00
  0.00000000E+00  0.00000000E+00  0.00000000E+00
  0.00000000E+00  0.00000000E+00  0.00000000E+00
  0.00000000E+00  0.00000000E+00  0.00000000E+00
  0.00000000E+00  0.00000000E+00  0.00000000E+00
  0.00000000E+00  0.00000000E+00  0.00000000E+00
  0.00000000E+00  0.00000000E+00  0.00000000E+00
  0.00000000E+00  0.00000000E+00  0.00000000E+00
  0.00000000E+00  0.00000000E+00  0.00000000E+00
  0.00000000E+00  0.00000000E+00  0.00000000E+00
  0.00000000E+00  0.00000000E+00  0.00000000E+00
  0.00000000E+00  0.00000000E+00  0.00000000E+00
