CONTCAR\(2)                             
   1.00000000000000     
    14.3102998734000000    0.0000000000000000    0.0000000000000000
     0.0000000000000000   14.3102998734000000    0.0000000000000000
     0.0000000000000000    0.0000000000000000   17.4472007751000007
   Fe   S    O    H 
    32    32     2     1
Direct
  0.1264097416451294  0.1263536531997345  0.5048436269365771
  0.0016155459031811  0.0015864302514626  0.5047218474524471
  0.3766878641120813  0.1265413542369995  0.5048583077938767
  0.2516215839274795  0.0016226297046962  0.5052457429460835
  0.6268193325551076  0.1263991039024725  0.5047054247916930
  0.5017850875906548  0.0016190033848096  0.5052023527610962
  0.8767199908233432  0.1264308182421863  0.5047114846338637
  0.7518499652776547  0.0016643149625390  0.5048905397908299
  0.1259005542104812  0.3762431563773950  0.5038745172286473
  0.0014207353030441  0.2513344141575499  0.5044514698638414
  0.3767250423393594  0.3751979713686534  0.5019304563986106
  0.2511609383155472  0.2512534580175789  0.5043522900979944
  0.6273183676915707  0.3763337775566421  0.5035951238719035
  0.5020988236688495  0.2513028265897896  0.5039066290593422
  0.8767613738986328  0.3764584446689218  0.5044842284010848
  0.7519228906691814  0.2514002283740700  0.5044812126121845
  0.1261255305282154  0.6268800391887673  0.5034044000604607
  0.0015493247456505  0.5017083658039972  0.5033925782651827
  0.3767600924460412  0.6279406945342129  0.5027044755225040
  0.2502032600761019  0.5015646909210077  0.5026386354252641
  0.6273269346816733  0.6270181271456782  0.5038504185343874
  0.5031766127353116  0.5014830436284181  0.5024740389886356
  0.8767284039519539  0.6268100655620151  0.5040729146226336
  0.7519136250872055  0.5016697256323671  0.5037274885269372
  0.1264781143259121  0.8767611187045897  0.5045937762992676
  0.0015230985184607  0.7517897002663269  0.5040497092786044
  0.3767041187413220  0.8766953593671249  0.5046973221847696
  0.2514479653669616  0.7520045176036227  0.5040577562173296
  0.6269187254793346  0.8769002086727491  0.5047757724892049
  0.5021772216540107  0.7521528579439903  0.5042251025691692
  0.8767557431190979  0.8767795936883485  0.5045677358767449
  0.7519537100012096  0.7518606928137199  0.5043339184569384
  0.0015761537330050  0.1263258051202504  0.4343340962730654
  0.1263815889322016  0.0014547439931831  0.5751945625161392
  0.2514851646443800  0.1259791855656824  0.4346854632155876
  0.3767378268173642  0.0015480706224640  0.5752823476440573
  0.5017769601541106  0.1258256287034845  0.4344609820627933
  0.6269680380952483  0.0016750900191568  0.5752515494407272
  0.7518161157585671  0.1263396237806752  0.4343988873147747
  0.8768143591503978  0.0015437698246607  0.5750711907312617
  0.0009908472791028  0.3760739957868495  0.4337305048057197
  0.1261927966469092  0.2515672071749538  0.5747446847938184
  0.2497161864713048  0.3748386322128719  0.4333134291964336
  0.3768446895050014  0.2520047800640424  0.5741474616177163
  0.5034784909802457  0.3749995692864238  0.4329024960280760
  0.6269229977158526  0.2516640162445469  0.5744785350127076
  0.7525306677031532  0.3761423215105292  0.4338193919234302
  0.8767295922970911  0.2515241231419862  0.5748877758594082
  0.0010918310360776  0.6270306999078736  0.4333642299624918
  0.1261127398670615  0.5017439229390404  0.5737053169770615
  0.2503865546349971  0.6281918697187986  0.4332363553688819
  0.3767883551694492  0.5012276874382612  0.5644861418649556
  0.5033466889092156  0.6283889311656612  0.4334376128664966
  0.6271155112704502  0.5015821352334568  0.5737992254480802
  0.7522202609213079  0.6270454829184763  0.4336934162512417
  0.8768582792062500  0.5018085878524229  0.5741202299608883
  0.0015748722134142  0.8769574324015230  0.4341263663971413
  0.1263355726514870  0.7514568174972296  0.5742992701772948
  0.2515619024890416  0.8773480662623213  0.4344735634898137
  0.3767523498945414  0.7515450914258242  0.5742645764707581
  0.5018736225064397  0.8773307492434239  0.4344771217413625
  0.6271917207852559  0.7517449701168218  0.5746123660195801
  0.7517779216183609  0.8770098945499099  0.4343740406206968
  0.8768877152713647  0.7515945139474659  0.5745863317061241
  0.3829060197010125  0.4987368724050660  0.6666983891025208
  0.3056947865747909  0.4455274541112147  0.6976290978759805
  0.3305904600058071  0.3813317893409714  0.6955221393048094
 
  0.00000000E+00  0.00000000E+00  0.00000000E+00
  0.00000000E+00  0.00000000E+00  0.00000000E+00
  0.00000000E+00  0.00000000E+00  0.00000000E+00
  0.00000000E+00  0.00000000E+00  0.00000000E+00
  0.00000000E+00  0.00000000E+00  0.00000000E+00
  0.00000000E+00  0.00000000E+00  0.00000000E+00
  0.00000000E+00  0.00000000E+00  0.00000000E+00
  0.00000000E+00  0.00000000E+00  0.00000000E+00
  0.00000000E+00  0.00000000E+00  0.00000000E+00
  0.00000000E+00  0.00000000E+00  0.00000000E+00
  0.00000000E+00  0.00000000E+00  0.00000000E+00
  0.00000000E+00  0.00000000E+00  0.00000000E+00
  0.00000000E+00  0.00000000E+00  0.00000000E+00
  0.00000000E+00  0.00000000E+00  0.00000000E+00
  0.00000000E+00  0.00000000E+00  0.00000000E+00
  0.00000000E+00  0.00000000E+00  0.00000000E+00
  0.00000000E+00  0.00000000E+00  0.00000000E+00
  0.00000000E+00  0.00000000E+00  0.00000000E+00
  0.00000000E+00  0.00000000E+00  0.00000000E+00
  0.00000000E+00  0.00000000E+00  0.00000000E+00
  0.00000000E+00  0.00000000E+00  0.00000000E+00
  0.00000000E+00  0.00000000E+00  0.00000000E+00
  0.00000000E+00  0.00000000E+00  0.00000000E+00
  0.00000000E+00  0.00000000E+00  0.00000000E+00
  0.00000000E+00  0.00000000E+00  0.00000000E+00
  0.00000000E+00  0.00000000E+00  0.00000000E+00
  0.00000000E+00  0.00000000E+00  0.00000000E+00
  0.00000000E+00  0.00000000E+00  0.00000000E+00
  0.00000000E+00  0.00000000E+00  0.00000000E+00
  0.00000000E+00  0.00000000E+00  0.00000000E+00
  0.00000000E+00  0.00000000E+00  0.00000000E+00
  0.00000000E+00  0.00000000E+00  0.00000000E+00
  0.00000000E+00  0.00000000E+00  0.00000000E+00
  0.00000000E+00  0.00000000E+00  0.00000000E+00
  0.00000000E+00  0.00000000E+00  0.00000000E+00
  0.00000000E+00  0.00000000E+00  0.00000000E+00
  0.00000000E+00  0.00000000E+00  0.00000000E+00
  0.00000000E+00  0.00000000E+00  0.00000000E+00
  0.00000000E+00  0.00000000E+00  0.00000000E+00
  0.00000000E+00  0.00000000E+00  0.00000000E+00
  0.00000000E+00  0.00000000E+00  0.00000000E+00
  0.00000000E+00  0.00000000E+00  0.00000000E+00
  0.00000000E+00  0.00000000E+00  0.00000000E+00
  0.00000000E+00  0.00000000E+00  0.00000000E+00
  0.00000000E+00  0.00000000E+00  0.00000000E+00
  0.00000000E+00  0.00000000E+00  0.00000000E+00
  0.00000000E+00  0.00000000E+00  0.00000000E+00
  0.00000000E+00  0.00000000E+00  0.00000000E+00
  0.00000000E+00  0.00000000E+00  0.00000000E+00
  0.00000000E+00  0.00000000E+00  0.00000000E+00
  0.00000000E+00  0.00000000E+00  0.00000000E+00
  0.00000000E+00  0.00000000E+00  0.00000000E+00
  0.00000000E+00  0.00000000E+00  0.00000000E+00
  0.00000000E+00  0.00000000E+00  0.00000000E+00
  0.00000000E+00  0.00000000E+00  0.00000000E+00
  0.00000000E+00  0.00000000E+00  0.00000000E+00
  0.00000000E+00  0.00000000E+00  0.00000000E+00
  0.00000000E+00  0.00000000E+00  0.00000000E+00
  0.00000000E+00  0.00000000E+00  0.00000000E+00
  0.00000000E+00  0.00000000E+00  0.00000000E+00
  0.00000000E+00  0.00000000E+00  0.00000000E+00
  0.00000000E+00  0.00000000E+00  0.00000000E+00
  0.00000000E+00  0.00000000E+00  0.00000000E+00
  0.00000000E+00  0.00000000E+00  0.00000000E+00
  0.00000000E+00  0.00000000E+00  0.00000000E+00
  0.00000000E+00  0.00000000E+00  0.00000000E+00
  0.00000000E+00  0.00000000E+00  0.00000000E+00
