CONTCAR\(3)                             
   1.00000000000000     
    13.4954004288000000    0.0000000000000000    0.0000000000000000
    -3.3738461598999998   19.0216094057000014    0.0000000000000000
     0.0000000000000000    0.0000000000000000   18.9101009369000010
   Ta   Pd   Se   O    H 
    16     8    48     1     1
Direct
  0.0934697293454505  0.3478452015739038  0.5284213035107044
  0.1665311066399866  0.1462103195375306  0.4761645654861937
  0.3416405374672991  0.3482478112613379  0.5279213905499844
  0.4179237282862189  0.1478392297116926  0.4771898897738680
  0.5937172596524647  0.3523936962980017  0.5255775647605319
  0.6671318847906065  0.1489392045165090  0.4768717368828845
  0.8433235426391192  0.3521493627109251  0.5256865865351017
  0.9165462073228241  0.1476190018112078  0.4776165902575187
  0.0915633999122818  0.8523690701459046  0.5238511251856011
  0.1573708232343733  0.6499849605326347  0.4773813113201442
  0.3414962080215673  0.8519613118523708  0.5229707349198378
  0.4247655196587914  0.6503860395691703  0.4781187837971572
  0.5919833783189219  0.8528678909652783  0.5238671537087995
  0.6669559299304169  0.6492376288849968  0.4754587295947061
  0.8417512781606931  0.8530664180287673  0.5232994486330966
  0.9136885173899287  0.6489186118161996  0.4758264647793666
  0.0045990156046614  0.0005014706624706  0.4996033443387304
  0.2547077252480463  0.9982594836724132  0.5001053423225699
  0.5052232645488957  0.0015201077560008  0.4986855339982270
  0.7525759796254405  0.9995478564939049  0.5010609183092498
  0.0078406280621834  0.5039936148850117  0.5000602398207832
  0.2496035874656144  0.4842418465340614  0.5124995865225799
  0.5034365379286925  0.5050693553475583  0.4991245409487419
  0.7538063014617293  0.4986409253779414  0.5019997005892307
  0.2321212767045608  0.4057251205284089  0.6167785203281611
  0.0233355475094683  0.0797365941795576  0.3957618575506388
  0.0654033727192385  0.2421375532345635  0.4291499786820197
  0.2264811570668925  0.3852130710768051  0.4302551535893357
  0.0321565184201233  0.1064198729596342  0.5745554618700126
  0.1933959267370469  0.2506757990558199  0.5742963670217733
  0.4856289186870555  0.4254634512098008  0.6017314832980603
  0.2757066844567149  0.0778631929223437  0.3970140848894346
  0.3162474284289303  0.2419541224113431  0.4286748183563489
  0.4769166855954268  0.3953205578245331  0.4294400053080096
  0.2820812940541302  0.1047555817590791  0.5740449690791820
  0.4459278045219435  0.2565621505337745  0.5759033360051760
  0.7352931641443234  0.4194423489968813  0.6067178052639264
  0.5257713998179199  0.0816357280718663  0.3953802378249378
  0.5657021051647391  0.2440382672663617  0.4287262390677355
  0.7281573936400179  0.3917431165757392  0.4277255032377596
  0.5328128087372903  0.1070978490396612  0.5744186961974336
  0.6945426475634946  0.2570248461019133  0.5740042886625929
  0.9876598360122983  0.4242810540613888  0.6027714123513377
  0.7741239778650169  0.0788694322317411  0.3977827446239388
  0.8169690769621809  0.2433469531566033  0.4285923700475109
  0.9812006241819375  0.3947055390814640  0.4297850677924373
  0.7813576631871229  0.1062172642248456  0.5749111991737550
  0.9425302700225160  0.2562705428509773  0.5760714102459872
  0.2343397648654246  0.9196507504320550  0.6042423022147148
  0.0232809474616431  0.5822527038025100  0.3940971751254807
  0.0620282664699161  0.7447137692551848  0.4262478764479880
  0.2263122850678201  0.8916918428903742  0.4255345472567100
  0.0280537387583450  0.6101852112255486  0.5756768780325601
  0.1923647988594723  0.7575833399545786  0.5732212143442510
  0.4835842313980692  0.9226584337991568  0.6021374025804604
  0.2710768094918237  0.5695731952565382  0.4136617732529402
  0.3133935745330945  0.7392032960853854  0.4279647932430990
  0.4768735477333266  0.8940062101962312  0.4255362383254209
  0.2776963123104892  0.5995529108390301  0.5658085965643735
  0.4436092960513776  0.7585753748978448  0.5737048449525872
  0.7338052779289370  0.9202106091801667  0.6048917405588554
  0.5240889780514522  0.5835992399280130  0.3932692854613791
  0.5667505601353398  0.7453175170167370  0.4264424215570912
  0.7264880452150706  0.8935607549965070  0.4257596759274520
  0.5343351925140780  0.6108029316354191  0.5757363595133640
  0.6940894386237844  0.7581873730693260  0.5721194687660756
  0.9843441130555917  0.9218157927024464  0.6033783959249561
  0.7722367949926863  0.5767718264465032  0.3978539754510351
  0.8144677760617896  0.7432082348817914  0.4258841147106196
  0.9771943689246783  0.8940486523055995  0.4256009071581417
  0.7796586222860427  0.6068440403011550  0.5739348613882527
  0.9416056451247030  0.7581996250875775  0.5723403096719863
  0.2833524067069746  0.6206981146930772  0.6610408361966833
  0.2171339014614375  0.6321996118203757  0.6726787483604681
 
  0.00000000E+00  0.00000000E+00  0.00000000E+00
  0.00000000E+00  0.00000000E+00  0.00000000E+00
  0.00000000E+00  0.00000000E+00  0.00000000E+00
  0.00000000E+00  0.00000000E+00  0.00000000E+00
  0.00000000E+00  0.00000000E+00  0.00000000E+00
  0.00000000E+00  0.00000000E+00  0.00000000E+00
  0.00000000E+00  0.00000000E+00  0.00000000E+00
  0.00000000E+00  0.00000000E+00  0.00000000E+00
  0.00000000E+00  0.00000000E+00  0.00000000E+00
  0.00000000E+00  0.00000000E+00  0.00000000E+00
  0.00000000E+00  0.00000000E+00  0.00000000E+00
  0.00000000E+00  0.00000000E+00  0.00000000E+00
  0.00000000E+00  0.00000000E+00  0.00000000E+00
  0.00000000E+00  0.00000000E+00  0.00000000E+00
  0.00000000E+00  0.00000000E+00  0.00000000E+00
  0.00000000E+00  0.00000000E+00  0.00000000E+00
  0.00000000E+00  0.00000000E+00  0.00000000E+00
  0.00000000E+00  0.00000000E+00  0.00000000E+00
  0.00000000E+00  0.00000000E+00  0.00000000E+00
  0.00000000E+00  0.00000000E+00  0.00000000E+00
  0.00000000E+00  0.00000000E+00  0.00000000E+00
  0.00000000E+00  0.00000000E+00  0.00000000E+00
  0.00000000E+00  0.00000000E+00  0.00000000E+00
  0.00000000E+00  0.00000000E+00  0.00000000E+00
  0.00000000E+00  0.00000000E+00  0.00000000E+00
  0.00000000E+00  0.00000000E+00  0.00000000E+00
  0.00000000E+00  0.00000000E+00  0.00000000E+00
  0.00000000E+00  0.00000000E+00  0.00000000E+00
  0.00000000E+00  0.00000000E+00  0.00000000E+00
  0.00000000E+00  0.00000000E+00  0.00000000E+00
  0.00000000E+00  0.00000000E+00  0.00000000E+00
  0.00000000E+00  0.00000000E+00  0.00000000E+00
  0.00000000E+00  0.00000000E+00  0.00000000E+00
  0.00000000E+00  0.00000000E+00  0.00000000E+00
  0.00000000E+00  0.00000000E+00  0.00000000E+00
  0.00000000E+00  0.00000000E+00  0.00000000E+00
  0.00000000E+00  0.00000000E+00  0.00000000E+00
  0.00000000E+00  0.00000000E+00  0.00000000E+00
  0.00000000E+00  0.00000000E+00  0.00000000E+00
  0.00000000E+00  0.00000000E+00  0.00000000E+00
  0.00000000E+00  0.00000000E+00  0.00000000E+00
  0.00000000E+00  0.00000000E+00  0.00000000E+00
  0.00000000E+00  0.00000000E+00  0.00000000E+00
  0.00000000E+00  0.00000000E+00  0.00000000E+00
  0.00000000E+00  0.00000000E+00  0.00000000E+00
  0.00000000E+00  0.00000000E+00  0.00000000E+00
  0.00000000E+00  0.00000000E+00  0.00000000E+00
  0.00000000E+00  0.00000000E+00  0.00000000E+00
  0.00000000E+00  0.00000000E+00  0.00000000E+00
  0.00000000E+00  0.00000000E+00  0.00000000E+00
  0.00000000E+00  0.00000000E+00  0.00000000E+00
  0.00000000E+00  0.00000000E+00  0.00000000E+00
  0.00000000E+00  0.00000000E+00  0.00000000E+00
  0.00000000E+00  0.00000000E+00  0.00000000E+00
  0.00000000E+00  0.00000000E+00  0.00000000E+00
  0.00000000E+00  0.00000000E+00  0.00000000E+00
  0.00000000E+00  0.00000000E+00  0.00000000E+00
  0.00000000E+00  0.00000000E+00  0.00000000E+00
  0.00000000E+00  0.00000000E+00  0.00000000E+00
  0.00000000E+00  0.00000000E+00  0.00000000E+00
  0.00000000E+00  0.00000000E+00  0.00000000E+00
  0.00000000E+00  0.00000000E+00  0.00000000E+00
  0.00000000E+00  0.00000000E+00  0.00000000E+00
  0.00000000E+00  0.00000000E+00  0.00000000E+00
  0.00000000E+00  0.00000000E+00  0.00000000E+00
  0.00000000E+00  0.00000000E+00  0.00000000E+00
  0.00000000E+00  0.00000000E+00  0.00000000E+00
  0.00000000E+00  0.00000000E+00  0.00000000E+00
  0.00000000E+00  0.00000000E+00  0.00000000E+00
  0.00000000E+00  0.00000000E+00  0.00000000E+00
  0.00000000E+00  0.00000000E+00  0.00000000E+00
  0.00000000E+00  0.00000000E+00  0.00000000E+00
  0.00000000E+00  0.00000000E+00  0.00000000E+00
  0.00000000E+00  0.00000000E+00  0.00000000E+00
