CONTCAR                                 
   1.00000000000000     
    13.0951995849999996    0.0000000000000000    0.0000000000000000
     0.0000000000000000   17.1203994751000010    0.0000000000000000
     0.0000000000000000    0.0000000000000000   20.8015995025999985
   La   I    O 
    12    30     1
Direct
  0.2499836063616353  0.1130373957420042  0.5118430030332891
  0.0848475985201980  0.8404332725734797  0.4625863139326202
  0.2501728001364215  0.6122980967462643  0.6165422198088930
  0.0869807439635621  0.3433561223678577  0.4756186467504346
  0.5848121618567408  0.1078490472393405  0.5084378325533713
  0.4151899486925296  0.8403255815185028  0.4625487561876385
  0.5831519467762848  0.5985980559565964  0.5401564975304664
  0.4129246178878746  0.3433311373061532  0.4757375599714959
  0.9151641065385290  0.1078490875796645  0.5084350540425204
  0.7500475023796327  0.8331999561083450  0.4733944232420769
  0.9169235060302616  0.5986341988395854  0.5399673903381572
  0.7499269169257731  0.3352592862117320  0.4659833125090282
  0.2500192782090485  0.3630852482552454  0.3640992242352853
  0.0286168994550031  0.5706088903761498  0.6701337789084030
  0.2500021558656048  0.9671223344408493  0.4035716547270513
  0.0817213710770358  0.9878673549421758  0.5696523009089878
  0.0996724494944173  0.5404827340410262  0.4570741475769129
  0.2498853259871951  0.3996830807502508  0.5833158114844451
  0.0776885939696675  0.2107203330444152  0.5929580718059053
  0.2499966664491375  0.7404920245099815  0.3824427569335019
  0.0832495213513476  0.1663517538528598  0.4055997401521901
  0.2500025146303659  0.8009724136697942  0.5695646626491766
  0.5768673130556438  0.3625511421929826  0.3623880191434851
  0.4715844682854752  0.5704601228070701  0.6703772593059276
  0.5874316202616907  0.9564413019397382  0.4029206368815835
  0.4182609999472129  0.9878916366055764  0.5695738786124923
  0.4002150379238125  0.5405244440389279  0.4574713482872440
  0.5917873941050412  0.4054428738486750  0.5700934629254021
  0.4222591855272943  0.2106802589426248  0.5930124184855490
  0.5829937947782901  0.7211093032600906  0.4003145667248589
  0.4167138592462584  0.1663948577649996  0.4056645727797259
  0.5706846168502271  0.7865718759395892  0.5793272316770620
  0.9229137746922851  0.3625947332937295  0.3623178687469156
  0.7501368429940395  0.6062535525040524  0.6464333976506527
  0.9124259889796442  0.9564812717280869  0.4029360516775544
  0.7499929829236364  0.9836542869404253  0.5733866825197200
  0.7499077963471158  0.5327621623820742  0.4396360988621257
  0.9082215330063989  0.4054954074193354  0.5699394362670717
  0.7500059972271060  0.2099199217760991  0.5889672428548103
  0.9172451350486081  0.7212621460525409  0.4002271230480442
  0.7499920463914191  0.1608808358950771  0.4001412869957565
  0.9293901411992731  0.7865434308038508  0.5792964593496400
  0.2501091306512484  0.6828767737922040  0.6851019699225234
 
  0.00000000E+00  0.00000000E+00  0.00000000E+00
  0.00000000E+00  0.00000000E+00  0.00000000E+00
  0.00000000E+00  0.00000000E+00  0.00000000E+00
  0.00000000E+00  0.00000000E+00  0.00000000E+00
  0.00000000E+00  0.00000000E+00  0.00000000E+00
  0.00000000E+00  0.00000000E+00  0.00000000E+00
  0.00000000E+00  0.00000000E+00  0.00000000E+00
  0.00000000E+00  0.00000000E+00  0.00000000E+00
  0.00000000E+00  0.00000000E+00  0.00000000E+00
  0.00000000E+00  0.00000000E+00  0.00000000E+00
  0.00000000E+00  0.00000000E+00  0.00000000E+00
  0.00000000E+00  0.00000000E+00  0.00000000E+00
  0.00000000E+00  0.00000000E+00  0.00000000E+00
  0.00000000E+00  0.00000000E+00  0.00000000E+00
  0.00000000E+00  0.00000000E+00  0.00000000E+00
  0.00000000E+00  0.00000000E+00  0.00000000E+00
  0.00000000E+00  0.00000000E+00  0.00000000E+00
  0.00000000E+00  0.00000000E+00  0.00000000E+00
  0.00000000E+00  0.00000000E+00  0.00000000E+00
  0.00000000E+00  0.00000000E+00  0.00000000E+00
  0.00000000E+00  0.00000000E+00  0.00000000E+00
  0.00000000E+00  0.00000000E+00  0.00000000E+00
  0.00000000E+00  0.00000000E+00  0.00000000E+00
  0.00000000E+00  0.00000000E+00  0.00000000E+00
  0.00000000E+00  0.00000000E+00  0.00000000E+00
  0.00000000E+00  0.00000000E+00  0.00000000E+00
  0.00000000E+00  0.00000000E+00  0.00000000E+00
  0.00000000E+00  0.00000000E+00  0.00000000E+00
  0.00000000E+00  0.00000000E+00  0.00000000E+00
  0.00000000E+00  0.00000000E+00  0.00000000E+00
  0.00000000E+00  0.00000000E+00  0.00000000E+00
  0.00000000E+00  0.00000000E+00  0.00000000E+00
  0.00000000E+00  0.00000000E+00  0.00000000E+00
  0.00000000E+00  0.00000000E+00  0.00000000E+00
  0.00000000E+00  0.00000000E+00  0.00000000E+00
  0.00000000E+00  0.00000000E+00  0.00000000E+00
  0.00000000E+00  0.00000000E+00  0.00000000E+00
  0.00000000E+00  0.00000000E+00  0.00000000E+00
  0.00000000E+00  0.00000000E+00  0.00000000E+00
  0.00000000E+00  0.00000000E+00  0.00000000E+00
  0.00000000E+00  0.00000000E+00  0.00000000E+00
  0.00000000E+00  0.00000000E+00  0.00000000E+00
  0.00000000E+00  0.00000000E+00  0.00000000E+00
