 Nb2 Te10 Pd2                           
   1.00000000000000     
     3.7204445545208187    0.0000000000000000    0.0000000000000000
     0.0000000000000000   15.5193514607905723    0.0000000000000000
     0.0000000000000000    0.0000000000000000   19.4729168701800006
   Nb   Te   Pd
     2    10     2
Direct
  0.4999999993546772  0.8420364586975955  0.4966032902944775
  0.5000000006426403  0.3420364619272653  0.5033967036071019
 -0.0000000002825860  0.9395536695479819  0.5766454484643140
 -0.0000000005202432  0.4395536581419163  0.4233545197893281
  0.4999999978629256  0.0098558557903889  0.4297227187198779
  0.5000000017110708  0.5098558290858262  0.5702772970522725
  0.0000000003980620  0.3473765562511071  0.6152285649363104
 -0.0000000000932601  0.8473765510277357  0.3847714564443114
  0.0000000005909314  0.7386687919168247  0.5712097523137886
  0.0000000000068586  0.2386687953597388  0.4287902301112141
  0.5000000006534087  0.6796673709415718  0.4196534339318464
  0.4999999997912381  0.1796674079536873  0.5803465708754028
  0.0000000031222746  0.5925112739003602  0.4935482607071296
 -0.0000000032379973  0.0925113194580160  0.5064517527526220
 
  0.00000000E+00  0.00000000E+00  0.00000000E+00
  0.00000000E+00  0.00000000E+00  0.00000000E+00
  0.00000000E+00  0.00000000E+00  0.00000000E+00
  0.00000000E+00  0.00000000E+00  0.00000000E+00
  0.00000000E+00  0.00000000E+00  0.00000000E+00
  0.00000000E+00  0.00000000E+00  0.00000000E+00
  0.00000000E+00  0.00000000E+00  0.00000000E+00
  0.00000000E+00  0.00000000E+00  0.00000000E+00
  0.00000000E+00  0.00000000E+00  0.00000000E+00
  0.00000000E+00  0.00000000E+00  0.00000000E+00
  0.00000000E+00  0.00000000E+00  0.00000000E+00
  0.00000000E+00  0.00000000E+00  0.00000000E+00
  0.00000000E+00  0.00000000E+00  0.00000000E+00
  0.00000000E+00  0.00000000E+00  0.00000000E+00
