CONTCAR\(2)                             
   1.00000000000000     
    11.3158998488999991    0.0000000000000000    0.0000000000000000
     0.0000000000000000   12.4995002747000008    0.0000000000000000
     0.0000000000000000    0.0000000000000000   18.9974002838000011
   Ta   Te   Ir   O 
     6    24     6     1
Direct
  0.0009719675355170  0.0475160013544148  0.5027712922267852
  0.1656079175246023  0.7263369351248911  0.4968973664218587
  0.3371958050084358  0.0487887900037463  0.5021907653540435
  0.5011061189228118  0.7308543545454917  0.4943116287299442
  0.6718661506848874  0.0506409895064397  0.5027818774480742
  0.8327411383815932  0.7253637403551757  0.4961341073103192
  0.1680001895309154  0.1014743792897330  0.6036456010397413
  0.9997293021089556  0.8444342211282487  0.5792428721242655
  0.0000083700281982  0.6699295713472749  0.3954301810235542
  0.1668465880383943  0.4315947695555078  0.4308182163665037
  0.1682344659702942  0.9311831784569462  0.4203342993513314
  0.0040407833666548  0.1882686999486253  0.3950319670618143
  0.9947558390919728  0.3383729046865757  0.5695144422451583
  0.1634775321848931  0.5831392874096465  0.6018244872728954
  0.5024660499531280  0.0997912458439250  0.6045881070894957
  0.3333965606744780  0.8438092886253564  0.5788629517843834
  0.3324530733342502  0.6725688056827618  0.3951838704038066
  0.4999315709869507  0.4352144380230145  0.4334263274746827
  0.5016916630086310  0.9345452334627381  0.4182473791987519
  0.3348994597248967  0.1953521096729511  0.3996778484577710
  0.3328632631796950  0.3431786881721101  0.5732791759481790
  0.4955662242467145  0.5969362361998732  0.6030888560006525
  0.8337768740809295  0.1032771074906173  0.6056641532089470
  0.6682173447376005  0.8454026146340975  0.5785605578127420
  0.6689611322407927  0.6709373856246913  0.3940940350122995
  0.8277377433556498  0.4267874814257188  0.4338337253001979
  0.8335370299200801  0.9285350770846404  0.4202614301831474
  0.6654848984225217  0.1959198554000689  0.3993044468918637
  0.6435976970897298  0.3564041633704608  0.5858808237845666
  0.8332458741003922  0.5852122745577759  0.6026721314859090
  0.9977231889532804  0.5313657287624091  0.5042888281745143
  0.1651553982996860  0.2400348006411358  0.4952165346551511
  0.3313451912522015  0.5354523680183244  0.5055231938199004
  0.5017456873364651  0.2441085791115382  0.4989338491552185
  0.6633168078934906  0.5377579637068890  0.5074538754390537
  0.8376387881142341  0.2297092471645045  0.4923002588026148
  0.5209861197160442  0.3987113176117055  0.6497885379399095
 
  0.00000000E+00  0.00000000E+00  0.00000000E+00
  0.00000000E+00  0.00000000E+00  0.00000000E+00
  0.00000000E+00  0.00000000E+00  0.00000000E+00
  0.00000000E+00  0.00000000E+00  0.00000000E+00
  0.00000000E+00  0.00000000E+00  0.00000000E+00
  0.00000000E+00  0.00000000E+00  0.00000000E+00
  0.00000000E+00  0.00000000E+00  0.00000000E+00
  0.00000000E+00  0.00000000E+00  0.00000000E+00
  0.00000000E+00  0.00000000E+00  0.00000000E+00
  0.00000000E+00  0.00000000E+00  0.00000000E+00
  0.00000000E+00  0.00000000E+00  0.00000000E+00
  0.00000000E+00  0.00000000E+00  0.00000000E+00
  0.00000000E+00  0.00000000E+00  0.00000000E+00
  0.00000000E+00  0.00000000E+00  0.00000000E+00
  0.00000000E+00  0.00000000E+00  0.00000000E+00
  0.00000000E+00  0.00000000E+00  0.00000000E+00
  0.00000000E+00  0.00000000E+00  0.00000000E+00
  0.00000000E+00  0.00000000E+00  0.00000000E+00
  0.00000000E+00  0.00000000E+00  0.00000000E+00
  0.00000000E+00  0.00000000E+00  0.00000000E+00
  0.00000000E+00  0.00000000E+00  0.00000000E+00
  0.00000000E+00  0.00000000E+00  0.00000000E+00
  0.00000000E+00  0.00000000E+00  0.00000000E+00
  0.00000000E+00  0.00000000E+00  0.00000000E+00
  0.00000000E+00  0.00000000E+00  0.00000000E+00
  0.00000000E+00  0.00000000E+00  0.00000000E+00
  0.00000000E+00  0.00000000E+00  0.00000000E+00
  0.00000000E+00  0.00000000E+00  0.00000000E+00
  0.00000000E+00  0.00000000E+00  0.00000000E+00
  0.00000000E+00  0.00000000E+00  0.00000000E+00
  0.00000000E+00  0.00000000E+00  0.00000000E+00
  0.00000000E+00  0.00000000E+00  0.00000000E+00
  0.00000000E+00  0.00000000E+00  0.00000000E+00
  0.00000000E+00  0.00000000E+00  0.00000000E+00
  0.00000000E+00  0.00000000E+00  0.00000000E+00
  0.00000000E+00  0.00000000E+00  0.00000000E+00
  0.00000000E+00  0.00000000E+00  0.00000000E+00
