CONTCAR\(6)                             
   1.00000000000000     
    13.3114004134999995    0.0000000000000000    0.0000000000000000
     0.0000000000000000   13.2841997146999997    0.0000000000000000
     0.0000000000000000    0.0000000000000000   29.9494991301999995
   Bi   I    O    H 
    54    12     2     1
Direct
  0.2511041285059563  0.6564931692248888  0.6533888669880198
  0.0812202837614153  0.3436464293100986  0.3466613411228043
  0.2489296915315233  0.3000563379109324  0.4144978641610731
  0.0852496567152478  0.7002651267427846  0.5848906437990535
  0.2479527577729032  0.0779402208283514  0.3860332730395525
  0.0820930314585346  0.9229647106310297  0.6123263639430923
  0.2461810154871523  0.9779459437956147  0.5455535003069227
  0.0796227970948771  0.0248905816169950  0.4517816187114946
  0.2490822236056214  0.2003993506425195  0.5745004976582289
  0.0825983934832973  0.8014186709384838  0.4239250731695927
  0.2492221304703139  0.7515899452051129  0.4907600549405398
  0.0837483841482389  0.2503958950230221  0.5074692997300938
  0.2492446078239342  0.5265180730847895  0.4660593301320599
  0.0835798051739621  0.4754690625388126  0.5328318767222969
  0.0813733358438187  0.5671802095983001  0.3705041939249767
  0.2508410349608511  0.4330438724143968  0.6289125000593017
  0.0843290245175697  0.3822255020368867  0.6973056332142545
  0.2498405205093757  0.6169301807411827  0.3029385412058193
  0.5850444294317367  0.6578990532373467  0.6526310270977732
  0.4179637548780771  0.3433826322213401  0.3471188487367806
  0.5826203174810768  0.3003084289179177  0.4163261291366050
  0.4162210108446631  0.7029839698250917  0.5851395638775666
  0.5829263221244541  0.0798582218555404  0.3859379219476700
  0.4091928004656973  0.9253231656512799  0.6129738457835736
  0.5819185961386415  0.9750232245768792  0.5503284808541822
  0.4156694477932253  0.0253453926595531  0.4514032629147580
  0.5822215165410822  0.2047590506500700  0.5767809727930171
  0.4174571083859220  0.8014741150640167  0.4245845166777730
  0.5829294414701479  0.7544668167938341  0.4925108413425658
  0.4172009518789898  0.2504999364845433  0.5082550694844954
  0.5818650312945203  0.5281622058392821  0.4672978762915590
  0.4145305207096281  0.4764617332174639  0.5330756947501634
  0.4165395981585600  0.5668709691934900  0.3711547058082746
  0.5862371588540357  0.4227382388035386  0.6268185289960646
  0.4193731340765987  0.3789383702577964  0.6957629197659828
  0.5816519577711274  0.6174114069502441  0.3022601276070850
  0.9181332559300108  0.6564292848320785  0.6528677420342159
  0.7488312940457884  0.3437135420841631  0.3473591291520788
  0.9154844534727941  0.3020291249466300  0.4156171617438795
  0.7523524540282606  0.7012839986268194  0.5845541240923796
  0.9139290747752213  0.0800858446481295  0.3857943372924216
  0.7427714588943373  0.9217646622440541  0.6185697172156556
  0.9111172867986677  0.9749467755200877  0.5489925741595506
  0.7486851282852562  0.0262457799140588  0.4521487922037234
  0.9184729181435621  0.1991439480960680  0.5747402420044295
  0.7496230025381420  0.8017966339422572  0.4248655195210577
  0.9166830451565439  0.7536106132876610  0.4914362810091512
  0.7499914706342905  0.2499748884825135  0.5090914210938114
  0.9177934969853819  0.5280700230976680  0.4666621370973421
  0.7497340776346347  0.4761496747791861  0.5326025152415568
  0.7478812949078681  0.5676191844358375  0.3706781842925932
  0.9183940013029575  0.4324221954838278  0.6287638394816366
  0.7504023079940075  0.3787129317476576  0.6962008033362496
  0.9145755982219673  0.6175352870584498  0.3023173487317388
  0.0824838249415574  0.5924215217618249  0.7404847482257040
  0.2490843948610936  0.4060542001180271  0.2603475707050092
  0.0850662741986378  0.1565205335182361  0.6687020892707063
  0.2495059046823482  0.8428639105324591  0.3310792827474898
  0.4209207162904657  0.5897552913236778  0.7396376349214899
  0.5814682901833700  0.4060706937168326  0.2597944307580771
  0.4136870355420926  0.1517724175473444  0.6694549256184376
  0.5804333643451484  0.8423864370477684  0.3310930329262642
  0.7475609751438846  0.5919021932963988  0.7387507888618832
  0.9140766763253337  0.4070499425840723  0.2595558654587848
  0.7528240447264328  0.1516687499446599  0.6708464399640913
  0.9142144758129112  0.8437305319334365  0.3310049617327480
  0.5432429727800333  0.8784416486651843  0.6958491269903803
  0.6222143170290986  0.8255320926174280  0.6711810121383466
  0.5735348242251394  0.8846148906820485  0.7256055412820362
 
  0.00000000E+00  0.00000000E+00  0.00000000E+00
  0.00000000E+00  0.00000000E+00  0.00000000E+00
  0.00000000E+00  0.00000000E+00  0.00000000E+00
  0.00000000E+00  0.00000000E+00  0.00000000E+00
  0.00000000E+00  0.00000000E+00  0.00000000E+00
  0.00000000E+00  0.00000000E+00  0.00000000E+00
  0.00000000E+00  0.00000000E+00  0.00000000E+00
  0.00000000E+00  0.00000000E+00  0.00000000E+00
  0.00000000E+00  0.00000000E+00  0.00000000E+00
  0.00000000E+00  0.00000000E+00  0.00000000E+00
  0.00000000E+00  0.00000000E+00  0.00000000E+00
  0.00000000E+00  0.00000000E+00  0.00000000E+00
  0.00000000E+00  0.00000000E+00  0.00000000E+00
  0.00000000E+00  0.00000000E+00  0.00000000E+00
  0.00000000E+00  0.00000000E+00  0.00000000E+00
  0.00000000E+00  0.00000000E+00  0.00000000E+00
  0.00000000E+00  0.00000000E+00  0.00000000E+00
  0.00000000E+00  0.00000000E+00  0.00000000E+00
  0.00000000E+00  0.00000000E+00  0.00000000E+00
  0.00000000E+00  0.00000000E+00  0.00000000E+00
  0.00000000E+00  0.00000000E+00  0.00000000E+00
  0.00000000E+00  0.00000000E+00  0.00000000E+00
  0.00000000E+00  0.00000000E+00  0.00000000E+00
  0.00000000E+00  0.00000000E+00  0.00000000E+00
  0.00000000E+00  0.00000000E+00  0.00000000E+00
  0.00000000E+00  0.00000000E+00  0.00000000E+00
  0.00000000E+00  0.00000000E+00  0.00000000E+00
  0.00000000E+00  0.00000000E+00  0.00000000E+00
  0.00000000E+00  0.00000000E+00  0.00000000E+00
  0.00000000E+00  0.00000000E+00  0.00000000E+00
  0.00000000E+00  0.00000000E+00  0.00000000E+00
  0.00000000E+00  0.00000000E+00  0.00000000E+00
  0.00000000E+00  0.00000000E+00  0.00000000E+00
  0.00000000E+00  0.00000000E+00  0.00000000E+00
  0.00000000E+00  0.00000000E+00  0.00000000E+00
  0.00000000E+00  0.00000000E+00  0.00000000E+00
  0.00000000E+00  0.00000000E+00  0.00000000E+00
  0.00000000E+00  0.00000000E+00  0.00000000E+00
  0.00000000E+00  0.00000000E+00  0.00000000E+00
  0.00000000E+00  0.00000000E+00  0.00000000E+00
  0.00000000E+00  0.00000000E+00  0.00000000E+00
  0.00000000E+00  0.00000000E+00  0.00000000E+00
  0.00000000E+00  0.00000000E+00  0.00000000E+00
  0.00000000E+00  0.00000000E+00  0.00000000E+00
  0.00000000E+00  0.00000000E+00  0.00000000E+00
  0.00000000E+00  0.00000000E+00  0.00000000E+00
  0.00000000E+00  0.00000000E+00  0.00000000E+00
  0.00000000E+00  0.00000000E+00  0.00000000E+00
  0.00000000E+00  0.00000000E+00  0.00000000E+00
  0.00000000E+00  0.00000000E+00  0.00000000E+00
  0.00000000E+00  0.00000000E+00  0.00000000E+00
  0.00000000E+00  0.00000000E+00  0.00000000E+00
  0.00000000E+00  0.00000000E+00  0.00000000E+00
  0.00000000E+00  0.00000000E+00  0.00000000E+00
  0.00000000E+00  0.00000000E+00  0.00000000E+00
  0.00000000E+00  0.00000000E+00  0.00000000E+00
  0.00000000E+00  0.00000000E+00  0.00000000E+00
  0.00000000E+00  0.00000000E+00  0.00000000E+00
  0.00000000E+00  0.00000000E+00  0.00000000E+00
  0.00000000E+00  0.00000000E+00  0.00000000E+00
  0.00000000E+00  0.00000000E+00  0.00000000E+00
  0.00000000E+00  0.00000000E+00  0.00000000E+00
  0.00000000E+00  0.00000000E+00  0.00000000E+00
  0.00000000E+00  0.00000000E+00  0.00000000E+00
  0.00000000E+00  0.00000000E+00  0.00000000E+00
  0.00000000E+00  0.00000000E+00  0.00000000E+00
  0.00000000E+00  0.00000000E+00  0.00000000E+00
  0.00000000E+00  0.00000000E+00  0.00000000E+00
  0.00000000E+00  0.00000000E+00  0.00000000E+00
