CONTCAR\(3)                             
   1.00000000000000     
    13.0656995773000002    0.0000000000000000    0.0000000000000000
     6.5328497887000001   11.3152277522000002    0.0000000000000000
     0.0000000000000000    0.0000000000000000   20.6284008026000016
   Ta   C    S    O    H 
    32    16    32     2     1
Direct
  0.1659816922615629  0.1667840547137766  0.5576464633327259
  0.0827722756414290  0.0833940775594360  0.4425102135682067
  0.4160182300022973  0.1668082556084276  0.5575621977953584
  0.3327296968333741  0.0833734316503036  0.4424769455531284
  0.6661097483082200  0.1669001899699800  0.5575580958054160
  0.5827297148294256  0.0834344487607500  0.4424513510731053
  0.9159457442131389  0.1668526470374415  0.5576823784161576
  0.8327803887260226  0.0834286979801902  0.4424427848048358
  0.1660190426973112  0.4167872785001934  0.5576112684353705
  0.0827521271370216  0.3334391851082815  0.4424991939821271
  0.4160847122175833  0.4167970444610825  0.5575148646215343
  0.3326936522208365  0.3334035820672836  0.4424300304976206
  0.6660201885487177  0.4167581266479043  0.5576643352246587
  0.5827025759713702  0.3334694631967569  0.4423592744883180
  0.9159649680594590  0.4167247241502556  0.5576637693149767
  0.8327426623973730  0.3334181301943464  0.4424539990150785
  0.1660615123949179  0.6667338537404998  0.5576345991541516
  0.0827254387413166  0.5834398908419804  0.4424982863900581
  0.4161059042514923  0.6666947601997723  0.5576335328665528
  0.3326681695584314  0.5834773528571229  0.4424291965846106
  0.6660161958411049  0.6666858898572415  0.5576464448673309
  0.5827190247569897  0.5834466393260198  0.4424465563704164
  0.9160403171277188  0.6667411425175267  0.5576373995978615
  0.8327966354319746  0.5834282616915681  0.4424743381562410
  0.1660340571255155  0.9167535099031516  0.5576609471392326
  0.0827403770731645  0.8333702992881397  0.4424755050166381
  0.4161214397397434  0.9166837410079355  0.5576303395243982
  0.3327528388991612  0.8334095701296735  0.4424776469076125
  0.6660877228307229  0.9167270523931392  0.5576012396007739
  0.5828061193416851  0.8333833572224278  0.4424291735919205
  0.9160314267172109  0.9168226679875278  0.5576353744090028
  0.8328143915928463  0.8333762281305106  0.4424544036516015
  0.9993941696639860  0.0000598826190981  0.5000559275438137
  0.2493999295455970  0.0000669444492682  0.5001044596063274
  0.4994349381117624  0.0000486815599291  0.5000398607594891
  0.7494194402187190  0.0000952586245765  0.5000268314818692
  0.9993491469806681  0.2501664054900086  0.5000540441911651
  0.2493743204003987  0.2501181839263271  0.5000401613610846
  0.4993644681405062  0.2501325224753186  0.4999631097421618
  0.7493975754334341  0.2501134493511074  0.4999665561818540
  0.9993742743746156  0.5000990784340159  0.5000850461059367
  0.2494378994703434  0.5000658194600894  0.5000331182253442
  0.4993679693602954  0.5001232593563779  0.4999761091951760
  0.7493853575334065  0.5000835751232119  0.5000348307266541
  0.9993721219680823  0.7500901522405351  0.5000842528929643
  0.2493593746414847  0.7500666273418918  0.5000507012970219
  0.4994535075100920  0.7500746981991708  0.5000383207172084
  0.7494235178579023  0.7500875929536152  0.5000459657143830
  0.1661083867506194  0.1667596313249033  0.3634232727490446
  0.0826659655507359  0.0834525871443448  0.6367485989959804
  0.4160847496656114  0.1667516400144382  0.3633771449008091
  0.3327398183634925  0.0834116118119206  0.6366791680517645
  0.6661535315868466  0.1667345489274194  0.3633188675817527
  0.5827912064017455  0.0835127510338293  0.6366822112704597
  0.9161791575806024  0.1667537729754768  0.3634317148009868
  0.8326317538756689  0.0835175025942688  0.6367112259042614
  0.1660191227777276  0.4167960926211313  0.3634240579320136
  0.0826885837743312  0.3334222068803141  0.6367155467627206
  0.4160063841463685  0.4168019798521019  0.3633086631430427
  0.3328237181002603  0.3334444461038215  0.6366495182941125
  0.6661034600300145  0.4168176657524614  0.3633055088192452
  0.5828311522566406  0.3334175521298871  0.6363270626012216
  0.9161549546192396  0.4167712584505520  0.3634255527655624
  0.8326214560236476  0.3334520276466329  0.6367449997442048
  0.1660381158493935  0.6668102406248373  0.3633996243046960
  0.0827037700522563  0.5833966859522933  0.6366828839946203
  0.4160569863632676  0.6667792402976895  0.3633739354604636
  0.3328310270017965  0.5833106114072386  0.6366601851860811
  0.6661704834854231  0.6667453248640838  0.3634137380890551
  0.5827854983506180  0.5832563707018814  0.6367302033570541
  0.9161203058642854  0.6667637142685900  0.3633749523108777
  0.8326962800201611  0.5833635653979757  0.6367119443596997
  0.1661105143076397  0.9167804139966451  0.3634459179667274
  0.0826934394915186  0.8334040210493998  0.6367393085052440
  0.4161253910772683  0.9167558159168607  0.3634032869640543
  0.3327489638358083  0.8333899100465281  0.6366872336274830
  0.6661791433870625  0.9167279127261552  0.3634084878050141
  0.5827721783008948  0.8333718398027967  0.6367147085555909
  0.9161515999392559  0.9167459579323366  0.3633854860455067
  0.8327142229767869  0.8334399211103932  0.6367086322960986
  0.6511559511892389  0.3291000919030622  0.7763094707131429
  0.5637100512035693  0.3366589281588799  0.8145806219138256
  0.5835357880998443  0.2537217692737576  0.8216847847281143
 
  0.00000000E+00  0.00000000E+00  0.00000000E+00
  0.00000000E+00  0.00000000E+00  0.00000000E+00
  0.00000000E+00  0.00000000E+00  0.00000000E+00
  0.00000000E+00  0.00000000E+00  0.00000000E+00
  0.00000000E+00  0.00000000E+00  0.00000000E+00
  0.00000000E+00  0.00000000E+00  0.00000000E+00
  0.00000000E+00  0.00000000E+00  0.00000000E+00
  0.00000000E+00  0.00000000E+00  0.00000000E+00
  0.00000000E+00  0.00000000E+00  0.00000000E+00
  0.00000000E+00  0.00000000E+00  0.00000000E+00
  0.00000000E+00  0.00000000E+00  0.00000000E+00
  0.00000000E+00  0.00000000E+00  0.00000000E+00
  0.00000000E+00  0.00000000E+00  0.00000000E+00
  0.00000000E+00  0.00000000E+00  0.00000000E+00
  0.00000000E+00  0.00000000E+00  0.00000000E+00
  0.00000000E+00  0.00000000E+00  0.00000000E+00
  0.00000000E+00  0.00000000E+00  0.00000000E+00
  0.00000000E+00  0.00000000E+00  0.00000000E+00
  0.00000000E+00  0.00000000E+00  0.00000000E+00
  0.00000000E+00  0.00000000E+00  0.00000000E+00
  0.00000000E+00  0.00000000E+00  0.00000000E+00
  0.00000000E+00  0.00000000E+00  0.00000000E+00
  0.00000000E+00  0.00000000E+00  0.00000000E+00
  0.00000000E+00  0.00000000E+00  0.00000000E+00
  0.00000000E+00  0.00000000E+00  0.00000000E+00
  0.00000000E+00  0.00000000E+00  0.00000000E+00
  0.00000000E+00  0.00000000E+00  0.00000000E+00
  0.00000000E+00  0.00000000E+00  0.00000000E+00
  0.00000000E+00  0.00000000E+00  0.00000000E+00
  0.00000000E+00  0.00000000E+00  0.00000000E+00
  0.00000000E+00  0.00000000E+00  0.00000000E+00
  0.00000000E+00  0.00000000E+00  0.00000000E+00
  0.00000000E+00  0.00000000E+00  0.00000000E+00
  0.00000000E+00  0.00000000E+00  0.00000000E+00
  0.00000000E+00  0.00000000E+00  0.00000000E+00
  0.00000000E+00  0.00000000E+00  0.00000000E+00
  0.00000000E+00  0.00000000E+00  0.00000000E+00
  0.00000000E+00  0.00000000E+00  0.00000000E+00
  0.00000000E+00  0.00000000E+00  0.00000000E+00
  0.00000000E+00  0.00000000E+00  0.00000000E+00
  0.00000000E+00  0.00000000E+00  0.00000000E+00
  0.00000000E+00  0.00000000E+00  0.00000000E+00
  0.00000000E+00  0.00000000E+00  0.00000000E+00
  0.00000000E+00  0.00000000E+00  0.00000000E+00
  0.00000000E+00  0.00000000E+00  0.00000000E+00
  0.00000000E+00  0.00000000E+00  0.00000000E+00
  0.00000000E+00  0.00000000E+00  0.00000000E+00
  0.00000000E+00  0.00000000E+00  0.00000000E+00
  0.00000000E+00  0.00000000E+00  0.00000000E+00
  0.00000000E+00  0.00000000E+00  0.00000000E+00
  0.00000000E+00  0.00000000E+00  0.00000000E+00
  0.00000000E+00  0.00000000E+00  0.00000000E+00
  0.00000000E+00  0.00000000E+00  0.00000000E+00
  0.00000000E+00  0.00000000E+00  0.00000000E+00
  0.00000000E+00  0.00000000E+00  0.00000000E+00
  0.00000000E+00  0.00000000E+00  0.00000000E+00
  0.00000000E+00  0.00000000E+00  0.00000000E+00
  0.00000000E+00  0.00000000E+00  0.00000000E+00
  0.00000000E+00  0.00000000E+00  0.00000000E+00
  0.00000000E+00  0.00000000E+00  0.00000000E+00
  0.00000000E+00  0.00000000E+00  0.00000000E+00
  0.00000000E+00  0.00000000E+00  0.00000000E+00
  0.00000000E+00  0.00000000E+00  0.00000000E+00
  0.00000000E+00  0.00000000E+00  0.00000000E+00
  0.00000000E+00  0.00000000E+00  0.00000000E+00
  0.00000000E+00  0.00000000E+00  0.00000000E+00
  0.00000000E+00  0.00000000E+00  0.00000000E+00
  0.00000000E+00  0.00000000E+00  0.00000000E+00
  0.00000000E+00  0.00000000E+00  0.00000000E+00
  0.00000000E+00  0.00000000E+00  0.00000000E+00
  0.00000000E+00  0.00000000E+00  0.00000000E+00
  0.00000000E+00  0.00000000E+00  0.00000000E+00
  0.00000000E+00  0.00000000E+00  0.00000000E+00
  0.00000000E+00  0.00000000E+00  0.00000000E+00
  0.00000000E+00  0.00000000E+00  0.00000000E+00
  0.00000000E+00  0.00000000E+00  0.00000000E+00
  0.00000000E+00  0.00000000E+00  0.00000000E+00
  0.00000000E+00  0.00000000E+00  0.00000000E+00
  0.00000000E+00  0.00000000E+00  0.00000000E+00
  0.00000000E+00  0.00000000E+00  0.00000000E+00
  0.00000000E+00  0.00000000E+00  0.00000000E+00
  0.00000000E+00  0.00000000E+00  0.00000000E+00
  0.00000000E+00  0.00000000E+00  0.00000000E+00
