CONTCAR\(8)                             
   1.00000000000000     
    12.0100002288999992    0.0000000000000000    0.0000000000000000
     0.0000000000000000   13.6953001021999992    0.0000000000000000
     0.0000000000000000    0.0000000000000000   20.2971992493000002
   Hf   Te   O    H 
     6    30     2     1
Direct
  0.1665897179870218 -0.0062189962133228  0.5468647987727473
  0.9985008273833371  0.4949836526161209  0.4499033308379891
  0.4989823479753340 -0.0057285014991458  0.5470139548254656
  0.3330845985599689  0.4968701411816460  0.4573510401911992
  0.8322454841331695  0.9950758141070054  0.5468573722219485
  0.6668269155391274  0.4953532511791412  0.4494353298413143
  0.0010223097697730  0.6776408614412579  0.5294824750880818
  0.1671351086352705  0.8098113862298989  0.4706764263888286
  0.1594166335338822  0.4868192617765955  0.5630835469069762
  0.0002275256001987  0.9940408421501545  0.4368181147288052
  0.1688062067880760  0.6006657197627613  0.3730641072986564
 -0.0009513251326614  0.8950870275292065  0.6302140026334836
 -0.0001461906320293  0.0966773097026828  0.6270129589500278
  0.1705920436214844  0.3964756847196719  0.3691661728124601
  0.0001520180707261  0.3098332471061497  0.5246443370475035
  0.1674326561043661  0.1765327802804498  0.4684962293773605
  0.3342999714288110  0.6819692556276750  0.5389237348878072
  0.5004441649053999  0.8086746712507283  0.4706336275691629
  0.5070257753703805  0.4875357267216743  0.5635020314274470
  0.3334280324967558 -0.0063356309770074  0.4370982951768155
  0.4962765597979848  0.5998167083644729  0.3724887104866362
  0.3322671543875931  0.8924218367069685  0.6301657068984238
  0.3326045509549823  0.0976718747293604  0.6278990158340483
  0.4967737484666809  0.3972607829995804  0.3694942063397175
  0.3315307446985151  0.3092735008489008  0.5287278979321748
  0.4994741269528278  0.1778239356259923  0.4686553809902276
  0.6664008174598827  0.6769443655118724  0.5291788364729172
  0.8324198984708266  0.8108549984916433  0.4706141290846065
  0.8330548308681767  0.4948378583272300  0.5596652212327485
  0.6650516285524286  0.9923196588731745  0.4371744824861308
  0.8324228742580952  0.5989750879548673  0.3681933164059089
  0.6648841953159935  0.8957301016067141  0.6301512732938247
  0.6661074521817154  0.0996580971385347  0.6270660043996469
  0.8329017460558217  0.3959507030315593  0.3658691901081153
  0.6655342838873506  0.3114540453548642  0.5250630276814408
  0.8332024982166302  0.1756603466220651  0.4665828968746555
  0.3399070557911927  0.6472613742815095  0.6928700329458977
  0.3334672510041090  0.5821975794013661  0.6379755294614632
  0.3424137165408093  0.6011535664359572  0.7297733240873493
 
  0.00000000E+00  0.00000000E+00  0.00000000E+00
  0.00000000E+00  0.00000000E+00  0.00000000E+00
  0.00000000E+00  0.00000000E+00  0.00000000E+00
  0.00000000E+00  0.00000000E+00  0.00000000E+00
  0.00000000E+00  0.00000000E+00  0.00000000E+00
  0.00000000E+00  0.00000000E+00  0.00000000E+00
  0.00000000E+00  0.00000000E+00  0.00000000E+00
  0.00000000E+00  0.00000000E+00  0.00000000E+00
  0.00000000E+00  0.00000000E+00  0.00000000E+00
  0.00000000E+00  0.00000000E+00  0.00000000E+00
  0.00000000E+00  0.00000000E+00  0.00000000E+00
  0.00000000E+00  0.00000000E+00  0.00000000E+00
  0.00000000E+00  0.00000000E+00  0.00000000E+00
  0.00000000E+00  0.00000000E+00  0.00000000E+00
  0.00000000E+00  0.00000000E+00  0.00000000E+00
  0.00000000E+00  0.00000000E+00  0.00000000E+00
  0.00000000E+00  0.00000000E+00  0.00000000E+00
  0.00000000E+00  0.00000000E+00  0.00000000E+00
  0.00000000E+00  0.00000000E+00  0.00000000E+00
  0.00000000E+00  0.00000000E+00  0.00000000E+00
  0.00000000E+00  0.00000000E+00  0.00000000E+00
  0.00000000E+00  0.00000000E+00  0.00000000E+00
  0.00000000E+00  0.00000000E+00  0.00000000E+00
  0.00000000E+00  0.00000000E+00  0.00000000E+00
  0.00000000E+00  0.00000000E+00  0.00000000E+00
  0.00000000E+00  0.00000000E+00  0.00000000E+00
  0.00000000E+00  0.00000000E+00  0.00000000E+00
  0.00000000E+00  0.00000000E+00  0.00000000E+00
  0.00000000E+00  0.00000000E+00  0.00000000E+00
  0.00000000E+00  0.00000000E+00  0.00000000E+00
  0.00000000E+00  0.00000000E+00  0.00000000E+00
  0.00000000E+00  0.00000000E+00  0.00000000E+00
  0.00000000E+00  0.00000000E+00  0.00000000E+00
  0.00000000E+00  0.00000000E+00  0.00000000E+00
  0.00000000E+00  0.00000000E+00  0.00000000E+00
  0.00000000E+00  0.00000000E+00  0.00000000E+00
  0.00000000E+00  0.00000000E+00  0.00000000E+00
  0.00000000E+00  0.00000000E+00  0.00000000E+00
  0.00000000E+00  0.00000000E+00  0.00000000E+00
