CONTCAR\(3)                             
   1.00000000000000     
    13.7056999207000008    0.0000000000000000    0.0000000000000000
     4.1214080124999999   12.9276297616000004    0.0000000000000000
     0.0000000000000000    0.0000000000000000   18.6212005615000002
   Bi   Rh   S    O 
    16    24    16     1
Direct
  0.2044259345143795  0.2060290957506267  0.5814704574885969
  0.4514178044615470  0.4507669769202116  0.6001891185650545
  0.0815636381298733  0.0810993590146946  0.4042713208992231
  0.3401383713270914  0.3385027996370521  0.4120315455625002
  0.6987240314397135  0.1972473346746568  0.5872821094265653
  0.9476930714354936  0.4453246321923631  0.5962044814945340
  0.5829818424654725  0.0794443635186125  0.4096530978717138
  0.8359162474894190  0.3349526747920444  0.4105160213186799
  0.1965362391623947  0.6993924842363028  0.5871637601125342
  0.4450383157887730  0.9482777706693711  0.5969826036431292
  0.0800999812796552  0.5823595781506727  0.4089815494021773
  0.3356161579860000  0.8353953173549706  0.4107706611558848
  0.6927117072237147  0.6944099376755279  0.5864489551888457
  0.9440648960287139  0.9435800330609327  0.5967611074049651
  0.5782872079921491  0.5783704185628716  0.4165762075756803
  0.8326996999713717  0.8298819626625883  0.4129491234894950
  0.0156869263705811  0.2563861360531969  0.4894722141582033
  0.4108563987770548  0.1080031255433942  0.5018117681069367
  0.1076741862337437  0.4112971977247956  0.5024643762595529
  0.2558133415758876  0.0164159221324653  0.4896539550776915
  0.3315268390321470  0.3305991823302775  0.5603811148957086
  0.2169004666158661  0.2180349407477230  0.4373201665225015
  0.5172420492905252  0.2544059432902670  0.4943197123552887
  0.9173789306767384  0.1047398754574062  0.5010544406769154
  0.6173439947997769  0.4046407696579611  0.5100371136527857
  0.7613558590650984  0.0107042426115929  0.4983689016012458
  0.8300960151639969  0.3156800645924505  0.5565707138998506
  0.7173547296020861  0.2091650456740216  0.4425789495353728
  0.0117314967884354  0.7613429621009622  0.4991539154042782
  0.4039763649023898  0.6168940326215669  0.5090123071322237
  0.1052845879987148  0.9178251619230990  0.5022434407781434
  0.2541893264147046  0.5166256344241472  0.4933598393370726
  0.3163371577589963  0.8300022859511405  0.5568930931521934
  0.2084408053924273  0.7181303776302836  0.4425003215050041
  0.5102974174279267  0.7626550201032919  0.5001696010964789
  0.9135828010076692  0.6093416868709397  0.5012864560116976
  0.6090992854071231  0.9135529215561992  0.5037327756664891
  0.7625036642775770  0.5110483501935484  0.5000714485046601
  0.8187205040066216  0.8171202601216622  0.5582498194478162
  0.7065709384022834  0.7083457782818520  0.4423706046264184
  0.4613491410143720  0.1892882195045755  0.5978064074526732
  0.1906843803936087  0.4611852555099917  0.5974843814309767
  0.0729582478284479  0.3394691977552174  0.3964303469441460
  0.3383104743827099  0.0733168160199946  0.3962777032838550
  0.9693319104831462  0.1868405638706593  0.5954950916654321
  0.7026450940079052  0.4508265366964708  0.6038456390563762
  0.5774702128212774  0.3373749689526420  0.4020613368197889
  0.8385477288692110  0.0660278395495389  0.4003215738801700
  0.4505133048594929  0.7014835985061900  0.6035361299788596
  0.1878001351603007  0.9697869848572147  0.5960756991063594
  0.0659422165777824  0.8398588972825960  0.4010947492799083
  0.3362979572028890  0.5777589115213991  0.4012936985476709
  0.9576185448469666  0.6887028376392758  0.6003726537021833
  0.6915492466060416  0.9571356195595607  0.6009843420790604
  0.5688804384201954  0.8374056271992951  0.4012929056056037
  0.8347286386353630  0.5699341430598512  0.4002458247315855
  0.4669135492061497  0.4637419460477633  0.7038926554312572
 
  0.00000000E+00  0.00000000E+00  0.00000000E+00
  0.00000000E+00  0.00000000E+00  0.00000000E+00
  0.00000000E+00  0.00000000E+00  0.00000000E+00
  0.00000000E+00  0.00000000E+00  0.00000000E+00
  0.00000000E+00  0.00000000E+00  0.00000000E+00
  0.00000000E+00  0.00000000E+00  0.00000000E+00
  0.00000000E+00  0.00000000E+00  0.00000000E+00
  0.00000000E+00  0.00000000E+00  0.00000000E+00
  0.00000000E+00  0.00000000E+00  0.00000000E+00
  0.00000000E+00  0.00000000E+00  0.00000000E+00
  0.00000000E+00  0.00000000E+00  0.00000000E+00
  0.00000000E+00  0.00000000E+00  0.00000000E+00
  0.00000000E+00  0.00000000E+00  0.00000000E+00
  0.00000000E+00  0.00000000E+00  0.00000000E+00
  0.00000000E+00  0.00000000E+00  0.00000000E+00
  0.00000000E+00  0.00000000E+00  0.00000000E+00
  0.00000000E+00  0.00000000E+00  0.00000000E+00
  0.00000000E+00  0.00000000E+00  0.00000000E+00
  0.00000000E+00  0.00000000E+00  0.00000000E+00
  0.00000000E+00  0.00000000E+00  0.00000000E+00
  0.00000000E+00  0.00000000E+00  0.00000000E+00
  0.00000000E+00  0.00000000E+00  0.00000000E+00
  0.00000000E+00  0.00000000E+00  0.00000000E+00
  0.00000000E+00  0.00000000E+00  0.00000000E+00
  0.00000000E+00  0.00000000E+00  0.00000000E+00
  0.00000000E+00  0.00000000E+00  0.00000000E+00
  0.00000000E+00  0.00000000E+00  0.00000000E+00
  0.00000000E+00  0.00000000E+00  0.00000000E+00
  0.00000000E+00  0.00000000E+00  0.00000000E+00
  0.00000000E+00  0.00000000E+00  0.00000000E+00
  0.00000000E+00  0.00000000E+00  0.00000000E+00
  0.00000000E+00  0.00000000E+00  0.00000000E+00
  0.00000000E+00  0.00000000E+00  0.00000000E+00
  0.00000000E+00  0.00000000E+00  0.00000000E+00
  0.00000000E+00  0.00000000E+00  0.00000000E+00
  0.00000000E+00  0.00000000E+00  0.00000000E+00
  0.00000000E+00  0.00000000E+00  0.00000000E+00
  0.00000000E+00  0.00000000E+00  0.00000000E+00
  0.00000000E+00  0.00000000E+00  0.00000000E+00
  0.00000000E+00  0.00000000E+00  0.00000000E+00
  0.00000000E+00  0.00000000E+00  0.00000000E+00
  0.00000000E+00  0.00000000E+00  0.00000000E+00
  0.00000000E+00  0.00000000E+00  0.00000000E+00
  0.00000000E+00  0.00000000E+00  0.00000000E+00
  0.00000000E+00  0.00000000E+00  0.00000000E+00
  0.00000000E+00  0.00000000E+00  0.00000000E+00
  0.00000000E+00  0.00000000E+00  0.00000000E+00
  0.00000000E+00  0.00000000E+00  0.00000000E+00
  0.00000000E+00  0.00000000E+00  0.00000000E+00
  0.00000000E+00  0.00000000E+00  0.00000000E+00
  0.00000000E+00  0.00000000E+00  0.00000000E+00
  0.00000000E+00  0.00000000E+00  0.00000000E+00
  0.00000000E+00  0.00000000E+00  0.00000000E+00
  0.00000000E+00  0.00000000E+00  0.00000000E+00
  0.00000000E+00  0.00000000E+00  0.00000000E+00
  0.00000000E+00  0.00000000E+00  0.00000000E+00
  0.00000000E+00  0.00000000E+00  0.00000000E+00
