CONTCAR\(6)                             
   1.00000000000000     
    13.4954004288000000    0.0000000000000000    0.0000000000000000
    -3.3738461598999998   19.0216094057000014    0.0000000000000000
     0.0000000000000000    0.0000000000000000   18.9101009369000010
   Ta   Pd   Se
    16     8    48
Direct
  0.0879720863876600  0.3517194655103154  0.5237426132045637
  0.1620279146123437  0.1482805564896864  0.4762573867954363
  0.3379720773876557  0.3517194655103154  0.5237426132045637
  0.4120279496123430  0.1482805564896864  0.4762573867954363
  0.5879720953876572  0.3517194655103154  0.5237426132045637
  0.6620278616123428  0.1482805564896864  0.4762573867954363
  0.8379720423876563  0.3517194655103154  0.5237426132045637
  0.9120278436123413  0.1482805564896864  0.4762573867954363
  0.0879720963876608  0.8517194885103138  0.5237426132045637
  0.1620279236123409  0.6482805794896848  0.4762573867954363
  0.3379720873876565  0.8517194885103138  0.5237426132045637
  0.4120279586123402  0.6482805794896848  0.4762573867954363
  0.5879721053876580  0.8517194885103138  0.5237426132045637
  0.6620279056123394  0.6482805794896848  0.4762573867954363
  0.8379721223876558  0.8517194885103138  0.5237426132045637
  0.9120278526123456  0.6482805794896848  0.4762573867954363
  0.0000000000000000 -0.0000000000000000  0.5000000000000000
  0.2500000000000000 -0.0000000000000000  0.5000000000000000
  0.5000000000000000 -0.0000000000000000  0.5000000000000000
  0.7500000180000015 -0.0000000000000000  0.5000000000000000
  0.0000000100000008  0.5000000220000018  0.5000000000000000
  0.2500000100000008  0.5000000220000018  0.5000000000000000
  0.5000000100000008  0.5000000220000018  0.5000000000000000
  0.7500000269999987  0.5000000220000018  0.5000000000000000
  0.2302155799755286  0.4206202586098556  0.6036346179854113
  0.0197844280244721  0.0793797763901437  0.3963653820145887
  0.0607691393019325  0.2430437551829005  0.4272711888097567
  0.2232910420012540  0.3930519539033284  0.4260031967935753
  0.0267089759987475  0.1069480680966734  0.5740067892064267
  0.1892308826980693  0.2569562678170978  0.5727387961902488
  0.4802156249755287  0.4206202586098556  0.6036346179854113
  0.2697844230244681  0.0793797763901437  0.3963653820145887
  0.3107691353019321  0.2430437551829005  0.4272711888097567
  0.4732910420012540  0.3930519539033284  0.4260031967935753
  0.2767089849987447  0.1069480680966734  0.5740067892064267
  0.4392308566980743  0.2569562678170978  0.5727387961902488
  0.7302156069755272  0.4206202586098556  0.6036346179854113
  0.5197843880244688  0.0793797763901437  0.3963653820145887
  0.5607691533019266  0.2430437551829005  0.4272711888097567
  0.7232910250012562  0.3930519539033284  0.4260031967935753
  0.5267089319987438  0.1069480680966734  0.5740067892064267
  0.6892309096980680  0.2569562678170978  0.5727387961902488
  0.9802155889755328  0.4206202586098556  0.6036346179854113
  0.7697844410244696  0.0793797763901437  0.3963653820145887
  0.8107691353019322  0.2430437551829005  0.4272711888097567
  0.9732910070012547  0.3930519539033284  0.4260031967935753
  0.7767089499987453  0.1069480680966734  0.5740067892064267
  0.9392308916980736  0.2569562678170978  0.5727387961902488
  0.2302155929755332  0.9206202556098518  0.6036346179854113
  0.0197844360244728  0.5793798113901431  0.3963653820145887
  0.0607691563019303  0.7430437521829037  0.4272711888097567
  0.2232910640012558  0.8930520269033309  0.4260031967935753
  0.0267089729987437  0.6069480410966677  0.5740067892064267
  0.1892308896980735  0.7569563148170982  0.5727387961902488
  0.4802156279755325  0.9206202556098518  0.6036346179854113
  0.2697844270244685  0.5793798113901431  0.3963653820145887
  0.3107691383019288  0.7430437521829037  0.4272711888097567
  0.4732910470012580  0.8930520269033309  0.4260031967935753
  0.2767089819987480  0.6069480410966677  0.5740067892064267
  0.4392308726980685  0.7569563148170982  0.5727387961902488
  0.7302156459755340  0.9206202556098518  0.6036346179854113
  0.5197844010244663  0.5793798113901431  0.3963653820145887
  0.5607691563019304  0.7430437521829037  0.4272711888097567
  0.7232910470012580  0.8930520269033309  0.4260031967935753
  0.5267089639987464  0.6069480410966677  0.5740067892064267
  0.6892308896980734  0.7569563148170982  0.5727387961902488
  0.9802155929755332  0.9206202556098518  0.6036346179854113
  0.7697844540244672  0.5793798113901431  0.3963653820145887
  0.8107692093019312  0.7430437521829037  0.4272711888097567
  0.9732910290012565  0.8930520269033309  0.4260031967935753
  0.7767089469987415  0.6069480410966677  0.5740067892064267
  0.9392309076980678  0.7569563148170982  0.5727387961902488
 
  0.00000000E+00  0.00000000E+00  0.00000000E+00
  0.00000000E+00  0.00000000E+00  0.00000000E+00
  0.00000000E+00  0.00000000E+00  0.00000000E+00
  0.00000000E+00  0.00000000E+00  0.00000000E+00
  0.00000000E+00  0.00000000E+00  0.00000000E+00
  0.00000000E+00  0.00000000E+00  0.00000000E+00
  0.00000000E+00  0.00000000E+00  0.00000000E+00
  0.00000000E+00  0.00000000E+00  0.00000000E+00
  0.00000000E+00  0.00000000E+00  0.00000000E+00
  0.00000000E+00  0.00000000E+00  0.00000000E+00
  0.00000000E+00  0.00000000E+00  0.00000000E+00
  0.00000000E+00  0.00000000E+00  0.00000000E+00
  0.00000000E+00  0.00000000E+00  0.00000000E+00
  0.00000000E+00  0.00000000E+00  0.00000000E+00
  0.00000000E+00  0.00000000E+00  0.00000000E+00
  0.00000000E+00  0.00000000E+00  0.00000000E+00
  0.00000000E+00  0.00000000E+00  0.00000000E+00
  0.00000000E+00  0.00000000E+00  0.00000000E+00
  0.00000000E+00  0.00000000E+00  0.00000000E+00
  0.00000000E+00  0.00000000E+00  0.00000000E+00
  0.00000000E+00  0.00000000E+00  0.00000000E+00
  0.00000000E+00  0.00000000E+00  0.00000000E+00
  0.00000000E+00  0.00000000E+00  0.00000000E+00
  0.00000000E+00  0.00000000E+00  0.00000000E+00
  0.00000000E+00  0.00000000E+00  0.00000000E+00
  0.00000000E+00  0.00000000E+00  0.00000000E+00
  0.00000000E+00  0.00000000E+00  0.00000000E+00
  0.00000000E+00  0.00000000E+00  0.00000000E+00
  0.00000000E+00  0.00000000E+00  0.00000000E+00
  0.00000000E+00  0.00000000E+00  0.00000000E+00
  0.00000000E+00  0.00000000E+00  0.00000000E+00
  0.00000000E+00  0.00000000E+00  0.00000000E+00
  0.00000000E+00  0.00000000E+00  0.00000000E+00
  0.00000000E+00  0.00000000E+00  0.00000000E+00
  0.00000000E+00  0.00000000E+00  0.00000000E+00
  0.00000000E+00  0.00000000E+00  0.00000000E+00
  0.00000000E+00  0.00000000E+00  0.00000000E+00
  0.00000000E+00  0.00000000E+00  0.00000000E+00
  0.00000000E+00  0.00000000E+00  0.00000000E+00
  0.00000000E+00  0.00000000E+00  0.00000000E+00
  0.00000000E+00  0.00000000E+00  0.00000000E+00
  0.00000000E+00  0.00000000E+00  0.00000000E+00
  0.00000000E+00  0.00000000E+00  0.00000000E+00
  0.00000000E+00  0.00000000E+00  0.00000000E+00
  0.00000000E+00  0.00000000E+00  0.00000000E+00
  0.00000000E+00  0.00000000E+00  0.00000000E+00
  0.00000000E+00  0.00000000E+00  0.00000000E+00
  0.00000000E+00  0.00000000E+00  0.00000000E+00
  0.00000000E+00  0.00000000E+00  0.00000000E+00
  0.00000000E+00  0.00000000E+00  0.00000000E+00
  0.00000000E+00  0.00000000E+00  0.00000000E+00
  0.00000000E+00  0.00000000E+00  0.00000000E+00
  0.00000000E+00  0.00000000E+00  0.00000000E+00
  0.00000000E+00  0.00000000E+00  0.00000000E+00
  0.00000000E+00  0.00000000E+00  0.00000000E+00
  0.00000000E+00  0.00000000E+00  0.00000000E+00
  0.00000000E+00  0.00000000E+00  0.00000000E+00
  0.00000000E+00  0.00000000E+00  0.00000000E+00
  0.00000000E+00  0.00000000E+00  0.00000000E+00
  0.00000000E+00  0.00000000E+00  0.00000000E+00
  0.00000000E+00  0.00000000E+00  0.00000000E+00
  0.00000000E+00  0.00000000E+00  0.00000000E+00
  0.00000000E+00  0.00000000E+00  0.00000000E+00
  0.00000000E+00  0.00000000E+00  0.00000000E+00
  0.00000000E+00  0.00000000E+00  0.00000000E+00
  0.00000000E+00  0.00000000E+00  0.00000000E+00
  0.00000000E+00  0.00000000E+00  0.00000000E+00
  0.00000000E+00  0.00000000E+00  0.00000000E+00
  0.00000000E+00  0.00000000E+00  0.00000000E+00
  0.00000000E+00  0.00000000E+00  0.00000000E+00
  0.00000000E+00  0.00000000E+00  0.00000000E+00
  0.00000000E+00  0.00000000E+00  0.00000000E+00
