CONTCAR\(15)                            
   1.00000000000000     
    10.4560003281000000    0.0000000000000000    0.0000000000000000
     1.7426699834999999   13.6526291618000002    0.0000000000000000
     0.0000000000000000    0.0000000000000000   22.6816005706999988
   Sc   C    Cl
    21     6    30
Direct
  0.2576234691336681  0.4544970279099326  0.4492467764270697
  0.0757165268663315  0.5455029870900653  0.5507432585729264
  0.2200812638802895  0.6799424513778528  0.4580083028743432
  0.1132487401197075  0.3200574596221433  0.5419916971256568
  0.0699262279890058  0.5804481873150671  0.3557417557394148
  0.2634037520109891  0.4195517936849280  0.6442582442605851
  0.0000000000000000 -0.0000000000000000  0.5000000000000000
  0.5909534731336720  0.4544970279099326  0.4492467764270697
  0.4090465308663283  0.5455029870900653  0.5507432585729264
  0.5534112448802880  0.6799424513778528  0.4580083028743432
  0.4465887311197099  0.3200574596221433  0.5419916971256568
  0.4032561979890070  0.5804481873150671  0.3557417557394148
  0.5967437660109902  0.4195517936849280  0.6442582442605851
  0.3333300039999969 -0.0000000000000000  0.5000000000000000
  0.9242835231336727  0.4544970279099326  0.4492467764270697
  0.7423764898663322  0.5455029870900653  0.5507432585729264
  0.8867512368802871  0.6799424513778528  0.4580083028743432
  0.7799187361197105  0.3200574596221433  0.5419916971256568
  0.7365961899890059  0.5804481873150671  0.3557417557394148
  0.9300737710109908  0.4195517936849280  0.6442582442605851
  0.6666700410000033 -0.0000000000000000  0.5000000000000000
  0.0714579831518604  0.5717697766308696  0.4496854988915230
  0.2618720088481354  0.4282302033691288  0.5503144581084771
  0.4047979971518614  0.5717697766308696  0.4496854988915230
  0.5952020588481362  0.4282302033691288  0.5503144581084771
  0.7381280011518654  0.5717697766308696  0.4496854988915230
  0.9285420498481387  0.4282302033691288  0.5503144581084771
  0.1742610468579378  0.9549075378989330  0.5733520161343960
  0.1590689461420689  0.0450824491010663  0.4266579488656078
  0.2142930081761035  0.7137783653855791  0.3403845245665952
  0.1190470048238938  0.2862216156144228  0.6596154544334065
  0.0288540263396533  0.8262258227676169  0.4575479512336691
  0.0758424116515570  0.5448749087169812  0.6728815026166937
  0.2574875803484389  0.4551350612830197  0.3271184553833099
  0.1144541594884776  0.3129268720773750  0.4317217591163787
  0.2188758485115267  0.6870731429226227  0.5682782408836213
  0.3044759656603425  0.1737641682323828  0.5424620557663312
  0.5075910508579347  0.9549075378989330  0.5733520161343960
  0.4924089381420679  0.0450824491010663  0.4266579488656078
  0.5476229671761003  0.7137783653855791  0.3403845245665952
  0.4523769978238933  0.2862216156144228  0.6596154544334065
  0.3621940173396559  0.8262258227676169  0.4575479512336691
  0.4091724156515610  0.5448749087169812  0.6728815026166937
  0.5908175843484429  0.4551350612830197  0.3271184553833099
  0.4477941514884767  0.3129268720773750  0.4317217591163787
  0.5522058535115273  0.6870731429226227  0.5682782408836213
  0.6378059706603433  0.1737641682323828  0.5424620557663312
  0.8409310418579372  0.9549075378989330  0.5733520161343960
  0.8257388511420680  0.0450824491010663  0.4266579488656078
  0.8809530171761010  0.7137783653855791  0.3403845245665952
  0.7857070018238973  0.2862216156144228  0.6596154544334065
  0.6955240673396564  0.8262258227676169  0.4575479512336691
  0.7425124076515601  0.5448749087169812  0.6728815026166937
  0.9241576213484421  0.4551350612830197  0.3271184553833099
  0.7811241104884734  0.3129268720773750  0.4317217591163787
  0.8855458445115227  0.6870731429226227  0.5682782408836213
  0.9711459156603491  0.1737641682323828  0.5424620557663312
 
  0.00000000E+00  0.00000000E+00  0.00000000E+00
  0.00000000E+00  0.00000000E+00  0.00000000E+00
  0.00000000E+00  0.00000000E+00  0.00000000E+00
  0.00000000E+00  0.00000000E+00  0.00000000E+00
  0.00000000E+00  0.00000000E+00  0.00000000E+00
  0.00000000E+00  0.00000000E+00  0.00000000E+00
  0.00000000E+00  0.00000000E+00  0.00000000E+00
  0.00000000E+00  0.00000000E+00  0.00000000E+00
  0.00000000E+00  0.00000000E+00  0.00000000E+00
  0.00000000E+00  0.00000000E+00  0.00000000E+00
  0.00000000E+00  0.00000000E+00  0.00000000E+00
  0.00000000E+00  0.00000000E+00  0.00000000E+00
  0.00000000E+00  0.00000000E+00  0.00000000E+00
  0.00000000E+00  0.00000000E+00  0.00000000E+00
  0.00000000E+00  0.00000000E+00  0.00000000E+00
  0.00000000E+00  0.00000000E+00  0.00000000E+00
  0.00000000E+00  0.00000000E+00  0.00000000E+00
  0.00000000E+00  0.00000000E+00  0.00000000E+00
  0.00000000E+00  0.00000000E+00  0.00000000E+00
  0.00000000E+00  0.00000000E+00  0.00000000E+00
  0.00000000E+00  0.00000000E+00  0.00000000E+00
  0.00000000E+00  0.00000000E+00  0.00000000E+00
  0.00000000E+00  0.00000000E+00  0.00000000E+00
  0.00000000E+00  0.00000000E+00  0.00000000E+00
  0.00000000E+00  0.00000000E+00  0.00000000E+00
  0.00000000E+00  0.00000000E+00  0.00000000E+00
  0.00000000E+00  0.00000000E+00  0.00000000E+00
  0.00000000E+00  0.00000000E+00  0.00000000E+00
  0.00000000E+00  0.00000000E+00  0.00000000E+00
  0.00000000E+00  0.00000000E+00  0.00000000E+00
  0.00000000E+00  0.00000000E+00  0.00000000E+00
  0.00000000E+00  0.00000000E+00  0.00000000E+00
  0.00000000E+00  0.00000000E+00  0.00000000E+00
  0.00000000E+00  0.00000000E+00  0.00000000E+00
  0.00000000E+00  0.00000000E+00  0.00000000E+00
  0.00000000E+00  0.00000000E+00  0.00000000E+00
  0.00000000E+00  0.00000000E+00  0.00000000E+00
  0.00000000E+00  0.00000000E+00  0.00000000E+00
  0.00000000E+00  0.00000000E+00  0.00000000E+00
  0.00000000E+00  0.00000000E+00  0.00000000E+00
  0.00000000E+00  0.00000000E+00  0.00000000E+00
  0.00000000E+00  0.00000000E+00  0.00000000E+00
  0.00000000E+00  0.00000000E+00  0.00000000E+00
  0.00000000E+00  0.00000000E+00  0.00000000E+00
  0.00000000E+00  0.00000000E+00  0.00000000E+00
  0.00000000E+00  0.00000000E+00  0.00000000E+00
  0.00000000E+00  0.00000000E+00  0.00000000E+00
  0.00000000E+00  0.00000000E+00  0.00000000E+00
  0.00000000E+00  0.00000000E+00  0.00000000E+00
  0.00000000E+00  0.00000000E+00  0.00000000E+00
  0.00000000E+00  0.00000000E+00  0.00000000E+00
  0.00000000E+00  0.00000000E+00  0.00000000E+00
  0.00000000E+00  0.00000000E+00  0.00000000E+00
  0.00000000E+00  0.00000000E+00  0.00000000E+00
  0.00000000E+00  0.00000000E+00  0.00000000E+00
  0.00000000E+00  0.00000000E+00  0.00000000E+00
  0.00000000E+00  0.00000000E+00  0.00000000E+00
