CONTCAR\(7)                             
   1.00000000000000     
    12.0179996490000001    0.0000000000000000    0.0000000000000000
     5.5443836140000000   17.3830097696000010    0.0000000000000000
     0.0000000000000000    0.0000000000000000   18.4081001282000010
   Nb   Ir   Se   O 
    16     4    40     1
Direct
  0.3100798946954418  0.4213953373050839  0.5043125443211003
  0.3951010991018041  0.2192813143676600  0.5310885748065352
  0.0355935027812427  0.9939438796299498  0.4985852781966065
  0.0768262120077664  0.3120923519928573  0.5009691595010896
  0.8051882938207775  0.4197934470583548  0.4991187903299817
  0.9229211190182159  0.1743119633303267  0.4978625835481341
  0.5390787410368597  0.0071688708978332  0.5005625742091079
  0.5972321001169690  0.3287354498380956  0.4948629954296501
  0.3014140304865975  0.9160688516403600  0.4977155161792987
  0.3788581048952635  0.6907794077258045  0.4963125992075375
  0.0384786605088775  0.5021956786123927  0.5020594246978044
  0.0867202326824277  0.8180060431074633  0.4951417177837963
  0.8126043518799649  0.9169037768177812  0.5001732014914095
  0.8674654913009577  0.7051126277760095  0.5049032481291346
  0.5422747391572366  0.4985850038148558  0.5018133300971198
  0.5707186088939648  0.8093932736540415  0.4984880154181417
  0.1921432702440342  0.0890431615998175  0.5021140650864747
  0.7217922052472823  0.0953943870164754  0.5052805451312726
  0.2082935127953266  0.5941940834091383  0.5007524551272293
  0.7125112392681826  0.5952806757359741  0.5006894815892057
  0.1745748475966210  0.9976418563523130  0.6001385101032538
  0.0498705264816239  0.0928454045459961  0.3995191120887853
  0.2546843058876091  0.3178769158669393  0.6002884590656572
  0.1538562260398925  0.3970652701204926  0.4153221409315631
  0.3578898520242025  0.0955279804248128  0.5813636201461428
  0.2423873842909264  0.1973665724886672  0.4361868750638802
  0.4808996535900681  0.4088106771384333  0.5975736136996576
  0.3478984338061346  0.0116065700588010  0.4142788887329880
  0.0754866114752137  0.1964367528939515  0.5860648128072760
  0.4315665747520425  0.3005055472629758  0.4233460482137478
  0.6836318109183565  0.0049071587007350  0.6004043502100987
  0.5472527441550865  0.1126883017748902  0.4213506517883205
  0.7802874887744627  0.2977285069443488  0.5756587523854981
  0.6510545781352296  0.4070336784745210  0.3981101661044089
  0.8890825922830540  0.0881838775548252  0.5928457750411928
  0.7366997537777640  0.2029316320370476  0.4188082501151855
  0.9692476463164198  0.4064449853195872  0.5954643642751513
  0.8452652270949765  0.0057737223673947  0.4091217998669381
  0.6206533927122273  0.2030123540480815  0.5882339912402432
  0.9332951918293374  0.3020643965548981  0.4109444177818398
  0.1803158681388078  0.5088188866217928  0.6020965897055006
  0.0393616187571675  0.6045075495215909  0.4138526961808930
  0.2707055218230676  0.8009900119680916  0.5803200471333255
  0.1489746137753964  0.8989475125220727  0.3997493116460624
  0.3732898216334816  0.5956160955044669  0.5889578318340382
  0.2202247160209246  0.6978515683269970  0.4079639556291146
  0.4693329325214801  0.9069790484410389  0.5916066435986023
  0.3512410852101505  0.5060832373777373  0.4120420477638838
  0.0677231443312993  0.7004874185390204  0.5733177413074827
  0.4219766577108367  0.8043836859212292  0.4074694991666031
  0.6828083970897842  0.5069451211427695  0.6004693907757014
  0.5455882994870253  0.6044658552398462  0.4108122419123207
  0.7594909352604242  0.8058825725079602  0.5885202318715814
  0.6443064362649048  0.9005534481354435  0.4141876889809378
  0.8764991277809761  0.5954759955024573  0.5888037516020646
  0.7219097345246310  0.7005147959904207  0.4099882293267323
  0.9753501592675704  0.9019390239992302  0.5957615668167519
  0.8519920252775270  0.5082964912056712  0.4100729175018119
  0.5681829073463334  0.6954578465580618  0.5776851878844507
  0.9257379424977282  0.8031754621391328  0.4113043887618834
  0.4896583364000543  0.1769450255749531  0.6164168486577442
 
  0.00000000E+00  0.00000000E+00  0.00000000E+00
  0.00000000E+00  0.00000000E+00  0.00000000E+00
  0.00000000E+00  0.00000000E+00  0.00000000E+00
  0.00000000E+00  0.00000000E+00  0.00000000E+00
  0.00000000E+00  0.00000000E+00  0.00000000E+00
  0.00000000E+00  0.00000000E+00  0.00000000E+00
  0.00000000E+00  0.00000000E+00  0.00000000E+00
  0.00000000E+00  0.00000000E+00  0.00000000E+00
  0.00000000E+00  0.00000000E+00  0.00000000E+00
  0.00000000E+00  0.00000000E+00  0.00000000E+00
  0.00000000E+00  0.00000000E+00  0.00000000E+00
  0.00000000E+00  0.00000000E+00  0.00000000E+00
  0.00000000E+00  0.00000000E+00  0.00000000E+00
  0.00000000E+00  0.00000000E+00  0.00000000E+00
  0.00000000E+00  0.00000000E+00  0.00000000E+00
  0.00000000E+00  0.00000000E+00  0.00000000E+00
  0.00000000E+00  0.00000000E+00  0.00000000E+00
  0.00000000E+00  0.00000000E+00  0.00000000E+00
  0.00000000E+00  0.00000000E+00  0.00000000E+00
  0.00000000E+00  0.00000000E+00  0.00000000E+00
  0.00000000E+00  0.00000000E+00  0.00000000E+00
  0.00000000E+00  0.00000000E+00  0.00000000E+00
  0.00000000E+00  0.00000000E+00  0.00000000E+00
  0.00000000E+00  0.00000000E+00  0.00000000E+00
  0.00000000E+00  0.00000000E+00  0.00000000E+00
  0.00000000E+00  0.00000000E+00  0.00000000E+00
  0.00000000E+00  0.00000000E+00  0.00000000E+00
  0.00000000E+00  0.00000000E+00  0.00000000E+00
  0.00000000E+00  0.00000000E+00  0.00000000E+00
  0.00000000E+00  0.00000000E+00  0.00000000E+00
  0.00000000E+00  0.00000000E+00  0.00000000E+00
  0.00000000E+00  0.00000000E+00  0.00000000E+00
  0.00000000E+00  0.00000000E+00  0.00000000E+00
  0.00000000E+00  0.00000000E+00  0.00000000E+00
  0.00000000E+00  0.00000000E+00  0.00000000E+00
  0.00000000E+00  0.00000000E+00  0.00000000E+00
  0.00000000E+00  0.00000000E+00  0.00000000E+00
  0.00000000E+00  0.00000000E+00  0.00000000E+00
  0.00000000E+00  0.00000000E+00  0.00000000E+00
  0.00000000E+00  0.00000000E+00  0.00000000E+00
  0.00000000E+00  0.00000000E+00  0.00000000E+00
  0.00000000E+00  0.00000000E+00  0.00000000E+00
  0.00000000E+00  0.00000000E+00  0.00000000E+00
  0.00000000E+00  0.00000000E+00  0.00000000E+00
  0.00000000E+00  0.00000000E+00  0.00000000E+00
  0.00000000E+00  0.00000000E+00  0.00000000E+00
  0.00000000E+00  0.00000000E+00  0.00000000E+00
  0.00000000E+00  0.00000000E+00  0.00000000E+00
  0.00000000E+00  0.00000000E+00  0.00000000E+00
  0.00000000E+00  0.00000000E+00  0.00000000E+00
  0.00000000E+00  0.00000000E+00  0.00000000E+00
  0.00000000E+00  0.00000000E+00  0.00000000E+00
  0.00000000E+00  0.00000000E+00  0.00000000E+00
  0.00000000E+00  0.00000000E+00  0.00000000E+00
  0.00000000E+00  0.00000000E+00  0.00000000E+00
  0.00000000E+00  0.00000000E+00  0.00000000E+00
  0.00000000E+00  0.00000000E+00  0.00000000E+00
  0.00000000E+00  0.00000000E+00  0.00000000E+00
  0.00000000E+00  0.00000000E+00  0.00000000E+00
  0.00000000E+00  0.00000000E+00  0.00000000E+00
  0.00000000E+00  0.00000000E+00  0.00000000E+00
