CONTCAR\(5)                             
   1.00000000000000     
    11.2744998931999998    0.0000000000000000    0.0000000000000000
     0.0000000000000000   12.4884996414000007    0.0000000000000000
     0.0000000000000000    0.0000000000000000   19.0002002716000007
   Nb   Te   Ir   O 
     6    24     6     1
Direct
 -0.0001343367011122  0.0465326781862959  0.5044893039627355
  0.1659729433506231  0.7303740695233472  0.4969746894496088
  0.3334263961870481  0.0471581421551233  0.5042717112487318
  0.5011080893675017  0.7302898323592170  0.4971282253625990
  0.6667540365711698  0.0464749623659116  0.5046449441730049
  0.8336367194286405  0.7297748255454611  0.4969834832713370
  0.1665986452894245  0.9318745426353661  0.4191221209926258
 -0.0017090276252227  0.1905019120299577  0.4004331032927223
 -0.0011161959000189  0.3447494322874777  0.5726575038192810
  0.1661866628188615  0.5860234747962018  0.6005281992275341
  0.1650115238456402  0.4338422454746078  0.4280519775132587
  0.0000367192960337  0.6746878029481161  0.3953304903286547
 -0.0002811491436195  0.8455208618879083  0.5824493716686032
  0.1663900304506722  0.1029171787717373  0.6056726307127136
  0.5001990249569820  0.9316820863589044  0.4191433780359585
  0.3336839539564929  0.1922836073581101  0.4010561947042172
  0.3327413820596448  0.3440668252637638  0.5644520804850821
  0.5005079091211030  0.5856400200161384  0.6006245832965722
  0.5016252161434462  0.4335731209066480  0.4283435396657386
  0.3336840637665771  0.6753142882533369  0.3959062656174496
  0.3334216184479566  0.8456874880135595  0.5819605005693191
  0.5001372659014748  0.1028671668418856  0.6058074279962895
  0.8332700096319400  0.9309882652819559  0.4193029618935512
  0.6679323292020595  0.1907117123835231  0.4007589322509559
  0.6679360163566874  0.3446623351549045  0.5729672894107751
  0.8336204052251787  0.5852666472408879  0.6007266200499365
  0.8333379029911203  0.4326895987412963  0.4290202027904240
  0.6672998988341361  0.6741192068222083  0.3954593294252393
  0.6676227140496743  0.8453496151277112  0.5824461391796720
  0.8333992579899123  0.1035428031856356  0.6061186349426407
 -0.0002958110772878  0.5344697837822758  0.5032738225575825
  0.1643583110553619  0.2435260302609858  0.4979150730486572
  0.3332960338801321  0.5343175891302850  0.5034018459572761
  0.5021835977926982  0.2435887053832749  0.4983869157110701
  0.6671052983242456  0.5342437470277368  0.5034983988206763
  0.8333131372580715  0.2431066198885213  0.4981412992857222
  0.3307996638967501  0.3428506706097012  0.6614108442817838
 
  0.00000000E+00  0.00000000E+00  0.00000000E+00
  0.00000000E+00  0.00000000E+00  0.00000000E+00
  0.00000000E+00  0.00000000E+00  0.00000000E+00
  0.00000000E+00  0.00000000E+00  0.00000000E+00
  0.00000000E+00  0.00000000E+00  0.00000000E+00
  0.00000000E+00  0.00000000E+00  0.00000000E+00
  0.00000000E+00  0.00000000E+00  0.00000000E+00
  0.00000000E+00  0.00000000E+00  0.00000000E+00
  0.00000000E+00  0.00000000E+00  0.00000000E+00
  0.00000000E+00  0.00000000E+00  0.00000000E+00
  0.00000000E+00  0.00000000E+00  0.00000000E+00
  0.00000000E+00  0.00000000E+00  0.00000000E+00
  0.00000000E+00  0.00000000E+00  0.00000000E+00
  0.00000000E+00  0.00000000E+00  0.00000000E+00
  0.00000000E+00  0.00000000E+00  0.00000000E+00
  0.00000000E+00  0.00000000E+00  0.00000000E+00
  0.00000000E+00  0.00000000E+00  0.00000000E+00
  0.00000000E+00  0.00000000E+00  0.00000000E+00
  0.00000000E+00  0.00000000E+00  0.00000000E+00
  0.00000000E+00  0.00000000E+00  0.00000000E+00
  0.00000000E+00  0.00000000E+00  0.00000000E+00
  0.00000000E+00  0.00000000E+00  0.00000000E+00
  0.00000000E+00  0.00000000E+00  0.00000000E+00
  0.00000000E+00  0.00000000E+00  0.00000000E+00
  0.00000000E+00  0.00000000E+00  0.00000000E+00
  0.00000000E+00  0.00000000E+00  0.00000000E+00
  0.00000000E+00  0.00000000E+00  0.00000000E+00
  0.00000000E+00  0.00000000E+00  0.00000000E+00
  0.00000000E+00  0.00000000E+00  0.00000000E+00
  0.00000000E+00  0.00000000E+00  0.00000000E+00
  0.00000000E+00  0.00000000E+00  0.00000000E+00
  0.00000000E+00  0.00000000E+00  0.00000000E+00
  0.00000000E+00  0.00000000E+00  0.00000000E+00
  0.00000000E+00  0.00000000E+00  0.00000000E+00
  0.00000000E+00  0.00000000E+00  0.00000000E+00
  0.00000000E+00  0.00000000E+00  0.00000000E+00
  0.00000000E+00  0.00000000E+00  0.00000000E+00
