 Nb1 S2                                 
   1.00000000000000     
     3.3280371017473325    0.0000000000000000    0.0000000000000000
    -1.6640175619345938    2.8821639683852576    0.0000000000000000
     0.0000000000000000    0.0000000000000000   18.1365899674920001
   Nb   S 
     1     2
Direct
  0.0000002745884018  0.9999997811883077  0.5000000012830910
  0.6666668629976584  0.3333331130317063  0.4137449410820722
  0.6666668624139334  0.3333331057799853  0.5862550576348369
 
  0.00000000E+00  0.00000000E+00  0.00000000E+00
  0.00000000E+00  0.00000000E+00  0.00000000E+00
  0.00000000E+00  0.00000000E+00  0.00000000E+00
