CONTCAR\(19)                            
   1.00000000000000     
    13.9025001526000000    0.0000000000000000    0.0000000000000000
     0.0000000000000000   11.8838996886999997    0.0000000000000000
     0.0000000000000000    0.0000000000000000   20.5958003998000017
   Sc   N    Cl   O 
    20     4    32     1
Direct
  0.1207297427829159  0.9797008029430720  0.6030922821845887
  0.1270216652990485  0.0179965746894355  0.3971875905915824
  0.0006617109351305  0.1225634518197304  0.5069140066155995
  0.0006669474211926  0.8754026456742708  0.4916399663680349
  0.1253502490471188  0.4990460900321404  0.4996337716518842
  0.3750334751339695  0.9696953612222994  0.6626582519370940
  0.3749506361990352  0.0187986232725461  0.3928084395789987
  0.2529975869689833  0.1213661456345250  0.5055754063645614
  0.2530910624021901  0.8771805671696915  0.4906912778700478
  0.3750114992824292  0.4991196580908183  0.5000313404303561
  0.6293354424861261  0.9797997171788335  0.6031054138303075
  0.6230656182947282  0.0180235682154675  0.3972100176488336
  0.4970523013237553  0.1214391719783473  0.5056034302476987
  0.4969741249266932  0.8771711529641667  0.4907256205879526
  0.6246666738323844  0.4991087319721212  0.4996575312148255
  0.8749986299443832  0.9799674609886285  0.6013148785245535
  0.8749982694754377  0.0181087879260531  0.3969457428357692
  0.7493772806963911  0.1225827620417375  0.5069209965064772
  0.7493571516540357  0.8754579167960296  0.4916798728148081
  0.8749936860092365  0.4990654553194657  0.4992004997996061
  0.1271967868151919  0.9986766365867954  0.5010302347342903
  0.3751371031276612  0.9998632103875195  0.4953648430289370
  0.6227395045482020  0.9987302834830025  0.5010429569494290
  0.8750652588623969  0.9989482921870919  0.4993868493677379
  0.1261338072837417  0.7116737302305374  0.4790595224024345
  0.1261726915951624  0.2864285445450017  0.5195156812634876
  0.9982799837184334  0.8244283531453654  0.6159144188866662
  0.0005105475330967  0.1707945977313432  0.3821968409361232
  0.0005125839325158  0.8744685310226332  0.3633109248451162
  0.9983093952465220  0.1264330674614268  0.6351253791858377
  0.9999172139041667  0.5204583492127646  0.5847148253818143
  0.0004090180971665  0.4775296780122532  0.4139575311769305
  0.3749881012960296  0.7118559408820703  0.4788671464295085
  0.3749463276655901  0.2861389901586660  0.5200646927581341
  0.2469711950937506  0.8286402270016784  0.6146448573573123
  0.2501477411363427  0.1737149033022469  0.3807986683474993
  0.2501436045135862  0.8719943973859395  0.3617173759709262
  0.2464516754672734  0.1238106587547002  0.6330652429533030
  0.2500635387823907  0.5207480093105331  0.5851097557840029
  0.2504524578021996  0.4780233824508756  0.4141747850402335
  0.6239329511521498  0.7116998843500361  0.4790557686081129
  0.6239214580029456  0.2865161255516314  0.5195401744420567
  0.5031528500283461  0.8286340976751806  0.6146341469624783
  0.4998358669074283  0.1736189220313822  0.3808628470856311
  0.4999017891686298  0.8720456472712964  0.3618474536705434
  0.5035630908401793  0.1238641605591426  0.6330737801191222
  0.4999200558152062  0.5206354671876656  0.5851497972876843
  0.4996049901269891  0.4782654166577216  0.4141624055054060
  0.8749861272350079  0.7110226894133317  0.4780044816557191
  0.8749842649673241  0.2870589465340462  0.5193751839407698
  0.7517188938813341  0.8244520294841795  0.6159334845033904
  0.7495033043157462  0.1708293468713750  0.3821775183457560
  0.7494483055201449  0.8743856403034613  0.3633980920450554
  0.7517601044252640  0.1265725317123211  0.6351319466589657
  0.7500971421872017  0.5206052183489498  0.5847162428037110
  0.7495525113446003  0.4774772393298126  0.4139733528712130
  0.3750440005448952  0.9559923635366298  0.7448845640910072
 
  0.00000000E+00  0.00000000E+00  0.00000000E+00
  0.00000000E+00  0.00000000E+00  0.00000000E+00
  0.00000000E+00  0.00000000E+00  0.00000000E+00
  0.00000000E+00  0.00000000E+00  0.00000000E+00
  0.00000000E+00  0.00000000E+00  0.00000000E+00
  0.00000000E+00  0.00000000E+00  0.00000000E+00
  0.00000000E+00  0.00000000E+00  0.00000000E+00
  0.00000000E+00  0.00000000E+00  0.00000000E+00
  0.00000000E+00  0.00000000E+00  0.00000000E+00
  0.00000000E+00  0.00000000E+00  0.00000000E+00
  0.00000000E+00  0.00000000E+00  0.00000000E+00
  0.00000000E+00  0.00000000E+00  0.00000000E+00
  0.00000000E+00  0.00000000E+00  0.00000000E+00
  0.00000000E+00  0.00000000E+00  0.00000000E+00
  0.00000000E+00  0.00000000E+00  0.00000000E+00
  0.00000000E+00  0.00000000E+00  0.00000000E+00
  0.00000000E+00  0.00000000E+00  0.00000000E+00
  0.00000000E+00  0.00000000E+00  0.00000000E+00
  0.00000000E+00  0.00000000E+00  0.00000000E+00
  0.00000000E+00  0.00000000E+00  0.00000000E+00
  0.00000000E+00  0.00000000E+00  0.00000000E+00
  0.00000000E+00  0.00000000E+00  0.00000000E+00
  0.00000000E+00  0.00000000E+00  0.00000000E+00
  0.00000000E+00  0.00000000E+00  0.00000000E+00
  0.00000000E+00  0.00000000E+00  0.00000000E+00
  0.00000000E+00  0.00000000E+00  0.00000000E+00
  0.00000000E+00  0.00000000E+00  0.00000000E+00
  0.00000000E+00  0.00000000E+00  0.00000000E+00
  0.00000000E+00  0.00000000E+00  0.00000000E+00
  0.00000000E+00  0.00000000E+00  0.00000000E+00
  0.00000000E+00  0.00000000E+00  0.00000000E+00
  0.00000000E+00  0.00000000E+00  0.00000000E+00
  0.00000000E+00  0.00000000E+00  0.00000000E+00
  0.00000000E+00  0.00000000E+00  0.00000000E+00
  0.00000000E+00  0.00000000E+00  0.00000000E+00
  0.00000000E+00  0.00000000E+00  0.00000000E+00
  0.00000000E+00  0.00000000E+00  0.00000000E+00
  0.00000000E+00  0.00000000E+00  0.00000000E+00
  0.00000000E+00  0.00000000E+00  0.00000000E+00
  0.00000000E+00  0.00000000E+00  0.00000000E+00
  0.00000000E+00  0.00000000E+00  0.00000000E+00
  0.00000000E+00  0.00000000E+00  0.00000000E+00
  0.00000000E+00  0.00000000E+00  0.00000000E+00
  0.00000000E+00  0.00000000E+00  0.00000000E+00
  0.00000000E+00  0.00000000E+00  0.00000000E+00
  0.00000000E+00  0.00000000E+00  0.00000000E+00
  0.00000000E+00  0.00000000E+00  0.00000000E+00
  0.00000000E+00  0.00000000E+00  0.00000000E+00
  0.00000000E+00  0.00000000E+00  0.00000000E+00
  0.00000000E+00  0.00000000E+00  0.00000000E+00
  0.00000000E+00  0.00000000E+00  0.00000000E+00
  0.00000000E+00  0.00000000E+00  0.00000000E+00
  0.00000000E+00  0.00000000E+00  0.00000000E+00
  0.00000000E+00  0.00000000E+00  0.00000000E+00
  0.00000000E+00  0.00000000E+00  0.00000000E+00
  0.00000000E+00  0.00000000E+00  0.00000000E+00
  0.00000000E+00  0.00000000E+00  0.00000000E+00
