CONTCAR                                 
   1.00000000000000     
    14.1084995269999993    0.0000000000000000    0.0000000000000000
     3.5075286754000001   19.1175987350000014    0.0000000000000000
     0.0000000000000000    0.0000000000000000   19.0792007446000014
   Ta   Te   O 
    24    48     1
Selective dynamics
Direct
  0.1633320764525052  0.3561061593434260  0.5026489429836545   F   F   F
  0.0866814798383757  0.1448465330294724  0.5001865151655736   F   F   F
  0.2529035262319539  0.4999586635642856  0.4994440521493004   F   F   F
  0.4090396594590970  0.3556033099907552  0.5025074009977573   F   F   F
  0.3319757502618828  0.1444439027471915  0.4995748762334458   F   F   F
  0.4925356762820172  0.4987753545619285  0.4992597313773501   F   F   F
  0.6536921466803847  0.3554353931520495  0.5022280097968732   F   F   F
  0.5866358975046850  0.1447332750546408  0.4990833984430836   F   F   F
  0.7228461889792399  0.5001475802197390  0.4997362015733771   F   F   F
  0.9084567369366425  0.3549445589706650  0.5037756405721083   F   F   F
  0.8412184947987171  0.1450134383539421  0.5008450752162474   F   F   F
  0.0222482892933940  0.5000969739694483  0.5000974475255546   F   F   F
  0.1596583004956145  0.8567829064644314  0.5028861667408151   F   F   F
  0.0911679830704912  0.6439412243125702  0.4979850727135329   F   F   F
  0.2424275448290061  0.0008169261670261  0.5011356862841652   F   F   F
  0.4024616526626517  0.8607269675404297  0.5026542030483725   F   F   F
  0.3344475414843231  0.6407516094587535  0.4944034409308671   F   F   F
  0.4732963651101016  0.0004104268857574  0.5013143848147408   F   F   F
  0.6576821865421039  0.8531232760536653  0.5031736026493050   F   F   F
  0.5860991056753306  0.6420512552137936  0.4957391162669964   F   F   F
  0.7722043694123712  0.0002661913254300  0.5016678783030812   F   F   F
  0.9132657192994813  0.8549831294554835  0.5015469662669219   F   F   F
  0.8357778115395078  0.6475620746412787  0.4978487365078337   F   F   F
  0.0037777883390859  0.0005497601099691  0.5013454348894584   F   F   F
  0.1409918475342948  0.4451326851600612  0.3916759981118219   F   F   F
  0.1093410023332666  0.0536362584249730  0.6087816504004948   F   F   F
  0.0540508681177840  0.2768533418534318  0.4202037547108759   F   F   F
  0.0264819057409298  0.3947252113669819  0.6064357246349203   F   F   F
  0.2186220051028940  0.1086962090922512  0.3939174939527916   F   F   F
  0.1906292782439607  0.2262295468453246  0.5843098298450755   F   F   F
  0.3860578773908614  0.4448437392681299  0.3926514628301305   F   F   F
  0.3537166487030490  0.0549587144013515  0.6099418216492367   F   F   F
  0.3050753746680286  0.2744481328036485  0.4183583546244591   F   F   F
  0.2763702029124318  0.3935317218145471  0.6079511750433539   F   F   F
  0.4688021729965328  0.1067704718025269  0.3956372766651768   F   F   F
  0.4413012335057900  0.2236507862429917  0.5822571975386879   F   F   F
  0.6316853335645973  0.4445608565423385  0.3912862907890613   F   F   F
  0.6112303509018489  0.0466097268571559  0.5979621381701321   F   F   F
  0.5527349314737506  0.2743189546766374  0.4175814040351895   F   F   F
  0.5228012771528299  0.3928277641264444  0.6080851797555340   F   F   F
  0.7248324468487084  0.1066308189558001  0.3962327332681070   F   F   F
  0.6926698981973871  0.2240245622251109  0.5832293508211635   F   F   F
  0.8848129274556769  0.4524757651143858  0.4043769860055590   F   F   F
  0.8650382842016313  0.0534094408173260  0.6101124374856468   F   F   F
  0.8026886935944759  0.2760694294258457  0.4195799088333771   F   F   F
  0.7702042904371567  0.3946202581545180  0.6063135468048344   F   F   F
  0.9722374145632031  0.1087242901058403  0.3945123345038866   F   F   F
  0.9433159402960882  0.2252661774387477  0.5857836018547857   F   F   F
  0.1358209671852677  0.9476233685350337  0.3938081172409511   F   F   F
  0.1150939811305349  0.5542929455220360  0.6084761440940056   F   F   F
  0.0562785230503025  0.7750722282464224  0.4179292322862764   F   F   F
  0.0260846185598922  0.8919997935882549  0.6078211235391890   F   F   F
  0.2202654815682905  0.6055581626351056  0.3899391193409869   F   F   F
  0.1953590361544570  0.7242801445659026  0.5810938967272179   F   F   F
  0.3799758192676208  0.9482216944363202  0.3913180400214600   F   F   F
  0.3596049134170585  0.5548415202757013  0.6065157315886296   F   F   F
  0.3039178749903826  0.7748437637102796  0.4192913495577031   F   F   F
  0.2723020518504526  0.8941372593283390  0.6093815441954078   F   F   F
  0.4704395012003957  0.6046047482303365  0.3907442500264366   F   F   F
  0.4386406608884599  0.7281522867966430  0.5716648243665716   F   F   F
  0.6350006946077116  0.9529636073570984  0.4058470119846049   F   F   F
  0.6019812996644589  0.5555515902373642  0.6079471999425010   F   F   F
  0.5498775239074334  0.7757762528416805  0.4194716698149037   F   F   F
  0.5212674679851474  0.8939460824201149  0.6072238294889871   F   F   F
  0.7210825802872378  0.6057896277788970  0.3928547555538060   F   F   F
  0.6887542938102484  0.7216050267136680  0.5835482208220100   F   F   F
  0.8921004441176024  0.9470777165126165  0.3930222952059239   F   F   F
  0.8604337259300152  0.5477100415573162  0.5953379262569101   F   F   F
  0.8031663592312697  0.7781987248827562  0.4167103669528132   F   F   F
  0.7769617659141943  0.8917587166213607  0.6057217781545887   F   F   F
  0.9731945849872403  0.6063357702204684  0.3944149301251301   F   F   F
  0.9437038491715555  0.7235713846185163  0.5823096750430139   F   F   F
  0.4402275860066354  0.7182929902652119  0.6677650534297044   T   T   T
 
  0.00000000E+00  0.00000000E+00  0.00000000E+00
  0.00000000E+00  0.00000000E+00  0.00000000E+00
  0.00000000E+00  0.00000000E+00  0.00000000E+00
  0.00000000E+00  0.00000000E+00  0.00000000E+00
  0.00000000E+00  0.00000000E+00  0.00000000E+00
  0.00000000E+00  0.00000000E+00  0.00000000E+00
  0.00000000E+00  0.00000000E+00  0.00000000E+00
  0.00000000E+00  0.00000000E+00  0.00000000E+00
  0.00000000E+00  0.00000000E+00  0.00000000E+00
  0.00000000E+00  0.00000000E+00  0.00000000E+00
  0.00000000E+00  0.00000000E+00  0.00000000E+00
  0.00000000E+00  0.00000000E+00  0.00000000E+00
  0.00000000E+00  0.00000000E+00  0.00000000E+00
  0.00000000E+00  0.00000000E+00  0.00000000E+00
  0.00000000E+00  0.00000000E+00  0.00000000E+00
  0.00000000E+00  0.00000000E+00  0.00000000E+00
  0.00000000E+00  0.00000000E+00  0.00000000E+00
  0.00000000E+00  0.00000000E+00  0.00000000E+00
  0.00000000E+00  0.00000000E+00  0.00000000E+00
  0.00000000E+00  0.00000000E+00  0.00000000E+00
  0.00000000E+00  0.00000000E+00  0.00000000E+00
  0.00000000E+00  0.00000000E+00  0.00000000E+00
  0.00000000E+00  0.00000000E+00  0.00000000E+00
  0.00000000E+00  0.00000000E+00  0.00000000E+00
  0.00000000E+00  0.00000000E+00  0.00000000E+00
  0.00000000E+00  0.00000000E+00  0.00000000E+00
  0.00000000E+00  0.00000000E+00  0.00000000E+00
  0.00000000E+00  0.00000000E+00  0.00000000E+00
  0.00000000E+00  0.00000000E+00  0.00000000E+00
  0.00000000E+00  0.00000000E+00  0.00000000E+00
  0.00000000E+00  0.00000000E+00  0.00000000E+00
  0.00000000E+00  0.00000000E+00  0.00000000E+00
  0.00000000E+00  0.00000000E+00  0.00000000E+00
  0.00000000E+00  0.00000000E+00  0.00000000E+00
  0.00000000E+00  0.00000000E+00  0.00000000E+00
  0.00000000E+00  0.00000000E+00  0.00000000E+00
  0.00000000E+00  0.00000000E+00  0.00000000E+00
  0.00000000E+00  0.00000000E+00  0.00000000E+00
  0.00000000E+00  0.00000000E+00  0.00000000E+00
  0.00000000E+00  0.00000000E+00  0.00000000E+00
  0.00000000E+00  0.00000000E+00  0.00000000E+00
  0.00000000E+00  0.00000000E+00  0.00000000E+00
  0.00000000E+00  0.00000000E+00  0.00000000E+00
  0.00000000E+00  0.00000000E+00  0.00000000E+00
  0.00000000E+00  0.00000000E+00  0.00000000E+00
  0.00000000E+00  0.00000000E+00  0.00000000E+00
  0.00000000E+00  0.00000000E+00  0.00000000E+00
  0.00000000E+00  0.00000000E+00  0.00000000E+00
  0.00000000E+00  0.00000000E+00  0.00000000E+00
  0.00000000E+00  0.00000000E+00  0.00000000E+00
  0.00000000E+00  0.00000000E+00  0.00000000E+00
  0.00000000E+00  0.00000000E+00  0.00000000E+00
  0.00000000E+00  0.00000000E+00  0.00000000E+00
  0.00000000E+00  0.00000000E+00  0.00000000E+00
  0.00000000E+00  0.00000000E+00  0.00000000E+00
  0.00000000E+00  0.00000000E+00  0.00000000E+00
  0.00000000E+00  0.00000000E+00  0.00000000E+00
  0.00000000E+00  0.00000000E+00  0.00000000E+00
  0.00000000E+00  0.00000000E+00  0.00000000E+00
  0.00000000E+00  0.00000000E+00  0.00000000E+00
  0.00000000E+00  0.00000000E+00  0.00000000E+00
  0.00000000E+00  0.00000000E+00  0.00000000E+00
  0.00000000E+00  0.00000000E+00  0.00000000E+00
  0.00000000E+00  0.00000000E+00  0.00000000E+00
  0.00000000E+00  0.00000000E+00  0.00000000E+00
  0.00000000E+00  0.00000000E+00  0.00000000E+00
  0.00000000E+00  0.00000000E+00  0.00000000E+00
  0.00000000E+00  0.00000000E+00  0.00000000E+00
  0.00000000E+00  0.00000000E+00  0.00000000E+00
  0.00000000E+00  0.00000000E+00  0.00000000E+00
  0.00000000E+00  0.00000000E+00  0.00000000E+00
  0.00000000E+00  0.00000000E+00  0.00000000E+00
  0.00000000E+00  0.00000000E+00  0.00000000E+00
