 Ce4 C2 Br5                             
   1.00000000000000     
     3.8649058415328907    0.0000000000000000    0.0000000000000000
     0.0000000000000000    8.1209785599748621    0.0000000000000000
     0.0000000000000000    0.0000000000000000   21.0251946705720023
   Ce   C    Br
     4     2     5
Direct
  0.4999467318425488  0.5000079414258849  0.6390205005238201
  0.4998626495955349  0.4999647083783927  0.3609621436432064
  0.9999066440411255  0.2972320820988870  0.4999949825635284
  0.9999076885592970  0.7027565745378794  0.4999904806482931
  0.4999094356492577  0.5000084369993729  0.4665405227316626
  0.4999214725893708  0.5000121319691928  0.5334432924358055
  0.9999912720104760  0.7758523485313589  0.6454129201872831
  0.4997887136809922  0.0000155675418299  0.5000092850663691
  0.9999357286792474  0.2241943745627637  0.6454421846416096
  0.9998572741873915  0.7758042586556257  0.3545765152109723
  0.9998739657223936  0.2241233335632487  0.3546071723474498
 
  0.00000000E+00  0.00000000E+00  0.00000000E+00
  0.00000000E+00  0.00000000E+00  0.00000000E+00
  0.00000000E+00  0.00000000E+00  0.00000000E+00
  0.00000000E+00  0.00000000E+00  0.00000000E+00
  0.00000000E+00  0.00000000E+00  0.00000000E+00
  0.00000000E+00  0.00000000E+00  0.00000000E+00
  0.00000000E+00  0.00000000E+00  0.00000000E+00
  0.00000000E+00  0.00000000E+00  0.00000000E+00
  0.00000000E+00  0.00000000E+00  0.00000000E+00
  0.00000000E+00  0.00000000E+00  0.00000000E+00
  0.00000000E+00  0.00000000E+00  0.00000000E+00
