CONTCAR\(6)                             
   1.00000000000000     
    15.7593002318999993    0.0000000000000000    0.0000000000000000
     0.0000000000000000   15.7517004013000008    0.0000000000000000
     0.0000000000000000    0.0000000000000000   17.5345993042000003
   Fe   S    O 
    32    40     1
Direct
  0.4438649382487884  0.1318503139234854  0.4901705145553366
  0.3884960699801799  0.2834762780972944  0.4904626444379109
  0.3464207824497405  0.4355930558231633  0.5061390626901148
  0.2916606751260180  0.0908329227856016  0.5022355900125367
  0.0407020314391846  0.3428535470788730  0.4891068877365815
  0.0969705659851637  0.1906838876662285  0.4878519175213895
  0.1376010846271081  0.0370394653716801  0.5010822104722393
  0.1933574300022356  0.3828101846744468  0.5025737231864731
  0.9445646580667627  0.1329192162419521  0.4876869786058560
  0.8885970113151429  0.2856206734895735  0.4893542425250447
  0.8461822634062168  0.4387849959404894  0.5033517139634934
  0.7919501739233393  0.0916835760551615  0.4988810733119932
  0.5408366518103366  0.3416187043517578  0.4927428190931929
  0.5956855812068148  0.1888530831296087  0.4896005197102674
  0.6398524811352817  0.0363248814685286  0.4999742746990379
  0.6938468179612617  0.3811505471933418  0.5056024942111500
  0.4442212031349008  0.6364308336954612  0.5223101523073552
  0.3813458402627937  0.7801658211907865  0.5195767519783300
  0.3451094713143218  0.9380488967019945  0.5093327231819716
  0.2946513130831628  0.5926448566958287  0.5261462634850030
  0.0403460091462775  0.8413917203879486  0.4974841608468570
  0.0958914379343645  0.6886847148867691  0.5029700634247348
  0.1392937395073000  0.5358958250448492  0.5104894839700911
  0.1913035266744079  0.8855325743699852  0.5117611911153713
  0.9438192311543042  0.6329810297256249  0.4959828250201662
  0.8879225100130150  0.7851329877513713  0.4954146636090196
  0.8456869247745750  0.9386536521318820  0.5016153273354970
  0.7918041204323509  0.5914891336350699  0.5078883569347954
  0.5392817650387581  0.8418744340844959  0.4979234984054857
  0.5989256217668266  0.6889606368555529  0.5055899107569806
  0.6394278932001207  0.5341894101012293  0.5139049681086569
  0.6929094978844144  0.8832384794798739  0.5030712952673593
  0.4923609133263996  0.2352837279766496  0.5616480337856196
  0.3919617085708634  0.0452875957825398  0.5744070106150915
  0.3436492027354629  0.1796263790727302  0.4193441859377394
  0.2965518025312901  0.3316615139004627  0.5704373321317852
  0.2454306495837688  0.4944309881491773  0.4403281082775373
  0.0499541868386180  0.0883393065819093  0.4187545920032802
  0.0931915193908174  0.4275147772352654  0.5752718185349964
  0.1410970424667717  0.2963720132214500  0.4176681986000668
  0.1863228671131148  0.1391364327076940  0.5685886110095165
  0.4358442605818094  0.3875901119483928  0.4236702621820629
  0.9929561286249299  0.2370348201795996  0.5591785482650565
  0.8913152094081067  0.0439951577526425  0.5703642189479746
  0.8443849202236822  0.1818223937177022  0.4172602087366559
  0.8004768956512077  0.3356189557212403  0.5720938731191691
  0.7394396804713980  0.4892210801998397  0.4368753871833129
  0.5479911420900472  0.0861331763122834  0.4212999814978004
  0.5951543503357172  0.4259315928150633  0.5798358468832766
  0.6403736945379930  0.2947340481285989  0.4204702607155846
  0.6880967073900435  0.1385120846768496  0.5676902015413176
  0.9351099828866408  0.3889481615384965  0.4211926527306034
  0.5045015950550810  0.7454641519719259  0.5813388644458608
  0.3956212754528018  0.5232530985220315  0.5868191361669326
  0.3507930393001014  0.6759154544464956  0.4350900509945086
  0.2918334607082641  0.8514120755575491  0.5899847876920794
  0.2426972032581307  0.9832533789140776  0.4353106445954028
  0.0513622174482578  0.5900360280212479  0.4290068308472345
  0.0881428540850868  0.9377864506386008  0.5752711727319891
  0.1438862675667738  0.7909580576039764  0.4320734540963135
  0.1792873587111788  0.6330084701525373  0.5872136013448478
  0.4268862387187657  0.8703622339530209  0.4314678364084887
  0.9892805807650691  0.7381899077334715  0.5689281518224523
  0.8926968750520927  0.5407763855928086  0.5761841617248866
  0.8435810682001853  0.6808951468807969  0.4250095194975479
  0.7970423272560790  0.8394186020334350  0.5729281523678444
  0.7424757613061432  0.9854715886527552  0.4295841585002370
  0.5411329038573146  0.5868401418564092  0.4421477046922693
  0.5954846964637805  0.9360414733100282  0.5743458134934381
  0.6366255413986994  0.7896417027773771  0.4257668603019251
  0.6916456511302674  0.6347103887478278  0.5825528980962736
  0.9377991099809904  0.8844721459358443  0.4249791223545666
  0.3522417585208246  0.6818383240492385  0.5816892426461832
 
  0.00000000E+00  0.00000000E+00  0.00000000E+00
  0.00000000E+00  0.00000000E+00  0.00000000E+00
  0.00000000E+00  0.00000000E+00  0.00000000E+00
  0.00000000E+00  0.00000000E+00  0.00000000E+00
  0.00000000E+00  0.00000000E+00  0.00000000E+00
  0.00000000E+00  0.00000000E+00  0.00000000E+00
  0.00000000E+00  0.00000000E+00  0.00000000E+00
  0.00000000E+00  0.00000000E+00  0.00000000E+00
  0.00000000E+00  0.00000000E+00  0.00000000E+00
  0.00000000E+00  0.00000000E+00  0.00000000E+00
  0.00000000E+00  0.00000000E+00  0.00000000E+00
  0.00000000E+00  0.00000000E+00  0.00000000E+00
  0.00000000E+00  0.00000000E+00  0.00000000E+00
  0.00000000E+00  0.00000000E+00  0.00000000E+00
  0.00000000E+00  0.00000000E+00  0.00000000E+00
  0.00000000E+00  0.00000000E+00  0.00000000E+00
  0.00000000E+00  0.00000000E+00  0.00000000E+00
  0.00000000E+00  0.00000000E+00  0.00000000E+00
  0.00000000E+00  0.00000000E+00  0.00000000E+00
  0.00000000E+00  0.00000000E+00  0.00000000E+00
  0.00000000E+00  0.00000000E+00  0.00000000E+00
  0.00000000E+00  0.00000000E+00  0.00000000E+00
  0.00000000E+00  0.00000000E+00  0.00000000E+00
  0.00000000E+00  0.00000000E+00  0.00000000E+00
  0.00000000E+00  0.00000000E+00  0.00000000E+00
  0.00000000E+00  0.00000000E+00  0.00000000E+00
  0.00000000E+00  0.00000000E+00  0.00000000E+00
  0.00000000E+00  0.00000000E+00  0.00000000E+00
  0.00000000E+00  0.00000000E+00  0.00000000E+00
  0.00000000E+00  0.00000000E+00  0.00000000E+00
  0.00000000E+00  0.00000000E+00  0.00000000E+00
  0.00000000E+00  0.00000000E+00  0.00000000E+00
  0.00000000E+00  0.00000000E+00  0.00000000E+00
  0.00000000E+00  0.00000000E+00  0.00000000E+00
  0.00000000E+00  0.00000000E+00  0.00000000E+00
  0.00000000E+00  0.00000000E+00  0.00000000E+00
  0.00000000E+00  0.00000000E+00  0.00000000E+00
  0.00000000E+00  0.00000000E+00  0.00000000E+00
  0.00000000E+00  0.00000000E+00  0.00000000E+00
  0.00000000E+00  0.00000000E+00  0.00000000E+00
  0.00000000E+00  0.00000000E+00  0.00000000E+00
  0.00000000E+00  0.00000000E+00  0.00000000E+00
  0.00000000E+00  0.00000000E+00  0.00000000E+00
  0.00000000E+00  0.00000000E+00  0.00000000E+00
  0.00000000E+00  0.00000000E+00  0.00000000E+00
  0.00000000E+00  0.00000000E+00  0.00000000E+00
  0.00000000E+00  0.00000000E+00  0.00000000E+00
  0.00000000E+00  0.00000000E+00  0.00000000E+00
  0.00000000E+00  0.00000000E+00  0.00000000E+00
  0.00000000E+00  0.00000000E+00  0.00000000E+00
  0.00000000E+00  0.00000000E+00  0.00000000E+00
  0.00000000E+00  0.00000000E+00  0.00000000E+00
  0.00000000E+00  0.00000000E+00  0.00000000E+00
  0.00000000E+00  0.00000000E+00  0.00000000E+00
  0.00000000E+00  0.00000000E+00  0.00000000E+00
  0.00000000E+00  0.00000000E+00  0.00000000E+00
  0.00000000E+00  0.00000000E+00  0.00000000E+00
  0.00000000E+00  0.00000000E+00  0.00000000E+00
  0.00000000E+00  0.00000000E+00  0.00000000E+00
  0.00000000E+00  0.00000000E+00  0.00000000E+00
  0.00000000E+00  0.00000000E+00  0.00000000E+00
  0.00000000E+00  0.00000000E+00  0.00000000E+00
  0.00000000E+00  0.00000000E+00  0.00000000E+00
  0.00000000E+00  0.00000000E+00  0.00000000E+00
  0.00000000E+00  0.00000000E+00  0.00000000E+00
  0.00000000E+00  0.00000000E+00  0.00000000E+00
  0.00000000E+00  0.00000000E+00  0.00000000E+00
  0.00000000E+00  0.00000000E+00  0.00000000E+00
  0.00000000E+00  0.00000000E+00  0.00000000E+00
  0.00000000E+00  0.00000000E+00  0.00000000E+00
  0.00000000E+00  0.00000000E+00  0.00000000E+00
  0.00000000E+00  0.00000000E+00  0.00000000E+00
  0.00000000E+00  0.00000000E+00  0.00000000E+00
