CONTCAR\(7)                             
   1.00000000000000     
    12.6855001450000007    0.0000000000000000    0.0000000000000000
     6.3427500725000003   10.9859653852000001    0.0000000000000000
     0.0000000000000000    0.0000000000000000   18.4181995391999997
   Mn   P    Se   O 
     8     8    24     1
Direct
  0.1649510100844510  0.1672854820640125  0.4969144887235051
  0.3346179569680116  0.3386093628602433  0.4960109859721865
  0.6682691703480272  0.1755799130066286  0.4985675697400304
  0.8270857500665628  0.3331225466041919  0.5002917807516490
  0.1735892155356236  0.6610308439453051  0.4958409261998247
  0.3379105154795919  0.8269602799594614  0.4983945644964446
  0.6639999682497371  0.6623428062663420  0.4969608579351054
  0.8328039696060161  0.8336664985203007  0.4974881450828041
 -0.0024881632038641  0.0038072872814479  0.4381478853001313
 -0.0000729843193544  0.0013125012844872  0.5588698202148710
  0.4995473711699331 -0.0000514966981471  0.4369896465197590
  0.4997063666337556  0.0016768029242169  0.5583698779624333
 -0.0022201253755143  0.4980302376533899  0.4375478372649377
 -0.0025686442123756  0.4986264463326919  0.5583419341881172
  0.4979419158641679  0.5010933724898100  0.4669892022757983
  0.5061593134189120  0.4964614549393792  0.6273928229958414
  0.1646877222461045  0.5008678318450945  0.5910531402000295
  0.5031358878438641  0.3212509201188371  0.5852269345789125
  0.3294323547481637  0.1719163621664715  0.5873239676515327
  0.3306824174714735 -0.0020131176592169  0.4068545864725886
 -0.0117818918436540  0.1821108881521942  0.4117581057641120
  0.1700688982895016  0.3312119017463887  0.4067276557756613
  0.6876237283162518  0.4907715685335644  0.5819500222113352
 -0.0052662833333054  0.3264017284700891  0.5852239349444186
  0.8273858196381713  0.1825641749666410  0.5856182974182311
  0.8244150822658476  0.0079136324098175  0.4090265111010572
  0.5017403494559127  0.1683303826531503  0.4054271668413898
  0.6730158426757451  0.3359975524044937  0.4167267717325880
  0.1716323299886561 -0.0009978816679661  0.5876834342098947
  0.5000890099021794  0.8324368498150214  0.5907060943464488
  0.3279421986328801  0.6722715428213554  0.5883220014878217
  0.3403678396190126  0.4982042634080610  0.4073312651637761
 -0.0038595870845841  0.6672277202349333  0.4050329546775401
  0.1649155146983317  0.8354080584695192  0.4043127548810825
  0.6699772161212524  0.0023251481624253  0.5872492520448159
 -0.0017602475768242  0.8330984245579611  0.5891476308117235
  0.8248313421569782  0.6693703999752884  0.5863941115321708
  0.8271265248028125  0.4884726419197519  0.4111518676496270
  0.5028735195926907  0.6629874100969648  0.4123817926573878
  0.6678049605450068  0.8283205001009284  0.4071220075260593
  0.5119464075138537  0.4948075648644802  0.7080894236963525
 
  0.00000000E+00  0.00000000E+00  0.00000000E+00
  0.00000000E+00  0.00000000E+00  0.00000000E+00
  0.00000000E+00  0.00000000E+00  0.00000000E+00
  0.00000000E+00  0.00000000E+00  0.00000000E+00
  0.00000000E+00  0.00000000E+00  0.00000000E+00
  0.00000000E+00  0.00000000E+00  0.00000000E+00
  0.00000000E+00  0.00000000E+00  0.00000000E+00
  0.00000000E+00  0.00000000E+00  0.00000000E+00
  0.00000000E+00  0.00000000E+00  0.00000000E+00
  0.00000000E+00  0.00000000E+00  0.00000000E+00
  0.00000000E+00  0.00000000E+00  0.00000000E+00
  0.00000000E+00  0.00000000E+00  0.00000000E+00
  0.00000000E+00  0.00000000E+00  0.00000000E+00
  0.00000000E+00  0.00000000E+00  0.00000000E+00
  0.00000000E+00  0.00000000E+00  0.00000000E+00
  0.00000000E+00  0.00000000E+00  0.00000000E+00
  0.00000000E+00  0.00000000E+00  0.00000000E+00
  0.00000000E+00  0.00000000E+00  0.00000000E+00
  0.00000000E+00  0.00000000E+00  0.00000000E+00
  0.00000000E+00  0.00000000E+00  0.00000000E+00
  0.00000000E+00  0.00000000E+00  0.00000000E+00
  0.00000000E+00  0.00000000E+00  0.00000000E+00
  0.00000000E+00  0.00000000E+00  0.00000000E+00
  0.00000000E+00  0.00000000E+00  0.00000000E+00
  0.00000000E+00  0.00000000E+00  0.00000000E+00
  0.00000000E+00  0.00000000E+00  0.00000000E+00
  0.00000000E+00  0.00000000E+00  0.00000000E+00
  0.00000000E+00  0.00000000E+00  0.00000000E+00
  0.00000000E+00  0.00000000E+00  0.00000000E+00
  0.00000000E+00  0.00000000E+00  0.00000000E+00
  0.00000000E+00  0.00000000E+00  0.00000000E+00
  0.00000000E+00  0.00000000E+00  0.00000000E+00
  0.00000000E+00  0.00000000E+00  0.00000000E+00
  0.00000000E+00  0.00000000E+00  0.00000000E+00
  0.00000000E+00  0.00000000E+00  0.00000000E+00
  0.00000000E+00  0.00000000E+00  0.00000000E+00
  0.00000000E+00  0.00000000E+00  0.00000000E+00
  0.00000000E+00  0.00000000E+00  0.00000000E+00
  0.00000000E+00  0.00000000E+00  0.00000000E+00
  0.00000000E+00  0.00000000E+00  0.00000000E+00
  0.00000000E+00  0.00000000E+00  0.00000000E+00
