 Ag1 Te6 Mo6                            
   1.00000000000000     
     4.6000336194033906    0.0000000000000000    0.0000000000000000
    -2.3000168097016953    9.1064623245646281    0.0000000000000000
     0.0000000000000000    0.0000000000000000   21.4340416850000004
   Ag   Te   Mo
     1     6     6
Direct
  0.0000004611209405  0.0000009511632015  0.4999991524702239
  0.7726842225417679  0.5452392411409984  0.6503209851045192
  0.4143196151861565  0.8285759319728676  0.5645547983969073
  0.5856769414847586  0.1714230003916307  0.4354465552336869
  0.1079750200251382  0.2157820926868607  0.5967651185126710
  0.8920255198552867  0.7842170996907828  0.4032349245410387
  0.2273170434778695  0.4547615554148541  0.3496794774907975
  0.3172073680161361  0.6344873389907163  0.4569270880176265
  0.6827932237300289  0.3655126018497087  0.5430722808220050
  0.1720677282722022  0.3441426648226385  0.4730773819633284
  0.8279323711156948  0.6558579690409756  0.5269220323700878
  0.2605998164425569  0.5210903277230159  0.5711370164877300
  0.7394006687314632  0.4789092251117425  0.4288631885893845
 
  0.00000000E+00  0.00000000E+00  0.00000000E+00
  0.00000000E+00  0.00000000E+00  0.00000000E+00
  0.00000000E+00  0.00000000E+00  0.00000000E+00
  0.00000000E+00  0.00000000E+00  0.00000000E+00
  0.00000000E+00  0.00000000E+00  0.00000000E+00
  0.00000000E+00  0.00000000E+00  0.00000000E+00
  0.00000000E+00  0.00000000E+00  0.00000000E+00
  0.00000000E+00  0.00000000E+00  0.00000000E+00
  0.00000000E+00  0.00000000E+00  0.00000000E+00
  0.00000000E+00  0.00000000E+00  0.00000000E+00
  0.00000000E+00  0.00000000E+00  0.00000000E+00
  0.00000000E+00  0.00000000E+00  0.00000000E+00
  0.00000000E+00  0.00000000E+00  0.00000000E+00
