CONTCAR\(8)                             
   1.00000000000000     
    12.4035997391000006    0.0000000000000000    0.0000000000000000
     6.2017683962000003   10.7417350166999999    0.0000000000000000
     0.0000000000000000    0.0000000000000000   17.7593994140999989
   Fe   Br   O 
     8    24     1
Direct
  0.0044011775632693  0.9994611633988095  0.5002362108911899
  0.1716326797766296  0.1650702886310269  0.5027415509959433
  0.5039281472747072  0.9953035428859276  0.5001423367423198
  0.6715151800038515  0.1624801955289265  0.5003730354611583
 -0.0005056000768484  0.4996534689392620  0.5041973302250160
  0.1671442415435367  0.6670746051985990  0.5043307382504029
  0.5017736853416038  0.4950183296996941  0.5024864065803122
  0.6672503792215687  0.6622914251671328  0.4996830233465170
  0.0181124243288778  0.1530364722665573  0.4237488290377552
  0.1588491407947024  0.3346354856360479  0.4288901898761235
  0.3354856648565752  0.0137105080007692  0.4225307813983925
  0.1566875134187435  0.0115337310732086  0.5788936919740013
  0.0183934813598893  0.3307405904404205  0.5812799748614419
  0.3407779409697304  0.1437601481138807  0.5791141865221271
  0.5190935127771733  0.1476796486244489  0.4229607255575873
  0.6534715402814361  0.3308381677507174  0.4227029240524154
  0.8388406506891972  0.0112483621611036  0.4219407897060306
  0.6584509872289352  0.0079191528673281  0.5775570879303471
  0.5228571069450542  0.3260413372581651  0.5789768014234143
  0.8375043609635514  0.1515084212412145  0.5775580069308364
  0.0138288338929148  0.6530436804735175  0.4274034545500269
  0.1578467012006677  0.8313186867975122  0.4238554017499453
  0.3320805549100866  0.5080397376342836  0.4286938674735660
  0.1320110347255093  0.5344763845878510  0.5895647568336256
  0.0149497950363563  0.8358658617675161  0.5801082193376887
  0.3362059063028661  0.6478901432244396  0.5812394243178950
  0.5138608929105998  0.6482839084143686  0.4232312199201279
  0.6549904048347821  0.8280001369629462  0.4212550425576269
  0.8356209878306993  0.5086437162271998  0.4234896168233748
  0.6553606039823681  0.5100627605663082  0.5784405996752240
  0.5146265262831837  0.8293017406678472  0.5768324732918757
  0.8304227233911315  0.6521604411529954  0.5797539731843956
  0.2624108084366289  0.4041381326399927  0.6216973345212976
 
  0.00000000E+00  0.00000000E+00  0.00000000E+00
  0.00000000E+00  0.00000000E+00  0.00000000E+00
  0.00000000E+00  0.00000000E+00  0.00000000E+00
  0.00000000E+00  0.00000000E+00  0.00000000E+00
  0.00000000E+00  0.00000000E+00  0.00000000E+00
  0.00000000E+00  0.00000000E+00  0.00000000E+00
  0.00000000E+00  0.00000000E+00  0.00000000E+00
  0.00000000E+00  0.00000000E+00  0.00000000E+00
  0.00000000E+00  0.00000000E+00  0.00000000E+00
  0.00000000E+00  0.00000000E+00  0.00000000E+00
  0.00000000E+00  0.00000000E+00  0.00000000E+00
  0.00000000E+00  0.00000000E+00  0.00000000E+00
  0.00000000E+00  0.00000000E+00  0.00000000E+00
  0.00000000E+00  0.00000000E+00  0.00000000E+00
  0.00000000E+00  0.00000000E+00  0.00000000E+00
  0.00000000E+00  0.00000000E+00  0.00000000E+00
  0.00000000E+00  0.00000000E+00  0.00000000E+00
  0.00000000E+00  0.00000000E+00  0.00000000E+00
  0.00000000E+00  0.00000000E+00  0.00000000E+00
  0.00000000E+00  0.00000000E+00  0.00000000E+00
  0.00000000E+00  0.00000000E+00  0.00000000E+00
  0.00000000E+00  0.00000000E+00  0.00000000E+00
  0.00000000E+00  0.00000000E+00  0.00000000E+00
  0.00000000E+00  0.00000000E+00  0.00000000E+00
  0.00000000E+00  0.00000000E+00  0.00000000E+00
  0.00000000E+00  0.00000000E+00  0.00000000E+00
  0.00000000E+00  0.00000000E+00  0.00000000E+00
  0.00000000E+00  0.00000000E+00  0.00000000E+00
  0.00000000E+00  0.00000000E+00  0.00000000E+00
  0.00000000E+00  0.00000000E+00  0.00000000E+00
  0.00000000E+00  0.00000000E+00  0.00000000E+00
  0.00000000E+00  0.00000000E+00  0.00000000E+00
  0.00000000E+00  0.00000000E+00  0.00000000E+00
