 Er2 Te6                                
   1.00000000000000     
     4.3045565163063504    0.0000000000000000    0.0000000000000000
     0.0000000000000000    4.3045529732582191    0.0000000000000000
     0.0000000000000000    0.0000000000000000   24.0200785936799974
   Er   Te
     2     6
Direct
  0.4999985067539592 -0.0000003734070252  0.5844475192691120
  0.0000002485918337  0.5000022312096052  0.4155523191751659
  0.0000003011420017 -0.0000004354380457  0.3121218255735816
  0.5000003715024932  0.4999996230892168  0.6878782882503841
  0.0000001431204585 -0.0000005759852333  0.6878770302775067
  0.5000000914619097  0.4999996440311710  0.3121229820235535
  0.5000003328946567 -0.0000002341903703  0.4536360679772757
  0.0000000045326878  0.5000001206906816  0.5463639674534206
 
  0.00000000E+00  0.00000000E+00  0.00000000E+00
  0.00000000E+00  0.00000000E+00  0.00000000E+00
  0.00000000E+00  0.00000000E+00  0.00000000E+00
  0.00000000E+00  0.00000000E+00  0.00000000E+00
  0.00000000E+00  0.00000000E+00  0.00000000E+00
  0.00000000E+00  0.00000000E+00  0.00000000E+00
  0.00000000E+00  0.00000000E+00  0.00000000E+00
  0.00000000E+00  0.00000000E+00  0.00000000E+00
