CONTCAR\(10)                            
   1.00000000000000     
    13.8203001021999992    0.0000000000000000    0.0000000000000000
     1.7075399424000000   15.0073707208999991    0.0000000000000000
     0.0000000000000000    0.0000000000000000   18.4675998688000007
   Nb   Ir   Se
    18     2    40
Direct
  0.0856664482569442  0.1834006691907533  0.5029634825966056
  0.0052389879523673  0.9784728983465172  0.4959394775172399
  0.4002703625763644  0.8017808923841088  0.4990428677550582
  0.2942167952859194  0.6233161674261396  0.5014569456953524
  0.2509135990153837  0.9828992998115211  0.4978783062305752
  0.1901569567543788  0.4245087051988534  0.5060799256072812
  0.1495399844720353  0.8037700049230310  0.4992312038516431
  0.0458271282825677  0.6220745097070477  0.5010468124173926
  0.4449463382207597  0.3825551334267132  0.4987875390486778
  0.5856664302569428  0.1834006691907533  0.5029634825966056
  0.5052389969523716  0.9784728983465172  0.4959394775172399
  0.9002703625763644  0.8017808923841088  0.4990428677550582
  0.7942168292859151  0.6233161674261396  0.5014569456953524
  0.7509136330153865  0.9828992998115211  0.4978783062305752
  0.6901569567543788  0.4245087051988534  0.5060799256072812
  0.6495300304720359  0.8037700049230310  0.4992312038516431
  0.5458271022825727  0.6220745097070477  0.5010468124173926
  0.9449463382207597  0.3825551334267132  0.4987875390486778
  0.3688843964849724  0.2099413420567444  0.4988118743248222
  0.8688843614849731  0.2099413420567444  0.4988118743248222
  0.4705464340793526  0.2659894737066395  0.5981151093678534
  0.0836607941034089  0.3351030938630473  0.4157277140544622
  0.3674722576326914  0.0708358245245293  0.5751926438943968
  0.4836143103733406  0.1282481213026969  0.4069713999193922
  0.2678405164892510  0.8656906793674182  0.5948984840218472
  0.2212443684249337  0.2668547460735340  0.5730635726472855
  0.3816896783206261  0.9326485911062079  0.4024562220593637
  0.3268668775949308  0.3360866628632451  0.4102854596083674
  0.1638731464867504  0.6738511275971106  0.5965737884285218
  0.1138252762699921  0.0574259452424357  0.5906875450563618
  0.2412160142700372  0.1398080008429474  0.4240264302440551
  0.2822603774527153  0.7399071607073466  0.4040600916217372
  0.0585047648744847  0.4745443509031162  0.5906742871296302
  0.0161166664853951  0.8638370755104319  0.5949721715088003
  0.1798004925793038  0.5432905752991957  0.4102524406785975
  0.1348904259786750  0.9332525943714884  0.4003503193318920
  0.4142405108086109  0.6726761067992442  0.5962340635869907
  0.0317429609088506  0.7395407533421050  0.4040221510523097
  0.3180813583218480  0.4740445687976234  0.5880726322005572
  0.4303016292431039  0.5352750223082339  0.4221050265429156
  0.9705463990793461  0.2659894737066395  0.5981151093678534
  0.5836607941034089  0.3351030938630473  0.4157277140544622
  0.8674723266326936  0.0708358245245293  0.5751926438943968
  0.9836143453733399  0.1282481213026969  0.4069713999193922
  0.7678405164892510  0.8656906793674182  0.5948984840218472
  0.7212442994249386  0.2668547460735340  0.5730635726472855
  0.8816897123206289  0.9326485911062079  0.4024562220593637
  0.8268669125949302  0.3360866628632451  0.4102854596083674
  0.6638732504867519  0.6738511275971106  0.5965737884285218
  0.6138253192699921  0.0574259452424357  0.5906875450563618
  0.7412160142700372  0.1398080008429474  0.4240264302440551
  0.7822604124527146  0.7399071607073466  0.4040600916217372
  0.5585047558744876  0.4745443509031162  0.5906742871296302
  0.5161166494853973  0.8638370755104319  0.5949721715088003
  0.6798004925793038  0.5432905752991957  0.4102524406785975
  0.6348904259786750  0.9332525943714884  0.4003503193318920
  0.9142404768086081  0.6726761067992442  0.5962340635869907
  0.5317429269088478  0.7395407533421050  0.4040221510523097
  0.8180813583218480  0.4740445687976234  0.5880726322005572
  0.9303016292431039  0.5352750223082339  0.4221050265429156
 
  0.00000000E+00  0.00000000E+00  0.00000000E+00
  0.00000000E+00  0.00000000E+00  0.00000000E+00
  0.00000000E+00  0.00000000E+00  0.00000000E+00
  0.00000000E+00  0.00000000E+00  0.00000000E+00
  0.00000000E+00  0.00000000E+00  0.00000000E+00
  0.00000000E+00  0.00000000E+00  0.00000000E+00
  0.00000000E+00  0.00000000E+00  0.00000000E+00
  0.00000000E+00  0.00000000E+00  0.00000000E+00
  0.00000000E+00  0.00000000E+00  0.00000000E+00
  0.00000000E+00  0.00000000E+00  0.00000000E+00
  0.00000000E+00  0.00000000E+00  0.00000000E+00
  0.00000000E+00  0.00000000E+00  0.00000000E+00
  0.00000000E+00  0.00000000E+00  0.00000000E+00
  0.00000000E+00  0.00000000E+00  0.00000000E+00
  0.00000000E+00  0.00000000E+00  0.00000000E+00
  0.00000000E+00  0.00000000E+00  0.00000000E+00
  0.00000000E+00  0.00000000E+00  0.00000000E+00
  0.00000000E+00  0.00000000E+00  0.00000000E+00
  0.00000000E+00  0.00000000E+00  0.00000000E+00
  0.00000000E+00  0.00000000E+00  0.00000000E+00
  0.00000000E+00  0.00000000E+00  0.00000000E+00
  0.00000000E+00  0.00000000E+00  0.00000000E+00
  0.00000000E+00  0.00000000E+00  0.00000000E+00
  0.00000000E+00  0.00000000E+00  0.00000000E+00
  0.00000000E+00  0.00000000E+00  0.00000000E+00
  0.00000000E+00  0.00000000E+00  0.00000000E+00
  0.00000000E+00  0.00000000E+00  0.00000000E+00
  0.00000000E+00  0.00000000E+00  0.00000000E+00
  0.00000000E+00  0.00000000E+00  0.00000000E+00
  0.00000000E+00  0.00000000E+00  0.00000000E+00
  0.00000000E+00  0.00000000E+00  0.00000000E+00
  0.00000000E+00  0.00000000E+00  0.00000000E+00
  0.00000000E+00  0.00000000E+00  0.00000000E+00
  0.00000000E+00  0.00000000E+00  0.00000000E+00
  0.00000000E+00  0.00000000E+00  0.00000000E+00
  0.00000000E+00  0.00000000E+00  0.00000000E+00
  0.00000000E+00  0.00000000E+00  0.00000000E+00
  0.00000000E+00  0.00000000E+00  0.00000000E+00
  0.00000000E+00  0.00000000E+00  0.00000000E+00
  0.00000000E+00  0.00000000E+00  0.00000000E+00
  0.00000000E+00  0.00000000E+00  0.00000000E+00
  0.00000000E+00  0.00000000E+00  0.00000000E+00
  0.00000000E+00  0.00000000E+00  0.00000000E+00
  0.00000000E+00  0.00000000E+00  0.00000000E+00
  0.00000000E+00  0.00000000E+00  0.00000000E+00
  0.00000000E+00  0.00000000E+00  0.00000000E+00
  0.00000000E+00  0.00000000E+00  0.00000000E+00
  0.00000000E+00  0.00000000E+00  0.00000000E+00
  0.00000000E+00  0.00000000E+00  0.00000000E+00
  0.00000000E+00  0.00000000E+00  0.00000000E+00
  0.00000000E+00  0.00000000E+00  0.00000000E+00
  0.00000000E+00  0.00000000E+00  0.00000000E+00
  0.00000000E+00  0.00000000E+00  0.00000000E+00
  0.00000000E+00  0.00000000E+00  0.00000000E+00
  0.00000000E+00  0.00000000E+00  0.00000000E+00
  0.00000000E+00  0.00000000E+00  0.00000000E+00
  0.00000000E+00  0.00000000E+00  0.00000000E+00
  0.00000000E+00  0.00000000E+00  0.00000000E+00
  0.00000000E+00  0.00000000E+00  0.00000000E+00
  0.00000000E+00  0.00000000E+00  0.00000000E+00
