Repeated-UnitCell:     2    1    1      
   1.00000000000000     
     7.4842224694646458    0.0000000000000000    0.0000000000000000
     0.0000000000000000   21.7962264427775558    0.0000000000000000
     0.0000000000000000    0.0000000000000000   19.3752926856089971
   Ta   Te   Pd
     6    28     6
Direct
  0.2499999991985362  0.4772021116126947  0.4977622002402782
  0.7499999991985362  0.4772021116126947  0.4977622002402782
  0.2500000009113279  0.1242733661161837  0.4988729356439269
  0.7500000009113279  0.1242733661161837  0.4988729356439269
  0.2499999978694305  0.7762495085443868  0.5161664771974295
  0.7499999978694305  0.7762495085443868  0.5161664771974295
  0.9999999997808686  0.4095775100954860  0.4170071164981667
  0.4999999997808686  0.4095775100954860  0.4170071164981667
  0.2499999992094075  0.2397413461650542  0.4221754089284604
  0.7499999992094075  0.2397413461650542  0.4221754089284604
  0.2500000006389271  0.8898327541904525  0.5922515512958110
  0.7500000006389271  0.8898327541904525  0.5922515512958110
  0.9999999983614174  0.8443904524876870  0.4375864977136145
  0.4999999983614174  0.8443904524876870  0.4375864977136145
  0.9999999988789909  0.5516801042017959  0.4244170273144519
  0.4999999988789909  0.5516801042017959  0.4244170273144519
  0.9999999994905266  0.4810705945327827  0.6103139934766608
  0.4999999994905266  0.4810705945327827  0.6103139934766608
  0.2500000030005367  0.0030409940076720  0.4362244917703367
  0.7500000030005367  0.0030409940076720  0.4362244917703367
  0.0000000004659242  0.0576854226121324  0.5821580026249904
  0.5000000004659242  0.0576854226121324  0.5821580026249904
  0.2499999997184332  0.5930376640140458  0.5706178659611560
  0.7499999997184332  0.5930376640140458  0.5706178659611560
  0.0000000009512320  0.1993492788510372  0.5717004658360866
  0.5000000009512320  0.1993492788510372  0.5717004658360866
  0.2500000005443681  0.7016668217408732  0.4061109050993698
  0.7500000005443681  0.7016668217408732  0.4061109050993698
  0.0000000011754935  0.1184738842236789  0.3870729938382311
  0.5000000011754935  0.1184738842236789  0.3870729938382311
  0.9999999971342675  0.7383832755644678  0.6131697764432947
  0.4999999971342675  0.7383832755644678  0.6131697764432947
  0.2500000006548646  0.3601205246680754  0.5714168346275484
  0.7500000006548646  0.3601205246680754  0.5714168346275484
  0.0000000015995383  0.9470585808330194  0.5147521597188505
  0.5000000015995383  0.9470585808330194  0.5147521597188505
  0.9999999996225100  0.3021459503451460  0.4941000303468165
  0.4999999996225100  0.3021459503451460  0.4941000303468165
  0.0000000007933991  0.6617318551933344  0.5007259476424146
  0.5000000007933991  0.6617318551933344  0.5007259476424146
 
  0.00000000E+00  0.00000000E+00  0.00000000E+00
  0.00000000E+00  0.00000000E+00  0.00000000E+00
  0.00000000E+00  0.00000000E+00  0.00000000E+00
  0.00000000E+00  0.00000000E+00  0.00000000E+00
  0.00000000E+00  0.00000000E+00  0.00000000E+00
  0.00000000E+00  0.00000000E+00  0.00000000E+00
  0.00000000E+00  0.00000000E+00  0.00000000E+00
  0.00000000E+00  0.00000000E+00  0.00000000E+00
  0.00000000E+00  0.00000000E+00  0.00000000E+00
  0.00000000E+00  0.00000000E+00  0.00000000E+00
  0.00000000E+00  0.00000000E+00  0.00000000E+00
  0.00000000E+00  0.00000000E+00  0.00000000E+00
  0.00000000E+00  0.00000000E+00  0.00000000E+00
  0.00000000E+00  0.00000000E+00  0.00000000E+00
  0.00000000E+00  0.00000000E+00  0.00000000E+00
  0.00000000E+00  0.00000000E+00  0.00000000E+00
  0.00000000E+00  0.00000000E+00  0.00000000E+00
  0.00000000E+00  0.00000000E+00  0.00000000E+00
  0.00000000E+00  0.00000000E+00  0.00000000E+00
  0.00000000E+00  0.00000000E+00  0.00000000E+00
  0.00000000E+00  0.00000000E+00  0.00000000E+00
  0.00000000E+00  0.00000000E+00  0.00000000E+00
  0.00000000E+00  0.00000000E+00  0.00000000E+00
  0.00000000E+00  0.00000000E+00  0.00000000E+00
  0.00000000E+00  0.00000000E+00  0.00000000E+00
  0.00000000E+00  0.00000000E+00  0.00000000E+00
  0.00000000E+00  0.00000000E+00  0.00000000E+00
  0.00000000E+00  0.00000000E+00  0.00000000E+00
  0.00000000E+00  0.00000000E+00  0.00000000E+00
  0.00000000E+00  0.00000000E+00  0.00000000E+00
  0.00000000E+00  0.00000000E+00  0.00000000E+00
  0.00000000E+00  0.00000000E+00  0.00000000E+00
  0.00000000E+00  0.00000000E+00  0.00000000E+00
  0.00000000E+00  0.00000000E+00  0.00000000E+00
  0.00000000E+00  0.00000000E+00  0.00000000E+00
  0.00000000E+00  0.00000000E+00  0.00000000E+00
  0.00000000E+00  0.00000000E+00  0.00000000E+00
  0.00000000E+00  0.00000000E+00  0.00000000E+00
  0.00000000E+00  0.00000000E+00  0.00000000E+00
  0.00000000E+00  0.00000000E+00  0.00000000E+00
