CONTCAR\(4)                             
   1.00000000000000     
    13.0656995773000002    0.0000000000000000    0.0000000000000000
     6.5328497887000001   11.3152277522000002    0.0000000000000000
     0.0000000000000000    0.0000000000000000   20.6284008026000016
   Ta   C    S    O 
    32    16    32     1
Direct
  0.1670905067100690  0.1658294092652703  0.5579379489762072
  0.0837168740891276  0.0825562338217615  0.4425888618252170
  0.4172694679634056  0.1621684181414370  0.5579063575389607
  0.3336474299874737  0.0826121934844628  0.4424038494020485
  0.6705721318951479  0.1621684181414370  0.5579063575389607
  0.5842481137423132  0.0814937185153731  0.4429497937244038
  0.9170901020246653  0.1658294092652703  0.5579379489762072
  0.8337303225280631  0.0826121934844628  0.4424038494020485
  0.1681276081132432  0.4146906017919522  0.5594170559432198
  0.0839561924155977  0.3327622247241107  0.4432541130477552
  0.4189185373891033  0.4121730162217934  0.5638886602807799
  0.3335783825381905  0.3323828663014406  0.4445334547713002
  0.6671917710948098  0.4146906017919522  0.5594170559432198
  0.5840286961603647  0.3323828663014406  0.4445334547713002
  0.9171764266816960  0.4156573116366213  0.5583997716621131
  0.8332715468602926  0.3327622247241107  0.4432541130477552
  0.1631581635395730  0.6700771177551791  0.5582779761231900
  0.0856454199920501  0.5808641446782596  0.4439108316037202
  0.4167747367052455  0.6700771177551791  0.5582779761231900
  0.3346661824399068  0.5806575811202002  0.4460673096737122
  0.6667820796447145  0.6649905931224669  0.5584620008392986
  0.5834803083296872  0.5808641446782596  0.4439108316037202
  0.9182374922328248  0.6649905931224669  0.5584620008392986
  0.8343558788714885  0.5812781142570375  0.4431105526728641
  0.1663481461674180  0.9173137976651676  0.5577326931459297
  0.0841584378241090  0.8321299798771150  0.4425114053999368
  0.4166395739310552  0.9163291614853066  0.5574211475308593
  0.3337015642987783  0.8321299798771150  0.4425114053999368
  0.6672749935886042  0.9154601768227942  0.5578140360573790
  0.5839259280719263  0.8317926955008232  0.4427040262720420
  0.9170412825836499  0.9163291614853066  0.5574211475308593
  0.8342712494272545  0.8317926955008232  0.4427040262720420
  0.0005093788086949  0.9991349802161917  0.4999254444527691
  0.2503556409751205  0.9991349802161917  0.4999254444527691
  0.5010985817862782  0.9977825396266092  0.4997672483798938
  0.7511188605871111  0.9977825396266092  0.4997672483798938
  0.0004846501598689  0.2490307006802588  0.5004093114241153
  0.2502870013778791  0.2484541978141722  0.5007535168257796
  0.4991850714609660  0.2516298760780802  0.5027736132501357
  0.7512587468079513  0.2484541978141722  0.5007535168257796
  0.0009796506149601  0.4986720133176688  0.5011923384803660
  0.2525457656487482  0.4982654422089399  0.5041838727305605
  0.4991887731423139  0.4982654422089399  0.5041838727305605
  0.7503483350673604  0.4986720133176688  0.5011923384803660
  0.0001621490372166  0.7489169583456043  0.5002080587894649
  0.2500702356480171  0.7498595467039674  0.5006901246365811
  0.5009209106171735  0.7489169583456043  0.5002080587894649
  0.7509928074608957  0.7480143310782040  0.5003711697080769
  0.1669819342077942  0.1663096892248011  0.3636878757068640
  0.0836312767747718  0.0827274284504731  0.6370762701770145
  0.4171496566882252  0.1667885911289356  0.3644949078156601
  0.3335704878460348  0.0808152167848652  0.6371227624941578
  0.6660717701828367  0.1667885911289356  0.3644949078156601
  0.5849853865744605  0.0800191728510927  0.6369218783586905
  0.9167183945674093  0.1663096892248011  0.3636878757068640
  0.8356042413691065  0.0808152167848652  0.6371227624941578
  0.1685576856128059  0.4152198376615038  0.3646671795798981
  0.0834219564926626  0.3313645776697168  0.6376349106970056
  0.4169925659295231  0.4160249591409398  0.3660847651935525
  0.3332803252190496  0.3216799121498242  0.6378350301365111
  0.6662324577257025  0.4152198376615038  0.3646671795798981
  0.5950297076311220  0.3216799121498242  0.6378350301365111
  0.9173653249613183  0.4152795150773625  0.3640195514366050
  0.8352034298376214  0.3313645776697168  0.6376349106970056
  0.1693508102943166  0.6636148707643161  0.3651253801090173
  0.0848209594904593  0.5823574117256983  0.6380089723678096
  0.4170443369413648  0.6636148707643161  0.3651253801090173
  0.3113847957511521  0.6272203544977023  0.6487711574062029
  0.6670742845623574  0.6640103412702612  0.3645507230234213
  0.5828115017838463  0.5823574117256983  0.6380089723678096
  0.9189255391673947  0.6640103412702612  0.3645507230234213
  0.8338358077322003  0.5823182565355997  0.6373181008425862
  0.1673945382097515  0.9152210135805006  0.3635749215587354
  0.0797297047845151  0.8372023252239615  0.6372875030705514
  0.4173122286309216  0.9150771198178580  0.3635808409193928
  0.3330579519915186  0.8372023252239615  0.6372875030705514
  0.6670548126898067  0.9159005386203962  0.3636543790114106
  0.5836569367812635  0.8323076506779389  0.6367840674518250
  0.9176206695512250  0.9150771198178580  0.3635808409193928
  0.8340252855408017  0.8323076506779389  0.6367840674518250
  0.3810412684342976  0.4879574791314045  0.6601614819949044
 
  0.00000000E+00  0.00000000E+00  0.00000000E+00
  0.00000000E+00  0.00000000E+00  0.00000000E+00
  0.00000000E+00  0.00000000E+00  0.00000000E+00
  0.00000000E+00  0.00000000E+00  0.00000000E+00
  0.00000000E+00  0.00000000E+00  0.00000000E+00
  0.00000000E+00  0.00000000E+00  0.00000000E+00
  0.00000000E+00  0.00000000E+00  0.00000000E+00
  0.00000000E+00  0.00000000E+00  0.00000000E+00
  0.00000000E+00  0.00000000E+00  0.00000000E+00
  0.00000000E+00  0.00000000E+00  0.00000000E+00
  0.00000000E+00  0.00000000E+00  0.00000000E+00
  0.00000000E+00  0.00000000E+00  0.00000000E+00
  0.00000000E+00  0.00000000E+00  0.00000000E+00
  0.00000000E+00  0.00000000E+00  0.00000000E+00
  0.00000000E+00  0.00000000E+00  0.00000000E+00
  0.00000000E+00  0.00000000E+00  0.00000000E+00
  0.00000000E+00  0.00000000E+00  0.00000000E+00
  0.00000000E+00  0.00000000E+00  0.00000000E+00
  0.00000000E+00  0.00000000E+00  0.00000000E+00
  0.00000000E+00  0.00000000E+00  0.00000000E+00
  0.00000000E+00  0.00000000E+00  0.00000000E+00
  0.00000000E+00  0.00000000E+00  0.00000000E+00
  0.00000000E+00  0.00000000E+00  0.00000000E+00
  0.00000000E+00  0.00000000E+00  0.00000000E+00
  0.00000000E+00  0.00000000E+00  0.00000000E+00
  0.00000000E+00  0.00000000E+00  0.00000000E+00
  0.00000000E+00  0.00000000E+00  0.00000000E+00
  0.00000000E+00  0.00000000E+00  0.00000000E+00
  0.00000000E+00  0.00000000E+00  0.00000000E+00
  0.00000000E+00  0.00000000E+00  0.00000000E+00
  0.00000000E+00  0.00000000E+00  0.00000000E+00
  0.00000000E+00  0.00000000E+00  0.00000000E+00
  0.00000000E+00  0.00000000E+00  0.00000000E+00
  0.00000000E+00  0.00000000E+00  0.00000000E+00
  0.00000000E+00  0.00000000E+00  0.00000000E+00
  0.00000000E+00  0.00000000E+00  0.00000000E+00
  0.00000000E+00  0.00000000E+00  0.00000000E+00
  0.00000000E+00  0.00000000E+00  0.00000000E+00
  0.00000000E+00  0.00000000E+00  0.00000000E+00
  0.00000000E+00  0.00000000E+00  0.00000000E+00
  0.00000000E+00  0.00000000E+00  0.00000000E+00
  0.00000000E+00  0.00000000E+00  0.00000000E+00
  0.00000000E+00  0.00000000E+00  0.00000000E+00
  0.00000000E+00  0.00000000E+00  0.00000000E+00
  0.00000000E+00  0.00000000E+00  0.00000000E+00
  0.00000000E+00  0.00000000E+00  0.00000000E+00
  0.00000000E+00  0.00000000E+00  0.00000000E+00
  0.00000000E+00  0.00000000E+00  0.00000000E+00
  0.00000000E+00  0.00000000E+00  0.00000000E+00
  0.00000000E+00  0.00000000E+00  0.00000000E+00
  0.00000000E+00  0.00000000E+00  0.00000000E+00
  0.00000000E+00  0.00000000E+00  0.00000000E+00
  0.00000000E+00  0.00000000E+00  0.00000000E+00
  0.00000000E+00  0.00000000E+00  0.00000000E+00
  0.00000000E+00  0.00000000E+00  0.00000000E+00
  0.00000000E+00  0.00000000E+00  0.00000000E+00
  0.00000000E+00  0.00000000E+00  0.00000000E+00
  0.00000000E+00  0.00000000E+00  0.00000000E+00
  0.00000000E+00  0.00000000E+00  0.00000000E+00
  0.00000000E+00  0.00000000E+00  0.00000000E+00
  0.00000000E+00  0.00000000E+00  0.00000000E+00
  0.00000000E+00  0.00000000E+00  0.00000000E+00
  0.00000000E+00  0.00000000E+00  0.00000000E+00
  0.00000000E+00  0.00000000E+00  0.00000000E+00
  0.00000000E+00  0.00000000E+00  0.00000000E+00
  0.00000000E+00  0.00000000E+00  0.00000000E+00
  0.00000000E+00  0.00000000E+00  0.00000000E+00
  0.00000000E+00  0.00000000E+00  0.00000000E+00
  0.00000000E+00  0.00000000E+00  0.00000000E+00
  0.00000000E+00  0.00000000E+00  0.00000000E+00
  0.00000000E+00  0.00000000E+00  0.00000000E+00
  0.00000000E+00  0.00000000E+00  0.00000000E+00
  0.00000000E+00  0.00000000E+00  0.00000000E+00
  0.00000000E+00  0.00000000E+00  0.00000000E+00
  0.00000000E+00  0.00000000E+00  0.00000000E+00
  0.00000000E+00  0.00000000E+00  0.00000000E+00
  0.00000000E+00  0.00000000E+00  0.00000000E+00
  0.00000000E+00  0.00000000E+00  0.00000000E+00
  0.00000000E+00  0.00000000E+00  0.00000000E+00
  0.00000000E+00  0.00000000E+00  0.00000000E+00
  0.00000000E+00  0.00000000E+00  0.00000000E+00
