CONTCAR\(10)                            
   1.00000000000000     
     9.7571001052999993    0.0000000000000000    0.0000000000000000
    -3.0063686365000000   15.8319856181999992    0.0000000000000000
     0.0000000000000000    0.0000000000000000   18.2793006897000012
   V    P    S    O 
     4     8    26     1
Direct
  0.6192559587006130  0.6044276192735438  0.4971996604601472
  0.5871474608296765  0.0916659320682598  0.4957602229499614
  0.3795320459017830  0.3919765427078445  0.4988216966170498
  0.3937848343212735  0.9194467128169990  0.4958562760174203
  0.8166778280128923  0.2505159163563917  0.4887426280432550
  0.6932176097219767  0.4298487174507173  0.5318272561995272
  0.1838208753233275  0.7494551744652398  0.5049160352203117
  0.1675584096439664  0.2318744310422574  0.4889311216073438
  0.2632429878320082  0.0823519325972839  0.6039017812608520
  0.7014234600278613  0.9327175780568098  0.4660233424847320
  0.3076454244036668  0.5684548369127782  0.4619091865603622
  0.8352254817058196  0.7599824279269143  0.5086976765915168
  0.1300510389343472  0.1027555446249693  0.5089771400646370
  0.8918332582979431  0.8914978681387566  0.4832368355611649
  0.0090771846669284  0.7511904765733348  0.5764037335024739
  0.3973885012364988  0.0365142214096963  0.4296220874731489
  0.5365650839903751  0.3515133266068275  0.5844417047525781
  0.2359302921525668  0.4562561804021641  0.4136845937990188
  0.1965869734049974  0.3118319407646695  0.5747308724547651
  0.6676932249591943  0.7270525209317640  0.5746967574669526
  0.4666507446833918  0.6449433373111191  0.4093807259296227
  0.6034228575265672  0.4604792103747073  0.4354629739973745
  0.6490782101442960  0.2233847419051571  0.4225593993971586
  0.8788246315590271  0.3818102617242118  0.5158941203117138
  0.9933069571334130  0.2425497613241561  0.4197661253321812
  0.6066862356506846  0.9647166933015185  0.5632720388260708
  0.8075358899814233  0.6833500981936282  0.4213372693962611
  0.3943556111665032  0.5384239621628168  0.5594220793459073
  0.2034375679473044  0.8323690038316656  0.4218177670500864
  0.7641424022940768  0.5408530116702366  0.5821056353671068
  0.5471332904100095  0.8513021253333761  0.4181575163148210
  0.2567635856009858  0.9536074271700272  0.5945958079123415
  0.3480727160676125  0.7770941182607558  0.5705518950098849
  0.7886973505903470  0.1738952604170336  0.5745817061525855
  0.7628460670292299  0.0443208166437543  0.4163733061090227
  0.4688463318126708  0.1442088944175879  0.5907490807763054
  0.1236355136864020  0.6194570715872629  0.4713827648790456
  0.3310837368643931  0.2736794828382685  0.4203277378070567
  0.1982921717839119  0.1091949344055010  0.6711215689982382
 
  0.00000000E+00  0.00000000E+00  0.00000000E+00
  0.00000000E+00  0.00000000E+00  0.00000000E+00
  0.00000000E+00  0.00000000E+00  0.00000000E+00
  0.00000000E+00  0.00000000E+00  0.00000000E+00
  0.00000000E+00  0.00000000E+00  0.00000000E+00
  0.00000000E+00  0.00000000E+00  0.00000000E+00
  0.00000000E+00  0.00000000E+00  0.00000000E+00
  0.00000000E+00  0.00000000E+00  0.00000000E+00
  0.00000000E+00  0.00000000E+00  0.00000000E+00
  0.00000000E+00  0.00000000E+00  0.00000000E+00
  0.00000000E+00  0.00000000E+00  0.00000000E+00
  0.00000000E+00  0.00000000E+00  0.00000000E+00
  0.00000000E+00  0.00000000E+00  0.00000000E+00
  0.00000000E+00  0.00000000E+00  0.00000000E+00
  0.00000000E+00  0.00000000E+00  0.00000000E+00
  0.00000000E+00  0.00000000E+00  0.00000000E+00
  0.00000000E+00  0.00000000E+00  0.00000000E+00
  0.00000000E+00  0.00000000E+00  0.00000000E+00
  0.00000000E+00  0.00000000E+00  0.00000000E+00
  0.00000000E+00  0.00000000E+00  0.00000000E+00
  0.00000000E+00  0.00000000E+00  0.00000000E+00
  0.00000000E+00  0.00000000E+00  0.00000000E+00
  0.00000000E+00  0.00000000E+00  0.00000000E+00
  0.00000000E+00  0.00000000E+00  0.00000000E+00
  0.00000000E+00  0.00000000E+00  0.00000000E+00
  0.00000000E+00  0.00000000E+00  0.00000000E+00
  0.00000000E+00  0.00000000E+00  0.00000000E+00
  0.00000000E+00  0.00000000E+00  0.00000000E+00
  0.00000000E+00  0.00000000E+00  0.00000000E+00
  0.00000000E+00  0.00000000E+00  0.00000000E+00
  0.00000000E+00  0.00000000E+00  0.00000000E+00
  0.00000000E+00  0.00000000E+00  0.00000000E+00
  0.00000000E+00  0.00000000E+00  0.00000000E+00
  0.00000000E+00  0.00000000E+00  0.00000000E+00
  0.00000000E+00  0.00000000E+00  0.00000000E+00
  0.00000000E+00  0.00000000E+00  0.00000000E+00
  0.00000000E+00  0.00000000E+00  0.00000000E+00
  0.00000000E+00  0.00000000E+00  0.00000000E+00
  0.00000000E+00  0.00000000E+00  0.00000000E+00
