CONTCAR\(4)                             
   1.00000000000000     
    12.6408004761000008    0.0000000000000000    0.0000000000000000
    -6.3204002380000004   10.9472543365000003    0.0000000000000000
     0.0000000000000000    0.0000000000000000   17.9836006164999986
   V    S    O 
    16    32     1
Selective dynamics
Direct
  0.0813672249228432  0.1634710767987499  0.5012126899641700   F   F   F
  0.3320106104748106  0.1634337677821733  0.5012657500613003   F   F   F
  0.5816816199906327  0.1638799904387582  0.5014006932081543   F   F   F
  0.8322080914479173  0.1639591993651806  0.5013252645274875   F   F   F
  0.0811303968747339  0.4128407854055993  0.5008614192197669   F   F   F
  0.3319445466534319  0.4138697563110156  0.5009648892554424   F   F   F
  0.5816815469239742  0.4127473413719329  0.5012061274923525   F   F   F
  0.8316326458641967  0.4132608475502977  0.5008494804663783   F   F   F
  0.0810476778869926  0.6631859225313974  0.5009151167738324   F   F   F
  0.3238487370853846  0.6594750737336810  0.5003551950847225   F   F   F
  0.5856709934898490  0.6594180472913749  0.5006295073387079   F   F   F
  0.8321499513817017  0.6631316384495918  0.5011388310085536   F   F   F
  0.0813387282610236  0.9127394426731854  0.5012529936454300   F   F   F
  0.3318445953319227  0.9130106722364459  0.5012325021584658   F   F   F
  0.5856473195605574  0.9212627668096474  0.5007028009578178   F   F   F
  0.8311795542673011  0.9130348359906435  0.5013972778816438   F   F   F
  0.9981152044980490  0.9964266399178072  0.4185165705723222   F   F   F
  0.9981559704624559  0.9964984263110210  0.5839706084611649   F   F   F
  0.2481867324502147  0.9964557194274093  0.4184857909862885   F   F   F
  0.2483129845327525  0.9963906131935616  0.5839323544338910   F   F   F
  0.4981820051762469  0.9983643092639269  0.4177623886647979   F   F   F
  0.4985937336236574  0.9974812284456291  0.5845643979070374   F   F   F
  0.7502760575174179  0.9983078741333031  0.4178043874720743   F   F   F
  0.7488766034325280  0.9976422489701591  0.5845913511900633   F   F   F
  0.9980903829614931  0.2464609729285883  0.4180200288928688   F   F   F
  0.9984717417415894  0.2468835921903718  0.5841352481332294   F   F   F
  0.2482077753339667  0.2464146884632186  0.4184050947437683   F   F   F
  0.2484227392974887  0.2469688811996420  0.5838117072075519   F   F   F
  0.4983146279038451  0.2464670555785773  0.4181864080011195   F   F   F
  0.4982434911519036  0.2466472503702306  0.5842818837167556   F   F   F
  0.7482025222173689  0.2465049636657284  0.4183068769372582   F   F   F
  0.7486442892552390  0.2472983512112847  0.5839751193932514   F   F   F
  0.9980286105782028  0.4964526107104845  0.4179419231596171   F   F   F
  0.9978836367273587  0.4963385729869003  0.5836024747885276   F   F   F
  0.2468488010952754  0.4949351960062529  0.4173411225142303   F   F   F
  0.2473589544715367  0.4962037196416844  0.5841521097409554   F   F   F
  0.4983162613514196  0.4949100654128884  0.4175533998343184   F   F   F
  0.4986537962662467  0.4961068894551701  0.5843802260826578   F   F   F
  0.7482354787534007  0.4964073155216013  0.4181577684105662   F   F   F
  0.7485848684354153  0.4962675103262981  0.5838061639493546   F   F   F
  0.9981494904702188  0.7464813488635542  0.4179732118760526   F   F   F
  0.9982607229673093  0.7463481174941151  0.5840819290855777   F   F   F
  0.2467430590325819  0.7469843769819988  0.4174443663370937   F   F   F
  0.2472338060198993  0.7460605441449744  0.5842747122587824   F   F   F
  0.4985839268081236  0.7468216339314182  0.4251570421675481   F   F   F
  0.4981879942893954  0.7465505137280743  0.5776248748450286   F   F   F
  0.7502875745868849  0.7469422553089089  0.4176897366066186   F   F   F
  0.7488790519766795  0.7460931994632602  0.5845128534162711   F   F   F
  0.4979022901966061  0.7464820370123135  0.6593803639127191   T   T   T
 
  0.00000000E+00  0.00000000E+00  0.00000000E+00
  0.00000000E+00  0.00000000E+00  0.00000000E+00
  0.00000000E+00  0.00000000E+00  0.00000000E+00
  0.00000000E+00  0.00000000E+00  0.00000000E+00
  0.00000000E+00  0.00000000E+00  0.00000000E+00
  0.00000000E+00  0.00000000E+00  0.00000000E+00
  0.00000000E+00  0.00000000E+00  0.00000000E+00
  0.00000000E+00  0.00000000E+00  0.00000000E+00
  0.00000000E+00  0.00000000E+00  0.00000000E+00
  0.00000000E+00  0.00000000E+00  0.00000000E+00
  0.00000000E+00  0.00000000E+00  0.00000000E+00
  0.00000000E+00  0.00000000E+00  0.00000000E+00
  0.00000000E+00  0.00000000E+00  0.00000000E+00
  0.00000000E+00  0.00000000E+00  0.00000000E+00
  0.00000000E+00  0.00000000E+00  0.00000000E+00
  0.00000000E+00  0.00000000E+00  0.00000000E+00
  0.00000000E+00  0.00000000E+00  0.00000000E+00
  0.00000000E+00  0.00000000E+00  0.00000000E+00
  0.00000000E+00  0.00000000E+00  0.00000000E+00
  0.00000000E+00  0.00000000E+00  0.00000000E+00
  0.00000000E+00  0.00000000E+00  0.00000000E+00
  0.00000000E+00  0.00000000E+00  0.00000000E+00
  0.00000000E+00  0.00000000E+00  0.00000000E+00
  0.00000000E+00  0.00000000E+00  0.00000000E+00
  0.00000000E+00  0.00000000E+00  0.00000000E+00
  0.00000000E+00  0.00000000E+00  0.00000000E+00
  0.00000000E+00  0.00000000E+00  0.00000000E+00
  0.00000000E+00  0.00000000E+00  0.00000000E+00
  0.00000000E+00  0.00000000E+00  0.00000000E+00
  0.00000000E+00  0.00000000E+00  0.00000000E+00
  0.00000000E+00  0.00000000E+00  0.00000000E+00
  0.00000000E+00  0.00000000E+00  0.00000000E+00
  0.00000000E+00  0.00000000E+00  0.00000000E+00
  0.00000000E+00  0.00000000E+00  0.00000000E+00
  0.00000000E+00  0.00000000E+00  0.00000000E+00
  0.00000000E+00  0.00000000E+00  0.00000000E+00
  0.00000000E+00  0.00000000E+00  0.00000000E+00
  0.00000000E+00  0.00000000E+00  0.00000000E+00
  0.00000000E+00  0.00000000E+00  0.00000000E+00
  0.00000000E+00  0.00000000E+00  0.00000000E+00
  0.00000000E+00  0.00000000E+00  0.00000000E+00
  0.00000000E+00  0.00000000E+00  0.00000000E+00
  0.00000000E+00  0.00000000E+00  0.00000000E+00
  0.00000000E+00  0.00000000E+00  0.00000000E+00
  0.00000000E+00  0.00000000E+00  0.00000000E+00
  0.00000000E+00  0.00000000E+00  0.00000000E+00
  0.00000000E+00  0.00000000E+00  0.00000000E+00
  0.00000000E+00  0.00000000E+00  0.00000000E+00
  0.00000000E+00  0.00000000E+00  0.00000000E+00
