CONTCAR\(3)                             
   1.00000000000000     
    14.4757995605000005    0.0000000000000000    0.0000000000000000
     7.2285261864999999   12.5388166469000009    0.0000000000000000
     0.0000000000000000    0.0000000000000000   18.6821994780999994
   Nb   Te   O    H 
    16    32     1     1
Direct
  0.9651200793949939  0.0109904640470080  0.5058028289502028
  0.2880099620636550  0.9807355137666129  0.4980188680968020
  0.5150243989434719  0.9924806301104685  0.4987566873153764
  0.7408422760329598  0.9933295470476462  0.5001385634481379
  0.9616133568640873  0.2651520782001711  0.5080879814821810
  0.2882313987291237  0.2278293567074717  0.4979119299703860
  0.5160494718882946  0.2235460399156325  0.4931632173554542
  0.7377217855871177  0.2334248584649664  0.5020300017725055
  0.9644704056027861  0.5160578532531986  0.5074964595821917
  0.2926950122645647  0.4738253305318387  0.5051306445852938
  0.5134466001100462  0.4718213065449036  0.5042488380976384
  0.7359148805909641  0.5157494453619690  0.5042981222013638
  0.9650261739487354  0.7639426798757235  0.5051906608092777
  0.2935199497190452  0.7252095562310615  0.5002671538908755
  0.5141472128462753  0.7608744320004912  0.4998952189810152
  0.7396159405158518  0.7638174094928025  0.5012812019323192
  0.0842100822059521  0.0799441691091850  0.4211977920951593
  0.1658712344312952  0.1642084947868909  0.5841892909657739
  0.3408537916265257  0.0774685263886437  0.3920268765140323
  0.4286174910384207  0.1595262647234141  0.6056296911750593
  0.5900076656547513  0.0721135517644856  0.3892837675949954
  0.6604168307871273  0.1595082916657340  0.6063565565202106
  0.8288764728083181  0.0774273463309214  0.3947071619005375
  0.9072160533986475  0.1636854010999651  0.6105663750378231
  0.0830500877712633  0.3295838245203831  0.4220665375849181
  0.1666137025775069  0.4111661016957806  0.5860264907950703
  0.3399635897333551  0.3275397037678738  0.3939727424433322
  0.4264829797880663  0.4093211466756254  0.6194637837015993
  0.5866894379967332  0.3228295670083060  0.3939947249413546
  0.6730494959588187  0.4053114620147453  0.6031160144334856
  0.8191026570742054  0.3364174243202782  0.4031671478608960
  0.9068947412474541  0.4200289779207622  0.6113646235496024
  0.0907385270502079  0.5754398720479488  0.4237374327184222
  0.1673494571927969  0.6639527018860623  0.5825461304125085
  0.3442541289808224  0.5700265927693650  0.3976496174178648
  0.4380465256928182  0.6544605789231135  0.6028761215613947
  0.5783319312858938  0.5821097138219566  0.4045437040735133
  0.6645816101895569  0.6719330577247378  0.6076586488412294
  0.8250667596471797  0.5864650387950147  0.3987511040943530
  0.9084922488916563  0.6695620763999479  0.6112873529909509
  0.0895527044440952  0.8260194643022584  0.4219183538498972
  0.1683806309971781  0.9128848046159755  0.5833869849094059
  0.3436613736693163  0.8260394942469746  0.3944840422483537
  0.4262611017543935  0.9149377815233199  0.6079359419928881
  0.5889819366932171  0.8320817373616763  0.3914449351049810
  0.6647213018522562  0.9161429981590330  0.6085831122108459
  0.8300128662490754  0.8315120479268606  0.3931681417371938
  0.9086051877294983  0.9156282233472366  0.6106813758961215
  0.3574511816821334  0.5385050240680100  0.6922189170116785
  0.3998455937974548  0.5134114747355569  0.7360601223435147
 
  0.00000000E+00  0.00000000E+00  0.00000000E+00
  0.00000000E+00  0.00000000E+00  0.00000000E+00
  0.00000000E+00  0.00000000E+00  0.00000000E+00
  0.00000000E+00  0.00000000E+00  0.00000000E+00
  0.00000000E+00  0.00000000E+00  0.00000000E+00
  0.00000000E+00  0.00000000E+00  0.00000000E+00
  0.00000000E+00  0.00000000E+00  0.00000000E+00
  0.00000000E+00  0.00000000E+00  0.00000000E+00
  0.00000000E+00  0.00000000E+00  0.00000000E+00
  0.00000000E+00  0.00000000E+00  0.00000000E+00
  0.00000000E+00  0.00000000E+00  0.00000000E+00
  0.00000000E+00  0.00000000E+00  0.00000000E+00
  0.00000000E+00  0.00000000E+00  0.00000000E+00
  0.00000000E+00  0.00000000E+00  0.00000000E+00
  0.00000000E+00  0.00000000E+00  0.00000000E+00
  0.00000000E+00  0.00000000E+00  0.00000000E+00
  0.00000000E+00  0.00000000E+00  0.00000000E+00
  0.00000000E+00  0.00000000E+00  0.00000000E+00
  0.00000000E+00  0.00000000E+00  0.00000000E+00
  0.00000000E+00  0.00000000E+00  0.00000000E+00
  0.00000000E+00  0.00000000E+00  0.00000000E+00
  0.00000000E+00  0.00000000E+00  0.00000000E+00
  0.00000000E+00  0.00000000E+00  0.00000000E+00
  0.00000000E+00  0.00000000E+00  0.00000000E+00
  0.00000000E+00  0.00000000E+00  0.00000000E+00
  0.00000000E+00  0.00000000E+00  0.00000000E+00
  0.00000000E+00  0.00000000E+00  0.00000000E+00
  0.00000000E+00  0.00000000E+00  0.00000000E+00
  0.00000000E+00  0.00000000E+00  0.00000000E+00
  0.00000000E+00  0.00000000E+00  0.00000000E+00
  0.00000000E+00  0.00000000E+00  0.00000000E+00
  0.00000000E+00  0.00000000E+00  0.00000000E+00
  0.00000000E+00  0.00000000E+00  0.00000000E+00
  0.00000000E+00  0.00000000E+00  0.00000000E+00
  0.00000000E+00  0.00000000E+00  0.00000000E+00
  0.00000000E+00  0.00000000E+00  0.00000000E+00
  0.00000000E+00  0.00000000E+00  0.00000000E+00
  0.00000000E+00  0.00000000E+00  0.00000000E+00
  0.00000000E+00  0.00000000E+00  0.00000000E+00
  0.00000000E+00  0.00000000E+00  0.00000000E+00
  0.00000000E+00  0.00000000E+00  0.00000000E+00
  0.00000000E+00  0.00000000E+00  0.00000000E+00
  0.00000000E+00  0.00000000E+00  0.00000000E+00
  0.00000000E+00  0.00000000E+00  0.00000000E+00
  0.00000000E+00  0.00000000E+00  0.00000000E+00
  0.00000000E+00  0.00000000E+00  0.00000000E+00
  0.00000000E+00  0.00000000E+00  0.00000000E+00
  0.00000000E+00  0.00000000E+00  0.00000000E+00
  0.00000000E+00  0.00000000E+00  0.00000000E+00
  0.00000000E+00  0.00000000E+00  0.00000000E+00
