 Ce2 Br2 O2                             
   1.00000000000000     
     3.9500602674598122    0.0000000000000000    0.0000000000000000
     1.9750296373648430    3.4208537373985397    0.0000000000000000
     0.0000000000000000    0.0000000000000000   21.9173923833599993
   Ce   Br   O 
     2     2     2
Direct
  0.6666666979735066  0.6666666966597187  0.4326688761934825
  0.3333333746977434  0.3333333154920302  0.5673364135476440
  0.0000000403852387  0.0000001362118589  0.6588503674849838
  0.0000001187048370  0.0000001317964954  0.3411364519177148
  0.6666665237124076  0.6666665537897626  0.5403970735499425
  0.3333332445262664  0.3333331660501346  0.4596108173062327
 
  0.00000000E+00  0.00000000E+00  0.00000000E+00
  0.00000000E+00  0.00000000E+00  0.00000000E+00
  0.00000000E+00  0.00000000E+00  0.00000000E+00
  0.00000000E+00  0.00000000E+00  0.00000000E+00
  0.00000000E+00  0.00000000E+00  0.00000000E+00
  0.00000000E+00  0.00000000E+00  0.00000000E+00
