CONTCAR\(3)                             
   1.00000000000000     
    13.5726995467999991    0.0000000000000000    0.0000000000000000
     0.0000000000000000   13.5726995467999991    0.0000000000000000
     0.0000000000000000    0.0000000000000000   18.0848999022999983
   Pt   Pb   O    H 
     8    32     1     1
Selective dynamics
Direct
  0.0003028265485128  0.9982827956443501  0.4988904394671181   F   F   F
  0.2518082748605579  0.2487905793888103  0.4990788693876951   F   F   F
  0.4980043202935320  0.9993574153814464  0.4988483514144590   F   F   F
  0.7535541324704553  0.2463743494803339  0.4936835162472164   F   F   F
  0.0050002340589401  0.4964958978505294  0.4934844280125645   F   F   F
  0.2503303732792901  0.7513027547442732  0.4990243188292141   F   F   F
  0.5041207278997106  0.5011671911302145  0.5076936282944260   F   F   F
  0.7488811759289646  0.7456188821160836  0.5079706830578772   F   F   F
  0.3377600607132933  0.4175964131831407  0.4220978862714873   F   F   F
  0.0888708172680666  0.3311717654612778  0.4153549928190898   F   F   F
  0.0870769472941149  0.1629883298438273  0.5797190078690022   F   F   F
  0.4171581893861216  0.3342171938583860  0.5834571672999260   F   F   F
  0.1679526919446843  0.4155230926081472  0.5789095905565347   F   F   F
  0.3354347668299553  0.0851761778228806  0.5811196009577131   F   F   F
  0.1657598926178636  0.0826264470784039  0.4167045170770791   F   F   F
  0.4174049708179481  0.1652536657082777  0.4180163958497616   F   F   F
  0.8356301565881736  0.4150206724919911  0.4156429866258833   F   F   F
  0.5845525970113457  0.3357474361893438  0.4222471623708941   F   F   F
  0.5862003548690637  0.1670174477421185  0.5768159377043958   F   F   F
  0.9180280364929416  0.3325952633991918  0.5756268556769726   F   F   F
  0.6692279531102088  0.4115558982918870  0.5881442364164684   F   F   F
  0.8340249282502015  0.0833457962944237  0.5790522109427911   F   F   F
  0.6634712876316371  0.0811866679573967  0.4158348756214991   F   F   F
  0.9195858139037441  0.1624780248047983  0.4162958263809671   F   F   F
  0.3358278238554462  0.9133892702534752  0.4146717652777738   F   F   F
  0.0835048013597302  0.8325389240843393  0.4188299875830097   F   F   F
  0.0831836992708546  0.6634688151236290  0.5769380644757049   F   F   F
  0.4103963148506509  0.8389486375960686  0.5810476737865642   F   F   F
  0.1646100059616771  0.9150284933871191  0.5812131820371960   F   F   F
  0.3343878952339949  0.5866604330053349  0.5798945482362399   F   F   F
  0.1696086943384856  0.5867796098379401  0.4147215853724617   F   F   F
  0.4167182618206766  0.6638355494876222  0.4178852356514682   F   F   F
  0.8310682028367751  0.9121674577809955  0.4222791218253334   F   F   F
  0.5862403985180720  0.8346644124424429  0.4184063144456616   F   F   F
  0.5827815855065666  0.6656587888206502  0.5946138974259370   F   F   F
  0.9172576420291136  0.8343037683234655  0.5834538509010727   F   F   F
  0.6634594461475061  0.9153361547670542  0.5801139062307854   F   F   F
  0.8387968776948185  0.5807112352916164  0.5874559576894498   F   F   F
  0.6666132845896371  0.5827313889124781  0.4290732914150155   F   F   F
  0.9139432090836763  0.6646444256186683  0.4221352164981127   F   F   F
  0.6748480617067685  0.5743658699847956  0.6797373713912975   T   T   T
  0.6609520161262380  0.5874963428107661  0.7309660923715204   T   T   T
 
  0.00000000E+00  0.00000000E+00  0.00000000E+00
  0.00000000E+00  0.00000000E+00  0.00000000E+00
  0.00000000E+00  0.00000000E+00  0.00000000E+00
  0.00000000E+00  0.00000000E+00  0.00000000E+00
  0.00000000E+00  0.00000000E+00  0.00000000E+00
  0.00000000E+00  0.00000000E+00  0.00000000E+00
  0.00000000E+00  0.00000000E+00  0.00000000E+00
  0.00000000E+00  0.00000000E+00  0.00000000E+00
  0.00000000E+00  0.00000000E+00  0.00000000E+00
  0.00000000E+00  0.00000000E+00  0.00000000E+00
  0.00000000E+00  0.00000000E+00  0.00000000E+00
  0.00000000E+00  0.00000000E+00  0.00000000E+00
  0.00000000E+00  0.00000000E+00  0.00000000E+00
  0.00000000E+00  0.00000000E+00  0.00000000E+00
  0.00000000E+00  0.00000000E+00  0.00000000E+00
  0.00000000E+00  0.00000000E+00  0.00000000E+00
  0.00000000E+00  0.00000000E+00  0.00000000E+00
  0.00000000E+00  0.00000000E+00  0.00000000E+00
  0.00000000E+00  0.00000000E+00  0.00000000E+00
  0.00000000E+00  0.00000000E+00  0.00000000E+00
  0.00000000E+00  0.00000000E+00  0.00000000E+00
  0.00000000E+00  0.00000000E+00  0.00000000E+00
  0.00000000E+00  0.00000000E+00  0.00000000E+00
  0.00000000E+00  0.00000000E+00  0.00000000E+00
  0.00000000E+00  0.00000000E+00  0.00000000E+00
  0.00000000E+00  0.00000000E+00  0.00000000E+00
  0.00000000E+00  0.00000000E+00  0.00000000E+00
  0.00000000E+00  0.00000000E+00  0.00000000E+00
  0.00000000E+00  0.00000000E+00  0.00000000E+00
  0.00000000E+00  0.00000000E+00  0.00000000E+00
  0.00000000E+00  0.00000000E+00  0.00000000E+00
  0.00000000E+00  0.00000000E+00  0.00000000E+00
  0.00000000E+00  0.00000000E+00  0.00000000E+00
  0.00000000E+00  0.00000000E+00  0.00000000E+00
  0.00000000E+00  0.00000000E+00  0.00000000E+00
  0.00000000E+00  0.00000000E+00  0.00000000E+00
  0.00000000E+00  0.00000000E+00  0.00000000E+00
  0.00000000E+00  0.00000000E+00  0.00000000E+00
  0.00000000E+00  0.00000000E+00  0.00000000E+00
  0.00000000E+00  0.00000000E+00  0.00000000E+00
  0.00000000E+00  0.00000000E+00  0.00000000E+00
  0.00000000E+00  0.00000000E+00  0.00000000E+00
