SYSTEM =Ru_double_gra
PREC=Normal
ENCUT = 400
ISTART = 0
ICHARG = 1
EDIFF = 1E-05
LREAL = Auto
EDIFFG = -2E-02
NSW =1
IBRION =5
NFREE = 2
ISIF = 2
ISMEAR = 0
MAGMOM = 12*1 36*-0.5 3*1
NBANDS=320
SIGMA =0.2
GGA = PE
ALGO=Normal
ISPIN = 2
#NCORE=4
LWAVE=.FALSE.
LCHARG=.FALSE.
#NPAR=4
ADDGRID=.TRUE.
IVDW=11
LMAXMIX=6
NELM=150
