CONTCAR                                 
   1.00000000000000     
    13.9656000136999996    0.0000000000000000    0.0000000000000000
     0.0000000000000000   11.8057003021000000    0.0000000000000000
     0.0000000000000000    0.0000000000000000   25.8033008574999982
   Ti   I    N    O    H 
    24    24    24     2     1
Direct
  0.1241200855497470  0.1649705175011955  0.4699596773665467
 -0.0006743557348938 -0.0013679654328618  0.5249484823740995
  0.3741314000089189  0.1649588870936977  0.4699668163100759
  0.2492485361890319 -0.0017433726349747  0.5249228461889135
  0.6240665147530625  0.1652475635743869  0.4702739751356498
  0.4991543677935811 -0.0014950712408690  0.5249806124736901
  0.8742943769115831  0.1647658636746661  0.4699931903868613
  0.7491357869004296 -0.0018411790481493  0.5250039289147806
  0.1241665812118242  0.4987276771415092  0.4699883453339251
 -0.0005584126942600  0.3320410947033837  0.5248030103823278
  0.3742093138236559  0.4985610559067963  0.4700730632572408
  0.2489983347792971  0.3316827733088055  0.5248347276658171
  0.6239905709794524  0.4980817295191837  0.4704149831886900
  0.4983382518713920  0.3317417410318596  0.5249796831670039
  0.8743596955100049  0.4989061263743303  0.4699939984509703
  0.7504434776056071  0.3316341069815946  0.5247384570328473
  0.1241504449325188  0.8316560589490614  0.4699972732902196
 -0.0006394145567388  0.6654559506372167  0.5249810995265920
  0.3742631322180850  0.8318585419776734  0.4699539219184956
  0.2495790653647582  0.6650542279874316  0.5250032225403717
  0.6240342438137794  0.8314494737089295  0.4701352758945860
  0.4988509436239492  0.6652356717003853  0.5251891149300199
  0.8741553307904278  0.8317741276172199  0.4700244187626031
  0.7491364458342052  0.6648738167414063  0.5250710504344296
 -0.0010208262385264  0.1668951544922644  0.3843756451263984
  0.1242091601321983 -0.0017906097298757  0.6104414796666919
  0.2490152472716778  0.1626671317942863  0.3844516564052035
  0.3741337071404291 -0.0004524906364318  0.6104781834197902
  0.4991124017041029  0.1670246083189561  0.3845363229123848
  0.6241743861176456 -0.0031062377058793  0.6104547952769355
  0.7488850095498275  0.1621473606232232  0.3846818334278804
  0.8742057865423257  0.0000181769346515  0.6105273492309653
 -0.0009579625955218  0.5005125170329048  0.3844074823467611
  0.1241166805290410  0.3316115671516645  0.6103196075254298
  0.2491258604884906  0.4960002213750304  0.3845265643729180
  0.3738989016188934  0.3328796045175750  0.6105136820697844
  0.4991005813980539  0.5003651094568857  0.3847585367606376
  0.6242722442227033  0.3270565961774152  0.6110424479364145
  0.7489080810845720  0.4954598220284122  0.3847136608703339
  0.8742917045559180  0.3334897284232098  0.6103865105763426
 -0.0009209230896454  0.8335907203167408  0.3844321409300628
  0.1242194052947727  0.6648950468872906  0.6104688582668091
  0.2490346071746443  0.8294896984125827  0.3844532249973858
  0.3738914566524922  0.6663769362005485  0.6104722916881794
  0.4990821051442327  0.8336743965777138  0.3844845573635992
  0.6243682936306251  0.6650368242547365  0.6107952425391673
  0.7490801715908817  0.8287563367422255  0.3845998615000537
  0.8743277153076501  0.6666844469078886  0.6105432131757571
  0.1241587712114064 -0.0014765555265421  0.4845977568829423
  0.9991831994472952  0.1652469148411009  0.5102501847702500
  0.3742103710520499 -0.0015488711436129  0.4845332454225891
  0.2491851764800579  0.1651935072178745  0.5102237689240655
  0.6241034234768198 -0.0015735159444452  0.4847602006842214
  0.4989795404194362  0.1651296918207665  0.5104122404759746
  0.8742233539752672 -0.0015790788070625  0.4846374986757421
  0.7493511754567330  0.1651223831436206  0.5104064963138286
  0.1241356023322260  0.3318707343171823  0.4845556866037671
  0.9991880371426205  0.4985781482980707  0.5102656253158466
  0.3743145430074907  0.3317880286839758  0.4846202103364313
  0.2492480999454177  0.4985322230520041  0.5102504978255690
  0.6240998025710630  0.3317409733316520  0.4851090675772942
  0.4989961775609703  0.4983742659246296  0.5107299189906707
  0.8741850901193213  0.3318214097968585  0.4844988336199975
  0.7493551785310654  0.4984520903334718  0.5104744928014442
  0.1241034645936184  0.6652032919312568  0.4846097286189356
  0.9991946421286921  0.8319022858468375  0.5103321319337787
  0.3743626544449469  0.6651071775252956  0.4845656740200229
  0.2492737014693361  0.8318563644098783  0.5102419312406203
  0.6240488083803175  0.6649993816697662  0.4849130998107283
  0.4990673119697093  0.8317567039176320  0.5104028466705703
  0.8742559926771211  0.6651664580105832  0.4846490236653996
  0.7491814923335974  0.8317396457930385  0.5103443593841717
  0.5188628131487029  0.4747455860216124  0.7204171220004038
  0.4901240177752382  0.5832346726559812  0.7230653617832181
  0.5537096406425188  0.4674540865506929  0.6866470343388859
 
  0.00000000E+00  0.00000000E+00  0.00000000E+00
  0.00000000E+00  0.00000000E+00  0.00000000E+00
  0.00000000E+00  0.00000000E+00  0.00000000E+00
  0.00000000E+00  0.00000000E+00  0.00000000E+00
  0.00000000E+00  0.00000000E+00  0.00000000E+00
  0.00000000E+00  0.00000000E+00  0.00000000E+00
  0.00000000E+00  0.00000000E+00  0.00000000E+00
  0.00000000E+00  0.00000000E+00  0.00000000E+00
  0.00000000E+00  0.00000000E+00  0.00000000E+00
  0.00000000E+00  0.00000000E+00  0.00000000E+00
  0.00000000E+00  0.00000000E+00  0.00000000E+00
  0.00000000E+00  0.00000000E+00  0.00000000E+00
  0.00000000E+00  0.00000000E+00  0.00000000E+00
  0.00000000E+00  0.00000000E+00  0.00000000E+00
  0.00000000E+00  0.00000000E+00  0.00000000E+00
  0.00000000E+00  0.00000000E+00  0.00000000E+00
  0.00000000E+00  0.00000000E+00  0.00000000E+00
  0.00000000E+00  0.00000000E+00  0.00000000E+00
  0.00000000E+00  0.00000000E+00  0.00000000E+00
  0.00000000E+00  0.00000000E+00  0.00000000E+00
  0.00000000E+00  0.00000000E+00  0.00000000E+00
  0.00000000E+00  0.00000000E+00  0.00000000E+00
  0.00000000E+00  0.00000000E+00  0.00000000E+00
  0.00000000E+00  0.00000000E+00  0.00000000E+00
  0.00000000E+00  0.00000000E+00  0.00000000E+00
  0.00000000E+00  0.00000000E+00  0.00000000E+00
  0.00000000E+00  0.00000000E+00  0.00000000E+00
  0.00000000E+00  0.00000000E+00  0.00000000E+00
  0.00000000E+00  0.00000000E+00  0.00000000E+00
  0.00000000E+00  0.00000000E+00  0.00000000E+00
  0.00000000E+00  0.00000000E+00  0.00000000E+00
  0.00000000E+00  0.00000000E+00  0.00000000E+00
  0.00000000E+00  0.00000000E+00  0.00000000E+00
  0.00000000E+00  0.00000000E+00  0.00000000E+00
  0.00000000E+00  0.00000000E+00  0.00000000E+00
  0.00000000E+00  0.00000000E+00  0.00000000E+00
  0.00000000E+00  0.00000000E+00  0.00000000E+00
  0.00000000E+00  0.00000000E+00  0.00000000E+00
  0.00000000E+00  0.00000000E+00  0.00000000E+00
  0.00000000E+00  0.00000000E+00  0.00000000E+00
  0.00000000E+00  0.00000000E+00  0.00000000E+00
  0.00000000E+00  0.00000000E+00  0.00000000E+00
  0.00000000E+00  0.00000000E+00  0.00000000E+00
  0.00000000E+00  0.00000000E+00  0.00000000E+00
  0.00000000E+00  0.00000000E+00  0.00000000E+00
  0.00000000E+00  0.00000000E+00  0.00000000E+00
  0.00000000E+00  0.00000000E+00  0.00000000E+00
  0.00000000E+00  0.00000000E+00  0.00000000E+00
  0.00000000E+00  0.00000000E+00  0.00000000E+00
  0.00000000E+00  0.00000000E+00  0.00000000E+00
  0.00000000E+00  0.00000000E+00  0.00000000E+00
  0.00000000E+00  0.00000000E+00  0.00000000E+00
  0.00000000E+00  0.00000000E+00  0.00000000E+00
  0.00000000E+00  0.00000000E+00  0.00000000E+00
  0.00000000E+00  0.00000000E+00  0.00000000E+00
  0.00000000E+00  0.00000000E+00  0.00000000E+00
  0.00000000E+00  0.00000000E+00  0.00000000E+00
  0.00000000E+00  0.00000000E+00  0.00000000E+00
  0.00000000E+00  0.00000000E+00  0.00000000E+00
  0.00000000E+00  0.00000000E+00  0.00000000E+00
  0.00000000E+00  0.00000000E+00  0.00000000E+00
  0.00000000E+00  0.00000000E+00  0.00000000E+00
  0.00000000E+00  0.00000000E+00  0.00000000E+00
  0.00000000E+00  0.00000000E+00  0.00000000E+00
  0.00000000E+00  0.00000000E+00  0.00000000E+00
  0.00000000E+00  0.00000000E+00  0.00000000E+00
  0.00000000E+00  0.00000000E+00  0.00000000E+00
  0.00000000E+00  0.00000000E+00  0.00000000E+00
  0.00000000E+00  0.00000000E+00  0.00000000E+00
  0.00000000E+00  0.00000000E+00  0.00000000E+00
  0.00000000E+00  0.00000000E+00  0.00000000E+00
  0.00000000E+00  0.00000000E+00  0.00000000E+00
  0.00000000E+00  0.00000000E+00  0.00000000E+00
  0.00000000E+00  0.00000000E+00  0.00000000E+00
  0.00000000E+00  0.00000000E+00  0.00000000E+00
