CONTCAR\(16)                            
   1.00000000000000     
    13.7772998809999994    0.0000000000000000    0.0000000000000000
    -0.9002177756999999   20.5238668944999993    0.0000000000000000
     0.0000000000000000    0.0000000000000000   22.2061004639000004
   Cu   Se   O 
    36    36   108
Direct
  0.1664933749469354  0.0449977510243693  0.5103938715888886
  0.3087495427531340  0.0240502023097726  0.6376857523568272
  0.3176018367616109  0.4179461748221351  0.5000511953362168
  0.1352146008384809  0.2907097914941864  0.4895475228777543
  0.3176357425551744  0.1679904463122301  0.4998007772235415
  0.3264180779206776  0.3119188599810636  0.3623374445534079
  0.4996341272851966  0.0449457229343577  0.5101627770665905
  0.6419341299931395  0.0238979517261239  0.6375365101171494
  0.6509243483914565  0.4179542213477228  0.5001536651097259
  0.4685263168568075  0.2906148694126154  0.4895853653238498
  0.6508146413543537  0.1678696105962241  0.4999403423120926
  0.6597849167338473  0.3120544287265793  0.3624612915514838
  0.8330166362940105  0.0450066661048458  0.5103485712769606
  0.9753373663153705  0.0240412791245198  0.6375594416332681
  0.9839196178336317  0.4179802712386173  0.5003650296559492
  0.8018431184016279  0.2906238972406909  0.4898175264003581
  0.9843601043458715  0.1678882607975923  0.4999461692091248
  0.9929272524452226  0.3118688141927571  0.3624479065190658
  0.1664998307839624  0.5450265645971550  0.5106732135987678
  0.3087227599830185  0.5240038987407601  0.6377254804438834
  0.3175161824918736  0.9178833083509425  0.4999845044858158
  0.1351644391699295  0.7906610723868656  0.4895037601128492
  0.3175288377149751  0.6679397573190761  0.4998731047979422
  0.3265174276201785  0.8118277443707921  0.3623413465654757
  0.4997136947300435  0.5450278934929192  0.5102357564418332
  0.6422496449758749  0.5239016986795928  0.6375186655832042
  0.6508087114514340  0.9178638676855312  0.5000851898289783
  0.4685601699175492  0.7906018019215916  0.4896543646716672
  0.6506967087457326  0.6678494704643251  0.4998149673957862
  0.6597903596651941  0.8120347685238190  0.3624916989251835
  0.8330369150316334  0.5459404231175348  0.5100500173530164
  0.9754102567511017  0.5239589295181917  0.6378794272976062
  0.9842816846746777  0.9179215435435173  0.5001274171528809
  0.8018728541888828  0.7906063486380812  0.4898076381895054
  0.9843637179390451  0.6680491291034033  0.4999551326479888
  0.9929789746371137  0.8118812491348125  0.3623561211915617
  0.1227083047625374  0.4227243589387979  0.6186799528673974
  0.1315575828670904  0.1351240751886079  0.6096921309921735
  0.1793545465143865  0.4131898341473660  0.3816650733688160
  0.3340846978232464  0.0424359809349509  0.4104329260206563
  0.1704276725831053  0.2008145428422418  0.3900808003607685
  0.3006786404931209  0.2933429226932012  0.5893397006207459
  0.4558216239459389  0.4227671678924471  0.6184946968916913
  0.4648255238168734  0.1349768482058109  0.6095150551889917
  0.5125398789769400  0.4131610388400115  0.3817328985857198
  0.6676415937529533  0.0422723733455604  0.4104781761016059
  0.5037227220175257  0.2008370170454091  0.3901082453889097
  0.6337276634804875  0.2932869754183560  0.5895223111600739
  0.7893162749864602  0.4225970334369087  0.6183680267047869
  0.7978461685333750  0.1349415213032505  0.6098365195303230
  0.8460018718872071  0.4132057375509413  0.3818665859788057
  0.0010902844220395  0.0424121889030561  0.4105357200786667
  0.8367172235231611  0.2007529015515367  0.3903914748479405
  0.9673911817105872  0.2931436143540056  0.5895294853884664
  0.1225812452010720  0.9227362568060182  0.6185528654475815
  0.1310694278307466  0.6351269590485953  0.6098280550240351
  0.1794757226581541  0.9131017444113404  0.3815826638909484
  0.3340615648482260  0.5424229750494216  0.4105754415028317
  0.1705205413408616  0.7007690712063048  0.3900578531612123
  0.3004572327773088  0.7933082342804469  0.5893501442459608
  0.4557436117834812  0.9227817593884924  0.6184760554724147
  0.4647539763461691  0.6350263234795372  0.6095356681500347
  0.5125308654192309  0.9130941542665021  0.3817250566138192
  0.6675081426769831  0.5423149465185225  0.4103994892104492
  0.5037323151637320  0.7007672336008656  0.3900721391353812
  0.6337912654524356  0.7932043511274701  0.5894684630426462
  0.7891897729906934  0.9226497003044435  0.6184121084519706
  0.7983638751409876  0.6348761686701645  0.6096969512119182
  0.8459828306623186  0.9131838025730828  0.3818161737702121
  0.0010646624203388  0.5424345104117398  0.4107949349713854
  0.8366520385477603  0.7008068875771356  0.3902788447136928
  0.9673517328318169  0.7932783248682732  0.5895385016196065
  0.2861863030102048  0.0067967423710856  0.4783584878865523
  0.0844373520999623  0.1170914984941581  0.5360340863571575
  0.0833145944602307  0.4784566565853874  0.6699453762723453
  0.1794384852432053  0.2962168919798112  0.5740506935360783
  0.3227086487935985  0.2126555544013100  0.5767400039523547
  0.2122747428084704  0.0709833223099701  0.5933926311130175
  0.1223081307316382  0.0396161762515439  0.4258226724635298
  0.2468893002651868  0.4392169026525864  0.6189753160825484
  0.2178226015910795  0.2189022693872246  0.4636288573900680
  0.0907953345125903  0.4571983851201187  0.5485638787013956
  0.0461483225111958  0.1042619637964335  0.6580081734539236
  0.2556256032444462  0.2317384775728000  0.3416618731205640
  0.0551854821446226  0.3966843352609328  0.3809401047340622
  0.2109345385482020  0.3785075514235516  0.4516939934543360
  0.0895323970413134  0.2648300687197978  0.4065269566153577
  0.0153979351865083  0.3289129511729817  0.5217008759730504
  0.2188266096852652  0.3575053744443051  0.3302769500727716
  0.3119973106367792  0.1231142748796522  0.4229602813388487
  0.6195087409685065  0.0067280315046986  0.4783730854787274
  0.4174834718436073  0.1169842242657241  0.5359402029735353
  0.4170456160435550  0.4787589798886181  0.6697525710317563
  0.5125099388836963  0.2958892655158918  0.5741577956417017
  0.6561207509185512  0.2126369405935477  0.5768694542511432
  0.5455879205420704  0.0708924416611362  0.5931640168500787
  0.4553603900530994  0.0396173154332929  0.4256114877972805
  0.5800339412522144  0.4389199638244940  0.6188107846720080
  0.5508462169568070  0.2186958239631041  0.4637793176643391
  0.4239412238282088  0.4574080806141833  0.5484057765723631
  0.3794462682848033  0.1042479999521753  0.6579490923724020
  0.5892807352621897  0.2317552593018283  0.3418980923429731
  0.3884019188029135  0.3966944202835110  0.3811984152480603
  0.5443711904189995  0.3784883430400346  0.4517064832311319
  0.4227723589696974  0.2647689330636117  0.4065349931557853
  0.3489124694651444  0.3289828704946738  0.5215229741862669
  0.5517219781459282  0.3573603497279673  0.3303686791256097
  0.6454021164715182  0.1229391067551307  0.4230513341941341
  0.9529015265985934  0.0067993973775069  0.4784274253527135
  0.7505776318816983  0.1169276520611819  0.5362098251447532
  0.7500252950820918  0.4784527003468933  0.6696616764812823
  0.8461101288609700  0.2956352580172505  0.5743298933064925
  0.9900758209526015  0.2125364565782271  0.5768872660673788
  0.8787662398217567  0.0709911231301695  0.5933754201521835
  0.7889000784318724  0.0395830582975058  0.4257763244874896
  0.9134721936544671  0.4391133778666374  0.6184252664037660
  0.8840229030049840  0.2185639263888461  0.4640160384054590
  0.7575465059138640  0.4571591669432923  0.5483016913464263
  0.7124927060558370  0.1040876511788241  0.6581940339524167
  0.9220902697193518  0.2316344809790596  0.3420677608187038
  0.7217374074855712  0.3968802137872269  0.3812020190548311
  0.8776622161630847  0.3784823121119135  0.4518469006059599
  0.7560303266757396  0.2648571817292265  0.4068126992756786
  0.6820362951288403  0.3289733554462249  0.5217597282791313
  0.8850591923064384  0.3573246901082802  0.3305105065674296
  0.9787972488444804  0.1230462607055565  0.4230800847713312
  0.2861853907968955  0.5068502265014333  0.4784932774017234
  0.0840197043201862  0.6170946561216399  0.5361520445702020
  0.0830605281868622  0.9785650428100977  0.6697553705261650
  0.1792207502453713  0.7961805467243550  0.5740518503425788
  0.3225490268406380  0.7126330153077585  0.5767786653272248
  0.2121491508849196  0.5712691964581660  0.5935543951810945
  0.1222679965305210  0.5394374361259329  0.4261670241523046
  0.2467628445626321  0.9391694694378555  0.6192741447105322
  0.2178004003859794  0.7188454701373479  0.4636550555959890
  0.0910970074068286  0.9572133949739193  0.5483863536047796
  0.0455195872583935  0.6042528189609192  0.6581288075631270
  0.2558654689532512  0.7316532926895926  0.3417070907633687
  0.0552853520545343  0.8966972472655748  0.3808608835715018
  0.2109423838261672  0.8784183298672282  0.4516561549439719
  0.0896288739438342  0.7647612077609748  0.4064522318164577
  0.0153652510193318  0.8288943383745662  0.5216423191238136
  0.2188360884047788  0.8573608839734819  0.3302365534700903
  0.3120121712587154  0.6231211108154566  0.4230117147718043
  0.6196820751123882  0.5068505717722001  0.4783856319589755
  0.4172740176889210  0.6169178810364244  0.5359562329441770
  0.4168000728530919  0.9787313304977003  0.6697567044191540
  0.5125399556721256  0.7960319104871406  0.5742615060646097
  0.6558726736239071  0.7125472249459170  0.5767023732046402
  0.5456890317678056  0.5711157155118518  0.5931737484271816
  0.4553804949882330  0.5396522853163387  0.4257597418677518
  0.5799479088076535  0.9390739147506716  0.6188233586252289
  0.5506674873128644  0.7185820875154131  0.4638906399841218
  0.4238328194729308  0.9573272084086416  0.5484053678975506
  0.3795947132015127  0.6042562150191387  0.6580568370575883
  0.5893415985505113  0.7317375667720972  0.3419413765068451
  0.3884028353284012  0.8965831404011414  0.3812040991459321
  0.5443298430711707  0.8783787285693733  0.4517104247509419
  0.4229558687189353  0.7648145645213219  0.4066236759469559
  0.3488063096841815  0.8289296410788916  0.5215614545479311
  0.5517844854898911  0.8573078475162622  0.3303681825097405
  0.6452202988838648  0.6230528360054048  0.4230036379293774
  0.9526615296303058  0.5070345578413078  0.4786681315260661
  0.7506474201557953  0.6167780498795065  0.5361855330332570
  0.7498033393212258  0.9784667704000295  0.6696836530995328
  0.8460613297516743  0.7957743556382414  0.5743754460239945
  0.9898961836299774  0.7126664548515419  0.5769322997452421
  0.8790122200085025  0.5704195010339254  0.5928895692948655
  0.7888161143799762  0.5398516875203002  0.4253743795291845
  0.9133443835501582  0.9391289879854902  0.6189531842877690
  0.8839151683503440  0.7185532285115022  0.4639547849681801
  0.7573877698740717  0.9572701636235196  0.5483798487473766
  0.7131350097653529  0.6042474665678482  0.6581296775028188
  0.9220514966870733  0.7316603913909443  0.3419703014601374
  0.7217064135219879  0.8968253292819260  0.3813141886287259
  0.8777809522471892  0.8784412640684141  0.4517792791864456
  0.7560278617734609  0.7649489223040681  0.4068033285444076
  0.6820521628610319  0.8289184837815039  0.5217117597008043
  0.8849853541961318  0.8573479639783024  0.3304472785334363
  0.9790568742910828  0.6231629089921505  0.4231084126727709
 
  0.00000000E+00  0.00000000E+00  0.00000000E+00
  0.00000000E+00  0.00000000E+00  0.00000000E+00
  0.00000000E+00  0.00000000E+00  0.00000000E+00
  0.00000000E+00  0.00000000E+00  0.00000000E+00
  0.00000000E+00  0.00000000E+00  0.00000000E+00
  0.00000000E+00  0.00000000E+00  0.00000000E+00
  0.00000000E+00  0.00000000E+00  0.00000000E+00
  0.00000000E+00  0.00000000E+00  0.00000000E+00
  0.00000000E+00  0.00000000E+00  0.00000000E+00
  0.00000000E+00  0.00000000E+00  0.00000000E+00
  0.00000000E+00  0.00000000E+00  0.00000000E+00
  0.00000000E+00  0.00000000E+00  0.00000000E+00
  0.00000000E+00  0.00000000E+00  0.00000000E+00
  0.00000000E+00  0.00000000E+00  0.00000000E+00
  0.00000000E+00  0.00000000E+00  0.00000000E+00
  0.00000000E+00  0.00000000E+00  0.00000000E+00
  0.00000000E+00  0.00000000E+00  0.00000000E+00
  0.00000000E+00  0.00000000E+00  0.00000000E+00
  0.00000000E+00  0.00000000E+00  0.00000000E+00
  0.00000000E+00  0.00000000E+00  0.00000000E+00
  0.00000000E+00  0.00000000E+00  0.00000000E+00
  0.00000000E+00  0.00000000E+00  0.00000000E+00
  0.00000000E+00  0.00000000E+00  0.00000000E+00
  0.00000000E+00  0.00000000E+00  0.00000000E+00
  0.00000000E+00  0.00000000E+00  0.00000000E+00
  0.00000000E+00  0.00000000E+00  0.00000000E+00
  0.00000000E+00  0.00000000E+00  0.00000000E+00
  0.00000000E+00  0.00000000E+00  0.00000000E+00
  0.00000000E+00  0.00000000E+00  0.00000000E+00
  0.00000000E+00  0.00000000E+00  0.00000000E+00
  0.00000000E+00  0.00000000E+00  0.00000000E+00
  0.00000000E+00  0.00000000E+00  0.00000000E+00
  0.00000000E+00  0.00000000E+00  0.00000000E+00
  0.00000000E+00  0.00000000E+00  0.00000000E+00
  0.00000000E+00  0.00000000E+00  0.00000000E+00
  0.00000000E+00  0.00000000E+00  0.00000000E+00
  0.00000000E+00  0.00000000E+00  0.00000000E+00
  0.00000000E+00  0.00000000E+00  0.00000000E+00
  0.00000000E+00  0.00000000E+00  0.00000000E+00
  0.00000000E+00  0.00000000E+00  0.00000000E+00
  0.00000000E+00  0.00000000E+00  0.00000000E+00
  0.00000000E+00  0.00000000E+00  0.00000000E+00
  0.00000000E+00  0.00000000E+00  0.00000000E+00
  0.00000000E+00  0.00000000E+00  0.00000000E+00
  0.00000000E+00  0.00000000E+00  0.00000000E+00
  0.00000000E+00  0.00000000E+00  0.00000000E+00
  0.00000000E+00  0.00000000E+00  0.00000000E+00
  0.00000000E+00  0.00000000E+00  0.00000000E+00
  0.00000000E+00  0.00000000E+00  0.00000000E+00
  0.00000000E+00  0.00000000E+00  0.00000000E+00
  0.00000000E+00  0.00000000E+00  0.00000000E+00
  0.00000000E+00  0.00000000E+00  0.00000000E+00
  0.00000000E+00  0.00000000E+00  0.00000000E+00
  0.00000000E+00  0.00000000E+00  0.00000000E+00
  0.00000000E+00  0.00000000E+00  0.00000000E+00
  0.00000000E+00  0.00000000E+00  0.00000000E+00
  0.00000000E+00  0.00000000E+00  0.00000000E+00
  0.00000000E+00  0.00000000E+00  0.00000000E+00
  0.00000000E+00  0.00000000E+00  0.00000000E+00
  0.00000000E+00  0.00000000E+00  0.00000000E+00
  0.00000000E+00  0.00000000E+00  0.00000000E+00
  0.00000000E+00  0.00000000E+00  0.00000000E+00
  0.00000000E+00  0.00000000E+00  0.00000000E+00
  0.00000000E+00  0.00000000E+00  0.00000000E+00
  0.00000000E+00  0.00000000E+00  0.00000000E+00
  0.00000000E+00  0.00000000E+00  0.00000000E+00
  0.00000000E+00  0.00000000E+00  0.00000000E+00
  0.00000000E+00  0.00000000E+00  0.00000000E+00
  0.00000000E+00  0.00000000E+00  0.00000000E+00
  0.00000000E+00  0.00000000E+00  0.00000000E+00
  0.00000000E+00  0.00000000E+00  0.00000000E+00
  0.00000000E+00  0.00000000E+00  0.00000000E+00
  0.00000000E+00  0.00000000E+00  0.00000000E+00
  0.00000000E+00  0.00000000E+00  0.00000000E+00
  0.00000000E+00  0.00000000E+00  0.00000000E+00
  0.00000000E+00  0.00000000E+00  0.00000000E+00
  0.00000000E+00  0.00000000E+00  0.00000000E+00
  0.00000000E+00  0.00000000E+00  0.00000000E+00
  0.00000000E+00  0.00000000E+00  0.00000000E+00
  0.00000000E+00  0.00000000E+00  0.00000000E+00
  0.00000000E+00  0.00000000E+00  0.00000000E+00
  0.00000000E+00  0.00000000E+00  0.00000000E+00
  0.00000000E+00  0.00000000E+00  0.00000000E+00
  0.00000000E+00  0.00000000E+00  0.00000000E+00
  0.00000000E+00  0.00000000E+00  0.00000000E+00
  0.00000000E+00  0.00000000E+00  0.00000000E+00
  0.00000000E+00  0.00000000E+00  0.00000000E+00
  0.00000000E+00  0.00000000E+00  0.00000000E+00
  0.00000000E+00  0.00000000E+00  0.00000000E+00
  0.00000000E+00  0.00000000E+00  0.00000000E+00
  0.00000000E+00  0.00000000E+00  0.00000000E+00
  0.00000000E+00  0.00000000E+00  0.00000000E+00
  0.00000000E+00  0.00000000E+00  0.00000000E+00
  0.00000000E+00  0.00000000E+00  0.00000000E+00
  0.00000000E+00  0.00000000E+00  0.00000000E+00
  0.00000000E+00  0.00000000E+00  0.00000000E+00
  0.00000000E+00  0.00000000E+00  0.00000000E+00
  0.00000000E+00  0.00000000E+00  0.00000000E+00
  0.00000000E+00  0.00000000E+00  0.00000000E+00
  0.00000000E+00  0.00000000E+00  0.00000000E+00
  0.00000000E+00  0.00000000E+00  0.00000000E+00
  0.00000000E+00  0.00000000E+00  0.00000000E+00
  0.00000000E+00  0.00000000E+00  0.00000000E+00
  0.00000000E+00  0.00000000E+00  0.00000000E+00
  0.00000000E+00  0.00000000E+00  0.00000000E+00
  0.00000000E+00  0.00000000E+00  0.00000000E+00
  0.00000000E+00  0.00000000E+00  0.00000000E+00
  0.00000000E+00  0.00000000E+00  0.00000000E+00
  0.00000000E+00  0.00000000E+00  0.00000000E+00
  0.00000000E+00  0.00000000E+00  0.00000000E+00
  0.00000000E+00  0.00000000E+00  0.00000000E+00
  0.00000000E+00  0.00000000E+00  0.00000000E+00
  0.00000000E+00  0.00000000E+00  0.00000000E+00
  0.00000000E+00  0.00000000E+00  0.00000000E+00
  0.00000000E+00  0.00000000E+00  0.00000000E+00
  0.00000000E+00  0.00000000E+00  0.00000000E+00
  0.00000000E+00  0.00000000E+00  0.00000000E+00
  0.00000000E+00  0.00000000E+00  0.00000000E+00
  0.00000000E+00  0.00000000E+00  0.00000000E+00
  0.00000000E+00  0.00000000E+00  0.00000000E+00
  0.00000000E+00  0.00000000E+00  0.00000000E+00
  0.00000000E+00  0.00000000E+00  0.00000000E+00
  0.00000000E+00  0.00000000E+00  0.00000000E+00
  0.00000000E+00  0.00000000E+00  0.00000000E+00
  0.00000000E+00  0.00000000E+00  0.00000000E+00
  0.00000000E+00  0.00000000E+00  0.00000000E+00
  0.00000000E+00  0.00000000E+00  0.00000000E+00
  0.00000000E+00  0.00000000E+00  0.00000000E+00
  0.00000000E+00  0.00000000E+00  0.00000000E+00
  0.00000000E+00  0.00000000E+00  0.00000000E+00
  0.00000000E+00  0.00000000E+00  0.00000000E+00
  0.00000000E+00  0.00000000E+00  0.00000000E+00
  0.00000000E+00  0.00000000E+00  0.00000000E+00
  0.00000000E+00  0.00000000E+00  0.00000000E+00
  0.00000000E+00  0.00000000E+00  0.00000000E+00
  0.00000000E+00  0.00000000E+00  0.00000000E+00
  0.00000000E+00  0.00000000E+00  0.00000000E+00
  0.00000000E+00  0.00000000E+00  0.00000000E+00
  0.00000000E+00  0.00000000E+00  0.00000000E+00
  0.00000000E+00  0.00000000E+00  0.00000000E+00
  0.00000000E+00  0.00000000E+00  0.00000000E+00
  0.00000000E+00  0.00000000E+00  0.00000000E+00
  0.00000000E+00  0.00000000E+00  0.00000000E+00
  0.00000000E+00  0.00000000E+00  0.00000000E+00
  0.00000000E+00  0.00000000E+00  0.00000000E+00
  0.00000000E+00  0.00000000E+00  0.00000000E+00
  0.00000000E+00  0.00000000E+00  0.00000000E+00
  0.00000000E+00  0.00000000E+00  0.00000000E+00
  0.00000000E+00  0.00000000E+00  0.00000000E+00
  0.00000000E+00  0.00000000E+00  0.00000000E+00
  0.00000000E+00  0.00000000E+00  0.00000000E+00
  0.00000000E+00  0.00000000E+00  0.00000000E+00
  0.00000000E+00  0.00000000E+00  0.00000000E+00
  0.00000000E+00  0.00000000E+00  0.00000000E+00
  0.00000000E+00  0.00000000E+00  0.00000000E+00
  0.00000000E+00  0.00000000E+00  0.00000000E+00
  0.00000000E+00  0.00000000E+00  0.00000000E+00
  0.00000000E+00  0.00000000E+00  0.00000000E+00
  0.00000000E+00  0.00000000E+00  0.00000000E+00
  0.00000000E+00  0.00000000E+00  0.00000000E+00
  0.00000000E+00  0.00000000E+00  0.00000000E+00
  0.00000000E+00  0.00000000E+00  0.00000000E+00
  0.00000000E+00  0.00000000E+00  0.00000000E+00
  0.00000000E+00  0.00000000E+00  0.00000000E+00
  0.00000000E+00  0.00000000E+00  0.00000000E+00
  0.00000000E+00  0.00000000E+00  0.00000000E+00
  0.00000000E+00  0.00000000E+00  0.00000000E+00
  0.00000000E+00  0.00000000E+00  0.00000000E+00
  0.00000000E+00  0.00000000E+00  0.00000000E+00
  0.00000000E+00  0.00000000E+00  0.00000000E+00
  0.00000000E+00  0.00000000E+00  0.00000000E+00
  0.00000000E+00  0.00000000E+00  0.00000000E+00
  0.00000000E+00  0.00000000E+00  0.00000000E+00
  0.00000000E+00  0.00000000E+00  0.00000000E+00
  0.00000000E+00  0.00000000E+00  0.00000000E+00
  0.00000000E+00  0.00000000E+00  0.00000000E+00
  0.00000000E+00  0.00000000E+00  0.00000000E+00
  0.00000000E+00  0.00000000E+00  0.00000000E+00
  0.00000000E+00  0.00000000E+00  0.00000000E+00
  0.00000000E+00  0.00000000E+00  0.00000000E+00
