CONTCAR\(3)                             
   1.00000000000000     
    14.1084995269999993    0.0000000000000000    0.0000000000000000
     3.5075286754000001   19.1175987350000014    0.0000000000000000
     0.0000000000000000    0.0000000000000000   19.0792007446000014
   Ta   Te   O    H 
    24    48     2     1
Direct
  0.1647604102283106  0.3555955426489408  0.5028299303516987
  0.0930605169577395  0.1439798643336390  0.5011465152406067
  0.2551662040809128  0.4997326759428954  0.4994931587597997
  0.4101092645345240  0.3559191946214313  0.5033579755872154
  0.3385465635617167  0.1427074667723893  0.5001011661855365
  0.4934486063811174  0.4976252101873077  0.4997418111699860
  0.6553715145244814  0.3540792886436425  0.5030592625497231
  0.5838978795134241  0.1424534776006212  0.5007381506540642
  0.7252617688059944  0.4989065820994792  0.5005599782043749
  0.9109694861740574  0.3519712254175556  0.5033024047764185
  0.8381423354962344  0.1460425862339918  0.5012341912347199
  0.0237527661126898  0.4989782582310791  0.5000233525410761
  0.1659703148746546  0.8561043140192818  0.5045862987980171
  0.0939107876382037  0.6433620449006306  0.4980655372012512
  0.2556898618308692 -0.0002299502038668  0.5028082002960006
  0.4084370028272624  0.8613645366701196  0.5048371336106283
  0.3369042790280738  0.6394715726866088  0.4957866179560662
  0.4929005970025417  0.9989749034086765  0.5029497870657077
  0.6547838962250367  0.8547308836225888  0.5046960911600702
  0.5869152710085620  0.6386955711922583  0.4967049849199447
  0.7253479792300754  0.9986473812636115  0.5028626411350648
  0.9111643135432563  0.8528282134487285  0.5035113754132836
  0.8372565789950024  0.6442439065813038  0.4975489459003148
  0.0235114752098397  0.9992877507089916  0.5025088621688696
  0.1432595833556621  0.4445745863087244  0.3917806644488694
  0.1159446258696754  0.0537216720012470  0.6108420957107751
  0.0568425184132688  0.2750295400972712  0.4197093915984186
  0.0278698819369710  0.3933449994028608  0.6062698114718895
  0.2235959785113114  0.1072972924681757  0.3948382916689031
  0.1950098807157261  0.2258610680151774  0.5844536686393421
  0.3875419245571416  0.4438303690796379  0.3925819395956987
  0.3609905175442412  0.0541673144083893  0.6102654561816382
  0.3068935178209391  0.2736440462912713  0.4198801459925862
  0.2771042770615320  0.3933164722825383  0.6083978554503741
  0.4716954991504988  0.1059397776969111  0.3947857524198389
  0.4415214673116035  0.2249629504960875  0.5835030801724607
  0.6332135060422737  0.4429500161985467  0.3924325135836605
  0.6058138689814936  0.0529633463486572  0.6112295401971014
  0.5538963421725575  0.2722854920605854  0.4195415393424103
  0.5243008443394652  0.3919507210189449  0.6088280748291401
  0.7211879747615960  0.1053002435633583  0.3977177159323702
  0.6918183279411696  0.2229869473394944  0.5842311479495652
  0.8871644655999872  0.4511072769546705  0.4052137555844280
  0.8622988294329561  0.0453426697709137  0.5980680608625911
  0.8033504307605551  0.2756582789855169  0.4182681981912600
  0.7732105950000639  0.3918455288287802  0.6062981238802349
  0.9751168934624163  0.1068792803591397  0.3976305237237619
  0.9457276932953463  0.2221648629630622  0.5862718166103543
  0.1434055689250746  0.9459388730276413  0.3940874189700803
  0.1162097928006694  0.5535609217171096  0.6082971915153303
  0.0572299022687992  0.7759792923722466  0.4197501756847279
  0.0280622341956167  0.8918873470913483  0.6075213231995947
  0.2226179257179582  0.6058591502237344  0.3901991636540785
  0.1944957377297210  0.7246408249528959  0.5825621911162383
  0.3870541906826827  0.9476006276829356  0.3938454833212164
  0.3609771492721840  0.5530643551951071  0.6073678145972666
  0.3074328791504924  0.7742609319324594  0.4212404888574303
  0.2764994834312139  0.8938194199484423  0.6114533543312370
  0.4717721541792341  0.6029783740899044  0.3908183558923757
  0.4405555154617057  0.7257852148528797  0.5653248336142025
  0.6324731955256118  0.9445732944192310  0.3944765967201312
  0.6045459424739709  0.5528825661041009  0.6091090394405502
  0.5522157974972162  0.7729026633616161  0.4223156856779399
  0.5247492434760396  0.8928674824831000  0.6113207193501978
  0.7221728116935503  0.6039258661486038  0.3929458236693116
  0.6928199121272755  0.7217167574674109  0.5816660468823684
  0.8865995154186483  0.9527929752173978  0.4063256263576086
  0.8624936066871549  0.5459363181171134  0.5963957526554053
  0.8026676716261114  0.7763231394261280  0.4189537877888703
  0.7741812451951020  0.8903407094974410  0.6076150354832273
  0.9753234679472150  0.6065153197961831  0.3944800011051630
  0.9452755268342836  0.7213103368979609  0.5827462698610578
  0.4260719997853378  0.7060162271738996  0.6727443703594894
  0.5031803428531904  0.7287715167506330  0.7126531544058309
  0.4683981672208898  0.7721834990806291  0.7336807225709481
 
  0.00000000E+00  0.00000000E+00  0.00000000E+00
  0.00000000E+00  0.00000000E+00  0.00000000E+00
  0.00000000E+00  0.00000000E+00  0.00000000E+00
  0.00000000E+00  0.00000000E+00  0.00000000E+00
  0.00000000E+00  0.00000000E+00  0.00000000E+00
  0.00000000E+00  0.00000000E+00  0.00000000E+00
  0.00000000E+00  0.00000000E+00  0.00000000E+00
  0.00000000E+00  0.00000000E+00  0.00000000E+00
  0.00000000E+00  0.00000000E+00  0.00000000E+00
  0.00000000E+00  0.00000000E+00  0.00000000E+00
  0.00000000E+00  0.00000000E+00  0.00000000E+00
  0.00000000E+00  0.00000000E+00  0.00000000E+00
  0.00000000E+00  0.00000000E+00  0.00000000E+00
  0.00000000E+00  0.00000000E+00  0.00000000E+00
  0.00000000E+00  0.00000000E+00  0.00000000E+00
  0.00000000E+00  0.00000000E+00  0.00000000E+00
  0.00000000E+00  0.00000000E+00  0.00000000E+00
  0.00000000E+00  0.00000000E+00  0.00000000E+00
  0.00000000E+00  0.00000000E+00  0.00000000E+00
  0.00000000E+00  0.00000000E+00  0.00000000E+00
  0.00000000E+00  0.00000000E+00  0.00000000E+00
  0.00000000E+00  0.00000000E+00  0.00000000E+00
  0.00000000E+00  0.00000000E+00  0.00000000E+00
  0.00000000E+00  0.00000000E+00  0.00000000E+00
  0.00000000E+00  0.00000000E+00  0.00000000E+00
  0.00000000E+00  0.00000000E+00  0.00000000E+00
  0.00000000E+00  0.00000000E+00  0.00000000E+00
  0.00000000E+00  0.00000000E+00  0.00000000E+00
  0.00000000E+00  0.00000000E+00  0.00000000E+00
  0.00000000E+00  0.00000000E+00  0.00000000E+00
  0.00000000E+00  0.00000000E+00  0.00000000E+00
  0.00000000E+00  0.00000000E+00  0.00000000E+00
  0.00000000E+00  0.00000000E+00  0.00000000E+00
  0.00000000E+00  0.00000000E+00  0.00000000E+00
  0.00000000E+00  0.00000000E+00  0.00000000E+00
  0.00000000E+00  0.00000000E+00  0.00000000E+00
  0.00000000E+00  0.00000000E+00  0.00000000E+00
  0.00000000E+00  0.00000000E+00  0.00000000E+00
  0.00000000E+00  0.00000000E+00  0.00000000E+00
  0.00000000E+00  0.00000000E+00  0.00000000E+00
  0.00000000E+00  0.00000000E+00  0.00000000E+00
  0.00000000E+00  0.00000000E+00  0.00000000E+00
  0.00000000E+00  0.00000000E+00  0.00000000E+00
  0.00000000E+00  0.00000000E+00  0.00000000E+00
  0.00000000E+00  0.00000000E+00  0.00000000E+00
  0.00000000E+00  0.00000000E+00  0.00000000E+00
  0.00000000E+00  0.00000000E+00  0.00000000E+00
  0.00000000E+00  0.00000000E+00  0.00000000E+00
  0.00000000E+00  0.00000000E+00  0.00000000E+00
  0.00000000E+00  0.00000000E+00  0.00000000E+00
  0.00000000E+00  0.00000000E+00  0.00000000E+00
  0.00000000E+00  0.00000000E+00  0.00000000E+00
  0.00000000E+00  0.00000000E+00  0.00000000E+00
  0.00000000E+00  0.00000000E+00  0.00000000E+00
  0.00000000E+00  0.00000000E+00  0.00000000E+00
  0.00000000E+00  0.00000000E+00  0.00000000E+00
  0.00000000E+00  0.00000000E+00  0.00000000E+00
  0.00000000E+00  0.00000000E+00  0.00000000E+00
  0.00000000E+00  0.00000000E+00  0.00000000E+00
  0.00000000E+00  0.00000000E+00  0.00000000E+00
  0.00000000E+00  0.00000000E+00  0.00000000E+00
  0.00000000E+00  0.00000000E+00  0.00000000E+00
  0.00000000E+00  0.00000000E+00  0.00000000E+00
  0.00000000E+00  0.00000000E+00  0.00000000E+00
  0.00000000E+00  0.00000000E+00  0.00000000E+00
  0.00000000E+00  0.00000000E+00  0.00000000E+00
  0.00000000E+00  0.00000000E+00  0.00000000E+00
  0.00000000E+00  0.00000000E+00  0.00000000E+00
  0.00000000E+00  0.00000000E+00  0.00000000E+00
  0.00000000E+00  0.00000000E+00  0.00000000E+00
  0.00000000E+00  0.00000000E+00  0.00000000E+00
  0.00000000E+00  0.00000000E+00  0.00000000E+00
  0.00000000E+00  0.00000000E+00  0.00000000E+00
  0.00000000E+00  0.00000000E+00  0.00000000E+00
  0.00000000E+00  0.00000000E+00  0.00000000E+00
