CONTCAR\(2)                             
   1.00000000000000     
    12.2558002471999998    0.0000000000000000    0.0000000000000000
     6.1279165570999998   10.6146331497999995    0.0000000000000000
     0.0000000000000000    0.0000000000000000   18.0618000031000001
   Ni   P    Se   O    H 
     8     8    24     2     1
Direct
  0.1700577212732662  0.1658469215082638  0.4983600769304674
  0.3376278365548550  0.3334972536490630  0.5009801573051366
  0.6683781170284181  0.1685388068848874  0.5000790036887269
  0.8353910725383716  0.3333220907606226  0.5002576153196853
  0.1706398508960072  0.6658299231840793  0.5015572466800138
  0.3368982402352260  0.8319012654163837  0.5005319496415723
  0.6688605994406432  0.6661915374217660  0.5000069388869842
  0.8356611346237678  0.8338220570461194  0.4978178291805885
  0.0022068566021733  0.0007940999310763  0.4382580360572622
  0.5023903447414195 -0.0004533529422175  0.5610689574767694
  0.5026805954640867  0.9988135124742104  0.4372469430008236
  0.0021084124718376  0.0004636254130917  0.5620283678248960
  0.0039362696999855  0.5001158830041328  0.4379946777752317
  0.5054294695493123  0.4987739912509501  0.5912986716199172
  0.5026322313283837  0.4999342682727416  0.4601905010607155
  0.0028406338181043  0.4999995198951915  0.5615674905632211
  0.3240976632748687  0.9977093155878758  0.4130688342824400
  0.1817342944870039  0.0005268577924187  0.5858775246807593
  0.1844173619076003  0.3219792446070148  0.4135960515569683
  0.0010119617694948  0.1804580181368998  0.4133293788971837
  0.3227473870344775  0.1792517229974094  0.5848736380172933
  0.5035900914816585  0.3104534184484329  0.5861534828213448
  0.8211212611440057  0.0040890569554417  0.4138597083923355
  0.6824388248895363 -0.0006854148538029  0.5843744055600915
  0.6751875363091179  0.3271117898904399  0.4181792753694711
  0.5044281032119053  0.1768795270885643  0.4125145383517604
  0.8226348018935210  0.1786472496539237  0.5869334659814207
  0.0051046938396169  0.3190315243657433  0.5852189696070287
  0.3292105694246398  0.4995535922414588  0.4196287113267552
  0.1803498162436487  0.4998841761954176  0.5888349126388509
  0.1815020767454886  0.8221517402689181  0.4133981411183603
  0.0057994431457810  0.6783457780774176  0.4135690020484948
  0.3159864648964379  0.6865782890259843  0.5874600436024551
  0.5017436359119718  0.8212851917683122  0.5866594299372968
  0.8255087703093769  0.4998462747971396  0.4121843392366215
  0.6933018623323048  0.4998676731516145  0.5866606930959278
  0.6810380449933147  0.8188431828369386  0.4126206386787561
  0.5024903969604918  0.6721664043848392  0.4177568592912937
  0.8236907473473747  0.6805860954714886  0.5849449708852498
  0.0009110106014258  0.8215002844481059  0.5857329022758152
  0.4215670738408671  0.4926856789596532  0.7258028729074060
  0.5249201118509855  0.4974141914397514  0.6859598494427840
  0.3639258228872413  0.5833085250921877  0.7341123219838365
 
  0.00000000E+00  0.00000000E+00  0.00000000E+00
  0.00000000E+00  0.00000000E+00  0.00000000E+00
  0.00000000E+00  0.00000000E+00  0.00000000E+00
  0.00000000E+00  0.00000000E+00  0.00000000E+00
  0.00000000E+00  0.00000000E+00  0.00000000E+00
  0.00000000E+00  0.00000000E+00  0.00000000E+00
  0.00000000E+00  0.00000000E+00  0.00000000E+00
  0.00000000E+00  0.00000000E+00  0.00000000E+00
  0.00000000E+00  0.00000000E+00  0.00000000E+00
  0.00000000E+00  0.00000000E+00  0.00000000E+00
  0.00000000E+00  0.00000000E+00  0.00000000E+00
  0.00000000E+00  0.00000000E+00  0.00000000E+00
  0.00000000E+00  0.00000000E+00  0.00000000E+00
  0.00000000E+00  0.00000000E+00  0.00000000E+00
  0.00000000E+00  0.00000000E+00  0.00000000E+00
  0.00000000E+00  0.00000000E+00  0.00000000E+00
  0.00000000E+00  0.00000000E+00  0.00000000E+00
  0.00000000E+00  0.00000000E+00  0.00000000E+00
  0.00000000E+00  0.00000000E+00  0.00000000E+00
  0.00000000E+00  0.00000000E+00  0.00000000E+00
  0.00000000E+00  0.00000000E+00  0.00000000E+00
  0.00000000E+00  0.00000000E+00  0.00000000E+00
  0.00000000E+00  0.00000000E+00  0.00000000E+00
  0.00000000E+00  0.00000000E+00  0.00000000E+00
  0.00000000E+00  0.00000000E+00  0.00000000E+00
  0.00000000E+00  0.00000000E+00  0.00000000E+00
  0.00000000E+00  0.00000000E+00  0.00000000E+00
  0.00000000E+00  0.00000000E+00  0.00000000E+00
  0.00000000E+00  0.00000000E+00  0.00000000E+00
  0.00000000E+00  0.00000000E+00  0.00000000E+00
  0.00000000E+00  0.00000000E+00  0.00000000E+00
  0.00000000E+00  0.00000000E+00  0.00000000E+00
  0.00000000E+00  0.00000000E+00  0.00000000E+00
  0.00000000E+00  0.00000000E+00  0.00000000E+00
  0.00000000E+00  0.00000000E+00  0.00000000E+00
  0.00000000E+00  0.00000000E+00  0.00000000E+00
  0.00000000E+00  0.00000000E+00  0.00000000E+00
  0.00000000E+00  0.00000000E+00  0.00000000E+00
  0.00000000E+00  0.00000000E+00  0.00000000E+00
  0.00000000E+00  0.00000000E+00  0.00000000E+00
  0.00000000E+00  0.00000000E+00  0.00000000E+00
  0.00000000E+00  0.00000000E+00  0.00000000E+00
  0.00000000E+00  0.00000000E+00  0.00000000E+00
