CONTCAR\(10)                            
   1.00000000000000     
    11.1498003006000008    0.0000000000000000    0.0000000000000000
     0.0000000000000000   12.2238998412999997    0.0000000000000000
     0.0000000000000000    0.0000000000000000   17.5557994842999996
   V    Cu   O 
     8     8    32
Direct
  0.1250000000000000  0.0000000000000000  0.5180100159999981
  0.3750000109999974  0.0000000000000000  0.4819999790000011
  0.6249999890000026  0.0000000000000000  0.5180100159999981
  0.8749999679999974  0.0000000000000000  0.4819999790000011
  0.1250000000000000  0.5000000000000000  0.5180100159999981
  0.3750000109999974  0.5000000000000000  0.4819999790000011
  0.6249999890000026  0.5000000000000000  0.5180100159999981
  0.8749999679999974  0.5000000000000000  0.4819999790000011
  0.2500000000000000  0.2500000000000000  0.5000000000000000
  0.0000000000000000  0.2500000000000000  0.5000000000000000
  0.7500000209999982  0.2500000000000000  0.5000000000000000
  0.5000000000000000  0.2500000000000000  0.5000000000000000
  0.2500000000000000  0.7500000000000000  0.5000000000000000
  0.0000000000000000  0.7500000000000000  0.5000000000000000
  0.7500000209999982  0.7500000000000000  0.5000000000000000
  0.5000000000000000  0.7500000000000000  0.5000000000000000
  0.3750000109999974  0.3464600249999990  0.5123900310000025
  0.4964300290000025  0.0000000000000000  0.4264399939999990
  0.0035700000000034  0.0000000000000000  0.5735600060000010
  0.2464299869999991  0.0000000000000000  0.5735600060000010
  0.1250000000000000  0.3464700110000010  0.4876100230000020
  0.1250000000000000  0.1535400050000035  0.4876100230000020
  0.2535699920000027  0.0000000000000000  0.4264299980000033
  0.3750000109999974  0.1535400050000035  0.5123900310000025
  0.8749999679999974  0.3464600249999990  0.5123900310000025
  0.9964299439999991  0.0000000000000000  0.4264399939999990
  0.5035700130000009  0.0000000000000000  0.5735600060000010
  0.7464299649999973  0.0000000000000000  0.5735600060000010
  0.6249999890000026  0.3464700110000010  0.4876100230000020
  0.6249999890000026  0.1535400050000035  0.4876100230000020
  0.7535699920000027  0.0000000000000000  0.4264299980000033
  0.8749999679999974  0.1535400050000035  0.5123900310000025
  0.3750000109999974  0.8464599859999993  0.5123900310000025
  0.4964300290000025  0.5000000000000000  0.4264399939999990
  0.0035700000000034  0.5000000000000000  0.5735600060000010
  0.2464299869999991  0.5000000000000000  0.5735600060000010
  0.1250000000000000  0.8464699720000013  0.4876100230000020
  0.1250000000000000  0.6535400140000007  0.4876100230000020
  0.2535699920000027  0.5000000000000000  0.4264299980000033
  0.3750000109999974  0.6535400140000007  0.5123900310000025
  0.8749999679999974  0.8464599859999993  0.5123900310000025
  0.9964299439999991  0.5000000000000000  0.4264399939999990
  0.5035700130000009  0.5000000000000000  0.5735600060000010
  0.7464299649999973  0.5000000000000000  0.5735600060000010
  0.6249999890000026  0.8464699720000013  0.4876100230000020
  0.6249999890000026  0.6535400140000007  0.4876100230000020
  0.7535699920000027  0.5000000000000000  0.4264299980000033
  0.8749999679999974  0.6535400140000007  0.5123900310000025
 
  0.00000000E+00  0.00000000E+00  0.00000000E+00
  0.00000000E+00  0.00000000E+00  0.00000000E+00
  0.00000000E+00  0.00000000E+00  0.00000000E+00
  0.00000000E+00  0.00000000E+00  0.00000000E+00
  0.00000000E+00  0.00000000E+00  0.00000000E+00
  0.00000000E+00  0.00000000E+00  0.00000000E+00
  0.00000000E+00  0.00000000E+00  0.00000000E+00
  0.00000000E+00  0.00000000E+00  0.00000000E+00
  0.00000000E+00  0.00000000E+00  0.00000000E+00
  0.00000000E+00  0.00000000E+00  0.00000000E+00
  0.00000000E+00  0.00000000E+00  0.00000000E+00
  0.00000000E+00  0.00000000E+00  0.00000000E+00
  0.00000000E+00  0.00000000E+00  0.00000000E+00
  0.00000000E+00  0.00000000E+00  0.00000000E+00
  0.00000000E+00  0.00000000E+00  0.00000000E+00
  0.00000000E+00  0.00000000E+00  0.00000000E+00
  0.00000000E+00  0.00000000E+00  0.00000000E+00
  0.00000000E+00  0.00000000E+00  0.00000000E+00
  0.00000000E+00  0.00000000E+00  0.00000000E+00
  0.00000000E+00  0.00000000E+00  0.00000000E+00
  0.00000000E+00  0.00000000E+00  0.00000000E+00
  0.00000000E+00  0.00000000E+00  0.00000000E+00
  0.00000000E+00  0.00000000E+00  0.00000000E+00
  0.00000000E+00  0.00000000E+00  0.00000000E+00
  0.00000000E+00  0.00000000E+00  0.00000000E+00
  0.00000000E+00  0.00000000E+00  0.00000000E+00
  0.00000000E+00  0.00000000E+00  0.00000000E+00
  0.00000000E+00  0.00000000E+00  0.00000000E+00
  0.00000000E+00  0.00000000E+00  0.00000000E+00
  0.00000000E+00  0.00000000E+00  0.00000000E+00
  0.00000000E+00  0.00000000E+00  0.00000000E+00
  0.00000000E+00  0.00000000E+00  0.00000000E+00
  0.00000000E+00  0.00000000E+00  0.00000000E+00
  0.00000000E+00  0.00000000E+00  0.00000000E+00
  0.00000000E+00  0.00000000E+00  0.00000000E+00
  0.00000000E+00  0.00000000E+00  0.00000000E+00
  0.00000000E+00  0.00000000E+00  0.00000000E+00
  0.00000000E+00  0.00000000E+00  0.00000000E+00
  0.00000000E+00  0.00000000E+00  0.00000000E+00
  0.00000000E+00  0.00000000E+00  0.00000000E+00
  0.00000000E+00  0.00000000E+00  0.00000000E+00
  0.00000000E+00  0.00000000E+00  0.00000000E+00
  0.00000000E+00  0.00000000E+00  0.00000000E+00
  0.00000000E+00  0.00000000E+00  0.00000000E+00
  0.00000000E+00  0.00000000E+00  0.00000000E+00
  0.00000000E+00  0.00000000E+00  0.00000000E+00
  0.00000000E+00  0.00000000E+00  0.00000000E+00
  0.00000000E+00  0.00000000E+00  0.00000000E+00
