G   56   54    1    0.005     # Parameters to Generate KPOINTS (Don't Edit This Line)
     812
Reciprocal lattice
    0.000000000000    0.000000000000    0.000000000000       1
    0.017857142857    0.000000000000    0.000000000000       2
    0.035714285714    0.000000000000    0.000000000000       2
    0.053571428571    0.000000000000    0.000000000000       2
    0.071428571429    0.000000000000    0.000000000000       2
    0.089285714286    0.000000000000    0.000000000000       2
    0.107142857143    0.000000000000    0.000000000000       2
    0.125000000000    0.000000000000    0.000000000000       2
    0.142857142857    0.000000000000    0.000000000000       2
    0.160714285714    0.000000000000    0.000000000000       2
    0.178571428571    0.000000000000    0.000000000000       2
    0.196428571429    0.000000000000    0.000000000000       2
    0.214285714286    0.000000000000    0.000000000000       2
    0.232142857143    0.000000000000    0.000000000000       2
    0.250000000000    0.000000000000    0.000000000000       2
    0.267857142857    0.000000000000    0.000000000000       2
    0.285714285714    0.000000000000    0.000000000000       2
    0.303571428571    0.000000000000    0.000000000000       2
    0.321428571429    0.000000000000    0.000000000000       2
    0.339285714286    0.000000000000    0.000000000000       2
    0.357142857143    0.000000000000    0.000000000000       2
    0.375000000000    0.000000000000    0.000000000000       2
    0.392857142857    0.000000000000    0.000000000000       2
    0.410714285714    0.000000000000    0.000000000000       2
    0.428571428571    0.000000000000    0.000000000000       2
    0.446428571429    0.000000000000    0.000000000000       2
    0.464285714286    0.000000000000    0.000000000000       2
    0.482142857143    0.000000000000    0.000000000000       2
    0.500000000000    0.000000000000    0.000000000000       1
    0.000000000000    0.018518518519    0.000000000000       2
    0.017857142857    0.018518518519    0.000000000000       4
    0.035714285714    0.018518518519    0.000000000000       4
    0.053571428571    0.018518518519    0.000000000000       4
    0.071428571429    0.018518518519    0.000000000000       4
    0.089285714286    0.018518518519    0.000000000000       4
    0.107142857143    0.018518518519    0.000000000000       4
    0.125000000000    0.018518518519    0.000000000000       4
    0.142857142857    0.018518518519    0.000000000000       4
    0.160714285714    0.018518518519    0.000000000000       4
    0.178571428571    0.018518518519    0.000000000000       4
    0.196428571429    0.018518518519    0.000000000000       4
    0.214285714286    0.018518518519    0.000000000000       4
    0.232142857143    0.018518518519    0.000000000000       4
    0.250000000000    0.018518518519    0.000000000000       4
    0.267857142857    0.018518518519    0.000000000000       4
    0.285714285714    0.018518518519    0.000000000000       4
    0.303571428571    0.018518518519    0.000000000000       4
    0.321428571429    0.018518518519    0.000000000000       4
    0.339285714286    0.018518518519    0.000000000000       4
    0.357142857143    0.018518518519    0.000000000000       4
    0.375000000000    0.018518518519    0.000000000000       4
    0.392857142857    0.018518518519    0.000000000000       4
    0.410714285714    0.018518518519    0.000000000000       4
    0.428571428571    0.018518518519    0.000000000000       4
    0.446428571429    0.018518518519    0.000000000000       4
    0.464285714286    0.018518518519    0.000000000000       4
    0.482142857143    0.018518518519    0.000000000000       4
    0.500000000000    0.018518518519    0.000000000000       2
    0.000000000000    0.037037037037    0.000000000000       2
    0.017857142857    0.037037037037    0.000000000000       4
    0.035714285714    0.037037037037    0.000000000000       4
    0.053571428571    0.037037037037    0.000000000000       4
    0.071428571429    0.037037037037    0.000000000000       4
    0.089285714286    0.037037037037    0.000000000000       4
    0.107142857143    0.037037037037    0.000000000000       4
    0.125000000000    0.037037037037    0.000000000000       4
    0.142857142857    0.037037037037    0.000000000000       4
    0.160714285714    0.037037037037    0.000000000000       4
    0.178571428571    0.037037037037    0.000000000000       4
    0.196428571429    0.037037037037    0.000000000000       4
    0.214285714286    0.037037037037    0.000000000000       4
    0.232142857143    0.037037037037    0.000000000000       4
    0.250000000000    0.037037037037    0.000000000000       4
    0.267857142857    0.037037037037    0.000000000000       4
    0.285714285714    0.037037037037    0.000000000000       4
    0.303571428571    0.037037037037    0.000000000000       4
    0.321428571429    0.037037037037    0.000000000000       4
    0.339285714286    0.037037037037    0.000000000000       4
    0.357142857143    0.037037037037    0.000000000000       4
    0.375000000000    0.037037037037    0.000000000000       4
    0.392857142857    0.037037037037    0.000000000000       4
    0.410714285714    0.037037037037    0.000000000000       4
    0.428571428571    0.037037037037    0.000000000000       4
    0.446428571429    0.037037037037    0.000000000000       4
    0.464285714286    0.037037037037    0.000000000000       4
    0.482142857143    0.037037037037    0.000000000000       4
    0.500000000000    0.037037037037    0.000000000000       2
    0.000000000000    0.055555555556    0.000000000000       2
    0.017857142857    0.055555555556    0.000000000000       4
    0.035714285714    0.055555555556    0.000000000000       4
    0.053571428571    0.055555555556    0.000000000000       4
    0.071428571429    0.055555555556    0.000000000000       4
    0.089285714286    0.055555555556    0.000000000000       4
    0.107142857143    0.055555555556    0.000000000000       4
    0.125000000000    0.055555555556    0.000000000000       4
    0.142857142857    0.055555555556    0.000000000000       4
    0.160714285714    0.055555555556    0.000000000000       4
    0.178571428571    0.055555555556    0.000000000000       4
    0.196428571429    0.055555555556    0.000000000000       4
    0.214285714286    0.055555555556    0.000000000000       4
    0.232142857143    0.055555555556    0.000000000000       4
    0.250000000000    0.055555555556    0.000000000000       4
    0.267857142857    0.055555555556    0.000000000000       4
    0.285714285714    0.055555555556    0.000000000000       4
    0.303571428571    0.055555555556    0.000000000000       4
    0.321428571429    0.055555555556    0.000000000000       4
    0.339285714286    0.055555555556    0.000000000000       4
    0.357142857143    0.055555555556    0.000000000000       4
    0.375000000000    0.055555555556    0.000000000000       4
    0.392857142857    0.055555555556    0.000000000000       4
    0.410714285714    0.055555555556    0.000000000000       4
    0.428571428571    0.055555555556    0.000000000000       4
    0.446428571429    0.055555555556    0.000000000000       4
    0.464285714286    0.055555555556    0.000000000000       4
    0.482142857143    0.055555555556    0.000000000000       4
    0.500000000000    0.055555555556    0.000000000000       2
    0.000000000000    0.074074074074    0.000000000000       2
    0.017857142857    0.074074074074    0.000000000000       4
    0.035714285714    0.074074074074    0.000000000000       4
    0.053571428571    0.074074074074    0.000000000000       4
    0.071428571429    0.074074074074    0.000000000000       4
    0.089285714286    0.074074074074    0.000000000000       4
    0.107142857143    0.074074074074    0.000000000000       4
    0.125000000000    0.074074074074    0.000000000000       4
    0.142857142857    0.074074074074    0.000000000000       4
    0.160714285714    0.074074074074    0.000000000000       4
    0.178571428571    0.074074074074    0.000000000000       4
    0.196428571429    0.074074074074    0.000000000000       4
    0.214285714286    0.074074074074    0.000000000000       4
    0.232142857143    0.074074074074    0.000000000000       4
    0.250000000000    0.074074074074    0.000000000000       4
    0.267857142857    0.074074074074    0.000000000000       4
    0.285714285714    0.074074074074    0.000000000000       4
    0.303571428571    0.074074074074    0.000000000000       4
    0.321428571429    0.074074074074    0.000000000000       4
    0.339285714286    0.074074074074    0.000000000000       4
    0.357142857143    0.074074074074    0.000000000000       4
    0.375000000000    0.074074074074    0.000000000000       4
    0.392857142857    0.074074074074    0.000000000000       4
    0.410714285714    0.074074074074    0.000000000000       4
    0.428571428571    0.074074074074    0.000000000000       4
    0.446428571429    0.074074074074    0.000000000000       4
    0.464285714286    0.074074074074    0.000000000000       4
    0.482142857143    0.074074074074    0.000000000000       4
    0.500000000000    0.074074074074    0.000000000000       2
    0.000000000000    0.092592592593    0.000000000000       2
    0.017857142857    0.092592592593    0.000000000000       4
    0.035714285714    0.092592592593    0.000000000000       4
    0.053571428571    0.092592592593    0.000000000000       4
    0.071428571429    0.092592592593    0.000000000000       4
    0.089285714286    0.092592592593    0.000000000000       4
    0.107142857143    0.092592592593    0.000000000000       4
    0.125000000000    0.092592592593    0.000000000000       4
    0.142857142857    0.092592592593    0.000000000000       4
    0.160714285714    0.092592592593    0.000000000000       4
    0.178571428571    0.092592592593    0.000000000000       4
    0.196428571429    0.092592592593    0.000000000000       4
    0.214285714286    0.092592592593    0.000000000000       4
    0.232142857143    0.092592592593    0.000000000000       4
    0.250000000000    0.092592592593    0.000000000000       4
    0.267857142857    0.092592592593    0.000000000000       4
    0.285714285714    0.092592592593    0.000000000000       4
    0.303571428571    0.092592592593    0.000000000000       4
    0.321428571429    0.092592592593    0.000000000000       4
    0.339285714286    0.092592592593    0.000000000000       4
    0.357142857143    0.092592592593    0.000000000000       4
    0.375000000000    0.092592592593    0.000000000000       4
    0.392857142857    0.092592592593    0.000000000000       4
    0.410714285714    0.092592592593    0.000000000000       4
    0.428571428571    0.092592592593    0.000000000000       4
    0.446428571429    0.092592592593    0.000000000000       4
    0.464285714286    0.092592592593    0.000000000000       4
    0.482142857143    0.092592592593    0.000000000000       4
    0.500000000000    0.092592592593    0.000000000000       2
    0.000000000000    0.111111111111    0.000000000000       2
    0.017857142857    0.111111111111    0.000000000000       4
    0.035714285714    0.111111111111    0.000000000000       4
    0.053571428571    0.111111111111    0.000000000000       4
    0.071428571429    0.111111111111    0.000000000000       4
    0.089285714286    0.111111111111    0.000000000000       4
    0.107142857143    0.111111111111    0.000000000000       4
    0.125000000000    0.111111111111    0.000000000000       4
    0.142857142857    0.111111111111    0.000000000000       4
    0.160714285714    0.111111111111    0.000000000000       4
    0.178571428571    0.111111111111    0.000000000000       4
    0.196428571429    0.111111111111    0.000000000000       4
    0.214285714286    0.111111111111    0.000000000000       4
    0.232142857143    0.111111111111    0.000000000000       4
    0.250000000000    0.111111111111    0.000000000000       4
    0.267857142857    0.111111111111    0.000000000000       4
    0.285714285714    0.111111111111    0.000000000000       4
    0.303571428571    0.111111111111    0.000000000000       4
    0.321428571429    0.111111111111    0.000000000000       4
    0.339285714286    0.111111111111    0.000000000000       4
    0.357142857143    0.111111111111    0.000000000000       4
    0.375000000000    0.111111111111    0.000000000000       4
    0.392857142857    0.111111111111    0.000000000000       4
    0.410714285714    0.111111111111    0.000000000000       4
    0.428571428571    0.111111111111    0.000000000000       4
    0.446428571429    0.111111111111    0.000000000000       4
    0.464285714286    0.111111111111    0.000000000000       4
    0.482142857143    0.111111111111    0.000000000000       4
    0.500000000000    0.111111111111    0.000000000000       2
    0.000000000000    0.129629629630    0.000000000000       2
    0.017857142857    0.129629629630    0.000000000000       4
    0.035714285714    0.129629629630    0.000000000000       4
    0.053571428571    0.129629629630    0.000000000000       4
    0.071428571429    0.129629629630    0.000000000000       4
    0.089285714286    0.129629629630    0.000000000000       4
    0.107142857143    0.129629629630    0.000000000000       4
    0.125000000000    0.129629629630    0.000000000000       4
    0.142857142857    0.129629629630    0.000000000000       4
    0.160714285714    0.129629629630    0.000000000000       4
    0.178571428571    0.129629629630    0.000000000000       4
    0.196428571429    0.129629629630    0.000000000000       4
    0.214285714286    0.129629629630    0.000000000000       4
    0.232142857143    0.129629629630    0.000000000000       4
    0.250000000000    0.129629629630    0.000000000000       4
    0.267857142857    0.129629629630    0.000000000000       4
    0.285714285714    0.129629629630    0.000000000000       4
    0.303571428571    0.129629629630    0.000000000000       4
    0.321428571429    0.129629629630    0.000000000000       4
    0.339285714286    0.129629629630    0.000000000000       4
    0.357142857143    0.129629629630    0.000000000000       4
    0.375000000000    0.129629629630    0.000000000000       4
    0.392857142857    0.129629629630    0.000000000000       4
    0.410714285714    0.129629629630    0.000000000000       4
    0.428571428571    0.129629629630    0.000000000000       4
    0.446428571429    0.129629629630    0.000000000000       4
    0.464285714286    0.129629629630    0.000000000000       4
    0.482142857143    0.129629629630    0.000000000000       4
    0.500000000000    0.129629629630    0.000000000000       2
    0.000000000000    0.148148148148    0.000000000000       2
    0.017857142857    0.148148148148    0.000000000000       4
    0.035714285714    0.148148148148    0.000000000000       4
    0.053571428571    0.148148148148    0.000000000000       4
    0.071428571429    0.148148148148    0.000000000000       4
    0.089285714286    0.148148148148    0.000000000000       4
    0.107142857143    0.148148148148    0.000000000000       4
    0.125000000000    0.148148148148    0.000000000000       4
    0.142857142857    0.148148148148    0.000000000000       4
    0.160714285714    0.148148148148    0.000000000000       4
    0.178571428571    0.148148148148    0.000000000000       4
    0.196428571429    0.148148148148    0.000000000000       4
    0.214285714286    0.148148148148    0.000000000000       4
    0.232142857143    0.148148148148    0.000000000000       4
    0.250000000000    0.148148148148    0.000000000000       4
    0.267857142857    0.148148148148    0.000000000000       4
    0.285714285714    0.148148148148    0.000000000000       4
    0.303571428571    0.148148148148    0.000000000000       4
    0.321428571429    0.148148148148    0.000000000000       4
    0.339285714286    0.148148148148    0.000000000000       4
    0.357142857143    0.148148148148    0.000000000000       4
    0.375000000000    0.148148148148    0.000000000000       4
    0.392857142857    0.148148148148    0.000000000000       4
    0.410714285714    0.148148148148    0.000000000000       4
    0.428571428571    0.148148148148    0.000000000000       4
    0.446428571429    0.148148148148    0.000000000000       4
    0.464285714286    0.148148148148    0.000000000000       4
    0.482142857143    0.148148148148    0.000000000000       4
    0.500000000000    0.148148148148    0.000000000000       2
    0.000000000000    0.166666666667    0.000000000000       2
    0.017857142857    0.166666666667    0.000000000000       4
    0.035714285714    0.166666666667    0.000000000000       4
    0.053571428571    0.166666666667    0.000000000000       4
    0.071428571429    0.166666666667    0.000000000000       4
    0.089285714286    0.166666666667    0.000000000000       4
    0.107142857143    0.166666666667    0.000000000000       4
    0.125000000000    0.166666666667    0.000000000000       4
    0.142857142857    0.166666666667    0.000000000000       4
    0.160714285714    0.166666666667    0.000000000000       4
    0.178571428571    0.166666666667    0.000000000000       4
    0.196428571429    0.166666666667    0.000000000000       4
    0.214285714286    0.166666666667    0.000000000000       4
    0.232142857143    0.166666666667    0.000000000000       4
    0.250000000000    0.166666666667    0.000000000000       4
    0.267857142857    0.166666666667    0.000000000000       4
    0.285714285714    0.166666666667    0.000000000000       4
    0.303571428571    0.166666666667    0.000000000000       4
    0.321428571429    0.166666666667    0.000000000000       4
    0.339285714286    0.166666666667    0.000000000000       4
    0.357142857143    0.166666666667    0.000000000000       4
    0.375000000000    0.166666666667    0.000000000000       4
    0.392857142857    0.166666666667    0.000000000000       4
    0.410714285714    0.166666666667    0.000000000000       4
    0.428571428571    0.166666666667    0.000000000000       4
    0.446428571429    0.166666666667    0.000000000000       4
    0.464285714286    0.166666666667    0.000000000000       4
    0.482142857143    0.166666666667    0.000000000000       4
    0.500000000000    0.166666666667    0.000000000000       2
    0.000000000000    0.185185185185    0.000000000000       2
    0.017857142857    0.185185185185    0.000000000000       4
    0.035714285714    0.185185185185    0.000000000000       4
    0.053571428571    0.185185185185    0.000000000000       4
    0.071428571429    0.185185185185    0.000000000000       4
    0.089285714286    0.185185185185    0.000000000000       4
    0.107142857143    0.185185185185    0.000000000000       4
    0.125000000000    0.185185185185    0.000000000000       4
    0.142857142857    0.185185185185    0.000000000000       4
    0.160714285714    0.185185185185    0.000000000000       4
    0.178571428571    0.185185185185    0.000000000000       4
    0.196428571429    0.185185185185    0.000000000000       4
    0.214285714286    0.185185185185    0.000000000000       4
    0.232142857143    0.185185185185    0.000000000000       4
    0.250000000000    0.185185185185    0.000000000000       4
    0.267857142857    0.185185185185    0.000000000000       4
    0.285714285714    0.185185185185    0.000000000000       4
    0.303571428571    0.185185185185    0.000000000000       4
    0.321428571429    0.185185185185    0.000000000000       4
    0.339285714286    0.185185185185    0.000000000000       4
    0.357142857143    0.185185185185    0.000000000000       4
    0.375000000000    0.185185185185    0.000000000000       4
    0.392857142857    0.185185185185    0.000000000000       4
    0.410714285714    0.185185185185    0.000000000000       4
    0.428571428571    0.185185185185    0.000000000000       4
    0.446428571429    0.185185185185    0.000000000000       4
    0.464285714286    0.185185185185    0.000000000000       4
    0.482142857143    0.185185185185    0.000000000000       4
    0.500000000000    0.185185185185    0.000000000000       2
    0.000000000000    0.203703703704    0.000000000000       2
    0.017857142857    0.203703703704    0.000000000000       4
    0.035714285714    0.203703703704    0.000000000000       4
    0.053571428571    0.203703703704    0.000000000000       4
    0.071428571429    0.203703703704    0.000000000000       4
    0.089285714286    0.203703703704    0.000000000000       4
    0.107142857143    0.203703703704    0.000000000000       4
    0.125000000000    0.203703703704    0.000000000000       4
    0.142857142857    0.203703703704    0.000000000000       4
    0.160714285714    0.203703703704    0.000000000000       4
    0.178571428571    0.203703703704    0.000000000000       4
    0.196428571429    0.203703703704    0.000000000000       4
    0.214285714286    0.203703703704    0.000000000000       4
    0.232142857143    0.203703703704    0.000000000000       4
    0.250000000000    0.203703703704    0.000000000000       4
    0.267857142857    0.203703703704    0.000000000000       4
    0.285714285714    0.203703703704    0.000000000000       4
    0.303571428571    0.203703703704    0.000000000000       4
    0.321428571429    0.203703703704    0.000000000000       4
    0.339285714286    0.203703703704    0.000000000000       4
    0.357142857143    0.203703703704    0.000000000000       4
    0.375000000000    0.203703703704    0.000000000000       4
    0.392857142857    0.203703703704    0.000000000000       4
    0.410714285714    0.203703703704    0.000000000000       4
    0.428571428571    0.203703703704    0.000000000000       4
    0.446428571429    0.203703703704    0.000000000000       4
    0.464285714286    0.203703703704    0.000000000000       4
    0.482142857143    0.203703703704    0.000000000000       4
    0.500000000000    0.203703703704    0.000000000000       2
    0.000000000000    0.222222222222    0.000000000000       2
    0.017857142857    0.222222222222    0.000000000000       4
    0.035714285714    0.222222222222    0.000000000000       4
    0.053571428571    0.222222222222    0.000000000000       4
    0.071428571429    0.222222222222    0.000000000000       4
    0.089285714286    0.222222222222    0.000000000000       4
    0.107142857143    0.222222222222    0.000000000000       4
    0.125000000000    0.222222222222    0.000000000000       4
    0.142857142857    0.222222222222    0.000000000000       4
    0.160714285714    0.222222222222    0.000000000000       4
    0.178571428571    0.222222222222    0.000000000000       4
    0.196428571429    0.222222222222    0.000000000000       4
    0.214285714286    0.222222222222    0.000000000000       4
    0.232142857143    0.222222222222    0.000000000000       4
    0.250000000000    0.222222222222    0.000000000000       4
    0.267857142857    0.222222222222    0.000000000000       4
    0.285714285714    0.222222222222    0.000000000000       4
    0.303571428571    0.222222222222    0.000000000000       4
    0.321428571429    0.222222222222    0.000000000000       4
    0.339285714286    0.222222222222    0.000000000000       4
    0.357142857143    0.222222222222    0.000000000000       4
    0.375000000000    0.222222222222    0.000000000000       4
    0.392857142857    0.222222222222    0.000000000000       4
    0.410714285714    0.222222222222    0.000000000000       4
    0.428571428571    0.222222222222    0.000000000000       4
    0.446428571429    0.222222222222    0.000000000000       4
    0.464285714286    0.222222222222    0.000000000000       4
    0.482142857143    0.222222222222    0.000000000000       4
    0.500000000000    0.222222222222    0.000000000000       2
    0.000000000000    0.240740740741    0.000000000000       2
    0.017857142857    0.240740740741    0.000000000000       4
    0.035714285714    0.240740740741    0.000000000000       4
    0.053571428571    0.240740740741    0.000000000000       4
    0.071428571429    0.240740740741    0.000000000000       4
    0.089285714286    0.240740740741    0.000000000000       4
    0.107142857143    0.240740740741    0.000000000000       4
    0.125000000000    0.240740740741    0.000000000000       4
    0.142857142857    0.240740740741    0.000000000000       4
    0.160714285714    0.240740740741    0.000000000000       4
    0.178571428571    0.240740740741    0.000000000000       4
    0.196428571429    0.240740740741    0.000000000000       4
    0.214285714286    0.240740740741    0.000000000000       4
    0.232142857143    0.240740740741    0.000000000000       4
    0.250000000000    0.240740740741    0.000000000000       4
    0.267857142857    0.240740740741    0.000000000000       4
    0.285714285714    0.240740740741    0.000000000000       4
    0.303571428571    0.240740740741    0.000000000000       4
    0.321428571429    0.240740740741    0.000000000000       4
    0.339285714286    0.240740740741    0.000000000000       4
    0.357142857143    0.240740740741    0.000000000000       4
    0.375000000000    0.240740740741    0.000000000000       4
    0.392857142857    0.240740740741    0.000000000000       4
    0.410714285714    0.240740740741    0.000000000000       4
    0.428571428571    0.240740740741    0.000000000000       4
    0.446428571429    0.240740740741    0.000000000000       4
    0.464285714286    0.240740740741    0.000000000000       4
    0.482142857143    0.240740740741    0.000000000000       4
    0.500000000000    0.240740740741    0.000000000000       2
    0.000000000000    0.259259259259    0.000000000000       2
    0.017857142857    0.259259259259    0.000000000000       4
    0.035714285714    0.259259259259    0.000000000000       4
    0.053571428571    0.259259259259    0.000000000000       4
    0.071428571429    0.259259259259    0.000000000000       4
    0.089285714286    0.259259259259    0.000000000000       4
    0.107142857143    0.259259259259    0.000000000000       4
    0.125000000000    0.259259259259    0.000000000000       4
    0.142857142857    0.259259259259    0.000000000000       4
    0.160714285714    0.259259259259    0.000000000000       4
    0.178571428571    0.259259259259    0.000000000000       4
    0.196428571429    0.259259259259    0.000000000000       4
    0.214285714286    0.259259259259    0.000000000000       4
    0.232142857143    0.259259259259    0.000000000000       4
    0.250000000000    0.259259259259    0.000000000000       4
    0.267857142857    0.259259259259    0.000000000000       4
    0.285714285714    0.259259259259    0.000000000000       4
    0.303571428571    0.259259259259    0.000000000000       4
    0.321428571429    0.259259259259    0.000000000000       4
    0.339285714286    0.259259259259    0.000000000000       4
    0.357142857143    0.259259259259    0.000000000000       4
    0.375000000000    0.259259259259    0.000000000000       4
    0.392857142857    0.259259259259    0.000000000000       4
    0.410714285714    0.259259259259    0.000000000000       4
    0.428571428571    0.259259259259    0.000000000000       4
    0.446428571429    0.259259259259    0.000000000000       4
    0.464285714286    0.259259259259    0.000000000000       4
    0.482142857143    0.259259259259    0.000000000000       4
    0.500000000000    0.259259259259    0.000000000000       2
    0.000000000000    0.277777777778    0.000000000000       2
    0.017857142857    0.277777777778    0.000000000000       4
    0.035714285714    0.277777777778    0.000000000000       4
    0.053571428571    0.277777777778    0.000000000000       4
    0.071428571429    0.277777777778    0.000000000000       4
    0.089285714286    0.277777777778    0.000000000000       4
    0.107142857143    0.277777777778    0.000000000000       4
    0.125000000000    0.277777777778    0.000000000000       4
    0.142857142857    0.277777777778    0.000000000000       4
    0.160714285714    0.277777777778    0.000000000000       4
    0.178571428571    0.277777777778    0.000000000000       4
    0.196428571429    0.277777777778    0.000000000000       4
    0.214285714286    0.277777777778    0.000000000000       4
    0.232142857143    0.277777777778    0.000000000000       4
    0.250000000000    0.277777777778    0.000000000000       4
    0.267857142857    0.277777777778    0.000000000000       4
    0.285714285714    0.277777777778    0.000000000000       4
    0.303571428571    0.277777777778    0.000000000000       4
    0.321428571429    0.277777777778    0.000000000000       4
    0.339285714286    0.277777777778    0.000000000000       4
    0.357142857143    0.277777777778    0.000000000000       4
    0.375000000000    0.277777777778    0.000000000000       4
    0.392857142857    0.277777777778    0.000000000000       4
    0.410714285714    0.277777777778    0.000000000000       4
    0.428571428571    0.277777777778    0.000000000000       4
    0.446428571429    0.277777777778    0.000000000000       4
    0.464285714286    0.277777777778    0.000000000000       4
    0.482142857143    0.277777777778    0.000000000000       4
    0.500000000000    0.277777777778    0.000000000000       2
    0.000000000000    0.296296296296    0.000000000000       2
    0.017857142857    0.296296296296    0.000000000000       4
    0.035714285714    0.296296296296    0.000000000000       4
    0.053571428571    0.296296296296    0.000000000000       4
    0.071428571429    0.296296296296    0.000000000000       4
    0.089285714286    0.296296296296    0.000000000000       4
    0.107142857143    0.296296296296    0.000000000000       4
    0.125000000000    0.296296296296    0.000000000000       4
    0.142857142857    0.296296296296    0.000000000000       4
    0.160714285714    0.296296296296    0.000000000000       4