CONTCAR\(5)                             
   1.00000000000000     
    10.8753004073999993    0.0000000000000000    0.0000000000000000
     0.0000000000000000   10.8753004073999993    0.0000000000000000
     0.0000000000000000    0.0000000000000000   21.9909000397000014
   Hf   Si   Te   O    H 
    18    18    18     1     1
Direct
  0.1641800748840652  0.0022914492389816  0.5950307179446597
  0.0004165420486757  0.1659255947487353  0.4038693568423994
  0.5010266329117528  0.9984918322439498  0.5968397388603819
  0.3344039354736950  0.1659214003927545  0.4047704220553072
  0.8365731104889917  0.0023869118276210  0.5950156192251654
  0.6664797934958315  0.1660070616684948  0.4046838121436167
  0.1641012495086756  0.3297295257656216  0.5950393750902734
  0.0003514069779982  0.4997706644547009  0.4046136311464892
  0.5004090515266100  0.3342652096289243  0.5970836571358760
  0.3345671303457252  0.4997843789365817  0.4059689435783724
  0.8365241272357409  0.3297396430412789  0.5950188173850250
  0.6663389457861655  0.4999225427581706  0.4059639714410253
  0.1679731928364205  0.6649893653334544  0.5968312541950027
  0.0004322544768627  0.8318485237122815  0.4047650695955909
  0.5003696035586955  0.6665083496650723  0.6059857813946579
  0.3345787345233617  0.8316562628208217  0.4061655730942704
  0.8325603233974377  0.6656950381021929  0.5969238191180466
  0.6664835064231625  0.8317213622346813  0.4060406556420375
  0.0004140005530573  0.9989347126484702  0.4994453405519792
  0.1674398988773760  0.1659762539977976  0.4994276742451618
  0.3340970955281790  0.9995069887789469  0.5007053266823931
  0.5004192562938741  0.1659808496057238  0.5007151186992118
  0.6667971536641133  0.9996152712319599  0.5006084110265903
  0.8332543062965030  0.1660345453856849  0.4993734817708813
  0.0003472597231422  0.3330757324827189  0.4994142329973528
  0.1667349781510907  0.4993605374287426  0.5005400889637954
  0.3339561527773327  0.3324019434455181  0.5007050040226417
  0.5004918589161917  0.5001746337808584  0.5025252158307083
  0.6668407845748519  0.3324405304848668  0.5006411644241098
  0.8339462990526698  0.4994663631016962  0.5005458361908310
  0.0003720246000611  0.6658254162976931  0.5006090236793383
  0.1669053588208413  0.8321973058374184  0.5006898335232322
  0.3346867074984345  0.6656246052240320  0.5025243611788497
  0.5005680532954955  0.8312948189307576  0.5027075288169129
  0.6664018944813961  0.6657788751123448  0.5024327475272798
  0.8339654162017638  0.8323572722668402  0.5006895335614630
  0.0003421614664845  0.1659595365606137  0.6620108667266749
  0.1677422223101317  0.9985213858844872  0.3409026994099946
  0.3343433663992599  0.1659178170295377  0.6599174122505076
  0.5004599020716753  0.9982202142984633  0.3412107711635599
  0.6664488374669091  0.1661330635566358  0.6600545762897596
  0.8332028311937236  0.9986750991970581  0.3408144924601615
  0.0002944549270367  0.4996417392890820  0.6600126622771825
  0.1676668115463826  0.3331727921785372  0.3407254061521243
  0.3248568865045343  0.4907337230129443  0.6597814776901103
  0.5003854289203531  0.3333261960174596  0.3407805695247745
  0.6761311003942794  0.4907818646311668  0.6594000197417742
  0.8331914564944043  0.3331708710304326  0.3406101254550151
  0.0004891116869032  0.8320389780978985  0.6598132669443331
  0.1680245178650637  0.6658734753101641  0.3410150796854623
  0.3247504295338715  0.8412096008098544  0.6588787550182147
  0.5004261468668787  0.6658862291519085  0.3415587977670640
  0.6761581933638965  0.8411739000979210  0.6594636785513828
  0.8329348920717834  0.6658963997692737  0.3408107548454424
  0.5059936215140652  0.6572340600520974  0.7018880204647218
  0.4742295161961465  0.7175712974080639  0.7305508260007940
 
  0.00000000E+00  0.00000000E+00  0.00000000E+00
  0.00000000E+00  0.00000000E+00  0.00000000E+00
  0.00000000E+00  0.00000000E+00  0.00000000E+00
  0.00000000E+00  0.00000000E+00  0.00000000E+00
  0.00000000E+00  0.00000000E+00  0.00000000E+00
  0.00000000E+00  0.00000000E+00  0.00000000E+00
  0.00000000E+00  0.00000000E+00  0.00000000E+00
  0.00000000E+00  0.00000000E+00  0.00000000E+00
  0.00000000E+00  0.00000000E+00  0.00000000E+00
  0.00000000E+00  0.00000000E+00  0.00000000E+00
  0.00000000E+00  0.00000000E+00  0.00000000E+00
  0.00000000E+00  0.00000000E+00  0.00000000E+00
  0.00000000E+00  0.00000000E+00  0.00000000E+00
  0.00000000E+00  0.00000000E+00  0.00000000E+00
  0.00000000E+00  0.00000000E+00  0.00000000E+00
  0.00000000E+00  0.00000000E+00  0.00000000E+00
  0.00000000E+00  0.00000000E+00  0.00000000E+00
  0.00000000E+00  0.00000000E+00  0.00000000E+00
  0.00000000E+00  0.00000000E+00  0.00000000E+00
  0.00000000E+00  0.00000000E+00  0.00000000E+00
  0.00000000E+00  0.00000000E+00  0.00000000E+00
  0.00000000E+00  0.00000000E+00  0.00000000E+00
  0.00000000E+00  0.00000000E+00  0.00000000E+00
  0.00000000E+00  0.00000000E+00  0.00000000E+00
  0.00000000E+00  0.00000000E+00  0.00000000E+00
  0.00000000E+00  0.00000000E+00  0.00000000E+00
  0.00000000E+00  0.00000000E+00  0.00000000E+00
  0.00000000E+00  0.00000000E+00  0.00000000E+00
  0.00000000E+00  0.00000000E+00  0.00000000E+00
  0.00000000E+00  0.00000000E+00  0.00000000E+00
  0.00000000E+00  0.00000000E+00  0.00000000E+00
  0.00000000E+00  0.00000000E+00  0.00000000E+00
  0.00000000E+00  0.00000000E+00  0.00000000E+00
  0.00000000E+00  0.00000000E+00  0.00000000E+00
  0.00000000E+00  0.00000000E+00  0.00000000E+00
  0.00000000E+00  0.00000000E+00  0.00000000E+00
  0.00000000E+00  0.00000000E+00  0.00000000E+00
  0.00000000E+00  0.00000000E+00  0.00000000E+00
  0.00000000E+00  0.00000000E+00  0.00000000E+00
  0.00000000E+00  0.00000000E+00  0.00000000E+00
  0.00000000E+00  0.00000000E+00  0.00000000E+00
  0.00000000E+00  0.00000000E+00  0.00000000E+00
  0.00000000E+00  0.00000000E+00  0.00000000E+00
  0.00000000E+00  0.00000000E+00  0.00000000E+00
  0.00000000E+00  0.00000000E+00  0.00000000E+00
  0.00000000E+00  0.00000000E+00  0.00000000E+00
  0.00000000E+00  0.00000000E+00  0.00000000E+00
  0.00000000E+00  0.00000000E+00  0.00000000E+00
  0.00000000E+00  0.00000000E+00  0.00000000E+00
  0.00000000E+00  0.00000000E+00  0.00000000E+00
  0.00000000E+00  0.00000000E+00  0.00000000E+00
  0.00000000E+00  0.00000000E+00  0.00000000E+00
  0.00000000E+00  0.00000000E+00  0.00000000E+00
  0.00000000E+00  0.00000000E+00  0.00000000E+00
  0.00000000E+00  0.00000000E+00  0.00000000E+00
  0.00000000E+00  0.00000000E+00  0.00000000E+00
