Repeated-UnitCell:     3    1    1      
   1.00000000000000     
     8.4278612137000000    0.0000000000000000    0.0000000000000000
     0.0000000000000000    7.3624982833999999    0.0000000000000000
     0.0000000000000000    0.0000000000000000   22.6672554015999985
   Li   Cu   F 
    12    11    30
Direct
  0.2528748464868980  0.1407085966824683  0.5288633335912757
  0.5804584585130982  0.1407085966824683  0.5288633335912757
  0.9166666950000035  0.1392113063881694  0.5169764754683740
  0.2625985263998553  0.8548783419771069  0.6172944789173467
  0.5707347786001414  0.8548783419771069  0.6172944789173467
  0.9166666950000035  0.8617582180663416  0.6097899699426093
  0.0846819740763152  0.1483403616783334  0.3931307717742669
  0.4166666670000012  0.1454334114934787  0.3949408268912643
  0.7486513869236857  0.1483403616783334  0.3931307717742669
  0.0864951106870170  0.8628418395056983  0.4819537079397173
  0.4166666670000012  0.8571232674561482  0.4825736701859200
  0.7468382503129842  0.8628418395056983  0.4819537079397173
  0.0788669434265526  0.5075502413610068  0.5630158887384210
  0.4166666670000012  0.4817507760294993  0.5747082593469872
  0.7544664175734486  0.5075502413610068  0.5630158887384210
  0.0930557099039308  0.1779231842407736  0.6578943404563976
  0.7402776510960700  0.1779231842407736  0.6578943404563976
  0.2500542709375666  0.8299046102951759  0.3438577204495248
  0.5832790340624303  0.8299046102951759  0.3438577204495248
  0.9166666950000035  0.8308664324346133  0.3434010241265654
  0.2540343854186898  0.4892838019135194  0.4345403046454970
  0.5792989195813066  0.4892838019135194  0.4345403046454970
  0.9166666950000035  0.4956608789739658  0.4318868927812656
  0.0782999090003841  0.3299016412495487  0.5000578369013198
  0.4166666670000012  0.3231795053468638  0.5059498358251923
  0.7550334449996198  0.3299016412495487  0.5000578369013198
  0.0777369541119170  0.9969375896829914  0.5536486907282907
  0.4166666670000012  0.9757282909834842  0.5555667140980407
  0.7555964068880837  0.9969375896829914  0.5536486907282907
  0.0838049835773479  0.6941725844195876  0.6171221177149935
  0.4166666670000012  0.6740521035033241  0.6264906672274795
  0.7495283774226533  0.6941725844195876  0.6171221177149935
  0.2291882699177411  0.3199296932617456  0.6061061795512601
  0.6041450350822554  0.3199296932617456  0.6061061795512601
  0.9166666950000035  0.3356896995930360  0.6339815831415758
  0.2471286641520475  0.0167174627039832  0.6781939213704904
  0.5862046408479491  0.0167174627039832  0.6781939213704904
  0.9166666950000035  0.0191780656107547  0.6807915826776261
  0.0838179773290115 -0.0040821053927126  0.3209877786391200
  0.4166666670000012 -0.0038383921181870  0.3216225486993213
  0.7495153836709898 -0.0040821053927126  0.3209877786391200
  0.0827685318519536  0.6687901732659226  0.3747227687617645
  0.4166666670000012  0.6692196286027794  0.3749421634581387
  0.7505648291480477  0.6687901732659226  0.3747227687617645
  0.2513900538864204  0.3096681832671200  0.3782678021242282
  0.5819432511135756  0.3096681832671200  0.3782678021242282
  0.9166666950000035  0.3088304369077280  0.3776955675023331
  0.2502872216440364  0.0069491044857708  0.4436053238899053
  0.5830460833559603  0.0069491044857708  0.4436053238899053
  0.9166666950000035  0.0031747945850539  0.4416146293588750
  0.2491743763601180  0.6713821397694832  0.4933264933587433
  0.5841589286398784  0.6713821397694832  0.4933264933587433
  0.9166666950000035  0.6729041964079019  0.4939214141633041
 
  0.00000000E+00  0.00000000E+00  0.00000000E+00
  0.00000000E+00  0.00000000E+00  0.00000000E+00
  0.00000000E+00  0.00000000E+00  0.00000000E+00
  0.00000000E+00  0.00000000E+00  0.00000000E+00
  0.00000000E+00  0.00000000E+00  0.00000000E+00
  0.00000000E+00  0.00000000E+00  0.00000000E+00
  0.00000000E+00  0.00000000E+00  0.00000000E+00
  0.00000000E+00  0.00000000E+00  0.00000000E+00
  0.00000000E+00  0.00000000E+00  0.00000000E+00
  0.00000000E+00  0.00000000E+00  0.00000000E+00
  0.00000000E+00  0.00000000E+00  0.00000000E+00
  0.00000000E+00  0.00000000E+00  0.00000000E+00
  0.00000000E+00  0.00000000E+00  0.00000000E+00
  0.00000000E+00  0.00000000E+00  0.00000000E+00
  0.00000000E+00  0.00000000E+00  0.00000000E+00
  0.00000000E+00  0.00000000E+00  0.00000000E+00
  0.00000000E+00  0.00000000E+00  0.00000000E+00
  0.00000000E+00  0.00000000E+00  0.00000000E+00
  0.00000000E+00  0.00000000E+00  0.00000000E+00
  0.00000000E+00  0.00000000E+00  0.00000000E+00
  0.00000000E+00  0.00000000E+00  0.00000000E+00
  0.00000000E+00  0.00000000E+00  0.00000000E+00
  0.00000000E+00  0.00000000E+00  0.00000000E+00
  0.00000000E+00  0.00000000E+00  0.00000000E+00
  0.00000000E+00  0.00000000E+00  0.00000000E+00
  0.00000000E+00  0.00000000E+00  0.00000000E+00
  0.00000000E+00  0.00000000E+00  0.00000000E+00
  0.00000000E+00  0.00000000E+00  0.00000000E+00
  0.00000000E+00  0.00000000E+00  0.00000000E+00
  0.00000000E+00  0.00000000E+00  0.00000000E+00
  0.00000000E+00  0.00000000E+00  0.00000000E+00
  0.00000000E+00  0.00000000E+00  0.00000000E+00
  0.00000000E+00  0.00000000E+00  0.00000000E+00
  0.00000000E+00  0.00000000E+00  0.00000000E+00
  0.00000000E+00  0.00000000E+00  0.00000000E+00
  0.00000000E+00  0.00000000E+00  0.00000000E+00
  0.00000000E+00  0.00000000E+00  0.00000000E+00
  0.00000000E+00  0.00000000E+00  0.00000000E+00
  0.00000000E+00  0.00000000E+00  0.00000000E+00
  0.00000000E+00  0.00000000E+00  0.00000000E+00
  0.00000000E+00  0.00000000E+00  0.00000000E+00
  0.00000000E+00  0.00000000E+00  0.00000000E+00
  0.00000000E+00  0.00000000E+00  0.00000000E+00
  0.00000000E+00  0.00000000E+00  0.00000000E+00
  0.00000000E+00  0.00000000E+00  0.00000000E+00
  0.00000000E+00  0.00000000E+00  0.00000000E+00
  0.00000000E+00  0.00000000E+00  0.00000000E+00
  0.00000000E+00  0.00000000E+00  0.00000000E+00
  0.00000000E+00  0.00000000E+00  0.00000000E+00
  0.00000000E+00  0.00000000E+00  0.00000000E+00
  0.00000000E+00  0.00000000E+00  0.00000000E+00
  0.00000000E+00  0.00000000E+00  0.00000000E+00
  0.00000000E+00  0.00000000E+00  0.00000000E+00
