CONTCAR\(14)                            
   1.00000000000000     
    12.4035997391000006    0.0000000000000000    0.0000000000000000
     6.2017683962000003   10.7417350166999999    0.0000000000000000
     0.0000000000000000    0.0000000000000000   17.7593994140999989
   Fe   Br
     8    24
Direct
  0.0000000000000000  0.0000000000000000  0.5000099880000022
  0.1666699940000029  0.1666700070000005  0.4999900119999978
  0.5000000000000000  0.0000000000000000  0.5000099880000022
  0.6666699749999978  0.1666700070000005  0.4999900119999978
  0.9999999899999992  0.5000000209999982  0.5000099880000022
  0.1666699789999981  0.6666700379999995  0.4999900119999978
  0.4999999710000012  0.5000000209999982  0.5000099880000022
  0.6666699789999981  0.6666700379999995  0.4999900119999978
  0.0138799980000002  0.1527700070000009  0.4222800029999974
  0.1527699849999991  0.3333500230000013  0.4222800029999974
  0.3333499920000023  0.0138800009999969  0.4222800029999974
  0.1527599980000005  0.0138700010000008  0.5777199970000026
  0.0138699809999991  0.3333600110000035  0.5777199970000026
  0.3333599680000034  0.1527700070000009  0.5777199970000026
  0.5138799879999993  0.1527700070000009  0.4222800029999974
  0.6527699470000030  0.3333500230000013  0.4222800029999974
  0.8333500299999983  0.0138800009999969  0.4222800029999974
  0.6527600080000013  0.0138700010000008  0.5777199970000026
  0.5138699999999972  0.3333600110000035  0.5777199970000026
  0.8333600079999997  0.1527600080000013  0.5777199970000026
  0.0138800140000015  0.6527699940000034  0.4222800029999974
  0.1527700159999981  0.8333499989999993  0.4222800029999974
  0.3333499900000021  0.5138800439999969  0.4222800029999974
  0.1527599830000028  0.5138700119999982  0.5777199970000026
  0.0138700090000015  0.8333600320000016  0.5777199970000026
  0.3333599939999985  0.6527699940000034  0.5777199970000026
  0.5138800519999975  0.6527699940000034  0.4222800029999974
  0.6527700549999977  0.8333499989999993  0.4222800029999974
  0.8333500279999981  0.5138800439999969  0.4222800029999974
  0.6527600209999989  0.5138700119999982  0.5777199970000026
  0.5138700090000015  0.8333600320000016  0.5777199970000026
  0.8333600320000016  0.6527699940000034  0.5777199970000026
 
  0.00000000E+00  0.00000000E+00  0.00000000E+00
  0.00000000E+00  0.00000000E+00  0.00000000E+00
  0.00000000E+00  0.00000000E+00  0.00000000E+00
  0.00000000E+00  0.00000000E+00  0.00000000E+00
  0.00000000E+00  0.00000000E+00  0.00000000E+00
  0.00000000E+00  0.00000000E+00  0.00000000E+00
  0.00000000E+00  0.00000000E+00  0.00000000E+00
  0.00000000E+00  0.00000000E+00  0.00000000E+00
  0.00000000E+00  0.00000000E+00  0.00000000E+00
  0.00000000E+00  0.00000000E+00  0.00000000E+00
  0.00000000E+00  0.00000000E+00  0.00000000E+00
  0.00000000E+00  0.00000000E+00  0.00000000E+00
  0.00000000E+00  0.00000000E+00  0.00000000E+00
  0.00000000E+00  0.00000000E+00  0.00000000E+00
  0.00000000E+00  0.00000000E+00  0.00000000E+00
  0.00000000E+00  0.00000000E+00  0.00000000E+00
  0.00000000E+00  0.00000000E+00  0.00000000E+00
  0.00000000E+00  0.00000000E+00  0.00000000E+00
  0.00000000E+00  0.00000000E+00  0.00000000E+00
  0.00000000E+00  0.00000000E+00  0.00000000E+00
  0.00000000E+00  0.00000000E+00  0.00000000E+00
  0.00000000E+00  0.00000000E+00  0.00000000E+00
  0.00000000E+00  0.00000000E+00  0.00000000E+00
  0.00000000E+00  0.00000000E+00  0.00000000E+00
  0.00000000E+00  0.00000000E+00  0.00000000E+00
  0.00000000E+00  0.00000000E+00  0.00000000E+00
  0.00000000E+00  0.00000000E+00  0.00000000E+00
  0.00000000E+00  0.00000000E+00  0.00000000E+00
  0.00000000E+00  0.00000000E+00  0.00000000E+00
  0.00000000E+00  0.00000000E+00  0.00000000E+00
  0.00000000E+00  0.00000000E+00  0.00000000E+00
  0.00000000E+00  0.00000000E+00  0.00000000E+00
