CONTCAR\(4)                             
   1.00000000000000     
    13.0347003936999997    0.0000000000000000    0.0000000000000000
     0.0000000000000000   13.0347003936999997    0.0000000000000000
     0.0000000000000000    0.0000000000000000   24.3213005066000001
   Sm   Te   O    H 
    18    54     2     1
Selective dynamics
Direct
  0.9983660213647738  0.1697202122623764  0.4145967627215370   F   F   F
  0.1620515668418037  0.0027868873643655  0.5878526609914161   F   F   F
  0.3311784494030334  0.1689420142675360  0.4138314389900657   F   F   F
  0.4967016886417142  0.0029191760886391  0.5866815018733149   F   F   F
  0.6654228931807040  0.1689344943275231  0.4132820068895811   F   F   F
  0.8312339048628843  0.0028251785355522  0.5872032088581136   F   F   F
  0.9982868756179499  0.5027126756640996  0.4146978967830535   F   F   F
  0.1638107989750779  0.3360571941741242  0.5882474636280506   F   F   F
  0.3323016752106653  0.5028956213578013  0.4143333956169997   F   F   F
  0.4994418901246505  0.3278790679348091  0.5836637725586158   F   F   F
  0.6649486601170622  0.5027378443758721  0.4137587509726686   F   F   F
  0.8311343738122332  0.3365897964948843  0.5874830944647158   F   F   F
  0.9984040863693977  0.8358233530497756  0.4145673845611171   F   F   F
  0.1633662235811499  0.6696364535443067  0.5882944660036529   F   F   F
  0.3311577279338138  0.8366450551116387  0.4138874373523294   F   F   F
  0.5002214262852149  0.6775296977981640  0.5837290812373368   F   F   F
  0.6654750739716562  0.8367103191853928  0.4132231454269260   F   F   F
  0.8315996709148408  0.6689831104463764  0.5873402625071336   F   F   F
  0.9977068002215645  0.1701215704242927  0.5484130496347461   F   F   F
  0.1642696640908454  0.0027514861540752  0.4538337136769002   F   F   F
  0.1646563434194164  0.1682378783035645  0.6924465855819975   F   F   F
  0.9987529712009007  0.0028824799522198  0.3105267016474826   F   F   F
  0.9921646345941610  0.0032803104471597  0.6921238135543391   F   F   F
  0.1651300568947462  0.1695685898343342  0.3106140900308176   F   F   F
  0.3291834658612132  0.1679580867208941  0.5476357246900108   F   F   F
  0.4982877874039673  0.0027929882584701  0.4529367590444267   F   F   F
  0.4986998101537381  0.1689870880124644  0.6900578697062016   F   F   F
  0.3316790847091511  0.0027771262046485  0.3098413378910863   F   F   F
  0.3276673607500058  0.0020871511198024  0.6916642723426421   F   F   F
  0.4983240728616636  0.1692882890075609  0.3096410984612987   F   F   F
  0.6661494024978509  0.1674449103273403  0.5469874074450232   F   F   F
  0.8322574057178045  0.0028352212697058  0.4532551392747024   F   F   F
  0.8316060641610221  0.1697354923813492  0.6917350340877562   F   F   F
  0.6658310023571588  0.0028095840251368  0.3093110343852672   F   F   F
  0.6622074415408292  0.0032953728991814  0.6909355242303121   F   F   F
  0.8320636771403827  0.1696571082277742  0.3100695028084601   F   F   F
  0.9980216276214051  0.5026641297704444  0.5485755860645511   F   F   F
  0.1660695666815002  0.3371183831119708  0.4543806807527204   F   F   F
  0.1603711080339494  0.5027063853250553  0.6926315031605554   F   F   F
  0.9986411299123787  0.3363490209520066  0.3109079659104808   F   F   F
  0.9977577752483668  0.3365095331440244  0.6920545993721987   F   F   F
  0.1655147365784728  0.5028375352606744  0.3109189450278294   F   F   F
  0.3344774017999725  0.5029484650518228  0.5508851188730262   F   F   F
  0.4983266688464454  0.3351647971000133  0.4521273117406039   F   F   F
  0.4860761049578670  0.5022176613856146  0.6808252785290776   F   F   F
  0.3318842155476958  0.3363536146971526  0.3103826309734927   F   F   F
  0.3293172565027618  0.3330800285671316  0.6916036688271348   F   F   F
  0.4984056666232988  0.5030369305889408  0.3101604893110945   F   F   F
  0.6626129720794580  0.5027581745505074  0.5483456707031991   F   F   F
  0.8309175775714124  0.3364265867277609  0.4538073037986763   F   F   F
  0.8264624591874039  0.5021885038778748  0.6915639942880460   F   F   F
  0.6648529028506900  0.3360881775884366  0.3096764818085305   F   F   F
  0.6636421807427553  0.3366477784219271  0.6903511495207226   F   F   F
  0.8319433209169844  0.5026704672166673  0.3103311705299845   F   F   F
  0.9976072430124390  0.8355250905968816  0.5483116845598985   F   F   F
  0.1658947704382783  0.6684747958265262  0.4544201682248072   F   F   F
  0.1640398972595989  0.8372456489614635  0.6926401313559936   F   F   F
  0.9986075450975704  0.6691792054205123  0.3107911212971004   F   F   F
  0.9979465354657364  0.6695646513704574  0.6921663452809170   F   F   F
  0.1647718933327980  0.8360267617932351  0.3107434581060460   F   F   F
  0.3292764944555273  0.8373610026323632  0.5478417539725200   F   F   F
  0.4984778220636983  0.6705312488308053  0.4520881731091677   F   F   F
  0.4995241979922014  0.8372647602611352  0.6901109022535792   F   F   F
  0.3315836244129073  0.6696666146953945  0.3103046525310376   F   F   F
  0.3295965684297570  0.6721341539656009  0.6918188095896340   F   F   F
  0.4985375696792502  0.8363998572198170  0.3097090555195550   F   F   F
  0.6660936036596254  0.8380373055594319  0.5468560408004564   F   F   F
  0.8309242006661748  0.6690012778318959  0.4535923835508342   F   F   F
  0.8317038743354672  0.8362781715102088  0.6917410178636771   F   F   F
  0.6653992106985953  0.6694867866805083  0.3097091246773900   F   F   F
  0.6648735035218039  0.6691430091970005  0.6895577438914984   F   F   F
  0.8324598498768268  0.8361745147867623  0.3101830611637197   F   F   F
  0.4284882639876031  0.5109472758121072  0.8012525980977117   T   T   T
  0.5188780500198149  0.5004763142798510  0.7680944026829835   T   T   T
  0.4244305411064530  0.5857865758768099  0.8057291700138909   T   T   T
 
  0.00000000E+00  0.00000000E+00  0.00000000E+00
  0.00000000E+00  0.00000000E+00  0.00000000E+00
  0.00000000E+00  0.00000000E+00  0.00000000E+00
  0.00000000E+00  0.00000000E+00  0.00000000E+00
  0.00000000E+00  0.00000000E+00  0.00000000E+00
  0.00000000E+00  0.00000000E+00  0.00000000E+00
  0.00000000E+00  0.00000000E+00  0.00000000E+00
  0.00000000E+00  0.00000000E+00  0.00000000E+00
  0.00000000E+00  0.00000000E+00  0.00000000E+00
  0.00000000E+00  0.00000000E+00  0.00000000E+00
  0.00000000E+00  0.00000000E+00  0.00000000E+00
  0.00000000E+00  0.00000000E+00  0.00000000E+00
  0.00000000E+00  0.00000000E+00  0.00000000E+00
  0.00000000E+00  0.00000000E+00  0.00000000E+00
  0.00000000E+00  0.00000000E+00  0.00000000E+00
  0.00000000E+00  0.00000000E+00  0.00000000E+00
  0.00000000E+00  0.00000000E+00  0.00000000E+00
  0.00000000E+00  0.00000000E+00  0.00000000E+00
  0.00000000E+00  0.00000000E+00  0.00000000E+00
  0.00000000E+00  0.00000000E+00  0.00000000E+00
  0.00000000E+00  0.00000000E+00  0.00000000E+00
  0.00000000E+00  0.00000000E+00  0.00000000E+00
  0.00000000E+00  0.00000000E+00  0.00000000E+00
  0.00000000E+00  0.00000000E+00  0.00000000E+00
  0.00000000E+00  0.00000000E+00  0.00000000E+00
  0.00000000E+00  0.00000000E+00  0.00000000E+00
  0.00000000E+00  0.00000000E+00  0.00000000E+00
  0.00000000E+00  0.00000000E+00  0.00000000E+00
  0.00000000E+00  0.00000000E+00  0.00000000E+00
  0.00000000E+00  0.00000000E+00  0.00000000E+00
  0.00000000E+00  0.00000000E+00  0.00000000E+00
  0.00000000E+00  0.00000000E+00  0.00000000E+00
  0.00000000E+00  0.00000000E+00  0.00000000E+00
  0.00000000E+00  0.00000000E+00  0.00000000E+00
  0.00000000E+00  0.00000000E+00  0.00000000E+00
  0.00000000E+00  0.00000000E+00  0.00000000E+00
  0.00000000E+00  0.00000000E+00  0.00000000E+00
  0.00000000E+00  0.00000000E+00  0.00000000E+00
  0.00000000E+00  0.00000000E+00  0.00000000E+00
  0.00000000E+00  0.00000000E+00  0.00000000E+00
  0.00000000E+00  0.00000000E+00  0.00000000E+00
  0.00000000E+00  0.00000000E+00  0.00000000E+00
  0.00000000E+00  0.00000000E+00  0.00000000E+00
  0.00000000E+00  0.00000000E+00  0.00000000E+00
  0.00000000E+00  0.00000000E+00  0.00000000E+00
  0.00000000E+00  0.00000000E+00  0.00000000E+00
  0.00000000E+00  0.00000000E+00  0.00000000E+00
  0.00000000E+00  0.00000000E+00  0.00000000E+00
  0.00000000E+00  0.00000000E+00  0.00000000E+00
  0.00000000E+00  0.00000000E+00  0.00000000E+00
  0.00000000E+00  0.00000000E+00  0.00000000E+00
  0.00000000E+00  0.00000000E+00  0.00000000E+00
  0.00000000E+00  0.00000000E+00  0.00000000E+00
  0.00000000E+00  0.00000000E+00  0.00000000E+00
  0.00000000E+00  0.00000000E+00  0.00000000E+00
  0.00000000E+00  0.00000000E+00  0.00000000E+00
  0.00000000E+00  0.00000000E+00  0.00000000E+00
  0.00000000E+00  0.00000000E+00  0.00000000E+00
  0.00000000E+00  0.00000000E+00  0.00000000E+00
  0.00000000E+00  0.00000000E+00  0.00000000E+00
  0.00000000E+00  0.00000000E+00  0.00000000E+00
  0.00000000E+00  0.00000000E+00  0.00000000E+00
  0.00000000E+00  0.00000000E+00  0.00000000E+00
  0.00000000E+00  0.00000000E+00  0.00000000E+00
  0.00000000E+00  0.00000000E+00  0.00000000E+00
  0.00000000E+00  0.00000000E+00  0.00000000E+00
  0.00000000E+00  0.00000000E+00  0.00000000E+00
  0.00000000E+00  0.00000000E+00  0.00000000E+00
  0.00000000E+00  0.00000000E+00  0.00000000E+00
  0.00000000E+00  0.00000000E+00  0.00000000E+00
  0.00000000E+00  0.00000000E+00  0.00000000E+00
  0.00000000E+00  0.00000000E+00  0.00000000E+00
  0.00000000E+00  0.00000000E+00  0.00000000E+00
  0.00000000E+00  0.00000000E+00  0.00000000E+00
  0.00000000E+00  0.00000000E+00  0.00000000E+00
