CONTCAR\(6)                             
   1.00000000000000     
    12.9315996169999998    0.0000000000000000    0.0000000000000000
     0.0000000000000000   12.9343004226999998    0.0000000000000000
     0.0000000000000000    0.0000000000000000   24.0856990814000014
   La   Te   Se   O 
    18    36    18     1
Direct
  0.1662032459406900  0.0012687333188404  0.5770842167421035
 -0.0000148805864844  0.1667511931796490  0.4227070256643037
  0.5001204437338719  0.9992920218550345  0.5780617233659847
  0.3330513249414733  0.1663148847680883  0.4229169954244657
  0.8333582209042212  0.0000331824779326  0.5765702553663342
  0.6664887594617679  0.1663146977721641  0.4228723349227226
  0.1672463864338775  0.3338364070010739  0.5777586981710006
  0.9996025289568415  0.4997270452561898  0.4229954022289714
  0.4993966155943276  0.3308864072156457  0.5767752184963093
  0.3332684904336562  0.4998173810039141  0.4234461322987082
  0.8345908546345636  0.3328741561689249  0.5771518306012852
  0.6663729907252242  0.4998842104860327  0.4234108526838456
  0.1642352438072065  0.6661078797839917  0.5766647556393225
  0.9995463501509214  0.8330361992353629  0.4228737109641123
  0.5006234869538241  0.6673688610376524  0.5774908625157003
  0.3331808236031759  0.8331419120305793  0.4234324032047765
  0.8325848456469352  0.6667818482853988  0.5779762334117652
  0.6664607022284885  0.8331131655282714  0.4230268375930029
  0.9994142132860526  0.0026797097705491  0.6879931153561040
  0.1666793337047313  0.1664934892936816  0.3122054232988158
  0.1656829613679111  0.1670563394246826  0.6893443701843749
 -0.0000246468443771 -0.0000745347744799  0.3124108133207509
  0.3346579935714358  0.0031227652979421  0.6891525860486258
  0.4998761958843973  0.1665423968718789  0.3123600892196551
  0.4985159751563103  0.1645577657651112  0.6893208645934197
  0.3331396653504127 -0.0003687685825501  0.3125167839646050
  0.6695552866332276  0.0000861106303590  0.6890760603385120
  0.8332329861149762  0.1664912628965041  0.3121264058665962
  0.8362842960611069  0.1660422337227075  0.6879885919724004
  0.6664402702106189  0.9997683151402986  0.3122480177625024
  0.0008978658995793  0.3322313337332868  0.6894073193487967
  0.1665982216566839  0.4998728734553830  0.3127179438183133
  0.1699294640052185  0.5015390399239050  0.6897314775628145
  0.9999015952728179  0.3333161500441666  0.3122223980952362
  0.3350052834088735  0.3365401432885654  0.6896512870814051
  0.4998895745512170  0.4999439389379333  0.3127064561724331
  0.5137914950038732  0.4925916912454917  0.6922556664643340
  0.3333152105230934  0.3333123947445838  0.3125963995515698
  0.6722671399458990  0.3270077744748633  0.6897082553922866
  0.8329156603224386  0.4998283986278548  0.3125679340641753
  0.8362406251152477  0.5015213528551371  0.6892086816874264
  0.6664322677163937  0.3333565596276020  0.3125369144887353
  0.9974796175404562  0.6654409822198800  0.6892230808776236
  0.1664791493870848  0.8332023542663068  0.3125421951507869
  0.1602667491945608  0.8388813174427627  0.6893382081005088
  0.9997884209027308  0.6663480558506680  0.3122929832347831
  0.3260219400749038  0.6804689345913949  0.6922547072407140
  0.4998278492747069  0.8330692945475222  0.3127187723762256
  0.5003471680716924  0.8324815589251610  0.6906025487665829
  0.3332700263644572  0.6664067006758781  0.3130623509717773
  0.6657838011740722  0.6669644986819768  0.6902100718744713
  0.8332186271427497  0.8331388055765843  0.3122743895181777
  0.8334361024459140  0.8361638939125784  0.6890144332396664
  0.6665099511726106  0.6664718197996679  0.3125990367895718
  0.0006293748752714  0.1671938732698396  0.5495817670777604
  0.1665687969681508  0.9996353282751125  0.4512765873350588
  0.3331613730502580  0.1665382443856009  0.5500992754346583
  0.4996046088359076  0.9995845372728492  0.4517879406587933
  0.6664183597219698  0.1662574471686583  0.5499226856148712
  0.8332326089709063  0.9998767804036715  0.4508613487778663
 -0.0000317880487831  0.4998498250781885  0.5504343987468504
  0.1667517612553336  0.3336431302962092  0.4514801246578214
  0.3344990092633375  0.5011003996921806  0.5510313454644211
  0.4997916270985702  0.3330413031773535  0.4514237051651552
  0.6651236913358946  0.4994493127935326  0.5512510984098504
  0.8330143071943495  0.3334581156223878  0.4511913549395837
  0.9995934754169958  0.8332222019831943  0.5498757586486317
  0.1662362400265769  0.6663281741932571  0.4512549215766484
  0.3327733864251601  0.8319535358003141  0.5510869855929252
  0.5000042398689799  0.6664953061926232  0.4518304774608579
  0.6660585233919140  0.8330081997848843  0.5503220373043495
  0.8328322658598990  0.6660882491979231  0.4517446629692541
  0.4125038202606107  0.5789693051016263  0.7365507000751226
 
  0.00000000E+00  0.00000000E+00  0.00000000E+00
  0.00000000E+00  0.00000000E+00  0.00000000E+00
  0.00000000E+00  0.00000000E+00  0.00000000E+00
  0.00000000E+00  0.00000000E+00  0.00000000E+00
  0.00000000E+00  0.00000000E+00  0.00000000E+00
  0.00000000E+00  0.00000000E+00  0.00000000E+00
  0.00000000E+00  0.00000000E+00  0.00000000E+00
  0.00000000E+00  0.00000000E+00  0.00000000E+00
  0.00000000E+00  0.00000000E+00  0.00000000E+00
  0.00000000E+00  0.00000000E+00  0.00000000E+00
  0.00000000E+00  0.00000000E+00  0.00000000E+00
  0.00000000E+00  0.00000000E+00  0.00000000E+00
  0.00000000E+00  0.00000000E+00  0.00000000E+00
  0.00000000E+00  0.00000000E+00  0.00000000E+00
  0.00000000E+00  0.00000000E+00  0.00000000E+00
  0.00000000E+00  0.00000000E+00  0.00000000E+00
  0.00000000E+00  0.00000000E+00  0.00000000E+00
  0.00000000E+00  0.00000000E+00  0.00000000E+00
  0.00000000E+00  0.00000000E+00  0.00000000E+00
  0.00000000E+00  0.00000000E+00  0.00000000E+00
  0.00000000E+00  0.00000000E+00  0.00000000E+00
  0.00000000E+00  0.00000000E+00  0.00000000E+00
  0.00000000E+00  0.00000000E+00  0.00000000E+00
  0.00000000E+00  0.00000000E+00  0.00000000E+00
  0.00000000E+00  0.00000000E+00  0.00000000E+00
  0.00000000E+00  0.00000000E+00  0.00000000E+00
  0.00000000E+00  0.00000000E+00  0.00000000E+00
  0.00000000E+00  0.00000000E+00  0.00000000E+00
  0.00000000E+00  0.00000000E+00  0.00000000E+00
  0.00000000E+00  0.00000000E+00  0.00000000E+00
  0.00000000E+00  0.00000000E+00  0.00000000E+00
  0.00000000E+00  0.00000000E+00  0.00000000E+00
  0.00000000E+00  0.00000000E+00  0.00000000E+00
  0.00000000E+00  0.00000000E+00  0.00000000E+00
  0.00000000E+00  0.00000000E+00  0.00000000E+00
  0.00000000E+00  0.00000000E+00  0.00000000E+00
  0.00000000E+00  0.00000000E+00  0.00000000E+00
  0.00000000E+00  0.00000000E+00  0.00000000E+00
  0.00000000E+00  0.00000000E+00  0.00000000E+00
  0.00000000E+00  0.00000000E+00  0.00000000E+00
  0.00000000E+00  0.00000000E+00  0.00000000E+00
  0.00000000E+00  0.00000000E+00  0.00000000E+00
  0.00000000E+00  0.00000000E+00  0.00000000E+00
  0.00000000E+00  0.00000000E+00  0.00000000E+00
  0.00000000E+00  0.00000000E+00  0.00000000E+00
  0.00000000E+00  0.00000000E+00  0.00000000E+00
  0.00000000E+00  0.00000000E+00  0.00000000E+00
  0.00000000E+00  0.00000000E+00  0.00000000E+00
  0.00000000E+00  0.00000000E+00  0.00000000E+00
  0.00000000E+00  0.00000000E+00  0.00000000E+00
  0.00000000E+00  0.00000000E+00  0.00000000E+00
  0.00000000E+00  0.00000000E+00  0.00000000E+00
  0.00000000E+00  0.00000000E+00  0.00000000E+00
  0.00000000E+00  0.00000000E+00  0.00000000E+00
  0.00000000E+00  0.00000000E+00  0.00000000E+00
  0.00000000E+00  0.00000000E+00  0.00000000E+00
  0.00000000E+00  0.00000000E+00  0.00000000E+00
  0.00000000E+00  0.00000000E+00  0.00000000E+00
  0.00000000E+00  0.00000000E+00  0.00000000E+00
  0.00000000E+00  0.00000000E+00  0.00000000E+00
  0.00000000E+00  0.00000000E+00  0.00000000E+00
  0.00000000E+00  0.00000000E+00  0.00000000E+00
  0.00000000E+00  0.00000000E+00  0.00000000E+00
  0.00000000E+00  0.00000000E+00  0.00000000E+00
  0.00000000E+00  0.00000000E+00  0.00000000E+00
  0.00000000E+00  0.00000000E+00  0.00000000E+00
  0.00000000E+00  0.00000000E+00  0.00000000E+00
  0.00000000E+00  0.00000000E+00  0.00000000E+00
  0.00000000E+00  0.00000000E+00  0.00000000E+00
  0.00000000E+00  0.00000000E+00  0.00000000E+00
  0.00000000E+00  0.00000000E+00  0.00000000E+00
  0.00000000E+00  0.00000000E+00  0.00000000E+00
  0.00000000E+00  0.00000000E+00  0.00000000E+00
