CONTCAR                                 
   1.00000000000000     
    11.2263002396000005    0.0000000000000000    0.0000000000000000
     0.0000000000000000   21.7961997986000000    0.0000000000000000
     0.0000000000000000    0.0000000000000000   19.3752994536999985
   Ta   Te   Pd   O 
     9    42     9     1
Direct
  0.1673661127337068  0.4788306237581426  0.4997763584202378
  0.1671863868602700  0.1232820705882511  0.5012015973481432
  0.1686609582094942  0.7756514183540514  0.5152181887929326
  0.4985084640235976  0.4786816961948127  0.4993466815665639
  0.4990076592407083  0.1237243755555386  0.5007593085763837
  0.5009688426307825  0.7724814626253458  0.5123235436468313
  0.8332339255870002  0.4773333926990885  0.4995409714142474
  0.8324913880408552  0.1252398449873368  0.5001670157623915
  0.8323103946646393  0.7747210221073945  0.5155448921486611
  0.0015250838449003  0.4099667635907584  0.4199975281179250
  0.1672028252554358  0.2391816039870108  0.4248615438914283
  0.1568337681825514  0.8913895714761347  0.5862051691518900
  0.9980317416253166  0.8423497022488212  0.4359980455298573
 -0.0003482352661989  0.5516167401329684  0.4258096938235163
  0.9999691428857574  0.4822819713148903  0.6120558921343587
  0.1662980630061263  0.0019565938644199  0.4368165504308189
  0.9974941377490963  0.0564184725497302  0.5812668954364026
  0.1693601100857411  0.5972308207435468  0.5711082917572383
  0.0003466983024527  0.1982859192226366  0.5737281951749132
  0.1632316288237192  0.7004750441116422  0.4047000372772896
  0.0004218582561688  0.1195859670729773  0.3880889435214882
  0.0007095758867029  0.7397590258285487  0.6126614132010210
  0.1676672088777886  0.3624197868752932  0.5756672892652714
  0.3325559174223570  0.4069737171270653  0.4226715001328117
  0.4990202902720511  0.2405573836883484  0.4259262063970264
  0.4859257058008422  0.8801791366491341  0.5975952569497964
  0.3342218999453075  0.8430664582170279  0.4359821014666551
  0.3331695230667919  0.5498077120169420  0.4209960968038561
  0.3334586206689374  0.4839776909562976  0.6121846278584216
  0.5004491150546505  0.0017448517721997  0.4363165893276483
  0.3333477224849587  0.0552864439003660  0.5825189790240122
  0.4949061111204363  0.5967528997937205  0.5709830085538263
  0.3329981401683418  0.1977683284079312  0.5758939975621555
  0.5012104645787783  0.6974460650847653  0.4023552933955586
  0.3320305187937348  0.1190865553346877  0.3888753654300761
  0.3378837420353681  0.7482624572364698  0.6171712070667358
  0.4980963246865475  0.3613260094455412  0.5737479086667712
  0.6654765728514251  0.4101474276465403  0.4195193508934005
  0.8343400655479734  0.2420962168576901  0.4270449454886323
  0.8257248385074275  0.8895776726041467  0.5894407826827001
  0.6645707118855113  0.8446234999354317  0.4376445263023240
  0.6666579517496019  0.5512970518734859  0.4251074562891347
  0.6660120190885321  0.4815908128610181  0.6118118321503616
  0.8381437468597152  0.0091145149935932  0.4268782637963017
  0.6674757543933066  0.0557329478610123  0.5810123900779329
  0.8319210629143969  0.5936662429616643  0.5716364321127330
  0.6653809086399342  0.1984924429279352  0.5739263716642289
  0.8336247097030121  0.7001369806837860  0.4050789857995801
  0.6643851939910435  0.1236248519098506  0.3880318079869377
  0.6659862465959262  0.7382437285440857  0.6121572540728847
  0.8331740932852999  0.3604787549856194  0.5734243289846881
  0.9904255359607669  0.9470303110170342  0.5097168705547331
  0.0023843444529176  0.3031379933421356  0.4985856134989397
  0.9984187820574036  0.6618394251225528  0.5011805388214483
  0.3345286541944767  0.9445693275747694  0.5152150214785924
  0.3312081853115592  0.3016729295511564  0.4990094093835678
  0.3318278732028703  0.6603258991917983  0.4952641544365292
  0.6746308043511727  0.9492021819427355  0.5084334185229604
  0.6658163192722177  0.3026070619198004  0.4979326787801217
  0.6662196506618672  0.6613962127988677  0.4998997832745122
  0.3777538949159147  0.8335359763734370  0.6635361189215365
 
  0.00000000E+00  0.00000000E+00  0.00000000E+00
  0.00000000E+00  0.00000000E+00  0.00000000E+00
  0.00000000E+00  0.00000000E+00  0.00000000E+00
  0.00000000E+00  0.00000000E+00  0.00000000E+00
  0.00000000E+00  0.00000000E+00  0.00000000E+00
  0.00000000E+00  0.00000000E+00  0.00000000E+00
  0.00000000E+00  0.00000000E+00  0.00000000E+00
  0.00000000E+00  0.00000000E+00  0.00000000E+00
  0.00000000E+00  0.00000000E+00  0.00000000E+00
  0.00000000E+00  0.00000000E+00  0.00000000E+00
  0.00000000E+00  0.00000000E+00  0.00000000E+00
  0.00000000E+00  0.00000000E+00  0.00000000E+00
  0.00000000E+00  0.00000000E+00  0.00000000E+00
  0.00000000E+00  0.00000000E+00  0.00000000E+00
  0.00000000E+00  0.00000000E+00  0.00000000E+00
  0.00000000E+00  0.00000000E+00  0.00000000E+00
  0.00000000E+00  0.00000000E+00  0.00000000E+00
  0.00000000E+00  0.00000000E+00  0.00000000E+00
  0.00000000E+00  0.00000000E+00  0.00000000E+00
  0.00000000E+00  0.00000000E+00  0.00000000E+00
  0.00000000E+00  0.00000000E+00  0.00000000E+00
  0.00000000E+00  0.00000000E+00  0.00000000E+00
  0.00000000E+00  0.00000000E+00  0.00000000E+00
  0.00000000E+00  0.00000000E+00  0.00000000E+00
  0.00000000E+00  0.00000000E+00  0.00000000E+00
  0.00000000E+00  0.00000000E+00  0.00000000E+00
  0.00000000E+00  0.00000000E+00  0.00000000E+00
  0.00000000E+00  0.00000000E+00  0.00000000E+00
  0.00000000E+00  0.00000000E+00  0.00000000E+00
  0.00000000E+00  0.00000000E+00  0.00000000E+00
  0.00000000E+00  0.00000000E+00  0.00000000E+00
  0.00000000E+00  0.00000000E+00  0.00000000E+00
  0.00000000E+00  0.00000000E+00  0.00000000E+00
  0.00000000E+00  0.00000000E+00  0.00000000E+00
  0.00000000E+00  0.00000000E+00  0.00000000E+00
  0.00000000E+00  0.00000000E+00  0.00000000E+00
  0.00000000E+00  0.00000000E+00  0.00000000E+00
  0.00000000E+00  0.00000000E+00  0.00000000E+00
  0.00000000E+00  0.00000000E+00  0.00000000E+00
  0.00000000E+00  0.00000000E+00  0.00000000E+00
  0.00000000E+00  0.00000000E+00  0.00000000E+00
  0.00000000E+00  0.00000000E+00  0.00000000E+00
  0.00000000E+00  0.00000000E+00  0.00000000E+00
  0.00000000E+00  0.00000000E+00  0.00000000E+00
  0.00000000E+00  0.00000000E+00  0.00000000E+00
  0.00000000E+00  0.00000000E+00  0.00000000E+00
  0.00000000E+00  0.00000000E+00  0.00000000E+00
  0.00000000E+00  0.00000000E+00  0.00000000E+00
  0.00000000E+00  0.00000000E+00  0.00000000E+00
  0.00000000E+00  0.00000000E+00  0.00000000E+00
  0.00000000E+00  0.00000000E+00  0.00000000E+00
  0.00000000E+00  0.00000000E+00  0.00000000E+00
  0.00000000E+00  0.00000000E+00  0.00000000E+00
  0.00000000E+00  0.00000000E+00  0.00000000E+00
  0.00000000E+00  0.00000000E+00  0.00000000E+00
  0.00000000E+00  0.00000000E+00  0.00000000E+00
  0.00000000E+00  0.00000000E+00  0.00000000E+00
  0.00000000E+00  0.00000000E+00  0.00000000E+00
  0.00000000E+00  0.00000000E+00  0.00000000E+00
  0.00000000E+00  0.00000000E+00  0.00000000E+00
  0.00000000E+00  0.00000000E+00  0.00000000E+00
