 Ag2 Au4 S4                             
   1.00000000000000     
     4.2876725990051918    0.0000000000000000    0.0000000000000000
     0.0000000000000000    7.1598230908373068    0.0000000000000000
     0.0000000000000000    0.0000000000000000   19.5570216443800007
   Ag   Au   S 
     2     4     4
Direct
  0.2459651769219895  0.6424195912968175  0.6016713115892767
  0.7540347582387817  0.1424196025965972  0.6016712216268308
  0.1026010406415670  0.9863478427290965  0.4881471694965951
  0.8973990557809391  0.4863480579386645  0.4881472158970075
  0.5009300199948598  0.7456393934607669  0.4037353800909896
  0.4990700213133670  0.2456393909736356  0.4037354621252507
  0.8339343321436780  0.9961699988731654  0.3846928696036971
  0.7403031634443681  0.4816110844812159  0.6027519302168866
  0.2596967643577165  0.9816110666683162  0.6027519032949997
  0.1660656671627294  0.4961699709817235  0.3846929084695318
 
  0.00000000E+00  0.00000000E+00  0.00000000E+00
  0.00000000E+00  0.00000000E+00  0.00000000E+00
  0.00000000E+00  0.00000000E+00  0.00000000E+00
  0.00000000E+00  0.00000000E+00  0.00000000E+00
  0.00000000E+00  0.00000000E+00  0.00000000E+00
  0.00000000E+00  0.00000000E+00  0.00000000E+00
  0.00000000E+00  0.00000000E+00  0.00000000E+00
  0.00000000E+00  0.00000000E+00  0.00000000E+00
  0.00000000E+00  0.00000000E+00  0.00000000E+00
  0.00000000E+00  0.00000000E+00  0.00000000E+00
