 Zr2 Cl6                                
   1.00000000000000     
     6.0549459243126549    0.0000000000000000    0.0000000000000000
     3.0228503477652215    5.4346751700446090    0.0000000000000000
     0.0000000000000000    0.0000000000000000   18.1751860204959996
   Zr   Cl
     2     6
Direct
  0.3190527642445671  0.3610757419504225  0.5000123447678816
  0.6809472456942097  0.6389242346009755  0.4999876544359959
  0.3367226352279681  0.9997965923711601  0.5750057378343170
  0.9977321379412232  0.3376453146781956  0.4119852060029899
  0.6644849083169507  0.3375549343738365  0.5878546125306131
  0.3355150790639780  0.6624450827933632  0.4121453973072201
  0.0022678544740410  0.6623546986746720  0.5880147834646346
  0.6632773750370630  0.0002034005573734  0.4249942636563476
 
  0.00000000E+00  0.00000000E+00  0.00000000E+00
  0.00000000E+00  0.00000000E+00  0.00000000E+00
  0.00000000E+00  0.00000000E+00  0.00000000E+00
  0.00000000E+00  0.00000000E+00  0.00000000E+00
  0.00000000E+00  0.00000000E+00  0.00000000E+00
  0.00000000E+00  0.00000000E+00  0.00000000E+00
  0.00000000E+00  0.00000000E+00  0.00000000E+00
  0.00000000E+00  0.00000000E+00  0.00000000E+00
