G   35   30    1    0.005     # Parameters to Generate KPOINTS (Don't Edit This Line)
     526
Reciprocal lattice
    0.000000000000    0.000000000000    0.000000000000       1
    0.028571428571    0.000000000000    0.000000000000       2
    0.057142857143    0.000000000000    0.000000000000       2
    0.085714285714    0.000000000000    0.000000000000       2
    0.114285714286    0.000000000000    0.000000000000       2
    0.142857142857    0.000000000000    0.000000000000       2
    0.171428571429    0.000000000000    0.000000000000       2
    0.200000000000    0.000000000000    0.000000000000       2
    0.228571428571    0.000000000000    0.000000000000       2
    0.257142857143    0.000000000000    0.000000000000       2
    0.285714285714    0.000000000000    0.000000000000       2
    0.314285714286    0.000000000000    0.000000000000       2
    0.342857142857    0.000000000000    0.000000000000       2
    0.371428571429    0.000000000000    0.000000000000       2
    0.400000000000    0.000000000000    0.000000000000       2
    0.428571428571    0.000000000000    0.000000000000       2
    0.457142857143    0.000000000000    0.000000000000       2
    0.485714285714    0.000000000000    0.000000000000       2
    0.000000000000    0.033333333333    0.000000000000       2
    0.028571428571    0.033333333333    0.000000000000       2
    0.057142857143    0.033333333333    0.000000000000       2
    0.085714285714    0.033333333333    0.000000000000       2
    0.114285714286    0.033333333333    0.000000000000       2
    0.142857142857    0.033333333333    0.000000000000       2
    0.171428571429    0.033333333333    0.000000000000       2
    0.200000000000    0.033333333333    0.000000000000       2
    0.228571428571    0.033333333333    0.000000000000       2
    0.257142857143    0.033333333333    0.000000000000       2
    0.285714285714    0.033333333333    0.000000000000       2
    0.314285714286    0.033333333333    0.000000000000       2
    0.342857142857    0.033333333333    0.000000000000       2
    0.371428571429    0.033333333333    0.000000000000       2
    0.400000000000    0.033333333333    0.000000000000       2
    0.428571428571    0.033333333333    0.000000000000       2
    0.457142857143    0.033333333333    0.000000000000       2
    0.485714285714    0.033333333333    0.000000000000       2
   -0.485714285714    0.033333333333    0.000000000000       2
   -0.457142857143    0.033333333333    0.000000000000       2
   -0.428571428571    0.033333333333    0.000000000000       2
   -0.400000000000    0.033333333333    0.000000000000       2
   -0.371428571429    0.033333333333    0.000000000000       2
   -0.342857142857    0.033333333333    0.000000000000       2
   -0.314285714286    0.033333333333    0.000000000000       2
   -0.285714285714    0.033333333333    0.000000000000       2
   -0.257142857143    0.033333333333    0.000000000000       2
   -0.228571428571    0.033333333333    0.000000000000       2
   -0.200000000000    0.033333333333    0.000000000000       2
   -0.171428571429    0.033333333333    0.000000000000       2
   -0.142857142857    0.033333333333    0.000000000000       2
   -0.114285714286    0.033333333333    0.000000000000       2
   -0.085714285714    0.033333333333    0.000000000000       2
   -0.057142857143    0.033333333333    0.000000000000       2
   -0.028571428571    0.033333333333    0.000000000000       2
    0.000000000000    0.066666666667    0.000000000000       2
    0.028571428571    0.066666666667    0.000000000000       2
    0.057142857143    0.066666666667    0.000000000000       2
    0.085714285714    0.066666666667    0.000000000000       2
    0.114285714286    0.066666666667    0.000000000000       2
    0.142857142857    0.066666666667    0.000000000000       2
    0.171428571429    0.066666666667    0.000000000000       2
    0.200000000000    0.066666666667    0.000000000000       2
    0.228571428571    0.066666666667    0.000000000000       2
    0.257142857143    0.066666666667    0.000000000000       2
    0.285714285714    0.066666666667    0.000000000000       2
    0.314285714286    0.066666666667    0.000000000000       2
    0.342857142857    0.066666666667    0.000000000000       2
    0.371428571429    0.066666666667    0.000000000000       2
    0.400000000000    0.066666666667    0.000000000000       2
    0.428571428571    0.066666666667    0.000000000000       2
    0.457142857143    0.066666666667    0.000000000000       2
    0.485714285714    0.066666666667    0.000000000000       2
   -0.485714285714    0.066666666667    0.000000000000       2
   -0.457142857143    0.066666666667    0.000000000000       2
   -0.428571428571    0.066666666667    0.000000000000       2
   -0.400000000000    0.066666666667    0.000000000000       2
   -0.371428571429    0.066666666667    0.000000000000       2
   -0.342857142857    0.066666666667    0.000000000000       2
   -0.314285714286    0.066666666667    0.000000000000       2
   -0.285714285714    0.066666666667    0.000000000000       2
   -0.257142857143    0.066666666667    0.000000000000       2
   -0.228571428571    0.066666666667    0.000000000000       2
   -0.200000000000    0.066666666667    0.000000000000       2
   -0.171428571429    0.066666666667    0.000000000000       2
   -0.142857142857    0.066666666667    0.000000000000       2
   -0.114285714286    0.066666666667    0.000000000000       2
   -0.085714285714    0.066666666667    0.000000000000       2
   -0.057142857143    0.066666666667    0.000000000000       2
   -0.028571428571    0.066666666667    0.000000000000       2
    0.000000000000    0.100000000000    0.000000000000       2
    0.028571428571    0.100000000000    0.000000000000       2
    0.057142857143    0.100000000000    0.000000000000       2
    0.085714285714    0.100000000000    0.000000000000       2
    0.114285714286    0.100000000000    0.000000000000       2
    0.142857142857    0.100000000000    0.000000000000       2
    0.171428571429    0.100000000000    0.000000000000       2
    0.200000000000    0.100000000000    0.000000000000       2
    0.228571428571    0.100000000000    0.000000000000       2
    0.257142857143    0.100000000000    0.000000000000       2
    0.285714285714    0.100000000000    0.000000000000       2
    0.314285714286    0.100000000000    0.000000000000       2
    0.342857142857    0.100000000000    0.000000000000       2
    0.371428571429    0.100000000000    0.000000000000       2
    0.400000000000    0.100000000000    0.000000000000       2
    0.428571428571    0.100000000000    0.000000000000       2
    0.457142857143    0.100000000000    0.000000000000       2
    0.485714285714    0.100000000000    0.000000000000       2
   -0.485714285714    0.100000000000    0.000000000000       2
   -0.457142857143    0.100000000000    0.000000000000       2
   -0.428571428571    0.100000000000    0.000000000000       2
   -0.400000000000    0.100000000000    0.000000000000       2
   -0.371428571429    0.100000000000    0.000000000000       2
   -0.342857142857    0.100000000000    0.000000000000       2
   -0.314285714286    0.100000000000    0.000000000000       2
   -0.285714285714    0.100000000000    0.000000000000       2
   -0.257142857143    0.100000000000    0.000000000000       2
   -0.228571428571    0.100000000000    0.000000000000       2
   -0.200000000000    0.100000000000    0.000000000000       2
   -0.171428571429    0.100000000000    0.000000000000       2
   -0.142857142857    0.100000000000    0.000000000000       2
   -0.114285714286    0.100000000000    0.000000000000       2
   -0.085714285714    0.100000000000    0.000000000000       2
   -0.057142857143    0.100000000000    0.000000000000       2
   -0.028571428571    0.100000000000    0.000000000000       2
    0.000000000000    0.133333333333    0.000000000000       2
    0.028571428571    0.133333333333    0.000000000000       2
    0.057142857143    0.133333333333    0.000000000000       2
    0.085714285714    0.133333333333    0.000000000000       2
    0.114285714286    0.133333333333    0.000000000000       2
    0.142857142857    0.133333333333    0.000000000000       2
    0.171428571429    0.133333333333    0.000000000000       2
    0.200000000000    0.133333333333    0.000000000000       2
    0.228571428571    0.133333333333    0.000000000000       2
    0.257142857143    0.133333333333    0.000000000000       2
    0.285714285714    0.133333333333    0.000000000000       2
    0.314285714286    0.133333333333    0.000000000000       2
    0.342857142857    0.133333333333    0.000000000000       2
    0.371428571429    0.133333333333    0.000000000000       2
    0.400000000000    0.133333333333    0.000000000000       2
    0.428571428571    0.133333333333    0.000000000000       2
    0.457142857143    0.133333333333    0.000000000000       2
    0.485714285714    0.133333333333    0.000000000000       2
   -0.485714285714    0.133333333333    0.000000000000       2
   -0.457142857143    0.133333333333    0.000000000000       2
   -0.428571428571    0.133333333333    0.000000000000       2
   -0.400000000000    0.133333333333    0.000000000000       2
   -0.371428571429    0.133333333333    0.000000000000       2
   -0.342857142857    0.133333333333    0.000000000000       2
   -0.314285714286    0.133333333333    0.000000000000       2
   -0.285714285714    0.133333333333    0.000000000000       2
   -0.257142857143    0.133333333333    0.000000000000       2
   -0.228571428571    0.133333333333    0.000000000000       2
   -0.200000000000    0.133333333333    0.000000000000       2
   -0.171428571429    0.133333333333    0.000000000000       2
   -0.142857142857    0.133333333333    0.000000000000       2
   -0.114285714286    0.133333333333    0.000000000000       2
   -0.085714285714    0.133333333333    0.000000000000       2
   -0.057142857143    0.133333333333    0.000000000000       2
   -0.028571428571    0.133333333333    0.000000000000       2
    0.000000000000    0.166666666667    0.000000000000       2
    0.028571428571    0.166666666667    0.000000000000       2
    0.057142857143    0.166666666667    0.000000000000       2
    0.085714285714    0.166666666667    0.000000000000       2
    0.114285714286    0.166666666667    0.000000000000       2
    0.142857142857    0.166666666667    0.000000000000       2
    0.171428571429    0.166666666667    0.000000000000       2
    0.200000000000    0.166666666667    0.000000000000       2
    0.228571428571    0.166666666667    0.000000000000       2
    0.257142857143    0.166666666667    0.000000000000       2
    0.285714285714    0.166666666667    0.000000000000       2
    0.314285714286    0.166666666667    0.000000000000       2
    0.342857142857    0.166666666667    0.000000000000       2
    0.371428571429    0.166666666667    0.000000000000       2
    0.400000000000    0.166666666667    0.000000000000       2
    0.428571428571    0.166666666667    0.000000000000       2
    0.457142857143    0.166666666667    0.000000000000       2
    0.485714285714    0.166666666667    0.000000000000       2
   -0.485714285714    0.166666666667    0.000000000000       2
   -0.457142857143    0.166666666667    0.000000000000       2
   -0.428571428571    0.166666666667    0.000000000000       2
   -0.400000000000    0.166666666667    0.000000000000       2
   -0.371428571429    0.166666666667    0.000000000000       2
   -0.342857142857    0.166666666667    0.000000000000       2
   -0.314285714286    0.166666666667    0.000000000000       2
   -0.285714285714    0.166666666667    0.000000000000       2
   -0.257142857143    0.166666666667    0.000000000000       2
   -0.228571428571    0.166666666667    0.000000000000       2
   -0.200000000000    0.166666666667    0.000000000000       2
   -0.171428571429    0.166666666667    0.000000000000       2
   -0.142857142857    0.166666666667    0.000000000000       2
   -0.114285714286    0.166666666667    0.000000000000       2
   -0.085714285714    0.166666666667    0.000000000000       2
   -0.057142857143    0.166666666667    0.000000000000       2
   -0.028571428571    0.166666666667    0.000000000000       2
    0.000000000000    0.200000000000    0.000000000000       2
    0.028571428571    0.200000000000    0.000000000000       2
    0.057142857143    0.200000000000    0.000000000000       2
    0.085714285714    0.200000000000    0.000000000000       2
    0.114285714286    0.200000000000    0.000000000000       2
    0.142857142857    0.200000000000    0.000000000000       2
    0.171428571429    0.200000000000    0.000000000000       2
    0.200000000000    0.200000000000    0.000000000000       2
    0.228571428571    0.200000000000    0.000000000000       2
    0.257142857143    0.200000000000    0.000000000000       2
    0.285714285714    0.200000000000    0.000000000000       2
    0.314285714286    0.200000000000    0.000000000000       2
    0.342857142857    0.200000000000    0.000000000000       2
    0.371428571429    0.200000000000    0.000000000000       2
    0.400000000000    0.200000000000    0.000000000000       2
    0.428571428571    0.200000000000    0.000000000000       2
    0.457142857143    0.200000000000    0.000000000000       2
    0.485714285714    0.200000000000    0.000000000000       2
   -0.485714285714    0.200000000000    0.000000000000       2
   -0.457142857143    0.200000000000    0.000000000000       2
   -0.428571428571    0.200000000000    0.000000000000       2
   -0.400000000000    0.200000000000    0.000000000000       2
   -0.371428571429    0.200000000000    0.000000000000       2
   -0.342857142857    0.200000000000    0.000000000000       2
   -0.314285714286    0.200000000000    0.000000000000       2
   -0.285714285714    0.200000000000    0.000000000000       2
   -0.257142857143    0.200000000000    0.000000000000       2
   -0.228571428571    0.200000000000    0.000000000000       2
   -0.200000000000    0.200000000000    0.000000000000       2
   -0.171428571429    0.200000000000    0.000000000000       2
   -0.142857142857    0.200000000000    0.000000000000       2
   -0.114285714286    0.200000000000    0.000000000000       2
   -0.085714285714    0.200000000000    0.000000000000       2
   -0.057142857143    0.200000000000    0.000000000000       2
   -0.028571428571    0.200000000000    0.000000000000       2
    0.000000000000    0.233333333333    0.000000000000       2
    0.028571428571    0.233333333333    0.000000000000       2
    0.057142857143    0.233333333333    0.000000000000       2
    0.085714285714    0.233333333333    0.000000000000       2
    0.114285714286    0.233333333333    0.000000000000       2
    0.142857142857    0.233333333333    0.000000000000       2
    0.171428571429    0.233333333333    0.000000000000       2
    0.200000000000    0.233333333333    0.000000000000       2
    0.228571428571    0.233333333333    0.000000000000       2
    0.257142857143    0.233333333333    0.000000000000       2
    0.285714285714    0.233333333333    0.000000000000       2
    0.314285714286    0.233333333333    0.000000000000       2
    0.342857142857    0.233333333333    0.000000000000       2
    0.371428571429    0.233333333333    0.000000000000       2
    0.400000000000    0.233333333333    0.000000000000       2
    0.428571428571    0.233333333333    0.000000000000       2
    0.457142857143    0.233333333333    0.000000000000       2
    0.485714285714    0.233333333333    0.000000000000       2
   -0.485714285714    0.233333333333    0.000000000000       2
   -0.457142857143    0.233333333333    0.000000000000       2
   -0.428571428571    0.233333333333    0.000000000000       2
   -0.400000000000    0.233333333333    0.000000000000       2
   -0.371428571429    0.233333333333    0.000000000000       2
   -0.342857142857    0.233333333333    0.000000000000       2
   -0.314285714286    0.233333333333    0.000000000000       2
   -0.285714285714    0.233333333333    0.000000000000       2
   -0.257142857143    0.233333333333    0.000000000000       2
   -0.228571428571    0.233333333333    0.000000000000       2
   -0.200000000000    0.233333333333    0.000000000000       2
   -0.171428571429    0.233333333333    0.000000000000       2
   -0.142857142857    0.233333333333    0.000000000000       2
   -0.114285714286    0.233333333333    0.000000000000       2
   -0.085714285714    0.233333333333    0.000000000000       2
   -0.057142857143    0.233333333333    0.000000000000       2
   -0.028571428571    0.233333333333    0.000000000000       2
    0.000000000000    0.266666666667    0.000000000000       2
    0.028571428571    0.266666666667    0.000000000000       2
    0.057142857143    0.266666666667    0.000000000000       2
    0.085714285714    0.266666666667    0.000000000000       2
    0.114285714286    0.266666666667    0.000000000000       2
    0.142857142857    0.266666666667    0.000000000000       2
    0.171428571429    0.266666666667    0.000000000000       2
    0.200000000000    0.266666666667    0.000000000000       2
    0.228571428571    0.266666666667    0.000000000000       2
    0.257142857143    0.266666666667    0.000000000000       2
    0.285714285714    0.266666666667    0.000000000000       2
    0.314285714286    0.266666666667    0.000000000000       2
    0.342857142857    0.266666666667    0.000000000000       2
    0.371428571429    0.266666666667    0.000000000000       2
    0.400000000000    0.266666666667    0.000000000000       2
    0.428571428571    0.266666666667    0.000000000000       2
    0.457142857143    0.266666666667    0.000000000000       2
    0.485714285714    0.266666666667    0.000000000000       2
   -0.485714285714    0.266666666667    0.000000000000       2
   -0.457142857143    0.266666666667    0.000000000000       2
   -0.428571428571    0.266666666667    0.000000000000       2
   -0.400000000000    0.266666666667    0.000000000000       2
   -0.371428571429    0.266666666667    0.000000000000       2
   -0.342857142857    0.266666666667    0.000000000000       2
   -0.314285714286    0.266666666667    0.000000000000       2
   -0.285714285714    0.266666666667    0.000000000000       2
   -0.257142857143    0.266666666667    0.000000000000       2
   -0.228571428571    0.266666666667    0.000000000000       2
   -0.200000000000    0.266666666667    0.000000000000       2
   -0.171428571429    0.266666666667    0.000000000000       2
   -0.142857142857    0.266666666667    0.000000000000       2
   -0.114285714286    0.266666666667    0.000000000000       2
   -0.085714285714    0.266666666667    0.000000000000       2
   -0.057142857143    0.266666666667    0.000000000000       2
   -0.028571428571    0.266666666667    0.000000000000       2
    0.000000000000    0.300000000000    0.000000000000       2
    0.028571428571    0.300000000000    0.000000000000       2
    0.057142857143    0.300000000000    0.000000000000       2
    0.085714285714    0.300000000000    0.000000000000       2
    0.114285714286    0.300000000000    0.000000000000       2
    0.142857142857    0.300000000000    0.000000000000       2
    0.171428571429    0.300000000000    0.000000000000       2
    0.200000000000    0.300000000000    0.000000000000       2
    0.228571428571    0.300000000000    0.000000000000       2
    0.257142857143    0.300000000000    0.000000000000       2
    0.285714285714    0.300000000000    0.000000000000       2
    0.314285714286    0.300000000000    0.000000000000       2
    0.342857142857    0.300000000000    0.000000000000       2
    0.371428571429    0.300000000000    0.000000000000       2
    0.400000000000    0.300000000000    0.000000000000       2
    0.428571428571    0.300000000000    0.000000000000       2
    0.457142857143    0.300000000000    0.000000000000       2
    0.485714285714    0.300000000000    0.000000000000       2
   -0.485714285714    0.300000000000    0.000000000000       2
   -0.457142857143    0.300000000000    0.000000000000       2
   -0.428571428571    0.300000000000    0.000000000000       2
   -0.400000000000    0.300000000000    0.000000000000       2
   -0.371428571429    0.300000000000    0.000000000000       2
   -0.342857142857    0.300000000000    0.000000000000       2
   -0.314285714286    0.300000000000    0.000000000000       2
   -0.285714285714    0.300000000000    0.000000000000       2
   -0.257142857143    0.300000000000    0.000000000000       2
   -0.228571428571    0.300000000000    0.000000000000       2
   -0.200000000000    0.300000000000    0.000000000000       2
   -0.171428571429    0.300000000000    0.000000000000       2
   -0.142857142857    0.300000000000    0.000000000000       2
   -0.114285714286    0.300000000000    0.000000000000       2
   -0.085714285714    0.300000000000    0.000000000000       2
   -0.057142857143    0.300000000000    0.000000000000       2
   -0.028571428571    0.300000000000    0.000000000000       2
    0.000000000000    0.333333333333    0.000000000000       2
    0.028571428571    0.333333333333    0.000000000000       2
    0.057142857143    0.333333333333    0.000000000000       2
    0.085714285714    0.333333333333    0.000000000000       2
    0.114285714286    0.333333333333    0.000000000000       2
    0.142857142857    0.333333333333    0.000000000000       2
    0.171428571429    0.333333333333    0.000000000000       2
    0.200000000000    0.333333333333    0.000000000000       2
    0.228571428571    0.333333333333    0.000000000000       2
    0.257142857143    0.333333333333    0.000000000000       2
    0.285714285714    0.333333333333    0.000000000000       2
    0.314285714286    0.333333333333    0.000000000000       2
    0.342857142857    0.333333333333    0.000000000000       2
    0.371428571429    0.333333333333    0.000000000000       2
    0.400000000000    0.333333333333    0.000000000000       2
    0.428571428571    0.333333333333    0.000000000000       2
    0.457142857143    0.333333333333    0.000000000000       2
    0.485714285714    0.333333333333    0.000000000000       2
   -0.485714285714    0.333333333333    0.000000000000       2
   -0.457142857143    0.333333333333    0.000000000000       2
   -0.428571428571    0.333333333333    0.000000000000       2
   -0.400000000000    0.333333333333    0.000000000000       2
   -0.371428571429    0.333333333333    0.000000000000       2
   -0.342857142857    0.333333333333    0.000000000000       2
   -0.314285714286    0.333333333333    0.000000000000       2
   -0.285714285714    0.333333333333    0.000000000000       2
   -0.257142857143    0.333333333333    0.000000000000       2
   -0.228571428571    0.333333333333    0.000000000000       2
   -0.200000000000    0.333333333333    0.000000000000       2
   -0.171428571429    0.333333333333    0.000000000000       2
   -0.142857142857    0.333333333333    0.000000000000       2
   -0.114285714286    0.333333333333    0.000000000000       2
   -0.085714285714    0.333333333333    0.000000000000       2
   -0.057142857143    0.333333333333    0.000000000000       2
   -0.028571428571    0.333333333333    0.000000000000       2
    0.000000000000    0.366666666667    0.000000000000       2
    0.028571428571    0.366666666667    0.000000000000       2
    0.057142857143    0.366666666667    0.000000000000       2
    0.085714285714    0.366666666667    0.000000000000       2
    0.114285714286    0.366666666667    0.000000000000       2
    0.142857142857    0.366666666667    0.000000000000       2
    0.171428571429    0.366666666667    0.000000000000       2
    0.200000000000    0.366666666667    0.000000000000       2
    0.228571428571    0.366666666667    0.000000000000       2
    0.257142857143    0.366666666667    0.000000000000       2
    0.285714285714    0.366666666667    0.000000000000       2
    0.314285714286    0.366666666667    0.000000000000       2
    0.342857142857    0.366666666667    0.000000000000       2
    0.371428571429    0.366666666667    0.000000000000       2
    0.400000000000    0.366666666667    0.000000000000       2
    0.428571428571    0.366666666667    0.000000000000       2
    0.457142857143    0.366666666667    0.000000000000       2
    0.485714285714    0.366666666667    0.000000000000       2
   -0.485714285714    0.366666666667    0.000000000000       2
   -0.457142857143    0.366666666667    0.000000000000       2
   -0.428571428571    0.366666666667    0.000000000000       2
   -0.400000000000    0.366666666667    0.000000000000       2
   -0.371428571429    0.366666666667    0.000000000000       2
   -0.342857142857    0.366666666667    0.000000000000       2
   -0.314285714286    0.366666666667    0.000000000000       2
   -0.285714285714    0.366666666667    0.000000000000       2
   -0.257142857143    0.366666666667    0.000000000000       2
   -0.228571428571    0.366666666667    0.000000000000       2
   -0.200000000000    0.366666666667    0.000000000000       2
   -0.171428571429    0.366666666667    0.000000000000       2
   -0.142857142857    0.366666666667    0.000000000000       2
   -0.114285714286    0.366666666667    0.000000000000       2
   -0.085714285714    0.366666666667    0.000000000000       2
   -0.057142857143    0.366666666667    0.000000000000       2
   -0.028571428571    0.366666666667    0.000000000000       2
    0.000000000000    0.400000000000    0.000000000000       2
    0.028571428571    0.400000000000    0.000000000000       2
    0.057142857143    0.400000000000    0.000000000000       2
    0.085714285714    0.400000000000    0.000000000000       2
    0.114285714286    0.400000000000    0.000000000000       2
    0.142857142857    0.400000000000    0.000000000000       2
    0.171428571429    0.400000000000    0.000000000000       2
    0.200000000000    0.400000000000    0.000000000000       2
    0.228571428571    0.400000000000    0.000000000000       2
    0.257142857143    0.400000000000    0.000000000000       2
    0.285714285714    0.400000000000    0.000000000000       2
    0.314285714286    0.400000000000    0.000000000000       2
    0.342857142857    0.400000000000    0.000000000000       2
    0.371428571429    0.400000000000    0.000000000000       2
    0.400000000000    0.400000000000    0.000000000000       2
    0.428571428571    0.400000000000    0.000000000000       2
    0.457142857143    0.400000000000    0.000000000000       2
    0.485714285714    0.400000000000    0.000000000000       2
   -0.485714285714    0.400000000000    0.000000000000       2
   -0.457142857143    0.400000000000    0.000000000000       2
   -0.428571428571    0.400000000000    0.000000000000       2
   -0.400000000000    0.400000000000    0.000000000000       2
   -0.371428571429    0.400000000000    0.000000000000       2
   -0.342857142857    0.400000000000    0.000000000000       2
   -0.314285714286    0.400000000000    0.000000000000       2
   -0.285714285714    0.400000000000    0.000000000000       2
   -0.257142857143    0.400000000000    0.000000000000       2
   -0.228571428571    0.400000000000    0.000000000000       2
   -0.200000000000    0.400000000000    0.000000000000       2
   -0.171428571429    0.400000000000    0.000000000000       2
   -0.142857142857    0.400000000000    0.000000000000       2
   -0.114285714286    0.400000000000    0.000000000000       2
   -0.085714285714    0.400000000000    0.000000000000       2
   -0.057142857143    0.400000000000    0.000000000000       2
   -0.028571428571    0.400000000000    0.000000000000       2
    0.000000000000    0.433333333333    0.000000000000       2
    0.028571428571    0.433333333333    0.000000000000       2
    0.057142857143    0.433333333333    0.000000000000       2
    0.085714285714    0.433333333333    0.000000000000       2
    0.114285714286    0.433333333333    0.000000000000       2
    0.142857142857    0.433333333333    0.000000000000       2
    0.171428571429    0.433333333333    0.000000000000       2
    0.200000000000    0.433333333333    0.000000000000       2
    0.228571428571    0.433333333333    0.000000000000       2
    0.257142857143    0.433333333333    0.000000000000       2
    0.285714285714    0.433333333333    0.000000000000       2
    0.314285714286    0.433333333333    0.000000000000       2
    0.342857142857    0.433333333333    0.000000000000       2
    0.371428571429    0.433333333333    0.000000000000       2
    0.400000000000    0.433333333333    0.000000000000       2
    0.428571428571    0.433333333333    0.000000000000       2
    0.457142857143    0.433333333333    0.000000000000       2
    0.485714285714    0.433333333333    0.000000000000       2
   -0.485714285714    0.433333333333    0.000000000000       2
   -0.457142857143    0.433333333333    0.000000000000       2
   -0.428571428571    0.433333333333    0.000000000000       2
   -0.400000000000    0.433333333333    0.000000000000       2
   -0.371428571429    0.433333333333    0.000000000000       2
   -0.342857142857    0.433333333333    0.000000000000       2
   -0.314285714286    0.433333333333    0.000000000000       2
   -0.285714285714    0.433333333333    0.000000000000       2
   -0.257142857143    0.433333333333    0.000000000000       2
   -0.228571428571    0.433333333333    0.000000000000       2
   -0.200000000000    0.433333333333    0.000000000000       2
   -0.171428571429    0.433333333333    0.000000000000       2
   -0.142857142857    0.433333333333    0.000000000000       2
   -0.114285714286    0.433333333333    0.000000000000       2
   -0.085714285714    0.433333333333    0.000000000000       2
   -0.057142857143    0.433333333333    0.000000000000       2
   -0.028571428571    0.433333333333    0.000000000000       2
    0.000000000000    0.466666666667    0.000000000000       2