CONTCAR\(2)                             
   1.00000000000000     
    12.6962003707999997    0.0000000000000000    0.0000000000000000
     6.3480846718999997   11.0165970520999998    0.0000000000000000
     0.0000000000000000    0.0000000000000000   18.4927997588999986
   V    Ag   P    Se   O 
     4     4     8    24     1
Direct
  0.1650055843164424  0.1702767664167439  0.4997059193790769
  0.6700110296381467  0.1785864651554331  0.4979161580566721
  0.1730286575286398  0.6571832266261560  0.4985202816880617
  0.6517613619201915  0.6754369915131234  0.4980867174868818
  0.3251698529110344  0.3474542118038059  0.4922318808607163
  0.8273547793017032  0.3296300040324944  0.4918914790492975
  0.3425604746250494  0.8324422425909780  0.4925997307515221
  0.8318833263517955  0.8361461373733511  0.4972833567039345
  0.4996887307312073  0.0056319520589837  0.5583693629940296
  0.4995011707568551  0.0046656416397539  0.4385518703896069
  0.0005034300416179  0.0001356222995814  0.5585320989034173
  0.9996784830382531  0.0010425663792796  0.4387038558387272
  0.4985700545957717  0.5030624621248763  0.6266544277989374
  0.4982392169000456  0.5037271317776746  0.4656713266424398
  0.9948477779285673  0.5046828903114283  0.5583186404219086
  0.9961055073832259  0.5044953811246695  0.4385524472066632
  0.1538796162686782  0.3255955594663346  0.4057139029590168
  0.0170535399758548  0.3253700355901547  0.5906562658544542
  0.3202365920337163  0.1620278398961393  0.5913119506904003
  0.0212635940440505  0.1584132450704556  0.4056121132147003
  0.3204206698999178  0.0258125062561087  0.4056699388978801
  0.1572624746867806  0.0232051217050767  0.5912281550595098
  0.6460014809431868  0.3310139320926235  0.4075700684379414
  0.5118300562479954  0.3238333205852798  0.5854866860903860
  0.8207449997268202  0.1578162212694898  0.5933461320166505
  0.5205260060849314  0.1627687666027742  0.4068380296727865
  0.8202332679895731  0.0232296468772641  0.4069936930585547
  0.6588706585517400  0.0227328334485192  0.5890283661143356
  0.1577211583350210  0.8218725218322376  0.4071881212420979
  0.0170860844352366  0.8243406788506167  0.5894408606266324
  0.3191497204332907  0.6690058489613567  0.5856245290398591
  0.0182892442272303  0.6618357557969546  0.4072277697830240
  0.3250838936278049  0.5283798264974322  0.4080873008954568
  0.1529783262913920  0.5261143627381800  0.5934405659900891
  0.6569103913073732  0.8254919391999106  0.4071208898573293
  0.5216700491592886  0.8260492223755167  0.5933671781003914
  0.8190490744666159  0.6636902749437303  0.5892344590151530
  0.5231755270272083  0.6516600487939773  0.4077395482910639
  0.8168267226627129  0.5254315451927950  0.4069076583255324
  0.6641856773910868  0.5170732787599134  0.5850673914187265
  0.4987218482139671  0.5030156229687929  0.7071592681761183
 
  0.00000000E+00  0.00000000E+00  0.00000000E+00
  0.00000000E+00  0.00000000E+00  0.00000000E+00
  0.00000000E+00  0.00000000E+00  0.00000000E+00
  0.00000000E+00  0.00000000E+00  0.00000000E+00
  0.00000000E+00  0.00000000E+00  0.00000000E+00
  0.00000000E+00  0.00000000E+00  0.00000000E+00
  0.00000000E+00  0.00000000E+00  0.00000000E+00
  0.00000000E+00  0.00000000E+00  0.00000000E+00
  0.00000000E+00  0.00000000E+00  0.00000000E+00
  0.00000000E+00  0.00000000E+00  0.00000000E+00
  0.00000000E+00  0.00000000E+00  0.00000000E+00
  0.00000000E+00  0.00000000E+00  0.00000000E+00
  0.00000000E+00  0.00000000E+00  0.00000000E+00
  0.00000000E+00  0.00000000E+00  0.00000000E+00
  0.00000000E+00  0.00000000E+00  0.00000000E+00
  0.00000000E+00  0.00000000E+00  0.00000000E+00
  0.00000000E+00  0.00000000E+00  0.00000000E+00
  0.00000000E+00  0.00000000E+00  0.00000000E+00
  0.00000000E+00  0.00000000E+00  0.00000000E+00
  0.00000000E+00  0.00000000E+00  0.00000000E+00
  0.00000000E+00  0.00000000E+00  0.00000000E+00
  0.00000000E+00  0.00000000E+00  0.00000000E+00
  0.00000000E+00  0.00000000E+00  0.00000000E+00
  0.00000000E+00  0.00000000E+00  0.00000000E+00
  0.00000000E+00  0.00000000E+00  0.00000000E+00
  0.00000000E+00  0.00000000E+00  0.00000000E+00
  0.00000000E+00  0.00000000E+00  0.00000000E+00
  0.00000000E+00  0.00000000E+00  0.00000000E+00
  0.00000000E+00  0.00000000E+00  0.00000000E+00
  0.00000000E+00  0.00000000E+00  0.00000000E+00
  0.00000000E+00  0.00000000E+00  0.00000000E+00
  0.00000000E+00  0.00000000E+00  0.00000000E+00
  0.00000000E+00  0.00000000E+00  0.00000000E+00
  0.00000000E+00  0.00000000E+00  0.00000000E+00
  0.00000000E+00  0.00000000E+00  0.00000000E+00
  0.00000000E+00  0.00000000E+00  0.00000000E+00
  0.00000000E+00  0.00000000E+00  0.00000000E+00
  0.00000000E+00  0.00000000E+00  0.00000000E+00
  0.00000000E+00  0.00000000E+00  0.00000000E+00
  0.00000000E+00  0.00000000E+00  0.00000000E+00
  0.00000000E+00  0.00000000E+00  0.00000000E+00
