 Sc7 Cl10                               
   1.00000000000000     
     3.5225847372992369    0.0000000000000000    0.0000000000000000
    -1.7612923686496185   15.6418066850067792    0.0000000000000000
     0.0000000000000000    0.0000000000000000   21.6048069386880002
   Sc   Cl
     7    10
Direct
  0.2160525390470902  0.4320519056904162  0.4661097755136691
  0.7839393905016098  0.5679342167769433  0.5339476616298702
  0.2090869303410443  0.4182401751044676  0.6090299131499556
  0.7909113683980740  0.5817574919956461  0.3909709951278590
  0.6402605014370133  0.2806191879672417  0.5319039089214050
  0.3597435570933156  0.7193867387498327  0.4680884229159695
  0.0000022352465767  0.0000032777646509  0.4999729064117860
  0.0791797692502640  0.1583858900654814  0.5351369554152509
  0.9208218857512160  0.8416159102178454  0.4648523368844872
  0.6525199358969177  0.3050986746445729  0.6472525326088705
  0.3474835589278645  0.6949085983062558  0.3527408097034300
  0.5161811802746450  0.0323480581091546  0.4216152759998321
  0.4838197057686021  0.9676523556479776  0.5783756972605616
  0.7603268866130999  0.5207228242976900  0.6536184347546850
  0.3417337308489025  0.6835522207502692  0.5782117598195273
  0.6582681658119695  0.3164523547919282  0.4217839263024004
  0.2396686587917914  0.4792701191196226  0.3463886875804301
 
  0.00000000E+00  0.00000000E+00  0.00000000E+00
  0.00000000E+00  0.00000000E+00  0.00000000E+00
  0.00000000E+00  0.00000000E+00  0.00000000E+00
  0.00000000E+00  0.00000000E+00  0.00000000E+00
  0.00000000E+00  0.00000000E+00  0.00000000E+00
  0.00000000E+00  0.00000000E+00  0.00000000E+00
  0.00000000E+00  0.00000000E+00  0.00000000E+00
  0.00000000E+00  0.00000000E+00  0.00000000E+00
  0.00000000E+00  0.00000000E+00  0.00000000E+00
  0.00000000E+00  0.00000000E+00  0.00000000E+00
  0.00000000E+00  0.00000000E+00  0.00000000E+00
  0.00000000E+00  0.00000000E+00  0.00000000E+00
  0.00000000E+00  0.00000000E+00  0.00000000E+00
  0.00000000E+00  0.00000000E+00  0.00000000E+00
  0.00000000E+00  0.00000000E+00  0.00000000E+00
  0.00000000E+00  0.00000000E+00  0.00000000E+00
  0.00000000E+00  0.00000000E+00  0.00000000E+00
