CONTCAR\(3)                             
   1.00000000000000     
    13.7100000381000005    0.0000000000000000    0.0000000000000000
    -6.8218533300999997   11.9299668931999996    0.0000000000000000
     0.0000000000000000    0.0000000000000000   18.6952991486000002
   Nb   Ir   Se   O    H 
    12     4    32     1     1
Direct
  0.5007331327747125  0.2285208932508774  0.5047349988963326
  0.4784640155331520  0.9930410752311150  0.5054632463310407
  0.2714131940989329  0.2433637525063439  0.5036871294241574
  0.9763629509793496  0.2518179693392529  0.5029887001523173
  0.9917062255262671  0.0224049931641671  0.4984604504557597
  0.7428230438345818  0.2311047983724983  0.5016824567166276
  0.4778082590520474  0.7514953583796273  0.5029552828148875
  0.4932191870695921  0.5223800153164728  0.5011565204306482
  0.2412274357483719  0.7296096945391977  0.4991975770539867
  0.0024490291315467  0.7325667997066247  0.4981423396805568
  0.9758098194441219  0.4941486108613510  0.5037913560166182
  0.7713229609713306  0.7436074283992744  0.5004032789275542
  0.2770287095510040  0.0268859272869128  0.5031285283586400
  0.7755549876025886  0.0277220209356658  0.4990531336435515
  0.2746647467808619  0.5275423575548431  0.4999883412700559
  0.7847386679620549  0.5350142542005051  0.4995906740573232
  0.4174801804770204  0.0856813427779700  0.6037639480633590
  0.4204382245774690  0.3334655437763483  0.5917678340057350
  0.1639198390656345  0.0782188093726080  0.5873338851443641
  0.1751786969392230  0.3462657452366239  0.5725600049678780
  0.3470710620648667  0.1744477600569514  0.4051952794209422
  0.3290043789142292  0.4167243532328418  0.4159495169322784
  0.0831660555181866  0.1750718031630311  0.4132052237572897
  0.0953283195808964  0.4276907301704742  0.4246767741532898
  0.9215605085384044  0.0954275804088589  0.5983037813219910
  0.9069456070784958  0.3348237867239127  0.5981856126011658
  0.6667026187850639  0.0741188719241879  0.5898582643576401
  0.6684557950981048  0.3331867478269246  0.5943727707422263
  0.8365294492661425  0.1743914893826549  0.4016114875883970
  0.8215011215499494  0.4145490787494865  0.4143805695967532
  0.5806292040319536  0.1563056434395732  0.4089240448738824
  0.5971794785917983  0.4255035099757268  0.4352086984724951
  0.4215343274956119  0.5957879433122275  0.5995419698152541
  0.4043723677617140  0.8311212211361576  0.5978146289567976
  0.1643537882497558  0.5756833265898827  0.5892028982044388
  0.1759999073129169  0.8479038310467374  0.5787827457953737
  0.3377347194154102  0.6735178854755588  0.4012837120079298
  0.3252029941543408  0.9168586035710067  0.4143683375052520
  0.0806254679503605  0.6548178609777853  0.4047064452729181
  0.0961010719747378  0.9289899000744766  0.4285910239810370
  0.9220631494607623  0.5920396211541746  0.6007714550300237
  0.9218707062466992  0.8348396576938963  0.5878279353054517
  0.6691410765600430  0.5767652987916124  0.5856443565735966
  0.6761210695761503  0.8458830680108927  0.5717067403359909
  0.8488534826396855  0.6803136713920543  0.3993242584176017
  0.8279418404948902  0.9166361920760068  0.4133037392506136
  0.5819662250704633  0.6722087386126646  0.4131692323650880
  0.5955500353729716  0.9276180816304550  0.4241945998857067
  0.6164703862005867  0.2306299886898502  0.6764667368536630
  0.6511708709249561  0.2794864745016463  0.7177876442135416
 
  0.00000000E+00  0.00000000E+00  0.00000000E+00
  0.00000000E+00  0.00000000E+00  0.00000000E+00
  0.00000000E+00  0.00000000E+00  0.00000000E+00
  0.00000000E+00  0.00000000E+00  0.00000000E+00
  0.00000000E+00  0.00000000E+00  0.00000000E+00
  0.00000000E+00  0.00000000E+00  0.00000000E+00
  0.00000000E+00  0.00000000E+00  0.00000000E+00
  0.00000000E+00  0.00000000E+00  0.00000000E+00
  0.00000000E+00  0.00000000E+00  0.00000000E+00
  0.00000000E+00  0.00000000E+00  0.00000000E+00
  0.00000000E+00  0.00000000E+00  0.00000000E+00
  0.00000000E+00  0.00000000E+00  0.00000000E+00
  0.00000000E+00  0.00000000E+00  0.00000000E+00
  0.00000000E+00  0.00000000E+00  0.00000000E+00
  0.00000000E+00  0.00000000E+00  0.00000000E+00
  0.00000000E+00  0.00000000E+00  0.00000000E+00
  0.00000000E+00  0.00000000E+00  0.00000000E+00
  0.00000000E+00  0.00000000E+00  0.00000000E+00
  0.00000000E+00  0.00000000E+00  0.00000000E+00
  0.00000000E+00  0.00000000E+00  0.00000000E+00
  0.00000000E+00  0.00000000E+00  0.00000000E+00
  0.00000000E+00  0.00000000E+00  0.00000000E+00
  0.00000000E+00  0.00000000E+00  0.00000000E+00
  0.00000000E+00  0.00000000E+00  0.00000000E+00
  0.00000000E+00  0.00000000E+00  0.00000000E+00
  0.00000000E+00  0.00000000E+00  0.00000000E+00
  0.00000000E+00  0.00000000E+00  0.00000000E+00
  0.00000000E+00  0.00000000E+00  0.00000000E+00
  0.00000000E+00  0.00000000E+00  0.00000000E+00
  0.00000000E+00  0.00000000E+00  0.00000000E+00
  0.00000000E+00  0.00000000E+00  0.00000000E+00
  0.00000000E+00  0.00000000E+00  0.00000000E+00
  0.00000000E+00  0.00000000E+00  0.00000000E+00
  0.00000000E+00  0.00000000E+00  0.00000000E+00
  0.00000000E+00  0.00000000E+00  0.00000000E+00
  0.00000000E+00  0.00000000E+00  0.00000000E+00
  0.00000000E+00  0.00000000E+00  0.00000000E+00
  0.00000000E+00  0.00000000E+00  0.00000000E+00
  0.00000000E+00  0.00000000E+00  0.00000000E+00
  0.00000000E+00  0.00000000E+00  0.00000000E+00
  0.00000000E+00  0.00000000E+00  0.00000000E+00
  0.00000000E+00  0.00000000E+00  0.00000000E+00
  0.00000000E+00  0.00000000E+00  0.00000000E+00
  0.00000000E+00  0.00000000E+00  0.00000000E+00
  0.00000000E+00  0.00000000E+00  0.00000000E+00
  0.00000000E+00  0.00000000E+00  0.00000000E+00
  0.00000000E+00  0.00000000E+00  0.00000000E+00
  0.00000000E+00  0.00000000E+00  0.00000000E+00
  0.00000000E+00  0.00000000E+00  0.00000000E+00
  0.00000000E+00  0.00000000E+00  0.00000000E+00
