CONTCAR\(4)                             
   1.00000000000000     
    10.8957996367999996    0.0000000000000000    0.0000000000000000
     0.0000000000000000   12.8001003265000008    0.0000000000000000
     0.0000000000000000    0.0000000000000000   21.8099994658999989
   Cu   Si   P    O    H 
    12    24    36     2     1
Direct
 -0.0062476961427636  0.1072133466665689  0.4624605654195163
  0.0001763135670474  0.2887931002825826  0.3602120958238785
  0.3273962952525506  0.1117383534118768  0.4583187890811148
  0.3326474087598515  0.2869330068574311  0.3601959020766717
  0.6601875639696184  0.1071575434629475  0.4623107415934281
  0.6653750343763721  0.2882838598122764  0.3602029363058131
 -0.0065678122885790  0.6092132866764369  0.4631073554101892
 -0.0007515132954638  0.7883236088438333  0.3606532011140914
  0.3251449877297685  0.6086566416863011  0.4640777911546890
  0.3328013760479176  0.7887964642714494  0.3610126571500643
  0.6553941296689884  0.6096900075130299  0.4641294598763356
  0.6661565151648642  0.7890353138985312  0.3609976774409091
  0.1697591530920637  0.0473291655688796  0.3859482368977508
  0.1624969135026885  0.1914361018572596  0.6084028774080027
  0.1634161340558606  0.3542070005705708  0.4805717015452284
 -0.0037255017855822  0.4427970753612581  0.6134502197926468
  0.4974375948335399  0.0475943723110546  0.3865524728513015
  0.4954069401210641  0.1910183503521359  0.6084847232622360
  0.4962293887197219  0.3540901162847980  0.4805494473250235
  0.3299127909046438  0.4421815826192496  0.6156385457253855
  0.8336132265126869  0.0475976346316887  0.3878244099206197
  0.8292811021406267  0.1920768435266737  0.6081802418236676
  0.8299641499854021  0.3536220059299454  0.4790384757697534
  0.6650623509988013  0.4415423769759864  0.6130475472510302
  0.1680727217296435  0.5478018093478320  0.3886311981875805
  0.1654439320910955  0.6933860719698970  0.6132442251486077
  0.1649855661454341  0.8555108337555333  0.4818726552553566
 -0.0022553906800715  0.9432977388797927  0.6154397034749587
  0.5007183426373868  0.5473084895067766  0.3885750220061768
  0.4943674163502945  0.6914747636000477  0.6138555161895712
  0.4927503561212553  0.8559876508428931  0.4823438915840441
  0.3283813254729953  0.9361214170794961  0.6127555536719257
  0.8353845590549412  0.5475057580925192  0.3878940755834756
  0.8296474064885322  0.6941136250369092  0.6096094233949725
  0.8291874185634130  0.8538823367266209  0.4815365682268689
  0.6611061190606849  0.9436092913460231  0.6153032517154207
  0.0009926454859316  0.1204010415650683  0.3461934153409545
  0.1609998899538550  0.1874364104148774  0.5051883711201415
  0.1668517146840271  0.3762324868024052  0.3794309476836950
 -0.0046516079908246  0.2747840106041431  0.6526765345503233
 -0.0040995192873271  0.4479639539895103  0.5102847000252043
  0.1651406571924897  0.0292196068193021  0.6545442454351603
  0.3340733631220790  0.1199076661203597  0.3403898820514011
  0.4938741438080819  0.1874035936389888  0.5052675893576042
  0.4986023034103092  0.3758113130977428  0.3793793984728906
  0.3290471250752612  0.2732140854061393  0.6537628519889530
  0.3298531053738646  0.4479486356436466  0.5121154657750210
  0.4929444354512374  0.0285880887226381  0.6543382330194220
  0.6665763111268216  0.1199363449760173  0.3459987693019724
  0.8272840325812382  0.1872258795651394  0.5053083313618363
  0.8325250269011970  0.3759532220253062  0.3777587158609950
  0.6631087862774291  0.2740536130499380  0.6526962087406700
  0.6637882627481914  0.4478012421238357  0.5101192965695452
  0.8294632553758884  0.0291743004925764  0.6554022031229915
  0.0021357248669356  0.6202793875144448  0.3458660859510845
  0.1603511095321982  0.6889878248954556  0.5093925391774325
  0.1655928893001811  0.8755327348848769  0.3800982296281494
 -0.0044390312672139  0.7753307496743880  0.6556112775304068
 -0.0036769979387732  0.9476631599348706  0.5120112573568991
  0.1610350790147525  0.5257424724528288  0.6563606086043249
  0.3349888375602045  0.6207338164514092  0.3468508296883969
  0.4893284377239148  0.6899073204030949  0.5102998184016927
  0.4993963271112974  0.8756693867809799  0.3806575139853438
  0.3300959437321936  0.7597089546805562  0.6701840954424656
  0.3287393452183744  0.9556379345035184  0.5096595580927173
  0.5004785419028954  0.5238968710199243  0.6560709804584943
  0.6680193838423781  0.6209028696662325  0.3473813912293808
  0.8253814160849289  0.6871429138058227  0.5066261603047499
  0.8329296889954509  0.8759665322980356  0.3801972145694060
  0.6633210881771927  0.7754044469594136  0.6555797519675652
  0.6620584180112703  0.9476961141579902  0.5119848194989760
  0.8300567379310750  0.5288213617675100  0.6549772930093783
  0.2575939308486682  0.6750425164399082  0.7744800339099005
  0.3475614693920683  0.6545001216239582  0.7251390829521478
  0.3133516267429578  0.6997204284700864  0.8067173730040029
 
  0.00000000E+00  0.00000000E+00  0.00000000E+00
  0.00000000E+00  0.00000000E+00  0.00000000E+00
  0.00000000E+00  0.00000000E+00  0.00000000E+00
  0.00000000E+00  0.00000000E+00  0.00000000E+00
  0.00000000E+00  0.00000000E+00  0.00000000E+00
  0.00000000E+00  0.00000000E+00  0.00000000E+00
  0.00000000E+00  0.00000000E+00  0.00000000E+00
  0.00000000E+00  0.00000000E+00  0.00000000E+00
  0.00000000E+00  0.00000000E+00  0.00000000E+00
  0.00000000E+00  0.00000000E+00  0.00000000E+00
  0.00000000E+00  0.00000000E+00  0.00000000E+00
  0.00000000E+00  0.00000000E+00  0.00000000E+00
  0.00000000E+00  0.00000000E+00  0.00000000E+00
  0.00000000E+00  0.00000000E+00  0.00000000E+00
  0.00000000E+00  0.00000000E+00  0.00000000E+00
  0.00000000E+00  0.00000000E+00  0.00000000E+00
  0.00000000E+00  0.00000000E+00  0.00000000E+00
  0.00000000E+00  0.00000000E+00  0.00000000E+00
  0.00000000E+00  0.00000000E+00  0.00000000E+00
  0.00000000E+00  0.00000000E+00  0.00000000E+00
  0.00000000E+00  0.00000000E+00  0.00000000E+00
  0.00000000E+00  0.00000000E+00  0.00000000E+00
  0.00000000E+00  0.00000000E+00  0.00000000E+00
  0.00000000E+00  0.00000000E+00  0.00000000E+00
  0.00000000E+00  0.00000000E+00  0.00000000E+00
  0.00000000E+00  0.00000000E+00  0.00000000E+00
  0.00000000E+00  0.00000000E+00  0.00000000E+00
  0.00000000E+00  0.00000000E+00  0.00000000E+00
  0.00000000E+00  0.00000000E+00  0.00000000E+00
  0.00000000E+00  0.00000000E+00  0.00000000E+00
  0.00000000E+00  0.00000000E+00  0.00000000E+00
  0.00000000E+00  0.00000000E+00  0.00000000E+00
  0.00000000E+00  0.00000000E+00  0.00000000E+00
  0.00000000E+00  0.00000000E+00  0.00000000E+00
  0.00000000E+00  0.00000000E+00  0.00000000E+00
  0.00000000E+00  0.00000000E+00  0.00000000E+00
  0.00000000E+00  0.00000000E+00  0.00000000E+00
  0.00000000E+00  0.00000000E+00  0.00000000E+00
  0.00000000E+00  0.00000000E+00  0.00000000E+00
  0.00000000E+00  0.00000000E+00  0.00000000E+00
  0.00000000E+00  0.00000000E+00  0.00000000E+00
  0.00000000E+00  0.00000000E+00  0.00000000E+00
  0.00000000E+00  0.00000000E+00  0.00000000E+00
  0.00000000E+00  0.00000000E+00  0.00000000E+00
  0.00000000E+00  0.00000000E+00  0.00000000E+00
  0.00000000E+00  0.00000000E+00  0.00000000E+00
  0.00000000E+00  0.00000000E+00  0.00000000E+00
  0.00000000E+00  0.00000000E+00  0.00000000E+00
  0.00000000E+00  0.00000000E+00  0.00000000E+00
  0.00000000E+00  0.00000000E+00  0.00000000E+00
  0.00000000E+00  0.00000000E+00  0.00000000E+00
  0.00000000E+00  0.00000000E+00  0.00000000E+00
  0.00000000E+00  0.00000000E+00  0.00000000E+00
  0.00000000E+00  0.00000000E+00  0.00000000E+00
  0.00000000E+00  0.00000000E+00  0.00000000E+00
  0.00000000E+00  0.00000000E+00  0.00000000E+00
  0.00000000E+00  0.00000000E+00  0.00000000E+00
  0.00000000E+00  0.00000000E+00  0.00000000E+00
  0.00000000E+00  0.00000000E+00  0.00000000E+00
  0.00000000E+00  0.00000000E+00  0.00000000E+00
  0.00000000E+00  0.00000000E+00  0.00000000E+00
  0.00000000E+00  0.00000000E+00  0.00000000E+00
  0.00000000E+00  0.00000000E+00  0.00000000E+00
  0.00000000E+00  0.00000000E+00  0.00000000E+00
  0.00000000E+00  0.00000000E+00  0.00000000E+00
  0.00000000E+00  0.00000000E+00  0.00000000E+00
  0.00000000E+00  0.00000000E+00  0.00000000E+00
  0.00000000E+00  0.00000000E+00  0.00000000E+00
  0.00000000E+00  0.00000000E+00  0.00000000E+00
  0.00000000E+00  0.00000000E+00  0.00000000E+00
  0.00000000E+00  0.00000000E+00  0.00000000E+00
  0.00000000E+00  0.00000000E+00  0.00000000E+00
  0.00000000E+00  0.00000000E+00  0.00000000E+00
  0.00000000E+00  0.00000000E+00  0.00000000E+00
  0.00000000E+00  0.00000000E+00  0.00000000E+00
