CONTCAR\(11)                            
   1.00000000000000     
    11.7750997542999993    0.0000000000000000    0.0000000000000000
     5.8875498771999997   10.1975355193000006    0.0000000000000000
     0.0000000000000000    0.0000000000000000   23.2443008422999995
   Ce   Zn   P    O 
    18    18    18    19
Selective dynamics
Direct
  0.1118089068529002  0.1108116864242987  0.5649903041396698   F   F   F
  0.0007586951492584  0.9990777654397576  0.4367329395901720   F   F   F
  0.4440163256641299  0.1107765776216354  0.5650730642056345   F   F   F
  0.3337363404325657  0.9992164384757913  0.4372602372582222   F   F   F
  0.7794215372911921  0.1078724773927533  0.5645079554101002   F   F   F
  0.6668013616747359  0.9990511886665487  0.4368214708753584   F   F   F
  0.1112737838346973  0.4439840483291420  0.5658590806705348   F   F   F
  0.9996357446426387  0.3334970391827667  0.4375793390612657   F   F   F
  0.4454380624842287  0.4463851308297251  0.5665354661146864   F   F   F
  0.3335193559181775  0.3334859134815531  0.4377010253225819   F   F   F
  0.7749121917162682  0.4463732453087701  0.5664478316594455   F   F   F
  0.6670816372576311  0.3324344941673232  0.4375920377887255   F   F   F
  0.1115114471924201  0.7770917248925002  0.5653081839767182   F   F   F
  0.0002915903055225  0.6660492026679350  0.4371730645036394   F   F   F
  0.4467918416451369  0.7731099133828963  0.5651289019449166   F   F   F
  0.3334714190574672  0.6658127224456081  0.4370270035842481   F   F   F
  0.7780802327438465  0.7770357617715788  0.5653381925203647   F   F   F
  0.6673689919924470  0.6658565799319902  0.4369848857229996   F   F   F
  0.0018138352081323  0.9976266661645283  0.6758962040568903   F   F   F
  0.1113551858819619  0.1108762604906133  0.3264876247129678   F   F   F
  0.3330622396385010  0.0002990787206940  0.6750677890115284   F   F   F
  0.4445028730127945  0.1108937952774909  0.3265283685503562   F   F   F
  0.6672369757607228  0.9976397500075080  0.6758701267019163   F   F   F
  0.7779006416932575  0.1107767866418996  0.3264096960070120   F   F   F
  0.9993859288410860  0.3340353412857127  0.6761620775821910   F   F   F
  0.1114655681827514  0.4438311940725370  0.3265024401132379   F   F   F
  0.3332399833084096  0.3340367692645287  0.6760067019127050   F   F   F
  0.4447395873500355  0.4438609627124137  0.3264761482281457   F   F   F
  0.6687098234907438  0.3294492286316100  0.6692417084717164   F   F   F
  0.7779417902799679  0.4439305723979885  0.3264044227326508   F   F   F
  0.0013392847985116  0.6640659330618774  0.6768800900977112   F   F   F
  0.1114602397502082  0.7772013173377701  0.3262796034094890   F   F   F
  0.3367616564102320  0.6688146585625532  0.6817271463321788   F   F   F
  0.4447228962590444  0.7771902262749961  0.3264635970373675   F   F   F
  0.6612273771428221  0.6688049162471899  0.6815531355331430   F   F   F
  0.7779616184058469  0.7772670992355444  0.3262673886012593   F   F   F
  0.2224146065140076  0.2218986068048139  0.3452160154844250   F   F   F
  0.2218331037353991  0.2229227662843272  0.6571422562691609   F   F   F
  0.5557086970426965  0.2218394910523358  0.3451172619915610   F   F   F
  0.5555092869328817  0.2195261995789011  0.6564824692505482   F   F   F
  0.8891092844904946  0.2218479466171956  0.3449979776172825   F   F   F
  0.8917745916360147  0.2194820053056077  0.6564955344929473   F   F   F
  0.2224402370039371  0.5550415876146886  0.3450441794836436   F   F   F
  0.2251462820087013  0.5568869309882203  0.6596634758725557   F   F   F
  0.5557775234623392  0.5550170582533767  0.3449414885743494   F   F   F
  0.5572636098296115  0.5523139609234633  0.6427445782863970   F   F   F
  0.8891783945878089  0.5550676604569276  0.3449487317739113   F   F   F
  0.8848234446399132  0.5567981559788535  0.6596700437369591   F   F   F
  0.2224605086156473  0.8885123063614131  0.3449689669606144   F   F   F
  0.2236609934202960  0.8880912257383358  0.6554176277126942   F   F   F
  0.5556691391336557  0.8885318171949521  0.3449882071586927   F   F   F
  0.5547712818329700  0.8881806071153804  0.6554433458219933   F   F   F
  0.8891567187510461  0.8883400344048695  0.3446897869280861   F   F   F
  0.8897793214243350  0.8871134949762904  0.6575488825024678   F   F   F
  0.1110566991190538  0.1110482182159984  0.4632363865251037   F   F   F
  0.0012443945724314  0.9991149813726636  0.5384585046246286   F   F   F
  0.4445532688339497  0.1110744200276841  0.4633512561821149   F   F   F
  0.3335189590569598  0.9994792437966993  0.5383383096786716   F   F   F
  0.7790313787913519  0.1085463213132272  0.4627983291185060   F   F   F
  0.6663900368269751  0.9990434039345146  0.5385535092892724   F   F   F
  0.1112054004735867  0.4442715668747255  0.4636881223904510   F   F   F
  0.0001626559799703  0.3336669149833114  0.5390053518672602   F   F   F
  0.4452096448395082  0.4439314325619037  0.4635176289242722   F   F   F
  0.3326959091573514  0.3337571030833928  0.5391521409637292   F   F   F
  0.7774312055544286  0.4439792329397676  0.4633762557171650   F   F   F
  0.6698851056960180  0.3271071262728569  0.5381155406433962   F   F   F
  0.1100740943384935  0.7775497297793450  0.4630263248839412   F   F   F
  0.0007086934546550  0.6652635745541176  0.5393842972840659   F   F   F
  0.4450591206723189  0.7765515831390815  0.4630294848533936   F   F   F
  0.3292911808559396  0.6676892685305589  0.5373939847492437   F   F   F
  0.7790494130086216  0.7775472891383259  0.4630496732991958   F   F   F
  0.6697379776661947  0.6675815369173748  0.5373486312877205   F   F   F
  0.5314217097701430  0.6037130261145052  0.7125347088835765   T   T   T
 
  0.00000000E+00  0.00000000E+00  0.00000000E+00
  0.00000000E+00  0.00000000E+00  0.00000000E+00
  0.00000000E+00  0.00000000E+00  0.00000000E+00
  0.00000000E+00  0.00000000E+00  0.00000000E+00
  0.00000000E+00  0.00000000E+00  0.00000000E+00
  0.00000000E+00  0.00000000E+00  0.00000000E+00
  0.00000000E+00  0.00000000E+00  0.00000000E+00
  0.00000000E+00  0.00000000E+00  0.00000000E+00
  0.00000000E+00  0.00000000E+00  0.00000000E+00
  0.00000000E+00  0.00000000E+00  0.00000000E+00
  0.00000000E+00  0.00000000E+00  0.00000000E+00
  0.00000000E+00  0.00000000E+00  0.00000000E+00
  0.00000000E+00  0.00000000E+00  0.00000000E+00
  0.00000000E+00  0.00000000E+00  0.00000000E+00
  0.00000000E+00  0.00000000E+00  0.00000000E+00
  0.00000000E+00  0.00000000E+00  0.00000000E+00
  0.00000000E+00  0.00000000E+00  0.00000000E+00
  0.00000000E+00  0.00000000E+00  0.00000000E+00
  0.00000000E+00  0.00000000E+00  0.00000000E+00
  0.00000000E+00  0.00000000E+00  0.00000000E+00
  0.00000000E+00  0.00000000E+00  0.00000000E+00
  0.00000000E+00  0.00000000E+00  0.00000000E+00
  0.00000000E+00  0.00000000E+00  0.00000000E+00
  0.00000000E+00  0.00000000E+00  0.00000000E+00
  0.00000000E+00  0.00000000E+00  0.00000000E+00
  0.00000000E+00  0.00000000E+00  0.00000000E+00
  0.00000000E+00  0.00000000E+00  0.00000000E+00
  0.00000000E+00  0.00000000E+00  0.00000000E+00
  0.00000000E+00  0.00000000E+00  0.00000000E+00
  0.00000000E+00  0.00000000E+00  0.00000000E+00
  0.00000000E+00  0.00000000E+00  0.00000000E+00
  0.00000000E+00  0.00000000E+00  0.00000000E+00
  0.00000000E+00  0.00000000E+00  0.00000000E+00
  0.00000000E+00  0.00000000E+00  0.00000000E+00
  0.00000000E+00  0.00000000E+00  0.00000000E+00
  0.00000000E+00  0.00000000E+00  0.00000000E+00
  0.00000000E+00  0.00000000E+00  0.00000000E+00
  0.00000000E+00  0.00000000E+00  0.00000000E+00
  0.00000000E+00  0.00000000E+00  0.00000000E+00
  0.00000000E+00  0.00000000E+00  0.00000000E+00
  0.00000000E+00  0.00000000E+00  0.00000000E+00
  0.00000000E+00  0.00000000E+00  0.00000000E+00
  0.00000000E+00  0.00000000E+00  0.00000000E+00
  0.00000000E+00  0.00000000E+00  0.00000000E+00
  0.00000000E+00  0.00000000E+00  0.00000000E+00
  0.00000000E+00  0.00000000E+00  0.00000000E+00
  0.00000000E+00  0.00000000E+00  0.00000000E+00
  0.00000000E+00  0.00000000E+00  0.00000000E+00
  0.00000000E+00  0.00000000E+00  0.00000000E+00
  0.00000000E+00  0.00000000E+00  0.00000000E+00
  0.00000000E+00  0.00000000E+00  0.00000000E+00
  0.00000000E+00  0.00000000E+00  0.00000000E+00
  0.00000000E+00  0.00000000E+00  0.00000000E+00
  0.00000000E+00  0.00000000E+00  0.00000000E+00
  0.00000000E+00  0.00000000E+00  0.00000000E+00
  0.00000000E+00  0.00000000E+00  0.00000000E+00
  0.00000000E+00  0.00000000E+00  0.00000000E+00
  0.00000000E+00  0.00000000E+00  0.00000000E+00
  0.00000000E+00  0.00000000E+00  0.00000000E+00
  0.00000000E+00  0.00000000E+00  0.00000000E+00
  0.00000000E+00  0.00000000E+00  0.00000000E+00
  0.00000000E+00  0.00000000E+00  0.00000000E+00
  0.00000000E+00  0.00000000E+00  0.00000000E+00
  0.00000000E+00  0.00000000E+00  0.00000000E+00
  0.00000000E+00  0.00000000E+00  0.00000000E+00
  0.00000000E+00  0.00000000E+00  0.00000000E+00
  0.00000000E+00  0.00000000E+00  0.00000000E+00
  0.00000000E+00  0.00000000E+00  0.00000000E+00
  0.00000000E+00  0.00000000E+00  0.00000000E+00
  0.00000000E+00  0.00000000E+00  0.00000000E+00
  0.00000000E+00  0.00000000E+00  0.00000000E+00
  0.00000000E+00  0.00000000E+00  0.00000000E+00
  0.00000000E+00  0.00000000E+00  0.00000000E+00
