CONTCAR\(7)                             
   1.00000000000000     
    12.6855001450000007    0.0000000000000000    0.0000000000000000
     6.3427500725000003   10.9859653852000001    0.0000000000000000
     0.0000000000000000    0.0000000000000000   18.4181995391999997
   Mn   P    Se   O 
     8     8    24     1
Direct
  0.1629369560257074  0.1664444498625940  0.4954310341654365
  0.3301009778518618  0.3392137680719919  0.4981105242375097
  0.6638671516015051  0.1695055775883759  0.4964562766273246
  0.8221283697987938  0.3346362847684827  0.4960979178249099
  0.1653108473621145  0.6631131924605557  0.4961777949311974
  0.3357139989710487  0.8264019788943675  0.4974744522661629
  0.6586264583744622  0.6669683572267946  0.4976161317184240
  0.8294178564382595  0.8338563162971782  0.4988961358075007
 -0.0042924809191483 -0.0021129311195317  0.4364326358284678
 -0.0033994660265195 -0.0027318709754568  0.5572251602298953
  0.4987358506621403 -0.0006251404967206  0.4380911855576400
  0.4987321981625146  0.0006395364706281  0.5588907245102016
  0.9938682041992907  0.5027604776296383  0.4368734733016180
 -0.0071403428290874  0.5026060937104900  0.5576262563447724
  0.4958444562129657  0.4994764771055479  0.4670410463380302
  0.4955687051987857  0.5000503364684415  0.6295925441778210
  0.1626559314002728  0.5026550189619817  0.5893947745585939
  0.4982789110585507  0.3240692904437235  0.5870128376196347
  0.3283003734173749  0.1709149788847030  0.5879933323959936
  0.3325197647420429 -0.0047671169070917  0.4053973357314864
 -0.0076041414765866  0.1681231337177404  0.4042565979662341
  0.1645888625154051  0.3356994196171311  0.4051719321913425
  0.6700835187295132  0.5009298665315793  0.5872513560238808
  0.9925608338822736  0.3327330759534183  0.5869411207291531
  0.8268512814347377  0.1679241025188017  0.5884702575293731
  0.8232887832380785 -0.0081304163283884  0.4114854995331765
  0.4976787338914950  0.1702587171364322  0.4070473046767041
  0.6577710027312843  0.3350748880003797  0.4103575905211482
  0.1665709302655788 -0.0028713649357336  0.5871165472560468
  0.4981820085432270  0.8306951610014799  0.5900543956910939
  0.3200023369977907  0.6735761068062861  0.5861581110172966
  0.3309358135853127  0.5019480566179564  0.4112032748049285
  0.9882494704473935  0.6808060916050588  0.4115911415343901
  0.1666330100179788  0.8279407251342850  0.4059783894015367
  0.6804940296446836 -0.0058931657509714  0.5812185748040662
  0.9904281154625334  0.8225559307920540  0.5807222937442492
  0.8186814742369825  0.6832802102509122  0.5812287875725047
  0.8233446263667591  0.5025104048460223  0.4062340094777079
  0.4986258387822509  0.6618677635198861  0.4113819396625824
  0.6757674455835783  0.8271277705749559  0.4122415262285803
  0.4946708024168102  0.5009392160440186  0.7103377994613743
 
  0.00000000E+00  0.00000000E+00  0.00000000E+00
  0.00000000E+00  0.00000000E+00  0.00000000E+00
  0.00000000E+00  0.00000000E+00  0.00000000E+00
  0.00000000E+00  0.00000000E+00  0.00000000E+00
  0.00000000E+00  0.00000000E+00  0.00000000E+00
  0.00000000E+00  0.00000000E+00  0.00000000E+00
  0.00000000E+00  0.00000000E+00  0.00000000E+00
  0.00000000E+00  0.00000000E+00  0.00000000E+00
  0.00000000E+00  0.00000000E+00  0.00000000E+00
  0.00000000E+00  0.00000000E+00  0.00000000E+00
  0.00000000E+00  0.00000000E+00  0.00000000E+00
  0.00000000E+00  0.00000000E+00  0.00000000E+00
  0.00000000E+00  0.00000000E+00  0.00000000E+00
  0.00000000E+00  0.00000000E+00  0.00000000E+00
  0.00000000E+00  0.00000000E+00  0.00000000E+00
  0.00000000E+00  0.00000000E+00  0.00000000E+00
  0.00000000E+00  0.00000000E+00  0.00000000E+00
  0.00000000E+00  0.00000000E+00  0.00000000E+00
  0.00000000E+00  0.00000000E+00  0.00000000E+00
  0.00000000E+00  0.00000000E+00  0.00000000E+00
  0.00000000E+00  0.00000000E+00  0.00000000E+00
  0.00000000E+00  0.00000000E+00  0.00000000E+00
  0.00000000E+00  0.00000000E+00  0.00000000E+00
  0.00000000E+00  0.00000000E+00  0.00000000E+00
  0.00000000E+00  0.00000000E+00  0.00000000E+00
  0.00000000E+00  0.00000000E+00  0.00000000E+00
  0.00000000E+00  0.00000000E+00  0.00000000E+00
  0.00000000E+00  0.00000000E+00  0.00000000E+00
  0.00000000E+00  0.00000000E+00  0.00000000E+00
  0.00000000E+00  0.00000000E+00  0.00000000E+00
  0.00000000E+00  0.00000000E+00  0.00000000E+00
  0.00000000E+00  0.00000000E+00  0.00000000E+00
  0.00000000E+00  0.00000000E+00  0.00000000E+00
  0.00000000E+00  0.00000000E+00  0.00000000E+00
  0.00000000E+00  0.00000000E+00  0.00000000E+00
  0.00000000E+00  0.00000000E+00  0.00000000E+00
  0.00000000E+00  0.00000000E+00  0.00000000E+00
  0.00000000E+00  0.00000000E+00  0.00000000E+00
  0.00000000E+00  0.00000000E+00  0.00000000E+00
  0.00000000E+00  0.00000000E+00  0.00000000E+00
  0.00000000E+00  0.00000000E+00  0.00000000E+00
