CONTCAR\(2)                             
   1.00000000000000     
    10.1990995407000007    0.0000000000000000    0.0000000000000000
     0.0000000000000000   15.1191997528000002    0.0000000000000000
     0.0000000000000000    0.0000000000000000   19.1068992615000006
   Ta   Ni   S    O    H 
    12     6    30     2     1
Selective dynamics
Direct
  0.9962503468101787  0.3614476163465525  0.5206380883200836   F   F   F
  0.1625617806947375  0.1455781668460574  0.4817619090503200   F   F   F
  0.1622704110810531  0.8614353134536117  0.4820016520704229   F   F   F
  0.9969254236055747  0.6461339047874048  0.5205551203546150   F   F   F
  0.3294140037279050  0.3615726226013081  0.5203924151386374   F   F   F
  0.4956652043922531  0.1456059352408090  0.4816764376639995   F   F   F
  0.4958528789858789  0.8616168505232764  0.4817032930567535   F   F   F
  0.3294917478117938  0.6456647147067116  0.5208995413553552   F   F   F
  0.6626836615096821  0.3614425931149725  0.5205392276100795   F   F   F
  0.8292176501008299  0.1456550660717326  0.4820751425920093   F   F   F
  0.8289663912141236  0.8616427741569481  0.4822819839332908   F   F   F
  0.6622138575215999  0.6463924767995195  0.5197109478300348   F   F   F
  0.9959031872031261  0.0038250872232481  0.4668080549778750   F   F   F
  0.1630246621788345  0.5036546806731153  0.5358424626601987   F   F   F
  0.3290275237721474  0.0034656359945657  0.4660107462855478   F   F   F
  0.4960930191164152  0.5036039062786983  0.5356951641732195   F   F   F
  0.6621354812896172  0.0037958003446121  0.4667137861195059   F   F   F
  0.8296569557522133  0.5038461339604012  0.5365560548295107   F   F   F
  0.1629187192292250  0.0035507143817171  0.5442370000752277   F   F   F
  0.9958020486544328  0.5037602276297264  0.4584806311244307   F   F   F
  0.9962822089346659  0.2028231797977114  0.5665298196661439   F   F   F
  0.1625179073862171  0.3043484793090840  0.4358172168892622   F   F   F
  0.1626738884695271  0.7026241271506350  0.4359142987752023   F   F   F
  0.9959460061172081  0.8044895720376459  0.5667803145965777   F   F   F
  0.1628279631783656  0.6174811762927064  0.6093612331995004   F   F   F
  0.9958593648354821  0.8897610399009253  0.3935136430150550   F   F   F
  0.9957012528779288  0.1175983771581528  0.3933176593622960   F   F   F
  0.1629258487145790  0.3895181444754456  0.6091073644307556   F   F   F
  0.4952099150480791  0.0036624932462175  0.5441529357854265   F   F   F
  0.3294325042645880  0.5037526918171835  0.4580412633592843   F   F   F
  0.3293904791935418  0.2029853691978758  0.5663488706226403   F   F   F
  0.4959699789940899  0.3044583838948611  0.4357455418693021   F   F   F
  0.4954876144925890  0.7027628732370204  0.4356079802019792   F   F   F
  0.3295031313666854  0.8042838203341915  0.5665233645296510   F   F   F
  0.4966106526629801  0.6175280251380286  0.6091017077735756   F   F   F
  0.3290209684627641  0.8891062627348276  0.3931371296629962   F   F   F
  0.3291149234915451  0.1177579182332948  0.3930021364163636   F   F   F
  0.4958372045195247  0.3896725515526001  0.6091080668785622   F   F   F
  0.8290429029377862  0.0037597804129419  0.5445610445976641   F   F   F
  0.6633499019372806  0.5036519226270642  0.4583314958431899   F   F   F
  0.6623198516452860  0.2028999743778144  0.5664689016657292   F   F   F
  0.8294084139777524  0.3045106388284893  0.4359757904170039   F   F   F
  0.8297243393619596  0.7030157188711144  0.4358849698978702   F   F   F
  0.6623491695177037  0.8045301879728015  0.5661649130072774   F   F   F
  0.8292520576268885  0.6180845578913718  0.6090969331769216   F   F   F
  0.6628286887187471  0.8898638687598961  0.3933198460489109   F   F   F
  0.6628988793621318  0.1176237351706817  0.3932475915619094   F   F   F
  0.8292365225080331  0.3892289983738948  0.6092706464820878   F   F   F
  0.7588220039078948  0.7857515077376078  0.7227547320145504   T   T   T
  0.7027119654232692  0.7109480322566810  0.7461417926461564   T   T   T
  0.7331381214133544  0.6641464810762230  0.7118064236474161   T   T   T
 
  0.00000000E+00  0.00000000E+00  0.00000000E+00
  0.00000000E+00  0.00000000E+00  0.00000000E+00
  0.00000000E+00  0.00000000E+00  0.00000000E+00
  0.00000000E+00  0.00000000E+00  0.00000000E+00
  0.00000000E+00  0.00000000E+00  0.00000000E+00
  0.00000000E+00  0.00000000E+00  0.00000000E+00
  0.00000000E+00  0.00000000E+00  0.00000000E+00
  0.00000000E+00  0.00000000E+00  0.00000000E+00
  0.00000000E+00  0.00000000E+00  0.00000000E+00
  0.00000000E+00  0.00000000E+00  0.00000000E+00
  0.00000000E+00  0.00000000E+00  0.00000000E+00
  0.00000000E+00  0.00000000E+00  0.00000000E+00
  0.00000000E+00  0.00000000E+00  0.00000000E+00
  0.00000000E+00  0.00000000E+00  0.00000000E+00
  0.00000000E+00  0.00000000E+00  0.00000000E+00
  0.00000000E+00  0.00000000E+00  0.00000000E+00
  0.00000000E+00  0.00000000E+00  0.00000000E+00
  0.00000000E+00  0.00000000E+00  0.00000000E+00
  0.00000000E+00  0.00000000E+00  0.00000000E+00
  0.00000000E+00  0.00000000E+00  0.00000000E+00
  0.00000000E+00  0.00000000E+00  0.00000000E+00
  0.00000000E+00  0.00000000E+00  0.00000000E+00
  0.00000000E+00  0.00000000E+00  0.00000000E+00
  0.00000000E+00  0.00000000E+00  0.00000000E+00
  0.00000000E+00  0.00000000E+00  0.00000000E+00
  0.00000000E+00  0.00000000E+00  0.00000000E+00
  0.00000000E+00  0.00000000E+00  0.00000000E+00
  0.00000000E+00  0.00000000E+00  0.00000000E+00
  0.00000000E+00  0.00000000E+00  0.00000000E+00
  0.00000000E+00  0.00000000E+00  0.00000000E+00
  0.00000000E+00  0.00000000E+00  0.00000000E+00
  0.00000000E+00  0.00000000E+00  0.00000000E+00
  0.00000000E+00  0.00000000E+00  0.00000000E+00
  0.00000000E+00  0.00000000E+00  0.00000000E+00
  0.00000000E+00  0.00000000E+00  0.00000000E+00
  0.00000000E+00  0.00000000E+00  0.00000000E+00
  0.00000000E+00  0.00000000E+00  0.00000000E+00
  0.00000000E+00  0.00000000E+00  0.00000000E+00
  0.00000000E+00  0.00000000E+00  0.00000000E+00
  0.00000000E+00  0.00000000E+00  0.00000000E+00
  0.00000000E+00  0.00000000E+00  0.00000000E+00
  0.00000000E+00  0.00000000E+00  0.00000000E+00
  0.00000000E+00  0.00000000E+00  0.00000000E+00
  0.00000000E+00  0.00000000E+00  0.00000000E+00
  0.00000000E+00  0.00000000E+00  0.00000000E+00
  0.00000000E+00  0.00000000E+00  0.00000000E+00
  0.00000000E+00  0.00000000E+00  0.00000000E+00
  0.00000000E+00  0.00000000E+00  0.00000000E+00
  0.00000000E+00  0.00000000E+00  0.00000000E+00
  0.00000000E+00  0.00000000E+00  0.00000000E+00
  0.00000000E+00  0.00000000E+00  0.00000000E+00
