CONTCAR\(3)                             
   1.00000000000000     
    13.7056999207000008    0.0000000000000000    0.0000000000000000
     4.1214080124999999   12.9276297616000004    0.0000000000000000
     0.0000000000000000    0.0000000000000000   18.6212005615000002
   Bi   Rh   S    O    H 
    16    24    16     1     1
Direct
  0.1960413597653138  0.1935435836059576  0.5852833137019436
  0.4381804087486554  0.4502930154180603  0.6034107723348526
  0.0802705176368071  0.0808211663863275  0.4092987746829400
  0.3316093497634554  0.3356161815165234  0.4140166348679618
  0.6915644841733677  0.2023937610211795  0.5852061043244836
  0.9458721806303356  0.4464134552346669  0.5941304266503152
  0.5796813302123760  0.0805101788573479  0.4094477162191765
  0.8350113305606666  0.3345855609599537  0.4116028880996824
  0.2104251015466001  0.6860279065730711  0.5986533971443406
  0.4439273090594245  0.9443749677507514  0.5951788069415435
  0.0836095559727808  0.5821137239532574  0.4102887822089610
  0.3339142470872804  0.8326380696183405  0.4102677309479304
  0.6964054558781747  0.6982355952595350  0.5845855011987933
  0.9465823383928295  0.9456084820378977  0.5932013899842538
  0.5807768810859927  0.5798523281619838  0.4095489535003191
  0.8334646090309479  0.8370801413705061  0.4102443083167440
  0.0133428322921428  0.2604741872176033  0.4975964177259324
  0.4121214765228938  0.1084336919087087  0.5026416658886851
  0.1110521947981787  0.4122304309825064  0.5016025068204505
  0.2603848504911683  0.0112871016424154  0.4971389453178289
  0.3225140003221966  0.3190391903763778  0.5604643260101548
  0.2103802222170681  0.2098912674539395  0.4412609294533474
  0.5106839489285894  0.2590277215111517  0.4939227028818257
  0.9107952733035078  0.1114281451470330  0.5003808336078391
  0.6088630053280055  0.4116934609926533  0.5045946239434456
  0.7569649154797030  0.0156755233181569  0.4974227879651046
  0.8216213169280915  0.3221754149917183  0.5573815800480957
  0.7096908413881501  0.2144025712925413  0.4409138234072633
  0.0086781537247221  0.7636501312593461  0.4905529304923384
  0.4159866180302948  0.6068102300220505  0.5062210910292314
  0.1096913445468910  0.9126432457705833  0.5011615805691833
  0.2606044637953780  0.5132498094148763  0.5036280537054035
  0.3212273595612810  0.8176656464986135  0.5563394844442079
  0.2119151981634724  0.7107256154827645  0.4479759174039434
  0.5116903908685690  0.7602643498220104  0.4936434816108969
  0.9123859158568838  0.6106038105855667  0.5013926899811829
  0.6088198971597991  0.9121904662575087  0.5039941123159452
  0.7590483948829940  0.5137783343529401  0.4959276898132989
  0.8219795679184371  0.8217766027965473  0.5565528048422558
  0.7114665084411848  0.7133065469955111  0.4405229276763264
  0.4619737197795734  0.1890823187890258  0.5989756789822058
  0.1881496689471564  0.4537718926786676  0.6018964263859573
  0.0704402202568220  0.3365819514889341  0.3992686163626984
  0.3370077458225890  0.0690948234528913  0.4000548214330172
  0.9569688974082629  0.1900017481790692  0.5991484877291973
  0.6920126159991526  0.4595523027577652  0.6002130710312213
  0.5685841938944739  0.3405442677493208  0.4004568487946471
  0.8333526158124338  0.0717535016385565  0.3989894838476738
  0.4632964652970405  0.6938996901002666  0.5993124794587095
  0.1907781027208120  0.9548650174455060  0.5994644337924122
  0.0773688094092476  0.8348572108524914  0.3974142427237563
  0.3367249911138144  0.5693616786887922  0.4052943771612029
  0.9631021400829876  0.6938520008403958  0.5963801770157904
  0.6916440012532540  0.9581070584401133  0.6002630828443338
  0.5711496564989206  0.8392494954813899  0.3987466192646963
  0.8366554390233327  0.5717805108406505  0.3991609056699221
  0.3280963566980195  0.5834421225443358  0.6826829069808941
  0.2919296964874788  0.5540803912133380  0.7179381974432201
 
  0.00000000E+00  0.00000000E+00  0.00000000E+00
  0.00000000E+00  0.00000000E+00  0.00000000E+00
  0.00000000E+00  0.00000000E+00  0.00000000E+00
  0.00000000E+00  0.00000000E+00  0.00000000E+00
  0.00000000E+00  0.00000000E+00  0.00000000E+00
  0.00000000E+00  0.00000000E+00  0.00000000E+00
  0.00000000E+00  0.00000000E+00  0.00000000E+00
  0.00000000E+00  0.00000000E+00  0.00000000E+00
  0.00000000E+00  0.00000000E+00  0.00000000E+00
  0.00000000E+00  0.00000000E+00  0.00000000E+00
  0.00000000E+00  0.00000000E+00  0.00000000E+00
  0.00000000E+00  0.00000000E+00  0.00000000E+00
  0.00000000E+00  0.00000000E+00  0.00000000E+00
  0.00000000E+00  0.00000000E+00  0.00000000E+00
  0.00000000E+00  0.00000000E+00  0.00000000E+00
  0.00000000E+00  0.00000000E+00  0.00000000E+00
  0.00000000E+00  0.00000000E+00  0.00000000E+00
  0.00000000E+00  0.00000000E+00  0.00000000E+00
  0.00000000E+00  0.00000000E+00  0.00000000E+00
  0.00000000E+00  0.00000000E+00  0.00000000E+00
  0.00000000E+00  0.00000000E+00  0.00000000E+00
  0.00000000E+00  0.00000000E+00  0.00000000E+00
  0.00000000E+00  0.00000000E+00  0.00000000E+00
  0.00000000E+00  0.00000000E+00  0.00000000E+00
  0.00000000E+00  0.00000000E+00  0.00000000E+00
  0.00000000E+00  0.00000000E+00  0.00000000E+00
  0.00000000E+00  0.00000000E+00  0.00000000E+00
  0.00000000E+00  0.00000000E+00  0.00000000E+00
  0.00000000E+00  0.00000000E+00  0.00000000E+00
  0.00000000E+00  0.00000000E+00  0.00000000E+00
  0.00000000E+00  0.00000000E+00  0.00000000E+00
  0.00000000E+00  0.00000000E+00  0.00000000E+00
  0.00000000E+00  0.00000000E+00  0.00000000E+00
  0.00000000E+00  0.00000000E+00  0.00000000E+00
  0.00000000E+00  0.00000000E+00  0.00000000E+00
  0.00000000E+00  0.00000000E+00  0.00000000E+00
  0.00000000E+00  0.00000000E+00  0.00000000E+00
  0.00000000E+00  0.00000000E+00  0.00000000E+00
  0.00000000E+00  0.00000000E+00  0.00000000E+00
  0.00000000E+00  0.00000000E+00  0.00000000E+00
  0.00000000E+00  0.00000000E+00  0.00000000E+00
  0.00000000E+00  0.00000000E+00  0.00000000E+00
  0.00000000E+00  0.00000000E+00  0.00000000E+00
  0.00000000E+00  0.00000000E+00  0.00000000E+00
  0.00000000E+00  0.00000000E+00  0.00000000E+00
  0.00000000E+00  0.00000000E+00  0.00000000E+00
  0.00000000E+00  0.00000000E+00  0.00000000E+00
  0.00000000E+00  0.00000000E+00  0.00000000E+00
  0.00000000E+00  0.00000000E+00  0.00000000E+00
  0.00000000E+00  0.00000000E+00  0.00000000E+00
  0.00000000E+00  0.00000000E+00  0.00000000E+00
  0.00000000E+00  0.00000000E+00  0.00000000E+00
  0.00000000E+00  0.00000000E+00  0.00000000E+00
  0.00000000E+00  0.00000000E+00  0.00000000E+00
  0.00000000E+00  0.00000000E+00  0.00000000E+00
  0.00000000E+00  0.00000000E+00  0.00000000E+00
  0.00000000E+00  0.00000000E+00  0.00000000E+00
  0.00000000E+00  0.00000000E+00  0.00000000E+00
