CONTCAR\(16)                            
   1.00000000000000     
    14.7170000075999994    0.0000000000000000    0.0000000000000000
    -7.3585000037999997   12.7452958741000000    0.0000000000000000
     0.0000000000000000    0.0000000000000000   17.8581008911000012
   Co   Br
    16    32
Direct
  0.0000000000000000  0.0000000000000000  0.5000000000000000
  0.2500000000000000  0.0000000000000000  0.5000000000000000
  0.5000000000000000  0.0000000000000000  0.5000000000000000
  0.7500000160000013  0.0000000000000000  0.5000000000000000
  0.9999999970000033  0.2499999930000030  0.5000000000000000
  0.2499999970000033  0.2499999930000030  0.5000000000000000
  0.5000000049999969  0.2499999930000030  0.5000000000000000
  0.7499999879999990  0.2499999930000030  0.5000000000000000
  0.9999999930000030  0.4999999859999988  0.5000000000000000
  0.2499999930000030  0.4999999859999988  0.5000000000000000
  0.4999999930000030  0.4999999859999988  0.5000000000000000
  0.7500000260000022  0.4999999859999988  0.5000000000000000
  0.9999999719999977  0.7499999610000003  0.5000000000000000
  0.2499999719999977  0.7499999610000003  0.5000000000000000
  0.4999999719999977  0.7499999610000003  0.5000000000000000
  0.7499999879999990  0.7499999610000003  0.5000000000000000
  0.0833299949999997  0.1666699860000023  0.4187300030000003
  0.1666699969999996  0.0833299980000035  0.5812699700000010
  0.3333300030000004  0.1666699860000023  0.4187300030000003
  0.4166699969999996  0.0833299980000035  0.5812699700000010
  0.5833299709999977  0.1666699860000023  0.4187300030000003
  0.6666699809999983  0.0833299980000035  0.5812699700000010
  0.8333299549999964  0.1666699860000023  0.4187300030000003
  0.9166700290000023  0.0833299980000035  0.5812699700000010
  0.0833299840000024  0.4166699789999981  0.4187300030000003
  0.1666699809999983  0.3333299820000022  0.5812699700000010
  0.3333299920000030  0.4166699789999981  0.4187300030000003
  0.4166699969999996  0.3333299820000022  0.5812699700000010
  0.5833299749999981  0.4166699789999981  0.4187300030000003
  0.6666699809999983  0.3333299820000022  0.5812699700000010
  0.8333299920000030  0.4166699789999981  0.4187300030000003
  0.9166700620000015  0.3333299820000022  0.5812699700000010
  0.0833299889999992  0.6666699909999991  0.4187300030000003
  0.1666699760000014  0.5833299560000000  0.5812699700000010
  0.3333300059999971  0.6666699909999991  0.4187300030000003
  0.4166699920000028  0.5833299560000000  0.5812699700000010
  0.5833299889999992  0.6666699909999991  0.4187300030000003
  0.6666699760000014  0.5833299560000000  0.5812699700000010
  0.8333299729999979  0.6666699909999991  0.4187300030000003
  0.9166700250000019  0.5833299560000000  0.5812699700000010
  0.0833299709999977  0.9166700020000036  0.4187300030000003
  0.1666699709999975  0.8333299310000015  0.5812699700000010
  0.3333299869999991  0.9166700020000036  0.4187300030000003
  0.4166699869999988  0.8333299310000015  0.5812699700000010
  0.5833299709999977  0.9166700020000036  0.4187300030000003
  0.6666699709999975  0.8333299310000015  0.5812699700000010
  0.8333299549999964  0.9166700020000036  0.4187300030000003
  0.9166700199999980  0.8333299310000015  0.5812699700000010
 
  0.00000000E+00  0.00000000E+00  0.00000000E+00
  0.00000000E+00  0.00000000E+00  0.00000000E+00
  0.00000000E+00  0.00000000E+00  0.00000000E+00
  0.00000000E+00  0.00000000E+00  0.00000000E+00
  0.00000000E+00  0.00000000E+00  0.00000000E+00
  0.00000000E+00  0.00000000E+00  0.00000000E+00
  0.00000000E+00  0.00000000E+00  0.00000000E+00
  0.00000000E+00  0.00000000E+00  0.00000000E+00
  0.00000000E+00  0.00000000E+00  0.00000000E+00
  0.00000000E+00  0.00000000E+00  0.00000000E+00
  0.00000000E+00  0.00000000E+00  0.00000000E+00
  0.00000000E+00  0.00000000E+00  0.00000000E+00
  0.00000000E+00  0.00000000E+00  0.00000000E+00
  0.00000000E+00  0.00000000E+00  0.00000000E+00
  0.00000000E+00  0.00000000E+00  0.00000000E+00
  0.00000000E+00  0.00000000E+00  0.00000000E+00
  0.00000000E+00  0.00000000E+00  0.00000000E+00
  0.00000000E+00  0.00000000E+00  0.00000000E+00
  0.00000000E+00  0.00000000E+00  0.00000000E+00
  0.00000000E+00  0.00000000E+00  0.00000000E+00
  0.00000000E+00  0.00000000E+00  0.00000000E+00
  0.00000000E+00  0.00000000E+00  0.00000000E+00
  0.00000000E+00  0.00000000E+00  0.00000000E+00
  0.00000000E+00  0.00000000E+00  0.00000000E+00
  0.00000000E+00  0.00000000E+00  0.00000000E+00
  0.00000000E+00  0.00000000E+00  0.00000000E+00
  0.00000000E+00  0.00000000E+00  0.00000000E+00
  0.00000000E+00  0.00000000E+00  0.00000000E+00
  0.00000000E+00  0.00000000E+00  0.00000000E+00
  0.00000000E+00  0.00000000E+00  0.00000000E+00
  0.00000000E+00  0.00000000E+00  0.00000000E+00
  0.00000000E+00  0.00000000E+00  0.00000000E+00
  0.00000000E+00  0.00000000E+00  0.00000000E+00
  0.00000000E+00  0.00000000E+00  0.00000000E+00
  0.00000000E+00  0.00000000E+00  0.00000000E+00
  0.00000000E+00  0.00000000E+00  0.00000000E+00
  0.00000000E+00  0.00000000E+00  0.00000000E+00
  0.00000000E+00  0.00000000E+00  0.00000000E+00
  0.00000000E+00  0.00000000E+00  0.00000000E+00
  0.00000000E+00  0.00000000E+00  0.00000000E+00
  0.00000000E+00  0.00000000E+00  0.00000000E+00
  0.00000000E+00  0.00000000E+00  0.00000000E+00
  0.00000000E+00  0.00000000E+00  0.00000000E+00
  0.00000000E+00  0.00000000E+00  0.00000000E+00
  0.00000000E+00  0.00000000E+00  0.00000000E+00
  0.00000000E+00  0.00000000E+00  0.00000000E+00
  0.00000000E+00  0.00000000E+00  0.00000000E+00
  0.00000000E+00  0.00000000E+00  0.00000000E+00
