SYSTEM =gra_geo_opt
PREC=Normal
ENCUT = 400
ISTART = 0
ICHARG = 2
EDIFF = 1E-05
LREAL = Auto
EDIFFG = -2E-02
#NSW =1000
IBRION =-1
ISIF = 2
ISMEAR = 0
MAGMOM = 18*4 54*0 3*-2
NBANDS=400
SIGMA =0.2
SYMPREC=1E-04
GGA = PE
ALGO=Normal
ISPIN = 2
NCORE=4
NELM=500
LWAVE=.FALSE.
#LCHARG=.FALSE.
LAECHG=.TRUE.
IVDW=11
LMAXMIX=6
AMIX=0.2
BMIX=0.0001
