CONTCAR\(4)                             
   1.00000000000000     
    12.8154001235999999    0.0000000000000000    0.0000000000000000
     6.4077083683999998   11.0983416437999995    0.0000000000000000
     0.0000000000000000    0.0000000000000000   33.6823997497999983
   Ge   Bi   Te   O    H 
    27    18    54     2     1
Direct
  0.1107275477164518  0.1109176700924559  0.2643857343588074
  0.2207900802685903  0.2226610671888802  0.7376197548239349
  0.2218458519401007  0.2223076433536478  0.3738636553745364
  0.4442615382362968  0.1108596533803834  0.2644687164634667
  0.5540534521280917  0.2212647831502965  0.7374845873355649
  0.5548743454396915  0.2220951290258238  0.3737646393283696
  0.7774555127841595  0.1111258920936575  0.2644136124659180
  0.8893744136250283  0.2196512202627673  0.7375564449824785
  0.8885056209957060  0.2219949801283707  0.3737936546388659
  0.1105287348941135  0.4445393269882971  0.2644868594924105
  0.2201281777918788  0.5553417411145359  0.7379080682569361
  0.2218359023707138  0.5552654244023538  0.3737708340289253
  0.4442948313952120  0.4444169204878069  0.2644622515302127
  0.5537178891905867  0.5558462202862064  0.7382529124646524
  0.5550264401179086  0.5552931776010481  0.3738262651785210
  0.7773063106075500  0.4446110581855904  0.2646012876458493
  0.8890337475629543  0.5548593036211993  0.7383437536189285
  0.8887776271648906  0.5553431770985986  0.3738307000272931
  0.1108402300010126  0.7777616312324507  0.2644046199232136
  0.2209301998367710  0.8890083385636173  0.7374887734924377
  0.2216484576631813  0.8888079017967562  0.3738094755664731
  0.4444110731195026  0.7775199554005686  0.2645877011894429
  0.5531633206448242  0.8892676949675747  0.7376421334798715
  0.5547839072364165  0.8893504040631022  0.3739094195222399
  0.7772710194837675  0.7775972417411529  0.2646342882847197
  0.8875221727242103  0.8873362018308055  0.7377546944543041
  0.8882960938094985  0.8887116872756564  0.3737926226228910
  0.9994952984452142  0.9995160790782862  0.4936609978167402
  0.1099412091009472  0.1109470063046482  0.6178989379258452
  0.3327995582968489  0.9997227803865942  0.4935512481893757
  0.4435929296761523  0.1113633388198843  0.6179887146394164
  0.6661207755833856  0.0001629981416170  0.4935022764317236
  0.7777393220994508  0.1108621699531909  0.6185152061341216
  0.9996223424798409  0.3332457904916390  0.4934231023605916
  0.1103565866894266  0.4439957727242766  0.6180108180002578
  0.3328289358956336  0.3338544614075108  0.4934639491534515
  0.4435839297695365  0.4445025937231611  0.6179512953319469
  0.6660987285675894  0.3332607771680819  0.4934177347868635
  0.7770863891276185  0.4444180054688315  0.6181247636980828
  0.9994980417175902  0.6667767402516265  0.4935733692831435
  0.1092285458758451  0.7788723802732280  0.6188881643071710
  0.3328428721051798  0.6662177052304655  0.4935723775521650
  0.4440648553774600  0.7776549490578814  0.6182186299643716
  0.6664627967638886  0.6666328382460943  0.4931665040121350
  0.7768627289519759  0.7775315353411004  0.6180605443265057
  0.9993359475081374  0.9997776095861801  0.3316770577880420
  0.1099239443520214  0.1104226992917170  0.7791623516938557
  0.1104910799803724  0.1106104361208786  0.4397128263299330
  0.2215095198819485  0.2220668891327024  0.5554159317538365
  0.2219049125171171  0.2223334268047391  0.2230405112741624
  0.9986452491387592  0.0025682314423242  0.6725649755818288
  0.3327125569559986  0.0000449599244284  0.3315936694037193
  0.4428788524549279  0.1111001609013625  0.7794486930451956
  0.4436253698725298  0.1112314561869087  0.4396464934252157
  0.5552732318080860  0.2222133332473643  0.5554316160469150
  0.5551352355635268  0.2221478235585514  0.2230006683740129
  0.3323099375048391  0.0004477607550137  0.6713173220752573
  0.6660096333566057 -0.0000550845813882  0.3314935388507194
  0.7767896561131997  0.1106014033025442  0.7790942852398827
  0.7775761803459460  0.1108598729303659  0.4395529337104265
  0.8877875466031840  0.2224300815549890  0.5553181054493125
  0.8881383756647108  0.2228786949270997  0.2229760148814379
  0.6658480546066921  0.9994354271638012  0.6714721225234460
  0.9997604112462246  0.3330270715455617  0.3315703180704554
  0.1103234997790776  0.4442928084708391  0.7799197609874458
  0.1106718361663775  0.4443916944833254  0.4395323337012722
  0.2208461088677200  0.5563542511856103  0.5555106287651587
  0.2219814018065568  0.5553113897714851  0.2230252732835026
  0.9993607367342414  0.3330223203044869  0.6713432590161956
  0.3327458998694123  0.3332182913485284  0.3314651164021351
  0.4428361844889742  0.4430937300611259  0.7791706980591725
  0.4440160895628069  0.4440973425713677  0.4394196317681249
  0.5550171733819891  0.5553525177336678  0.5553550072630322
  0.5553771627639454  0.5556785480342188  0.2230000722991842
  0.3324739009978379  0.3334462503964833  0.6714522746121996
  0.6662258668243801  0.3330259284190038  0.3315394706616404
  0.7762829057217846  0.4439274995242913  0.7803334538713015
  0.7774753171143537  0.4442530446897450  0.4395396819494620
  0.8882733985345266  0.5553956695231641  0.5554422852978571
  0.8881176634956662  0.5557290139900087  0.2230271060206528
  0.6655337752234544  0.3338588908086606  0.6715064813210126
  0.9998053497510048  0.6664962199585417  0.3315176661710444
  0.1099926675666857  0.7777798286986475  0.7794446571769130
  0.1106444824571702  0.7776993399143532  0.4395809638628944
  0.2218642885378662  0.8878287666610651  0.5554295995169755
  0.2226699998454443  0.8883554184795884  0.2229403777649317
  0.9981559863420895  0.6657763895654260  0.6718890238904408
  0.3328131014079818  0.6665396328645247  0.3315552931886455
  0.4416023449792228  0.7793279184039189  0.7797394671652466
  0.4438660796673063  0.7775140440620257  0.4396241667702992
  0.5550380368826010  0.8887883135046554  0.5554433097863857
  0.5554958130049078  0.8883705625607800  0.2230143596446972
  0.3323819716845276  0.6668252691490082  0.6715079630732433
  0.6660652373027530  0.6666944722425493  0.3318020402656154
  0.7759354638911612  0.7768883945382126  0.7797177537560060
  0.7774214837716349  0.7778215747428784  0.4395341472159517
  0.8878216125967878  0.8888193612943789  0.5553857203376484
  0.8881453454379982  0.8885457897261675  0.2230587024125618
  0.6658499338138598  0.6661286910281869  0.6716957045187976
  0.6040615963081719  0.5718779604807370  0.8251870639061303
  0.5956837571228726  0.5305331196205232  0.8633513301858916
  0.5496988875472238  0.4890866509910470  0.8579723211275627
 
  0.00000000E+00  0.00000000E+00  0.00000000E+00
  0.00000000E+00  0.00000000E+00  0.00000000E+00
  0.00000000E+00  0.00000000E+00  0.00000000E+00
  0.00000000E+00  0.00000000E+00  0.00000000E+00
  0.00000000E+00  0.00000000E+00  0.00000000E+00
  0.00000000E+00  0.00000000E+00  0.00000000E+00
  0.00000000E+00  0.00000000E+00  0.00000000E+00
  0.00000000E+00  0.00000000E+00  0.00000000E+00
  0.00000000E+00  0.00000000E+00  0.00000000E+00
  0.00000000E+00  0.00000000E+00  0.00000000E+00
  0.00000000E+00  0.00000000E+00  0.00000000E+00
  0.00000000E+00  0.00000000E+00  0.00000000E+00
  0.00000000E+00  0.00000000E+00  0.00000000E+00
  0.00000000E+00  0.00000000E+00  0.00000000E+00
  0.00000000E+00  0.00000000E+00  0.00000000E+00
  0.00000000E+00  0.00000000E+00  0.00000000E+00
  0.00000000E+00  0.00000000E+00  0.00000000E+00
  0.00000000E+00  0.00000000E+00  0.00000000E+00
  0.00000000E+00  0.00000000E+00  0.00000000E+00
  0.00000000E+00  0.00000000E+00  0.00000000E+00
  0.00000000E+00  0.00000000E+00  0.00000000E+00
  0.00000000E+00  0.00000000E+00  0.00000000E+00
  0.00000000E+00  0.00000000E+00  0.00000000E+00
  0.00000000E+00  0.00000000E+00  0.00000000E+00
  0.00000000E+00  0.00000000E+00  0.00000000E+00
  0.00000000E+00  0.00000000E+00  0.00000000E+00
  0.00000000E+00  0.00000000E+00  0.00000000E+00
  0.00000000E+00  0.00000000E+00  0.00000000E+00
  0.00000000E+00  0.00000000E+00  0.00000000E+00
  0.00000000E+00  0.00000000E+00  0.00000000E+00
  0.00000000E+00  0.00000000E+00  0.00000000E+00
  0.00000000E+00  0.00000000E+00  0.00000000E+00
  0.00000000E+00  0.00000000E+00  0.00000000E+00
  0.00000000E+00  0.00000000E+00  0.00000000E+00
  0.00000000E+00  0.00000000E+00  0.00000000E+00
  0.00000000E+00  0.00000000E+00  0.00000000E+00
  0.00000000E+00  0.00000000E+00  0.00000000E+00
  0.00000000E+00  0.00000000E+00  0.00000000E+00
  0.00000000E+00  0.00000000E+00  0.00000000E+00
  0.00000000E+00  0.00000000E+00  0.00000000E+00
  0.00000000E+00  0.00000000E+00  0.00000000E+00
  0.00000000E+00  0.00000000E+00  0.00000000E+00
  0.00000000E+00  0.00000000E+00  0.00000000E+00
  0.00000000E+00  0.00000000E+00  0.00000000E+00
  0.00000000E+00  0.00000000E+00  0.00000000E+00
  0.00000000E+00  0.00000000E+00  0.00000000E+00
  0.00000000E+00  0.00000000E+00  0.00000000E+00
  0.00000000E+00  0.00000000E+00  0.00000000E+00
  0.00000000E+00  0.00000000E+00  0.00000000E+00
  0.00000000E+00  0.00000000E+00  0.00000000E+00
  0.00000000E+00  0.00000000E+00  0.00000000E+00
  0.00000000E+00  0.00000000E+00  0.00000000E+00
  0.00000000E+00  0.00000000E+00  0.00000000E+00
  0.00000000E+00  0.00000000E+00  0.00000000E+00
  0.00000000E+00  0.00000000E+00  0.00000000E+00
  0.00000000E+00  0.00000000E+00  0.00000000E+00
  0.00000000E+00  0.00000000E+00  0.00000000E+00
  0.00000000E+00  0.00000000E+00  0.00000000E+00
  0.00000000E+00  0.00000000E+00  0.00000000E+00
  0.00000000E+00  0.00000000E+00  0.00000000E+00
  0.00000000E+00  0.00000000E+00  0.00000000E+00
  0.00000000E+00  0.00000000E+00  0.00000000E+00
  0.00000000E+00  0.00000000E+00  0.00000000E+00
  0.00000000E+00  0.00000000E+00  0.00000000E+00
  0.00000000E+00  0.00000000E+00  0.00000000E+00
  0.00000000E+00  0.00000000E+00  0.00000000E+00
  0.00000000E+00  0.00000000E+00  0.00000000E+00
  0.00000000E+00  0.00000000E+00  0.00000000E+00
  0.00000000E+00  0.00000000E+00  0.00000000E+00
  0.00000000E+00  0.00000000E+00  0.00000000E+00
  0.00000000E+00  0.00000000E+00  0.00000000E+00
  0.00000000E+00  0.00000000E+00  0.00000000E+00
  0.00000000E+00  0.00000000E+00  0.00000000E+00
  0.00000000E+00  0.00000000E+00  0.00000000E+00
  0.00000000E+00  0.00000000E+00  0.00000000E+00
  0.00000000E+00  0.00000000E+00  0.00000000E+00
  0.00000000E+00  0.00000000E+00  0.00000000E+00
  0.00000000E+00  0.00000000E+00  0.00000000E+00
  0.00000000E+00  0.00000000E+00  0.00000000E+00
  0.00000000E+00  0.00000000E+00  0.00000000E+00
  0.00000000E+00  0.00000000E+00  0.00000000E+00
  0.00000000E+00  0.00000000E+00  0.00000000E+00
  0.00000000E+00  0.00000000E+00  0.00000000E+00
  0.00000000E+00  0.00000000E+00  0.00000000E+00
  0.00000000E+00  0.00000000E+00  0.00000000E+00
  0.00000000E+00  0.00000000E+00  0.00000000E+00
  0.00000000E+00  0.00000000E+00  0.00000000E+00
  0.00000000E+00  0.00000000E+00  0.00000000E+00
  0.00000000E+00  0.00000000E+00  0.00000000E+00
  0.00000000E+00  0.00000000E+00  0.00000000E+00
  0.00000000E+00  0.00000000E+00  0.00000000E+00
  0.00000000E+00  0.00000000E+00  0.00000000E+00
  0.00000000E+00  0.00000000E+00  0.00000000E+00
  0.00000000E+00  0.00000000E+00  0.00000000E+00
  0.00000000E+00  0.00000000E+00  0.00000000E+00
  0.00000000E+00  0.00000000E+00  0.00000000E+00
  0.00000000E+00  0.00000000E+00  0.00000000E+00
  0.00000000E+00  0.00000000E+00  0.00000000E+00
  0.00000000E+00  0.00000000E+00  0.00000000E+00
  0.00000000E+00  0.00000000E+00  0.00000000E+00
  0.00000000E+00  0.00000000E+00  0.00000000E+00
  0.00000000E+00  0.00000000E+00  0.00000000E+00
