 Ta2 Pd1 S6                             
   1.00000000000000     
     3.2652323032000758    0.0000000000000000    0.0000000000000000
    -1.6326156555180766    9.1177781829241162    0.0000000000000000
     0.0000000000000000    0.0000000000000000   18.6539739137160012
   Ta   Pd   S 
     2     1     6
Direct
  0.3497077805067192  0.6994224255682795  0.5240608696254299
  0.6502922194663086  0.3005775746787478  0.4759391304128329
  0.9999999994431334  0.9999999999110756  0.4999999999133422
  0.7573420006539990  0.5146778914165751  0.5693424356271208
  0.1079927302442556  0.2159823039085680  0.5683654027500467
  0.8920072704796880  0.7840176959393474  0.4316345972153641
  0.2426580006323960  0.4853221089496458  0.4306575641737709
  0.9193182120933301  0.8386407619628287  0.5980484402412571
  0.0806817864801701  0.1613592376649251  0.4019515600408283
 
  0.00000000E+00  0.00000000E+00  0.00000000E+00
  0.00000000E+00  0.00000000E+00  0.00000000E+00
  0.00000000E+00  0.00000000E+00  0.00000000E+00
  0.00000000E+00  0.00000000E+00  0.00000000E+00
  0.00000000E+00  0.00000000E+00  0.00000000E+00
  0.00000000E+00  0.00000000E+00  0.00000000E+00
  0.00000000E+00  0.00000000E+00  0.00000000E+00
  0.00000000E+00  0.00000000E+00  0.00000000E+00
  0.00000000E+00  0.00000000E+00  0.00000000E+00
