CONTCAR\(8)                             
   1.00000000000000     
    13.5726995467999991    0.0000000000000000    0.0000000000000000
     0.0000000000000000   13.5726995467999991    0.0000000000000000
     0.0000000000000000    0.0000000000000000   18.0848999022999983
   Pt   Pb   O 
     8    32     1
Direct
  0.0015992706441015  0.0008125830846901  0.4984510979599298
  0.2491867379423219  0.2483919018666522  0.4984969906858657
  0.4949069313908876  0.0002913849372577  0.4928548873187359
  0.7504083820572309  0.2542732172858400  0.5065775281910224
  0.9957196622052416  0.4995821745212933  0.5065496693288826
  0.2496892972976552  0.7550952248583290  0.4928717237487425
  0.5025143154048677  0.5010790265026398  0.5059161168405280
  0.7489364943196338  0.7474482406493963  0.5059228691129545
  0.3347687175563545  0.4186917701741306  0.4218062134730797
  0.0834400152886895  0.3341201335573465  0.4203625654467860
  0.0834894400461542  0.1664907821435230  0.5796805619751331
  0.4115874042884918  0.3326622558077402  0.5831386500025869
  0.1693433838037763  0.4190898724038103  0.5796708283339267
  0.3345991398314070  0.0842762072966688  0.5781884713606011
  0.1670415934389680  0.0829481716520973  0.4175305513653226
  0.4179518211844758  0.1703671294713962  0.4169516568527124
  0.8326504977525728  0.4173341180826868  0.4232366947526608
  0.5889829051529055  0.3420247816998194  0.4291299776183208
  0.5784569279203475  0.1581210553494502  0.5801599314006954
  0.9158044649203019  0.3342008845185421  0.5843325008581680
  0.6498088584732884  0.3944270907487807  0.6113129235063119
  0.8309227042636270  0.0806591837438347  0.5796762276862164
  0.6668562600456452  0.0876316431813881  0.4200639272347113
  0.9158765861721201  0.1665772807352942  0.4203632012053677
  0.3352239701662665  0.9147621443783168  0.4082467524193526
  0.0796237679918386  0.8320279366759259  0.4169398291255201
  0.0918524498656239  0.6715180597854149  0.5801502714056445
  0.4163951866863836  0.8336061936556223  0.5729348117789946
  0.1656820992245604  0.9154062719300924  0.5781813240430758
  0.3355266209672964  0.5907389535952001  0.5776194279891687
  0.1623693521708286  0.5831425573617141  0.4200567041162737
  0.4140695802388620  0.6655387675743365  0.4127985288898834
  0.8312871966035235  0.9152191686217568  0.4218004883443637
  0.5844523082461881  0.8359018427715241  0.4128105362588634
  0.5948498108022421  0.6551402669327430  0.5900033340392087
  0.9173432717825351  0.8384067320743873  0.5831192913910909
  0.6592871507366445  0.9144531693202435  0.5776223880168903
  0.8555580903206176  0.6001735503273948  0.6112825811211315
  0.6559420431524394  0.5940535868948054  0.4171438479236030
  0.9079778699271519  0.6609916470061400  0.4290875085416388
  0.7063371317159480  0.5436327638217903  0.6365965773360447
 
  0.00000000E+00  0.00000000E+00  0.00000000E+00
  0.00000000E+00  0.00000000E+00  0.00000000E+00
  0.00000000E+00  0.00000000E+00  0.00000000E+00
  0.00000000E+00  0.00000000E+00  0.00000000E+00
  0.00000000E+00  0.00000000E+00  0.00000000E+00
  0.00000000E+00  0.00000000E+00  0.00000000E+00
  0.00000000E+00  0.00000000E+00  0.00000000E+00
  0.00000000E+00  0.00000000E+00  0.00000000E+00
  0.00000000E+00  0.00000000E+00  0.00000000E+00
  0.00000000E+00  0.00000000E+00  0.00000000E+00
  0.00000000E+00  0.00000000E+00  0.00000000E+00
  0.00000000E+00  0.00000000E+00  0.00000000E+00
  0.00000000E+00  0.00000000E+00  0.00000000E+00
  0.00000000E+00  0.00000000E+00  0.00000000E+00
  0.00000000E+00  0.00000000E+00  0.00000000E+00
  0.00000000E+00  0.00000000E+00  0.00000000E+00
  0.00000000E+00  0.00000000E+00  0.00000000E+00
  0.00000000E+00  0.00000000E+00  0.00000000E+00
  0.00000000E+00  0.00000000E+00  0.00000000E+00
  0.00000000E+00  0.00000000E+00  0.00000000E+00
  0.00000000E+00  0.00000000E+00  0.00000000E+00
  0.00000000E+00  0.00000000E+00  0.00000000E+00
  0.00000000E+00  0.00000000E+00  0.00000000E+00
  0.00000000E+00  0.00000000E+00  0.00000000E+00
  0.00000000E+00  0.00000000E+00  0.00000000E+00
  0.00000000E+00  0.00000000E+00  0.00000000E+00
  0.00000000E+00  0.00000000E+00  0.00000000E+00
  0.00000000E+00  0.00000000E+00  0.00000000E+00
  0.00000000E+00  0.00000000E+00  0.00000000E+00
  0.00000000E+00  0.00000000E+00  0.00000000E+00
  0.00000000E+00  0.00000000E+00  0.00000000E+00
  0.00000000E+00  0.00000000E+00  0.00000000E+00
  0.00000000E+00  0.00000000E+00  0.00000000E+00
  0.00000000E+00  0.00000000E+00  0.00000000E+00
  0.00000000E+00  0.00000000E+00  0.00000000E+00
  0.00000000E+00  0.00000000E+00  0.00000000E+00
  0.00000000E+00  0.00000000E+00  0.00000000E+00
  0.00000000E+00  0.00000000E+00  0.00000000E+00
  0.00000000E+00  0.00000000E+00  0.00000000E+00
  0.00000000E+00  0.00000000E+00  0.00000000E+00
  0.00000000E+00  0.00000000E+00  0.00000000E+00
