CONTCAR\(14)                            
   1.00000000000000     
    12.3274002075000002    0.0000000000000000    0.0000000000000000
     0.0000000000000000   15.7540998459000008    0.0000000000000000
     0.0000000000000000    0.0000000000000000   20.2700004577999984
   Pr   Br
    12    30
Direct
  0.2500000000000000  0.6379762943766139  0.5199166474536270
  0.0833299940000032  0.3620236756233837  0.4800833995463734
  0.2500000000000000  0.1367588355274947  0.5273873415308046
  0.0833299940000032  0.8632411484725040  0.4726126584691954
  0.5833299940000032  0.6379762943766139  0.5199166474536270
  0.4166700059999968  0.3620236756233837  0.4800833995463734
  0.5833299940000032  0.1367588355274947  0.5273873415308046
  0.4166700059999968  0.8632411484725040  0.4726126584691954
  0.9166700450000036  0.6379762943766139  0.5199166474536270
  0.7500000000000000  0.3620236756233837  0.4800833995463734
  0.9166700450000036  0.1367588355274947  0.5273873415308046
  0.7500000000000000  0.8632411484725040  0.4726126584691954
  0.2500000000000000  0.8759110365477341  0.3702826507294859
  0.0833299940000032  0.1240889634522659  0.6297173732705161
  0.2500000000000000  0.4833475764446860  0.4224429260551119
  0.0833299940000032  0.5166524535553165  0.5775570739448881
  0.0833299940000032  0.0584359698963013  0.4372635939542064
  0.2500000000000000  0.9415640031037000  0.5627364060457936
  0.0833299940000032  0.7435517267640321  0.5928958036025165
  0.2500000000000000  0.2564482432359654  0.4071042433974839
  0.0833299940000032  0.6825204221823853  0.4184140299825572
  0.2500000000000000  0.3174796078176172  0.5815859700174428
  0.5833299940000032  0.8759110365477341  0.3702826507294859
  0.4166700059999968  0.1240889634522659  0.6297173732705161
  0.5833299940000032  0.4833475764446860  0.4224429260551119
  0.4166700059999968  0.5166524535553165  0.5775570739448881
  0.4166700059999968  0.0584359698963013  0.4372635939542064
  0.5833299940000032  0.9415640031037000  0.5627364060457936
  0.4166700059999968  0.7435517267640321  0.5928958036025165
  0.5833299940000032  0.2564482432359654  0.4071042433974839
  0.4166700059999968  0.6825204221823853  0.4184140299825572
  0.5833299940000032  0.3174796078176172  0.5815859700174428
  0.9166700450000036  0.8759110365477341  0.3702826507294859
  0.7500000000000000  0.1240889634522659  0.6297173732705161
  0.9166700450000036  0.4833475764446860  0.4224429260551119
  0.7500000000000000  0.5166524535553165  0.5775570739448881
  0.7500000000000000  0.0584359698963013  0.4372635939542064
  0.9166700450000036  0.9415640031037000  0.5627364060457936
  0.7500000000000000  0.7435517267640321  0.5928958036025165
  0.9166700450000036  0.2564482432359654  0.4071042433974839
  0.7500000000000000  0.6825204221823853  0.4184140299825572
  0.9166700450000036  0.3174796078176172  0.5815859700174428
 
  0.00000000E+00  0.00000000E+00  0.00000000E+00
  0.00000000E+00  0.00000000E+00  0.00000000E+00
  0.00000000E+00  0.00000000E+00  0.00000000E+00
  0.00000000E+00  0.00000000E+00  0.00000000E+00
  0.00000000E+00  0.00000000E+00  0.00000000E+00
  0.00000000E+00  0.00000000E+00  0.00000000E+00
  0.00000000E+00  0.00000000E+00  0.00000000E+00
  0.00000000E+00  0.00000000E+00  0.00000000E+00
  0.00000000E+00  0.00000000E+00  0.00000000E+00
  0.00000000E+00  0.00000000E+00  0.00000000E+00
  0.00000000E+00  0.00000000E+00  0.00000000E+00
  0.00000000E+00  0.00000000E+00  0.00000000E+00
  0.00000000E+00  0.00000000E+00  0.00000000E+00
  0.00000000E+00  0.00000000E+00  0.00000000E+00
  0.00000000E+00  0.00000000E+00  0.00000000E+00
  0.00000000E+00  0.00000000E+00  0.00000000E+00
  0.00000000E+00  0.00000000E+00  0.00000000E+00
  0.00000000E+00  0.00000000E+00  0.00000000E+00
  0.00000000E+00  0.00000000E+00  0.00000000E+00
  0.00000000E+00  0.00000000E+00  0.00000000E+00
  0.00000000E+00  0.00000000E+00  0.00000000E+00
  0.00000000E+00  0.00000000E+00  0.00000000E+00
  0.00000000E+00  0.00000000E+00  0.00000000E+00
  0.00000000E+00  0.00000000E+00  0.00000000E+00
  0.00000000E+00  0.00000000E+00  0.00000000E+00
  0.00000000E+00  0.00000000E+00  0.00000000E+00
  0.00000000E+00  0.00000000E+00  0.00000000E+00
  0.00000000E+00  0.00000000E+00  0.00000000E+00
  0.00000000E+00  0.00000000E+00  0.00000000E+00
  0.00000000E+00  0.00000000E+00  0.00000000E+00
  0.00000000E+00  0.00000000E+00  0.00000000E+00
  0.00000000E+00  0.00000000E+00  0.00000000E+00
  0.00000000E+00  0.00000000E+00  0.00000000E+00
  0.00000000E+00  0.00000000E+00  0.00000000E+00
  0.00000000E+00  0.00000000E+00  0.00000000E+00
  0.00000000E+00  0.00000000E+00  0.00000000E+00
  0.00000000E+00  0.00000000E+00  0.00000000E+00
  0.00000000E+00  0.00000000E+00  0.00000000E+00
  0.00000000E+00  0.00000000E+00  0.00000000E+00
  0.00000000E+00  0.00000000E+00  0.00000000E+00
  0.00000000E+00  0.00000000E+00  0.00000000E+00
  0.00000000E+00  0.00000000E+00  0.00000000E+00
