CONTCAR\(5)                             
   1.00000000000000     
    11.2744998931999998    0.0000000000000000    0.0000000000000000
     0.0000000000000000   12.4884996414000007    0.0000000000000000
     0.0000000000000000    0.0000000000000000   19.0002002716000007
   Nb   Te   Ir   O 
     6    24     6     1
Direct
  0.0000319577249324  0.0521811003131897  0.5040957840006030
  0.1668045739937679  0.7304023657490705  0.4958123029030915
  0.3337728513143732  0.0512174118971154  0.5037338259432523
  0.4997449244475698  0.7373077138987458  0.4981134928882068
  0.6657861132399470  0.0509458335472831  0.5037465808348379
  0.8334411997008585  0.7303745875885965  0.4960637015689212
  0.1665396019105304  0.9333876986327583  0.4201861239978453
  0.9998103845479395  0.1925652230218004  0.3978039722429493
  0.0004657020739755  0.3450958480974057  0.5706554424691758
  0.1662450300189470  0.5877567519534601  0.6008342804248596
  0.1677972638910568  0.4336195535385723  0.4296026418603113
  0.9999461311914088  0.6753142614662654  0.3945960666153180
  0.0001357084018607  0.8484792071139539  0.5804448280779241
  0.1678389610272518  0.1076294375683463  0.6052771711115166
  0.4999556580608255  0.9333046612142438  0.4176753673234886
  0.3343210440678997  0.1957100870470702  0.4005474706277677
  0.3355941538259534  0.3492279813847587  0.5735023909060992
  0.5007551761074133  0.5814748308994669  0.6066144290537369
  0.5001589034135048  0.4370385527139611  0.4314702288691921
  0.3345477084653075  0.6761634911079785  0.3954426552596733
  0.3327221488250347  0.8468928397774992  0.5813112061966518
  0.4997522194391579  0.1060731985359956  0.6059996149248992
  0.8334256336917393  0.9333368436128271  0.4202907618330962
  0.6659889686700959  0.1955588413003891  0.4006227230807099
  0.6656835360307777  0.3480065320006850  0.5731475832777009
  0.8343855179060656  0.5875230704718167  0.6009491098258944
  0.8324923111481569  0.4338790368690397  0.4296515996893436
  0.6654630349160875  0.6759011710903052  0.3958129710632295
  0.6667042329494236  0.8465626304594114  0.5813744194515159
  0.8321969904055484  0.1070997141836497  0.6052346062419911
  0.0002500780112293  0.5359315208201132  0.5029780968995199
  0.1662081538587676  0.2434540182840544  0.4960203958579838
  0.3327812737698823  0.5387558583920650  0.5041838801150803
  0.5001020355387029  0.2453222703684133  0.4983939439422436
  0.6673004095357934  0.5384769559397965  0.5045267559728199
  0.8341097583811027  0.2436910990587112  0.4962762644483725
  0.4959909124970902  0.4366677000811893  0.6436774072001915
 
  0.00000000E+00  0.00000000E+00  0.00000000E+00
  0.00000000E+00  0.00000000E+00  0.00000000E+00
  0.00000000E+00  0.00000000E+00  0.00000000E+00
  0.00000000E+00  0.00000000E+00  0.00000000E+00
  0.00000000E+00  0.00000000E+00  0.00000000E+00
  0.00000000E+00  0.00000000E+00  0.00000000E+00
  0.00000000E+00  0.00000000E+00  0.00000000E+00
  0.00000000E+00  0.00000000E+00  0.00000000E+00
  0.00000000E+00  0.00000000E+00  0.00000000E+00
  0.00000000E+00  0.00000000E+00  0.00000000E+00
  0.00000000E+00  0.00000000E+00  0.00000000E+00
  0.00000000E+00  0.00000000E+00  0.00000000E+00
  0.00000000E+00  0.00000000E+00  0.00000000E+00
  0.00000000E+00  0.00000000E+00  0.00000000E+00
  0.00000000E+00  0.00000000E+00  0.00000000E+00
  0.00000000E+00  0.00000000E+00  0.00000000E+00
  0.00000000E+00  0.00000000E+00  0.00000000E+00
  0.00000000E+00  0.00000000E+00  0.00000000E+00
  0.00000000E+00  0.00000000E+00  0.00000000E+00
  0.00000000E+00  0.00000000E+00  0.00000000E+00
  0.00000000E+00  0.00000000E+00  0.00000000E+00
  0.00000000E+00  0.00000000E+00  0.00000000E+00
  0.00000000E+00  0.00000000E+00  0.00000000E+00
  0.00000000E+00  0.00000000E+00  0.00000000E+00
  0.00000000E+00  0.00000000E+00  0.00000000E+00
  0.00000000E+00  0.00000000E+00  0.00000000E+00
  0.00000000E+00  0.00000000E+00  0.00000000E+00
  0.00000000E+00  0.00000000E+00  0.00000000E+00
  0.00000000E+00  0.00000000E+00  0.00000000E+00
  0.00000000E+00  0.00000000E+00  0.00000000E+00
  0.00000000E+00  0.00000000E+00  0.00000000E+00
  0.00000000E+00  0.00000000E+00  0.00000000E+00
  0.00000000E+00  0.00000000E+00  0.00000000E+00
  0.00000000E+00  0.00000000E+00  0.00000000E+00
  0.00000000E+00  0.00000000E+00  0.00000000E+00
  0.00000000E+00  0.00000000E+00  0.00000000E+00
  0.00000000E+00  0.00000000E+00  0.00000000E+00
