 Co1 Cl2                                
   1.00000000000000     
     3.4779757397885427    0.0000000000000000    0.0000000000000000
     1.7389878698942713    3.0120684050682809    0.0000000000000000
     0.0000000000000000    0.0000000000000000   17.6689526745600034
   Co   Cl
     1     2
Direct
 -0.0000000002542324  0.0000000002855926  0.5000000003424874
  0.6666702948625560  0.6666655785322296  0.4233460526039214
  0.3333297053916766  0.3333344211821782  0.5766539470535917
 
  0.00000000E+00  0.00000000E+00  0.00000000E+00
  0.00000000E+00  0.00000000E+00  0.00000000E+00
  0.00000000E+00  0.00000000E+00  0.00000000E+00
