CONTCAR\(10)                            
   1.00000000000000     
    10.9488000870000004    0.0000000000000000    0.0000000000000000
     0.0000000000000000   10.9488000870000004    0.0000000000000000
     0.0000000000000000    0.0000000000000000   22.0405998230000009
   Zr   Si   Te   O    H 
    18    18    18     1     1
Direct
  0.1637002017161393  0.0020441033528016  0.5963489197968741
  0.9995059338933672  0.1662493528737983  0.4027401068673413
  0.4987227943097636  0.9989347995932150  0.5979669975258020
  0.3333712548980472  0.1662979226187744  0.4034517655286294
  0.8353916045526120  0.0021933513768175  0.5963378284877763
  0.6656349247729096  0.1661824666556342  0.4035465799057647
  0.1636836391451624  0.3304056150012045  0.5962968435560612
  0.9995801741114434  0.5001033399596650  0.4035473307934012
  0.4994304628646802  0.3339491753870973  0.5980465442685414
  0.3335265767694082  0.5002679665445200  0.4047346769141384
  0.8352431090476955  0.3304743193986965  0.5963776814881712
  0.6656199047357774  0.5001305133973020  0.4047026405861942
  0.1673546292940884  0.6662502876879373  0.5981155907182583
  0.9994685184827361  0.8324065422099522  0.4035914554536646
  0.5000662199864436  0.6665910871502234  0.6057508931608027
  0.3334212139000670  0.8323109949818317  0.4046965476891131
  0.8321895656978242  0.6655546268652515  0.5980113178736701
  0.6655759396789165  0.8322360928614927  0.4047982030485997
  0.1664623521988915  0.1661973827804459  0.4994738967279062
  0.9994922175232261  0.9993258974436898  0.4995285266975316
  0.4994090915006453  0.1663123046539283  0.5005123517296894
  0.3330234253767372  0.9999563321449685  0.5006013241647196
  0.8326000776053988  0.1662976744176206  0.4995301863034669
  0.6658247912275428  0.9998860537690177  0.5006146008674719
  0.1660104465400778  0.4998613716569409  0.5006218484326297
  0.9994387097125568  0.3332140898564973  0.4995144926295367
  0.4994748823433000  0.5003645792101139  0.5022712481595732
  0.3330869459124912  0.3326952184369958  0.5005546144242601
  0.8331807734827592  0.4998507047999254  0.5006728747400828
  0.6658311573128515  0.3326633695114367  0.5006574759624414
  0.1659346004313349  0.8326029848338976  0.5006953464170252
  0.9995633889552522  0.6662184398238367  0.5006157003288720
  0.4994713658076506  0.8321686091254392  0.5023149587203051
  0.3338223678369161  0.6662319773234984  0.5023539208446977
  0.8331053583617489  0.8325368929179078  0.5006558853737104
  0.6652777676245805  0.6661473629194106  0.5024320885032552
  0.9994978778957844  0.1662482865755308  0.6623056309100335
  0.1667603933319839  0.9989274691973833  0.3404044020802814
  0.3325828111695088  0.1662781904763193  0.6605514187701189
  0.4995831148450733  0.9986900700902126  0.3406142230002018
  0.6659406314063645  0.1662744671402550  0.6604911127692148
  0.8322660961387243  0.9989898266505506  0.3403334632433257
  0.9995313188407380  0.4993580915828844  0.6604669893422113
  0.1667633082139872  0.3335557815726702  0.3402635887419407
  0.3255178728855341  0.4919834018042408  0.6593330900619989
  0.4995736507826294  0.3337750140968936  0.3405562737390611
  0.6728020095822416  0.4923037680339846  0.6601264059181062
  0.8321876818383060  0.3334657817900677  0.3404050224549806
  0.9994742206731644  0.8327725137192417  0.6604533458524315
  0.1669847176927561  0.6663537875600412  0.3406421821182803
  0.3258211245481846  0.8397442503688666  0.6600578424307173
  0.4996302946799815  0.6662965545536039  0.3410765367327642
  0.6736694905213270  0.8406269171968930  0.6591738564435801
  0.8320749290196829  0.6662845593182922  0.3406278268362897
  0.4905701821390522  0.6592164205074340  0.7040478002959460
  0.5450419041839041  0.7017010322228430  0.7319255595686087
 
  0.00000000E+00  0.00000000E+00  0.00000000E+00
  0.00000000E+00  0.00000000E+00  0.00000000E+00
  0.00000000E+00  0.00000000E+00  0.00000000E+00
  0.00000000E+00  0.00000000E+00  0.00000000E+00
  0.00000000E+00  0.00000000E+00  0.00000000E+00
  0.00000000E+00  0.00000000E+00  0.00000000E+00
  0.00000000E+00  0.00000000E+00  0.00000000E+00
  0.00000000E+00  0.00000000E+00  0.00000000E+00
  0.00000000E+00  0.00000000E+00  0.00000000E+00
  0.00000000E+00  0.00000000E+00  0.00000000E+00
  0.00000000E+00  0.00000000E+00  0.00000000E+00
  0.00000000E+00  0.00000000E+00  0.00000000E+00
  0.00000000E+00  0.00000000E+00  0.00000000E+00
  0.00000000E+00  0.00000000E+00  0.00000000E+00
  0.00000000E+00  0.00000000E+00  0.00000000E+00
  0.00000000E+00  0.00000000E+00  0.00000000E+00
  0.00000000E+00  0.00000000E+00  0.00000000E+00
  0.00000000E+00  0.00000000E+00  0.00000000E+00
  0.00000000E+00  0.00000000E+00  0.00000000E+00
  0.00000000E+00  0.00000000E+00  0.00000000E+00
  0.00000000E+00  0.00000000E+00  0.00000000E+00
  0.00000000E+00  0.00000000E+00  0.00000000E+00
  0.00000000E+00  0.00000000E+00  0.00000000E+00
  0.00000000E+00  0.00000000E+00  0.00000000E+00
  0.00000000E+00  0.00000000E+00  0.00000000E+00
  0.00000000E+00  0.00000000E+00  0.00000000E+00
  0.00000000E+00  0.00000000E+00  0.00000000E+00
  0.00000000E+00  0.00000000E+00  0.00000000E+00
  0.00000000E+00  0.00000000E+00  0.00000000E+00
  0.00000000E+00  0.00000000E+00  0.00000000E+00
  0.00000000E+00  0.00000000E+00  0.00000000E+00
  0.00000000E+00  0.00000000E+00  0.00000000E+00
  0.00000000E+00  0.00000000E+00  0.00000000E+00
  0.00000000E+00  0.00000000E+00  0.00000000E+00
  0.00000000E+00  0.00000000E+00  0.00000000E+00
  0.00000000E+00  0.00000000E+00  0.00000000E+00
  0.00000000E+00  0.00000000E+00  0.00000000E+00
  0.00000000E+00  0.00000000E+00  0.00000000E+00
  0.00000000E+00  0.00000000E+00  0.00000000E+00
  0.00000000E+00  0.00000000E+00  0.00000000E+00
  0.00000000E+00  0.00000000E+00  0.00000000E+00
  0.00000000E+00  0.00000000E+00  0.00000000E+00
  0.00000000E+00  0.00000000E+00  0.00000000E+00
  0.00000000E+00  0.00000000E+00  0.00000000E+00
  0.00000000E+00  0.00000000E+00  0.00000000E+00
  0.00000000E+00  0.00000000E+00  0.00000000E+00
  0.00000000E+00  0.00000000E+00  0.00000000E+00
  0.00000000E+00  0.00000000E+00  0.00000000E+00
  0.00000000E+00  0.00000000E+00  0.00000000E+00
  0.00000000E+00  0.00000000E+00  0.00000000E+00
  0.00000000E+00  0.00000000E+00  0.00000000E+00
  0.00000000E+00  0.00000000E+00  0.00000000E+00
  0.00000000E+00  0.00000000E+00  0.00000000E+00
  0.00000000E+00  0.00000000E+00  0.00000000E+00
  0.00000000E+00  0.00000000E+00  0.00000000E+00
  0.00000000E+00  0.00000000E+00  0.00000000E+00
