CONTCAR\(4)                             
   1.00000000000000     
    13.9937000274999992    0.0000000000000000    0.0000000000000000
     0.0000000000000000   12.1743001938000006    0.0000000000000000
     0.0000000000000000    0.0000000000000000   22.0200004577999984
   Ta   Se   O    H 
    16    48     2     1
Selective dynamics
Direct
  0.0669710115753475  0.0000985558611504  0.4163991745917741   F   F   F
  0.1933557355737960  0.8611505034708742  0.5820967809560997   F   F   F
  0.0666305858869336  0.5931866404815906  0.4756228104159206   F   F   F
  0.1902944569335290  0.2663165673143695  0.5227813877145167   F   F   F
  0.3172363167724654  0.9999419714159856  0.4164757268268815   F   F   F
  0.4418148482390123  0.8611108729105581  0.5818018352149039   F   F   F
  0.3173151533353789  0.5922557498708798  0.4744034074156360   F   F   F
  0.4444174440004502  0.2662577773363211  0.5229442140933855   F   F   F
  0.5675895750437547  0.0000414423027308  0.4164126554585010   F   F   F
  0.6917465425418357  0.8609511660194187  0.5824221054007310   F   F   F
  0.5679122059135793  0.5930622468882660  0.4755855250537451   F   F   F
  0.6925329615127396  0.2679800873028029  0.5236708562402654   F   F   F
  0.8172312682948331  0.9996497293322761  0.4168409619816842   F   F   F
  0.9426970705749866  0.8610246280085505  0.5825394011464979   F   F   F
  0.8173130601070895  0.5931139194572239  0.4756989280663504   F   F   F
  0.9421435606735926  0.2679495122222733  0.5235708763407985   F   F   F
  0.0671095534059987  0.8213158119462420  0.4937385939774899   F   F   F
  0.1921329699933167  0.0401551835511569  0.5048478348847496   F   F   F
  0.0679515480621902  0.9908806451186436  0.6387206284735072   F   F   F
  0.1921786929678575  0.8710116721819290  0.3599943945882842   F   F   F
  0.1929516241362279  0.4413725665524026  0.4404801957778233   F   F   F
  0.0671665815485980  0.4190260232919414  0.5588132094138345   F   F   F
  0.1935654989989857  0.6365386503271822  0.5633167367018359   F   F   F
  0.0666408013532802  0.2234766153727819  0.4343689183701684   F   F   F
  0.1922616285756646  0.0823688795576842  0.3401292808682328   F   F   F
  0.0683721533017163  0.7795741793174145  0.6590212173939705   F   F   F
  0.1920515164080925  0.6623637634934383  0.3939910726430611   F   F   F
  0.0672136919442679  0.1991543380831686  0.6054712289037880   F   F   F
  0.3172329262892930  0.8203351230992411  0.4927832195898105   F   F   F
  0.4426192267029663  0.0400335999243495  0.5048904069325246   F   F   F
  0.3176843406904055  0.9947487834334865  0.6340844259269574   F   F   F
  0.4422769754608424  0.8708925231772611  0.3599596425031990   F   F   F
  0.4417435783493957  0.4412321316997634  0.4406314039411043   F   F   F
  0.3173701477205881  0.4090320360949775  0.5649129137971514   F   F   F
  0.4410215722636011  0.6365882692177536  0.5632453372712050   F   F   F
  0.3174291604131838  0.2235854522057039  0.4358342068240688   F   F   F
  0.4423823504283035  0.0820211800301180  0.3400062193158533   F   F   F
  0.3174102000809995  0.7595631415850193  0.6558678571138543   F   F   F
  0.4423341260776112  0.6620571300704370  0.3938635984216532   F   F   F
  0.3172296906918532  0.2008995040116233  0.6058668917195860   F   F   F
  0.5675827721644069  0.8210858891729274  0.4934615483062004   F   F   F
  0.6922415765923873  0.0402801874703158  0.5055003161318865   F   F   F
  0.5670031889684211  0.9903296700063322  0.6388390647508473   F   F   F
  0.6923612704187150  0.8695823168005532  0.3606019432801943   F   F   F
  0.6925347088212561  0.4419934992112218  0.4401412397525206   F   F   F
  0.5675654342800627  0.4190764780315277  0.5587838155403944   F   F   F
  0.6921158701163819  0.6376393746978124  0.5641025775171329   F   F   F
  0.5679630613339128  0.2235271212508323  0.4344756288727822   F   F   F
  0.6926522744530601  0.0822581645363485  0.3405891356127739   F   F   F
  0.5661227939566942  0.7793835632090094  0.6589517777095111   F   F   F
  0.6922397830407974  0.6609234390479557  0.3935888906992062   F   F   F
  0.5676118399445329  0.1991233861374013  0.6055634492713722   F   F   F
  0.8172665788416040  0.8208799350369773  0.4937822321413847   F   F   F
  0.9425290778649398  0.0401803047364950  0.5055452147060393   F   F   F
  0.8173195464803982  0.9909345535995087  0.6385489353866518   F   F   F
  0.9421835893311012  0.8696078056947485  0.3605735104461729   F   F   F
  0.9422918584682165  0.4421091014285494  0.4400899493119113   F   F   F
  0.8173569604090787  0.4187515392916481  0.5593116064485102   F   F   F
  0.9424095196388720  0.6377673273572313  0.5640862889636367   F   F   F
  0.8173995402610785  0.2233108840415383  0.4353600703536387   F   F   F
  0.9418085350254017  0.0819612926131299  0.3405095523255497   F   F   F
  0.8170829755672955  0.7787347484359231  0.6585427150084371   F   F   F
  0.9424113488959946  0.6614158024682908  0.3937091544781239   F   F   F
  0.8174830384863938  0.1995032738362141  0.6055551544027793   F   F   F
  0.3138250469838866  0.8395730859100752  0.7335710252941396   T   T   T
  0.3690836501504009  0.7772209851815504  0.7768799322950315   T   T   T
  0.3192718906601328  0.7334475682569420  0.7962885178258919   T   T   T
 
  0.00000000E+00  0.00000000E+00  0.00000000E+00
  0.00000000E+00  0.00000000E+00  0.00000000E+00
  0.00000000E+00  0.00000000E+00  0.00000000E+00
  0.00000000E+00  0.00000000E+00  0.00000000E+00
  0.00000000E+00  0.00000000E+00  0.00000000E+00
  0.00000000E+00  0.00000000E+00  0.00000000E+00
  0.00000000E+00  0.00000000E+00  0.00000000E+00
  0.00000000E+00  0.00000000E+00  0.00000000E+00
  0.00000000E+00  0.00000000E+00  0.00000000E+00
  0.00000000E+00  0.00000000E+00  0.00000000E+00
  0.00000000E+00  0.00000000E+00  0.00000000E+00
  0.00000000E+00  0.00000000E+00  0.00000000E+00
  0.00000000E+00  0.00000000E+00  0.00000000E+00
  0.00000000E+00  0.00000000E+00  0.00000000E+00
  0.00000000E+00  0.00000000E+00  0.00000000E+00
  0.00000000E+00  0.00000000E+00  0.00000000E+00
  0.00000000E+00  0.00000000E+00  0.00000000E+00
  0.00000000E+00  0.00000000E+00  0.00000000E+00
  0.00000000E+00  0.00000000E+00  0.00000000E+00
  0.00000000E+00  0.00000000E+00  0.00000000E+00
  0.00000000E+00  0.00000000E+00  0.00000000E+00
  0.00000000E+00  0.00000000E+00  0.00000000E+00
  0.00000000E+00  0.00000000E+00  0.00000000E+00
  0.00000000E+00  0.00000000E+00  0.00000000E+00
  0.00000000E+00  0.00000000E+00  0.00000000E+00
  0.00000000E+00  0.00000000E+00  0.00000000E+00
  0.00000000E+00  0.00000000E+00  0.00000000E+00
  0.00000000E+00  0.00000000E+00  0.00000000E+00
  0.00000000E+00  0.00000000E+00  0.00000000E+00
  0.00000000E+00  0.00000000E+00  0.00000000E+00
  0.00000000E+00  0.00000000E+00  0.00000000E+00
  0.00000000E+00  0.00000000E+00  0.00000000E+00
  0.00000000E+00  0.00000000E+00  0.00000000E+00
  0.00000000E+00  0.00000000E+00  0.00000000E+00
  0.00000000E+00  0.00000000E+00  0.00000000E+00
  0.00000000E+00  0.00000000E+00  0.00000000E+00
  0.00000000E+00  0.00000000E+00  0.00000000E+00
  0.00000000E+00  0.00000000E+00  0.00000000E+00
  0.00000000E+00  0.00000000E+00  0.00000000E+00
  0.00000000E+00  0.00000000E+00  0.00000000E+00
  0.00000000E+00  0.00000000E+00  0.00000000E+00
  0.00000000E+00  0.00000000E+00  0.00000000E+00
  0.00000000E+00  0.00000000E+00  0.00000000E+00
  0.00000000E+00  0.00000000E+00  0.00000000E+00
  0.00000000E+00  0.00000000E+00  0.00000000E+00
  0.00000000E+00  0.00000000E+00  0.00000000E+00
  0.00000000E+00  0.00000000E+00  0.00000000E+00
  0.00000000E+00  0.00000000E+00  0.00000000E+00
  0.00000000E+00  0.00000000E+00  0.00000000E+00
  0.00000000E+00  0.00000000E+00  0.00000000E+00
  0.00000000E+00  0.00000000E+00  0.00000000E+00
  0.00000000E+00  0.00000000E+00  0.00000000E+00
  0.00000000E+00  0.00000000E+00  0.00000000E+00
  0.00000000E+00  0.00000000E+00  0.00000000E+00
  0.00000000E+00  0.00000000E+00  0.00000000E+00
  0.00000000E+00  0.00000000E+00  0.00000000E+00
  0.00000000E+00  0.00000000E+00  0.00000000E+00
  0.00000000E+00  0.00000000E+00  0.00000000E+00
  0.00000000E+00  0.00000000E+00  0.00000000E+00
  0.00000000E+00  0.00000000E+00  0.00000000E+00
  0.00000000E+00  0.00000000E+00  0.00000000E+00
  0.00000000E+00  0.00000000E+00  0.00000000E+00
  0.00000000E+00  0.00000000E+00  0.00000000E+00
  0.00000000E+00  0.00000000E+00  0.00000000E+00
  0.00000000E+00  0.00000000E+00  0.00000000E+00
  0.00000000E+00  0.00000000E+00  0.00000000E+00
  0.00000000E+00  0.00000000E+00  0.00000000E+00
