CONTCAR                                 
   1.00000000000000     
    12.0352001190000006    0.0000000000000000    0.0000000000000000
     0.0000000000000000   12.2138004302999992    0.0000000000000000
     0.0000000000000000    0.0000000000000000   16.9626007080000001
   Cu   Se   O 
     8     8    25
Direct
  0.0855066977987981  0.9119033499204393  0.4622856754573245
  0.3319690294012456  0.5976808263969473  0.4974538761952789
  0.4135984109386802  0.0923779324115606  0.5182444008896424
  0.1609243523775628  0.4176917887732976  0.4643854708268539
  0.5778387409042005  0.9032777055114143  0.5074296859745422
  0.8411066263776393  0.5884805502796356  0.5453868555798606
  0.9192746200286244  0.0907166727800881  0.4926699136270378
  0.6745760437857202  0.4028463803486861  0.5371576900772096
  0.1969344598810503  0.1486026352062480  0.4568049657205086
  0.4273261677023511  0.3508855597546318  0.5121087199518192
  0.3042645123927010  0.8493966268239047  0.5172452045787709
  0.0487518140931851  0.6493039371350225  0.4737330789097696
  0.6857855721139380  0.1548087959237499  0.4926479685032582
  0.9511132456372519  0.3463561328402208  0.5301971643780518
  0.8130474682475254  0.8535246255207084  0.5184497670837735
  0.5731859334069200  0.6481405786114621  0.5091772983598327
  0.4637850441325995  0.5926712830533593  0.5609777159286222
  0.2425027862027880  0.9171698546278171  0.4387163420910651
  0.0012238449051217  0.4243374343600705  0.4521150546944647
  0.2575782228860645  0.0995178777787281  0.5417014124614765
  0.1778948851435519  0.5748179307606806  0.4641995137397384
  0.4241101990133351  0.9340029205916364  0.5332427401806736
  0.3226121919743400  0.4372597775836174  0.4759803020862597
  0.0700370331530002  0.0711283477672792  0.4539650233057777
  0.1433929990174671  0.2684610762366316  0.4941943329208575
  0.4077605681628524  0.2322275363912572  0.4613440053060902
  0.3674950486423451  0.7446695034434483  0.4661812927574453
  0.1059721151942118  0.7698371245699284  0.5073225634276917
  0.9994672096543752  0.5979894557120486  0.5618764414118942
  0.7138449276293723  0.8888179260947416  0.4499898998671825
  0.5422830096203112  0.4089861921924314  0.4719011944697711
  0.7794283654672373  0.0751356828255807  0.5454172287933526
  0.6815485937529789  0.5631317010811480  0.5490461208946950
  0.9266564184163476  0.9314067158322200  0.4776693346053288
  0.8328601561053991  0.4268094887652438  0.5574819735700300
  0.5697569004196718  0.0638585141668046  0.5024845775464635
  0.6500561705196746  0.2510738872882898  0.5613183355862102
  0.8861667626417321  0.2439754293179557  0.4777516222568481
  0.8495560857204005  0.7246269763321284  0.4849877172235994
  0.6027061300358201  0.7654168437911023  0.5615820103819374
  0.4220707985015750  0.3380463621978391  0.6071357723789765
 
  0.00000000E+00  0.00000000E+00  0.00000000E+00
  0.00000000E+00  0.00000000E+00  0.00000000E+00
  0.00000000E+00  0.00000000E+00  0.00000000E+00
  0.00000000E+00  0.00000000E+00  0.00000000E+00
  0.00000000E+00  0.00000000E+00  0.00000000E+00
  0.00000000E+00  0.00000000E+00  0.00000000E+00
  0.00000000E+00  0.00000000E+00  0.00000000E+00
  0.00000000E+00  0.00000000E+00  0.00000000E+00
  0.00000000E+00  0.00000000E+00  0.00000000E+00
  0.00000000E+00  0.00000000E+00  0.00000000E+00
  0.00000000E+00  0.00000000E+00  0.00000000E+00
  0.00000000E+00  0.00000000E+00  0.00000000E+00
  0.00000000E+00  0.00000000E+00  0.00000000E+00
  0.00000000E+00  0.00000000E+00  0.00000000E+00
  0.00000000E+00  0.00000000E+00  0.00000000E+00
  0.00000000E+00  0.00000000E+00  0.00000000E+00
  0.00000000E+00  0.00000000E+00  0.00000000E+00
  0.00000000E+00  0.00000000E+00  0.00000000E+00
  0.00000000E+00  0.00000000E+00  0.00000000E+00
  0.00000000E+00  0.00000000E+00  0.00000000E+00
  0.00000000E+00  0.00000000E+00  0.00000000E+00
  0.00000000E+00  0.00000000E+00  0.00000000E+00
  0.00000000E+00  0.00000000E+00  0.00000000E+00
  0.00000000E+00  0.00000000E+00  0.00000000E+00
  0.00000000E+00  0.00000000E+00  0.00000000E+00
  0.00000000E+00  0.00000000E+00  0.00000000E+00
  0.00000000E+00  0.00000000E+00  0.00000000E+00
  0.00000000E+00  0.00000000E+00  0.00000000E+00
  0.00000000E+00  0.00000000E+00  0.00000000E+00
  0.00000000E+00  0.00000000E+00  0.00000000E+00
  0.00000000E+00  0.00000000E+00  0.00000000E+00
  0.00000000E+00  0.00000000E+00  0.00000000E+00
  0.00000000E+00  0.00000000E+00  0.00000000E+00
  0.00000000E+00  0.00000000E+00  0.00000000E+00
  0.00000000E+00  0.00000000E+00  0.00000000E+00
  0.00000000E+00  0.00000000E+00  0.00000000E+00
  0.00000000E+00  0.00000000E+00  0.00000000E+00
  0.00000000E+00  0.00000000E+00  0.00000000E+00
  0.00000000E+00  0.00000000E+00  0.00000000E+00
  0.00000000E+00  0.00000000E+00  0.00000000E+00
  0.00000000E+00  0.00000000E+00  0.00000000E+00
