 Li1 Cu2 C2 O6                          
   1.00000000000000     
     4.5824601720609426    0.0000000000000000    0.0000000000000000
     2.2832400771248369    4.3443895335922651    0.0000000000000000
     0.0000000000000000    0.0000000000000000   18.5630653109100017
   Li   Cu   C    O 
     1     2     2     6
Direct
  0.6417718162153108  0.1622790461065122  0.4893830670318380
  0.3423943006756502  0.8183957663425048  0.5757691615008653
  0.9486533178723846  0.4960187373982521  0.4056788218085927
  0.9895200373663897  0.4664641828168925  0.5667828147923117
  0.3016261140916470  0.8474900490973027  0.4146062165640458
  0.7285990530865973  0.4270479397715192  0.5673270910604273
  0.9566729494627637  0.7432437728339707  0.5701428595108524
  0.2751385693114372  0.2300422116024237  0.5620284722100877
  0.0155949624699687  0.0837562619867853  0.4180349513711406
  0.3350358805357700  0.5699860902218887  0.4125024356838054
  0.5623389989120895  0.8870779418219428  0.4139428446067441
 
  0.00000000E+00  0.00000000E+00  0.00000000E+00
  0.00000000E+00  0.00000000E+00  0.00000000E+00
  0.00000000E+00  0.00000000E+00  0.00000000E+00
  0.00000000E+00  0.00000000E+00  0.00000000E+00
  0.00000000E+00  0.00000000E+00  0.00000000E+00
  0.00000000E+00  0.00000000E+00  0.00000000E+00
  0.00000000E+00  0.00000000E+00  0.00000000E+00
  0.00000000E+00  0.00000000E+00  0.00000000E+00
  0.00000000E+00  0.00000000E+00  0.00000000E+00
  0.00000000E+00  0.00000000E+00  0.00000000E+00
  0.00000000E+00  0.00000000E+00  0.00000000E+00
