G   49   46    1    0.005     # Parameters to Generate KPOINTS (Don't Edit This Line)
    1128
Reciprocal lattice
    0.000000000000    0.000000000000    0.000000000000       1
    0.020408163265    0.000000000000    0.000000000000       2
    0.040816326531    0.000000000000    0.000000000000       2
    0.061224489796    0.000000000000    0.000000000000       2
    0.081632653061    0.000000000000    0.000000000000       2
    0.102040816327    0.000000000000    0.000000000000       2
    0.122448979592    0.000000000000    0.000000000000       2
    0.142857142857    0.000000000000    0.000000000000       2
    0.163265306122    0.000000000000    0.000000000000       2
    0.183673469388    0.000000000000    0.000000000000       2
    0.204081632653    0.000000000000    0.000000000000       2
    0.224489795918    0.000000000000    0.000000000000       2
    0.244897959184    0.000000000000    0.000000000000       2
    0.265306122449    0.000000000000    0.000000000000       2
    0.285714285714    0.000000000000    0.000000000000       2
    0.306122448980    0.000000000000    0.000000000000       2
    0.326530612245    0.000000000000    0.000000000000       2
    0.346938775510    0.000000000000    0.000000000000       2
    0.367346938776    0.000000000000    0.000000000000       2
    0.387755102041    0.000000000000    0.000000000000       2
    0.408163265306    0.000000000000    0.000000000000       2
    0.428571428571    0.000000000000    0.000000000000       2
    0.448979591837    0.000000000000    0.000000000000       2
    0.469387755102    0.000000000000    0.000000000000       2
    0.489795918367    0.000000000000    0.000000000000       2
    0.000000000000    0.021739130435    0.000000000000       2
    0.020408163265    0.021739130435    0.000000000000       2
    0.040816326531    0.021739130435    0.000000000000       2
    0.061224489796    0.021739130435    0.000000000000       2
    0.081632653061    0.021739130435    0.000000000000       2
    0.102040816327    0.021739130435    0.000000000000       2
    0.122448979592    0.021739130435    0.000000000000       2
    0.142857142857    0.021739130435    0.000000000000       2
    0.163265306122    0.021739130435    0.000000000000       2
    0.183673469388    0.021739130435    0.000000000000       2
    0.204081632653    0.021739130435    0.000000000000       2
    0.224489795918    0.021739130435    0.000000000000       2
    0.244897959184    0.021739130435    0.000000000000       2
    0.265306122449    0.021739130435    0.000000000000       2
    0.285714285714    0.021739130435    0.000000000000       2
    0.306122448980    0.021739130435    0.000000000000       2
    0.326530612245    0.021739130435    0.000000000000       2
    0.346938775510    0.021739130435    0.000000000000       2
    0.367346938776    0.021739130435    0.000000000000       2
    0.387755102041    0.021739130435    0.000000000000       2
    0.408163265306    0.021739130435    0.000000000000       2
    0.428571428571    0.021739130435    0.000000000000       2
    0.448979591837    0.021739130435    0.000000000000       2
    0.469387755102    0.021739130435    0.000000000000       2
    0.489795918367    0.021739130435    0.000000000000       2
   -0.489795918367    0.021739130435    0.000000000000       2
   -0.469387755102    0.021739130435    0.000000000000       2
   -0.448979591837    0.021739130435    0.000000000000       2
   -0.428571428571    0.021739130435    0.000000000000       2
   -0.408163265306    0.021739130435    0.000000000000       2
   -0.387755102041    0.021739130435    0.000000000000       2
   -0.367346938776    0.021739130435    0.000000000000       2
   -0.346938775510    0.021739130435    0.000000000000       2
   -0.326530612245    0.021739130435    0.000000000000       2
   -0.306122448980    0.021739130435    0.000000000000       2
   -0.285714285714    0.021739130435    0.000000000000       2
   -0.265306122449    0.021739130435    0.000000000000       2
   -0.244897959184    0.021739130435    0.000000000000       2
   -0.224489795918    0.021739130435    0.000000000000       2
   -0.204081632653    0.021739130435    0.000000000000       2
   -0.183673469388    0.021739130435    0.000000000000       2
   -0.163265306122    0.021739130435    0.000000000000       2
   -0.142857142857    0.021739130435    0.000000000000       2
   -0.122448979592    0.021739130435    0.000000000000       2
   -0.102040816327    0.021739130435    0.000000000000       2
   -0.081632653061    0.021739130435    0.000000000000       2
   -0.061224489796    0.021739130435    0.000000000000       2
   -0.040816326531    0.021739130435    0.000000000000       2
   -0.020408163265    0.021739130435    0.000000000000       2
    0.000000000000    0.043478260870    0.000000000000       2
    0.020408163265    0.043478260870    0.000000000000       2
    0.040816326531    0.043478260870    0.000000000000       2
    0.061224489796    0.043478260870    0.000000000000       2
    0.081632653061    0.043478260870    0.000000000000       2
    0.102040816327    0.043478260870    0.000000000000       2
    0.122448979592    0.043478260870    0.000000000000       2
    0.142857142857    0.043478260870    0.000000000000       2
    0.163265306122    0.043478260870    0.000000000000       2
    0.183673469388    0.043478260870    0.000000000000       2
    0.204081632653    0.043478260870    0.000000000000       2
    0.224489795918    0.043478260870    0.000000000000       2
    0.244897959184    0.043478260870    0.000000000000       2
    0.265306122449    0.043478260870    0.000000000000       2
    0.285714285714    0.043478260870    0.000000000000       2
    0.306122448980    0.043478260870    0.000000000000       2
    0.326530612245    0.043478260870    0.000000000000       2
    0.346938775510    0.043478260870    0.000000000000       2
    0.367346938776    0.043478260870    0.000000000000       2
    0.387755102041    0.043478260870    0.000000000000       2
    0.408163265306    0.043478260870    0.000000000000       2
    0.428571428571    0.043478260870    0.000000000000       2
    0.448979591837    0.043478260870    0.000000000000       2
    0.469387755102    0.043478260870    0.000000000000       2
    0.489795918367    0.043478260870    0.000000000000       2
   -0.489795918367    0.043478260870    0.000000000000       2
   -0.469387755102    0.043478260870    0.000000000000       2
   -0.448979591837    0.043478260870    0.000000000000       2
   -0.428571428571    0.043478260870    0.000000000000       2
   -0.408163265306    0.043478260870    0.000000000000       2
   -0.387755102041    0.043478260870    0.000000000000       2
   -0.367346938776    0.043478260870    0.000000000000       2
   -0.346938775510    0.043478260870    0.000000000000       2
   -0.326530612245    0.043478260870    0.000000000000       2
   -0.306122448980    0.043478260870    0.000000000000       2
   -0.285714285714    0.043478260870    0.000000000000       2
   -0.265306122449    0.043478260870    0.000000000000       2
   -0.244897959184    0.043478260870    0.000000000000       2
   -0.224489795918    0.043478260870    0.000000000000       2
   -0.204081632653    0.043478260870    0.000000000000       2
   -0.183673469388    0.043478260870    0.000000000000       2
   -0.163265306122    0.043478260870    0.000000000000       2
   -0.142857142857    0.043478260870    0.000000000000       2
   -0.122448979592    0.043478260870    0.000000000000       2
   -0.102040816327    0.043478260870    0.000000000000       2
   -0.081632653061    0.043478260870    0.000000000000       2
   -0.061224489796    0.043478260870    0.000000000000       2
   -0.040816326531    0.043478260870    0.000000000000       2
   -0.020408163265    0.043478260870    0.000000000000       2
    0.000000000000    0.065217391304    0.000000000000       2
    0.020408163265    0.065217391304    0.000000000000       2
    0.040816326531    0.065217391304    0.000000000000       2
    0.061224489796    0.065217391304    0.000000000000       2
    0.081632653061    0.065217391304    0.000000000000       2
    0.102040816327    0.065217391304    0.000000000000       2
    0.122448979592    0.065217391304    0.000000000000       2
    0.142857142857    0.065217391304    0.000000000000       2
    0.163265306122    0.065217391304    0.000000000000       2
    0.183673469388    0.065217391304    0.000000000000       2
    0.204081632653    0.065217391304    0.000000000000       2
    0.224489795918    0.065217391304    0.000000000000       2
    0.244897959184    0.065217391304    0.000000000000       2
    0.265306122449    0.065217391304    0.000000000000       2
    0.285714285714    0.065217391304    0.000000000000       2
    0.306122448980    0.065217391304    0.000000000000       2
    0.326530612245    0.065217391304    0.000000000000       2
    0.346938775510    0.065217391304    0.000000000000       2
    0.367346938776    0.065217391304    0.000000000000       2
    0.387755102041    0.065217391304    0.000000000000       2
    0.408163265306    0.065217391304    0.000000000000       2
    0.428571428571    0.065217391304    0.000000000000       2
    0.448979591837    0.065217391304    0.000000000000       2
    0.469387755102    0.065217391304    0.000000000000       2
    0.489795918367    0.065217391304    0.000000000000       2
   -0.489795918367    0.065217391304    0.000000000000       2
   -0.469387755102    0.065217391304    0.000000000000       2
   -0.448979591837    0.065217391304    0.000000000000       2
   -0.428571428571    0.065217391304    0.000000000000       2
   -0.408163265306    0.065217391304    0.000000000000       2
   -0.387755102041    0.065217391304    0.000000000000       2
   -0.367346938776    0.065217391304    0.000000000000       2
   -0.346938775510    0.065217391304    0.000000000000       2
   -0.326530612245    0.065217391304    0.000000000000       2
   -0.306122448980    0.065217391304    0.000000000000       2
   -0.285714285714    0.065217391304    0.000000000000       2
   -0.265306122449    0.065217391304    0.000000000000       2
   -0.244897959184    0.065217391304    0.000000000000       2
   -0.224489795918    0.065217391304    0.000000000000       2
   -0.204081632653    0.065217391304    0.000000000000       2
   -0.183673469388    0.065217391304    0.000000000000       2
   -0.163265306122    0.065217391304    0.000000000000       2
   -0.142857142857    0.065217391304    0.000000000000       2
   -0.122448979592    0.065217391304    0.000000000000       2
   -0.102040816327    0.065217391304    0.000000000000       2
   -0.081632653061    0.065217391304    0.000000000000       2
   -0.061224489796    0.065217391304    0.000000000000       2
   -0.040816326531    0.065217391304    0.000000000000       2
   -0.020408163265    0.065217391304    0.000000000000       2
    0.000000000000    0.086956521739    0.000000000000       2
    0.020408163265    0.086956521739    0.000000000000       2
    0.040816326531    0.086956521739    0.000000000000       2
    0.061224489796    0.086956521739    0.000000000000       2
    0.081632653061    0.086956521739    0.000000000000       2
    0.102040816327    0.086956521739    0.000000000000       2
    0.122448979592    0.086956521739    0.000000000000       2
    0.142857142857    0.086956521739    0.000000000000       2
    0.163265306122    0.086956521739    0.000000000000       2
    0.183673469388    0.086956521739    0.000000000000       2
    0.204081632653    0.086956521739    0.000000000000       2
    0.224489795918    0.086956521739    0.000000000000       2
    0.244897959184    0.086956521739    0.000000000000       2
    0.265306122449    0.086956521739    0.000000000000       2
    0.285714285714    0.086956521739    0.000000000000       2
    0.306122448980    0.086956521739    0.000000000000       2
    0.326530612245    0.086956521739    0.000000000000       2
    0.346938775510    0.086956521739    0.000000000000       2
    0.367346938776    0.086956521739    0.000000000000       2
    0.387755102041    0.086956521739    0.000000000000       2
    0.408163265306    0.086956521739    0.000000000000       2
    0.428571428571    0.086956521739    0.000000000000       2
    0.448979591837    0.086956521739    0.000000000000       2
    0.469387755102    0.086956521739    0.000000000000       2
    0.489795918367    0.086956521739    0.000000000000       2
   -0.489795918367    0.086956521739    0.000000000000       2
   -0.469387755102    0.086956521739    0.000000000000       2
   -0.448979591837    0.086956521739    0.000000000000       2
   -0.428571428571    0.086956521739    0.000000000000       2
   -0.408163265306    0.086956521739    0.000000000000       2
   -0.387755102041    0.086956521739    0.000000000000       2
   -0.367346938776    0.086956521739    0.000000000000       2
   -0.346938775510    0.086956521739    0.000000000000       2
   -0.326530612245    0.086956521739    0.000000000000       2
   -0.306122448980    0.086956521739    0.000000000000       2
   -0.285714285714    0.086956521739    0.000000000000       2
   -0.265306122449    0.086956521739    0.000000000000       2
   -0.244897959184    0.086956521739    0.000000000000       2
   -0.224489795918    0.086956521739    0.000000000000       2
   -0.204081632653    0.086956521739    0.000000000000       2
   -0.183673469388    0.086956521739    0.000000000000       2
   -0.163265306122    0.086956521739    0.000000000000       2
   -0.142857142857    0.086956521739    0.000000000000       2
   -0.122448979592    0.086956521739    0.000000000000       2
   -0.102040816327    0.086956521739    0.000000000000       2
   -0.081632653061    0.086956521739    0.000000000000       2
   -0.061224489796    0.086956521739    0.000000000000       2
   -0.040816326531    0.086956521739    0.000000000000       2
   -0.020408163265    0.086956521739    0.000000000000       2
    0.000000000000    0.108695652174    0.000000000000       2
    0.020408163265    0.108695652174    0.000000000000       2
    0.040816326531    0.108695652174    0.000000000000       2
    0.061224489796    0.108695652174    0.000000000000       2
    0.081632653061    0.108695652174    0.000000000000       2
    0.102040816327    0.108695652174    0.000000000000       2
    0.122448979592    0.108695652174    0.000000000000       2
    0.142857142857    0.108695652174    0.000000000000       2
    0.163265306122    0.108695652174    0.000000000000       2
    0.183673469388    0.108695652174    0.000000000000       2
    0.204081632653    0.108695652174    0.000000000000       2
    0.224489795918    0.108695652174    0.000000000000       2
    0.244897959184    0.108695652174    0.000000000000       2
    0.265306122449    0.108695652174    0.000000000000       2
    0.285714285714    0.108695652174    0.000000000000       2
    0.306122448980    0.108695652174    0.000000000000       2
    0.326530612245    0.108695652174    0.000000000000       2
    0.346938775510    0.108695652174    0.000000000000       2
    0.367346938776    0.108695652174    0.000000000000       2
    0.387755102041    0.108695652174    0.000000000000       2
    0.408163265306    0.108695652174    0.000000000000       2
    0.428571428571    0.108695652174    0.000000000000       2
    0.448979591837    0.108695652174    0.000000000000       2
    0.469387755102    0.108695652174    0.000000000000       2
    0.489795918367    0.108695652174    0.000000000000       2
   -0.489795918367    0.108695652174    0.000000000000       2
   -0.469387755102    0.108695652174    0.000000000000       2
   -0.448979591837    0.108695652174    0.000000000000       2
   -0.428571428571    0.108695652174    0.000000000000       2
   -0.408163265306    0.108695652174    0.000000000000       2
   -0.387755102041    0.108695652174    0.000000000000       2
   -0.367346938776    0.108695652174    0.000000000000       2
   -0.346938775510    0.108695652174    0.000000000000       2
   -0.326530612245    0.108695652174    0.000000000000       2
   -0.306122448980    0.108695652174    0.000000000000       2
   -0.285714285714    0.108695652174    0.000000000000       2
   -0.265306122449    0.108695652174    0.000000000000       2
   -0.244897959184    0.108695652174    0.000000000000       2
   -0.224489795918    0.108695652174    0.000000000000       2
   -0.204081632653    0.108695652174    0.000000000000       2
   -0.183673469388    0.108695652174    0.000000000000       2
   -0.163265306122    0.108695652174    0.000000000000       2
   -0.142857142857    0.108695652174    0.000000000000       2
   -0.122448979592    0.108695652174    0.000000000000       2
   -0.102040816327    0.108695652174    0.000000000000       2
   -0.081632653061    0.108695652174    0.000000000000       2
   -0.061224489796    0.108695652174    0.000000000000       2
   -0.040816326531    0.108695652174    0.000000000000       2
   -0.020408163265    0.108695652174    0.000000000000       2
    0.000000000000    0.130434782609    0.000000000000       2
    0.020408163265    0.130434782609    0.000000000000       2
    0.040816326531    0.130434782609    0.000000000000       2
    0.061224489796    0.130434782609    0.000000000000       2
    0.081632653061    0.130434782609    0.000000000000       2
    0.102040816327    0.130434782609    0.000000000000       2
    0.122448979592    0.130434782609    0.000000000000       2
    0.142857142857    0.130434782609    0.000000000000       2
    0.163265306122    0.130434782609    0.000000000000       2
    0.183673469388    0.130434782609    0.000000000000       2
    0.204081632653    0.130434782609    0.000000000000       2
    0.224489795918    0.130434782609    0.000000000000       2
    0.244897959184    0.130434782609    0.000000000000       2
    0.265306122449    0.130434782609    0.000000000000       2
    0.285714285714    0.130434782609    0.000000000000       2
    0.306122448980    0.130434782609    0.000000000000       2
    0.326530612245    0.130434782609    0.000000000000       2
    0.346938775510    0.130434782609    0.000000000000       2
    0.367346938776    0.130434782609    0.000000000000       2
    0.387755102041    0.130434782609    0.000000000000       2
    0.408163265306    0.130434782609    0.000000000000       2
    0.428571428571    0.130434782609    0.000000000000       2
    0.448979591837    0.130434782609    0.000000000000       2
    0.469387755102    0.130434782609    0.000000000000       2
    0.489795918367    0.130434782609    0.000000000000       2
   -0.489795918367    0.130434782609    0.000000000000       2
   -0.469387755102    0.130434782609    0.000000000000       2
   -0.448979591837    0.130434782609    0.000000000000       2
   -0.428571428571    0.130434782609    0.000000000000       2
   -0.408163265306    0.130434782609    0.000000000000       2
   -0.387755102041    0.130434782609    0.000000000000       2
   -0.367346938776    0.130434782609    0.000000000000       2
   -0.346938775510    0.130434782609    0.000000000000       2
   -0.326530612245    0.130434782609    0.000000000000       2
   -0.306122448980    0.130434782609    0.000000000000       2
   -0.285714285714    0.130434782609    0.000000000000       2
   -0.265306122449    0.130434782609    0.000000000000       2
   -0.244897959184    0.130434782609    0.000000000000       2
   -0.224489795918    0.130434782609    0.000000000000       2
   -0.204081632653    0.130434782609    0.000000000000       2
   -0.183673469388    0.130434782609    0.000000000000       2
   -0.163265306122    0.130434782609    0.000000000000       2
   -0.142857142857    0.130434782609    0.000000000000       2
   -0.122448979592    0.130434782609    0.000000000000       2
   -0.102040816327    0.130434782609    0.000000000000       2
   -0.081632653061    0.130434782609    0.000000000000       2
   -0.061224489796    0.130434782609    0.000000000000       2
   -0.040816326531    0.130434782609    0.000000000000       2
   -0.020408163265    0.130434782609    0.000000000000       2
    0.000000000000    0.152173913043    0.000000000000       2
    0.020408163265    0.152173913043    0.000000000000       2
    0.040816326531    0.152173913043    0.000000000000       2
    0.061224489796    0.152173913043    0.000000000000       2
    0.081632653061    0.152173913043    0.000000000000       2
    0.102040816327    0.152173913043    0.000000000000       2
    0.122448979592    0.152173913043    0.000000000000       2
    0.142857142857    0.152173913043    0.000000000000       2
    0.163265306122    0.152173913043    0.000000000000       2
    0.183673469388    0.152173913043    0.000000000000       2
    0.204081632653    0.152173913043    0.000000000000       2
    0.224489795918    0.152173913043    0.000000000000       2
    0.244897959184    0.152173913043    0.000000000000       2
    0.265306122449    0.152173913043    0.000000000000       2
    0.285714285714    0.152173913043    0.000000000000       2
    0.306122448980    0.152173913043    0.000000000000       2
    0.326530612245    0.152173913043    0.000000000000       2
    0.346938775510    0.152173913043    0.000000000000       2
    0.367346938776    0.152173913043    0.000000000000       2
    0.387755102041    0.152173913043    0.000000000000       2
    0.408163265306    0.152173913043    0.000000000000       2
    0.428571428571    0.152173913043    0.000000000000       2
    0.448979591837    0.152173913043    0.000000000000       2
    0.469387755102    0.152173913043    0.000000000000       2
    0.489795918367    0.152173913043    0.000000000000       2
   -0.489795918367    0.152173913043    0.000000000000       2
   -0.469387755102    0.152173913043    0.000000000000       2
   -0.448979591837    0.152173913043    0.000000000000       2
   -0.428571428571    0.152173913043    0.000000000000       2
   -0.408163265306    0.152173913043    0.000000000000       2
   -0.387755102041    0.152173913043    0.000000000000       2
   -0.367346938776    0.152173913043    0.000000000000       2
   -0.346938775510    0.152173913043    0.000000000000       2
   -0.326530612245    0.152173913043    0.000000000000       2
   -0.306122448980    0.152173913043    0.000000000000       2
   -0.285714285714    0.152173913043    0.000000000000       2
   -0.265306122449    0.152173913043    0.000000000000       2
   -0.244897959184    0.152173913043    0.000000000000       2
   -0.224489795918    0.152173913043    0.000000000000       2
   -0.204081632653    0.152173913043    0.000000000000       2
   -0.183673469388    0.152173913043    0.000000000000       2
   -0.163265306122    0.152173913043    0.000000000000       2
   -0.142857142857    0.152173913043    0.000000000000       2
   -0.122448979592    0.152173913043    0.000000000000       2
   -0.102040816327    0.152173913043    0.000000000000       2
   -0.081632653061    0.152173913043    0.000000000000       2
   -0.061224489796    0.152173913043    0.000000000000       2
   -0.040816326531    0.152173913043    0.000000000000       2
   -0.020408163265    0.152173913043    0.000000000000       2
    0.000000000000    0.173913043478    0.000000000000       2
    0.020408163265    0.173913043478    0.000000000000       2
    0.040816326531    0.173913043478    0.000000000000       2
    0.061224489796    0.173913043478    0.000000000000       2
    0.081632653061    0.173913043478    0.000000000000       2
    0.102040816327    0.173913043478    0.000000000000       2
    0.122448979592    0.173913043478    0.000000000000       2
    0.142857142857    0.173913043478    0.000000000000       2
    0.163265306122    0.173913043478    0.000000000000       2
    0.183673469388    0.173913043478    0.000000000000       2
    0.204081632653    0.173913043478    0.000000000000       2
    0.224489795918    0.173913043478    0.000000000000       2
    0.244897959184    0.173913043478    0.000000000000       2
    0.265306122449    0.173913043478    0.000000000000       2
    0.285714285714    0.173913043478    0.000000000000       2
    0.306122448980    0.173913043478    0.000000000000       2
    0.326530612245    0.173913043478    0.000000000000       2
    0.346938775510    0.173913043478    0.000000000000       2
    0.367346938776    0.173913043478    0.000000000000       2
    0.387755102041    0.173913043478    0.000000000000       2
    0.408163265306    0.173913043478    0.000000000000       2
    0.428571428571    0.173913043478    0.000000000000       2
    0.448979591837    0.173913043478    0.000000000000       2
    0.469387755102    0.173913043478    0.000000000000       2
    0.489795918367    0.173913043478    0.000000000000       2
   -0.489795918367    0.173913043478    0.000000000000       2
   -0.469387755102    0.173913043478    0.000000000000       2
   -0.448979591837    0.173913043478    0.000000000000       2
   -0.428571428571    0.173913043478    0.000000000000       2
   -0.408163265306    0.173913043478    0.000000000000       2
   -0.387755102041    0.173913043478    0.000000000000       2
   -0.367346938776    0.173913043478    0.000000000000       2
   -0.346938775510    0.173913043478    0.000000000000       2
   -0.326530612245    0.173913043478    0.000000000000       2
   -0.306122448980    0.173913043478    0.000000000000       2
   -0.285714285714    0.173913043478    0.000000000000       2
   -0.265306122449    0.173913043478    0.000000000000       2
   -0.244897959184    0.173913043478    0.000000000000       2
   -0.224489795918    0.173913043478    0.000000000000       2
   -0.204081632653    0.173913043478    0.000000000000       2
   -0.183673469388    0.173913043478    0.000000000000       2
   -0.163265306122    0.173913043478    0.000000000000       2
   -0.142857142857    0.173913043478    0.000000000000       2
   -0.122448979592    0.173913043478    0.000000000000       2
   -0.102040816327    0.173913043478    0.000000000000       2
   -0.081632653061    0.173913043478    0.000000000000       2
   -0.061224489796    0.173913043478    0.000000000000       2
   -0.040816326531    0.173913043478    0.000000000000       2
   -0.020408163265    0.173913043478    0.000000000000       2
    0.000000000000    0.195652173913    0.000000000000       2
    0.020408163265    0.195652173913    0.000000000000       2
    0.040816326531    0.195652173913    0.000000000000       2
    0.061224489796    0.195652173913    0.000000000000       2
    0.081632653061    0.195652173913    0.000000000000       2
    0.102040816327    0.195652173913    0.000000000000       2
    0.122448979592    0.195652173913    0.000000000000       2
    0.142857142857    0.195652173913    0.000000000000       2
    0.163265306122    0.195652173913    0.000000000000       2
    0.183673469388    0.195652173913    0.000000000000       2
    0.204081632653    0.195652173913    0.000000000000       2
    0.224489795918    0.195652173913    0.000000000000       2
    0.244897959184    0.195652173913    0.000000000000       2
    0.265306122449    0.195652173913    0.000000000000       2
    0.285714285714    0.195652173913    0.000000000000       2
    0.306122448980    0.195652173913    0.000000000000       2
    0.326530612245    0.195652173913    0.000000000000       2
    0.346938775510    0.195652173913    0.000000000000       2
    0.367346938776    0.195652173913    0.000000000000       2
    0.387755102041    0.195652173913    0.000000000000       2
    0.408163265306    0.195652173913    0.000000000000       2
    0.428571428571    0.195652173913    0.000000000000       2
    0.448979591837    0.195652173913    0.000000000000       2
    0.469387755102    0.195652173913    0.000000000000       2
    0.489795918367    0.195652173913    0.000000000000       2
   -0.489795918367    0.195652173913    0.000000000000       2
   -0.469387755102    0.195652173913    0.000000000000       2
   -0.448979591837    0.195652173913    0.000000000000       2
   -0.428571428571    0.195652173913    0.000000000000       2
   -0.408163265306    0.195652173913    0.000000000000       2
   -0.387755102041    0.195652173913    0.000000000000       2
   -0.367346938776    0.195652173913    0.000000000000       2
   -0.346938775510    0.195652173913    0.000000000000       2
   -0.326530612245    0.195652173913    0.000000000000       2
   -0.306122448980    0.195652173913    0.000000000000       2
   -0.285714285714    0.195652173913    0.000000000000       2
   -0.265306122449    0.195652173913    0.000000000000       2
   -0.244897959184    0.195652173913    0.000000000000       2
   -0.224489795918    0.195652173913    0.000000000000       2
   -0.204081632653    0.195652173913    0.000000000000       2
   -0.183673469388    0.195652173913    0.000000000000       2
   -0.163265306122    0.195652173913    0.000000000000       2
   -0.142857142857    0.195652173913    0.000000000000       2
   -0.122448979592    0.195652173913    0.000000000000       2
   -0.102040816327    0.195652173913    0.000000000000       2
   -0.081632653061    0.195652173913    0.000000000000       2
   -0.061224489796    0.195652173913    0.000000000000       2
   -0.040816326531    0.195652173913    0.000000000000       2
   -0.020408163265    0.195652173913    0.000000000000       2
    0.000000000000    0.217391304348    0.000000000000       2
    0.020408163265    0.217391304348    0.000000000000       2
    0.040816326531    0.217391304348    0.000000000000       2
    0.061224489796    0.217391304348    0.000000000000       2
    0.081632653061    0.217391304348    0.000000000000       2
    0.102040816327    0.217391304348    0.000000000000       2
    0.122448979592    0.217391304348    0.000000000000       2
    0.142857142857    0.217391304348    0.000000000000       2