CONTCAR\(6)                             
   1.00000000000000     
    13.0729999542000002    0.0000000000000000    0.0000000000000000
    -6.5364999771000001   11.3215500640000002    0.0000000000000000
     0.0000000000000000    0.0000000000000000   17.9953994751000010
   Ti   Cl
    16    32
Direct
 -0.0000000000000000 -0.0000000000000000  0.5000000000000000
  0.2500000000000000 -0.0000000000000000  0.5000000000000000
  0.5000000000000000 -0.0000000000000000  0.5000000000000000
  0.7500000360000030 -0.0000000000000000  0.5000000000000000
  0.0000000029999967  0.2500000069999970  0.5000000000000000
  0.2500000029999967  0.2500000069999970  0.5000000000000000
  0.5000000220000018  0.2500000069999970  0.5000000000000000
  0.7500000579999977  0.2500000069999970  0.5000000000000000
  0.0000000069999970  0.5000000129999975  0.5000000000000000
  0.2500000069999970  0.5000000129999975  0.5000000000000000
  0.5000000069999970  0.5000000129999975  0.5000000000000000
  0.7500000430000000  0.5000000129999975  0.5000000000000000
  0.0000000129999975  0.7500000619999980  0.5000000000000000
  0.2500000129999975  0.7500000619999980  0.5000000000000000
  0.5000000129999975  0.7500000619999980  0.5000000000000000
  0.7500000490000005  0.7500000619999980  0.5000000000000000
  0.1666699969999996  0.0833299999999966  0.5889356357257464
  0.0833300039999969  0.1666700019999965  0.4110643642742536
  0.4166699789999981  0.0833299999999966  0.5889356357257464
  0.3333300039999969  0.1666700019999965  0.4110643642742536
  0.6666700150000011  0.0833299999999966  0.5889356357257464
  0.5833299669999974  0.1666700019999965  0.4110643642742536
  0.9166700520000006  0.0833299999999966  0.5889356357257464
  0.8333300039999969  0.1666700019999965  0.4110643642742536
  0.1666700079999970  0.3333300219999984  0.5889356357257464
  0.0833300130000012  0.4166700190000014  0.4110643642742536
  0.4166700079999970  0.3333300219999984  0.5889356357257464
  0.3333300130000012  0.4166700190000014  0.4110643642742536
  0.6666700079999970  0.3333300219999984  0.5889356357257464
  0.5833299940000032  0.4166700190000014  0.4110643642742536
  0.9166700079999970  0.3333300219999984  0.5889356357257464
  0.8333300310000027  0.4166700190000014  0.4110643642742536
  0.1666700190000014  0.5833300079999972  0.5889356357257464
  0.0833300159999979  0.6666700259999985  0.4110643642742536
  0.4166700190000014  0.5833300079999972  0.5889356357257464
  0.3333300159999979  0.6666700259999985  0.4110643642742536
  0.6666700190000014  0.5833300079999972  0.5889356357257464
  0.5833299789999984  0.6666700259999985  0.4110643642742536
  0.9166700190000014  0.5833300079999972  0.5889356357257464
  0.8333300159999979  0.6666700259999985  0.4110643642742536
  0.1666700039999967  0.8333300139999977  0.5889356357257464
  0.0833300219999984  0.9166700749999990  0.4110643642742536
  0.4166700039999967  0.8333300139999977  0.5889356357257464
  0.3333300219999984  0.9166700749999990  0.4110643642742536
  0.6666700039999967  0.8333300139999977  0.5889356357257464
  0.5833299860000025  0.9166700749999990  0.4110643642742536
  0.9166700410000033  0.8333300139999977  0.5889356357257464
  0.8333300219999984  0.9166700749999990  0.4110643642742536
 
  0.00000000E+00  0.00000000E+00  0.00000000E+00
  0.00000000E+00  0.00000000E+00  0.00000000E+00
  0.00000000E+00  0.00000000E+00  0.00000000E+00
  0.00000000E+00  0.00000000E+00  0.00000000E+00
  0.00000000E+00  0.00000000E+00  0.00000000E+00
  0.00000000E+00  0.00000000E+00  0.00000000E+00
  0.00000000E+00  0.00000000E+00  0.00000000E+00
  0.00000000E+00  0.00000000E+00  0.00000000E+00
  0.00000000E+00  0.00000000E+00  0.00000000E+00
  0.00000000E+00  0.00000000E+00  0.00000000E+00
  0.00000000E+00  0.00000000E+00  0.00000000E+00
  0.00000000E+00  0.00000000E+00  0.00000000E+00
  0.00000000E+00  0.00000000E+00  0.00000000E+00
  0.00000000E+00  0.00000000E+00  0.00000000E+00
  0.00000000E+00  0.00000000E+00  0.00000000E+00
  0.00000000E+00  0.00000000E+00  0.00000000E+00
  0.00000000E+00  0.00000000E+00  0.00000000E+00
  0.00000000E+00  0.00000000E+00  0.00000000E+00
  0.00000000E+00  0.00000000E+00  0.00000000E+00
  0.00000000E+00  0.00000000E+00  0.00000000E+00
  0.00000000E+00  0.00000000E+00  0.00000000E+00
  0.00000000E+00  0.00000000E+00  0.00000000E+00
  0.00000000E+00  0.00000000E+00  0.00000000E+00
  0.00000000E+00  0.00000000E+00  0.00000000E+00
  0.00000000E+00  0.00000000E+00  0.00000000E+00
  0.00000000E+00  0.00000000E+00  0.00000000E+00
  0.00000000E+00  0.00000000E+00  0.00000000E+00
  0.00000000E+00  0.00000000E+00  0.00000000E+00
  0.00000000E+00  0.00000000E+00  0.00000000E+00
  0.00000000E+00  0.00000000E+00  0.00000000E+00
  0.00000000E+00  0.00000000E+00  0.00000000E+00
  0.00000000E+00  0.00000000E+00  0.00000000E+00
  0.00000000E+00  0.00000000E+00  0.00000000E+00
  0.00000000E+00  0.00000000E+00  0.00000000E+00
  0.00000000E+00  0.00000000E+00  0.00000000E+00
  0.00000000E+00  0.00000000E+00  0.00000000E+00
  0.00000000E+00  0.00000000E+00  0.00000000E+00
  0.00000000E+00  0.00000000E+00  0.00000000E+00
  0.00000000E+00  0.00000000E+00  0.00000000E+00
  0.00000000E+00  0.00000000E+00  0.00000000E+00
  0.00000000E+00  0.00000000E+00  0.00000000E+00
  0.00000000E+00  0.00000000E+00  0.00000000E+00
  0.00000000E+00  0.00000000E+00  0.00000000E+00
  0.00000000E+00  0.00000000E+00  0.00000000E+00
  0.00000000E+00  0.00000000E+00  0.00000000E+00
  0.00000000E+00  0.00000000E+00  0.00000000E+00
  0.00000000E+00  0.00000000E+00  0.00000000E+00
  0.00000000E+00  0.00000000E+00  0.00000000E+00
