CONTCAR\(2)                             
   1.00000000000000     
    11.6243000031000001    0.0000000000000000    0.0000000000000000
     5.8121268334999998   10.8927857352000004    0.0000000000000000
     0.0000000000000000    0.0000000000000000   21.9750003814999992
   Y    C    I    O 
    18    18    18     1
Direct
  0.1061029012872236  0.1213648923960890  0.4384221550219591
  0.0172043998466492  0.2998042061548088  0.5631733626925761
  0.4392577083452558  0.1218199771096653  0.4378518878869602
  0.3510148381169723  0.2978147100768610  0.5633217214539072
  0.7728662062438075  0.1213644598231283  0.4384027406809858
  0.6827981126820215  0.2998035156444557  0.5632246236825080
  0.1059552531585671  0.4536420479475269  0.4363116694854845
  0.0165401056247733  0.6280780654995108  0.5614568915243507
  0.4402631332242560  0.4536957543928216  0.4362983252399439
  0.3551054294396447  0.6280454366052552  0.5614706694355236
  0.7719288201951648  0.4558715705446773  0.4363964485635624
  0.6839407800267759  0.6319796580878135  0.5628959661709733
  0.1059300210841468  0.7881231027855146  0.4391212249241676
  0.0137933645988438  0.9726752782203391  0.5633070609922215
  0.4386798220236973  0.7885254104263827  0.4377538042685997
  0.3502904451409105  0.9659919976504070  0.5635600873897020
  0.7729307861610066  0.7886617134758717  0.4377839292052718
  0.6840192356880518  0.9659791251788111  0.5635457985229959
  0.2549559166134229  0.1573516252550854  0.5154783889867096
  0.2015943542347207  0.2629678745425101  0.4851834862099989
  0.5879156863298814  0.1574002297204135  0.5154611685258114
  0.5354524332751315  0.2630271880749011  0.4851752094511325
  0.9201978898975386  0.1596810494916530  0.5143713363457854
  0.8668542334285290  0.2661351533258499  0.4848692717589379
  0.2560094364163248  0.4877527430580270  0.5138690456404209
  0.2028216742330192  0.5941099828310112  0.4845792379424517
  0.5891635946842541  0.4899878871835260  0.5143090757001234
  0.5370549918845980  0.5956037739655051  0.4840278293386153
  0.9206905269483706  0.4899737258708659  0.5141886975863790
  0.8671795356303291  0.5957582673855045  0.4840700201276690
  0.2560107726677803  0.8221878972956863  0.5153745876179631
  0.2010777331007193  0.9306717137240562  0.4874308366614828
  0.5883376723727466  0.8234841811892294  0.5149559977889864
  0.5347934994307660  0.9306986980196782  0.4860842073649262
  0.9218740846906194  0.8223230324635291  0.5154509864960035
  0.8685126297192041  0.9307691656853825  0.4874552517378529
  0.1290528635686196  0.0751785099350417  0.6591629299259115
  0.3267188527674977  0.0129454255469099  0.3427710932366042
  0.4626733785195834  0.0743507391970767  0.6590591979604220
  0.6606638133597509  0.0130421889034247  0.3427796961940286
  0.7953959445236065  0.0752897032014618  0.6591554153039260
  0.9941018141662240  0.0121606156201863  0.3432231148862994
  0.1292606586641702  0.4093382481863255  0.6580461998579437
  0.3272646292625392  0.3455383897425930  0.3413035564374783
  0.4607102966990834  0.4094349339504968  0.6580715564428192
  0.6609215963947941  0.3453008712970310  0.3413206600228552
  0.7955328194947745  0.4083988376861735  0.6580004503977835
  0.9937194143769007  0.3453937018716163  0.3413301974195052
  0.1313627705044787  0.7365456359491329  0.6531848393733034
  0.3261725898865762  0.6800250832284100  0.3424617085960882
  0.4616595247544055  0.7398796015613883  0.6580541919812821
  0.6597085134590522  0.6809351879769732  0.3419231251446486
  0.7979296046652861  0.7398959012878956  0.6581316115399547
  0.9939612646046115  0.6800380853479417  0.3424791098287576
  0.1629205508822784  0.6744038034075279  0.7329574410273872
 
  0.00000000E+00  0.00000000E+00  0.00000000E+00
  0.00000000E+00  0.00000000E+00  0.00000000E+00
  0.00000000E+00  0.00000000E+00  0.00000000E+00
  0.00000000E+00  0.00000000E+00  0.00000000E+00
  0.00000000E+00  0.00000000E+00  0.00000000E+00
  0.00000000E+00  0.00000000E+00  0.00000000E+00
  0.00000000E+00  0.00000000E+00  0.00000000E+00
  0.00000000E+00  0.00000000E+00  0.00000000E+00
  0.00000000E+00  0.00000000E+00  0.00000000E+00
  0.00000000E+00  0.00000000E+00  0.00000000E+00
  0.00000000E+00  0.00000000E+00  0.00000000E+00
  0.00000000E+00  0.00000000E+00  0.00000000E+00
  0.00000000E+00  0.00000000E+00  0.00000000E+00
  0.00000000E+00  0.00000000E+00  0.00000000E+00
  0.00000000E+00  0.00000000E+00  0.00000000E+00
  0.00000000E+00  0.00000000E+00  0.00000000E+00
  0.00000000E+00  0.00000000E+00  0.00000000E+00
  0.00000000E+00  0.00000000E+00  0.00000000E+00
  0.00000000E+00  0.00000000E+00  0.00000000E+00
  0.00000000E+00  0.00000000E+00  0.00000000E+00
  0.00000000E+00  0.00000000E+00  0.00000000E+00
  0.00000000E+00  0.00000000E+00  0.00000000E+00
  0.00000000E+00  0.00000000E+00  0.00000000E+00
  0.00000000E+00  0.00000000E+00  0.00000000E+00
  0.00000000E+00  0.00000000E+00  0.00000000E+00
  0.00000000E+00  0.00000000E+00  0.00000000E+00
  0.00000000E+00  0.00000000E+00  0.00000000E+00
  0.00000000E+00  0.00000000E+00  0.00000000E+00
  0.00000000E+00  0.00000000E+00  0.00000000E+00
  0.00000000E+00  0.00000000E+00  0.00000000E+00
  0.00000000E+00  0.00000000E+00  0.00000000E+00
  0.00000000E+00  0.00000000E+00  0.00000000E+00
  0.00000000E+00  0.00000000E+00  0.00000000E+00
  0.00000000E+00  0.00000000E+00  0.00000000E+00
  0.00000000E+00  0.00000000E+00  0.00000000E+00
  0.00000000E+00  0.00000000E+00  0.00000000E+00
  0.00000000E+00  0.00000000E+00  0.00000000E+00
  0.00000000E+00  0.00000000E+00  0.00000000E+00
  0.00000000E+00  0.00000000E+00  0.00000000E+00
  0.00000000E+00  0.00000000E+00  0.00000000E+00
  0.00000000E+00  0.00000000E+00  0.00000000E+00
  0.00000000E+00  0.00000000E+00  0.00000000E+00
  0.00000000E+00  0.00000000E+00  0.00000000E+00
  0.00000000E+00  0.00000000E+00  0.00000000E+00
  0.00000000E+00  0.00000000E+00  0.00000000E+00
  0.00000000E+00  0.00000000E+00  0.00000000E+00
  0.00000000E+00  0.00000000E+00  0.00000000E+00
  0.00000000E+00  0.00000000E+00  0.00000000E+00
  0.00000000E+00  0.00000000E+00  0.00000000E+00
  0.00000000E+00  0.00000000E+00  0.00000000E+00
  0.00000000E+00  0.00000000E+00  0.00000000E+00
  0.00000000E+00  0.00000000E+00  0.00000000E+00
  0.00000000E+00  0.00000000E+00  0.00000000E+00
  0.00000000E+00  0.00000000E+00  0.00000000E+00
  0.00000000E+00  0.00000000E+00  0.00000000E+00
