 Pr1 Re2 O8                             
   1.00000000000000     
     5.8738948071257671    0.0000000000000000    0.0000000000000000
    -2.9369539529669755    5.0866388520226815    0.0000000000000000
     0.0000000000000000    0.0000000000000000   22.3564735717189400
   Pr   Re   O 
     1     2     8
Direct
  0.0012284114561822  0.0005296807202413  0.4999941834687718
  0.3345014757230516  0.6671749406453173  0.4074113722413344
  0.6679325704271761  0.3338995196897443  0.5925836642990987
  0.0856186415917861  0.7278895926369131  0.4365171452706207
  0.6440649603294872  0.9159404585884303  0.4365446033709830
  0.3347196536215975  0.6674350260021100  0.3301921583450991
  0.7287350294818324  0.6436051733327872  0.5635131766433332
  0.2736820496884675  0.3574730554307024  0.4364623459637968
  0.6679227377750721  0.3337789310281138  0.6697989802377293
  0.3582734224168149  0.0850686648297625  0.5634698611198132
  0.9168023775667322  0.2731593746225016  0.5634555233079297
 
  0.00000000E+00  0.00000000E+00  0.00000000E+00
  0.00000000E+00  0.00000000E+00  0.00000000E+00
  0.00000000E+00  0.00000000E+00  0.00000000E+00
  0.00000000E+00  0.00000000E+00  0.00000000E+00
  0.00000000E+00  0.00000000E+00  0.00000000E+00
  0.00000000E+00  0.00000000E+00  0.00000000E+00
  0.00000000E+00  0.00000000E+00  0.00000000E+00
  0.00000000E+00  0.00000000E+00  0.00000000E+00
  0.00000000E+00  0.00000000E+00  0.00000000E+00
  0.00000000E+00  0.00000000E+00  0.00000000E+00
  0.00000000E+00  0.00000000E+00  0.00000000E+00
