CONTCAR\(3)                             
   1.00000000000000     
    12.0853004455999997    0.0000000000000000    0.0000000000000000
     0.0000000000000000   13.7131004332999993    0.0000000000000000
     0.0000000000000000    0.0000000000000000   20.3784999846999995
   Zr   Te   O    H 
     6    30     2     1
Direct
  0.0035030009051195  0.4981865829937902  0.4470100242256472
  0.1694339340878090 -0.0018169838809597  0.5464065414891317
  0.3362882507854285  0.4985621637496950  0.4478721104547775
  0.5022631563838209 -0.0018105203485770  0.5464784602750882
  0.6694583114747387  0.4981999157466973  0.4471500804352433
  0.8359337176419275 -0.0015374237520781  0.5465880983616173
  0.1691322325017128  0.5031032677122549  0.5576720478808873
  0.0026010873609598  0.0028810357068892  0.4364745696116385
  0.1700145661581979  0.5965223303483022  0.3630556078130403
  0.0029355749851820  0.8945523013063416  0.6275198721104098
  0.0027374931426825  0.0970099261415941  0.6301155183217487
  0.1705556734647419  0.3943492495672269  0.3663628552865449
  0.0025899294484535  0.3177938045458194  0.5285416432164657
  0.1694877431668114  0.1847072273972217  0.4710797606592189
  0.1694010301034306  0.8167488574130950  0.4652525003535979
  0.0034071448303413  0.6835720629316290  0.5233107479015008
  0.5033545049495031  0.5025935704434651  0.5580650214790908
  0.3361486126612477  0.0028278407865745  0.4363422267294380
  0.5027751572929888  0.5964576716377401  0.3633627453448646
  0.3357868926254867  0.8941045950243105  0.6279261239631062
  0.3358789877836018  0.0965655627648918  0.6303027401755391
  0.5027640536325542  0.3940442562115064  0.3668024408810748
  0.3348513498109622  0.3182817404063701  0.5294619675257491
  0.5018811743560538  0.1846785440110757  0.4713100603872331
  0.5019105889693980  0.8167231319366072  0.4654246571673524
  0.3356593780256695  0.6839673097199581  0.5233235427461002
  0.8364536911271162  0.5030003959650876  0.5574217631528950
  0.6694646484546216  0.0030039872237088  0.4365792141142923
  0.8363595273742025  0.5969337553536274  0.3634146643703841
  0.6691768509196896  0.8945031336348934  0.6275889506189182
  0.6689103963292543  0.0969102616536124  0.6303232956202640
  0.8365655672439054  0.3945031669537144  0.3663918477967087
  0.6679227157179128  0.3180592585321008  0.5289464393082391
  0.8356311341232269  0.1846678935033323  0.4711208585859858
  0.8358021869095180  0.8170667165042972  0.4658466590461836
  0.6686448052855023  0.6838000081899759  0.5232392514924761
  0.3605111972784849  0.5680601521139514  0.6770121512338586
  0.3349928810677599  0.6601314783300972  0.6998448903576115
  0.3795508856199917  0.6665817495201583  0.7401682345061340
 
  0.00000000E+00  0.00000000E+00  0.00000000E+00
  0.00000000E+00  0.00000000E+00  0.00000000E+00
  0.00000000E+00  0.00000000E+00  0.00000000E+00
  0.00000000E+00  0.00000000E+00  0.00000000E+00
  0.00000000E+00  0.00000000E+00  0.00000000E+00
  0.00000000E+00  0.00000000E+00  0.00000000E+00
  0.00000000E+00  0.00000000E+00  0.00000000E+00
  0.00000000E+00  0.00000000E+00  0.00000000E+00
  0.00000000E+00  0.00000000E+00  0.00000000E+00
  0.00000000E+00  0.00000000E+00  0.00000000E+00
  0.00000000E+00  0.00000000E+00  0.00000000E+00
  0.00000000E+00  0.00000000E+00  0.00000000E+00
  0.00000000E+00  0.00000000E+00  0.00000000E+00
  0.00000000E+00  0.00000000E+00  0.00000000E+00
  0.00000000E+00  0.00000000E+00  0.00000000E+00
  0.00000000E+00  0.00000000E+00  0.00000000E+00
  0.00000000E+00  0.00000000E+00  0.00000000E+00
  0.00000000E+00  0.00000000E+00  0.00000000E+00
  0.00000000E+00  0.00000000E+00  0.00000000E+00
  0.00000000E+00  0.00000000E+00  0.00000000E+00
  0.00000000E+00  0.00000000E+00  0.00000000E+00
  0.00000000E+00  0.00000000E+00  0.00000000E+00
  0.00000000E+00  0.00000000E+00  0.00000000E+00
  0.00000000E+00  0.00000000E+00  0.00000000E+00
  0.00000000E+00  0.00000000E+00  0.00000000E+00
  0.00000000E+00  0.00000000E+00  0.00000000E+00
  0.00000000E+00  0.00000000E+00  0.00000000E+00
  0.00000000E+00  0.00000000E+00  0.00000000E+00
  0.00000000E+00  0.00000000E+00  0.00000000E+00
  0.00000000E+00  0.00000000E+00  0.00000000E+00
  0.00000000E+00  0.00000000E+00  0.00000000E+00
  0.00000000E+00  0.00000000E+00  0.00000000E+00
  0.00000000E+00  0.00000000E+00  0.00000000E+00
  0.00000000E+00  0.00000000E+00  0.00000000E+00
  0.00000000E+00  0.00000000E+00  0.00000000E+00
  0.00000000E+00  0.00000000E+00  0.00000000E+00
  0.00000000E+00  0.00000000E+00  0.00000000E+00
  0.00000000E+00  0.00000000E+00  0.00000000E+00
  0.00000000E+00  0.00000000E+00  0.00000000E+00
