CONTCAR\(5)                             
   1.00000000000000     
    11.2744998931999998    0.0000000000000000    0.0000000000000000
     0.0000000000000000   12.4884996414000007    0.0000000000000000
     0.0000000000000000    0.0000000000000000   19.0002002716000007
   Nb   Te   Ir   O 
     6    24     6     1
Direct
  0.0003515574893029  0.0539392794860873  0.5027307612206116
  0.1651177978019192  0.7328559519099116  0.4989183868258138
  0.3309311936482544  0.0563217108210097  0.5036285485819008
  0.5022747876779334  0.7448796687107020  0.5143009078025074
  0.6693559156981124  0.0575745199714461  0.5029359790045405
  0.8362006544762082  0.7338196458460899  0.4986738931404489
  0.1667895085304849  0.9347494775346163  0.4197068393657801
  0.0000140602891676  0.1965811995859497  0.3973927296091091
  0.9992589846547943  0.3486029112964033  0.5701783538052752
  0.1634478521464402  0.5880697899908185  0.6027038964028364
  0.1646951956090987  0.4394753282951598  0.4275125319407209
  0.0004228254004346  0.6794176081451511  0.3962684618424106
  0.9997939766601434  0.8541467030167098  0.5822895973048290
  0.1649209321981289  0.1112958926833798  0.6046692681684434
  0.5003163059048461  0.9324154058435710  0.4245944460583431
  0.3329928527792276  0.1975683843724312  0.3980088118271254
  0.3304737955554700  0.3436609203138374  0.5715708658161631
  0.4995173632666052  0.5574425174224515  0.6022623133105469
  0.4985445692066861  0.4404768604997713  0.4288377872516946
  0.3431820951576015  0.6852796071492975  0.4046605146510771
  0.3206163032121552  0.8614759705706732  0.5840801593986598
  0.5007493344427445  0.1097606860006621  0.6043789881835835
  0.8342133321282432  0.9357326476299619  0.4192906006350299
  0.6655314930046643  0.1988613670739667  0.3974215942564854
  0.6687415258438989  0.3441515182001140  0.5709166774551306
  0.8339109545716141  0.5885292982690942  0.6021025680463339
  0.8337813029355345  0.4401051413241319  0.4268118281982822
  0.6584700332578350  0.6862670126522374  0.4040073899865604
  0.6794248789756452  0.8639133368421454  0.5834825663165972
  0.8355514228449223  0.1121828278326902  0.6040672154503284
  0.9989081200453427  0.5391588601175741  0.5036998510138204
  0.1648656657308081  0.2474705083445414  0.4948601315180881
  0.3299967253618163  0.5356685352554891  0.5063556197435020
  0.4994537386295335  0.2480332295611163  0.4956213360375656
  0.6673051849345626  0.5361754154967500  0.5055835785510610
  0.8342591626720477  0.2480350253546462  0.4941308179856847
  0.5060088372577667  0.7116651055793923  0.6229542112931057
 
  0.00000000E+00  0.00000000E+00  0.00000000E+00
  0.00000000E+00  0.00000000E+00  0.00000000E+00
  0.00000000E+00  0.00000000E+00  0.00000000E+00
  0.00000000E+00  0.00000000E+00  0.00000000E+00
  0.00000000E+00  0.00000000E+00  0.00000000E+00
  0.00000000E+00  0.00000000E+00  0.00000000E+00
  0.00000000E+00  0.00000000E+00  0.00000000E+00
  0.00000000E+00  0.00000000E+00  0.00000000E+00
  0.00000000E+00  0.00000000E+00  0.00000000E+00
  0.00000000E+00  0.00000000E+00  0.00000000E+00
  0.00000000E+00  0.00000000E+00  0.00000000E+00
  0.00000000E+00  0.00000000E+00  0.00000000E+00
  0.00000000E+00  0.00000000E+00  0.00000000E+00
  0.00000000E+00  0.00000000E+00  0.00000000E+00
  0.00000000E+00  0.00000000E+00  0.00000000E+00
  0.00000000E+00  0.00000000E+00  0.00000000E+00
  0.00000000E+00  0.00000000E+00  0.00000000E+00
  0.00000000E+00  0.00000000E+00  0.00000000E+00
  0.00000000E+00  0.00000000E+00  0.00000000E+00
  0.00000000E+00  0.00000000E+00  0.00000000E+00
  0.00000000E+00  0.00000000E+00  0.00000000E+00
  0.00000000E+00  0.00000000E+00  0.00000000E+00
  0.00000000E+00  0.00000000E+00  0.00000000E+00
  0.00000000E+00  0.00000000E+00  0.00000000E+00
  0.00000000E+00  0.00000000E+00  0.00000000E+00
  0.00000000E+00  0.00000000E+00  0.00000000E+00
  0.00000000E+00  0.00000000E+00  0.00000000E+00
  0.00000000E+00  0.00000000E+00  0.00000000E+00
  0.00000000E+00  0.00000000E+00  0.00000000E+00
  0.00000000E+00  0.00000000E+00  0.00000000E+00
  0.00000000E+00  0.00000000E+00  0.00000000E+00
  0.00000000E+00  0.00000000E+00  0.00000000E+00
  0.00000000E+00  0.00000000E+00  0.00000000E+00
  0.00000000E+00  0.00000000E+00  0.00000000E+00
  0.00000000E+00  0.00000000E+00  0.00000000E+00
  0.00000000E+00  0.00000000E+00  0.00000000E+00
  0.00000000E+00  0.00000000E+00  0.00000000E+00
