CONTCAR                                 
   1.00000000000000     
    14.4987001419000006    0.0000000000000000    0.0000000000000000
    -0.3851722429000000   15.7714976485000005    0.0000000000000000
     0.0000000000000000    0.0000000000000000   25.2446994780999994
   Cr   P    O    H 
    24    24   121     1
Selective dynamics
Direct
  0.9902768264196240  0.3551048034110380  0.3460071524958011   F   F   F
  0.2449380322670933  0.3727736261815409  0.5183310108333217   F   F   F
  0.0884258439707892  0.1260244951510785  0.4803010243903287   F   F   F
  0.3424374808489361  0.1461461600198604  0.6533636382630306   F   F   F
  0.3245152432638747  0.3528799252592236  0.3455266331913975   F   F   F
  0.5780841678420074  0.3729367032465802  0.5186945445371336   F   F   F
  0.4218591911417846  0.1260449887423505  0.4810225485404800   F   F   F
  0.6762117068843807  0.1452838414002287  0.6539712096571861   F   F   F
  0.6582551946662178  0.3529822037264339  0.3461837925681621   F   F   F
  0.9117704365582497  0.3732418535810638  0.5194654006751023   F   F   F
  0.7551818167803646  0.1262711728103483  0.4809336341207953   F   F   F
  0.0100069603833077  0.1443133986142442  0.6534387391339322   F   F   F
  0.9916188903924734  0.8530950836605342  0.3460953175136936   F   F   F
  0.2449497292737419  0.8730734493847407  0.5194205207818925   F   F   F
  0.0886651521996598  0.6263626165026608  0.4813029462890270   F   F   F
  0.3437514321107216  0.6433096200498341  0.6536132422315930   F   F   F
  0.3246366401108602  0.8539091681140221  0.3464225561281324   F   F   F
  0.5783206219407475  0.8728833968267722  0.5194174997369885   F   F   F
  0.4217824098707794  0.6259009897081853  0.4804623849868577   F   F   F
  0.6764789974152947  0.6442796771131682  0.6533405923387150   F   F   F
  0.6570652132799353  0.8549574645891127  0.3460296699588739   F   F   F
  0.9115202234207231  0.8729927710871976  0.5186997972436060   F   F   F
  0.7552074691363160  0.6259443845696566  0.4803478099959193   F   F   F
  0.0094235796728199  0.6456987339642453  0.6537015411392417   F   F   F
  0.0738665325606931  0.4395440065665071  0.4465154592834253   F   F   F
  0.2538604796044908  0.2173517714274880  0.4305265867405197   F   F   F
  0.0804548191589802  0.2807722383915419  0.5686233656670723   F   F   F
  0.2594352410650771  0.0598428450620574  0.5534072098024652   F   F   F
  0.4071835185128734  0.4391293318501184  0.4457341042439324   F   F   F
  0.5868569020318830  0.2176001830531931  0.4308914045958687   F   F   F
  0.4128908790272234  0.2818085910586632  0.5687688931362231   F   F   F
  0.5931071035384150  0.0597998820938770  0.5536470596295970   F   F   F
  0.7406868124958450  0.4391758856889965  0.4463589878020429   F   F   F
  0.9198698429614325  0.2185622719218472  0.4309981069569560   F   F   F
  0.7463961789747628  0.2814167080104610  0.5690062585846292   F   F   F
  0.9262415687456880  0.0598169029980369  0.5531063104564140   F   F   F
  0.0740105167441172  0.9391124002076907  0.4462594462340306   F   F   F
  0.2533067106026650  0.7181925701769316  0.4311450672001840   F   F   F
  0.0795548809175415  0.7816963220015936  0.5691445495920320   F   F   F
  0.2596858630255241  0.5593858448194027  0.5531527205236983   F   F   F
  0.4073453856709293  0.9392509256876238  0.4468548422729413   F   F   F
  0.5866626540952851  0.7183603645147230  0.4308894709194675   F   F   F
  0.4132663111525261  0.7805507300205150  0.5690035631725650   F   F   F
  0.5929650725520830  0.5595696559467243  0.5529099915558291   F   F   F
  0.7404283809544410  0.9394047690028486  0.4465025753037892   F   F   F
  0.9206074459628582  0.7175380638031612  0.4308261114676526   F   F   F
  0.7469444820837410  0.7807481501059215  0.5687633772475493   F   F   F
  0.9262948154456581  0.5599458439448100  0.5535959748804657   F   F   F
  0.0756895638838841  0.3989483575950885  0.3885818959141005   F   F   F
  0.3066985411538070  0.4397853496537962  0.4646920128896355   F   F   F
  0.2454300045488864  0.4182917210561214  0.3362853634366161   F   F   F
  0.1333483117530037  0.3812998638896801  0.4792812667710393   F   F   F
  0.2177500684702309  0.4699290226617805  0.5585101952411264   F   F   F
  0.2802971817109281  0.2576541807460160  0.3751033642051524   F   F   F
  0.0365529329945034  0.3330053705136180  0.2913086889814096   F   F   F
  0.1827912970981060  0.3062912667588691  0.5717021340361015   F   F   F
  0.2708700458577695  0.2818117359956176  0.4746624246467874   F   F   F
  0.3157942264400546  0.1411511096393170  0.4386081000658493   F   F   F
  0.0181319309883676  0.3569443201304807  0.5613878127623266   F   F   F
  0.0632723760330478  0.2170942635553104  0.5240523127115395   F   F   F
  0.1514433519720626  0.1922284512923866  0.4271083684175849   F   F   F
  0.2968030422810983  0.1670604873178263  0.7084423723809721   F   F   F
  0.0549999792880556  0.2391555706625894  0.6237855928523715   F   F   F
  0.1142784237030270  0.0289680721464265  0.4394116439194136   F   F   F
  0.1997390358846118  0.1160683621859917  0.5194630994650709   F   F   F
  0.0883778431804032  0.0781037141597594  0.6623845564878721   F   F   F
  0.0265265174518206  0.0588960813503689  0.5338857915221737   F   F   F
  0.2568724718412341  0.1029129856870554  0.6106618961825774   F   F   F
  0.4096651860235028  0.3969494282747732  0.3882245587770754   F   F   F
  0.6401443354834342  0.4399560093599817  0.4652007020490672   F   F   F
  0.5800863101918026  0.4193276755508322  0.3370255508065441   F   F   F
  0.4670132999920966  0.3822901481072236  0.4792489365282293   F   F   F
  0.5519198946553345  0.4699816484123289  0.5592941743537381   F   F   F
  0.6126473102473398  0.2579596876158661  0.3754003819225034   F   F   F
  0.3709008815175423  0.3313553726052803  0.2907642500220007   F   F   F
  0.5153756949196477  0.3067501626380604  0.5718301668185930   F   F   F
  0.6041883808226700  0.2820077703263522  0.4750220680131605   F   F   F
  0.6488396091396567  0.1413636290360145  0.4387553102346402   F   F   F
  0.3510077960223654  0.3577530563602096  0.5598780661933418   F   F   F
  0.3959370411514911  0.2168564827478789  0.5248044772290896   F   F   F
  0.4844055684729440  0.1924559700724089  0.4278096075575490   F   F   F
  0.6299368684745730  0.1669894090683854  0.7087605449167711   F   F   F
  0.3865257600689702  0.2416916616164428  0.6241847101592128   F   F   F
  0.4483967345592390  0.0288777418274364  0.4403924452222654   F   F   F
  0.5332645630485189  0.1167780808446892  0.5202780345173323   F   F   F
  0.4214353703844935  0.0804182671588691  0.6618829605101197   F   F   F
  0.3599189700748937  0.0588998391782951  0.5344734691836450   F   F   F
  0.5909591933457534  0.1018017636200668  0.6112173528516536   F   F   F
  0.7435561881191575  0.3956715482275186  0.3892349219693259   F   F   F
  0.9736145318346843  0.4403828208912088  0.4658315318126327   F   F   F
  0.9115951337691968  0.4208456098209226  0.3365745754793323   F   F   F
  0.8003727841152113  0.3832541940004859  0.4805050879901387   F   F   F
  0.8860366096142656  0.4701014740069880  0.5605231592129698   F   F   F
  0.9455579589367389  0.2603572798793792  0.3759042152402117   F   F   F
  0.7046694175763548  0.3314594454051019  0.2914345122217270   F   F   F
  0.8487379483945006  0.3068302906426155  0.5725383226700700   F   F   F
  0.9366987364714845  0.2821694901917269  0.4756301395528055   F   F   F
  0.9822058785462389  0.1424036280814747  0.4382533792573042   F   F   F
  0.6841198565134619  0.3574648495734536  0.5612471275878121   F   F   F
  0.7295643174808504  0.2172816386453675  0.5246565253773809   F   F   F
  0.8175720213845281  0.1928834138870386  0.4276286222217180   F   F   F
  0.9641477805780880  0.1660367200246000  0.7083203146572998   F   F   F
  0.7203724462281045  0.2404602014372728  0.6243283299623883   F   F   F
  0.7816451385779857  0.0290796816715542  0.4405083012516826   F   F   F
  0.8667498511338465  0.1174677336125143  0.5199628044118896   F   F   F
  0.7551355308060295  0.0797032361886636  0.6631722914931686   F   F   F
  0.6934864700098373  0.0591333386216846  0.5345173090417745   F   F   F
  0.9241996890252651  0.1012691956375633  0.6108237239173917   F   F   F
  0.0769778574911157  0.8961415908936772  0.3889913661058699   F   F   F
  0.3069265600460227  0.9401889473156473  0.4658599808706256   F   F   F
  0.2464861263835445  0.9201956936829561  0.3370225337807113   F   F   F
  0.1337035354936376  0.8829041160395832  0.4802335507026143   F   F   F
  0.2190119467496601  0.9700775299192230  0.5603309875861981   F   F   F
  0.2789456610519849  0.7591223889848209  0.3758044319025231   F   F   F
  0.0377577325796707  0.8318425898917923  0.2912210316266481   F   F   F
  0.1819880759491781  0.8067871964396716  0.5724854667646042   F   F   F
  0.2705450174864055  0.7821752271090290  0.4755189795938009   F   F   F
  0.3153068336235592  0.6418396772575576  0.4385982584397610   F   F   F
  0.0176589314208115  0.8579376495231159  0.5611120903110773   F   F   F
  0.0624086718406929  0.7172509077928169  0.5250212668667515   F   F   F
  0.1508931438788181  0.6929002951162317  0.4280282551808696   F   F   F
  0.2980405754465210  0.6642632201692180  0.7086198987208761   F   F   F
  0.0533815340775874  0.7414291932864927  0.6246147811901182   F   F   F
  0.1155402784322490  0.5291213614565535  0.4410004418692779   F   F   F
  0.2001476914399660  0.6179352959988478  0.5206161808345371   F   F   F
  0.0883805832574112  0.5799521727583397  0.6621623282203757   F   F   F
  0.0268002651543284  0.5591691874627003  0.5346833465548997   F   F   F
  0.2582229856753244  0.5998805006708281  0.6111853738840125   F   F   F
  0.4098768812645375  0.8967527135888957  0.3894458064521373   F   F   F
  0.6401196651271093  0.9400232814538327  0.4657234445914256   F   F   F
  0.5784766947766187  0.9209004100888194  0.3369126016467376   F   F   F
  0.4667735834773623  0.8824008007575728  0.4805727439914165   F   F   F
  0.5524890857302580  0.9699999943755344  0.5601538303079963   F   F   F
  0.6123791785060959  0.7600808359013413  0.3757817832530606   F   F   F
  0.3711901438148502  0.8320156023027181  0.2917786208129343   F   F   F
  0.5155095564675776  0.8062757564712584  0.5726270404024092   F   F   F
  0.6034346315982546  0.7818750281253628  0.4755847278205536   F   F   F
  0.6490682176892477  0.6422817148669893  0.4382032137965766   F   F   F
  0.3509599167526005  0.8566907706822064  0.5617552130690129   F   F   F
  0.3964747768048866  0.7168416135537541  0.5244579728452621   F   F   F
  0.4843574312209711  0.6927387692553211  0.4274262059576017   F   F   F
  0.6301731167683755  0.6653659099724720  0.7082367221632992   F   F   F
  0.3873649682825331  0.7387455559890768  0.6241960600465859   F   F   F
  0.4478082331183373  0.5289877126999798  0.4394356409869218   F   F   F
  0.5332878037488129  0.6166181914410558  0.5195046825499929   F   F   F
  0.4236865396188492  0.5779641039664725  0.6621051541928367   F   F   F
  0.3599159413996063  0.5584616032995626  0.5338461109353503   F   F   F
  0.5909167546347263  0.6016073643130397  0.6104964289601398   F   F   F
  0.7426384414690048  0.8981952124043957  0.3887235569077916   F   F   F
  0.9734535561973061  0.9398668348200090  0.4650906693308556   F   F   F
  0.9130328694468801  0.9191088991300589  0.3371896571532389   F   F   F
  0.8000569559178459  0.8818226947696672  0.4796215355013231   F   F   F
  0.8848823208202106  0.9702099154232258  0.5591016561463462   F   F   F
  0.9468479845974898  0.7578792586743290  0.3753983819652689   F   F   F
  0.7031915673905544  0.8332406648896935  0.2912237229379855   F   F   F
  0.8492320870148902  0.8064391727187754  0.5720066470757033   F   F   F
  0.9374512383983955  0.7819468970611396  0.4750199912814779   F   F   F
  0.9825619932892522  0.6413433942925977  0.4388640963161805   F   F   F
  0.6846203378894984  0.8568785821619329  0.5614487651977242   F   F   F
  0.7298803449566762  0.7169124344034046  0.5243191903677697   F   F   F
  0.8181956489591613  0.6923584503992330  0.4273736648784876   F   F   F
  0.9636203761193158  0.6663731723426807  0.7087674210310126   F   F   F
  0.7214574593829681  0.7393586094048530  0.6240487152652037   F   F   F
  0.7809944860764872  0.5289680198688842  0.4392918307351437   F   F   F
  0.8664535011406755  0.6159931364059190  0.5196302390287428   F   F   F
  0.7547218789876027  0.5778968976047878  0.6621929109431903   F   F   F
  0.6933260141870008  0.5587234670232064  0.5338348774758828   F   F   F
  0.9237352505827303  0.6029060312015062  0.6108773302431203   F   F   F
  0.3867754834935653  0.4261025996794672  0.6757941682298849   T   T   T
  0.4312330674200382  0.4340467685103420  0.7044853889553888   T   T   T
 
  0.00000000E+00  0.00000000E+00  0.00000000E+00
  0.00000000E+00  0.00000000E+00  0.00000000E+00
  0.00000000E+00  0.00000000E+00  0.00000000E+00
  0.00000000E+00  0.00000000E+00  0.00000000E+00
  0.00000000E+00  0.00000000E+00  0.00000000E+00
  0.00000000E+00  0.00000000E+00  0.00000000E+00
  0.00000000E+00  0.00000000E+00  0.00000000E+00
  0.00000000E+00  0.00000000E+00  0.00000000E+00
  0.00000000E+00  0.00000000E+00  0.00000000E+00
  0.00000000E+00  0.00000000E+00  0.00000000E+00
  0.00000000E+00  0.00000000E+00  0.00000000E+00
  0.00000000E+00  0.00000000E+00  0.00000000E+00
  0.00000000E+00  0.00000000E+00  0.00000000E+00
  0.00000000E+00  0.00000000E+00  0.00000000E+00
  0.00000000E+00  0.00000000E+00  0.00000000E+00
  0.00000000E+00  0.00000000E+00  0.00000000E+00
  0.00000000E+00  0.00000000E+00  0.00000000E+00
  0.00000000E+00  0.00000000E+00  0.00000000E+00
  0.00000000E+00  0.00000000E+00  0.00000000E+00
  0.00000000E+00  0.00000000E+00  0.00000000E+00
  0.00000000E+00  0.00000000E+00  0.00000000E+00
  0.00000000E+00  0.00000000E+00  0.00000000E+00
  0.00000000E+00  0.00000000E+00  0.00000000E+00
  0.00000000E+00  0.00000000E+00  0.00000000E+00
  0.00000000E+00  0.00000000E+00  0.00000000E+00
  0.00000000E+00  0.00000000E+00  0.00000000E+00
  0.00000000E+00  0.00000000E+00  0.00000000E+00
  0.00000000E+00  0.00000000E+00  0.00000000E+00
  0.00000000E+00  0.00000000E+00  0.00000000E+00
  0.00000000E+00  0.00000000E+00  0.00000000E+00
  0.00000000E+00  0.00000000E+00  0.00000000E+00
  0.00000000E+00  0.00000000E+00  0.00000000E+00
  0.00000000E+00  0.00000000E+00  0.00000000E+00
  0.00000000E+00  0.00000000E+00  0.00000000E+00
  0.00000000E+00  0.00000000E+00  0.00000000E+00
  0.00000000E+00  0.00000000E+00  0.00000000E+00
  0.00000000E+00  0.00000000E+00  0.00000000E+00
  0.00000000E+00  0.00000000E+00  0.00000000E+00
  0.00000000E+00  0.00000000E+00  0.00000000E+00
  0.00000000E+00  0.00000000E+00  0.00000000E+00
  0.00000000E+00  0.00000000E+00  0.00000000E+00
  0.00000000E+00  0.00000000E+00  0.00000000E+00
  0.00000000E+00  0.00000000E+00  0.00000000E+00
  0.00000000E+00  0.00000000E+00  0.00000000E+00
  0.00000000E+00  0.00000000E+00  0.00000000E+00
  0.00000000E+00  0.00000000E+00  0.00000000E+00
  0.00000000E+00  0.00000000E+00  0.00000000E+00
  0.00000000E+00  0.00000000E+00  0.00000000E+00
  0.00000000E+00  0.00000000E+00  0.00000000E+00
  0.00000000E+00  0.00000000E+00  0.00000000E+00
  0.00000000E+00  0.00000000E+00  0.00000000E+00
  0.00000000E+00  0.00000000E+00  0.00000000E+00
  0.00000000E+00  0.00000000E+00  0.00000000E+00
  0.00000000E+00  0.00000000E+00  0.00000000E+00
  0.00000000E+00  0.00000000E+00  0.00000000E+00
  0.00000000E+00  0.00000000E+00  0.00000000E+00
  0.00000000E+00  0.00000000E+00  0.00000000E+00
  0.00000000E+00  0.00000000E+00  0.00000000E+00
  0.00000000E+00  0.00000000E+00  0.00000000E+00
  0.00000000E+00  0.00000000E+00  0.00000000E+00
  0.00000000E+00  0.00000000E+00  0.00000000E+00
  0.00000000E+00  0.00000000E+00  0.00000000E+00
  0.00000000E+00  0.00000000E+00  0.00000000E+00
  0.00000000E+00  0.00000000E+00  0.00000000E+00
  0.00000000E+00  0.00000000E+00  0.00000000E+00
  0.00000000E+00  0.00000000E+00  0.00000000E+00
  0.00000000E+00  0.00000000E+00  0.00000000E+00
  0.00000000E+00  0.00000000E+00  0.00000000E+00
  0.00000000E+00  0.00000000E+00  0.00000000E+00
  0.00000000E+00  0.00000000E+00  0.00000000E+00
  0.00000000E+00  0.00000000E+00  0.00000000E+00
  0.00000000E+00  0.00000000E+00  0.00000000E+00
  0.00000000E+00  0.00000000E+00  0.00000000E+00
  0.00000000E+00  0.00000000E+00  0.00000000E+00
  0.00000000E+00  0.00000000E+00  0.00000000E+00
  0.00000000E+00  0.00000000E+00  0.00000000E+00
  0.00000000E+00  0.00000000E+00  0.00000000E+00
  0.00000000E+00  0.00000000E+00  0.00000000E+00
  0.00000000E+00  0.00000000E+00  0.00000000E+00
  0.00000000E+00  0.00000000E+00  0.00000000E+00
  0.00000000E+00  0.00000000E+00  0.00000000E+00
  0.00000000E+00  0.00000000E+00  0.00000000E+00
  0.00000000E+00  0.00000000E+00  0.00000000E+00
  0.00000000E+00  0.00000000E+00  0.00000000E+00
  0.00000000E+00  0.00000000E+00  0.00000000E+00
  0.00000000E+00  0.00000000E+00  0.00000000E+00
  0.00000000E+00  0.00000000E+00  0.00000000E+00
  0.00000000E+00  0.00000000E+00  0.00000000E+00
  0.00000000E+00  0.00000000E+00  0.00000000E+00
  0.00000000E+00  0.00000000E+00  0.00000000E+00
  0.00000000E+00  0.00000000E+00  0.00000000E+00
  0.00000000E+00  0.00000000E+00  0.00000000E+00
  0.00000000E+00  0.00000000E+00  0.00000000E+00
  0.00000000E+00  0.00000000E+00  0.00000000E+00
  0.00000000E+00  0.00000000E+00  0.00000000E+00
  0.00000000E+00  0.00000000E+00  0.00000000E+00
  0.00000000E+00  0.00000000E+00  0.00000000E+00
  0.00000000E+00  0.00000000E+00  0.00000000E+00
  0.00000000E+00  0.00000000E+00  0.00000000E+00
  0.00000000E+00  0.00000000E+00  0.00000000E+00
  0.00000000E+00  0.00000000E+00  0.00000000E+00
  0.00000000E+00  0.00000000E+00  0.00000000E+00
  0.00000000E+00  0.00000000E+00  0.00000000E+00
  0.00000000E+00  0.00000000E+00  0.00000000E+00
  0.00000000E+00  0.00000000E+00  0.00000000E+00
  0.00000000E+00  0.00000000E+00  0.00000000E+00
  0.00000000E+00  0.00000000E+00  0.00000000E+00
  0.00000000E+00  0.00000000E+00  0.00000000E+00
  0.00000000E+00  0.00000000E+00  0.00000000E+00
  0.00000000E+00  0.00000000E+00  0.00000000E+00
  0.00000000E+00  0.00000000E+00  0.00000000E+00
  0.00000000E+00  0.00000000E+00  0.00000000E+00
  0.00000000E+00  0.00000000E+00  0.00000000E+00
  0.00000000E+00  0.00000000E+00  0.00000000E+00
  0.00000000E+00  0.00000000E+00  0.00000000E+00
  0.00000000E+00  0.00000000E+00  0.00000000E+00
  0.00000000E+00  0.00000000E+00  0.00000000E+00
  0.00000000E+00  0.00000000E+00  0.00000000E+00
  0.00000000E+00  0.00000000E+00  0.00000000E+00
  0.00000000E+00  0.00000000E+00  0.00000000E+00
  0.00000000E+00  0.00000000E+00  0.00000000E+00
  0.00000000E+00  0.00000000E+00  0.00000000E+00
  0.00000000E+00  0.00000000E+00  0.00000000E+00
  0.00000000E+00  0.00000000E+00  0.00000000E+00
  0.00000000E+00  0.00000000E+00  0.00000000E+00
  0.00000000E+00  0.00000000E+00  0.00000000E+00
  0.00000000E+00  0.00000000E+00  0.00000000E+00
  0.00000000E+00  0.00000000E+00  0.00000000E+00
  0.00000000E+00  0.00000000E+00  0.00000000E+00
  0.00000000E+00  0.00000000E+00  0.00000000E+00
  0.00000000E+00  0.00000000E+00  0.00000000E+00
  0.00000000E+00  0.00000000E+00  0.00000000E+00
  0.00000000E+00  0.00000000E+00  0.00000000E+00
  0.00000000E+00  0.00000000E+00  0.00000000E+00
  0.00000000E+00  0.00000000E+00  0.00000000E+00
  0.00000000E+00  0.00000000E+00  0.00000000E+00
  0.00000000E+00  0.00000000E+00  0.00000000E+00
  0.00000000E+00  0.00000000E+00  0.00000000E+00
  0.00000000E+00  0.00000000E+00  0.00000000E+00
  0.00000000E+00  0.00000000E+00  0.00000000E+00
  0.00000000E+00  0.00000000E+00  0.00000000E+00
  0.00000000E+00  0.00000000E+00  0.00000000E+00
  0.00000000E+00  0.00000000E+00  0.00000000E+00
  0.00000000E+00  0.00000000E+00  0.00000000E+00
  0.00000000E+00  0.00000000E+00  0.00000000E+00
  0.00000000E+00  0.00000000E+00  0.00000000E+00
  0.00000000E+00  0.00000000E+00  0.00000000E+00
  0.00000000E+00  0.00000000E+00  0.00000000E+00
  0.00000000E+00  0.00000000E+00  0.00000000E+00
  0.00000000E+00  0.00000000E+00  0.00000000E+00
  0.00000000E+00  0.00000000E+00  0.00000000E+00
  0.00000000E+00  0.00000000E+00  0.00000000E+00
  0.00000000E+00  0.00000000E+00  0.00000000E+00
  0.00000000E+00  0.00000000E+00  0.00000000E+00
  0.00000000E+00  0.00000000E+00  0.00000000E+00
  0.00000000E+00  0.00000000E+00  0.00000000E+00
  0.00000000E+00  0.00000000E+00  0.00000000E+00
  0.00000000E+00  0.00000000E+00  0.00000000E+00
  0.00000000E+00  0.00000000E+00  0.00000000E+00
  0.00000000E+00  0.00000000E+00  0.00000000E+00
  0.00000000E+00  0.00000000E+00  0.00000000E+00
  0.00000000E+00  0.00000000E+00  0.00000000E+00
  0.00000000E+00  0.00000000E+00  0.00000000E+00
  0.00000000E+00  0.00000000E+00  0.00000000E+00
  0.00000000E+00  0.00000000E+00  0.00000000E+00
  0.00000000E+00  0.00000000E+00  0.00000000E+00
  0.00000000E+00  0.00000000E+00  0.00000000E+00
  0.00000000E+00  0.00000000E+00  0.00000000E+00
  0.00000000E+00  0.00000000E+00  0.00000000E+00
  0.00000000E+00  0.00000000E+00  0.00000000E+00
