CONTCAR                                 
   1.00000000000000     
    14.3248996734999992    0.0000000000000000    0.0000000000000000
    -7.1590188013000002   12.4195981305000007    0.0000000000000000
     0.0000000000000000    0.0000000000000000   17.6436004639000004
   Rb   O    H 
    24    14     1
Direct
  0.3411027065789576  0.3462665860846268  0.5660455633912934
  0.5046055465413665  0.3256106692418865  0.4153383871018574
  0.1708034835287467  0.1636009005230622  0.4175926040684240
  0.0147759239772093  0.1781891214925511  0.5767968498772297
  0.3342750653905027  0.9911388800734245  0.4257708623911022
  0.1911592804371661  0.5017276047488419  0.5780107431225165
  0.8353965849850680  0.3352332983214217  0.5888101982361290
 -0.0027385874473447  0.3399826470002663  0.4268116598525155
  0.6710671508774254  0.1694191309249901  0.4317055380146945
  0.4970381642993312  0.1654146793762535  0.5805011965682569
  0.8450603695506799  0.0118060982472162  0.4250435921628046
  0.6490999529586309  0.5015755522039034  0.5759004411331468
  0.3379335675352455  0.8239241953599209  0.5763600000298300
  0.5083949995612643  0.8394927020504451  0.4164048980940965
  0.1580020316947220  0.6626137710081019  0.4264489337601207
  0.0007884138439618  0.6670037550215524  0.5885447340271455
  0.3325947212779338  0.5008328546708782  0.4033472133199216
  0.1740919756865899  0.0061384700427789  0.5805522657942052
  0.8324496395405755  0.8369511594810514  0.5795240511812576
  0.0032447087732577  0.8334084738843752  0.4314876158090269
  0.6798950533410940  0.6762757685127456  0.4142491986799146
  0.4962761998843437  0.6569192603068317  0.5647354328225487
  0.8312062360865267  0.5009596300493423  0.4350408227104529
  0.6691488453154145 -0.0042029610296653  0.5797467201833539
  0.1675322072971249  0.3329279761653448  0.4823688821864313
  0.3366525488875123  0.1622902920450544  0.4936983482075227
  0.0056406330530884  0.0030023162884313  0.5038512759168879
  0.6664249122902135  0.3335688690150356  0.5096194636865140
  0.8371387289698778  0.1698089931177042  0.5094348448195185
  0.5038697166744774  0.9995927931403211  0.5037732637276701
  0.1683800167879234  0.8324679292010164  0.5095257711185733
  0.3356142186801603  0.6698735120719046  0.4810064721903536
  0.0006420248668055  0.5012389837030815  0.5116890031162089
  0.6757304420303807  0.8404192423844302  0.4918877840972432
  0.8340044925857637  0.6689438936014434  0.5088367395992013
  0.5054249293519246  0.5010810793844653  0.4684904056722465
  0.4511985728576558  0.5027935075672219  0.6938069361678196
  0.3486203797185935  0.5022436656921148  0.6735364259439387
  0.4469842927297982  0.5035356710256573  0.7489246182179693
 
  0.00000000E+00  0.00000000E+00  0.00000000E+00
  0.00000000E+00  0.00000000E+00  0.00000000E+00
  0.00000000E+00  0.00000000E+00  0.00000000E+00
  0.00000000E+00  0.00000000E+00  0.00000000E+00
  0.00000000E+00  0.00000000E+00  0.00000000E+00
  0.00000000E+00  0.00000000E+00  0.00000000E+00
  0.00000000E+00  0.00000000E+00  0.00000000E+00
  0.00000000E+00  0.00000000E+00  0.00000000E+00
  0.00000000E+00  0.00000000E+00  0.00000000E+00
  0.00000000E+00  0.00000000E+00  0.00000000E+00
  0.00000000E+00  0.00000000E+00  0.00000000E+00
  0.00000000E+00  0.00000000E+00  0.00000000E+00
  0.00000000E+00  0.00000000E+00  0.00000000E+00
  0.00000000E+00  0.00000000E+00  0.00000000E+00
  0.00000000E+00  0.00000000E+00  0.00000000E+00
  0.00000000E+00  0.00000000E+00  0.00000000E+00
  0.00000000E+00  0.00000000E+00  0.00000000E+00
  0.00000000E+00  0.00000000E+00  0.00000000E+00
  0.00000000E+00  0.00000000E+00  0.00000000E+00
  0.00000000E+00  0.00000000E+00  0.00000000E+00
  0.00000000E+00  0.00000000E+00  0.00000000E+00
  0.00000000E+00  0.00000000E+00  0.00000000E+00
  0.00000000E+00  0.00000000E+00  0.00000000E+00
  0.00000000E+00  0.00000000E+00  0.00000000E+00
  0.00000000E+00  0.00000000E+00  0.00000000E+00
  0.00000000E+00  0.00000000E+00  0.00000000E+00
  0.00000000E+00  0.00000000E+00  0.00000000E+00
  0.00000000E+00  0.00000000E+00  0.00000000E+00
  0.00000000E+00  0.00000000E+00  0.00000000E+00
  0.00000000E+00  0.00000000E+00  0.00000000E+00
  0.00000000E+00  0.00000000E+00  0.00000000E+00
  0.00000000E+00  0.00000000E+00  0.00000000E+00
  0.00000000E+00  0.00000000E+00  0.00000000E+00
  0.00000000E+00  0.00000000E+00  0.00000000E+00
  0.00000000E+00  0.00000000E+00  0.00000000E+00
  0.00000000E+00  0.00000000E+00  0.00000000E+00
  0.00000000E+00  0.00000000E+00  0.00000000E+00
  0.00000000E+00  0.00000000E+00  0.00000000E+00
  0.00000000E+00  0.00000000E+00  0.00000000E+00
