Layer                                   
   1.00000000000000     
     3.4475998878000000    0.0000000000000000    0.0000000000000000
     1.7237499951999999    2.9856225713000000    0.0000000000000000
     0.0000000000000000    0.0000000000000000   21.0000000000000000
   H    O    Nb   Se
    10     7     1     2
Direct
  0.4987784194376635  0.9841532676682873  0.1339713133795833
  0.6951440020861928  0.4894789520139354  0.1433314526475045
  0.2796642652767074  0.6113529592589426  0.5425199576112301
  0.4946198764392715  0.7584344066351832  0.4892594399168365
  0.5958843774863309  0.5960512104258309  0.2533677227347610
  0.5540737100825031  0.3508329442632269  0.3163190094871643
  0.4617356758316710  0.9248811317366725  0.6067177972954527
  0.3310892056959521  0.0523780114329809  0.6805189657673718
  0.3636146296184229  0.9369053845988817  0.3634671603533929
  0.9238235608539023  0.2826681658751548  0.3967757251567979
  0.5970426054840160  0.7612821831283769  0.1682763637872859
  0.5797156996844852  0.5966594054251487  0.5279929874258606
  0.5990371603888258  0.5957545997941331  0.3008949580621845
  0.3116276157992442  0.1787177263210173  0.6382172320364556
  0.2464825399341554  0.1430347462376901  0.4019754032580148
  0.8260236962751535  0.3045244358045396  0.0576837055825004
  0.8735977898073778  0.0529322691883287  0.7435727332793372
  0.5435471684949303  0.7843898710901059  0.9026917909963001
  0.8777678343705573  0.0780745478860681  0.9827099959835834
  0.8754079117156371  0.1108176748664712  0.8191827138233766
 
 -0.65800300E-02  0.97019989E-02  0.28279702E-01
  0.28395905E-01  0.17774156E-01 -0.50630170E-02
  0.73893500E-02 -0.29732841E-02 -0.62424676E-02
 -0.96492762E-02  0.85053492E-03  0.25285353E-01
  0.17098355E-01 -0.10862014E-01  0.15445192E-02
 -0.11926108E-01  0.19629690E-01 -0.18377818E-02
 -0.13438972E-01  0.97294310E-02  0.61161772E-02
 -0.17544953E-02  0.58927775E-02  0.70860720E-02
  0.47085174E-01  0.16819085E-01  0.74007899E-02
  0.10670452E-01 -0.19643792E-01 -0.91957881E-02
  0.24777743E-02 -0.25700075E-03  0.54993113E-03
 -0.80881049E-03  0.27822828E-02 -0.48288161E-02
  0.48032378E-02  0.60077828E-02  0.44113413E-02
 -0.12200111E-02 -0.59712178E-03 -0.11840154E-03
  0.43232028E-02  0.42884022E-02 -0.90122622E-03
 -0.53589560E-02 -0.41286275E-02 -0.31066223E-02
  0.51118150E-02  0.51908935E-03 -0.97513018E-03
 -0.51334135E-03 -0.93530697E-03 -0.42591399E-03
 -0.11105829E-02 -0.97153005E-03  0.95661365E-03
 -0.10278143E-02 -0.26778260E-03 -0.12453548E-03
 
           1
   1.00000000000000     
  0.27311084E+03 -0.11898787E+01  0.56641270E-18  0.00000000E+00
  0.49524510E+00  0.98740284E+00  0.13531797E+00
  0.70040389E+00  0.49543220E+00  0.14309036E+00
  0.28230552E+00  0.61035709E+00  0.54222270E+00
  0.49167860E+00  0.75871928E+00  0.49046350E+00
  0.60266287E+00  0.59241310E+00  0.25344127E+00
  0.54732719E+00  0.35740768E+00  0.31623150E+00
  0.45620828E+00  0.92813989E+00  0.60700904E+00
  0.32959347E+00  0.54351730E-01  0.68085640E+00
  0.37445541E+00  0.94253874E+00  0.36381958E+00
  0.93020823E+00  0.27608870E+00  0.39633783E+00
  0.59780434E+00  0.76119610E+00  0.16830255E+00
  0.57901517E+00  0.59759130E+00  0.52776304E+00
  0.59942428E+00  0.59776684E+00  0.30110502E+00
  0.31137374E+00  0.17851773E+00  0.63821159E+00
  0.24701836E+00  0.14447110E+00  0.40193249E+00
  0.82516069E+00  0.30314160E+00  0.57535771E-01
  0.87499358E+00  0.53106132E-01  0.74352630E+00
  0.54355490E+00  0.78407660E+00  0.90267151E+00
  0.87760840E+00  0.77749145E-01  0.98275555E+00
  0.87515463E+00  0.11072798E+00  0.81917678E+00
 -0.34343354E-02  0.32626318E-02  0.12605353E-02
  0.50647630E-02  0.62303504E-02 -0.26155696E-03
 -0.93700394E-03 -0.53672700E-03 -0.11443358E-03
 -0.20124945E-02 -0.14627631E-02  0.15640714E-02
  0.70368118E-02 -0.39071592E-02 -0.67492743E-04
 -0.65526743E-02  0.59831850E-02  0.58701430E-04
 -0.51673707E-02  0.25193848E-02  0.14749409E-03
 -0.15764311E-02  0.22415831E-02  0.38017227E-03
  0.11372434E-01  0.47291845E-02  0.25087678E-03
  0.63148460E-02 -0.66257487E-02 -0.49846687E-03
  0.76681945E-03 -0.10365579E-03  0.31543118E-04
 -0.51277949E-03  0.99965880E-03 -0.26266987E-03
  0.38873108E-03  0.20443330E-02  0.21189482E-03
 -0.27631487E-03 -0.17754138E-03  0.43981043E-05
  0.46877239E-03  0.15090690E-02 -0.34720705E-04
 -0.87997445E-03 -0.12959281E-02 -0.13362539E-03
  0.13912504E-02  0.20232315E-03 -0.40652318E-05
  0.10824133E-04 -0.30164565E-03 -0.18250548E-04
 -0.16011431E-03 -0.35061747E-03  0.43580359E-04
 -0.25349115E-03 -0.95939831E-04 -0.18609744E-04
  0.00000000E+00  0.00000000E+00  0.00000000E+00
  0.00000000E+00  0.00000000E+00  0.00000000E+00
  0.00000000E+00  0.00000000E+00  0.00000000E+00
  0.00000000E+00  0.00000000E+00  0.00000000E+00
  0.00000000E+00  0.00000000E+00  0.00000000E+00
  0.00000000E+00  0.00000000E+00  0.00000000E+00
  0.00000000E+00  0.00000000E+00  0.00000000E+00
  0.00000000E+00  0.00000000E+00  0.00000000E+00
  0.00000000E+00  0.00000000E+00  0.00000000E+00
  0.00000000E+00  0.00000000E+00  0.00000000E+00
  0.00000000E+00  0.00000000E+00  0.00000000E+00
  0.00000000E+00  0.00000000E+00  0.00000000E+00
  0.00000000E+00  0.00000000E+00  0.00000000E+00
  0.00000000E+00  0.00000000E+00  0.00000000E+00
  0.00000000E+00  0.00000000E+00  0.00000000E+00
  0.00000000E+00  0.00000000E+00  0.00000000E+00
  0.00000000E+00  0.00000000E+00  0.00000000E+00
  0.00000000E+00  0.00000000E+00  0.00000000E+00
  0.00000000E+00  0.00000000E+00  0.00000000E+00
  0.00000000E+00  0.00000000E+00  0.00000000E+00
