CONTCAR\(2)                             
   1.00000000000000     
    14.4230003356999994    0.0000000000000000    0.0000000000000000
     0.0000000000000000   16.5291004181000005    0.0000000000000000
     0.0000000000000000    0.0000000000000000   17.8572998046999984
   Cu   Te   O    H 
    16    16    49     1
Selective dynamics
Direct
  0.3415710336316238  0.2656906587002581  0.5312880299035285   F   F   F
  0.8401979334709750  0.2651476199957301  0.5291694651221874   F   F   F
  0.3417231320895695  0.7581744682984706  0.5272382109884717   F   F   F
  0.8428115614016178  0.7659083129642852  0.5337399516545176   F   F   F
  0.0903530165744471  0.4830760075826603  0.5334542857829589   F   F   F
  0.5937924924976272  0.4846838423553734  0.5325552734606802   F   F   F
  0.0908269086190359  0.9827187075194672  0.5300070322879407   F   F   F
  0.5905423684565108  0.9836254357505965  0.5307766348461627   F   F   F
  0.1592641379020279  0.2339998946672139  0.4688088087974052   F   F   F
  0.6592952565979431  0.2342554636870204  0.4689532228227193   F   F   F
  0.1606959448380323  0.7304172853352640  0.4684561707661814   F   F   F
  0.6597411375747626  0.7336073809972774  0.4727720503880022   F   F   F
  0.4100013189595231  0.0139469756722548  0.4705030375378101   F   F   F
  0.9107284392571202  0.0146201037943570  0.4694625450168601   F   F   F
  0.4074267523370452  0.5174834475340404  0.4740626856386143   F   F   F
  0.9091308886961755  0.5168913341083723  0.4713290781799344   F   F   F
  0.2808906034347345  0.1020553590829607  0.5908575741905153   F   F   F
  0.7813438220740068  0.1022507429197290  0.5903758187277219   F   F   F
  0.2816680895481056  0.5996266895513926  0.6040146249122031   F   F   F
  0.7830034260568937  0.6038949999605592  0.5941870175070960   F   F   F
  0.2185316106258597  0.3990683933259760  0.4121561209045197   F   F   F
  0.7199343472915061  0.3980019224581213  0.4093544117918384   F   F   F
  0.2196258977969592  0.8946445516611732  0.4089846753662556   F   F   F
  0.7198013358609998  0.8954519224786566  0.4099486334173505   F   F   F
  0.4689663906961101  0.3551193992539865  0.4102651890633524   F   F   F
  0.9694869084717084  0.3543837940089389  0.4087919771516724   F   F   F
  0.4695104237712755  0.8507184366627385  0.4091563640316949   F   F   F
  0.9698329995211452  0.8504672871697849  0.4101260452438709   F   F   F
  0.0310957462847128  0.1466832276457382  0.5902207083107527   F   F   F
  0.5312164434587032  0.1470467613523283  0.5907737607867176   F   F   F
  0.0354753555814327  0.6457113494812887  0.5940189677134171   F   F   F
  0.5303362822213487  0.6461450852014679  0.5946008082997594   F   F   F
  0.3033129814694462  0.0763649845728835  0.4899414855493660   F   F   F
  0.8036467136819425  0.0771910457072735  0.4892566478449112   F   F   F
  0.3063228541981431  0.5807696784041738  0.4937708675531169   F   F   F
  0.8021924753134755  0.5777821613997673  0.4928830231015482   F   F   F
  0.2715669071247078  0.2931649005517727  0.4371034857301979   F   F   F
  0.7712763332994186  0.2916137167981461  0.4339181078402774   F   F   F
  0.2723224745961659  0.7884818276708856  0.4338010859357482   F   F   F
  0.7718544352279864  0.7906152195771980  0.4387154905216164   F   F   F
  0.3988979745313301  0.1871853313249474  0.5975600826075436   F   F   F
  0.8991033315713182  0.1872609065887971  0.5958078733876846   F   F   F
  0.3971328604829409  0.6871042386721768  0.6007268882398620   F   F   F
  0.8995424941911239  0.6861934621252388  0.5988916972533360   F   F   F
  0.4785466336167019  0.0411091074605849  0.5653739312399324   F   F   F
  0.9787962615457246  0.0408409599330781  0.5645327775961775   F   F   F
  0.4802388743479327  0.5405977860356970  0.5644564157067009   F   F   F
  0.9790683595864138  0.5415597711536719  0.5658808980723578   F   F   F
  0.3509968621957995  0.4412884675284090  0.4078405049972957   F   F   F
  0.8520698101921411  0.4387927991160012  0.4036254422507710   F   F   F
  0.3520358904974827  0.9353134489418196  0.4042361273596100   F   F   F
  0.8520489779000258  0.9356215857319725  0.4045692341974174   F   F   F
  0.1490867648210923  0.0613779253632742  0.5960845154084282   F   F   F
  0.6490405424341219  0.0620057997276930  0.5966902295610055   F   F   F
  0.1460644943369118  0.5604844205766426  0.5996415264286057   F   F   F
  0.6485272329565177  0.5631877246993184  0.6000400691306993   F   F   F
  0.4484689154671671  0.3266910370518090  0.5106972064402484   F   F   F
  0.9470450438616211  0.3272762374482383  0.5093105055253559   F   F   F
  0.4460746170147729  0.8242604910281344  0.5097108631888077   F   F   F
  0.9497723342736322  0.8270545860345067  0.5117766147236082   F   F   F
  0.1966222017754404  0.4209306295418855  0.5136394039742100   F   F   F
  0.6995598285486224  0.4220854388710578  0.5108083134071677   F   F   F
  0.1975612323723581  0.9198546316836200  0.5099516119368488   F   F   F
  0.6978171143411345  0.9221777069529082  0.5107254186532941   F   F   F
  0.0217383974944667  0.4590046778512260  0.4376095058346650   F   F   F
  0.5199345578934640  0.4601563474390176  0.4397625250434700   F   F   F
  0.0226779058752271  0.9565152807691817  0.4345295762281580   F   F   F
  0.5217192081578688  0.9561778760077075  0.4362176189610594   F   F   F
  0.2291383996436878  0.2075321037884947  0.5628663026033465   F   F   F
  0.7285032894570165  0.2077977269068825  0.5640722303643528   F   F   F
  0.2309198821438372  0.7032407254402600  0.5575890061137727   F   F   F
  0.7300722186953763  0.7091281980016788  0.5668591552579585   F   F   F
  0.0528324352825109  0.1714749937388831  0.4889388366896554   F   F   F
  0.5527596048958401  0.1713702345642929  0.4894042091093525   F   F   F
  0.0539537534621175  0.6705119671380189  0.4919025765657707   F   F   F
  0.5524209055714877  0.6734158219225108  0.4941226092278797   F   F   F
  0.1020298287050068  0.3135440477412246  0.4036674867947880   F   F   F
  0.6002667716062149  0.3140551144003183  0.4040378186925935   F   F   F
  0.1020515247258516  0.8090360761935500  0.4032679299881110   F   F   F
  0.6022144336606345  0.8104165214337300  0.4051493181684691   F   F   F
  0.2413216943800478  0.6584913540788548  0.7004140238051946   T   T   T
  0.2561193919761848  0.7159458251331259  0.6952218129576904   T   T   T
 
  0.00000000E+00  0.00000000E+00  0.00000000E+00
  0.00000000E+00  0.00000000E+00  0.00000000E+00
  0.00000000E+00  0.00000000E+00  0.00000000E+00
  0.00000000E+00  0.00000000E+00  0.00000000E+00
  0.00000000E+00  0.00000000E+00  0.00000000E+00
  0.00000000E+00  0.00000000E+00  0.00000000E+00
  0.00000000E+00  0.00000000E+00  0.00000000E+00
  0.00000000E+00  0.00000000E+00  0.00000000E+00
  0.00000000E+00  0.00000000E+00  0.00000000E+00
  0.00000000E+00  0.00000000E+00  0.00000000E+00
  0.00000000E+00  0.00000000E+00  0.00000000E+00
  0.00000000E+00  0.00000000E+00  0.00000000E+00
  0.00000000E+00  0.00000000E+00  0.00000000E+00
  0.00000000E+00  0.00000000E+00  0.00000000E+00
  0.00000000E+00  0.00000000E+00  0.00000000E+00
  0.00000000E+00  0.00000000E+00  0.00000000E+00
  0.00000000E+00  0.00000000E+00  0.00000000E+00
  0.00000000E+00  0.00000000E+00  0.00000000E+00
  0.00000000E+00  0.00000000E+00  0.00000000E+00
  0.00000000E+00  0.00000000E+00  0.00000000E+00
  0.00000000E+00  0.00000000E+00  0.00000000E+00
  0.00000000E+00  0.00000000E+00  0.00000000E+00
  0.00000000E+00  0.00000000E+00  0.00000000E+00
  0.00000000E+00  0.00000000E+00  0.00000000E+00
  0.00000000E+00  0.00000000E+00  0.00000000E+00
  0.00000000E+00  0.00000000E+00  0.00000000E+00
  0.00000000E+00  0.00000000E+00  0.00000000E+00
  0.00000000E+00  0.00000000E+00  0.00000000E+00
  0.00000000E+00  0.00000000E+00  0.00000000E+00
  0.00000000E+00  0.00000000E+00  0.00000000E+00
  0.00000000E+00  0.00000000E+00  0.00000000E+00
  0.00000000E+00  0.00000000E+00  0.00000000E+00
  0.00000000E+00  0.00000000E+00  0.00000000E+00
  0.00000000E+00  0.00000000E+00  0.00000000E+00
  0.00000000E+00  0.00000000E+00  0.00000000E+00
  0.00000000E+00  0.00000000E+00  0.00000000E+00
  0.00000000E+00  0.00000000E+00  0.00000000E+00
  0.00000000E+00  0.00000000E+00  0.00000000E+00
  0.00000000E+00  0.00000000E+00  0.00000000E+00
  0.00000000E+00  0.00000000E+00  0.00000000E+00
  0.00000000E+00  0.00000000E+00  0.00000000E+00
  0.00000000E+00  0.00000000E+00  0.00000000E+00
  0.00000000E+00  0.00000000E+00  0.00000000E+00
  0.00000000E+00  0.00000000E+00  0.00000000E+00
  0.00000000E+00  0.00000000E+00  0.00000000E+00
  0.00000000E+00  0.00000000E+00  0.00000000E+00
  0.00000000E+00  0.00000000E+00  0.00000000E+00
  0.00000000E+00  0.00000000E+00  0.00000000E+00
  0.00000000E+00  0.00000000E+00  0.00000000E+00
  0.00000000E+00  0.00000000E+00  0.00000000E+00
  0.00000000E+00  0.00000000E+00  0.00000000E+00
  0.00000000E+00  0.00000000E+00  0.00000000E+00
  0.00000000E+00  0.00000000E+00  0.00000000E+00
  0.00000000E+00  0.00000000E+00  0.00000000E+00
  0.00000000E+00  0.00000000E+00  0.00000000E+00
  0.00000000E+00  0.00000000E+00  0.00000000E+00
  0.00000000E+00  0.00000000E+00  0.00000000E+00
  0.00000000E+00  0.00000000E+00  0.00000000E+00
  0.00000000E+00  0.00000000E+00  0.00000000E+00
  0.00000000E+00  0.00000000E+00  0.00000000E+00
  0.00000000E+00  0.00000000E+00  0.00000000E+00
  0.00000000E+00  0.00000000E+00  0.00000000E+00
  0.00000000E+00  0.00000000E+00  0.00000000E+00
  0.00000000E+00  0.00000000E+00  0.00000000E+00
  0.00000000E+00  0.00000000E+00  0.00000000E+00
  0.00000000E+00  0.00000000E+00  0.00000000E+00
  0.00000000E+00  0.00000000E+00  0.00000000E+00
  0.00000000E+00  0.00000000E+00  0.00000000E+00
  0.00000000E+00  0.00000000E+00  0.00000000E+00
  0.00000000E+00  0.00000000E+00  0.00000000E+00
  0.00000000E+00  0.00000000E+00  0.00000000E+00
  0.00000000E+00  0.00000000E+00  0.00000000E+00
  0.00000000E+00  0.00000000E+00  0.00000000E+00
  0.00000000E+00  0.00000000E+00  0.00000000E+00
  0.00000000E+00  0.00000000E+00  0.00000000E+00
  0.00000000E+00  0.00000000E+00  0.00000000E+00
  0.00000000E+00  0.00000000E+00  0.00000000E+00
  0.00000000E+00  0.00000000E+00  0.00000000E+00
  0.00000000E+00  0.00000000E+00  0.00000000E+00
  0.00000000E+00  0.00000000E+00  0.00000000E+00
  0.00000000E+00  0.00000000E+00  0.00000000E+00
  0.00000000E+00  0.00000000E+00  0.00000000E+00
