 Mn2 Ga2 S5                             
   1.00000000000000     
     3.6431365746070501    0.0000000000000000    0.0000000000000000
    -1.8215682873035250    3.1551691884809312    0.0000000000000000
     0.0000000000000000    0.0000000000000000   27.0860536333480013
   Mn   Ga   S 
     2     2     5
Direct
  0.3335551979349347  0.6671103636368443  0.4455105420424275
  0.6664447924814567  0.3328896445328766  0.5544881428279709
  0.3328672263244528  0.6657343708843300  0.6850017018502470
  0.6671326958294301  0.3342654689069278  0.3149983056633729
  0.9999999817952698  0.9999999829717368  0.4999996173365346
  0.3330542313639313  0.6661096397559021  0.6030828945216626
  0.6669458252446887  0.3338904474459170  0.3969171758390644
  0.3338128544756174  0.6676260936146292  0.2763291640874215
  0.6661871945502114  0.3323739882508505  0.7236724558312915
 
  0.00000000E+00  0.00000000E+00  0.00000000E+00
  0.00000000E+00  0.00000000E+00  0.00000000E+00
  0.00000000E+00  0.00000000E+00  0.00000000E+00
  0.00000000E+00  0.00000000E+00  0.00000000E+00
  0.00000000E+00  0.00000000E+00  0.00000000E+00
  0.00000000E+00  0.00000000E+00  0.00000000E+00
  0.00000000E+00  0.00000000E+00  0.00000000E+00
  0.00000000E+00  0.00000000E+00  0.00000000E+00
  0.00000000E+00  0.00000000E+00  0.00000000E+00
