CONTCAR                                 
   1.00000000000000     
    11.8208999634000005    0.0000000000000000    0.0000000000000000
     2.9552306013999998    8.5110336759000003    0.0000000000000000
     0.0000000000000000    0.0000000000000000   24.9838008880999993
   Na   Ti   S    O    H 
     6    20    40     2     1
Direct
  0.1488447202874550  0.0030669489073843  0.4979876966498063
  0.3707550750377591  0.3813860798487554  0.5014803780716379
  0.0601858180175865  0.6225000996731610  0.5017133401747799
  0.6489501116008929  0.0014385672766548  0.4981493111871472
  0.8696738482502506  0.3821328352803048  0.5014059190090243
  0.5601863605127317  0.6230406058016735  0.5015118763557223
  0.4344596560531871  0.8040050723656530  0.6392961491340652
  0.1383810663649482  0.0054681289388696  0.6408169697209229
  0.4767354453970594  0.0017854499768044  0.3605319627069414
  0.3379553816358751  0.2001163118047242  0.6390611534957165
  0.1781373891694419  0.2000411706364293  0.3607393890782652
  0.0350932740357088  0.4055122500986800  0.6392976692696319
  0.3758221409802532  0.4025583132343277  0.3590802013402173
  0.2348796954202003  0.6028412126836072  0.6387605809019135
  0.0761788998005464  0.6006697050547416  0.3590731661012048
  0.2772306163386963  0.8033477533264061  0.3607376323323029
  0.9364120592477428  0.8048808976973371  0.6387942066061753
  0.6420313069363617  0.0012638218151110  0.6413631727943754
  0.9768268485524861  0.0016389610697436  0.3605081523045737
  0.8384652017251467  0.2018273768657977  0.6394503823472435
  0.6782534086431025  0.1998188595514026  0.3607100144777202
  0.5333869156271837  0.4038931754204155  0.6394532789554610
  0.8757661128231683  0.4026164003053111  0.3590494916442399
  0.7345541582404630  0.6018266374818791  0.6390369713304299
  0.5761316083265620  0.6005871885431785  0.3589767614134548
  0.7771066346547565  0.8033848009776112  0.3606884659440581
  0.1040540780974438  0.8069073193107656  0.5809192777672507
  0.4430400571920072  0.8021147921715548  0.3039566190996978
  0.3060242946537207  0.0023755754470902  0.5807350745542321
  0.1435124889166386  0.0016058884977625  0.3044124444210506
  0.0050842647021207  0.2012094728680410  0.5807954662659026
  0.3433145469667968  0.2011021547950048  0.3039575138138695
  0.2018400046742150  0.4003661622991401  0.5802114796607857
  0.4703353059222612  0.0022330167630458  0.6953753271707702
  0.0435760430518703  0.4005759923566071  0.3038107897758123
  0.3131662672477054  0.0017708519668311  0.4193956957959826
  0.4004872383950075  0.6035963821670672  0.5798172918749968
  0.1708583687606620  0.2046194292645497  0.6955974622353721
  0.2430690434108296  0.6026570201876301  0.3038483302144007
  0.0099112001200115  0.2027708407292791  0.4187860551804710
  0.3688588638275415  0.4029726857669135  0.6954454952251617
  0.2081023557451627  0.4022781135691285  0.4189426340906431
  0.0677564212766773  0.6040604419818788  0.6936731826674076
  0.4083053104563356  0.6013132081388293  0.4188670516069677
  0.2700465429080618  0.8018475834691596  0.6956680968771610
  0.1105185610381218  0.8007541655853054  0.4188619587334541
  0.6035019166097737  0.8055248044120525  0.5812877995935701
  0.9430764765212473  0.8020487886817642  0.3039665452284344
  0.8049809200593719  0.0040456713100195  0.5806417934346687
  0.6434545009797396  0.0015589504865654  0.3043512652736372
  0.5060039574076076  0.2002593995694716  0.5813072250216907
  0.8433421885785578  0.2010290477880865  0.3039363598055680
  0.7007476025624126  0.4010893102613856  0.5803549977309461
  0.9708940893122904  0.0032326269983442  0.6957201236481954
  0.5436159133966819  0.4003367625587853  0.3037919006654590
  0.8130410322735693  0.0017354661353133  0.4193430847382212
  0.8993682592361073  0.6045201513869515  0.5800095537434105
  0.6705015170471207  0.2044711257541765  0.6956262550013098
  0.7430056481291525  0.6027043916580508  0.3038059582627818
  0.5100753050348420  0.2026307665803019  0.4188261635311465
  0.8691275000494699  0.4040645110972431  0.6950287702121967
  0.7080002537815167  0.4022520371325323  0.4188684172822559
  0.5691113535556593  0.6029120384453974  0.6951231787464692
  0.9082228812211141  0.6014166781969998  0.4189040111393300
  0.7715673834574098  0.8007002470447395  0.6959144695744671
  0.6104796483198556  0.8007464695838984  0.4188068374138038
  0.0615271018493269  0.6209564021347639  0.7656143592399941
  0.0652927992043679  0.4762713441387235  0.7911797755180958
  0.1519067893700285  0.4250145126728925  0.7965300088159513
 
  0.00000000E+00  0.00000000E+00  0.00000000E+00
  0.00000000E+00  0.00000000E+00  0.00000000E+00
  0.00000000E+00  0.00000000E+00  0.00000000E+00
  0.00000000E+00  0.00000000E+00  0.00000000E+00
  0.00000000E+00  0.00000000E+00  0.00000000E+00
  0.00000000E+00  0.00000000E+00  0.00000000E+00
  0.00000000E+00  0.00000000E+00  0.00000000E+00
  0.00000000E+00  0.00000000E+00  0.00000000E+00
  0.00000000E+00  0.00000000E+00  0.00000000E+00
  0.00000000E+00  0.00000000E+00  0.00000000E+00
  0.00000000E+00  0.00000000E+00  0.00000000E+00
  0.00000000E+00  0.00000000E+00  0.00000000E+00
  0.00000000E+00  0.00000000E+00  0.00000000E+00
  0.00000000E+00  0.00000000E+00  0.00000000E+00
  0.00000000E+00  0.00000000E+00  0.00000000E+00
  0.00000000E+00  0.00000000E+00  0.00000000E+00
  0.00000000E+00  0.00000000E+00  0.00000000E+00
  0.00000000E+00  0.00000000E+00  0.00000000E+00
  0.00000000E+00  0.00000000E+00  0.00000000E+00
  0.00000000E+00  0.00000000E+00  0.00000000E+00
  0.00000000E+00  0.00000000E+00  0.00000000E+00
  0.00000000E+00  0.00000000E+00  0.00000000E+00
  0.00000000E+00  0.00000000E+00  0.00000000E+00
  0.00000000E+00  0.00000000E+00  0.00000000E+00
  0.00000000E+00  0.00000000E+00  0.00000000E+00
  0.00000000E+00  0.00000000E+00  0.00000000E+00
  0.00000000E+00  0.00000000E+00  0.00000000E+00
  0.00000000E+00  0.00000000E+00  0.00000000E+00
  0.00000000E+00  0.00000000E+00  0.00000000E+00
  0.00000000E+00  0.00000000E+00  0.00000000E+00
  0.00000000E+00  0.00000000E+00  0.00000000E+00
  0.00000000E+00  0.00000000E+00  0.00000000E+00
  0.00000000E+00  0.00000000E+00  0.00000000E+00
  0.00000000E+00  0.00000000E+00  0.00000000E+00
  0.00000000E+00  0.00000000E+00  0.00000000E+00
  0.00000000E+00  0.00000000E+00  0.00000000E+00
  0.00000000E+00  0.00000000E+00  0.00000000E+00
  0.00000000E+00  0.00000000E+00  0.00000000E+00
  0.00000000E+00  0.00000000E+00  0.00000000E+00
  0.00000000E+00  0.00000000E+00  0.00000000E+00
  0.00000000E+00  0.00000000E+00  0.00000000E+00
  0.00000000E+00  0.00000000E+00  0.00000000E+00
  0.00000000E+00  0.00000000E+00  0.00000000E+00
  0.00000000E+00  0.00000000E+00  0.00000000E+00
  0.00000000E+00  0.00000000E+00  0.00000000E+00
  0.00000000E+00  0.00000000E+00  0.00000000E+00
  0.00000000E+00  0.00000000E+00  0.00000000E+00
  0.00000000E+00  0.00000000E+00  0.00000000E+00
  0.00000000E+00  0.00000000E+00  0.00000000E+00
  0.00000000E+00  0.00000000E+00  0.00000000E+00
  0.00000000E+00  0.00000000E+00  0.00000000E+00
  0.00000000E+00  0.00000000E+00  0.00000000E+00
  0.00000000E+00  0.00000000E+00  0.00000000E+00
  0.00000000E+00  0.00000000E+00  0.00000000E+00
  0.00000000E+00  0.00000000E+00  0.00000000E+00
  0.00000000E+00  0.00000000E+00  0.00000000E+00
  0.00000000E+00  0.00000000E+00  0.00000000E+00
  0.00000000E+00  0.00000000E+00  0.00000000E+00
  0.00000000E+00  0.00000000E+00  0.00000000E+00
  0.00000000E+00  0.00000000E+00  0.00000000E+00
  0.00000000E+00  0.00000000E+00  0.00000000E+00
  0.00000000E+00  0.00000000E+00  0.00000000E+00
  0.00000000E+00  0.00000000E+00  0.00000000E+00
  0.00000000E+00  0.00000000E+00  0.00000000E+00
  0.00000000E+00  0.00000000E+00  0.00000000E+00
  0.00000000E+00  0.00000000E+00  0.00000000E+00
  0.00000000E+00  0.00000000E+00  0.00000000E+00
  0.00000000E+00  0.00000000E+00  0.00000000E+00
  0.00000000E+00  0.00000000E+00  0.00000000E+00
