 K4 P4 Pd2                              
   1.00000000000000     
     5.6749223166327383    0.0000000000000000    0.0000000000000000
     0.0000000000000000    6.2940636205806690    0.0000000000000000
     0.0000000000000000    0.0000000000000000   20.9256238910720000
   K    P    Pd
     4     4     2
Direct
  0.2499999560332711  0.9999999846609811  0.3580762256021169
  0.2499999797816841  0.4999999268941053  0.4505406022481755
  0.7500000443823538  0.9999999761291676  0.6419237749303426
  0.7500000200009822  0.4999999282905776  0.5494593983377949
  0.2499999697838007  0.8249452598702435  0.5799014800434960
  0.7500000389224653  0.8249452725193963  0.4200985088710426
  0.7500000316699342  0.1750540709248482  0.4200984919147218
  0.2499999596532092  0.1750540639569961  0.5799015173725975
  0.9999999984035952  0.9999997614397387  0.5000000003521734
  0.5000000013686972  0.9999997553139224  0.5000000003275389
 
  0.00000000E+00  0.00000000E+00  0.00000000E+00
  0.00000000E+00  0.00000000E+00  0.00000000E+00
  0.00000000E+00  0.00000000E+00  0.00000000E+00
  0.00000000E+00  0.00000000E+00  0.00000000E+00
  0.00000000E+00  0.00000000E+00  0.00000000E+00
  0.00000000E+00  0.00000000E+00  0.00000000E+00
  0.00000000E+00  0.00000000E+00  0.00000000E+00
  0.00000000E+00  0.00000000E+00  0.00000000E+00
  0.00000000E+00  0.00000000E+00  0.00000000E+00
  0.00000000E+00  0.00000000E+00  0.00000000E+00
