 Bi2 Te5 Pb2                            
   1.00000000000000     
     4.4731139411549616    0.0000000000000000    0.0000000000000000
    -2.2365574654655287    3.8721405864137637    0.0000000000000000
     0.0000000000000000    0.0000000000000000   30.7367510974080034
   Bi   Te   Pb
     2     5     2
Direct
  0.3333317207683602  0.6666635474068705  0.4351667518909532
  0.6666681974325938  0.3333363534633793  0.5648324232774685
  0.6666681510000440  0.3333361340882929  0.7568344010599466
  0.6666683177998132  0.3333366814556850  0.3803006980475934
  0.3333318907862259  0.6666637571593694  0.6196950614075121
  0.0000001675220520  0.0000003398408471  0.4999987639566570
  0.3333319087725097  0.6666639407907270  0.2431688344975694
 -0.0000030045535384 -0.0000058144094378  0.2955654708801947
  0.0000026504719397  0.0000050602042666  0.7044375949821047
 
  0.00000000E+00  0.00000000E+00  0.00000000E+00
  0.00000000E+00  0.00000000E+00  0.00000000E+00
  0.00000000E+00  0.00000000E+00  0.00000000E+00
  0.00000000E+00  0.00000000E+00  0.00000000E+00
  0.00000000E+00  0.00000000E+00  0.00000000E+00
  0.00000000E+00  0.00000000E+00  0.00000000E+00
  0.00000000E+00  0.00000000E+00  0.00000000E+00
  0.00000000E+00  0.00000000E+00  0.00000000E+00
  0.00000000E+00  0.00000000E+00  0.00000000E+00
