CONTCAR                                 
   1.00000000000000     
    11.9881000519000001    0.0000000000000000    0.0000000000000000
    -5.9940500259000000   10.3819991880000000    0.0000000000000000
     0.0000000000000000    0.0000000000000000   19.4675998688000007
   Ti   C    O    H 
    32    16    32     1
Direct
  0.1668714762328329  0.0831033075340722  0.5676669082601482
  0.0836144662683294  0.1663553582788522  0.4337910360959233
  0.4161591394610510  0.0830969274691794  0.5676619824931999
  0.3331482929076972  0.1663668060615004  0.4334537863269197
  0.6662378826378255  0.0840391724676579  0.5680392973197567
  0.5826569214988067  0.1663510141799428  0.4337897400056702
  0.9177280599765071  0.0840485620470970  0.5680379052572947
  0.8336078873546852  0.1673080392277092  0.4337051227792366
  0.1659248550874293  0.3322438262577082  0.5680312101431382
  0.0826551953086931  0.4163539251796919  0.4336964392664703
  0.4169227159784048  0.3339489799863906  0.5674733462460344
  0.3328382522367765  0.4161166952357807  0.4322612438162623
  0.6662407528805766  0.3322328905436895  0.5680464542660350
  0.5832098099717143  0.4161238139927099  0.4322901840465316
  0.9166275576311400  0.3333361681326129  0.5682477264424446
  0.8336112277954950  0.4163480715901228  0.4337147648145013
  0.1659288312175008  0.5837260509959675  0.5680318125738818
  0.0836166871416949  0.6673070396756275  0.4337914275866616
  0.4094760650844141  0.5797629640240411  0.5637368710843550
  0.3328392560474970  0.6667606317151602  0.4322582239146232
  0.6702029633273142  0.5797498685311377  0.5637925155528682
  0.5833005563353656  0.6666689056582107  0.4336875498155257
  0.9177312236056293  0.5837206388895083  0.5680441697592811
  0.8338480103196323  0.6667618881043249  0.4322898971939828
  0.1668687623357186  0.8338046904721368  0.5676683314769749
  0.0836070684012256  0.9168231259466028  0.4334624003283775
  0.4169277064865487  0.8330245553917400  0.5674671271036404
  0.3331477679101459  0.9168263092892458  0.4334513457036901
  0.6701961069179450  0.8404893193271327  0.5637559220964389
  0.5832095509886932  0.9171268592860375  0.4322691570503117
  0.9160159102527423  0.8330367270362472  0.5674798492478154
  0.8338516820578803  0.9171280671260255  0.4322724275268969
  0.0000487803033942  0.0000984491850187  0.5003903012137805
  0.2499660023346195  0.0000010016967314  0.5005399479752238
  0.4999786363893161  0.0000966521628024  0.5003834657553512
  0.7499698123000030  0.0000092262513750  0.5005675113078306
  0.0000062309076862  0.2499671089715304  0.5009259229140179
  0.2498748331733341  0.2499259291853257  0.5003838836514577
  0.4999813898504627  0.2499155523976508  0.5003904056121306
  0.7498884275540652  0.2499619655534728  0.5009344776042784
  0.0000049382440889  0.5000725680982202  0.5009281937401279
  0.2499510860832122  0.4999945689835731  0.5005523169815080
  0.5004594442285817  0.5009828748988243  0.5005760194397332
  0.7499631716331636  0.5000064273335251  0.5005860152893247
  0.0000550775837772  0.7499893874675106  0.5003928650576741
  0.2498753288426128  0.7499893910870742  0.5003807635926700
  0.5004563996073557  0.7495147861852367  0.5005598061859541
  0.7489859392649538  0.7495134258565459  0.5005882468498868
  0.0834573271889403  0.1665223742159326  0.6158858727160462
  0.1666747588168171  0.0832929094775376  0.3855865165905316
  0.3333553435676961  0.1667822688237204  0.6153125461896009
  0.4165593322752403  0.0833028450032731  0.3855821795894555
  0.5829943438971043  0.1665105366133590  0.6158980001249145
  0.6671562314419475  0.0835934131791849  0.3857021095264511
  0.8332508020251279  0.1665692129924872  0.6157246144338595
  0.9163646704667309  0.0835866400385765  0.3857064498886676
  0.0834029203021378  0.4167198963089433  0.6157175184697402
  0.1663733449645188  0.3335937057039554  0.3857006109396581
  0.3337818351459232  0.4173373555569209  0.6152956179143715
  0.4169159149957390  0.3339024770761874  0.3854470388329018
  0.5834654066440955  0.4173179439472651  0.6153095746790388
  0.6671514358794650  0.3336043849955825  0.3857102314698027
  0.8332526414400883  0.4167159787218646  0.6157312862349746
  0.9166252642596441  0.3333376016870231  0.3856196632665557
  0.0834606919384163  0.6669702815964627  0.6158936872067110
  0.1663719749312462  0.5828147498722380  0.3856978633056147
  0.3337895783526105  0.6664910632754151  0.6152926550267634
  0.4162778393708469  0.5831562441074615  0.3850829013355407
  0.5831904963440191  0.6666799055674929  0.6233543438262878
  0.6668274572115824  0.5831530107350640  0.3850981052587866
  0.8326489599149891  0.6664971421512763  0.6153088528335027
  0.9163617291197336  0.5828219978268737  0.3857111010129352
  0.0831873374330662  0.9166133283785932  0.6153161490750138
  0.1666671845371392  0.8334135277730568  0.3855849248775163
  0.3333559563197276  0.9166108474868595  0.6153108204501770
  0.4169150031421142  0.8330541974467980  0.3854373475421593
  0.5834730283499361  0.9161813782546603  0.6152994717043788
  0.6668211886200401  0.8336969474770742  0.3850893030923112
  0.8326366775315355  0.9161933545175817  0.6153027037839692
  0.9160684215387428  0.8330554662472981  0.3854549820563921
  0.5827967280744917  0.6667165559757506  0.6734384419795206
 
  0.00000000E+00  0.00000000E+00  0.00000000E+00
  0.00000000E+00  0.00000000E+00  0.00000000E+00
  0.00000000E+00  0.00000000E+00  0.00000000E+00
  0.00000000E+00  0.00000000E+00  0.00000000E+00
  0.00000000E+00  0.00000000E+00  0.00000000E+00
  0.00000000E+00  0.00000000E+00  0.00000000E+00
  0.00000000E+00  0.00000000E+00  0.00000000E+00
  0.00000000E+00  0.00000000E+00  0.00000000E+00
  0.00000000E+00  0.00000000E+00  0.00000000E+00
  0.00000000E+00  0.00000000E+00  0.00000000E+00
  0.00000000E+00  0.00000000E+00  0.00000000E+00
  0.00000000E+00  0.00000000E+00  0.00000000E+00
  0.00000000E+00  0.00000000E+00  0.00000000E+00
  0.00000000E+00  0.00000000E+00  0.00000000E+00
  0.00000000E+00  0.00000000E+00  0.00000000E+00
  0.00000000E+00  0.00000000E+00  0.00000000E+00
  0.00000000E+00  0.00000000E+00  0.00000000E+00
  0.00000000E+00  0.00000000E+00  0.00000000E+00
  0.00000000E+00  0.00000000E+00  0.00000000E+00
  0.00000000E+00  0.00000000E+00  0.00000000E+00
  0.00000000E+00  0.00000000E+00  0.00000000E+00
  0.00000000E+00  0.00000000E+00  0.00000000E+00
  0.00000000E+00  0.00000000E+00  0.00000000E+00
  0.00000000E+00  0.00000000E+00  0.00000000E+00
  0.00000000E+00  0.00000000E+00  0.00000000E+00
  0.00000000E+00  0.00000000E+00  0.00000000E+00
  0.00000000E+00  0.00000000E+00  0.00000000E+00
  0.00000000E+00  0.00000000E+00  0.00000000E+00
  0.00000000E+00  0.00000000E+00  0.00000000E+00
  0.00000000E+00  0.00000000E+00  0.00000000E+00
  0.00000000E+00  0.00000000E+00  0.00000000E+00
  0.00000000E+00  0.00000000E+00  0.00000000E+00
  0.00000000E+00  0.00000000E+00  0.00000000E+00
  0.00000000E+00  0.00000000E+00  0.00000000E+00
  0.00000000E+00  0.00000000E+00  0.00000000E+00
  0.00000000E+00  0.00000000E+00  0.00000000E+00
  0.00000000E+00  0.00000000E+00  0.00000000E+00
  0.00000000E+00  0.00000000E+00  0.00000000E+00
  0.00000000E+00  0.00000000E+00  0.00000000E+00
  0.00000000E+00  0.00000000E+00  0.00000000E+00
  0.00000000E+00  0.00000000E+00  0.00000000E+00
  0.00000000E+00  0.00000000E+00  0.00000000E+00
  0.00000000E+00  0.00000000E+00  0.00000000E+00
  0.00000000E+00  0.00000000E+00  0.00000000E+00
  0.00000000E+00  0.00000000E+00  0.00000000E+00
  0.00000000E+00  0.00000000E+00  0.00000000E+00
  0.00000000E+00  0.00000000E+00  0.00000000E+00
  0.00000000E+00  0.00000000E+00  0.00000000E+00
  0.00000000E+00  0.00000000E+00  0.00000000E+00
  0.00000000E+00  0.00000000E+00  0.00000000E+00
  0.00000000E+00  0.00000000E+00  0.00000000E+00
  0.00000000E+00  0.00000000E+00  0.00000000E+00
  0.00000000E+00  0.00000000E+00  0.00000000E+00
  0.00000000E+00  0.00000000E+00  0.00000000E+00
  0.00000000E+00  0.00000000E+00  0.00000000E+00
  0.00000000E+00  0.00000000E+00  0.00000000E+00
  0.00000000E+00  0.00000000E+00  0.00000000E+00
  0.00000000E+00  0.00000000E+00  0.00000000E+00
  0.00000000E+00  0.00000000E+00  0.00000000E+00
  0.00000000E+00  0.00000000E+00  0.00000000E+00
  0.00000000E+00  0.00000000E+00  0.00000000E+00
  0.00000000E+00  0.00000000E+00  0.00000000E+00
  0.00000000E+00  0.00000000E+00  0.00000000E+00
  0.00000000E+00  0.00000000E+00  0.00000000E+00
  0.00000000E+00  0.00000000E+00  0.00000000E+00
  0.00000000E+00  0.00000000E+00  0.00000000E+00
  0.00000000E+00  0.00000000E+00  0.00000000E+00
  0.00000000E+00  0.00000000E+00  0.00000000E+00
  0.00000000E+00  0.00000000E+00  0.00000000E+00
  0.00000000E+00  0.00000000E+00  0.00000000E+00
  0.00000000E+00  0.00000000E+00  0.00000000E+00
  0.00000000E+00  0.00000000E+00  0.00000000E+00
  0.00000000E+00  0.00000000E+00  0.00000000E+00
  0.00000000E+00  0.00000000E+00  0.00000000E+00
  0.00000000E+00  0.00000000E+00  0.00000000E+00
  0.00000000E+00  0.00000000E+00  0.00000000E+00
  0.00000000E+00  0.00000000E+00  0.00000000E+00
  0.00000000E+00  0.00000000E+00  0.00000000E+00
  0.00000000E+00  0.00000000E+00  0.00000000E+00
  0.00000000E+00  0.00000000E+00  0.00000000E+00
  0.00000000E+00  0.00000000E+00  0.00000000E+00
