CONTCAR\(3)                             
   1.00000000000000     
    12.9610004424999996    0.0000000000000000    0.0000000000000000
     0.0000000000000000   15.8519001007000000    0.0000000000000000
     0.0000000000000000    0.0000000000000000   18.7994003296000010
   Nb   Ge   Te   O 
    16     8    32     1
Direct
  0.1810195511643667  0.0172739578037764  0.5004767835741410
  0.3241915076747861  0.2671612750670243  0.5000452375767286
  0.4311389901045807  0.1067440562883511  0.5003902841375888
  0.0743321918509676  0.3564803885972658  0.5003929360642637
  0.6810778462917776  0.0170446066382536  0.5006013948686365
  0.8242765212379201  0.2669285676406405  0.5004087758113658
  0.9310966981242688  0.1066202922196135  0.5005728729376057
  0.5746381042573707  0.3563852817029191  0.4999248785051243
  0.1799664086161376  0.5159521948203907  0.5012757260332904
  0.3248994703983011  0.7678229243371837  0.5002470191140324
  0.4347851882234299  0.6057177828242291  0.4992528396780150
  0.0738878738526640  0.8572582223393070  0.5004011958301275
  0.6812408747511421  0.5166834992431933  0.5000305845925563
  0.8240890593991160  0.7668304118648078  0.5006021996979350
  0.9310343879207579  0.6063938744263347  0.5005230348591859
  0.5741541182293263  0.8565316167018492  0.5004192242822207
  0.1277379628190655  0.1867892899489208  0.5002978913625996
  0.3786708645269568  0.4366024809797326  0.4994026996417575
  0.6277255612525601  0.1867359305217169  0.5003129058659074
  0.8776148459209310  0.4365662050122051  0.5004858047426866
  0.1248761687547502  0.6884885470029010  0.4982302369047159
  0.3775837404209983  0.9371900373568695  0.5006579154814461
  0.6279398623351130  0.6870366921858658  0.5003547642299345
  0.8775456874432015  0.9368609876260238  0.5007653223866291
  0.0207918453739521  0.4933134512778480  0.3990288984724361
  0.4836186929474705  0.2442836227084084  0.6015741607531041
  0.2340328243087756  0.3795827348510697  0.6017886451414910
  0.2717173233631127  0.1295229729816212  0.3989758380857706
  0.4837712091636036  0.2437674164110557  0.3986613896663928
  0.0209952711325792  0.4935802348158823  0.6022463895747561
  0.2716569029597551  0.1298332308729817  0.6017016556960489
  0.2336636235332816  0.3796261958192007  0.3987118799999795
  0.5228224470483406  0.4930664782986441  0.3976943788164598
  0.9837869937250557  0.2439593338049191  0.6017968729650706
  0.7335933269408775  0.3794800333838783  0.6017370227206945
  0.7716901977169501  0.1293730157206995  0.3991132008593572
  0.9834741965296501  0.2438657100530288  0.3990094846582545
  0.5221042969370816  0.4939189818247888  0.6017334745101721
  0.7715129754147177  0.1296810006244101  0.6017903118679491
  0.7343796557429417  0.3791518748844427  0.3987375203890467
  0.0214706245609008  0.9943326720211542  0.3991656335548167
  0.4842602982594442  0.7436166435958496  0.6020761583653043
  0.2333758080441160  0.8792886153637705  0.6017581366342781
  0.2721489122180992  0.6293154911573731  0.3998549027738770
  0.4843129433760357  0.7445446998757722  0.3987128149993905
  0.0216637451471636  0.9943693356446307  0.6020191146947471
  0.2748743311005224  0.6284098471990596  0.5953970259345630
  0.2334749402567862  0.8804034660255362  0.3990464874568626
  0.5217614890988771  0.9939872334761107  0.3992444030706762
  0.9839639614475590  0.7437870850941938  0.6019288063479825
  0.7336010760729648  0.8796270926326780  0.6019686534797700
  0.7718701049979417  0.6293703117586633  0.3989902989616309
  0.9828255162928007  0.7443727230496622  0.3986435455708779
  0.5215051497025531  0.9940882923786223  0.6018568444788852
  0.7715161899296318  0.6293238893101091  0.6015759130402749
  0.7337044254869147  0.8796304238334088  0.3993254042912068
  0.2798152705990187  0.6382668081011044  0.6935425159894331
 
  0.00000000E+00  0.00000000E+00  0.00000000E+00
  0.00000000E+00  0.00000000E+00  0.00000000E+00
  0.00000000E+00  0.00000000E+00  0.00000000E+00
  0.00000000E+00  0.00000000E+00  0.00000000E+00
  0.00000000E+00  0.00000000E+00  0.00000000E+00
  0.00000000E+00  0.00000000E+00  0.00000000E+00
  0.00000000E+00  0.00000000E+00  0.00000000E+00
  0.00000000E+00  0.00000000E+00  0.00000000E+00
  0.00000000E+00  0.00000000E+00  0.00000000E+00
  0.00000000E+00  0.00000000E+00  0.00000000E+00
  0.00000000E+00  0.00000000E+00  0.00000000E+00
  0.00000000E+00  0.00000000E+00  0.00000000E+00
  0.00000000E+00  0.00000000E+00  0.00000000E+00
  0.00000000E+00  0.00000000E+00  0.00000000E+00
  0.00000000E+00  0.00000000E+00  0.00000000E+00
  0.00000000E+00  0.00000000E+00  0.00000000E+00
  0.00000000E+00  0.00000000E+00  0.00000000E+00
  0.00000000E+00  0.00000000E+00  0.00000000E+00
  0.00000000E+00  0.00000000E+00  0.00000000E+00
  0.00000000E+00  0.00000000E+00  0.00000000E+00
  0.00000000E+00  0.00000000E+00  0.00000000E+00
  0.00000000E+00  0.00000000E+00  0.00000000E+00
  0.00000000E+00  0.00000000E+00  0.00000000E+00
  0.00000000E+00  0.00000000E+00  0.00000000E+00
  0.00000000E+00  0.00000000E+00  0.00000000E+00
  0.00000000E+00  0.00000000E+00  0.00000000E+00
  0.00000000E+00  0.00000000E+00  0.00000000E+00
  0.00000000E+00  0.00000000E+00  0.00000000E+00
  0.00000000E+00  0.00000000E+00  0.00000000E+00
  0.00000000E+00  0.00000000E+00  0.00000000E+00
  0.00000000E+00  0.00000000E+00  0.00000000E+00
  0.00000000E+00  0.00000000E+00  0.00000000E+00
  0.00000000E+00  0.00000000E+00  0.00000000E+00
  0.00000000E+00  0.00000000E+00  0.00000000E+00
  0.00000000E+00  0.00000000E+00  0.00000000E+00
  0.00000000E+00  0.00000000E+00  0.00000000E+00
  0.00000000E+00  0.00000000E+00  0.00000000E+00
  0.00000000E+00  0.00000000E+00  0.00000000E+00
  0.00000000E+00  0.00000000E+00  0.00000000E+00
  0.00000000E+00  0.00000000E+00  0.00000000E+00
  0.00000000E+00  0.00000000E+00  0.00000000E+00
  0.00000000E+00  0.00000000E+00  0.00000000E+00
  0.00000000E+00  0.00000000E+00  0.00000000E+00
  0.00000000E+00  0.00000000E+00  0.00000000E+00
  0.00000000E+00  0.00000000E+00  0.00000000E+00
  0.00000000E+00  0.00000000E+00  0.00000000E+00
  0.00000000E+00  0.00000000E+00  0.00000000E+00
  0.00000000E+00  0.00000000E+00  0.00000000E+00
  0.00000000E+00  0.00000000E+00  0.00000000E+00
  0.00000000E+00  0.00000000E+00  0.00000000E+00
  0.00000000E+00  0.00000000E+00  0.00000000E+00
  0.00000000E+00  0.00000000E+00  0.00000000E+00
  0.00000000E+00  0.00000000E+00  0.00000000E+00
  0.00000000E+00  0.00000000E+00  0.00000000E+00
  0.00000000E+00  0.00000000E+00  0.00000000E+00
  0.00000000E+00  0.00000000E+00  0.00000000E+00
  0.00000000E+00  0.00000000E+00  0.00000000E+00
