CONTCAR\(12)                            
   1.00000000000000     
    11.5721998214999999    0.0000000000000000    0.0000000000000000
     0.0000000000000000   11.5721998214999999    0.0000000000000000
     0.0000000000000000    0.0000000000000000   18.7880992888999998
   Nd   I    O    H 
     9    18     1     1
Direct
  0.9997632229649720  0.0003750882355904  0.4951764073029867
  0.3332765081431137  0.0016135653680289  0.5001652878657522
  0.6672181886545504  0.0005326697051500  0.4952240505461686
  0.9997818359326556  0.3331042683643435  0.4951429843773679
  0.3332709830849643  0.3318763638080436  0.5000769043594759
  0.6670983993272854  0.3330233282794198  0.4952118278326743
  0.9985399039294260  0.6666608404947920  0.5000792103165957
  0.3339038737509045  0.6670582573358042  0.5315152769961676
  0.6682920701444133  0.6666763762956849  0.5001570621416173
  0.1685479367571718  0.1666616335745053  0.3966333065012063
  0.1671794980632999  0.1667853959739016  0.5976841693801486
  0.4982066649956447  0.1667207627454375  0.3966416048510860
  0.4995066400427937  0.1668193986833112  0.5977355095047205
  0.8333400413861215  0.1666961965197708  0.3928403976446392
  0.8333819003253342  0.1667097345565087  0.5966551405213720
  0.1679147532990127  0.5011962196915893  0.4015140775752959
  0.1513065935970795  0.4846461221539023  0.6010295190873772
  0.4988421721989433  0.5013390950506057  0.4017461136275781
  0.5155520657708912  0.4846732125832643  0.6011913911293206
  0.8333289612128946  0.5018840761236664  0.3966226129679185
  0.8334733631831149  0.5005279122312077  0.5977168462954071
  0.1679907800976378  0.8321279682660917  0.4016674124570248
  0.1512594334115273  0.8488664470821375  0.6011478930729247
  0.4988309290594382  0.8321739564565805  0.4019227247545994
  0.5155308748339107  0.8488768510810534  0.6012951076205719
  0.8333720901055264  0.8315585781110015  0.3966440563415299
  0.8334716626439035  0.8328543233014825  0.5977267660598943
  0.3326393450152603  0.6663236201036462  0.6441610659383826
  0.3407892590682504  0.6709576618235091  0.6952555109302123
 
  0.00000000E+00  0.00000000E+00  0.00000000E+00
  0.00000000E+00  0.00000000E+00  0.00000000E+00
  0.00000000E+00  0.00000000E+00  0.00000000E+00
  0.00000000E+00  0.00000000E+00  0.00000000E+00
  0.00000000E+00  0.00000000E+00  0.00000000E+00
  0.00000000E+00  0.00000000E+00  0.00000000E+00
  0.00000000E+00  0.00000000E+00  0.00000000E+00
  0.00000000E+00  0.00000000E+00  0.00000000E+00
  0.00000000E+00  0.00000000E+00  0.00000000E+00
  0.00000000E+00  0.00000000E+00  0.00000000E+00
  0.00000000E+00  0.00000000E+00  0.00000000E+00
  0.00000000E+00  0.00000000E+00  0.00000000E+00
  0.00000000E+00  0.00000000E+00  0.00000000E+00
  0.00000000E+00  0.00000000E+00  0.00000000E+00
  0.00000000E+00  0.00000000E+00  0.00000000E+00
  0.00000000E+00  0.00000000E+00  0.00000000E+00
  0.00000000E+00  0.00000000E+00  0.00000000E+00
  0.00000000E+00  0.00000000E+00  0.00000000E+00
  0.00000000E+00  0.00000000E+00  0.00000000E+00
  0.00000000E+00  0.00000000E+00  0.00000000E+00
  0.00000000E+00  0.00000000E+00  0.00000000E+00
  0.00000000E+00  0.00000000E+00  0.00000000E+00
  0.00000000E+00  0.00000000E+00  0.00000000E+00
  0.00000000E+00  0.00000000E+00  0.00000000E+00
  0.00000000E+00  0.00000000E+00  0.00000000E+00
  0.00000000E+00  0.00000000E+00  0.00000000E+00
  0.00000000E+00  0.00000000E+00  0.00000000E+00
  0.00000000E+00  0.00000000E+00  0.00000000E+00
  0.00000000E+00  0.00000000E+00  0.00000000E+00
