CONTCAR\(10)                            
   1.00000000000000     
    14.1827001571999993    0.0000000000000000    0.0000000000000000
     0.0000000000000000   18.7943000793000010    0.0000000000000000
     0.0000000000000000    0.0000000000000000   21.0296001433999997
   Ta   Pt   Se   O 
    16     8    56     1
Direct
  0.1873867851062281  0.4229929183290525  0.5604738726805856
  0.0628160045103327  0.5785036728501858  0.4358257790010253
  0.0627330646541372  0.9041458601330127  0.4896744363582990
  0.1855908713722284  0.0963131037379784  0.5126417761751629
  0.4376249494065078  0.4229210823294044  0.5605196980828369
  0.3124975032938017  0.5784630171060312  0.4356426523189724
  0.3124621725801787  0.9039541413449225  0.4905058338251498
  0.4393216442532237  0.0962834760226827  0.5126505503721841
  0.6879218732383267  0.4230792751118311  0.5616709348451921
  0.5620775652305200  0.5784853393764551  0.4357001465086618
  0.5623103484278187  0.9041692680237364  0.4897595029643069
  0.6879006147140614  0.0967223127853600  0.5107343752442274
  0.9372753190086260  0.4230496079512438  0.5617198926648900
  0.8124504987428839  0.5784996285498560  0.4359691581034650
  0.8124745068861883  0.9042305982667701  0.4897157943012119
  0.9368593984800901  0.0968005589146111  0.5106429010893456
  0.0625183028383842  0.2260965313167108  0.5354177515136446
  0.1879691206571784  0.7749100924355091  0.4644432667693349
  0.3123756476963217  0.2302705001408516  0.5368560508620946
  0.4375625264433066  0.7749506125299762  0.4644114024486259
  0.5621969222203205  0.2260601151507061  0.5353511183577878
  0.6877063988899808  0.7747423060912241  0.4643321975480248
  0.8123425583277147  0.2261819804028285  0.5352412081169658
  0.9378457253740106  0.7747371220144147  0.4642000577028045
  0.0628682955388424  0.6970206628896665  0.5133503112172750
  0.1858138335868529  0.3042763447181957  0.4851640510483726
  0.0619320742749999  0.4353450816107477  0.4671037142024664
  0.1878856811771395  0.5654504402386347  0.5297093917340400
  0.1869451914142366  0.5263748377176050  0.3558926363499618
  0.0631791732022509  0.4756420364252330  0.6409967500165026
  0.1873366901886871  0.9845582517021845  0.4309442439668829
  0.0612627109777335  0.0165520516992148  0.5710799884591281
  0.0622415468391425  0.3386221140193771  0.6153262894729588
  0.1877939798236468  0.6648998439793522  0.3840225828707604
  0.1861753076212197  0.1730706139384706  0.6095533135660717
  0.0630245237888226  0.8284867602565124  0.3915392631993480
  0.0628474316406459  0.1452223433027507  0.4336952203181865
  0.1872205737545450  0.8542407971927982  0.5671349867847389
  0.3127265117871507  0.6968441553797484  0.5135985026775435
  0.4390108266551976  0.3042679900900951  0.4851437031152210
  0.3127083765264217  0.4348621637686054  0.4656125117070796
  0.4372004780008426  0.5652861906362162  0.5296462860359380
  0.4374414806528005  0.5268302189935412  0.3553699303370531
  0.3124790710869533  0.4792317600075577  0.6397913238870617
  0.4367281857046998  0.9844941290419152  0.4308419473637846
  0.3125902233612928  0.0169340537083011  0.5710847034223319
  0.3125766408102358  0.3329166785051837  0.6153955458834806
  0.4373636992223225  0.6649361052241834  0.3839812867116619
  0.4385716982619868  0.1730687936465140  0.6095193211880409
  0.3127646777928758  0.8289586850829314  0.3918023358157393
  0.3126012560859084  0.1503184900102864  0.4377562067413406
  0.4375081879417131  0.8542154528796668  0.5670520218004304
  0.5623834461422699  0.6970332582499320  0.5133155202649234
  0.6872596470812078  0.3034943638989277  0.4857184253180294
  0.5631378336530750  0.4352972422172253  0.4670567533819870
  0.6871734702059450  0.5659038544242049  0.5301247920807117
  0.6872110016520997  0.5261108129350545  0.3564574040270964
  0.5620021569882612  0.4756510508983428  0.6408941238846789
  0.6869832390241168  0.9839945286744091  0.4302660709713399
  0.5636867437535279  0.0165363341984272  0.5711252095864426
  0.5630027078714934  0.3385696197521764  0.6151453148294823
  0.6875370963884028  0.6649191810632917  0.3842037033410177
  0.6872348984925051  0.1735008203542163  0.6084234317927180
  0.5627228008426712  0.8285989514447737  0.3916141520692250
  0.5623575143964007  0.1452366217249678  0.4337233598088055
  0.6874388303456440  0.8542530193261896  0.5666640600378912
  0.8127739626411902  0.6970617563311630  0.5133202658571697
  0.9375879685691315  0.3034953733378732  0.4857781422291709
  0.8126068349706903  0.4351449589973609  0.4672346461096573
  0.9375921740049250  0.5658803349644762  0.5302272705878915
  0.9372882707355026  0.5259869464331943  0.3565395367955912
  0.8127044431362429  0.4758278698232306  0.6412440931581123
  0.9371542992706102  0.9840194880720653  0.4302263988863630
  0.8126081362180325  0.0169037300536232  0.5706031440533582
  0.8126304282424944  0.3371722029963985  0.6142285401763143
  0.9376484918510638  0.6648032065009625  0.3841577115153127
  0.9372497351356571  0.1735499869112292  0.6084398317642177
  0.8127305307584682  0.8285524623973244  0.3915393754731774
  0.8123070098190857  0.1460780601695883  0.4331763523319333
  0.9374563544782475  0.8542279825930391  0.5665169197342145
  0.3130617992594841  0.5673260306754951  0.6568764471849773
 
  0.00000000E+00  0.00000000E+00  0.00000000E+00
  0.00000000E+00  0.00000000E+00  0.00000000E+00
  0.00000000E+00  0.00000000E+00  0.00000000E+00
  0.00000000E+00  0.00000000E+00  0.00000000E+00
  0.00000000E+00  0.00000000E+00  0.00000000E+00
  0.00000000E+00  0.00000000E+00  0.00000000E+00
  0.00000000E+00  0.00000000E+00  0.00000000E+00
  0.00000000E+00  0.00000000E+00  0.00000000E+00
  0.00000000E+00  0.00000000E+00  0.00000000E+00
  0.00000000E+00  0.00000000E+00  0.00000000E+00
  0.00000000E+00  0.00000000E+00  0.00000000E+00
  0.00000000E+00  0.00000000E+00  0.00000000E+00
  0.00000000E+00  0.00000000E+00  0.00000000E+00
  0.00000000E+00  0.00000000E+00  0.00000000E+00
  0.00000000E+00  0.00000000E+00  0.00000000E+00
  0.00000000E+00  0.00000000E+00  0.00000000E+00
  0.00000000E+00  0.00000000E+00  0.00000000E+00
  0.00000000E+00  0.00000000E+00  0.00000000E+00
  0.00000000E+00  0.00000000E+00  0.00000000E+00
  0.00000000E+00  0.00000000E+00  0.00000000E+00
  0.00000000E+00  0.00000000E+00  0.00000000E+00
  0.00000000E+00  0.00000000E+00  0.00000000E+00
  0.00000000E+00  0.00000000E+00  0.00000000E+00
  0.00000000E+00  0.00000000E+00  0.00000000E+00
  0.00000000E+00  0.00000000E+00  0.00000000E+00
  0.00000000E+00  0.00000000E+00  0.00000000E+00
  0.00000000E+00  0.00000000E+00  0.00000000E+00
  0.00000000E+00  0.00000000E+00  0.00000000E+00
  0.00000000E+00  0.00000000E+00  0.00000000E+00
  0.00000000E+00  0.00000000E+00  0.00000000E+00
  0.00000000E+00  0.00000000E+00  0.00000000E+00
  0.00000000E+00  0.00000000E+00  0.00000000E+00
  0.00000000E+00  0.00000000E+00  0.00000000E+00
  0.00000000E+00  0.00000000E+00  0.00000000E+00
  0.00000000E+00  0.00000000E+00  0.00000000E+00
  0.00000000E+00  0.00000000E+00  0.00000000E+00
  0.00000000E+00  0.00000000E+00  0.00000000E+00
  0.00000000E+00  0.00000000E+00  0.00000000E+00
  0.00000000E+00  0.00000000E+00  0.00000000E+00
  0.00000000E+00  0.00000000E+00  0.00000000E+00
  0.00000000E+00  0.00000000E+00  0.00000000E+00
  0.00000000E+00  0.00000000E+00  0.00000000E+00
  0.00000000E+00  0.00000000E+00  0.00000000E+00
  0.00000000E+00  0.00000000E+00  0.00000000E+00
  0.00000000E+00  0.00000000E+00  0.00000000E+00
  0.00000000E+00  0.00000000E+00  0.00000000E+00
  0.00000000E+00  0.00000000E+00  0.00000000E+00
  0.00000000E+00  0.00000000E+00  0.00000000E+00
  0.00000000E+00  0.00000000E+00  0.00000000E+00
  0.00000000E+00  0.00000000E+00  0.00000000E+00
  0.00000000E+00  0.00000000E+00  0.00000000E+00
  0.00000000E+00  0.00000000E+00  0.00000000E+00
  0.00000000E+00  0.00000000E+00  0.00000000E+00
  0.00000000E+00  0.00000000E+00  0.00000000E+00
  0.00000000E+00  0.00000000E+00  0.00000000E+00
  0.00000000E+00  0.00000000E+00  0.00000000E+00
  0.00000000E+00  0.00000000E+00  0.00000000E+00
  0.00000000E+00  0.00000000E+00  0.00000000E+00
  0.00000000E+00  0.00000000E+00  0.00000000E+00
  0.00000000E+00  0.00000000E+00  0.00000000E+00
  0.00000000E+00  0.00000000E+00  0.00000000E+00
  0.00000000E+00  0.00000000E+00  0.00000000E+00
  0.00000000E+00  0.00000000E+00  0.00000000E+00
  0.00000000E+00  0.00000000E+00  0.00000000E+00
  0.00000000E+00  0.00000000E+00  0.00000000E+00
  0.00000000E+00  0.00000000E+00  0.00000000E+00
  0.00000000E+00  0.00000000E+00  0.00000000E+00
  0.00000000E+00  0.00000000E+00  0.00000000E+00
  0.00000000E+00  0.00000000E+00  0.00000000E+00
  0.00000000E+00  0.00000000E+00  0.00000000E+00
  0.00000000E+00  0.00000000E+00  0.00000000E+00
  0.00000000E+00  0.00000000E+00  0.00000000E+00
  0.00000000E+00  0.00000000E+00  0.00000000E+00
  0.00000000E+00  0.00000000E+00  0.00000000E+00
  0.00000000E+00  0.00000000E+00  0.00000000E+00
  0.00000000E+00  0.00000000E+00  0.00000000E+00
  0.00000000E+00  0.00000000E+00  0.00000000E+00
  0.00000000E+00  0.00000000E+00  0.00000000E+00
  0.00000000E+00  0.00000000E+00  0.00000000E+00
  0.00000000E+00  0.00000000E+00  0.00000000E+00
  0.00000000E+00  0.00000000E+00  0.00000000E+00
