CONTCAR\(3)                             
   1.00000000000000     
    13.3121995926000007    0.0000000000000000    0.0000000000000000
    -6.6560997963000004   11.5287030274000006    0.0000000000000000
     0.0000000000000000    0.0000000000000000   18.1366004943999997
   Nb   S    O    H 
    16    32     1     1
Direct
  0.9985408980942599  0.0020892644601632  0.5038487786812976
  0.2522664232581621  0.0005293613775116  0.5041028476011962
  0.4998367470903967  0.0004754332982462  0.5040948978989676
  0.7553055289018675  0.0018812499634651  0.5038826488288918
  0.0015139937622794  0.2514732204482563  0.5038473252641849
  0.2508397941310352  0.2544161153226945  0.5037682030444762
  0.5014116743130015  0.2510092033874334  0.5030768257021998
  0.7551681275325384  0.2545201787625866  0.5038088341392458
  0.9983951578354379  0.4978574672760088  0.5035927971070311
  0.2508498453846198  0.4977068742985861  0.5034084352556553
  0.4874544201654544  0.4943491411115931  0.5009472818093198
  0.7586379664558965  0.4943674123205918  0.5017893115254123
  0.0014984518670814  0.7515139871131213  0.5033076363578134
  0.2523008543540588  0.7531080763816116  0.5040069038789349
  0.5015402152488941  0.7514950638634263  0.5031723386059055
  0.7588154842348993  0.7654772762152985  0.5027001153073345
  0.1682474809952217  0.0846445273802157  0.4190926956198149
  0.1683124343427214  0.0852317249099565  0.5888649675041427
  0.4180366809129472  0.0841227862346041  0.4172316223059434
  0.4188182460627468  0.0858472147843139  0.5904418096118921
  0.6681441205394631  0.0845275695064339  0.4191570857119277
  0.6686147072278233  0.0849797478791317  0.5888214756783570
  0.9190715911336057  0.0864015497945703  0.4165275846165825
  0.9190416332413167  0.0863240460870361  0.5912829091436191
  0.1665057636830192  0.3335998487740933  0.4164212996796149
  0.1668473278887949  0.3341338563016293  0.5911439391404499
  0.4159437988971568  0.3306826643495737  0.4158182507015516
  0.4182382635123937  0.3342797353027942  0.5904879678048275
  0.6667385860289199  0.3312085720055059  0.4160013379081501
  0.6674529615767510  0.3335565025406614  0.5903136716855673
  0.9189360681494131  0.3339939658294263  0.4164088496446499
  0.9190473339450819  0.3341851401348093  0.5911481723776192
  0.1682106506592385  0.5849780245936462  0.4188156531883921
  0.1681019646523592  0.5843306546040885  0.5885487677523444
  0.4160441959169562  0.5864321807358036  0.4155281916944084
  0.4174312164126343  0.5850288465649057  0.5899663400120412
  0.6688139444371984  0.5852822254832794  0.4266795375620622
  0.6663147357637077  0.5842348255389014  0.5763708542955531
  0.9217137734884951  0.5863986443416233  0.4158468287003428
  0.9192283847746396  0.5852600045049116  0.5902064187602256
  0.1683475783947354  0.8348431752909503  0.4172201056656996
  0.1671440585857765  0.8341578510402886  0.5904836757585499
  0.4180572517566644  0.8349123953275864  0.4172300663583682
  0.4187487361168543  0.8341173042892626  0.5903821420684983
  0.6671116760252012  0.8365173662265971  0.4162316403716652
  0.6673383262615007  0.8353895197879927  0.5905158758861250
  0.9213878928920811  0.8368382638209180  0.4161760338080089
  0.9197647802474364  0.8356045468409742  0.5906880190349727
  0.6654112193446163  0.5868462492282108  0.6671060372577573
  0.5967470365026547  0.5148787723647417  0.6838147156824096
 
  0.00000000E+00  0.00000000E+00  0.00000000E+00
  0.00000000E+00  0.00000000E+00  0.00000000E+00
  0.00000000E+00  0.00000000E+00  0.00000000E+00
  0.00000000E+00  0.00000000E+00  0.00000000E+00
  0.00000000E+00  0.00000000E+00  0.00000000E+00
  0.00000000E+00  0.00000000E+00  0.00000000E+00
  0.00000000E+00  0.00000000E+00  0.00000000E+00
  0.00000000E+00  0.00000000E+00  0.00000000E+00
  0.00000000E+00  0.00000000E+00  0.00000000E+00
  0.00000000E+00  0.00000000E+00  0.00000000E+00
  0.00000000E+00  0.00000000E+00  0.00000000E+00
  0.00000000E+00  0.00000000E+00  0.00000000E+00
  0.00000000E+00  0.00000000E+00  0.00000000E+00
  0.00000000E+00  0.00000000E+00  0.00000000E+00
  0.00000000E+00  0.00000000E+00  0.00000000E+00
  0.00000000E+00  0.00000000E+00  0.00000000E+00
  0.00000000E+00  0.00000000E+00  0.00000000E+00
  0.00000000E+00  0.00000000E+00  0.00000000E+00
  0.00000000E+00  0.00000000E+00  0.00000000E+00
  0.00000000E+00  0.00000000E+00  0.00000000E+00
  0.00000000E+00  0.00000000E+00  0.00000000E+00
  0.00000000E+00  0.00000000E+00  0.00000000E+00
  0.00000000E+00  0.00000000E+00  0.00000000E+00
  0.00000000E+00  0.00000000E+00  0.00000000E+00
  0.00000000E+00  0.00000000E+00  0.00000000E+00
  0.00000000E+00  0.00000000E+00  0.00000000E+00
  0.00000000E+00  0.00000000E+00  0.00000000E+00
  0.00000000E+00  0.00000000E+00  0.00000000E+00
  0.00000000E+00  0.00000000E+00  0.00000000E+00
  0.00000000E+00  0.00000000E+00  0.00000000E+00
  0.00000000E+00  0.00000000E+00  0.00000000E+00
  0.00000000E+00  0.00000000E+00  0.00000000E+00
  0.00000000E+00  0.00000000E+00  0.00000000E+00
  0.00000000E+00  0.00000000E+00  0.00000000E+00
  0.00000000E+00  0.00000000E+00  0.00000000E+00
  0.00000000E+00  0.00000000E+00  0.00000000E+00
  0.00000000E+00  0.00000000E+00  0.00000000E+00
  0.00000000E+00  0.00000000E+00  0.00000000E+00
  0.00000000E+00  0.00000000E+00  0.00000000E+00
  0.00000000E+00  0.00000000E+00  0.00000000E+00
  0.00000000E+00  0.00000000E+00  0.00000000E+00
  0.00000000E+00  0.00000000E+00  0.00000000E+00
  0.00000000E+00  0.00000000E+00  0.00000000E+00
  0.00000000E+00  0.00000000E+00  0.00000000E+00
  0.00000000E+00  0.00000000E+00  0.00000000E+00
  0.00000000E+00  0.00000000E+00  0.00000000E+00
  0.00000000E+00  0.00000000E+00  0.00000000E+00
  0.00000000E+00  0.00000000E+00  0.00000000E+00
  0.00000000E+00  0.00000000E+00  0.00000000E+00
  0.00000000E+00  0.00000000E+00  0.00000000E+00
