CONTCAR                                 
   1.00000000000000     
    12.3818998337000004    0.0000000000000000    0.0000000000000000
     0.0000000000000000   16.1389999390000014    0.0000000000000000
     0.0000000000000000    0.0000000000000000   23.5562000275000010
   Ag   Ru   F    O 
    24    24   168     1
Direct
  0.0831724921087983  0.3061331208157752  0.4595253765245684
  0.2465798408472570  0.4251727436278370  0.5511164616508747
  0.2458778586116777  0.1767781779340148  0.5531487962608498
  0.0781722468592922  0.0581808591861944  0.4543372795087555
  0.4175327543315953  0.3065998121841263  0.4589121783776794
  0.5871016561808795  0.4302391196709152  0.5499321152451827
  0.5799267687426642  0.1777614454412299  0.5528555566497526
  0.4115719654013594  0.0581103540658267  0.4559576230733161
  0.7514645373532186  0.3062795292385861  0.4612775080346099
  0.9172123717049193  0.4340571810442592  0.5532211528254407
  0.9147379251158292  0.1766646694752057  0.5540694113006768
  0.7460579235765128  0.0584906127768708  0.4548101194936227
  0.0820656623189448  0.8096902493997528  0.4590300396189357
  0.2488422041706063  0.9356886593601844  0.5529786996623950
  0.2428324612948398  0.6868056331440556  0.5508167796518852
  0.0783215532121146  0.5581709472986655  0.4565723167646952
  0.4162899464418306  0.8096352476428319  0.4592745433706458
  0.5837953208362653  0.9361548663375356  0.5526454451891669
  0.5817847081811119  0.6828613345264666  0.5500130418737377
  0.4108848979550320  0.5572948781473229  0.4609229506095310
  0.7500456153220372  0.8099679222245757  0.4614589329743483
  0.9181715385713545  0.9353310902967122  0.5539162513481007
  0.9125459178200237  0.6780354511438147  0.5526445076749403
  0.7454966776414049  0.5579039577706469  0.4553099697024463
  0.0856706765271170  0.3053887256335412  0.6757737409000604
  0.2497863763111656  0.4398312570111697  0.3255709084091251
  0.2498466071792098  0.1900362719087338  0.3253862830334094
  0.0817754088365382  0.0539185729900426  0.6785011883611041
  0.4184953883691678  0.3040291657912004  0.6743757320517934
  0.5826112383915066  0.4401192852500257  0.3250826977420023
  0.5833764130844856  0.1903683591718622  0.3251764198463419
  0.4141710340790596  0.0540988263606322  0.6764689537440942
  0.7511406766998443  0.3048178572984222  0.6751560104231982
  0.9161567174440485  0.4398657313117056  0.3245168997052241
  0.9166604327969072  0.1902567220530294  0.3246833228096927
  0.7483214686437606  0.0541189257841807  0.6773829805746427
  0.0852577095049271  0.8023348378385594  0.6755969926278276
  0.2501754656021719  0.9397566720745129  0.3252282859075202
  0.2506155144488933  0.6898016365774480  0.3256770900669663
  0.0813976288662643  0.5541072819616412  0.6749713691039265
  0.4182666100865181  0.8041960060002201  0.6741703826551022
  0.5833793209522427  0.9399656791313459  0.3253013510780202
  0.5836811630731685  0.6905020023331183  0.3254678288610719
  0.4082144903473195  0.5543804737376783  0.6668524957520868
  0.7509053457168192  0.8033095324676696  0.6749083981682396
  0.9166374259481992  0.9398347882463518  0.3248235694224240
  0.9173622656949718  0.6901975975978885  0.3245404339651229
  0.7412721332566301  0.5541628363774342  0.6739513619814140
  0.2499462644443362  0.3086031866314388  0.4783652267842221
  0.0810742608974310  0.4311780312251954  0.5025516264176694
  0.0771056415553535  0.1817357305349775  0.5043852534975533
  0.2452987154527582  0.0587053721717722  0.4836252814836163
  0.1695031433028031  0.3832749906537541  0.7118998474247721
  0.3312554661644303  0.3623486675665830  0.2877658151209654
  0.1682663311131421  0.1125341453210512  0.2876124709553099
  0.0004093560040168  0.1319191613863007  0.7156959049950755
  0.1646404954950156  0.4765051888606768  0.6335117564980889
  0.3314809538527457  0.2677004163703773  0.3659512600709801
  0.1689622589453040  0.0180489453110898  0.3657449798401443
  0.0021330115240861  0.2263731459715662  0.6366766882052651
  0.0014084628066445  0.4772078087210274  0.7142027665774608
  0.1678897875308768  0.2676397128238420  0.2881237955358488
  0.3318572298953595  0.0175186871788129  0.2877931348331905
  0.1668736578616465  0.2284318046257080  0.7141301107911879
 -0.0006488795918216  0.0542315222137059  0.6092532617757715
  0.1638011627654658  0.1893257338402055  0.3921607734009622
  0.0026296758931909  0.4399745035615995  0.3909818694546661
  0.1669284551207818  0.3034721489223811  0.6058062683166244
  0.1700579127472212  0.0540681987961859  0.7413038742751494
  0.0055876206985289  0.1902423168393559  0.2621313258807719
  0.1611077001063293  0.4401255606722437  0.2629370754581278
  0.3334565344807621  0.3063664586082734  0.7384776637604819
  0.1644392815123969  0.1316894223339196  0.6379582297389472
  0.3320890523806309  0.1123830776080696  0.3658290178220430
  0.1677517804394944  0.3627039363058027  0.3661910171697471
  0.0020246951209068  0.3826840317865874  0.6350045716009780
  0.5850987995008888  0.3094616851990846  0.4773607543499661
  0.4178201803860874  0.4310605573764797  0.5031571365638405
  0.4104128606789523  0.1816241582297477  0.5038805036450782
  0.5789369071924445  0.0587932748023383  0.4832905907452658
  0.5047031160835155  0.3812727962083342  0.7090784662692994
  0.6641576013727416  0.3625835014773953  0.2873586616204188
  0.5016641227008253  0.1126733593401136  0.2876126833487080
  0.3333424839614105  0.1320374686063700  0.7141635899924335
  0.4939001043554333  0.4765555744542469  0.6284686260284369
  0.6651078109954245  0.2678307371741566  0.3656740481366879
  0.5023234426474457  0.0180978213791703  0.3659963152932004
  0.3330674445938497  0.2265589497255604  0.6352517058794928
  0.3587675849446846  0.4795575611099744  0.7198220103072539
  0.5012156770184770  0.2677285240559954  0.2877694140168182
  0.6649119381827255  0.0175619794066565  0.2876262705788216
  0.4999506523495756  0.2267131892140855  0.7119237000897738
  0.3307149798370440  0.0544825051687321  0.6075236137516012
  0.4974353269885676  0.1896917491611530  0.3919360288048399
  0.3362571922146632  0.4395522467762303  0.3920328961824410
  0.4983010705745659  0.3033596047168295  0.6041592422765273
  0.5030559432689590  0.0540406517876601  0.7390053675011905
  0.3384636713914270  0.1903301484103511  0.2627294095753573
  0.4935652458683186  0.4401485407535614  0.2626000159406340
  0.6630856032823129  0.3040942641683060  0.7380352765474654
  0.4967409040923130  0.1318433386484158  0.6355805379321297
  0.6653477659152666  0.1124980425647990  0.3655688703945635
  0.5012323743444824  0.3626427787562703  0.3657558203683210
  0.3340564522537643  0.3843708982991748  0.6363046193547223
  0.9170148799056136  0.3065754809257802  0.4760372224717991
  0.7565473420877390  0.4314274483494022  0.5010952318771528
  0.7431486293570879  0.1819607614811268  0.5036450534053202
  0.9124033757375183  0.0601356278811999  0.4846004624866710
  0.8299638053330074  0.3837170085678048  0.7130570356990433
  0.9979396636400188  0.3624807811182933  0.2868462972764091
  0.8349975050868393  0.1126220921796282  0.2870952335403866
  0.6668899701439618  0.1320874758822253  0.7145986275199595
  0.8274504708699099  0.4762273437772649  0.6350045163000337
  0.9986706247916205  0.2677875762765395  0.3650142693730855
  0.8356209719371610  0.0181316936400890  0.3654661071625085
  0.6689636228970377  0.2258589639192466  0.6350203828288545
  0.6529578389332779  0.4792079935222076  0.7112140268738245
  0.8348755257320255  0.2677376750924690  0.2872393039269781
  0.9983734753477160  0.0175334131613609  0.2873482921924446
  0.8339749285616040  0.2284933596980183  0.7130119182263139
  0.6658741219591231  0.0547366742702179  0.6082057996975275
  0.8307155401999391  0.1897489453097627  0.3914071866884688
  0.6697699654428284  0.4395943931595513  0.3913144812528106
  0.8347437031675734  0.3045643701941848  0.6060946266361423
  0.8360669698709754  0.0539299296029915  0.7404127283911156
  0.6719251418098811  0.1905410762220338  0.2625002677875548
  0.8270428485160332  0.4399102721276503  0.2620558935068501
  0.9976953844965734  0.3072202525131833  0.7386025646877407
  0.8319646374066259  0.1319015480493212  0.6371781813246761
  0.9985466497195885  0.1124534484637071  0.3651913540801035
  0.8346959505006617  0.3628248616805893  0.3653428636771860
  0.6671710477181705  0.3813067565123037  0.6338414649087510
  0.2489322349381749  0.8091704782982063  0.4782498346713124
  0.0839508155447044  0.9320834605437069  0.5048710282413450
  0.0737045923878332  0.6832600037037642  0.5020376105848106
  0.2447755053871181  0.5584480343524184  0.4803584105746685
  0.1661233650903982  0.8792772567967442  0.7142601973423298
  0.3318306758396370  0.8622442251033366  0.2875823813829724
  0.1689708124962241  0.6125206590121440  0.2877437649717366
  0.0008969871051168  0.6308443162646302  0.7140281803216818
  0.1641384037124181  0.9758367283485776  0.6379590304883742
  0.3321059093446406  0.7677607597009478  0.3660871178180106
  0.1686344705367715  0.5179916456235000  0.3659468510009902
  0.0023911325805083  0.7247767389402505  0.6346575857299876
  0.0004870755588932  0.9757444298991366  0.7155253985948336
  0.1688582719801720  0.7674480233691600  0.2882328139707547
  0.3316371648605351  0.5174420670563248  0.2881384371151985
  0.1694215884298196  0.7243595444163635  0.7114107267280837
 -0.0037471876912700  0.5541193688327204  0.6068484872758644
  0.1640113388795082  0.6894910178501392  0.3920497519318035
  0.0030177325294328  0.9398000404815483  0.3916451725342747
  0.1667428066733346  0.8049954600346796  0.6057907369575470
  0.1783504741752442  0.5545773620321641  0.7344108715343176
  0.0065497735255368  0.6904196208579116  0.2620614478183267
  0.1614994016398686  0.9399630338415048  0.2625918338839857
  0.3330366215755377  0.8014813521559306  0.7381854028129936
  0.1651117736724276  0.6309888726747379  0.6331379793616242
  0.3325614953441855  0.6125082727639991  0.3663254591949798
  0.1682294403239342  0.8626761853265172  0.3659780148455695
  0.0013335660007780  0.8812112230965201  0.6365140351884704
  0.5837486083802591  0.8099568938148082  0.4772784048060295
  0.4176485743412074  0.9322321938639573  0.5045157098760702
  0.4093936936966606  0.6827989721680130  0.5021022854865018
  0.5777173521705330  0.5581510607448626  0.4787399080365959
  0.4994230637077092  0.8814923666225879  0.7119535596785308
  0.6648683522930464  0.8624627024028457  0.2875508354011009
  0.5018818753069320  0.6129517831929698  0.2879062725213533
  0.3608896409787635  0.6288696021036411  0.7205420437188463
  0.4963273237623864  0.9761087182410876  0.6355975670863582
  0.6656584744197639  0.7678439972954283  0.3659832402352088
  0.5016225310263633  0.5177371439504106  0.3657607325193129
  0.3344145164377337  0.7233545768823731  0.6361429516039863
  0.3332286764512232  0.9759826612947377  0.7137716433129472
  0.5016655656992003  0.7679489726613372  0.2880389067475790
  0.6643373784620005  0.5175967607571802  0.2874155314715190
  0.5051020451724479  0.7273756317337371  0.7087954237791870
  0.3291669045662291  0.5539274089930617  0.5991006402716774
  0.4977980227402862  0.6899568816664382  0.3919444468048275
  0.3364209899430891  0.9396242653052467  0.3920392786943131
  0.4982730190962192  0.8055260481735136  0.6040349807517614
  0.5253179901962199  0.5509263598609823  0.7999528370423851
  0.3393780707508804  0.6901087124557972  0.2630620609764605
  0.4942124346207335  0.9400211914286930  0.2628893172264830
  0.6630055828419079  0.8051930718545062  0.7378683813410718
  0.4941324396727838  0.6317516726575143  0.6280016743574049
  0.6656429041366412  0.6124139727436986  0.3654812790335522
  0.5016902739093843  0.8627760403567019  0.3661238314664940
  0.3325694759137460  0.8812797754947301  0.6348980824600652
  0.9157103384575360  0.8103903869700467  0.4763215294826753
  0.7522637472770992  0.9325836982393367  0.5044238095084397
  0.7438465728808018  0.6830870908869158  0.5002706119045414
  0.9119869922840808  0.5609772114570927  0.4819104622833580
  0.8343275439306278  0.8794122496600179  0.7126666515175992
  0.9985453736332431  0.8625543711781256  0.2871338330765408
  0.8355713727183296  0.6129071738476877  0.2867165725487082
  0.6520866634321391  0.6285389987410671  0.7112222032715820
  0.8313152979473882  0.9760503928917816  0.6369964335999140
  0.9991995738667530  0.7676849086591853  0.3650734869738654
  0.8352078076830041  0.5181710825170062  0.3648856862413646
  0.6668867544715987  0.7264719663084124  0.6340049570680516
  0.6666380295725164  0.9758025102452936  0.7140400002810886
  0.8355964842875415  0.7678987631809445  0.2871859269463342
  0.9979613743160549  0.5174208571494646  0.2869710875088821
  0.8289395332802830  0.7239297848259241  0.7128246858237571
  0.6631269291602567  0.5541515800817437  0.6031778454518242
  0.8311386870039581  0.6899405161132300  0.3908353494387847
  0.6701198052017264  0.9397263353073443  0.3919326617872777
  0.8346207445709845  0.8030981646661560  0.6059063750010207
  0.8277925882349937  0.5545424473963939  0.7374005376998237
  0.6722730350452143  0.6907265429782116  0.2627828238266703
  0.8276720575742178  0.9399667320030142  0.2623353852687608
  0.9970956184858611  0.7997601974083345  0.7383580885947307
  0.8273657284753559  0.6315391167230279  0.6344699847123386
  0.9989979641616431  0.6123940166350370  0.3649652292726914
  0.8350796269307016  0.8626784110822849  0.3655446542760113
  0.6689896737598759  0.8819980033739268  0.6343312691098590
  0.4358285270736804  0.5497249983209692  0.8329624263817998
 
  0.00000000E+00  0.00000000E+00  0.00000000E+00
  0.00000000E+00  0.00000000E+00  0.00000000E+00
  0.00000000E+00  0.00000000E+00  0.00000000E+00
  0.00000000E+00  0.00000000E+00  0.00000000E+00
  0.00000000E+00  0.00000000E+00  0.00000000E+00
  0.00000000E+00  0.00000000E+00  0.00000000E+00
  0.00000000E+00  0.00000000E+00  0.00000000E+00
  0.00000000E+00  0.00000000E+00  0.00000000E+00
  0.00000000E+00  0.00000000E+00  0.00000000E+00
  0.00000000E+00  0.00000000E+00  0.00000000E+00
  0.00000000E+00  0.00000000E+00  0.00000000E+00
  0.00000000E+00  0.00000000E+00  0.00000000E+00
  0.00000000E+00  0.00000000E+00  0.00000000E+00
  0.00000000E+00  0.00000000E+00  0.00000000E+00
  0.00000000E+00  0.00000000E+00  0.00000000E+00
  0.00000000E+00  0.00000000E+00  0.00000000E+00
  0.00000000E+00  0.00000000E+00  0.00000000E+00
  0.00000000E+00  0.00000000E+00  0.00000000E+00
  0.00000000E+00  0.00000000E+00  0.00000000E+00
  0.00000000E+00  0.00000000E+00  0.00000000E+00
  0.00000000E+00  0.00000000E+00  0.00000000E+00
  0.00000000E+00  0.00000000E+00  0.00000000E+00
  0.00000000E+00  0.00000000E+00  0.00000000E+00
  0.00000000E+00  0.00000000E+00  0.00000000E+00
  0.00000000E+00  0.00000000E+00  0.00000000E+00
  0.00000000E+00  0.00000000E+00  0.00000000E+00
  0.00000000E+00  0.00000000E+00  0.00000000E+00
  0.00000000E+00  0.00000000E+00  0.00000000E+00
  0.00000000E+00  0.00000000E+00  0.00000000E+00
  0.00000000E+00  0.00000000E+00  0.00000000E+00
  0.00000000E+00  0.00000000E+00  0.00000000E+00
  0.00000000E+00  0.00000000E+00  0.00000000E+00
  0.00000000E+00  0.00000000E+00  0.00000000E+00
  0.00000000E+00  0.00000000E+00  0.00000000E+00
  0.00000000E+00  0.00000000E+00  0.00000000E+00
  0.00000000E+00  0.00000000E+00  0.00000000E+00
  0.00000000E+00  0.00000000E+00  0.00000000E+00
  0.00000000E+00  0.00000000E+00  0.00000000E+00
  0.00000000E+00  0.00000000E+00  0.00000000E+00
  0.00000000E+00  0.00000000E+00  0.00000000E+00
  0.00000000E+00  0.00000000E+00  0.00000000E+00
  0.00000000E+00  0.00000000E+00  0.00000000E+00
  0.00000000E+00  0.00000000E+00  0.00000000E+00
  0.00000000E+00  0.00000000E+00  0.00000000E+00
  0.00000000E+00  0.00000000E+00  0.00000000E+00
  0.00000000E+00  0.00000000E+00  0.00000000E+00
  0.00000000E+00  0.00000000E+00  0.00000000E+00
  0.00000000E+00  0.00000000E+00  0.00000000E+00
  0.00000000E+00  0.00000000E+00  0.00000000E+00
  0.00000000E+00  0.00000000E+00  0.00000000E+00
  0.00000000E+00  0.00000000E+00  0.00000000E+00
  0.00000000E+00  0.00000000E+00  0.00000000E+00
  0.00000000E+00  0.00000000E+00  0.00000000E+00
  0.00000000E+00  0.00000000E+00  0.00000000E+00
  0.00000000E+00  0.00000000E+00  0.00000000E+00
  0.00000000E+00  0.00000000E+00  0.00000000E+00
  0.00000000E+00  0.00000000E+00  0.00000000E+00
  0.00000000E+00  0.00000000E+00  0.00000000E+00
  0.00000000E+00  0.00000000E+00  0.00000000E+00
  0.00000000E+00  0.00000000E+00  0.00000000E+00
  0.00000000E+00  0.00000000E+00  0.00000000E+00
  0.00000000E+00  0.00000000E+00  0.00000000E+00
  0.00000000E+00  0.00000000E+00  0.00000000E+00
  0.00000000E+00  0.00000000E+00  0.00000000E+00
  0.00000000E+00  0.00000000E+00  0.00000000E+00
  0.00000000E+00  0.00000000E+00  0.00000000E+00
  0.00000000E+00  0.00000000E+00  0.00000000E+00
  0.00000000E+00  0.00000000E+00  0.00000000E+00
  0.00000000E+00  0.00000000E+00  0.00000000E+00
  0.00000000E+00  0.00000000E+00  0.00000000E+00
  0.00000000E+00  0.00000000E+00  0.00000000E+00
  0.00000000E+00  0.00000000E+00  0.00000000E+00
  0.00000000E+00  0.00000000E+00  0.00000000E+00
  0.00000000E+00  0.00000000E+00  0.00000000E+00
  0.00000000E+00  0.00000000E+00  0.00000000E+00
  0.00000000E+00  0.00000000E+00  0.00000000E+00
  0.00000000E+00  0.00000000E+00  0.00000000E+00
  0.00000000E+00  0.00000000E+00  0.00000000E+00
  0.00000000E+00  0.00000000E+00  0.00000000E+00
  0.00000000E+00  0.00000000E+00  0.00000000E+00
  0.00000000E+00  0.00000000E+00  0.00000000E+00
  0.00000000E+00  0.00000000E+00  0.00000000E+00
  0.00000000E+00  0.00000000E+00  0.00000000E+00
  0.00000000E+00  0.00000000E+00  0.00000000E+00
  0.00000000E+00  0.00000000E+00  0.00000000E+00
  0.00000000E+00  0.00000000E+00  0.00000000E+00
  0.00000000E+00  0.00000000E+00  0.00000000E+00
  0.00000000E+00  0.00000000E+00  0.00000000E+00
  0.00000000E+00  0.00000000E+00  0.00000000E+00
  0.00000000E+00  0.00000000E+00  0.00000000E+00
  0.00000000E+00  0.00000000E+00  0.00000000E+00
  0.00000000E+00  0.00000000E+00  0.00000000E+00
  0.00000000E+00  0.00000000E+00  0.00000000E+00
  0.00000000E+00  0.00000000E+00  0.00000000E+00
  0.00000000E+00  0.00000000E+00  0.00000000E+00
  0.00000000E+00  0.00000000E+00  0.00000000E+00
  0.00000000E+00  0.00000000E+00  0.00000000E+00
  0.00000000E+00  0.00000000E+00  0.00000000E+00
  0.00000000E+00  0.00000000E+00  0.00000000E+00
  0.00000000E+00  0.00000000E+00  0.00000000E+00
  0.00000000E+00  0.00000000E+00  0.00000000E+00
  0.00000000E+00  0.00000000E+00  0.00000000E+00
  0.00000000E+00  0.00000000E+00  0.00000000E+00
  0.00000000E+00  0.00000000E+00  0.00000000E+00
  0.00000000E+00  0.00000000E+00  0.00000000E+00
  0.00000000E+00  0.00000000E+00  0.00000000E+00
  0.00000000E+00  0.00000000E+00  0.00000000E+00
  0.00000000E+00  0.00000000E+00  0.00000000E+00
  0.00000000E+00  0.00000000E+00  0.00000000E+00
  0.00000000E+00  0.00000000E+00  0.00000000E+00
  0.00000000E+00  0.00000000E+00  0.00000000E+00
  0.00000000E+00  0.00000000E+00  0.00000000E+00
  0.00000000E+00  0.00000000E+00  0.00000000E+00
  0.00000000E+00  0.00000000E+00  0.00000000E+00
  0.00000000E+00  0.00000000E+00  0.00000000E+00
  0.00000000E+00  0.00000000E+00  0.00000000E+00
  0.00000000E+00  0.00000000E+00  0.00000000E+00
  0.00000000E+00  0.00000000E+00  0.00000000E+00
  0.00000000E+00  0.00000000E+00  0.00000000E+00
  0.00000000E+00  0.00000000E+00  0.00000000E+00
  0.00000000E+00  0.00000000E+00  0.00000000E+00
  0.00000000E+00  0.00000000E+00  0.00000000E+00
  0.00000000E+00  0.00000000E+00  0.00000000E+00
  0.00000000E+00  0.00000000E+00  0.00000000E+00
  0.00000000E+00  0.00000000E+00  0.00000000E+00
  0.00000000E+00  0.00000000E+00  0.00000000E+00
  0.00000000E+00  0.00000000E+00  0.00000000E+00
  0.00000000E+00  0.00000000E+00  0.00000000E+00
  0.00000000E+00  0.00000000E+00  0.00000000E+00
  0.00000000E+00  0.00000000E+00  0.00000000E+00
  0.00000000E+00  0.00000000E+00  0.00000000E+00
  0.00000000E+00  0.00000000E+00  0.00000000E+00
  0.00000000E+00  0.00000000E+00  0.00000000E+00
  0.00000000E+00  0.00000000E+00  0.00000000E+00
  0.00000000E+00  0.00000000E+00  0.00000000E+00
  0.00000000E+00  0.00000000E+00  0.00000000E+00
  0.00000000E+00  0.00000000E+00  0.00000000E+00
  0.00000000E+00  0.00000000E+00  0.00000000E+00
  0.00000000E+00  0.00000000E+00  0.00000000E+00
  0.00000000E+00  0.00000000E+00  0.00000000E+00
  0.00000000E+00  0.00000000E+00  0.00000000E+00
  0.00000000E+00  0.00000000E+00  0.00000000E+00
  0.00000000E+00  0.00000000E+00  0.00000000E+00
  0.00000000E+00  0.00000000E+00  0.00000000E+00
  0.00000000E+00  0.00000000E+00  0.00000000E+00
  0.00000000E+00  0.00000000E+00  0.00000000E+00
  0.00000000E+00  0.00000000E+00  0.00000000E+00
  0.00000000E+00  0.00000000E+00  0.00000000E+00
  0.00000000E+00  0.00000000E+00  0.00000000E+00
  0.00000000E+00  0.00000000E+00  0.00000000E+00
  0.00000000E+00  0.00000000E+00  0.00000000E+00
  0.00000000E+00  0.00000000E+00  0.00000000E+00
  0.00000000E+00  0.00000000E+00  0.00000000E+00
  0.00000000E+00  0.00000000E+00  0.00000000E+00
  0.00000000E+00  0.00000000E+00  0.00000000E+00
  0.00000000E+00  0.00000000E+00  0.00000000E+00
  0.00000000E+00  0.00000000E+00  0.00000000E+00
  0.00000000E+00  0.00000000E+00  0.00000000E+00
  0.00000000E+00  0.00000000E+00  0.00000000E+00
  0.00000000E+00  0.00000000E+00  0.00000000E+00
  0.00000000E+00  0.00000000E+00  0.00000000E+00
  0.00000000E+00  0.00000000E+00  0.00000000E+00
  0.00000000E+00  0.00000000E+00  0.00000000E+00
  0.00000000E+00  0.00000000E+00  0.00000000E+00
  0.00000000E+00  0.00000000E+00  0.00000000E+00
  0.00000000E+00  0.00000000E+00  0.00000000E+00
  0.00000000E+00  0.00000000E+00  0.00000000E+00
  0.00000000E+00  0.00000000E+00  0.00000000E+00
  0.00000000E+00  0.00000000E+00  0.00000000E+00
  0.00000000E+00  0.00000000E+00  0.00000000E+00
  0.00000000E+00  0.00000000E+00  0.00000000E+00
  0.00000000E+00  0.00000000E+00  0.00000000E+00
  0.00000000E+00  0.00000000E+00  0.00000000E+00
  0.00000000E+00  0.00000000E+00  0.00000000E+00
  0.00000000E+00  0.00000000E+00  0.00000000E+00
  0.00000000E+00  0.00000000E+00  0.00000000E+00
  0.00000000E+00  0.00000000E+00  0.00000000E+00
  0.00000000E+00  0.00000000E+00  0.00000000E+00
  0.00000000E+00  0.00000000E+00  0.00000000E+00
  0.00000000E+00  0.00000000E+00  0.00000000E+00
  0.00000000E+00  0.00000000E+00  0.00000000E+00
  0.00000000E+00  0.00000000E+00  0.00000000E+00
  0.00000000E+00  0.00000000E+00  0.00000000E+00
  0.00000000E+00  0.00000000E+00  0.00000000E+00
  0.00000000E+00  0.00000000E+00  0.00000000E+00
  0.00000000E+00  0.00000000E+00  0.00000000E+00
  0.00000000E+00  0.00000000E+00  0.00000000E+00
  0.00000000E+00  0.00000000E+00  0.00000000E+00
  0.00000000E+00  0.00000000E+00  0.00000000E+00
  0.00000000E+00  0.00000000E+00  0.00000000E+00
  0.00000000E+00  0.00000000E+00  0.00000000E+00
  0.00000000E+00  0.00000000E+00  0.00000000E+00
  0.00000000E+00  0.00000000E+00  0.00000000E+00
  0.00000000E+00  0.00000000E+00  0.00000000E+00
  0.00000000E+00  0.00000000E+00  0.00000000E+00
  0.00000000E+00  0.00000000E+00  0.00000000E+00
  0.00000000E+00  0.00000000E+00  0.00000000E+00
  0.00000000E+00  0.00000000E+00  0.00000000E+00
  0.00000000E+00  0.00000000E+00  0.00000000E+00
  0.00000000E+00  0.00000000E+00  0.00000000E+00
  0.00000000E+00  0.00000000E+00  0.00000000E+00
  0.00000000E+00  0.00000000E+00  0.00000000E+00
  0.00000000E+00  0.00000000E+00  0.00000000E+00
  0.00000000E+00  0.00000000E+00  0.00000000E+00
  0.00000000E+00  0.00000000E+00  0.00000000E+00
  0.00000000E+00  0.00000000E+00  0.00000000E+00
  0.00000000E+00  0.00000000E+00  0.00000000E+00
  0.00000000E+00  0.00000000E+00  0.00000000E+00
  0.00000000E+00  0.00000000E+00  0.00000000E+00
  0.00000000E+00  0.00000000E+00  0.00000000E+00
  0.00000000E+00  0.00000000E+00  0.00000000E+00
  0.00000000E+00  0.00000000E+00  0.00000000E+00
  0.00000000E+00  0.00000000E+00  0.00000000E+00
  0.00000000E+00  0.00000000E+00  0.00000000E+00
  0.00000000E+00  0.00000000E+00  0.00000000E+00
  0.00000000E+00  0.00000000E+00  0.00000000E+00
  0.00000000E+00  0.00000000E+00  0.00000000E+00
