 Ag2 O4 F2                              
   1.00000000000000     
     3.8462842134211868    0.0000000000000000    0.0000000000000000
     0.0000000000000000    3.6786334339323803    0.0000000000000000
     0.0000000000000000    0.0000000000000000   20.6323501841959356
   Ag   O    F 
     2     4     2
Direct
  0.7500002254512879  0.7451036317618076  0.5677237197805169
  0.2500002052348620  0.2730202878725549  0.4322762089563668
  0.5846076791328443  0.3311851231462839  0.3455647239917639
  0.9153929089343720  0.3311858275966273  0.3455647718136916
  0.0846249058060735  0.6869399687888418  0.6544346437026860
  0.4153756955835703  0.6869398855347200  0.6544346694207164
  0.7500001653853801  0.2515162035758394  0.4831670555749952
  0.2500002144716120  0.7667251689130339  0.5168342067592562
 
  0.00000000E+00  0.00000000E+00  0.00000000E+00
  0.00000000E+00  0.00000000E+00  0.00000000E+00
  0.00000000E+00  0.00000000E+00  0.00000000E+00
  0.00000000E+00  0.00000000E+00  0.00000000E+00
  0.00000000E+00  0.00000000E+00  0.00000000E+00
  0.00000000E+00  0.00000000E+00  0.00000000E+00
  0.00000000E+00  0.00000000E+00  0.00000000E+00
  0.00000000E+00  0.00000000E+00  0.00000000E+00
