G   52   54    1    0.005     # Parameters to Generate KPOINTS (Don't Edit This Line)
     756
Reciprocal lattice
    0.000000000000    0.000000000000    0.000000000000       1
    0.019230769231    0.000000000000    0.000000000000       2
    0.038461538462    0.000000000000    0.000000000000       2
    0.057692307692    0.000000000000    0.000000000000       2
    0.076923076923    0.000000000000    0.000000000000       2
    0.096153846154    0.000000000000    0.000000000000       2
    0.115384615385    0.000000000000    0.000000000000       2
    0.134615384615    0.000000000000    0.000000000000       2
    0.153846153846    0.000000000000    0.000000000000       2
    0.173076923077    0.000000000000    0.000000000000       2
    0.192307692308    0.000000000000    0.000000000000       2
    0.211538461538    0.000000000000    0.000000000000       2
    0.230769230769    0.000000000000    0.000000000000       2
    0.250000000000    0.000000000000    0.000000000000       2
    0.269230769231    0.000000000000    0.000000000000       2
    0.288461538462    0.000000000000    0.000000000000       2
    0.307692307692    0.000000000000    0.000000000000       2
    0.326923076923    0.000000000000    0.000000000000       2
    0.346153846154    0.000000000000    0.000000000000       2
    0.365384615385    0.000000000000    0.000000000000       2
    0.384615384615    0.000000000000    0.000000000000       2
    0.403846153846    0.000000000000    0.000000000000       2
    0.423076923077    0.000000000000    0.000000000000       2
    0.442307692308    0.000000000000    0.000000000000       2
    0.461538461538    0.000000000000    0.000000000000       2
    0.480769230769    0.000000000000    0.000000000000       2
    0.500000000000    0.000000000000    0.000000000000       1
    0.000000000000    0.018518518519    0.000000000000       2
    0.019230769231    0.018518518519    0.000000000000       4
    0.038461538462    0.018518518519    0.000000000000       4
    0.057692307692    0.018518518519    0.000000000000       4
    0.076923076923    0.018518518519    0.000000000000       4
    0.096153846154    0.018518518519    0.000000000000       4
    0.115384615385    0.018518518519    0.000000000000       4
    0.134615384615    0.018518518519    0.000000000000       4
    0.153846153846    0.018518518519    0.000000000000       4
    0.173076923077    0.018518518519    0.000000000000       4
    0.192307692308    0.018518518519    0.000000000000       4
    0.211538461538    0.018518518519    0.000000000000       4
    0.230769230769    0.018518518519    0.000000000000       4
    0.250000000000    0.018518518519    0.000000000000       4
    0.269230769231    0.018518518519    0.000000000000       4
    0.288461538462    0.018518518519    0.000000000000       4
    0.307692307692    0.018518518519    0.000000000000       4
    0.326923076923    0.018518518519    0.000000000000       4
    0.346153846154    0.018518518519    0.000000000000       4
    0.365384615385    0.018518518519    0.000000000000       4
    0.384615384615    0.018518518519    0.000000000000       4
    0.403846153846    0.018518518519    0.000000000000       4
    0.423076923077    0.018518518519    0.000000000000       4
    0.442307692308    0.018518518519    0.000000000000       4
    0.461538461538    0.018518518519    0.000000000000       4
    0.480769230769    0.018518518519    0.000000000000       4
    0.500000000000    0.018518518519    0.000000000000       2
    0.000000000000    0.037037037037    0.000000000000       2
    0.019230769231    0.037037037037    0.000000000000       4
    0.038461538462    0.037037037037    0.000000000000       4
    0.057692307692    0.037037037037    0.000000000000       4
    0.076923076923    0.037037037037    0.000000000000       4
    0.096153846154    0.037037037037    0.000000000000       4
    0.115384615385    0.037037037037    0.000000000000       4
    0.134615384615    0.037037037037    0.000000000000       4
    0.153846153846    0.037037037037    0.000000000000       4
    0.173076923077    0.037037037037    0.000000000000       4
    0.192307692308    0.037037037037    0.000000000000       4
    0.211538461538    0.037037037037    0.000000000000       4
    0.230769230769    0.037037037037    0.000000000000       4
    0.250000000000    0.037037037037    0.000000000000       4
    0.269230769231    0.037037037037    0.000000000000       4
    0.288461538462    0.037037037037    0.000000000000       4
    0.307692307692    0.037037037037    0.000000000000       4
    0.326923076923    0.037037037037    0.000000000000       4
    0.346153846154    0.037037037037    0.000000000000       4
    0.365384615385    0.037037037037    0.000000000000       4
    0.384615384615    0.037037037037    0.000000000000       4
    0.403846153846    0.037037037037    0.000000000000       4
    0.423076923077    0.037037037037    0.000000000000       4
    0.442307692308    0.037037037037    0.000000000000       4
    0.461538461538    0.037037037037    0.000000000000       4
    0.480769230769    0.037037037037    0.000000000000       4
    0.500000000000    0.037037037037    0.000000000000       2
    0.000000000000    0.055555555556    0.000000000000       2
    0.019230769231    0.055555555556    0.000000000000       4
    0.038461538462    0.055555555556    0.000000000000       4
    0.057692307692    0.055555555556    0.000000000000       4
    0.076923076923    0.055555555556    0.000000000000       4
    0.096153846154    0.055555555556    0.000000000000       4
    0.115384615385    0.055555555556    0.000000000000       4
    0.134615384615    0.055555555556    0.000000000000       4
    0.153846153846    0.055555555556    0.000000000000       4
    0.173076923077    0.055555555556    0.000000000000       4
    0.192307692308    0.055555555556    0.000000000000       4
    0.211538461538    0.055555555556    0.000000000000       4
    0.230769230769    0.055555555556    0.000000000000       4
    0.250000000000    0.055555555556    0.000000000000       4
    0.269230769231    0.055555555556    0.000000000000       4
    0.288461538462    0.055555555556    0.000000000000       4
    0.307692307692    0.055555555556    0.000000000000       4
    0.326923076923    0.055555555556    0.000000000000       4
    0.346153846154    0.055555555556    0.000000000000       4
    0.365384615385    0.055555555556    0.000000000000       4
    0.384615384615    0.055555555556    0.000000000000       4
    0.403846153846    0.055555555556    0.000000000000       4
    0.423076923077    0.055555555556    0.000000000000       4
    0.442307692308    0.055555555556    0.000000000000       4
    0.461538461538    0.055555555556    0.000000000000       4
    0.480769230769    0.055555555556    0.000000000000       4
    0.500000000000    0.055555555556    0.000000000000       2
    0.000000000000    0.074074074074    0.000000000000       2
    0.019230769231    0.074074074074    0.000000000000       4
    0.038461538462    0.074074074074    0.000000000000       4
    0.057692307692    0.074074074074    0.000000000000       4
    0.076923076923    0.074074074074    0.000000000000       4
    0.096153846154    0.074074074074    0.000000000000       4
    0.115384615385    0.074074074074    0.000000000000       4
    0.134615384615    0.074074074074    0.000000000000       4
    0.153846153846    0.074074074074    0.000000000000       4
    0.173076923077    0.074074074074    0.000000000000       4
    0.192307692308    0.074074074074    0.000000000000       4
    0.211538461538    0.074074074074    0.000000000000       4
    0.230769230769    0.074074074074    0.000000000000       4
    0.250000000000    0.074074074074    0.000000000000       4
    0.269230769231    0.074074074074    0.000000000000       4
    0.288461538462    0.074074074074    0.000000000000       4
    0.307692307692    0.074074074074    0.000000000000       4
    0.326923076923    0.074074074074    0.000000000000       4
    0.346153846154    0.074074074074    0.000000000000       4
    0.365384615385    0.074074074074    0.000000000000       4
    0.384615384615    0.074074074074    0.000000000000       4
    0.403846153846    0.074074074074    0.000000000000       4
    0.423076923077    0.074074074074    0.000000000000       4
    0.442307692308    0.074074074074    0.000000000000       4
    0.461538461538    0.074074074074    0.000000000000       4
    0.480769230769    0.074074074074    0.000000000000       4
    0.500000000000    0.074074074074    0.000000000000       2
    0.000000000000    0.092592592593    0.000000000000       2
    0.019230769231    0.092592592593    0.000000000000       4
    0.038461538462    0.092592592593    0.000000000000       4
    0.057692307692    0.092592592593    0.000000000000       4
    0.076923076923    0.092592592593    0.000000000000       4
    0.096153846154    0.092592592593    0.000000000000       4
    0.115384615385    0.092592592593    0.000000000000       4
    0.134615384615    0.092592592593    0.000000000000       4
    0.153846153846    0.092592592593    0.000000000000       4
    0.173076923077    0.092592592593    0.000000000000       4
    0.192307692308    0.092592592593    0.000000000000       4
    0.211538461538    0.092592592593    0.000000000000       4
    0.230769230769    0.092592592593    0.000000000000       4
    0.250000000000    0.092592592593    0.000000000000       4
    0.269230769231    0.092592592593    0.000000000000       4
    0.288461538462    0.092592592593    0.000000000000       4
    0.307692307692    0.092592592593    0.000000000000       4
    0.326923076923    0.092592592593    0.000000000000       4
    0.346153846154    0.092592592593    0.000000000000       4
    0.365384615385    0.092592592593    0.000000000000       4
    0.384615384615    0.092592592593    0.000000000000       4
    0.403846153846    0.092592592593    0.000000000000       4
    0.423076923077    0.092592592593    0.000000000000       4
    0.442307692308    0.092592592593    0.000000000000       4
    0.461538461538    0.092592592593    0.000000000000       4
    0.480769230769    0.092592592593    0.000000000000       4
    0.500000000000    0.092592592593    0.000000000000       2
    0.000000000000    0.111111111111    0.000000000000       2
    0.019230769231    0.111111111111    0.000000000000       4
    0.038461538462    0.111111111111    0.000000000000       4
    0.057692307692    0.111111111111    0.000000000000       4
    0.076923076923    0.111111111111    0.000000000000       4
    0.096153846154    0.111111111111    0.000000000000       4
    0.115384615385    0.111111111111    0.000000000000       4
    0.134615384615    0.111111111111    0.000000000000       4
    0.153846153846    0.111111111111    0.000000000000       4
    0.173076923077    0.111111111111    0.000000000000       4
    0.192307692308    0.111111111111    0.000000000000       4
    0.211538461538    0.111111111111    0.000000000000       4
    0.230769230769    0.111111111111    0.000000000000       4
    0.250000000000    0.111111111111    0.000000000000       4
    0.269230769231    0.111111111111    0.000000000000       4
    0.288461538462    0.111111111111    0.000000000000       4
    0.307692307692    0.111111111111    0.000000000000       4
    0.326923076923    0.111111111111    0.000000000000       4
    0.346153846154    0.111111111111    0.000000000000       4
    0.365384615385    0.111111111111    0.000000000000       4
    0.384615384615    0.111111111111    0.000000000000       4
    0.403846153846    0.111111111111    0.000000000000       4
    0.423076923077    0.111111111111    0.000000000000       4
    0.442307692308    0.111111111111    0.000000000000       4
    0.461538461538    0.111111111111    0.000000000000       4
    0.480769230769    0.111111111111    0.000000000000       4
    0.500000000000    0.111111111111    0.000000000000       2
    0.000000000000    0.129629629630    0.000000000000       2
    0.019230769231    0.129629629630    0.000000000000       4
    0.038461538462    0.129629629630    0.000000000000       4
    0.057692307692    0.129629629630    0.000000000000       4
    0.076923076923    0.129629629630    0.000000000000       4
    0.096153846154    0.129629629630    0.000000000000       4
    0.115384615385    0.129629629630    0.000000000000       4
    0.134615384615    0.129629629630    0.000000000000       4
    0.153846153846    0.129629629630    0.000000000000       4
    0.173076923077    0.129629629630    0.000000000000       4
    0.192307692308    0.129629629630    0.000000000000       4
    0.211538461538    0.129629629630    0.000000000000       4
    0.230769230769    0.129629629630    0.000000000000       4
    0.250000000000    0.129629629630    0.000000000000       4
    0.269230769231    0.129629629630    0.000000000000       4
    0.288461538462    0.129629629630    0.000000000000       4
    0.307692307692    0.129629629630    0.000000000000       4
    0.326923076923    0.129629629630    0.000000000000       4
    0.346153846154    0.129629629630    0.000000000000       4
    0.365384615385    0.129629629630    0.000000000000       4
    0.384615384615    0.129629629630    0.000000000000       4
    0.403846153846    0.129629629630    0.000000000000       4
    0.423076923077    0.129629629630    0.000000000000       4
    0.442307692308    0.129629629630    0.000000000000       4
    0.461538461538    0.129629629630    0.000000000000       4
    0.480769230769    0.129629629630    0.000000000000       4
    0.500000000000    0.129629629630    0.000000000000       2
    0.000000000000    0.148148148148    0.000000000000       2
    0.019230769231    0.148148148148    0.000000000000       4
    0.038461538462    0.148148148148    0.000000000000       4
    0.057692307692    0.148148148148    0.000000000000       4
    0.076923076923    0.148148148148    0.000000000000       4
    0.096153846154    0.148148148148    0.000000000000       4
    0.115384615385    0.148148148148    0.000000000000       4
    0.134615384615    0.148148148148    0.000000000000       4
    0.153846153846    0.148148148148    0.000000000000       4
    0.173076923077    0.148148148148    0.000000000000       4
    0.192307692308    0.148148148148    0.000000000000       4
    0.211538461538    0.148148148148    0.000000000000       4
    0.230769230769    0.148148148148    0.000000000000       4
    0.250000000000    0.148148148148    0.000000000000       4
    0.269230769231    0.148148148148    0.000000000000       4
    0.288461538462    0.148148148148    0.000000000000       4
    0.307692307692    0.148148148148    0.000000000000       4
    0.326923076923    0.148148148148    0.000000000000       4
    0.346153846154    0.148148148148    0.000000000000       4
    0.365384615385    0.148148148148    0.000000000000       4
    0.384615384615    0.148148148148    0.000000000000       4
    0.403846153846    0.148148148148    0.000000000000       4
    0.423076923077    0.148148148148    0.000000000000       4
    0.442307692308    0.148148148148    0.000000000000       4
    0.461538461538    0.148148148148    0.000000000000       4
    0.480769230769    0.148148148148    0.000000000000       4
    0.500000000000    0.148148148148    0.000000000000       2
    0.000000000000    0.166666666667    0.000000000000       2
    0.019230769231    0.166666666667    0.000000000000       4
    0.038461538462    0.166666666667    0.000000000000       4
    0.057692307692    0.166666666667    0.000000000000       4
    0.076923076923    0.166666666667    0.000000000000       4
    0.096153846154    0.166666666667    0.000000000000       4
    0.115384615385    0.166666666667    0.000000000000       4
    0.134615384615    0.166666666667    0.000000000000       4
    0.153846153846    0.166666666667    0.000000000000       4
    0.173076923077    0.166666666667    0.000000000000       4
    0.192307692308    0.166666666667    0.000000000000       4
    0.211538461538    0.166666666667    0.000000000000       4
    0.230769230769    0.166666666667    0.000000000000       4
    0.250000000000    0.166666666667    0.000000000000       4
    0.269230769231    0.166666666667    0.000000000000       4
    0.288461538462    0.166666666667    0.000000000000       4
    0.307692307692    0.166666666667    0.000000000000       4
    0.326923076923    0.166666666667    0.000000000000       4
    0.346153846154    0.166666666667    0.000000000000       4
    0.365384615385    0.166666666667    0.000000000000       4
    0.384615384615    0.166666666667    0.000000000000       4
    0.403846153846    0.166666666667    0.000000000000       4
    0.423076923077    0.166666666667    0.000000000000       4
    0.442307692308    0.166666666667    0.000000000000       4
    0.461538461538    0.166666666667    0.000000000000       4
    0.480769230769    0.166666666667    0.000000000000       4
    0.500000000000    0.166666666667    0.000000000000       2
    0.000000000000    0.185185185185    0.000000000000       2
    0.019230769231    0.185185185185    0.000000000000       4
    0.038461538462    0.185185185185    0.000000000000       4
    0.057692307692    0.185185185185    0.000000000000       4
    0.076923076923    0.185185185185    0.000000000000       4
    0.096153846154    0.185185185185    0.000000000000       4
    0.115384615385    0.185185185185    0.000000000000       4
    0.134615384615    0.185185185185    0.000000000000       4
    0.153846153846    0.185185185185    0.000000000000       4
    0.173076923077    0.185185185185    0.000000000000       4
    0.192307692308    0.185185185185    0.000000000000       4
    0.211538461538    0.185185185185    0.000000000000       4
    0.230769230769    0.185185185185    0.000000000000       4
    0.250000000000    0.185185185185    0.000000000000       4
    0.269230769231    0.185185185185    0.000000000000       4
    0.288461538462    0.185185185185    0.000000000000       4
    0.307692307692    0.185185185185    0.000000000000       4
    0.326923076923    0.185185185185    0.000000000000       4
    0.346153846154    0.185185185185    0.000000000000       4
    0.365384615385    0.185185185185    0.000000000000       4
    0.384615384615    0.185185185185    0.000000000000       4
    0.403846153846    0.185185185185    0.000000000000       4
    0.423076923077    0.185185185185    0.000000000000       4
    0.442307692308    0.185185185185    0.000000000000       4
    0.461538461538    0.185185185185    0.000000000000       4
    0.480769230769    0.185185185185    0.000000000000       4
    0.500000000000    0.185185185185    0.000000000000       2
    0.000000000000    0.203703703704    0.000000000000       2
    0.019230769231    0.203703703704    0.000000000000       4
    0.038461538462    0.203703703704    0.000000000000       4
    0.057692307692    0.203703703704    0.000000000000       4
    0.076923076923    0.203703703704    0.000000000000       4
    0.096153846154    0.203703703704    0.000000000000       4
    0.115384615385    0.203703703704    0.000000000000       4
    0.134615384615    0.203703703704    0.000000000000       4
    0.153846153846    0.203703703704    0.000000000000       4
    0.173076923077    0.203703703704    0.000000000000       4
    0.192307692308    0.203703703704    0.000000000000       4
    0.211538461538    0.203703703704    0.000000000000       4
    0.230769230769    0.203703703704    0.000000000000       4
    0.250000000000    0.203703703704    0.000000000000       4
    0.269230769231    0.203703703704    0.000000000000       4
    0.288461538462    0.203703703704    0.000000000000       4
    0.307692307692    0.203703703704    0.000000000000       4
    0.326923076923    0.203703703704    0.000000000000       4
    0.346153846154    0.203703703704    0.000000000000       4
    0.365384615385    0.203703703704    0.000000000000       4
    0.384615384615    0.203703703704    0.000000000000       4
    0.403846153846    0.203703703704    0.000000000000       4
    0.423076923077    0.203703703704    0.000000000000       4
    0.442307692308    0.203703703704    0.000000000000       4
    0.461538461538    0.203703703704    0.000000000000       4
    0.480769230769    0.203703703704    0.000000000000       4
    0.500000000000    0.203703703704    0.000000000000       2
    0.000000000000    0.222222222222    0.000000000000       2
    0.019230769231    0.222222222222    0.000000000000       4
    0.038461538462    0.222222222222    0.000000000000       4
    0.057692307692    0.222222222222    0.000000000000       4
    0.076923076923    0.222222222222    0.000000000000       4
    0.096153846154    0.222222222222    0.000000000000       4
    0.115384615385    0.222222222222    0.000000000000       4
    0.134615384615    0.222222222222    0.000000000000       4
    0.153846153846    0.222222222222    0.000000000000       4
    0.173076923077    0.222222222222    0.000000000000       4
    0.192307692308    0.222222222222    0.000000000000       4
    0.211538461538    0.222222222222    0.000000000000       4
    0.230769230769    0.222222222222    0.000000000000       4
    0.250000000000    0.222222222222    0.000000000000       4
    0.269230769231    0.222222222222    0.000000000000       4
    0.288461538462    0.222222222222    0.000000000000       4
    0.307692307692    0.222222222222    0.000000000000       4
    0.326923076923    0.222222222222    0.000000000000       4
    0.346153846154    0.222222222222    0.000000000000       4
    0.365384615385    0.222222222222    0.000000000000       4
    0.384615384615    0.222222222222    0.000000000000       4
    0.403846153846    0.222222222222    0.000000000000       4
    0.423076923077    0.222222222222    0.000000000000       4
    0.442307692308    0.222222222222    0.000000000000       4
    0.461538461538    0.222222222222    0.000000000000       4
    0.480769230769    0.222222222222    0.000000000000       4
    0.500000000000    0.222222222222    0.000000000000       2
    0.000000000000    0.240740740741    0.000000000000       2
    0.019230769231    0.240740740741    0.000000000000       4
    0.038461538462    0.240740740741    0.000000000000       4
    0.057692307692    0.240740740741    0.000000000000       4
    0.076923076923    0.240740740741    0.000000000000       4
    0.096153846154    0.240740740741    0.000000000000       4
    0.115384615385    0.240740740741    0.000000000000       4
    0.134615384615    0.240740740741    0.000000000000       4
    0.153846153846    0.240740740741    0.000000000000       4
    0.173076923077    0.240740740741    0.000000000000       4
    0.192307692308    0.240740740741    0.000000000000       4
    0.211538461538    0.240740740741    0.000000000000       4
    0.230769230769    0.240740740741    0.000000000000       4
    0.250000000000    0.240740740741    0.000000000000       4
    0.269230769231    0.240740740741    0.000000000000       4
    0.288461538462    0.240740740741    0.000000000000       4
    0.307692307692    0.240740740741    0.000000000000       4
    0.326923076923    0.240740740741    0.000000000000       4
    0.346153846154    0.240740740741    0.000000000000       4
    0.365384615385    0.240740740741    0.000000000000       4
    0.384615384615    0.240740740741    0.000000000000       4
    0.403846153846    0.240740740741    0.000000000000       4
    0.423076923077    0.240740740741    0.000000000000       4
    0.442307692308    0.240740740741    0.000000000000       4
    0.461538461538    0.240740740741    0.000000000000       4
    0.480769230769    0.240740740741    0.000000000000       4
    0.500000000000    0.240740740741    0.000000000000       2
    0.000000000000    0.259259259259    0.000000000000       2
    0.019230769231    0.259259259259    0.000000000000       4
    0.038461538462    0.259259259259    0.000000000000       4
    0.057692307692    0.259259259259    0.000000000000       4
    0.076923076923    0.259259259259    0.000000000000       4
    0.096153846154    0.259259259259    0.000000000000       4
    0.115384615385    0.259259259259    0.000000000000       4
    0.134615384615    0.259259259259    0.000000000000       4
    0.153846153846    0.259259259259    0.000000000000       4
    0.173076923077    0.259259259259    0.000000000000       4
    0.192307692308    0.259259259259    0.000000000000       4
    0.211538461538    0.259259259259    0.000000000000       4
    0.230769230769    0.259259259259    0.000000000000       4
    0.250000000000    0.259259259259    0.000000000000       4
    0.269230769231    0.259259259259    0.000000000000       4
    0.288461538462    0.259259259259    0.000000000000       4
    0.307692307692    0.259259259259    0.000000000000       4
    0.326923076923    0.259259259259    0.000000000000       4
    0.346153846154    0.259259259259    0.000000000000       4
    0.365384615385    0.259259259259    0.000000000000       4
    0.384615384615    0.259259259259    0.000000000000       4
    0.403846153846    0.259259259259    0.000000000000       4
    0.423076923077    0.259259259259    0.000000000000       4
    0.442307692308    0.259259259259    0.000000000000       4
    0.461538461538    0.259259259259    0.000000000000       4
    0.480769230769    0.259259259259    0.000000000000       4
    0.500000000000    0.259259259259    0.000000000000       2
    0.000000000000    0.277777777778    0.000000000000       2
    0.019230769231    0.277777777778    0.000000000000       4
    0.038461538462    0.277777777778    0.000000000000       4
    0.057692307692    0.277777777778    0.000000000000       4
    0.076923076923    0.277777777778    0.000000000000       4
    0.096153846154    0.277777777778    0.000000000000       4
    0.115384615385    0.277777777778    0.000000000000       4
    0.134615384615    0.277777777778    0.000000000000       4
    0.153846153846    0.277777777778    0.000000000000       4
    0.173076923077    0.277777777778    0.000000000000       4
    0.192307692308    0.277777777778    0.000000000000       4
    0.211538461538    0.277777777778    0.000000000000       4
    0.230769230769    0.277777777778    0.000000000000       4
    0.250000000000    0.277777777778    0.000000000000       4
    0.269230769231    0.277777777778    0.000000000000       4
    0.288461538462    0.277777777778    0.000000000000       4
    0.307692307692    0.277777777778    0.000000000000       4
    0.326923076923    0.277777777778    0.000000000000       4
    0.346153846154    0.277777777778    0.000000000000       4
    0.365384615385    0.277777777778    0.000000000000       4
    0.384615384615    0.277777777778    0.000000000000       4
    0.403846153846    0.277777777778    0.000000000000       4
    0.423076923077    0.277777777778    0.000000000000       4
    0.442307692308    0.277777777778    0.000000000000       4
    0.461538461538    0.277777777778    0.000000000000       4
    0.480769230769    0.277777777778    0.000000000000       4
    0.500000000000    0.277777777778    0.000000000000       2
    0.000000000000    0.296296296296    0.000000000000       2
    0.019230769231    0.296296296296    0.000000000000       4
    0.038461538462    0.296296296296    0.000000000000       4
    0.057692307692    0.296296296296    0.000000000000       4
    0.076923076923    0.296296296296    0.000000000000       4
    0.096153846154    0.296296296296    0.000000000000       4
    0.115384615385    0.296296296296    0.000000000000       4
    0.134615384615    0.296296296296    0.000000000000       4
    0.153846153846    0.296296296296    0.000000000000       4
    0.173076923077    0.296296296296    0.000000000000       4
    0.192307692308    0.296296296296    0.000000000000       4
    0.211538461538    0.296296296296    0.000000000000       4
    0.230769230769    0.296296296296    0.000000000000       4
    0.250000000000    0.296296296296    0.000000000000       4
    0.269230769231    0.296296296296    0.000000000000       4
    0.288461538462    0.296296296296    0.000000000000       4
    0.307692307692    0.296296296296    0.000000000000       4
    0.326923076923    0.296296296296    0.000000000000       4
    0.346153846154    0.296296296296    0.000000000000       4
    0.365384615385    0.296296296296    0.000000000000       4
    0.384615384615    0.296296296296    0.000000000000       4
    0.403846153846    0.296296296296    0.000000000000       4
    0.423076923077    0.296296296296    0.000000000000       4
    0.442307692308    0.296296296296    0.000000000000       4
    0.461538461538    0.296296296296    0.000000000000       4
    0.480769230769    0.296296296296    0.000000000000       4
    0.500000000000    0.296296296296    0.000000000000       2
    0.000000000000    0.314814814815    0.000000000000       2
    0.019230769231    0.314814814815    0.000000000000       4
    0.038461538462    0.314814814815    0.000000000000       4
    0.057692307692    0.314814814815    0.000000000000       4
    0.076923076923    0.314814814815    0.000000000000       4
    0.096153846154    0.314814814815    0.000000000000       4
    0.115384615385    0.314814814815    0.000000000000       4
    0.134615384615    0.314814814815    0.000000000000       4
    0.153846153846    0.314814814815    0.000000000000       4
    0.173076923077    0.314814814815    0.000000000000       4
    0.192307692308    0.314814814815    0.000000000000       4
    0.211538461538    0.314814814815    0.000000000000       4
    0.230769230769    0.314814814815    0.000000000000       4
    0.250000000000    0.314814814815    0.000000000000       4
    0.269230769231    0.314814814815    0.000000000000       4