CONTCAR\(2)                             
   1.00000000000000     
    13.4954004288000000    0.0000000000000000    0.0000000000000000
    -3.3738461598999998   19.0216094057000014    0.0000000000000000
     0.0000000000000000    0.0000000000000000   18.9101009369000010
   Ta   Pd   Se   O 
    16     8    48     1
Direct
  0.0867715716825242  0.3530103723345757  0.5249011473368607
  0.1604118920709061  0.1488313546664948  0.4766491917034056
  0.3377210625387581  0.3509232295933892  0.5255315263166560
  0.4108440564122729  0.1479977365185883  0.4754151051438547
  0.5854448022328240  0.3509340609443244  0.5257479183766552
  0.6611737171080270  0.1488770302870602  0.4764812751560253
  0.8374036584552422  0.3530961899182380  0.5248802294069552
  0.9112659444631055  0.1498142996460312  0.4758390514079199
  0.0864277319879761  0.8529087854631632  0.5236319595048364
  0.1597609839157985  0.6490090931396860  0.4762149467315203
  0.3358973259686722  0.8523520359566175  0.5245240955068169
  0.4054924656957727  0.6507077601385735  0.4761452062442788
  0.5862187635998315  0.8527836209146203  0.5234345742467958
  0.6654187014282017  0.6508997726916266  0.4760202895012857
  0.8359819992645523  0.8526905390605594  0.5243534532476006
  0.9100380708155609  0.6491132096993720  0.4763671607751039
  0.9971416922421953  0.0017794121153550  0.4994781897655298
  0.2488599342786826 -0.0002969886852871  0.5004266942406477
  0.4977986636315422  0.0009562206241780  0.4992152089066068
  0.7501813836588956  0.0006838724274623  0.4997755531791823
  0.9974908138472341  0.4980844638500738  0.5028518221898104
  0.2511298988909299  0.5050709867240801  0.4982331058097323
  0.4958879614785069  0.4902450031372905  0.5082587894729266
  0.7475848188456163  0.5052788269105438  0.4981833875600314
  0.2311874958296220  0.4260085879339304  0.6010436732057383
  0.0188865352338755  0.0812868033526963  0.3955790347533997
  0.0607155466355022  0.2446499959447482  0.4278994147997167
  0.2237621829435436  0.3960087509579051  0.4276689981085264
  0.0255284547555861  0.1084071581030617  0.5739963877370453
  0.1876570432640192  0.2581746979113080  0.5743508373549333
  0.4765761654949772  0.4113433830743312  0.6124733624897954
  0.2672818385786580  0.0786851815469066  0.3967288353700236
  0.3088602557505942  0.2431229588821449  0.4277624058434149
  0.4707494090962620  0.3881837800770920  0.4273434064326407
  0.2758228634194132  0.1068949380212415  0.5737741270460791
  0.4371372300212301  0.2541509898837044  0.5726935103779376
  0.7297472056782813  0.4262717798688228  0.6010438396042568
  0.5196945712120664  0.0802248944661446  0.3953549960281039
  0.5601342358204264  0.2435125971362331  0.4278901406135245
  0.7213682249053189  0.3961914518888781  0.4277553372212427
  0.5259009677809184  0.1074785624260193  0.5736227087088328
  0.6888651612174341  0.2581488592094939  0.5743890641394017
  0.9785994605473414  0.4186301485599346  0.6073775906826703
  0.7689987592936510  0.0802579176003617  0.3962736497355107
  0.8091876649865257  0.2445151907704250  0.4279572251946933
  0.9714711739055225  0.3921214359014479  0.4270221738100691
  0.7764199986109304  0.1074965111007218  0.5737304009407145
  0.9379514025125505  0.2574446854022222  0.5730354247756585
  0.2281363488513367  0.9208147326966517  0.6046082240985697
  0.0164794363717675  0.5763196999640735  0.3992557236922433
  0.0585961816724176  0.7431074059325339  0.4265834315681997
  0.2214013997217317  0.8931620591816531  0.4260905602282254
  0.0244027145242844  0.6064247752949863  0.5744458515053237
  0.1863770980360719  0.7577029973682360  0.5727069477744546
  0.4791694393697860  0.9223277744303147  0.6031481167295859
  0.2682474772455738  0.5840062972007443  0.3928230241824650
  0.3076811858359855  0.7454852013231166  0.4268715836909356
  0.4706995373939354  0.8936055973795356  0.4260637287118493
  0.2755453739454707  0.6107114907894600  0.5746777144461135
  0.4378432630327695  0.7580542033664097  0.5733072541797458
  0.7279647279303186  0.9216981728017427  0.6037341955487784
  0.5159127604326813  0.5727033153569719  0.4076187180895133
  0.5584349794371684  0.7422540096965530  0.4272437204905410
  0.7213267435776591  0.8935364530358980  0.4259657144824649
  0.5235090120686485  0.6019456366216971  0.5700226968422967
  0.6868802945449697  0.7579998362227318  0.5731336114651933
  0.9789038060509037  0.9226805873583761  0.6031085053039420
  0.7692017054441674  0.5841217702647175  0.3927258997115305
  0.8111656661377761  0.7456949459834209  0.4268689689056495
  0.9710025976746197  0.8944102009918792  0.4262216055514170
  0.7757902427570010  0.6108888241701794  0.5747220213696062
  0.9382474612570982  0.7582728332834768  0.5728440061778515
  0.5261491676779686  0.6138007561882863  0.6576123245485410
 
  0.00000000E+00  0.00000000E+00  0.00000000E+00
  0.00000000E+00  0.00000000E+00  0.00000000E+00
  0.00000000E+00  0.00000000E+00  0.00000000E+00
  0.00000000E+00  0.00000000E+00  0.00000000E+00
  0.00000000E+00  0.00000000E+00  0.00000000E+00
  0.00000000E+00  0.00000000E+00  0.00000000E+00
  0.00000000E+00  0.00000000E+00  0.00000000E+00
  0.00000000E+00  0.00000000E+00  0.00000000E+00
  0.00000000E+00  0.00000000E+00  0.00000000E+00
  0.00000000E+00  0.00000000E+00  0.00000000E+00
  0.00000000E+00  0.00000000E+00  0.00000000E+00
  0.00000000E+00  0.00000000E+00  0.00000000E+00
  0.00000000E+00  0.00000000E+00  0.00000000E+00
  0.00000000E+00  0.00000000E+00  0.00000000E+00
  0.00000000E+00  0.00000000E+00  0.00000000E+00
  0.00000000E+00  0.00000000E+00  0.00000000E+00
  0.00000000E+00  0.00000000E+00  0.00000000E+00
  0.00000000E+00  0.00000000E+00  0.00000000E+00
  0.00000000E+00  0.00000000E+00  0.00000000E+00
  0.00000000E+00  0.00000000E+00  0.00000000E+00
  0.00000000E+00  0.00000000E+00  0.00000000E+00
  0.00000000E+00  0.00000000E+00  0.00000000E+00
  0.00000000E+00  0.00000000E+00  0.00000000E+00
  0.00000000E+00  0.00000000E+00  0.00000000E+00
  0.00000000E+00  0.00000000E+00  0.00000000E+00
  0.00000000E+00  0.00000000E+00  0.00000000E+00
  0.00000000E+00  0.00000000E+00  0.00000000E+00
  0.00000000E+00  0.00000000E+00  0.00000000E+00
  0.00000000E+00  0.00000000E+00  0.00000000E+00
  0.00000000E+00  0.00000000E+00  0.00000000E+00
  0.00000000E+00  0.00000000E+00  0.00000000E+00
  0.00000000E+00  0.00000000E+00  0.00000000E+00
  0.00000000E+00  0.00000000E+00  0.00000000E+00
  0.00000000E+00  0.00000000E+00  0.00000000E+00
  0.00000000E+00  0.00000000E+00  0.00000000E+00
  0.00000000E+00  0.00000000E+00  0.00000000E+00
  0.00000000E+00  0.00000000E+00  0.00000000E+00
  0.00000000E+00  0.00000000E+00  0.00000000E+00
  0.00000000E+00  0.00000000E+00  0.00000000E+00
  0.00000000E+00  0.00000000E+00  0.00000000E+00
  0.00000000E+00  0.00000000E+00  0.00000000E+00
  0.00000000E+00  0.00000000E+00  0.00000000E+00
  0.00000000E+00  0.00000000E+00  0.00000000E+00
  0.00000000E+00  0.00000000E+00  0.00000000E+00
  0.00000000E+00  0.00000000E+00  0.00000000E+00
  0.00000000E+00  0.00000000E+00  0.00000000E+00
  0.00000000E+00  0.00000000E+00  0.00000000E+00
  0.00000000E+00  0.00000000E+00  0.00000000E+00
  0.00000000E+00  0.00000000E+00  0.00000000E+00
  0.00000000E+00  0.00000000E+00  0.00000000E+00
  0.00000000E+00  0.00000000E+00  0.00000000E+00
  0.00000000E+00  0.00000000E+00  0.00000000E+00
  0.00000000E+00  0.00000000E+00  0.00000000E+00
  0.00000000E+00  0.00000000E+00  0.00000000E+00
  0.00000000E+00  0.00000000E+00  0.00000000E+00
  0.00000000E+00  0.00000000E+00  0.00000000E+00
  0.00000000E+00  0.00000000E+00  0.00000000E+00
  0.00000000E+00  0.00000000E+00  0.00000000E+00
  0.00000000E+00  0.00000000E+00  0.00000000E+00
  0.00000000E+00  0.00000000E+00  0.00000000E+00
  0.00000000E+00  0.00000000E+00  0.00000000E+00
  0.00000000E+00  0.00000000E+00  0.00000000E+00
  0.00000000E+00  0.00000000E+00  0.00000000E+00
  0.00000000E+00  0.00000000E+00  0.00000000E+00
  0.00000000E+00  0.00000000E+00  0.00000000E+00
  0.00000000E+00  0.00000000E+00  0.00000000E+00
  0.00000000E+00  0.00000000E+00  0.00000000E+00
  0.00000000E+00  0.00000000E+00  0.00000000E+00
  0.00000000E+00  0.00000000E+00  0.00000000E+00
  0.00000000E+00  0.00000000E+00  0.00000000E+00
  0.00000000E+00  0.00000000E+00  0.00000000E+00
  0.00000000E+00  0.00000000E+00  0.00000000E+00
  0.00000000E+00  0.00000000E+00  0.00000000E+00
