CONTCAR                                 
   1.00000000000000     
    12.1801004410000004    0.0000000000000000    0.0000000000000000
    -1.4509505809000001   16.7930344431000016    0.0000000000000000
     0.0000000000000000    0.0000000000000000   21.1623001098999985
   Cu   Se   Cl   O    H 
    24    16    16    50     1
Direct
  0.4153744037245464  0.2766727448420354  0.3767515558572511
  0.2629991784811699  0.1700411138048209  0.4641107237639036
  0.5002914378161283  0.1814067189894551  0.6245823580713722
  0.3506524879927763  0.0095425394572768  0.5328280712796575
  0.1545106194565245  0.2944309210467179  0.5388195631569838
  0.0643427916761592  0.4512293048760169  0.4685709432293184
  0.9149218479393956  0.2757364081235436  0.3769275839796507
  0.7619932560829539  0.1691622710369715  0.4643266161368397
  0.0006690785088421  0.1830292920640222  0.6239840628724658
  0.8517528833531991  0.0102227794566337  0.5341554589483265
  0.6526082250070073  0.2923031626168848  0.5382546989805346
  0.5572928740161032  0.4493464003410665  0.4638269730747805
  0.4139530283447207  0.7763835797761258  0.3775616280637027
  0.2634679110647860  0.6659459192009151  0.4655394974348784
  0.5011818388099551  0.6843556328784007  0.6342211999582980
  0.3668925229679245  0.5130540640552991  0.5456256868976551
  0.1498737206078916  0.7909524701481550  0.5379788454990463
  0.0597225548059974  0.9484278395199469  0.4666196687265889
  0.9140923202774048  0.7762203411320006  0.3776667481373735
  0.7618171403582934  0.6662285579377913  0.4640659279337954
 -0.0015477711437771  0.6839773394402952  0.6257875059163102
  0.8537726309919504  0.5099520502092941  0.5356415232318025
  0.6473309624215752  0.7855719655904654  0.5379987272798794
  0.5598484117725120  0.9485601476395636  0.4663636713014604
  0.1635207342989870  0.3267347148389737  0.3780189437546441
  0.2508424474279101  0.1326818780225046  0.6230615423125226
  0.0245081038642367  0.1222086611330274  0.4251286576558015
  0.3925639592669861  0.3370518933547825  0.5781722257277175
  0.6644301736019141  0.3263175997133737  0.3780898092374747
  0.7516145217789529  0.1327500734831079  0.6235117969238416
  0.5239626004694034  0.1217686988533161  0.4237311989703294
  0.8920125867477792  0.3377200650361082  0.5777566868983981
  0.1630418360737896  0.8260773972282315  0.3782142034612913
  0.2448434718727548  0.6305583091806137  0.6261768928955732
  0.0244246826726143  0.6227881768287288  0.4252314017935865
  0.3894874166712234  0.8373409800015886  0.5765496602198061
  0.6631761032657383  0.8257417885280485  0.3791534509477608
  0.7502676512015407  0.6329339188190561  0.6247260658746425
  0.5232116144920120  0.6215938943654712  0.4239283678157407
  0.8872740338133616  0.8371928414201872  0.5771750282513263
  0.2089293723552165  0.4411715743798451  0.5844430083643780
  0.2002403226796072  0.0158220822155979  0.4147402891078412
  0.4239289430827413  0.4022069971648780  0.3488382565832674
  0.4943484333353340  0.0576043813388194  0.6558926200860251
  0.7151397296001244  0.4420816570576017  0.5888929254323986
  0.7020459906963312  0.0149625255443297  0.4149294257357571
  0.9200190547066823  0.3990496819637197  0.3443957093989894
  0.9941457141643769  0.0591680727822900  0.6555775922218758
  0.2094099293831161  0.9433453202729505  0.5855967836379946
  0.2023187810225773  0.5190773019438621  0.4148182843518006
  0.4203325399749979  0.9003944522836584  0.3461620797687020
  0.4845064582565289  0.5502386163583216  0.6421839922080488
  0.7126407361475523  0.9437596853881174  0.5870619462763292
  0.7049802428919171  0.5168897928712672  0.4158721129487207
  0.9201635379741667  0.9001829236517378  0.3459726179379255
  0.9933171662618603  0.5601375284013302  0.6578648063176502
  0.0609492122937900  0.2559661053352101  0.3536635639932851
  0.4498405981849808  0.4186833419923433  0.5344679591885666
  0.1078189233455526  0.1726690223124944  0.4800418508084905
  0.3545462501594951  0.2018993338652791  0.6482359562205863
  0.2960527514900504  0.1130342255147309  0.5449009859457101
  0.1561273575075919  0.2033355112381916  0.6088572074606030
  0.4712128208485197  0.0403071179180140  0.4704766252255989
  0.4068709595854629  0.1769834122662674  0.4263752126147304
  0.3089437539430617  0.2892782841752466  0.5217863044685256
  0.1191694043938014  0.3476605974189470  0.4555992775335432
  0.0084124216819395  0.2816974754200939  0.5732697501280958
  0.2598556626706718  0.2570694229176563  0.3928953525798803
  0.5613145446808845  0.2564823732904283  0.3530494740406443
  0.9443595056811195  0.4195022806435376  0.5310898408451158
  0.6066919148167976  0.1717744508874743  0.4792718540893414
  0.8547720301881815  0.2030934524689572  0.6475887983547912
  0.7951631464152390  0.1126463038813569  0.5450777431566328
  0.6554173891414247  0.2021755292997111  0.6087955401311368
  0.9729686083734070  0.0404242195520944  0.4730190018297739
  0.9072089143127930  0.1771806808982281  0.4280850483535681
  0.8075878940134456  0.2886082010912126  0.5224766571537066
  0.6197698065784910  0.3476555042892026  0.4558667674417780
  0.5077539261964902  0.2797692611168298  0.5741187569184000
  0.7599158983024606  0.2562126809472960  0.3935873285726502
  0.0599717989190096  0.7557890219318124  0.3538149791729065
  0.4388565629220708  0.9180351377950221  0.5278173440103537
  0.1085628208882985  0.6719656946815898  0.4807280175340418
  0.3481762543103282  0.6982349986031956  0.6565610156271494
  0.2964160116169451  0.6128662705889317  0.5499217701203483
  0.1532911187174084  0.7027056210576859  0.6101398561697456
  0.4669129128755717  0.5399568562131717  0.4676422089146042
  0.4075061502695486  0.6785037829278212  0.4286620858594328
  0.3042617745822077  0.7852147027791325  0.5231854648024415
  0.1178357193911594  0.8464668872062100  0.4562731022395207
  0.0048980546808330  0.7820067146328192  0.5740541515134244
  0.2589868075508331  0.7566649401950549  0.3932918655269862
  0.5598289916822621  0.7561311354668316  0.3540635752187490
  0.9383651187325721  0.9182304730271278  0.5282973676667403
  0.6072092685634810  0.6696000296581976  0.4804459328095436
  0.8534786352070789  0.7029980153941995  0.6493121197988065
  0.7948454191836404  0.6120918206375328  0.5467873163622705
  0.6558542377794052  0.7031549582690965  0.6116435783984056
  0.9722535902778714  0.5411624629847045  0.4720316515466675
  0.9076263000687261  0.6783963155706755  0.4294806856809393
  0.8036137977974391  0.7859931591492884  0.5229008926094982
  0.6184899054177183  0.8458903568545628  0.4573073475550337
  0.5029659660279869  0.7812524473712055  0.5745528966857152
  0.7587384336391699  0.7556063967340696  0.3935610924710908
  0.5342352081072965  0.7279212924004664  0.7312878793026495
  0.4410738075561419  0.7233639315560664  0.7658076591640605
  0.3813780530429015  0.7127781089636819  0.7319636553336982
 
  0.00000000E+00  0.00000000E+00  0.00000000E+00
  0.00000000E+00  0.00000000E+00  0.00000000E+00
  0.00000000E+00  0.00000000E+00  0.00000000E+00
  0.00000000E+00  0.00000000E+00  0.00000000E+00
  0.00000000E+00  0.00000000E+00  0.00000000E+00
  0.00000000E+00  0.00000000E+00  0.00000000E+00
  0.00000000E+00  0.00000000E+00  0.00000000E+00
  0.00000000E+00  0.00000000E+00  0.00000000E+00
  0.00000000E+00  0.00000000E+00  0.00000000E+00
  0.00000000E+00  0.00000000E+00  0.00000000E+00
  0.00000000E+00  0.00000000E+00  0.00000000E+00
  0.00000000E+00  0.00000000E+00  0.00000000E+00
  0.00000000E+00  0.00000000E+00  0.00000000E+00
  0.00000000E+00  0.00000000E+00  0.00000000E+00
  0.00000000E+00  0.00000000E+00  0.00000000E+00
  0.00000000E+00  0.00000000E+00  0.00000000E+00
  0.00000000E+00  0.00000000E+00  0.00000000E+00
  0.00000000E+00  0.00000000E+00  0.00000000E+00
  0.00000000E+00  0.00000000E+00  0.00000000E+00
  0.00000000E+00  0.00000000E+00  0.00000000E+00
  0.00000000E+00  0.00000000E+00  0.00000000E+00
  0.00000000E+00  0.00000000E+00  0.00000000E+00
  0.00000000E+00  0.00000000E+00  0.00000000E+00
  0.00000000E+00  0.00000000E+00  0.00000000E+00
  0.00000000E+00  0.00000000E+00  0.00000000E+00
  0.00000000E+00  0.00000000E+00  0.00000000E+00
  0.00000000E+00  0.00000000E+00  0.00000000E+00
  0.00000000E+00  0.00000000E+00  0.00000000E+00
  0.00000000E+00  0.00000000E+00  0.00000000E+00
  0.00000000E+00  0.00000000E+00  0.00000000E+00
  0.00000000E+00  0.00000000E+00  0.00000000E+00
  0.00000000E+00  0.00000000E+00  0.00000000E+00
  0.00000000E+00  0.00000000E+00  0.00000000E+00
  0.00000000E+00  0.00000000E+00  0.00000000E+00
  0.00000000E+00  0.00000000E+00  0.00000000E+00
  0.00000000E+00  0.00000000E+00  0.00000000E+00
  0.00000000E+00  0.00000000E+00  0.00000000E+00
  0.00000000E+00  0.00000000E+00  0.00000000E+00
  0.00000000E+00  0.00000000E+00  0.00000000E+00
  0.00000000E+00  0.00000000E+00  0.00000000E+00
  0.00000000E+00  0.00000000E+00  0.00000000E+00
  0.00000000E+00  0.00000000E+00  0.00000000E+00
  0.00000000E+00  0.00000000E+00  0.00000000E+00
  0.00000000E+00  0.00000000E+00  0.00000000E+00
  0.00000000E+00  0.00000000E+00  0.00000000E+00
  0.00000000E+00  0.00000000E+00  0.00000000E+00
  0.00000000E+00  0.00000000E+00  0.00000000E+00
  0.00000000E+00  0.00000000E+00  0.00000000E+00
  0.00000000E+00  0.00000000E+00  0.00000000E+00
  0.00000000E+00  0.00000000E+00  0.00000000E+00
  0.00000000E+00  0.00000000E+00  0.00000000E+00
  0.00000000E+00  0.00000000E+00  0.00000000E+00
  0.00000000E+00  0.00000000E+00  0.00000000E+00
  0.00000000E+00  0.00000000E+00  0.00000000E+00
  0.00000000E+00  0.00000000E+00  0.00000000E+00
  0.00000000E+00  0.00000000E+00  0.00000000E+00
  0.00000000E+00  0.00000000E+00  0.00000000E+00
  0.00000000E+00  0.00000000E+00  0.00000000E+00
  0.00000000E+00  0.00000000E+00  0.00000000E+00
  0.00000000E+00  0.00000000E+00  0.00000000E+00
  0.00000000E+00  0.00000000E+00  0.00000000E+00
  0.00000000E+00  0.00000000E+00  0.00000000E+00
  0.00000000E+00  0.00000000E+00  0.00000000E+00
  0.00000000E+00  0.00000000E+00  0.00000000E+00
  0.00000000E+00  0.00000000E+00  0.00000000E+00
  0.00000000E+00  0.00000000E+00  0.00000000E+00
  0.00000000E+00  0.00000000E+00  0.00000000E+00
  0.00000000E+00  0.00000000E+00  0.00000000E+00
  0.00000000E+00  0.00000000E+00  0.00000000E+00
  0.00000000E+00  0.00000000E+00  0.00000000E+00
  0.00000000E+00  0.00000000E+00  0.00000000E+00
  0.00000000E+00  0.00000000E+00  0.00000000E+00
  0.00000000E+00  0.00000000E+00  0.00000000E+00
  0.00000000E+00  0.00000000E+00  0.00000000E+00
  0.00000000E+00  0.00000000E+00  0.00000000E+00
  0.00000000E+00  0.00000000E+00  0.00000000E+00
  0.00000000E+00  0.00000000E+00  0.00000000E+00
  0.00000000E+00  0.00000000E+00  0.00000000E+00
  0.00000000E+00  0.00000000E+00  0.00000000E+00
  0.00000000E+00  0.00000000E+00  0.00000000E+00
  0.00000000E+00  0.00000000E+00  0.00000000E+00
  0.00000000E+00  0.00000000E+00  0.00000000E+00
  0.00000000E+00  0.00000000E+00  0.00000000E+00
  0.00000000E+00  0.00000000E+00  0.00000000E+00
  0.00000000E+00  0.00000000E+00  0.00000000E+00
  0.00000000E+00  0.00000000E+00  0.00000000E+00
  0.00000000E+00  0.00000000E+00  0.00000000E+00
  0.00000000E+00  0.00000000E+00  0.00000000E+00
  0.00000000E+00  0.00000000E+00  0.00000000E+00
  0.00000000E+00  0.00000000E+00  0.00000000E+00
  0.00000000E+00  0.00000000E+00  0.00000000E+00
  0.00000000E+00  0.00000000E+00  0.00000000E+00
  0.00000000E+00  0.00000000E+00  0.00000000E+00
  0.00000000E+00  0.00000000E+00  0.00000000E+00
  0.00000000E+00  0.00000000E+00  0.00000000E+00
  0.00000000E+00  0.00000000E+00  0.00000000E+00
  0.00000000E+00  0.00000000E+00  0.00000000E+00
  0.00000000E+00  0.00000000E+00  0.00000000E+00
  0.00000000E+00  0.00000000E+00  0.00000000E+00
  0.00000000E+00  0.00000000E+00  0.00000000E+00
  0.00000000E+00  0.00000000E+00  0.00000000E+00
  0.00000000E+00  0.00000000E+00  0.00000000E+00
  0.00000000E+00  0.00000000E+00  0.00000000E+00
  0.00000000E+00  0.00000000E+00  0.00000000E+00
  0.00000000E+00  0.00000000E+00  0.00000000E+00
  0.00000000E+00  0.00000000E+00  0.00000000E+00
  0.00000000E+00  0.00000000E+00  0.00000000E+00
