 Ta4 Ni2 Se10                           
   1.00000000000000     
     3.4741061207119834    0.0000000000000000    0.0000000000000000
     0.0991749400593925   15.6682689940879083    0.0000000000000000
     0.0000000000000000    0.0000000000000000   19.4270478640319979
   Ta   Ni   Se
     4     2    10
Direct
  0.2560096628359361  0.1094720341095510  0.4803182725434283
  0.2439591780246602  0.3907232766808946  0.4803350355964611
  0.7439839561471544  0.8907440126009902  0.5196696741682842
  0.7560553012718572  0.6094817916715130  0.5196734849115572
  0.7499846080536230  0.2500944269887810  0.4668723917343556
  0.2499869820371572  0.7501024775780323  0.5331315968313888
  0.7471143639409590  0.1394827426063472  0.3857738025727784
  0.7529104256016979  0.3607056226648098  0.3857883667268638
  0.2529194426365962  0.8607169648531396  0.6142140415589026
  0.2471466179689230  0.6394760507718544  0.6142206787294455
  0.2528574229863452  0.9502108406949716  0.4297646046527674
  0.2470812998768821  0.5499935953172539  0.4297771179221144
  0.7470647878645238  0.0500047061723379  0.5702253657710301
  0.7528956653013807  0.4502087453231738  0.5702314119422596
  0.2499877012324347  0.2500764477331714  0.5507495501197255
  0.7499992907778008  0.7500928971491660  0.4492546042186234
 
  0.00000000E+00  0.00000000E+00  0.00000000E+00
  0.00000000E+00  0.00000000E+00  0.00000000E+00
  0.00000000E+00  0.00000000E+00  0.00000000E+00
  0.00000000E+00  0.00000000E+00  0.00000000E+00
  0.00000000E+00  0.00000000E+00  0.00000000E+00
  0.00000000E+00  0.00000000E+00  0.00000000E+00
  0.00000000E+00  0.00000000E+00  0.00000000E+00
  0.00000000E+00  0.00000000E+00  0.00000000E+00
  0.00000000E+00  0.00000000E+00  0.00000000E+00
  0.00000000E+00  0.00000000E+00  0.00000000E+00
  0.00000000E+00  0.00000000E+00  0.00000000E+00
  0.00000000E+00  0.00000000E+00  0.00000000E+00
  0.00000000E+00  0.00000000E+00  0.00000000E+00
  0.00000000E+00  0.00000000E+00  0.00000000E+00
  0.00000000E+00  0.00000000E+00  0.00000000E+00
  0.00000000E+00  0.00000000E+00  0.00000000E+00
