CONTCAR\(7)                             
   1.00000000000000     
    12.4780998230000009    0.0000000000000000    0.0000000000000000
     0.0000000000000000   15.4434003830000002    0.0000000000000000
     0.0000000000000000    0.0000000000000000   19.6900997161999989
   Nb   Co   Te   O 
    16    16    32     1
Direct
  0.2388050665864449  0.1259250643232037  0.4925163759674278
  0.2528717787110674  0.3212987104998996  0.5037800125889028
  0.4901550585164027  0.0760991566737692  0.5053486423154229
  0.0061479077876890  0.3760056847081618  0.4922397162750601
  0.7386432770826784  0.1280803013332467  0.4918136398783268
  0.7553278462530351  0.3274149784975202  0.5061070356666111
  0.9892749585924902  0.0757060243132441  0.5034404606426611
  0.5058256251381686  0.3762700799063839  0.4955224647511293
  0.2436036717328464  0.6279393738366816  0.4995283468338170
  0.2563284907953959  0.8276462473798978  0.5069748071553257
  0.4903003190348286  0.5725622755154629  0.5245214607136681
  0.0078525068363588  0.8774495707076191  0.4934481484867667
  0.7388176200445645  0.6289870658081256  0.4916585365824256
  0.7593466240045201  0.8280016200747433  0.5062898839906100
  0.9912306723526164  0.5748136678667751  0.5068301091432031
  0.5085954771296517  0.8782427090423480  0.4962155949276743
  0.4248370685357978  0.2287605024810764  0.4586908473025769
  0.1728441125877021  0.4725816529462665  0.5428831681516024
  0.3277798103706152  0.4812243536937684  0.4666008771904235
  0.0680758848944601  0.2223796020743861  0.5398483914283573
  0.9221753454158326  0.2289819339523371  0.4573943502408206
  0.6823145458552080  0.4777270989307714  0.5454741850028556
  0.8232688102964744  0.4790142576561389  0.4596408724436289
  0.5695289431495173  0.2247388003684424  0.5415960543802070
  0.4312937500122844  0.7270575386110577  0.4650216687928832
  0.1762917576260453  0.9743880277011145  0.5408987480988738
  0.3225748469559424  0.9791426280126384  0.4588790299005522
  0.0712340720419371  0.7231282964759161  0.5429975898355262
  0.9251240723977583  0.7286647502379463  0.4595381844286098
  0.6776066776531202  0.9756591752858759  0.5404171422506117
  0.8215259694953077  0.9796250302475322  0.4573724226511945
  0.5804840518934823  0.7242785016142130  0.5438685311664353
  0.1312618057933791  0.4922532474343770  0.4151080012660168
  0.3674739284216894  0.3569295168044224  0.3833342496843318
  0.1156825751307651  0.3450210047820331  0.6179214746038438
  0.3742096687564831  0.2060170155627293  0.5869048660951390
  0.3757397743343147  0.1047558723344405  0.3804153882063123
  0.1234568285888471  0.0977396498160942  0.6175982597908439
  0.1157410048691366  0.2394863305222585  0.4106037513047447
  0.3591287533570274  0.4378427545146180  0.5923203711123164
  0.6250840354415593  0.4959899346320693  0.4194618804601858
  0.8689486820645378  0.3560660620627711  0.3803656866790587
  0.6206829284731253  0.3498119928593517  0.6194105582287528
  0.8738204486075961  0.2094285480895245  0.5865535765665855
  0.8739682613828540  0.1050336935356949  0.3789856449185541
  0.6265521278359920  0.0988401299057350  0.6180323706180881
  0.6186791951733238  0.2451381328928276  0.4121695570571514
  0.8758308924510481  0.4576669266824477  0.5890099598389140
  0.1271243952392327  0.9912651915284666  0.4114101139074826
  0.3718851482369609  0.8512254207956242  0.3841271165938401
  0.1183841159763987  0.8495069551054397  0.6192080384851197
  0.3755428188540236  0.7198683264068825  0.5905209557978132
  0.3815104881539633  0.6050391647779211  0.3888517918988232
  0.1262959277782985  0.5964947915436508  0.6211391511706382
  0.1213569000010891  0.7402426290113630  0.4151959421954293
  0.3708602787149637  0.9614233211959593  0.5884346825483985
  0.6261349892056770  0.9933152546194404  0.4117694036057082
  0.8731993310687517  0.8549956692566066  0.3808412291950297
  0.6233102141678372  0.8520457219814705  0.6198211951747667
  0.8764112666856928  0.7101370258255899  0.5877982377598002
  0.8768542225372614  0.6044370299560423  0.3813122082171199
  0.6537192055585915  0.6074460717079108  0.6248055921486256
  0.6212150476507898  0.7471335915180439  0.4126328878449287
  0.8720107705340807  0.9608130873800380  0.5870280229061964
  0.4946873631744386  0.5642354461815515  0.6241403299351554
 
  0.00000000E+00  0.00000000E+00  0.00000000E+00
  0.00000000E+00  0.00000000E+00  0.00000000E+00
  0.00000000E+00  0.00000000E+00  0.00000000E+00
  0.00000000E+00  0.00000000E+00  0.00000000E+00
  0.00000000E+00  0.00000000E+00  0.00000000E+00
  0.00000000E+00  0.00000000E+00  0.00000000E+00
  0.00000000E+00  0.00000000E+00  0.00000000E+00
  0.00000000E+00  0.00000000E+00  0.00000000E+00
  0.00000000E+00  0.00000000E+00  0.00000000E+00
  0.00000000E+00  0.00000000E+00  0.00000000E+00
  0.00000000E+00  0.00000000E+00  0.00000000E+00
  0.00000000E+00  0.00000000E+00  0.00000000E+00
  0.00000000E+00  0.00000000E+00  0.00000000E+00
  0.00000000E+00  0.00000000E+00  0.00000000E+00
  0.00000000E+00  0.00000000E+00  0.00000000E+00
  0.00000000E+00  0.00000000E+00  0.00000000E+00
  0.00000000E+00  0.00000000E+00  0.00000000E+00
  0.00000000E+00  0.00000000E+00  0.00000000E+00
  0.00000000E+00  0.00000000E+00  0.00000000E+00
  0.00000000E+00  0.00000000E+00  0.00000000E+00
  0.00000000E+00  0.00000000E+00  0.00000000E+00
  0.00000000E+00  0.00000000E+00  0.00000000E+00
  0.00000000E+00  0.00000000E+00  0.00000000E+00
  0.00000000E+00  0.00000000E+00  0.00000000E+00
  0.00000000E+00  0.00000000E+00  0.00000000E+00
  0.00000000E+00  0.00000000E+00  0.00000000E+00
  0.00000000E+00  0.00000000E+00  0.00000000E+00
  0.00000000E+00  0.00000000E+00  0.00000000E+00
  0.00000000E+00  0.00000000E+00  0.00000000E+00
  0.00000000E+00  0.00000000E+00  0.00000000E+00
  0.00000000E+00  0.00000000E+00  0.00000000E+00
  0.00000000E+00  0.00000000E+00  0.00000000E+00
  0.00000000E+00  0.00000000E+00  0.00000000E+00
  0.00000000E+00  0.00000000E+00  0.00000000E+00
  0.00000000E+00  0.00000000E+00  0.00000000E+00
  0.00000000E+00  0.00000000E+00  0.00000000E+00
  0.00000000E+00  0.00000000E+00  0.00000000E+00
  0.00000000E+00  0.00000000E+00  0.00000000E+00
  0.00000000E+00  0.00000000E+00  0.00000000E+00
  0.00000000E+00  0.00000000E+00  0.00000000E+00
  0.00000000E+00  0.00000000E+00  0.00000000E+00
  0.00000000E+00  0.00000000E+00  0.00000000E+00
  0.00000000E+00  0.00000000E+00  0.00000000E+00
  0.00000000E+00  0.00000000E+00  0.00000000E+00
  0.00000000E+00  0.00000000E+00  0.00000000E+00
  0.00000000E+00  0.00000000E+00  0.00000000E+00
  0.00000000E+00  0.00000000E+00  0.00000000E+00
  0.00000000E+00  0.00000000E+00  0.00000000E+00
  0.00000000E+00  0.00000000E+00  0.00000000E+00
  0.00000000E+00  0.00000000E+00  0.00000000E+00
  0.00000000E+00  0.00000000E+00  0.00000000E+00
  0.00000000E+00  0.00000000E+00  0.00000000E+00
  0.00000000E+00  0.00000000E+00  0.00000000E+00
  0.00000000E+00  0.00000000E+00  0.00000000E+00
  0.00000000E+00  0.00000000E+00  0.00000000E+00
  0.00000000E+00  0.00000000E+00  0.00000000E+00
  0.00000000E+00  0.00000000E+00  0.00000000E+00
  0.00000000E+00  0.00000000E+00  0.00000000E+00
  0.00000000E+00  0.00000000E+00  0.00000000E+00
  0.00000000E+00  0.00000000E+00  0.00000000E+00
  0.00000000E+00  0.00000000E+00  0.00000000E+00
  0.00000000E+00  0.00000000E+00  0.00000000E+00
  0.00000000E+00  0.00000000E+00  0.00000000E+00
  0.00000000E+00  0.00000000E+00  0.00000000E+00
  0.00000000E+00  0.00000000E+00  0.00000000E+00
