CONTCAR                                 
   1.00000000000000     
    13.0608997344999995    0.0000000000000000    0.0000000000000000
    -3.2652307411999999   18.2355734656999999    0.0000000000000000
     0.0000000000000000    0.0000000000000000   18.6539993286000012
   Ta   Pd   S 
    16     8    48
Direct
  0.0873883369942448  0.3496098928572380  0.5240659376305103
  0.1626116770057564  0.1503900761427630  0.4759340623694897
  0.3373883179942396  0.3496098928572380  0.5240659376305103
  0.4126116590057549  0.1503900761427630  0.4759340623694897
  0.5873883179942396  0.3496098928572380  0.5240659376305103
  0.6626116590057549  0.1503900761427630  0.4759340623694897
  0.8373883549942462  0.3496098928572380  0.5240659376305103
  0.9126116950057579  0.1503900761427630  0.4759340623694897
  0.0873883259942403  0.8496098748572365  0.5240659376305103
  0.1626116790057566  0.6503900711427661  0.4759340623694897
  0.3373883169942431  0.8496098748572365  0.5240659376305103
  0.4126116790057566  0.6503900711427661  0.4759340623694897
  0.5873883349942446  0.8496098748572365  0.5240659376305103
  0.6626116430057536  0.6503900711427661  0.4759340623694897
  0.8373883719942441  0.8496098748572365  0.5240659376305103
  0.9126117160057561  0.6503900711427661  0.4759340623694897
  0.0000000000000000  0.0000000000000000  0.5000000000000000
  0.2500000000000000  0.0000000000000000  0.5000000000000000
  0.5000000000000000  0.0000000000000000  0.5000000000000000
  0.7500000369999995  0.0000000000000000  0.5000000000000000
  0.9999999990000035  0.4999999819999985  0.5000000000000000
  0.2499999990000035  0.4999999819999985  0.5000000000000000
  0.5000000169999979  0.4999999819999985  0.5000000000000000
  0.7500000539999974  0.4999999819999985  0.5000000000000000
  0.1893814895642834  0.2574365434153947  0.5693856895323393
  0.0269585436074848  0.1080752790565285  0.5683159455007427
  0.2230414653925195  0.3919247169434712  0.4316840034992637
  0.0606184964357155  0.2425634385846109  0.4306143104676607
  0.2298713039159921  0.4194055211980157  0.5981087916938463
  0.0201286850840035  0.0805944488019819  0.4018911833061551
  0.4393814895642834  0.2574365434153947  0.5693856895323393
  0.2769585546074822  0.1080752790565285  0.5683159455007427
  0.4730414473925180  0.3919247169434712  0.4316840034992637
  0.3106185274357145  0.2425634385846109  0.4306143104676607
  0.4798713309159908  0.4194055211980157  0.5981087916938463
  0.2701287010840048  0.0805944488019819  0.4018911833061551
  0.6893814895642834  0.2574365434153947  0.5693856895323393
  0.5269585736074802  0.1080752790565285  0.5683159455007427
  0.7230414103925185  0.3919247169434712  0.4316840034992637
  0.5606185274357145  0.2425634385846109  0.4306143104676607
  0.7298713309159908  0.4194055211980157  0.5981087916938463
  0.5201286830840033  0.0805944488019819  0.4018911833061551
  0.9393814525642838  0.2574365434153947  0.5693856895323393
  0.7769585366074807  0.1080752790565285  0.5683159455007427
  0.9730415203925133  0.3919247169434712  0.4316840034992637
  0.8106184544357120  0.2425634385846109  0.4306143104676607
  0.9798712949159949  0.4194055211980157  0.5981087916938463
  0.7701286090840043  0.0805944488019819  0.4018911833061551
  0.1893814875642832  0.7574365254153932  0.5693856895323393
  0.0269585456074850  0.6080753000565267  0.5683159455007427
  0.2230414643925158  0.8919246989434697  0.4316840034992637
  0.0606185084357165  0.7425634205846094  0.4306143104676607
  0.2298713049159957  0.9194054771980120  0.5981087916938463
  0.0201286910840039  0.5805944698019871  0.4018911833061551
  0.4393814695642888  0.7574365254153932  0.5693856895323393
  0.2769585546074822  0.6080753000565267  0.5683159455007427
  0.4730414463925143  0.8919246989434697  0.4316840034992637
  0.3106185264357109  0.7425634205846094  0.4306143104676607
  0.4798713239159937  0.9194054771980120  0.5981087916938463
  0.2701287000840082  0.5805944698019871  0.4018911833061551
  0.6893815065642883  0.7574365254153932  0.5693856895323393
  0.5269585636074865  0.6080753000565267  0.5683159455007427
  0.7230414273925163  0.8919246989434697  0.4316840034992637
  0.5606185084357165  0.7425634205846094  0.4306143104676607
  0.7298713419159952  0.9194054771980120  0.5981087916938463
  0.5201286730840096  0.5805944698019871  0.4018911833061551
  0.9393814695642888  0.7574365254153932  0.5693856895323393
  0.7769585636074865  0.6080753000565267  0.5683159455007427
  0.9730414643925158  0.8919246989434697  0.4316840034992637
  0.8106184724357135  0.7425634205846094  0.4306143104676607
  0.9798713049159957  0.9194054771980120  0.5981087916938463
  0.7701286360840101  0.5805944698019871  0.4018911833061551
 
  0.00000000E+00  0.00000000E+00  0.00000000E+00
  0.00000000E+00  0.00000000E+00  0.00000000E+00
  0.00000000E+00  0.00000000E+00  0.00000000E+00
  0.00000000E+00  0.00000000E+00  0.00000000E+00
  0.00000000E+00  0.00000000E+00  0.00000000E+00
  0.00000000E+00  0.00000000E+00  0.00000000E+00
  0.00000000E+00  0.00000000E+00  0.00000000E+00
  0.00000000E+00  0.00000000E+00  0.00000000E+00
  0.00000000E+00  0.00000000E+00  0.00000000E+00
  0.00000000E+00  0.00000000E+00  0.00000000E+00
  0.00000000E+00  0.00000000E+00  0.00000000E+00
  0.00000000E+00  0.00000000E+00  0.00000000E+00
  0.00000000E+00  0.00000000E+00  0.00000000E+00
  0.00000000E+00  0.00000000E+00  0.00000000E+00
  0.00000000E+00  0.00000000E+00  0.00000000E+00
  0.00000000E+00  0.00000000E+00  0.00000000E+00
  0.00000000E+00  0.00000000E+00  0.00000000E+00
  0.00000000E+00  0.00000000E+00  0.00000000E+00
  0.00000000E+00  0.00000000E+00  0.00000000E+00
  0.00000000E+00  0.00000000E+00  0.00000000E+00
  0.00000000E+00  0.00000000E+00  0.00000000E+00
  0.00000000E+00  0.00000000E+00  0.00000000E+00
  0.00000000E+00  0.00000000E+00  0.00000000E+00
  0.00000000E+00  0.00000000E+00  0.00000000E+00
  0.00000000E+00  0.00000000E+00  0.00000000E+00
  0.00000000E+00  0.00000000E+00  0.00000000E+00
  0.00000000E+00  0.00000000E+00  0.00000000E+00
  0.00000000E+00  0.00000000E+00  0.00000000E+00
  0.00000000E+00  0.00000000E+00  0.00000000E+00
  0.00000000E+00  0.00000000E+00  0.00000000E+00
  0.00000000E+00  0.00000000E+00  0.00000000E+00
  0.00000000E+00  0.00000000E+00  0.00000000E+00
  0.00000000E+00  0.00000000E+00  0.00000000E+00
  0.00000000E+00  0.00000000E+00  0.00000000E+00
  0.00000000E+00  0.00000000E+00  0.00000000E+00
  0.00000000E+00  0.00000000E+00  0.00000000E+00
  0.00000000E+00  0.00000000E+00  0.00000000E+00
  0.00000000E+00  0.00000000E+00  0.00000000E+00
  0.00000000E+00  0.00000000E+00  0.00000000E+00
  0.00000000E+00  0.00000000E+00  0.00000000E+00
  0.00000000E+00  0.00000000E+00  0.00000000E+00
  0.00000000E+00  0.00000000E+00  0.00000000E+00
  0.00000000E+00  0.00000000E+00  0.00000000E+00
  0.00000000E+00  0.00000000E+00  0.00000000E+00
  0.00000000E+00  0.00000000E+00  0.00000000E+00
  0.00000000E+00  0.00000000E+00  0.00000000E+00
  0.00000000E+00  0.00000000E+00  0.00000000E+00
  0.00000000E+00  0.00000000E+00  0.00000000E+00
  0.00000000E+00  0.00000000E+00  0.00000000E+00
  0.00000000E+00  0.00000000E+00  0.00000000E+00
  0.00000000E+00  0.00000000E+00  0.00000000E+00
  0.00000000E+00  0.00000000E+00  0.00000000E+00
  0.00000000E+00  0.00000000E+00  0.00000000E+00
  0.00000000E+00  0.00000000E+00  0.00000000E+00
  0.00000000E+00  0.00000000E+00  0.00000000E+00
  0.00000000E+00  0.00000000E+00  0.00000000E+00
  0.00000000E+00  0.00000000E+00  0.00000000E+00
  0.00000000E+00  0.00000000E+00  0.00000000E+00
  0.00000000E+00  0.00000000E+00  0.00000000E+00
  0.00000000E+00  0.00000000E+00  0.00000000E+00
  0.00000000E+00  0.00000000E+00  0.00000000E+00
  0.00000000E+00  0.00000000E+00  0.00000000E+00
  0.00000000E+00  0.00000000E+00  0.00000000E+00
  0.00000000E+00  0.00000000E+00  0.00000000E+00
  0.00000000E+00  0.00000000E+00  0.00000000E+00
  0.00000000E+00  0.00000000E+00  0.00000000E+00
  0.00000000E+00  0.00000000E+00  0.00000000E+00
  0.00000000E+00  0.00000000E+00  0.00000000E+00
  0.00000000E+00  0.00000000E+00  0.00000000E+00
  0.00000000E+00  0.00000000E+00  0.00000000E+00
  0.00000000E+00  0.00000000E+00  0.00000000E+00
  0.00000000E+00  0.00000000E+00  0.00000000E+00
