CONTCAR\(4)                             
   1.00000000000000     
    12.6962003707999997    0.0000000000000000    0.0000000000000000
     6.3480846718999997   11.0165970520999998    0.0000000000000000
     0.0000000000000000    0.0000000000000000   18.4927997588999986
   V    Ag   P    Se   O    H 
     4     4     8    24     1     1
Direct
  0.1659447509269114  0.1700053613646091  0.4998152376959482
  0.6684819106842781  0.1735114060682363  0.4998354767095421
  0.1685529323885007  0.6653589821487245  0.4987066708179171
  0.6594335650543712  0.6728469551929166  0.4984371419143017
  0.3318217778070718  0.3421812103613036  0.4994031859723407
  0.8269368655943339  0.3355505291074294  0.4978825169909413
  0.3402066780656767  0.8318932468882778  0.4994373140131358
  0.8340571757854889  0.8356471877464955  0.4953337530635196
  0.5001796382720229  0.0035357405955310  0.5591885653622271
  0.4993848049928502  0.0033382915692002  0.4391023676633736
  0.9996720377363530  0.0023757809450800  0.5596255700346831
  0.9987888212387901  0.0035887785965585  0.4395445493870938
  0.5018486393255728  0.5039091497999451  0.5996387170404134
  0.4999357195005913  0.5031439436549832  0.4624072693341290
  0.9981104176783191  0.5044732525117368  0.5588149210292386
  0.9996531024969855  0.5038656108643238  0.4387952698990958
  0.1582835846403441  0.3252822506108117  0.4072942639840988
  0.0201341070626881  0.3256676779099124  0.5919708659166858
  0.3208131046101883  0.1598780565712445  0.5924749623792209
  0.0183196976020454  0.1622351254650027  0.4073053176422476
  0.3205702575192717  0.0235486834365162  0.4070111934720586
  0.1563027047829593  0.0251013230070498  0.5926765357557642
  0.6498490566187840  0.3298842661935311  0.4115949786479760
  0.5176139953474461  0.3160657110190073  0.5919950255194237
  0.8202855787002363  0.1570255826603741  0.5951208079064401
  0.5210025789230812  0.1606396015706935  0.4070726794421375
  0.8204868334458340  0.0239950203461561  0.4069091172531643
  0.6588090940418070  0.0214691176884259  0.5912364571295967
  0.1577733533415966  0.8256914319733468  0.4077214090317725
  0.0192386755984515  0.8248008717688933  0.5911681036089291
  0.3113732351305742  0.6709920347657459  0.5930344593116246
  0.0220658187582146  0.6603365580100373  0.4056429375881336
  0.3266536197916494  0.5261461570187862  0.4119166580529594
  0.1535973898683594  0.5287940494737526  0.5938316974992972
  0.6561886723521084  0.8251611905621630  0.4060503857891931
  0.5243505716004719  0.8237645272845029  0.5940221692574994
  0.8214639352392510  0.6634653355504199  0.5899857766169916
  0.5220539623118867  0.6528925829536050  0.4106278528016460
  0.8209466026447743  0.5254664890248932  0.4060648873719614
  0.6717149953929322  0.5218474481819442  0.5915460187695913
  0.5111599749845368  0.5048232355416289  0.6897827340681673
  0.4445898621424291  0.4998599079961963  0.7130545772555195
 
  0.00000000E+00  0.00000000E+00  0.00000000E+00
  0.00000000E+00  0.00000000E+00  0.00000000E+00
  0.00000000E+00  0.00000000E+00  0.00000000E+00
  0.00000000E+00  0.00000000E+00  0.00000000E+00
  0.00000000E+00  0.00000000E+00  0.00000000E+00
  0.00000000E+00  0.00000000E+00  0.00000000E+00
  0.00000000E+00  0.00000000E+00  0.00000000E+00
  0.00000000E+00  0.00000000E+00  0.00000000E+00
  0.00000000E+00  0.00000000E+00  0.00000000E+00
  0.00000000E+00  0.00000000E+00  0.00000000E+00
  0.00000000E+00  0.00000000E+00  0.00000000E+00
  0.00000000E+00  0.00000000E+00  0.00000000E+00
  0.00000000E+00  0.00000000E+00  0.00000000E+00
  0.00000000E+00  0.00000000E+00  0.00000000E+00
  0.00000000E+00  0.00000000E+00  0.00000000E+00
  0.00000000E+00  0.00000000E+00  0.00000000E+00
  0.00000000E+00  0.00000000E+00  0.00000000E+00
  0.00000000E+00  0.00000000E+00  0.00000000E+00
  0.00000000E+00  0.00000000E+00  0.00000000E+00
  0.00000000E+00  0.00000000E+00  0.00000000E+00
  0.00000000E+00  0.00000000E+00  0.00000000E+00
  0.00000000E+00  0.00000000E+00  0.00000000E+00
  0.00000000E+00  0.00000000E+00  0.00000000E+00
  0.00000000E+00  0.00000000E+00  0.00000000E+00
  0.00000000E+00  0.00000000E+00  0.00000000E+00
  0.00000000E+00  0.00000000E+00  0.00000000E+00
  0.00000000E+00  0.00000000E+00  0.00000000E+00
  0.00000000E+00  0.00000000E+00  0.00000000E+00
  0.00000000E+00  0.00000000E+00  0.00000000E+00
  0.00000000E+00  0.00000000E+00  0.00000000E+00
  0.00000000E+00  0.00000000E+00  0.00000000E+00
  0.00000000E+00  0.00000000E+00  0.00000000E+00
  0.00000000E+00  0.00000000E+00  0.00000000E+00
  0.00000000E+00  0.00000000E+00  0.00000000E+00
  0.00000000E+00  0.00000000E+00  0.00000000E+00
  0.00000000E+00  0.00000000E+00  0.00000000E+00
  0.00000000E+00  0.00000000E+00  0.00000000E+00
  0.00000000E+00  0.00000000E+00  0.00000000E+00
  0.00000000E+00  0.00000000E+00  0.00000000E+00
  0.00000000E+00  0.00000000E+00  0.00000000E+00
  0.00000000E+00  0.00000000E+00  0.00000000E+00
  0.00000000E+00  0.00000000E+00  0.00000000E+00
