G   53   29    1    0.005     # Parameters to Generate KPOINTS (Don't Edit This Line)
     405
Reciprocal lattice
    0.000000000000    0.000000000000    0.000000000000       1
    0.018867924528    0.000000000000    0.000000000000       2
    0.037735849057    0.000000000000    0.000000000000       2
    0.056603773585    0.000000000000    0.000000000000       2
    0.075471698113    0.000000000000    0.000000000000       2
    0.094339622642    0.000000000000    0.000000000000       2
    0.113207547170    0.000000000000    0.000000000000       2
    0.132075471698    0.000000000000    0.000000000000       2
    0.150943396226    0.000000000000    0.000000000000       2
    0.169811320755    0.000000000000    0.000000000000       2
    0.188679245283    0.000000000000    0.000000000000       2
    0.207547169811    0.000000000000    0.000000000000       2
    0.226415094340    0.000000000000    0.000000000000       2
    0.245283018868    0.000000000000    0.000000000000       2
    0.264150943396    0.000000000000    0.000000000000       2
    0.283018867925    0.000000000000    0.000000000000       2
    0.301886792453    0.000000000000    0.000000000000       2
    0.320754716981    0.000000000000    0.000000000000       2
    0.339622641509    0.000000000000    0.000000000000       2
    0.358490566038    0.000000000000    0.000000000000       2
    0.377358490566    0.000000000000    0.000000000000       2
    0.396226415094    0.000000000000    0.000000000000       2
    0.415094339623    0.000000000000    0.000000000000       2
    0.433962264151    0.000000000000    0.000000000000       2
    0.452830188679    0.000000000000    0.000000000000       2
    0.471698113208    0.000000000000    0.000000000000       2
    0.490566037736    0.000000000000    0.000000000000       2
    0.000000000000    0.034482758621    0.000000000000       2
    0.018867924528    0.034482758621    0.000000000000       4
    0.037735849057    0.034482758621    0.000000000000       4
    0.056603773585    0.034482758621    0.000000000000       4
    0.075471698113    0.034482758621    0.000000000000       4
    0.094339622642    0.034482758621    0.000000000000       4
    0.113207547170    0.034482758621    0.000000000000       4
    0.132075471698    0.034482758621    0.000000000000       4
    0.150943396226    0.034482758621    0.000000000000       4
    0.169811320755    0.034482758621    0.000000000000       4
    0.188679245283    0.034482758621    0.000000000000       4
    0.207547169811    0.034482758621    0.000000000000       4
    0.226415094340    0.034482758621    0.000000000000       4
    0.245283018868    0.034482758621    0.000000000000       4
    0.264150943396    0.034482758621    0.000000000000       4
    0.283018867925    0.034482758621    0.000000000000       4
    0.301886792453    0.034482758621    0.000000000000       4
    0.320754716981    0.034482758621    0.000000000000       4
    0.339622641509    0.034482758621    0.000000000000       4
    0.358490566038    0.034482758621    0.000000000000       4
    0.377358490566    0.034482758621    0.000000000000       4
    0.396226415094    0.034482758621    0.000000000000       4
    0.415094339623    0.034482758621    0.000000000000       4
    0.433962264151    0.034482758621    0.000000000000       4
    0.452830188679    0.034482758621    0.000000000000       4
    0.471698113208    0.034482758621    0.000000000000       4
    0.490566037736    0.034482758621    0.000000000000       4
    0.000000000000    0.068965517241    0.000000000000       2
    0.018867924528    0.068965517241    0.000000000000       4
    0.037735849057    0.068965517241    0.000000000000       4
    0.056603773585    0.068965517241    0.000000000000       4
    0.075471698113    0.068965517241    0.000000000000       4
    0.094339622642    0.068965517241    0.000000000000       4
    0.113207547170    0.068965517241    0.000000000000       4
    0.132075471698    0.068965517241    0.000000000000       4
    0.150943396226    0.068965517241    0.000000000000       4
    0.169811320755    0.068965517241    0.000000000000       4
    0.188679245283    0.068965517241    0.000000000000       4
    0.207547169811    0.068965517241    0.000000000000       4
    0.226415094340    0.068965517241    0.000000000000       4
    0.245283018868    0.068965517241    0.000000000000       4
    0.264150943396    0.068965517241    0.000000000000       4
    0.283018867925    0.068965517241    0.000000000000       4
    0.301886792453    0.068965517241    0.000000000000       4
    0.320754716981    0.068965517241    0.000000000000       4
    0.339622641509    0.068965517241    0.000000000000       4
    0.358490566038    0.068965517241    0.000000000000       4
    0.377358490566    0.068965517241    0.000000000000       4
    0.396226415094    0.068965517241    0.000000000000       4
    0.415094339623    0.068965517241    0.000000000000       4
    0.433962264151    0.068965517241    0.000000000000       4
    0.452830188679    0.068965517241    0.000000000000       4
    0.471698113208    0.068965517241    0.000000000000       4
    0.490566037736    0.068965517241    0.000000000000       4
    0.000000000000    0.103448275862    0.000000000000       2
    0.018867924528    0.103448275862    0.000000000000       4
    0.037735849057    0.103448275862    0.000000000000       4
    0.056603773585    0.103448275862    0.000000000000       4
    0.075471698113    0.103448275862    0.000000000000       4
    0.094339622642    0.103448275862    0.000000000000       4
    0.113207547170    0.103448275862    0.000000000000       4
    0.132075471698    0.103448275862    0.000000000000       4
    0.150943396226    0.103448275862    0.000000000000       4
    0.169811320755    0.103448275862    0.000000000000       4
    0.188679245283    0.103448275862    0.000000000000       4
    0.207547169811    0.103448275862    0.000000000000       4
    0.226415094340    0.103448275862    0.000000000000       4
    0.245283018868    0.103448275862    0.000000000000       4
    0.264150943396    0.103448275862    0.000000000000       4
    0.283018867925    0.103448275862    0.000000000000       4
    0.301886792453    0.103448275862    0.000000000000       4
    0.320754716981    0.103448275862    0.000000000000       4
    0.339622641509    0.103448275862    0.000000000000       4
    0.358490566038    0.103448275862    0.000000000000       4
    0.377358490566    0.103448275862    0.000000000000       4
    0.396226415094    0.103448275862    0.000000000000       4
    0.415094339623    0.103448275862    0.000000000000       4
    0.433962264151    0.103448275862    0.000000000000       4
    0.452830188679    0.103448275862    0.000000000000       4
    0.471698113208    0.103448275862    0.000000000000       4
    0.490566037736    0.103448275862    0.000000000000       4
    0.000000000000    0.137931034483    0.000000000000       2
    0.018867924528    0.137931034483    0.000000000000       4
    0.037735849057    0.137931034483    0.000000000000       4
    0.056603773585    0.137931034483    0.000000000000       4
    0.075471698113    0.137931034483    0.000000000000       4
    0.094339622642    0.137931034483    0.000000000000       4
    0.113207547170    0.137931034483    0.000000000000       4
    0.132075471698    0.137931034483    0.000000000000       4
    0.150943396226    0.137931034483    0.000000000000       4
    0.169811320755    0.137931034483    0.000000000000       4
    0.188679245283    0.137931034483    0.000000000000       4
    0.207547169811    0.137931034483    0.000000000000       4
    0.226415094340    0.137931034483    0.000000000000       4
    0.245283018868    0.137931034483    0.000000000000       4
    0.264150943396    0.137931034483    0.000000000000       4
    0.283018867925    0.137931034483    0.000000000000       4
    0.301886792453    0.137931034483    0.000000000000       4
    0.320754716981    0.137931034483    0.000000000000       4
    0.339622641509    0.137931034483    0.000000000000       4
    0.358490566038    0.137931034483    0.000000000000       4
    0.377358490566    0.137931034483    0.000000000000       4
    0.396226415094    0.137931034483    0.000000000000       4
    0.415094339623    0.137931034483    0.000000000000       4
    0.433962264151    0.137931034483    0.000000000000       4
    0.452830188679    0.137931034483    0.000000000000       4
    0.471698113208    0.137931034483    0.000000000000       4
    0.490566037736    0.137931034483    0.000000000000       4
    0.000000000000    0.172413793103    0.000000000000       2
    0.018867924528    0.172413793103    0.000000000000       4
    0.037735849057    0.172413793103    0.000000000000       4
    0.056603773585    0.172413793103    0.000000000000       4
    0.075471698113    0.172413793103    0.000000000000       4
    0.094339622642    0.172413793103    0.000000000000       4
    0.113207547170    0.172413793103    0.000000000000       4
    0.132075471698    0.172413793103    0.000000000000       4
    0.150943396226    0.172413793103    0.000000000000       4
    0.169811320755    0.172413793103    0.000000000000       4
    0.188679245283    0.172413793103    0.000000000000       4
    0.207547169811    0.172413793103    0.000000000000       4
    0.226415094340    0.172413793103    0.000000000000       4
    0.245283018868    0.172413793103    0.000000000000       4
    0.264150943396    0.172413793103    0.000000000000       4
    0.283018867925    0.172413793103    0.000000000000       4
    0.301886792453    0.172413793103    0.000000000000       4
    0.320754716981    0.172413793103    0.000000000000       4
    0.339622641509    0.172413793103    0.000000000000       4
    0.358490566038    0.172413793103    0.000000000000       4
    0.377358490566    0.172413793103    0.000000000000       4
    0.396226415094    0.172413793103    0.000000000000       4
    0.415094339623    0.172413793103    0.000000000000       4
    0.433962264151    0.172413793103    0.000000000000       4
    0.452830188679    0.172413793103    0.000000000000       4
    0.471698113208    0.172413793103    0.000000000000       4
    0.490566037736    0.172413793103    0.000000000000       4
    0.000000000000    0.206896551724    0.000000000000       2
    0.018867924528    0.206896551724    0.000000000000       4
    0.037735849057    0.206896551724    0.000000000000       4
    0.056603773585    0.206896551724    0.000000000000       4
    0.075471698113    0.206896551724    0.000000000000       4
    0.094339622642    0.206896551724    0.000000000000       4
    0.113207547170    0.206896551724    0.000000000000       4
    0.132075471698    0.206896551724    0.000000000000       4
    0.150943396226    0.206896551724    0.000000000000       4
    0.169811320755    0.206896551724    0.000000000000       4
    0.188679245283    0.206896551724    0.000000000000       4
    0.207547169811    0.206896551724    0.000000000000       4
    0.226415094340    0.206896551724    0.000000000000       4
    0.245283018868    0.206896551724    0.000000000000       4
    0.264150943396    0.206896551724    0.000000000000       4
    0.283018867925    0.206896551724    0.000000000000       4
    0.301886792453    0.206896551724    0.000000000000       4
    0.320754716981    0.206896551724    0.000000000000       4
    0.339622641509    0.206896551724    0.000000000000       4
    0.358490566038    0.206896551724    0.000000000000       4
    0.377358490566    0.206896551724    0.000000000000       4
    0.396226415094    0.206896551724    0.000000000000       4
    0.415094339623    0.206896551724    0.000000000000       4
    0.433962264151    0.206896551724    0.000000000000       4
    0.452830188679    0.206896551724    0.000000000000       4
    0.471698113208    0.206896551724    0.000000000000       4
    0.490566037736    0.206896551724    0.000000000000       4
    0.000000000000    0.241379310345    0.000000000000       2
    0.018867924528    0.241379310345    0.000000000000       4
    0.037735849057    0.241379310345    0.000000000000       4
    0.056603773585    0.241379310345    0.000000000000       4
    0.075471698113    0.241379310345    0.000000000000       4
    0.094339622642    0.241379310345    0.000000000000       4
    0.113207547170    0.241379310345    0.000000000000       4
    0.132075471698    0.241379310345    0.000000000000       4
    0.150943396226    0.241379310345    0.000000000000       4
    0.169811320755    0.241379310345    0.000000000000       4
    0.188679245283    0.241379310345    0.000000000000       4
    0.207547169811    0.241379310345    0.000000000000       4
    0.226415094340    0.241379310345    0.000000000000       4
    0.245283018868    0.241379310345    0.000000000000       4
    0.264150943396    0.241379310345    0.000000000000       4
    0.283018867925    0.241379310345    0.000000000000       4
    0.301886792453    0.241379310345    0.000000000000       4
    0.320754716981    0.241379310345    0.000000000000       4
    0.339622641509    0.241379310345    0.000000000000       4
    0.358490566038    0.241379310345    0.000000000000       4
    0.377358490566    0.241379310345    0.000000000000       4
    0.396226415094    0.241379310345    0.000000000000       4
    0.415094339623    0.241379310345    0.000000000000       4
    0.433962264151    0.241379310345    0.000000000000       4
    0.452830188679    0.241379310345    0.000000000000       4
    0.471698113208    0.241379310345    0.000000000000       4
    0.490566037736    0.241379310345    0.000000000000       4
    0.000000000000    0.275862068966    0.000000000000       2
    0.018867924528    0.275862068966    0.000000000000       4
    0.037735849057    0.275862068966    0.000000000000       4
    0.056603773585    0.275862068966    0.000000000000       4
    0.075471698113    0.275862068966    0.000000000000       4
    0.094339622642    0.275862068966    0.000000000000       4
    0.113207547170    0.275862068966    0.000000000000       4
    0.132075471698    0.275862068966    0.000000000000       4
    0.150943396226    0.275862068966    0.000000000000       4
    0.169811320755    0.275862068966    0.000000000000       4
    0.188679245283    0.275862068966    0.000000000000       4
    0.207547169811    0.275862068966    0.000000000000       4
    0.226415094340    0.275862068966    0.000000000000       4
    0.245283018868    0.275862068966    0.000000000000       4
    0.264150943396    0.275862068966    0.000000000000       4
    0.283018867925    0.275862068966    0.000000000000       4
    0.301886792453    0.275862068966    0.000000000000       4
    0.320754716981    0.275862068966    0.000000000000       4
    0.339622641509    0.275862068966    0.000000000000       4
    0.358490566038    0.275862068966    0.000000000000       4
    0.377358490566    0.275862068966    0.000000000000       4
    0.396226415094    0.275862068966    0.000000000000       4
    0.415094339623    0.275862068966    0.000000000000       4
    0.433962264151    0.275862068966    0.000000000000       4
    0.452830188679    0.275862068966    0.000000000000       4
    0.471698113208    0.275862068966    0.000000000000       4
    0.490566037736    0.275862068966    0.000000000000       4
    0.000000000000    0.310344827586    0.000000000000       2
    0.018867924528    0.310344827586    0.000000000000       4
    0.037735849057    0.310344827586    0.000000000000       4
    0.056603773585    0.310344827586    0.000000000000       4
    0.075471698113    0.310344827586    0.000000000000       4
    0.094339622642    0.310344827586    0.000000000000       4
    0.113207547170    0.310344827586    0.000000000000       4
    0.132075471698    0.310344827586    0.000000000000       4
    0.150943396226    0.310344827586    0.000000000000       4
    0.169811320755    0.310344827586    0.000000000000       4
    0.188679245283    0.310344827586    0.000000000000       4
    0.207547169811    0.310344827586    0.000000000000       4
    0.226415094340    0.310344827586    0.000000000000       4
    0.245283018868    0.310344827586    0.000000000000       4
    0.264150943396    0.310344827586    0.000000000000       4
    0.283018867925    0.310344827586    0.000000000000       4
    0.301886792453    0.310344827586    0.000000000000       4
    0.320754716981    0.310344827586    0.000000000000       4
    0.339622641509    0.310344827586    0.000000000000       4
    0.358490566038    0.310344827586    0.000000000000       4
    0.377358490566    0.310344827586    0.000000000000       4
    0.396226415094    0.310344827586    0.000000000000       4
    0.415094339623    0.310344827586    0.000000000000       4
    0.433962264151    0.310344827586    0.000000000000       4
    0.452830188679    0.310344827586    0.000000000000       4
    0.471698113208    0.310344827586    0.000000000000       4
    0.490566037736    0.310344827586    0.000000000000       4
    0.000000000000    0.344827586207    0.000000000000       2
    0.018867924528    0.344827586207    0.000000000000       4
    0.037735849057    0.344827586207    0.000000000000       4
    0.056603773585    0.344827586207    0.000000000000       4
    0.075471698113    0.344827586207    0.000000000000       4
    0.094339622642    0.344827586207    0.000000000000       4
    0.113207547170    0.344827586207    0.000000000000       4
    0.132075471698    0.344827586207    0.000000000000       4
    0.150943396226    0.344827586207    0.000000000000       4
    0.169811320755    0.344827586207    0.000000000000       4
    0.188679245283    0.344827586207    0.000000000000       4
    0.207547169811    0.344827586207    0.000000000000       4
    0.226415094340    0.344827586207    0.000000000000       4
    0.245283018868    0.344827586207    0.000000000000       4
    0.264150943396    0.344827586207    0.000000000000       4
    0.283018867925    0.344827586207    0.000000000000       4
    0.301886792453    0.344827586207    0.000000000000       4
    0.320754716981    0.344827586207    0.000000000000       4
    0.339622641509    0.344827586207    0.000000000000       4
    0.358490566038    0.344827586207    0.000000000000       4
    0.377358490566    0.344827586207    0.000000000000       4
    0.396226415094    0.344827586207    0.000000000000       4
    0.415094339623    0.344827586207    0.000000000000       4
    0.433962264151    0.344827586207    0.000000000000       4
    0.452830188679    0.344827586207    0.000000000000       4
    0.471698113208    0.344827586207    0.000000000000       4
    0.490566037736    0.344827586207    0.000000000000       4
    0.000000000000    0.379310344828    0.000000000000       2
    0.018867924528    0.379310344828    0.000000000000       4
    0.037735849057    0.379310344828    0.000000000000       4
    0.056603773585    0.379310344828    0.000000000000       4
    0.075471698113    0.379310344828    0.000000000000       4
    0.094339622642    0.379310344828    0.000000000000       4
    0.113207547170    0.379310344828    0.000000000000       4
    0.132075471698    0.379310344828    0.000000000000       4
    0.150943396226    0.379310344828    0.000000000000       4
    0.169811320755    0.379310344828    0.000000000000       4
    0.188679245283    0.379310344828    0.000000000000       4
    0.207547169811    0.379310344828    0.000000000000       4
    0.226415094340    0.379310344828    0.000000000000       4
    0.245283018868    0.379310344828    0.000000000000       4
    0.264150943396    0.379310344828    0.000000000000       4
    0.283018867925    0.379310344828    0.000000000000       4
    0.301886792453    0.379310344828    0.000000000000       4
    0.320754716981    0.379310344828    0.000000000000       4
    0.339622641509    0.379310344828    0.000000000000       4
    0.358490566038    0.379310344828    0.000000000000       4
    0.377358490566    0.379310344828    0.000000000000       4
    0.396226415094    0.379310344828    0.000000000000       4
    0.415094339623    0.379310344828    0.000000000000       4
    0.433962264151    0.379310344828    0.000000000000       4
    0.452830188679    0.379310344828    0.000000000000       4
    0.471698113208    0.379310344828    0.000000000000       4
    0.490566037736    0.379310344828    0.000000000000       4
    0.000000000000    0.413793103448    0.000000000000       2
    0.018867924528    0.413793103448    0.000000000000       4
    0.037735849057    0.413793103448    0.000000000000       4
    0.056603773585    0.413793103448    0.000000000000       4
    0.075471698113    0.413793103448    0.000000000000       4
    0.094339622642    0.413793103448    0.000000000000       4
    0.113207547170    0.413793103448    0.000000000000       4
    0.132075471698    0.413793103448    0.000000000000       4
    0.150943396226    0.413793103448    0.000000000000       4
    0.169811320755    0.413793103448    0.000000000000       4
    0.188679245283    0.413793103448    0.000000000000       4
    0.207547169811    0.413793103448    0.000000000000       4
    0.226415094340    0.413793103448    0.000000000000       4
    0.245283018868    0.413793103448    0.000000000000       4
    0.264150943396    0.413793103448    0.000000000000       4
    0.283018867925    0.413793103448    0.000000000000       4
    0.301886792453    0.413793103448    0.000000000000       4
    0.320754716981    0.413793103448    0.000000000000       4
    0.339622641509    0.413793103448    0.000000000000       4
    0.358490566038    0.413793103448    0.000000000000       4
    0.377358490566    0.413793103448    0.000000000000       4
    0.396226415094    0.413793103448    0.000000000000       4
    0.415094339623    0.413793103448    0.000000000000       4
    0.433962264151    0.413793103448    0.000000000000       4
    0.452830188679    0.413793103448    0.000000000000       4
    0.471698113208    0.413793103448    0.000000000000       4
    0.490566037736    0.413793103448    0.000000000000       4
    0.000000000000    0.448275862069    0.000000000000       2
    0.018867924528    0.448275862069    0.000000000000       4
    0.037735849057    0.448275862069    0.000000000000       4
    0.056603773585    0.448275862069    0.000000000000       4
    0.075471698113    0.448275862069    0.000000000000       4
    0.094339622642    0.448275862069    0.000000000000       4
    0.113207547170    0.448275862069    0.000000000000       4
    0.132075471698    0.448275862069    0.000000000000       4
    0.150943396226    0.448275862069    0.000000000000       4
    0.169811320755    0.448275862069    0.000000000000       4
    0.188679245283    0.448275862069    0.000000000000       4
    0.207547169811    0.448275862069    0.000000000000       4
    0.226415094340    0.448275862069    0.000000000000       4
    0.245283018868    0.448275862069    0.000000000000       4
    0.264150943396    0.448275862069    0.000000000000       4
    0.283018867925    0.448275862069    0.000000000000       4
    0.301886792453    0.448275862069    0.000000000000       4
    0.320754716981    0.448275862069    0.000000000000       4
    0.339622641509    0.448275862069    0.000000000000       4
    0.358490566038    0.448275862069    0.000000000000       4
    0.377358490566    0.448275862069    0.000000000000       4
    0.396226415094    0.448275862069    0.000000000000       4
    0.415094339623    0.448275862069    0.000000000000       4
    0.433962264151    0.448275862069    0.000000000000       4
    0.452830188679    0.448275862069    0.000000000000       4
    0.471698113208    0.448275862069    0.000000000000       4
    0.490566037736    0.448275862069    0.000000000000       4
    0.000000000000    0.482758620690    0.000000000000       2
    0.018867924528    0.482758620690    0.000000000000       4
    0.037735849057    0.482758620690    0.000000000000       4
    0.056603773585    0.482758620690    0.000000000000       4
    0.075471698113    0.482758620690    0.000000000000       4
    0.094339622642    0.482758620690    0.000000000000       4
    0.113207547170    0.482758620690    0.000000000000       4
    0.132075471698    0.482758620690    0.000000000000       4
    0.150943396226    0.482758620690    0.000000000000       4
    0.169811320755    0.482758620690    0.000000000000       4
    0.188679245283    0.482758620690    0.000000000000       4
    0.207547169811    0.482758620690    0.000000000000       4
    0.226415094340    0.482758620690    0.000000000000       4
    0.245283018868    0.482758620690    0.000000000000       4
    0.264150943396    0.482758620690    0.000000000000       4
    0.283018867925    0.482758620690    0.000000000000       4
    0.301886792453    0.482758620690    0.000000000000       4
    0.320754716981    0.482758620690    0.000000000000       4
    0.339622641509    0.482758620690    0.000000000000       4
    0.358490566038    0.482758620690    0.000000000000       4
    0.377358490566    0.482758620690    0.000000000000       4
    0.396226415094    0.482758620690    0.000000000000       4
    0.415094339623    0.482758620690    0.000000000000       4
    0.433962264151    0.482758620690    0.000000000000       4
    0.452830188679    0.482758620690    0.000000000000       4
    0.471698113208    0.482758620690    0.000000000000       4
    0.490566037736    0.482758620690    0.000000000000       4
