 CONTCAR                                
   1.00000000000000     
     8.6349000931000006    0.0000000000000000    0.0000000000000000
     0.0000000000000000    8.9694995879999997    0.0000000000000000
     0.0000000000000000    0.0000000000000000   22.5805640272018522
   V    B    O 
    27    36    18
Direct
  0.1666699889999990  0.1666699980000033  0.6178785390820565
  0.0000000000000000  0.1666699980000033  0.4999950057540872
  0.1666699889999990  0.1666699980000033  0.3821214389805547
  0.5000000000000000  0.1666699980000033  0.6178785390820565
  0.3333300110000010  0.1666699980000033  0.4999950057540872
  0.5000000000000000  0.1666699980000033  0.3821214389805547
  0.8333299829999987  0.1666699980000033  0.6178785390820565
  0.6666700170000013  0.1666699980000033  0.4999950057540872
  0.8333299829999987  0.1666699980000033  0.3821214389805547
  0.1666699889999990  0.5000000000000000  0.6178785390820565
  0.0000000000000000  0.5000000000000000  0.4999950057540872
  0.1666699889999990  0.5000000000000000  0.3821214389805547
  0.5000000000000000  0.5000000000000000  0.6178785390820565
  0.3333300110000010  0.5000000000000000  0.4999950057540872
  0.5000000000000000  0.5000000000000000  0.3821214389805547
  0.8333299829999987  0.5000000000000000  0.6178785390820565
  0.6666700170000013  0.5000000000000000  0.4999950057540872
  0.8333299829999987  0.5000000000000000  0.3821214389805547
  0.1666699889999990  0.8333300019999967  0.6178785390820565
  0.0000000000000000  0.8333300019999967  0.4999950057540872
  0.1666699889999990  0.8333300019999967  0.3821214389805547
  0.5000000000000000  0.8333300019999967  0.6178785390820565
  0.3333300110000010  0.8333300019999967  0.4999950057540872
  0.5000000000000000  0.8333300019999967  0.3821214389805547
  0.8333299829999987  0.8333300019999967  0.6178785390820565
  0.6666700170000013  0.8333300019999967  0.4999950057540872
  0.8333299829999987  0.8333300019999967  0.3821214389805547
  0.0000000000000000  0.0000000000000000  0.5756490543545638
  0.1666699889999990  0.0000000000000000  0.5394723354138904
  0.0000000000000000  0.0000000000000000  0.4243509247052017
  0.1666699889999990  0.0000000000000000  0.4605276436458752
  0.3333300110000010  0.0000000000000000  0.5756490543545638
  0.5000000000000000  0.0000000000000000  0.5394723354138904
  0.3333300110000010  0.0000000000000000  0.4243509247052017
  0.5000000000000000  0.0000000000000000  0.4605276436458752
  0.6666700170000013  0.0000000000000000  0.5756490543545638
  0.8333299829999987  0.0000000000000000  0.5394723354138904
  0.6666700170000013  0.0000000000000000  0.4243509247052017
  0.8333299829999987  0.0000000000000000  0.4605276436458752
  0.0000000000000000  0.3333300019999967  0.5756490543545638
  0.1666699889999990  0.3333300019999967  0.5394723354138904
  0.0000000000000000  0.3333300019999967  0.4243509247052017
  0.1666699889999990  0.3333300019999967  0.4605276436458752
  0.3333300110000010  0.3333300019999967  0.5756490543545638
  0.5000000000000000  0.3333300019999967  0.5394723354138904
  0.3333300110000010  0.3333300019999967  0.4243509247052017
  0.5000000000000000  0.3333300019999967  0.4605276436458752
  0.6666700170000013  0.3333300019999967  0.5756490543545638
  0.8333299829999987  0.3333300019999967  0.5394723354138904
  0.6666700170000013  0.3333300019999967  0.4243509247052017
  0.8333299829999987  0.3333300019999967  0.4605276436458752
  0.0000000000000000  0.6666699980000033  0.5756490543545638
  0.1666699889999990  0.6666699980000033  0.5394723354138904
  0.0000000000000000  0.6666699980000033  0.4243509247052017
  0.1666699889999990  0.6666699980000033  0.4605276436458752
  0.3333300110000010  0.6666699980000033  0.5756490543545638
  0.5000000000000000  0.6666699980000033  0.5394723354138904
  0.3333300110000010  0.6666699980000033  0.4243509247052017
  0.5000000000000000  0.6666699980000033  0.4605276436458752
  0.6666700170000013  0.6666699980000033  0.5756490543545638
  0.8333299829999987  0.6666699980000033  0.5394723354138904
  0.6666700170000013  0.6666699980000033  0.4243509247052017
  0.8333299829999987  0.6666699980000033  0.4605276436458752
  0.0000000000000000  0.1666699980000033  0.6678559494366425
  0.0000000000000000  0.1666699980000033  0.3321440505633575
  0.3333300110000010  0.1666699980000033  0.6678559494366425
  0.3333300110000010  0.1666699980000033  0.3321440505633575
  0.6666700170000013  0.1666699980000033  0.6678559494366425
  0.6666700170000013  0.1666699980000033  0.3321440505633575
  0.0000000000000000  0.5000000000000000  0.6678559494366425
  0.0000000000000000  0.5000000000000000  0.3321440505633575
  0.3333300110000010  0.5000000000000000  0.6678559494366425
  0.3333300110000010  0.5000000000000000  0.3321440505633575
  0.6666700170000013  0.5000000000000000  0.6678559494366425
  0.6666700170000013  0.5000000000000000  0.3321440505633575
  0.0000000000000000  0.8333300019999967  0.6678559494366425
  0.0000000000000000  0.8333300019999967  0.3321440505633575
  0.3333300110000010  0.8333300019999967  0.6678559494366425
  0.3333300110000010  0.8333300019999967  0.3321440505633575
  0.6666700170000013  0.8333300019999967  0.6678559494366425
  0.6666700170000013  0.8333300019999967  0.3321440505633575
 
  0.00000000E+00  0.00000000E+00  0.00000000E+00
  0.00000000E+00  0.00000000E+00  0.00000000E+00
  0.00000000E+00  0.00000000E+00  0.00000000E+00
  0.00000000E+00  0.00000000E+00  0.00000000E+00
  0.00000000E+00  0.00000000E+00  0.00000000E+00
  0.00000000E+00  0.00000000E+00  0.00000000E+00
  0.00000000E+00  0.00000000E+00  0.00000000E+00
  0.00000000E+00  0.00000000E+00  0.00000000E+00
  0.00000000E+00  0.00000000E+00  0.00000000E+00
  0.00000000E+00  0.00000000E+00  0.00000000E+00
  0.00000000E+00  0.00000000E+00  0.00000000E+00
  0.00000000E+00  0.00000000E+00  0.00000000E+00
  0.00000000E+00  0.00000000E+00  0.00000000E+00
  0.00000000E+00  0.00000000E+00  0.00000000E+00
  0.00000000E+00  0.00000000E+00  0.00000000E+00
  0.00000000E+00  0.00000000E+00  0.00000000E+00
  0.00000000E+00  0.00000000E+00  0.00000000E+00
  0.00000000E+00  0.00000000E+00  0.00000000E+00
  0.00000000E+00  0.00000000E+00  0.00000000E+00
  0.00000000E+00  0.00000000E+00  0.00000000E+00
  0.00000000E+00  0.00000000E+00  0.00000000E+00
  0.00000000E+00  0.00000000E+00  0.00000000E+00
  0.00000000E+00  0.00000000E+00  0.00000000E+00
  0.00000000E+00  0.00000000E+00  0.00000000E+00
  0.00000000E+00  0.00000000E+00  0.00000000E+00
  0.00000000E+00  0.00000000E+00  0.00000000E+00
  0.00000000E+00  0.00000000E+00  0.00000000E+00
  0.00000000E+00  0.00000000E+00  0.00000000E+00
  0.00000000E+00  0.00000000E+00  0.00000000E+00
  0.00000000E+00  0.00000000E+00  0.00000000E+00
  0.00000000E+00  0.00000000E+00  0.00000000E+00
  0.00000000E+00  0.00000000E+00  0.00000000E+00
  0.00000000E+00  0.00000000E+00  0.00000000E+00
  0.00000000E+00  0.00000000E+00  0.00000000E+00
  0.00000000E+00  0.00000000E+00  0.00000000E+00
  0.00000000E+00  0.00000000E+00  0.00000000E+00
  0.00000000E+00  0.00000000E+00  0.00000000E+00
  0.00000000E+00  0.00000000E+00  0.00000000E+00
  0.00000000E+00  0.00000000E+00  0.00000000E+00
  0.00000000E+00  0.00000000E+00  0.00000000E+00
  0.00000000E+00  0.00000000E+00  0.00000000E+00
  0.00000000E+00  0.00000000E+00  0.00000000E+00
  0.00000000E+00  0.00000000E+00  0.00000000E+00
  0.00000000E+00  0.00000000E+00  0.00000000E+00
  0.00000000E+00  0.00000000E+00  0.00000000E+00
  0.00000000E+00  0.00000000E+00  0.00000000E+00
  0.00000000E+00  0.00000000E+00  0.00000000E+00
  0.00000000E+00  0.00000000E+00  0.00000000E+00
  0.00000000E+00  0.00000000E+00  0.00000000E+00
  0.00000000E+00  0.00000000E+00  0.00000000E+00
  0.00000000E+00  0.00000000E+00  0.00000000E+00
  0.00000000E+00  0.00000000E+00  0.00000000E+00
  0.00000000E+00  0.00000000E+00  0.00000000E+00
  0.00000000E+00  0.00000000E+00  0.00000000E+00
  0.00000000E+00  0.00000000E+00  0.00000000E+00
  0.00000000E+00  0.00000000E+00  0.00000000E+00
  0.00000000E+00  0.00000000E+00  0.00000000E+00
  0.00000000E+00  0.00000000E+00  0.00000000E+00
  0.00000000E+00  0.00000000E+00  0.00000000E+00
  0.00000000E+00  0.00000000E+00  0.00000000E+00
  0.00000000E+00  0.00000000E+00  0.00000000E+00
  0.00000000E+00  0.00000000E+00  0.00000000E+00
  0.00000000E+00  0.00000000E+00  0.00000000E+00
  0.00000000E+00  0.00000000E+00  0.00000000E+00
  0.00000000E+00  0.00000000E+00  0.00000000E+00
  0.00000000E+00  0.00000000E+00  0.00000000E+00
  0.00000000E+00  0.00000000E+00  0.00000000E+00
  0.00000000E+00  0.00000000E+00  0.00000000E+00
  0.00000000E+00  0.00000000E+00  0.00000000E+00
  0.00000000E+00  0.00000000E+00  0.00000000E+00
  0.00000000E+00  0.00000000E+00  0.00000000E+00
  0.00000000E+00  0.00000000E+00  0.00000000E+00
  0.00000000E+00  0.00000000E+00  0.00000000E+00
  0.00000000E+00  0.00000000E+00  0.00000000E+00
  0.00000000E+00  0.00000000E+00  0.00000000E+00
  0.00000000E+00  0.00000000E+00  0.00000000E+00
  0.00000000E+00  0.00000000E+00  0.00000000E+00
  0.00000000E+00  0.00000000E+00  0.00000000E+00
  0.00000000E+00  0.00000000E+00  0.00000000E+00
  0.00000000E+00  0.00000000E+00  0.00000000E+00
  0.00000000E+00  0.00000000E+00  0.00000000E+00
