CONTCAR                                 
   1.00000000000000     
    12.3037004471000007    0.0000000000000000    0.0000000000000000
     6.1518502235000003   10.6553171476999999    0.0000000000000000
     0.0000000000000000    0.0000000000000000   24.8090991973999984
   Mn   In   Se   O 
     9    18    36     1
Selective dynamics
Direct
  0.2223950344718943  0.2222743709815376  0.3275632570788147   F   F   F
  0.5558566536159688  0.2226984212915397  0.3273836186485823   F   F   F
  0.8895870366104219  0.2233528505683253  0.3272545918188356   F   F   F
  0.2227362336149383  0.5558123464777012  0.3274046808312292   F   F   F
  0.5562073449012601  0.5562358040460609  0.3281454504977432   F   F   F
  0.8896685206611679  0.5553143321176250  0.3268855440314127   F   F   F
  0.2234162153043826  0.8895992968492976  0.3272512754384636   F   F   F
  0.5553953348610960  0.8896054852769169  0.3269222834539036   F   F   F
  0.8892600132776991  0.8891960597847017  0.3243616151748157   F   F   F
  0.0000096770251048  0.0000104378215084  0.4840088243093561   F   F   F
  0.1107752837367713  0.1102018315274833  0.6531082029897277   F   F   F
  0.3349784467177344  0.9992785278072347  0.4877302948437006   F   F   F
  0.4466762634759363  0.1093030223017379  0.6536126091927201   F   F   F
  0.6685712753987190  0.9966531495754012  0.4846120171916510   F   F   F
  0.7743279256618365  0.1081610916770543  0.6512216582566310   F   F   F
  0.9991018378934768  0.3353086064776605  0.4877438925941888   F   F   F
  0.1093225162403400  0.4466157385577176  0.6536175953608279   F   F   F
  0.3332358383417997  0.3332575042311490  0.4848922594926606   F   F   F
  0.4468092907277708  0.4467872779811586  0.6550423503873404   F   F   F
  0.6660499679082861  0.3364794932539610  0.4871155092522912   F   F   F
  0.7652437514879651  0.4708559800908034  0.6576412728948995   F   F   F
  0.9963830176877764  0.6686662365603127  0.4846426078406054   F   F   F
  0.1082257559514801  0.7742320691750209  0.6512553990291607   F   F   F
  0.3364338540517835  0.6657844108209616  0.4871999052339362   F   F   F
  0.4708429873003297  0.7648334357725588  0.6575405537360623   F   F   F
  0.6693708048747453  0.6695040982808891  0.4897028546158140   F   F   F
  0.7499426912271900  0.7499182503051003  0.6547981119462278   F   F   F
  0.0014150534174533  0.0013832364307191  0.2982290182377980   F   F   F
  0.9982249703294599  0.9981209449478712  0.6985112063040120   F   F   F
  0.2213614556244892  0.2215424101616037  0.4308335178192095   F   F   F
  0.1105292813887502  0.1107299074111836  0.5490070708070576   F   F   F
  0.3335155230291491  0.0011533091009781  0.2975922046288417   F   F   F
  0.3333164568542131  0.9989491563008244  0.6995072539020342   F   F   F
  0.5566538108000003  0.2226283302215180  0.4305598348355204   F   F   F
  0.4446821746666032  0.1123289117973840  0.5491173869274348   F   F   F
  0.6654581228636047  0.0014820691063733  0.2974857529484254   F   F   F
  0.6701598310771004  0.9907826885530611  0.6967914074814345   F   F   F
  0.8887427506631269  0.2244373587384345  0.4305458115979803   F   F   F
  0.7782513162157798  0.1107790285579924  0.5471343535374018   F   F   F
  0.0012527860798315  0.3333170135322803  0.2976588244496270   F   F   F
  0.9993789736131831  0.3329422235855901  0.6995316572088015   F   F   F
  0.2224254532243677  0.5567192435490611  0.4305756122328646   F   F   F
  0.1122520109817202  0.4448158444218606  0.5491217780365432   F   F   F
  0.3335372372189482  0.3335055575368457  0.2990968801199827   F   F   F
  0.3333997282259418  0.3333966452959132  0.6997872140497847   F   F   F
  0.5577587859519468  0.5578523734558019  0.4313109586252963   F   F   F
  0.4439096504167210  0.4437868485277505  0.5500551135406724   F   F   F
  0.6669103726970036  0.3341891946174087  0.2991876314771105   F   F   F
  0.6703047569069795  0.3279565051875650  0.6990350328934909   F   F   F
  0.8886047915359185  0.5540980860858866  0.4299018288573464   F   F   F
  0.7776723694500873  0.4452774010489122  0.5515205263857510   F   F   F
  0.0015278658868993  0.6654157248914387  0.2974749663908298   F   F   F
  0.9908308235973777  0.6701015095458231  0.6968211610301154   F   F   F
  0.2244121393876526  0.8886269211083473  0.4305621195811824   F   F   F
  0.1107291170918288  0.7782345495355401  0.5471641534646352   F   F   F
  0.3341842004923166  0.6668829049587330  0.2991786144212583   F   F   F
  0.3280025735931744  0.6702598429475515  0.6990576194512883   F   F   F
  0.5538916966379475  0.8888370525420441  0.4299434498037868   F   F   F
  0.4451429512326683  0.7777157161756350  0.5514812380515366   F   F   F
  0.6670935720179259  0.6670377421550171  0.2984904433649973   F   F   F
  0.6410745264061788  0.6411539683361127  0.7375963037473880   F   F   F
  0.8897326409354562  0.8898869337611046  0.4275345960910855   F   F   F
  0.7813030286028209  0.7816512220823171  0.5478450106631456   F   F   F
  0.5881441618575067  0.5885321261760269  0.7874996740188235   T   T   T
 
  0.00000000E+00  0.00000000E+00  0.00000000E+00
  0.00000000E+00  0.00000000E+00  0.00000000E+00
  0.00000000E+00  0.00000000E+00  0.00000000E+00
  0.00000000E+00  0.00000000E+00  0.00000000E+00
  0.00000000E+00  0.00000000E+00  0.00000000E+00
  0.00000000E+00  0.00000000E+00  0.00000000E+00
  0.00000000E+00  0.00000000E+00  0.00000000E+00
  0.00000000E+00  0.00000000E+00  0.00000000E+00
  0.00000000E+00  0.00000000E+00  0.00000000E+00
  0.00000000E+00  0.00000000E+00  0.00000000E+00
  0.00000000E+00  0.00000000E+00  0.00000000E+00
  0.00000000E+00  0.00000000E+00  0.00000000E+00
  0.00000000E+00  0.00000000E+00  0.00000000E+00
  0.00000000E+00  0.00000000E+00  0.00000000E+00
  0.00000000E+00  0.00000000E+00  0.00000000E+00
  0.00000000E+00  0.00000000E+00  0.00000000E+00
  0.00000000E+00  0.00000000E+00  0.00000000E+00
  0.00000000E+00  0.00000000E+00  0.00000000E+00
  0.00000000E+00  0.00000000E+00  0.00000000E+00
  0.00000000E+00  0.00000000E+00  0.00000000E+00
  0.00000000E+00  0.00000000E+00  0.00000000E+00
  0.00000000E+00  0.00000000E+00  0.00000000E+00
  0.00000000E+00  0.00000000E+00  0.00000000E+00
  0.00000000E+00  0.00000000E+00  0.00000000E+00
  0.00000000E+00  0.00000000E+00  0.00000000E+00
  0.00000000E+00  0.00000000E+00  0.00000000E+00
  0.00000000E+00  0.00000000E+00  0.00000000E+00
  0.00000000E+00  0.00000000E+00  0.00000000E+00
  0.00000000E+00  0.00000000E+00  0.00000000E+00
  0.00000000E+00  0.00000000E+00  0.00000000E+00
  0.00000000E+00  0.00000000E+00  0.00000000E+00
  0.00000000E+00  0.00000000E+00  0.00000000E+00
  0.00000000E+00  0.00000000E+00  0.00000000E+00
  0.00000000E+00  0.00000000E+00  0.00000000E+00
  0.00000000E+00  0.00000000E+00  0.00000000E+00
  0.00000000E+00  0.00000000E+00  0.00000000E+00
  0.00000000E+00  0.00000000E+00  0.00000000E+00
  0.00000000E+00  0.00000000E+00  0.00000000E+00
  0.00000000E+00  0.00000000E+00  0.00000000E+00
  0.00000000E+00  0.00000000E+00  0.00000000E+00
  0.00000000E+00  0.00000000E+00  0.00000000E+00
  0.00000000E+00  0.00000000E+00  0.00000000E+00
  0.00000000E+00  0.00000000E+00  0.00000000E+00
  0.00000000E+00  0.00000000E+00  0.00000000E+00
  0.00000000E+00  0.00000000E+00  0.00000000E+00
  0.00000000E+00  0.00000000E+00  0.00000000E+00
  0.00000000E+00  0.00000000E+00  0.00000000E+00
  0.00000000E+00  0.00000000E+00  0.00000000E+00
  0.00000000E+00  0.00000000E+00  0.00000000E+00
  0.00000000E+00  0.00000000E+00  0.00000000E+00
  0.00000000E+00  0.00000000E+00  0.00000000E+00
  0.00000000E+00  0.00000000E+00  0.00000000E+00
  0.00000000E+00  0.00000000E+00  0.00000000E+00
  0.00000000E+00  0.00000000E+00  0.00000000E+00
  0.00000000E+00  0.00000000E+00  0.00000000E+00
  0.00000000E+00  0.00000000E+00  0.00000000E+00
  0.00000000E+00  0.00000000E+00  0.00000000E+00
  0.00000000E+00  0.00000000E+00  0.00000000E+00
  0.00000000E+00  0.00000000E+00  0.00000000E+00
  0.00000000E+00  0.00000000E+00  0.00000000E+00
  0.00000000E+00  0.00000000E+00  0.00000000E+00
  0.00000000E+00  0.00000000E+00  0.00000000E+00
  0.00000000E+00  0.00000000E+00  0.00000000E+00
  0.00000000E+00  0.00000000E+00  0.00000000E+00
