 Y2 Ga2 I2                              
   1.00000000000000     
     4.1738594307483563    0.0000000000000000    0.0000000000000000
    -2.0869292169761251    3.6146780925533641    0.0000000000000000
     0.0000000000000000    0.0000000000000000   23.0616105735339971
   Y    Ga   I 
     2     2     2
Direct
 -0.0000001902597186  0.0000000218296040  0.5871634606743141
  0.0000001791091617 -0.0000000366761909  0.4128365363738031
  0.3333339547883931  0.6666676513441669  0.5144748255259615
  0.6666660571455463  0.3333324004814869  0.4855251818648300
  0.6666666676069437  0.3333334150504126  0.6732248517409292
  0.3333333316096740  0.6666665479705212  0.3267751438201634
 
  0.00000000E+00  0.00000000E+00  0.00000000E+00
  0.00000000E+00  0.00000000E+00  0.00000000E+00
  0.00000000E+00  0.00000000E+00  0.00000000E+00
  0.00000000E+00  0.00000000E+00  0.00000000E+00
  0.00000000E+00  0.00000000E+00  0.00000000E+00
  0.00000000E+00  0.00000000E+00  0.00000000E+00
