CONTCAR\(6)                             
   1.00000000000000     
    10.1990995407000007    0.0000000000000000    0.0000000000000000
     0.0000000000000000   15.1191997528000002    0.0000000000000000
     0.0000000000000000    0.0000000000000000   19.1068992615000006
   Ta   Ni   S    O    H 
    12     6    30     2     1
Direct
  0.0002261880565868  0.3574953470555258  0.5190107050798360
  0.1668724902887035  0.1415006343967349  0.4796829111898901
  0.1668487271530097  0.8572720709382793  0.4796491145383399
  0.9999037159137032  0.6416905037089577  0.5190965494279141
  0.3336015802342018  0.3574500201130064  0.5189273319354157
  0.5002514145216566  0.1416982307951500  0.4796546572907019
  0.5003392586904027  0.8573230870642021  0.4796109890139064
  0.3336883976953544  0.6417278709098113  0.5191242916562189
  0.6669735464750062  0.3574532127399408  0.5187475971431823
  0.8335926598223651  0.1415537274137506  0.4795969712714694
  0.8332281775787536  0.8572756081562360  0.4795365990879503
  0.6669980060226663  0.6417259126435155  0.5189602455620985
  0.0001135273007975  0.9995020333913516  0.4643476652149445
  0.1666712167239623  0.4996465069755303  0.5348060070427749
  0.3337191548242302  0.9996937928873706  0.4641687384280857
  0.5003197356405167  0.4994817529494000  0.5343353037988123
  0.6666306796503463  0.9997590767921452  0.4640381760052534
  0.8336372096471294  0.4994820978518533  0.5343777535139367
  0.1668846444167258  0.9994450459711928  0.5419772422278797
  0.0004561987830911  0.4994873450911044  0.4567819978170675
  0.0001720052784577  0.1984712592836786  0.5643987994868880
  0.1668053905997695  0.3004543129275135  0.4341847074196465
  0.1669870449266853  0.6984649226663038  0.4341507820369657
  0.0000177214745065  0.8004981582484589  0.5643194823232776
  0.1667942817965411  0.6139777246402076  0.6077025998863732
  0.0002791614828865  0.8853754887952050  0.3910411963466700
  0.0003050841944159  0.1134508234616050  0.3909804050425620
  0.1669792209481642  0.3851988081826434  0.6077198678224249
  0.5003152733803944  0.9995422444502964  0.5418786934055646
  0.3332856711262622  0.4995424761407037  0.4568006446033053
  0.3335587270809057  0.1985095271148154  0.5644361539580771
  0.5001032680160833  0.3006006069713436  0.4340541198049550
  0.4999888496938354  0.6984947344658394  0.4340765377278899
  0.3337210624188742  0.8005674002390109  0.5644494695299329
  0.5004745840948459  0.6136947640760724  0.6074993562799094
  0.3334926457396605  0.8854446056375664  0.3910284544036813
  0.3335739821390007  0.1137803119889469  0.3909472212946454
  0.5003413451657792  0.3852414475956394  0.6074481596600236
  0.8332595413159964  0.9994781503704004  0.5419163581675974
  0.6669797742117467  0.4995237659113982  0.4565602259942239
  0.6669479338911373  0.1985199336559660  0.5643793307160365
  0.8337077432333544  0.3004504959002361  0.4340643033212643
  0.8335763808439793  0.6984872303300591  0.4339121499261012
  0.6669759815216878  0.8005250418234056  0.5640512380959635
  0.8331319216931377  0.6137505383904056  0.6075041232451213
  0.6668247097129338  0.8855517826348560  0.3907663733244391
  0.6669245244895379  0.1138912645348356  0.3909054642944696
  0.8334297419541841  0.3852989909503748  0.6075467723713643
  0.6445411096096691  0.7319564619001753  0.7211677027698755
  0.7038115859136340  0.7084677967317603  0.7816699851508986
  0.6417367846128101  0.7266751391352315  0.8188187413441668
 
  0.00000000E+00  0.00000000E+00  0.00000000E+00
  0.00000000E+00  0.00000000E+00  0.00000000E+00
  0.00000000E+00  0.00000000E+00  0.00000000E+00
  0.00000000E+00  0.00000000E+00  0.00000000E+00
  0.00000000E+00  0.00000000E+00  0.00000000E+00
  0.00000000E+00  0.00000000E+00  0.00000000E+00
  0.00000000E+00  0.00000000E+00  0.00000000E+00
  0.00000000E+00  0.00000000E+00  0.00000000E+00
  0.00000000E+00  0.00000000E+00  0.00000000E+00
  0.00000000E+00  0.00000000E+00  0.00000000E+00
  0.00000000E+00  0.00000000E+00  0.00000000E+00
  0.00000000E+00  0.00000000E+00  0.00000000E+00
  0.00000000E+00  0.00000000E+00  0.00000000E+00
  0.00000000E+00  0.00000000E+00  0.00000000E+00
  0.00000000E+00  0.00000000E+00  0.00000000E+00
  0.00000000E+00  0.00000000E+00  0.00000000E+00
  0.00000000E+00  0.00000000E+00  0.00000000E+00
  0.00000000E+00  0.00000000E+00  0.00000000E+00
  0.00000000E+00  0.00000000E+00  0.00000000E+00
  0.00000000E+00  0.00000000E+00  0.00000000E+00
  0.00000000E+00  0.00000000E+00  0.00000000E+00
  0.00000000E+00  0.00000000E+00  0.00000000E+00
  0.00000000E+00  0.00000000E+00  0.00000000E+00
  0.00000000E+00  0.00000000E+00  0.00000000E+00
  0.00000000E+00  0.00000000E+00  0.00000000E+00
  0.00000000E+00  0.00000000E+00  0.00000000E+00
  0.00000000E+00  0.00000000E+00  0.00000000E+00
  0.00000000E+00  0.00000000E+00  0.00000000E+00
  0.00000000E+00  0.00000000E+00  0.00000000E+00
  0.00000000E+00  0.00000000E+00  0.00000000E+00
  0.00000000E+00  0.00000000E+00  0.00000000E+00
  0.00000000E+00  0.00000000E+00  0.00000000E+00
  0.00000000E+00  0.00000000E+00  0.00000000E+00
  0.00000000E+00  0.00000000E+00  0.00000000E+00
  0.00000000E+00  0.00000000E+00  0.00000000E+00
  0.00000000E+00  0.00000000E+00  0.00000000E+00
  0.00000000E+00  0.00000000E+00  0.00000000E+00
  0.00000000E+00  0.00000000E+00  0.00000000E+00
  0.00000000E+00  0.00000000E+00  0.00000000E+00
  0.00000000E+00  0.00000000E+00  0.00000000E+00
  0.00000000E+00  0.00000000E+00  0.00000000E+00
  0.00000000E+00  0.00000000E+00  0.00000000E+00
  0.00000000E+00  0.00000000E+00  0.00000000E+00
  0.00000000E+00  0.00000000E+00  0.00000000E+00
  0.00000000E+00  0.00000000E+00  0.00000000E+00
  0.00000000E+00  0.00000000E+00  0.00000000E+00
  0.00000000E+00  0.00000000E+00  0.00000000E+00
  0.00000000E+00  0.00000000E+00  0.00000000E+00
  0.00000000E+00  0.00000000E+00  0.00000000E+00
  0.00000000E+00  0.00000000E+00  0.00000000E+00
  0.00000000E+00  0.00000000E+00  0.00000000E+00
