CONTCAR\(11)                            
   1.00000000000000     
    13.2923002242999999    0.0000000000000000    0.0000000000000000
     6.5701190447000002   11.5675693128999999    0.0000000000000000
     0.0000000000000000    0.0000000000000000   18.3850994109999988
   Nb   Ir   S    O    H 
    12     4    32     2     1
Direct
  0.2645143976847919  0.0092311016406654  0.5062582769186861
  0.5033734808538739  0.0151653468113295  0.5044402761153179
  0.4818173144357161  0.2546704162994402  0.5061255795037667
  0.7424793344141918  0.0180771257675971  0.5039450298298647
  0.9859545599000654  0.0006164418010854  0.5082218586988674
  0.9918524867964322  0.2350713385569847  0.5087990116897743
  0.2421097165114929  0.5165247981028500  0.5040355642671059
  0.4812008654619149  0.4957710001688014  0.5062930374903800
  0.4908786044596951  0.7330605747471566  0.5039249870735816
  0.7690010808158476  0.5085797906756184  0.5063417404846291
  0.0047622997916790  0.5126910151750081  0.5029877033071486
  0.9817926381711075  0.7614140484522309  0.5065414146128120
  0.2744937246073675  0.2242243257931520  0.5070342366421414
  0.7727673491305751  0.2259485840119950  0.5043199447967623
  0.2740100224527851  0.7248984638061060  0.5037847936170650
  0.7761758171816808  0.7256922297063895  0.5066555839637843
  0.3448466498224789  0.0763564228674269  0.4141171224833400
  0.0859572178222408  0.0773834052796687  0.4251831111012763
  0.0978707457396482  0.3180970908176448  0.4369639376793799
  0.3242040364562584  0.3325392477730702  0.4227924512826604
  0.1720207611192563  0.1661722891722874  0.5899166730094478
  0.4246730900625337  0.1589219948316938  0.5988249763542512
  0.4059639980691969  0.4172505746131705  0.5943000277150290
  0.1788207352926392  0.3995615978829505  0.5790998724055711
  0.8402873676344740  0.0754908785339481  0.4134152084651816
  0.5805973704587615  0.0926492991245311  0.4157822807236329
  0.5981721943402647  0.3211984239732502  0.4317480023146700
  0.8343916950910284  0.3292610359911308  0.4248157762235891
  0.6638266816151983  0.1749728994339534  0.5873813177796876
  0.9229497314028237  0.1515120847252334  0.5950769594551559
  0.9236403517241385  0.4144994547168679  0.5878995617446492
  0.6770120212949493  0.4037299453952059  0.5733590286989667
  0.3386607271530622  0.5748673212103910  0.4117401652733008
  0.0799850390866794  0.5930802201309433  0.4162000901400660
  0.0989403078301905  0.8215972904749336  0.4318652123245599
  0.3323993046317995  0.8293122371635064  0.4225548654704170
  0.1660869561677032  0.6739661575780360  0.5874320836703220
  0.4224222041109940  0.6539094488581867  0.5963539019861557
  0.4220701391045267  0.9122967311785501  0.5859564822178882
  0.1790561354846574  0.9005288635282582  0.5743651687229274
  0.8448868501073008  0.5780674478139645  0.4131852713255100
  0.5878205921355431  0.5751577881099621  0.4255959151936608
  0.5986262722968334  0.8207791121197161  0.4376605037312586
  0.8256344960389868  0.8348581491339786  0.4226704466601916
  0.6711581627385215  0.6675383494819300  0.5875248758011153
  0.9295759582986989  0.6565751454342248  0.5966205036267027
  0.9033002930589973  0.9153682594545103  0.5934813709240743
  0.6778198608266521  0.9004705298037194  0.5791298233214235
  0.8688137202933603  0.1649124070928849  0.6825481063357017
  0.8373938950631512  0.2771990936270257  0.7129756797631046
  0.7640697799570546  0.3278129821571056  0.6863443400632079
 
  0.00000000E+00  0.00000000E+00  0.00000000E+00
  0.00000000E+00  0.00000000E+00  0.00000000E+00
  0.00000000E+00  0.00000000E+00  0.00000000E+00
  0.00000000E+00  0.00000000E+00  0.00000000E+00
  0.00000000E+00  0.00000000E+00  0.00000000E+00
  0.00000000E+00  0.00000000E+00  0.00000000E+00
  0.00000000E+00  0.00000000E+00  0.00000000E+00
  0.00000000E+00  0.00000000E+00  0.00000000E+00
  0.00000000E+00  0.00000000E+00  0.00000000E+00
  0.00000000E+00  0.00000000E+00  0.00000000E+00
  0.00000000E+00  0.00000000E+00  0.00000000E+00
  0.00000000E+00  0.00000000E+00  0.00000000E+00
  0.00000000E+00  0.00000000E+00  0.00000000E+00
  0.00000000E+00  0.00000000E+00  0.00000000E+00
  0.00000000E+00  0.00000000E+00  0.00000000E+00
  0.00000000E+00  0.00000000E+00  0.00000000E+00
  0.00000000E+00  0.00000000E+00  0.00000000E+00
  0.00000000E+00  0.00000000E+00  0.00000000E+00
  0.00000000E+00  0.00000000E+00  0.00000000E+00
  0.00000000E+00  0.00000000E+00  0.00000000E+00
  0.00000000E+00  0.00000000E+00  0.00000000E+00
  0.00000000E+00  0.00000000E+00  0.00000000E+00
  0.00000000E+00  0.00000000E+00  0.00000000E+00
  0.00000000E+00  0.00000000E+00  0.00000000E+00
  0.00000000E+00  0.00000000E+00  0.00000000E+00
  0.00000000E+00  0.00000000E+00  0.00000000E+00
  0.00000000E+00  0.00000000E+00  0.00000000E+00
  0.00000000E+00  0.00000000E+00  0.00000000E+00
  0.00000000E+00  0.00000000E+00  0.00000000E+00
  0.00000000E+00  0.00000000E+00  0.00000000E+00
  0.00000000E+00  0.00000000E+00  0.00000000E+00
  0.00000000E+00  0.00000000E+00  0.00000000E+00
  0.00000000E+00  0.00000000E+00  0.00000000E+00
  0.00000000E+00  0.00000000E+00  0.00000000E+00
  0.00000000E+00  0.00000000E+00  0.00000000E+00
  0.00000000E+00  0.00000000E+00  0.00000000E+00
  0.00000000E+00  0.00000000E+00  0.00000000E+00
  0.00000000E+00  0.00000000E+00  0.00000000E+00
  0.00000000E+00  0.00000000E+00  0.00000000E+00
  0.00000000E+00  0.00000000E+00  0.00000000E+00
  0.00000000E+00  0.00000000E+00  0.00000000E+00
  0.00000000E+00  0.00000000E+00  0.00000000E+00
  0.00000000E+00  0.00000000E+00  0.00000000E+00
  0.00000000E+00  0.00000000E+00  0.00000000E+00
  0.00000000E+00  0.00000000E+00  0.00000000E+00
  0.00000000E+00  0.00000000E+00  0.00000000E+00
  0.00000000E+00  0.00000000E+00  0.00000000E+00
  0.00000000E+00  0.00000000E+00  0.00000000E+00
  0.00000000E+00  0.00000000E+00  0.00000000E+00
  0.00000000E+00  0.00000000E+00  0.00000000E+00
  0.00000000E+00  0.00000000E+00  0.00000000E+00
