CONTCAR\(3)                             
   1.00000000000000     
    13.2834997176999998    0.0000000000000000    0.0000000000000000
     0.0000000000000000   13.2517004013000008    0.0000000000000000
     0.0000000000000000    0.0000000000000000   28.4766006470000015
   Bi   I    O 
    48    12     1
Selective dynamics
Direct
  0.0000000000000000  0.9382289312861829  0.5986912590854203   F   F   F
  0.0000000000000000  0.0642347689041927  0.3977392373437283   F   F   F
  0.1666289250496220  0.7991487503754158  0.3581273386537234   F   F   F
  0.1735265839616176  0.3381616783913017  0.4371206457400731   F   F   F
  0.0000000000000000  0.1562703942304182  0.5662674996016221   F   F   F
  0.0000000000000000  0.6178830417984074  0.4848039418060495   F   F   F
  0.0000000000000000  0.8432669987581107  0.4296020910623639   F   F   F
  0.0000000000000000  0.5253186203116087  0.3123967924333115   F   F   F
  0.1649035549198103  0.1162746284191130  0.4682938833362513   F   F   F
  0.1651426927480060  0.6602103328416931  0.5575227702001939   F   F   F
  0.0000000000000000  0.3898283114739840  0.5029071634302511   F   F   F
  0.1668834620299506  0.8848220493834873  0.5296210387524596   F   F   F
  0.1624950406080572  0.2079877540994417  0.6395948792128578   F   F   F
  0.1196656690152196  0.4275696456818068  0.6135889155368517   F   F   F
  0.1672333791004306  0.5756974704904536  0.3835732611827396   F   F   F
  0.0000000000000000  0.4806661756768662  0.7017721688139105   F   F   F
  0.3324871541273353  0.9425385621093767  0.5990332391085573   F   F   F
  0.3344599055517392  0.0597907296028382  0.4006131358582294   F   F   F
  0.5000000000000000  0.7979221540010215  0.3585722217205713   F   F   F
  0.5000000000000000  0.3414469327705163  0.4419042279306566   F   F   F
  0.3319811066109395  0.1658296204501255  0.5687190020614565   F   F   F
  0.3335555038455027  0.6150836012969734  0.4878699290319588   F   F   F
  0.3330817380602440  0.8386182805298787  0.4308778688688264   F   F   F
  0.3344511283939582  0.5266413425575394  0.3117740097140498   F   F   F
  0.5000000000000000  0.1166752850664921  0.4699582327761789   F   F   F
  0.5000000000000000  0.6631748557854635  0.5583257515855564   F   F   F
  0.3320248242580135  0.3886125212598017  0.5114557616791160   F   F   F
  0.5000000000000000  0.8893421169815454  0.5300270248664560   F   F   F
  0.5000000000000000  0.2056759977071536  0.6406420778853459   F   F   F
  0.5000000000000000  0.4279976513759465  0.6140008477576231   F   F   F
  0.5000000000000000  0.5749581981047100  0.3842408610607890   F   F   F
  0.3649290595284143  0.4851079377551457  0.6995765767336053   F   F   F
  0.6675128818726677  0.9425385621093767  0.5990332391085573   F   F   F
  0.6655401304482638  0.0597907296028382  0.4006131358582294   F   F   F
  0.8333710209503806  0.7991487503754158  0.3581273386537234   F   F   F
  0.8264733620383851  0.3381616783913017  0.4371206457400731   F   F   F
  0.6680189293890635  0.1658296204501255  0.5687190020614565   F   F   F
  0.6664445321545003  0.6150836012969734  0.4878699290319588   F   F   F
  0.6669182979397590  0.8386182805298787  0.4308778688688264   F   F   F
  0.6655489076060448  0.5266413425575394  0.3117740097140498   F   F   F
  0.8350963910801923  0.1162746284191130  0.4682938833362513   F   F   F
  0.8348572532519967  0.6602103328416931  0.5575227702001939   F   F   F
  0.6679752117419895  0.3886125212598017  0.5114557616791160   F   F   F
  0.8331164839700520  0.8848220493834873  0.5296210387524596   F   F   F
  0.8375049053919454  0.2079877540994417  0.6395948792128578   F   F   F
  0.8803342769847831  0.4275696456818068  0.6135889155368517   F   F   F
  0.8327665668995721  0.5756974704904536  0.3835732611827396   F   F   F
  0.6350709764715887  0.4851079377551457  0.6995765767336053   F   F   F
  0.0000000000000000  0.2621919061754525  0.7373592621004050   F   F   F
  0.0000000000000000  0.7394848468706670  0.2675472323183072   F   F   F
  0.0000000000000000  0.2982824124449550  0.3387069476552185   F   F   F
  0.0000000000000000  0.7022607603643749  0.6606945528031147   F   F   F
  0.3305915337050607  0.2641455437034637  0.7314508176455021   F   F   F
  0.3347470605061105  0.7380902749769405  0.2664745247321463   F   F   F
  0.3341939212038270  0.2991176763260484  0.3407694235661012   F   F   F
  0.3295619422545570  0.7008923890817371  0.6551945473111260   F   F   F
  0.6694085022949423  0.2641455437034637  0.7314508176455021   F   F   F
  0.6652529754938925  0.7380902749769405  0.2664745247321463   F   F   F
  0.6658061147961760  0.2991176763260484  0.3407694235661012   F   F   F
  0.6704380937454459  0.7008923890817371  0.6551945473111260   F   F   F
  0.4999000270000025  0.5138780652467858  0.7355909698458576   T   T   T
 
  0.00000000E+00  0.00000000E+00  0.00000000E+00
  0.00000000E+00  0.00000000E+00  0.00000000E+00
  0.00000000E+00  0.00000000E+00  0.00000000E+00
  0.00000000E+00  0.00000000E+00  0.00000000E+00
  0.00000000E+00  0.00000000E+00  0.00000000E+00
  0.00000000E+00  0.00000000E+00  0.00000000E+00
  0.00000000E+00  0.00000000E+00  0.00000000E+00
  0.00000000E+00  0.00000000E+00  0.00000000E+00
  0.00000000E+00  0.00000000E+00  0.00000000E+00
  0.00000000E+00  0.00000000E+00  0.00000000E+00
  0.00000000E+00  0.00000000E+00  0.00000000E+00
  0.00000000E+00  0.00000000E+00  0.00000000E+00
  0.00000000E+00  0.00000000E+00  0.00000000E+00
  0.00000000E+00  0.00000000E+00  0.00000000E+00
  0.00000000E+00  0.00000000E+00  0.00000000E+00
  0.00000000E+00  0.00000000E+00  0.00000000E+00
  0.00000000E+00  0.00000000E+00  0.00000000E+00
  0.00000000E+00  0.00000000E+00  0.00000000E+00
  0.00000000E+00  0.00000000E+00  0.00000000E+00
  0.00000000E+00  0.00000000E+00  0.00000000E+00
  0.00000000E+00  0.00000000E+00  0.00000000E+00
  0.00000000E+00  0.00000000E+00  0.00000000E+00
  0.00000000E+00  0.00000000E+00  0.00000000E+00
  0.00000000E+00  0.00000000E+00  0.00000000E+00
  0.00000000E+00  0.00000000E+00  0.00000000E+00
  0.00000000E+00  0.00000000E+00  0.00000000E+00
  0.00000000E+00  0.00000000E+00  0.00000000E+00
  0.00000000E+00  0.00000000E+00  0.00000000E+00
  0.00000000E+00  0.00000000E+00  0.00000000E+00
  0.00000000E+00  0.00000000E+00  0.00000000E+00
  0.00000000E+00  0.00000000E+00  0.00000000E+00
  0.00000000E+00  0.00000000E+00  0.00000000E+00
  0.00000000E+00  0.00000000E+00  0.00000000E+00
  0.00000000E+00  0.00000000E+00  0.00000000E+00
  0.00000000E+00  0.00000000E+00  0.00000000E+00
  0.00000000E+00  0.00000000E+00  0.00000000E+00
  0.00000000E+00  0.00000000E+00  0.00000000E+00
  0.00000000E+00  0.00000000E+00  0.00000000E+00
  0.00000000E+00  0.00000000E+00  0.00000000E+00
  0.00000000E+00  0.00000000E+00  0.00000000E+00
  0.00000000E+00  0.00000000E+00  0.00000000E+00
  0.00000000E+00  0.00000000E+00  0.00000000E+00
  0.00000000E+00  0.00000000E+00  0.00000000E+00
  0.00000000E+00  0.00000000E+00  0.00000000E+00
  0.00000000E+00  0.00000000E+00  0.00000000E+00
  0.00000000E+00  0.00000000E+00  0.00000000E+00
  0.00000000E+00  0.00000000E+00  0.00000000E+00
  0.00000000E+00  0.00000000E+00  0.00000000E+00
  0.00000000E+00  0.00000000E+00  0.00000000E+00
  0.00000000E+00  0.00000000E+00  0.00000000E+00
  0.00000000E+00  0.00000000E+00  0.00000000E+00
  0.00000000E+00  0.00000000E+00  0.00000000E+00
  0.00000000E+00  0.00000000E+00  0.00000000E+00
  0.00000000E+00  0.00000000E+00  0.00000000E+00
  0.00000000E+00  0.00000000E+00  0.00000000E+00
  0.00000000E+00  0.00000000E+00  0.00000000E+00
  0.00000000E+00  0.00000000E+00  0.00000000E+00
  0.00000000E+00  0.00000000E+00  0.00000000E+00
  0.00000000E+00  0.00000000E+00  0.00000000E+00
  0.00000000E+00  0.00000000E+00  0.00000000E+00
  0.00000000E+00  0.00000000E+00  0.00000000E+00
