CONTCAR                                 
   1.00000000000000     
     3.1951000690000000    0.0000000000000000    0.0000000000000000
    -1.5975548244000000    2.7670350620000002    0.0000000000000000
     0.0000000000000000    0.0000000000000000   14.6574001311999993
   Co   S    O 
     1     2     2
Direct
  0.0012468646148245 -0.1981369915681784  0.5008026010052852
  0.6678627201364641  0.1353847923780523  0.4189295908753248
  0.3341350238844022  0.4684414058761039  0.5827770802462805
  0.6673812380445038  0.1354887322015865  0.3183977246200796
  0.3329141553198067  0.4683421301124326  0.6832930052530342
 
  0.00000000E+00  0.00000000E+00  0.00000000E+00
  0.00000000E+00  0.00000000E+00  0.00000000E+00
  0.00000000E+00  0.00000000E+00  0.00000000E+00
  0.00000000E+00  0.00000000E+00  0.00000000E+00
  0.00000000E+00  0.00000000E+00  0.00000000E+00
