CONTCAR\(2)                             
   1.00000000000000     
    11.7923002242999999    0.0000000000000000    0.0000000000000000
     0.0000000000000000   21.3097991942999982    0.0000000000000000
     0.0000000000000000    0.0000000000000000   18.7763004303000010
   V    Ag   P    S    O 
     8     8    16    48     1
Selective dynamics
Direct
  0.1400258306225766  0.4638854834282498  0.4998575544209203   F   F   F
  0.3661859267508660  0.0379026454190168  0.4998064977205061   F   F   F
  0.6310726272780940  0.4657445772975635  0.5031449466840954   F   F   F
  0.8686163920711465  0.0362335214017264  0.5002350094233066   F   F   F
  0.1328107461880137  0.9628993136561377  0.4913198041105744   F   F   F
  0.3827121593242708  0.5371091455180661  0.4981818712690398   F   F   F
  0.6349135242460662  0.9629715612235827  0.4905465374928042   F   F   F
  0.8638622878365823  0.5405808040949154  0.5155325263983954   F   F   F
  0.3616339730831513  0.2093969626989391  0.5238082747439208   F   F   F
  0.1383529160114492  0.2950999500505844  0.4829676078669181   F   F   F
  0.8623439256125707  0.2263446242570808  0.4715942082854951   F   F   F
  0.6398247347289256  0.2756514362937637  0.5240923288907808   F   F   F
  0.3470536379342946  0.7292842822631656  0.4531411512044627   F   F   F
  0.1278851953736719  0.7750464397577517  0.5176201368822930   F   F   F
  0.8161481237192447  0.7080064756056217  0.5614842494443764   F   F   F
  0.6304360115238765  0.7949412220772061  0.4630503295575750   F   F   F
  0.1131038693333224  0.1232068639983339  0.5637962646984320   F   F   F
  0.3783649532712232  0.3754784998816376  0.5583710846031522   F   F   F
  0.3901146938811664  0.3759181241352465  0.4394360920694567   F   F   F
  0.1250881143951617  0.1276893779858455  0.4446343324167401   F   F   F
  0.6187412983580387  0.1195127338141972  0.5717090478319520   F   F   F
  0.8814433101846433  0.3728232265491940  0.5470826089817962   F   F   F
  0.8853228867581677  0.3847091932455982  0.4290775046277062   F   F   F
  0.6243206095935392  0.1294873143019259  0.4532474664795529   F   F   F
  0.1284811976304709  0.6230584952956448  0.5730640819072548   F   F   F
  0.3790940277450119  0.8700378525276946  0.5332184565893243   F   F   F
  0.3816625617813258  0.8834569639764140  0.4151010495598015   F   F   F
  0.1224293339448437  0.6280816822422182  0.4542612540883297   F   F   F
  0.6065958215229585  0.6031016774251583  0.6387715381067096   F   F   F
  0.8736430979430239  0.8727909724647631  0.5489032567684262   F   F   F
  0.8866768691319749  0.8746449399323026  0.4299180140885852   F   F   F
  0.6025522903034073  0.6279571047429826  0.4505922393001001   F   F   F
  0.4653467347763041  0.4604730112020476  0.5811109434457222   F   F   F
  0.3156762699660121  0.3023049325178775  0.3967390371583832   F   F   F
  0.4509854284890409  0.1048848560038635  0.5934416249277632   F   F   F
  0.2945853740620805  0.1215886081396462  0.4239295154837848   F   F   F
  0.0567085903169371  0.2030917584306522  0.4004650527957025   F   F   F
  0.2096884049014207  0.3838526328545839  0.5801782508129278   F   F   F
  0.0531374652063477  0.3976896604012623  0.4065680427181348   F   F   F
  0.2989917036477578  0.4618460296542750  0.4194007866439762   F   F   F
  0.0378406573677523  0.0436698161840923  0.4203475104824577   F   F   F
  0.2053736721325592  0.0359124315009254  0.5782022346474918   F   F   F
  0.1868331512322996  0.1948281236906979  0.6109143131232315   F   F   F
  0.4481188121863440  0.3009243989486663  0.6033980638920369   F   F   F
  0.9675920319667455  0.4548607251683165  0.5771668047184875   F   F   F
  0.8101376208259765  0.3163932875303601  0.3774930834839836   F   F   F
  0.9477126060888139  0.1107758901890961  0.5868818977834493   F   F   F
  0.7910412918897691  0.1202667915787927  0.4247810716891252   F   F   F
  0.5520135803685022  0.2089716337573932  0.4223803104781183   F   F   F
  0.7141430849793267  0.3786154054228703  0.5746618656854281   F   F   F
  0.5559243281861441  0.3875312093745720  0.4170552174550153   F   F   F
  0.7933174099058320  0.4716680231303840  0.4231542434298845   F   F   F
  0.5390856351208484  0.0474723321384829  0.4232402546791008   F   F   F
  0.7080839186845296  0.0326173762723840  0.5810546972543591   F   F   F
  0.6927723633993708  0.1890402651057599  0.6217851206274219   F   F   F
  0.9545508023865139  0.2924848671730800  0.5753989268405206   F   F   F
  0.4620232479362016  0.9522594525245225  0.5657798899098623   F   F   F
  0.3067558544428763  0.8161447245980824  0.3612577399521584   F   F   F
  0.4972038002317731  0.6280989829771002  0.5463127770286320   F   F   F
  0.2891096715243719  0.6170211062941320  0.4223851413698441   F   F   F
  0.0478997379687982  0.7049087787799380  0.4190744826936452   F   F   F
  0.2139282609042610  0.8775855773510628  0.5650074691113574   F   F   F
  0.0518045975393306  0.8872846223686963  0.4059341301803130   F   F   F
  0.2909221425984398  0.9695925311954383  0.4085719735376614   F   F   F
  0.0338374289547758  0.5457389540492414  0.4333365503942233   F   F   F
  0.2244911368037563  0.5384496906698573  0.5830086611353806   F   F   F
  0.2071798869348314  0.6945791054864685  0.6160797789511108   F   F   F
  0.4540006113157418  0.7891554275539363  0.5583296147477128   F   F   F
  0.9636345106428479  0.9555128089752856  0.5723950941947606   F   F   F
  0.8131572897858135  0.8016053693535170  0.3859194841475926   F   F   F
  0.9640670524018233  0.6072007882278143  0.6036610332940029   F   F   F
  0.7765205861310704  0.6317526485986278  0.4602939808969921   F   F   F
  0.5532268007217738  0.6971250966526341  0.3876399693482568   F   F   F
  0.7045688074557290  0.8802316376205752  0.5690059513653125   F   F   F
  0.5499319127914717  0.8982782488427361  0.3940460232433338   F   F   F
  0.7966639376407088  0.9626179621496433  0.4136736991898076   F   F   F
  0.5476219026053997  0.5382795198130879  0.4166966442778772   F   F   F
  0.7141101767847573  0.5280316180617888  0.5976349181006952   F   F   F
  0.6911417004692524  0.6793458486158812  0.6656536898992300   F   F   F
  0.9427820564438463  0.7980677718589675  0.5958671724545397   F   F   F
  0.5252130758000106  0.5724237324483568  0.6873992723861998   T   T   T
 
  0.00000000E+00  0.00000000E+00  0.00000000E+00
  0.00000000E+00  0.00000000E+00  0.00000000E+00
  0.00000000E+00  0.00000000E+00  0.00000000E+00
  0.00000000E+00  0.00000000E+00  0.00000000E+00
  0.00000000E+00  0.00000000E+00  0.00000000E+00
  0.00000000E+00  0.00000000E+00  0.00000000E+00
  0.00000000E+00  0.00000000E+00  0.00000000E+00
  0.00000000E+00  0.00000000E+00  0.00000000E+00
  0.00000000E+00  0.00000000E+00  0.00000000E+00
  0.00000000E+00  0.00000000E+00  0.00000000E+00
  0.00000000E+00  0.00000000E+00  0.00000000E+00
  0.00000000E+00  0.00000000E+00  0.00000000E+00
  0.00000000E+00  0.00000000E+00  0.00000000E+00
  0.00000000E+00  0.00000000E+00  0.00000000E+00
  0.00000000E+00  0.00000000E+00  0.00000000E+00
  0.00000000E+00  0.00000000E+00  0.00000000E+00
  0.00000000E+00  0.00000000E+00  0.00000000E+00
  0.00000000E+00  0.00000000E+00  0.00000000E+00
  0.00000000E+00  0.00000000E+00  0.00000000E+00
  0.00000000E+00  0.00000000E+00  0.00000000E+00
  0.00000000E+00  0.00000000E+00  0.00000000E+00
  0.00000000E+00  0.00000000E+00  0.00000000E+00
  0.00000000E+00  0.00000000E+00  0.00000000E+00
  0.00000000E+00  0.00000000E+00  0.00000000E+00
  0.00000000E+00  0.00000000E+00  0.00000000E+00
  0.00000000E+00  0.00000000E+00  0.00000000E+00
  0.00000000E+00  0.00000000E+00  0.00000000E+00
  0.00000000E+00  0.00000000E+00  0.00000000E+00
  0.00000000E+00  0.00000000E+00  0.00000000E+00
  0.00000000E+00  0.00000000E+00  0.00000000E+00
  0.00000000E+00  0.00000000E+00  0.00000000E+00
  0.00000000E+00  0.00000000E+00  0.00000000E+00
  0.00000000E+00  0.00000000E+00  0.00000000E+00
  0.00000000E+00  0.00000000E+00  0.00000000E+00
  0.00000000E+00  0.00000000E+00  0.00000000E+00
  0.00000000E+00  0.00000000E+00  0.00000000E+00
  0.00000000E+00  0.00000000E+00  0.00000000E+00
  0.00000000E+00  0.00000000E+00  0.00000000E+00
  0.00000000E+00  0.00000000E+00  0.00000000E+00
  0.00000000E+00  0.00000000E+00  0.00000000E+00
  0.00000000E+00  0.00000000E+00  0.00000000E+00
  0.00000000E+00  0.00000000E+00  0.00000000E+00
  0.00000000E+00  0.00000000E+00  0.00000000E+00
  0.00000000E+00  0.00000000E+00  0.00000000E+00
  0.00000000E+00  0.00000000E+00  0.00000000E+00
  0.00000000E+00  0.00000000E+00  0.00000000E+00
  0.00000000E+00  0.00000000E+00  0.00000000E+00
  0.00000000E+00  0.00000000E+00  0.00000000E+00
  0.00000000E+00  0.00000000E+00  0.00000000E+00
  0.00000000E+00  0.00000000E+00  0.00000000E+00
  0.00000000E+00  0.00000000E+00  0.00000000E+00
  0.00000000E+00  0.00000000E+00  0.00000000E+00
  0.00000000E+00  0.00000000E+00  0.00000000E+00
  0.00000000E+00  0.00000000E+00  0.00000000E+00
  0.00000000E+00  0.00000000E+00  0.00000000E+00
  0.00000000E+00  0.00000000E+00  0.00000000E+00
  0.00000000E+00  0.00000000E+00  0.00000000E+00
  0.00000000E+00  0.00000000E+00  0.00000000E+00
  0.00000000E+00  0.00000000E+00  0.00000000E+00
  0.00000000E+00  0.00000000E+00  0.00000000E+00
  0.00000000E+00  0.00000000E+00  0.00000000E+00
  0.00000000E+00  0.00000000E+00  0.00000000E+00
  0.00000000E+00  0.00000000E+00  0.00000000E+00
  0.00000000E+00  0.00000000E+00  0.00000000E+00
  0.00000000E+00  0.00000000E+00  0.00000000E+00
  0.00000000E+00  0.00000000E+00  0.00000000E+00
  0.00000000E+00  0.00000000E+00  0.00000000E+00
  0.00000000E+00  0.00000000E+00  0.00000000E+00
  0.00000000E+00  0.00000000E+00  0.00000000E+00
  0.00000000E+00  0.00000000E+00  0.00000000E+00
  0.00000000E+00  0.00000000E+00  0.00000000E+00
  0.00000000E+00  0.00000000E+00  0.00000000E+00
  0.00000000E+00  0.00000000E+00  0.00000000E+00
  0.00000000E+00  0.00000000E+00  0.00000000E+00
  0.00000000E+00  0.00000000E+00  0.00000000E+00
  0.00000000E+00  0.00000000E+00  0.00000000E+00
  0.00000000E+00  0.00000000E+00  0.00000000E+00
  0.00000000E+00  0.00000000E+00  0.00000000E+00
  0.00000000E+00  0.00000000E+00  0.00000000E+00
  0.00000000E+00  0.00000000E+00  0.00000000E+00
  0.00000000E+00  0.00000000E+00  0.00000000E+00
