CONTCAR                                 
   1.00000000000000     
    12.3037004471000007    0.0000000000000000    0.0000000000000000
     6.1518502235000003   10.6553171476999999    0.0000000000000000
     0.0000000000000000    0.0000000000000000   24.8090991973999984
   Mn   In   Se   O 
     9    18    36     1
Selective dynamics
Direct
  0.2189499244306958  0.2174179450988802  0.3276238672036484   F   F   F
  0.5363726159666484  0.2620732656419023  0.3240626857532263   F   F   F
  0.8982244703350943  0.2180697898665187  0.3273359412695669   F   F   F
  0.2628622429540357  0.5355404685073566  0.3239705948846918   F   F   F
  0.5362513279113728  0.5352869828981710  0.3237280273700591   F   F   F
  0.8866761516876593  0.5624532310741515  0.3255137652931310   F   F   F
  0.2189845476524681  0.8976358747400610  0.3273574170417959   F   F   F
  0.5635247712710481  0.8855766672496941  0.3254557344090188   F   F   F
  0.8873516521350879  0.8864961798812203  0.3257724337883232   F   F   F
  0.0004556374504716  0.0000207527924587  0.4847565150810738   F   F   F
  0.1082974594703785  0.1109506297583849  0.6526319892997634   F   F   F
  0.3350805893709605  0.9996429502377069  0.4845662020292067   F   F   F
  0.4425227845667550  0.1100242631186461  0.6527796644558919   F   F   F
  0.6688307010231256  0.0000807816734252  0.4853823767638161   F   F   F
  0.7745367471277405  0.1110535958245507  0.6530892949993543   F   F   F
  0.0003589162714377  0.3343033640325288  0.4846195931387456   F   F   F
  0.1082525582247627  0.4444924611536294  0.6526846392102286   F   F   F
  0.3368048756193218  0.3347498704812040  0.4832229210614258   F   F   F
  0.4412972487594971  0.4440571802010993  0.6532954988235460   F   F   F
  0.6643277481504910  0.3353133606908898  0.4837870067007657   F   F   F
  0.7747884877277684  0.4444076776018164  0.6519036884653957   F   F   F
  0.0021256141925861  0.6672243428937392  0.4855011294945939   F   F   F
  0.1075735301131928  0.7777318067262655  0.6528104166604649   F   F   F
  0.3367508268743507  0.6632254087535543  0.4827183643216486   F   F   F
  0.4417286097439259  0.7768255947855849  0.6515945765241753   F   F   F
  0.6684704904874224  0.6672588449909611  0.4825521941239614   F   F   F
  0.7747878000681112  0.7777152068357864  0.6530153933511187   F   F   F
  0.0005618648440944  0.9990836901123359  0.2970723028707312   F   F   F
  0.9971133143171471  0.0001840460905242  0.7014944894042614   F   F   F
  0.2230920475614866  0.2221851642223598  0.4292320272009817   F   F   F
  0.1116771788344622  0.1111926388095696  0.5489038379669680   F   F   F
  0.3372001498963257  0.9984947421414319  0.2980207009230185   F   F   F
  0.3309597744131523  0.9985792462688750  0.7008237659600667   F   F   F
  0.5582193230990100  0.2201485831491823  0.4280690908879805   F   F   F
  0.4454188074347485  0.1118387140003421  0.5489996185110755   F   F   F
  0.6576464979464731  0.0210267586029076  0.3044467810937519   F   F   F
  0.6641316828203045  0.9994640675420783  0.7020138343572384   F   F   F
  0.8894665664377470  0.2223735107433029  0.4290643938646781   F   F   F
  0.7776927682805308  0.1125193901409816  0.5492836650661417   F   F   F
  0.9998949157229404  0.3359465372354649  0.2982705147518629   F   F   F
  0.9967787095965619  0.3333847514896533  0.7009566726154191   F   F   F
  0.2215120246250564  0.5563935214566911  0.4278797782683483   F   F   F
  0.1131002993690089  0.4442130486846949  0.5489261055424990   F   F   F
  0.3219777427496879  0.3211772897735230  0.2884333323769255   F   F   F
  0.3304575084228745  0.3323906149887463  0.7015840055086571   F   F   F
  0.5578292939468454  0.5557614689274857  0.4273577978811645   F   F   F
  0.4448759555395370  0.4449783414319057  0.5497497169833991   F   F   F
  0.6914913368581352  0.3210284037716420  0.2880008683024755   F   F   F
  0.6640631638532284  0.3336846733155170  0.7014195144922866   F   F   F
  0.8912480704374701  0.5567547493429643  0.4289479527303754   F   F   F
  0.7770685830294681  0.4456338340542132  0.5482308429787466   F   F   F
  0.0217706503319306  0.6568569139831126  0.3042464355682881   F   F   F
  0.9970001601682625  0.6664309106517905  0.7016536576234174   F   F   F
  0.2227309235110937  0.8892182486156770  0.4289568216742197   F   F   F
  0.1135849968692426  0.7771917696916759  0.5490330619767718   F   F   F
  0.3218983750169073  0.6907169299516056  0.2880996621220149   F   F   F
  0.3302897167990437  0.6670155945488787  0.7012283936140733   F   F   F
  0.5575109071554536  0.8902632773973309  0.4288923901180794   F   F   F
  0.4464237314605057  0.7762762065823310  0.5479201343898694   F   F   F
  0.6571105049740851  0.6559679715607487  0.3045767626059330   F   F   F
  0.6634588640126466  0.6663110716040848  0.7009442871346963   F   F   F
  0.8898412413434897  0.8885114087452877  0.4293782681077687   F   F   F
  0.7785892558595933  0.7774769268292374  0.5493976153376181   F   F   F
  0.4451052928750627  0.4444070680316017  0.3357144067956225   T   T   T
 
  0.00000000E+00  0.00000000E+00  0.00000000E+00
  0.00000000E+00  0.00000000E+00  0.00000000E+00
  0.00000000E+00  0.00000000E+00  0.00000000E+00
  0.00000000E+00  0.00000000E+00  0.00000000E+00
  0.00000000E+00  0.00000000E+00  0.00000000E+00
  0.00000000E+00  0.00000000E+00  0.00000000E+00
  0.00000000E+00  0.00000000E+00  0.00000000E+00
  0.00000000E+00  0.00000000E+00  0.00000000E+00
  0.00000000E+00  0.00000000E+00  0.00000000E+00
  0.00000000E+00  0.00000000E+00  0.00000000E+00
  0.00000000E+00  0.00000000E+00  0.00000000E+00
  0.00000000E+00  0.00000000E+00  0.00000000E+00
  0.00000000E+00  0.00000000E+00  0.00000000E+00
  0.00000000E+00  0.00000000E+00  0.00000000E+00
  0.00000000E+00  0.00000000E+00  0.00000000E+00
  0.00000000E+00  0.00000000E+00  0.00000000E+00
  0.00000000E+00  0.00000000E+00  0.00000000E+00
  0.00000000E+00  0.00000000E+00  0.00000000E+00
  0.00000000E+00  0.00000000E+00  0.00000000E+00
  0.00000000E+00  0.00000000E+00  0.00000000E+00
  0.00000000E+00  0.00000000E+00  0.00000000E+00
  0.00000000E+00  0.00000000E+00  0.00000000E+00
  0.00000000E+00  0.00000000E+00  0.00000000E+00
  0.00000000E+00  0.00000000E+00  0.00000000E+00
  0.00000000E+00  0.00000000E+00  0.00000000E+00
  0.00000000E+00  0.00000000E+00  0.00000000E+00
  0.00000000E+00  0.00000000E+00  0.00000000E+00
  0.00000000E+00  0.00000000E+00  0.00000000E+00
  0.00000000E+00  0.00000000E+00  0.00000000E+00
  0.00000000E+00  0.00000000E+00  0.00000000E+00
  0.00000000E+00  0.00000000E+00  0.00000000E+00
  0.00000000E+00  0.00000000E+00  0.00000000E+00
  0.00000000E+00  0.00000000E+00  0.00000000E+00
  0.00000000E+00  0.00000000E+00  0.00000000E+00
  0.00000000E+00  0.00000000E+00  0.00000000E+00
  0.00000000E+00  0.00000000E+00  0.00000000E+00
  0.00000000E+00  0.00000000E+00  0.00000000E+00
  0.00000000E+00  0.00000000E+00  0.00000000E+00
  0.00000000E+00  0.00000000E+00  0.00000000E+00
  0.00000000E+00  0.00000000E+00  0.00000000E+00
  0.00000000E+00  0.00000000E+00  0.00000000E+00
  0.00000000E+00  0.00000000E+00  0.00000000E+00
  0.00000000E+00  0.00000000E+00  0.00000000E+00
  0.00000000E+00  0.00000000E+00  0.00000000E+00
  0.00000000E+00  0.00000000E+00  0.00000000E+00
  0.00000000E+00  0.00000000E+00  0.00000000E+00
  0.00000000E+00  0.00000000E+00  0.00000000E+00
  0.00000000E+00  0.00000000E+00  0.00000000E+00
  0.00000000E+00  0.00000000E+00  0.00000000E+00
  0.00000000E+00  0.00000000E+00  0.00000000E+00
  0.00000000E+00  0.00000000E+00  0.00000000E+00
  0.00000000E+00  0.00000000E+00  0.00000000E+00
  0.00000000E+00  0.00000000E+00  0.00000000E+00
  0.00000000E+00  0.00000000E+00  0.00000000E+00
  0.00000000E+00  0.00000000E+00  0.00000000E+00
  0.00000000E+00  0.00000000E+00  0.00000000E+00
  0.00000000E+00  0.00000000E+00  0.00000000E+00
  0.00000000E+00  0.00000000E+00  0.00000000E+00
  0.00000000E+00  0.00000000E+00  0.00000000E+00
  0.00000000E+00  0.00000000E+00  0.00000000E+00
  0.00000000E+00  0.00000000E+00  0.00000000E+00
  0.00000000E+00  0.00000000E+00  0.00000000E+00
  0.00000000E+00  0.00000000E+00  0.00000000E+00
  0.00000000E+00  0.00000000E+00  0.00000000E+00
