CONTCAR\(2)                             
   1.00000000000000     
    14.1827001571999993    0.0000000000000000    0.0000000000000000
     0.0000000000000000   18.7943000793000010    0.0000000000000000
     0.0000000000000000    0.0000000000000000   21.0296001433999997
   Ta   Pt   Se   O    H 
    16     8    56     2     1
Direct
  0.1881739895940335  0.4230908731741879  0.5625222970350841
  0.0629846447052360  0.5791054059134949  0.4372162051207590
  0.0633090721227110  0.9050356398328948  0.4893194014824085
  0.1880926653759044  0.0973733088366738  0.5097587830624889
  0.4382537413537330  0.4227401436379599  0.5625472796211946
  0.3121807911604303  0.5792033633858005  0.4369008573713046
  0.3135199119659615  0.9050008791855052  0.4893564985060859
  0.4379166464220396  0.0973255824212963  0.5098219538566346
  0.6880447178921898  0.4230255132962186  0.5625040654968375
  0.5634354260570182  0.5791073149083068  0.4369523479795266
  0.5629556145884282  0.9049867400850987  0.4892465669926407
  0.6881161559373646  0.0974103860068677  0.5097389339958391
  0.9381670872889439  0.4230751700920196  0.5624380574285186
  0.8130099601081683  0.5790835729560377  0.4371213124844899
  0.8131339128845569  0.9051707744144828  0.4892049876778491
  0.9381045259124365  0.0974667769216884  0.5097358661454934
  0.0626618084621227  0.2268226166928780  0.5345777914213194
  0.1880341053433654  0.7754456911054183  0.4645150498289628
  0.3127144500712625  0.2267635954014599  0.5344557107113922
  0.4381775690452806  0.7755907168990356  0.4644111449078678
  0.5626532211228956  0.2269652825933470  0.5347209723674888
  0.6884152662937613  0.7756206227147029  0.4643981007920235
  0.8127904399290685  0.2266818988509954  0.5344939269416299
  0.9382716425669954  0.7755509402334113  0.4645691327082940
  0.0630104092563404  0.6980399746341139  0.5142579224313504
  0.1877009196902708  0.3043859543840375  0.4852127755857260
  0.0630988568840052  0.4358138056364344  0.4682482015478400
  0.1878767352888284  0.5663438650880599  0.5314933507246543
  0.1874904520246599  0.5264955628381157  0.3575908910898229
  0.0632363677136070  0.4754869159827099  0.6420036502818219
  0.1881561287455503  0.9845230209627063  0.4293533231617810
  0.0631787781398090  0.0179472511001869  0.5696122724140216
  0.0631662155763700  0.3368998943167939  0.6143814891443975
  0.1877902980176292  0.6654510306890568  0.3851299592817577
  0.1877078311289101  0.1736603623769319  0.6075806154052887
  0.0631985300591190  0.8287782418779253  0.3915336734521190
  0.0632057398972625  0.1468902965870468  0.4325798746225890
  0.1883517544915765  0.8556271851704470  0.5665293093614856
  0.3130205584246444  0.6980697100599155  0.5138266552729683
  0.4377022228732061  0.3043759860590868  0.4850473109427813
  0.3128698247389861  0.4358543174353511  0.4682155710405672
  0.4379736011299183  0.5651851422063326  0.5311115311556972
  0.4377085777280028  0.5262236328014341  0.3582033413257845
  0.3134368095932762  0.4753189289787376  0.6421248799170913
  0.4379975912573370  0.9846168035270171  0.4290808605886576
  0.3131553235190505  0.0178729842894074  0.5697262296808018
  0.3131297078020941  0.3366988779513601  0.6143518065795024
  0.4378634307716247  0.6650304107655115  0.3851661786753177
  0.4375525277580191  0.1735740214276065  0.6076661772202266
  0.3130847616429808  0.8287573912986274  0.3915378629955137
  0.3130928785534114  0.1467337551732348  0.4324163425910507
  0.4382588930864002  0.8557682856362027  0.5665023395170697
  0.5634588206273545  0.6982829046235585  0.5134463164936519
  0.6879441294741102  0.3043311326684036  0.4852575972183507
  0.5632342380778530  0.4356436874604632  0.4680409562687310
  0.6878519687731063  0.5662571364562231  0.5313834646090456
  0.6878128979193294  0.5267085329100260  0.3574623843052518
  0.5632347243116983  0.4756993073161830  0.6418982505318696
  0.6880108925099959  0.9845937524706175  0.4292859984973600
  0.5631437553428843  0.0179084181363131  0.5695559713178514
  0.5631491642498352  0.3364020321815968  0.6142157768603200
  0.6882388788025284  0.6651542607680797  0.3848078963319705
  0.6878103550802046  0.1736031527777231  0.6076088504305117
  0.5633217745741819  0.8287092953842456  0.3914103331180848
  0.5630519850865594  0.1470329837536918  0.4327458853155045
  0.6882279133298143  0.8558409631556868  0.5664862184261279
  0.8132183564271108  0.6980193388705743  0.5139866170561254
  0.9377760217040615  0.3043892367647738  0.4851533900759735
  0.8129580198368763  0.4359092645481449  0.4682680050268383
  0.9378080955592911  0.5662302466305348  0.5313779360464812
  0.9378324314275573  0.5265131928200749  0.3578206273015143
  0.8132390062824432  0.4752811769912237  0.6421408638738221
  0.9381425276611667  0.9845910918639296  0.4292472276346757
  0.8132026629332965  0.0179831091199688  0.5696068811341165
  0.8132019824385857  0.3370055644827264  0.6144236447137477
  0.9381245556557130  0.6650866635015340  0.3850683764028218
  0.9376857677343784  0.1737367973920386  0.6076398629466578
  0.8133286950700633  0.8287440440857260  0.3914916720556438
  0.8131284913227338  0.1466564722974470  0.4323504897189668
  0.9380108496783890  0.8557884717368505  0.5665029090969740
  0.4155581690303533  0.7177044423220431  0.6590083792913208
  0.4589544428931221  0.6553268167372174  0.6693435048870424
  0.4571457721885631  0.6296902659582361  0.6270616860687852
 
  0.00000000E+00  0.00000000E+00  0.00000000E+00
  0.00000000E+00  0.00000000E+00  0.00000000E+00
  0.00000000E+00  0.00000000E+00  0.00000000E+00
  0.00000000E+00  0.00000000E+00  0.00000000E+00
  0.00000000E+00  0.00000000E+00  0.00000000E+00
  0.00000000E+00  0.00000000E+00  0.00000000E+00
  0.00000000E+00  0.00000000E+00  0.00000000E+00
  0.00000000E+00  0.00000000E+00  0.00000000E+00
  0.00000000E+00  0.00000000E+00  0.00000000E+00
  0.00000000E+00  0.00000000E+00  0.00000000E+00
  0.00000000E+00  0.00000000E+00  0.00000000E+00
  0.00000000E+00  0.00000000E+00  0.00000000E+00
  0.00000000E+00  0.00000000E+00  0.00000000E+00
  0.00000000E+00  0.00000000E+00  0.00000000E+00
  0.00000000E+00  0.00000000E+00  0.00000000E+00
  0.00000000E+00  0.00000000E+00  0.00000000E+00
  0.00000000E+00  0.00000000E+00  0.00000000E+00
  0.00000000E+00  0.00000000E+00  0.00000000E+00
  0.00000000E+00  0.00000000E+00  0.00000000E+00
  0.00000000E+00  0.00000000E+00  0.00000000E+00
  0.00000000E+00  0.00000000E+00  0.00000000E+00
  0.00000000E+00  0.00000000E+00  0.00000000E+00
  0.00000000E+00  0.00000000E+00  0.00000000E+00
  0.00000000E+00  0.00000000E+00  0.00000000E+00
  0.00000000E+00  0.00000000E+00  0.00000000E+00
  0.00000000E+00  0.00000000E+00  0.00000000E+00
  0.00000000E+00  0.00000000E+00  0.00000000E+00
  0.00000000E+00  0.00000000E+00  0.00000000E+00
  0.00000000E+00  0.00000000E+00  0.00000000E+00
  0.00000000E+00  0.00000000E+00  0.00000000E+00
  0.00000000E+00  0.00000000E+00  0.00000000E+00
  0.00000000E+00  0.00000000E+00  0.00000000E+00
  0.00000000E+00  0.00000000E+00  0.00000000E+00
  0.00000000E+00  0.00000000E+00  0.00000000E+00
  0.00000000E+00  0.00000000E+00  0.00000000E+00
  0.00000000E+00  0.00000000E+00  0.00000000E+00
  0.00000000E+00  0.00000000E+00  0.00000000E+00
  0.00000000E+00  0.00000000E+00  0.00000000E+00
  0.00000000E+00  0.00000000E+00  0.00000000E+00
  0.00000000E+00  0.00000000E+00  0.00000000E+00
  0.00000000E+00  0.00000000E+00  0.00000000E+00
  0.00000000E+00  0.00000000E+00  0.00000000E+00
  0.00000000E+00  0.00000000E+00  0.00000000E+00
  0.00000000E+00  0.00000000E+00  0.00000000E+00
  0.00000000E+00  0.00000000E+00  0.00000000E+00
  0.00000000E+00  0.00000000E+00  0.00000000E+00
  0.00000000E+00  0.00000000E+00  0.00000000E+00
  0.00000000E+00  0.00000000E+00  0.00000000E+00
  0.00000000E+00  0.00000000E+00  0.00000000E+00
  0.00000000E+00  0.00000000E+00  0.00000000E+00
  0.00000000E+00  0.00000000E+00  0.00000000E+00
  0.00000000E+00  0.00000000E+00  0.00000000E+00
  0.00000000E+00  0.00000000E+00  0.00000000E+00
  0.00000000E+00  0.00000000E+00  0.00000000E+00
  0.00000000E+00  0.00000000E+00  0.00000000E+00
  0.00000000E+00  0.00000000E+00  0.00000000E+00
  0.00000000E+00  0.00000000E+00  0.00000000E+00
  0.00000000E+00  0.00000000E+00  0.00000000E+00
  0.00000000E+00  0.00000000E+00  0.00000000E+00
  0.00000000E+00  0.00000000E+00  0.00000000E+00
  0.00000000E+00  0.00000000E+00  0.00000000E+00
  0.00000000E+00  0.00000000E+00  0.00000000E+00
  0.00000000E+00  0.00000000E+00  0.00000000E+00
  0.00000000E+00  0.00000000E+00  0.00000000E+00
  0.00000000E+00  0.00000000E+00  0.00000000E+00
  0.00000000E+00  0.00000000E+00  0.00000000E+00
  0.00000000E+00  0.00000000E+00  0.00000000E+00
  0.00000000E+00  0.00000000E+00  0.00000000E+00
  0.00000000E+00  0.00000000E+00  0.00000000E+00
  0.00000000E+00  0.00000000E+00  0.00000000E+00
  0.00000000E+00  0.00000000E+00  0.00000000E+00
  0.00000000E+00  0.00000000E+00  0.00000000E+00
  0.00000000E+00  0.00000000E+00  0.00000000E+00
  0.00000000E+00  0.00000000E+00  0.00000000E+00
  0.00000000E+00  0.00000000E+00  0.00000000E+00
  0.00000000E+00  0.00000000E+00  0.00000000E+00
  0.00000000E+00  0.00000000E+00  0.00000000E+00
  0.00000000E+00  0.00000000E+00  0.00000000E+00
  0.00000000E+00  0.00000000E+00  0.00000000E+00
  0.00000000E+00  0.00000000E+00  0.00000000E+00
  0.00000000E+00  0.00000000E+00  0.00000000E+00
  0.00000000E+00  0.00000000E+00  0.00000000E+00
  0.00000000E+00  0.00000000E+00  0.00000000E+00
