CONTCAR\(12)                            
   1.00000000000000     
    13.8729000092000003    0.0000000000000000    0.0000000000000000
     0.0000000000000000   15.7866001129000004    0.0000000000000000
     0.0000000000000000    0.0000000000000000   24.6361007689999987
   Ag   Cl   O 
    32    32    64
Direct
  0.0625000000000000  0.1500315738386548  0.4457064944120118
  0.1874999910000028  0.0240984241613502  0.5543035315879935
  0.3125000089999972  0.1500315738386548  0.4457064944120118
  0.4374999910000028  0.0240984241613502  0.5543035315879935
  0.5625000089999972  0.1500315738386548  0.4457064944120118
  0.6874999910000028  0.0240984241613502  0.5543035315879935
  0.8125000089999972  0.1500315738386548  0.4457064944120118
  0.9375000260000022  0.0240984241613502  0.5543035315879935
  0.0625000000000000  0.4000316038386502  0.4457064944120118
  0.1874999910000028  0.2740984411613481  0.5543035315879935
  0.3125000089999972  0.4000316038386502  0.4457064944120118
  0.4374999910000028  0.2740984411613481  0.5543035315879935
  0.5625000089999972  0.4000316038386502  0.4457064944120118
  0.6874999910000028  0.2740984411613481  0.5543035315879935
  0.8125000089999972  0.4000316038386502  0.4457064944120118
  0.9375000260000022  0.2740984411613481  0.5543035315879935
  0.0625000000000000  0.6500315738386545  0.4457064944120118
  0.1874999910000028  0.5240984111613459  0.5543035315879935
  0.3125000089999972  0.6500315738386545  0.4457064944120118
  0.4374999910000028  0.5240984111613459  0.5543035315879935
  0.5625000089999972  0.6500315738386545  0.4457064944120118
  0.6874999910000028  0.5240984111613459  0.5543035315879935
  0.8125000089999972  0.6500315738386545  0.4457064944120118
  0.9375000260000022  0.5240984111613459  0.5543035315879935
  0.0625000000000000  0.9000316038386499  0.4457064944120118
  0.1874999910000028  0.7740984411613484  0.5543035315879935
  0.3125000089999972  0.9000316038386499  0.4457064944120118
  0.4374999910000028  0.7740984411613484  0.5543035315879935
  0.5625000089999972  0.9000316038386499  0.4457064944120118
  0.6874999910000028  0.7740984411613484  0.5543035315879935
  0.8125000089999972  0.9000316038386499  0.4457064944120118
  0.9375000260000022  0.7740984411613484  0.5543035315879935
  0.1874999910000028  0.0250020897287163  0.4354328896376223
  0.0625000000000000  0.1491279002712881  0.5645671103623778
  0.4374999910000028  0.0250020897287163  0.4354328896376223
  0.3125000089999972  0.1491279002712881  0.5645671103623778
  0.6874999910000028  0.0250020897287163  0.4354328896376223
  0.5625000089999972  0.1491279002712881  0.5645671103623778
  0.9375000260000022  0.0250020897287163  0.4354328896376223
  0.8125000089999972  0.1491279002712881  0.5645671103623778
  0.1874999910000028  0.2750020997287100  0.4354328896376223
  0.0625000000000000  0.3991279152712858  0.5645671103623778
  0.4374999910000028  0.2750020997287100  0.4354328896376223
  0.3125000089999972  0.3991279152712858  0.5645671103623778
  0.6874999910000028  0.2750020997287100  0.4354328896376223
  0.5625000089999972  0.3991279152712858  0.5645671103623778
  0.9375000260000022  0.2750020997287100  0.4354328896376223
  0.8125000089999972  0.3991279152712858  0.5645671103623778
  0.1874999910000028  0.5250021297287125  0.4354328896376223
  0.0625000000000000  0.6491279152712858  0.5645671103623778
  0.4374999910000028  0.5250021297287125  0.4354328896376223
  0.3125000089999972  0.6491279152712858  0.5645671103623778
  0.6874999910000028  0.5250021297287125  0.4354328896376223
  0.5625000089999972  0.6491279152712858  0.5645671103623778
  0.9375000260000022  0.5250021297287125  0.4354328896376223
  0.8125000089999972  0.6491279152712858  0.5645671103623778
  0.1874999910000028  0.7750020997287100  0.4354328896376223
  0.0625000000000000  0.8991278852712833  0.5645671103623778
  0.4374999910000028  0.7750020997287100  0.4354328896376223
  0.3125000089999972  0.8991278852712833  0.5645671103623778
  0.6874999910000028  0.7750020997287100  0.4354328896376223
  0.5625000089999972  0.8991278852712833  0.5645671103623778
  0.9375000260000022  0.7750020997287100  0.4354328896376223
  0.8125000089999972  0.8991278852712833  0.5645671103623778
  0.0625000000000000  0.1472296126848772  0.3276963593914003
  0.0625000000000000  0.2147014721349971  0.3021281119641687
  0.1874999910000028  0.2094285278650010  0.6978819140358294
  0.1874999910000028  0.2768804063151268  0.6722936146086015
  0.3125000089999972  0.1472296126848772  0.3276963593914003
  0.3125000089999972  0.2147014721349971  0.3021281119641687
  0.4374999910000028  0.2094285278650010  0.6978819140358294
  0.4374999910000028  0.2768804063151268  0.6722936146086015
  0.5625000089999972  0.1472296126848772  0.3276963593914003
  0.5625000089999972  0.2147014721349971  0.3021281119641687
  0.6874999910000028  0.2094285278650010  0.6978819140358294
  0.6874999910000028  0.2768804063151268  0.6722936146086015
  0.8125000089999972  0.1472296126848772  0.3276963593914003
  0.8125000089999972  0.2147014721349971  0.3021281119641687
  0.9375000260000022  0.2094285278650010  0.6978819140358294
  0.9375000260000022  0.2768804063151268  0.6722936146086015
  0.0625000000000000  0.3972296126848772  0.3276963593914003
  0.0625000000000000  0.4647014721349972  0.3021281119641687
  0.1874999910000028  0.4594285428649986  0.6978819140358294
  0.1874999910000028  0.5268803763151244  0.6722936146086015
  0.3125000089999972  0.3972296126848772  0.3276963593914003
  0.3125000089999972  0.4647014721349972  0.3021281119641687
  0.4374999910000028  0.4594285428649986  0.6978819140358294
  0.4374999910000028  0.5268803763151244  0.6722936146086015
  0.5625000089999972  0.3972296126848772  0.3276963593914003
  0.5625000089999972  0.4647014721349972  0.3021281119641687
  0.6874999910000028  0.4594285428649986  0.6978819140358294
  0.6874999910000028  0.5268803763151244  0.6722936146086015
  0.8125000089999972  0.3972296126848772  0.3276963593914003
  0.8125000089999972  0.4647014721349972  0.3021281119641687
  0.9375000260000022  0.4594285428649986  0.6978819140358294
  0.9375000260000022  0.5268803763151244  0.6722936146086015
  0.0625000000000000  0.6472296126848771  0.3276963593914003
  0.0625000000000000  0.7147015031350031  0.3021281119641687
  0.1874999910000028  0.7094285128650034  0.6978819140358294
  0.1874999910000028  0.7768803463151219  0.6722936146086015
  0.3125000089999972  0.6472296126848771  0.3276963593914003
  0.3125000089999972  0.7147015031350031  0.3021281119641687
  0.4374999910000028  0.7094285128650034  0.6978819140358294
  0.4374999910000028  0.7768803463151219  0.6722936146086015
  0.5625000089999972  0.6472296126848771  0.3276963593914003
  0.5625000089999972  0.7147015031350031  0.3021281119641687
  0.6874999910000028  0.7094285128650034  0.6978819140358294
  0.6874999910000028  0.7768803463151219  0.6722936146086015
  0.8125000089999972  0.6472296126848771  0.3276963593914003
  0.8125000089999972  0.7147015031350031  0.3021281119641687
  0.9375000260000022  0.7094285128650034  0.6978819140358294
  0.9375000260000022  0.7768803463151219  0.6722936146086015
  0.0625000000000000  0.8972296426848796  0.3276963593914003
  0.0625000000000000  0.9647014721349970  0.3021281119641687
  0.1874999910000028  0.9594285428649988  0.6978819140358294
  0.1874999910000028  0.0268803613151267  0.6722936146086015
  0.3125000089999972  0.8972296426848796  0.3276963593914003
  0.3125000089999972  0.9647014721349970  0.3021281119641687
  0.4374999910000028  0.9594285428649988  0.6978819140358294
  0.4374999910000028  0.0268803613151267  0.6722936146086015
  0.5625000089999972  0.8972296426848796  0.3276963593914003
  0.5625000089999972  0.9647014721349970  0.3021281119641687
  0.6874999910000028  0.9594285428649988  0.6978819140358294
  0.6874999910000028  0.0268803613151267  0.6722936146086015
  0.8125000089999972  0.8972296426848796  0.3276963593914003
  0.8125000089999972  0.9647014721349970  0.3021281119641687
  0.9375000260000022  0.9594285428649988  0.6978819140358294
  0.9375000260000022  0.0268803613151267  0.6722936146086015
 
  0.00000000E+00  0.00000000E+00  0.00000000E+00
  0.00000000E+00  0.00000000E+00  0.00000000E+00
  0.00000000E+00  0.00000000E+00  0.00000000E+00
  0.00000000E+00  0.00000000E+00  0.00000000E+00
  0.00000000E+00  0.00000000E+00  0.00000000E+00
  0.00000000E+00  0.00000000E+00  0.00000000E+00
  0.00000000E+00  0.00000000E+00  0.00000000E+00
  0.00000000E+00  0.00000000E+00  0.00000000E+00
  0.00000000E+00  0.00000000E+00  0.00000000E+00
  0.00000000E+00  0.00000000E+00  0.00000000E+00
  0.00000000E+00  0.00000000E+00  0.00000000E+00
  0.00000000E+00  0.00000000E+00  0.00000000E+00
  0.00000000E+00  0.00000000E+00  0.00000000E+00
  0.00000000E+00  0.00000000E+00  0.00000000E+00
  0.00000000E+00  0.00000000E+00  0.00000000E+00
  0.00000000E+00  0.00000000E+00  0.00000000E+00
  0.00000000E+00  0.00000000E+00  0.00000000E+00
  0.00000000E+00  0.00000000E+00  0.00000000E+00
  0.00000000E+00  0.00000000E+00  0.00000000E+00
  0.00000000E+00  0.00000000E+00  0.00000000E+00
  0.00000000E+00  0.00000000E+00  0.00000000E+00
  0.00000000E+00  0.00000000E+00  0.00000000E+00
  0.00000000E+00  0.00000000E+00  0.00000000E+00
  0.00000000E+00  0.00000000E+00  0.00000000E+00
  0.00000000E+00  0.00000000E+00  0.00000000E+00
  0.00000000E+00  0.00000000E+00  0.00000000E+00
  0.00000000E+00  0.00000000E+00  0.00000000E+00
  0.00000000E+00  0.00000000E+00  0.00000000E+00
  0.00000000E+00  0.00000000E+00  0.00000000E+00
  0.00000000E+00  0.00000000E+00  0.00000000E+00
  0.00000000E+00  0.00000000E+00  0.00000000E+00
  0.00000000E+00  0.00000000E+00  0.00000000E+00
  0.00000000E+00  0.00000000E+00  0.00000000E+00
  0.00000000E+00  0.00000000E+00  0.00000000E+00
  0.00000000E+00  0.00000000E+00  0.00000000E+00
  0.00000000E+00  0.00000000E+00  0.00000000E+00
  0.00000000E+00  0.00000000E+00  0.00000000E+00
  0.00000000E+00  0.00000000E+00  0.00000000E+00
  0.00000000E+00  0.00000000E+00  0.00000000E+00
  0.00000000E+00  0.00000000E+00  0.00000000E+00
  0.00000000E+00  0.00000000E+00  0.00000000E+00
  0.00000000E+00  0.00000000E+00  0.00000000E+00
  0.00000000E+00  0.00000000E+00  0.00000000E+00
  0.00000000E+00  0.00000000E+00  0.00000000E+00
  0.00000000E+00  0.00000000E+00  0.00000000E+00
  0.00000000E+00  0.00000000E+00  0.00000000E+00
  0.00000000E+00  0.00000000E+00  0.00000000E+00
  0.00000000E+00  0.00000000E+00  0.00000000E+00
  0.00000000E+00  0.00000000E+00  0.00000000E+00
  0.00000000E+00  0.00000000E+00  0.00000000E+00
  0.00000000E+00  0.00000000E+00  0.00000000E+00
  0.00000000E+00  0.00000000E+00  0.00000000E+00
  0.00000000E+00  0.00000000E+00  0.00000000E+00
  0.00000000E+00  0.00000000E+00  0.00000000E+00
  0.00000000E+00  0.00000000E+00  0.00000000E+00
  0.00000000E+00  0.00000000E+00  0.00000000E+00
  0.00000000E+00  0.00000000E+00  0.00000000E+00
  0.00000000E+00  0.00000000E+00  0.00000000E+00
  0.00000000E+00  0.00000000E+00  0.00000000E+00
  0.00000000E+00  0.00000000E+00  0.00000000E+00
  0.00000000E+00  0.00000000E+00  0.00000000E+00
  0.00000000E+00  0.00000000E+00  0.00000000E+00
  0.00000000E+00  0.00000000E+00  0.00000000E+00
  0.00000000E+00  0.00000000E+00  0.00000000E+00
  0.00000000E+00  0.00000000E+00  0.00000000E+00
  0.00000000E+00  0.00000000E+00  0.00000000E+00
  0.00000000E+00  0.00000000E+00  0.00000000E+00
  0.00000000E+00  0.00000000E+00  0.00000000E+00
  0.00000000E+00  0.00000000E+00  0.00000000E+00
  0.00000000E+00  0.00000000E+00  0.00000000E+00
  0.00000000E+00  0.00000000E+00  0.00000000E+00
  0.00000000E+00  0.00000000E+00  0.00000000E+00
  0.00000000E+00  0.00000000E+00  0.00000000E+00
  0.00000000E+00  0.00000000E+00  0.00000000E+00
  0.00000000E+00  0.00000000E+00  0.00000000E+00
  0.00000000E+00  0.00000000E+00  0.00000000E+00
  0.00000000E+00  0.00000000E+00  0.00000000E+00
  0.00000000E+00  0.00000000E+00  0.00000000E+00
  0.00000000E+00  0.00000000E+00  0.00000000E+00
  0.00000000E+00  0.00000000E+00  0.00000000E+00
  0.00000000E+00  0.00000000E+00  0.00000000E+00
  0.00000000E+00  0.00000000E+00  0.00000000E+00
  0.00000000E+00  0.00000000E+00  0.00000000E+00
  0.00000000E+00  0.00000000E+00  0.00000000E+00
  0.00000000E+00  0.00000000E+00  0.00000000E+00
  0.00000000E+00  0.00000000E+00  0.00000000E+00
  0.00000000E+00  0.00000000E+00  0.00000000E+00
  0.00000000E+00  0.00000000E+00  0.00000000E+00
  0.00000000E+00  0.00000000E+00  0.00000000E+00
  0.00000000E+00  0.00000000E+00  0.00000000E+00
  0.00000000E+00  0.00000000E+00  0.00000000E+00
  0.00000000E+00  0.00000000E+00  0.00000000E+00
  0.00000000E+00  0.00000000E+00  0.00000000E+00
  0.00000000E+00  0.00000000E+00  0.00000000E+00
  0.00000000E+00  0.00000000E+00  0.00000000E+00
  0.00000000E+00  0.00000000E+00  0.00000000E+00
  0.00000000E+00  0.00000000E+00  0.00000000E+00
  0.00000000E+00  0.00000000E+00  0.00000000E+00
  0.00000000E+00  0.00000000E+00  0.00000000E+00
  0.00000000E+00  0.00000000E+00  0.00000000E+00
  0.00000000E+00  0.00000000E+00  0.00000000E+00
  0.00000000E+00  0.00000000E+00  0.00000000E+00
  0.00000000E+00  0.00000000E+00  0.00000000E+00
  0.00000000E+00  0.00000000E+00  0.00000000E+00
  0.00000000E+00  0.00000000E+00  0.00000000E+00
  0.00000000E+00  0.00000000E+00  0.00000000E+00
  0.00000000E+00  0.00000000E+00  0.00000000E+00
  0.00000000E+00  0.00000000E+00  0.00000000E+00
  0.00000000E+00  0.00000000E+00  0.00000000E+00
  0.00000000E+00  0.00000000E+00  0.00000000E+00
  0.00000000E+00  0.00000000E+00  0.00000000E+00
  0.00000000E+00  0.00000000E+00  0.00000000E+00
  0.00000000E+00  0.00000000E+00  0.00000000E+00
  0.00000000E+00  0.00000000E+00  0.00000000E+00
  0.00000000E+00  0.00000000E+00  0.00000000E+00
  0.00000000E+00  0.00000000E+00  0.00000000E+00
  0.00000000E+00  0.00000000E+00  0.00000000E+00
  0.00000000E+00  0.00000000E+00  0.00000000E+00
  0.00000000E+00  0.00000000E+00  0.00000000E+00
  0.00000000E+00  0.00000000E+00  0.00000000E+00
  0.00000000E+00  0.00000000E+00  0.00000000E+00
  0.00000000E+00  0.00000000E+00  0.00000000E+00
  0.00000000E+00  0.00000000E+00  0.00000000E+00
  0.00000000E+00  0.00000000E+00  0.00000000E+00
  0.00000000E+00  0.00000000E+00  0.00000000E+00
  0.00000000E+00  0.00000000E+00  0.00000000E+00
  0.00000000E+00  0.00000000E+00  0.00000000E+00
  0.00000000E+00  0.00000000E+00  0.00000000E+00
