CONTCAR\(4)                             
   1.00000000000000     
    13.8203001021999992    0.0000000000000000    0.0000000000000000
     1.7075399424000000   15.0073707208999991    0.0000000000000000
     0.0000000000000000    0.0000000000000000   18.4675998688000007
   Nb   Ir   Se   O 
    18     2    40     1
Direct
  0.0834765045125409  0.1769743400354944  0.5039947326557060
  0.0096841588993353  0.9782937785410083  0.4975542865078531
  0.3880609540223747  0.8004267419439254  0.4991141882485360
  0.2914231259031961  0.6223520012664657  0.5012155572413246
  0.2478775951784081  0.9820737171238798  0.4992279191897915
  0.1917721376706814  0.4323617946601658  0.5029318592779093
  0.1504451101759697  0.8024502096886147  0.4994993273410845
  0.0535115253657736  0.6209540784901779  0.5012857157861306
  0.4447765983395153  0.3813738889907994  0.5007677073466017
  0.5865428629602000  0.1824447716535572  0.5034371841232584
  0.5030694364218194  0.9760528000256109  0.4942102176296674
  0.9154668980293095  0.8003534629539588  0.4997544401970828
  0.8024484684667119  0.6221542986440622  0.5035062192857613
  0.7561022662539465  0.9806020391103217  0.4966083901542495
  0.6907642479541823  0.4230255392282907  0.5104022421293195
  0.6522742289734231  0.8025094870119925  0.4995762560214647
  0.5429022920055560  0.6226655985361900  0.5026151301762424
  0.9473287275536326  0.3805323813884829  0.5013526451106727
  0.3707098552913863  0.2079702314676714  0.4987686097477793
  0.8693600671864723  0.2088656106181103  0.5001076423176941
  0.4704723220760203  0.2637429241891827  0.5990109673296000
  0.0900183003986584  0.3306163207382364  0.4211744111145942
  0.3691467102510728  0.0689123208189245  0.5746608603012217
  0.4869555378395021  0.1266974792265011  0.4063589759205555
  0.2668542762098475  0.8656411006115672  0.5978664022968249
  0.2201438519481891  0.2690927497195739  0.5665024992503743
  0.3794191047102545  0.9313267895336216  0.4021912679339603
  0.3295750931991909  0.3357005581137181  0.4110100405350425
  0.1659708712629138  0.6748791039366749  0.5990928878518292
  0.1167086522925608  0.0561135190558801  0.5948697065459186
  0.2414374979093707  0.1376844603394962  0.4255414109153104
  0.2812688309843944  0.7378389133497347  0.4013625235446220
  0.0627906719002718  0.4748504241484669  0.5914501400791249
  0.0199887650312726  0.8646801556145702  0.5985294897306211
  0.1816887520031940  0.5464171657855126  0.4050593554160719
  0.1359503927768888  0.9310270412072307  0.3997134044355208
  0.4123216676620125  0.6721279107627707  0.5970977859074673
  0.0360019351012303  0.7370092988035125  0.4013721017390712
  0.3182553610804519  0.4736426348618601  0.5892521539331815
  0.4321643137285315  0.5341514632004241  0.4235467261837571
  0.9727356307082065  0.2627531130318800  0.5997724303600890
  0.5861611034096610  0.3356546102563044  0.4186938002065421
  0.8682211062561463  0.0690560147134804  0.5758666367092148
  0.9818544940511144  0.1256944745315004  0.4072352508530364
  0.7719535522816309  0.8635279985842221  0.5928322972725445
  0.7224343473591138  0.2650029959632886  0.5750710102138760
  0.8870998226970399  0.9301536633014195  0.4027355257515055
  0.8297912372866512  0.3360252920790061  0.4123217096512681
  0.6664980945343131  0.6713678431423866  0.5956273780350112
  0.6151595079060257  0.0548757514589793  0.5885258843157705
  0.7424735005021008  0.1390019172610462  0.4248368496669636
  0.7874142336279413  0.7385669785542783  0.4072073526252818
  0.5587554110737890  0.4739300905461970  0.5933414695818965
  0.5152442451716928  0.8617514673280795  0.5920684145518453
  0.6818285028806453  0.5417402533725534  0.4151124890252081
  0.6368828447546231  0.9325331355136889  0.4009916810205854
  0.9203618003785236  0.6721484266004164  0.5976178392432695
  0.5308669357778331  0.7394708681353983  0.4068619164888799
  0.8223169298938581  0.4718950518481775  0.5903898177128911
  0.9334579400200020  0.5328634060762382  0.4235427918435489
  0.2348886558988107  0.2618778883052179  0.6570042864179788
 
  0.00000000E+00  0.00000000E+00  0.00000000E+00
  0.00000000E+00  0.00000000E+00  0.00000000E+00
  0.00000000E+00  0.00000000E+00  0.00000000E+00
  0.00000000E+00  0.00000000E+00  0.00000000E+00
  0.00000000E+00  0.00000000E+00  0.00000000E+00
  0.00000000E+00  0.00000000E+00  0.00000000E+00
  0.00000000E+00  0.00000000E+00  0.00000000E+00
  0.00000000E+00  0.00000000E+00  0.00000000E+00
  0.00000000E+00  0.00000000E+00  0.00000000E+00
  0.00000000E+00  0.00000000E+00  0.00000000E+00
  0.00000000E+00  0.00000000E+00  0.00000000E+00
  0.00000000E+00  0.00000000E+00  0.00000000E+00
  0.00000000E+00  0.00000000E+00  0.00000000E+00
  0.00000000E+00  0.00000000E+00  0.00000000E+00
  0.00000000E+00  0.00000000E+00  0.00000000E+00
  0.00000000E+00  0.00000000E+00  0.00000000E+00
  0.00000000E+00  0.00000000E+00  0.00000000E+00
  0.00000000E+00  0.00000000E+00  0.00000000E+00
  0.00000000E+00  0.00000000E+00  0.00000000E+00
  0.00000000E+00  0.00000000E+00  0.00000000E+00
  0.00000000E+00  0.00000000E+00  0.00000000E+00
  0.00000000E+00  0.00000000E+00  0.00000000E+00
  0.00000000E+00  0.00000000E+00  0.00000000E+00
  0.00000000E+00  0.00000000E+00  0.00000000E+00
  0.00000000E+00  0.00000000E+00  0.00000000E+00
  0.00000000E+00  0.00000000E+00  0.00000000E+00
  0.00000000E+00  0.00000000E+00  0.00000000E+00
  0.00000000E+00  0.00000000E+00  0.00000000E+00
  0.00000000E+00  0.00000000E+00  0.00000000E+00
  0.00000000E+00  0.00000000E+00  0.00000000E+00
  0.00000000E+00  0.00000000E+00  0.00000000E+00
  0.00000000E+00  0.00000000E+00  0.00000000E+00
  0.00000000E+00  0.00000000E+00  0.00000000E+00
  0.00000000E+00  0.00000000E+00  0.00000000E+00
  0.00000000E+00  0.00000000E+00  0.00000000E+00
  0.00000000E+00  0.00000000E+00  0.00000000E+00
  0.00000000E+00  0.00000000E+00  0.00000000E+00
  0.00000000E+00  0.00000000E+00  0.00000000E+00
  0.00000000E+00  0.00000000E+00  0.00000000E+00
  0.00000000E+00  0.00000000E+00  0.00000000E+00
  0.00000000E+00  0.00000000E+00  0.00000000E+00
  0.00000000E+00  0.00000000E+00  0.00000000E+00
  0.00000000E+00  0.00000000E+00  0.00000000E+00
  0.00000000E+00  0.00000000E+00  0.00000000E+00
  0.00000000E+00  0.00000000E+00  0.00000000E+00
  0.00000000E+00  0.00000000E+00  0.00000000E+00
  0.00000000E+00  0.00000000E+00  0.00000000E+00
  0.00000000E+00  0.00000000E+00  0.00000000E+00
  0.00000000E+00  0.00000000E+00  0.00000000E+00
  0.00000000E+00  0.00000000E+00  0.00000000E+00
  0.00000000E+00  0.00000000E+00  0.00000000E+00
  0.00000000E+00  0.00000000E+00  0.00000000E+00
  0.00000000E+00  0.00000000E+00  0.00000000E+00
  0.00000000E+00  0.00000000E+00  0.00000000E+00
  0.00000000E+00  0.00000000E+00  0.00000000E+00
  0.00000000E+00  0.00000000E+00  0.00000000E+00
  0.00000000E+00  0.00000000E+00  0.00000000E+00
  0.00000000E+00  0.00000000E+00  0.00000000E+00
  0.00000000E+00  0.00000000E+00  0.00000000E+00
  0.00000000E+00  0.00000000E+00  0.00000000E+00
  0.00000000E+00  0.00000000E+00  0.00000000E+00
