CONTCAR\(19)                            
   1.00000000000000     
    12.0246000290000001    0.0000000000000000    0.0000000000000000
     0.0000000000000000   16.5337009429999995    0.0000000000000000
     0.0000000000000000    0.0000000000000000   21.2348003387000013
   La   C    Br
    24    12    30
Direct
  0.1666764201603627  0.1030458829070995  0.4999934584272621
  0.3332712670402931  0.0000223500503480  0.6395391181470926
  0.1666811137176079  0.3969706544603110  0.5000101833567155
  0.0000846522187863  0.4999891971985789  0.3604708776201089
  0.5000090536902092  0.1030462530462479  0.4999929804177484
  0.6666042247103574  0.0000240078387667  0.6395395965305190
  0.5000161022446576  0.3969705794632452  0.5000097195252415
  0.3334188279342234  0.4999876062109699  0.3604718887242490
  0.8333431570788064  0.1030464842648044  0.4999932590770950
  0.9999375968998551  0.0000215408268464  0.6395392504405748
  0.8333486808528592  0.3969699144005663  0.5000095786476791
  0.6667519491975823  0.4999903464086058  0.3604717584344679
  0.1666764201603627  0.6030458679071019  0.4999934584272621
  0.3332712670402931  0.5000223440503476  0.6395391181470926
  0.1666811137176079  0.8969706834603099  0.5000101833567155
  0.0000846522187863  0.9999891971985790  0.3604708776201089
  0.5000090536902092  0.6030462380462501  0.4999929804177484
  0.6666042247103574  0.5000240018387662  0.6395395965305190
  0.5000161022446576  0.8969706084632439  0.5000097195252415
  0.3334188279342234  0.9999876062109698  0.3604718887242490
  0.8333431570788064  0.6030464692648068  0.4999932590770950
  0.9999375968998551  0.5000215348268459  0.6395392504405748
  0.8333486808528592  0.8969699434005650  0.5000095786476791
  0.6667519491975823  0.9999903464086057  0.3604717584344679
  0.0000210166921119  0.0000043250773335  0.4667499599696594
  0.9999983010137490  0.0000223308939616  0.5332500086946063
  0.3333564159286309  0.0000035019141684  0.4667499749281414
  0.3333327154366535  0.0000216849771145  0.5332498334164801
  0.6666893239790008  0.0000041295137272  0.4667499800623310
  0.6666663973160026  0.0000221565551873  0.5332499906114880
  0.0000210166921119  0.5000043250773335  0.4667499599696594
  0.9999983010137490  0.5000223458939593  0.5332500086946063
  0.3333564159286309  0.5000035019141685  0.4667499749281414
  0.3333327154366535  0.5000216999771121  0.5332498334164801
  0.6666893239790008  0.5000041295137273  0.4667499800623310
  0.6666663973160026  0.5000221715551850  0.5332499906114880
  0.1667382634250399  0.1361179020799005  0.3532001336517200
  0.1667659135200847  0.3638635671474735  0.3532062672655405
  0.1666020610507162  0.1361450455586816  0.6467909827518842
  0.1666174989150662  0.3638939373265362  0.6467988235415947
  0.0000113543050657  0.2500044767599487  0.5000000554388538
  0.5000703356896630  0.1361191067153605  0.3532000939769401
  0.5001024260652492  0.3638625671251227  0.3532063179398920
  0.4999347178728363  0.1361463748141466  0.6467910333438699
  0.4999504633041836  0.3638930727685498  0.6467987838645006
  0.3333439172301919  0.2500050352405092  0.5000000347430529
  0.8334054159348451  0.1361193659071399  0.3532000993800922
  0.8334334489636687  0.3638626221883739  0.3532062871207235
  0.8332695709765845  0.1361462960954065  0.6467910759320287
  0.8332812642265758  0.3638929219994989  0.6467988731708139
  0.6666760934085110  0.2500046602654939  0.5000001018470419
  0.1667382634250399  0.6361179020799004  0.3532001336517200
  0.1667659135200847  0.8638635381474746  0.3532062672655405
  0.1666020610507162  0.6361450315586805  0.6467909827518842
  0.1666174989150662  0.8638939953265340  0.6467988235415947
  0.0000113543050657  0.7500045057599476  0.5000000554388538
  0.5000703356896630  0.6361191067153605  0.3532000939769401
  0.5001024260652492  0.8638625381251239  0.3532063179398920
  0.4999347178728363  0.6361463608141453  0.6467910333438699
  0.4999504633041836  0.8638931307685475  0.6467987838645006
  0.3333439172301919  0.7500050642405081  0.5000000347430529
  0.8334054159348451  0.6361193659071398  0.3532000993800922
  0.8334334489636687  0.8638625931883751  0.3532062871207235
  0.8332695709765845  0.6361462820954052  0.6467910759320287
  0.8332812642265758  0.8638929799994967  0.6467988731708139
  0.6666760934085110  0.7500046892654927  0.5000001018470419
 
  0.00000000E+00  0.00000000E+00  0.00000000E+00
  0.00000000E+00  0.00000000E+00  0.00000000E+00
  0.00000000E+00  0.00000000E+00  0.00000000E+00
  0.00000000E+00  0.00000000E+00  0.00000000E+00
  0.00000000E+00  0.00000000E+00  0.00000000E+00
  0.00000000E+00  0.00000000E+00  0.00000000E+00
  0.00000000E+00  0.00000000E+00  0.00000000E+00
  0.00000000E+00  0.00000000E+00  0.00000000E+00
  0.00000000E+00  0.00000000E+00  0.00000000E+00
  0.00000000E+00  0.00000000E+00  0.00000000E+00
  0.00000000E+00  0.00000000E+00  0.00000000E+00
  0.00000000E+00  0.00000000E+00  0.00000000E+00
  0.00000000E+00  0.00000000E+00  0.00000000E+00
  0.00000000E+00  0.00000000E+00  0.00000000E+00
  0.00000000E+00  0.00000000E+00  0.00000000E+00
  0.00000000E+00  0.00000000E+00  0.00000000E+00
  0.00000000E+00  0.00000000E+00  0.00000000E+00
  0.00000000E+00  0.00000000E+00  0.00000000E+00
  0.00000000E+00  0.00000000E+00  0.00000000E+00
  0.00000000E+00  0.00000000E+00  0.00000000E+00
  0.00000000E+00  0.00000000E+00  0.00000000E+00
  0.00000000E+00  0.00000000E+00  0.00000000E+00
  0.00000000E+00  0.00000000E+00  0.00000000E+00
  0.00000000E+00  0.00000000E+00  0.00000000E+00
  0.00000000E+00  0.00000000E+00  0.00000000E+00
  0.00000000E+00  0.00000000E+00  0.00000000E+00
  0.00000000E+00  0.00000000E+00  0.00000000E+00
  0.00000000E+00  0.00000000E+00  0.00000000E+00
  0.00000000E+00  0.00000000E+00  0.00000000E+00
  0.00000000E+00  0.00000000E+00  0.00000000E+00
  0.00000000E+00  0.00000000E+00  0.00000000E+00
  0.00000000E+00  0.00000000E+00  0.00000000E+00
  0.00000000E+00  0.00000000E+00  0.00000000E+00
  0.00000000E+00  0.00000000E+00  0.00000000E+00
  0.00000000E+00  0.00000000E+00  0.00000000E+00
  0.00000000E+00  0.00000000E+00  0.00000000E+00
  0.00000000E+00  0.00000000E+00  0.00000000E+00
  0.00000000E+00  0.00000000E+00  0.00000000E+00
  0.00000000E+00  0.00000000E+00  0.00000000E+00
  0.00000000E+00  0.00000000E+00  0.00000000E+00
  0.00000000E+00  0.00000000E+00  0.00000000E+00
  0.00000000E+00  0.00000000E+00  0.00000000E+00
  0.00000000E+00  0.00000000E+00  0.00000000E+00
  0.00000000E+00  0.00000000E+00  0.00000000E+00
  0.00000000E+00  0.00000000E+00  0.00000000E+00
  0.00000000E+00  0.00000000E+00  0.00000000E+00
  0.00000000E+00  0.00000000E+00  0.00000000E+00
  0.00000000E+00  0.00000000E+00  0.00000000E+00
  0.00000000E+00  0.00000000E+00  0.00000000E+00
  0.00000000E+00  0.00000000E+00  0.00000000E+00
  0.00000000E+00  0.00000000E+00  0.00000000E+00
  0.00000000E+00  0.00000000E+00  0.00000000E+00
  0.00000000E+00  0.00000000E+00  0.00000000E+00
  0.00000000E+00  0.00000000E+00  0.00000000E+00
  0.00000000E+00  0.00000000E+00  0.00000000E+00
  0.00000000E+00  0.00000000E+00  0.00000000E+00
  0.00000000E+00  0.00000000E+00  0.00000000E+00
  0.00000000E+00  0.00000000E+00  0.00000000E+00
  0.00000000E+00  0.00000000E+00  0.00000000E+00
  0.00000000E+00  0.00000000E+00  0.00000000E+00
  0.00000000E+00  0.00000000E+00  0.00000000E+00
  0.00000000E+00  0.00000000E+00  0.00000000E+00
  0.00000000E+00  0.00000000E+00  0.00000000E+00
  0.00000000E+00  0.00000000E+00  0.00000000E+00
  0.00000000E+00  0.00000000E+00  0.00000000E+00
  0.00000000E+00  0.00000000E+00  0.00000000E+00
