CONTCAR\(11)                            
   1.00000000000000     
    15.5289001464999998    0.0000000000000000    0.0000000000000000
     0.0000000000000000   11.7992000580000003    0.0000000000000000
     0.0000000000000000    0.0000000000000000   21.8141002654999987
   Hf   Te   O    H 
    16    48     2     1
Direct
  0.1853677367581156  0.3286986087604332  0.4227749090503690
  0.0597672922887880  0.0785051387112109  0.5760257219142547
  0.4356462954136560  0.3291954818496471  0.4222429929862292
  0.3109283631732485  0.0788923703975582  0.5759850360755001
  0.6852130759586798  0.3296000462404145  0.4220186955487936
  0.5617589892778684  0.0801610598643995  0.5773061460864581
  0.9348569910533604  0.3285133545306328  0.4224545099199485
  0.8084609073765133  0.0796863622624748  0.5775194820645138
  0.1853014606091780  0.8287604120394194  0.4227586234837436
  0.0603945427747089  0.5787055708449488  0.5762232125412730
  0.4349548087549203  0.8294003639921299  0.4217928705358324
  0.3112340171690353  0.5791782732533242  0.5760391727736530
  0.6849200656462365  0.8288659382749499  0.4216385407148499
  0.5607503450380488  0.5783699478203190  0.5747831115343094
  0.9350416135417471  0.8285424665586467  0.4226844544432974
  0.8111700258434681  0.5775330014120356  0.5755936388627927
  0.1853448130862897  0.0790110522536014  0.4753277994528017
  0.0600589212814315  0.3286711818441047  0.5236089377616164
  0.1859399926924238  0.4581073102091267  0.6536005423404880
  0.0600661080569279  0.4487052749483031  0.3445531320910097
  0.1851518009493290  0.1979439085280177  0.6547920251606135
  0.0603974305008139  0.2086148461501992  0.3442849155332202
  0.4363764409337116  0.0794173819407280  0.4753030562947350
  0.3108060533028498  0.3289933866917501  0.5234836680308291
  0.4353702761784474  0.4579439927138317  0.6534589659229765
  0.3095279774275441  0.4499874199410457  0.3451097121124785
  0.4354266354814217  0.1986157575062272  0.6553639242281769
  0.3107115385914060  0.2098656371812037  0.3433300376395934
  0.6851942333326489  0.0789686220140219  0.4751204030807578
  0.5607599150210717  0.3296362114273716  0.5231459137525177
  0.6844763305889593  0.4692114288904564  0.6567272786265496
  0.5595648424083906  0.4482449379177433  0.3428327530900508
  0.6851951398569550  0.2081380667385995  0.6512017426496598
  0.5605948056566943  0.2080391601658022  0.3445691126227297
  0.9339687857293316  0.0784999651095838  0.4755958509133756
  0.8098538950162594  0.3292997110111047  0.5233581766965907
  0.9359532709402693  0.4595066730309809  0.6557234251841828
  0.8097907992307726  0.4472561846570894  0.3426779857781515
  0.9349448324722944  0.1996009162341383  0.6538091655090082
  0.8104192220761897  0.2070914510341702  0.3450474094590799
  0.1855424795911333  0.5788282037154463  0.4753562528342677
  0.0601196765869184  0.8286199447645205  0.5236169106062345
  0.1855904037044521  0.9580731829066705  0.6534729830766165
  0.0597317561453425  0.9489168966945325  0.3448300930975805
  0.1858906834389594  0.6980696669481111  0.6553971390764310
  0.0604125567349291  0.7088088627482489  0.3442781017335256
  0.4345312729542414  0.5791187765563621  0.4744291225627432
  0.3107311110244207  0.8287594174669906  0.5234490434723585
  0.4354808095558858  0.9582410261731322  0.6538111498045239
  0.3092537561474804  0.9503081576741992  0.3449900486598382
  0.4378439836345812  0.6988174616412964  0.6556292972673958
  0.3101014541137551  0.7100619975168452  0.3428402480771472
  0.6859465770831907  0.5787682892670780  0.4735673975821856
  0.5595620089967566  0.8307657514259347  0.5222218655731334
  0.6846376205454281  0.9657393911852670  0.6598514610481034
  0.5591816116525876  0.9485758550659475  0.3425324502026865
  0.6840605016578677  0.7136498655901430  0.6400144744315257
  0.5603192585691450  0.7081549021537639  0.3444650246408852
  0.9362153963620159  0.5775885596406851  0.4749612477170617
  0.8095057751403315  0.8303089716975112  0.5231612520559816
  0.9350740175094199  0.9596771905950633  0.6556572013774009
  0.8097699257626643  0.9475764656637135  0.3426774862494902
  0.9344254059338365  0.6994030014396120  0.6537106875053843
  0.8107785335830660  0.7072457036118499  0.3453718959491859
  0.6549771592550804  0.7243959499295378  0.7391044021194747
  0.6232381604636542  0.6242173824715723  0.7682394166631609
  0.5609775223628236  0.6281602715041851  0.7594255791486465
 
  0.00000000E+00  0.00000000E+00  0.00000000E+00
  0.00000000E+00  0.00000000E+00  0.00000000E+00
  0.00000000E+00  0.00000000E+00  0.00000000E+00
  0.00000000E+00  0.00000000E+00  0.00000000E+00
  0.00000000E+00  0.00000000E+00  0.00000000E+00
  0.00000000E+00  0.00000000E+00  0.00000000E+00
  0.00000000E+00  0.00000000E+00  0.00000000E+00
  0.00000000E+00  0.00000000E+00  0.00000000E+00
  0.00000000E+00  0.00000000E+00  0.00000000E+00
  0.00000000E+00  0.00000000E+00  0.00000000E+00
  0.00000000E+00  0.00000000E+00  0.00000000E+00
  0.00000000E+00  0.00000000E+00  0.00000000E+00
  0.00000000E+00  0.00000000E+00  0.00000000E+00
  0.00000000E+00  0.00000000E+00  0.00000000E+00
  0.00000000E+00  0.00000000E+00  0.00000000E+00
  0.00000000E+00  0.00000000E+00  0.00000000E+00
  0.00000000E+00  0.00000000E+00  0.00000000E+00
  0.00000000E+00  0.00000000E+00  0.00000000E+00
  0.00000000E+00  0.00000000E+00  0.00000000E+00
  0.00000000E+00  0.00000000E+00  0.00000000E+00
  0.00000000E+00  0.00000000E+00  0.00000000E+00
  0.00000000E+00  0.00000000E+00  0.00000000E+00
  0.00000000E+00  0.00000000E+00  0.00000000E+00
  0.00000000E+00  0.00000000E+00  0.00000000E+00
  0.00000000E+00  0.00000000E+00  0.00000000E+00
  0.00000000E+00  0.00000000E+00  0.00000000E+00
  0.00000000E+00  0.00000000E+00  0.00000000E+00
  0.00000000E+00  0.00000000E+00  0.00000000E+00
  0.00000000E+00  0.00000000E+00  0.00000000E+00
  0.00000000E+00  0.00000000E+00  0.00000000E+00
  0.00000000E+00  0.00000000E+00  0.00000000E+00
  0.00000000E+00  0.00000000E+00  0.00000000E+00
  0.00000000E+00  0.00000000E+00  0.00000000E+00
  0.00000000E+00  0.00000000E+00  0.00000000E+00
  0.00000000E+00  0.00000000E+00  0.00000000E+00
  0.00000000E+00  0.00000000E+00  0.00000000E+00
  0.00000000E+00  0.00000000E+00  0.00000000E+00
  0.00000000E+00  0.00000000E+00  0.00000000E+00
  0.00000000E+00  0.00000000E+00  0.00000000E+00
  0.00000000E+00  0.00000000E+00  0.00000000E+00
  0.00000000E+00  0.00000000E+00  0.00000000E+00
  0.00000000E+00  0.00000000E+00  0.00000000E+00
  0.00000000E+00  0.00000000E+00  0.00000000E+00
  0.00000000E+00  0.00000000E+00  0.00000000E+00
  0.00000000E+00  0.00000000E+00  0.00000000E+00
  0.00000000E+00  0.00000000E+00  0.00000000E+00
  0.00000000E+00  0.00000000E+00  0.00000000E+00
  0.00000000E+00  0.00000000E+00  0.00000000E+00
  0.00000000E+00  0.00000000E+00  0.00000000E+00
  0.00000000E+00  0.00000000E+00  0.00000000E+00
  0.00000000E+00  0.00000000E+00  0.00000000E+00
  0.00000000E+00  0.00000000E+00  0.00000000E+00
  0.00000000E+00  0.00000000E+00  0.00000000E+00
  0.00000000E+00  0.00000000E+00  0.00000000E+00
  0.00000000E+00  0.00000000E+00  0.00000000E+00
  0.00000000E+00  0.00000000E+00  0.00000000E+00
  0.00000000E+00  0.00000000E+00  0.00000000E+00
  0.00000000E+00  0.00000000E+00  0.00000000E+00
  0.00000000E+00  0.00000000E+00  0.00000000E+00
  0.00000000E+00  0.00000000E+00  0.00000000E+00
  0.00000000E+00  0.00000000E+00  0.00000000E+00
  0.00000000E+00  0.00000000E+00  0.00000000E+00
  0.00000000E+00  0.00000000E+00  0.00000000E+00
  0.00000000E+00  0.00000000E+00  0.00000000E+00
  0.00000000E+00  0.00000000E+00  0.00000000E+00
  0.00000000E+00  0.00000000E+00  0.00000000E+00
  0.00000000E+00  0.00000000E+00  0.00000000E+00
