CONTCAR                                 
   1.00000000000000     
    14.1827001571999993    0.0000000000000000    0.0000000000000000
     0.0000000000000000   18.7943000793000010    0.0000000000000000
     0.0000000000000000    0.0000000000000000   21.0296001433999997
   Ta   Pt   Se   O    H 
    16     8    56     2     1
Direct
  0.1877348640811078  0.4226710269388008  0.5615890456485886
  0.0620608685487625  0.5788499659964046  0.4365773463875513
  0.0623118729076424  0.9047599019328985  0.4877563758109957
  0.1878518506552282  0.0978583765181398  0.5071396410053026
  0.4375533277324166  0.4226475100876854  0.5616139459026286
  0.3119829345372622  0.5787308865635694  0.4365325126777719
  0.3124416750522840  0.9047146537387221  0.4873913592448176
  0.4376402674137978  0.0972124844276294  0.5073403316487415
  0.6872340978566669  0.4227476681984683  0.5616762406548901
  0.5620557422616557  0.5787972305924640  0.4366721299444691
  0.5621008532412617  0.9043644975003602  0.4877468853246683
  0.6876648233370233  0.0979923141883461  0.5078351002979318
  0.9376024678601311  0.4228427326562354  0.5615089446623429
  0.8119882069650117  0.5789135000760837  0.4366735222700981
  0.8122980076842552  0.9047037619390821  0.4879560835150869
  0.9378055304452531  0.0975425783682482  0.5078793339430874
  0.0622718551961583  0.2268341410460835  0.5326745875453653
  0.1872275319659238  0.7751795003823787  0.4634932733314230
  0.3125442203154591  0.2266584193949726  0.5323689099483175
  0.4371697892438107  0.7751648311144663  0.4634462177223639
  0.5621175191525793  0.2268476557797641  0.5326168392843513
  0.6872814412040213  0.7752624901191822  0.4638055161114707
  0.8122846319827488  0.2267629027536415  0.5328661555170271
  0.9372496950340334  0.7753245663801991  0.4636543430831779
  0.0621193221346346  0.6979233589224236  0.5132765163542814
  0.1871829432024583  0.3046079962284978  0.4836209848060449
  0.0624325374056625  0.4358593898138707  0.4673934577110330
  0.1870754121486584  0.5661448047046278  0.5308197761425220
  0.1868206719003283  0.5262389711041067  0.3569651794009800
  0.0626528019373183  0.4747662728251925  0.6413130535338283
  0.1872463369571378  0.9840925478130984  0.4274364401918405
  0.0627131227754560  0.0181186654131267  0.5674036873216934
  0.0626835577262028  0.3364481742788570  0.6132289301237819
  0.1870324245668584  0.6645662807920161  0.3840828369549314
  0.1874366687019133  0.1733703096558443  0.6052748463639475
  0.0621505764292465  0.8280383162704936  0.3902607421600237
  0.0619579683993052  0.1470059663874039  0.4302983385647110
  0.1876073238714753  0.8559101214925349  0.5651263374218445
  0.3121537088988404  0.6978622421897711  0.5131485502439759
  0.4373695520499439  0.3044218487817645  0.4836562519683412
  0.3123802800871189  0.4357049705926244  0.4673576055435973
  0.4369914678132005  0.5661286722277481  0.5307919479792886
  0.4369864602196358  0.5259218446661151  0.3573089287770088
  0.3126432455738382  0.4746885868197168  0.6412530907373366
  0.4376476499832975  0.9837497840324261  0.4272375754858970
  0.3117744083318073  0.0179182715955335  0.5666661055021436
  0.3127978450269495  0.3359071937320692  0.6129015921976873
  0.4370257610008039  0.6644167778104659  0.3841004432809356
  0.4371649465085881  0.1719156423749055  0.6053505680849582
  0.3121664079061972  0.8276868279378604  0.3900261373835860
  0.3122925029040147  0.1471027405709719  0.4299577019665577
  0.4371579988429062  0.8560695283613029  0.5653162159759972
  0.5619910563668071  0.6978947242887230  0.5133261996676097
  0.6874968910857646  0.3046616141465748  0.4837994174585347
  0.5624854147119223  0.4357765240305582  0.4673944992884032
  0.6870533970772570  0.5662160994842864  0.5309405810315013
  0.6868922684467549  0.5264392420361617  0.3570083098100056
  0.5624869368286696  0.4749894581610974  0.6411475134735767
  0.6871767383901783  0.9841536075068049  0.4282588495554975
  0.5623009055772883  0.0181306693042487  0.5670063586599881
  0.5623605282639232  0.3358945481976079  0.6129895739148594
  0.6869803707154816  0.6647210552817810  0.3843413237951339
  0.6871192468231513  0.1736904078999402  0.6057794092470701
  0.5624810119105987  0.8276398622259364  0.3903145103030070
  0.5627001222502912  0.1472118969737295  0.4303000763358469
  0.6873624319338205  0.8558215524472033  0.5654875936487542
  0.8122375989973065  0.6979253938562522  0.5134499748439794
  0.9372512530232555  0.3045302861997428  0.4837637924857390
  0.8123596822033150  0.4359419661750863  0.4674890233360784
  0.9371156902799740  0.5661361094897401  0.5307970781899130
  0.9368004302664730  0.5262520156955546  0.3572156024757618
  0.8126911479460404  0.4747261949538242  0.6413844032433502
  0.9371806487022880  0.9841827315839637  0.4278461211057731
  0.8123175015766009  0.0181320005791150  0.5677005108985966
  0.8125809287474155  0.3366693669593346  0.6133461425641329
  0.9369844958420472  0.6646375235488193  0.3842108255923762
  0.9374415575301072  0.1736274115995542  0.6057304530552443
  0.8122037606688721  0.8280992289425271  0.3903832126351574
  0.8125083627406724  0.1468719086517183  0.4305662563750232
  0.9373960171987648  0.8559396085209414  0.5653619477733898
  0.4424447818435553  0.0291959765268501  0.6742057413023588
  0.4468025117442593  0.0253446088308706  0.7399610197798623
  0.4418587843288293  0.9739768618122469  0.7488849734922454
 
  0.00000000E+00  0.00000000E+00  0.00000000E+00
  0.00000000E+00  0.00000000E+00  0.00000000E+00
  0.00000000E+00  0.00000000E+00  0.00000000E+00
  0.00000000E+00  0.00000000E+00  0.00000000E+00
  0.00000000E+00  0.00000000E+00  0.00000000E+00
  0.00000000E+00  0.00000000E+00  0.00000000E+00
  0.00000000E+00  0.00000000E+00  0.00000000E+00
  0.00000000E+00  0.00000000E+00  0.00000000E+00
  0.00000000E+00  0.00000000E+00  0.00000000E+00
  0.00000000E+00  0.00000000E+00  0.00000000E+00
  0.00000000E+00  0.00000000E+00  0.00000000E+00
  0.00000000E+00  0.00000000E+00  0.00000000E+00
  0.00000000E+00  0.00000000E+00  0.00000000E+00
  0.00000000E+00  0.00000000E+00  0.00000000E+00
  0.00000000E+00  0.00000000E+00  0.00000000E+00
  0.00000000E+00  0.00000000E+00  0.00000000E+00
  0.00000000E+00  0.00000000E+00  0.00000000E+00
  0.00000000E+00  0.00000000E+00  0.00000000E+00
  0.00000000E+00  0.00000000E+00  0.00000000E+00
  0.00000000E+00  0.00000000E+00  0.00000000E+00
  0.00000000E+00  0.00000000E+00  0.00000000E+00
  0.00000000E+00  0.00000000E+00  0.00000000E+00
  0.00000000E+00  0.00000000E+00  0.00000000E+00
  0.00000000E+00  0.00000000E+00  0.00000000E+00
  0.00000000E+00  0.00000000E+00  0.00000000E+00
  0.00000000E+00  0.00000000E+00  0.00000000E+00
  0.00000000E+00  0.00000000E+00  0.00000000E+00
  0.00000000E+00  0.00000000E+00  0.00000000E+00
  0.00000000E+00  0.00000000E+00  0.00000000E+00
  0.00000000E+00  0.00000000E+00  0.00000000E+00
  0.00000000E+00  0.00000000E+00  0.00000000E+00
  0.00000000E+00  0.00000000E+00  0.00000000E+00
  0.00000000E+00  0.00000000E+00  0.00000000E+00
  0.00000000E+00  0.00000000E+00  0.00000000E+00
  0.00000000E+00  0.00000000E+00  0.00000000E+00
  0.00000000E+00  0.00000000E+00  0.00000000E+00
  0.00000000E+00  0.00000000E+00  0.00000000E+00
  0.00000000E+00  0.00000000E+00  0.00000000E+00
  0.00000000E+00  0.00000000E+00  0.00000000E+00
  0.00000000E+00  0.00000000E+00  0.00000000E+00
  0.00000000E+00  0.00000000E+00  0.00000000E+00
  0.00000000E+00  0.00000000E+00  0.00000000E+00
  0.00000000E+00  0.00000000E+00  0.00000000E+00
  0.00000000E+00  0.00000000E+00  0.00000000E+00
  0.00000000E+00  0.00000000E+00  0.00000000E+00
  0.00000000E+00  0.00000000E+00  0.00000000E+00
  0.00000000E+00  0.00000000E+00  0.00000000E+00
  0.00000000E+00  0.00000000E+00  0.00000000E+00
  0.00000000E+00  0.00000000E+00  0.00000000E+00
  0.00000000E+00  0.00000000E+00  0.00000000E+00
  0.00000000E+00  0.00000000E+00  0.00000000E+00
  0.00000000E+00  0.00000000E+00  0.00000000E+00
  0.00000000E+00  0.00000000E+00  0.00000000E+00
  0.00000000E+00  0.00000000E+00  0.00000000E+00
  0.00000000E+00  0.00000000E+00  0.00000000E+00
  0.00000000E+00  0.00000000E+00  0.00000000E+00
  0.00000000E+00  0.00000000E+00  0.00000000E+00
  0.00000000E+00  0.00000000E+00  0.00000000E+00
  0.00000000E+00  0.00000000E+00  0.00000000E+00
  0.00000000E+00  0.00000000E+00  0.00000000E+00
  0.00000000E+00  0.00000000E+00  0.00000000E+00
  0.00000000E+00  0.00000000E+00  0.00000000E+00
  0.00000000E+00  0.00000000E+00  0.00000000E+00
  0.00000000E+00  0.00000000E+00  0.00000000E+00
  0.00000000E+00  0.00000000E+00  0.00000000E+00
  0.00000000E+00  0.00000000E+00  0.00000000E+00
  0.00000000E+00  0.00000000E+00  0.00000000E+00
  0.00000000E+00  0.00000000E+00  0.00000000E+00
  0.00000000E+00  0.00000000E+00  0.00000000E+00
  0.00000000E+00  0.00000000E+00  0.00000000E+00
  0.00000000E+00  0.00000000E+00  0.00000000E+00
  0.00000000E+00  0.00000000E+00  0.00000000E+00
  0.00000000E+00  0.00000000E+00  0.00000000E+00
  0.00000000E+00  0.00000000E+00  0.00000000E+00
  0.00000000E+00  0.00000000E+00  0.00000000E+00
  0.00000000E+00  0.00000000E+00  0.00000000E+00
  0.00000000E+00  0.00000000E+00  0.00000000E+00
  0.00000000E+00  0.00000000E+00  0.00000000E+00
  0.00000000E+00  0.00000000E+00  0.00000000E+00
  0.00000000E+00  0.00000000E+00  0.00000000E+00
  0.00000000E+00  0.00000000E+00  0.00000000E+00
  0.00000000E+00  0.00000000E+00  0.00000000E+00
  0.00000000E+00  0.00000000E+00  0.00000000E+00
