CONTCAR\(4)                             
   1.00000000000000     
    12.6022996902000006    0.0000000000000000    0.0000000000000000
     6.3011498451000003   10.9139116778999998    0.0000000000000000
     0.0000000000000000    0.0000000000000000   22.1669998168999989
   Y    Ge   I    O 
    18     9    18     1
Direct
  0.1159385891310496  0.1089991985785017  0.5749112600234209
  0.0048363481058372 -0.0031090115268436  0.4339650745328819
  0.4495781303698629  0.1081169256814916  0.5752242087444791
  0.3374934583347254  0.9978047102355839  0.4346706027525898
  0.7824454175168695  0.1088517896200965  0.5750107841946127
  0.6718032421671353 -0.0019673953849237  0.4347805969732133
  0.1235403182087814  0.4497180594411790  0.5746887953938475
  0.0053682791663844  0.3311017400204240  0.4338655953744273
  0.4342219606292821  0.4496661437793640  0.5746451152528679
  0.3453963359271661  0.3165643349411856  0.4298656332275061
  0.7827099661867885  0.4419447900156569  0.5748642858896705
  0.6708319594227491  0.3311376957351342  0.4339853455860119
  0.1233944407265632  0.7604836370266226  0.5747300119058467
 -0.0095201932202233  0.6714205512170802  0.4298960045317479
  0.4495382345283315  0.7755297156800800  0.5750703851004966
  0.3453581259527120  0.6715445851187625  0.4299862977834917
  0.7819017446716080  0.7755088855688116  0.5751823528336938
  0.6721051269298183  0.6633854843540955  0.4346659633925446
  0.2276496063291870  0.2211525046817480  0.5044690515869711
  0.5584872008187515  0.2211883535909684  0.5045771150949578
  0.8937996198960328  0.2197405991149707  0.5041765513141064
  0.2270466941258628  0.5531896438933529  0.4846650839090842
  0.5587447038732406  0.5535312323535241  0.5044720584461826
  0.8952292149814318  0.5534681222813669  0.5044583840861819
  0.2273037330238469  0.8849108286503616  0.5045289798668303
  0.5603705228980042  0.8864247715727455  0.5042929963407370
  0.8949462836787482  0.8845721464491730  0.5046102078317721
  0.0076408301560947 -0.0076969523941113  0.6626265928598024
  0.1158948839658753  0.1084198095713452  0.3440618041173429
  0.3374090729961868 -0.0021441978551243  0.6647359548351940
  0.4530997737101767  0.1010060530677492  0.3407906500756514
  0.6718297067230407 -0.0022869173896945  0.6649272280389956
  0.7819817632766650  0.1090694948974001  0.3437805213269083
  0.0072768644751658  0.3338756881390846  0.6627269547330031
  0.1160841797799436  0.4411936104876125  0.3426243953792935
  0.3433637633945744  0.3205435846504167  0.6691988545598897
  0.4499666282352448  0.4418630282506290  0.3428151537014097
  0.6660028459879037  0.3338638311685986  0.6627253665867023
  0.7826934042636312  0.4419093067104382  0.3439941277605567
 -0.0059150102854882  0.6698316214671164  0.6692923340325303
  0.1156592105554335  0.7761278708314374  0.3427915410915149
  0.3434866175586507  0.6692036801898116  0.6690821817263070
  0.4532283175882743  0.7787077185017585  0.3409275305044160
  0.6717675076994114  0.6632715037868315  0.6647490408699622
  0.7752469470221237  0.7793551935154757  0.3408136393649151
  0.2269038835165111  0.5534369597127431  0.5732676034654296
 
  0.00000000E+00  0.00000000E+00  0.00000000E+00
  0.00000000E+00  0.00000000E+00  0.00000000E+00
  0.00000000E+00  0.00000000E+00  0.00000000E+00
  0.00000000E+00  0.00000000E+00  0.00000000E+00
  0.00000000E+00  0.00000000E+00  0.00000000E+00
  0.00000000E+00  0.00000000E+00  0.00000000E+00
  0.00000000E+00  0.00000000E+00  0.00000000E+00
  0.00000000E+00  0.00000000E+00  0.00000000E+00
  0.00000000E+00  0.00000000E+00  0.00000000E+00
  0.00000000E+00  0.00000000E+00  0.00000000E+00
  0.00000000E+00  0.00000000E+00  0.00000000E+00
  0.00000000E+00  0.00000000E+00  0.00000000E+00
  0.00000000E+00  0.00000000E+00  0.00000000E+00
  0.00000000E+00  0.00000000E+00  0.00000000E+00
  0.00000000E+00  0.00000000E+00  0.00000000E+00
  0.00000000E+00  0.00000000E+00  0.00000000E+00
  0.00000000E+00  0.00000000E+00  0.00000000E+00
  0.00000000E+00  0.00000000E+00  0.00000000E+00
  0.00000000E+00  0.00000000E+00  0.00000000E+00
  0.00000000E+00  0.00000000E+00  0.00000000E+00
  0.00000000E+00  0.00000000E+00  0.00000000E+00
  0.00000000E+00  0.00000000E+00  0.00000000E+00
  0.00000000E+00  0.00000000E+00  0.00000000E+00
  0.00000000E+00  0.00000000E+00  0.00000000E+00
  0.00000000E+00  0.00000000E+00  0.00000000E+00
  0.00000000E+00  0.00000000E+00  0.00000000E+00
  0.00000000E+00  0.00000000E+00  0.00000000E+00
  0.00000000E+00  0.00000000E+00  0.00000000E+00
  0.00000000E+00  0.00000000E+00  0.00000000E+00
  0.00000000E+00  0.00000000E+00  0.00000000E+00
  0.00000000E+00  0.00000000E+00  0.00000000E+00
  0.00000000E+00  0.00000000E+00  0.00000000E+00
  0.00000000E+00  0.00000000E+00  0.00000000E+00
  0.00000000E+00  0.00000000E+00  0.00000000E+00
  0.00000000E+00  0.00000000E+00  0.00000000E+00
  0.00000000E+00  0.00000000E+00  0.00000000E+00
  0.00000000E+00  0.00000000E+00  0.00000000E+00
  0.00000000E+00  0.00000000E+00  0.00000000E+00
  0.00000000E+00  0.00000000E+00  0.00000000E+00
  0.00000000E+00  0.00000000E+00  0.00000000E+00
  0.00000000E+00  0.00000000E+00  0.00000000E+00
  0.00000000E+00  0.00000000E+00  0.00000000E+00
  0.00000000E+00  0.00000000E+00  0.00000000E+00
  0.00000000E+00  0.00000000E+00  0.00000000E+00
  0.00000000E+00  0.00000000E+00  0.00000000E+00
  0.00000000E+00  0.00000000E+00  0.00000000E+00
