CONTCAR                                 
   1.00000000000000     
    14.2618999480999999    0.0000000000000000    0.0000000000000000
     0.0000000000000000   14.2618999480999999    0.0000000000000000
     0.0000000000000000    0.0000000000000000   18.1191997528000002
   Mn   Se   O    H 
    32    32     1     1
Selective dynamics
Direct
  0.1215974692302808  0.1218668422627900  0.4984224098298284   F   F   F
  0.9967305312958530  0.9970434657776792  0.4992260326533113   F   F   F
  0.3715078985978693  0.1218461773268018  0.4980806073081609   F   F   F
  0.2464479417593637  0.9973970273003161  0.4987371876789410   F   F   F
  0.6216216073584206  0.1227708780267065  0.4977282220177770   F   F   F
  0.4959849034582433  0.9979196960407535  0.4988246716995590   F   F   F
  0.8718708851760013  0.1218038742199568  0.4989118296893906   F   F   F
  0.7473674273465463  0.9978393123774438  0.4995587046641035   F   F   F
  0.1215809977775208  0.3713156434495559  0.4977286111239323   F   F   F
  0.9968615552212867  0.2467875375724873  0.4981273716167607   F   F   F
  0.3711239263931745  0.3714186529737091  0.4966647936557180   F   F   F
  0.2461847252671348  0.2467505834144461  0.4976586652166546   F   F   F
  0.6216698967525929  0.3711132132918777  0.4958954142634511   F   F   F
  0.4962702333828588  0.2472201187141394  0.4972737445344038   F   F   F
  0.8720210720976951  0.3715498073097905  0.4979550873692986   F   F   F
  0.7472744970518903  0.2471550333548365  0.4978824048998831   F   F   F
  0.1217743292010880  0.6213539688125138  0.4984864682737324   F   F   F
  0.9968011998259669  0.4964327252163301  0.4982197932740036   F   F   F
  0.3704934609886550  0.6210313386223518  0.4974815440226052   F   F   F
  0.2461418590600744  0.4960032681343094  0.4973133891388670   F   F   F
  0.6215621452284665  0.6192763144118061  0.4975981511514860   F   F   F
  0.4958663707394351  0.4954427820137752  0.4967882400900763   F   F   F
  0.8726776274105603  0.6210820592678914  0.4989743737338515   F   F   F
  0.7474389335352498  0.4957147181880259  0.4976338867901191   F   F   F
  0.1218201734582465  0.8721709920618821  0.4991929613267629   F   F   F
  0.9977077599357145  0.7466113990196916  0.4986645392498872   F   F   F
  0.3707530988918322  0.8722741850042794  0.4987876228830430   F   F   F
  0.2458254938870752  0.7467075418739171  0.4975620315413707   F   F   F
  0.6214109786774245  0.8736658267229771  0.4995192086501490   F   F   F
  0.4940840227864527  0.7465446509322220  0.4981944273456378   F   F   F
  0.8724402249464234  0.8721740960490649  0.4999748060394538   F   F   F
  0.7487221140941642  0.7464287206412479  0.4996035655126505   F   F   F
  0.1219142541466951  0.9976755079704986  0.5858441650082469   F   F   F
  0.9967075268572714  0.1215464807799478  0.4117042597521774   F   F   F
  0.3715103753191045  0.9969244516811955  0.5856695061373358   F   F   F
  0.2463002628432847  0.1214984855058532  0.4112762653725071   F   F   F
  0.6216572735511505  0.0006886160040764  0.5857462774053204   F   F   F
  0.4968684130937504  0.1215895399622084  0.4110362478606291   F   F   F
  0.8715693177779116  0.9968272610039151  0.5865560399889773   F   F   F
  0.7468194075973003  0.1212501700655437  0.4116576137244223   F   F   F
  0.1216936147494891  0.2468686298364418  0.5849737404665518   F   F   F
  0.9965551403593764  0.3716025077699570  0.4110805224633864   F   F   F
  0.3713920607932906  0.2474831219297258  0.5842400441197029   F   F   F
  0.2459179958468383  0.3712965277063560  0.4102575950868612   F   F   F
  0.6213432318428147  0.2479925632411977  0.5840071190613330   F   F   F
  0.4962312057084333  0.3711272522199707  0.4095100288288478   F   F   F
  0.8722061352844079  0.2473688198568098  0.5851318079217975   F   F   F
  0.7476234069039265  0.3715622647544237  0.4102990852266117   F   F   F
  0.1219720867054903  0.4958716773468126  0.5849328078291691   F   F   F
  0.9967526786178738  0.6222504824074093  0.4116292912697332   F   F   F
  0.3713268884683742  0.4959493057493773  0.5839621178064931   F   F   F
  0.2457425411662797  0.6216006351085497  0.4107818618687560   F   F   F
  0.6215382870762127  0.4938563580136588  0.5835886504871226   F   F   F
  0.4959002376783275  0.6216396190376230  0.4107727853156788   F   F   F
  0.8714119037107437  0.4960512625271178  0.5852930119739028   F   F   F
  0.7481764191026627  0.6208298898830691  0.4115986538294933   F   F   F
  0.1222850179454582  0.7463053260067269  0.5854210507949631   F   F   F
  0.9963310981603755  0.8715052772500655  0.4124910420163417   F   F   F
  0.3693486715588747  0.7463041651284144  0.5847518684112316   F   F   F
  0.2463350073305008  0.8724861882770725  0.4117083588505253   F   F   F
  0.6174642931060106  0.7425549783602605  0.5807258824036197   F   F   F
  0.4951471785410746  0.8728762534282950  0.4120418300977917   F   F   F
  0.8752756838795079  0.7463927918105284  0.5862465972058999   F   F   F
  0.7486205962461554  0.8737015228654244  0.4128845747405876   F   F   F
  0.5900519031392832  0.7171367763092604  0.6853382707919380   T   T   T
  0.6362840860581970  0.7536924548166795  0.7122824115066237   T   T   T
 
  0.00000000E+00  0.00000000E+00  0.00000000E+00
  0.00000000E+00  0.00000000E+00  0.00000000E+00
  0.00000000E+00  0.00000000E+00  0.00000000E+00
  0.00000000E+00  0.00000000E+00  0.00000000E+00
  0.00000000E+00  0.00000000E+00  0.00000000E+00
  0.00000000E+00  0.00000000E+00  0.00000000E+00
  0.00000000E+00  0.00000000E+00  0.00000000E+00
  0.00000000E+00  0.00000000E+00  0.00000000E+00
  0.00000000E+00  0.00000000E+00  0.00000000E+00
  0.00000000E+00  0.00000000E+00  0.00000000E+00
  0.00000000E+00  0.00000000E+00  0.00000000E+00
  0.00000000E+00  0.00000000E+00  0.00000000E+00
  0.00000000E+00  0.00000000E+00  0.00000000E+00
  0.00000000E+00  0.00000000E+00  0.00000000E+00
  0.00000000E+00  0.00000000E+00  0.00000000E+00
  0.00000000E+00  0.00000000E+00  0.00000000E+00
  0.00000000E+00  0.00000000E+00  0.00000000E+00
  0.00000000E+00  0.00000000E+00  0.00000000E+00
  0.00000000E+00  0.00000000E+00  0.00000000E+00
  0.00000000E+00  0.00000000E+00  0.00000000E+00
  0.00000000E+00  0.00000000E+00  0.00000000E+00
  0.00000000E+00  0.00000000E+00  0.00000000E+00
  0.00000000E+00  0.00000000E+00  0.00000000E+00
  0.00000000E+00  0.00000000E+00  0.00000000E+00
  0.00000000E+00  0.00000000E+00  0.00000000E+00
  0.00000000E+00  0.00000000E+00  0.00000000E+00
  0.00000000E+00  0.00000000E+00  0.00000000E+00
  0.00000000E+00  0.00000000E+00  0.00000000E+00
  0.00000000E+00  0.00000000E+00  0.00000000E+00
  0.00000000E+00  0.00000000E+00  0.00000000E+00
  0.00000000E+00  0.00000000E+00  0.00000000E+00
  0.00000000E+00  0.00000000E+00  0.00000000E+00
  0.00000000E+00  0.00000000E+00  0.00000000E+00
  0.00000000E+00  0.00000000E+00  0.00000000E+00
  0.00000000E+00  0.00000000E+00  0.00000000E+00
  0.00000000E+00  0.00000000E+00  0.00000000E+00
  0.00000000E+00  0.00000000E+00  0.00000000E+00
  0.00000000E+00  0.00000000E+00  0.00000000E+00
  0.00000000E+00  0.00000000E+00  0.00000000E+00
  0.00000000E+00  0.00000000E+00  0.00000000E+00
  0.00000000E+00  0.00000000E+00  0.00000000E+00
  0.00000000E+00  0.00000000E+00  0.00000000E+00
  0.00000000E+00  0.00000000E+00  0.00000000E+00
  0.00000000E+00  0.00000000E+00  0.00000000E+00
  0.00000000E+00  0.00000000E+00  0.00000000E+00
  0.00000000E+00  0.00000000E+00  0.00000000E+00
  0.00000000E+00  0.00000000E+00  0.00000000E+00
  0.00000000E+00  0.00000000E+00  0.00000000E+00
  0.00000000E+00  0.00000000E+00  0.00000000E+00
  0.00000000E+00  0.00000000E+00  0.00000000E+00
  0.00000000E+00  0.00000000E+00  0.00000000E+00
  0.00000000E+00  0.00000000E+00  0.00000000E+00
  0.00000000E+00  0.00000000E+00  0.00000000E+00
  0.00000000E+00  0.00000000E+00  0.00000000E+00
  0.00000000E+00  0.00000000E+00  0.00000000E+00
  0.00000000E+00  0.00000000E+00  0.00000000E+00
  0.00000000E+00  0.00000000E+00  0.00000000E+00
  0.00000000E+00  0.00000000E+00  0.00000000E+00
  0.00000000E+00  0.00000000E+00  0.00000000E+00
  0.00000000E+00  0.00000000E+00  0.00000000E+00
  0.00000000E+00  0.00000000E+00  0.00000000E+00
  0.00000000E+00  0.00000000E+00  0.00000000E+00
  0.00000000E+00  0.00000000E+00  0.00000000E+00
  0.00000000E+00  0.00000000E+00  0.00000000E+00
  0.00000000E+00  0.00000000E+00  0.00000000E+00
  0.00000000E+00  0.00000000E+00  0.00000000E+00
