CONTCAR\(6)                             
   1.00000000000000     
    11.7119998931999998    0.0000000000000000    0.0000000000000000
    -5.1174287261000000   10.4860139793999991    0.0000000000000000
     0.0000000000000000    0.0000000000000000   18.3064994811999995
   Mo   Cl   O 
     8    24     1
Direct
  0.0721276262149874  0.4376264777588493  0.5020332359007343
  0.4374146594679524  0.0719197434350641  0.5021002506552044
  0.5711727558899381  0.4393533316947079  0.4999859140815852
  0.9351047641513710  0.0680273020653484  0.5039815739915955
  0.0680600187082971  0.9351106435415835  0.5038575977507797
  0.4393868843153470  0.5711402040095173  0.5000737786183034
  0.5671148788346309  0.9388922490689759  0.5009474561120819
  0.9388208013542668  0.5669864825727785  0.5009793604174935
  0.0514804787674539  0.0514978652142391  0.6049061048810059
  0.4226872626387408  0.4223791429992000  0.4072449185069375
  0.0811137329279170  0.2507279717491925  0.4326550121275553
  0.2581222071339003  0.4312761255239610  0.5723012095398639
  0.4311507226198463  0.2581320637695071  0.5723875091957737
  0.2507943196039175  0.0810969724661656  0.4326807587613876
  0.5855046606711342  0.0869348127430801  0.5945940591909001
  0.9228278694554605  0.4178940603771899  0.4086647281913901
  0.5794600708048618  0.2528691803017061  0.4286696067154034
  0.7544165550580179  0.4249237260565284  0.5716211956578083
  0.9319579409202654  0.2530870694661163  0.5757383321856773
  0.7518172436220192  0.0825008699101844  0.4309570689056636
  0.0866846499055063  0.5859604843009536  0.5945777700820252
  0.4181650336818257  0.9223348033405179  0.4087452793068475
  0.0822556200262201  0.7517246166754379  0.4307683679310011
  0.2528085205455433  0.9315877721907511  0.5755538218808423
  0.4252652521976183  0.7545480417044943  0.5718169391648390
  0.2530942030915306  0.5796858265535458  0.4287638802420989
  0.5887873561616237  0.5890059236444806  0.5925693674600699
  0.9238206044317516  0.9236017549762189  0.4098106316085636
  0.5805442990795333  0.7559792599274912  0.4282668086529350
  0.7485560908291142  0.9248321213988483  0.5728652560841428
  0.9246801045711315  0.7485053085357977  0.5728664253603964
  0.7559866513303867  0.5804711475966656  0.4283177811939559
  0.1668164979879153  0.1673172664308846  0.6353382346451211
 
  0.00000000E+00  0.00000000E+00  0.00000000E+00
  0.00000000E+00  0.00000000E+00  0.00000000E+00
  0.00000000E+00  0.00000000E+00  0.00000000E+00
  0.00000000E+00  0.00000000E+00  0.00000000E+00
  0.00000000E+00  0.00000000E+00  0.00000000E+00
  0.00000000E+00  0.00000000E+00  0.00000000E+00
  0.00000000E+00  0.00000000E+00  0.00000000E+00
  0.00000000E+00  0.00000000E+00  0.00000000E+00
  0.00000000E+00  0.00000000E+00  0.00000000E+00
  0.00000000E+00  0.00000000E+00  0.00000000E+00
  0.00000000E+00  0.00000000E+00  0.00000000E+00
  0.00000000E+00  0.00000000E+00  0.00000000E+00
  0.00000000E+00  0.00000000E+00  0.00000000E+00
  0.00000000E+00  0.00000000E+00  0.00000000E+00
  0.00000000E+00  0.00000000E+00  0.00000000E+00
  0.00000000E+00  0.00000000E+00  0.00000000E+00
  0.00000000E+00  0.00000000E+00  0.00000000E+00
  0.00000000E+00  0.00000000E+00  0.00000000E+00
  0.00000000E+00  0.00000000E+00  0.00000000E+00
  0.00000000E+00  0.00000000E+00  0.00000000E+00
  0.00000000E+00  0.00000000E+00  0.00000000E+00
  0.00000000E+00  0.00000000E+00  0.00000000E+00
  0.00000000E+00  0.00000000E+00  0.00000000E+00
  0.00000000E+00  0.00000000E+00  0.00000000E+00
  0.00000000E+00  0.00000000E+00  0.00000000E+00
  0.00000000E+00  0.00000000E+00  0.00000000E+00
  0.00000000E+00  0.00000000E+00  0.00000000E+00
  0.00000000E+00  0.00000000E+00  0.00000000E+00
  0.00000000E+00  0.00000000E+00  0.00000000E+00
  0.00000000E+00  0.00000000E+00  0.00000000E+00
  0.00000000E+00  0.00000000E+00  0.00000000E+00
  0.00000000E+00  0.00000000E+00  0.00000000E+00
  0.00000000E+00  0.00000000E+00  0.00000000E+00
