CONTCAR\(5)                             
   1.00000000000000     
    15.2346000671000006    0.0000000000000000    0.0000000000000000
     0.0000000000000000   15.2346000671000006    0.0000000000000000
     0.0000000000000000    0.0000000000000000   23.7810993195000009
   Ca   Cu   Cl   O 
    48    32    32    65
Direct
  0.9999224868049126  0.0000000000000000  0.4998249755551722
  0.0000657617783169  0.0000000000000000  0.3666050048445807
  0.9998634350271266  0.0000000000000000  0.6330825000392921
  0.2500821652663047  0.0000000000000000  0.4997802127374299
  0.2500318724637629  0.0000000000000000  0.3665504355997623
  0.2497981667431139  0.0000000000000000  0.6330095967059431
  0.4999424868233649  0.0000000000000000  0.4997921065097073
  0.5000697019581068  0.0000000000000000  0.3665636826278399
  0.5001842388214779  0.0000000000000000  0.6330039281220373
  0.7500972847666607  0.0000000000000000  0.4998324086202747
  0.7500345941904311  0.0000000000000000  0.3665968493907028
  0.7501114663049160  0.0000000000000000  0.6330981171429382
  0.9999923300803129  0.2501054033413128  0.5001961371011081
  0.0001062710315962  0.2501536499082628  0.3669442562960889
  0.9996440312375755  0.2499488283231555  0.6334460667467203
  0.2500268739147885  0.2499617040298880  0.5004807920295823
  0.2500820206039458  0.2502485132297271  0.3672903818384247
  0.2482658443988508  0.2485002459570436  0.6334205939877920
  0.4999604780607736  0.2499685351338353  0.5005129912406315
  0.5000240060382792  0.2502604484366398  0.3673306276586645
  0.5016118117818585  0.2485001869818859  0.6334530490909072
  0.7499867662232892  0.2501235885637898  0.5002126436955099
  0.7499690017351105  0.2501673389615982  0.3669520584166254
  0.7502640106094018  0.2499426860183009  0.6334742140179399
  0.0000923649126977  0.5000000000000000  0.5005536672354034
  0.0001675160708369  0.5000000000000000  0.3673151439633826
  0.9999269435251246  0.5000000000000000  0.6336500487969428
  0.2498282680174888  0.5000000000000000  0.5017093377187912
  0.2502151590688260  0.5000000000000000  0.3681439578888178
  0.2508068039866151  0.5000000000000000  0.6361959912153549
  0.5001346716457441  0.5000000000000000  0.5018112656281315
  0.4998901711747332  0.5000000000000000  0.3682660042242086
  0.4989031086979049  0.5000000000000000  0.6362591231248033
  0.7498636527726860  0.5000000000000000  0.5005898795062808
  0.7498852118171061  0.5000000000000000  0.3673464804377055
  0.7498246706796042  0.5000000000000000  0.6337099841435054
  0.9999923300803129  0.7498945966586873  0.5001961371011081
  0.0001062710315962  0.7498463500917368  0.3669442562960889
  0.9996440312375755  0.7500511716768445  0.6334460667467203
  0.2500268739147885  0.7500382959701120  0.5004807920295823
  0.2500820206039458  0.7497514867702801  0.3672903818384247
  0.2482658443988508  0.7514997540429564  0.6334205939877920
  0.4999604780607736  0.7500314648661647  0.5005129912406315
  0.5000240060382792  0.7497395515633600  0.3673306276586645
  0.5016118117818585  0.7514998130181142  0.6334530490909072
  0.7499867662232892  0.7498764114362101  0.5002126436955099
  0.7499690017351105  0.7498326610384017  0.3669520584166254
  0.7502640106094018  0.7500573139816992  0.6334742140179399
  0.1248186474569657  0.1249205443909808  0.5632160595985172
  0.1250215937411639  0.1249922021755576  0.4366246516849098
  0.3749791303535291  0.1250907662955689  0.5637102330446606
  0.3750395874841288  0.1249895690064721  0.4366785812581069
  0.6251289994126165  0.1249390193837141  0.5632334436672906
  0.6250313307748672  0.1249931002390724  0.4366385754634979
  0.8749811981594827  0.1249941003569835  0.5633448502485197
  0.8750289090075122  0.1250166937553325  0.4365491302644280
  0.1251628011778826  0.3750917811897553  0.5644102511986818
  0.1249551916748783  0.3750338335215711  0.4373315708906633
  0.3749176998619796  0.3750633784892629  0.5646564265596655
  0.3750083549775223  0.3751275708425328  0.4376653849321126
  0.6247023913738119  0.3750762713382522  0.5645138678848634
  0.6250535525525868  0.3750251675872474  0.4373810983763800
  0.8749283936436695  0.3750102235917266  0.5637873675881971
  0.8750170471109567  0.3750335759595264  0.4369418117968786
  0.1251628011778826  0.6249082498102436  0.5644102511986818
  0.1249551916748783  0.6249661974784279  0.4373315708906633
  0.3749176998619796  0.6249366525107363  0.5646564265596655
  0.3750083549775223  0.6248724601574662  0.4376653849321126
  0.6247023913738119  0.6249237596617467  0.5645138678848634
  0.6250535525525868  0.6249748634127518  0.4373810983763800
  0.8749283936436695  0.6249898074082653  0.5637873675881971
  0.8750170471109567  0.6249664550404724  0.4369418117968786
  0.1248186474569657  0.8750794246090201  0.5632160595985172
  0.1250215937411639  0.8750077668244433  0.4366246516849098
  0.3749791303535291  0.8749092027044322  0.5637102330446606
  0.3750395874841288  0.8750103999935289  0.4366785812581069
  0.6251289994126165  0.8750609496162868  0.5632334436672906
  0.6250313307748672  0.8750068687609284  0.4366385754634979
  0.8749811981594827  0.8750058686430177  0.5633448502485197
  0.8750289090075122  0.8749832752446686  0.4365491302644280
  0.1248506946567624  0.1243035306158205  0.6864005862675246
  0.1251439946156240  0.1252928871323918  0.3136722644383889
  0.3749748673106390  0.1246812552578943  0.6865874350398414
  0.3750275764192041  0.1254688670981872  0.3137701263983478
  0.6251928831394188  0.1242647370503843  0.6864057553550703
  0.6250041661513014  0.1253113576570459  0.3136782730809952
  0.8749706677525674  0.1248225509949634  0.6864333982338144
  0.8750247012951554  0.1251723056418002  0.3136447706222377
  0.1239211191575590  0.3740936260549462  0.6869244025500942
  0.1257126332797698  0.3752027724884322  0.3144741635127170
  0.3747528742256245  0.3611975122137214  0.6960202117796160
  0.3751340701996661  0.3751270653020565  0.3149358860516922
  0.6258079974238174  0.3740951330268987  0.6870102185556989
  0.6244393721768720  0.3752519568192019  0.3145346489316710
  0.8748969334279140  0.3748080341456919  0.6866724512540515
  0.8750517002636510  0.3751422980457803  0.3139844210325021
  0.1239211191575590  0.6259064049450528  0.6869244025500942
  0.1257126332797698  0.6247972585115669  0.3144741635127170
  0.3747528742256245  0.6388025187862776  0.6960202117796160
  0.3751340701996661  0.6248729656979425  0.3149358860516922
  0.6258079974238174  0.6259048979731004  0.6870102185556989
  0.6244393721768720  0.6247480741807970  0.3145346489316710
  0.8748969334279140  0.6251919968543072  0.6866724512540515
  0.8750517002636510  0.6248577329542188  0.3139844210325021
  0.1248506946567624  0.8756964383841804  0.6864005862675246
  0.1251439946156240  0.8747070818676093  0.3136722644383889
  0.3749748673106390  0.8753187137421067  0.6865874350398414
  0.3750275764192041  0.8745311019018138  0.3137701263983478
  0.6251928831394188  0.8757352319496167  0.6864057553550703
  0.6250041661513014  0.8746886113429551  0.3136782730809952
  0.8749706677525674  0.8751774180050378  0.6864333982338144
  0.8750247012951554  0.8748276633582007  0.3136447706222377
  0.9999055460547337  0.1249512801073408  0.5677549225369265
  0.1248784567038882  0.0000000000000000  0.5673389451180069
  0.1250781805353655  0.0000000000000000  0.4319479534298999
  0.0000477575994787  0.1249932678943031  0.4322538715723836
  0.2498951808880576  0.1247858078310729  0.5677561938541528
  0.3749944804864617  0.0000000000000000  0.5674439572419154
  0.3750486133935116  0.0000000000000000  0.4318577708751797
  0.2500334565168240  0.1250717875258981  0.4323987621364174
  0.5000841147566797  0.1247728659469597  0.5677663416157608
  0.6250921547704371  0.0000000000000000  0.5673175037882371
  0.6249652967922960  0.0000000000000000  0.4319463511306048
  0.5000442117046550  0.1250755880006887  0.4324202372629151
  0.7500573174782875  0.1249809248794179  0.5677718815749178
  0.8749914782880300  0.0000000000000000  0.5675257035927846
  0.8750516726002101  0.0000000000000000  0.4320919805010815
  0.7500316095391836  0.1249921448436606  0.4322560416874479
  0.9999403613251806  0.3746745906530976  0.5680115121887729
  0.1249132856960844  0.2499305809622096  0.5678438240382567
  0.1250919872275806  0.2500208377076742  0.4325987315120122
  0.0000043133401389  0.3749365292542041  0.4325894700522194
  0.2503792460525787  0.3746716969476539  0.5704287510409085
  0.3749823859866094  0.2501038981353893  0.5688364294942876
  0.3750432682687174  0.2500716509319758  0.4330649143538289
  0.2499820843643252  0.3750110591353640  0.4338226888551376
  0.4994755137364444  0.3747120801240228  0.5705416182031285
  0.6249618071372780  0.2499379023415521  0.5678741128469932
  0.6249312955334483  0.2500200351311826  0.4326240644205738
  0.5000549598755178  0.3750240141204756  0.4339523138321421
  0.7499355928489313  0.3746804954624293  0.5680610895228705
  0.8749736648658964  0.2499824499337621  0.5679233144446785
  0.8750429009862959  0.2500168147639952  0.4324283117581894
  0.7500514890828616  0.3749221241015474  0.4326037055141601
  0.9999403613251806  0.6253254403469014  0.5680115121887729
  0.1237801607409228  0.5000000000000000  0.5676132936310815
  0.1248688688174466  0.5000000000000000  0.4328740748185419
  0.0000043133401389  0.6250635017457949  0.4325894700522194
  0.2503792460525787  0.6253283340523451  0.5704287510409085
  0.3749081758307969  0.5000000000000000  0.5657289955767388
  0.3750244566538656  0.5000000000000000  0.4326739989179495
  0.2499820843643252  0.6249889718646350  0.4338226888551376
  0.4994755137364444  0.6252879508759763  0.5705416182031285
  0.6260559625782488  0.5000000000000000  0.5677005315856644
  0.6251557403817586  0.5000000000000000  0.4329533888049871
  0.5000549598755178  0.6249760168795234  0.4339523138321421
  0.7499355928489313  0.6253195355375698  0.5680610895228705
  0.8749358182081847  0.5000000000000000  0.5683890466894286
  0.8750265977262619  0.5000000000000000  0.4327532219109403
  0.7500514890828616  0.6250779068984516  0.4326037055141601
  0.9999055460547337  0.8750486888926603  0.5677549225369265
  0.1249132856960844  0.7500694190377903  0.5678438240382567
  0.1250919872275806  0.7499791622923256  0.4325987315120122
  0.0000477575994787  0.8750067011056978  0.4322538715723836
  0.2498951808880576  0.8752141611689281  0.5677561938541528
  0.3749823859866094  0.7498961018646108  0.5688364294942876
  0.3750432682687174  0.7499283490680240  0.4330649143538289
  0.2500334565168240  0.8749281814741028  0.4323987621364174
  0.5000841147566797  0.8752271030530412  0.5677663416157608
  0.6249618071372780  0.7500620976584480  0.5678741128469932
  0.6249312955334483  0.7499799648688172  0.4326240644205738
  0.5000442117046550  0.8749243809993122  0.4324202372629151
  0.7500573174782875  0.8750190441205832  0.5677718815749178
  0.8749736648658964  0.7500175500662378  0.5679233144446785
  0.8750429009862959  0.7499831852360049  0.4324283117581894
  0.7500316095391836  0.8750078241563406  0.4322560416874479
  0.3747859534931345  0.4999800000000008  0.6931250926065036
 
  0.00000000E+00  0.00000000E+00  0.00000000E+00
  0.00000000E+00  0.00000000E+00  0.00000000E+00
  0.00000000E+00  0.00000000E+00  0.00000000E+00
  0.00000000E+00  0.00000000E+00  0.00000000E+00
  0.00000000E+00  0.00000000E+00  0.00000000E+00
  0.00000000E+00  0.00000000E+00  0.00000000E+00
  0.00000000E+00  0.00000000E+00  0.00000000E+00
  0.00000000E+00  0.00000000E+00  0.00000000E+00
  0.00000000E+00  0.00000000E+00  0.00000000E+00
  0.00000000E+00  0.00000000E+00  0.00000000E+00
  0.00000000E+00  0.00000000E+00  0.00000000E+00
  0.00000000E+00  0.00000000E+00  0.00000000E+00
  0.00000000E+00  0.00000000E+00  0.00000000E+00
  0.00000000E+00  0.00000000E+00  0.00000000E+00
  0.00000000E+00  0.00000000E+00  0.00000000E+00
  0.00000000E+00  0.00000000E+00  0.00000000E+00
  0.00000000E+00  0.00000000E+00  0.00000000E+00
  0.00000000E+00  0.00000000E+00  0.00000000E+00
  0.00000000E+00  0.00000000E+00  0.00000000E+00
  0.00000000E+00  0.00000000E+00  0.00000000E+00
  0.00000000E+00  0.00000000E+00  0.00000000E+00
  0.00000000E+00  0.00000000E+00  0.00000000E+00
  0.00000000E+00  0.00000000E+00  0.00000000E+00
  0.00000000E+00  0.00000000E+00  0.00000000E+00
  0.00000000E+00  0.00000000E+00  0.00000000E+00
  0.00000000E+00  0.00000000E+00  0.00000000E+00
  0.00000000E+00  0.00000000E+00  0.00000000E+00
  0.00000000E+00  0.00000000E+00  0.00000000E+00
  0.00000000E+00  0.00000000E+00  0.00000000E+00
  0.00000000E+00  0.00000000E+00  0.00000000E+00
  0.00000000E+00  0.00000000E+00  0.00000000E+00
  0.00000000E+00  0.00000000E+00  0.00000000E+00
  0.00000000E+00  0.00000000E+00  0.00000000E+00
  0.00000000E+00  0.00000000E+00  0.00000000E+00
  0.00000000E+00  0.00000000E+00  0.00000000E+00
  0.00000000E+00  0.00000000E+00  0.00000000E+00
  0.00000000E+00  0.00000000E+00  0.00000000E+00
  0.00000000E+00  0.00000000E+00  0.00000000E+00
  0.00000000E+00  0.00000000E+00  0.00000000E+00
  0.00000000E+00  0.00000000E+00  0.00000000E+00
  0.00000000E+00  0.00000000E+00  0.00000000E+00
  0.00000000E+00  0.00000000E+00  0.00000000E+00
  0.00000000E+00  0.00000000E+00  0.00000000E+00
  0.00000000E+00  0.00000000E+00  0.00000000E+00
  0.00000000E+00  0.00000000E+00  0.00000000E+00
  0.00000000E+00  0.00000000E+00  0.00000000E+00
  0.00000000E+00  0.00000000E+00  0.00000000E+00
  0.00000000E+00  0.00000000E+00  0.00000000E+00
  0.00000000E+00  0.00000000E+00  0.00000000E+00
  0.00000000E+00  0.00000000E+00  0.00000000E+00
  0.00000000E+00  0.00000000E+00  0.00000000E+00
  0.00000000E+00  0.00000000E+00  0.00000000E+00
  0.00000000E+00  0.00000000E+00  0.00000000E+00
  0.00000000E+00  0.00000000E+00  0.00000000E+00
  0.00000000E+00  0.00000000E+00  0.00000000E+00
  0.00000000E+00  0.00000000E+00  0.00000000E+00
  0.00000000E+00  0.00000000E+00  0.00000000E+00
  0.00000000E+00  0.00000000E+00  0.00000000E+00
  0.00000000E+00  0.00000000E+00  0.00000000E+00
  0.00000000E+00  0.00000000E+00  0.00000000E+00
  0.00000000E+00  0.00000000E+00  0.00000000E+00
  0.00000000E+00  0.00000000E+00  0.00000000E+00
  0.00000000E+00  0.00000000E+00  0.00000000E+00
  0.00000000E+00  0.00000000E+00  0.00000000E+00
  0.00000000E+00  0.00000000E+00  0.00000000E+00
  0.00000000E+00  0.00000000E+00  0.00000000E+00
  0.00000000E+00  0.00000000E+00  0.00000000E+00
  0.00000000E+00  0.00000000E+00  0.00000000E+00
  0.00000000E+00  0.00000000E+00  0.00000000E+00
  0.00000000E+00  0.00000000E+00  0.00000000E+00
  0.00000000E+00  0.00000000E+00  0.00000000E+00
  0.00000000E+00  0.00000000E+00  0.00000000E+00
  0.00000000E+00  0.00000000E+00  0.00000000E+00
  0.00000000E+00  0.00000000E+00  0.00000000E+00
  0.00000000E+00  0.00000000E+00  0.00000000E+00
  0.00000000E+00  0.00000000E+00  0.00000000E+00
  0.00000000E+00  0.00000000E+00  0.00000000E+00
  0.00000000E+00  0.00000000E+00  0.00000000E+00
  0.00000000E+00  0.00000000E+00  0.00000000E+00
  0.00000000E+00  0.00000000E+00  0.00000000E+00
  0.00000000E+00  0.00000000E+00  0.00000000E+00
  0.00000000E+00  0.00000000E+00  0.00000000E+00
  0.00000000E+00  0.00000000E+00  0.00000000E+00
  0.00000000E+00  0.00000000E+00  0.00000000E+00
  0.00000000E+00  0.00000000E+00  0.00000000E+00
  0.00000000E+00  0.00000000E+00  0.00000000E+00
  0.00000000E+00  0.00000000E+00  0.00000000E+00
  0.00000000E+00  0.00000000E+00  0.00000000E+00
  0.00000000E+00  0.00000000E+00  0.00000000E+00
  0.00000000E+00  0.00000000E+00  0.00000000E+00
  0.00000000E+00  0.00000000E+00  0.00000000E+00
  0.00000000E+00  0.00000000E+00  0.00000000E+00
  0.00000000E+00  0.00000000E+00  0.00000000E+00
  0.00000000E+00  0.00000000E+00  0.00000000E+00
  0.00000000E+00  0.00000000E+00  0.00000000E+00
  0.00000000E+00  0.00000000E+00  0.00000000E+00
  0.00000000E+00  0.00000000E+00  0.00000000E+00
  0.00000000E+00  0.00000000E+00  0.00000000E+00
  0.00000000E+00  0.00000000E+00  0.00000000E+00
  0.00000000E+00  0.00000000E+00  0.00000000E+00
  0.00000000E+00  0.00000000E+00  0.00000000E+00
  0.00000000E+00  0.00000000E+00  0.00000000E+00
  0.00000000E+00  0.00000000E+00  0.00000000E+00
  0.00000000E+00  0.00000000E+00  0.00000000E+00
  0.00000000E+00  0.00000000E+00  0.00000000E+00
  0.00000000E+00  0.00000000E+00  0.00000000E+00
  0.00000000E+00  0.00000000E+00  0.00000000E+00
  0.00000000E+00  0.00000000E+00  0.00000000E+00
  0.00000000E+00  0.00000000E+00  0.00000000E+00
  0.00000000E+00  0.00000000E+00  0.00000000E+00
  0.00000000E+00  0.00000000E+00  0.00000000E+00
  0.00000000E+00  0.00000000E+00  0.00000000E+00
  0.00000000E+00  0.00000000E+00  0.00000000E+00
  0.00000000E+00  0.00000000E+00  0.00000000E+00
  0.00000000E+00  0.00000000E+00  0.00000000E+00
  0.00000000E+00  0.00000000E+00  0.00000000E+00
  0.00000000E+00  0.00000000E+00  0.00000000E+00
  0.00000000E+00  0.00000000E+00  0.00000000E+00
  0.00000000E+00  0.00000000E+00  0.00000000E+00
  0.00000000E+00  0.00000000E+00  0.00000000E+00
  0.00000000E+00  0.00000000E+00  0.00000000E+00
  0.00000000E+00  0.00000000E+00  0.00000000E+00
  0.00000000E+00  0.00000000E+00  0.00000000E+00
  0.00000000E+00  0.00000000E+00  0.00000000E+00
  0.00000000E+00  0.00000000E+00  0.00000000E+00
  0.00000000E+00  0.00000000E+00  0.00000000E+00
  0.00000000E+00  0.00000000E+00  0.00000000E+00
  0.00000000E+00  0.00000000E+00  0.00000000E+00
  0.00000000E+00  0.00000000E+00  0.00000000E+00
  0.00000000E+00  0.00000000E+00  0.00000000E+00
  0.00000000E+00  0.00000000E+00  0.00000000E+00
  0.00000000E+00  0.00000000E+00  0.00000000E+00
  0.00000000E+00  0.00000000E+00  0.00000000E+00
  0.00000000E+00  0.00000000E+00  0.00000000E+00
  0.00000000E+00  0.00000000E+00  0.00000000E+00
  0.00000000E+00  0.00000000E+00  0.00000000E+00
  0.00000000E+00  0.00000000E+00  0.00000000E+00
  0.00000000E+00  0.00000000E+00  0.00000000E+00
  0.00000000E+00  0.00000000E+00  0.00000000E+00
  0.00000000E+00  0.00000000E+00  0.00000000E+00
  0.00000000E+00  0.00000000E+00  0.00000000E+00
  0.00000000E+00  0.00000000E+00  0.00000000E+00
  0.00000000E+00  0.00000000E+00  0.00000000E+00
  0.00000000E+00  0.00000000E+00  0.00000000E+00
  0.00000000E+00  0.00000000E+00  0.00000000E+00
  0.00000000E+00  0.00000000E+00  0.00000000E+00
  0.00000000E+00  0.00000000E+00  0.00000000E+00
  0.00000000E+00  0.00000000E+00  0.00000000E+00
  0.00000000E+00  0.00000000E+00  0.00000000E+00
  0.00000000E+00  0.00000000E+00  0.00000000E+00
  0.00000000E+00  0.00000000E+00  0.00000000E+00
  0.00000000E+00  0.00000000E+00  0.00000000E+00
  0.00000000E+00  0.00000000E+00  0.00000000E+00
  0.00000000E+00  0.00000000E+00  0.00000000E+00
  0.00000000E+00  0.00000000E+00  0.00000000E+00
  0.00000000E+00  0.00000000E+00  0.00000000E+00
  0.00000000E+00  0.00000000E+00  0.00000000E+00
  0.00000000E+00  0.00000000E+00  0.00000000E+00
  0.00000000E+00  0.00000000E+00  0.00000000E+00
  0.00000000E+00  0.00000000E+00  0.00000000E+00
  0.00000000E+00  0.00000000E+00  0.00000000E+00
  0.00000000E+00  0.00000000E+00  0.00000000E+00
  0.00000000E+00  0.00000000E+00  0.00000000E+00
  0.00000000E+00  0.00000000E+00  0.00000000E+00
  0.00000000E+00  0.00000000E+00  0.00000000E+00
  0.00000000E+00  0.00000000E+00  0.00000000E+00
  0.00000000E+00  0.00000000E+00  0.00000000E+00
  0.00000000E+00  0.00000000E+00  0.00000000E+00
  0.00000000E+00  0.00000000E+00  0.00000000E+00
  0.00000000E+00  0.00000000E+00  0.00000000E+00
  0.00000000E+00  0.00000000E+00  0.00000000E+00
  0.00000000E+00  0.00000000E+00  0.00000000E+00
  0.00000000E+00  0.00000000E+00  0.00000000E+00
  0.00000000E+00  0.00000000E+00  0.00000000E+00
  0.00000000E+00  0.00000000E+00  0.00000000E+00
  0.00000000E+00  0.00000000E+00  0.00000000E+00
  0.00000000E+00  0.00000000E+00  0.00000000E+00
