CONTCAR\(9)                             
   1.00000000000000     
    14.8798999785999992    0.0000000000000000    0.0000000000000000
     7.4399499892999996   12.8863713873000005    0.0000000000000000
     0.0000000000000000    0.0000000000000000   21.2917003632000004
   Tb   Cl   O 
    32    32     1
Direct
  0.1664499223583750  0.1670869835967665  0.4368015907350331
  0.0827737724621330  0.0843589733717619  0.5678954870613669
  0.4170906424567755  0.1664508561614748  0.4368670886560459
  0.3328603919720808  0.0843587720334630  0.5678950427940276
  0.6671401320531909  0.1657197094304554  0.4368519908962485
  0.5836848568586768  0.0831507670506280  0.5677200511281668
  0.9164580449017855  0.1664475108268997  0.4368601525957568
  0.8331502999278966  0.0831497095547137  0.5677204842810907
  0.1664514093888594  0.4164485655296165  0.4368036134493339
  0.0833320311835011  0.3333209192543081  0.5673328866449172
  0.4162368454194187  0.4163588535189333  0.4374261949873495
  0.3328528302980664  0.3327702895638051  0.5678910865284409
  0.6674009782380024  0.4163553139014416  0.4374287043231178
  0.5852769343643789  0.3294169893855371  0.5684684972188992
  0.9170820127462344  0.4164505699529852  0.4367996114029035
  0.8343683134080834  0.3327563005774739  0.5678903107840796
  0.1663609707922801  0.6662419269659000  0.4374269872560498
  0.0827692683698341  0.5828549631434019  0.5678896811209112
  0.4166792007162070  0.6666631750649448  0.4419822590375754
  0.3338720591015761  0.5838670470554000  0.5720469081000742
  0.6674079707900351  0.6662443612880671  0.4374331771135996
  0.5823293420685620  0.5838218845318986  0.5720544586134558
  0.9164498047520502  0.6670958341831723  0.4368636211709654
  0.8343701950570984  0.5828621166964941  0.5678876956395346
  0.1663727070008933  0.9173906216151100  0.4374307429710440
  0.0794334211733486  0.8352655667848881  0.5684580150233941
  0.4162320497942762  0.9174075594787877  0.4374324351154371
  0.3338411867316914  0.8323186158941368  0.5720548812399553
  0.6671532966114214  0.9171461124662371  0.4368421667296485
  0.5852903726432742  0.8352735739124686  0.5684581683460125
  0.9157085607522972  0.9171441623575182  0.4368467208932121
  0.8331574260137509  0.8336850492183097  0.5677156272907059
  0.9991425983454834  0.0018647427740810  0.6506618856974448
  0.0000928202018497  0.9995002652528289  0.3544342615125566
  0.2485675812255735  0.0028566270756903  0.6514082009260536
  0.2503217518085901  0.9993564234483802  0.3547602384926259
  0.4989853779108019  0.0018573871269199  0.6506624934514954
  0.5004080328798275  0.9995067902543315  0.3544321284900645
  0.7499889700801937  0.0000062084140946  0.6505207580968467
  0.7499864523558233  0.0000517640138946  0.3537143339680716
  0.0004151197711385  0.2504051409932642  0.6504030686530091
 -0.0002712821670701  0.2497444590028194  0.3542843505603950
  0.2491671764178363  0.2504009697628786  0.6504036587404421
  0.2505272750744525  0.2497368335520306  0.3542844404243228
  0.4989664631450030  0.2491215122640725  0.6506706427285172
  0.5004040832958658  0.2500776290670114  0.3544304417196282
  0.7518837746202229  0.2491238663875390  0.6506688596648356
  0.7495135726718425  0.2500807083578668  0.3544335408313178
  0.0004121719913020  0.4991605699408406  0.6504050012478880
 -0.0002602780624124  0.5005117046480098  0.3542882537340865
  0.2485532653689955  0.4985670593813387  0.6514008842773304
  0.2503000544980364  0.5003102371195631  0.3547534690329507
  0.5039251633957904  0.4921072437492751  0.6538318451848318
  0.4992275714256338  0.5015382039420693  0.3564615732484899
  0.7528879923902347  0.4985505151619657  0.6513955633474285
  0.7493431474110533  0.5003380917677445  0.3547599289822799
  0.9991410571491319  0.7489650174852789  0.6506653558742178
  0.0000621229614545  0.7504234032000406  0.3544277241654614
  0.2421151076317411  0.7539248111159902  0.6538279028991769
  0.2515475782454310  0.7492291238321841  0.3564670270921310
  0.5039532679660975  0.7539293930373823  0.6538220071867827
  0.4992226432591506  0.7492379006059572  0.3564747567210652
  0.7518781314343294  0.7489756339567246  0.6506604927515984
  0.7495078664856564  0.7504223582101254  0.3544254863011340
  0.4166562494049161  0.6666442877307605  0.5460730708471510
 
  0.00000000E+00  0.00000000E+00  0.00000000E+00
  0.00000000E+00  0.00000000E+00  0.00000000E+00
  0.00000000E+00  0.00000000E+00  0.00000000E+00
  0.00000000E+00  0.00000000E+00  0.00000000E+00
  0.00000000E+00  0.00000000E+00  0.00000000E+00
  0.00000000E+00  0.00000000E+00  0.00000000E+00
  0.00000000E+00  0.00000000E+00  0.00000000E+00
  0.00000000E+00  0.00000000E+00  0.00000000E+00
  0.00000000E+00  0.00000000E+00  0.00000000E+00
  0.00000000E+00  0.00000000E+00  0.00000000E+00
  0.00000000E+00  0.00000000E+00  0.00000000E+00
  0.00000000E+00  0.00000000E+00  0.00000000E+00
  0.00000000E+00  0.00000000E+00  0.00000000E+00
  0.00000000E+00  0.00000000E+00  0.00000000E+00
  0.00000000E+00  0.00000000E+00  0.00000000E+00
  0.00000000E+00  0.00000000E+00  0.00000000E+00
  0.00000000E+00  0.00000000E+00  0.00000000E+00
  0.00000000E+00  0.00000000E+00  0.00000000E+00
  0.00000000E+00  0.00000000E+00  0.00000000E+00
  0.00000000E+00  0.00000000E+00  0.00000000E+00
  0.00000000E+00  0.00000000E+00  0.00000000E+00
  0.00000000E+00  0.00000000E+00  0.00000000E+00
  0.00000000E+00  0.00000000E+00  0.00000000E+00
  0.00000000E+00  0.00000000E+00  0.00000000E+00
  0.00000000E+00  0.00000000E+00  0.00000000E+00
  0.00000000E+00  0.00000000E+00  0.00000000E+00
  0.00000000E+00  0.00000000E+00  0.00000000E+00
  0.00000000E+00  0.00000000E+00  0.00000000E+00
  0.00000000E+00  0.00000000E+00  0.00000000E+00
  0.00000000E+00  0.00000000E+00  0.00000000E+00
  0.00000000E+00  0.00000000E+00  0.00000000E+00
  0.00000000E+00  0.00000000E+00  0.00000000E+00
  0.00000000E+00  0.00000000E+00  0.00000000E+00
  0.00000000E+00  0.00000000E+00  0.00000000E+00
  0.00000000E+00  0.00000000E+00  0.00000000E+00
  0.00000000E+00  0.00000000E+00  0.00000000E+00
  0.00000000E+00  0.00000000E+00  0.00000000E+00
  0.00000000E+00  0.00000000E+00  0.00000000E+00
  0.00000000E+00  0.00000000E+00  0.00000000E+00
  0.00000000E+00  0.00000000E+00  0.00000000E+00
  0.00000000E+00  0.00000000E+00  0.00000000E+00
  0.00000000E+00  0.00000000E+00  0.00000000E+00
  0.00000000E+00  0.00000000E+00  0.00000000E+00
  0.00000000E+00  0.00000000E+00  0.00000000E+00
  0.00000000E+00  0.00000000E+00  0.00000000E+00
  0.00000000E+00  0.00000000E+00  0.00000000E+00
  0.00000000E+00  0.00000000E+00  0.00000000E+00
  0.00000000E+00  0.00000000E+00  0.00000000E+00
  0.00000000E+00  0.00000000E+00  0.00000000E+00
  0.00000000E+00  0.00000000E+00  0.00000000E+00
  0.00000000E+00  0.00000000E+00  0.00000000E+00
  0.00000000E+00  0.00000000E+00  0.00000000E+00
  0.00000000E+00  0.00000000E+00  0.00000000E+00
  0.00000000E+00  0.00000000E+00  0.00000000E+00
  0.00000000E+00  0.00000000E+00  0.00000000E+00
  0.00000000E+00  0.00000000E+00  0.00000000E+00
  0.00000000E+00  0.00000000E+00  0.00000000E+00
  0.00000000E+00  0.00000000E+00  0.00000000E+00
  0.00000000E+00  0.00000000E+00  0.00000000E+00
  0.00000000E+00  0.00000000E+00  0.00000000E+00
  0.00000000E+00  0.00000000E+00  0.00000000E+00
  0.00000000E+00  0.00000000E+00  0.00000000E+00
  0.00000000E+00  0.00000000E+00  0.00000000E+00
  0.00000000E+00  0.00000000E+00  0.00000000E+00
  0.00000000E+00  0.00000000E+00  0.00000000E+00
