 Tm1 I2                                 
   1.00000000000000     
     4.0685309096918223    0.0000000000000000    0.0000000000000000
    -2.0342654548459111    3.5234503409994038    0.0000000000000000
     0.0000000000000000    0.0000000000000000   18.8425633068240010
   Tm   I 
     1     2
Direct
  0.0000000145457233  0.0000000020379374  0.5000000004087095
  0.6666669291909038  0.3333330507321980  0.6018113275367242
  0.3333330562633730  0.6666669472298645  0.3981886720545664
 
  0.00000000E+00  0.00000000E+00  0.00000000E+00
  0.00000000E+00  0.00000000E+00  0.00000000E+00
  0.00000000E+00  0.00000000E+00  0.00000000E+00
