 Eu2 Br2 O2                             
   1.00000000000000     
     3.7724801366699059    0.0000000000000000    0.0000000000000000
     0.0000000000000000    3.7724827466836368    0.0000000000000000
     0.0000000000000000    0.0000000000000000   20.6999448048660000
   Eu   Br   O 
     2     2     2
Direct
  0.0000002212968103  0.4999996155908914  0.4305358379279921
  0.4999998822079987  0.0000002657997696  0.5694654555505444
 -0.0000003280133947  0.4999999760034736  0.6475866039025332
  0.4999999947930178 -0.0000002525645793  0.3524162638227902
  0.5000002664237073  0.5000005173107201  0.4999979850608921
 -0.0000000367081425 -0.0000001221402784  0.4999978537352463
 
  0.00000000E+00  0.00000000E+00  0.00000000E+00
  0.00000000E+00  0.00000000E+00  0.00000000E+00
  0.00000000E+00  0.00000000E+00  0.00000000E+00
  0.00000000E+00  0.00000000E+00  0.00000000E+00
  0.00000000E+00  0.00000000E+00  0.00000000E+00
  0.00000000E+00  0.00000000E+00  0.00000000E+00
