CONTCAR                                 
   1.00000000000000     
    15.1738004683999996    0.0000000000000000    0.0000000000000000
     7.5869002341999998   13.1408966776000007    0.0000000000000000
     0.0000000000000000    0.0000000000000000   21.6410999297999993
   Tb   Br   O    H 
    32    32     1     1
Selective dynamics
Direct
  0.0833855019704473  0.0833189387558164  0.4336127254484126   F   F   F
  0.1674585639826702  0.1674138993475793  0.5612484663921151   F   F   F
  0.3336189744054607  0.0845020069001947  0.4328362357434017   F   F   F
  0.4188215195232843  0.1616905500152654  0.5617927159790810   F   F   F
  0.5841877505793676  0.0816646233595009  0.4321262451341852   F   F   F
  0.6698113417412088  0.1615351968339880  0.5617147364205692   F   F   F
  0.8320048231610144  0.0844243162967402  0.4327541207807357   F   F   F
  0.9152756774927013  0.1673467255998062  0.5611840900341463   F   F   F
  0.0845277971311376  0.3335383953828313  0.4327828102482982   F   F   F
  0.1616623309437486  0.4187113397115709  0.5617385250693232   F   F   F
  0.3362545368642600  0.3361986927858212  0.4400177091460833   F   F   F
  0.4167325359852398  0.4169005812384370  0.6340356075861067   F   F   F
  0.5776505431844754  0.3361608240833078  0.4399601797245722   F   F   F
  0.6698322449686813  0.4187296410019883  0.5616652301309770   F   F   F
  0.8320032427544106  0.3335099096562217  0.4327258993746810   F   F   F
  0.9178286811409819  0.4144843192100183  0.5587735839921493   F   F   F
  0.0817195432102764  0.5841252108919548  0.4321146112129739   F   F   F
  0.1615479779139548  0.6697781984672488  0.5617319736272108   F   F   F
  0.3362209880473230  0.5775874307490056  0.4400157604269666   F   F   F
  0.4187689315614662  0.6698128672014789  0.5617156383982120   F   F   F
  0.5841957434968919  0.5841614481143154  0.4321029854343763   F   F   F
  0.6675356346036097  0.6674930062686926  0.5595810729992650   F   F   F
  0.8334473353357410  0.5831154112907768  0.4313951526006576   F   F   F
  0.9150551152090500  0.6674479466172016  0.5595526261665782   F   F   F
  0.0845041657046579  0.8319215789931178  0.4327841249773314   F   F   F
  0.1673998932023153  0.9152360775674069  0.5612380403483996   F   F   F
  0.3335883126253307  0.8319916937294920  0.4327972089842973   F   F   F
  0.4145821029895629  0.9178306504024221  0.5588652242691126   F   F   F
  0.5831797339876346  0.8334299932199229  0.4314542357513957   F   F   F
  0.6675076501139614  0.9150391280978383  0.5595802776907988   F   F   F
  0.8334327309170391  0.8334049636653873  0.4313936347043139   F   F   F
  0.9177293306731187  0.9176911731718604  0.5588031575988097   F   F   F
  0.0000749027088816  0.0000130939525675  0.3443105838735434   F   F   F
  0.0000706894728637  0.0000576115846229  0.6497353625439999   F   F   F
  0.2499189981618457  0.0000564496440347  0.3443320265542553   F   F   F
  0.2498587962439558  0.0000914445944957  0.6497558525145024   F   F   F
  0.4991538206422845  0.0007442587454847  0.3426283465466184   F   F   F
  0.5013363284624930  0.9930038072427863  0.6490781836871378   F   F   F
  0.7500858555529319  0.0007313055835709  0.3425809846909473   F   F   F
  0.7559063650344200  0.9927805175160742  0.6490365714088284   F   F   F
  0.0000962624363439  0.2498470454020421  0.3442964066342995   F   F   F
  0.0001151680465625  0.2497886473270228  0.6497137933089689   F   F   F
  0.2534219225905403  0.2533747362413763  0.3470727291704492   F   F   F
  0.2511407266711032  0.2511230102624040  0.6508292720461029   F   F   F
  0.4987076877322707  0.2525462998735861  0.3476313279005865   F   F   F
  0.5207530720150189  0.2089527355828480  0.6584339856044963   F   F   F
  0.7432421053309923  0.2533390414390624  0.3469743395308882   F   F   F
  0.7478189536966227  0.2512121710422477  0.6507113269160172   F   F   F
  0.0007828018861957  0.4991200785317602  0.3425972471385563   F   F   F
  0.9928885037002360  0.5012250859788523  0.6489804916457587   F   F   F
  0.2525954935190455  0.4986854800298559  0.3476466341117046   F   F   F
  0.2087173313623722  0.5207061558146719  0.6583565470184780   F   F   F
  0.4987175890297806  0.4987078495376238  0.3476426787331022   F   F   F
  0.5208292272228690  0.5207840220149365  0.6583125522425561   F   F   F
  0.7501112409593347  0.4991365899374145  0.3425759068667844   F   F   F
  0.7560600051907826  0.5012714191901466  0.6489946740581516   F   F   F
  0.0007625492064705  0.7500568924796625  0.3425943237376927   F   F   F
  0.9927662335656606  0.7558719727022591  0.6490283259760758   F   F   F
  0.2534261803847500  0.7431924654793249  0.3470615239411288   F   F   F
  0.2511520843477513  0.7477836118428911  0.6507812726371185   F   F   F
  0.4991721689096025  0.7501179967169875  0.3426154287571634   F   F   F
  0.5013372844779624  0.7560317185849925  0.6490550568540101   F   F   F
  0.7499814613335474  0.7499704910889804  0.3423338285254331   F   F   F
  0.7500349116833576  0.7499997599812573  0.6492140261469572   F   F   F
  0.4166425859437837  0.4171677686661468  0.7265676814731634   T   T   T
  0.4159690830563534  0.4171423337608289  0.7704632442262722   T   T   T
 
  0.00000000E+00  0.00000000E+00  0.00000000E+00
  0.00000000E+00  0.00000000E+00  0.00000000E+00
  0.00000000E+00  0.00000000E+00  0.00000000E+00
  0.00000000E+00  0.00000000E+00  0.00000000E+00
  0.00000000E+00  0.00000000E+00  0.00000000E+00
  0.00000000E+00  0.00000000E+00  0.00000000E+00
  0.00000000E+00  0.00000000E+00  0.00000000E+00
  0.00000000E+00  0.00000000E+00  0.00000000E+00
  0.00000000E+00  0.00000000E+00  0.00000000E+00
  0.00000000E+00  0.00000000E+00  0.00000000E+00
  0.00000000E+00  0.00000000E+00  0.00000000E+00
  0.00000000E+00  0.00000000E+00  0.00000000E+00
  0.00000000E+00  0.00000000E+00  0.00000000E+00
  0.00000000E+00  0.00000000E+00  0.00000000E+00
  0.00000000E+00  0.00000000E+00  0.00000000E+00
  0.00000000E+00  0.00000000E+00  0.00000000E+00
  0.00000000E+00  0.00000000E+00  0.00000000E+00
  0.00000000E+00  0.00000000E+00  0.00000000E+00
  0.00000000E+00  0.00000000E+00  0.00000000E+00
  0.00000000E+00  0.00000000E+00  0.00000000E+00
  0.00000000E+00  0.00000000E+00  0.00000000E+00
  0.00000000E+00  0.00000000E+00  0.00000000E+00
  0.00000000E+00  0.00000000E+00  0.00000000E+00
  0.00000000E+00  0.00000000E+00  0.00000000E+00
  0.00000000E+00  0.00000000E+00  0.00000000E+00
  0.00000000E+00  0.00000000E+00  0.00000000E+00
  0.00000000E+00  0.00000000E+00  0.00000000E+00
  0.00000000E+00  0.00000000E+00  0.00000000E+00
  0.00000000E+00  0.00000000E+00  0.00000000E+00
  0.00000000E+00  0.00000000E+00  0.00000000E+00
  0.00000000E+00  0.00000000E+00  0.00000000E+00
  0.00000000E+00  0.00000000E+00  0.00000000E+00
  0.00000000E+00  0.00000000E+00  0.00000000E+00
  0.00000000E+00  0.00000000E+00  0.00000000E+00
  0.00000000E+00  0.00000000E+00  0.00000000E+00
  0.00000000E+00  0.00000000E+00  0.00000000E+00
  0.00000000E+00  0.00000000E+00  0.00000000E+00
  0.00000000E+00  0.00000000E+00  0.00000000E+00
  0.00000000E+00  0.00000000E+00  0.00000000E+00
  0.00000000E+00  0.00000000E+00  0.00000000E+00
  0.00000000E+00  0.00000000E+00  0.00000000E+00
  0.00000000E+00  0.00000000E+00  0.00000000E+00
  0.00000000E+00  0.00000000E+00  0.00000000E+00
  0.00000000E+00  0.00000000E+00  0.00000000E+00
  0.00000000E+00  0.00000000E+00  0.00000000E+00
  0.00000000E+00  0.00000000E+00  0.00000000E+00
  0.00000000E+00  0.00000000E+00  0.00000000E+00
  0.00000000E+00  0.00000000E+00  0.00000000E+00
  0.00000000E+00  0.00000000E+00  0.00000000E+00
  0.00000000E+00  0.00000000E+00  0.00000000E+00
  0.00000000E+00  0.00000000E+00  0.00000000E+00
  0.00000000E+00  0.00000000E+00  0.00000000E+00
  0.00000000E+00  0.00000000E+00  0.00000000E+00
  0.00000000E+00  0.00000000E+00  0.00000000E+00
  0.00000000E+00  0.00000000E+00  0.00000000E+00
  0.00000000E+00  0.00000000E+00  0.00000000E+00
  0.00000000E+00  0.00000000E+00  0.00000000E+00
  0.00000000E+00  0.00000000E+00  0.00000000E+00
  0.00000000E+00  0.00000000E+00  0.00000000E+00
  0.00000000E+00  0.00000000E+00  0.00000000E+00
  0.00000000E+00  0.00000000E+00  0.00000000E+00
  0.00000000E+00  0.00000000E+00  0.00000000E+00
  0.00000000E+00  0.00000000E+00  0.00000000E+00
  0.00000000E+00  0.00000000E+00  0.00000000E+00
  0.00000000E+00  0.00000000E+00  0.00000000E+00
  0.00000000E+00  0.00000000E+00  0.00000000E+00
