CONTCAR\(7)                             
   1.00000000000000     
    12.8978004455999997    0.0000000000000000    0.0000000000000000
    -6.4489002227999999   11.1698228388000000    0.0000000000000000
     0.0000000000000000    0.0000000000000000   22.5037994384999998
   La   P    I    O    H 
    18     9    18     2     1
Direct
  0.1078972631339141  0.2188236923998232  0.5698198886638721
  0.2233364786388492  0.1129912103547781  0.4272849089662785
  0.4445736565619143  0.2189379032869425  0.5698781689275521
  0.5555307680195654  0.1111427682742985  0.4265538142356249
  0.7778833894498902  0.2223081001676732  0.5698409265962141
  0.8890445065028629  0.1111725719288046  0.4264851230482876
  0.1081044850799344  0.5557849778124435  0.5698529704662008
  0.2237116077930068  0.4451460257819591  0.4301609879590984
  0.4447730473095888  0.5556686615448498  0.5938228629014688
  0.5549813532006098  0.4452291548114857  0.4301757133172757
  0.7811854929809172  0.5556645643670137  0.5699404946143716
  0.8890491266804261  0.4446157409224085  0.4266060319030345
  0.1111615928817500  0.8889487436422954  0.5696941671303435
  0.2232820125933301  0.7768628805271476  0.4273610608127072
  0.4445482257824196  0.8920409057658816  0.5699856704595732
  0.5550859058431072  0.7765017660975744  0.4301001570110827
  0.7810415654301011  0.8921373326359259  0.5700298470811305
  0.8872244286032824  0.7768759587005007  0.4272676537085118
  0.0006849672297022  0.9993881252287267  0.4972225486945447
  0.3321501962831377  0.9994382783608557  0.4974411620544430
  0.6672687343809756  0.0009523829856874  0.4980588945789464
  0.9993216640627907  0.3329337974279269  0.4981408574327943
  0.3348670049872524  0.3361072310630107  0.5026141873334140
  0.6671602004882899  0.3329761764333838  0.4981842250017010
  0.0006781741211483  0.6679778651150485  0.4974625952822862
  0.3350484344166418  0.6652603069848340  0.5025648881211353
  0.6641800461479974  0.6654129772911759  0.5025462372913836
  0.2230045472229847  0.1118111793783640  0.6649576469569567
  0.1132337417771083  0.2249828024253091  0.3330347125013802
  0.5563434205282363  0.1113735701917662  0.6648990319469803
  0.4457421881332451  0.2254131073242576  0.3329996220567821
  0.8886201097330400  0.1115968089883594  0.6649431532503129
  0.7778949829199675  0.2221947918120151  0.3316069808222153
  0.1808952060669355  0.4236560545411976  0.6657543502893617
  0.1129344605607585  0.5544222185896146  0.3330898396045754
  0.5764262176176658  0.4233998705184234  0.6659000733291549
  0.4444351994109255  0.5557311168999632  0.3349197161792787
  0.8889790710069576  0.4441003525502936  0.6648661396596651
  0.7748776854360742  0.5543972636109586  0.3330309152740227
  0.2224552828271271  0.7775518677709883  0.6646324814490399
  0.1114221076936772  0.8887974382866659  0.3334637891808612
  0.5761349624229979  0.8189631542660507  0.6656082041680094
  0.4456538126867571  0.8872095913395484  0.3330459494352880
  0.8886201153609719  0.7772015776729759  0.6646184860183340
  0.7753575135381325  0.8871400998751042  0.3329999557435031
  0.4445874614398022  0.5546990290329958  0.6870178222383174
  0.4460791045652783  0.5563993925772195  0.7504415668383189
  0.4030087174479462  0.4702289284355174  0.7593335984643446
 
  0.00000000E+00  0.00000000E+00  0.00000000E+00
  0.00000000E+00  0.00000000E+00  0.00000000E+00
  0.00000000E+00  0.00000000E+00  0.00000000E+00
  0.00000000E+00  0.00000000E+00  0.00000000E+00
  0.00000000E+00  0.00000000E+00  0.00000000E+00
  0.00000000E+00  0.00000000E+00  0.00000000E+00
  0.00000000E+00  0.00000000E+00  0.00000000E+00
  0.00000000E+00  0.00000000E+00  0.00000000E+00
  0.00000000E+00  0.00000000E+00  0.00000000E+00
  0.00000000E+00  0.00000000E+00  0.00000000E+00
  0.00000000E+00  0.00000000E+00  0.00000000E+00
  0.00000000E+00  0.00000000E+00  0.00000000E+00
  0.00000000E+00  0.00000000E+00  0.00000000E+00
  0.00000000E+00  0.00000000E+00  0.00000000E+00
  0.00000000E+00  0.00000000E+00  0.00000000E+00
  0.00000000E+00  0.00000000E+00  0.00000000E+00
  0.00000000E+00  0.00000000E+00  0.00000000E+00
  0.00000000E+00  0.00000000E+00  0.00000000E+00
  0.00000000E+00  0.00000000E+00  0.00000000E+00
  0.00000000E+00  0.00000000E+00  0.00000000E+00
  0.00000000E+00  0.00000000E+00  0.00000000E+00
  0.00000000E+00  0.00000000E+00  0.00000000E+00
  0.00000000E+00  0.00000000E+00  0.00000000E+00
  0.00000000E+00  0.00000000E+00  0.00000000E+00
  0.00000000E+00  0.00000000E+00  0.00000000E+00
  0.00000000E+00  0.00000000E+00  0.00000000E+00
  0.00000000E+00  0.00000000E+00  0.00000000E+00
  0.00000000E+00  0.00000000E+00  0.00000000E+00
  0.00000000E+00  0.00000000E+00  0.00000000E+00
  0.00000000E+00  0.00000000E+00  0.00000000E+00
  0.00000000E+00  0.00000000E+00  0.00000000E+00
  0.00000000E+00  0.00000000E+00  0.00000000E+00
  0.00000000E+00  0.00000000E+00  0.00000000E+00
  0.00000000E+00  0.00000000E+00  0.00000000E+00
  0.00000000E+00  0.00000000E+00  0.00000000E+00
  0.00000000E+00  0.00000000E+00  0.00000000E+00
  0.00000000E+00  0.00000000E+00  0.00000000E+00
  0.00000000E+00  0.00000000E+00  0.00000000E+00
  0.00000000E+00  0.00000000E+00  0.00000000E+00
  0.00000000E+00  0.00000000E+00  0.00000000E+00
  0.00000000E+00  0.00000000E+00  0.00000000E+00
  0.00000000E+00  0.00000000E+00  0.00000000E+00
  0.00000000E+00  0.00000000E+00  0.00000000E+00
  0.00000000E+00  0.00000000E+00  0.00000000E+00
  0.00000000E+00  0.00000000E+00  0.00000000E+00
  0.00000000E+00  0.00000000E+00  0.00000000E+00
  0.00000000E+00  0.00000000E+00  0.00000000E+00
  0.00000000E+00  0.00000000E+00  0.00000000E+00
