CONTCAR                                 
   1.00000000000000     
    13.8427000045999993    0.0000000000000000    0.0000000000000000
    -6.9212999344000004   11.9880431408000003    0.0000000000000000
     0.0000000000000000    0.0000000000000000   18.3542995453000017
   Ta   Se   O    H 
    16    32     2     1
Direct
  0.0030466976319374  0.9961252858121838  0.5043245095629629
  0.2519589719041093  0.0012283053025115  0.5046248955363097
  0.4962024298406007  0.9957055732795368  0.5047273315223109
  0.7522801698182420  0.0015389639775165  0.5044111386976127
  0.0015330902856761  0.2522483348775211  0.5049501319651668
  0.2570685101123971  0.2503584362341016  0.5045608844635083
  0.4963357820922596  0.2507094847779996  0.5050570592446064
  0.7535456165140886  0.2521018285674046  0.5050457251489249
  0.0014207264799495  0.4999160541480094  0.5047723617268218
  0.2519818745382878  0.5016981299357965  0.5045340441069257
  0.4921841135737495  0.4816744849221806  0.5045465026065870
  0.7524160957325350  0.5015490239399156  0.5044714495013167
  0.0028587049800564  0.7572142486559486  0.5044186196319131
  0.2570489861575780  0.7568381151535561  0.5045642922811950
  0.4920903350103458  0.7612285454908800  0.5043527201811884
  0.7721802771371742  0.7615418744822264  0.5034287058116647
  0.0858448818542215  0.1678056442262346  0.4152350555055833
  0.0857969854345555  0.1671458886240274  0.5940479634734572
  0.3347092032311849  0.1658944073649380  0.4112927190533284
  0.3340812466503706  0.1655888538999335  0.5981462810555627
  0.5846653488029077  0.1675404326349224  0.4156569139211967
  0.5844254311119315  0.1671353647745590  0.5942409711421135
  0.8355117138913144  0.1682832157509964  0.4130962984414666
  0.8351529656649745  0.1673117201046850  0.5965422345783935
  0.0853897529145726  0.4179558860243020  0.4129199747642431
  0.0858831772029802  0.4184364355443506  0.5965876250776674
  0.3319616852355836  0.4162465440210426  0.4119326590562835
  0.3318335271356077  0.4160213214847275  0.5974120994794347
  0.5867967714845861  0.4160207898556791  0.4120479685966458
  0.5869552606405435  0.4164998117589320  0.5979245674728730
  0.8351638660478429  0.4177875289399893  0.4130105407279956
  0.8353014196272213  0.4185201299212693  0.5964932449336331
  0.0856353521170874  0.6684332115372342  0.4151968517187754
  0.0857647676285964  0.6689123363810054  0.5940580430986060
  0.3320006326968041  0.6665870382714161  0.4114972208612855
  0.3326004275361498  0.6667768929843660  0.5973813907526520
  0.5847432468110796  0.6676864794501896  0.4263155894467587
  0.5883684372380529  0.6693813828473125  0.5780855515840457
  0.8375532358168556  0.6664841590112829  0.4111966781719616
  0.8372155073846343  0.6669826721701995  0.5970942457167183
  0.0876807064619882  0.9189993352492181  0.4108344546865652
  0.0874354193725253  0.9189168898833842  0.5980639604035503
  0.3342230497583145  0.9188241918923126  0.4111948539426891
  0.3341833481500984  0.9187375347825935  0.5980836902479609
  0.5870451473096239  0.9212453666962048  0.4115635752777962
  0.5870170108714277  0.9208362568902970  0.5974692815162470
  0.8375799598265061  0.9220817976118525  0.4111414493610113
  0.8374187421994463  0.9209374809967130  0.5970250726058595
  0.6104956943707762  0.6784506461051620  0.6814652992267511
  0.5050166679198753  0.6225978075178560  0.7194750651743362
  0.4938858557907508  0.5469772622335043  0.7250806569375783
 
  0.00000000E+00  0.00000000E+00  0.00000000E+00
  0.00000000E+00  0.00000000E+00  0.00000000E+00
  0.00000000E+00  0.00000000E+00  0.00000000E+00
  0.00000000E+00  0.00000000E+00  0.00000000E+00
  0.00000000E+00  0.00000000E+00  0.00000000E+00
  0.00000000E+00  0.00000000E+00  0.00000000E+00
  0.00000000E+00  0.00000000E+00  0.00000000E+00
  0.00000000E+00  0.00000000E+00  0.00000000E+00
  0.00000000E+00  0.00000000E+00  0.00000000E+00
  0.00000000E+00  0.00000000E+00  0.00000000E+00
  0.00000000E+00  0.00000000E+00  0.00000000E+00
  0.00000000E+00  0.00000000E+00  0.00000000E+00
  0.00000000E+00  0.00000000E+00  0.00000000E+00
  0.00000000E+00  0.00000000E+00  0.00000000E+00
  0.00000000E+00  0.00000000E+00  0.00000000E+00
  0.00000000E+00  0.00000000E+00  0.00000000E+00
  0.00000000E+00  0.00000000E+00  0.00000000E+00
  0.00000000E+00  0.00000000E+00  0.00000000E+00
  0.00000000E+00  0.00000000E+00  0.00000000E+00
  0.00000000E+00  0.00000000E+00  0.00000000E+00
  0.00000000E+00  0.00000000E+00  0.00000000E+00
  0.00000000E+00  0.00000000E+00  0.00000000E+00
  0.00000000E+00  0.00000000E+00  0.00000000E+00
  0.00000000E+00  0.00000000E+00  0.00000000E+00
  0.00000000E+00  0.00000000E+00  0.00000000E+00
  0.00000000E+00  0.00000000E+00  0.00000000E+00
  0.00000000E+00  0.00000000E+00  0.00000000E+00
  0.00000000E+00  0.00000000E+00  0.00000000E+00
  0.00000000E+00  0.00000000E+00  0.00000000E+00
  0.00000000E+00  0.00000000E+00  0.00000000E+00
  0.00000000E+00  0.00000000E+00  0.00000000E+00
  0.00000000E+00  0.00000000E+00  0.00000000E+00
  0.00000000E+00  0.00000000E+00  0.00000000E+00
  0.00000000E+00  0.00000000E+00  0.00000000E+00
  0.00000000E+00  0.00000000E+00  0.00000000E+00
  0.00000000E+00  0.00000000E+00  0.00000000E+00
  0.00000000E+00  0.00000000E+00  0.00000000E+00
  0.00000000E+00  0.00000000E+00  0.00000000E+00
  0.00000000E+00  0.00000000E+00  0.00000000E+00
  0.00000000E+00  0.00000000E+00  0.00000000E+00
  0.00000000E+00  0.00000000E+00  0.00000000E+00
  0.00000000E+00  0.00000000E+00  0.00000000E+00
  0.00000000E+00  0.00000000E+00  0.00000000E+00
  0.00000000E+00  0.00000000E+00  0.00000000E+00
  0.00000000E+00  0.00000000E+00  0.00000000E+00
  0.00000000E+00  0.00000000E+00  0.00000000E+00
  0.00000000E+00  0.00000000E+00  0.00000000E+00
  0.00000000E+00  0.00000000E+00  0.00000000E+00
  0.00000000E+00  0.00000000E+00  0.00000000E+00
  0.00000000E+00  0.00000000E+00  0.00000000E+00
  0.00000000E+00  0.00000000E+00  0.00000000E+00
