 Li4 Cu4 F14                            
   1.00000000000000     
     5.2322354871280190    0.0000000000000000    0.0000000000000000
    -0.5837131595688053    6.2211861786421139    0.0000000000000000
     0.0000000000000000    0.0000000000000000   21.6053731378080016
   Li   Cu   F 
     4     4    14
Direct
  0.3190432449271350  0.0633738143812287  0.5829011938355486
  0.8351294237553439  0.9274924719271682  0.5503589533067129
  0.7773761062290786  0.5640605540631828  0.4496513517096263
  0.2937208984391887  0.4284404137647051  0.4171037074811460
  0.1396591859070440  0.6265034340183806  0.6260093234251327
  0.6080470491685638  0.4647630200353907  0.5760668298300879
  0.0046453969506775  0.0270442393973819  0.4239402913631475
  0.4730643758861264  0.8652093427761259  0.3739890399199403
  0.0458406329305858  0.9075006562757386  0.6257550721567930
  0.2899434083098507  0.3573011016344314  0.6195085506034750
  0.8109526495722663  0.4971178908474185  0.6522159930432393
  0.4782198301193794  0.7467385805810698  0.5945146918717338
  0.6664526254541431  0.1717700303051338  0.5695344221685652
  0.1537516043167799  0.0272099800717920  0.5052034442022053
  0.9071319543096684  0.6007450759425315  0.5366831481586459
  0.7053413821579801  0.8911474995589811  0.4632949026483189
  0.4588083445065572  0.4644123526501930  0.4948170765339001
  0.9463095782259440  0.3201301419117596  0.4304780675716409
  0.1345454698848536  0.7450243251640691  0.4054643236742117
  0.8016273065286764  0.9947925314053863  0.3477806992800542
  0.3227388476902742  0.1343806972176826  0.3804746670971195
  0.5668766847298707  0.5842238460702425  0.3742542501187545
 
  0.00000000E+00  0.00000000E+00  0.00000000E+00
  0.00000000E+00  0.00000000E+00  0.00000000E+00
  0.00000000E+00  0.00000000E+00  0.00000000E+00
  0.00000000E+00  0.00000000E+00  0.00000000E+00
  0.00000000E+00  0.00000000E+00  0.00000000E+00
  0.00000000E+00  0.00000000E+00  0.00000000E+00
  0.00000000E+00  0.00000000E+00  0.00000000E+00
  0.00000000E+00  0.00000000E+00  0.00000000E+00
  0.00000000E+00  0.00000000E+00  0.00000000E+00
  0.00000000E+00  0.00000000E+00  0.00000000E+00
  0.00000000E+00  0.00000000E+00  0.00000000E+00
  0.00000000E+00  0.00000000E+00  0.00000000E+00
  0.00000000E+00  0.00000000E+00  0.00000000E+00
  0.00000000E+00  0.00000000E+00  0.00000000E+00
  0.00000000E+00  0.00000000E+00  0.00000000E+00
  0.00000000E+00  0.00000000E+00  0.00000000E+00
  0.00000000E+00  0.00000000E+00  0.00000000E+00
  0.00000000E+00  0.00000000E+00  0.00000000E+00
  0.00000000E+00  0.00000000E+00  0.00000000E+00
  0.00000000E+00  0.00000000E+00  0.00000000E+00
  0.00000000E+00  0.00000000E+00  0.00000000E+00
  0.00000000E+00  0.00000000E+00  0.00000000E+00
