CONTCAR\(6)                             
   1.00000000000000     
    15.1842002868999995    0.0000000000000000    0.0000000000000000
     0.0000000000000000   15.1842002868999995    0.0000000000000000
     0.0000000000000000    0.0000000000000000   20.6711997986000000
   Ca   Cu   Cl   O 
    32    16    32    33
Direct
  0.1249918122207851  0.1250000507607802  0.5764774476179820
  0.1254122554856523  0.1249794084012210  0.4227477594772366
  0.3750099722021933  0.1249941630367330  0.5767269681325486
  0.3750374756107542  0.1249928241542428  0.4229196542162307
  0.6250430381217585  0.1249934300863068  0.5765020368304881
  0.6246614485091760  0.1249822845485949  0.4227772261852628
  0.8750238920967227  0.1249766128166435  0.5764792756885085
  0.8750252064802754  0.1249760196954297  0.4228029766118124
  0.1243024237403490  0.3742855292443723  0.5767907703000024
  0.1257734119712393  0.3757274021964950  0.4230043534424936
  0.3749869434838121  0.3746621089745076  0.5780119100354821
  0.3750210667817906  0.3759897031922276  0.4240415061895343
  0.6256676469169886  0.3743328606903150  0.5768326285898310
  0.6242763434754744  0.3757242035450664  0.4230471125352172
  0.8750079517891430  0.3749583262142209  0.5765028490814337
  0.8750190932463284  0.3753400212952904  0.4227768820784114
  0.1246433198504736  0.6250297362175640  0.5780212120191056
  0.1260120718567413  0.6249790468296297  0.4240302104661858
  0.3749587930379522  0.6250434181364166  0.5861025094282795
  0.3750194780528166  0.6249811798059394  0.4294154873379081
  0.6253381568638590  0.6250145965777203  0.5780125714788480
  0.6240112389961937  0.6249796073795656  0.4240419227951359
  0.8750076586542890  0.6249908022959612  0.5767272307547358
  0.8750080710244367  0.6249637528539501  0.4229197482756683
  0.1242268462080333  0.8757747394191910  0.5767371220737776
  0.1257804038384251  0.8742211200476517  0.4229480880598952
  0.3749720850149802  0.8753577880219334  0.5780217555402235
  0.3750219179628472  0.8739885029616525  0.4240306126884271
  0.6257167400632778  0.8756998639077165  0.5767888306452935
  0.6242743757074163  0.8742266593426739  0.4230029303954267
  0.8750012957344304  0.8750100001730977  0.5764771861740240
  0.8750210924064445  0.8745884529152091  0.4227477681230354
  0.0000009960532224 -0.0000000124610708  0.4992676602146064
  0.2500496491004535  0.0000034271072103  0.4998227387643454
  0.4999735710333587  0.0000013603248040  0.4998546434218630
  0.7500184803419703 -0.0000016813319529  0.4993055465438943
  0.0000032000143416  0.2499829082977683  0.4993061434522801
  0.2500509677533509  0.2499900931477366  0.4998431437435963
  0.4999758638905660  0.2499944286042415  0.4998694571586542
  0.7500161842402077  0.2499838434183363  0.4993354273410598
 -0.0000016164080511  0.5000272965365150  0.4998552158931920
  0.2499693303468505  0.4999741792245830  0.5025416658926251
  0.5000227205240880  0.4999782093556302  0.5025438638311195
  0.7500072509110087  0.5000250794772501  0.4998702952819245
 -0.0000020978766535  0.7499515261503765  0.4998225062979614
  0.2499601959908150  0.7500405511406013  0.5025354266346252
  0.5000267939351956  0.7500324688709906  0.5025418760280648
  0.7500105390236133  0.7499501860147239  0.4998428818841839
  0.0000539317834063 -0.0000527287443442  0.3609182853637136
  0.9996163097381041  0.0003849800816314  0.6386022460832648
  0.2502648958281312  0.0000867639931652  0.3608964204836990
  0.2497703416820680  0.0018579276020475  0.6384365014530633
  0.4999259962521945  0.0000843671150825  0.3609434108980021
  0.5002413494523406  0.0018017421260637  0.6384613755319481
  0.7502144232420799 -0.0000094693892931  0.3609150131884707
  0.7504048854439039  0.0003522800158531  0.6386160328782938
  0.0000116501243947  0.2497869520078001  0.3609151504287272
  0.9996492182361226  0.2495970539260055  0.6386162442241573
  0.2502385818037584  0.2498939873508011  0.3609309539943540
  0.2497781030818654  0.2482023095429423  0.6384504792730938
  0.4999422631708946  0.2499176731678658  0.3609682598909692
  0.5002460826226722  0.2482463922618511  0.6384813539029104
  0.7501559185875675  0.2498460341338088  0.3609248696281560
  0.7504083541083126  0.2495929157972477  0.6386231373353073
  0.9999173359321709  0.5000752238142000  0.3609437723143780
  0.9982037028876776  0.4997603204949617  0.6384624855817496
  0.2509531477324784  0.5009159972846815  0.3625885092470105
  0.2430707919246158  0.4930425878545721  0.6386974346060753
  0.4990969697476435  0.5009052768528729  0.3626002904629977
  0.5066912054864641  0.4933096802488324  0.6387495450129792
  0.7500839732298616  0.5000597971044336  0.3609682533173902
  0.7517557040983048  0.4997553463040716  0.6384822272467681
  0.9999143396392132  0.7497364300276388  0.3608965104408394
  0.9981435206165146  0.7502313852197963  0.6384359844115213
  0.2510152859785232  0.7489863897728258  0.3625612398908671
  0.2427727430676085  0.7572268372421819  0.6386569988957637
  0.4990837297850605  0.7490465223836181  0.3625890353671570
  0.5069609878497970  0.7569381132266459  0.6386986133395381
  0.7501079798599202  0.7497624362949280  0.3609301808900570
  0.7518010278880614  0.7502235048722173  0.6384501123687345
  0.1250090406731730  0.0002970724527710  0.4997028144678894
  0.9998970489439635  0.1249832015474038  0.4995966824264622
  0.3750249097471187  0.9996855856902651  0.5004840218170734
  0.2502631200099233  0.1249898963131766  0.4990226534996554
  0.6250208667065026  0.0002671281006772  0.4997320570129209
  0.4997997149029375  0.1249813050599988  0.4990595673938303
  0.8750173384502887  0.0001031463062879  0.4995966404077999
  0.7501179345303225  0.1249803403462901  0.4996086531985669
  0.1250199346480874  0.2496842037310971  0.4997293673507441
  0.9997336625782693  0.3749807070085435  0.4997325221463674
  0.3750221156623996  0.2503055376377554  0.5004692724903894
  0.2496234828398895  0.3748264679907143  0.4992541981268468
  0.6250209905106739  0.2497065616094733  0.4997635067945743
  0.5003922666779953  0.3748298345582902  0.4993256593232532
  0.8750198721738732  0.2498840284995942  0.4996091195301163
  0.7502938123956876  0.3749806330631563  0.4997630428119015
  0.1248474108860705  0.4996212271552021  0.4992567897280276
  0.0003152790008519  0.6249761382256689  0.5004837497243677
  0.3749967326383862  0.4987339387452638  0.5030517584739894
  0.2487671667205747  0.6249983571463147  0.5031644582553236
  0.6251712552984549  0.4996085334234440  0.4993259373243136
  0.5012665063375621  0.6250051106197961  0.5030540885015736
  0.8750194831425213  0.5002003402249396  0.4990603177878954
  0.7496954229769150  0.6249776498769221  0.5004700917399962
  0.1248324750654367  0.7503702633140988  0.4991706428911057
  0.9997036622873697  0.8749926115022049  0.4997030178234796
  0.3750035238484727  0.7512318883110835  0.5031669192170478
  0.2496329359226951  0.8751676067641324  0.4991710659396246
  0.6251723003355361  0.7503758213651440  0.4992540561550579
  0.5003798177448079  0.8751520124466468  0.4992551183242193
  0.8750111384476088  0.7497373395085587  0.4990227729912435
  0.7503161363596318  0.8749826899633956  0.4997282701100245
  0.3736123233748661  0.6263897508886183  0.6962651536098901
 
  0.00000000E+00  0.00000000E+00  0.00000000E+00
  0.00000000E+00  0.00000000E+00  0.00000000E+00
  0.00000000E+00  0.00000000E+00  0.00000000E+00
  0.00000000E+00  0.00000000E+00  0.00000000E+00
  0.00000000E+00  0.00000000E+00  0.00000000E+00
  0.00000000E+00  0.00000000E+00  0.00000000E+00
  0.00000000E+00  0.00000000E+00  0.00000000E+00
  0.00000000E+00  0.00000000E+00  0.00000000E+00
  0.00000000E+00  0.00000000E+00  0.00000000E+00
  0.00000000E+00  0.00000000E+00  0.00000000E+00
  0.00000000E+00  0.00000000E+00  0.00000000E+00
  0.00000000E+00  0.00000000E+00  0.00000000E+00
  0.00000000E+00  0.00000000E+00  0.00000000E+00
  0.00000000E+00  0.00000000E+00  0.00000000E+00
  0.00000000E+00  0.00000000E+00  0.00000000E+00
  0.00000000E+00  0.00000000E+00  0.00000000E+00
  0.00000000E+00  0.00000000E+00  0.00000000E+00
  0.00000000E+00  0.00000000E+00  0.00000000E+00
  0.00000000E+00  0.00000000E+00  0.00000000E+00
  0.00000000E+00  0.00000000E+00  0.00000000E+00
  0.00000000E+00  0.00000000E+00  0.00000000E+00
  0.00000000E+00  0.00000000E+00  0.00000000E+00
  0.00000000E+00  0.00000000E+00  0.00000000E+00
  0.00000000E+00  0.00000000E+00  0.00000000E+00
  0.00000000E+00  0.00000000E+00  0.00000000E+00
  0.00000000E+00  0.00000000E+00  0.00000000E+00
  0.00000000E+00  0.00000000E+00  0.00000000E+00
  0.00000000E+00  0.00000000E+00  0.00000000E+00
  0.00000000E+00  0.00000000E+00  0.00000000E+00
  0.00000000E+00  0.00000000E+00  0.00000000E+00
  0.00000000E+00  0.00000000E+00  0.00000000E+00
  0.00000000E+00  0.00000000E+00  0.00000000E+00
  0.00000000E+00  0.00000000E+00  0.00000000E+00
  0.00000000E+00  0.00000000E+00  0.00000000E+00
  0.00000000E+00  0.00000000E+00  0.00000000E+00
  0.00000000E+00  0.00000000E+00  0.00000000E+00
  0.00000000E+00  0.00000000E+00  0.00000000E+00
  0.00000000E+00  0.00000000E+00  0.00000000E+00
  0.00000000E+00  0.00000000E+00  0.00000000E+00
  0.00000000E+00  0.00000000E+00  0.00000000E+00
  0.00000000E+00  0.00000000E+00  0.00000000E+00
  0.00000000E+00  0.00000000E+00  0.00000000E+00
  0.00000000E+00  0.00000000E+00  0.00000000E+00
  0.00000000E+00  0.00000000E+00  0.00000000E+00
  0.00000000E+00  0.00000000E+00  0.00000000E+00
  0.00000000E+00  0.00000000E+00  0.00000000E+00
  0.00000000E+00  0.00000000E+00  0.00000000E+00
  0.00000000E+00  0.00000000E+00  0.00000000E+00
  0.00000000E+00  0.00000000E+00  0.00000000E+00
  0.00000000E+00  0.00000000E+00  0.00000000E+00
  0.00000000E+00  0.00000000E+00  0.00000000E+00
  0.00000000E+00  0.00000000E+00  0.00000000E+00
  0.00000000E+00  0.00000000E+00  0.00000000E+00
  0.00000000E+00  0.00000000E+00  0.00000000E+00
  0.00000000E+00  0.00000000E+00  0.00000000E+00
  0.00000000E+00  0.00000000E+00  0.00000000E+00
  0.00000000E+00  0.00000000E+00  0.00000000E+00
  0.00000000E+00  0.00000000E+00  0.00000000E+00
  0.00000000E+00  0.00000000E+00  0.00000000E+00
  0.00000000E+00  0.00000000E+00  0.00000000E+00
  0.00000000E+00  0.00000000E+00  0.00000000E+00
  0.00000000E+00  0.00000000E+00  0.00000000E+00
  0.00000000E+00  0.00000000E+00  0.00000000E+00
  0.00000000E+00  0.00000000E+00  0.00000000E+00
  0.00000000E+00  0.00000000E+00  0.00000000E+00
  0.00000000E+00  0.00000000E+00  0.00000000E+00
  0.00000000E+00  0.00000000E+00  0.00000000E+00
  0.00000000E+00  0.00000000E+00  0.00000000E+00
  0.00000000E+00  0.00000000E+00  0.00000000E+00
  0.00000000E+00  0.00000000E+00  0.00000000E+00
  0.00000000E+00  0.00000000E+00  0.00000000E+00
  0.00000000E+00  0.00000000E+00  0.00000000E+00
  0.00000000E+00  0.00000000E+00  0.00000000E+00
  0.00000000E+00  0.00000000E+00  0.00000000E+00
  0.00000000E+00  0.00000000E+00  0.00000000E+00
  0.00000000E+00  0.00000000E+00  0.00000000E+00
  0.00000000E+00  0.00000000E+00  0.00000000E+00
  0.00000000E+00  0.00000000E+00  0.00000000E+00
  0.00000000E+00  0.00000000E+00  0.00000000E+00
  0.00000000E+00  0.00000000E+00  0.00000000E+00
  0.00000000E+00  0.00000000E+00  0.00000000E+00
  0.00000000E+00  0.00000000E+00  0.00000000E+00
  0.00000000E+00  0.00000000E+00  0.00000000E+00
  0.00000000E+00  0.00000000E+00  0.00000000E+00
  0.00000000E+00  0.00000000E+00  0.00000000E+00
  0.00000000E+00  0.00000000E+00  0.00000000E+00
  0.00000000E+00  0.00000000E+00  0.00000000E+00
  0.00000000E+00  0.00000000E+00  0.00000000E+00
  0.00000000E+00  0.00000000E+00  0.00000000E+00
  0.00000000E+00  0.00000000E+00  0.00000000E+00
  0.00000000E+00  0.00000000E+00  0.00000000E+00
  0.00000000E+00  0.00000000E+00  0.00000000E+00
  0.00000000E+00  0.00000000E+00  0.00000000E+00
  0.00000000E+00  0.00000000E+00  0.00000000E+00
  0.00000000E+00  0.00000000E+00  0.00000000E+00
  0.00000000E+00  0.00000000E+00  0.00000000E+00
  0.00000000E+00  0.00000000E+00  0.00000000E+00
  0.00000000E+00  0.00000000E+00  0.00000000E+00
  0.00000000E+00  0.00000000E+00  0.00000000E+00
  0.00000000E+00  0.00000000E+00  0.00000000E+00
  0.00000000E+00  0.00000000E+00  0.00000000E+00
  0.00000000E+00  0.00000000E+00  0.00000000E+00
  0.00000000E+00  0.00000000E+00  0.00000000E+00
  0.00000000E+00  0.00000000E+00  0.00000000E+00
  0.00000000E+00  0.00000000E+00  0.00000000E+00
  0.00000000E+00  0.00000000E+00  0.00000000E+00
  0.00000000E+00  0.00000000E+00  0.00000000E+00
  0.00000000E+00  0.00000000E+00  0.00000000E+00
  0.00000000E+00  0.00000000E+00  0.00000000E+00
  0.00000000E+00  0.00000000E+00  0.00000000E+00
  0.00000000E+00  0.00000000E+00  0.00000000E+00
  0.00000000E+00  0.00000000E+00  0.00000000E+00
  0.00000000E+00  0.00000000E+00  0.00000000E+00
