CONTCAR\(2)                             
   1.00000000000000     
    12.6485004424999996    0.0000000000000000    0.0000000000000000
    -1.2670761195000000   12.5961316350000008    0.0000000000000000
     0.0000000000000000    0.0000000000000000   18.5200004577999984
   Cr   P    S    O    H 
     4     8    28     1     1
Direct
  0.2487845416941376  0.2427325990914901  0.5026906021758324
  0.7484883336347833  0.2499683711888400  0.5061347188309289
  0.2512252059868598  0.7532614213413736  0.5060948683186810
  0.7447850886985883  0.7503147678204154  0.5090075544998877
  0.4749745179909950  0.3329348640829797  0.4781364016052475
  0.1644981662660190  0.0194151516735514  0.5332081327747585
  0.9769344117650025  0.3259637953594714  0.4720127250763358
  0.6654177650690805  0.0230503557298651  0.5370643098212010
  0.4762376461403514  0.8380338377170155  0.4814709416111260
  0.1651672477048345  0.5139629996787690  0.5197403630245565
  0.9735877638116082  0.8284257366063204  0.4814734801183698
  0.6629752658552822  0.5216964645506300  0.5343540485458722
  0.4133858827690833  0.2481028431847533  0.5645503039022757
  0.2110460499730237  0.3937149203399844  0.5778581691277420
  0.3506128204284099  0.3278131865327639  0.4082114570582673
  0.0068025256681582  0.4960578978702543  0.4825932113301246
  0.1652177495498650  0.1469332988800358  0.5998771363347380
  0.0987348788789498  0.2613677152671977  0.4238308832784627
  0.2533660256907621  0.0771361692137032  0.4470095684105833
  0.9183327166674755  0.2542797042196162  0.5635861034592170
  0.7218390955840368  0.3973694506081870  0.5836359853001281
  0.8475997894375812  0.3248320788255323  0.4067626358361166
  0.4988387111058283  0.4963073605705292  0.5071277599982021
  0.6688623044705917  0.1518593686076991  0.6033566340753872
  0.6026583382966131  0.2792579219567097  0.4288933947879072
  0.7491007494713205  0.0815142464580906  0.4495381435943999
  0.4168917091384908  0.7507601109185799  0.5679292592872784
  0.2186515674619021  0.8949345301608824  0.5852768478919387
  0.3499610847100194  0.8376677703629458  0.4130605759289236
  0.0023914524700139  0.9942003403631945  0.5017093264842848
  0.1576886816877413  0.6427163190390479  0.5992840579882849
  0.0954981815432872  0.7605002573745556  0.4343221295631040
  0.2628991581240183  0.5861363057361081  0.4443671537217478
  0.9114806878695523  0.7482475771317092  0.5692483153133133
  0.7199372197808264  0.8973356312445183  0.5874348911085543
  0.8477203940093583  0.8292131359455617  0.4132278826429561
  0.5001153459731551  0.0002934464917504  0.5122083379640080
  0.6627010725907777  0.6474398797232860  0.6031929346343813
  0.6005166366986934  0.7821354228032373  0.4305492932336856
  0.7472495314377314  0.5847691124991301  0.4483854829538860
  0.2411777816155900  0.6142957972845807  0.6627111811493400
  0.3151762372795824  0.6290975495451190  0.6456724842379394
 
  0.00000000E+00  0.00000000E+00  0.00000000E+00
  0.00000000E+00  0.00000000E+00  0.00000000E+00
  0.00000000E+00  0.00000000E+00  0.00000000E+00
  0.00000000E+00  0.00000000E+00  0.00000000E+00
  0.00000000E+00  0.00000000E+00  0.00000000E+00
  0.00000000E+00  0.00000000E+00  0.00000000E+00
  0.00000000E+00  0.00000000E+00  0.00000000E+00
  0.00000000E+00  0.00000000E+00  0.00000000E+00
  0.00000000E+00  0.00000000E+00  0.00000000E+00
  0.00000000E+00  0.00000000E+00  0.00000000E+00
  0.00000000E+00  0.00000000E+00  0.00000000E+00
  0.00000000E+00  0.00000000E+00  0.00000000E+00
  0.00000000E+00  0.00000000E+00  0.00000000E+00
  0.00000000E+00  0.00000000E+00  0.00000000E+00
  0.00000000E+00  0.00000000E+00  0.00000000E+00
  0.00000000E+00  0.00000000E+00  0.00000000E+00
  0.00000000E+00  0.00000000E+00  0.00000000E+00
  0.00000000E+00  0.00000000E+00  0.00000000E+00
  0.00000000E+00  0.00000000E+00  0.00000000E+00
  0.00000000E+00  0.00000000E+00  0.00000000E+00
  0.00000000E+00  0.00000000E+00  0.00000000E+00
  0.00000000E+00  0.00000000E+00  0.00000000E+00
  0.00000000E+00  0.00000000E+00  0.00000000E+00
  0.00000000E+00  0.00000000E+00  0.00000000E+00
  0.00000000E+00  0.00000000E+00  0.00000000E+00
  0.00000000E+00  0.00000000E+00  0.00000000E+00
  0.00000000E+00  0.00000000E+00  0.00000000E+00
  0.00000000E+00  0.00000000E+00  0.00000000E+00
  0.00000000E+00  0.00000000E+00  0.00000000E+00
  0.00000000E+00  0.00000000E+00  0.00000000E+00
  0.00000000E+00  0.00000000E+00  0.00000000E+00
  0.00000000E+00  0.00000000E+00  0.00000000E+00
  0.00000000E+00  0.00000000E+00  0.00000000E+00
  0.00000000E+00  0.00000000E+00  0.00000000E+00
  0.00000000E+00  0.00000000E+00  0.00000000E+00
  0.00000000E+00  0.00000000E+00  0.00000000E+00
  0.00000000E+00  0.00000000E+00  0.00000000E+00
  0.00000000E+00  0.00000000E+00  0.00000000E+00
  0.00000000E+00  0.00000000E+00  0.00000000E+00
  0.00000000E+00  0.00000000E+00  0.00000000E+00
  0.00000000E+00  0.00000000E+00  0.00000000E+00
  0.00000000E+00  0.00000000E+00  0.00000000E+00
