CONTCAR\(10)                            
   1.00000000000000     
     9.7571001052999993    0.0000000000000000    0.0000000000000000
    -3.0063686365000000   15.8319856181999992    0.0000000000000000
     0.0000000000000000    0.0000000000000000   18.2793006897000012
   V    P    S    O 
     4     8    26     1
Direct
  0.6066207498098848  0.5807079439449154  0.4959241961981036
  0.6207924958804654  0.1079159924951583  0.4990639247829805
  0.4130756161584443  0.4085123507898487  0.4958294113350590
  0.3809735488411050  0.8956836597301603  0.4973895324805540
  0.8326283810460566  0.2680924364227408  0.4890833290873715
  0.7366724996573097  0.4175300811608551  0.6039972883172453
  0.1649462713829379  0.7400757692942079  0.5088247170053890
  0.1833510566299950  0.2496456912684337  0.4888567349679462
  0.3069062284147108  0.0702677465351655  0.5320773023097516
  0.6925195177288970  0.9315709614947565  0.4619284603588554
  0.2987981602899836  0.5673815222280751  0.4659706805232346
  0.8167579865113126  0.7505893631055116  0.5048007947828594
  0.1213040418450149  0.1183407239455079  0.5162705875306202
  0.8766550953846632  0.8806586018737121  0.4712741955332902
  0.9911146189618592  0.7487575498660632  0.5764660839711055
  0.3966089348286914  0.0396779522581241  0.4356757641640172
  0.5310489217311698  0.3557442594803604  0.5907962562611289
  0.2374569082110369  0.4558401110715238  0.4162372860881618
  0.2112359807020212  0.3263350167843413  0.5746310071394731
  0.6524452158763907  0.7230762540062088  0.5704189736247400
  0.4530302938020441  0.6488653878848893  0.4181978439270964
  0.6029264921198561  0.4636672524140550  0.4296629472971460
  0.6690570949662700  0.2262498939079194  0.4205352222909227
  0.8701005704372378  0.3971684268331614  0.5091428749408564
  0.0068292135693255  0.2575521948316037  0.4198929829194284
  0.6060336362604914  0.9614864357103627  0.5595586872154499
  0.7971779546943765  0.6676271558125109  0.4218195163053693
  0.3937234166564068  0.5355329712154884  0.5632436002216110
  0.1927577483339249  0.8168692170124743  0.4215579861450820
  0.7431350088700910  0.5462981771626261  0.5947963886228820
  0.5335171624650172  0.8551804182396125  0.4093907026834387
  0.2361243254716996  0.9592326455957334  0.5822679561715915
  0.3324920573655419  0.7730019877105008  0.5748338846967371
  0.8038895047543804  0.1881897925958498  0.5749048819434677
  0.7642142447654123  0.0437852571693256  0.4137556165749885
  0.4636674549985784  0.1484454857295034  0.5846759988078603
  0.1083344941802196  0.6085861423536727  0.4831782642376368
  0.3509727960674525  0.2766394868482465  0.4227341015293717
  0.8015040983297084  0.3905977992167848  0.6712442100071669
 
  0.00000000E+00  0.00000000E+00  0.00000000E+00
  0.00000000E+00  0.00000000E+00  0.00000000E+00
  0.00000000E+00  0.00000000E+00  0.00000000E+00
  0.00000000E+00  0.00000000E+00  0.00000000E+00
  0.00000000E+00  0.00000000E+00  0.00000000E+00
  0.00000000E+00  0.00000000E+00  0.00000000E+00
  0.00000000E+00  0.00000000E+00  0.00000000E+00
  0.00000000E+00  0.00000000E+00  0.00000000E+00
  0.00000000E+00  0.00000000E+00  0.00000000E+00
  0.00000000E+00  0.00000000E+00  0.00000000E+00
  0.00000000E+00  0.00000000E+00  0.00000000E+00
  0.00000000E+00  0.00000000E+00  0.00000000E+00
  0.00000000E+00  0.00000000E+00  0.00000000E+00
  0.00000000E+00  0.00000000E+00  0.00000000E+00
  0.00000000E+00  0.00000000E+00  0.00000000E+00
  0.00000000E+00  0.00000000E+00  0.00000000E+00
  0.00000000E+00  0.00000000E+00  0.00000000E+00
  0.00000000E+00  0.00000000E+00  0.00000000E+00
  0.00000000E+00  0.00000000E+00  0.00000000E+00
  0.00000000E+00  0.00000000E+00  0.00000000E+00
  0.00000000E+00  0.00000000E+00  0.00000000E+00
  0.00000000E+00  0.00000000E+00  0.00000000E+00
  0.00000000E+00  0.00000000E+00  0.00000000E+00
  0.00000000E+00  0.00000000E+00  0.00000000E+00
  0.00000000E+00  0.00000000E+00  0.00000000E+00
  0.00000000E+00  0.00000000E+00  0.00000000E+00
  0.00000000E+00  0.00000000E+00  0.00000000E+00
  0.00000000E+00  0.00000000E+00  0.00000000E+00
  0.00000000E+00  0.00000000E+00  0.00000000E+00
  0.00000000E+00  0.00000000E+00  0.00000000E+00
  0.00000000E+00  0.00000000E+00  0.00000000E+00
  0.00000000E+00  0.00000000E+00  0.00000000E+00
  0.00000000E+00  0.00000000E+00  0.00000000E+00
  0.00000000E+00  0.00000000E+00  0.00000000E+00
  0.00000000E+00  0.00000000E+00  0.00000000E+00
  0.00000000E+00  0.00000000E+00  0.00000000E+00
  0.00000000E+00  0.00000000E+00  0.00000000E+00
  0.00000000E+00  0.00000000E+00  0.00000000E+00
  0.00000000E+00  0.00000000E+00  0.00000000E+00
