CONTCAR\(5)                             
   1.00000000000000     
    13.6462001800999992    0.0000000000000000    0.0000000000000000
     1.7063387634000000   10.2396006658999994    0.0000000000000000
     0.0000000000000000    0.0000000000000000   19.9377994536999985
   Ta   Te   O 
    16    24     1
Direct
  0.1437112842686492  0.8551917464293898  0.4915882219493271
  0.1059986331628131  0.1496671882164742  0.5093688337583618
  0.1966387137723853  0.3960678884828414  0.5238995972931794
  0.0479217832592962  0.6100063794483418  0.4788810116332197
  0.3930247540684096  0.8594078176713463  0.4904928635617389
  0.3554290370495942  0.1522318529934100  0.5107620146056052
  0.4514725724276582  0.3917883981764457  0.5283354450657510
  0.2988361433411541  0.6093791229118573  0.4797028659851411
  0.6417982985045437  0.8565290054967316  0.4930732726276301
  0.6065237221357369  0.1519388745500343  0.5108666033419965
  0.7041554920143864  0.3959830998453210  0.5241901706471820
  0.5487362167465921  0.6081946405395190  0.4808822210350952
  0.8935944958587546  0.8547501143822034  0.4920629794281836
  0.8559787771734868  0.1483605183156171  0.5097856739131638
  0.9511391182860427  0.3932535742933100  0.5249376137136044
  0.7989384547510455  0.6104099717597641  0.4796032338288875
  0.1679690513558863  0.6518214713338115  0.5883103728317128
  0.0801452936273850  0.3545160826823728  0.4139093012204571
  0.1631017625731893  0.6991935736992757  0.3761680293064852
  0.0872650180250254  0.2983192234124402  0.6289339361614897
  0.0026019362055221  0.9811922930814421  0.5880205322803238
  0.2464818106388462  0.0263149314505712  0.4127509410363074
  0.4161812871402103  0.6682862228767298  0.5871172033198477
  0.3303826803356925  0.3567580755201575  0.4155846890338361
  0.4135849896998218  0.6993523691341577  0.3770280286327469
  0.3164285396900865  0.2931091618164612  0.6315799146715609
  0.2515355556275610  0.9801334068008641  0.5873495525346838
  0.4970296485178112  0.0290278004370175  0.4141187006315759
  0.6687764144914784  0.6519157458531197  0.5892255550008477
  0.5807159527822470  0.3563890625841086  0.4155873149529430
  0.6612819540740561  0.7002310200087313  0.3775246029908849
  0.6105993492228629  0.2918490908714356  0.6317089338218573
  0.5019069443603634  0.9850485991971210  0.5893719827245428
  0.7465396574780513  0.0231804303119362  0.4138858416032355
  0.9188033368970112  0.6509576607375686  0.5887420560382942
  0.8313014848190432  0.3539640494477790  0.4144673312380907
  0.9118187954901282  0.6999037991300643  0.3757539489351870
  0.8387868397046849  0.2983426602201872  0.6289591490251502
  0.7533699355046355  0.9781535171126390  0.5883197817602090
  0.9968241377184248  0.0234999479322429  0.4131492706068189
  0.4533398961994163  0.3807110178352138  0.6293504892528257
 
  0.00000000E+00  0.00000000E+00  0.00000000E+00
  0.00000000E+00  0.00000000E+00  0.00000000E+00
  0.00000000E+00  0.00000000E+00  0.00000000E+00
  0.00000000E+00  0.00000000E+00  0.00000000E+00
  0.00000000E+00  0.00000000E+00  0.00000000E+00
  0.00000000E+00  0.00000000E+00  0.00000000E+00
  0.00000000E+00  0.00000000E+00  0.00000000E+00
  0.00000000E+00  0.00000000E+00  0.00000000E+00
  0.00000000E+00  0.00000000E+00  0.00000000E+00
  0.00000000E+00  0.00000000E+00  0.00000000E+00
  0.00000000E+00  0.00000000E+00  0.00000000E+00
  0.00000000E+00  0.00000000E+00  0.00000000E+00
  0.00000000E+00  0.00000000E+00  0.00000000E+00
  0.00000000E+00  0.00000000E+00  0.00000000E+00
  0.00000000E+00  0.00000000E+00  0.00000000E+00
  0.00000000E+00  0.00000000E+00  0.00000000E+00
  0.00000000E+00  0.00000000E+00  0.00000000E+00
  0.00000000E+00  0.00000000E+00  0.00000000E+00
  0.00000000E+00  0.00000000E+00  0.00000000E+00
  0.00000000E+00  0.00000000E+00  0.00000000E+00
  0.00000000E+00  0.00000000E+00  0.00000000E+00
  0.00000000E+00  0.00000000E+00  0.00000000E+00
  0.00000000E+00  0.00000000E+00  0.00000000E+00
  0.00000000E+00  0.00000000E+00  0.00000000E+00
  0.00000000E+00  0.00000000E+00  0.00000000E+00
  0.00000000E+00  0.00000000E+00  0.00000000E+00
  0.00000000E+00  0.00000000E+00  0.00000000E+00
  0.00000000E+00  0.00000000E+00  0.00000000E+00
  0.00000000E+00  0.00000000E+00  0.00000000E+00
  0.00000000E+00  0.00000000E+00  0.00000000E+00
  0.00000000E+00  0.00000000E+00  0.00000000E+00
  0.00000000E+00  0.00000000E+00  0.00000000E+00
  0.00000000E+00  0.00000000E+00  0.00000000E+00
  0.00000000E+00  0.00000000E+00  0.00000000E+00
  0.00000000E+00  0.00000000E+00  0.00000000E+00
  0.00000000E+00  0.00000000E+00  0.00000000E+00
  0.00000000E+00  0.00000000E+00  0.00000000E+00
  0.00000000E+00  0.00000000E+00  0.00000000E+00
  0.00000000E+00  0.00000000E+00  0.00000000E+00
  0.00000000E+00  0.00000000E+00  0.00000000E+00
  0.00000000E+00  0.00000000E+00  0.00000000E+00
