 Zr2 Te10                               
   1.00000000000000     
     4.0284303943162714    0.0000000000000000    0.0000000000000000
     0.0000000000000000   13.7131132036272430    0.0000000000000000
     0.0000000000000000    0.0000000000000000   20.3784619021899971
   Zr   Te
     2    10
Direct
  0.0000000203123278  0.5000000005553389  0.4506922655659267
  0.4999999853145383  0.9999999991925748  0.5493077270609135
  0.4999999751621260  0.5000000027223592  0.5607026151939891
  0.0000000200610231  0.9999999996608011  0.4392974041537911
  0.5000000069940995  0.6011213920681655  0.3679808219587031
  0.9999999623545293  0.8988786141619727  0.6320191857390967
  0.0000000056400964  0.1011213887488509  0.6320191850281063
  0.5000000201216750  0.3988786082366289  0.3679808240614264
  0.9999999893091953  0.3160684400338383  0.5286790119020850
  0.5000000050843525  0.1839315658080025  0.4713209730142367
  0.5000000032806469  0.8160684321427070  0.4713209733287869
  0.0000000063653900  0.6839315566687674  0.5286790129929386
 
  0.00000000E+00  0.00000000E+00  0.00000000E+00
  0.00000000E+00  0.00000000E+00  0.00000000E+00
  0.00000000E+00  0.00000000E+00  0.00000000E+00
  0.00000000E+00  0.00000000E+00  0.00000000E+00
  0.00000000E+00  0.00000000E+00  0.00000000E+00
  0.00000000E+00  0.00000000E+00  0.00000000E+00
  0.00000000E+00  0.00000000E+00  0.00000000E+00
  0.00000000E+00  0.00000000E+00  0.00000000E+00
  0.00000000E+00  0.00000000E+00  0.00000000E+00
  0.00000000E+00  0.00000000E+00  0.00000000E+00
  0.00000000E+00  0.00000000E+00  0.00000000E+00
  0.00000000E+00  0.00000000E+00  0.00000000E+00
