CONTCAR\(4)                             
   1.00000000000000     
    14.0670995712000000    0.0000000000000000    0.0000000000000000
     0.0000000000000000   11.9769001007000000    0.0000000000000000
     0.0000000000000000    0.0000000000000000   20.6152992248999993
   Sc   C    Cl   O 
    20     4    32     1
Direct
  0.1256189211615022  0.9807458774666967  0.6101493452810982
  0.1231514993045637  0.0184334406087396  0.4000790566417293
  0.0000090626328273  0.1254131744063095  0.5121056215985722
  0.0000102957588766  0.8743295201581113  0.4970245383106972
  0.1251016893481870  0.4996441476892634  0.5010911539600846
  0.3948110122323754  0.9807164964190488  0.6202839788736261
  0.3735763709955334  0.0191219578064095  0.3975199819859413
  0.2506073894658518  0.1262035368798974  0.5110657176741613
  0.2512276571593390  0.8735522394363299  0.4962280977032055
  0.3746213116500307  0.5021114333830067  0.4940063364410456
  0.6051748028577665  0.9807148782912091  0.6202869288435371
  0.6264110866125736  0.0191187498165606  0.3975179817323821
  0.4999927336623742  0.1287642408933732  0.5074177660909770
  0.4999895332617541  0.8736098942664997  0.4922465105481165
  0.6253707902774941  0.5021107721354096  0.4940071832483917
  0.8743846069502238  0.9807444062602299  0.6101580043960593
  0.8768589457458006  0.0184355243735803  0.4000746726765242
  0.7493876803314986  0.1262098243705464  0.5110671751188436
  0.7487666098060557  0.8735439195306695  0.4962305005376738
  0.8748965741983502  0.4996448930543273  0.5010912686682423
  0.1267931014967128  0.9994997692152200  0.5056992912061766
  0.3757050010290050  0.0003898490717517  0.5026502011806586
  0.6242767127858919  0.0003895313787652  0.5026535771202789
  0.8732110945487963  0.9994998219625589  0.5057013901485867
  0.1247216292724528  0.7111686304169541  0.4841061552900811
  0.1251006779940247  0.2897306320550505  0.5239467011500301
  0.0000061810748022  0.8291930470719177  0.6233137872034903
  0.0000090036246050  0.1713827192231339  0.3858971535629984
  0.0000090361874072  0.8741899367179741  0.3672673751002937
  0.0000064676695430  0.1242069438750990  0.6416571068077901
  0.0000021758731279  0.5214716098333319  0.5860437713921812
  0.0000010096110046  0.4784973358695920  0.4166603738985029
  0.3720763215592078  0.7104341942364613  0.4706296395330453
  0.3707845620553529  0.2924388127453758  0.5081464168670293
  0.2547426573082910  0.8335740079054458  0.6216864604276260
  0.2476662498868912  0.1692655931938377  0.3834816822027827
  0.2481703803151037  0.8766515380155978  0.3657760142037267
  0.2540382948699187  0.1218867167877362  0.6391929465702176
  0.2541230454573393  0.5233373353211662  0.5822065618742360
  0.2447241827734980  0.4803403622862265  0.4125355814154270
  0.6279089794780763  0.7104338794778670  0.4706323829176368
  0.6292026332919346  0.2924349165302280  0.5081520842770089
  0.4999895924053845  0.7904750127790005  0.5994471695992980
  0.4999923932887995  0.1689678472082585  0.3797357593040461
  0.4999900023020345  0.8784144013538800  0.3623313334664361
  0.4999905504041138  0.1772558242528763  0.6219801263762127
  0.4999929785696509  0.5114012226214657  0.5781426951192097
  0.4999941578244531  0.4822454664848970  0.4088490157090037
  0.8752876321260363  0.7111697986583084  0.4841030457355614
  0.8749089369844845  0.2897297944349297  0.5239492470750227
  0.7452494503466348  0.8335696618944494  0.6216964672428780
  0.7523292368106874  0.1692640409543558  0.3834779652000984
  0.7518289379659235  0.8766524684991849  0.3657708277052925
  0.7459526974700486  0.1218911844412403  0.6392009765963550
  0.7458725961307394  0.5233369024625675  0.5822076526962465
  0.7552707298392368  0.4803394055781839  0.4125345057848344
  0.4999917569558221  0.9717807899388768  0.6786345697087675
 
  0.00000000E+00  0.00000000E+00  0.00000000E+00
  0.00000000E+00  0.00000000E+00  0.00000000E+00
  0.00000000E+00  0.00000000E+00  0.00000000E+00
  0.00000000E+00  0.00000000E+00  0.00000000E+00
  0.00000000E+00  0.00000000E+00  0.00000000E+00
  0.00000000E+00  0.00000000E+00  0.00000000E+00
  0.00000000E+00  0.00000000E+00  0.00000000E+00
  0.00000000E+00  0.00000000E+00  0.00000000E+00
  0.00000000E+00  0.00000000E+00  0.00000000E+00
  0.00000000E+00  0.00000000E+00  0.00000000E+00
  0.00000000E+00  0.00000000E+00  0.00000000E+00
  0.00000000E+00  0.00000000E+00  0.00000000E+00
  0.00000000E+00  0.00000000E+00  0.00000000E+00
  0.00000000E+00  0.00000000E+00  0.00000000E+00
  0.00000000E+00  0.00000000E+00  0.00000000E+00
  0.00000000E+00  0.00000000E+00  0.00000000E+00
  0.00000000E+00  0.00000000E+00  0.00000000E+00
  0.00000000E+00  0.00000000E+00  0.00000000E+00
  0.00000000E+00  0.00000000E+00  0.00000000E+00
  0.00000000E+00  0.00000000E+00  0.00000000E+00
  0.00000000E+00  0.00000000E+00  0.00000000E+00
  0.00000000E+00  0.00000000E+00  0.00000000E+00
  0.00000000E+00  0.00000000E+00  0.00000000E+00
  0.00000000E+00  0.00000000E+00  0.00000000E+00
  0.00000000E+00  0.00000000E+00  0.00000000E+00
  0.00000000E+00  0.00000000E+00  0.00000000E+00
  0.00000000E+00  0.00000000E+00  0.00000000E+00
  0.00000000E+00  0.00000000E+00  0.00000000E+00
  0.00000000E+00  0.00000000E+00  0.00000000E+00
  0.00000000E+00  0.00000000E+00  0.00000000E+00
  0.00000000E+00  0.00000000E+00  0.00000000E+00
  0.00000000E+00  0.00000000E+00  0.00000000E+00
  0.00000000E+00  0.00000000E+00  0.00000000E+00
  0.00000000E+00  0.00000000E+00  0.00000000E+00
  0.00000000E+00  0.00000000E+00  0.00000000E+00
  0.00000000E+00  0.00000000E+00  0.00000000E+00
  0.00000000E+00  0.00000000E+00  0.00000000E+00
  0.00000000E+00  0.00000000E+00  0.00000000E+00
  0.00000000E+00  0.00000000E+00  0.00000000E+00
  0.00000000E+00  0.00000000E+00  0.00000000E+00
  0.00000000E+00  0.00000000E+00  0.00000000E+00
  0.00000000E+00  0.00000000E+00  0.00000000E+00
  0.00000000E+00  0.00000000E+00  0.00000000E+00
  0.00000000E+00  0.00000000E+00  0.00000000E+00
  0.00000000E+00  0.00000000E+00  0.00000000E+00
  0.00000000E+00  0.00000000E+00  0.00000000E+00
  0.00000000E+00  0.00000000E+00  0.00000000E+00
  0.00000000E+00  0.00000000E+00  0.00000000E+00
  0.00000000E+00  0.00000000E+00  0.00000000E+00
  0.00000000E+00  0.00000000E+00  0.00000000E+00
  0.00000000E+00  0.00000000E+00  0.00000000E+00
  0.00000000E+00  0.00000000E+00  0.00000000E+00
  0.00000000E+00  0.00000000E+00  0.00000000E+00
  0.00000000E+00  0.00000000E+00  0.00000000E+00
  0.00000000E+00  0.00000000E+00  0.00000000E+00
  0.00000000E+00  0.00000000E+00  0.00000000E+00
  0.00000000E+00  0.00000000E+00  0.00000000E+00
