CONTCAR                                 
   1.00000000000000     
    13.0608997344999995    0.0000000000000000    0.0000000000000000
    -3.2652307411999999   18.2355734656999999    0.0000000000000000
     0.0000000000000000    0.0000000000000000   18.6539993286000012
   Ta   Pd   S    O 
    16     8    48     1
Direct
  0.0869043863718753  0.3493026502589078  0.5236441076018995
  0.1664579735573906  0.1515050061439764  0.4762793876207217
  0.3458318716204938  0.3494175132601265  0.5232350720605706
  0.4163397984228867  0.1510902669497462  0.4757367134873895
  0.5921347417324452  0.3505570136854825  0.5253182342210241
  0.6662538491233224  0.1508564699686513  0.4765285505441246
  0.8412762962852016  0.3504446914402790  0.5254852934858151
  0.9163043094406929  0.1507969061228025  0.4759863562712420
  0.0870871428594959  0.8507288882929911  0.5246950484721046
  0.1635786381616259  0.6528543118469772  0.4748471238913558
  0.3374459567933360  0.8515584844437272  0.5251422575907960
  0.4117736333367548  0.6529384250851392  0.4746034195789818
  0.5875310385064600  0.8508518730086835  0.5241487232956249
  0.6621509549883483  0.6508476743483316  0.4758228447886451
  0.8371349633122842  0.8499727832895991  0.5246533767793645
  0.9121175918447957  0.6507844337837869  0.4760989963577471
  0.0013669175017901  0.0006749959599985  0.5008369151370045
  0.2514768334739791  0.0012667838570444  0.5008290930823619
  0.5020233229488835  0.0013594638070770  0.5002389942312278
  0.7522991738364758  0.0006360967139638  0.5003562466613861
  0.0034229968396783  0.4986859982034628  0.5017468722129749
  0.2537688979079002  0.5087732021329443  0.4967931429200512
  0.4996563960929931  0.4988623145058270  0.5012582950696711
  0.7522273754503418  0.5015811138048967  0.5000120659592014
  0.1940064438623283  0.2602817088027982  0.5702637833081353
  0.0305465216628210  0.1091668609232278  0.5686646032022821
  0.2274558102265989  0.3960426462601756  0.4349439103758923
  0.0638674761269743  0.2427467798508643  0.4297391158909885
  0.2362199536007319  0.4271594254933813  0.5886520351598536
  0.0240195519495455  0.0807316386899801  0.4025887412133197
  0.4442772010894689  0.2570665147329773  0.5695705149462271
  0.2806895720948501  0.1096690688617167  0.5686177446000185
  0.4782921206925740  0.3911270322592242  0.4315939272703794
  0.3145314801363308  0.2428658563631263  0.4294473007636018
  0.4820867613062718  0.4180440853373846  0.6006167774389291
  0.2727906314690626  0.0810225285722603  0.4024002664074001
  0.6934118775285355  0.2584189739769600  0.5703367487346634
  0.5302781507119801  0.1091188502052552  0.5686760998421146
  0.7271668921137987  0.3931100219740962  0.4328008904116359
  0.5652973769332408  0.2435223984659770  0.4315492449862880
  0.7346617981175134  0.4219225514687008  0.5984100686085261
  0.5237443814533381  0.0815964578644079  0.4017704479202804
  0.9417691391206787  0.2568585916942867  0.5698617004171660
  0.7803931516095387  0.1085835486860805  0.5687235063087084
  0.9748794265618360  0.3909791506204953  0.4319481921189266
  0.8139854325449190  0.2432741737218009  0.4317062147371101
  0.9851225891704278  0.4178274312570838  0.6010661201383959
  0.7734800485827827  0.0811234288055578  0.4021114644516499
  0.1892515148826637  0.7589263594628586  0.5695152018376813
  0.0276737790921069  0.6078882959548657  0.5678831378750380
  0.2232286621696314  0.8933547902229405  0.4325617429082372
  0.0597877083358489  0.7434948869529382  0.4303609676871792
  0.2292701183802378  0.9208861897845363  0.5991157651088483
  0.0195342898198569  0.5787490490470497  0.4039549509014357
  0.4397836112435271  0.7590638249340710  0.5692032066579620
  0.2783388253211048  0.6139299075310390  0.5674182321948035
  0.4732578993810893  0.8933086728886007  0.4321926476666729
  0.3110769115031217  0.7466791975987427  0.4308841229637853
  0.4808647196097854  0.9212144263462630  0.5985420680402412
  0.2714549097158175  0.5889176402872782  0.3961903056469445
  0.6886362208313290  0.7579992628663844  0.5694706073273651
  0.5255724885108649  0.6080339407799015  0.5675506234785365
  0.7236732358176330  0.8926685421248673  0.4320261222518701
  0.5612539548183343  0.7435106528459128  0.4299104214051537
  0.7299478147008713  0.9200780135343730  0.5985179929033322
  0.5187921251633447  0.5790537071948980  0.4034897212768406
  0.9395495618217292  0.7579097546288874  0.5697532171510160
  0.7769233751740182  0.6096466786346878  0.5683589664264753
  0.9730696695665180  0.8927761548844435  0.4323910936856274
  0.8105304291766910  0.7432450059439126  0.4308787655564180
  0.9793663948441113  0.9199403018976539  0.5989244672527884
  0.7700245724812199  0.5819480671034062  0.4013161868999058
  0.2419484315629069  0.4475185847472209  0.6659529533220506
 
  0.00000000E+00  0.00000000E+00  0.00000000E+00
  0.00000000E+00  0.00000000E+00  0.00000000E+00
  0.00000000E+00  0.00000000E+00  0.00000000E+00
  0.00000000E+00  0.00000000E+00  0.00000000E+00
  0.00000000E+00  0.00000000E+00  0.00000000E+00
  0.00000000E+00  0.00000000E+00  0.00000000E+00
  0.00000000E+00  0.00000000E+00  0.00000000E+00
  0.00000000E+00  0.00000000E+00  0.00000000E+00
  0.00000000E+00  0.00000000E+00  0.00000000E+00
  0.00000000E+00  0.00000000E+00  0.00000000E+00
  0.00000000E+00  0.00000000E+00  0.00000000E+00
  0.00000000E+00  0.00000000E+00  0.00000000E+00
  0.00000000E+00  0.00000000E+00  0.00000000E+00
  0.00000000E+00  0.00000000E+00  0.00000000E+00
  0.00000000E+00  0.00000000E+00  0.00000000E+00
  0.00000000E+00  0.00000000E+00  0.00000000E+00
  0.00000000E+00  0.00000000E+00  0.00000000E+00
  0.00000000E+00  0.00000000E+00  0.00000000E+00
  0.00000000E+00  0.00000000E+00  0.00000000E+00
  0.00000000E+00  0.00000000E+00  0.00000000E+00
  0.00000000E+00  0.00000000E+00  0.00000000E+00
  0.00000000E+00  0.00000000E+00  0.00000000E+00
  0.00000000E+00  0.00000000E+00  0.00000000E+00
  0.00000000E+00  0.00000000E+00  0.00000000E+00
  0.00000000E+00  0.00000000E+00  0.00000000E+00
  0.00000000E+00  0.00000000E+00  0.00000000E+00
  0.00000000E+00  0.00000000E+00  0.00000000E+00
  0.00000000E+00  0.00000000E+00  0.00000000E+00
  0.00000000E+00  0.00000000E+00  0.00000000E+00
  0.00000000E+00  0.00000000E+00  0.00000000E+00
  0.00000000E+00  0.00000000E+00  0.00000000E+00
  0.00000000E+00  0.00000000E+00  0.00000000E+00
  0.00000000E+00  0.00000000E+00  0.00000000E+00
  0.00000000E+00  0.00000000E+00  0.00000000E+00
  0.00000000E+00  0.00000000E+00  0.00000000E+00
  0.00000000E+00  0.00000000E+00  0.00000000E+00
  0.00000000E+00  0.00000000E+00  0.00000000E+00
  0.00000000E+00  0.00000000E+00  0.00000000E+00
  0.00000000E+00  0.00000000E+00  0.00000000E+00
  0.00000000E+00  0.00000000E+00  0.00000000E+00
  0.00000000E+00  0.00000000E+00  0.00000000E+00
  0.00000000E+00  0.00000000E+00  0.00000000E+00
  0.00000000E+00  0.00000000E+00  0.00000000E+00
  0.00000000E+00  0.00000000E+00  0.00000000E+00
  0.00000000E+00  0.00000000E+00  0.00000000E+00
  0.00000000E+00  0.00000000E+00  0.00000000E+00
  0.00000000E+00  0.00000000E+00  0.00000000E+00
  0.00000000E+00  0.00000000E+00  0.00000000E+00
  0.00000000E+00  0.00000000E+00  0.00000000E+00
  0.00000000E+00  0.00000000E+00  0.00000000E+00
  0.00000000E+00  0.00000000E+00  0.00000000E+00
  0.00000000E+00  0.00000000E+00  0.00000000E+00
  0.00000000E+00  0.00000000E+00  0.00000000E+00
  0.00000000E+00  0.00000000E+00  0.00000000E+00
  0.00000000E+00  0.00000000E+00  0.00000000E+00
  0.00000000E+00  0.00000000E+00  0.00000000E+00
  0.00000000E+00  0.00000000E+00  0.00000000E+00
  0.00000000E+00  0.00000000E+00  0.00000000E+00
  0.00000000E+00  0.00000000E+00  0.00000000E+00
  0.00000000E+00  0.00000000E+00  0.00000000E+00
  0.00000000E+00  0.00000000E+00  0.00000000E+00
  0.00000000E+00  0.00000000E+00  0.00000000E+00
  0.00000000E+00  0.00000000E+00  0.00000000E+00
  0.00000000E+00  0.00000000E+00  0.00000000E+00
  0.00000000E+00  0.00000000E+00  0.00000000E+00
  0.00000000E+00  0.00000000E+00  0.00000000E+00
  0.00000000E+00  0.00000000E+00  0.00000000E+00
  0.00000000E+00  0.00000000E+00  0.00000000E+00
  0.00000000E+00  0.00000000E+00  0.00000000E+00
  0.00000000E+00  0.00000000E+00  0.00000000E+00
  0.00000000E+00  0.00000000E+00  0.00000000E+00
  0.00000000E+00  0.00000000E+00  0.00000000E+00
  0.00000000E+00  0.00000000E+00  0.00000000E+00
