CONTCAR\(2)                             
   1.00000000000000     
    11.2130002975000007    0.0000000000000000    0.0000000000000000
     0.0000000000000000   15.4723997115999996    0.0000000000000000
     0.0000000000000000    0.0000000000000000   19.4957008362000010
   Ta   Te   Pt   O 
     6    30     6     1
Direct
  0.0013422672307168  0.2500056640896655  0.5028476051074947
  0.0015387901790565  0.7499876996840442  0.5006188564551531
  0.3334201314433198  0.2500136181735628  0.5016257950939552
  0.3335777375859198  0.7500018080997666  0.5060976896643654
  0.6649826799760544  0.2500046996358685  0.5028628999981921
  0.6653409570523164  0.7499929050660722  0.5007837539587040
  0.1677155427453606  0.2499968588579135  0.6141032543928457
  0.1683940047998304  0.7500190956375071  0.3896349247250486
 -0.0002607217063384  0.9154862272678874  0.4275595572095622
  0.0001828869967823  0.0844462262171415  0.5751627608543529
  0.1676373011709325  0.1481417911698195  0.4246760508492025
  0.1616054020370020  0.8589999780137503  0.5768456001376199
  0.1616901528363879  0.6409842151818143  0.5768384818168870
  0.1676037023280212  0.3518602735185438  0.4246577047163795
 -0.0002621255214575  0.5845037980626827  0.4275528709262757
  0.0001976354562329  0.4155601262796472  0.5751517659942359
  0.4985567195314318  0.2500111886039961  0.6141602078254349
  0.4985722726313748  0.7500067262649642  0.3895401775912571
  0.3332965474945285  0.9136299934217939  0.4263107535280833
  0.3331831225771646  0.0852694380812005  0.5743979949571866
  0.4990727432739094  0.1480306538367875  0.4246098862797357
  0.5053061026755468  0.8589934361973003  0.5769247470108094
  0.5052440956306048  0.6409860408850608  0.5769141092972393
  0.4990809648778180  0.3519553438230861  0.4245841462634388
  0.3332721809095079  0.5863655339073135  0.4263117147479723
  0.3332196135489261  0.4147452396487438  0.5743715717043542
  0.8330261548659580  0.2500379370981892  0.6143695048185677
  0.8332966716480661  0.7499868919515285  0.3898493964249766
  0.6668173364842351  0.9152625394455111  0.4278037207585662
  0.6664872367223967  0.0844485528811486  0.5753650322802124
  0.8331367384931784  0.1483173828781951  0.4267613459352259
  0.8335447988467376  0.8527001456919752  0.5765443413240814
  0.8335564017787819  0.6472829689008986  0.5765548057913070
  0.8331378261373494  0.3516894663269196  0.4267668551338715
  0.6668076748621635  0.5847287726152733  0.4277703701904879
  0.6664857379835745  0.4155560043643017  0.5753550709909305
  0.1663392002691981  0.0017836248920877  0.4993732038731846
  0.1663531797939521  0.4982162082497587  0.4993795799553503
  0.5002084054265650  0.0018497605660424  0.4995052160142311
  0.5002106902144864  0.4981381236456664  0.4994671842510459
  0.8332793304389253  0.0002333313557426  0.5012927912865280
  0.8332704149919400  0.4997693781228721  0.5012879237857318
  0.3339917472815229  0.7502101633879870  0.6079089850799418
 
  0.00000000E+00  0.00000000E+00  0.00000000E+00
  0.00000000E+00  0.00000000E+00  0.00000000E+00
  0.00000000E+00  0.00000000E+00  0.00000000E+00
  0.00000000E+00  0.00000000E+00  0.00000000E+00
  0.00000000E+00  0.00000000E+00  0.00000000E+00
  0.00000000E+00  0.00000000E+00  0.00000000E+00
  0.00000000E+00  0.00000000E+00  0.00000000E+00
  0.00000000E+00  0.00000000E+00  0.00000000E+00
  0.00000000E+00  0.00000000E+00  0.00000000E+00
  0.00000000E+00  0.00000000E+00  0.00000000E+00
  0.00000000E+00  0.00000000E+00  0.00000000E+00
  0.00000000E+00  0.00000000E+00  0.00000000E+00
  0.00000000E+00  0.00000000E+00  0.00000000E+00
  0.00000000E+00  0.00000000E+00  0.00000000E+00
  0.00000000E+00  0.00000000E+00  0.00000000E+00
  0.00000000E+00  0.00000000E+00  0.00000000E+00
  0.00000000E+00  0.00000000E+00  0.00000000E+00
  0.00000000E+00  0.00000000E+00  0.00000000E+00
  0.00000000E+00  0.00000000E+00  0.00000000E+00
  0.00000000E+00  0.00000000E+00  0.00000000E+00
  0.00000000E+00  0.00000000E+00  0.00000000E+00
  0.00000000E+00  0.00000000E+00  0.00000000E+00
  0.00000000E+00  0.00000000E+00  0.00000000E+00
  0.00000000E+00  0.00000000E+00  0.00000000E+00
  0.00000000E+00  0.00000000E+00  0.00000000E+00
  0.00000000E+00  0.00000000E+00  0.00000000E+00
  0.00000000E+00  0.00000000E+00  0.00000000E+00
  0.00000000E+00  0.00000000E+00  0.00000000E+00
  0.00000000E+00  0.00000000E+00  0.00000000E+00
  0.00000000E+00  0.00000000E+00  0.00000000E+00
  0.00000000E+00  0.00000000E+00  0.00000000E+00
  0.00000000E+00  0.00000000E+00  0.00000000E+00
  0.00000000E+00  0.00000000E+00  0.00000000E+00
  0.00000000E+00  0.00000000E+00  0.00000000E+00
  0.00000000E+00  0.00000000E+00  0.00000000E+00
  0.00000000E+00  0.00000000E+00  0.00000000E+00
  0.00000000E+00  0.00000000E+00  0.00000000E+00
  0.00000000E+00  0.00000000E+00  0.00000000E+00
  0.00000000E+00  0.00000000E+00  0.00000000E+00
  0.00000000E+00  0.00000000E+00  0.00000000E+00
  0.00000000E+00  0.00000000E+00  0.00000000E+00
  0.00000000E+00  0.00000000E+00  0.00000000E+00
  0.00000000E+00  0.00000000E+00  0.00000000E+00
