CONTCAR\(7)                             
   1.00000000000000     
    10.6485004424999996    0.0000000000000000    0.0000000000000000
     0.0000000000000000   10.3634004592999993    0.0000000000000000
     0.0000000000000000    0.0000000000000000   16.5244998932000016
   Cu   F    O 
    12    24     1
Direct
  0.1726219356544947  0.2501068485443418  0.5080809353812641
  0.0049235383859425  0.0021196852125899  0.4928060078292654
  0.5037656812011526  0.2455836161238468  0.5018930932338687
  0.3273590198836416  0.9948690493745910  0.5088207339443513
  0.8368358096860142  0.2500293210799394  0.4903467542288885
  0.6733863465432599  0.9988578015350236  0.4912496543774671
  0.1584813133532621  0.7515983164705120  0.5064218292390247
  0.0093706048899858  0.5037764576596711  0.5020862632996506
  0.5032549743659975  0.7464288953318070  0.5072254319990906
  0.3587198520155163  0.4924357100944509  0.5432163224127425
  0.8323013273952701  0.7489669441404325  0.4856249425100460
  0.6774870633673972  0.4973202105340794  0.4911095449424734
  0.0492622177720520  0.1624647701769510  0.4410477999073967
  0.1953649586097891  0.0887507469500538  0.5629387185731468
  0.1497029532875674  0.4123578535149932  0.4560499795287086
  0.3011314475528198  0.3221280097611411  0.5771061078343719
  0.3699661250807156  0.1501603994017147  0.4511989446254275
  0.5528450669838483  0.0902876930027624  0.5556581439557453
  0.4485530392779853  0.4045720072905218  0.4557108024842165
  0.6407014528756084  0.3411945982343813  0.5502362778673091
  0.7067899223791311  0.1562310850718940  0.4334069530314348
  0.8722698322208721  0.0931132183365108  0.5476879655580504
  0.8011732900294996  0.4037175174540504  0.4301737283026045
  0.9595797908897529  0.3441464028237269  0.5527985884364917
  0.0433609679742405  0.6567917737320662  0.4374259732344021
  0.1398534449040063  0.6100213860050986  0.5777485014637640
  0.1386975922297471  0.9064278413900283  0.4412037049504379
  0.2820048717191716  0.8448879979877132  0.5696234640175704
  0.3603071749533494  0.6489598016294588  0.4734850935810381
  0.5623889614797841  0.5917213109941400  0.5593018717752372
  0.4529467384497694  0.8985112711178417  0.4510722614589258
  0.6424333695488967  0.8418604265263551  0.5504763430301716
  0.7035818544466192  0.6530723567444449  0.4297223978359823
  0.8651992347306887  0.5934207982936890  0.5459135880065938
  0.7946304800776328  0.9053360447712583  0.4280618821390653
  0.9558854681860153  0.8451793747323930  0.5461781344135640
  0.3244021285985044  0.5675926139555111  0.6363316295902927
 
  0.00000000E+00  0.00000000E+00  0.00000000E+00
  0.00000000E+00  0.00000000E+00  0.00000000E+00
  0.00000000E+00  0.00000000E+00  0.00000000E+00
  0.00000000E+00  0.00000000E+00  0.00000000E+00
  0.00000000E+00  0.00000000E+00  0.00000000E+00
  0.00000000E+00  0.00000000E+00  0.00000000E+00
  0.00000000E+00  0.00000000E+00  0.00000000E+00
  0.00000000E+00  0.00000000E+00  0.00000000E+00
  0.00000000E+00  0.00000000E+00  0.00000000E+00
  0.00000000E+00  0.00000000E+00  0.00000000E+00
  0.00000000E+00  0.00000000E+00  0.00000000E+00
  0.00000000E+00  0.00000000E+00  0.00000000E+00
  0.00000000E+00  0.00000000E+00  0.00000000E+00
  0.00000000E+00  0.00000000E+00  0.00000000E+00
  0.00000000E+00  0.00000000E+00  0.00000000E+00
  0.00000000E+00  0.00000000E+00  0.00000000E+00
  0.00000000E+00  0.00000000E+00  0.00000000E+00
  0.00000000E+00  0.00000000E+00  0.00000000E+00
  0.00000000E+00  0.00000000E+00  0.00000000E+00
  0.00000000E+00  0.00000000E+00  0.00000000E+00
  0.00000000E+00  0.00000000E+00  0.00000000E+00
  0.00000000E+00  0.00000000E+00  0.00000000E+00
  0.00000000E+00  0.00000000E+00  0.00000000E+00
  0.00000000E+00  0.00000000E+00  0.00000000E+00
  0.00000000E+00  0.00000000E+00  0.00000000E+00
  0.00000000E+00  0.00000000E+00  0.00000000E+00
  0.00000000E+00  0.00000000E+00  0.00000000E+00
  0.00000000E+00  0.00000000E+00  0.00000000E+00
  0.00000000E+00  0.00000000E+00  0.00000000E+00
  0.00000000E+00  0.00000000E+00  0.00000000E+00
  0.00000000E+00  0.00000000E+00  0.00000000E+00
  0.00000000E+00  0.00000000E+00  0.00000000E+00
  0.00000000E+00  0.00000000E+00  0.00000000E+00
  0.00000000E+00  0.00000000E+00  0.00000000E+00
  0.00000000E+00  0.00000000E+00  0.00000000E+00
  0.00000000E+00  0.00000000E+00  0.00000000E+00
  0.00000000E+00  0.00000000E+00  0.00000000E+00
