CONTCAR\(18)                            
   1.00000000000000     
    13.2923002242999999    0.0000000000000000    0.0000000000000000
     6.5701190447000002   11.5675693128999999    0.0000000000000000
     0.0000000000000000    0.0000000000000000   18.3850994109999988
   Nb   Ir   S    O 
    12     4    32     1
Direct
  0.2429797975627002  0.0193532917500365  0.4994846662214444
  0.4834585014105314  0.9961178864191684  0.5017273653663903
  0.4918151607738279  0.2346586636923312  0.4988072424177162
  0.7683729098200929  0.0105515280061860  0.5025700757494773
  0.0047918648347104  0.0175758983015342  0.5000569504705836
  0.9818027773510468  0.2596116806599320  0.5020680725324754
  0.2671425043810906  0.5107141031434489  0.5021858471723767
  0.5045289237862466  0.5165295012873179  0.5009272362141559
  0.4823007306847942  0.7570057344775787  0.5021827076938180
  0.7434142449700316  0.5208985264656459  0.4997946037321200
  0.9846504389323073  0.4983819561985483  0.5012352286789484
  0.9921803438333218  0.7345930989382085  0.4988519686635270
  0.2751908082558774  0.2267132313592288  0.4987358146336374
  0.7751431612169851  0.2279311784813945  0.5027035382113904
  0.2750508957938759  0.7265512218191874  0.5010540727522095
  0.7748702386762195  0.7274525868899246  0.4988507413666649
  0.3401451511672280  0.0762475798711350  0.4071845829848333
  0.0823869411885369  0.0954946542909131  0.4117264306717714
  0.0990265090816397  0.3233631531300181  0.4267354137474630
  0.3303477376052916  0.3345143182185433  0.4185995052213148
  0.1680051652816280  0.1752347274531625  0.5829106691260263
  0.4238257176414037  0.1560587810217043  0.5913096774365331
  0.4205091546116729  0.4178174263281307  0.5828785486789536
  0.1787241903634738  0.4037941314106001  0.5681716203910673
  0.8457120007816336  0.0798749602190810  0.4098513468468813
  0.5844275286039342  0.0809980437880556  0.4193011482126082
  0.5980538240284694  0.3242416279873676  0.4329338478190700
  0.8264022214024490  0.3351306854977029  0.4185378753030360
  0.6675152933868511  0.1722092038561543  0.5826523661009346
  0.9254956612819606  0.1622561606650749  0.5943168810676270
  0.9078850339620286  0.4199432181271444  0.5898674447586196
  0.6791359058855462  0.4035673993862294  0.5753550928868630
  0.3462987354782113  0.5773896904907666  0.4094419530234513
  0.0843631675885261  0.5810078097124103  0.4184590638023232
  0.0962074398059421  0.8247505406724990  0.4320856175060069
  0.3266757866620423  0.8339205669132470  0.4181159155072461
  0.1680059867025091  0.6719335988659125  0.5824496900431854
  0.4285786604801883  0.6608488842015314  0.5926745495116923
  0.4074862151180740  0.9198095085974336  0.5903736793975149
  0.1796436754087267  0.9017788074589514  0.5744042510119977
  0.8398340502016756  0.5772716165054852  0.4071352804718076
  0.5831822761595228  0.5940430967936028  0.4119984079757244
  0.5992154285200679  0.8232797517428571  0.4265755197912119
  0.8302632429040624  0.8350513677815552  0.4188180151603281
  0.6681626092732741  0.6758676043642176  0.5836614047395947
  0.9234592134349061  0.6566485679570536  0.5916630141057464
  0.9218012279846179  0.9175054403076379  0.5827024779442067
  0.6784502309543036  0.9045647647994882  0.5681504472168155
  0.3974598787659658  0.6757329846946749  0.6708721756605970
 
  0.00000000E+00  0.00000000E+00  0.00000000E+00
  0.00000000E+00  0.00000000E+00  0.00000000E+00
  0.00000000E+00  0.00000000E+00  0.00000000E+00
  0.00000000E+00  0.00000000E+00  0.00000000E+00
  0.00000000E+00  0.00000000E+00  0.00000000E+00
  0.00000000E+00  0.00000000E+00  0.00000000E+00
  0.00000000E+00  0.00000000E+00  0.00000000E+00
  0.00000000E+00  0.00000000E+00  0.00000000E+00
  0.00000000E+00  0.00000000E+00  0.00000000E+00
  0.00000000E+00  0.00000000E+00  0.00000000E+00
  0.00000000E+00  0.00000000E+00  0.00000000E+00
  0.00000000E+00  0.00000000E+00  0.00000000E+00
  0.00000000E+00  0.00000000E+00  0.00000000E+00
  0.00000000E+00  0.00000000E+00  0.00000000E+00
  0.00000000E+00  0.00000000E+00  0.00000000E+00
  0.00000000E+00  0.00000000E+00  0.00000000E+00
  0.00000000E+00  0.00000000E+00  0.00000000E+00
  0.00000000E+00  0.00000000E+00  0.00000000E+00
  0.00000000E+00  0.00000000E+00  0.00000000E+00
  0.00000000E+00  0.00000000E+00  0.00000000E+00
  0.00000000E+00  0.00000000E+00  0.00000000E+00
  0.00000000E+00  0.00000000E+00  0.00000000E+00
  0.00000000E+00  0.00000000E+00  0.00000000E+00
  0.00000000E+00  0.00000000E+00  0.00000000E+00
  0.00000000E+00  0.00000000E+00  0.00000000E+00
  0.00000000E+00  0.00000000E+00  0.00000000E+00
  0.00000000E+00  0.00000000E+00  0.00000000E+00
  0.00000000E+00  0.00000000E+00  0.00000000E+00
  0.00000000E+00  0.00000000E+00  0.00000000E+00
  0.00000000E+00  0.00000000E+00  0.00000000E+00
  0.00000000E+00  0.00000000E+00  0.00000000E+00
  0.00000000E+00  0.00000000E+00  0.00000000E+00
  0.00000000E+00  0.00000000E+00  0.00000000E+00
  0.00000000E+00  0.00000000E+00  0.00000000E+00
  0.00000000E+00  0.00000000E+00  0.00000000E+00
  0.00000000E+00  0.00000000E+00  0.00000000E+00
  0.00000000E+00  0.00000000E+00  0.00000000E+00
  0.00000000E+00  0.00000000E+00  0.00000000E+00
  0.00000000E+00  0.00000000E+00  0.00000000E+00
  0.00000000E+00  0.00000000E+00  0.00000000E+00
  0.00000000E+00  0.00000000E+00  0.00000000E+00
  0.00000000E+00  0.00000000E+00  0.00000000E+00
  0.00000000E+00  0.00000000E+00  0.00000000E+00
  0.00000000E+00  0.00000000E+00  0.00000000E+00
  0.00000000E+00  0.00000000E+00  0.00000000E+00
  0.00000000E+00  0.00000000E+00  0.00000000E+00
  0.00000000E+00  0.00000000E+00  0.00000000E+00
  0.00000000E+00  0.00000000E+00  0.00000000E+00
  0.00000000E+00  0.00000000E+00  0.00000000E+00
