 Sc7 Cl10                               
   1.00000000000000     
     3.5225847372992369    0.0000000000000000    0.0000000000000000
    -1.7612923686496185   15.6418066850067792    0.0000000000000000
     0.0000000000000000    0.0000000000000000   21.6048069386880002
   Sc   Cl
     7    10
Direct
  0.2160525390470909  0.4320519056904146  0.4661097755136723
  0.7839393905016081  0.5679342167769406  0.5339476616298668
  0.2090869303410443  0.4182401751044651  0.6090299131499535
  0.7909113683980706  0.5817574919956456  0.3909709951278586
  0.6402605014370124  0.2806191879672397  0.5319039089214073
  0.3597435570933172  0.7193867387498329  0.4680884229159687
  0.0000022352465763  0.0000032777646481  0.4999729064117844
  0.0791797692502669  0.1583858900654818  0.5351369554152541
  0.9208218857512165  0.8416159102178469  0.4648523368844906
  0.6525199358969189  0.3050986746445759  0.6472525326088672
  0.3474835589278626  0.6949085983062560  0.3527408097034268
  0.5161811802746428  0.0323480581091573  0.4216152759998337
  0.4838197057686031  0.9676523556479779  0.5783756972605616
  0.7603268866131003  0.5207228242976925  0.6536184347546836
  0.3417337308489010  0.6835522207502720  0.5782117598195242
  0.6582681658119682  0.3164523547919273  0.4217839263024032
  0.2396686587917927  0.4792701191196258  0.3463886875804292
 
  0.00000000E+00  0.00000000E+00  0.00000000E+00
  0.00000000E+00  0.00000000E+00  0.00000000E+00
  0.00000000E+00  0.00000000E+00  0.00000000E+00
  0.00000000E+00  0.00000000E+00  0.00000000E+00
  0.00000000E+00  0.00000000E+00  0.00000000E+00
  0.00000000E+00  0.00000000E+00  0.00000000E+00
  0.00000000E+00  0.00000000E+00  0.00000000E+00
  0.00000000E+00  0.00000000E+00  0.00000000E+00
  0.00000000E+00  0.00000000E+00  0.00000000E+00
  0.00000000E+00  0.00000000E+00  0.00000000E+00
  0.00000000E+00  0.00000000E+00  0.00000000E+00
  0.00000000E+00  0.00000000E+00  0.00000000E+00
  0.00000000E+00  0.00000000E+00  0.00000000E+00
  0.00000000E+00  0.00000000E+00  0.00000000E+00
  0.00000000E+00  0.00000000E+00  0.00000000E+00
  0.00000000E+00  0.00000000E+00  0.00000000E+00
  0.00000000E+00  0.00000000E+00  0.00000000E+00
