G   57   13    1    0.005     # Parameters to Generate KPOINTS (Don't Edit This Line)
     371
Reciprocal lattice
    0.000000000000    0.000000000000    0.000000000000       1
    0.017543859649    0.000000000000    0.000000000000       2
    0.035087719298    0.000000000000    0.000000000000       2
    0.052631578947    0.000000000000    0.000000000000       2
    0.070175438596    0.000000000000    0.000000000000       2
    0.087719298246    0.000000000000    0.000000000000       2
    0.105263157895    0.000000000000    0.000000000000       2
    0.122807017544    0.000000000000    0.000000000000       2
    0.140350877193    0.000000000000    0.000000000000       2
    0.157894736842    0.000000000000    0.000000000000       2
    0.175438596491    0.000000000000    0.000000000000       2
    0.192982456140    0.000000000000    0.000000000000       2
    0.210526315789    0.000000000000    0.000000000000       2
    0.228070175439    0.000000000000    0.000000000000       2
    0.245614035088    0.000000000000    0.000000000000       2
    0.263157894737    0.000000000000    0.000000000000       2
    0.280701754386    0.000000000000    0.000000000000       2
    0.298245614035    0.000000000000    0.000000000000       2
    0.315789473684    0.000000000000    0.000000000000       2
    0.333333333333    0.000000000000    0.000000000000       2
    0.350877192982    0.000000000000    0.000000000000       2
    0.368421052632    0.000000000000    0.000000000000       2
    0.385964912281    0.000000000000    0.000000000000       2
    0.403508771930    0.000000000000    0.000000000000       2
    0.421052631579    0.000000000000    0.000000000000       2
    0.438596491228    0.000000000000    0.000000000000       2
    0.456140350877    0.000000000000    0.000000000000       2
    0.473684210526    0.000000000000    0.000000000000       2
    0.491228070175    0.000000000000    0.000000000000       2
    0.000000000000    0.076923076923    0.000000000000       2
    0.017543859649    0.076923076923    0.000000000000       2
    0.035087719298    0.076923076923    0.000000000000       2
    0.052631578947    0.076923076923    0.000000000000       2
    0.070175438596    0.076923076923    0.000000000000       2
    0.087719298246    0.076923076923    0.000000000000       2
    0.105263157895    0.076923076923    0.000000000000       2
    0.122807017544    0.076923076923    0.000000000000       2
    0.140350877193    0.076923076923    0.000000000000       2
    0.157894736842    0.076923076923    0.000000000000       2
    0.175438596491    0.076923076923    0.000000000000       2
    0.192982456140    0.076923076923    0.000000000000       2
    0.210526315789    0.076923076923    0.000000000000       2
    0.228070175439    0.076923076923    0.000000000000       2
    0.245614035088    0.076923076923    0.000000000000       2
    0.263157894737    0.076923076923    0.000000000000       2
    0.280701754386    0.076923076923    0.000000000000       2
    0.298245614035    0.076923076923    0.000000000000       2
    0.315789473684    0.076923076923    0.000000000000       2
    0.333333333333    0.076923076923    0.000000000000       2
    0.350877192982    0.076923076923    0.000000000000       2
    0.368421052632    0.076923076923    0.000000000000       2
    0.385964912281    0.076923076923    0.000000000000       2
    0.403508771930    0.076923076923    0.000000000000       2
    0.421052631579    0.076923076923    0.000000000000       2
    0.438596491228    0.076923076923    0.000000000000       2
    0.456140350877    0.076923076923    0.000000000000       2
    0.473684210526    0.076923076923    0.000000000000       2
    0.491228070175    0.076923076923    0.000000000000       2
   -0.491228070175    0.076923076923    0.000000000000       2
   -0.473684210526    0.076923076923    0.000000000000       2
   -0.456140350877    0.076923076923    0.000000000000       2
   -0.438596491228    0.076923076923    0.000000000000       2
   -0.421052631579    0.076923076923    0.000000000000       2
   -0.403508771930    0.076923076923    0.000000000000       2
   -0.385964912281    0.076923076923    0.000000000000       2
   -0.368421052632    0.076923076923    0.000000000000       2
   -0.350877192982    0.076923076923    0.000000000000       2
   -0.333333333333    0.076923076923    0.000000000000       2
   -0.315789473684    0.076923076923    0.000000000000       2
   -0.298245614035    0.076923076923    0.000000000000       2
   -0.280701754386    0.076923076923    0.000000000000       2
   -0.263157894737    0.076923076923    0.000000000000       2
   -0.245614035088    0.076923076923    0.000000000000       2
   -0.228070175439    0.076923076923    0.000000000000       2
   -0.210526315789    0.076923076923    0.000000000000       2
   -0.192982456140    0.076923076923    0.000000000000       2
   -0.175438596491    0.076923076923    0.000000000000       2
   -0.157894736842    0.076923076923    0.000000000000       2
   -0.140350877193    0.076923076923    0.000000000000       2
   -0.122807017544    0.076923076923    0.000000000000       2
   -0.105263157895    0.076923076923    0.000000000000       2
   -0.087719298246    0.076923076923    0.000000000000       2
   -0.070175438596    0.076923076923    0.000000000000       2
   -0.052631578947    0.076923076923    0.000000000000       2
   -0.035087719298    0.076923076923    0.000000000000       2
   -0.017543859649    0.076923076923    0.000000000000       2
    0.000000000000    0.153846153846    0.000000000000       2
    0.017543859649    0.153846153846    0.000000000000       2
    0.035087719298    0.153846153846    0.000000000000       2
    0.052631578947    0.153846153846    0.000000000000       2
    0.070175438596    0.153846153846    0.000000000000       2
    0.087719298246    0.153846153846    0.000000000000       2
    0.105263157895    0.153846153846    0.000000000000       2
    0.122807017544    0.153846153846    0.000000000000       2
    0.140350877193    0.153846153846    0.000000000000       2
    0.157894736842    0.153846153846    0.000000000000       2
    0.175438596491    0.153846153846    0.000000000000       2
    0.192982456140    0.153846153846    0.000000000000       2
    0.210526315789    0.153846153846    0.000000000000       2
    0.228070175439    0.153846153846    0.000000000000       2
    0.245614035088    0.153846153846    0.000000000000       2
    0.263157894737    0.153846153846    0.000000000000       2
    0.280701754386    0.153846153846    0.000000000000       2
    0.298245614035    0.153846153846    0.000000000000       2
    0.315789473684    0.153846153846    0.000000000000       2
    0.333333333333    0.153846153846    0.000000000000       2
    0.350877192982    0.153846153846    0.000000000000       2
    0.368421052632    0.153846153846    0.000000000000       2
    0.385964912281    0.153846153846    0.000000000000       2
    0.403508771930    0.153846153846    0.000000000000       2
    0.421052631579    0.153846153846    0.000000000000       2
    0.438596491228    0.153846153846    0.000000000000       2
    0.456140350877    0.153846153846    0.000000000000       2
    0.473684210526    0.153846153846    0.000000000000       2
    0.491228070175    0.153846153846    0.000000000000       2
   -0.491228070175    0.153846153846    0.000000000000       2
   -0.473684210526    0.153846153846    0.000000000000       2
   -0.456140350877    0.153846153846    0.000000000000       2
   -0.438596491228    0.153846153846    0.000000000000       2
   -0.421052631579    0.153846153846    0.000000000000       2
   -0.403508771930    0.153846153846    0.000000000000       2
   -0.385964912281    0.153846153846    0.000000000000       2
   -0.368421052632    0.153846153846    0.000000000000       2
   -0.350877192982    0.153846153846    0.000000000000       2
   -0.333333333333    0.153846153846    0.000000000000       2
   -0.315789473684    0.153846153846    0.000000000000       2
   -0.298245614035    0.153846153846    0.000000000000       2
   -0.280701754386    0.153846153846    0.000000000000       2
   -0.263157894737    0.153846153846    0.000000000000       2
   -0.245614035088    0.153846153846    0.000000000000       2
   -0.228070175439    0.153846153846    0.000000000000       2
   -0.210526315789    0.153846153846    0.000000000000       2
   -0.192982456140    0.153846153846    0.000000000000       2
   -0.175438596491    0.153846153846    0.000000000000       2
   -0.157894736842    0.153846153846    0.000000000000       2
   -0.140350877193    0.153846153846    0.000000000000       2
   -0.122807017544    0.153846153846    0.000000000000       2
   -0.105263157895    0.153846153846    0.000000000000       2
   -0.087719298246    0.153846153846    0.000000000000       2
   -0.070175438596    0.153846153846    0.000000000000       2
   -0.052631578947    0.153846153846    0.000000000000       2
   -0.035087719298    0.153846153846    0.000000000000       2
   -0.017543859649    0.153846153846    0.000000000000       2
    0.000000000000    0.230769230769    0.000000000000       2
    0.017543859649    0.230769230769    0.000000000000       2
    0.035087719298    0.230769230769    0.000000000000       2
    0.052631578947    0.230769230769    0.000000000000       2
    0.070175438596    0.230769230769    0.000000000000       2
    0.087719298246    0.230769230769    0.000000000000       2
    0.105263157895    0.230769230769    0.000000000000       2
    0.122807017544    0.230769230769    0.000000000000       2
    0.140350877193    0.230769230769    0.000000000000       2
    0.157894736842    0.230769230769    0.000000000000       2
    0.175438596491    0.230769230769    0.000000000000       2
    0.192982456140    0.230769230769    0.000000000000       2
    0.210526315789    0.230769230769    0.000000000000       2
    0.228070175439    0.230769230769    0.000000000000       2
    0.245614035088    0.230769230769    0.000000000000       2
    0.263157894737    0.230769230769    0.000000000000       2
    0.280701754386    0.230769230769    0.000000000000       2
    0.298245614035    0.230769230769    0.000000000000       2
    0.315789473684    0.230769230769    0.000000000000       2
    0.333333333333    0.230769230769    0.000000000000       2
    0.350877192982    0.230769230769    0.000000000000       2
    0.368421052632    0.230769230769    0.000000000000       2
    0.385964912281    0.230769230769    0.000000000000       2
    0.403508771930    0.230769230769    0.000000000000       2
    0.421052631579    0.230769230769    0.000000000000       2
    0.438596491228    0.230769230769    0.000000000000       2
    0.456140350877    0.230769230769    0.000000000000       2
    0.473684210526    0.230769230769    0.000000000000       2
    0.491228070175    0.230769230769    0.000000000000       2
   -0.491228070175    0.230769230769    0.000000000000       2
   -0.473684210526    0.230769230769    0.000000000000       2
   -0.456140350877    0.230769230769    0.000000000000       2
   -0.438596491228    0.230769230769    0.000000000000       2
   -0.421052631579    0.230769230769    0.000000000000       2
   -0.403508771930    0.230769230769    0.000000000000       2
   -0.385964912281    0.230769230769    0.000000000000       2
   -0.368421052632    0.230769230769    0.000000000000       2
   -0.350877192982    0.230769230769    0.000000000000       2
   -0.333333333333    0.230769230769    0.000000000000       2
   -0.315789473684    0.230769230769    0.000000000000       2
   -0.298245614035    0.230769230769    0.000000000000       2
   -0.280701754386    0.230769230769    0.000000000000       2
   -0.263157894737    0.230769230769    0.000000000000       2
   -0.245614035088    0.230769230769    0.000000000000       2
   -0.228070175439    0.230769230769    0.000000000000       2
   -0.210526315789    0.230769230769    0.000000000000       2
   -0.192982456140    0.230769230769    0.000000000000       2
   -0.175438596491    0.230769230769    0.000000000000       2
   -0.157894736842    0.230769230769    0.000000000000       2
   -0.140350877193    0.230769230769    0.000000000000       2
   -0.122807017544    0.230769230769    0.000000000000       2
   -0.105263157895    0.230769230769    0.000000000000       2
   -0.087719298246    0.230769230769    0.000000000000       2
   -0.070175438596    0.230769230769    0.000000000000       2
   -0.052631578947    0.230769230769    0.000000000000       2
   -0.035087719298    0.230769230769    0.000000000000       2
   -0.017543859649    0.230769230769    0.000000000000       2
    0.000000000000    0.307692307692    0.000000000000       2
    0.017543859649    0.307692307692    0.000000000000       2
    0.035087719298    0.307692307692    0.000000000000       2
    0.052631578947    0.307692307692    0.000000000000       2
    0.070175438596    0.307692307692    0.000000000000       2
    0.087719298246    0.307692307692    0.000000000000       2
    0.105263157895    0.307692307692    0.000000000000       2
    0.122807017544    0.307692307692    0.000000000000       2
    0.140350877193    0.307692307692    0.000000000000       2
    0.157894736842    0.307692307692    0.000000000000       2
    0.175438596491    0.307692307692    0.000000000000       2
    0.192982456140    0.307692307692    0.000000000000       2
    0.210526315789    0.307692307692    0.000000000000       2
    0.228070175439    0.307692307692    0.000000000000       2
    0.245614035088    0.307692307692    0.000000000000       2
    0.263157894737    0.307692307692    0.000000000000       2
    0.280701754386    0.307692307692    0.000000000000       2
    0.298245614035    0.307692307692    0.000000000000       2
    0.315789473684    0.307692307692    0.000000000000       2
    0.333333333333    0.307692307692    0.000000000000       2
    0.350877192982    0.307692307692    0.000000000000       2
    0.368421052632    0.307692307692    0.000000000000       2
    0.385964912281    0.307692307692    0.000000000000       2
    0.403508771930    0.307692307692    0.000000000000       2
    0.421052631579    0.307692307692    0.000000000000       2
    0.438596491228    0.307692307692    0.000000000000       2
    0.456140350877    0.307692307692    0.000000000000       2
    0.473684210526    0.307692307692    0.000000000000       2
    0.491228070175    0.307692307692    0.000000000000       2
   -0.491228070175    0.307692307692    0.000000000000       2
   -0.473684210526    0.307692307692    0.000000000000       2
   -0.456140350877    0.307692307692    0.000000000000       2
   -0.438596491228    0.307692307692    0.000000000000       2
   -0.421052631579    0.307692307692    0.000000000000       2
   -0.403508771930    0.307692307692    0.000000000000       2
   -0.385964912281    0.307692307692    0.000000000000       2
   -0.368421052632    0.307692307692    0.000000000000       2
   -0.350877192982    0.307692307692    0.000000000000       2
   -0.333333333333    0.307692307692    0.000000000000       2
   -0.315789473684    0.307692307692    0.000000000000       2
   -0.298245614035    0.307692307692    0.000000000000       2
   -0.280701754386    0.307692307692    0.000000000000       2
   -0.263157894737    0.307692307692    0.000000000000       2
   -0.245614035088    0.307692307692    0.000000000000       2
   -0.228070175439    0.307692307692    0.000000000000       2
   -0.210526315789    0.307692307692    0.000000000000       2
   -0.192982456140    0.307692307692    0.000000000000       2
   -0.175438596491    0.307692307692    0.000000000000       2
   -0.157894736842    0.307692307692    0.000000000000       2
   -0.140350877193    0.307692307692    0.000000000000       2
   -0.122807017544    0.307692307692    0.000000000000       2
   -0.105263157895    0.307692307692    0.000000000000       2
   -0.087719298246    0.307692307692    0.000000000000       2
   -0.070175438596    0.307692307692    0.000000000000       2
   -0.052631578947    0.307692307692    0.000000000000       2
   -0.035087719298    0.307692307692    0.000000000000       2
   -0.017543859649    0.307692307692    0.000000000000       2
    0.000000000000    0.384615384615    0.000000000000       2
    0.017543859649    0.384615384615    0.000000000000       2
    0.035087719298    0.384615384615    0.000000000000       2
    0.052631578947    0.384615384615    0.000000000000       2
    0.070175438596    0.384615384615    0.000000000000       2
    0.087719298246    0.384615384615    0.000000000000       2
    0.105263157895    0.384615384615    0.000000000000       2
    0.122807017544    0.384615384615    0.000000000000       2
    0.140350877193    0.384615384615    0.000000000000       2
    0.157894736842    0.384615384615    0.000000000000       2
    0.175438596491    0.384615384615    0.000000000000       2
    0.192982456140    0.384615384615    0.000000000000       2
    0.210526315789    0.384615384615    0.000000000000       2
    0.228070175439    0.384615384615    0.000000000000       2
    0.245614035088    0.384615384615    0.000000000000       2
    0.263157894737    0.384615384615    0.000000000000       2
    0.280701754386    0.384615384615    0.000000000000       2
    0.298245614035    0.384615384615    0.000000000000       2
    0.315789473684    0.384615384615    0.000000000000       2
    0.333333333333    0.384615384615    0.000000000000       2
    0.350877192982    0.384615384615    0.000000000000       2
    0.368421052632    0.384615384615    0.000000000000       2
    0.385964912281    0.384615384615    0.000000000000       2
    0.403508771930    0.384615384615    0.000000000000       2
    0.421052631579    0.384615384615    0.000000000000       2
    0.438596491228    0.384615384615    0.000000000000       2
    0.456140350877    0.384615384615    0.000000000000       2
    0.473684210526    0.384615384615    0.000000000000       2
    0.491228070175    0.384615384615    0.000000000000       2
   -0.491228070175    0.384615384615    0.000000000000       2
   -0.473684210526    0.384615384615    0.000000000000       2
   -0.456140350877    0.384615384615    0.000000000000       2
   -0.438596491228    0.384615384615    0.000000000000       2
   -0.421052631579    0.384615384615    0.000000000000       2
   -0.403508771930    0.384615384615    0.000000000000       2
   -0.385964912281    0.384615384615    0.000000000000       2
   -0.368421052632    0.384615384615    0.000000000000       2
   -0.350877192982    0.384615384615    0.000000000000       2
   -0.333333333333    0.384615384615    0.000000000000       2
   -0.315789473684    0.384615384615    0.000000000000       2
   -0.298245614035    0.384615384615    0.000000000000       2
   -0.280701754386    0.384615384615    0.000000000000       2
   -0.263157894737    0.384615384615    0.000000000000       2
   -0.245614035088    0.384615384615    0.000000000000       2
   -0.228070175439    0.384615384615    0.000000000000       2
   -0.210526315789    0.384615384615    0.000000000000       2
   -0.192982456140    0.384615384615    0.000000000000       2
   -0.175438596491    0.384615384615    0.000000000000       2
   -0.157894736842    0.384615384615    0.000000000000       2
   -0.140350877193    0.384615384615    0.000000000000       2
   -0.122807017544    0.384615384615    0.000000000000       2
   -0.105263157895    0.384615384615    0.000000000000       2
   -0.087719298246    0.384615384615    0.000000000000       2
   -0.070175438596    0.384615384615    0.000000000000       2
   -0.052631578947    0.384615384615    0.000000000000       2
   -0.035087719298    0.384615384615    0.000000000000       2
   -0.017543859649    0.384615384615    0.000000000000       2
    0.000000000000    0.461538461538    0.000000000000       2
    0.017543859649    0.461538461538    0.000000000000       2
    0.035087719298    0.461538461538    0.000000000000       2
    0.052631578947    0.461538461538    0.000000000000       2
    0.070175438596    0.461538461538    0.000000000000       2
    0.087719298246    0.461538461538    0.000000000000       2
    0.105263157895    0.461538461538    0.000000000000       2
    0.122807017544    0.461538461538    0.000000000000       2
    0.140350877193    0.461538461538    0.000000000000       2
    0.157894736842    0.461538461538    0.000000000000       2
    0.175438596491    0.461538461538    0.000000000000       2
    0.192982456140    0.461538461538    0.000000000000       2
    0.210526315789    0.461538461538    0.000000000000       2
    0.228070175439    0.461538461538    0.000000000000       2
    0.245614035088    0.461538461538    0.000000000000       2
    0.263157894737    0.461538461538    0.000000000000       2
    0.280701754386    0.461538461538    0.000000000000       2
    0.298245614035    0.461538461538    0.000000000000       2
    0.315789473684    0.461538461538    0.000000000000       2
    0.333333333333    0.461538461538    0.000000000000       2
    0.350877192982    0.461538461538    0.000000000000       2
    0.368421052632    0.461538461538    0.000000000000       2
    0.385964912281    0.461538461538    0.000000000000       2
    0.403508771930    0.461538461538    0.000000000000       2
    0.421052631579    0.461538461538    0.000000000000       2
    0.438596491228    0.461538461538    0.000000000000       2
    0.456140350877    0.461538461538    0.000000000000       2
    0.473684210526    0.461538461538    0.000000000000       2
    0.491228070175    0.461538461538    0.000000000000       2
   -0.491228070175    0.461538461538    0.000000000000       2
   -0.473684210526    0.461538461538    0.000000000000       2
   -0.456140350877    0.461538461538    0.000000000000       2
   -0.438596491228    0.461538461538    0.000000000000       2
   -0.421052631579    0.461538461538    0.000000000000       2
   -0.403508771930    0.461538461538    0.000000000000       2
   -0.385964912281    0.461538461538    0.000000000000       2
   -0.368421052632    0.461538461538    0.000000000000       2
   -0.350877192982    0.461538461538    0.000000000000       2
   -0.333333333333    0.461538461538    0.000000000000       2
   -0.315789473684    0.461538461538    0.000000000000       2
   -0.298245614035    0.461538461538    0.000000000000       2
   -0.280701754386    0.461538461538    0.000000000000       2
   -0.263157894737    0.461538461538    0.000000000000       2
   -0.245614035088    0.461538461538    0.000000000000       2
   -0.228070175439    0.461538461538    0.000000000000       2
   -0.210526315789    0.461538461538    0.000000000000       2
   -0.192982456140    0.461538461538    0.000000000000       2
   -0.175438596491    0.461538461538    0.000000000000       2
   -0.157894736842    0.461538461538    0.000000000000       2
   -0.140350877193    0.461538461538    0.000000000000       2
   -0.122807017544    0.461538461538    0.000000000000       2
   -0.105263157895    0.461538461538    0.000000000000       2
   -0.087719298246    0.461538461538    0.000000000000       2
   -0.070175438596    0.461538461538    0.000000000000       2
   -0.052631578947    0.461538461538    0.000000000000       2
   -0.035087719298    0.461538461538    0.000000000000       2
   -0.017543859649    0.461538461538    0.000000000000       2
