CONTCAR\(4)                             
   1.00000000000000     
    11.9160003662000005    0.0000000000000000    0.0000000000000000
    -5.9580032889999996   10.3494530515999994    0.0000000000000000
     0.0000000000000000    0.0000000000000000   17.8166999817000011
   Hf   Fe   Cl   O    H 
     4     4    24     1     1
Direct
  0.1628865784189557  0.3315939308281202  0.4926821386015376
  0.6668906686847436  0.3389856156839670  0.4924202033570069
  0.1785834451776722  0.8272241671501845  0.4944433836101112
  0.6584484998502802  0.8274858252696973  0.5517135137839162
  0.4935729823869934  0.4850566304422372  0.4986345855619803
  0.0051947013241076  0.5025949237552041  0.4941839693107895
  0.5028633608781590  0.0076974993958032  0.5003731685888937
  0.0016839545660190  0.9995453424515475  0.4960289416643207
  0.1569276915638014  0.4974616581230080  0.5723408951117079
  0.3309124926879292  0.3177685070915928  0.5653540111096689
  0.0128981690756689  0.1702001753336972  0.5815791002078115
  0.1485859611878553  0.1641654012079954  0.4067016430182662
  0.9973998761983154  0.3425521062417687  0.4164549134642499
  0.3449421546175131  0.4953060198303874  0.4179019217202082
  0.6458659335340116  0.4849554954108868  0.5800594275621336
  0.8445252880929388  0.3530553926454729  0.5713828763418007
  0.4984004229038632  0.1675915427060559  0.5696324398586370
  0.6544213400366985  0.1588973327490635  0.4175073567168752
  0.5125724233945874  0.3534161614680542  0.4089417146992247
  0.8470867027460187  0.5047021831773222  0.4180025519789226
  0.1707377546800188  0.9955005392595453  0.5712538808863528
  0.3503219050109436  0.8550122342365256  0.5828133977433367
  0.0107129560173362  0.6585327848515803  0.5734956992504863
  0.1662376854928667  0.6533939934480202  0.4163172605666290
  0.0177554547696204  0.8382026590478660  0.4142832949034272
  0.3491995683401683  0.9903092204705288  0.4146347930738514
  0.6693164662304270  0.0395631608726248  0.5763521266115461
  0.8608925006990304  0.8367936025606966  0.5885748073137407
  0.4691392532053200  0.6121999273536147  0.5813351906376880
  0.6527203714116681  0.6657980861721526  0.4457794467257159
  0.5131555354869448  0.8422863040360227  0.4461942993782344
  0.8194250927366511  0.9747685141816689  0.4399397029807020
  0.6334246410735176  0.8241561756043794  0.6597255341352621
  0.6624776745193799  0.8955467939427351  0.6947419345249557
 
  0.00000000E+00  0.00000000E+00  0.00000000E+00
  0.00000000E+00  0.00000000E+00  0.00000000E+00
  0.00000000E+00  0.00000000E+00  0.00000000E+00
  0.00000000E+00  0.00000000E+00  0.00000000E+00
  0.00000000E+00  0.00000000E+00  0.00000000E+00
  0.00000000E+00  0.00000000E+00  0.00000000E+00
  0.00000000E+00  0.00000000E+00  0.00000000E+00
  0.00000000E+00  0.00000000E+00  0.00000000E+00
  0.00000000E+00  0.00000000E+00  0.00000000E+00
  0.00000000E+00  0.00000000E+00  0.00000000E+00
  0.00000000E+00  0.00000000E+00  0.00000000E+00
  0.00000000E+00  0.00000000E+00  0.00000000E+00
  0.00000000E+00  0.00000000E+00  0.00000000E+00
  0.00000000E+00  0.00000000E+00  0.00000000E+00
  0.00000000E+00  0.00000000E+00  0.00000000E+00
  0.00000000E+00  0.00000000E+00  0.00000000E+00
  0.00000000E+00  0.00000000E+00  0.00000000E+00
  0.00000000E+00  0.00000000E+00  0.00000000E+00
  0.00000000E+00  0.00000000E+00  0.00000000E+00
  0.00000000E+00  0.00000000E+00  0.00000000E+00
  0.00000000E+00  0.00000000E+00  0.00000000E+00
  0.00000000E+00  0.00000000E+00  0.00000000E+00
  0.00000000E+00  0.00000000E+00  0.00000000E+00
  0.00000000E+00  0.00000000E+00  0.00000000E+00
  0.00000000E+00  0.00000000E+00  0.00000000E+00
  0.00000000E+00  0.00000000E+00  0.00000000E+00
  0.00000000E+00  0.00000000E+00  0.00000000E+00
  0.00000000E+00  0.00000000E+00  0.00000000E+00
  0.00000000E+00  0.00000000E+00  0.00000000E+00
  0.00000000E+00  0.00000000E+00  0.00000000E+00
  0.00000000E+00  0.00000000E+00  0.00000000E+00
  0.00000000E+00  0.00000000E+00  0.00000000E+00
  0.00000000E+00  0.00000000E+00  0.00000000E+00
  0.00000000E+00  0.00000000E+00  0.00000000E+00
