 Ag2 Cl2 O4                             
   1.00000000000000     
     4.0788741555386707    0.0000000000000000    0.0000000000000000
     0.0000000000000000    4.6619585112588586    0.0000000000000000
     0.0000000000000000    0.0000000000000000   20.6941560372841309
   Ag   Cl   O 
     2     2     4
Direct
  0.2500042437531826  0.1941387137490734  0.4771998142318293
  0.7500049047685760  0.7950364262023250  0.5227885083740869
  0.7499958968237600  0.2914964991280483  0.5697149899502968
  0.2499970279898524  0.6976771459543881  0.4302758149599301
  0.9012230198495267  0.2209748558842058  0.3325679992364245
  0.0987747185184783  0.7680834205162467  0.6674424032925789
  0.4012255647780824  0.7680834051267675  0.6674433993102158
  0.5987746235185609  0.2209752254083311  0.3325670706446265
 
  0.00000000E+00  0.00000000E+00  0.00000000E+00
  0.00000000E+00  0.00000000E+00  0.00000000E+00
  0.00000000E+00  0.00000000E+00  0.00000000E+00
  0.00000000E+00  0.00000000E+00  0.00000000E+00
  0.00000000E+00  0.00000000E+00  0.00000000E+00
  0.00000000E+00  0.00000000E+00  0.00000000E+00
  0.00000000E+00  0.00000000E+00  0.00000000E+00
  0.00000000E+00  0.00000000E+00  0.00000000E+00
