CONTCAR\(5)                             
   1.00000000000000     
    11.7456998825000003    0.0000000000000000    0.0000000000000000
     0.0000000000000000   17.6870002747000008    0.0000000000000000
     0.0000000000000000    0.0000000000000000   19.5771007537999999
   Ti   Ge   Te   O    H 
     6     6    36     1     1
Direct
  0.0854652265633078  0.4788863167096693  0.5146864564106934
  0.2529365971762729  0.9525890622651119  0.4871530921703808
  0.4204875581379355  0.4784492822114785  0.5212721453922029
  0.5858249711885222  0.9527783281441558  0.4862287877188791
  0.7510182106493062  0.4781039568417782  0.5206633036206298
  0.9188860863446280  0.9526999443244080  0.4876323374087406
  0.2528566680177704  0.8021009703096311  0.4797917791404700
  0.0856916176523086  0.6288767583357853  0.5244292308720944
  0.5856965268288477  0.8027299784541952  0.4764900064307511
  0.4186166447532145  0.6296506296939626  0.5228123478547602
  0.9189815599218889  0.8021973776624307  0.4796692691375313
  0.7530576088005319  0.6295167622173423  0.5220397614992933
  0.0857990244986340  0.9235292372205706  0.3813856313619368
  0.2532850797249182  0.2547289898795100  0.5684484826748886
  0.2519632989614919  0.0624403788886241  0.3807666606016582
  0.0858232404621830  0.8969835332514506  0.5843362324497221
  0.2493134659187533  0.5044641157255825  0.6235929016676636
  0.0847315166786942  0.3657954846898122  0.6175667402585958
  0.0875778850504290  0.1763797583927769  0.4266811729758189
  0.2528111290679860  0.7074298101775582  0.5920287659462886
  0.0861263962358549  0.7238083175743952  0.4123090611873863
  0.2536126529765639  0.3823450873226690  0.4577485397314902
  0.0862746002891299  0.0507435788760091  0.5434302134105096
  0.2541772717247284  0.5369430164309961  0.4205861847658028
  0.4186670896767666  0.9222911219866674  0.3804027133414962
  0.5839765470722682  0.2519059076043249  0.5832312818474819
  0.5861174625097973  0.0618548201707085  0.3795241981148791
  0.4203671057609100  0.8982891800776187  0.5839585777499465
  0.5861837644726151  0.5260438480468537  0.6205617952877631
  0.4108769565257759  0.3604948899418119  0.6264561794003995
  0.4209475850066653  0.1745034677581287  0.4232329764136580
  0.5861719701743624  0.7104362448384123  0.5898485561552960
  0.4182438651528031  0.7244123560864111  0.4098932835362135
  0.5849288566014650  0.3772091378707998  0.4677215213380492
  0.4193175499622512  0.0518467946445114  0.5411728400286009
  0.5856725371344567  0.5288741709136602  0.4206762263176387
  0.7541185862367143  0.9227086010199912  0.3806961201790244
  0.9195258972726421  0.2536744159611857  0.5662524412270500
  0.9197484270989875  0.0632411634210754  0.3818932704092504
  0.7513367395888082  0.8973868496261446  0.5838176996484421
  0.9210018274219394  0.5044148542327775  0.6229203042989724
  0.7602044306927880  0.3575580221159171  0.6255852157649997
  0.7506500571205308  0.1747405638826578  0.4251491484219940
  0.9185463228804807  0.7071956709453602  0.5917220919378181
  0.7533939841495538  0.7248786707269304  0.4095713194647459
  0.9176419135231981  0.3824140216529344  0.4569369942930521
  0.7516499044135827  0.0514565996029646  0.5419082526328509
  0.9175646706851452  0.5372528561192595  0.4201985714584353
  0.5917989089842735  0.4261602465393253  0.6874039589855343
  0.5976525472573044  0.4411046886136134  0.7355457250582376
 
  0.00000000E+00  0.00000000E+00  0.00000000E+00
  0.00000000E+00  0.00000000E+00  0.00000000E+00
  0.00000000E+00  0.00000000E+00  0.00000000E+00
  0.00000000E+00  0.00000000E+00  0.00000000E+00
  0.00000000E+00  0.00000000E+00  0.00000000E+00
  0.00000000E+00  0.00000000E+00  0.00000000E+00
  0.00000000E+00  0.00000000E+00  0.00000000E+00
  0.00000000E+00  0.00000000E+00  0.00000000E+00
  0.00000000E+00  0.00000000E+00  0.00000000E+00
  0.00000000E+00  0.00000000E+00  0.00000000E+00
  0.00000000E+00  0.00000000E+00  0.00000000E+00
  0.00000000E+00  0.00000000E+00  0.00000000E+00
  0.00000000E+00  0.00000000E+00  0.00000000E+00
  0.00000000E+00  0.00000000E+00  0.00000000E+00
  0.00000000E+00  0.00000000E+00  0.00000000E+00
  0.00000000E+00  0.00000000E+00  0.00000000E+00
  0.00000000E+00  0.00000000E+00  0.00000000E+00
  0.00000000E+00  0.00000000E+00  0.00000000E+00
  0.00000000E+00  0.00000000E+00  0.00000000E+00
  0.00000000E+00  0.00000000E+00  0.00000000E+00
  0.00000000E+00  0.00000000E+00  0.00000000E+00
  0.00000000E+00  0.00000000E+00  0.00000000E+00
  0.00000000E+00  0.00000000E+00  0.00000000E+00
  0.00000000E+00  0.00000000E+00  0.00000000E+00
  0.00000000E+00  0.00000000E+00  0.00000000E+00
  0.00000000E+00  0.00000000E+00  0.00000000E+00
  0.00000000E+00  0.00000000E+00  0.00000000E+00
  0.00000000E+00  0.00000000E+00  0.00000000E+00
  0.00000000E+00  0.00000000E+00  0.00000000E+00
  0.00000000E+00  0.00000000E+00  0.00000000E+00
  0.00000000E+00  0.00000000E+00  0.00000000E+00
  0.00000000E+00  0.00000000E+00  0.00000000E+00
  0.00000000E+00  0.00000000E+00  0.00000000E+00
  0.00000000E+00  0.00000000E+00  0.00000000E+00
  0.00000000E+00  0.00000000E+00  0.00000000E+00
  0.00000000E+00  0.00000000E+00  0.00000000E+00
  0.00000000E+00  0.00000000E+00  0.00000000E+00
  0.00000000E+00  0.00000000E+00  0.00000000E+00
  0.00000000E+00  0.00000000E+00  0.00000000E+00
  0.00000000E+00  0.00000000E+00  0.00000000E+00
  0.00000000E+00  0.00000000E+00  0.00000000E+00
  0.00000000E+00  0.00000000E+00  0.00000000E+00
  0.00000000E+00  0.00000000E+00  0.00000000E+00
  0.00000000E+00  0.00000000E+00  0.00000000E+00
  0.00000000E+00  0.00000000E+00  0.00000000E+00
  0.00000000E+00  0.00000000E+00  0.00000000E+00
  0.00000000E+00  0.00000000E+00  0.00000000E+00
  0.00000000E+00  0.00000000E+00  0.00000000E+00
  0.00000000E+00  0.00000000E+00  0.00000000E+00
  0.00000000E+00  0.00000000E+00  0.00000000E+00
