CONTCAR\(10)                            
   1.00000000000000     
    11.1623001099000003    0.0000000000000000    0.0000000000000000
     0.0000000000000000   10.7430000304999993    0.0000000000000000
     0.0000000000000000    0.0000000000000000   21.1923999786000010
   Hf   Se   O    H 
    12    36     1     1
Direct
  0.0840828284723468  0.3278831779388718  0.5731185200783359
  0.2501612108119126  0.0786340450959411  0.4313188671851731
  0.4195917024839226  0.3250140905772228  0.5746633521760054
  0.5838322936305737  0.0776673139582232  0.4321171256121212
  0.7487718904641826  0.3253345687665344  0.5745573547137153
  0.9174758845266062  0.0785638861732517  0.4314352891410663
  0.0834049735799900  0.8281504931544906  0.5730330331837064
  0.2511615723408956  0.5778733329051537  0.4329015960854109
  0.4152298292914955  0.8315580808151758  0.5733084442218898
  0.5845116997119533  0.5773742177451618  0.4319645047811528
  0.7519996307977642  0.8311265291402681  0.5735421689642417
  0.9176961179481788  0.5777163316559052  0.4325944737303508
  0.0847143174355422  0.4659696334074415  0.3567434398202442
  0.2511323979938848  0.4418690480094314  0.6476464006426894
  0.2517215695402787  0.3277028416571082  0.4799851985972647
  0.0837123041341572  0.0783552810840197  0.5254452973961216
  0.2502109120501854  0.2188332271655631  0.6521818817339408
  0.0839028760265623  0.1900399391298479  0.3548711461515446
  0.4172698463088370  0.4679142358890512  0.3549096325809453
  0.5844677690244593  0.4367001276541355  0.6512501369725238
  0.5841078037560432  0.3275479490836539  0.4795122097957564
  0.4154751304686339  0.0778260288668360  0.5247559206019873
  0.5838107150742337  0.1999841352594605  0.6457015710469827
  0.4178687128525276  0.1915027198163413  0.3565855671441150
  0.7516861853828919  0.4657848718785339  0.3561117402335150
  0.9180143668022368  0.4425076168453799  0.6470535135885739
  0.9168051800534105  0.3277101441108495  0.4798361769131124
  0.7518638856497465  0.0781393807154967  0.5247570672080681
  0.9171003545082191  0.2195794213166663  0.6525192160245328
  0.7502395903511880  0.1893193678209021  0.3552216921954396
  0.0835674503258646  0.9664035460834978  0.3551163024869515
  0.2479183734485675  0.9436629971754449  0.6477815059484010
  0.2496405092816459  0.8287379729319327  0.4792029295978418
  0.0842577166211650  0.5784393941088650  0.5263882955984017
  0.2520895183767811  0.7204812294202201  0.6520902765995429
  0.0848926378774724  0.6892820771006253  0.3564095623034894
  0.4171478782698351  0.9680168804755888  0.3541535145742647
  0.5836597030258769  0.9455222298342495  0.6443618285069521
  0.5839263831132324  0.8266443536051904  0.4795605798852347
  0.4183959975337084  0.5772218996682354  0.5263131551257666
  0.5846146693913993  0.6906225361387214  0.6393348398353127
  0.4174438209740018  0.6912875452508637  0.3575694235641359
  0.7500914526436567  0.9659370273590430  0.3557258332712332
  0.9192466589362824  0.9442304259672893  0.6474079674956849
  0.9177904474312937  0.8286613401251762  0.4792258105178631
  0.7510475583719215  0.5774898840211731  0.5258389351719142
  0.9149835571830051  0.7212744774095622  0.6526001817799619
  0.7513529484072836  0.6891599649398988  0.3559607696182334
  0.5972739210536323  0.7133231858916449  0.7263139302047827
  0.5434157202605436  0.6501389488559172  0.7440215493935198
 
  0.00000000E+00  0.00000000E+00  0.00000000E+00
  0.00000000E+00  0.00000000E+00  0.00000000E+00
  0.00000000E+00  0.00000000E+00  0.00000000E+00
  0.00000000E+00  0.00000000E+00  0.00000000E+00
  0.00000000E+00  0.00000000E+00  0.00000000E+00
  0.00000000E+00  0.00000000E+00  0.00000000E+00
  0.00000000E+00  0.00000000E+00  0.00000000E+00
  0.00000000E+00  0.00000000E+00  0.00000000E+00
  0.00000000E+00  0.00000000E+00  0.00000000E+00
  0.00000000E+00  0.00000000E+00  0.00000000E+00
  0.00000000E+00  0.00000000E+00  0.00000000E+00
  0.00000000E+00  0.00000000E+00  0.00000000E+00
  0.00000000E+00  0.00000000E+00  0.00000000E+00
  0.00000000E+00  0.00000000E+00  0.00000000E+00
  0.00000000E+00  0.00000000E+00  0.00000000E+00
  0.00000000E+00  0.00000000E+00  0.00000000E+00
  0.00000000E+00  0.00000000E+00  0.00000000E+00
  0.00000000E+00  0.00000000E+00  0.00000000E+00
  0.00000000E+00  0.00000000E+00  0.00000000E+00
  0.00000000E+00  0.00000000E+00  0.00000000E+00
  0.00000000E+00  0.00000000E+00  0.00000000E+00
  0.00000000E+00  0.00000000E+00  0.00000000E+00
  0.00000000E+00  0.00000000E+00  0.00000000E+00
  0.00000000E+00  0.00000000E+00  0.00000000E+00
  0.00000000E+00  0.00000000E+00  0.00000000E+00
  0.00000000E+00  0.00000000E+00  0.00000000E+00
  0.00000000E+00  0.00000000E+00  0.00000000E+00
  0.00000000E+00  0.00000000E+00  0.00000000E+00
  0.00000000E+00  0.00000000E+00  0.00000000E+00
  0.00000000E+00  0.00000000E+00  0.00000000E+00
  0.00000000E+00  0.00000000E+00  0.00000000E+00
  0.00000000E+00  0.00000000E+00  0.00000000E+00
  0.00000000E+00  0.00000000E+00  0.00000000E+00
  0.00000000E+00  0.00000000E+00  0.00000000E+00
  0.00000000E+00  0.00000000E+00  0.00000000E+00
  0.00000000E+00  0.00000000E+00  0.00000000E+00
  0.00000000E+00  0.00000000E+00  0.00000000E+00
  0.00000000E+00  0.00000000E+00  0.00000000E+00
  0.00000000E+00  0.00000000E+00  0.00000000E+00
  0.00000000E+00  0.00000000E+00  0.00000000E+00
  0.00000000E+00  0.00000000E+00  0.00000000E+00
  0.00000000E+00  0.00000000E+00  0.00000000E+00
  0.00000000E+00  0.00000000E+00  0.00000000E+00
  0.00000000E+00  0.00000000E+00  0.00000000E+00
  0.00000000E+00  0.00000000E+00  0.00000000E+00
  0.00000000E+00  0.00000000E+00  0.00000000E+00
  0.00000000E+00  0.00000000E+00  0.00000000E+00
  0.00000000E+00  0.00000000E+00  0.00000000E+00
  0.00000000E+00  0.00000000E+00  0.00000000E+00
  0.00000000E+00  0.00000000E+00  0.00000000E+00
