CONTCAR\(2)                             
   1.00000000000000     
    13.4693002700999998    0.0000000000000000    0.0000000000000000
     0.0000000000000000   11.7332000732000008    0.0000000000000000
     0.0000000000000000    0.0000000000000000   18.0195999146000005
   Ti   Nb   S    O 
     8     8    32     1
Direct
  0.1198126106145931  0.2613933150667172  0.4996544095218740
  0.3796163649246391  0.2372200126487257  0.4995410763929331
  0.6329251814696045  0.2494847770614133  0.4976642520991855
  0.8724659329923810  0.2496851754145468  0.4974124204994261
  0.1207303526660003  0.7375784707435759  0.5007981551185228
  0.3763846034262062  0.7563424218920938  0.5279409655889056
  0.6286408673084559  0.7469447803041858  0.5043769321576643
  0.8709775980385257  0.7462397234212946  0.4996904263221020
  0.9845767435331693  0.9982421894558680  0.5001227116462610
  0.2201742415250491  0.0025680789695299  0.5011036363311772
  0.5271912689285904  0.0011518179481501  0.5012866705794097
  0.7575771735212286  0.9985642517850845  0.4998070780746936
  0.9830913032082840  0.4983986996552706  0.4990585619223962
  0.2697037801618957  0.4965011156161389  0.5008891751142809
  0.5138974611965331  0.4931620195326686  0.5001308011290100
  0.7469377165229031  0.4972486043958506  0.4989001055972042
  0.1172023677673519  0.0861923389097236  0.4133133578453283
  0.9970053169187674  0.1682514066939773  0.5788220359076555
  0.9981638956186645  0.3337591397931199  0.4151776019995961
  0.1229357269907920  0.4133139432921700  0.5794299987909461
  0.3745866423971779  0.0739184276729484  0.4272759557999436
  0.2444239187544092  0.1704252090285810  0.5796958228703460
  0.2519842390876406  0.3309112914122142  0.4198968885872319
  0.3803208707054951  0.4075816730781290  0.5849945889465823
  0.6306975874239119  0.0854669253458745  0.4116606493567765
  0.5070187567671539  0.1695245619309090  0.5816280096072189
  0.5007921862223592  0.3281364144309468  0.4184770785486276
  0.6292990966643919  0.4076509614021004  0.5861908138076943
  0.8738816650900272  0.0855429978637032  0.4112249428011486
  0.7529088530105231  0.1688004662412621  0.5813433498570992
  0.7506846159495023  0.3312662944250910  0.4142000011458278
  0.8727037168528706  0.4104564480819422  0.5851210303865010
  0.1272405086770933  0.5825826855859880  0.4216184569054293
  0.9964549116826327  0.6634406942788236  0.5828449036364889
  0.9994253288972346  0.8284327455008210  0.4205675683727044
  0.1168700581411281  0.9120291001698888  0.5875076068966429
  0.3798723252120251  0.5938741196415538  0.4240278976002839
  0.2409604354543197  0.6514458633083428  0.5870343606872582
  0.2554274855226305  0.8285801687050327  0.4329684219480783
  0.3738022534217756  0.9488953961595634  0.5837446263658300
  0.6246454101816576  0.5881432352574586  0.4146805092221050
  0.5100690961462254  0.6550385349963045  0.5869677115961505
  0.4944269306262731  0.8281872981722727  0.4313209459214055
  0.6319208297243726  0.9125366887364604  0.5896171660397492
  0.8722277553900305  0.5863324947174396  0.4124698675970733
  0.7513593709048757  0.6643794038193952  0.5839254015396113
  0.7483942822023472  0.8279242860639315  0.4188852291635105
  0.8736269073742901  0.9096439222802020  0.5877596600277314
  0.3682638421819573  0.8241194370926949  0.6247801831263532
 
  0.00000000E+00  0.00000000E+00  0.00000000E+00
  0.00000000E+00  0.00000000E+00  0.00000000E+00
  0.00000000E+00  0.00000000E+00  0.00000000E+00
  0.00000000E+00  0.00000000E+00  0.00000000E+00
  0.00000000E+00  0.00000000E+00  0.00000000E+00
  0.00000000E+00  0.00000000E+00  0.00000000E+00
  0.00000000E+00  0.00000000E+00  0.00000000E+00
  0.00000000E+00  0.00000000E+00  0.00000000E+00
  0.00000000E+00  0.00000000E+00  0.00000000E+00
  0.00000000E+00  0.00000000E+00  0.00000000E+00
  0.00000000E+00  0.00000000E+00  0.00000000E+00
  0.00000000E+00  0.00000000E+00  0.00000000E+00
  0.00000000E+00  0.00000000E+00  0.00000000E+00
  0.00000000E+00  0.00000000E+00  0.00000000E+00
  0.00000000E+00  0.00000000E+00  0.00000000E+00
  0.00000000E+00  0.00000000E+00  0.00000000E+00
  0.00000000E+00  0.00000000E+00  0.00000000E+00
  0.00000000E+00  0.00000000E+00  0.00000000E+00
  0.00000000E+00  0.00000000E+00  0.00000000E+00
  0.00000000E+00  0.00000000E+00  0.00000000E+00
  0.00000000E+00  0.00000000E+00  0.00000000E+00
  0.00000000E+00  0.00000000E+00  0.00000000E+00
  0.00000000E+00  0.00000000E+00  0.00000000E+00
  0.00000000E+00  0.00000000E+00  0.00000000E+00
  0.00000000E+00  0.00000000E+00  0.00000000E+00
  0.00000000E+00  0.00000000E+00  0.00000000E+00
  0.00000000E+00  0.00000000E+00  0.00000000E+00
  0.00000000E+00  0.00000000E+00  0.00000000E+00
  0.00000000E+00  0.00000000E+00  0.00000000E+00
  0.00000000E+00  0.00000000E+00  0.00000000E+00
  0.00000000E+00  0.00000000E+00  0.00000000E+00
  0.00000000E+00  0.00000000E+00  0.00000000E+00
  0.00000000E+00  0.00000000E+00  0.00000000E+00
  0.00000000E+00  0.00000000E+00  0.00000000E+00
  0.00000000E+00  0.00000000E+00  0.00000000E+00
  0.00000000E+00  0.00000000E+00  0.00000000E+00
  0.00000000E+00  0.00000000E+00  0.00000000E+00
  0.00000000E+00  0.00000000E+00  0.00000000E+00
  0.00000000E+00  0.00000000E+00  0.00000000E+00
  0.00000000E+00  0.00000000E+00  0.00000000E+00
  0.00000000E+00  0.00000000E+00  0.00000000E+00
  0.00000000E+00  0.00000000E+00  0.00000000E+00
  0.00000000E+00  0.00000000E+00  0.00000000E+00
  0.00000000E+00  0.00000000E+00  0.00000000E+00
  0.00000000E+00  0.00000000E+00  0.00000000E+00
  0.00000000E+00  0.00000000E+00  0.00000000E+00
  0.00000000E+00  0.00000000E+00  0.00000000E+00
  0.00000000E+00  0.00000000E+00  0.00000000E+00
  0.00000000E+00  0.00000000E+00  0.00000000E+00
