 Li2 Cr3 C6 O18                         
   1.00000000000000     
     4.6070575561632428    0.0000000000000000    0.0000000000000000
     2.2957030551503506   11.9646505608786029    0.0000000000000000
     0.0000000000000000    0.0000000000000000   19.5162327932200022
   Li   Cr   C    O 
     2     3     6    18
Direct
  0.0052399625847102  0.9992852265051582  0.5968087293929472
  0.7774870307502084  0.4475243685760120  0.4031986634557398
  0.5612383280991509  0.8887396150893778  0.4993288333688497
  0.8913333722129622  0.2234233630474733  0.4999980691126211
  0.2214822475380842  0.5580987726625750  0.5006746510618072
  0.4465346828470942  0.1146148935189260  0.5611940133396160
  0.7788127945930299  0.4459014717918848  0.5562523928969725
  0.3361488137259627  0.3322289020698150  0.4388011680023780
  0.1139154960722308  0.7769399732056570  0.5591194898103993
  0.6687947002021346  0.6699022206988374  0.4408833764861910
  0.0039053878650606  0.0009387692888723  0.4437495189367837
  0.4946897857926587  0.4547365510870733  0.5551007555079011
  0.2880395434645138  0.9920995798405130  0.4448884872011689
  0.2230095275807997  0.2449402602842881  0.4417867690701911
  0.1712231158664395  0.4319027129681459  0.4347513306978783
  0.6114895687423498  0.0149453447382371  0.5652529322651461
  0.9464935760232436  0.3481573621758116  0.5565424431025434
  0.5596572367971788  0.2019073448057682  0.5582079724588169
  0.8944892002577447  0.5346645848570688  0.5564765087115120
  0.8307626072660241  0.7890679255525939  0.5594550038000037
  0.6217539044404248  0.3245615722201833  0.4365890298406612
  0.5469406103322498  0.5809687014490095  0.4367606009180705
  0.8882604183000282  0.9121651463728497  0.4435254342663981
  0.5002318054009791  0.7662416614859353  0.4428140387963992
  0.8362426313945264  0.0986742884344523  0.4434581363351384
  0.2824479425355406  0.6805993302672846  0.5571841550069223
  0.2357560642088501  0.8658717826139863  0.5632381745888964
  0.1609421328981995  0.1222665398569802  0.5634005290378710
  0.9519435122076203  0.6577777345352445  0.4405587925301688
 
  0.00000000E+00  0.00000000E+00  0.00000000E+00
  0.00000000E+00  0.00000000E+00  0.00000000E+00
  0.00000000E+00  0.00000000E+00  0.00000000E+00
  0.00000000E+00  0.00000000E+00  0.00000000E+00
  0.00000000E+00  0.00000000E+00  0.00000000E+00
  0.00000000E+00  0.00000000E+00  0.00000000E+00
  0.00000000E+00  0.00000000E+00  0.00000000E+00
  0.00000000E+00  0.00000000E+00  0.00000000E+00
  0.00000000E+00  0.00000000E+00  0.00000000E+00
  0.00000000E+00  0.00000000E+00  0.00000000E+00
  0.00000000E+00  0.00000000E+00  0.00000000E+00
  0.00000000E+00  0.00000000E+00  0.00000000E+00
  0.00000000E+00  0.00000000E+00  0.00000000E+00
  0.00000000E+00  0.00000000E+00  0.00000000E+00
  0.00000000E+00  0.00000000E+00  0.00000000E+00
  0.00000000E+00  0.00000000E+00  0.00000000E+00
  0.00000000E+00  0.00000000E+00  0.00000000E+00
  0.00000000E+00  0.00000000E+00  0.00000000E+00
  0.00000000E+00  0.00000000E+00  0.00000000E+00
  0.00000000E+00  0.00000000E+00  0.00000000E+00
  0.00000000E+00  0.00000000E+00  0.00000000E+00
  0.00000000E+00  0.00000000E+00  0.00000000E+00
  0.00000000E+00  0.00000000E+00  0.00000000E+00
  0.00000000E+00  0.00000000E+00  0.00000000E+00
  0.00000000E+00  0.00000000E+00  0.00000000E+00
  0.00000000E+00  0.00000000E+00  0.00000000E+00
  0.00000000E+00  0.00000000E+00  0.00000000E+00
  0.00000000E+00  0.00000000E+00  0.00000000E+00
  0.00000000E+00  0.00000000E+00  0.00000000E+00
