G   44   17    1    0.005     # Parameters to Generate KPOINTS (Don't Edit This Line)
     375
Reciprocal lattice
    0.000000000000    0.000000000000    0.000000000000       1
    0.022727272727    0.000000000000    0.000000000000       2
    0.045454545455    0.000000000000    0.000000000000       2
    0.068181818182    0.000000000000    0.000000000000       2
    0.090909090909    0.000000000000    0.000000000000       2
    0.113636363636    0.000000000000    0.000000000000       2
    0.136363636364    0.000000000000    0.000000000000       2
    0.159090909091    0.000000000000    0.000000000000       2
    0.181818181818    0.000000000000    0.000000000000       2
    0.204545454545    0.000000000000    0.000000000000       2
    0.227272727273    0.000000000000    0.000000000000       2
    0.250000000000    0.000000000000    0.000000000000       2
    0.272727272727    0.000000000000    0.000000000000       2
    0.295454545455    0.000000000000    0.000000000000       2
    0.318181818182    0.000000000000    0.000000000000       2
    0.340909090909    0.000000000000    0.000000000000       2
    0.363636363636    0.000000000000    0.000000000000       2
    0.386363636364    0.000000000000    0.000000000000       2
    0.409090909091    0.000000000000    0.000000000000       2
    0.431818181818    0.000000000000    0.000000000000       2
    0.454545454545    0.000000000000    0.000000000000       2
    0.477272727273    0.000000000000    0.000000000000       2
    0.500000000000    0.000000000000    0.000000000000       1
    0.000000000000    0.058823529412    0.000000000000       2
    0.022727272727    0.058823529412    0.000000000000       2
    0.045454545455    0.058823529412    0.000000000000       2
    0.068181818182    0.058823529412    0.000000000000       2
    0.090909090909    0.058823529412    0.000000000000       2
    0.113636363636    0.058823529412    0.000000000000       2
    0.136363636364    0.058823529412    0.000000000000       2
    0.159090909091    0.058823529412    0.000000000000       2
    0.181818181818    0.058823529412    0.000000000000       2
    0.204545454545    0.058823529412    0.000000000000       2
    0.227272727273    0.058823529412    0.000000000000       2
    0.250000000000    0.058823529412    0.000000000000       2
    0.272727272727    0.058823529412    0.000000000000       2
    0.295454545455    0.058823529412    0.000000000000       2
    0.318181818182    0.058823529412    0.000000000000       2
    0.340909090909    0.058823529412    0.000000000000       2
    0.363636363636    0.058823529412    0.000000000000       2
    0.386363636364    0.058823529412    0.000000000000       2
    0.409090909091    0.058823529412    0.000000000000       2
    0.431818181818    0.058823529412    0.000000000000       2
    0.454545454545    0.058823529412    0.000000000000       2
    0.477272727273    0.058823529412    0.000000000000       2
    0.500000000000    0.058823529412    0.000000000000       2
   -0.477272727273    0.058823529412    0.000000000000       2
   -0.454545454545    0.058823529412    0.000000000000       2
   -0.431818181818    0.058823529412    0.000000000000       2
   -0.409090909091    0.058823529412    0.000000000000       2
   -0.386363636364    0.058823529412    0.000000000000       2
   -0.363636363636    0.058823529412    0.000000000000       2
   -0.340909090909    0.058823529412    0.000000000000       2
   -0.318181818182    0.058823529412    0.000000000000       2
   -0.295454545455    0.058823529412    0.000000000000       2
   -0.272727272727    0.058823529412    0.000000000000       2
   -0.250000000000    0.058823529412    0.000000000000       2
   -0.227272727273    0.058823529412    0.000000000000       2
   -0.204545454545    0.058823529412    0.000000000000       2
   -0.181818181818    0.058823529412    0.000000000000       2
   -0.159090909091    0.058823529412    0.000000000000       2
   -0.136363636364    0.058823529412    0.000000000000       2
   -0.113636363636    0.058823529412    0.000000000000       2
   -0.090909090909    0.058823529412    0.000000000000       2
   -0.068181818182    0.058823529412    0.000000000000       2
   -0.045454545455    0.058823529412    0.000000000000       2
   -0.022727272727    0.058823529412    0.000000000000       2
    0.000000000000    0.117647058824    0.000000000000       2
    0.022727272727    0.117647058824    0.000000000000       2
    0.045454545455    0.117647058824    0.000000000000       2
    0.068181818182    0.117647058824    0.000000000000       2
    0.090909090909    0.117647058824    0.000000000000       2
    0.113636363636    0.117647058824    0.000000000000       2
    0.136363636364    0.117647058824    0.000000000000       2
    0.159090909091    0.117647058824    0.000000000000       2
    0.181818181818    0.117647058824    0.000000000000       2
    0.204545454545    0.117647058824    0.000000000000       2
    0.227272727273    0.117647058824    0.000000000000       2
    0.250000000000    0.117647058824    0.000000000000       2
    0.272727272727    0.117647058824    0.000000000000       2
    0.295454545455    0.117647058824    0.000000000000       2
    0.318181818182    0.117647058824    0.000000000000       2
    0.340909090909    0.117647058824    0.000000000000       2
    0.363636363636    0.117647058824    0.000000000000       2
    0.386363636364    0.117647058824    0.000000000000       2
    0.409090909091    0.117647058824    0.000000000000       2
    0.431818181818    0.117647058824    0.000000000000       2
    0.454545454545    0.117647058824    0.000000000000       2
    0.477272727273    0.117647058824    0.000000000000       2
    0.500000000000    0.117647058824    0.000000000000       2
   -0.477272727273    0.117647058824    0.000000000000       2
   -0.454545454545    0.117647058824    0.000000000000       2
   -0.431818181818    0.117647058824    0.000000000000       2
   -0.409090909091    0.117647058824    0.000000000000       2
   -0.386363636364    0.117647058824    0.000000000000       2
   -0.363636363636    0.117647058824    0.000000000000       2
   -0.340909090909    0.117647058824    0.000000000000       2
   -0.318181818182    0.117647058824    0.000000000000       2
   -0.295454545455    0.117647058824    0.000000000000       2
   -0.272727272727    0.117647058824    0.000000000000       2
   -0.250000000000    0.117647058824    0.000000000000       2
   -0.227272727273    0.117647058824    0.000000000000       2
   -0.204545454545    0.117647058824    0.000000000000       2
   -0.181818181818    0.117647058824    0.000000000000       2
   -0.159090909091    0.117647058824    0.000000000000       2
   -0.136363636364    0.117647058824    0.000000000000       2
   -0.113636363636    0.117647058824    0.000000000000       2
   -0.090909090909    0.117647058824    0.000000000000       2
   -0.068181818182    0.117647058824    0.000000000000       2
   -0.045454545455    0.117647058824    0.000000000000       2
   -0.022727272727    0.117647058824    0.000000000000       2
    0.000000000000    0.176470588235    0.000000000000       2
    0.022727272727    0.176470588235    0.000000000000       2
    0.045454545455    0.176470588235    0.000000000000       2
    0.068181818182    0.176470588235    0.000000000000       2
    0.090909090909    0.176470588235    0.000000000000       2
    0.113636363636    0.176470588235    0.000000000000       2
    0.136363636364    0.176470588235    0.000000000000       2
    0.159090909091    0.176470588235    0.000000000000       2
    0.181818181818    0.176470588235    0.000000000000       2
    0.204545454545    0.176470588235    0.000000000000       2
    0.227272727273    0.176470588235    0.000000000000       2
    0.250000000000    0.176470588235    0.000000000000       2
    0.272727272727    0.176470588235    0.000000000000       2
    0.295454545455    0.176470588235    0.000000000000       2
    0.318181818182    0.176470588235    0.000000000000       2
    0.340909090909    0.176470588235    0.000000000000       2
    0.363636363636    0.176470588235    0.000000000000       2
    0.386363636364    0.176470588235    0.000000000000       2
    0.409090909091    0.176470588235    0.000000000000       2
    0.431818181818    0.176470588235    0.000000000000       2
    0.454545454545    0.176470588235    0.000000000000       2
    0.477272727273    0.176470588235    0.000000000000       2
    0.500000000000    0.176470588235    0.000000000000       2
   -0.477272727273    0.176470588235    0.000000000000       2
   -0.454545454545    0.176470588235    0.000000000000       2
   -0.431818181818    0.176470588235    0.000000000000       2
   -0.409090909091    0.176470588235    0.000000000000       2
   -0.386363636364    0.176470588235    0.000000000000       2
   -0.363636363636    0.176470588235    0.000000000000       2
   -0.340909090909    0.176470588235    0.000000000000       2
   -0.318181818182    0.176470588235    0.000000000000       2
   -0.295454545455    0.176470588235    0.000000000000       2
   -0.272727272727    0.176470588235    0.000000000000       2
   -0.250000000000    0.176470588235    0.000000000000       2
   -0.227272727273    0.176470588235    0.000000000000       2
   -0.204545454545    0.176470588235    0.000000000000       2
   -0.181818181818    0.176470588235    0.000000000000       2
   -0.159090909091    0.176470588235    0.000000000000       2
   -0.136363636364    0.176470588235    0.000000000000       2
   -0.113636363636    0.176470588235    0.000000000000       2
   -0.090909090909    0.176470588235    0.000000000000       2
   -0.068181818182    0.176470588235    0.000000000000       2
   -0.045454545455    0.176470588235    0.000000000000       2
   -0.022727272727    0.176470588235    0.000000000000       2
    0.000000000000    0.235294117647    0.000000000000       2
    0.022727272727    0.235294117647    0.000000000000       2
    0.045454545455    0.235294117647    0.000000000000       2
    0.068181818182    0.235294117647    0.000000000000       2
    0.090909090909    0.235294117647    0.000000000000       2
    0.113636363636    0.235294117647    0.000000000000       2
    0.136363636364    0.235294117647    0.000000000000       2
    0.159090909091    0.235294117647    0.000000000000       2
    0.181818181818    0.235294117647    0.000000000000       2
    0.204545454545    0.235294117647    0.000000000000       2
    0.227272727273    0.235294117647    0.000000000000       2
    0.250000000000    0.235294117647    0.000000000000       2
    0.272727272727    0.235294117647    0.000000000000       2
    0.295454545455    0.235294117647    0.000000000000       2
    0.318181818182    0.235294117647    0.000000000000       2
    0.340909090909    0.235294117647    0.000000000000       2
    0.363636363636    0.235294117647    0.000000000000       2
    0.386363636364    0.235294117647    0.000000000000       2
    0.409090909091    0.235294117647    0.000000000000       2
    0.431818181818    0.235294117647    0.000000000000       2
    0.454545454545    0.235294117647    0.000000000000       2
    0.477272727273    0.235294117647    0.000000000000       2
    0.500000000000    0.235294117647    0.000000000000       2
   -0.477272727273    0.235294117647    0.000000000000       2
   -0.454545454545    0.235294117647    0.000000000000       2
   -0.431818181818    0.235294117647    0.000000000000       2
   -0.409090909091    0.235294117647    0.000000000000       2
   -0.386363636364    0.235294117647    0.000000000000       2
   -0.363636363636    0.235294117647    0.000000000000       2
   -0.340909090909    0.235294117647    0.000000000000       2
   -0.318181818182    0.235294117647    0.000000000000       2
   -0.295454545455    0.235294117647    0.000000000000       2
   -0.272727272727    0.235294117647    0.000000000000       2
   -0.250000000000    0.235294117647    0.000000000000       2
   -0.227272727273    0.235294117647    0.000000000000       2
   -0.204545454545    0.235294117647    0.000000000000       2
   -0.181818181818    0.235294117647    0.000000000000       2
   -0.159090909091    0.235294117647    0.000000000000       2
   -0.136363636364    0.235294117647    0.000000000000       2
   -0.113636363636    0.235294117647    0.000000000000       2
   -0.090909090909    0.235294117647    0.000000000000       2
   -0.068181818182    0.235294117647    0.000000000000       2
   -0.045454545455    0.235294117647    0.000000000000       2
   -0.022727272727    0.235294117647    0.000000000000       2
    0.000000000000    0.294117647059    0.000000000000       2
    0.022727272727    0.294117647059    0.000000000000       2
    0.045454545455    0.294117647059    0.000000000000       2
    0.068181818182    0.294117647059    0.000000000000       2
    0.090909090909    0.294117647059    0.000000000000       2
    0.113636363636    0.294117647059    0.000000000000       2
    0.136363636364    0.294117647059    0.000000000000       2
    0.159090909091    0.294117647059    0.000000000000       2
    0.181818181818    0.294117647059    0.000000000000       2
    0.204545454545    0.294117647059    0.000000000000       2
    0.227272727273    0.294117647059    0.000000000000       2
    0.250000000000    0.294117647059    0.000000000000       2
    0.272727272727    0.294117647059    0.000000000000       2
    0.295454545455    0.294117647059    0.000000000000       2
    0.318181818182    0.294117647059    0.000000000000       2
    0.340909090909    0.294117647059    0.000000000000       2
    0.363636363636    0.294117647059    0.000000000000       2
    0.386363636364    0.294117647059    0.000000000000       2
    0.409090909091    0.294117647059    0.000000000000       2
    0.431818181818    0.294117647059    0.000000000000       2
    0.454545454545    0.294117647059    0.000000000000       2
    0.477272727273    0.294117647059    0.000000000000       2
    0.500000000000    0.294117647059    0.000000000000       2
   -0.477272727273    0.294117647059    0.000000000000       2
   -0.454545454545    0.294117647059    0.000000000000       2
   -0.431818181818    0.294117647059    0.000000000000       2
   -0.409090909091    0.294117647059    0.000000000000       2
   -0.386363636364    0.294117647059    0.000000000000       2
   -0.363636363636    0.294117647059    0.000000000000       2
   -0.340909090909    0.294117647059    0.000000000000       2
   -0.318181818182    0.294117647059    0.000000000000       2
   -0.295454545455    0.294117647059    0.000000000000       2
   -0.272727272727    0.294117647059    0.000000000000       2
   -0.250000000000    0.294117647059    0.000000000000       2
   -0.227272727273    0.294117647059    0.000000000000       2
   -0.204545454545    0.294117647059    0.000000000000       2
   -0.181818181818    0.294117647059    0.000000000000       2
   -0.159090909091    0.294117647059    0.000000000000       2
   -0.136363636364    0.294117647059    0.000000000000       2
   -0.113636363636    0.294117647059    0.000000000000       2
   -0.090909090909    0.294117647059    0.000000000000       2
   -0.068181818182    0.294117647059    0.000000000000       2
   -0.045454545455    0.294117647059    0.000000000000       2
   -0.022727272727    0.294117647059    0.000000000000       2
    0.000000000000    0.352941176471    0.000000000000       2
    0.022727272727    0.352941176471    0.000000000000       2
    0.045454545455    0.352941176471    0.000000000000       2
    0.068181818182    0.352941176471    0.000000000000       2
    0.090909090909    0.352941176471    0.000000000000       2
    0.113636363636    0.352941176471    0.000000000000       2
    0.136363636364    0.352941176471    0.000000000000       2
    0.159090909091    0.352941176471    0.000000000000       2
    0.181818181818    0.352941176471    0.000000000000       2
    0.204545454545    0.352941176471    0.000000000000       2
    0.227272727273    0.352941176471    0.000000000000       2
    0.250000000000    0.352941176471    0.000000000000       2
    0.272727272727    0.352941176471    0.000000000000       2
    0.295454545455    0.352941176471    0.000000000000       2
    0.318181818182    0.352941176471    0.000000000000       2
    0.340909090909    0.352941176471    0.000000000000       2
    0.363636363636    0.352941176471    0.000000000000       2
    0.386363636364    0.352941176471    0.000000000000       2
    0.409090909091    0.352941176471    0.000000000000       2
    0.431818181818    0.352941176471    0.000000000000       2
    0.454545454545    0.352941176471    0.000000000000       2
    0.477272727273    0.352941176471    0.000000000000       2
    0.500000000000    0.352941176471    0.000000000000       2
   -0.477272727273    0.352941176471    0.000000000000       2
   -0.454545454545    0.352941176471    0.000000000000       2
   -0.431818181818    0.352941176471    0.000000000000       2
   -0.409090909091    0.352941176471    0.000000000000       2
   -0.386363636364    0.352941176471    0.000000000000       2
   -0.363636363636    0.352941176471    0.000000000000       2
   -0.340909090909    0.352941176471    0.000000000000       2
   -0.318181818182    0.352941176471    0.000000000000       2
   -0.295454545455    0.352941176471    0.000000000000       2
   -0.272727272727    0.352941176471    0.000000000000       2
   -0.250000000000    0.352941176471    0.000000000000       2
   -0.227272727273    0.352941176471    0.000000000000       2
   -0.204545454545    0.352941176471    0.000000000000       2
   -0.181818181818    0.352941176471    0.000000000000       2
   -0.159090909091    0.352941176471    0.000000000000       2
   -0.136363636364    0.352941176471    0.000000000000       2
   -0.113636363636    0.352941176471    0.000000000000       2
   -0.090909090909    0.352941176471    0.000000000000       2
   -0.068181818182    0.352941176471    0.000000000000       2
   -0.045454545455    0.352941176471    0.000000000000       2
   -0.022727272727    0.352941176471    0.000000000000       2
    0.000000000000    0.411764705882    0.000000000000       2
    0.022727272727    0.411764705882    0.000000000000       2
    0.045454545455    0.411764705882    0.000000000000       2
    0.068181818182    0.411764705882    0.000000000000       2
    0.090909090909    0.411764705882    0.000000000000       2
    0.113636363636    0.411764705882    0.000000000000       2
    0.136363636364    0.411764705882    0.000000000000       2
    0.159090909091    0.411764705882    0.000000000000       2
    0.181818181818    0.411764705882    0.000000000000       2
    0.204545454545    0.411764705882    0.000000000000       2
    0.227272727273    0.411764705882    0.000000000000       2
    0.250000000000    0.411764705882    0.000000000000       2
    0.272727272727    0.411764705882    0.000000000000       2
    0.295454545455    0.411764705882    0.000000000000       2
    0.318181818182    0.411764705882    0.000000000000       2
    0.340909090909    0.411764705882    0.000000000000       2
    0.363636363636    0.411764705882    0.000000000000       2
    0.386363636364    0.411764705882    0.000000000000       2
    0.409090909091    0.411764705882    0.000000000000       2
    0.431818181818    0.411764705882    0.000000000000       2
    0.454545454545    0.411764705882    0.000000000000       2
    0.477272727273    0.411764705882    0.000000000000       2
    0.500000000000    0.411764705882    0.000000000000       2
   -0.477272727273    0.411764705882    0.000000000000       2
   -0.454545454545    0.411764705882    0.000000000000       2
   -0.431818181818    0.411764705882    0.000000000000       2
   -0.409090909091    0.411764705882    0.000000000000       2
   -0.386363636364    0.411764705882    0.000000000000       2
   -0.363636363636    0.411764705882    0.000000000000       2
   -0.340909090909    0.411764705882    0.000000000000       2
   -0.318181818182    0.411764705882    0.000000000000       2
   -0.295454545455    0.411764705882    0.000000000000       2
   -0.272727272727    0.411764705882    0.000000000000       2
   -0.250000000000    0.411764705882    0.000000000000       2
   -0.227272727273    0.411764705882    0.000000000000       2
   -0.204545454545    0.411764705882    0.000000000000       2
   -0.181818181818    0.411764705882    0.000000000000       2
   -0.159090909091    0.411764705882    0.000000000000       2
   -0.136363636364    0.411764705882    0.000000000000       2
   -0.113636363636    0.411764705882    0.000000000000       2
   -0.090909090909    0.411764705882    0.000000000000       2
   -0.068181818182    0.411764705882    0.000000000000       2
   -0.045454545455    0.411764705882    0.000000000000       2
   -0.022727272727    0.411764705882    0.000000000000       2
    0.000000000000    0.470588235294    0.000000000000       2
    0.022727272727    0.470588235294    0.000000000000       2
    0.045454545455    0.470588235294    0.000000000000       2
    0.068181818182    0.470588235294    0.000000000000       2
    0.090909090909    0.470588235294    0.000000000000       2
    0.113636363636    0.470588235294    0.000000000000       2
    0.136363636364    0.470588235294    0.000000000000       2
    0.159090909091    0.470588235294    0.000000000000       2
    0.181818181818    0.470588235294    0.000000000000       2
    0.204545454545    0.470588235294    0.000000000000       2
    0.227272727273    0.470588235294    0.000000000000       2
    0.250000000000    0.470588235294    0.000000000000       2
    0.272727272727    0.470588235294    0.000000000000       2
    0.295454545455    0.470588235294    0.000000000000       2
    0.318181818182    0.470588235294    0.000000000000       2
    0.340909090909    0.470588235294    0.000000000000       2
    0.363636363636    0.470588235294    0.000000000000       2
    0.386363636364    0.470588235294    0.000000000000       2
    0.409090909091    0.470588235294    0.000000000000       2
    0.431818181818    0.470588235294    0.000000000000       2
    0.454545454545    0.470588235294    0.000000000000       2
    0.477272727273    0.470588235294    0.000000000000       2
    0.500000000000    0.470588235294    0.000000000000       2
   -0.477272727273    0.470588235294    0.000000000000       2
   -0.454545454545    0.470588235294    0.000000000000       2
   -0.431818181818    0.470588235294    0.000000000000       2
   -0.409090909091    0.470588235294    0.000000000000       2
   -0.386363636364    0.470588235294    0.000000000000       2
   -0.363636363636    0.470588235294    0.000000000000       2
   -0.340909090909    0.470588235294    0.000000000000       2
   -0.318181818182    0.470588235294    0.000000000000       2
   -0.295454545455    0.470588235294    0.000000000000       2
   -0.272727272727    0.470588235294    0.000000000000       2
   -0.250000000000    0.470588235294    0.000000000000       2
   -0.227272727273    0.470588235294    0.000000000000       2
   -0.204545454545    0.470588235294    0.000000000000       2
   -0.181818181818    0.470588235294    0.000000000000       2
   -0.159090909091    0.470588235294    0.000000000000       2
   -0.136363636364    0.470588235294    0.000000000000       2
   -0.113636363636    0.470588235294    0.000000000000       2
   -0.090909090909    0.470588235294    0.000000000000       2
   -0.068181818182    0.470588235294    0.000000000000       2
   -0.045454545455    0.470588235294    0.000000000000       2
   -0.022727272727    0.470588235294    0.000000000000       2
