 Sr4 Mn3 Cl2 O8                         
   1.00000000000000     
     3.8216945019848403    0.0000000000000000    0.0000000000000000
     0.0000000000000000    3.8216943531498728    0.0000000000000000
     0.0000000000000000    0.0000000000000000   29.1504053092320028
   Sr   Mn   Cl   O 
     4     3     2     8
Direct
  0.0000000536599540 -0.0000000302479744  0.2996833320813349
 -0.0000000308551578  0.0000000628553744  0.7003221372831123
 -0.0000000412189923 -0.0000000141271495  0.4355262459023601
  0.0000000003218387  0.0000000260247557  0.5644734312741329
  0.4999999989963633  0.4999999978976898  0.5000047840945113
  0.4999999963166486  0.5000000001915813  0.6331561837622603
  0.5000000050443394  0.4999999915590184  0.3668284296096233
  0.4999999666072572  0.4999999521493165  0.2552416877648258
  0.5000000148084510  0.5000000600814538  0.7447582396945975
  0.5000000228969546 -0.0000000147147377  0.3560715998764981
 -0.0000000063382536  0.5000000059868455  0.6439317565099758
  0.5000000070282445 -0.0000000075772235  0.4999990367502539
 -0.0000000003710397  0.4999999933820543  0.4999990434487980
  0.0000000147555187  0.4999999788809230  0.3560715995023030
  0.5000000097736635  0.5000000108214324  0.4316607580227041
  0.4999999913318411  0.0000000013738365  0.6439317560109209
  0.4999999972423684  0.4999999854628039  0.5683399784117878
 
  0.00000000E+00  0.00000000E+00  0.00000000E+00
  0.00000000E+00  0.00000000E+00  0.00000000E+00
  0.00000000E+00  0.00000000E+00  0.00000000E+00
  0.00000000E+00  0.00000000E+00  0.00000000E+00
  0.00000000E+00  0.00000000E+00  0.00000000E+00
  0.00000000E+00  0.00000000E+00  0.00000000E+00
  0.00000000E+00  0.00000000E+00  0.00000000E+00
  0.00000000E+00  0.00000000E+00  0.00000000E+00
  0.00000000E+00  0.00000000E+00  0.00000000E+00
  0.00000000E+00  0.00000000E+00  0.00000000E+00
  0.00000000E+00  0.00000000E+00  0.00000000E+00
  0.00000000E+00  0.00000000E+00  0.00000000E+00
  0.00000000E+00  0.00000000E+00  0.00000000E+00
  0.00000000E+00  0.00000000E+00  0.00000000E+00
  0.00000000E+00  0.00000000E+00  0.00000000E+00
  0.00000000E+00  0.00000000E+00  0.00000000E+00
  0.00000000E+00  0.00000000E+00  0.00000000E+00
