 Ta3 Te14 Pd3                           
   1.00000000000000     
     3.7905511261025135    0.0000000000000000    0.0000000000000000
     0.0000000000000000   21.9566731170147698    0.0000000000000000
     0.0000000000000000    0.0000000000000000   19.3752926856089971
   Ta   Te   Pd
     3    14     3
Direct
  0.4999999983970724  0.4773075335700875  0.4978408514213479
  0.5000000018226487  0.1242571643417871  0.4987955101994163
  0.4999999957388539  0.7756899267352345  0.5160641393139638
  0.9999999995617372  0.4091997915841590  0.4174051217609596
  0.4999999984188150  0.2405165483401661  0.4221960677181149
  0.5000000012778472  0.8901687672332920  0.5919698707317659
  0.9999999967228419  0.8443534546083270  0.4380360218471148
  0.9999999977579819  0.5518609118829213  0.4246673687143582
  0.9999999989810462  0.4808142527166926  0.6102898046006215
  0.5000000060010805  0.0021153554230666  0.4367395693441073
  0.0000000009318555  0.0574180336958590  0.5818610301608916
  0.4999999994368665  0.5938515291018691  0.5704250762789351
  0.0000000019024640  0.1995809150924146  0.5715408749714510
  0.5000000010887362  0.7019807881894526  0.4067961892588257
  0.0000000023509870  0.1187980750828115  0.3872867439583131
  0.9999999942685349  0.7388403753935598  0.6124483241696116
  0.5000000013097363  0.3594142340109197  0.5710188884843652
  0.0000000031990695  0.9471052501218669  0.5145361636771369
  0.9999999992450128  0.3019090741455948  0.4942620883820749
  0.0000000015868054  0.6615300187299245  0.5004229772245204
 
  0.00000000E+00  0.00000000E+00  0.00000000E+00
  0.00000000E+00  0.00000000E+00  0.00000000E+00
  0.00000000E+00  0.00000000E+00  0.00000000E+00
  0.00000000E+00  0.00000000E+00  0.00000000E+00
  0.00000000E+00  0.00000000E+00  0.00000000E+00
  0.00000000E+00  0.00000000E+00  0.00000000E+00
  0.00000000E+00  0.00000000E+00  0.00000000E+00
  0.00000000E+00  0.00000000E+00  0.00000000E+00
  0.00000000E+00  0.00000000E+00  0.00000000E+00
  0.00000000E+00  0.00000000E+00  0.00000000E+00
  0.00000000E+00  0.00000000E+00  0.00000000E+00
  0.00000000E+00  0.00000000E+00  0.00000000E+00
  0.00000000E+00  0.00000000E+00  0.00000000E+00
  0.00000000E+00  0.00000000E+00  0.00000000E+00
  0.00000000E+00  0.00000000E+00  0.00000000E+00
  0.00000000E+00  0.00000000E+00  0.00000000E+00
  0.00000000E+00  0.00000000E+00  0.00000000E+00
  0.00000000E+00  0.00000000E+00  0.00000000E+00
  0.00000000E+00  0.00000000E+00  0.00000000E+00
  0.00000000E+00  0.00000000E+00  0.00000000E+00
