G   57   34    1    0.005     # Parameters to Generate KPOINTS (Don't Edit This Line)
     970
Reciprocal lattice
    0.000000000000    0.000000000000    0.000000000000       1
    0.017543859649    0.000000000000    0.000000000000       2
    0.035087719298    0.000000000000    0.000000000000       2
    0.052631578947    0.000000000000    0.000000000000       2
    0.070175438596    0.000000000000    0.000000000000       2
    0.087719298246    0.000000000000    0.000000000000       2
    0.105263157895    0.000000000000    0.000000000000       2
    0.122807017544    0.000000000000    0.000000000000       2
    0.140350877193    0.000000000000    0.000000000000       2
    0.157894736842    0.000000000000    0.000000000000       2
    0.175438596491    0.000000000000    0.000000000000       2
    0.192982456140    0.000000000000    0.000000000000       2
    0.210526315789    0.000000000000    0.000000000000       2
    0.228070175439    0.000000000000    0.000000000000       2
    0.245614035088    0.000000000000    0.000000000000       2
    0.263157894737    0.000000000000    0.000000000000       2
    0.280701754386    0.000000000000    0.000000000000       2
    0.298245614035    0.000000000000    0.000000000000       2
    0.315789473684    0.000000000000    0.000000000000       2
    0.333333333333    0.000000000000    0.000000000000       2
    0.350877192982    0.000000000000    0.000000000000       2
    0.368421052632    0.000000000000    0.000000000000       2
    0.385964912281    0.000000000000    0.000000000000       2
    0.403508771930    0.000000000000    0.000000000000       2
    0.421052631579    0.000000000000    0.000000000000       2
    0.438596491228    0.000000000000    0.000000000000       2
    0.456140350877    0.000000000000    0.000000000000       2
    0.473684210526    0.000000000000    0.000000000000       2
    0.491228070175    0.000000000000    0.000000000000       2
    0.000000000000    0.029411764706    0.000000000000       2
    0.017543859649    0.029411764706    0.000000000000       2
    0.035087719298    0.029411764706    0.000000000000       2
    0.052631578947    0.029411764706    0.000000000000       2
    0.070175438596    0.029411764706    0.000000000000       2
    0.087719298246    0.029411764706    0.000000000000       2
    0.105263157895    0.029411764706    0.000000000000       2
    0.122807017544    0.029411764706    0.000000000000       2
    0.140350877193    0.029411764706    0.000000000000       2
    0.157894736842    0.029411764706    0.000000000000       2
    0.175438596491    0.029411764706    0.000000000000       2
    0.192982456140    0.029411764706    0.000000000000       2
    0.210526315789    0.029411764706    0.000000000000       2
    0.228070175439    0.029411764706    0.000000000000       2
    0.245614035088    0.029411764706    0.000000000000       2
    0.263157894737    0.029411764706    0.000000000000       2
    0.280701754386    0.029411764706    0.000000000000       2
    0.298245614035    0.029411764706    0.000000000000       2
    0.315789473684    0.029411764706    0.000000000000       2
    0.333333333333    0.029411764706    0.000000000000       2
    0.350877192982    0.029411764706    0.000000000000       2
    0.368421052632    0.029411764706    0.000000000000       2
    0.385964912281    0.029411764706    0.000000000000       2
    0.403508771930    0.029411764706    0.000000000000       2
    0.421052631579    0.029411764706    0.000000000000       2
    0.438596491228    0.029411764706    0.000000000000       2
    0.456140350877    0.029411764706    0.000000000000       2
    0.473684210526    0.029411764706    0.000000000000       2
    0.491228070175    0.029411764706    0.000000000000       2
   -0.491228070175    0.029411764706    0.000000000000       2
   -0.473684210526    0.029411764706    0.000000000000       2
   -0.456140350877    0.029411764706    0.000000000000       2
   -0.438596491228    0.029411764706    0.000000000000       2
   -0.421052631579    0.029411764706    0.000000000000       2
   -0.403508771930    0.029411764706    0.000000000000       2
   -0.385964912281    0.029411764706    0.000000000000       2
   -0.368421052632    0.029411764706    0.000000000000       2
   -0.350877192982    0.029411764706    0.000000000000       2
   -0.333333333333    0.029411764706    0.000000000000       2
   -0.315789473684    0.029411764706    0.000000000000       2
   -0.298245614035    0.029411764706    0.000000000000       2
   -0.280701754386    0.029411764706    0.000000000000       2
   -0.263157894737    0.029411764706    0.000000000000       2
   -0.245614035088    0.029411764706    0.000000000000       2
   -0.228070175439    0.029411764706    0.000000000000       2
   -0.210526315789    0.029411764706    0.000000000000       2
   -0.192982456140    0.029411764706    0.000000000000       2
   -0.175438596491    0.029411764706    0.000000000000       2
   -0.157894736842    0.029411764706    0.000000000000       2
   -0.140350877193    0.029411764706    0.000000000000       2
   -0.122807017544    0.029411764706    0.000000000000       2
   -0.105263157895    0.029411764706    0.000000000000       2
   -0.087719298246    0.029411764706    0.000000000000       2
   -0.070175438596    0.029411764706    0.000000000000       2
   -0.052631578947    0.029411764706    0.000000000000       2
   -0.035087719298    0.029411764706    0.000000000000       2
   -0.017543859649    0.029411764706    0.000000000000       2
    0.000000000000    0.058823529412    0.000000000000       2
    0.017543859649    0.058823529412    0.000000000000       2
    0.035087719298    0.058823529412    0.000000000000       2
    0.052631578947    0.058823529412    0.000000000000       2
    0.070175438596    0.058823529412    0.000000000000       2
    0.087719298246    0.058823529412    0.000000000000       2
    0.105263157895    0.058823529412    0.000000000000       2
    0.122807017544    0.058823529412    0.000000000000       2
    0.140350877193    0.058823529412    0.000000000000       2
    0.157894736842    0.058823529412    0.000000000000       2
    0.175438596491    0.058823529412    0.000000000000       2
    0.192982456140    0.058823529412    0.000000000000       2
    0.210526315789    0.058823529412    0.000000000000       2
    0.228070175439    0.058823529412    0.000000000000       2
    0.245614035088    0.058823529412    0.000000000000       2
    0.263157894737    0.058823529412    0.000000000000       2
    0.280701754386    0.058823529412    0.000000000000       2
    0.298245614035    0.058823529412    0.000000000000       2
    0.315789473684    0.058823529412    0.000000000000       2
    0.333333333333    0.058823529412    0.000000000000       2
    0.350877192982    0.058823529412    0.000000000000       2
    0.368421052632    0.058823529412    0.000000000000       2
    0.385964912281    0.058823529412    0.000000000000       2
    0.403508771930    0.058823529412    0.000000000000       2
    0.421052631579    0.058823529412    0.000000000000       2
    0.438596491228    0.058823529412    0.000000000000       2
    0.456140350877    0.058823529412    0.000000000000       2
    0.473684210526    0.058823529412    0.000000000000       2
    0.491228070175    0.058823529412    0.000000000000       2
   -0.491228070175    0.058823529412    0.000000000000       2
   -0.473684210526    0.058823529412    0.000000000000       2
   -0.456140350877    0.058823529412    0.000000000000       2
   -0.438596491228    0.058823529412    0.000000000000       2
   -0.421052631579    0.058823529412    0.000000000000       2
   -0.403508771930    0.058823529412    0.000000000000       2
   -0.385964912281    0.058823529412    0.000000000000       2
   -0.368421052632    0.058823529412    0.000000000000       2
   -0.350877192982    0.058823529412    0.000000000000       2
   -0.333333333333    0.058823529412    0.000000000000       2
   -0.315789473684    0.058823529412    0.000000000000       2
   -0.298245614035    0.058823529412    0.000000000000       2
   -0.280701754386    0.058823529412    0.000000000000       2
   -0.263157894737    0.058823529412    0.000000000000       2
   -0.245614035088    0.058823529412    0.000000000000       2
   -0.228070175439    0.058823529412    0.000000000000       2
   -0.210526315789    0.058823529412    0.000000000000       2
   -0.192982456140    0.058823529412    0.000000000000       2
   -0.175438596491    0.058823529412    0.000000000000       2
   -0.157894736842    0.058823529412    0.000000000000       2
   -0.140350877193    0.058823529412    0.000000000000       2
   -0.122807017544    0.058823529412    0.000000000000       2
   -0.105263157895    0.058823529412    0.000000000000       2
   -0.087719298246    0.058823529412    0.000000000000       2
   -0.070175438596    0.058823529412    0.000000000000       2
   -0.052631578947    0.058823529412    0.000000000000       2
   -0.035087719298    0.058823529412    0.000000000000       2
   -0.017543859649    0.058823529412    0.000000000000       2
    0.000000000000    0.088235294118    0.000000000000       2
    0.017543859649    0.088235294118    0.000000000000       2
    0.035087719298    0.088235294118    0.000000000000       2
    0.052631578947    0.088235294118    0.000000000000       2
    0.070175438596    0.088235294118    0.000000000000       2
    0.087719298246    0.088235294118    0.000000000000       2
    0.105263157895    0.088235294118    0.000000000000       2
    0.122807017544    0.088235294118    0.000000000000       2
    0.140350877193    0.088235294118    0.000000000000       2
    0.157894736842    0.088235294118    0.000000000000       2
    0.175438596491    0.088235294118    0.000000000000       2
    0.192982456140    0.088235294118    0.000000000000       2
    0.210526315789    0.088235294118    0.000000000000       2
    0.228070175439    0.088235294118    0.000000000000       2
    0.245614035088    0.088235294118    0.000000000000       2
    0.263157894737    0.088235294118    0.000000000000       2
    0.280701754386    0.088235294118    0.000000000000       2
    0.298245614035    0.088235294118    0.000000000000       2
    0.315789473684    0.088235294118    0.000000000000       2
    0.333333333333    0.088235294118    0.000000000000       2
    0.350877192982    0.088235294118    0.000000000000       2
    0.368421052632    0.088235294118    0.000000000000       2
    0.385964912281    0.088235294118    0.000000000000       2
    0.403508771930    0.088235294118    0.000000000000       2
    0.421052631579    0.088235294118    0.000000000000       2
    0.438596491228    0.088235294118    0.000000000000       2
    0.456140350877    0.088235294118    0.000000000000       2
    0.473684210526    0.088235294118    0.000000000000       2
    0.491228070175    0.088235294118    0.000000000000       2
   -0.491228070175    0.088235294118    0.000000000000       2
   -0.473684210526    0.088235294118    0.000000000000       2
   -0.456140350877    0.088235294118    0.000000000000       2
   -0.438596491228    0.088235294118    0.000000000000       2
   -0.421052631579    0.088235294118    0.000000000000       2
   -0.403508771930    0.088235294118    0.000000000000       2
   -0.385964912281    0.088235294118    0.000000000000       2
   -0.368421052632    0.088235294118    0.000000000000       2
   -0.350877192982    0.088235294118    0.000000000000       2
   -0.333333333333    0.088235294118    0.000000000000       2
   -0.315789473684    0.088235294118    0.000000000000       2
   -0.298245614035    0.088235294118    0.000000000000       2
   -0.280701754386    0.088235294118    0.000000000000       2
   -0.263157894737    0.088235294118    0.000000000000       2
   -0.245614035088    0.088235294118    0.000000000000       2
   -0.228070175439    0.088235294118    0.000000000000       2
   -0.210526315789    0.088235294118    0.000000000000       2
   -0.192982456140    0.088235294118    0.000000000000       2
   -0.175438596491    0.088235294118    0.000000000000       2
   -0.157894736842    0.088235294118    0.000000000000       2
   -0.140350877193    0.088235294118    0.000000000000       2
   -0.122807017544    0.088235294118    0.000000000000       2
   -0.105263157895    0.088235294118    0.000000000000       2
   -0.087719298246    0.088235294118    0.000000000000       2
   -0.070175438596    0.088235294118    0.000000000000       2
   -0.052631578947    0.088235294118    0.000000000000       2
   -0.035087719298    0.088235294118    0.000000000000       2
   -0.017543859649    0.088235294118    0.000000000000       2
    0.000000000000    0.117647058824    0.000000000000       2
    0.017543859649    0.117647058824    0.000000000000       2
    0.035087719298    0.117647058824    0.000000000000       2
    0.052631578947    0.117647058824    0.000000000000       2
    0.070175438596    0.117647058824    0.000000000000       2
    0.087719298246    0.117647058824    0.000000000000       2
    0.105263157895    0.117647058824    0.000000000000       2
    0.122807017544    0.117647058824    0.000000000000       2
    0.140350877193    0.117647058824    0.000000000000       2
    0.157894736842    0.117647058824    0.000000000000       2
    0.175438596491    0.117647058824    0.000000000000       2
    0.192982456140    0.117647058824    0.000000000000       2
    0.210526315789    0.117647058824    0.000000000000       2
    0.228070175439    0.117647058824    0.000000000000       2
    0.245614035088    0.117647058824    0.000000000000       2
    0.263157894737    0.117647058824    0.000000000000       2
    0.280701754386    0.117647058824    0.000000000000       2
    0.298245614035    0.117647058824    0.000000000000       2
    0.315789473684    0.117647058824    0.000000000000       2
    0.333333333333    0.117647058824    0.000000000000       2
    0.350877192982    0.117647058824    0.000000000000       2
    0.368421052632    0.117647058824    0.000000000000       2
    0.385964912281    0.117647058824    0.000000000000       2
    0.403508771930    0.117647058824    0.000000000000       2
    0.421052631579    0.117647058824    0.000000000000       2
    0.438596491228    0.117647058824    0.000000000000       2
    0.456140350877    0.117647058824    0.000000000000       2
    0.473684210526    0.117647058824    0.000000000000       2
    0.491228070175    0.117647058824    0.000000000000       2
   -0.491228070175    0.117647058824    0.000000000000       2
   -0.473684210526    0.117647058824    0.000000000000       2
   -0.456140350877    0.117647058824    0.000000000000       2
   -0.438596491228    0.117647058824    0.000000000000       2
   -0.421052631579    0.117647058824    0.000000000000       2
   -0.403508771930    0.117647058824    0.000000000000       2
   -0.385964912281    0.117647058824    0.000000000000       2
   -0.368421052632    0.117647058824    0.000000000000       2
   -0.350877192982    0.117647058824    0.000000000000       2
   -0.333333333333    0.117647058824    0.000000000000       2
   -0.315789473684    0.117647058824    0.000000000000       2
   -0.298245614035    0.117647058824    0.000000000000       2
   -0.280701754386    0.117647058824    0.000000000000       2
   -0.263157894737    0.117647058824    0.000000000000       2
   -0.245614035088    0.117647058824    0.000000000000       2
   -0.228070175439    0.117647058824    0.000000000000       2
   -0.210526315789    0.117647058824    0.000000000000       2
   -0.192982456140    0.117647058824    0.000000000000       2
   -0.175438596491    0.117647058824    0.000000000000       2
   -0.157894736842    0.117647058824    0.000000000000       2
   -0.140350877193    0.117647058824    0.000000000000       2
   -0.122807017544    0.117647058824    0.000000000000       2
   -0.105263157895    0.117647058824    0.000000000000       2
   -0.087719298246    0.117647058824    0.000000000000       2
   -0.070175438596    0.117647058824    0.000000000000       2
   -0.052631578947    0.117647058824    0.000000000000       2
   -0.035087719298    0.117647058824    0.000000000000       2
   -0.017543859649    0.117647058824    0.000000000000       2
    0.000000000000    0.147058823529    0.000000000000       2
    0.017543859649    0.147058823529    0.000000000000       2
    0.035087719298    0.147058823529    0.000000000000       2
    0.052631578947    0.147058823529    0.000000000000       2
    0.070175438596    0.147058823529    0.000000000000       2
    0.087719298246    0.147058823529    0.000000000000       2
    0.105263157895    0.147058823529    0.000000000000       2
    0.122807017544    0.147058823529    0.000000000000       2
    0.140350877193    0.147058823529    0.000000000000       2
    0.157894736842    0.147058823529    0.000000000000       2
    0.175438596491    0.147058823529    0.000000000000       2
    0.192982456140    0.147058823529    0.000000000000       2
    0.210526315789    0.147058823529    0.000000000000       2
    0.228070175439    0.147058823529    0.000000000000       2
    0.245614035088    0.147058823529    0.000000000000       2
    0.263157894737    0.147058823529    0.000000000000       2
    0.280701754386    0.147058823529    0.000000000000       2
    0.298245614035    0.147058823529    0.000000000000       2
    0.315789473684    0.147058823529    0.000000000000       2
    0.333333333333    0.147058823529    0.000000000000       2
    0.350877192982    0.147058823529    0.000000000000       2
    0.368421052632    0.147058823529    0.000000000000       2
    0.385964912281    0.147058823529    0.000000000000       2
    0.403508771930    0.147058823529    0.000000000000       2
    0.421052631579    0.147058823529    0.000000000000       2
    0.438596491228    0.147058823529    0.000000000000       2
    0.456140350877    0.147058823529    0.000000000000       2
    0.473684210526    0.147058823529    0.000000000000       2
    0.491228070175    0.147058823529    0.000000000000       2
   -0.491228070175    0.147058823529    0.000000000000       2
   -0.473684210526    0.147058823529    0.000000000000       2
   -0.456140350877    0.147058823529    0.000000000000       2
   -0.438596491228    0.147058823529    0.000000000000       2
   -0.421052631579    0.147058823529    0.000000000000       2
   -0.403508771930    0.147058823529    0.000000000000       2
   -0.385964912281    0.147058823529    0.000000000000       2
   -0.368421052632    0.147058823529    0.000000000000       2
   -0.350877192982    0.147058823529    0.000000000000       2
   -0.333333333333    0.147058823529    0.000000000000       2
   -0.315789473684    0.147058823529    0.000000000000       2
   -0.298245614035    0.147058823529    0.000000000000       2
   -0.280701754386    0.147058823529    0.000000000000       2
   -0.263157894737    0.147058823529    0.000000000000       2
   -0.245614035088    0.147058823529    0.000000000000       2
   -0.228070175439    0.147058823529    0.000000000000       2
   -0.210526315789    0.147058823529    0.000000000000       2
   -0.192982456140    0.147058823529    0.000000000000       2
   -0.175438596491    0.147058823529    0.000000000000       2
   -0.157894736842    0.147058823529    0.000000000000       2
   -0.140350877193    0.147058823529    0.000000000000       2
   -0.122807017544    0.147058823529    0.000000000000       2
   -0.105263157895    0.147058823529    0.000000000000       2
   -0.087719298246    0.147058823529    0.000000000000       2
   -0.070175438596    0.147058823529    0.000000000000       2
   -0.052631578947    0.147058823529    0.000000000000       2
   -0.035087719298    0.147058823529    0.000000000000       2
   -0.017543859649    0.147058823529    0.000000000000       2
    0.000000000000    0.176470588235    0.000000000000       2
    0.017543859649    0.176470588235    0.000000000000       2
    0.035087719298    0.176470588235    0.000000000000       2
    0.052631578947    0.176470588235    0.000000000000       2
    0.070175438596    0.176470588235    0.000000000000       2
    0.087719298246    0.176470588235    0.000000000000       2
    0.105263157895    0.176470588235    0.000000000000       2
    0.122807017544    0.176470588235    0.000000000000       2
    0.140350877193    0.176470588235    0.000000000000       2
    0.157894736842    0.176470588235    0.000000000000       2
    0.175438596491    0.176470588235    0.000000000000       2
    0.192982456140    0.176470588235    0.000000000000       2
    0.210526315789    0.176470588235    0.000000000000       2
    0.228070175439    0.176470588235    0.000000000000       2
    0.245614035088    0.176470588235    0.000000000000       2
    0.263157894737    0.176470588235    0.000000000000       2
    0.280701754386    0.176470588235    0.000000000000       2
    0.298245614035    0.176470588235    0.000000000000       2
    0.315789473684    0.176470588235    0.000000000000       2
    0.333333333333    0.176470588235    0.000000000000       2
    0.350877192982    0.176470588235    0.000000000000       2
    0.368421052632    0.176470588235    0.000000000000       2
    0.385964912281    0.176470588235    0.000000000000       2
    0.403508771930    0.176470588235    0.000000000000       2
    0.421052631579    0.176470588235    0.000000000000       2
    0.438596491228    0.176470588235    0.000000000000       2
    0.456140350877    0.176470588235    0.000000000000       2
    0.473684210526    0.176470588235    0.000000000000       2
    0.491228070175    0.176470588235    0.000000000000       2
   -0.491228070175    0.176470588235    0.000000000000       2
   -0.473684210526    0.176470588235    0.000000000000       2
   -0.456140350877    0.176470588235    0.000000000000       2
   -0.438596491228    0.176470588235    0.000000000000       2
   -0.421052631579    0.176470588235    0.000000000000       2
   -0.403508771930    0.176470588235    0.000000000000       2
   -0.385964912281    0.176470588235    0.000000000000       2
   -0.368421052632    0.176470588235    0.000000000000       2
   -0.350877192982    0.176470588235    0.000000000000       2
   -0.333333333333    0.176470588235    0.000000000000       2
   -0.315789473684    0.176470588235    0.000000000000       2
   -0.298245614035    0.176470588235    0.000000000000       2
   -0.280701754386    0.176470588235    0.000000000000       2
   -0.263157894737    0.176470588235    0.000000000000       2
   -0.245614035088    0.176470588235    0.000000000000       2
   -0.228070175439    0.176470588235    0.000000000000       2
   -0.210526315789    0.176470588235    0.000000000000       2
   -0.192982456140    0.176470588235    0.000000000000       2
   -0.175438596491    0.176470588235    0.000000000000       2
   -0.157894736842    0.176470588235    0.000000000000       2
   -0.140350877193    0.176470588235    0.000000000000       2
   -0.122807017544    0.176470588235    0.000000000000       2
   -0.105263157895    0.176470588235    0.000000000000       2
   -0.087719298246    0.176470588235    0.000000000000       2
   -0.070175438596    0.176470588235    0.000000000000       2
   -0.052631578947    0.176470588235    0.000000000000       2
   -0.035087719298    0.176470588235    0.000000000000       2
   -0.017543859649    0.176470588235    0.000000000000       2
    0.000000000000    0.205882352941    0.000000000000       2
    0.017543859649    0.205882352941    0.000000000000       2
    0.035087719298    0.205882352941    0.000000000000       2
    0.052631578947    0.205882352941    0.000000000000       2
    0.070175438596    0.205882352941    0.000000000000       2
    0.087719298246    0.205882352941    0.000000000000       2
    0.105263157895    0.205882352941    0.000000000000       2
    0.122807017544    0.205882352941    0.000000000000       2
    0.140350877193    0.205882352941    0.000000000000       2
    0.157894736842    0.205882352941    0.000000000000       2
    0.175438596491    0.205882352941    0.000000000000       2
    0.192982456140    0.205882352941    0.000000000000       2
    0.210526315789    0.205882352941    0.000000000000       2
    0.228070175439    0.205882352941    0.000000000000       2
    0.245614035088    0.205882352941    0.000000000000       2
    0.263157894737    0.205882352941    0.000000000000       2
    0.280701754386    0.205882352941    0.000000000000       2
    0.298245614035    0.205882352941    0.000000000000       2
    0.315789473684    0.205882352941    0.000000000000       2
    0.333333333333    0.205882352941    0.000000000000       2
    0.350877192982    0.205882352941    0.000000000000       2
    0.368421052632    0.205882352941    0.000000000000       2
    0.385964912281    0.205882352941    0.000000000000       2
    0.403508771930    0.205882352941    0.000000000000       2
    0.421052631579    0.205882352941    0.000000000000       2
    0.438596491228    0.205882352941    0.000000000000       2
    0.456140350877    0.205882352941    0.000000000000       2
    0.473684210526    0.205882352941    0.000000000000       2
    0.491228070175    0.205882352941    0.000000000000       2
   -0.491228070175    0.205882352941    0.000000000000       2
   -0.473684210526    0.205882352941    0.000000000000       2
   -0.456140350877    0.205882352941    0.000000000000       2
   -0.438596491228    0.205882352941    0.000000000000       2
   -0.421052631579    0.205882352941    0.000000000000       2
   -0.403508771930    0.205882352941    0.000000000000       2
   -0.385964912281    0.205882352941    0.000000000000       2
   -0.368421052632    0.205882352941    0.000000000000       2
   -0.350877192982    0.205882352941    0.000000000000       2
   -0.333333333333    0.205882352941    0.000000000000       2
   -0.315789473684    0.205882352941    0.000000000000       2
   -0.298245614035    0.205882352941    0.000000000000       2
   -0.280701754386    0.205882352941    0.000000000000       2
   -0.263157894737    0.205882352941    0.000000000000       2
   -0.245614035088    0.205882352941    0.000000000000       2
   -0.228070175439    0.205882352941    0.000000000000       2
   -0.210526315789    0.205882352941    0.000000000000       2
   -0.192982456140    0.205882352941    0.000000000000       2
   -0.175438596491    0.205882352941    0.000000000000       2
   -0.157894736842    0.205882352941    0.000000000000       2
   -0.140350877193    0.205882352941    0.000000000000       2
   -0.122807017544    0.205882352941    0.000000000000       2
   -0.105263157895    0.205882352941    0.000000000000       2
   -0.087719298246    0.205882352941    0.000000000000       2
   -0.070175438596    0.205882352941    0.000000000000       2
   -0.052631578947    0.205882352941    0.000000000000       2
   -0.035087719298    0.205882352941    0.000000000000       2
   -0.017543859649    0.205882352941    0.000000000000       2
    0.000000000000    0.235294117647    0.000000000000       2
    0.017543859649    0.235294117647    0.000000000000       2
    0.035087719298    0.235294117647    0.000000000000       2
    0.052631578947    0.235294117647    0.000000000000       2
    0.070175438596    0.235294117647    0.000000000000       2
    0.087719298246    0.235294117647    0.000000000000       2
    0.105263157895    0.235294117647    0.000000000000       2
    0.122807017544    0.235294117647    0.000000000000       2
    0.140350877193    0.235294117647    0.000000000000       2
    0.157894736842    0.235294117647    0.000000000000       2
    0.175438596491    0.235294117647    0.000000000000       2
    0.192982456140    0.235294117647    0.000000000000       2
    0.210526315789    0.235294117647    0.000000000000       2
    0.228070175439    0.235294117647    0.000000000000       2
    0.245614035088    0.235294117647    0.000000000000       2
    0.263157894737    0.235294117647    0.000000000000       2
    0.280701754386    0.235294117647    0.000000000000       2
    0.298245614035    0.235294117647    0.000000000000       2
    0.315789473684    0.235294117647    0.000000000000       2
    0.333333333333    0.235294117647    0.000000000000       2
    0.350877192982    0.235294117647    0.000000000000       2
    0.368421052632    0.235294117647    0.000000000000       2
    0.385964912281    0.235294117647    0.000000000000       2
    0.403508771930    0.235294117647    0.000000000000       2
    0.421052631579    0.235294117647    0.000000000000       2
    0.438596491228    0.235294117647    0.000000000000       2
    0.456140350877    0.235294117647    0.000000000000       2
    0.473684210526    0.235294117647    0.000000000000       2
    0.491228070175    0.235294117647    0.000000000000       2
   -0.491228070175    0.235294117647    0.000000000000       2
   -0.473684210526    0.235294117647    0.000000000000       2
   -0.456140350877    0.235294117647    0.000000000000       2
   -0.438596491228    0.235294117647    0.000000000000       2
   -0.421052631579    0.235294117647    0.000000000000       2
   -0.403508771930    0.235294117647    0.000000000000       2
   -0.385964912281    0.235294117647    0.000000000000       2
   -0.368421052632    0.235294117647    0.000000000000       2
   -0.350877192982    0.235294117647    0.000000000000       2
   -0.333333333333    0.235294117647    0.000000000000       2
   -0.315789473684    0.235294117647    0.000000000000       2
   -0.298245614035    0.235294117647    0.000000000000       2
   -0.280701754386    0.235294117647    0.000000000000       2
   -0.263157894737    0.235294117647    0.000000000000       2
   -0.245614035088    0.235294117647    0.000000000000       2
   -0.228070175439    0.235294117647    0.000000000000       2
   -0.210526315789    0.235294117647    0.000000000000       2