CONTCAR\(5)                             
   1.00000000000000     
    11.6448001861999995    0.0000000000000000    0.0000000000000000
    -5.8224170578000001   10.0839903220000000    0.0000000000000000
     0.0000000000000000    0.0000000000000000   17.7579002380000013
   Fe   Cl   O 
     8    24     1
Direct
  0.3294497224943001  0.1583163702151645  0.5085887228313692
  0.0016602571978863  0.0069238481137805  0.5005865059307699
  0.8315173553694646  0.1699337031963927  0.5025654588668782
  0.4976450948850795  0.9953123687723824  0.5011514098755300
  0.3285640271234385  0.6675447857129322  0.5012267964239490
  0.9948212329426380  0.5042840323083877  0.5027006031355370
  0.8371444610210759  0.6803528681046237  0.5005663969719590
  0.5098620292505708  0.5163511150636513  0.5107002598326902
  0.3593243987355852  0.3376160644543665  0.4466997812040702
  0.4848901125521424  0.1524229160775265  0.4336933223305413
  0.1682435480871032  0.0229490764674685  0.4272605907331416
  0.3318804406523934  0.9893298787467785  0.5732397783175467
  0.4660250667068468  0.2687639963434395  0.5984677070636896
  0.1633200864269662  0.1518530575182278  0.5774875772406055
  0.8403061232001854  0.3361482113871864  0.4319134340189077
  0.9893058674820863  0.1633486802259338  0.4308277965498357
  0.6674044354545182  0.0159448104027146  0.4295655084324948
  0.8502166891559118  0.0205360028097504  0.5740047303603087
  0.9796907546248357  0.3380733313106874  0.5762976852124222
  0.6624054604526062  0.1464129006124227  0.5759359951570878
  0.3454996014979421  0.8323925162031158  0.4263307541952482
  0.4785427983210654  0.6506271220813735  0.4275971975823014
  0.1602366970230523  0.5128984262680530  0.4310297675023413
  0.3454338378930457  0.5219906280490835  0.5779211112870190
  0.4854313856435296  0.8310335933431605  0.5724200566181563
  0.1631761969324493  0.6557222097628019  0.5738762293189592
  0.8530622683862538  0.8439001689390402  0.4247407781890325
  0.9844412024617323  0.6563986975177964  0.4287054808830425
  0.6667746218394892  0.5223461848332401  0.4335012728429615
  0.8447138677561470  0.5245523533440931  0.5749757832024807
  0.9926491137312082  0.8421995431445625  0.5716226486126611
  0.6802266591084994  0.6937372589842152  0.5695169288919883
  0.5394939425899290  0.4363028616856323  0.5881923173844885
 
  0.00000000E+00  0.00000000E+00  0.00000000E+00
  0.00000000E+00  0.00000000E+00  0.00000000E+00
  0.00000000E+00  0.00000000E+00  0.00000000E+00
  0.00000000E+00  0.00000000E+00  0.00000000E+00
  0.00000000E+00  0.00000000E+00  0.00000000E+00
  0.00000000E+00  0.00000000E+00  0.00000000E+00
  0.00000000E+00  0.00000000E+00  0.00000000E+00
  0.00000000E+00  0.00000000E+00  0.00000000E+00
  0.00000000E+00  0.00000000E+00  0.00000000E+00
  0.00000000E+00  0.00000000E+00  0.00000000E+00
  0.00000000E+00  0.00000000E+00  0.00000000E+00
  0.00000000E+00  0.00000000E+00  0.00000000E+00
  0.00000000E+00  0.00000000E+00  0.00000000E+00
  0.00000000E+00  0.00000000E+00  0.00000000E+00
  0.00000000E+00  0.00000000E+00  0.00000000E+00
  0.00000000E+00  0.00000000E+00  0.00000000E+00
  0.00000000E+00  0.00000000E+00  0.00000000E+00
  0.00000000E+00  0.00000000E+00  0.00000000E+00
  0.00000000E+00  0.00000000E+00  0.00000000E+00
  0.00000000E+00  0.00000000E+00  0.00000000E+00
  0.00000000E+00  0.00000000E+00  0.00000000E+00
  0.00000000E+00  0.00000000E+00  0.00000000E+00
  0.00000000E+00  0.00000000E+00  0.00000000E+00
  0.00000000E+00  0.00000000E+00  0.00000000E+00
  0.00000000E+00  0.00000000E+00  0.00000000E+00
  0.00000000E+00  0.00000000E+00  0.00000000E+00
  0.00000000E+00  0.00000000E+00  0.00000000E+00
  0.00000000E+00  0.00000000E+00  0.00000000E+00
  0.00000000E+00  0.00000000E+00  0.00000000E+00
  0.00000000E+00  0.00000000E+00  0.00000000E+00
  0.00000000E+00  0.00000000E+00  0.00000000E+00
  0.00000000E+00  0.00000000E+00  0.00000000E+00
  0.00000000E+00  0.00000000E+00  0.00000000E+00
