CONTCAR\(7)                             
   1.00000000000000     
    13.0895996094000004    0.0000000000000000    0.0000000000000000
     6.5373165239000004   11.3368964473999991    0.0000000000000000
     0.0000000000000000    0.0000000000000000   17.7437992095999988
   Cr   S    O 
    16    32     1
Direct
  0.0084303559278711  0.2302486648712716  0.4949967394475427
  0.2704292812483379  0.2442766461976738  0.4978440192341170
  0.5148541784999348  0.2261952235459454  0.5014537019187870
  0.7735529035816333  0.2278585348841620  0.5019091572056548
  0.0029605195330902  0.5055421368838686  0.4982313180028315
  0.2454371886966054  0.4912171403619201  0.5058155025542070
  0.5008781027990319  0.4667050063968461  0.5277479185296504
  0.7902787296751621  0.4622398533430366  0.5018442606878846
  0.9825630585689054  0.7492558232885296  0.4995464307538882
  0.2373655976227730  0.7866854682299743  0.5042524656069527
  0.4609550055505225  0.8016472626432637  0.4979893938501609
  0.7580532767730165  0.7469116526220032  0.4938236912167230
  0.0046020528700902 -0.0005714018882694  0.4989054112062334
  0.2340622884307201  0.0059542934334493  0.4949323508670219
  0.4951872339287692  0.0143686805638097  0.4963000582569677
  0.7532214850112284  0.9884163491656840  0.4990618490987621
  0.0818624388042136  0.0805822332011036  0.4112861821094181
  0.1708158392798357  0.1700388279988919  0.5726987611438604
  0.3295750282729377  0.0896168843828480  0.4183102133473461
  0.4249985665847346  0.1592745317734420  0.5843681819026174
  0.5865281305066027  0.0785124944164474  0.4154616434890861
  0.6801960461363740  0.1491446947246931  0.5791448770695934
  0.8387324179986295  0.0712844312967743  0.4194447730294866
  0.9285048410291687  0.1580918575050345  0.5830801363249210
  0.0928597906598433  0.3285104962079339  0.4295641640215208
  0.1668531627814159  0.4137338509700932  0.5818424039257147
  0.3447442937802819  0.3366348418865897  0.4232414831916562
  0.4190672060944284  0.3857108148197329  0.5913514153897886
  0.5899731614061141  0.3305584997357802  0.4339075245162730
  0.6893839147694959  0.3927678674486154  0.5804591089029119
  0.8447612352494620  0.3191450603307825  0.4170524035528762
  0.9368704646686504  0.4006338120625269  0.5792450013848761
  0.0909243085038104  0.5812369188072062  0.4214467237729967
  0.1608912621199489  0.6741670723823390  0.5686200112397902
  0.3453214053053255  0.5905631176198454  0.4528732290254542
  0.3721069710338478  0.7238723283280839  0.5986486022283491
  0.5778224004143085  0.5982103941166576  0.4717103864407348
  0.6483063773101606  0.6591736390778543  0.5589509254761793
  0.8369113620178826  0.5712963582268512  0.4206473070037526
  0.9082153334401196  0.6654246839341066  0.5818862552118256
  0.0818304940030707  0.8288343808097203  0.4260815047487042
  0.1566477766195011  0.9350542622800819  0.5855760174665334
  0.3198601518168241  0.8461932322543004  0.4133770899480319
  0.3989208909161706  0.9420419926721503  0.5795674880494539
  0.5761589048532906  0.8395410049646708  0.4226462286052610
  0.6629112519575732  0.9084361260779874  0.5746062415473030
  0.8327634816714278  0.8253251456876980  0.4127751604381886
  0.9189111890013150  0.9122370170047372  0.5765775191868854
  0.4524980142755277  0.5878103984512669  0.6065763168712479
 
  0.00000000E+00  0.00000000E+00  0.00000000E+00
  0.00000000E+00  0.00000000E+00  0.00000000E+00
  0.00000000E+00  0.00000000E+00  0.00000000E+00
  0.00000000E+00  0.00000000E+00  0.00000000E+00
  0.00000000E+00  0.00000000E+00  0.00000000E+00
  0.00000000E+00  0.00000000E+00  0.00000000E+00
  0.00000000E+00  0.00000000E+00  0.00000000E+00
  0.00000000E+00  0.00000000E+00  0.00000000E+00
  0.00000000E+00  0.00000000E+00  0.00000000E+00
  0.00000000E+00  0.00000000E+00  0.00000000E+00
  0.00000000E+00  0.00000000E+00  0.00000000E+00
  0.00000000E+00  0.00000000E+00  0.00000000E+00
  0.00000000E+00  0.00000000E+00  0.00000000E+00
  0.00000000E+00  0.00000000E+00  0.00000000E+00
  0.00000000E+00  0.00000000E+00  0.00000000E+00
  0.00000000E+00  0.00000000E+00  0.00000000E+00
  0.00000000E+00  0.00000000E+00  0.00000000E+00
  0.00000000E+00  0.00000000E+00  0.00000000E+00
  0.00000000E+00  0.00000000E+00  0.00000000E+00
  0.00000000E+00  0.00000000E+00  0.00000000E+00
  0.00000000E+00  0.00000000E+00  0.00000000E+00
  0.00000000E+00  0.00000000E+00  0.00000000E+00
  0.00000000E+00  0.00000000E+00  0.00000000E+00
  0.00000000E+00  0.00000000E+00  0.00000000E+00
  0.00000000E+00  0.00000000E+00  0.00000000E+00
  0.00000000E+00  0.00000000E+00  0.00000000E+00
  0.00000000E+00  0.00000000E+00  0.00000000E+00
  0.00000000E+00  0.00000000E+00  0.00000000E+00
  0.00000000E+00  0.00000000E+00  0.00000000E+00
  0.00000000E+00  0.00000000E+00  0.00000000E+00
  0.00000000E+00  0.00000000E+00  0.00000000E+00
  0.00000000E+00  0.00000000E+00  0.00000000E+00
  0.00000000E+00  0.00000000E+00  0.00000000E+00
  0.00000000E+00  0.00000000E+00  0.00000000E+00
  0.00000000E+00  0.00000000E+00  0.00000000E+00
  0.00000000E+00  0.00000000E+00  0.00000000E+00
  0.00000000E+00  0.00000000E+00  0.00000000E+00
  0.00000000E+00  0.00000000E+00  0.00000000E+00
  0.00000000E+00  0.00000000E+00  0.00000000E+00
  0.00000000E+00  0.00000000E+00  0.00000000E+00
  0.00000000E+00  0.00000000E+00  0.00000000E+00
  0.00000000E+00  0.00000000E+00  0.00000000E+00
  0.00000000E+00  0.00000000E+00  0.00000000E+00
  0.00000000E+00  0.00000000E+00  0.00000000E+00
  0.00000000E+00  0.00000000E+00  0.00000000E+00
  0.00000000E+00  0.00000000E+00  0.00000000E+00
  0.00000000E+00  0.00000000E+00  0.00000000E+00
  0.00000000E+00  0.00000000E+00  0.00000000E+00
  0.00000000E+00  0.00000000E+00  0.00000000E+00
