CONTCAR\(4)                             
   1.00000000000000     
    12.3274002075000002    0.0000000000000000    0.0000000000000000
     0.0000000000000000   15.7540998459000008    0.0000000000000000
     0.0000000000000000    0.0000000000000000   20.2700004577999984
   Pr   Br   O    H 
    12    30     2     1
Direct
  0.2501202001866218  0.6373364079126986  0.4839285580588992
  0.0821019788112309  0.3589482329533098  0.4655795339008009
  0.2429308657822773  0.1399476411226814  0.5276133626401887
  0.0639367305474465  0.8701106479244558  0.4719283488941102
  0.5800694798909021  0.6375103357058904  0.4843940046626400
  0.4152774177094827  0.3555759586379565  0.4593808120127889
  0.5885125791318586  0.1401397607268251  0.5272330381580375
  0.4163445324907968  0.9006140026269449  0.5649211091632367
  0.9149904223978851  0.6407226626195026  0.5047587785434189
  0.7481576364484468  0.3589028185370324  0.4653050675430563
  0.9153276951620910  0.1448624211588410  0.5244936043372519
  0.7672315936447944  0.8704216025075482  0.4720585449091317
  0.2813143950097157  0.8232958637136178  0.4398526775298350
  0.0754022316351737  0.1518909660513472  0.6304466128743869
  0.2401979393922389  0.4701002374542256  0.3964174547862385
  0.0922427321313819  0.5198595555117436  0.5534587345602020
  0.0825104373709635  0.0586194539590537  0.4342273339198357
  0.1965968301963130  0.9601555272039519  0.5821920507920666
  0.0913480121719985  0.7371398509933442  0.5768947299208023
  0.2481255507212765  0.2421887733743091  0.3983501997318797
  0.0678011877419209  0.6876583061462398  0.3973096084902181
  0.2533945356981917  0.3229020649981251  0.5677582760802480
  0.5489977845405747  0.8240326636581727  0.4410312498639541
  0.4162069774253396  0.1188376267835807  0.6293223440342857
  0.5904228611855160  0.4701595158762615  0.3963930691299495
  0.4152800090128110  0.5113854719018747  0.5436610372362765
  0.4155531510581980  0.0399161528441496  0.4538189115565956
  0.6358179607005781  0.9612036275199713  0.5817001581047236
  0.4142035051094837  0.7122950476415895  0.5808849617032266
  0.5825260887342552  0.2422422628432841  0.3980066548989711
  0.4157075918302837  0.6433169288636194  0.3804968895950154
  0.5772013513609835  0.3230328000757652  0.5676242568530867
  0.9154929555638134  0.8905968047379247  0.3611000314774415
  0.7555759786744503  0.1519581937429351  0.6305602231044318
  0.9152604327932892  0.4792934568027860  0.4068738860844192
  0.7380513654551777  0.5197672069846249  0.5532764016070075
  0.7489155910694265  0.0587421605961609  0.4336996943329723
  0.9159392817572467  0.9499420681699107  0.5684114482707088
  0.7389934911695448  0.7372767676128476  0.5770760786295668
  0.9152308827341002  0.2504989864591423  0.3969248399290137
  0.7620213481290108  0.6878526312839242  0.3974037179388574
  0.9150266980187567  0.3301303345870963  0.5687848359833083
  0.4238591244498480  0.8963628980881495  0.6681038453160255
  0.4469325761442349  0.9206575120539782  0.7345977921041111
  0.4437782788101785  0.9828754130326374  0.7308950627367778
 
  0.00000000E+00  0.00000000E+00  0.00000000E+00
  0.00000000E+00  0.00000000E+00  0.00000000E+00
  0.00000000E+00  0.00000000E+00  0.00000000E+00
  0.00000000E+00  0.00000000E+00  0.00000000E+00
  0.00000000E+00  0.00000000E+00  0.00000000E+00
  0.00000000E+00  0.00000000E+00  0.00000000E+00
  0.00000000E+00  0.00000000E+00  0.00000000E+00
  0.00000000E+00  0.00000000E+00  0.00000000E+00
  0.00000000E+00  0.00000000E+00  0.00000000E+00
  0.00000000E+00  0.00000000E+00  0.00000000E+00
  0.00000000E+00  0.00000000E+00  0.00000000E+00
  0.00000000E+00  0.00000000E+00  0.00000000E+00
  0.00000000E+00  0.00000000E+00  0.00000000E+00
  0.00000000E+00  0.00000000E+00  0.00000000E+00
  0.00000000E+00  0.00000000E+00  0.00000000E+00
  0.00000000E+00  0.00000000E+00  0.00000000E+00
  0.00000000E+00  0.00000000E+00  0.00000000E+00
  0.00000000E+00  0.00000000E+00  0.00000000E+00
  0.00000000E+00  0.00000000E+00  0.00000000E+00
  0.00000000E+00  0.00000000E+00  0.00000000E+00
  0.00000000E+00  0.00000000E+00  0.00000000E+00
  0.00000000E+00  0.00000000E+00  0.00000000E+00
  0.00000000E+00  0.00000000E+00  0.00000000E+00
  0.00000000E+00  0.00000000E+00  0.00000000E+00
  0.00000000E+00  0.00000000E+00  0.00000000E+00
  0.00000000E+00  0.00000000E+00  0.00000000E+00
  0.00000000E+00  0.00000000E+00  0.00000000E+00
  0.00000000E+00  0.00000000E+00  0.00000000E+00
  0.00000000E+00  0.00000000E+00  0.00000000E+00
  0.00000000E+00  0.00000000E+00  0.00000000E+00
  0.00000000E+00  0.00000000E+00  0.00000000E+00
  0.00000000E+00  0.00000000E+00  0.00000000E+00
  0.00000000E+00  0.00000000E+00  0.00000000E+00
  0.00000000E+00  0.00000000E+00  0.00000000E+00
  0.00000000E+00  0.00000000E+00  0.00000000E+00
  0.00000000E+00  0.00000000E+00  0.00000000E+00
  0.00000000E+00  0.00000000E+00  0.00000000E+00
  0.00000000E+00  0.00000000E+00  0.00000000E+00
  0.00000000E+00  0.00000000E+00  0.00000000E+00
  0.00000000E+00  0.00000000E+00  0.00000000E+00
  0.00000000E+00  0.00000000E+00  0.00000000E+00
  0.00000000E+00  0.00000000E+00  0.00000000E+00
  0.00000000E+00  0.00000000E+00  0.00000000E+00
  0.00000000E+00  0.00000000E+00  0.00000000E+00
  0.00000000E+00  0.00000000E+00  0.00000000E+00
