CONTCAR\(11)                            
   1.00000000000000     
    12.9092998505000001    0.0000000000000000    0.0000000000000000
     0.0000000000000000   11.5581998825000003    0.0000000000000000
     0.0000000000000000    0.0000000000000000   18.7824001311999993
   Nb   Ge   Te   O    H 
    12     4    24     2     1
Direct
  0.3429763379501828  0.7161995684573751  0.5021984406712339
  0.1028730796630169  0.2845428980868657  0.5127564747985961
  0.4873453563747205  0.0526721306445129  0.4985826230948018
  0.2326806716748393  0.9318595364066286  0.5007064465044146
  0.3343079636594848  0.3943280857406368  0.5004871482355707
  0.0755422793293672  0.5905282996503575  0.5030068181198315
  0.8464938872864156  0.7160503655877123  0.5008392167859961
  0.5986482423202848  0.2741943461734773  0.4993865460385825
  0.9849664723273267  0.0630718105439291  0.5034487072024960
  0.7335055428472450  0.9321039689820515  0.4997060116796526
  0.8318856649299833  0.4146991985383316  0.5031639110614553
  0.5971534987002007  0.5763132402079270  0.5009479473686510
  0.2911823240403322  0.1577260744954810  0.5000806461309187
  0.0352320050857856  0.8273198143289011  0.5009165336095065
  0.7893835302292356  0.1716452731153215  0.4997893166000682
  0.5392741699498637  0.8176481429967585  0.4981615206153647
  0.4265881479541287  0.5553965457035698  0.5874932154111256
  0.1713408869498997  0.4334046052704582  0.4057117381549829
  0.1138721485786343  0.4613688528567608  0.6202949656279820
  0.4274155710032651  0.5571105761102915  0.4044447974288303
  0.3948175666905739  0.9032230070016737  0.6015867075970690
  0.1420605386359878  0.0905834727383228  0.4019601067882778
  0.1460692676858017  0.0859032026524793  0.6048334803203159
  0.3918041048108011  0.9008808258960290  0.3980623114926020
  0.1806071184837174  0.7470888943547610  0.6006874077499569
  0.4340797551832500  0.2444375067624329  0.4004721048794754
  0.4378083420678865  0.2379555807919344  0.5977731798338800
  0.1796706211910171  0.7390861174161681  0.4027273375163817
  0.9083807036461593  0.5691691006621299  0.6087686224075270
  0.6766263179484109  0.4263022858877761  0.3981684610353424
  0.6729732651167372  0.4226497542870681  0.6048614693037923
  0.9211308429342012  0.5640325908795079  0.3992671690286606
  0.8922846873629210  0.9070070390062467  0.6022036980440030
  0.6470701248564451  0.0850003483733045  0.3974898444293704
  0.6467185528086763  0.0835604003620887  0.6010374031433681
  0.8949260110189745  0.9078986685280525  0.4000597872438078
  0.6811072829894675  0.7425693377526201  0.5996200595895150
  0.9396777640391397  0.2627339888619999  0.4085086287814172
  0.9272935235003963  0.2465797082365943  0.6030735825040562
  0.6833572840110018  0.7393373908074410  0.4003494759770631
  0.2323625560315489  0.3646957582802374  0.5777342153079874
  0.4159495668284596  0.5306540896902598  0.6939631145649784
  0.4117467023042344  0.6074575908735078  0.7158490523211077
 
  0.00000000E+00  0.00000000E+00  0.00000000E+00
  0.00000000E+00  0.00000000E+00  0.00000000E+00
  0.00000000E+00  0.00000000E+00  0.00000000E+00
  0.00000000E+00  0.00000000E+00  0.00000000E+00
  0.00000000E+00  0.00000000E+00  0.00000000E+00
  0.00000000E+00  0.00000000E+00  0.00000000E+00
  0.00000000E+00  0.00000000E+00  0.00000000E+00
  0.00000000E+00  0.00000000E+00  0.00000000E+00
  0.00000000E+00  0.00000000E+00  0.00000000E+00
  0.00000000E+00  0.00000000E+00  0.00000000E+00
  0.00000000E+00  0.00000000E+00  0.00000000E+00
  0.00000000E+00  0.00000000E+00  0.00000000E+00
  0.00000000E+00  0.00000000E+00  0.00000000E+00
  0.00000000E+00  0.00000000E+00  0.00000000E+00
  0.00000000E+00  0.00000000E+00  0.00000000E+00
  0.00000000E+00  0.00000000E+00  0.00000000E+00
  0.00000000E+00  0.00000000E+00  0.00000000E+00
  0.00000000E+00  0.00000000E+00  0.00000000E+00
  0.00000000E+00  0.00000000E+00  0.00000000E+00
  0.00000000E+00  0.00000000E+00  0.00000000E+00
  0.00000000E+00  0.00000000E+00  0.00000000E+00
  0.00000000E+00  0.00000000E+00  0.00000000E+00
  0.00000000E+00  0.00000000E+00  0.00000000E+00
  0.00000000E+00  0.00000000E+00  0.00000000E+00
  0.00000000E+00  0.00000000E+00  0.00000000E+00
  0.00000000E+00  0.00000000E+00  0.00000000E+00
  0.00000000E+00  0.00000000E+00  0.00000000E+00
  0.00000000E+00  0.00000000E+00  0.00000000E+00
  0.00000000E+00  0.00000000E+00  0.00000000E+00
  0.00000000E+00  0.00000000E+00  0.00000000E+00
  0.00000000E+00  0.00000000E+00  0.00000000E+00
  0.00000000E+00  0.00000000E+00  0.00000000E+00
  0.00000000E+00  0.00000000E+00  0.00000000E+00
  0.00000000E+00  0.00000000E+00  0.00000000E+00
  0.00000000E+00  0.00000000E+00  0.00000000E+00
  0.00000000E+00  0.00000000E+00  0.00000000E+00
  0.00000000E+00  0.00000000E+00  0.00000000E+00
  0.00000000E+00  0.00000000E+00  0.00000000E+00
  0.00000000E+00  0.00000000E+00  0.00000000E+00
  0.00000000E+00  0.00000000E+00  0.00000000E+00
  0.00000000E+00  0.00000000E+00  0.00000000E+00
  0.00000000E+00  0.00000000E+00  0.00000000E+00
  0.00000000E+00  0.00000000E+00  0.00000000E+00
