CONTCAR\(9)                             
   1.00000000000000     
    13.6564998627000005    0.0000000000000000    0.0000000000000000
     0.0000000000000000   10.3198995589999996    0.0000000000000000
     0.0000000000000000    0.0000000000000000   19.5949993133999989
   Ta   Fe   Te   O    H 
     8     8    24     2     1
Selective dynamics
Direct
  0.0543606985799272  0.2403292282301592  0.4886912495515574   F   F   F
  0.1785019913926291  0.6324947893874651  0.5143148979290970   F   F   F
  0.3009003188551347  0.2343437764773597  0.4858526150393487   F   F   F
  0.4298170336803082  0.6444282666610519  0.5149055188230491   F   F   F
  0.5590013510144374  0.2335413711124659  0.4859502042279757   F   F   F
  0.6810604256166428  0.6322594225611269  0.5144951831669999   F   F   F
  0.8054099204480352  0.2404777565460847  0.4886896712156386   F   F   F
  0.9299578895177021  0.6301539956510425  0.5135188945509341   F   F   F
  0.1766125132410821  0.0292310397824522  0.4903506126529962   F   F   F
  0.0542796396305434  0.8404866079981872  0.5115421828378928   F   F   F
  0.4297981317639028  0.0293284089386958  0.4911088283914964   F   F   F
  0.3023290795753937  0.8449306156745280  0.5106468915728826   F   F   F
  0.6835644412394402  0.0291024744788615  0.4903570141209883   F   F   F
  0.5573155468426378  0.8447064360764358  0.5104933247964851   F   F   F
  0.9296662183939404  0.0302040316036951  0.4908248423961936   F   F   F
  0.8059216730077452  0.8404819164542801  0.5115983876818575   F   F   F
  0.1796148538844022  0.3765846435204665  0.5798760191167460   F   F   F
  0.0552052008178876  0.4942524836398974  0.4216689628047519   F   F   F
  0.1784375816890602  0.8242288104304478  0.4121630155369616   F   F   F
  0.0535514951257454  0.0452498248577129  0.5896289360246669   F   F   F
  0.0538220158543083  0.6968409992712665  0.6195383478397858   F   F   F
  0.1769023367071085  0.1711710399270672  0.3814131386674191   F   F   F
  0.4299443858903729  0.3856791778967406  0.5613683570790400   F   F   F
  0.3049043514837777  0.4945105518261173  0.4246411688611786   F   F   F
  0.4297937951067539  0.8266100751877659  0.4117742648012666   F   F   F
  0.3035592530524482  0.0498796479223742  0.5893574472642626   F   F   F
  0.3031933075029940  0.7033267186515033  0.6195111246151157   F   F   F
  0.4299018141118651  0.1698669995811244  0.3820587362816923   F   F   F
  0.6802096369412567  0.3763652179154562  0.5801672994696858   F   F   F
  0.5542490745696469  0.4939562551188743  0.4251463376746401   F   F   F
  0.6815080952420089  0.8240017649567193  0.4122891240193240   F   F   F
  0.5563778143444154  0.0489961621483275  0.5892744815480739   F   F   F
  0.5564196326590505  0.7033673145796584  0.6193739975781440   F   F   F
  0.6830264012139651  0.1713487622074297  0.3814629794619151   F   F   F
  0.9299234260577478  0.3766006226491996  0.5809509643977435   F   F   F
  0.8047346083758455  0.4945161584856095  0.4216378247940824   F   F   F
  0.9301314937433816  0.8251587364409758  0.4127495453626722   F   F   F
  0.8061437726249281  0.0454916807527752  0.5897336416883903   F   F   F
  0.8058349141176251  0.6968137944244859  0.6195311737995723   F   F   F
  0.9299545819021091  0.1739339358767964  0.3831589496260577   F   F   F
  0.4423062035252556  0.4380874460657509  0.7090885677559413   T   T   T
  0.4220256090440273  0.3290830975951167  0.6642938757834145   T   T   T
  0.3755076046125225  0.4668580024364744  0.7192959227617756   T   T   T
 
  0.00000000E+00  0.00000000E+00  0.00000000E+00
  0.00000000E+00  0.00000000E+00  0.00000000E+00
  0.00000000E+00  0.00000000E+00  0.00000000E+00
  0.00000000E+00  0.00000000E+00  0.00000000E+00
  0.00000000E+00  0.00000000E+00  0.00000000E+00
  0.00000000E+00  0.00000000E+00  0.00000000E+00
  0.00000000E+00  0.00000000E+00  0.00000000E+00
  0.00000000E+00  0.00000000E+00  0.00000000E+00
  0.00000000E+00  0.00000000E+00  0.00000000E+00
  0.00000000E+00  0.00000000E+00  0.00000000E+00
  0.00000000E+00  0.00000000E+00  0.00000000E+00
  0.00000000E+00  0.00000000E+00  0.00000000E+00
  0.00000000E+00  0.00000000E+00  0.00000000E+00
  0.00000000E+00  0.00000000E+00  0.00000000E+00
  0.00000000E+00  0.00000000E+00  0.00000000E+00
  0.00000000E+00  0.00000000E+00  0.00000000E+00
  0.00000000E+00  0.00000000E+00  0.00000000E+00
  0.00000000E+00  0.00000000E+00  0.00000000E+00
  0.00000000E+00  0.00000000E+00  0.00000000E+00
  0.00000000E+00  0.00000000E+00  0.00000000E+00
  0.00000000E+00  0.00000000E+00  0.00000000E+00
  0.00000000E+00  0.00000000E+00  0.00000000E+00
  0.00000000E+00  0.00000000E+00  0.00000000E+00
  0.00000000E+00  0.00000000E+00  0.00000000E+00
  0.00000000E+00  0.00000000E+00  0.00000000E+00
  0.00000000E+00  0.00000000E+00  0.00000000E+00
  0.00000000E+00  0.00000000E+00  0.00000000E+00
  0.00000000E+00  0.00000000E+00  0.00000000E+00
  0.00000000E+00  0.00000000E+00  0.00000000E+00
  0.00000000E+00  0.00000000E+00  0.00000000E+00
  0.00000000E+00  0.00000000E+00  0.00000000E+00
  0.00000000E+00  0.00000000E+00  0.00000000E+00
  0.00000000E+00  0.00000000E+00  0.00000000E+00
  0.00000000E+00  0.00000000E+00  0.00000000E+00
  0.00000000E+00  0.00000000E+00  0.00000000E+00
  0.00000000E+00  0.00000000E+00  0.00000000E+00
  0.00000000E+00  0.00000000E+00  0.00000000E+00
  0.00000000E+00  0.00000000E+00  0.00000000E+00
  0.00000000E+00  0.00000000E+00  0.00000000E+00
  0.00000000E+00  0.00000000E+00  0.00000000E+00
  0.00000000E+00  0.00000000E+00  0.00000000E+00
  0.00000000E+00  0.00000000E+00  0.00000000E+00
  0.00000000E+00  0.00000000E+00  0.00000000E+00
