CONTCAR\(3)                             
   1.00000000000000     
    11.5825996398999997    0.0000000000000000    0.0000000000000000
     0.0000000000000000   12.9533996582000004    0.0000000000000000
     0.0000000000000000    0.0000000000000000   20.9237995147999989
   K    As   Pd   O    H 
    16    16     8     1     1
Direct
  0.1167809719071095 -0.0085105013584512  0.4434073578192823
  0.3628577022148851  0.9642766440334486  0.5596722965608982
  0.1121930608341957  0.2405114128817627  0.3526984458266115
  0.3614287696201286  0.2410196571334169  0.6373355282416006
  0.6082297848142075 -0.0078423491409620  0.4434107220405916
  0.8624064985306257  0.9834289693309823  0.5477953493794933
  0.6115197913982769  0.2395029940921878  0.3524649786469882
  0.8621116207033186  0.2426360085592882  0.6398489436268950
  0.1160249781903778  0.4914863634701687  0.4422488580503739
  0.3614578121769539  0.5149766609181337  0.5564014635295524
  0.1151089486458413  0.7421826890687944  0.3477184261211573
  0.5581662176613672  0.7242214201575324  0.7134606293570664
  0.6090565247355053  0.4891703277810092  0.4402116615314533
  0.8625426580542594  0.4985934677406592  0.5473405762088908
  0.6149534566730085  0.7428123989406743  0.3475775581699986
  0.8732016732461543  0.7381675116606781  0.6579276598320851
  0.3624482383434868  0.3358206259241205  0.4157496061586218
  0.1114572433847730  0.1472586869119061  0.5770986648652241
  0.1117390118753980  0.3364165854966044  0.5768406252304381
  0.3620422123428008  0.1458923214228330  0.4159659879323285
  0.8614860972506632  0.3355333317262273  0.4146471508826811
  0.6122596585911706  0.1467214783507308  0.5777144515419931
  0.6121186359823615  0.3360185363946687  0.5769457085925063
  0.8619145376672847  0.1460950017779914  0.4148910183673626
  0.3629575570602612  0.8376660096931381  0.4099141563920938
  0.1122366401796651  0.6484927825513905  0.5717572494182681
  0.1113493709679166  0.8338024971470898  0.5721344821888992
  0.3638116750780211  0.6475864320051363  0.4096342844304227
  0.8651809835080314  0.8368956780612258  0.4077175541255735
  0.6160455360981014  0.6450995780760521  0.5673799731257276
  0.6173177425539947  0.8329930863403885  0.5710595084229757
  0.8644948454488571  0.6466072080011112  0.4072903717562206
 -0.0133709216459235  0.2414294772517669  0.4958562588405468
  0.2366936958999934  0.2413773699686861  0.4961006254463232
  0.4869134663558641  0.2408334534744748  0.4965473672107452
  0.7367620379016697  0.2406181275809886  0.4959919982411993
 -0.0116985591373715  0.7409228571903294  0.4899350350158944
  0.2382298244567841  0.7417992832801350  0.4911986893765542
  0.4892678361314268  0.7425874086152966  0.4903324198688805
  0.7413733814270780  0.7414539899960580  0.4892973553192689
  0.7517927184567937  0.7119814040694465  0.7564919248172295
  0.7824163234146667  0.6988532374228915  0.7988873974890679
 
  0.00000000E+00  0.00000000E+00  0.00000000E+00
  0.00000000E+00  0.00000000E+00  0.00000000E+00
  0.00000000E+00  0.00000000E+00  0.00000000E+00
  0.00000000E+00  0.00000000E+00  0.00000000E+00
  0.00000000E+00  0.00000000E+00  0.00000000E+00
  0.00000000E+00  0.00000000E+00  0.00000000E+00
  0.00000000E+00  0.00000000E+00  0.00000000E+00
  0.00000000E+00  0.00000000E+00  0.00000000E+00
  0.00000000E+00  0.00000000E+00  0.00000000E+00
  0.00000000E+00  0.00000000E+00  0.00000000E+00
  0.00000000E+00  0.00000000E+00  0.00000000E+00
  0.00000000E+00  0.00000000E+00  0.00000000E+00
  0.00000000E+00  0.00000000E+00  0.00000000E+00
  0.00000000E+00  0.00000000E+00  0.00000000E+00
  0.00000000E+00  0.00000000E+00  0.00000000E+00
  0.00000000E+00  0.00000000E+00  0.00000000E+00
  0.00000000E+00  0.00000000E+00  0.00000000E+00
  0.00000000E+00  0.00000000E+00  0.00000000E+00
  0.00000000E+00  0.00000000E+00  0.00000000E+00
  0.00000000E+00  0.00000000E+00  0.00000000E+00
  0.00000000E+00  0.00000000E+00  0.00000000E+00
  0.00000000E+00  0.00000000E+00  0.00000000E+00
  0.00000000E+00  0.00000000E+00  0.00000000E+00
  0.00000000E+00  0.00000000E+00  0.00000000E+00
  0.00000000E+00  0.00000000E+00  0.00000000E+00
  0.00000000E+00  0.00000000E+00  0.00000000E+00
  0.00000000E+00  0.00000000E+00  0.00000000E+00
  0.00000000E+00  0.00000000E+00  0.00000000E+00
  0.00000000E+00  0.00000000E+00  0.00000000E+00
  0.00000000E+00  0.00000000E+00  0.00000000E+00
  0.00000000E+00  0.00000000E+00  0.00000000E+00
  0.00000000E+00  0.00000000E+00  0.00000000E+00
  0.00000000E+00  0.00000000E+00  0.00000000E+00
  0.00000000E+00  0.00000000E+00  0.00000000E+00
  0.00000000E+00  0.00000000E+00  0.00000000E+00
  0.00000000E+00  0.00000000E+00  0.00000000E+00
  0.00000000E+00  0.00000000E+00  0.00000000E+00
  0.00000000E+00  0.00000000E+00  0.00000000E+00
  0.00000000E+00  0.00000000E+00  0.00000000E+00
  0.00000000E+00  0.00000000E+00  0.00000000E+00
  0.00000000E+00  0.00000000E+00  0.00000000E+00
  0.00000000E+00  0.00000000E+00  0.00000000E+00
