 Nb2 Ni2 Te10                           
   1.00000000000000     
     3.6738268890902317    0.0000000000000000    0.0000000000000000
     0.0000000000000000   14.9140423874183714    0.0000000000000000
     0.0000000000000000    0.0000000000000000   19.5716594349920001
   Nb   Ni   Te
     2     2    10
Direct
  0.9999999200890457  0.2499998580428198  0.4951333047073376
  0.9999998317581742  0.7500001708517416  0.5048663703463419
  0.5000000429957083  0.0000003955430117  0.4999997356971093
  0.4999999890987183  0.4999996074541926  0.4999997374151022
  0.0000001743384814  0.0755278836021063  0.4278010370782539
  0.9999999605975418  0.9244716820186341  0.5721977989774345
  0.0000001464244335  0.5755340163178460  0.5721988386531862
  0.9999999571606395  0.4244663970217459  0.4278000147014751
  0.4999999906317854  0.2500041308680352  0.3834813541256210
  0.5000000703233809  0.7499958821807979  0.6165172416782312
  0.4999999683043015  0.8553639491478364  0.4272563377018486
  0.5000000388952017  0.1446348126061352  0.5727459696917236
  0.4999999647700832  0.3553628727715790  0.5727461186553029
  0.4999999446125045  0.6446383415735326  0.4272561405710249
 
  0.00000000E+00  0.00000000E+00  0.00000000E+00
  0.00000000E+00  0.00000000E+00  0.00000000E+00
  0.00000000E+00  0.00000000E+00  0.00000000E+00
  0.00000000E+00  0.00000000E+00  0.00000000E+00
  0.00000000E+00  0.00000000E+00  0.00000000E+00
  0.00000000E+00  0.00000000E+00  0.00000000E+00
  0.00000000E+00  0.00000000E+00  0.00000000E+00
  0.00000000E+00  0.00000000E+00  0.00000000E+00
  0.00000000E+00  0.00000000E+00  0.00000000E+00
  0.00000000E+00  0.00000000E+00  0.00000000E+00
  0.00000000E+00  0.00000000E+00  0.00000000E+00
  0.00000000E+00  0.00000000E+00  0.00000000E+00
  0.00000000E+00  0.00000000E+00  0.00000000E+00
  0.00000000E+00  0.00000000E+00  0.00000000E+00
