CONTCAR\(4)                             
   1.00000000000000     
    15.6891002655000005    0.0000000000000000    0.0000000000000000
     7.8445501328000002   13.5871593924000003    0.0000000000000000
     0.0000000000000000    0.0000000000000000   18.9503002167000005
   Te   Pt   O 
    32    32     1
Direct
  0.1661579100771190  0.1662349846445786  0.6108129313434030
  0.1632488265708439  0.1632278176860205  0.3933654775606110
  0.4150860621871633  0.1662823176014419  0.6100595590126348
  0.4149520160155999  0.1674379315108039  0.3911323446190973
  0.6641534557178242  0.1688904046520572  0.6095643016002182
  0.6673323652867580  0.1670152847768714  0.3922000941548756
  0.9134080786872077  0.1700884108205865  0.6106129567942921
  0.9157108298169794  0.1642578625512746  0.3920436855412996
  0.1660868616385328  0.4154350255318431  0.6099549778975926
  0.1673657475512438  0.4147932615987094  0.3909789542488468
  0.4130624789529010  0.4132192125740068  0.6103805635828441
  0.4151292040686492  0.4151193885323031  0.3893975010361888
  0.6475485910668480  0.4310375955474975  0.6129055881512482
  0.6686349337684305  0.4145970042030630  0.3914206069035819
  0.9148273738787721  0.4180562260557731  0.6107277199932953
  0.9216444005408799  0.4138283360660725  0.3883366262008891
  0.1689182048831156  0.6641225072564988  0.6093600106037733
  0.1669084695913201  0.6674369755093167  0.3922182147513451
  0.4312110227169745  0.6472102691943837  0.6127538301049581
  0.4149339641008847  0.6683616443259722  0.3914050993085990
  0.6656785024774663  0.6655482382821289  0.6063475013116179
  0.6669125906206200  0.6669912421135368  0.3897667065320934
  0.9166051687753120  0.6662723677456572  0.6096167836358377
  0.9175270474785444  0.6662281377715582  0.3916682704993376
  0.1700408803396170  0.9133655491809857  0.6105603634596038
  0.1640700287232246  0.9158570722213063  0.3919510326459012
  0.4180684894672312  0.9147905395031596  0.6107069038424678
  0.4138657668562608  0.9216246741393662  0.3884579494659477
  0.6662686553153555  0.9166218731204608  0.6096337156549718
  0.6662828539092743  0.9176039849460597  0.3917485320995502
  0.9164161010216322  0.9161192460618324  0.6109809592141742
  0.9157895758920410  0.9162383020772262  0.3916968053984499
  0.0823891710019858  0.0823824839827364  0.5435659930074506
  0.9987414884224490  0.9988626199025881  0.4619824589945736
  0.3324796901116888  0.0821180851847294  0.5421241393891609
  0.2484425184929718  0.9988465200243267  0.4607307146057475
  0.5822034127420450  0.0838670948999991  0.5421915676421737
  0.4989780014010810  0.0010365053564823  0.4598575688854731
  0.8322316551056511  0.0834770503604195  0.5434238394698881
  0.7493064248907162  0.0005956615144302  0.4606519632609791
  0.0821846967690088  0.3324910314197274  0.5421032879103999
  0.9988677573673804  0.2485095483250175  0.4607674051323054
  0.3314795814136068  0.3316247055643324  0.5395813602089361
  0.2478779384616592  0.2477869543174594  0.4588793049652328
  0.5797777405256391  0.3363802699449632  0.5418305576324389
  0.4997148280409110  0.2494503482138810  0.4592588828725792
  0.8318879153570463  0.3359174940553787  0.5423661948138732
  0.7499684258796623  0.2507276558213519  0.4623996962385551
  0.0836622867141422  0.5824607097331955  0.5419386025170027
  0.0010871474372084  0.4989138964376766  0.4598255959287257
  0.3363590058804599  0.5797525489772575  0.5416227914342859
  0.2493761289309259  0.4996169047309916  0.4590913729013452
  0.5853497622189383  0.5851306925184701  0.5306530957351673
  0.4992936089002996  0.4990463410138459  0.4554601718763381
  0.8338355373370399  0.5831348642401021  0.5403187181925644
  0.7548993359893758  0.4975591738857217  0.4554978629916324
  0.0835850154960599  0.8321613967886233  0.5431929898535415
  0.0003295224400122  0.7495674877201031  0.4603825810277992
  0.3358498776094066  0.8319098338126040  0.5423801117039199
  0.2508888394743245  0.7499792067595579  0.4622135114814659
  0.5831447456669515  0.8337953031986336  0.5403837694056602
  0.4975888929999463  0.7548544665971288  0.4556480140839380
  0.8330226202260979  0.8330582675626568  0.5415289113368528
  0.7501541245791422  0.7501818226961638  0.4585544656041842
  0.5278851721215367  0.5278694396370901  0.6738951277261478
 
  0.00000000E+00  0.00000000E+00  0.00000000E+00
  0.00000000E+00  0.00000000E+00  0.00000000E+00
  0.00000000E+00  0.00000000E+00  0.00000000E+00
  0.00000000E+00  0.00000000E+00  0.00000000E+00
  0.00000000E+00  0.00000000E+00  0.00000000E+00
  0.00000000E+00  0.00000000E+00  0.00000000E+00
  0.00000000E+00  0.00000000E+00  0.00000000E+00
  0.00000000E+00  0.00000000E+00  0.00000000E+00
  0.00000000E+00  0.00000000E+00  0.00000000E+00
  0.00000000E+00  0.00000000E+00  0.00000000E+00
  0.00000000E+00  0.00000000E+00  0.00000000E+00
  0.00000000E+00  0.00000000E+00  0.00000000E+00
  0.00000000E+00  0.00000000E+00  0.00000000E+00
  0.00000000E+00  0.00000000E+00  0.00000000E+00
  0.00000000E+00  0.00000000E+00  0.00000000E+00
  0.00000000E+00  0.00000000E+00  0.00000000E+00
  0.00000000E+00  0.00000000E+00  0.00000000E+00
  0.00000000E+00  0.00000000E+00  0.00000000E+00
  0.00000000E+00  0.00000000E+00  0.00000000E+00
  0.00000000E+00  0.00000000E+00  0.00000000E+00
  0.00000000E+00  0.00000000E+00  0.00000000E+00
  0.00000000E+00  0.00000000E+00  0.00000000E+00
  0.00000000E+00  0.00000000E+00  0.00000000E+00
  0.00000000E+00  0.00000000E+00  0.00000000E+00
  0.00000000E+00  0.00000000E+00  0.00000000E+00
  0.00000000E+00  0.00000000E+00  0.00000000E+00
  0.00000000E+00  0.00000000E+00  0.00000000E+00
  0.00000000E+00  0.00000000E+00  0.00000000E+00
  0.00000000E+00  0.00000000E+00  0.00000000E+00
  0.00000000E+00  0.00000000E+00  0.00000000E+00
  0.00000000E+00  0.00000000E+00  0.00000000E+00
  0.00000000E+00  0.00000000E+00  0.00000000E+00
  0.00000000E+00  0.00000000E+00  0.00000000E+00
  0.00000000E+00  0.00000000E+00  0.00000000E+00
  0.00000000E+00  0.00000000E+00  0.00000000E+00
  0.00000000E+00  0.00000000E+00  0.00000000E+00
  0.00000000E+00  0.00000000E+00  0.00000000E+00
  0.00000000E+00  0.00000000E+00  0.00000000E+00
  0.00000000E+00  0.00000000E+00  0.00000000E+00
  0.00000000E+00  0.00000000E+00  0.00000000E+00
  0.00000000E+00  0.00000000E+00  0.00000000E+00
  0.00000000E+00  0.00000000E+00  0.00000000E+00
  0.00000000E+00  0.00000000E+00  0.00000000E+00
  0.00000000E+00  0.00000000E+00  0.00000000E+00
  0.00000000E+00  0.00000000E+00  0.00000000E+00
  0.00000000E+00  0.00000000E+00  0.00000000E+00
  0.00000000E+00  0.00000000E+00  0.00000000E+00
  0.00000000E+00  0.00000000E+00  0.00000000E+00
  0.00000000E+00  0.00000000E+00  0.00000000E+00
  0.00000000E+00  0.00000000E+00  0.00000000E+00
  0.00000000E+00  0.00000000E+00  0.00000000E+00
  0.00000000E+00  0.00000000E+00  0.00000000E+00
  0.00000000E+00  0.00000000E+00  0.00000000E+00
  0.00000000E+00  0.00000000E+00  0.00000000E+00
  0.00000000E+00  0.00000000E+00  0.00000000E+00
  0.00000000E+00  0.00000000E+00  0.00000000E+00
  0.00000000E+00  0.00000000E+00  0.00000000E+00
  0.00000000E+00  0.00000000E+00  0.00000000E+00
  0.00000000E+00  0.00000000E+00  0.00000000E+00
  0.00000000E+00  0.00000000E+00  0.00000000E+00
  0.00000000E+00  0.00000000E+00  0.00000000E+00
  0.00000000E+00  0.00000000E+00  0.00000000E+00
  0.00000000E+00  0.00000000E+00  0.00000000E+00
  0.00000000E+00  0.00000000E+00  0.00000000E+00
  0.00000000E+00  0.00000000E+00  0.00000000E+00
