 Rb2 Mn2 P2                             
   1.00000000000000     
     3.7787880767001987    0.0000000000000000    0.0000000000000000
     0.0000000000000000    3.7787853187536844    0.0000000000000000
     0.0000000000000000    0.0000000000000000   21.6329944444400013
   Rb   Mn   P 
     2     2     2
Direct
  0.5000000791732404  0.9999998855530094  0.3471556640052142
  0.9999999917722135  0.5000000634574135  0.6528433889153220
  0.4999999697105864  0.5000000161494711  0.5000001754119054
  0.9999999851347638  0.0000000151654618  0.5000002969824564
  0.4999999899893481  0.0000000144668846  0.5588623876713186
  0.9999999842198406  0.5000000052077667  0.4411380870137904
 
  0.00000000E+00  0.00000000E+00  0.00000000E+00
  0.00000000E+00  0.00000000E+00  0.00000000E+00
  0.00000000E+00  0.00000000E+00  0.00000000E+00
  0.00000000E+00  0.00000000E+00  0.00000000E+00
  0.00000000E+00  0.00000000E+00  0.00000000E+00
  0.00000000E+00  0.00000000E+00  0.00000000E+00
