CONTCAR\(4)                             
   1.00000000000000     
    11.7709999084000003    0.0000000000000000    0.0000000000000000
    -5.8855350711999996   11.1688637170000007    0.0000000000000000
     0.0000000000000000    0.0000000000000000   18.2658004761000008
   Cr   I    O 
     9    18     1
Selective dynamics
Direct
  0.9982618740330764  0.9983571493078784  0.4914150696835691   F   F   F
  0.3236851421167941  0.9932810966030203  0.4883409119632489   F   F   F
  0.6661755948612580  0.9907511178752983  0.4895242642164632   F   F   F
  0.9973684985940210  0.3253773396005002  0.4839374810637125   F   F   F
  0.3257953572199952  0.3235347929612900  0.4827421881851137   F   F   F
  0.6646442963181656  0.3298851893730372  0.4858260933864926   F   F   F
  0.0090439574687196  0.6814972690638612  0.5019115632575151   F   F   F
  0.3469606546358932  0.6883221569181472  0.6405754673022201   F   F   F
  0.6734269476144590  0.6806716231492445  0.5028659958852302   F   F   F
  0.1222430985560834  0.2451813737649999  0.5791685020062687   F   F   F
  0.2047808654766072  0.0924134518268502  0.3971578787636432   F   F   F
  0.4450479637112821  0.2257557471749436  0.5715127839682950   F   F   F
  0.5408335839804366  0.0816233883962951  0.4004476630716027   F   F   F
  0.7813599438047802  0.2294932459307120  0.5732436391084264   F   F   F
  0.8827965632698280  0.0918843343246891  0.3990377672821310   F   F   F
  0.1103597565763792  0.5663842770601875  0.5902225707605879   F   F   F
  0.2156391352290825  0.4325362287410215  0.4022990730135021   F   F   F
  0.4594042507371654  0.5637741272754724  0.5922442173606015   F   F   F
  0.5446624599085013  0.4249733687004777  0.3995628660346640   F   F   F
  0.7878743775955925  0.5727552556036031  0.5846268308237512   F   F   F
  0.8803923512856286  0.4258443178162139  0.3997519999440584   F   F   F
  0.1198077044457051  0.9147335195364974  0.5875579808454674   F   F   F
  0.2153121705592156  0.7754219824607560  0.4129339936383047   F   F   F
  0.4563674507948079  0.9123359947970329  0.5922472598720105   F   F   F
  0.5573657272657400  0.7716028097968817  0.4145508680806245   F   F   F
  0.7938040115138989  0.9144436508752278  0.5883251173519568   F   F   F
  0.8781794237724299  0.7570986866702540  0.4085627089089314   F   F   F
  0.3494467996544443  0.6918162193956263  0.7266558073974444   T   T   T
 
  0.00000000E+00  0.00000000E+00  0.00000000E+00
  0.00000000E+00  0.00000000E+00  0.00000000E+00
  0.00000000E+00  0.00000000E+00  0.00000000E+00
  0.00000000E+00  0.00000000E+00  0.00000000E+00
  0.00000000E+00  0.00000000E+00  0.00000000E+00
  0.00000000E+00  0.00000000E+00  0.00000000E+00
  0.00000000E+00  0.00000000E+00  0.00000000E+00
  0.00000000E+00  0.00000000E+00  0.00000000E+00
  0.00000000E+00  0.00000000E+00  0.00000000E+00
  0.00000000E+00  0.00000000E+00  0.00000000E+00
  0.00000000E+00  0.00000000E+00  0.00000000E+00
  0.00000000E+00  0.00000000E+00  0.00000000E+00
  0.00000000E+00  0.00000000E+00  0.00000000E+00
  0.00000000E+00  0.00000000E+00  0.00000000E+00
  0.00000000E+00  0.00000000E+00  0.00000000E+00
  0.00000000E+00  0.00000000E+00  0.00000000E+00
  0.00000000E+00  0.00000000E+00  0.00000000E+00
  0.00000000E+00  0.00000000E+00  0.00000000E+00
  0.00000000E+00  0.00000000E+00  0.00000000E+00
  0.00000000E+00  0.00000000E+00  0.00000000E+00
  0.00000000E+00  0.00000000E+00  0.00000000E+00
  0.00000000E+00  0.00000000E+00  0.00000000E+00
  0.00000000E+00  0.00000000E+00  0.00000000E+00
  0.00000000E+00  0.00000000E+00  0.00000000E+00
  0.00000000E+00  0.00000000E+00  0.00000000E+00
  0.00000000E+00  0.00000000E+00  0.00000000E+00
  0.00000000E+00  0.00000000E+00  0.00000000E+00
  0.00000000E+00  0.00000000E+00  0.00000000E+00
