 Ce2 Bi2 S4 O2                          
   1.00000000000000     
     3.9631176534082178    0.0000000000000000    0.0000000000000000
     0.0000000000000000    3.9631259066652560    0.0000000000000000
     0.0000000000000000    0.0000000000000000   25.3730275786299941
   Ce   Bi   S    O 
     2     2     4     2
Direct
  0.0000000219578382  0.9999999561276169  0.4504061224626525
  0.5000000373897393  0.4999999602096921  0.5496400559313201
  0.9999999714673464  0.0000000312534425  0.6998903365443567
  0.5000000319390949  0.5000000702472818  0.3001332852298901
  0.0000000142460337  0.0000000058947691  0.5997401727876550
  0.9999999652165741  0.0000000429173852  0.2949446414847969
  0.4999999631277774  0.4999999947515477  0.4002939732388597
  0.4999999663665591  0.5000000337511352  0.7050525791347511
  0.0000000265990394  0.4999999607836898  0.5000236515207348
  0.5000000016899975  0.9999999440634468  0.5000236170737367
 
  0.00000000E+00  0.00000000E+00  0.00000000E+00
  0.00000000E+00  0.00000000E+00  0.00000000E+00
  0.00000000E+00  0.00000000E+00  0.00000000E+00
  0.00000000E+00  0.00000000E+00  0.00000000E+00
  0.00000000E+00  0.00000000E+00  0.00000000E+00
  0.00000000E+00  0.00000000E+00  0.00000000E+00
  0.00000000E+00  0.00000000E+00  0.00000000E+00
  0.00000000E+00  0.00000000E+00  0.00000000E+00
  0.00000000E+00  0.00000000E+00  0.00000000E+00
  0.00000000E+00  0.00000000E+00  0.00000000E+00
