CONTCAR\(3)                             
   1.00000000000000     
    13.7056999207000008    0.0000000000000000    0.0000000000000000
     4.1214080124999999   12.9276297616000004    0.0000000000000000
     0.0000000000000000    0.0000000000000000   18.6212005615000002
   Bi   Rh   S    O    H 
    16    24    16     2     1
Direct
  0.1957054019005565  0.1867553068568001  0.5882497141702679
  0.4451405163915103  0.4424258907575118  0.5955948223172776
  0.0817504291617692  0.0795700546907992  0.4052251697498481
  0.3242755004372796  0.3350226919614958  0.4159186214825026
  0.6899706064655433  0.1984583559109253  0.5861305019884153
  0.9465958020191512  0.4460988744395484  0.5908847452179957
  0.5804421348551535  0.0828590314948771  0.4055362495394083
  0.8371080226325890  0.3286486128143172  0.4130829894645492
  0.1999824239045878  0.6889486493454942  0.6024026502846020
  0.4445247569603957  0.9432216050649503  0.5905753235685549
  0.0823808980071364  0.5829190315961789  0.4061455433769952
  0.3339666219442407  0.8268596170950280  0.4131675295844037
  0.6967363265262050  0.6929208760450016  0.5855070753667737
  0.9463907272866938  0.9449337338641824  0.5875866466016807
  0.5818393893437199  0.5812423081014485  0.4075359935043562
  0.8285736168058130  0.8384679785409005  0.4099581914781739
  0.0169363583337844  0.2657617964085725  0.5061170214252647
  0.4164578582014919  0.1097469121443675  0.4980197966838891
  0.1174952841125341  0.4167164047610794  0.4976584596736751
  0.2665168556038076  0.0090212147729759  0.4991984622316520
  0.3170373371699288  0.3122892900062990  0.5597579958168444
  0.2055401482521153  0.2034054337238749  0.4425397953744651
  0.5100188853470419  0.2649308291228282  0.4966079082749895
  0.9154049501807822  0.1162420237713655  0.4954970889708259
  0.6113154541817982  0.4143996117271767  0.5003830735431936
  0.7628764230016950  0.0179425094654091  0.5021783170409589
  0.8177485017120995  0.3182200761851455  0.5577112291205815
  0.7056624578122130  0.2110713504380797  0.4409172854334928
  0.0062618380484927  0.7669506251013531  0.4883448484799243
  0.4190644925404781  0.6101577280152639  0.5020357116644689
  0.1133841923245942  0.9125818084219834  0.4966293355564633
  0.2650954216912741  0.5169547267187483  0.5149888067657438
  0.3172527078328820  0.8124814793932107  0.5579553852961995
  0.2093895717037978  0.7050853219749236  0.4464781962017063
  0.5151651653366991  0.7637431858139289  0.5012507961753502
  0.9144322680562783  0.6112168592089245  0.4979491756533270
  0.6123953482762473  0.9169950180563879  0.4985309900952901
  0.7639591333393316  0.5119348299016468  0.4959883502599741
  0.8185807995505961  0.8184751655936443  0.5551833669662651
  0.7087720870840423  0.7101834233130949  0.4408411685467935
  0.4604632031255592  0.1874447436921881  0.5980746136752837
  0.1877163454632488  0.4486166927613171  0.6044186980460244
  0.0684166734255453  0.3348103583979782  0.4014689021174017
  0.3365856861248626  0.0679475551371863  0.3989297445323889
  0.9543313845227729  0.1880571004296434  0.6002050635283276
  0.6916789177957006  0.4595420812374887  0.5985716724473975
  0.5676860866820037  0.3400921576227187  0.3989551178513326
  0.8329605622240399  0.0709625100238652  0.3987218040964161
  0.4604278056995208  0.6905971261793988  0.6009047256232949
  0.1898511349975190  0.9535732751302793  0.5982495114611346
  0.0787258883979681  0.8328935085944967  0.3946739068162658
  0.3345196893202172  0.5619236333866281  0.4080733010892322
  0.9624339722046878  0.6939995680154933  0.5940495374188841
  0.6904755676889694  0.9557946253157771  0.5996600961512643
  0.5681150243873399  0.8372773317719975  0.3991919315274584
  0.8364431965395915  0.5713629396788429  0.3973580554826438
  0.2903981113629503  0.6425793407852803  0.7053302415331875
  0.3209518391064067  0.5316091146195803  0.7233350849867340
  0.3653827135947323  0.5319257096000726  0.7645239916681729
 
  0.00000000E+00  0.00000000E+00  0.00000000E+00
  0.00000000E+00  0.00000000E+00  0.00000000E+00
  0.00000000E+00  0.00000000E+00  0.00000000E+00
  0.00000000E+00  0.00000000E+00  0.00000000E+00
  0.00000000E+00  0.00000000E+00  0.00000000E+00
  0.00000000E+00  0.00000000E+00  0.00000000E+00
  0.00000000E+00  0.00000000E+00  0.00000000E+00
  0.00000000E+00  0.00000000E+00  0.00000000E+00
  0.00000000E+00  0.00000000E+00  0.00000000E+00
  0.00000000E+00  0.00000000E+00  0.00000000E+00
  0.00000000E+00  0.00000000E+00  0.00000000E+00
  0.00000000E+00  0.00000000E+00  0.00000000E+00
  0.00000000E+00  0.00000000E+00  0.00000000E+00
  0.00000000E+00  0.00000000E+00  0.00000000E+00
  0.00000000E+00  0.00000000E+00  0.00000000E+00
  0.00000000E+00  0.00000000E+00  0.00000000E+00
  0.00000000E+00  0.00000000E+00  0.00000000E+00
  0.00000000E+00  0.00000000E+00  0.00000000E+00
  0.00000000E+00  0.00000000E+00  0.00000000E+00
  0.00000000E+00  0.00000000E+00  0.00000000E+00
  0.00000000E+00  0.00000000E+00  0.00000000E+00
  0.00000000E+00  0.00000000E+00  0.00000000E+00
  0.00000000E+00  0.00000000E+00  0.00000000E+00
  0.00000000E+00  0.00000000E+00  0.00000000E+00
  0.00000000E+00  0.00000000E+00  0.00000000E+00
  0.00000000E+00  0.00000000E+00  0.00000000E+00
  0.00000000E+00  0.00000000E+00  0.00000000E+00
  0.00000000E+00  0.00000000E+00  0.00000000E+00
  0.00000000E+00  0.00000000E+00  0.00000000E+00
  0.00000000E+00  0.00000000E+00  0.00000000E+00
  0.00000000E+00  0.00000000E+00  0.00000000E+00
  0.00000000E+00  0.00000000E+00  0.00000000E+00
  0.00000000E+00  0.00000000E+00  0.00000000E+00
  0.00000000E+00  0.00000000E+00  0.00000000E+00
  0.00000000E+00  0.00000000E+00  0.00000000E+00
  0.00000000E+00  0.00000000E+00  0.00000000E+00
  0.00000000E+00  0.00000000E+00  0.00000000E+00
  0.00000000E+00  0.00000000E+00  0.00000000E+00
  0.00000000E+00  0.00000000E+00  0.00000000E+00
  0.00000000E+00  0.00000000E+00  0.00000000E+00
  0.00000000E+00  0.00000000E+00  0.00000000E+00
  0.00000000E+00  0.00000000E+00  0.00000000E+00
  0.00000000E+00  0.00000000E+00  0.00000000E+00
  0.00000000E+00  0.00000000E+00  0.00000000E+00
  0.00000000E+00  0.00000000E+00  0.00000000E+00
  0.00000000E+00  0.00000000E+00  0.00000000E+00
  0.00000000E+00  0.00000000E+00  0.00000000E+00
  0.00000000E+00  0.00000000E+00  0.00000000E+00
  0.00000000E+00  0.00000000E+00  0.00000000E+00
  0.00000000E+00  0.00000000E+00  0.00000000E+00
  0.00000000E+00  0.00000000E+00  0.00000000E+00
  0.00000000E+00  0.00000000E+00  0.00000000E+00
  0.00000000E+00  0.00000000E+00  0.00000000E+00
  0.00000000E+00  0.00000000E+00  0.00000000E+00
  0.00000000E+00  0.00000000E+00  0.00000000E+00
  0.00000000E+00  0.00000000E+00  0.00000000E+00
  0.00000000E+00  0.00000000E+00  0.00000000E+00
  0.00000000E+00  0.00000000E+00  0.00000000E+00
  0.00000000E+00  0.00000000E+00  0.00000000E+00
