CONTCAR\(2)                             
   1.00000000000000     
    10.8359003066999993    0.0000000000000000    0.0000000000000000
    -5.4179501533999996    9.3841649384999997    0.0000000000000000
     0.0000000000000000    0.0000000000000000   23.8684997559000003
   Ga   Ni   S    O    H 
    18     9    36     1     1
Direct
  0.1110367307223683  0.2223949221625503  0.6414195277085426
  0.2248200671827760  0.1101876024859081  0.3593790996383746
  0.4467674412187606  0.2252663674138802  0.6419405393751916
  0.5579079447410109  0.1093198671994742  0.3606954349689389
  0.7796459158558307  0.2176450795734937  0.6423266299654742
  0.8918302199596511  0.1100463066268205  0.3591320451347784
  0.1161633450721737  0.5547859888635926  0.6423403502532352
  0.2251138365462992  0.4431458546468434  0.3593730380957894
  0.4706237722697537  0.5844142855443906  0.6423393323378264
  0.5586414038769547  0.4434254429505344  0.3594867806592035
  0.7816123149072709  0.5533063051385128  0.6428033594944864
  0.8916242288532743  0.4434055128401440  0.3595581604453031
  0.1083668259869199  0.8874776663749202  0.6416480019598438
  0.2257324996056482  0.7771709844962018  0.3606629262916030
  0.4459431264475029  0.8873534902064293  0.6472275866441848
  0.5580715899573931  0.7769032950183217  0.3597178427266030
  0.7470837485549282  0.8616838383133612  0.6415281823128538
  0.8915141816172039  0.7762424022207668  0.3592389463567471
  0.0024958040257133  0.9988651940570961  0.4997753357273780
  0.3367844593080349  0.9975606734211766  0.5021591443572362
  0.6702870692692926  0.9977395188698139  0.5015936628522510
  0.0021597012550316  0.3321509212087861  0.5007468457025155
  0.3356770794957029  0.3322436269940354  0.5003187857396085
  0.6690241425979266  0.3319016442098572  0.5011742276971347
  0.0023148411036189  0.6653389342375533  0.5010798062068105
  0.3366432935121466  0.6644812344574049  0.5017798827050228
  0.6680862960181457  0.6662109630407897  0.5004237699786955
  0.2251742142437863  0.1096266018451502  0.4523042483994217
  0.1136311955185931  0.2208049434641239  0.5475822809273510
  0.2230459641303639  0.1110140901096273  0.6847187048422327
  0.1139399938755119  0.2212646921765398  0.3145139991427612
  0.5575997861469730  0.1079542869542180  0.4538724787003972
  0.4461878164754580  0.2210095527563922  0.5484325213266388
  0.5577956229115770  0.1154106611919445  0.6862199910274356
  0.4478016879375275  0.2207078988577749  0.3154928554553180
  0.8915900751645864  0.1101264948703644  0.4521039295053981
  0.7800691724851347  0.2208609429259170  0.5486103875772557
  0.8862252734068505  0.1010157685337276  0.6822582107467170
  0.7794773436103171  0.2207648686546264  0.3153990094120758
  0.2248030772109715  0.4432316063315938  0.4523596879019038
  0.1133753071994477  0.5543033054506239  0.5486241534849583
  0.2318754959831608  0.4471637130620323  0.6824818991618571
  0.1144002334461902  0.5554293048724332  0.3155491134042023
  0.5583380629014201  0.4434778721178887  0.4525665343821217
  0.4467338579574189  0.5522631935376410  0.5478858367238786
  0.5593529998388505  0.4462976467742124  0.6854625092503284
  0.4475662085218275  0.5546809936540171  0.3151075632367721
  0.8911230646460808  0.4433902199879256  0.4526028471665029
  0.7801557172523061  0.5542828960528965  0.5489387455416406
  0.8927260304828337  0.4410970719665883  0.6853173855214294
  0.7804990852965403  0.5541714027636075  0.3147047352295758
  0.2264782190630399  0.7768198860470932  0.4538195399474247
  0.1131867283295449  0.8883099281500009  0.5481581476376007
  0.2177017118302302  0.7765139134490653  0.6860035157876254
  0.1144129211061582  0.8873323526532459  0.3154194281363729
  0.5570870129872034  0.7772467441331585  0.4527549408317739
  0.4494086804423958  0.8850618388829190  0.5528363802854770
  0.5441474064187446  0.7847582386266083  0.7063971888025549
  0.4469653843224961  0.8880943194186202  0.3154116357123939
  0.8910760472714188  0.7761006898479934  0.4522499539135012
  0.7834916642618026  0.8883388806298811  0.5471732692276490
  0.8878538346704090  0.7753250897426867  0.6851674945557349
  0.7801574851193394  0.8874273754526385  0.3149874687797123
  0.4730667156584119  0.8294480397028110  0.7693233602813905
  0.5087169549138082  0.7988148287788448  0.8009984236970169
 
  0.00000000E+00  0.00000000E+00  0.00000000E+00
  0.00000000E+00  0.00000000E+00  0.00000000E+00
  0.00000000E+00  0.00000000E+00  0.00000000E+00
  0.00000000E+00  0.00000000E+00  0.00000000E+00
  0.00000000E+00  0.00000000E+00  0.00000000E+00
  0.00000000E+00  0.00000000E+00  0.00000000E+00
  0.00000000E+00  0.00000000E+00  0.00000000E+00
  0.00000000E+00  0.00000000E+00  0.00000000E+00
  0.00000000E+00  0.00000000E+00  0.00000000E+00
  0.00000000E+00  0.00000000E+00  0.00000000E+00
  0.00000000E+00  0.00000000E+00  0.00000000E+00
  0.00000000E+00  0.00000000E+00  0.00000000E+00
  0.00000000E+00  0.00000000E+00  0.00000000E+00
  0.00000000E+00  0.00000000E+00  0.00000000E+00
  0.00000000E+00  0.00000000E+00  0.00000000E+00
  0.00000000E+00  0.00000000E+00  0.00000000E+00
  0.00000000E+00  0.00000000E+00  0.00000000E+00
  0.00000000E+00  0.00000000E+00  0.00000000E+00
  0.00000000E+00  0.00000000E+00  0.00000000E+00
  0.00000000E+00  0.00000000E+00  0.00000000E+00
  0.00000000E+00  0.00000000E+00  0.00000000E+00
  0.00000000E+00  0.00000000E+00  0.00000000E+00
  0.00000000E+00  0.00000000E+00  0.00000000E+00
  0.00000000E+00  0.00000000E+00  0.00000000E+00
  0.00000000E+00  0.00000000E+00  0.00000000E+00
  0.00000000E+00  0.00000000E+00  0.00000000E+00
  0.00000000E+00  0.00000000E+00  0.00000000E+00
  0.00000000E+00  0.00000000E+00  0.00000000E+00
  0.00000000E+00  0.00000000E+00  0.00000000E+00
  0.00000000E+00  0.00000000E+00  0.00000000E+00
  0.00000000E+00  0.00000000E+00  0.00000000E+00
  0.00000000E+00  0.00000000E+00  0.00000000E+00
  0.00000000E+00  0.00000000E+00  0.00000000E+00
  0.00000000E+00  0.00000000E+00  0.00000000E+00
  0.00000000E+00  0.00000000E+00  0.00000000E+00
  0.00000000E+00  0.00000000E+00  0.00000000E+00
  0.00000000E+00  0.00000000E+00  0.00000000E+00
  0.00000000E+00  0.00000000E+00  0.00000000E+00
  0.00000000E+00  0.00000000E+00  0.00000000E+00
  0.00000000E+00  0.00000000E+00  0.00000000E+00
  0.00000000E+00  0.00000000E+00  0.00000000E+00
  0.00000000E+00  0.00000000E+00  0.00000000E+00
  0.00000000E+00  0.00000000E+00  0.00000000E+00
  0.00000000E+00  0.00000000E+00  0.00000000E+00
  0.00000000E+00  0.00000000E+00  0.00000000E+00
  0.00000000E+00  0.00000000E+00  0.00000000E+00
  0.00000000E+00  0.00000000E+00  0.00000000E+00
  0.00000000E+00  0.00000000E+00  0.00000000E+00
  0.00000000E+00  0.00000000E+00  0.00000000E+00
  0.00000000E+00  0.00000000E+00  0.00000000E+00
  0.00000000E+00  0.00000000E+00  0.00000000E+00
  0.00000000E+00  0.00000000E+00  0.00000000E+00
  0.00000000E+00  0.00000000E+00  0.00000000E+00
  0.00000000E+00  0.00000000E+00  0.00000000E+00
  0.00000000E+00  0.00000000E+00  0.00000000E+00
  0.00000000E+00  0.00000000E+00  0.00000000E+00
  0.00000000E+00  0.00000000E+00  0.00000000E+00
  0.00000000E+00  0.00000000E+00  0.00000000E+00
  0.00000000E+00  0.00000000E+00  0.00000000E+00
  0.00000000E+00  0.00000000E+00  0.00000000E+00
  0.00000000E+00  0.00000000E+00  0.00000000E+00
  0.00000000E+00  0.00000000E+00  0.00000000E+00
  0.00000000E+00  0.00000000E+00  0.00000000E+00
  0.00000000E+00  0.00000000E+00  0.00000000E+00
  0.00000000E+00  0.00000000E+00  0.00000000E+00
