 Tl2 Cu3 Se6 O18                        
   1.00000000000000     
     4.5013257320169151    0.0000000000000000    0.0000000000000000
    -1.6652862778043094    9.0626276974280593    0.0000000000000000
     0.0000000000000000    0.0000000000000000   22.9836813747860056
   Tl   Cu   Se   O 
     2     3     6    18
Direct
  0.8837316894374183  0.9175586528718966  0.6356610333305426
  0.7082772071181935  0.5700098642102702  0.3643893260416391
  0.1017961039081570  0.2947750654991808  0.4493349899595316
  0.4915535847264394  0.1926652256968495  0.5506380839389138
  0.2962535903768497  0.7436604707441461  0.4999859679406953
  0.7150635556761316  0.5173823717057999  0.5096991327535747
  0.3438975879983701  0.8382732371164892  0.3557784771904906
  0.2474366550122795  0.6492934180343397  0.6442142467382368
  0.9983962800366584  0.2510586119085616  0.6572031191943353
  0.5952798852592096  0.2365352573501198  0.3427627157560735
  0.8780396082143085  0.9700857701792955  0.4903392531498909
  0.4085710040620896  0.3718435215408178  0.5108308101553760
  0.7731777504500883  0.1113055864104950  0.6936396200917230
  0.0171960075852340  0.8457186770623153  0.5358134373803907
  0.2679039299563328  0.8565577390170205  0.4289209098618798
  0.1844135858847906  0.1156089187955942  0.4891908056679668
  0.8204134948242015  0.3762673434073847  0.3063496400690369
  0.3871849036712121  0.3549804450897085  0.3779603946857861
  0.9334509386805010  0.4749934141908128  0.4509081470229717
  0.5757918129059405  0.6417442312123427  0.4642206799195208
  0.7923852430949196  0.3112558310210218  0.6014775476630092
  0.8754149616989793  0.6736351442593289  0.6488590277459068
  0.8012899478148157  0.1762487857366040  0.3984738083041748
  0.3883094605932271  0.8343023809493175  0.6596735986419873
  0.7159265538025821  0.8138407442888749  0.3510461001167684
  0.2030152485049967  0.6532523836639328  0.3403678516275406
  0.3244450024040688  0.6310167638505817  0.5711000295250273
  0.2062487531319519  0.1325158320449589  0.6220187174581042
  0.6596336531701184  0.0124123121419473  0.5491425280688915
 
  0.00000000E+00  0.00000000E+00  0.00000000E+00
  0.00000000E+00  0.00000000E+00  0.00000000E+00
  0.00000000E+00  0.00000000E+00  0.00000000E+00
  0.00000000E+00  0.00000000E+00  0.00000000E+00
  0.00000000E+00  0.00000000E+00  0.00000000E+00
  0.00000000E+00  0.00000000E+00  0.00000000E+00
  0.00000000E+00  0.00000000E+00  0.00000000E+00
  0.00000000E+00  0.00000000E+00  0.00000000E+00
  0.00000000E+00  0.00000000E+00  0.00000000E+00
  0.00000000E+00  0.00000000E+00  0.00000000E+00
  0.00000000E+00  0.00000000E+00  0.00000000E+00
  0.00000000E+00  0.00000000E+00  0.00000000E+00
  0.00000000E+00  0.00000000E+00  0.00000000E+00
  0.00000000E+00  0.00000000E+00  0.00000000E+00
  0.00000000E+00  0.00000000E+00  0.00000000E+00
  0.00000000E+00  0.00000000E+00  0.00000000E+00
  0.00000000E+00  0.00000000E+00  0.00000000E+00
  0.00000000E+00  0.00000000E+00  0.00000000E+00
  0.00000000E+00  0.00000000E+00  0.00000000E+00
  0.00000000E+00  0.00000000E+00  0.00000000E+00
  0.00000000E+00  0.00000000E+00  0.00000000E+00
  0.00000000E+00  0.00000000E+00  0.00000000E+00
  0.00000000E+00  0.00000000E+00  0.00000000E+00
  0.00000000E+00  0.00000000E+00  0.00000000E+00
  0.00000000E+00  0.00000000E+00  0.00000000E+00
  0.00000000E+00  0.00000000E+00  0.00000000E+00
  0.00000000E+00  0.00000000E+00  0.00000000E+00
  0.00000000E+00  0.00000000E+00  0.00000000E+00
  0.00000000E+00  0.00000000E+00  0.00000000E+00
