G   45   22    1    0.005     # Parameters to Generate KPOINTS (Don't Edit This Line)
     496
Reciprocal lattice
    0.000000000000    0.000000000000    0.000000000000       1
    0.022222222222    0.000000000000    0.000000000000       2
    0.044444444444    0.000000000000    0.000000000000       2
    0.066666666667    0.000000000000    0.000000000000       2
    0.088888888889    0.000000000000    0.000000000000       2
    0.111111111111    0.000000000000    0.000000000000       2
    0.133333333333    0.000000000000    0.000000000000       2
    0.155555555556    0.000000000000    0.000000000000       2
    0.177777777778    0.000000000000    0.000000000000       2
    0.200000000000    0.000000000000    0.000000000000       2
    0.222222222222    0.000000000000    0.000000000000       2
    0.244444444444    0.000000000000    0.000000000000       2
    0.266666666667    0.000000000000    0.000000000000       2
    0.288888888889    0.000000000000    0.000000000000       2
    0.311111111111    0.000000000000    0.000000000000       2
    0.333333333333    0.000000000000    0.000000000000       2
    0.355555555556    0.000000000000    0.000000000000       2
    0.377777777778    0.000000000000    0.000000000000       2
    0.400000000000    0.000000000000    0.000000000000       2
    0.422222222222    0.000000000000    0.000000000000       2
    0.444444444444    0.000000000000    0.000000000000       2
    0.466666666667    0.000000000000    0.000000000000       2
    0.488888888889    0.000000000000    0.000000000000       2
    0.000000000000    0.045454545455    0.000000000000       2
    0.022222222222    0.045454545455    0.000000000000       2
    0.044444444444    0.045454545455    0.000000000000       2
    0.066666666667    0.045454545455    0.000000000000       2
    0.088888888889    0.045454545455    0.000000000000       2
    0.111111111111    0.045454545455    0.000000000000       2
    0.133333333333    0.045454545455    0.000000000000       2
    0.155555555556    0.045454545455    0.000000000000       2
    0.177777777778    0.045454545455    0.000000000000       2
    0.200000000000    0.045454545455    0.000000000000       2
    0.222222222222    0.045454545455    0.000000000000       2
    0.244444444444    0.045454545455    0.000000000000       2
    0.266666666667    0.045454545455    0.000000000000       2
    0.288888888889    0.045454545455    0.000000000000       2
    0.311111111111    0.045454545455    0.000000000000       2
    0.333333333333    0.045454545455    0.000000000000       2
    0.355555555556    0.045454545455    0.000000000000       2
    0.377777777778    0.045454545455    0.000000000000       2
    0.400000000000    0.045454545455    0.000000000000       2
    0.422222222222    0.045454545455    0.000000000000       2
    0.444444444444    0.045454545455    0.000000000000       2
    0.466666666667    0.045454545455    0.000000000000       2
    0.488888888889    0.045454545455    0.000000000000       2
   -0.488888888889    0.045454545455    0.000000000000       2
   -0.466666666667    0.045454545455    0.000000000000       2
   -0.444444444444    0.045454545455    0.000000000000       2
   -0.422222222222    0.045454545455    0.000000000000       2
   -0.400000000000    0.045454545455    0.000000000000       2
   -0.377777777778    0.045454545455    0.000000000000       2
   -0.355555555556    0.045454545455    0.000000000000       2
   -0.333333333333    0.045454545455    0.000000000000       2
   -0.311111111111    0.045454545455    0.000000000000       2
   -0.288888888889    0.045454545455    0.000000000000       2
   -0.266666666667    0.045454545455    0.000000000000       2
   -0.244444444444    0.045454545455    0.000000000000       2
   -0.222222222222    0.045454545455    0.000000000000       2
   -0.200000000000    0.045454545455    0.000000000000       2
   -0.177777777778    0.045454545455    0.000000000000       2
   -0.155555555556    0.045454545455    0.000000000000       2
   -0.133333333333    0.045454545455    0.000000000000       2
   -0.111111111111    0.045454545455    0.000000000000       2
   -0.088888888889    0.045454545455    0.000000000000       2
   -0.066666666667    0.045454545455    0.000000000000       2
   -0.044444444444    0.045454545455    0.000000000000       2
   -0.022222222222    0.045454545455    0.000000000000       2
    0.000000000000    0.090909090909    0.000000000000       2
    0.022222222222    0.090909090909    0.000000000000       2
    0.044444444444    0.090909090909    0.000000000000       2
    0.066666666667    0.090909090909    0.000000000000       2
    0.088888888889    0.090909090909    0.000000000000       2
    0.111111111111    0.090909090909    0.000000000000       2
    0.133333333333    0.090909090909    0.000000000000       2
    0.155555555556    0.090909090909    0.000000000000       2
    0.177777777778    0.090909090909    0.000000000000       2
    0.200000000000    0.090909090909    0.000000000000       2
    0.222222222222    0.090909090909    0.000000000000       2
    0.244444444444    0.090909090909    0.000000000000       2
    0.266666666667    0.090909090909    0.000000000000       2
    0.288888888889    0.090909090909    0.000000000000       2
    0.311111111111    0.090909090909    0.000000000000       2
    0.333333333333    0.090909090909    0.000000000000       2
    0.355555555556    0.090909090909    0.000000000000       2
    0.377777777778    0.090909090909    0.000000000000       2
    0.400000000000    0.090909090909    0.000000000000       2
    0.422222222222    0.090909090909    0.000000000000       2
    0.444444444444    0.090909090909    0.000000000000       2
    0.466666666667    0.090909090909    0.000000000000       2
    0.488888888889    0.090909090909    0.000000000000       2
   -0.488888888889    0.090909090909    0.000000000000       2
   -0.466666666667    0.090909090909    0.000000000000       2
   -0.444444444444    0.090909090909    0.000000000000       2
   -0.422222222222    0.090909090909    0.000000000000       2
   -0.400000000000    0.090909090909    0.000000000000       2
   -0.377777777778    0.090909090909    0.000000000000       2
   -0.355555555556    0.090909090909    0.000000000000       2
   -0.333333333333    0.090909090909    0.000000000000       2
   -0.311111111111    0.090909090909    0.000000000000       2
   -0.288888888889    0.090909090909    0.000000000000       2
   -0.266666666667    0.090909090909    0.000000000000       2
   -0.244444444444    0.090909090909    0.000000000000       2
   -0.222222222222    0.090909090909    0.000000000000       2
   -0.200000000000    0.090909090909    0.000000000000       2
   -0.177777777778    0.090909090909    0.000000000000       2
   -0.155555555556    0.090909090909    0.000000000000       2
   -0.133333333333    0.090909090909    0.000000000000       2
   -0.111111111111    0.090909090909    0.000000000000       2
   -0.088888888889    0.090909090909    0.000000000000       2
   -0.066666666667    0.090909090909    0.000000000000       2
   -0.044444444444    0.090909090909    0.000000000000       2
   -0.022222222222    0.090909090909    0.000000000000       2
    0.000000000000    0.136363636364    0.000000000000       2
    0.022222222222    0.136363636364    0.000000000000       2
    0.044444444444    0.136363636364    0.000000000000       2
    0.066666666667    0.136363636364    0.000000000000       2
    0.088888888889    0.136363636364    0.000000000000       2
    0.111111111111    0.136363636364    0.000000000000       2
    0.133333333333    0.136363636364    0.000000000000       2
    0.155555555556    0.136363636364    0.000000000000       2
    0.177777777778    0.136363636364    0.000000000000       2
    0.200000000000    0.136363636364    0.000000000000       2
    0.222222222222    0.136363636364    0.000000000000       2
    0.244444444444    0.136363636364    0.000000000000       2
    0.266666666667    0.136363636364    0.000000000000       2
    0.288888888889    0.136363636364    0.000000000000       2
    0.311111111111    0.136363636364    0.000000000000       2
    0.333333333333    0.136363636364    0.000000000000       2
    0.355555555556    0.136363636364    0.000000000000       2
    0.377777777778    0.136363636364    0.000000000000       2
    0.400000000000    0.136363636364    0.000000000000       2
    0.422222222222    0.136363636364    0.000000000000       2
    0.444444444444    0.136363636364    0.000000000000       2
    0.466666666667    0.136363636364    0.000000000000       2
    0.488888888889    0.136363636364    0.000000000000       2
   -0.488888888889    0.136363636364    0.000000000000       2
   -0.466666666667    0.136363636364    0.000000000000       2
   -0.444444444444    0.136363636364    0.000000000000       2
   -0.422222222222    0.136363636364    0.000000000000       2
   -0.400000000000    0.136363636364    0.000000000000       2
   -0.377777777778    0.136363636364    0.000000000000       2
   -0.355555555556    0.136363636364    0.000000000000       2
   -0.333333333333    0.136363636364    0.000000000000       2
   -0.311111111111    0.136363636364    0.000000000000       2
   -0.288888888889    0.136363636364    0.000000000000       2
   -0.266666666667    0.136363636364    0.000000000000       2
   -0.244444444444    0.136363636364    0.000000000000       2
   -0.222222222222    0.136363636364    0.000000000000       2
   -0.200000000000    0.136363636364    0.000000000000       2
   -0.177777777778    0.136363636364    0.000000000000       2
   -0.155555555556    0.136363636364    0.000000000000       2
   -0.133333333333    0.136363636364    0.000000000000       2
   -0.111111111111    0.136363636364    0.000000000000       2
   -0.088888888889    0.136363636364    0.000000000000       2
   -0.066666666667    0.136363636364    0.000000000000       2
   -0.044444444444    0.136363636364    0.000000000000       2
   -0.022222222222    0.136363636364    0.000000000000       2
    0.000000000000    0.181818181818    0.000000000000       2
    0.022222222222    0.181818181818    0.000000000000       2
    0.044444444444    0.181818181818    0.000000000000       2
    0.066666666667    0.181818181818    0.000000000000       2
    0.088888888889    0.181818181818    0.000000000000       2
    0.111111111111    0.181818181818    0.000000000000       2
    0.133333333333    0.181818181818    0.000000000000       2
    0.155555555556    0.181818181818    0.000000000000       2
    0.177777777778    0.181818181818    0.000000000000       2
    0.200000000000    0.181818181818    0.000000000000       2
    0.222222222222    0.181818181818    0.000000000000       2
    0.244444444444    0.181818181818    0.000000000000       2
    0.266666666667    0.181818181818    0.000000000000       2
    0.288888888889    0.181818181818    0.000000000000       2
    0.311111111111    0.181818181818    0.000000000000       2
    0.333333333333    0.181818181818    0.000000000000       2
    0.355555555556    0.181818181818    0.000000000000       2
    0.377777777778    0.181818181818    0.000000000000       2
    0.400000000000    0.181818181818    0.000000000000       2
    0.422222222222    0.181818181818    0.000000000000       2
    0.444444444444    0.181818181818    0.000000000000       2
    0.466666666667    0.181818181818    0.000000000000       2
    0.488888888889    0.181818181818    0.000000000000       2
   -0.488888888889    0.181818181818    0.000000000000       2
   -0.466666666667    0.181818181818    0.000000000000       2
   -0.444444444444    0.181818181818    0.000000000000       2
   -0.422222222222    0.181818181818    0.000000000000       2
   -0.400000000000    0.181818181818    0.000000000000       2
   -0.377777777778    0.181818181818    0.000000000000       2
   -0.355555555556    0.181818181818    0.000000000000       2
   -0.333333333333    0.181818181818    0.000000000000       2
   -0.311111111111    0.181818181818    0.000000000000       2
   -0.288888888889    0.181818181818    0.000000000000       2
   -0.266666666667    0.181818181818    0.000000000000       2
   -0.244444444444    0.181818181818    0.000000000000       2
   -0.222222222222    0.181818181818    0.000000000000       2
   -0.200000000000    0.181818181818    0.000000000000       2
   -0.177777777778    0.181818181818    0.000000000000       2
   -0.155555555556    0.181818181818    0.000000000000       2
   -0.133333333333    0.181818181818    0.000000000000       2
   -0.111111111111    0.181818181818    0.000000000000       2
   -0.088888888889    0.181818181818    0.000000000000       2
   -0.066666666667    0.181818181818    0.000000000000       2
   -0.044444444444    0.181818181818    0.000000000000       2
   -0.022222222222    0.181818181818    0.000000000000       2
    0.000000000000    0.227272727273    0.000000000000       2
    0.022222222222    0.227272727273    0.000000000000       2
    0.044444444444    0.227272727273    0.000000000000       2
    0.066666666667    0.227272727273    0.000000000000       2
    0.088888888889    0.227272727273    0.000000000000       2
    0.111111111111    0.227272727273    0.000000000000       2
    0.133333333333    0.227272727273    0.000000000000       2
    0.155555555556    0.227272727273    0.000000000000       2
    0.177777777778    0.227272727273    0.000000000000       2
    0.200000000000    0.227272727273    0.000000000000       2
    0.222222222222    0.227272727273    0.000000000000       2
    0.244444444444    0.227272727273    0.000000000000       2
    0.266666666667    0.227272727273    0.000000000000       2
    0.288888888889    0.227272727273    0.000000000000       2
    0.311111111111    0.227272727273    0.000000000000       2
    0.333333333333    0.227272727273    0.000000000000       2
    0.355555555556    0.227272727273    0.000000000000       2
    0.377777777778    0.227272727273    0.000000000000       2
    0.400000000000    0.227272727273    0.000000000000       2
    0.422222222222    0.227272727273    0.000000000000       2
    0.444444444444    0.227272727273    0.000000000000       2
    0.466666666667    0.227272727273    0.000000000000       2
    0.488888888889    0.227272727273    0.000000000000       2
   -0.488888888889    0.227272727273    0.000000000000       2
   -0.466666666667    0.227272727273    0.000000000000       2
   -0.444444444444    0.227272727273    0.000000000000       2
   -0.422222222222    0.227272727273    0.000000000000       2
   -0.400000000000    0.227272727273    0.000000000000       2
   -0.377777777778    0.227272727273    0.000000000000       2
   -0.355555555556    0.227272727273    0.000000000000       2
   -0.333333333333    0.227272727273    0.000000000000       2
   -0.311111111111    0.227272727273    0.000000000000       2
   -0.288888888889    0.227272727273    0.000000000000       2
   -0.266666666667    0.227272727273    0.000000000000       2
   -0.244444444444    0.227272727273    0.000000000000       2
   -0.222222222222    0.227272727273    0.000000000000       2
   -0.200000000000    0.227272727273    0.000000000000       2
   -0.177777777778    0.227272727273    0.000000000000       2
   -0.155555555556    0.227272727273    0.000000000000       2
   -0.133333333333    0.227272727273    0.000000000000       2
   -0.111111111111    0.227272727273    0.000000000000       2
   -0.088888888889    0.227272727273    0.000000000000       2
   -0.066666666667    0.227272727273    0.000000000000       2
   -0.044444444444    0.227272727273    0.000000000000       2
   -0.022222222222    0.227272727273    0.000000000000       2
    0.000000000000    0.272727272727    0.000000000000       2
    0.022222222222    0.272727272727    0.000000000000       2
    0.044444444444    0.272727272727    0.000000000000       2
    0.066666666667    0.272727272727    0.000000000000       2
    0.088888888889    0.272727272727    0.000000000000       2
    0.111111111111    0.272727272727    0.000000000000       2
    0.133333333333    0.272727272727    0.000000000000       2
    0.155555555556    0.272727272727    0.000000000000       2
    0.177777777778    0.272727272727    0.000000000000       2
    0.200000000000    0.272727272727    0.000000000000       2
    0.222222222222    0.272727272727    0.000000000000       2
    0.244444444444    0.272727272727    0.000000000000       2
    0.266666666667    0.272727272727    0.000000000000       2
    0.288888888889    0.272727272727    0.000000000000       2
    0.311111111111    0.272727272727    0.000000000000       2
    0.333333333333    0.272727272727    0.000000000000       2
    0.355555555556    0.272727272727    0.000000000000       2
    0.377777777778    0.272727272727    0.000000000000       2
    0.400000000000    0.272727272727    0.000000000000       2
    0.422222222222    0.272727272727    0.000000000000       2
    0.444444444444    0.272727272727    0.000000000000       2
    0.466666666667    0.272727272727    0.000000000000       2
    0.488888888889    0.272727272727    0.000000000000       2
   -0.488888888889    0.272727272727    0.000000000000       2
   -0.466666666667    0.272727272727    0.000000000000       2
   -0.444444444444    0.272727272727    0.000000000000       2
   -0.422222222222    0.272727272727    0.000000000000       2
   -0.400000000000    0.272727272727    0.000000000000       2
   -0.377777777778    0.272727272727    0.000000000000       2
   -0.355555555556    0.272727272727    0.000000000000       2
   -0.333333333333    0.272727272727    0.000000000000       2
   -0.311111111111    0.272727272727    0.000000000000       2
   -0.288888888889    0.272727272727    0.000000000000       2
   -0.266666666667    0.272727272727    0.000000000000       2
   -0.244444444444    0.272727272727    0.000000000000       2
   -0.222222222222    0.272727272727    0.000000000000       2
   -0.200000000000    0.272727272727    0.000000000000       2
   -0.177777777778    0.272727272727    0.000000000000       2
   -0.155555555556    0.272727272727    0.000000000000       2
   -0.133333333333    0.272727272727    0.000000000000       2
   -0.111111111111    0.272727272727    0.000000000000       2
   -0.088888888889    0.272727272727    0.000000000000       2
   -0.066666666667    0.272727272727    0.000000000000       2
   -0.044444444444    0.272727272727    0.000000000000       2
   -0.022222222222    0.272727272727    0.000000000000       2
    0.000000000000    0.318181818182    0.000000000000       2
    0.022222222222    0.318181818182    0.000000000000       2
    0.044444444444    0.318181818182    0.000000000000       2
    0.066666666667    0.318181818182    0.000000000000       2
    0.088888888889    0.318181818182    0.000000000000       2
    0.111111111111    0.318181818182    0.000000000000       2
    0.133333333333    0.318181818182    0.000000000000       2
    0.155555555556    0.318181818182    0.000000000000       2
    0.177777777778    0.318181818182    0.000000000000       2
    0.200000000000    0.318181818182    0.000000000000       2
    0.222222222222    0.318181818182    0.000000000000       2
    0.244444444444    0.318181818182    0.000000000000       2
    0.266666666667    0.318181818182    0.000000000000       2
    0.288888888889    0.318181818182    0.000000000000       2
    0.311111111111    0.318181818182    0.000000000000       2
    0.333333333333    0.318181818182    0.000000000000       2
    0.355555555556    0.318181818182    0.000000000000       2
    0.377777777778    0.318181818182    0.000000000000       2
    0.400000000000    0.318181818182    0.000000000000       2
    0.422222222222    0.318181818182    0.000000000000       2
    0.444444444444    0.318181818182    0.000000000000       2
    0.466666666667    0.318181818182    0.000000000000       2
    0.488888888889    0.318181818182    0.000000000000       2
   -0.488888888889    0.318181818182    0.000000000000       2
   -0.466666666667    0.318181818182    0.000000000000       2
   -0.444444444444    0.318181818182    0.000000000000       2
   -0.422222222222    0.318181818182    0.000000000000       2
   -0.400000000000    0.318181818182    0.000000000000       2
   -0.377777777778    0.318181818182    0.000000000000       2
   -0.355555555556    0.318181818182    0.000000000000       2
   -0.333333333333    0.318181818182    0.000000000000       2
   -0.311111111111    0.318181818182    0.000000000000       2
   -0.288888888889    0.318181818182    0.000000000000       2
   -0.266666666667    0.318181818182    0.000000000000       2
   -0.244444444444    0.318181818182    0.000000000000       2
   -0.222222222222    0.318181818182    0.000000000000       2
   -0.200000000000    0.318181818182    0.000000000000       2
   -0.177777777778    0.318181818182    0.000000000000       2
   -0.155555555556    0.318181818182    0.000000000000       2
   -0.133333333333    0.318181818182    0.000000000000       2
   -0.111111111111    0.318181818182    0.000000000000       2
   -0.088888888889    0.318181818182    0.000000000000       2
   -0.066666666667    0.318181818182    0.000000000000       2
   -0.044444444444    0.318181818182    0.000000000000       2
   -0.022222222222    0.318181818182    0.000000000000       2
    0.000000000000    0.363636363636    0.000000000000       2
    0.022222222222    0.363636363636    0.000000000000       2
    0.044444444444    0.363636363636    0.000000000000       2
    0.066666666667    0.363636363636    0.000000000000       2
    0.088888888889    0.363636363636    0.000000000000       2
    0.111111111111    0.363636363636    0.000000000000       2
    0.133333333333    0.363636363636    0.000000000000       2
    0.155555555556    0.363636363636    0.000000000000       2
    0.177777777778    0.363636363636    0.000000000000       2
    0.200000000000    0.363636363636    0.000000000000       2
    0.222222222222    0.363636363636    0.000000000000       2
    0.244444444444    0.363636363636    0.000000000000       2
    0.266666666667    0.363636363636    0.000000000000       2
    0.288888888889    0.363636363636    0.000000000000       2
    0.311111111111    0.363636363636    0.000000000000       2
    0.333333333333    0.363636363636    0.000000000000       2
    0.355555555556    0.363636363636    0.000000000000       2
    0.377777777778    0.363636363636    0.000000000000       2
    0.400000000000    0.363636363636    0.000000000000       2
    0.422222222222    0.363636363636    0.000000000000       2
    0.444444444444    0.363636363636    0.000000000000       2
    0.466666666667    0.363636363636    0.000000000000       2
    0.488888888889    0.363636363636    0.000000000000       2
   -0.488888888889    0.363636363636    0.000000000000       2
   -0.466666666667    0.363636363636    0.000000000000       2
   -0.444444444444    0.363636363636    0.000000000000       2
   -0.422222222222    0.363636363636    0.000000000000       2
   -0.400000000000    0.363636363636    0.000000000000       2
   -0.377777777778    0.363636363636    0.000000000000       2
   -0.355555555556    0.363636363636    0.000000000000       2
   -0.333333333333    0.363636363636    0.000000000000       2
   -0.311111111111    0.363636363636    0.000000000000       2
   -0.288888888889    0.363636363636    0.000000000000       2
   -0.266666666667    0.363636363636    0.000000000000       2
   -0.244444444444    0.363636363636    0.000000000000       2
   -0.222222222222    0.363636363636    0.000000000000       2
   -0.200000000000    0.363636363636    0.000000000000       2
   -0.177777777778    0.363636363636    0.000000000000       2
   -0.155555555556    0.363636363636    0.000000000000       2
   -0.133333333333    0.363636363636    0.000000000000       2
   -0.111111111111    0.363636363636    0.000000000000       2
   -0.088888888889    0.363636363636    0.000000000000       2
   -0.066666666667    0.363636363636    0.000000000000       2
   -0.044444444444    0.363636363636    0.000000000000       2
   -0.022222222222    0.363636363636    0.000000000000       2
    0.000000000000    0.409090909091    0.000000000000       2
    0.022222222222    0.409090909091    0.000000000000       2
    0.044444444444    0.409090909091    0.000000000000       2
    0.066666666667    0.409090909091    0.000000000000       2
    0.088888888889    0.409090909091    0.000000000000       2
    0.111111111111    0.409090909091    0.000000000000       2
    0.133333333333    0.409090909091    0.000000000000       2
    0.155555555556    0.409090909091    0.000000000000       2
    0.177777777778    0.409090909091    0.000000000000       2
    0.200000000000    0.409090909091    0.000000000000       2
    0.222222222222    0.409090909091    0.000000000000       2
    0.244444444444    0.409090909091    0.000000000000       2
    0.266666666667    0.409090909091    0.000000000000       2
    0.288888888889    0.409090909091    0.000000000000       2
    0.311111111111    0.409090909091    0.000000000000       2
    0.333333333333    0.409090909091    0.000000000000       2
    0.355555555556    0.409090909091    0.000000000000       2
    0.377777777778    0.409090909091    0.000000000000       2
    0.400000000000    0.409090909091    0.000000000000       2
    0.422222222222    0.409090909091    0.000000000000       2
    0.444444444444    0.409090909091    0.000000000000       2
    0.466666666667    0.409090909091    0.000000000000       2
    0.488888888889    0.409090909091    0.000000000000       2
   -0.488888888889    0.409090909091    0.000000000000       2
   -0.466666666667    0.409090909091    0.000000000000       2
   -0.444444444444    0.409090909091    0.000000000000       2
   -0.422222222222    0.409090909091    0.000000000000       2
   -0.400000000000    0.409090909091    0.000000000000       2
   -0.377777777778    0.409090909091    0.000000000000       2
   -0.355555555556    0.409090909091    0.000000000000       2
   -0.333333333333    0.409090909091    0.000000000000       2
   -0.311111111111    0.409090909091    0.000000000000       2
   -0.288888888889    0.409090909091    0.000000000000       2
   -0.266666666667    0.409090909091    0.000000000000       2
   -0.244444444444    0.409090909091    0.000000000000       2
   -0.222222222222    0.409090909091    0.000000000000       2
   -0.200000000000    0.409090909091    0.000000000000       2
   -0.177777777778    0.409090909091    0.000000000000       2
   -0.155555555556    0.409090909091    0.000000000000       2
   -0.133333333333    0.409090909091    0.000000000000       2
   -0.111111111111    0.409090909091    0.000000000000       2
   -0.088888888889    0.409090909091    0.000000000000       2
   -0.066666666667    0.409090909091    0.000000000000       2
   -0.044444444444    0.409090909091    0.000000000000       2
   -0.022222222222    0.409090909091    0.000000000000       2
    0.000000000000    0.454545454545    0.000000000000       2
    0.022222222222    0.454545454545    0.000000000000       2
    0.044444444444    0.454545454545    0.000000000000       2
    0.066666666667    0.454545454545    0.000000000000       2
    0.088888888889    0.454545454545    0.000000000000       2
    0.111111111111    0.454545454545    0.000000000000       2
    0.133333333333    0.454545454545    0.000000000000       2
    0.155555555556    0.454545454545    0.000000000000       2
    0.177777777778    0.454545454545    0.000000000000       2
    0.200000000000    0.454545454545    0.000000000000       2
    0.222222222222    0.454545454545    0.000000000000       2
    0.244444444444    0.454545454545    0.000000000000       2
    0.266666666667    0.454545454545    0.000000000000       2
    0.288888888889    0.454545454545    0.000000000000       2
    0.311111111111    0.454545454545    0.000000000000       2
    0.333333333333    0.454545454545    0.000000000000       2
    0.355555555556    0.454545454545    0.000000000000       2
    0.377777777778    0.454545454545    0.000000000000       2
    0.400000000000    0.454545454545    0.000000000000       2
    0.422222222222    0.454545454545    0.000000000000       2
    0.444444444444    0.454545454545    0.000000000000       2
    0.466666666667    0.454545454545    0.000000000000       2
    0.488888888889    0.454545454545    0.000000000000       2
   -0.488888888889    0.454545454545    0.000000000000       2
   -0.466666666667    0.454545454545    0.000000000000       2
   -0.444444444444    0.454545454545    0.000000000000       2
   -0.422222222222    0.454545454545    0.000000000000       2
   -0.400000000000    0.454545454545    0.000000000000       2
   -0.377777777778    0.454545454545    0.000000000000       2
   -0.355555555556    0.454545454545    0.000000000000       2
   -0.333333333333    0.454545454545    0.000000000000       2
   -0.311111111111    0.454545454545    0.000000000000       2
   -0.288888888889    0.454545454545    0.000000000000       2
   -0.266666666667    0.454545454545    0.000000000000       2
   -0.244444444444    0.454545454545    0.000000000000       2
   -0.222222222222    0.454545454545    0.000000000000       2
   -0.200000000000    0.454545454545    0.000000000000       2
   -0.177777777778    0.454545454545    0.000000000000       2
   -0.155555555556    0.454545454545    0.000000000000       2
   -0.133333333333    0.454545454545    0.000000000000       2
   -0.111111111111    0.454545454545    0.000000000000       2
   -0.088888888889    0.454545454545    0.000000000000       2
   -0.066666666667    0.454545454545    0.000000000000       2
   -0.044444444444    0.454545454545    0.000000000000       2
   -0.022222222222    0.454545454545    0.000000000000       2
    0.000000000000    0.500000000000    0.000000000000       1