CONTCAR\(2)                             
   1.00000000000000     
    12.6855001450000007    0.0000000000000000    0.0000000000000000
     6.3427500725000003   10.9859653852000001    0.0000000000000000
     0.0000000000000000    0.0000000000000000   18.4181995391999997
   Mn   P    Se   O    H 
     8     8    24     1     1
Selective dynamics
Direct
  0.1676664558952083  0.1671764415132273  0.4973015237791927   F   F   F
  0.3347804932642688  0.3351244352932170  0.4995290977825846   F   F   F
  0.6669467269320890  0.1688475853061533  0.5000526269981904   F   F   F
  0.8317929847052312  0.3347608588438291  0.5001425636013010   F   F   F
  0.1704959139748397  0.6656661358860703  0.5001474829046160   F   F   F
  0.3353186119287059  0.8314083800269358  0.5005946246291586   F   F   F
  0.6657878528502295  0.6666925592330131  0.4999745003390288   F   F   F
  0.8344226040247946  0.8339588513867184  0.4974634709537398   F   F   F
  0.9999454991165706  0.0017607554638630  0.4384545601559893   F   F   F
  0.0012003946814687  0.0004806710282992  0.5601701750996924   F   F   F
  0.5009982167756846  0.9993652690552466  0.4382865325317553   F   F   F
  0.5010716117981246  0.0005951533440509  0.5600135629004654   F   F   F
  0.0019785551447171  0.5009839276465016  0.4383717965499940   F   F   F
  0.0005409336082494  0.5006269019318097  0.5601074755628090   F   F   F
  0.5012225902899985  0.5003096220609891  0.4632704233988036   F   F   F
  0.5031736336719561  0.4993774740392425  0.5990437186027293   F   F   F
  0.1685274123832627  0.5005495244346463  0.5931819565306355   F   F   F
  0.4991704814745219  0.3206208618870932  0.5918687100521964   F   F   F
  0.3309157881146447  0.1705411552150693  0.5900239855865408   F   F   F
  0.3327233030968415  0.9973859559140195  0.4072401079667571   F   F   F
  0.9975027929685396  0.1723311483690679  0.4072015494021670   F   F   F
  0.1722885752715442  0.3326654536354141  0.4069620057841448   F   F   F
  0.6818119148921795  0.5010680905608282  0.5925454118959479   F   F   F
  0.0013010358694814  0.3303202754350707  0.5901623958881999   F   F   F
  0.8333769661520165  0.1680253879882869  0.5936677169803204   F   F   F
  0.8297848055139099  0.0036472336714510  0.4071234997907638   F   F   F
  0.5010872874600594  0.1681014721579004  0.4061691621804684   F   F   F
  0.6645945712360515  0.3366886780820550  0.4148161977114597   F   F   F
  0.1710187817180824  0.0007229980434786  0.5903119474851621   F   F   F
  0.5008617075287773  0.8331544729971512  0.5937769269221675   F   F   F
  0.3212269009398270  0.6788013604697554  0.5928676819242682   F   F   F
  0.3375051269531752  0.5004619851644065  0.4148056200905401   F   F   F
  0.0045233107260003  0.6691224672127163  0.4073661130755042   F   F   F
  0.1687400583445680  0.8330465640496030  0.4064296979823112   F   F   F
  0.6714436780153576  0.9999094760608571  0.5901792981987199   F   F   F
  0.0012073299004456  0.8305567383101575  0.5902726427753109   F   F   F
  0.8308194515648211  0.6707041397919298  0.5901887779521786   F   F   F
  0.8334418107802577  0.5006281007790037  0.4062626929791335   F   F   F
  0.5003396906350872  0.6643997805228992  0.4150530206045246   F   F   F
  0.6691929552598737  0.8289172598250403  0.4070873792922498   F   F   F
  0.5130427624406764  0.4971184773340838  0.6895696571203587   T   T   T
  0.4503878760978991  0.4844667000288823  0.7113672541857419   T   T   T
 
  0.00000000E+00  0.00000000E+00  0.00000000E+00
  0.00000000E+00  0.00000000E+00  0.00000000E+00
  0.00000000E+00  0.00000000E+00  0.00000000E+00
  0.00000000E+00  0.00000000E+00  0.00000000E+00
  0.00000000E+00  0.00000000E+00  0.00000000E+00
  0.00000000E+00  0.00000000E+00  0.00000000E+00
  0.00000000E+00  0.00000000E+00  0.00000000E+00
  0.00000000E+00  0.00000000E+00  0.00000000E+00
  0.00000000E+00  0.00000000E+00  0.00000000E+00
  0.00000000E+00  0.00000000E+00  0.00000000E+00
  0.00000000E+00  0.00000000E+00  0.00000000E+00
  0.00000000E+00  0.00000000E+00  0.00000000E+00
  0.00000000E+00  0.00000000E+00  0.00000000E+00
  0.00000000E+00  0.00000000E+00  0.00000000E+00
  0.00000000E+00  0.00000000E+00  0.00000000E+00
  0.00000000E+00  0.00000000E+00  0.00000000E+00
  0.00000000E+00  0.00000000E+00  0.00000000E+00
  0.00000000E+00  0.00000000E+00  0.00000000E+00
  0.00000000E+00  0.00000000E+00  0.00000000E+00
  0.00000000E+00  0.00000000E+00  0.00000000E+00
  0.00000000E+00  0.00000000E+00  0.00000000E+00
  0.00000000E+00  0.00000000E+00  0.00000000E+00
  0.00000000E+00  0.00000000E+00  0.00000000E+00
  0.00000000E+00  0.00000000E+00  0.00000000E+00
  0.00000000E+00  0.00000000E+00  0.00000000E+00
  0.00000000E+00  0.00000000E+00  0.00000000E+00
  0.00000000E+00  0.00000000E+00  0.00000000E+00
  0.00000000E+00  0.00000000E+00  0.00000000E+00
  0.00000000E+00  0.00000000E+00  0.00000000E+00
  0.00000000E+00  0.00000000E+00  0.00000000E+00
  0.00000000E+00  0.00000000E+00  0.00000000E+00
  0.00000000E+00  0.00000000E+00  0.00000000E+00
  0.00000000E+00  0.00000000E+00  0.00000000E+00
  0.00000000E+00  0.00000000E+00  0.00000000E+00
  0.00000000E+00  0.00000000E+00  0.00000000E+00
  0.00000000E+00  0.00000000E+00  0.00000000E+00
  0.00000000E+00  0.00000000E+00  0.00000000E+00
  0.00000000E+00  0.00000000E+00  0.00000000E+00
  0.00000000E+00  0.00000000E+00  0.00000000E+00
  0.00000000E+00  0.00000000E+00  0.00000000E+00
  0.00000000E+00  0.00000000E+00  0.00000000E+00
  0.00000000E+00  0.00000000E+00  0.00000000E+00
