CONTCAR\(16)                            
   1.00000000000000     
    12.3274002075000002    0.0000000000000000    0.0000000000000000
     0.0000000000000000   15.7540998459000008    0.0000000000000000
     0.0000000000000000    0.0000000000000000   20.2700004577999984
   Pr   Br   O 
    12    30     1
Direct
  0.2530325608181059  0.6436779304982991  0.5121438598843397
  0.0831386150964093  0.3665767838501068  0.4769629616758237
  0.2447842846903256  0.1392572636968907  0.5248709831063181
  0.0842185102591131  0.8695850504310059  0.4635117467319674
  0.5838246019231121  0.6369946640128745  0.6181696269140957
  0.4183074511460703  0.3734990662085877  0.4797632672690852
  0.5870937888698080  0.1366870188010338  0.5275198068397913
  0.4074486946032465  0.8676741493878595  0.4670271085834017
  0.9128425769416850  0.6414544863978904  0.5116861201231018
  0.7486676974223485  0.3693035682237991  0.4800801181598544
  0.9182806390236777  0.1406431494706837  0.5238960782404831
  0.7578672971905078  0.8678804677186349  0.4655464011860602
  0.2499367465994666  0.8876220172898499  0.3621272631186301
  0.0818867204142464  0.1261354105766230  0.6279241762209935
  0.2508259423592207  0.4872796093084162  0.4168308325889072
  0.0833882021279351  0.5211723868667733  0.5693904147074278
  0.0829928297070666  0.0667397915672936  0.4305822589576493
  0.2433716302625797  0.9480791260398718  0.5570802834317945
  0.0818271387149210  0.7480752816906033  0.5822579670434251
  0.2553457686145535  0.2617530128347099  0.4068116496002361
  0.0830645336816858  0.6871654824539064  0.4106663121116796
  0.2482071597679578  0.3187579498811814  0.5792257738755353
  0.5820695532067646  0.8798873368497340  0.3696249514852425
  0.4153414509495121  0.1256192717768272  0.6255390740825248
  0.5843076853254132  0.4869179043808884  0.4277004015402142
  0.3956989659885437  0.5164198006287890  0.5805198319469085
  0.4171149394410705  0.0645216514638989  0.4360736858757264
  0.5840703910427933  0.9374740495913017  0.5567051534916629
  0.3908560797073974  0.7590721774782025  0.5935433727126735
  0.5809108243498144  0.2584575846673829  0.4103290022276127
  0.4173338782167022  0.6912073311059359  0.4183965792340061
  0.5820317970468665  0.3199260928421168  0.5819165899991248
  0.9176735208686537  0.8868401733669131  0.3619363456812010
  0.7528951970232924  0.1233788514403713  0.6277701434203848
  0.9152227135781317  0.4860530409734665  0.4168082061971106
  0.7706229342679194  0.5150189278566302  0.5803452601363901
  0.7497902859259327  0.0637899813842964  0.4337320454163844
  0.9218821213996904  0.9478842645868042  0.5555472369633776
  0.7758122631722770  0.7587005797253283  0.5916864298177558
  0.9136774244899755  0.2614912740003916  0.4054731876235635
  0.7510251165964874  0.6910541705183988  0.4168664088739007
  0.9195305552777384  0.3187485298368244  0.5795215623738059
  0.5850191678910051  0.6258929473186257  0.7125193375298124
 
  0.00000000E+00  0.00000000E+00  0.00000000E+00
  0.00000000E+00  0.00000000E+00  0.00000000E+00
  0.00000000E+00  0.00000000E+00  0.00000000E+00
  0.00000000E+00  0.00000000E+00  0.00000000E+00
  0.00000000E+00  0.00000000E+00  0.00000000E+00
  0.00000000E+00  0.00000000E+00  0.00000000E+00
  0.00000000E+00  0.00000000E+00  0.00000000E+00
  0.00000000E+00  0.00000000E+00  0.00000000E+00
  0.00000000E+00  0.00000000E+00  0.00000000E+00
  0.00000000E+00  0.00000000E+00  0.00000000E+00
  0.00000000E+00  0.00000000E+00  0.00000000E+00
  0.00000000E+00  0.00000000E+00  0.00000000E+00
  0.00000000E+00  0.00000000E+00  0.00000000E+00
  0.00000000E+00  0.00000000E+00  0.00000000E+00
  0.00000000E+00  0.00000000E+00  0.00000000E+00
  0.00000000E+00  0.00000000E+00  0.00000000E+00
  0.00000000E+00  0.00000000E+00  0.00000000E+00
  0.00000000E+00  0.00000000E+00  0.00000000E+00
  0.00000000E+00  0.00000000E+00  0.00000000E+00
  0.00000000E+00  0.00000000E+00  0.00000000E+00
  0.00000000E+00  0.00000000E+00  0.00000000E+00
  0.00000000E+00  0.00000000E+00  0.00000000E+00
  0.00000000E+00  0.00000000E+00  0.00000000E+00
  0.00000000E+00  0.00000000E+00  0.00000000E+00
  0.00000000E+00  0.00000000E+00  0.00000000E+00
  0.00000000E+00  0.00000000E+00  0.00000000E+00
  0.00000000E+00  0.00000000E+00  0.00000000E+00
  0.00000000E+00  0.00000000E+00  0.00000000E+00
  0.00000000E+00  0.00000000E+00  0.00000000E+00
  0.00000000E+00  0.00000000E+00  0.00000000E+00
  0.00000000E+00  0.00000000E+00  0.00000000E+00
  0.00000000E+00  0.00000000E+00  0.00000000E+00
  0.00000000E+00  0.00000000E+00  0.00000000E+00
  0.00000000E+00  0.00000000E+00  0.00000000E+00
  0.00000000E+00  0.00000000E+00  0.00000000E+00
  0.00000000E+00  0.00000000E+00  0.00000000E+00
  0.00000000E+00  0.00000000E+00  0.00000000E+00
  0.00000000E+00  0.00000000E+00  0.00000000E+00
  0.00000000E+00  0.00000000E+00  0.00000000E+00
  0.00000000E+00  0.00000000E+00  0.00000000E+00
  0.00000000E+00  0.00000000E+00  0.00000000E+00
  0.00000000E+00  0.00000000E+00  0.00000000E+00
  0.00000000E+00  0.00000000E+00  0.00000000E+00
