CONTCAR\(2)                             
   1.00000000000000     
    10.5677003860000003    0.0000000000000000    0.0000000000000000
    -1.7612875669000001   15.6418507631000008    0.0000000000000000
     0.0000000000000000    0.0000000000000000   21.6047992706000009
   Sc   Cl   O 
    21    30     1
Direct
  0.0724569526632701  0.4258752659270029  0.4738969377954578
  0.2583415196726027  0.5743034865035342  0.5353696943233487
  0.0721951036352721  0.4259075670432272  0.6149098942452261
  0.2646853481832008  0.5760541139129286  0.3931868564899216
  0.2176475069888706  0.2769511672896600  0.5466443737743456
  0.1528768463361268  0.7481515453615115  0.4529237751778125
  0.0062920945533571  0.0050336799977959  0.5072511524855686
  0.4066357960024906  0.4284489345412466  0.4747394648127566
  0.5967748332489075  0.5732194480260371  0.5376186521820520
  0.4045768787674853  0.4262192223679177  0.6173246036874562
  0.5969924565979110  0.5774240440836225  0.3957939377682754
  0.5432428146635068  0.2788409147546424  0.5467672531700444
  0.4490217881738016  0.7280147926298903  0.4699344417543488
  0.3190659245920416  0.9357518624603138  0.4772955590997741
  0.7398499493361662  0.4285411847847831  0.4744553864911727
  0.9386189168891467  0.5751374434071576  0.5348885861331086
  0.7398143380073806  0.4245348912854285  0.6168069531513011
  0.9328613278883510  0.5755686615685199  0.3926989973350760
  0.8802579102841137  0.2775717389460162  0.5459423729119004
  0.7876030558556835  0.7216601177555073  0.4660109115087959
  0.6610656486209563 -0.0006751713137369  0.5003486386795035
  0.0251483595449590  0.1539318237806593  0.5608326745899184
  0.2242740212368804  0.8756751172225882  0.3762786866762282
  0.2199001083391879  0.3178525191345750  0.6600706767547911
  0.1144806340765888  0.6771251837924143  0.3455065198314939
  0.1808610079268415  0.0574598283806605  0.4397956175923616
  0.1665375159876924  0.9437319354958494  0.5705814544473248
  0.2549359791518370  0.5331425602161308  0.6557160569264981
  0.1174069603083269  0.6946087839119535  0.5663987439530467
  0.2213460722693494  0.3096194014739233  0.4354189428182151
  0.0805019612390690  0.4661238953582353  0.3545176821609094
  0.3632133523552715  0.1634681246335555  0.5626497331785728
  0.6434529145128965  0.8447968520757659  0.4526433813309300
  0.5544411968106631  0.3172949278150611  0.6603980663453699
  0.4499634370217939  0.6882837517351742  0.3552063380143663
  0.5004654095672696  0.0247866093593583  0.4211221042220469
  0.4844035030590785  0.9539265697208346  0.5685567823525559
  0.5914882438711224  0.5310258346241103  0.6576831144513640
  0.4509989943083514  0.6855138071606258  0.5795503079232546
  0.5536271782430494  0.3118571201588181  0.4353655236162070
  0.4143244206086069  0.4705935204978257  0.3542325660850935
  0.6896467946483665  0.1551554112389598  0.5429366014863014
  0.9655255112949621  0.8455900493290862  0.4660800659398756
  0.8873339442878228  0.3153140099273494  0.6593547080277155
  0.7831252667411895  0.6866049903825158  0.3523722035085975
  0.8454121134041713  0.0435791767960539  0.4297709955901023
  0.8205133174707319  0.9609950938367852  0.5780886033285649
  0.9242402350924760  0.5324894223694087  0.6552108128523220
  0.7852792781168855  0.6897750991460332  0.5766820476428307
  0.8852283360578932  0.3094574674454491  0.4347781236790758
  0.7461761390961326  0.4708464491934627  0.3545219036268086
  0.3205906983898916  0.8114291824537756  0.4863707100700291
 
  0.00000000E+00  0.00000000E+00  0.00000000E+00
  0.00000000E+00  0.00000000E+00  0.00000000E+00
  0.00000000E+00  0.00000000E+00  0.00000000E+00
  0.00000000E+00  0.00000000E+00  0.00000000E+00
  0.00000000E+00  0.00000000E+00  0.00000000E+00
  0.00000000E+00  0.00000000E+00  0.00000000E+00
  0.00000000E+00  0.00000000E+00  0.00000000E+00
  0.00000000E+00  0.00000000E+00  0.00000000E+00
  0.00000000E+00  0.00000000E+00  0.00000000E+00
  0.00000000E+00  0.00000000E+00  0.00000000E+00
  0.00000000E+00  0.00000000E+00  0.00000000E+00
  0.00000000E+00  0.00000000E+00  0.00000000E+00
  0.00000000E+00  0.00000000E+00  0.00000000E+00
  0.00000000E+00  0.00000000E+00  0.00000000E+00
  0.00000000E+00  0.00000000E+00  0.00000000E+00
  0.00000000E+00  0.00000000E+00  0.00000000E+00
  0.00000000E+00  0.00000000E+00  0.00000000E+00
  0.00000000E+00  0.00000000E+00  0.00000000E+00
  0.00000000E+00  0.00000000E+00  0.00000000E+00
  0.00000000E+00  0.00000000E+00  0.00000000E+00
  0.00000000E+00  0.00000000E+00  0.00000000E+00
  0.00000000E+00  0.00000000E+00  0.00000000E+00
  0.00000000E+00  0.00000000E+00  0.00000000E+00
  0.00000000E+00  0.00000000E+00  0.00000000E+00
  0.00000000E+00  0.00000000E+00  0.00000000E+00
  0.00000000E+00  0.00000000E+00  0.00000000E+00
  0.00000000E+00  0.00000000E+00  0.00000000E+00
  0.00000000E+00  0.00000000E+00  0.00000000E+00
  0.00000000E+00  0.00000000E+00  0.00000000E+00
  0.00000000E+00  0.00000000E+00  0.00000000E+00
  0.00000000E+00  0.00000000E+00  0.00000000E+00
  0.00000000E+00  0.00000000E+00  0.00000000E+00
  0.00000000E+00  0.00000000E+00  0.00000000E+00
  0.00000000E+00  0.00000000E+00  0.00000000E+00
  0.00000000E+00  0.00000000E+00  0.00000000E+00
  0.00000000E+00  0.00000000E+00  0.00000000E+00
  0.00000000E+00  0.00000000E+00  0.00000000E+00
  0.00000000E+00  0.00000000E+00  0.00000000E+00
  0.00000000E+00  0.00000000E+00  0.00000000E+00
  0.00000000E+00  0.00000000E+00  0.00000000E+00
  0.00000000E+00  0.00000000E+00  0.00000000E+00
  0.00000000E+00  0.00000000E+00  0.00000000E+00
  0.00000000E+00  0.00000000E+00  0.00000000E+00
  0.00000000E+00  0.00000000E+00  0.00000000E+00
  0.00000000E+00  0.00000000E+00  0.00000000E+00
  0.00000000E+00  0.00000000E+00  0.00000000E+00
  0.00000000E+00  0.00000000E+00  0.00000000E+00
  0.00000000E+00  0.00000000E+00  0.00000000E+00
  0.00000000E+00  0.00000000E+00  0.00000000E+00
  0.00000000E+00  0.00000000E+00  0.00000000E+00
  0.00000000E+00  0.00000000E+00  0.00000000E+00
  0.00000000E+00  0.00000000E+00  0.00000000E+00
