CONTCAR\(4)                             
   1.00000000000000     
    10.0733995438000008    0.0000000000000000    0.0000000000000000
     0.0000000000000000    9.7955999374000005    0.0000000000000000
     0.0000000000000000    0.0000000000000000   18.6921005248999990
   Ta   Se   O 
    12    18     1
Direct
  0.0877709572857471  0.5588856443320953  0.5012516856062591
  0.2611697347121160  0.3050600045414453  0.5009959352269225
  0.0886710072613261  0.8698431443138850  0.5518230585007354
  0.2554048557503682  0.9939243542810531  0.4506930139718767
  0.4248404056303374  0.5564902331794325  0.5010599240368623
  0.5886153604693839  0.3074219021911830  0.5003361420698781
  0.4225304298137332  0.8686407061220126  0.5516031533474046
  0.5887849871775670  0.9940508894824767  0.4506789675199965
  0.7534329854635318  0.5564655210931683  0.5013508512778754
  0.9161577289100373  0.3049446044245941  0.5011247396694466
  0.7549283989199055  0.8688576497043285  0.5517261200567596
  0.9218699409319371  0.9942570305460783  0.4508367436648081
  0.0888324417143232  0.3715798181145409  0.5950352755693729
  0.2557901402430226  0.4906959678077387  0.4022184811713131
  0.0887805906925310  0.1821010887507117  0.4067371843624116
  0.2554276977900470  0.6801636992121608  0.5953455127218745
  0.2560120420140505  0.0632119129363730  0.5852659529723416
  0.0884196655667427  0.8001788659840682  0.4171896991621934
  0.4230537821539846  0.3736586648139615  0.6011567769984589
  0.5891855545151183  0.4899858140828975  0.4005388420365204
  0.4224894572724290  0.1823215161128779  0.4054878394666032
  0.5887653460631452  0.6799005666327739  0.5964199773824160
  0.5886133541424087  0.0629672103371876  0.5851089447915091
  0.4222482103918149  0.8001058637876319  0.4171080813083270
  0.7541899010369663  0.3733692584498270  0.6013374844016353
  0.9213167498464699  0.4899202219142310  0.4019460716756946
  0.7549267253621879  0.1823874444392442  0.4054527609135570
  0.9219117647559936  0.6801647373292081  0.5956399434688242
  0.9214730280778102  0.0632718233568244  0.5855650298264404
  0.7553471865711850  0.8002414452791033  0.4172326765332742
  0.0888693864637907  0.3694319054469145  0.6853628552883826
 
  0.00000000E+00  0.00000000E+00  0.00000000E+00
  0.00000000E+00  0.00000000E+00  0.00000000E+00
  0.00000000E+00  0.00000000E+00  0.00000000E+00
  0.00000000E+00  0.00000000E+00  0.00000000E+00
  0.00000000E+00  0.00000000E+00  0.00000000E+00
  0.00000000E+00  0.00000000E+00  0.00000000E+00
  0.00000000E+00  0.00000000E+00  0.00000000E+00
  0.00000000E+00  0.00000000E+00  0.00000000E+00
  0.00000000E+00  0.00000000E+00  0.00000000E+00
  0.00000000E+00  0.00000000E+00  0.00000000E+00
  0.00000000E+00  0.00000000E+00  0.00000000E+00
  0.00000000E+00  0.00000000E+00  0.00000000E+00
  0.00000000E+00  0.00000000E+00  0.00000000E+00
  0.00000000E+00  0.00000000E+00  0.00000000E+00
  0.00000000E+00  0.00000000E+00  0.00000000E+00
  0.00000000E+00  0.00000000E+00  0.00000000E+00
  0.00000000E+00  0.00000000E+00  0.00000000E+00
  0.00000000E+00  0.00000000E+00  0.00000000E+00
  0.00000000E+00  0.00000000E+00  0.00000000E+00
  0.00000000E+00  0.00000000E+00  0.00000000E+00
  0.00000000E+00  0.00000000E+00  0.00000000E+00
  0.00000000E+00  0.00000000E+00  0.00000000E+00
  0.00000000E+00  0.00000000E+00  0.00000000E+00
  0.00000000E+00  0.00000000E+00  0.00000000E+00
  0.00000000E+00  0.00000000E+00  0.00000000E+00
  0.00000000E+00  0.00000000E+00  0.00000000E+00
  0.00000000E+00  0.00000000E+00  0.00000000E+00
  0.00000000E+00  0.00000000E+00  0.00000000E+00
  0.00000000E+00  0.00000000E+00  0.00000000E+00
  0.00000000E+00  0.00000000E+00  0.00000000E+00
  0.00000000E+00  0.00000000E+00  0.00000000E+00
