Cu4 Te4 O12                             
   1.00000000000000     
     5.1095910184478992    0.0000000000000000   -0.0993353791884267
     0.0000000000000000    9.3120787724784204    0.0000000000000000
    -4.6183768275616588    0.0000000000000000    6.0294798864247694
   Cu   Te   O 
     4     4    12
Direct
  0.6210150217341170  0.5147746897856803  0.3581932764989129
  0.6210149937341147  0.9852253612143204  0.8581932794989094
  0.3789849452658834  0.4852252592143189  0.6418067285010912
  0.3789849602658811  0.0147747047856781  0.1418067355010883
  0.8523980360399195  0.2073442203256796  0.5947869595619103
  0.1476019659600807  0.7926557416743174  0.4052130854380902
  0.1476019929600794  0.7073442583256826  0.9052130484380904
  0.8523980600399215  0.2926557676743195  0.0947869265619109
  0.4109681886425197  0.1364582209011661  0.3583871683994517
  0.3199697525995583  0.6046289301789177  0.4055907312434384
  0.8498829107841893  0.3485728899194877  0.3509373782673618
  0.6800302424004446  0.1046289491789158  0.0944092717565656
  0.1501170642158122  0.8485728899194876  0.1490626147326339
  0.8498828957841845  0.1514270840805171  0.8509374202673655
  0.5890318233574815  0.6364582209011661  0.1416128546005467
  0.5890318003574831  0.8635417280988332  0.6416128366005452
  0.3199697375995535  0.8953710198210852  0.9055907732434344
  0.6800302464004450  0.3953710448210838  0.5944092337565626
  0.4109681486425164  0.3635417530988317  0.8583871303994556
  0.1501170792158170  0.6514271100805124  0.6490626267326348
 
  0.00000000E+00  0.00000000E+00  0.00000000E+00
  0.00000000E+00  0.00000000E+00  0.00000000E+00
  0.00000000E+00  0.00000000E+00  0.00000000E+00
  0.00000000E+00  0.00000000E+00  0.00000000E+00
  0.00000000E+00  0.00000000E+00  0.00000000E+00
  0.00000000E+00  0.00000000E+00  0.00000000E+00
  0.00000000E+00  0.00000000E+00  0.00000000E+00
  0.00000000E+00  0.00000000E+00  0.00000000E+00
  0.00000000E+00  0.00000000E+00  0.00000000E+00
  0.00000000E+00  0.00000000E+00  0.00000000E+00
  0.00000000E+00  0.00000000E+00  0.00000000E+00
  0.00000000E+00  0.00000000E+00  0.00000000E+00
  0.00000000E+00  0.00000000E+00  0.00000000E+00
  0.00000000E+00  0.00000000E+00  0.00000000E+00
  0.00000000E+00  0.00000000E+00  0.00000000E+00
  0.00000000E+00  0.00000000E+00  0.00000000E+00
  0.00000000E+00  0.00000000E+00  0.00000000E+00
  0.00000000E+00  0.00000000E+00  0.00000000E+00
  0.00000000E+00  0.00000000E+00  0.00000000E+00
  0.00000000E+00  0.00000000E+00  0.00000000E+00
