K-Spacing Value to Generate K-Mesh: 0.030
0
Gamma
   8   4   6
0.0  0.0  0.0
