 Ta2 Pd1 S6                             
   1.00000000000000     
     3.2652323032000758    0.0000000000000000    0.0000000000000000
    -1.6326156555180766    9.1177781829241162    0.0000000000000000
     0.0000000000000000    0.0000000000000000   18.6539739137160012
   Ta   Pd   S 
     2     1     6
Direct
  0.3497077805067180  0.6994224255682802  0.5240608696254291
  0.6502922194663099  0.3005775746787513  0.4759391304128359
 -0.0000000005568657 -0.0000000000889261  0.4999999999133420
  0.7573420006540013  0.5146778914165774  0.5693424356271211
  0.1079927302442558  0.2159823039085679  0.5683654027500469
  0.8920072704796908  0.7840176959393487  0.4316345972153641
  0.2426580006323926  0.4853221089496446  0.4306575641737744
  0.9193182120933265  0.8386407619628286  0.5980484402412558
  0.0806817864801707  0.1613592376649272  0.4019515600408305
 
  0.00000000E+00  0.00000000E+00  0.00000000E+00
  0.00000000E+00  0.00000000E+00  0.00000000E+00
  0.00000000E+00  0.00000000E+00  0.00000000E+00
  0.00000000E+00  0.00000000E+00  0.00000000E+00
  0.00000000E+00  0.00000000E+00  0.00000000E+00
  0.00000000E+00  0.00000000E+00  0.00000000E+00
  0.00000000E+00  0.00000000E+00  0.00000000E+00
  0.00000000E+00  0.00000000E+00  0.00000000E+00
  0.00000000E+00  0.00000000E+00  0.00000000E+00
