CONTCAR\(7)                             
   1.00000000000000     
    11.3503999709999999    0.0000000000000000    0.0000000000000000
    -5.6751999854999999    9.8297347179999992    0.0000000000000000
     0.0000000000000000    0.0000000000000000   18.1851005553999983
   Zr   Se   O    H 
     9    18     1     1
Direct
  0.9988950447977711  0.0007891427252543  0.4917064196894004
  0.3321002505157332  0.0004164565777266  0.4949457951114343
  0.6653682325326185  0.0007903269838303  0.4959111451250715
 -0.0011014482962768  0.3343385408870707  0.4963565753108251
  0.3324172021994666  0.3338762365708342  0.4952654982230842
  0.6654797258270242  0.3335408966221483  0.4951132055253433
 -0.0009686105862982  0.6672535149039132  0.4945824311271845
  0.3322572048007885  0.6682130705709748  0.5472150489390888
  0.6659820776074307  0.6670312452042817  0.4945635230886960
  0.2171414657335750  0.1100217358679874  0.5824023969284188
  0.1109700351176956  0.2254313430288881  0.4060202396225585
  0.5554677309378367  0.1146221347401623  0.5835098612394144
  0.4420370900790307  0.2224163517128253  0.4071344771253964
  0.8899522965413500  0.1095621522326920  0.5828465928984298
  0.7777343277100053  0.2219618988522118  0.4078730287629553
  0.2016134763438491  0.4037146280262268  0.5922315780850145
  0.1326476432452698  0.5669794494690864  0.4249347779777543
  0.5564290526148420  0.4435178944298452  0.5832200725991498
  0.4306019037711376  0.5688471830598422  0.4258388306754960
  0.8844962213345182  0.4442175624698962  0.5834241133274015
  0.7769219428852703  0.5566343359307844  0.4068488966835072
  0.1983499019727609  0.8002050962007426  0.5907695390494456
  0.1108565613549514  0.8890864724441779  0.4051520638534906
  0.5973759835783982  0.7983189966058619  0.5915949260773816
  0.4321862226299280  0.8666732523157911  0.4250629491642516
  0.8896441554806588  0.7824296224527854  0.5821476596380841
  0.7747360685657123  0.8889565037039298  0.4057098023086902
  0.3305977673703306  0.6736043206647210  0.6560413496994834
  0.3727007903346534  0.6461399867455668  0.6937369531435315
 
  0.00000000E+00  0.00000000E+00  0.00000000E+00
  0.00000000E+00  0.00000000E+00  0.00000000E+00
  0.00000000E+00  0.00000000E+00  0.00000000E+00
  0.00000000E+00  0.00000000E+00  0.00000000E+00
  0.00000000E+00  0.00000000E+00  0.00000000E+00
  0.00000000E+00  0.00000000E+00  0.00000000E+00
  0.00000000E+00  0.00000000E+00  0.00000000E+00
  0.00000000E+00  0.00000000E+00  0.00000000E+00
  0.00000000E+00  0.00000000E+00  0.00000000E+00
  0.00000000E+00  0.00000000E+00  0.00000000E+00
  0.00000000E+00  0.00000000E+00  0.00000000E+00
  0.00000000E+00  0.00000000E+00  0.00000000E+00
  0.00000000E+00  0.00000000E+00  0.00000000E+00
  0.00000000E+00  0.00000000E+00  0.00000000E+00
  0.00000000E+00  0.00000000E+00  0.00000000E+00
  0.00000000E+00  0.00000000E+00  0.00000000E+00
  0.00000000E+00  0.00000000E+00  0.00000000E+00
  0.00000000E+00  0.00000000E+00  0.00000000E+00
  0.00000000E+00  0.00000000E+00  0.00000000E+00
  0.00000000E+00  0.00000000E+00  0.00000000E+00
  0.00000000E+00  0.00000000E+00  0.00000000E+00
  0.00000000E+00  0.00000000E+00  0.00000000E+00
  0.00000000E+00  0.00000000E+00  0.00000000E+00
  0.00000000E+00  0.00000000E+00  0.00000000E+00
  0.00000000E+00  0.00000000E+00  0.00000000E+00
  0.00000000E+00  0.00000000E+00  0.00000000E+00
  0.00000000E+00  0.00000000E+00  0.00000000E+00
  0.00000000E+00  0.00000000E+00  0.00000000E+00
  0.00000000E+00  0.00000000E+00  0.00000000E+00
