CONTCAR\(6)                             
   1.00000000000000     
    13.7857999802000002    0.0000000000000000    0.0000000000000000
    -6.8928999901000001   11.9388529942999995    0.0000000000000000
     0.0000000000000000    0.0000000000000000   18.1305007935000013
   Ru   Se   H 
    16    32     1
Direct
  0.1790983706671493  0.0832647205119443  0.4927905564831612
  0.4040674754213049  0.0833335901349124  0.4927068187058509
  0.6734588866201114  0.0620954306508354  0.4994548461358844
  0.8883385859768783  0.0618240852647050  0.4995729310651439
  0.1602258546409011  0.3563510335211316  0.5014273549871623
  0.3929225647803912  0.2860103007998529  0.4765538246778098
  0.6958277832773687  0.3564740926162318  0.5013943224091051
  0.9296134642116962  0.3584506468228991  0.5024302852009058
  0.1769193680284236  0.5765982493313522  0.5030811499355995
  0.3842564582053841  0.5604149025419244  0.5101313289900298
  0.6755233642956610  0.5604720868234302  0.5103018044566087
  0.8989800085281699  0.5766885016290082  0.5032103158568053
  0.1857411649828186  0.8717914029527722  0.4979721334515241
  0.4490250390146064  0.8484131848452451  0.5001179139963036
  0.6686529085502650  0.8378297593935902  0.5046814421259843
  0.8991023513718152  0.8482820459581137  0.5002811402612557
  0.0133299393408489  0.0183979570886634  0.5774521862048475
  0.0037744037922130  0.0115053452330627  0.4162285806035714
  0.2592763988181797  0.0186338299214456  0.5905656448196872
  0.2542458219448829  0.0086723935102107  0.3981644832704178
  0.5049757908951356  0.0185953206921016  0.5772857948394208
  0.5076839076428256  0.0117287335664466  0.4160718548022962
  0.7456366776620194 -0.0081640204087690  0.5965347619732833
  0.7413935353504854 -0.0169354330380697  0.4058784302202280
 -0.0111437645276674  0.2420528816638244  0.5778977233229562
 -0.0117439432361288  0.2447316659710877  0.4244929248493449
  0.2450507726529263  0.2562167809903483  0.5695298838186305
  0.2230408498788848  0.2478880496819773  0.4124982759627251
  0.5109809883048522  0.2561972789477951  0.5695680547891023
  0.5249762637520353  0.2480647390432363  0.4124215980371188
  0.7535014130958219  0.2424554293309850  0.5776861488177071
  0.7570255912463012  0.2452661508183406  0.4244486334265076
  0.0142355204495125  0.5290331561937619  0.5856693270824820
  0.0136424410552985  0.5281985331752673  0.4195798988940452
  0.2377856545723014  0.4960896882198392  0.6027707146318039
  0.2533838437725109  0.5032728321258040  0.4072181785689790
  0.5023356444872614  0.5055702552794006  0.5906225956096804
  0.4874905951975988  0.4754280691179732  0.4353582846698318
  0.7575345496260490  0.4957263331906741  0.6029425318246162
  0.7492250385112698  0.5034750884259452  0.4072519604420676
  0.0004967856526222  0.7652986275157975  0.5723007372975623
 -0.0032432836521319  0.7612266269159446  0.4286526865336603
  0.2645479055374746  0.7653625634056869  0.5720967895172514
  0.2641417559970040  0.7613096571629117  0.4285887817360891
  0.4960887188157337  0.7371453247416099  0.5843010047766216
  0.4969686841540396  0.7252443481769233  0.4260574086124702
  0.7406342600562326  0.7372477167869279  0.5843816897970779
  0.7279337651207327  0.7253226195368350  0.4261677337902181
  0.5478199124598908  0.5975975222180603  0.6491360567185877
 
  0.00000000E+00  0.00000000E+00  0.00000000E+00
  0.00000000E+00  0.00000000E+00  0.00000000E+00
  0.00000000E+00  0.00000000E+00  0.00000000E+00
  0.00000000E+00  0.00000000E+00  0.00000000E+00
  0.00000000E+00  0.00000000E+00  0.00000000E+00
  0.00000000E+00  0.00000000E+00  0.00000000E+00
  0.00000000E+00  0.00000000E+00  0.00000000E+00
  0.00000000E+00  0.00000000E+00  0.00000000E+00
  0.00000000E+00  0.00000000E+00  0.00000000E+00
  0.00000000E+00  0.00000000E+00  0.00000000E+00
  0.00000000E+00  0.00000000E+00  0.00000000E+00
  0.00000000E+00  0.00000000E+00  0.00000000E+00
  0.00000000E+00  0.00000000E+00  0.00000000E+00
  0.00000000E+00  0.00000000E+00  0.00000000E+00
  0.00000000E+00  0.00000000E+00  0.00000000E+00
  0.00000000E+00  0.00000000E+00  0.00000000E+00
  0.00000000E+00  0.00000000E+00  0.00000000E+00
  0.00000000E+00  0.00000000E+00  0.00000000E+00
  0.00000000E+00  0.00000000E+00  0.00000000E+00
  0.00000000E+00  0.00000000E+00  0.00000000E+00
  0.00000000E+00  0.00000000E+00  0.00000000E+00
  0.00000000E+00  0.00000000E+00  0.00000000E+00
  0.00000000E+00  0.00000000E+00  0.00000000E+00
  0.00000000E+00  0.00000000E+00  0.00000000E+00
  0.00000000E+00  0.00000000E+00  0.00000000E+00
  0.00000000E+00  0.00000000E+00  0.00000000E+00
  0.00000000E+00  0.00000000E+00  0.00000000E+00
  0.00000000E+00  0.00000000E+00  0.00000000E+00
  0.00000000E+00  0.00000000E+00  0.00000000E+00
  0.00000000E+00  0.00000000E+00  0.00000000E+00
  0.00000000E+00  0.00000000E+00  0.00000000E+00
  0.00000000E+00  0.00000000E+00  0.00000000E+00
  0.00000000E+00  0.00000000E+00  0.00000000E+00
  0.00000000E+00  0.00000000E+00  0.00000000E+00
  0.00000000E+00  0.00000000E+00  0.00000000E+00
  0.00000000E+00  0.00000000E+00  0.00000000E+00
  0.00000000E+00  0.00000000E+00  0.00000000E+00
  0.00000000E+00  0.00000000E+00  0.00000000E+00
  0.00000000E+00  0.00000000E+00  0.00000000E+00
  0.00000000E+00  0.00000000E+00  0.00000000E+00
  0.00000000E+00  0.00000000E+00  0.00000000E+00
  0.00000000E+00  0.00000000E+00  0.00000000E+00
  0.00000000E+00  0.00000000E+00  0.00000000E+00
  0.00000000E+00  0.00000000E+00  0.00000000E+00
  0.00000000E+00  0.00000000E+00  0.00000000E+00
  0.00000000E+00  0.00000000E+00  0.00000000E+00
  0.00000000E+00  0.00000000E+00  0.00000000E+00
  0.00000000E+00  0.00000000E+00  0.00000000E+00
  0.00000000E+00  0.00000000E+00  0.00000000E+00
