 Ta2 Ni4 Te4                            
   1.00000000000000     
     3.5078787654513910    0.0000000000000000    0.0000000000000000
     0.0000000000000000    6.4370268852593373    0.0000000000000000
     0.0000000000000000    0.0000000000000000   20.5195986865860043
   Ta   Ni   Te
     2     4     4
Direct
 -0.0000000075391522  0.4065012022857932  0.4784281525495832
  0.0000000075868325  0.9065019276966227  0.5215700002527071
  0.5000000077574751  0.2109711345013927  0.5558805935395655
  0.4999999916519184  0.7109588806364937  0.4441298976178448
  0.5000000070719528  0.6022906286400522  0.5558582805216650
  0.4999999938116751  0.1022943564025682  0.4441501497614397
  0.5000000014382826  0.9066905552848833  0.6337206192205610
  0.4999999991313583  0.4066893161871710  0.3662727774819930
  0.0000000026666909  0.9067962241263315  0.3772876009219364
 -0.0000000035770339  0.4068197742386895  0.6227019281327045
 
  0.00000000E+00  0.00000000E+00  0.00000000E+00
  0.00000000E+00  0.00000000E+00  0.00000000E+00
  0.00000000E+00  0.00000000E+00  0.00000000E+00
  0.00000000E+00  0.00000000E+00  0.00000000E+00
  0.00000000E+00  0.00000000E+00  0.00000000E+00
  0.00000000E+00  0.00000000E+00  0.00000000E+00
  0.00000000E+00  0.00000000E+00  0.00000000E+00
  0.00000000E+00  0.00000000E+00  0.00000000E+00
  0.00000000E+00  0.00000000E+00  0.00000000E+00
  0.00000000E+00  0.00000000E+00  0.00000000E+00
