La4 I10                                 
   1.00000000000000     
     8.7079944966642273    0.0000000000000000    0.2461245705555590
     0.0000000000000000    4.4253159301170033    0.0000000000000000
    -0.3720795842376616    0.0000000000000000   14.5908376423274042
   La   I 
     4    10
Direct
  0.9079043216878340  0.2500000000000000  0.8447216529443889
  0.0920956873121632  0.7499999730000013  0.1552783700556093
  0.4181321318496442  0.2500000000000000  0.3421545980206999
  0.5818678361503531  0.7499999730000013  0.6578454089792972
  0.3407753816363207  0.2500000000000000  0.7248708651126281
  0.6592245323636794  0.7499999730000013  0.2751291098873660
  0.8505499980976365  0.2500000000000000  0.0726969354438889
  0.1494500049023673  0.7499999730000013  0.9273030245561150
  0.3035270948436236  0.7499999730000013  0.4924351690037527
  0.6964728681563769  0.2500000000000000  0.5075647739962461
  0.9532717769611968  0.7499999730000013  0.6815488181733799
  0.0467282720388037  0.2500000000000000  0.3184511248266190
  0.6377656869322781  0.7499999730000013  0.8815984469831499
  0.3622343250677228  0.2500000000000000  0.1184014800168476
 
  0.00000000E+00  0.00000000E+00  0.00000000E+00
  0.00000000E+00  0.00000000E+00  0.00000000E+00
  0.00000000E+00  0.00000000E+00  0.00000000E+00
  0.00000000E+00  0.00000000E+00  0.00000000E+00
  0.00000000E+00  0.00000000E+00  0.00000000E+00
  0.00000000E+00  0.00000000E+00  0.00000000E+00
  0.00000000E+00  0.00000000E+00  0.00000000E+00
  0.00000000E+00  0.00000000E+00  0.00000000E+00
  0.00000000E+00  0.00000000E+00  0.00000000E+00
  0.00000000E+00  0.00000000E+00  0.00000000E+00
  0.00000000E+00  0.00000000E+00  0.00000000E+00
  0.00000000E+00  0.00000000E+00  0.00000000E+00
  0.00000000E+00  0.00000000E+00  0.00000000E+00
  0.00000000E+00  0.00000000E+00  0.00000000E+00
