CONTCAR\(2)                             
   1.00000000000000     
    14.0806999207000008    0.0000000000000000    0.0000000000000000
     0.0000000000000000   14.0806999207000008    0.0000000000000000
     0.0000000000000000    0.0000000000000000   21.7063999175999989
   Zr   Si   Se   H 
    32    32    32     1
Direct
  0.1246635391969662  0.0002961808534346  0.5998063384876411
  0.0000277980356240  0.1250277980356241  0.4003891037854235
  0.3748915637760403  0.0001994327859406  0.6000121100231485
  0.2500559081744708  0.1250351786499871  0.4005762294729251
  0.6251060928831084  0.0002087779697918  0.6000099488163221
  0.5000171012184688  0.1250189988750856  0.4007856649344759
  0.8753122718958514  0.0003123058958543  0.5997827349349353
  0.7499192300660869  0.1250392773718076  0.4005550340524791
  0.1246818260657006  0.2496818260657007  0.5998260231148703
  0.0000351786499871  0.3750559081744707  0.4005762294729251
  0.3748786635694918  0.2497701857856126  0.6000359099166919
  0.2499932181169679  0.3749932181169678  0.4007842166210765
  0.6251170112904244  0.2497612485872097  0.6000357028154060
  0.5000016593452947  0.3751089512351127  0.4010384763032434
  0.8752961468534320  0.2496635391969663  0.5998063384876411
  0.7499605462989818  0.3749916311264666  0.4007668147598084
  0.1247701857856128  0.4998786635694920  0.6000359099166919
  0.0000189988750856  0.6250171352184715  0.4007856649344759
  0.3720079828299102  0.4970079828299102  0.5996381389102697
  0.2501089512351127  0.6250016933452976  0.4010384763032434
  0.6279971168936906  0.4970252212276022  0.5996324978169209
  0.4999842403702403  0.6249842743702432  0.4018555057597760
  0.8751993987859376  0.4998915637760401  0.6000121100231485
  0.7498820546535931  0.6250025069174384  0.4010219243333530
  0.1247612485872097  0.7501169772904216  0.6000357028154060
  0.0000392773718076  0.8749191960660840  0.4005550340524791
  0.3720252212276022  0.7529970828936878  0.5996324978169209
  0.2499916311264665  0.8749605122989790  0.4007668147598084
  0.6279773784894134  0.7529773444894106  0.5996284330798161
  0.5000024729174355  0.8748820206535903  0.4010219243333530
  0.8752087439697892  0.7501060588831056  0.6000099488163221
  0.7499683241709671  0.8749682901709643  0.4007546044447362
 -0.0000039070214100  0.0000271127216282  0.4999780986443589
  0.1249771173600396  0.1249948311588438  0.4999959682339246
  0.2497527268580214  0.0002884349814627  0.5003312215757882
  0.3749980773268559  0.1250018358549518  0.5003418678809194
  0.4999955260402958  0.0001219052456070  0.5005036834239011
  0.6250112140178291  0.1250095974965647  0.5003753987335589
  0.7502505394453918  0.0003037286004874  0.5003115105007995
  0.8750270787216254  0.1249960929785900  0.4999780986443589
 -0.0000051688411562  0.2499771173600397  0.4999959682339246
  0.1246972884572760  0.3747141287625219  0.5003686287437010
  0.2497141287625220  0.2496972884572760  0.5003686287437010
  0.3748155993976856  0.3745436125709533  0.5004035565303859
  0.5000023353921702  0.2498822174741896  0.5005255071191850
  0.6252011271744614  0.3744900806005285  0.5004147665116496
  0.7502913874842603  0.2496879759931700  0.5003491329647506
  0.8752884009814595  0.3747527268580214  0.5003312215757882
  0.0000018358549517  0.4999980773268560  0.5003418678809194
  0.1248822174741898  0.6250023693921728  0.5005255071191850
  0.2495436125709533  0.4998155993976852  0.5004035565303859
  0.3748362496576921  0.6250128023146441  0.5012632475942327
  0.5000127683146411  0.4998362496576921  0.5012632475942327
  0.6251545321765966  0.6250136104485919  0.5012687908372807
  0.7504359444137290  0.4998088047865785  0.5003705682402875
  0.8751218712456041  0.6249955600402987  0.5005036834239011
  0.0000095974965647  0.7500111800178263  0.5003753987335589
  0.1246879759931700  0.8752913534842575  0.5003491329647506
  0.2494900806005285  0.7502010931744586  0.5004147665116496
  0.3748088047865784  0.8754359104137261  0.5003705682402875
  0.5000135764485890  0.7501544981765937  0.5012687908372807
  0.6251968776661352  0.8754858592952661  0.5003896896115013
  0.7504858932952689  0.7501968436661324  0.5003896896115013
  0.8753036946004846  0.8752505054453890  0.5003115105007995
 -0.0000021703044324  0.1249978296955676  0.6544517572362546
  0.1251126374331304 -0.0000545180876351  0.3461865707507727
  0.2498611439550959  0.1249419727764721  0.6544918483873829
  0.3751544501426713 -0.0000973449468800  0.3464779134594675
  0.5000083819381205  0.1249849779055030  0.6545294213798840
  0.6248210954844139 -0.0000886188502145  0.3463903053207951
  0.7501622963121385  0.1249380235294463  0.6545081034375578
  0.8749278363995975 -0.0000721296004001  0.3462729079415136
 -0.0000580272235279  0.3748611439550958  0.6544918483873829
  0.1250892003881875  0.2500892003881877  0.3460678213873420
  0.2489384472614205  0.3739384472614205  0.6548914493332032
  0.3752067853189380  0.2501219736460146  0.3464210558880818
  0.5000048651947370  0.3755564409951848  0.6552329106031789
  0.6247810619445735  0.2501333520081735  0.3463170384320521
  0.7510145167315603  0.3739272559661856  0.6548540724121000
  0.8749454479123623  0.2501126374331306  0.3461865707507727
 -0.0000150220944970  0.6250084159381230  0.6545294213798840
  0.1251219736460146  0.5002067853189380  0.3464210558880818
  0.2505564409951848  0.6250048991947397  0.6552329106031789
  0.3751830712589336  0.5001830712589337  0.3468480372489094
  0.4999784669328420  0.6249785009328449  0.6501449613410250
  0.6247835511984028  0.5002266030645842  0.3468104691748827
  0.7495010015641420  0.6249999569254597  0.6552556748823591
  0.8749026210531170  0.5001544501426712  0.3464779134594675
 -0.0000619764705537  0.8751622623121357  0.6545081034375578
  0.1251333520081736  0.7497810279445707  0.3463170384320521
  0.2489272559661856  0.8760144827315575  0.6548540724121000
  0.3752266030645842  0.7497835171984000  0.3468104691748827
  0.4999999229254571  0.8745009675641392  0.6552556748823591
  0.6247290896307672  0.7497290556307644  0.3467728268063882
  0.7510231448025398  0.8760231108025370  0.6548018526773608
  0.8749113471497826  0.7498210614844111  0.3463903053207951
  0.4999611986001616  0.6249211706001606  0.7189319193628675
 
  0.00000000E+00  0.00000000E+00  0.00000000E+00
  0.00000000E+00  0.00000000E+00  0.00000000E+00
  0.00000000E+00  0.00000000E+00  0.00000000E+00
  0.00000000E+00  0.00000000E+00  0.00000000E+00
  0.00000000E+00  0.00000000E+00  0.00000000E+00
  0.00000000E+00  0.00000000E+00  0.00000000E+00
  0.00000000E+00  0.00000000E+00  0.00000000E+00
  0.00000000E+00  0.00000000E+00  0.00000000E+00
  0.00000000E+00  0.00000000E+00  0.00000000E+00
  0.00000000E+00  0.00000000E+00  0.00000000E+00
  0.00000000E+00  0.00000000E+00  0.00000000E+00
  0.00000000E+00  0.00000000E+00  0.00000000E+00
  0.00000000E+00  0.00000000E+00  0.00000000E+00
  0.00000000E+00  0.00000000E+00  0.00000000E+00
  0.00000000E+00  0.00000000E+00  0.00000000E+00
  0.00000000E+00  0.00000000E+00  0.00000000E+00
  0.00000000E+00  0.00000000E+00  0.00000000E+00
  0.00000000E+00  0.00000000E+00  0.00000000E+00
  0.00000000E+00  0.00000000E+00  0.00000000E+00
  0.00000000E+00  0.00000000E+00  0.00000000E+00
  0.00000000E+00  0.00000000E+00  0.00000000E+00
  0.00000000E+00  0.00000000E+00  0.00000000E+00
  0.00000000E+00  0.00000000E+00  0.00000000E+00
  0.00000000E+00  0.00000000E+00  0.00000000E+00
  0.00000000E+00  0.00000000E+00  0.00000000E+00
  0.00000000E+00  0.00000000E+00  0.00000000E+00
  0.00000000E+00  0.00000000E+00  0.00000000E+00
  0.00000000E+00  0.00000000E+00  0.00000000E+00
  0.00000000E+00  0.00000000E+00  0.00000000E+00
  0.00000000E+00  0.00000000E+00  0.00000000E+00
  0.00000000E+00  0.00000000E+00  0.00000000E+00
  0.00000000E+00  0.00000000E+00  0.00000000E+00
  0.00000000E+00  0.00000000E+00  0.00000000E+00
  0.00000000E+00  0.00000000E+00  0.00000000E+00
  0.00000000E+00  0.00000000E+00  0.00000000E+00
  0.00000000E+00  0.00000000E+00  0.00000000E+00
  0.00000000E+00  0.00000000E+00  0.00000000E+00
  0.00000000E+00  0.00000000E+00  0.00000000E+00
  0.00000000E+00  0.00000000E+00  0.00000000E+00
  0.00000000E+00  0.00000000E+00  0.00000000E+00
  0.00000000E+00  0.00000000E+00  0.00000000E+00
  0.00000000E+00  0.00000000E+00  0.00000000E+00
  0.00000000E+00  0.00000000E+00  0.00000000E+00
  0.00000000E+00  0.00000000E+00  0.00000000E+00
  0.00000000E+00  0.00000000E+00  0.00000000E+00
  0.00000000E+00  0.00000000E+00  0.00000000E+00
  0.00000000E+00  0.00000000E+00  0.00000000E+00
  0.00000000E+00  0.00000000E+00  0.00000000E+00
  0.00000000E+00  0.00000000E+00  0.00000000E+00
  0.00000000E+00  0.00000000E+00  0.00000000E+00
  0.00000000E+00  0.00000000E+00  0.00000000E+00
  0.00000000E+00  0.00000000E+00  0.00000000E+00
  0.00000000E+00  0.00000000E+00  0.00000000E+00
  0.00000000E+00  0.00000000E+00  0.00000000E+00
  0.00000000E+00  0.00000000E+00  0.00000000E+00
  0.00000000E+00  0.00000000E+00  0.00000000E+00
  0.00000000E+00  0.00000000E+00  0.00000000E+00
  0.00000000E+00  0.00000000E+00  0.00000000E+00
  0.00000000E+00  0.00000000E+00  0.00000000E+00
  0.00000000E+00  0.00000000E+00  0.00000000E+00
  0.00000000E+00  0.00000000E+00  0.00000000E+00
  0.00000000E+00  0.00000000E+00  0.00000000E+00
  0.00000000E+00  0.00000000E+00  0.00000000E+00
  0.00000000E+00  0.00000000E+00  0.00000000E+00
  0.00000000E+00  0.00000000E+00  0.00000000E+00
  0.00000000E+00  0.00000000E+00  0.00000000E+00
  0.00000000E+00  0.00000000E+00  0.00000000E+00
  0.00000000E+00  0.00000000E+00  0.00000000E+00
  0.00000000E+00  0.00000000E+00  0.00000000E+00
  0.00000000E+00  0.00000000E+00  0.00000000E+00
  0.00000000E+00  0.00000000E+00  0.00000000E+00
  0.00000000E+00  0.00000000E+00  0.00000000E+00
  0.00000000E+00  0.00000000E+00  0.00000000E+00
  0.00000000E+00  0.00000000E+00  0.00000000E+00
  0.00000000E+00  0.00000000E+00  0.00000000E+00
  0.00000000E+00  0.00000000E+00  0.00000000E+00
  0.00000000E+00  0.00000000E+00  0.00000000E+00
  0.00000000E+00  0.00000000E+00  0.00000000E+00
  0.00000000E+00  0.00000000E+00  0.00000000E+00
  0.00000000E+00  0.00000000E+00  0.00000000E+00
  0.00000000E+00  0.00000000E+00  0.00000000E+00
  0.00000000E+00  0.00000000E+00  0.00000000E+00
  0.00000000E+00  0.00000000E+00  0.00000000E+00
  0.00000000E+00  0.00000000E+00  0.00000000E+00
  0.00000000E+00  0.00000000E+00  0.00000000E+00
  0.00000000E+00  0.00000000E+00  0.00000000E+00
  0.00000000E+00  0.00000000E+00  0.00000000E+00
  0.00000000E+00  0.00000000E+00  0.00000000E+00
  0.00000000E+00  0.00000000E+00  0.00000000E+00
  0.00000000E+00  0.00000000E+00  0.00000000E+00
  0.00000000E+00  0.00000000E+00  0.00000000E+00
  0.00000000E+00  0.00000000E+00  0.00000000E+00
  0.00000000E+00  0.00000000E+00  0.00000000E+00
  0.00000000E+00  0.00000000E+00  0.00000000E+00
  0.00000000E+00  0.00000000E+00  0.00000000E+00
  0.00000000E+00  0.00000000E+00  0.00000000E+00
  0.00000000E+00  0.00000000E+00  0.00000000E+00
