 Ti1 Cl2                                
   1.00000000000000     
     3.2682618432707162    0.0000000000000000    0.0000000000000000
    -1.6341309216353581    2.8303971015419673    0.0000000000000000
     0.0000000000000000    0.0000000000000000   17.9954279671580011
   Ti   Cl
     1     2
Direct
  0.0000000046190891  0.0000000050911453  0.5000000000481251
  0.6666665802678011  0.3333332807137737  0.5888806644037388
  0.3333334151131169  0.6666667141950811  0.4111193355481362
 
  0.00000000E+00  0.00000000E+00  0.00000000E+00
  0.00000000E+00  0.00000000E+00  0.00000000E+00
  0.00000000E+00  0.00000000E+00  0.00000000E+00
