CONTCAR                                 
   1.00000000000000     
     6.8951001167000001    0.0000000000000000    0.0000000000000000
     3.4475500584000001    5.9713318626999996    0.0000000000000000
     0.0000000000000000    0.0000000000000000   18.3700008391999994
   Nb   Se   O    H 
     4     8     8     4
Direct
  0.2336169660799061  0.1253063314574703  0.4926903560931569
  0.7160231110862624  0.1024393395181790  0.4904636413741998
  0.2154311969791383  0.5997758368882086  0.4912563442481523
  0.7387263756877634  0.6221952580863216  0.4924366146324469
  0.3917975396985655  0.2816035016347681  0.5843652384837125
  0.3904675206437558  0.2763874712388929  0.3944455752832687
  0.8910601390409407  0.2778691556389817  0.5807878951668911
  0.8903520871427751  0.2780556621686837  0.4104411426077215
  0.3930219572039582  0.7765379367318346  0.5798780933101089
  0.3893445277184360  0.7784399106286926  0.4125707355200550
  0.8912626831751671  0.7833225986746186  0.5842081462676045
  0.8928220504325379  0.7781382630416569  0.3940230130480921
  0.3092525620473978  0.3033770903570379  0.7100788845147626
  0.2585023997624677  0.5058465338179540  0.7414162163895375
  0.9033785390511224  0.2960721503662933  0.3047553846260109
  0.7685008805924624  0.2229360850433401  0.2690625422296450
  0.3665418974813142  0.8235891879622621  0.3076747408828166
  0.3639739813797260  0.6438045354564874  0.2693536043882699
  0.8092419455869386  0.8027547309613293  0.7101957846623514
  0.7571932332656650  0.0047975632004808  0.7421391029189498
  0.6231220120814792  0.3651945042751983  0.2642703160569133
  0.0918984898855320  0.6075801028900174  0.7322113580563159
  0.2040959637170372  0.6879813259683818  0.2699565398357221
  0.5905115412596544  0.1065054249929063  0.7329190114032801
 
  0.00000000E+00  0.00000000E+00  0.00000000E+00
  0.00000000E+00  0.00000000E+00  0.00000000E+00
  0.00000000E+00  0.00000000E+00  0.00000000E+00
  0.00000000E+00  0.00000000E+00  0.00000000E+00
  0.00000000E+00  0.00000000E+00  0.00000000E+00
  0.00000000E+00  0.00000000E+00  0.00000000E+00
  0.00000000E+00  0.00000000E+00  0.00000000E+00
  0.00000000E+00  0.00000000E+00  0.00000000E+00
  0.00000000E+00  0.00000000E+00  0.00000000E+00
  0.00000000E+00  0.00000000E+00  0.00000000E+00
  0.00000000E+00  0.00000000E+00  0.00000000E+00
  0.00000000E+00  0.00000000E+00  0.00000000E+00
  0.00000000E+00  0.00000000E+00  0.00000000E+00
  0.00000000E+00  0.00000000E+00  0.00000000E+00
  0.00000000E+00  0.00000000E+00  0.00000000E+00
  0.00000000E+00  0.00000000E+00  0.00000000E+00
  0.00000000E+00  0.00000000E+00  0.00000000E+00
  0.00000000E+00  0.00000000E+00  0.00000000E+00
  0.00000000E+00  0.00000000E+00  0.00000000E+00
  0.00000000E+00  0.00000000E+00  0.00000000E+00
  0.00000000E+00  0.00000000E+00  0.00000000E+00
  0.00000000E+00  0.00000000E+00  0.00000000E+00
  0.00000000E+00  0.00000000E+00  0.00000000E+00
  0.00000000E+00  0.00000000E+00  0.00000000E+00
