CONTCAR\(7)                             
   1.00000000000000     
    11.3970003127999995    0.0000000000000000    0.0000000000000000
    -5.6736486034000002    9.8767870360999996    0.0000000000000000
     0.0000000000000000    0.0000000000000000   16.9332008362000010
   Mn   Cu   O 
    12     4    33
Direct
  0.9996413962742698  0.2499518789371894  0.5062745318042687
  0.2418099215311485 -0.0035899069969679  0.5004418422252330
  0.9970969640403600 -0.0031304140802336  0.5054255252618545
  0.4971945960390426  0.2447030948946076  0.4999628739836771
  0.7519739457874772 -0.0028239896171802  0.5058877460177009
  0.5045037620160396  0.9964756795059793  0.5004105926107543
  0.0019899633643267  0.7444873570163238  0.5039165771423166
  0.2525511673714332  0.5053055684309342  0.5080528437844158
  0.0040644782298729  0.5059535486078125  0.5069666840873591
  0.4953018189321289  0.7456571294716201  0.5051558378862890
  0.7477782382857459  0.4950990907075054  0.4980733107889536
  0.4980683644835423  0.4958587526337115  0.4997336568748704
  0.2476096742569099  0.2482383433332997  0.5025113516564024
  0.7498763985387754  0.2479317260703038  0.5039731907626088
  0.2504483110521151  0.7466744419260456  0.4100675767166371
  0.7484977528663026  0.7461926008155341  0.5023562589993444
  0.0832264864190216  0.4208493615866041  0.5633432231089603
  0.3369698552309372  0.4224437385650762  0.5602100066650514
  0.0776410948599390  0.1608858681110689  0.5620878109255218
  0.4097291815041198  0.0710565711498843  0.4446956797869904
  0.3312214967374534  0.1600177043611598  0.5575032293569721
  0.1589200020926816  0.0713973799717206  0.4439126292622635
  0.4180769317271767  0.3313003353641820  0.4431892183802007
  0.1631994230474647  0.3351942646959373  0.4495900308702810
  0.5815700613592271  0.4122218810307596  0.5573503669749748
  0.8359676001828575  0.4225599221825799  0.5587191065083795
  0.5749302213766591  0.1593994254576051  0.5584485034916247
  0.9173462985240369  0.0828753865925036  0.4472854440256214
  0.8352493326163334  0.1626928933628944  0.5627210404328968
  0.6653314756700379  0.0746566513796173  0.4461840287263923
  0.9230202008090033  0.3367079948446270  0.4498899587366659
  0.6626198528271000  0.3299504838687104  0.4431860195196214
  0.0816594484719671  0.9104632591446830  0.5613381534190451
  0.3374825990573755  0.9252317907491785  0.5688025140711003
  0.0598127854420499  0.6551509618450234  0.5644907731493436
  0.4124474484912741  0.5820135726379242  0.4439845980327223
  0.3421067388224081  0.6600853335730594  0.5627606277645817
  0.1548797744339641  0.5665767568689246  0.4438623992392280
  0.4323029511882912  0.8373314876034408  0.4400975871659953
  0.1538110482758309  0.8315976472263987  0.4417235666182552
  0.5811018884502557  0.9140107616860967  0.5622252346526075
  0.8370051604355349  0.9218487819371213  0.5641271468497138
  0.5777472413477286  0.6601735375041586  0.5582600480064480
  0.9179984138209304  0.5823155512697946  0.4432612794830909
  0.8331780011659677  0.6617373975779757  0.5566464874069874
  0.6603046295247319  0.5717950063357711  0.4416779947220622
  0.9203539362893802  0.8330890326410888  0.4482220203702233
  0.6661132339122495  0.8332496971800250  0.4483182510881802
  0.3183383278165180  0.8871149750379340  0.6411746785852718
 
  0.00000000E+00  0.00000000E+00  0.00000000E+00
  0.00000000E+00  0.00000000E+00  0.00000000E+00
  0.00000000E+00  0.00000000E+00  0.00000000E+00
  0.00000000E+00  0.00000000E+00  0.00000000E+00
  0.00000000E+00  0.00000000E+00  0.00000000E+00
  0.00000000E+00  0.00000000E+00  0.00000000E+00
  0.00000000E+00  0.00000000E+00  0.00000000E+00
  0.00000000E+00  0.00000000E+00  0.00000000E+00
  0.00000000E+00  0.00000000E+00  0.00000000E+00
  0.00000000E+00  0.00000000E+00  0.00000000E+00
  0.00000000E+00  0.00000000E+00  0.00000000E+00
  0.00000000E+00  0.00000000E+00  0.00000000E+00
  0.00000000E+00  0.00000000E+00  0.00000000E+00
  0.00000000E+00  0.00000000E+00  0.00000000E+00
  0.00000000E+00  0.00000000E+00  0.00000000E+00
  0.00000000E+00  0.00000000E+00  0.00000000E+00
  0.00000000E+00  0.00000000E+00  0.00000000E+00
  0.00000000E+00  0.00000000E+00  0.00000000E+00
  0.00000000E+00  0.00000000E+00  0.00000000E+00
  0.00000000E+00  0.00000000E+00  0.00000000E+00
  0.00000000E+00  0.00000000E+00  0.00000000E+00
  0.00000000E+00  0.00000000E+00  0.00000000E+00
  0.00000000E+00  0.00000000E+00  0.00000000E+00
  0.00000000E+00  0.00000000E+00  0.00000000E+00
  0.00000000E+00  0.00000000E+00  0.00000000E+00
  0.00000000E+00  0.00000000E+00  0.00000000E+00
  0.00000000E+00  0.00000000E+00  0.00000000E+00
  0.00000000E+00  0.00000000E+00  0.00000000E+00
  0.00000000E+00  0.00000000E+00  0.00000000E+00
  0.00000000E+00  0.00000000E+00  0.00000000E+00
  0.00000000E+00  0.00000000E+00  0.00000000E+00
  0.00000000E+00  0.00000000E+00  0.00000000E+00
  0.00000000E+00  0.00000000E+00  0.00000000E+00
  0.00000000E+00  0.00000000E+00  0.00000000E+00
  0.00000000E+00  0.00000000E+00  0.00000000E+00
  0.00000000E+00  0.00000000E+00  0.00000000E+00
  0.00000000E+00  0.00000000E+00  0.00000000E+00
  0.00000000E+00  0.00000000E+00  0.00000000E+00
  0.00000000E+00  0.00000000E+00  0.00000000E+00
  0.00000000E+00  0.00000000E+00  0.00000000E+00
  0.00000000E+00  0.00000000E+00  0.00000000E+00
  0.00000000E+00  0.00000000E+00  0.00000000E+00
  0.00000000E+00  0.00000000E+00  0.00000000E+00
  0.00000000E+00  0.00000000E+00  0.00000000E+00
  0.00000000E+00  0.00000000E+00  0.00000000E+00
  0.00000000E+00  0.00000000E+00  0.00000000E+00
  0.00000000E+00  0.00000000E+00  0.00000000E+00
  0.00000000E+00  0.00000000E+00  0.00000000E+00
  0.00000000E+00  0.00000000E+00  0.00000000E+00
