CONTCAR\(13)                            
   1.00000000000000     
    10.2920999526999992    0.0000000000000000    0.0000000000000000
     1.7153529658000000    9.6351993213000000    0.0000000000000000
     0.0000000000000000    0.0000000000000000   19.1306991577000005
   Nb   Te   O 
     9    18     1
Direct
  0.9933907490027113  0.0048377239848617  0.5016423241783572
  0.1129009917743718  0.2899283430038329  0.4960099635613147
  0.2082191957124222  0.7182991469279452  0.5073885086917470
  0.3266239933890906  0.0060208648188371  0.5012000150632738
  0.4428025083676405  0.2866190042583023  0.4943926025076267
  0.5397773026764303  0.7267829605436160  0.5068458224182302
  0.6597008195391764  0.0047771386028548  0.5013436784068318
  0.7837826443886633  0.2856351016857428  0.4948744825773518
  0.8736175599372552  0.7181098983813481  0.5073446803932612
  0.1413490485391885  0.1158634852366623  0.6067412332870156
  0.1784181298857467  0.8922894749311090  0.3967219250556535
  0.2537713218499603  0.4524725725198630  0.5825836691285833
  0.0682051213181093  0.5543421314574530  0.4206976346072164
  0.0279775968381481  0.7949853459113160  0.6119687091478496
  0.2901949892396370  0.2127391675202566  0.3896974208771696
  0.4744668607044099  0.1188164980876235  0.6069105297990742
  0.5111028872331048  0.8966333256029949  0.3950919202012080
  0.5842228954521191  0.4596594637480446  0.5727250748815454
  0.4030503573012715  0.5542714331997938  0.4213317709007958
  0.3610305060509350  0.7983031977135786  0.6121755020163373
  0.6261648847583330  0.2118840110712888  0.3906254486109121
  0.8077933703814849  0.1171198476685551  0.6073389453183996
  0.8457916731796842  0.8920344636098578  0.3967295800698049
  0.9178072077045337  0.4525579978799370  0.5826072354492080
  0.7338526773791378  0.5528931445076219  0.4215671943917559
  0.6945195174563418  0.7980196143406554  0.6122167769207051
  0.9608234394406276  0.2110160385025940  0.3902116819289600
  0.5891117634994665  0.4268988322834501  0.6684856636098135
 
  0.00000000E+00  0.00000000E+00  0.00000000E+00
  0.00000000E+00  0.00000000E+00  0.00000000E+00
  0.00000000E+00  0.00000000E+00  0.00000000E+00
  0.00000000E+00  0.00000000E+00  0.00000000E+00
  0.00000000E+00  0.00000000E+00  0.00000000E+00
  0.00000000E+00  0.00000000E+00  0.00000000E+00
  0.00000000E+00  0.00000000E+00  0.00000000E+00
  0.00000000E+00  0.00000000E+00  0.00000000E+00
  0.00000000E+00  0.00000000E+00  0.00000000E+00
  0.00000000E+00  0.00000000E+00  0.00000000E+00
  0.00000000E+00  0.00000000E+00  0.00000000E+00
  0.00000000E+00  0.00000000E+00  0.00000000E+00
  0.00000000E+00  0.00000000E+00  0.00000000E+00
  0.00000000E+00  0.00000000E+00  0.00000000E+00
  0.00000000E+00  0.00000000E+00  0.00000000E+00
  0.00000000E+00  0.00000000E+00  0.00000000E+00
  0.00000000E+00  0.00000000E+00  0.00000000E+00
  0.00000000E+00  0.00000000E+00  0.00000000E+00
  0.00000000E+00  0.00000000E+00  0.00000000E+00
  0.00000000E+00  0.00000000E+00  0.00000000E+00
  0.00000000E+00  0.00000000E+00  0.00000000E+00
  0.00000000E+00  0.00000000E+00  0.00000000E+00
  0.00000000E+00  0.00000000E+00  0.00000000E+00
  0.00000000E+00  0.00000000E+00  0.00000000E+00
  0.00000000E+00  0.00000000E+00  0.00000000E+00
  0.00000000E+00  0.00000000E+00  0.00000000E+00
  0.00000000E+00  0.00000000E+00  0.00000000E+00
  0.00000000E+00  0.00000000E+00  0.00000000E+00
