CONTCAR                                 
   1.00000000000000     
    11.5825996398999997    0.0000000000000000    0.0000000000000000
     0.0000000000000000   12.9533996582000004    0.0000000000000000
     0.0000000000000000    0.0000000000000000   20.9237995147999989
   K    As   Pd   O 
    16    16     8     1
Selective dynamics
Direct
  0.1254555060487164  0.0044432182062977  0.4470227855216891   F   F   F
  0.3791026029062508  0.0006145582135417  0.5534011377627550   F   F   F
  0.1251276469828326  0.2500000000000000  0.3564951424667981   F   F   F
  0.3746246317076540  0.2500000000000000  0.6434557881328544   F   F   F
  0.6255025599659305  0.9989262846866183  0.4486243509153809   F   F   F
  0.8717831046026348  0.0006798039303391  0.5535644732616305   F   F   F
  0.6250204778056201  0.2500000000000000  0.3573463848938445   F   F   F
  0.8758017054509395  0.2500000000000000  0.6433871527624504   F   F   F
  0.1254555060487164  0.4955567817936952  0.4470227855216891   F   F   F
  0.3791026029062508  0.4993854417864583  0.5534011377627550   F   F   F
  0.1260160628804528  0.7500000000000000  0.3611658114258205   F   F   F
  0.3624635255016670  0.7500000000000000  0.6487916574936889   F   F   F
  0.6255025599659305  0.5010737153133817  0.4486243509153809   F   F   F
  0.8717831046026348  0.4993201960696609  0.5535644732616305   F   F   F
  0.6264106169749439  0.7500000000000000  0.3610239022560506   F   F   F
  0.8895642266498243  0.7500000000000000  0.6489713492308411   F   F   F
  0.3748902248056041  0.3443682927382454  0.4188621726269091   F   F   F
  0.1251018148045233  0.1553041578882741  0.5821130659966656   F   F   F
  0.1251018148045233  0.3446958601117274  0.5821130659966656   F   F   F
  0.3748902248056041  0.1556317252617561  0.4188621726269091   F   F   F
  0.8756830819776553  0.3443688281835477  0.4187097833185192   F   F   F
  0.6253489277333060  0.1558007869738915  0.5816177532921785   F   F   F
  0.6253489277333060  0.3441992310261099  0.5816177532921785   F   F   F
  0.8756830819776553  0.1556311898164537  0.4187097833185192   F   F   F
  0.3755133728113407  0.8442204944033307  0.4215651197857824   F   F   F
  0.1262714050041325  0.6439423863862217  0.5782952681678282   F   F   F
  0.1262714050041325  0.8560576136137783  0.5782952681678282   F   F   F
  0.3755133728113407  0.6557795055966693  0.4215651197857824   F   F   F
  0.8762967398509005  0.8442519156506805  0.4219223692997431   F   F   F
  0.6260600138081358  0.6561342679794677  0.5851882200199441   F   F   F
  0.6260600138081358  0.8438657320205323  0.5851882200199441   F   F   F
  0.8762967398509005  0.6557480843493195  0.4219223692997431   F   F   F
  0.0002640483542748  0.2500000000000000  0.5004032686320414   F   F   F
  0.2499992040872883  0.2500000000000000  0.5004238792315192   F   F   F
  0.5000808797323728  0.2500000000000000  0.5002138298378966   F   F   F
  0.7503297637133386  0.2500000000000000  0.5000316244750351   F   F   F
  0.0026452426503667  0.7500000000000000  0.5058842727709774   F   F   F
  0.2496248716775611  0.7500000000000000  0.5057386228098082   F   F   F
  0.5003988332245157  0.7500000000000000  0.5039966625915326   F   F   F
  0.7515960802462018  0.7500000000000000  0.5041192964131795   F   F   F
  0.1262838027219217  0.7500100130000008  0.6454117996310298   T   T   T
 
  0.00000000E+00  0.00000000E+00  0.00000000E+00
  0.00000000E+00  0.00000000E+00  0.00000000E+00
  0.00000000E+00  0.00000000E+00  0.00000000E+00
  0.00000000E+00  0.00000000E+00  0.00000000E+00
  0.00000000E+00  0.00000000E+00  0.00000000E+00
  0.00000000E+00  0.00000000E+00  0.00000000E+00
  0.00000000E+00  0.00000000E+00  0.00000000E+00
  0.00000000E+00  0.00000000E+00  0.00000000E+00
  0.00000000E+00  0.00000000E+00  0.00000000E+00
  0.00000000E+00  0.00000000E+00  0.00000000E+00
  0.00000000E+00  0.00000000E+00  0.00000000E+00
  0.00000000E+00  0.00000000E+00  0.00000000E+00
  0.00000000E+00  0.00000000E+00  0.00000000E+00
  0.00000000E+00  0.00000000E+00  0.00000000E+00
  0.00000000E+00  0.00000000E+00  0.00000000E+00
  0.00000000E+00  0.00000000E+00  0.00000000E+00
  0.00000000E+00  0.00000000E+00  0.00000000E+00
  0.00000000E+00  0.00000000E+00  0.00000000E+00
  0.00000000E+00  0.00000000E+00  0.00000000E+00
  0.00000000E+00  0.00000000E+00  0.00000000E+00
  0.00000000E+00  0.00000000E+00  0.00000000E+00
  0.00000000E+00  0.00000000E+00  0.00000000E+00
  0.00000000E+00  0.00000000E+00  0.00000000E+00
  0.00000000E+00  0.00000000E+00  0.00000000E+00
  0.00000000E+00  0.00000000E+00  0.00000000E+00
  0.00000000E+00  0.00000000E+00  0.00000000E+00
  0.00000000E+00  0.00000000E+00  0.00000000E+00
  0.00000000E+00  0.00000000E+00  0.00000000E+00
  0.00000000E+00  0.00000000E+00  0.00000000E+00
  0.00000000E+00  0.00000000E+00  0.00000000E+00
  0.00000000E+00  0.00000000E+00  0.00000000E+00
  0.00000000E+00  0.00000000E+00  0.00000000E+00
  0.00000000E+00  0.00000000E+00  0.00000000E+00
  0.00000000E+00  0.00000000E+00  0.00000000E+00
  0.00000000E+00  0.00000000E+00  0.00000000E+00
  0.00000000E+00  0.00000000E+00  0.00000000E+00
  0.00000000E+00  0.00000000E+00  0.00000000E+00
  0.00000000E+00  0.00000000E+00  0.00000000E+00
  0.00000000E+00  0.00000000E+00  0.00000000E+00
  0.00000000E+00  0.00000000E+00  0.00000000E+00
  0.00000000E+00  0.00000000E+00  0.00000000E+00
