CONTCAR\(21)                            
   1.00000000000000     
    11.6593999863000004    0.0000000000000000    0.0000000000000000
    -5.8296999931000002   10.0973365810000004    0.0000000000000000
     0.0000000000000000    0.0000000000000000   24.5373001098999985
   Zn   In   S    O 
     9    18    36     1
Selective dynamics
Direct
  0.1109155150556660  0.2223122796216757  0.3278274553608966   F   F   F
  0.4441147140437565  0.2220817638582773  0.3279999084386418   F   F   F
  0.7776249677392642  0.2222428991787737  0.3270339249284433   F   F   F
  0.1115532430711426  0.5558080680950468  0.3268661711526804   F   F   F
  0.4445040204772255  0.5555589660309579  0.3275814012973868   F   F   F
  0.7777096914468657  0.5557318592992928  0.3264830277878872   F   F   F
  0.1110859496981575  0.8885199250070954  0.3255335874707583   F   F   F
  0.4448477024598674  0.8887355522248157  0.3258213907728660   F   F   F
  0.7781552908443885  0.8889525393342481  0.3258168325571376   F   F   F
  0.0020458046560208  0.9998244958744280  0.4837687033237685   F   F   F
  0.1908007197825015  0.1083509326300955  0.6464130703288333   F   F   F
  0.3329460102592208  0.9971602531883548  0.4839736122639877   F   F   F
  0.5554082347257037  0.1146771904197266  0.6495227406579787   F   F   F
  0.6681511181686730  0.0008932163883912  0.4845963762424432   F   F   F
  0.8771250959035868  0.1129118684078776  0.6482375040517567   F   F   F
  0.9980936137329124  0.3336456950763420  0.4863873509141357   F   F   F
  0.2203255598375193  0.4468683049591391  0.6516250497952427   F   F   F
  0.3308799575839245  0.3335058027149671  0.4871137501236404   F   F   F
  0.5546690485353096  0.4517423054369800  0.6513121962531869   F   F   F
  0.6643148850185199  0.3330954677414013  0.4873190793333038   F   F   F
  0.8871638412724820  0.4490190803612322  0.6510069044694404   F   F   F
  0.9984827760986974  0.6655985776055715  0.4861749238063808   F   F   F
  0.2237152984188100  0.7844674827912783  0.6492882259103681   F   F   F
  0.3335690597897170  0.6656401032720467  0.4863013701114696   F   F   F
  0.5527692895020095  0.7784397597542778  0.6493017435425941   F   F   F
  0.6675098925041141  0.6675211146505262  0.4862877301091046   F   F   F
  0.8895433454838795  0.7822258528942783  0.6499371768527595   F   F   F
  0.2221448895488791  0.1113308234208716  0.3110362790307590   F   F   F
  0.2192253702263187  0.1093424806015690  0.5494782688609376   F   F   F
  0.1099873961974751  0.2241168519772287  0.4355697920368655   F   F   F
  0.0939418272189414  0.2242272437846538  0.6975398809592761   F   F   F
  0.5553140650241914  0.1113576329842445  0.3109315898726521   F   F   F
  0.5537050489578945  0.1100595857142039  0.5513220541266222   F   F   F
  0.4424902704463562  0.2223386609220555  0.4365455725099849   F   F   F
  0.4844525177390793  0.2329649289406319  0.7130255816341062   F   F   F
  0.8889396181698146  0.1114682589628373  0.3106413523859430   F   F   F
  0.8876358793371466  0.1107511623142088  0.5503179642357736   F   F   F
  0.7765096550941166  0.2241622519753150  0.4358452315461179   F   F   F
  0.7771893915787871  0.2268844269277182  0.6978021217472019   F   F   F
  0.2224482166574759  0.4444928729535391  0.3110317442421504   F   F   F
  0.2209581241789849  0.4442204146199913  0.5527981771141484   F   F   F
  0.1111377168095657  0.5556080944255015  0.4362933999114844   F   F   F
  0.1108992731918690  0.5625448053127542  0.6964199544957452   F   F   F
  0.5552603592515624  0.4441039055966414  0.3111443635170730   F   F   F
  0.5544693762311823  0.4437021106881289  0.5527422532509902   F   F   F
  0.4445427988260704  0.5547458173207716  0.4362654713452230   F   F   F
  0.4426494970158714  0.5611885027746979  0.6985349305615358   F   F   F
  0.8891287788533262  0.4446591630860297  0.3111242588908212   F   F   F
  0.8873694746437053  0.4446055731362861  0.5523977641587976   F   F   F
  0.7765107264618933  0.5547821962644406  0.4361998754070058   F   F   F
  0.7803282802844720  0.5641321683113745  0.6976493661676031   F   F   F
  0.2225941848012809  0.7775472269513770  0.3099362127979646   F   F   F
  0.2216980315096393  0.7785274815656251  0.5509256246398309   F   F   F
  0.1104745932638593  0.8861214580642383  0.4343668407826655   F   F   F
  0.1136875355003610  0.8966272008721816  0.6969093488145646   F   F   F
  0.5557321329141800  0.7773001760798124  0.3102325103271184   F   F   F
  0.5558211187457331  0.7782772851784259  0.5509411025060871   F   F   F
  0.4452649048980035  0.8872322405750310  0.4351230288489631   F   F   F
  0.4446890207853258  0.8906580975670266  0.6958855520875034   F   F   F
  0.8888418063043346  0.7775166344736775  0.3095345368137430   F   F   F
  0.8901745191726960  0.7798571366598495  0.5514151813193848   F   F   F
  0.7783156614430098  0.8884604130057099  0.4350517576413608   F   F   F
  0.7756164746701018  0.8919938210862952  0.6955658868383168   F   F   F
  0.3751574249366030  0.2601303870879264  0.6761325005161580   T   T   T
 
  0.00000000E+00  0.00000000E+00  0.00000000E+00
  0.00000000E+00  0.00000000E+00  0.00000000E+00
  0.00000000E+00  0.00000000E+00  0.00000000E+00
  0.00000000E+00  0.00000000E+00  0.00000000E+00
  0.00000000E+00  0.00000000E+00  0.00000000E+00
  0.00000000E+00  0.00000000E+00  0.00000000E+00
  0.00000000E+00  0.00000000E+00  0.00000000E+00
  0.00000000E+00  0.00000000E+00  0.00000000E+00
  0.00000000E+00  0.00000000E+00  0.00000000E+00
  0.00000000E+00  0.00000000E+00  0.00000000E+00
  0.00000000E+00  0.00000000E+00  0.00000000E+00
  0.00000000E+00  0.00000000E+00  0.00000000E+00
  0.00000000E+00  0.00000000E+00  0.00000000E+00
  0.00000000E+00  0.00000000E+00  0.00000000E+00
  0.00000000E+00  0.00000000E+00  0.00000000E+00
  0.00000000E+00  0.00000000E+00  0.00000000E+00
  0.00000000E+00  0.00000000E+00  0.00000000E+00
  0.00000000E+00  0.00000000E+00  0.00000000E+00
  0.00000000E+00  0.00000000E+00  0.00000000E+00
  0.00000000E+00  0.00000000E+00  0.00000000E+00
  0.00000000E+00  0.00000000E+00  0.00000000E+00
  0.00000000E+00  0.00000000E+00  0.00000000E+00
  0.00000000E+00  0.00000000E+00  0.00000000E+00
  0.00000000E+00  0.00000000E+00  0.00000000E+00
  0.00000000E+00  0.00000000E+00  0.00000000E+00
  0.00000000E+00  0.00000000E+00  0.00000000E+00
  0.00000000E+00  0.00000000E+00  0.00000000E+00
  0.00000000E+00  0.00000000E+00  0.00000000E+00
  0.00000000E+00  0.00000000E+00  0.00000000E+00
  0.00000000E+00  0.00000000E+00  0.00000000E+00
  0.00000000E+00  0.00000000E+00  0.00000000E+00
  0.00000000E+00  0.00000000E+00  0.00000000E+00
  0.00000000E+00  0.00000000E+00  0.00000000E+00
  0.00000000E+00  0.00000000E+00  0.00000000E+00
  0.00000000E+00  0.00000000E+00  0.00000000E+00
  0.00000000E+00  0.00000000E+00  0.00000000E+00
  0.00000000E+00  0.00000000E+00  0.00000000E+00
  0.00000000E+00  0.00000000E+00  0.00000000E+00
  0.00000000E+00  0.00000000E+00  0.00000000E+00
  0.00000000E+00  0.00000000E+00  0.00000000E+00
  0.00000000E+00  0.00000000E+00  0.00000000E+00
  0.00000000E+00  0.00000000E+00  0.00000000E+00
  0.00000000E+00  0.00000000E+00  0.00000000E+00
  0.00000000E+00  0.00000000E+00  0.00000000E+00
  0.00000000E+00  0.00000000E+00  0.00000000E+00
  0.00000000E+00  0.00000000E+00  0.00000000E+00
  0.00000000E+00  0.00000000E+00  0.00000000E+00
  0.00000000E+00  0.00000000E+00  0.00000000E+00
  0.00000000E+00  0.00000000E+00  0.00000000E+00
  0.00000000E+00  0.00000000E+00  0.00000000E+00
  0.00000000E+00  0.00000000E+00  0.00000000E+00
  0.00000000E+00  0.00000000E+00  0.00000000E+00
  0.00000000E+00  0.00000000E+00  0.00000000E+00
  0.00000000E+00  0.00000000E+00  0.00000000E+00
  0.00000000E+00  0.00000000E+00  0.00000000E+00
  0.00000000E+00  0.00000000E+00  0.00000000E+00
  0.00000000E+00  0.00000000E+00  0.00000000E+00
  0.00000000E+00  0.00000000E+00  0.00000000E+00
  0.00000000E+00  0.00000000E+00  0.00000000E+00
  0.00000000E+00  0.00000000E+00  0.00000000E+00
  0.00000000E+00  0.00000000E+00  0.00000000E+00
  0.00000000E+00  0.00000000E+00  0.00000000E+00
  0.00000000E+00  0.00000000E+00  0.00000000E+00
  0.00000000E+00  0.00000000E+00  0.00000000E+00
