CONTCAR\(7)                             
   1.00000000000000     
    11.5652999877999996    0.0000000000000000    0.0000000000000000
     0.0000000000000000   13.3549995421999999    0.0000000000000000
     0.0000000000000000    0.0000000000000000   25.4929008484000015
   Ta   Ag   S    O    H 
    32     8    64     2     1
Selective dynamics
Direct
  0.2442781836418391  0.4986282949068084  0.3621916273005681   F   F   F
  0.2442636966700249  0.2529156754926731  0.3621806665647185   F   F   F
  0.9992391548958253  0.3758490663830969  0.3641261074824271   F   F   F
  0.0873347444351964  0.2527849057066049  0.6398550596595527   F   F   F
  0.0000216942384128  0.1256221009784610  0.3616977089775659   F   F   F
  0.0884928179769986  0.0046026206730900  0.6398646861679680   F   F   F
  0.3337328917599862  0.1286052976739285  0.6374308741724022   F   F   F
  0.3246886685199257  0.3787565162369262  0.6396195105110607   F   F   F
  0.7440527401630277  0.4988973153391782  0.3623791701975065   F   F   F
  0.7439821104781572  0.2526569234366463  0.3623740327094254   F   F   F
  0.4991966561739716  0.3758320923049538  0.3640573250798198   F   F   F
  0.5913910705841090  0.2456897755731760  0.6385137414123108   F   F   F
  0.5002605757525984  0.1258690406780261  0.3619169321084783   F   F   F
  0.5889907558736880  0.0061354192454743  0.6392073454889911   F   F   F
  0.8319752029138598  0.1282451715497928  0.6376133919306852   F   F   F
  0.8321059554077763  0.3779822734696978  0.6397073973553091   F   F   F
  0.2442351848951461  0.9986758229805517  0.3620335723634867   F   F   F
  0.2441126324634553  0.7528555501489649  0.3619917229307035   F   F   F
  0.9992363826699417  0.8758444809596000  0.3639990948368421   F   F   F
  0.0883670189321606  0.7519846711421252  0.6397897929505518   F   F   F
  0.0000158633604599  0.6256177367497386  0.3617059971515104   F   F   F
  0.0873393043394515  0.5038818704724761  0.6395331018240356   F   F   F
  0.3333884218395653  0.6274586637856032  0.6372009624936155   F   F   F
  0.3321132316389637  0.8783795501010729  0.6401569879486004   F   F   F
  0.7442176276991290  0.9988919561544520  0.3622166139955567   F   F   F
  0.7441295896121787  0.7526507593702760  0.3621809663320477   F   F   F
  0.4992423650317406  0.8758538828664726  0.3641143844147408   F   F   F
  0.5892399127168844  0.7509753334090163  0.6389957827579096   F   F   F
  0.5002503248174364  0.6257037057674779  0.3618609296854629   F   F   F
  0.5909499196568433  0.5110313634312149  0.6383766369636277   F   F   F
  0.8320156519517994  0.6286201711824759  0.6375234549903723   F   F   F
  0.8327417245383444  0.8781647658722989  0.6399177541465804   F   F   F
  0.4955944522921030  0.3761694588842843  0.4896338369516755   F   F   F
  0.3338878816011217  0.1276603997704200  0.5133016963803883   F   F   F
  0.9963312576862222  0.3758224180562877  0.4878797786990319   F   F   F
  0.8384087199392098  0.1270492546863053  0.5135445399527612   F   F   F
  0.4957134920250041  0.8761031098350216  0.4882206489539058   F   F   F
  0.3339726705823622  0.6290322917839006  0.5132381907900481   F   F   F
  0.9967329604647119  0.8760373854586376  0.4880954860346449   F   F   F
  0.8375664915599543  0.6289702714942678  0.5135065540567822   F   F   F
  0.2481772075682827  0.4991876913313860  0.5759847138650684   F   F   F
  0.2539175043863651  0.0051303948256134  0.7003753334913441   F   F   F
  0.2484260173678763  0.2571983197673831  0.5764135389987786   F   F   F
  0.2527190155122128  0.2510976717643842  0.7005946284351765   F   F   F
  0.0788530427563643  0.2521707518551537  0.3015665368582674   F   F   F
  0.0823266284125594  0.2459753000616587  0.4250116098447521   F   F   F
  0.5000436662220551  0.3781818036639422  0.5826659339756972   F   F   F
  0.0008380001871799  0.3785746689481613  0.6994421973724201   F   F   F
  0.0790269742581344  0.4992105987645488  0.3015037208790829   F   F   F
  0.0825825944921661  0.0055035371721814  0.4249619698453913   F   F   F
  0.0072582226697264  0.1282838310114514  0.5779293407414130   F   F   F
  0.4989920655706612  0.1276479372843156  0.6994400087147810   F   F   F
  0.3299232016833145  0.1258459442541664  0.3027744373322250   F   F   F
  0.3310895628535206  0.1257513606159080  0.4211708008163626   F   F   F
  0.3329407212661692  0.3756919502890028  0.3024224518205898   F   F   F
  0.3255251179455740  0.3757680539060644  0.4246003760484243   F   F   F
  0.7508472053465951  0.4982477121200262  0.5759876249360971   F   F   F
  0.7536003992656930  0.0041814171080929  0.7001924957819625   F   F   F
  0.7508482463530513  0.2581910143551127  0.5757721090789261   F   F   F
  0.7535875889267203  0.2522044085985726  0.7003914276240266   F   F   F
  0.5789383794220058  0.2521844938335391  0.3016098479784475   F   F   F
  0.5819162347979940  0.2466582072165835  0.4253504280784810   F   F   F
  0.0003871745839348  0.3781236004427839  0.5801199316327867   F   F   F
  0.5036321697402144  0.3775974297265918  0.6929596591159708   F   F   F
  0.5790158886169579  0.4993199019561629  0.3015799920304545   F   F   F
  0.5824449472916982  0.0055274064790538  0.4251273684703705   F   F   F
  0.5066054741019457  0.1271596662189438  0.5761951535526535   F   F   F
  0.9990272894731405  0.1282891106867154  0.6991349892084742   F   F   F
  0.8296056772718003  0.1258984514237866  0.3027872324160512   F   F   F
  0.8313559814100628  0.1257763127093341  0.4213646508289983   F   F   F
  0.8327303698660344  0.3757211431602414  0.3026658702300296   F   F   F
  0.8250006280098390  0.3757396055366158  0.4245441408530155   F   F   F
  0.2497619374699696  0.9984917578775168  0.5769095832640971   F   F   F
  0.2521406576896013  0.5058780975816788  0.7005012845857834   F   F   F
  0.2497879348323622  0.7581595129850953  0.5768607332887328   F   F   F
  0.2539261046234103  0.7513039418303293  0.7002049048311036   F   F   F
  0.0786833987770166  0.7520480367047284  0.3014277700410659   F   F   F
  0.0822406787425436  0.7461065319390912  0.4249306333827718   F   F   F
  0.5011867859031938  0.8784669681593300  0.5804987754584729   F   F   F
  0.0023183468622179  0.8782614353853333  0.6993268831456589   F   F   F
  0.0789625740246009  0.9993566398417641  0.3013933187691862   F   F   F
  0.0825795781291561  0.5056138510143100  0.4250508268466859   F   F   F
  0.0069757745485290  0.6284300456277592  0.5777422607124478   F   F   F
  0.4988668433355485  0.6296893929563723  0.6991560655210449   F   F   F
  0.3298774902296344  0.6256656981596933  0.3027464447797854   F   F   F
  0.3310931593531663  0.6259577095592803  0.4211244956131637   F   F   F
  0.3330923337161877  0.8757002061567292  0.3023327264795483   F   F   F
  0.3250226571973940  0.8757151637117104  0.4243731194808333   F   F   F
  0.7506089692939284  0.9981744868608828  0.5765124854746659   F   F   F
  0.7532754828459716  0.5044509631654606  0.7003225795293559   F   F   F
  0.7507782132802205  0.7585988295120529  0.5762835024518864   F   F   F
  0.7534702941043179  0.7524198606453680  0.7002069185321957   F   F   F
  0.5788277291110475  0.7521538288778160  0.3015591192000571   F   F   F
  0.5822760691509998  0.7462043962022378  0.4251361977643029   F   F   F
  0.0013346369409746  0.8783563438955184  0.5804142986535510   F   F   F
  0.5036236738797939  0.8782957093511641  0.6984970884054320   F   F   F
  0.5789524231168954  0.9994385312522738  0.3015773996621363   F   F   F
  0.5819715548655964  0.5051304802137579  0.4252946479823478   F   F   F
  0.5066298947592642  0.6297377132051594  0.5760955339688962   F   F   F
  0.9989181946891534  0.6283078248805296  0.6989693209406838   F   F   F
  0.8296030985513383  0.6256031569151403  0.3027760842836642   F   F   F
  0.8313183403727749  0.6258720993224429  0.4213482484267743   F   F   F
  0.8327492940610597  0.8757406767387863  0.3024724142705040   F   F   F
  0.8252036908964229  0.8757240632022345  0.4244339742425680   F   F   F
  0.4711369055847214  0.4501307138502355  0.7870428830961274   T   T   T
  0.5203369069817754  0.3650851949802458  0.7590628797345715   T   T   T
  0.5361854026497568  0.4979528053389331  0.7855425904964368   T   T   T
 
  0.00000000E+00  0.00000000E+00  0.00000000E+00
  0.00000000E+00  0.00000000E+00  0.00000000E+00
  0.00000000E+00  0.00000000E+00  0.00000000E+00
  0.00000000E+00  0.00000000E+00  0.00000000E+00
  0.00000000E+00  0.00000000E+00  0.00000000E+00
  0.00000000E+00  0.00000000E+00  0.00000000E+00
  0.00000000E+00  0.00000000E+00  0.00000000E+00
  0.00000000E+00  0.00000000E+00  0.00000000E+00
  0.00000000E+00  0.00000000E+00  0.00000000E+00
  0.00000000E+00  0.00000000E+00  0.00000000E+00
  0.00000000E+00  0.00000000E+00  0.00000000E+00
  0.00000000E+00  0.00000000E+00  0.00000000E+00
  0.00000000E+00  0.00000000E+00  0.00000000E+00
  0.00000000E+00  0.00000000E+00  0.00000000E+00
  0.00000000E+00  0.00000000E+00  0.00000000E+00
  0.00000000E+00  0.00000000E+00  0.00000000E+00
  0.00000000E+00  0.00000000E+00  0.00000000E+00
  0.00000000E+00  0.00000000E+00  0.00000000E+00
  0.00000000E+00  0.00000000E+00  0.00000000E+00
  0.00000000E+00  0.00000000E+00  0.00000000E+00
  0.00000000E+00  0.00000000E+00  0.00000000E+00
  0.00000000E+00  0.00000000E+00  0.00000000E+00
  0.00000000E+00  0.00000000E+00  0.00000000E+00
  0.00000000E+00  0.00000000E+00  0.00000000E+00
  0.00000000E+00  0.00000000E+00  0.00000000E+00
  0.00000000E+00  0.00000000E+00  0.00000000E+00
  0.00000000E+00  0.00000000E+00  0.00000000E+00
  0.00000000E+00  0.00000000E+00  0.00000000E+00
  0.00000000E+00  0.00000000E+00  0.00000000E+00
  0.00000000E+00  0.00000000E+00  0.00000000E+00
  0.00000000E+00  0.00000000E+00  0.00000000E+00
  0.00000000E+00  0.00000000E+00  0.00000000E+00
  0.00000000E+00  0.00000000E+00  0.00000000E+00
  0.00000000E+00  0.00000000E+00  0.00000000E+00
  0.00000000E+00  0.00000000E+00  0.00000000E+00
  0.00000000E+00  0.00000000E+00  0.00000000E+00
  0.00000000E+00  0.00000000E+00  0.00000000E+00
  0.00000000E+00  0.00000000E+00  0.00000000E+00
  0.00000000E+00  0.00000000E+00  0.00000000E+00
  0.00000000E+00  0.00000000E+00  0.00000000E+00
  0.00000000E+00  0.00000000E+00  0.00000000E+00
  0.00000000E+00  0.00000000E+00  0.00000000E+00
  0.00000000E+00  0.00000000E+00  0.00000000E+00
  0.00000000E+00  0.00000000E+00  0.00000000E+00
  0.00000000E+00  0.00000000E+00  0.00000000E+00
  0.00000000E+00  0.00000000E+00  0.00000000E+00
  0.00000000E+00  0.00000000E+00  0.00000000E+00
  0.00000000E+00  0.00000000E+00  0.00000000E+00
  0.00000000E+00  0.00000000E+00  0.00000000E+00
  0.00000000E+00  0.00000000E+00  0.00000000E+00
  0.00000000E+00  0.00000000E+00  0.00000000E+00
  0.00000000E+00  0.00000000E+00  0.00000000E+00
  0.00000000E+00  0.00000000E+00  0.00000000E+00
  0.00000000E+00  0.00000000E+00  0.00000000E+00
  0.00000000E+00  0.00000000E+00  0.00000000E+00
  0.00000000E+00  0.00000000E+00  0.00000000E+00
  0.00000000E+00  0.00000000E+00  0.00000000E+00
  0.00000000E+00  0.00000000E+00  0.00000000E+00
  0.00000000E+00  0.00000000E+00  0.00000000E+00
  0.00000000E+00  0.00000000E+00  0.00000000E+00
  0.00000000E+00  0.00000000E+00  0.00000000E+00
  0.00000000E+00  0.00000000E+00  0.00000000E+00
  0.00000000E+00  0.00000000E+00  0.00000000E+00
  0.00000000E+00  0.00000000E+00  0.00000000E+00
  0.00000000E+00  0.00000000E+00  0.00000000E+00
  0.00000000E+00  0.00000000E+00  0.00000000E+00
  0.00000000E+00  0.00000000E+00  0.00000000E+00
  0.00000000E+00  0.00000000E+00  0.00000000E+00
  0.00000000E+00  0.00000000E+00  0.00000000E+00
  0.00000000E+00  0.00000000E+00  0.00000000E+00
  0.00000000E+00  0.00000000E+00  0.00000000E+00
  0.00000000E+00  0.00000000E+00  0.00000000E+00
  0.00000000E+00  0.00000000E+00  0.00000000E+00
  0.00000000E+00  0.00000000E+00  0.00000000E+00
  0.00000000E+00  0.00000000E+00  0.00000000E+00
  0.00000000E+00  0.00000000E+00  0.00000000E+00
  0.00000000E+00  0.00000000E+00  0.00000000E+00
  0.00000000E+00  0.00000000E+00  0.00000000E+00
  0.00000000E+00  0.00000000E+00  0.00000000E+00
  0.00000000E+00  0.00000000E+00  0.00000000E+00
  0.00000000E+00  0.00000000E+00  0.00000000E+00
  0.00000000E+00  0.00000000E+00  0.00000000E+00
  0.00000000E+00  0.00000000E+00  0.00000000E+00
  0.00000000E+00  0.00000000E+00  0.00000000E+00
  0.00000000E+00  0.00000000E+00  0.00000000E+00
  0.00000000E+00  0.00000000E+00  0.00000000E+00
  0.00000000E+00  0.00000000E+00  0.00000000E+00
  0.00000000E+00  0.00000000E+00  0.00000000E+00
  0.00000000E+00  0.00000000E+00  0.00000000E+00
  0.00000000E+00  0.00000000E+00  0.00000000E+00
  0.00000000E+00  0.00000000E+00  0.00000000E+00
  0.00000000E+00  0.00000000E+00  0.00000000E+00
  0.00000000E+00  0.00000000E+00  0.00000000E+00
  0.00000000E+00  0.00000000E+00  0.00000000E+00
  0.00000000E+00  0.00000000E+00  0.00000000E+00
  0.00000000E+00  0.00000000E+00  0.00000000E+00
  0.00000000E+00  0.00000000E+00  0.00000000E+00
  0.00000000E+00  0.00000000E+00  0.00000000E+00
  0.00000000E+00  0.00000000E+00  0.00000000E+00
  0.00000000E+00  0.00000000E+00  0.00000000E+00
  0.00000000E+00  0.00000000E+00  0.00000000E+00
  0.00000000E+00  0.00000000E+00  0.00000000E+00
  0.00000000E+00  0.00000000E+00  0.00000000E+00
  0.00000000E+00  0.00000000E+00  0.00000000E+00
  0.00000000E+00  0.00000000E+00  0.00000000E+00
  0.00000000E+00  0.00000000E+00  0.00000000E+00
  0.00000000E+00  0.00000000E+00  0.00000000E+00
