CONTCAR\(10)                            
   1.00000000000000     
     9.7571001052999993    0.0000000000000000    0.0000000000000000
    -3.0063686365000000   15.8319856181999992    0.0000000000000000
     0.0000000000000000    0.0000000000000000   18.2793006897000012
   V    P    S    O 
     4     8    26     1
Direct
  0.6153399440716574  0.6013849873390585  0.4984769705133604
  0.6269179561686790  0.1003322871013248  0.5012305037875748
  0.3826716532496945  0.3922573582874735  0.5065669244316370
  0.3839652240140274  0.8943823477697275  0.4966758372212520
  0.8301528753168379  0.2597880121249874  0.4965370757801316
  0.6942854536987750  0.4317329532414025  0.5415415413645190
  0.1714389290349665  0.7372759114226353  0.5038525974930472
  0.1699095378704921  0.2353859416247870  0.4973191174984254
  0.2967360378335550  0.0607884251195800  0.5350580389520355
  0.6938590768551365  0.9300732590804193  0.4609662618657490
  0.3036635237392089  0.5621735127486431  0.4636013512142396
  0.8285666157848174  0.7579111015066814  0.5038757552063987
  0.1052527505943471  0.1038481557127514  0.5230490411789647
  0.8869539407190279  0.8875807732962629  0.4714547930506950
  0.0001165654895630  0.7480844073667826  0.5739983550253657
  0.3956822496608174  0.0409583669887275  0.4383201867322747
  0.5408535020644482  0.3521149054824098  0.5944015260499197
  0.2391202621474665  0.4483441378895977  0.4166775514833349
  0.1954734472700202  0.3129764890664734  0.5838521024679514
  0.6616503239239750  0.7308657708010963  0.5702484969589612
  0.4576307979426170  0.6410756441374930  0.4105437987889089
  0.6062317175216957  0.4564717985893077  0.4426979316927755
  0.6625494411014163  0.2330078011600206  0.4314498401521502
  0.8868106745100891  0.3888016741359872  0.5308925603441370
  0.0013321237824172  0.2502817460119993  0.4264919447518715
  0.6092572883083185  0.9583409240115203  0.5600317365912352
  0.8022951527497518  0.6765918908880673  0.4198515316862751
  0.3915695924047045  0.5373510724207388  0.5625416507280031
  0.1967614758804221  0.8177172977073693  0.4190425288412176
  0.7578047753406481  0.5452621052418957  0.5890228156029002
  0.5402221856502072  0.8496214346268294  0.4099332255237216
  0.2425170765628166  0.9509201794063007  0.5877609093086604
  0.3390491302864715  0.7651920418832115  0.5694411293655504
  0.8055683109851551  0.1760155089974808  0.5798273234249726
  0.7542063428063353  0.0419928797261598  0.4090763791090944
  0.4653898498542560  0.1462439964672925  0.5902841409329913
  0.1126246976540331  0.6067510949814123  0.4736250668786418
  0.3403394354275713  0.2630151739263775  0.4336423599538732
  0.4716598977235494  0.1206367497097346  0.6690592460471871
 
  0.00000000E+00  0.00000000E+00  0.00000000E+00
  0.00000000E+00  0.00000000E+00  0.00000000E+00
  0.00000000E+00  0.00000000E+00  0.00000000E+00
  0.00000000E+00  0.00000000E+00  0.00000000E+00
  0.00000000E+00  0.00000000E+00  0.00000000E+00
  0.00000000E+00  0.00000000E+00  0.00000000E+00
  0.00000000E+00  0.00000000E+00  0.00000000E+00
  0.00000000E+00  0.00000000E+00  0.00000000E+00
  0.00000000E+00  0.00000000E+00  0.00000000E+00
  0.00000000E+00  0.00000000E+00  0.00000000E+00
  0.00000000E+00  0.00000000E+00  0.00000000E+00
  0.00000000E+00  0.00000000E+00  0.00000000E+00
  0.00000000E+00  0.00000000E+00  0.00000000E+00
  0.00000000E+00  0.00000000E+00  0.00000000E+00
  0.00000000E+00  0.00000000E+00  0.00000000E+00
  0.00000000E+00  0.00000000E+00  0.00000000E+00
  0.00000000E+00  0.00000000E+00  0.00000000E+00
  0.00000000E+00  0.00000000E+00  0.00000000E+00
  0.00000000E+00  0.00000000E+00  0.00000000E+00
  0.00000000E+00  0.00000000E+00  0.00000000E+00
  0.00000000E+00  0.00000000E+00  0.00000000E+00
  0.00000000E+00  0.00000000E+00  0.00000000E+00
  0.00000000E+00  0.00000000E+00  0.00000000E+00
  0.00000000E+00  0.00000000E+00  0.00000000E+00
  0.00000000E+00  0.00000000E+00  0.00000000E+00
  0.00000000E+00  0.00000000E+00  0.00000000E+00
  0.00000000E+00  0.00000000E+00  0.00000000E+00
  0.00000000E+00  0.00000000E+00  0.00000000E+00
  0.00000000E+00  0.00000000E+00  0.00000000E+00
  0.00000000E+00  0.00000000E+00  0.00000000E+00
  0.00000000E+00  0.00000000E+00  0.00000000E+00
  0.00000000E+00  0.00000000E+00  0.00000000E+00
  0.00000000E+00  0.00000000E+00  0.00000000E+00
  0.00000000E+00  0.00000000E+00  0.00000000E+00
  0.00000000E+00  0.00000000E+00  0.00000000E+00
  0.00000000E+00  0.00000000E+00  0.00000000E+00
  0.00000000E+00  0.00000000E+00  0.00000000E+00
  0.00000000E+00  0.00000000E+00  0.00000000E+00
  0.00000000E+00  0.00000000E+00  0.00000000E+00
