 Hf2 Se6                                
   1.00000000000000     
     3.7207545646385363    0.0000000000000000    0.0000000000000000
     0.0000000000000000    5.3714814390842598    0.0000000000000000
     0.0000000000000000    0.0000000000000000   21.1924109907199956
   Hf   Se
     2     6
Direct
  0.2499999991575006  0.6530575040524336  0.5702541944476145
  0.7500000007563982  0.1530623772088887  0.4297521366701566
  0.2499999931134460  0.9301082925845785  0.3537611341455769
  0.7500000053298003  0.8759719868557062  0.6462362785180580
  0.7500000006685444  0.6530753656716014  0.4764406507442862
  0.2499999994264876  0.1530042711694307  0.5235566205960311
  0.7499999932196501  0.4299128152642812  0.6461730030262131
  0.2500000083281728  0.3761533871930774  0.3538259818520637
 
  0.00000000E+00  0.00000000E+00  0.00000000E+00
  0.00000000E+00  0.00000000E+00  0.00000000E+00
  0.00000000E+00  0.00000000E+00  0.00000000E+00
  0.00000000E+00  0.00000000E+00  0.00000000E+00
  0.00000000E+00  0.00000000E+00  0.00000000E+00
  0.00000000E+00  0.00000000E+00  0.00000000E+00
  0.00000000E+00  0.00000000E+00  0.00000000E+00
  0.00000000E+00  0.00000000E+00  0.00000000E+00
