CONTCAR                                 
   1.00000000000000     
    13.4069995879999997    0.0000000000000000    0.0000000000000000
     0.0000000000000000   14.7997999190999998    0.0000000000000000
     0.0000000000000000    0.0000000000000000   22.4342994689999990
   Ta   S    O    H 
    24    72     2     1
Direct
  0.1864002333037605  0.0834738299289896  0.4390303416547505
  0.0618747944706693  0.9102484049641802  0.5587271342845828
  0.1872680964888587  0.7524695863086642  0.4247060721863226
  0.0616209330570051  0.2415477189303108  0.5733061903212320
  0.1901291602422473  0.5006118514577166  0.5867308368841868
  0.0627650109378093  0.4912273407163011  0.4195829422493639
  0.4372428191216575  0.0835053098507985  0.4390858789774507
  0.3117093647020108  0.9107134895284984  0.5578800672613373
  0.4361033093538617  0.7525785937607892  0.4245931446463178
  0.3113173984474929  0.2411454378516965  0.5733635561751645
  0.4347587187561101  0.5016217389560431  0.5859588780497593
  0.3118113342587665  0.4918564617609338  0.4198532209442333
  0.6870898127667967  0.0828147831450549  0.4394545304959694
  0.5616404145452067  0.9101104339794338  0.5586930638282080
  0.6865548768726429  0.7507359354707220  0.4258118111490373
  0.5623537822841052  0.2414533568653723  0.5733247462282960
  0.6877282953562451  0.5006291404672004  0.5827536859818188
  0.5610976448079804  0.4915800984340805  0.4193742884819518
  0.9364057829134278  0.0828169931683756  0.4394841171964377
  0.8115544715728928  0.9100552385360814  0.5590720579964944
  0.9370041727718179  0.7506719227262917  0.4259355835633559
  0.8117611855010266  0.2415787164727405  0.5736892731074121
  0.9356545017993079  0.5001647387874439  0.5828778977198947
  0.8118862082379107  0.4911938392733211  0.4189020682122266
  0.1862005608944824  0.9183156142009666  0.4752736465424974
  0.0618974350054690  0.0758570000062654  0.5221373494718838
  0.1870860875862508  0.9748040661129187  0.6309254854579243
  0.0613360990355480  0.0185121082987804  0.3666068681691696
  0.1874916563887070  0.8283309814331372  0.6219187599312350
  0.0611785999597907  0.1643230929685401  0.3749979890064505
  0.1865704182488742  0.1516553816327693  0.6294656465094742
  0.0606665351739825  0.8395377649282509  0.3684701215282130
  0.1862184301609131  0.3382886147092854  0.6268091454843976
  0.0619879926369377  0.6503554391836918  0.3738394387328128
  0.1865843899152254  0.2408433617380595  0.4888047366975349
  0.0625366917865813  0.7524437277825384  0.5098205157165129
  0.1871955782444254  0.4763148611349692  0.3359349248974143
  0.0605033847343191  0.5151439109457694  0.6674505375000614
  0.1869078986939874  0.5765606667621918  0.4799155568584462
  0.0631822897149264  0.4146459798350068  0.5242121660038073
  0.1874197605201697  0.3685258302177715  0.3964234172788759
  0.0622787154502725  0.6218829822278390  0.6066968473294689
  0.4371746492367443  0.9183982948453062  0.4753448275147045
  0.3117305883378807  0.0761890593764796  0.5217803579182039
  0.4363863906427742  0.9738437018342733  0.6312826170533059
  0.3118929590897218  0.0193832172941903  0.3662711445724727
  0.4359537308761183  0.8282259868295558  0.6219751279448633
  0.3118839003436389  0.1651866703544951  0.3752743922013820
  0.4367122909512758  0.1522719728081860  0.6296934915855107
  0.3116823352859709  0.8405033879107006  0.3668769592020244
  0.4381385937537166  0.3396319939709705  0.6263626729981874
  0.3116271487073937  0.6509651888558941  0.3732989452982222
  0.4370905842755475  0.2409317213648815  0.4889805508967546
  0.3117039231700601  0.7557751915479456  0.5068807579001861
  0.4365170841955938  0.4763112792375823  0.3358934927583227
  0.3135730659544684  0.5024444738943625  0.6747847553613341
  0.4367983739545862  0.5771556311288920  0.4795064728337416
  0.3119044793877090  0.4132783251171596  0.5245205988085232
  0.4365019552019328  0.3686965970804881  0.3965912825048110
  0.3115305881731246  0.6206010532441256  0.6015089074331280
  0.6869220666113773  0.9172285754187727  0.4760685126293157
  0.5617620979265889  0.0757784145111713  0.5222155087776453
  0.6864304015240482  0.9744425047907740  0.6316976802436853
  0.5622441812271649  0.0184418473271056  0.3666009042797229
  0.6863245271253414  0.8287743316869702  0.6232398003253983
  0.5623572949239332  0.1643709747584755  0.3750318415021572
  0.6868628174900229  0.1526267638219224  0.6298907322720638
  0.5627572695019084  0.8398125275423557  0.3684073948642201
  0.6872393236442054  0.3408608920937517  0.6271473630606357
  0.5616354427167525  0.6506781643536965  0.3735257570421966
  0.6870280768725536  0.2407219923557576  0.4889908340659500
  0.5608892354585905  0.7525212410745759  0.5096437115713218
  0.6864657328604711  0.4760201740299008  0.3355537116432312
  0.5631745224992948  0.5164725388422388  0.6671287523229034
  0.6869899123903110  0.5780887429619421  0.4786433377205290
  0.5609085968752389  0.4149559707780574  0.5238506061947483
  0.6864207525018509  0.3686662697682618  0.3962921665445613
  0.5618361623103001  0.6231509430471399  0.6062234227217205
  0.9364449842194968  0.9172375009366327  0.4761768612998612
  0.8116359295374252  0.0755537854952555  0.5224281673628449
  0.9369229748280435  0.9748872443111765  0.6314497368137700
  0.8117949753513252  0.0180038759653806  0.3667675799814843
  0.9370289608332585  0.8288724273654645  0.6230387792459375
  0.8118050229849801  0.1638005169172582  0.3749595582181752
  0.9365749027105013  0.1525898776230424  0.6298305403824455
  0.8116812221041078  0.8389814109670464  0.3691412850290213
  0.9362532082685301  0.3405270027438120  0.6271567275478130
  0.8119180915464533  0.6504412976874215  0.3736067391910035
  0.9365196801694012  0.2407491172420820  0.4889500999884971
  0.8117071535318495  0.7520638254381953  0.5103197776576585
  0.9373264028909851  0.4758620884600919  0.3357098389586239
  0.8117615813582399  0.5165943654378045  0.6667026086837813
  0.9368504799232855  0.5777472190563818  0.4788242181431921
  0.8118145009621661  0.4138788533746655  0.5226594021624319
  0.9372564109205609  0.3684667068293119  0.3965060206739126
  0.8120231597902121  0.6239440762161893  0.6062709991186139
  0.3260825490358783  0.4290374723415530  0.7383232258893724
  0.3069486500629085  0.3311532132834240  0.7421887294887212
  0.3696833992516694  0.3071761679896448  0.7256149198831577
 
  0.00000000E+00  0.00000000E+00  0.00000000E+00
  0.00000000E+00  0.00000000E+00  0.00000000E+00
  0.00000000E+00  0.00000000E+00  0.00000000E+00
  0.00000000E+00  0.00000000E+00  0.00000000E+00
  0.00000000E+00  0.00000000E+00  0.00000000E+00
  0.00000000E+00  0.00000000E+00  0.00000000E+00
  0.00000000E+00  0.00000000E+00  0.00000000E+00
  0.00000000E+00  0.00000000E+00  0.00000000E+00
  0.00000000E+00  0.00000000E+00  0.00000000E+00
  0.00000000E+00  0.00000000E+00  0.00000000E+00
  0.00000000E+00  0.00000000E+00  0.00000000E+00
  0.00000000E+00  0.00000000E+00  0.00000000E+00
  0.00000000E+00  0.00000000E+00  0.00000000E+00
  0.00000000E+00  0.00000000E+00  0.00000000E+00
  0.00000000E+00  0.00000000E+00  0.00000000E+00
  0.00000000E+00  0.00000000E+00  0.00000000E+00
  0.00000000E+00  0.00000000E+00  0.00000000E+00
  0.00000000E+00  0.00000000E+00  0.00000000E+00
  0.00000000E+00  0.00000000E+00  0.00000000E+00
  0.00000000E+00  0.00000000E+00  0.00000000E+00
  0.00000000E+00  0.00000000E+00  0.00000000E+00
  0.00000000E+00  0.00000000E+00  0.00000000E+00
  0.00000000E+00  0.00000000E+00  0.00000000E+00
  0.00000000E+00  0.00000000E+00  0.00000000E+00
  0.00000000E+00  0.00000000E+00  0.00000000E+00
  0.00000000E+00  0.00000000E+00  0.00000000E+00
  0.00000000E+00  0.00000000E+00  0.00000000E+00
  0.00000000E+00  0.00000000E+00  0.00000000E+00
  0.00000000E+00  0.00000000E+00  0.00000000E+00
  0.00000000E+00  0.00000000E+00  0.00000000E+00
  0.00000000E+00  0.00000000E+00  0.00000000E+00
  0.00000000E+00  0.00000000E+00  0.00000000E+00
  0.00000000E+00  0.00000000E+00  0.00000000E+00
  0.00000000E+00  0.00000000E+00  0.00000000E+00
  0.00000000E+00  0.00000000E+00  0.00000000E+00
  0.00000000E+00  0.00000000E+00  0.00000000E+00
  0.00000000E+00  0.00000000E+00  0.00000000E+00
  0.00000000E+00  0.00000000E+00  0.00000000E+00
  0.00000000E+00  0.00000000E+00  0.00000000E+00
  0.00000000E+00  0.00000000E+00  0.00000000E+00
  0.00000000E+00  0.00000000E+00  0.00000000E+00
  0.00000000E+00  0.00000000E+00  0.00000000E+00
  0.00000000E+00  0.00000000E+00  0.00000000E+00
  0.00000000E+00  0.00000000E+00  0.00000000E+00
  0.00000000E+00  0.00000000E+00  0.00000000E+00
  0.00000000E+00  0.00000000E+00  0.00000000E+00
  0.00000000E+00  0.00000000E+00  0.00000000E+00
  0.00000000E+00  0.00000000E+00  0.00000000E+00
  0.00000000E+00  0.00000000E+00  0.00000000E+00
  0.00000000E+00  0.00000000E+00  0.00000000E+00
  0.00000000E+00  0.00000000E+00  0.00000000E+00
  0.00000000E+00  0.00000000E+00  0.00000000E+00
  0.00000000E+00  0.00000000E+00  0.00000000E+00
  0.00000000E+00  0.00000000E+00  0.00000000E+00
  0.00000000E+00  0.00000000E+00  0.00000000E+00
  0.00000000E+00  0.00000000E+00  0.00000000E+00
  0.00000000E+00  0.00000000E+00  0.00000000E+00
  0.00000000E+00  0.00000000E+00  0.00000000E+00
  0.00000000E+00  0.00000000E+00  0.00000000E+00
  0.00000000E+00  0.00000000E+00  0.00000000E+00
  0.00000000E+00  0.00000000E+00  0.00000000E+00
  0.00000000E+00  0.00000000E+00  0.00000000E+00
  0.00000000E+00  0.00000000E+00  0.00000000E+00
  0.00000000E+00  0.00000000E+00  0.00000000E+00
  0.00000000E+00  0.00000000E+00  0.00000000E+00
  0.00000000E+00  0.00000000E+00  0.00000000E+00
  0.00000000E+00  0.00000000E+00  0.00000000E+00
  0.00000000E+00  0.00000000E+00  0.00000000E+00
  0.00000000E+00  0.00000000E+00  0.00000000E+00
  0.00000000E+00  0.00000000E+00  0.00000000E+00
  0.00000000E+00  0.00000000E+00  0.00000000E+00
  0.00000000E+00  0.00000000E+00  0.00000000E+00
  0.00000000E+00  0.00000000E+00  0.00000000E+00
  0.00000000E+00  0.00000000E+00  0.00000000E+00
  0.00000000E+00  0.00000000E+00  0.00000000E+00
  0.00000000E+00  0.00000000E+00  0.00000000E+00
  0.00000000E+00  0.00000000E+00  0.00000000E+00
  0.00000000E+00  0.00000000E+00  0.00000000E+00
  0.00000000E+00  0.00000000E+00  0.00000000E+00
  0.00000000E+00  0.00000000E+00  0.00000000E+00
  0.00000000E+00  0.00000000E+00  0.00000000E+00
  0.00000000E+00  0.00000000E+00  0.00000000E+00
  0.00000000E+00  0.00000000E+00  0.00000000E+00
  0.00000000E+00  0.00000000E+00  0.00000000E+00
  0.00000000E+00  0.00000000E+00  0.00000000E+00
  0.00000000E+00  0.00000000E+00  0.00000000E+00
  0.00000000E+00  0.00000000E+00  0.00000000E+00
  0.00000000E+00  0.00000000E+00  0.00000000E+00
  0.00000000E+00  0.00000000E+00  0.00000000E+00
  0.00000000E+00  0.00000000E+00  0.00000000E+00
  0.00000000E+00  0.00000000E+00  0.00000000E+00
  0.00000000E+00  0.00000000E+00  0.00000000E+00
  0.00000000E+00  0.00000000E+00  0.00000000E+00
  0.00000000E+00  0.00000000E+00  0.00000000E+00
  0.00000000E+00  0.00000000E+00  0.00000000E+00
  0.00000000E+00  0.00000000E+00  0.00000000E+00
  0.00000000E+00  0.00000000E+00  0.00000000E+00
  0.00000000E+00  0.00000000E+00  0.00000000E+00
  0.00000000E+00  0.00000000E+00  0.00000000E+00
