 Mn1 S2                                 
   1.00000000000000     
     3.3090511721078624    0.0000000000000000    0.0000000000000000
     1.6545250924278339    2.8657094987311442    0.0000000000000000
     0.0000000000000000    0.0000000000000000   17.6412901752959996
   Mn   S 
     1     2
Direct
  0.9999999965717024  0.0000000000183746  0.5000000000119442
  0.6666668442240464  0.6666683418608912  0.5756821618559727
  0.3333331592042512  0.3333316581207342  0.4243178381320831
 
  0.00000000E+00  0.00000000E+00  0.00000000E+00
  0.00000000E+00  0.00000000E+00  0.00000000E+00
  0.00000000E+00  0.00000000E+00  0.00000000E+00
