 Ti1 Ag1 F6                             
   1.00000000000000     
     4.8781935558563037    0.0000000000000000    0.0000000000000000
     0.0000000000000000    5.2800769773876794    0.0000000000000000
     0.0000000000000000    0.0000000000000000   18.4207397474960004
   Ti   Ag   F 
     1     1     6
Direct
  0.5033284140441492  0.5000065516721900  0.4999978837732970
  0.0033270066469078 -0.0000029127216533  0.4999983113210941
  0.3074145532718058  0.5366831509974069  0.5831624241573133
  0.6993325624706077  0.4632978827441329  0.4168525245493537
  0.6613324579342493  0.1955124930056514  0.5404373384098576
  0.3453138670777795  0.8044652125522281  0.4595509287055611
  0.2091776999816431  0.3096276765347878  0.4568734634331226
  0.7975016616885449  0.6904099452152616  0.5431271256504016
 
  0.00000000E+00  0.00000000E+00  0.00000000E+00
  0.00000000E+00  0.00000000E+00  0.00000000E+00
  0.00000000E+00  0.00000000E+00  0.00000000E+00
  0.00000000E+00  0.00000000E+00  0.00000000E+00
  0.00000000E+00  0.00000000E+00  0.00000000E+00
  0.00000000E+00  0.00000000E+00  0.00000000E+00
  0.00000000E+00  0.00000000E+00  0.00000000E+00
  0.00000000E+00  0.00000000E+00  0.00000000E+00
