 Pr4 I10                                
   1.00000000000000     
     4.3015796068199750    0.0000000000000000    0.0000000000000000
     0.0000000000000000   17.0116472535152852    0.0000000000000000
     0.0000000000000000    0.0000000000000000   20.7706674784480043
   Pr   I 
     4    10
Direct
  0.7499999994008846  0.1376672873751640  0.5186929172213413
  0.2500000003820476  0.8623327126753001  0.4813070831040513
  0.7499999990448497  0.6377754725370182  0.5286873669274930
  0.2500000004919091  0.3622245275800967  0.4713126327074434
  0.7499999997976039  0.3778113664966687  0.3609124234391052
  0.2500000002352860  0.6221886331807440  0.6390875760929351
  0.7500000031905337  0.9832308593217162  0.4174675136260144
  0.2499999964595420  0.0167691409127812  0.5825324873506298
  0.2499999993948737  0.5587056258151727  0.4334288783093423
  0.7500000000616038  0.4412943739770732  0.5665711212997284
  0.2500000010356398  0.2439276470881100  0.5968400082167868
  0.7500000003795575  0.7560723530780622  0.4031599916984197
  0.2500000003367431  0.1848229409313077  0.4110871602080216
  0.7499999997889255  0.8151770590307850  0.5889128397986858
 
  0.00000000E+00  0.00000000E+00  0.00000000E+00
  0.00000000E+00  0.00000000E+00  0.00000000E+00
  0.00000000E+00  0.00000000E+00  0.00000000E+00
  0.00000000E+00  0.00000000E+00  0.00000000E+00
  0.00000000E+00  0.00000000E+00  0.00000000E+00
  0.00000000E+00  0.00000000E+00  0.00000000E+00
  0.00000000E+00  0.00000000E+00  0.00000000E+00
  0.00000000E+00  0.00000000E+00  0.00000000E+00
  0.00000000E+00  0.00000000E+00  0.00000000E+00
  0.00000000E+00  0.00000000E+00  0.00000000E+00
  0.00000000E+00  0.00000000E+00  0.00000000E+00
  0.00000000E+00  0.00000000E+00  0.00000000E+00
  0.00000000E+00  0.00000000E+00  0.00000000E+00
  0.00000000E+00  0.00000000E+00  0.00000000E+00
