CONTCAR                                 
   1.00000000000000     
    13.1778001785000001    0.0000000000000000    0.0000000000000000
    -6.5889000893000000   11.4123097205999997    0.0000000000000000
     0.0000000000000000    0.0000000000000000   18.1460990905999999
   W    Se   H 
    16    32     1
Selective dynamics
Direct
  0.0846436219858759  0.1673746179358346  0.5003616097472943   F   F   F
  0.3320391064998276  0.1643131928157331  0.4972913392366394   F   F   F
  0.5825370251161317  0.1673607950211249  0.5004701029266343   F   F   F
  0.8335138160681268  0.1672231766328451  0.5006618266809681   F   F   F
  0.0837724162552078  0.4173620980617727  0.5007433411181594   F   F   F
  0.3342249489117748  0.4170009529548295  0.5021453428494880   F   F   F
  0.5824838220745363  0.4170468216056804  0.5023452567028386   F   F   F
  0.8333166962358405  0.4173431873707827  0.5008875284086116   F   F   F
  0.0832701621932515  0.6668635302234023  0.5001343621970591   F   F   F
  0.3332638275192608  0.6674974728414398  0.5000726518115997   F   F   F
  0.5836410872352005  0.6675572569673562  0.5008691454843586   F   F   F
  0.8339392534989614  0.6674741046955432  0.5002595158464800   F   F   F
  0.0830161619638261  0.9168478174269907  0.4996542146663430   F   F   F
  0.3336023900919400  0.9168552257404698  0.4996384683242212   F   F   F
  0.5832647933871513  0.9169817902892703  0.5002889512357740   F   F   F
  0.8334797405628436  0.9169637635325856  0.5003081879150884   F   F   F
  0.1654529349089344  0.0826714656206917  0.4058074601578880   F   F   F
  0.1682351989620372  0.0839578765536686  0.5925190382635677   F   F   F
  0.4170490160017195  0.0826975049988690  0.4058543385982745   F   F   F
  0.4154318028752044  0.0839368524515862  0.5925553053694728   F   F   F
  0.6668756867473320  0.0842998013025138  0.4076845299078968   F   F   F
  0.6662377224644160  0.0837625497958072  0.5933204793589439   F   F   F
  0.9171751775545758  0.0842525822863749  0.4076427573955854   F   F   F
  0.9174555678069112  0.0837934839235359  0.5932639259095254   F   F   F
  0.1678309493339825  0.3344371009744478  0.4080177130445861   F   F   F
  0.1660216735842468  0.3332648776319189  0.5940474578444821   F   F   F
  0.4170454774716745  0.3341601134037901  0.4083963811768996   F   F   F
  0.4204687775317311  0.3414941705291668  0.6002801086170919   F   F   F
  0.6662884244662521  0.3344531154970056  0.4082244838397671   F   F   F
  0.6669988373799711  0.3332518773916817  0.5942082311903718   F   F   F
  0.9167418278837047  0.3339373856955987  0.4078390056788663   F   F   F
  0.9168514442706410  0.3337933714861023  0.5936802077109675   F   F   F
  0.1665838074533141  0.5833785716051807  0.4072067169040352   F   F   F
  0.1669655717866050  0.5843081079074466  0.5934876858452540   F   F   F
  0.4165804733196765  0.5826708826412386  0.4080341037450879   F   F   F
  0.4170276492985678  0.5851886713451293  0.5938420171081162   F   F   F
  0.6658659649111272  0.5826446384398949  0.4081699715087268   F   F   F
  0.6679230514477794  0.5853336442341828  0.5939653671349774   F   F   F
  0.9163230173406518  0.5832950361328741  0.4073527153470309   F   F   F
  0.9171529494543336  0.5843388777707190  0.5935994397141187   F   F   F
  0.1665013328455771  0.8332420641739233  0.4068180095544633   F   F   F
  0.1668601173601445  0.8339700344015881  0.5926956185451857   F   F   F
  0.4170394463801514  0.8334377017482950  0.4068193471234736   F   F   F
  0.4166481219970422  0.8341219839081759  0.5932168890797129   F   F   F
  0.6667334291655749  0.8336872625719565  0.4073365137187537   F   F   F
  0.6671175530322131  0.8344933921559630  0.5936038470408107   F   F   F
  0.9160894930292542  0.8332725412298956  0.4068927398913118   F   F   F
  0.9173131899636076  0.8342062483296573  0.5932845569726695   F   F   F
  0.4746152213712662  0.4521797747453959  0.6554545226064358   T   T   T
 
  0.00000000E+00  0.00000000E+00  0.00000000E+00
  0.00000000E+00  0.00000000E+00  0.00000000E+00
  0.00000000E+00  0.00000000E+00  0.00000000E+00
  0.00000000E+00  0.00000000E+00  0.00000000E+00
  0.00000000E+00  0.00000000E+00  0.00000000E+00
  0.00000000E+00  0.00000000E+00  0.00000000E+00
  0.00000000E+00  0.00000000E+00  0.00000000E+00
  0.00000000E+00  0.00000000E+00  0.00000000E+00
  0.00000000E+00  0.00000000E+00  0.00000000E+00
  0.00000000E+00  0.00000000E+00  0.00000000E+00
  0.00000000E+00  0.00000000E+00  0.00000000E+00
  0.00000000E+00  0.00000000E+00  0.00000000E+00
  0.00000000E+00  0.00000000E+00  0.00000000E+00
  0.00000000E+00  0.00000000E+00  0.00000000E+00
  0.00000000E+00  0.00000000E+00  0.00000000E+00
  0.00000000E+00  0.00000000E+00  0.00000000E+00
  0.00000000E+00  0.00000000E+00  0.00000000E+00
  0.00000000E+00  0.00000000E+00  0.00000000E+00
  0.00000000E+00  0.00000000E+00  0.00000000E+00
  0.00000000E+00  0.00000000E+00  0.00000000E+00
  0.00000000E+00  0.00000000E+00  0.00000000E+00
  0.00000000E+00  0.00000000E+00  0.00000000E+00
  0.00000000E+00  0.00000000E+00  0.00000000E+00
  0.00000000E+00  0.00000000E+00  0.00000000E+00
  0.00000000E+00  0.00000000E+00  0.00000000E+00
  0.00000000E+00  0.00000000E+00  0.00000000E+00
  0.00000000E+00  0.00000000E+00  0.00000000E+00
  0.00000000E+00  0.00000000E+00  0.00000000E+00
  0.00000000E+00  0.00000000E+00  0.00000000E+00
  0.00000000E+00  0.00000000E+00  0.00000000E+00
  0.00000000E+00  0.00000000E+00  0.00000000E+00
  0.00000000E+00  0.00000000E+00  0.00000000E+00
  0.00000000E+00  0.00000000E+00  0.00000000E+00
  0.00000000E+00  0.00000000E+00  0.00000000E+00
  0.00000000E+00  0.00000000E+00  0.00000000E+00
  0.00000000E+00  0.00000000E+00  0.00000000E+00
  0.00000000E+00  0.00000000E+00  0.00000000E+00
  0.00000000E+00  0.00000000E+00  0.00000000E+00
  0.00000000E+00  0.00000000E+00  0.00000000E+00
  0.00000000E+00  0.00000000E+00  0.00000000E+00
  0.00000000E+00  0.00000000E+00  0.00000000E+00
  0.00000000E+00  0.00000000E+00  0.00000000E+00
  0.00000000E+00  0.00000000E+00  0.00000000E+00
  0.00000000E+00  0.00000000E+00  0.00000000E+00
  0.00000000E+00  0.00000000E+00  0.00000000E+00
  0.00000000E+00  0.00000000E+00  0.00000000E+00
  0.00000000E+00  0.00000000E+00  0.00000000E+00
  0.00000000E+00  0.00000000E+00  0.00000000E+00
  0.00000000E+00  0.00000000E+00  0.00000000E+00
