Layer                                   
   1.00000000000000     
     3.5271000861999999    0.0000000000000000    0.0000000000000000
     1.7537552164000001    9.5587496525999995    0.0000000000000000
     0.0000000000000000    0.0000000000000000   15.5000000000000000
   H    O    Ta   Te
    16    10     3     6
Direct
  0.6615624255816550  0.6238373492212268  0.5557842383199108
  0.4243202294823813  0.7175710250435802  0.6252313663200744
  0.4314606706117539  0.9364254047863920  0.5266093947712549
  0.1917668522173266  0.0482883582051288  0.4806163042295258
  0.4371677297059903  0.3743883045520379  0.2466298438427368
  0.7503086025676761  0.1270633102769934  0.3732215042320810
  0.9880162509981397  0.4646024857407440  0.3403311247359176
  0.7994379505477490  0.6169568673927618  0.3855251440399142
  0.4752855232262642  0.1481522666234240  0.5861880132171100
  0.6193548074457778  0.3011995181277566  0.5810150799514602
  0.0916487279244210  0.4117920552732188  0.5688899553952870
  0.8745433068602900  0.4583006082800624  0.4819643883587743
  0.1643866246102732  0.3352324804390517  0.1804432546300106
  0.0130358782766319  0.2139601860530188  0.3275597959143453
  0.2395881900759839  0.7295032093150821  0.4936556586969863
  0.2835692650258767  0.7452150867557320  0.3911549298184428
  0.5397720989335687  0.7209336503668771  0.5680879728420937
  0.3144078776949474  0.0333200922072365  0.5367084555886014
  0.9904675273105441  0.1628677741638553  0.3790918752453301
  0.8158304413251661  0.5147427762646226  0.3837582874964031
  0.4817425475526096  0.2428865847779408  0.6147606385088085
  0.8315653610965356  0.4326341947772147  0.5456665363575633
  0.2216062070732971  0.3282060603966600  0.2419352149187818
  0.0949600682327194  0.7659270236376504  0.4377093697499195
  0.7971801046101104  0.3470947759027577  0.0989339048917066
  0.0893904657164036  0.6768664387006399  0.7210148582621995
  0.5923822041380351  0.7726001919932274  0.9285116136313730
  0.3795776506420596  0.3208483973827252  0.8856665252623405
  0.9852915400574671  0.0362584183075613  0.8932304684722798
  0.5517807493595963  0.8939352550778193  0.7719197372878774
  0.4703312741663930  0.1416586671145630  0.0250988008335479
  0.2145848658027997  0.5956849502006205  0.8291146756777703
  0.0681370236397033  0.8510341907653731  0.0555570018462733
  0.9105154783723569  0.2352955322114136  0.7608697866274119
  0.8444322404722709  0.4610972102807467  0.9960144877680631
 
 -0.12426647E-01  0.56801546E-03 -0.12286022E-01
  0.40304788E-03  0.47958835E-02  0.39649095E-03
  0.13426211E-02  0.13507608E-01  0.56395445E-02
 -0.67275459E-02  0.15842376E-01 -0.48631788E-02
 -0.35800262E-01  0.52233613E-02  0.16415627E-01
 -0.69718283E-02 -0.61436368E-02  0.44090793E-02
  0.10930582E-01 -0.35123429E-01  0.26388688E-03
 -0.51433281E-02  0.98101641E-03 -0.11050000E-01
  0.13424307E-01  0.66014117E-02  0.18207247E-01
  0.34279590E-01 -0.20957649E-01 -0.14368188E-01
  0.25183153E-01  0.25553693E-01 -0.95994537E-02
 -0.11292327E-01 -0.40033393E-01 -0.49367141E-02
 -0.55253059E-02 -0.54887583E-02  0.25621196E-03
 -0.52807629E-02  0.87936009E-02  0.74438947E-02
 -0.81687107E-02  0.27121157E-01  0.14680954E-01
 -0.21643120E-01 -0.37763791E-02  0.12843216E-01
 -0.28173262E-02 -0.11613283E-02 -0.29695081E-02
 -0.64078412E-03  0.62880517E-02  0.17931674E-02
 -0.21964665E-02 -0.31775548E-02  0.20453331E-02
 -0.49861704E-02 -0.18995627E-02 -0.57316794E-02
 -0.35371899E-02  0.70187676E-02 -0.59607747E-02
 -0.38844941E-02  0.82041998E-02  0.32705225E-03
  0.34089602E-02 -0.26517798E-02  0.19442490E-02
 -0.98277973E-03  0.25105712E-02 -0.36640737E-02
 -0.60898519E-02  0.16567047E-02 -0.50348788E-02
 -0.45877559E-02 -0.24772288E-02  0.31014704E-02
 -0.91065530E-04  0.50963490E-03  0.43211521E-03
  0.11181063E-02  0.34448805E-03  0.55198471E-03
 -0.15201426E-03 -0.27371961E-02  0.15694804E-02
  0.78247784E-03  0.27219778E-02 -0.29121291E-02
 -0.38293858E-03 -0.11862537E-02  0.85583490E-04
  0.13378709E-02 -0.19349217E-02 -0.16837696E-03
  0.35442852E-03  0.27169345E-03 -0.43234065E-04
 -0.11545788E-02  0.31786008E-03 -0.57144439E-03
  0.13833042E-02  0.70541203E-03  0.15788522E-02
 
           1
   1.00000000000000     
  0.21004186E+01 -0.13620107E-02  0.28081426E-17  0.00000000E+00
  0.65800969E+00  0.62389677E+00  0.55499159E+00
  0.42418503E+00  0.71807275E+00  0.62525695E+00
  0.43113870E+00  0.93783852E+00  0.52697324E+00
  0.18903538E+00  0.49945727E-01  0.48030255E+00
  0.42674597E+00  0.37493475E+00  0.24768892E+00
  0.74865153E+00  0.12642059E+00  0.37350596E+00
  0.99294231E+00  0.46092801E+00  0.34034815E+00
  0.79792869E+00  0.61705950E+00  0.38481224E+00
  0.47874818E+00  0.14884288E+00  0.58736267E+00
  0.63016389E+00  0.29900701E+00  0.58008810E+00
  0.97459390E-01  0.41446539E+00  0.56827064E+00
  0.87342416E+00  0.45411247E+00  0.48164589E+00
  0.16310561E+00  0.33465827E+00  0.18045978E+00
  0.11081260E-01  0.21488014E+00  0.32804005E+00
  0.23586143E+00  0.73234052E+00  0.49460282E+00
  0.27762947E+00  0.74482002E+00  0.39198352E+00
  0.53903374E+00  0.72081216E+00  0.56789639E+00
  0.31389911E+00  0.33977924E-01  0.53682414E+00
  0.99001008E+00  0.16253535E+00  0.37922383E+00
  0.81451558E+00  0.51454405E+00  0.38338850E+00
  0.48037459E+00  0.24362086E+00  0.61437607E+00
  0.83003727E+00  0.43349249E+00  0.54568764E+00
  0.22271065E+00  0.32792864E+00  0.24206065E+00
  0.94550838E-01  0.76618967E+00  0.43747298E+00
  0.79536734E+00  0.34726809E+00  0.98609074E-01
  0.88218609E-01  0.67660728E+00  0.72121495E+00
  0.59232988E+00  0.77265351E+00  0.92853949E+00
  0.37987674E+00  0.32088444E+00  0.88570214E+00
  0.98539082E+00  0.35972063E-01  0.89333173E+00
  0.55186101E+00  0.89422002E+00  0.77173186E+00
  0.47028441E+00  0.14153457E+00  0.25104322E-01
  0.21506483E+00  0.59548253E+00  0.82910381E+00
  0.68223378E-01  0.85106261E+00  0.55554213E-01
  0.91017160E+00  0.23532879E+00  0.76083292E+00
  0.84478774E+00  0.46117101E+00  0.99611635E+00
 -0.40323542E-02  0.27527271E-03 -0.90638964E-03
  0.11905308E-03  0.64351234E-03 -0.12997222E-04
 -0.11773336E-02  0.17479492E-02  0.16412152E-03
 -0.20253037E-02  0.10982930E-02 -0.17789441E-03
 -0.11765625E-01  0.36663688E-03  0.98448334E-03
 -0.18076313E-02 -0.68906386E-03  0.28858828E-03
  0.48090680E-02 -0.39376917E-02  0.83576911E-04
 -0.28201255E-02  0.32429700E-03 -0.60924790E-03
  0.36434644E-02  0.32772888E-03  0.12704702E-02
  0.93907002E-02 -0.24441387E-02 -0.63740706E-03
  0.56236359E-02  0.28254512E-02 -0.69496118E-03
 -0.53461950E-03 -0.39920137E-02 -0.40691281E-03
 -0.31480157E-03 -0.60588586E-03  0.16914219E-03
 -0.24268241E-02  0.58477132E-03  0.83693200E-03
 -0.32330807E-02  0.24849628E-02  0.12155083E-02
 -0.56389235E-02 -0.48912394E-03  0.74580670E-03
 -0.72609747E-03 -0.12904448E-03 -0.19321733E-03
 -0.51125382E-03  0.68064764E-03  0.11840110E-03
 -0.41804227E-03 -0.30519055E-03  0.10969956E-03
 -0.12492730E-02 -0.19013342E-03 -0.38386032E-03
 -0.13058114E-02  0.76863939E-03 -0.40366084E-03
 -0.15316393E-02  0.83326524E-03  0.39412537E-04
  0.11378569E-02 -0.26992043E-03  0.11280019E-03
 -0.41770946E-03  0.27473623E-03 -0.23669496E-03
 -0.18255756E-02  0.14933005E-03 -0.30421502E-03
 -0.11851099E-02 -0.25266259E-03  0.21218288E-03
 -0.56221513E-04  0.54290627E-04  0.27859033E-04
  0.29794999E-03  0.40765787E-04  0.35271457E-04
  0.98246155E-04 -0.28475786E-03  0.10033336E-03
  0.78618958E-04  0.28199125E-03 -0.18871640E-03
 -0.43528297E-04 -0.12845642E-03  0.67919755E-05
  0.48038905E-03 -0.20474602E-03 -0.12077533E-04
  0.85925558E-04  0.29258447E-04 -0.19729624E-05
 -0.34515157E-03  0.32307321E-04 -0.36125718E-04
  0.36440033E-03  0.74680428E-04  0.98677127E-04
  0.00000000E+00  0.00000000E+00  0.00000000E+00
  0.00000000E+00  0.00000000E+00  0.00000000E+00
  0.00000000E+00  0.00000000E+00  0.00000000E+00
  0.00000000E+00  0.00000000E+00  0.00000000E+00
  0.00000000E+00  0.00000000E+00  0.00000000E+00
  0.00000000E+00  0.00000000E+00  0.00000000E+00
  0.00000000E+00  0.00000000E+00  0.00000000E+00
  0.00000000E+00  0.00000000E+00  0.00000000E+00
  0.00000000E+00  0.00000000E+00  0.00000000E+00
  0.00000000E+00  0.00000000E+00  0.00000000E+00
  0.00000000E+00  0.00000000E+00  0.00000000E+00
  0.00000000E+00  0.00000000E+00  0.00000000E+00
  0.00000000E+00  0.00000000E+00  0.00000000E+00
  0.00000000E+00  0.00000000E+00  0.00000000E+00
  0.00000000E+00  0.00000000E+00  0.00000000E+00
  0.00000000E+00  0.00000000E+00  0.00000000E+00
  0.00000000E+00  0.00000000E+00  0.00000000E+00
  0.00000000E+00  0.00000000E+00  0.00000000E+00
  0.00000000E+00  0.00000000E+00  0.00000000E+00
  0.00000000E+00  0.00000000E+00  0.00000000E+00
  0.00000000E+00  0.00000000E+00  0.00000000E+00
  0.00000000E+00  0.00000000E+00  0.00000000E+00
  0.00000000E+00  0.00000000E+00  0.00000000E+00
  0.00000000E+00  0.00000000E+00  0.00000000E+00
  0.00000000E+00  0.00000000E+00  0.00000000E+00
  0.00000000E+00  0.00000000E+00  0.00000000E+00
  0.00000000E+00  0.00000000E+00  0.00000000E+00
  0.00000000E+00  0.00000000E+00  0.00000000E+00
  0.00000000E+00  0.00000000E+00  0.00000000E+00
  0.00000000E+00  0.00000000E+00  0.00000000E+00
  0.00000000E+00  0.00000000E+00  0.00000000E+00
  0.00000000E+00  0.00000000E+00  0.00000000E+00
  0.00000000E+00  0.00000000E+00  0.00000000E+00
  0.00000000E+00  0.00000000E+00  0.00000000E+00
  0.00000000E+00  0.00000000E+00  0.00000000E+00
