CONTCAR\(7)                             
   1.00000000000000     
    13.0895996094000004    0.0000000000000000    0.0000000000000000
     6.5373165239000004   11.3368964473999991    0.0000000000000000
     0.0000000000000000    0.0000000000000000   17.7437992095999988
   Cr   S    O 
    16    32     1
Direct
  0.0008148844907475  0.2524389758100590  0.5027197330241889
  0.2309460480967777  0.2545165168503653  0.4980141347476049
  0.5145831501275770  0.2098046419809940  0.4838909459184049
  0.7686942558870411  0.2589307997848229  0.5051446258270280
  0.0037406499734481  0.4809629871651622  0.4976617976425862
  0.2656738435457008  0.5176668369500403  0.4999113471229181
  0.4839691129848333  0.5323818566447271  0.5073821026815322
  0.7547889882362278  0.4992549089322616  0.5012509422318947
  0.9597081109746550  0.7652480127946928  0.4839332028242875
  0.2829253784190409  0.7413492237066522  0.5056578643541295
  0.4994506571249630  0.7502922358617655  0.5008989786143176
  0.7349209335829996  0.7355242479365148  0.4998275145098350
  0.0068028236109606  0.0182737845656869  0.5047124862360887
  0.2537027872180332 -0.0098819579776845  0.5027075998622195
  0.4854706037179192 -0.0143398751708912  0.5002550708911140
  0.7497012852414386 -0.0000948223974787  0.4964807076512712
  0.0886752524242951  0.0831056869967254  0.4214273652389662
  0.1670335450331754  0.1645708546797655  0.5802161707687201
  0.3275975125623447  0.0818306945014882  0.4210918365064767
  0.4150353939041718  0.1642693775776650  0.5678053203594740
  0.5861840605653024  0.0641779696592116  0.4105504084610825
  0.6650966253756826  0.1659300724690894  0.5679539868235144
  0.8383924506475799  0.0890401173975835  0.4267707788280370
  0.9205328132255314  0.1710533478850651  0.5886915947004354
  0.0805365691612602  0.3305004931660842  0.4134354026851601
  0.1708817632501746  0.4218894610894280  0.5703238501617773
  0.3379704389318517  0.3367892950886025  0.4335243203621876
  0.4048755034889736  0.4496251472799109  0.5949311971077207
  0.5752120937975235  0.3406790564911210  0.4517898371069987
  0.6643549094276814  0.4249682205270380  0.5805855539651552
  0.8354018103588863  0.3361535555539127  0.4196082728876072
  0.9200886612856743  0.4150532183932189  0.5829603472209061
  0.0855221090105762  0.5887825647410534  0.4333262200935669
  0.1984810298384760  0.6578541847431522  0.5930744259932341
  0.3387301666422772  0.5943473551429269  0.4168846492309699
  0.4262140770253282  0.6789982288479322  0.5918812308872700
  0.5828998482056549  0.5837883914056597  0.4238609537566141
  0.6658871672172562  0.6641671984246258  0.5835460004079410
  0.8341881879902896  0.5793964967614484  0.4190804445566303
  0.9136097417593143  0.6654027323511831  0.5673867497862669
  0.0908254079023835  0.8263400472483649  0.4511703539858522
  0.1730301360095405  0.9133219844222522  0.5832237138489079
  0.3375048160940806  0.8299658573147858  0.4196198071680453
  0.4165179760013759  0.9148682715919096  0.5849659568251571
  0.5781975306449967  0.8282456146638129  0.4179951020119229
  0.6623309600679583  0.9116958903549549  0.5679226746286599
  0.8141424186740500  0.8369137900907281  0.4104382223405503
  0.9149457422863434  0.9149858466374905  0.5687804114436424
  0.3064991909576029  0.5619612380641452  0.6524073347111561
 
  0.00000000E+00  0.00000000E+00  0.00000000E+00
  0.00000000E+00  0.00000000E+00  0.00000000E+00
  0.00000000E+00  0.00000000E+00  0.00000000E+00
  0.00000000E+00  0.00000000E+00  0.00000000E+00
  0.00000000E+00  0.00000000E+00  0.00000000E+00
  0.00000000E+00  0.00000000E+00  0.00000000E+00
  0.00000000E+00  0.00000000E+00  0.00000000E+00
  0.00000000E+00  0.00000000E+00  0.00000000E+00
  0.00000000E+00  0.00000000E+00  0.00000000E+00
  0.00000000E+00  0.00000000E+00  0.00000000E+00
  0.00000000E+00  0.00000000E+00  0.00000000E+00
  0.00000000E+00  0.00000000E+00  0.00000000E+00
  0.00000000E+00  0.00000000E+00  0.00000000E+00
  0.00000000E+00  0.00000000E+00  0.00000000E+00
  0.00000000E+00  0.00000000E+00  0.00000000E+00
  0.00000000E+00  0.00000000E+00  0.00000000E+00
  0.00000000E+00  0.00000000E+00  0.00000000E+00
  0.00000000E+00  0.00000000E+00  0.00000000E+00
  0.00000000E+00  0.00000000E+00  0.00000000E+00
  0.00000000E+00  0.00000000E+00  0.00000000E+00
  0.00000000E+00  0.00000000E+00  0.00000000E+00
  0.00000000E+00  0.00000000E+00  0.00000000E+00
  0.00000000E+00  0.00000000E+00  0.00000000E+00
  0.00000000E+00  0.00000000E+00  0.00000000E+00
  0.00000000E+00  0.00000000E+00  0.00000000E+00
  0.00000000E+00  0.00000000E+00  0.00000000E+00
  0.00000000E+00  0.00000000E+00  0.00000000E+00
  0.00000000E+00  0.00000000E+00  0.00000000E+00
  0.00000000E+00  0.00000000E+00  0.00000000E+00
  0.00000000E+00  0.00000000E+00  0.00000000E+00
  0.00000000E+00  0.00000000E+00  0.00000000E+00
  0.00000000E+00  0.00000000E+00  0.00000000E+00
  0.00000000E+00  0.00000000E+00  0.00000000E+00
  0.00000000E+00  0.00000000E+00  0.00000000E+00
  0.00000000E+00  0.00000000E+00  0.00000000E+00
  0.00000000E+00  0.00000000E+00  0.00000000E+00
  0.00000000E+00  0.00000000E+00  0.00000000E+00
  0.00000000E+00  0.00000000E+00  0.00000000E+00
  0.00000000E+00  0.00000000E+00  0.00000000E+00
  0.00000000E+00  0.00000000E+00  0.00000000E+00
  0.00000000E+00  0.00000000E+00  0.00000000E+00
  0.00000000E+00  0.00000000E+00  0.00000000E+00
  0.00000000E+00  0.00000000E+00  0.00000000E+00
  0.00000000E+00  0.00000000E+00  0.00000000E+00
  0.00000000E+00  0.00000000E+00  0.00000000E+00
  0.00000000E+00  0.00000000E+00  0.00000000E+00
  0.00000000E+00  0.00000000E+00  0.00000000E+00
  0.00000000E+00  0.00000000E+00  0.00000000E+00
  0.00000000E+00  0.00000000E+00  0.00000000E+00
