CONTCAR\(8)                             
   1.00000000000000     
    13.3121995926000007    0.0000000000000000    0.0000000000000000
    -6.6560997963000004   11.5287030274000006    0.0000000000000000
     0.0000000000000000    0.0000000000000000   18.1366004943999997
   Nb   S 
    16    32
Direct
  0.0000000000000000  0.0000000000000000  0.5000000000000000
  0.2500000000000000  0.0000000000000000  0.5000000000000000
  0.5000000000000000  0.0000000000000000  0.5000000000000000
  0.7500000180000015  0.0000000000000000  0.5000000000000000
  0.9999999970000033  0.2499999939999995  0.5000000000000000
  0.2499999970000033  0.2499999939999995  0.5000000000000000
  0.5000000060000005  0.2499999939999995  0.5000000000000000
  0.7499999879999990  0.2499999939999995  0.5000000000000000
  0.9999999939999995  0.4999999870000025  0.5000000000000000
  0.2499999939999995  0.4999999870000025  0.5000000000000000
  0.4999999939999995  0.4999999870000025  0.5000000000000000
  0.7500000289999988  0.4999999870000025  0.5000000000000000
  0.9999999919999993  0.7500000020000002  0.5000000000000000
  0.2499999919999993  0.7500000020000002  0.5000000000000000
  0.4999999919999993  0.7500000020000002  0.5000000000000000
  0.7500000100000008  0.7500000020000002  0.5000000000000000
  0.1666699960000031  0.0833299980000035  0.4137400010000007
  0.1666699960000031  0.0833299980000035  0.5862499819999982
  0.4166699869999988  0.0833299980000035  0.4137400010000007
  0.4166699869999988  0.0833299980000035  0.5862499819999982
  0.6666700050000003  0.0833299980000035  0.4137400010000007
  0.6666700050000003  0.0833299980000035  0.5862499819999982
  0.9166699869999988  0.0833299980000035  0.4137400010000007
  0.9166699869999988  0.0833299980000035  0.5862499819999982
  0.1666699980000033  0.3333300019999967  0.4137400010000007
  0.1666699980000033  0.3333300019999967  0.5862499819999982
  0.4166699800000018  0.3333300019999967  0.4137400010000007
  0.4166699800000018  0.3333300019999967  0.5862499819999982
  0.6666700520000006  0.3333300019999967  0.4137400010000007
  0.6666700520000006  0.3333300019999967  0.5862499819999982
  0.9166700339999991  0.3333300019999967  0.4137400010000007
  0.9166700339999991  0.3333300019999967  0.5862499819999982
  0.1666699929999993  0.5833299749999981  0.4137400010000007
  0.1666699929999993  0.5833299749999981  0.5862499819999982
  0.4166699749999978  0.5833299749999981  0.4137400010000007
  0.4166699749999978  0.5833299749999981  0.5862499819999982
  0.6666700110000008  0.5833299749999981  0.4137400010000007
  0.6666700110000008  0.5833299749999981  0.5862499819999982
  0.9166699929999993  0.5833299749999981  0.4137400010000007
  0.9166699929999993  0.5833299749999981  0.5862499819999982
  0.1666699920000028  0.8333299900000029  0.4137400010000007
  0.1666699920000028  0.8333299900000029  0.5862499819999982
  0.4166699740000013  0.8333299900000029  0.4137400010000007
  0.4166699740000013  0.8333299900000029  0.5862499819999982
  0.6666700270000021  0.8333299900000029  0.4137400010000007
  0.6666700270000021  0.8333299900000029  0.5862499819999982
  0.9166700099999971  0.8333299900000029  0.4137400010000007
  0.9166700099999971  0.8333299900000029  0.5862499819999982
 
  0.00000000E+00  0.00000000E+00  0.00000000E+00
  0.00000000E+00  0.00000000E+00  0.00000000E+00
  0.00000000E+00  0.00000000E+00  0.00000000E+00
  0.00000000E+00  0.00000000E+00  0.00000000E+00
  0.00000000E+00  0.00000000E+00  0.00000000E+00
  0.00000000E+00  0.00000000E+00  0.00000000E+00
  0.00000000E+00  0.00000000E+00  0.00000000E+00
  0.00000000E+00  0.00000000E+00  0.00000000E+00
  0.00000000E+00  0.00000000E+00  0.00000000E+00
  0.00000000E+00  0.00000000E+00  0.00000000E+00
  0.00000000E+00  0.00000000E+00  0.00000000E+00
  0.00000000E+00  0.00000000E+00  0.00000000E+00
  0.00000000E+00  0.00000000E+00  0.00000000E+00
  0.00000000E+00  0.00000000E+00  0.00000000E+00
  0.00000000E+00  0.00000000E+00  0.00000000E+00
  0.00000000E+00  0.00000000E+00  0.00000000E+00
  0.00000000E+00  0.00000000E+00  0.00000000E+00
  0.00000000E+00  0.00000000E+00  0.00000000E+00
  0.00000000E+00  0.00000000E+00  0.00000000E+00
  0.00000000E+00  0.00000000E+00  0.00000000E+00
  0.00000000E+00  0.00000000E+00  0.00000000E+00
  0.00000000E+00  0.00000000E+00  0.00000000E+00
  0.00000000E+00  0.00000000E+00  0.00000000E+00
  0.00000000E+00  0.00000000E+00  0.00000000E+00
  0.00000000E+00  0.00000000E+00  0.00000000E+00
  0.00000000E+00  0.00000000E+00  0.00000000E+00
  0.00000000E+00  0.00000000E+00  0.00000000E+00
  0.00000000E+00  0.00000000E+00  0.00000000E+00
  0.00000000E+00  0.00000000E+00  0.00000000E+00
  0.00000000E+00  0.00000000E+00  0.00000000E+00
  0.00000000E+00  0.00000000E+00  0.00000000E+00
  0.00000000E+00  0.00000000E+00  0.00000000E+00
  0.00000000E+00  0.00000000E+00  0.00000000E+00
  0.00000000E+00  0.00000000E+00  0.00000000E+00
  0.00000000E+00  0.00000000E+00  0.00000000E+00
  0.00000000E+00  0.00000000E+00  0.00000000E+00
  0.00000000E+00  0.00000000E+00  0.00000000E+00
  0.00000000E+00  0.00000000E+00  0.00000000E+00
  0.00000000E+00  0.00000000E+00  0.00000000E+00
  0.00000000E+00  0.00000000E+00  0.00000000E+00
  0.00000000E+00  0.00000000E+00  0.00000000E+00
  0.00000000E+00  0.00000000E+00  0.00000000E+00
  0.00000000E+00  0.00000000E+00  0.00000000E+00
  0.00000000E+00  0.00000000E+00  0.00000000E+00
  0.00000000E+00  0.00000000E+00  0.00000000E+00
  0.00000000E+00  0.00000000E+00  0.00000000E+00
  0.00000000E+00  0.00000000E+00  0.00000000E+00
  0.00000000E+00  0.00000000E+00  0.00000000E+00
