 Li2 Fe2 P2                             
   1.00000000000000     
     3.6002405964451025    0.0000000000000000    0.0000000000000000
     0.0000000000000000    3.6002405313245158    0.0000000000000000
     0.0000000000000000    0.0000000000000000   19.0321873897499998
   Li   Fe   P 
     2     2     2
Direct
  0.4999999966769753  0.0000000028394315  0.6058834012225295
  0.0000000055505141  0.5000000004882641  0.3941165983454107
 -0.0000000027420071 -0.0000000004428187  0.4999999994361271
  0.5000000026154207  0.4999999987702521  0.5000000005835437
 -0.0000000012413133  0.5000000006766047  0.5673678835182776
  0.4999999991404104 -0.0000000023317337  0.4326321168941115
 
  0.00000000E+00  0.00000000E+00  0.00000000E+00
  0.00000000E+00  0.00000000E+00  0.00000000E+00
  0.00000000E+00  0.00000000E+00  0.00000000E+00
  0.00000000E+00  0.00000000E+00  0.00000000E+00
  0.00000000E+00  0.00000000E+00  0.00000000E+00
  0.00000000E+00  0.00000000E+00  0.00000000E+00
