CONTCAR\(7)                             
   1.00000000000000     
    12.4510002136000004    0.0000000000000000    0.0000000000000000
     6.2255001068000002   10.7828824875000002    0.0000000000000000
     0.0000000000000000    0.0000000000000000   35.7985992432000018
   Ge   Te   As   O 
    36    63    18     1
Direct
  0.9932100120752563  0.9945959777234675  0.6466256916225787
  0.2180016671274486  0.2206348785956115  0.4509646653026696
  0.1064213460944953  0.1106462150080785  0.5490837166767518
  0.9962943922883922  0.9978852836191285  0.3522963778503985
  0.3302781436150755  0.9989267698376596  0.6475760216002208
  0.5514891545038290  0.2199196481318481  0.4510855547060474
  0.4403547759426573  0.1092918622522728  0.5491454071440302
  0.3295003892954658  0.9976697484361330  0.3525516427894329
  0.6579279165969774  0.0013878592827018  0.6484675372295171
  0.8842334785032231  0.2208621674542212  0.4508729640355768
  0.7741073358594752  0.1081871782567611  0.5493282646236584
  0.6620745154266681  0.9981645645426339  0.3522616425139991
  0.9955256966839008  0.3321573564959082  0.6479773626001590
  0.2179000895784274  0.5536911443373540  0.4510405140164984
  0.1062008716513398  0.4434302065850086  0.5489966457247103
  0.9959905662759465  0.3315043970478006  0.3523989050280489
  0.3281686232745215  0.3323779483679980  0.6478956297207883
  0.5514876613869447  0.5528444633363300  0.4512246321879368
  0.4398870278078613  0.4430335759641036  0.5491050508159572
  0.3294013939125907  0.3311037811851297  0.3525358518312959
  0.6616196510441971  0.3326441254832277  0.6479181096338728
  0.8839556301977304  0.5541265360916757  0.4509071280251073
  0.7742073269764411  0.4413662367092823  0.5493910351884563
  0.6620214609967424  0.3319342259322065  0.3523111229975909
  0.9974170663680459  0.6605712357839271  0.6486221967659243
  0.2178850159631629  0.8871186729140201  0.4509978884805788
  0.1060536179125393  0.7769481207106377  0.5490504220578746
  0.9959828533534367  0.6645935779126420  0.3523070515683520
  0.3288873382275319  0.6656274244516591  0.6475974265250131
  0.5514622701819725  0.8862467603912484  0.4511542534746630
  0.4396150967911354  0.7765765719668142  0.5493138909961524
  0.3297761805629375  0.6642801376504135  0.3524083166983051
  0.6610164948961600  0.6642196277030115  0.6483925758555961
  0.8843936198820628  0.8872372185514519  0.4505766195051612
  0.7727511032659301  0.7746609212820651  0.5490508598789019
  0.6617080417778775  0.6647174632568129  0.3522312801895824
  0.0018320100839778  0.9997974565524498  0.7915070799148332
  0.1116703792785402  0.1100379416576467  0.6949428018159430
  0.2267911881314542  0.2237730105358043  0.3041946438791088
  0.0037296179472602  0.0016219124115159  0.2095689654813404
  0.0058892911288157  0.0032350687086093  0.5002382964955849
  0.1166605474148517  0.1136536799817337  0.4020808341308263
  0.2273332036010255  0.2251970257108591  0.5982580514607809
  0.3338052766015093  0.0001815242638596  0.7904845835089545
  0.4470773847422489  0.1141800910180044  0.6963025372372973
  0.5595863127067870  0.2243254173286470  0.3041894845056818
  0.3368102696356129  0.0018434114700804  0.2094378403408905
  0.3394208482468453  0.0027150703394869  0.5000593863707247
  0.4496947100810103  0.1135380908508517  0.4019576810181910
  0.5614585166275432  0.2247742169427021  0.5982195339267538
  0.6704305002148208  0.0020425250389839  0.7906480806544772
  0.7839421032087293  0.1112533699674494  0.6947758087040209
  0.8932601698233167  0.2240299654989922  0.3042659595572385
  0.6708913075282039  0.0012634618793362  0.2094115198274335
  0.6721923477380592  0.0023825581322945  0.5000838299305235
  0.7834337204668675  0.1137414798147994  0.4020668373775977
  0.8942030377378406  0.2256850775955714  0.5977584995406812
  0.0011084073478254  0.3316449814700722  0.7903631814138642
  0.1152579084308978  0.4454349894876133  0.6962758555269494
  0.2265960291811632  0.5573545732482473  0.3041662257302282
  0.0036979971314785  0.3347745717882240  0.2095033495561723
  0.0053659440049569  0.3369217623587418  0.4998923940419587
  0.1164861749295093  0.4469172714496437  0.4020876316014239
  0.2273594685097051  0.5589050488653656  0.5981507331359074
  0.3543709461887409  0.3522542557573542  0.7962909444827917
  0.4483254415680600  0.4469246873824532  0.6959066713341994
  0.5597017986833939  0.5574080056890787  0.3041908527523375
  0.3370302705587321  0.3347061005700590  0.2093253693275922
  0.3389182746652941  0.3356576359553246  0.5001504479372119
  0.4497546586407807  0.4465971868528124  0.4019671103258735
  0.5609341042829654  0.5580450700729724  0.5979541634579058
  0.6630559410538601  0.3352003408166011  0.7922321653454862
  0.7805968051387649  0.4458689086636927  0.6963456847175755
  0.8935353611278906  0.5572376814540111  0.3042792732796862
  0.6705727063936547  0.3348968752620209  0.2094330621065328
  0.6720932074941918  0.3355691022083040  0.4999519159182850
  0.7832450427616303  0.4469005449980801  0.4018712808292479
  0.8934795053047826  0.5581653337256041  0.5979366890964504
  0.0028791690862533  0.6687244646452531  0.7907138193114012
  0.1132816329504572  0.7821240097761957  0.6947145371444212
  0.2265912798371812  0.8906273760830504  0.3042984884340070
  0.0040342229846245  0.6681218324886341  0.2095467482141867
  0.0053604005177674  0.6693192253338408  0.5001265090564168
  0.1167566576318561  0.7802450320697996  0.4022118443349625
  0.2279349499143224  0.8922297866289415  0.5977912207926753
  0.3352475969979015  0.6627472895789781  0.7923338723373063
  0.4474063911672557  0.7795738512740551  0.6962451540300829
  0.5599274208341928  0.8909181890353832  0.3041725407543514
  0.3372511388324726  0.6681903095531616  0.2094993942173225
  0.3388958832871667  0.6691360291236536  0.4999969657016047
  0.4498354237341929  0.7798307413428190  0.4019308914573157
  0.5609886497226968  0.8909726893319735  0.5980902260380536
  0.6689812039583223  0.6687619986106123  0.7908614738027132
  0.7812608599802037  0.7793964577662226  0.6961195954526126
  0.8934270442712126  0.8908827257006765  0.3042496284236740
  0.6705471954939561  0.6682899060858318  0.2095259124277871
  0.6717234196922464  0.6686348733953686  0.4996566708992489
  0.7831746805028337  0.7806556918375537  0.4019499086046977
  0.8930988597744254  0.8900491022860553  0.5975021199974632
  0.1067463255720436  0.1094689784162589  0.2525523124486123
  0.2044641766450066  0.2075005192976675  0.7457662795468896
  0.4398718935626306  0.1096187510240135  0.2523536108882224
  0.5571047175502616  0.2183023491418401  0.7475445059811826
  0.7735487354183046  0.1094551588538902  0.2523241766573193
  0.8763222686323411  0.2206906951336833  0.7497498569695823
  0.1066500411354045  0.4427330953299571  0.2526334348389310
  0.2153452971034541  0.5574009376846667  0.7478083760273592
  0.4395786957983356  0.4421958277713405  0.2524584322073842
  0.5491696444760213  0.5533869867880752  0.7480389601764447
  0.7739732755370333  0.4420504818085620  0.2523194996923597
  0.8813260392233021  0.5544609613181574  0.7474005065617481
  0.1068611015439499  0.7762291201947981  0.2525246449235969
  0.2184777947857246  0.8774096300712427  0.7500650602524900
  0.4398940103094748  0.7762651185471728  0.2523244945651171
  0.5494582975526383  0.8863981739661327  0.7472768895888069
  0.7734709454228608  0.7762795356494888  0.2524215907261805
  0.8830656692991899  0.8862692093185336  0.7476985635805341
  0.4314805126185631  0.4310332497091326  0.8214090114770172
 
  0.00000000E+00  0.00000000E+00  0.00000000E+00
  0.00000000E+00  0.00000000E+00  0.00000000E+00
  0.00000000E+00  0.00000000E+00  0.00000000E+00
  0.00000000E+00  0.00000000E+00  0.00000000E+00
  0.00000000E+00  0.00000000E+00  0.00000000E+00
  0.00000000E+00  0.00000000E+00  0.00000000E+00
  0.00000000E+00  0.00000000E+00  0.00000000E+00
  0.00000000E+00  0.00000000E+00  0.00000000E+00
  0.00000000E+00  0.00000000E+00  0.00000000E+00
  0.00000000E+00  0.00000000E+00  0.00000000E+00
  0.00000000E+00  0.00000000E+00  0.00000000E+00
  0.00000000E+00  0.00000000E+00  0.00000000E+00
  0.00000000E+00  0.00000000E+00  0.00000000E+00
  0.00000000E+00  0.00000000E+00  0.00000000E+00
  0.00000000E+00  0.00000000E+00  0.00000000E+00
  0.00000000E+00  0.00000000E+00  0.00000000E+00
  0.00000000E+00  0.00000000E+00  0.00000000E+00
  0.00000000E+00  0.00000000E+00  0.00000000E+00
  0.00000000E+00  0.00000000E+00  0.00000000E+00
  0.00000000E+00  0.00000000E+00  0.00000000E+00
  0.00000000E+00  0.00000000E+00  0.00000000E+00
  0.00000000E+00  0.00000000E+00  0.00000000E+00
  0.00000000E+00  0.00000000E+00  0.00000000E+00
  0.00000000E+00  0.00000000E+00  0.00000000E+00
  0.00000000E+00  0.00000000E+00  0.00000000E+00
  0.00000000E+00  0.00000000E+00  0.00000000E+00
  0.00000000E+00  0.00000000E+00  0.00000000E+00
  0.00000000E+00  0.00000000E+00  0.00000000E+00
  0.00000000E+00  0.00000000E+00  0.00000000E+00
  0.00000000E+00  0.00000000E+00  0.00000000E+00
  0.00000000E+00  0.00000000E+00  0.00000000E+00
  0.00000000E+00  0.00000000E+00  0.00000000E+00
  0.00000000E+00  0.00000000E+00  0.00000000E+00
  0.00000000E+00  0.00000000E+00  0.00000000E+00
  0.00000000E+00  0.00000000E+00  0.00000000E+00
  0.00000000E+00  0.00000000E+00  0.00000000E+00
  0.00000000E+00  0.00000000E+00  0.00000000E+00
  0.00000000E+00  0.00000000E+00  0.00000000E+00
  0.00000000E+00  0.00000000E+00  0.00000000E+00
  0.00000000E+00  0.00000000E+00  0.00000000E+00
  0.00000000E+00  0.00000000E+00  0.00000000E+00
  0.00000000E+00  0.00000000E+00  0.00000000E+00
  0.00000000E+00  0.00000000E+00  0.00000000E+00
  0.00000000E+00  0.00000000E+00  0.00000000E+00
  0.00000000E+00  0.00000000E+00  0.00000000E+00
  0.00000000E+00  0.00000000E+00  0.00000000E+00
  0.00000000E+00  0.00000000E+00  0.00000000E+00
  0.00000000E+00  0.00000000E+00  0.00000000E+00
  0.00000000E+00  0.00000000E+00  0.00000000E+00
  0.00000000E+00  0.00000000E+00  0.00000000E+00
  0.00000000E+00  0.00000000E+00  0.00000000E+00
  0.00000000E+00  0.00000000E+00  0.00000000E+00
  0.00000000E+00  0.00000000E+00  0.00000000E+00
  0.00000000E+00  0.00000000E+00  0.00000000E+00
  0.00000000E+00  0.00000000E+00  0.00000000E+00
  0.00000000E+00  0.00000000E+00  0.00000000E+00
  0.00000000E+00  0.00000000E+00  0.00000000E+00
  0.00000000E+00  0.00000000E+00  0.00000000E+00
  0.00000000E+00  0.00000000E+00  0.00000000E+00
  0.00000000E+00  0.00000000E+00  0.00000000E+00
  0.00000000E+00  0.00000000E+00  0.00000000E+00
  0.00000000E+00  0.00000000E+00  0.00000000E+00
  0.00000000E+00  0.00000000E+00  0.00000000E+00
  0.00000000E+00  0.00000000E+00  0.00000000E+00
  0.00000000E+00  0.00000000E+00  0.00000000E+00
  0.00000000E+00  0.00000000E+00  0.00000000E+00
  0.00000000E+00  0.00000000E+00  0.00000000E+00
  0.00000000E+00  0.00000000E+00  0.00000000E+00
  0.00000000E+00  0.00000000E+00  0.00000000E+00
  0.00000000E+00  0.00000000E+00  0.00000000E+00
  0.00000000E+00  0.00000000E+00  0.00000000E+00
  0.00000000E+00  0.00000000E+00  0.00000000E+00
  0.00000000E+00  0.00000000E+00  0.00000000E+00
  0.00000000E+00  0.00000000E+00  0.00000000E+00
  0.00000000E+00  0.00000000E+00  0.00000000E+00
  0.00000000E+00  0.00000000E+00  0.00000000E+00
  0.00000000E+00  0.00000000E+00  0.00000000E+00
  0.00000000E+00  0.00000000E+00  0.00000000E+00
  0.00000000E+00  0.00000000E+00  0.00000000E+00
  0.00000000E+00  0.00000000E+00  0.00000000E+00
  0.00000000E+00  0.00000000E+00  0.00000000E+00
  0.00000000E+00  0.00000000E+00  0.00000000E+00
  0.00000000E+00  0.00000000E+00  0.00000000E+00
  0.00000000E+00  0.00000000E+00  0.00000000E+00
  0.00000000E+00  0.00000000E+00  0.00000000E+00
  0.00000000E+00  0.00000000E+00  0.00000000E+00
  0.00000000E+00  0.00000000E+00  0.00000000E+00
  0.00000000E+00  0.00000000E+00  0.00000000E+00
  0.00000000E+00  0.00000000E+00  0.00000000E+00
  0.00000000E+00  0.00000000E+00  0.00000000E+00
  0.00000000E+00  0.00000000E+00  0.00000000E+00
  0.00000000E+00  0.00000000E+00  0.00000000E+00
  0.00000000E+00  0.00000000E+00  0.00000000E+00
  0.00000000E+00  0.00000000E+00  0.00000000E+00
  0.00000000E+00  0.00000000E+00  0.00000000E+00
  0.00000000E+00  0.00000000E+00  0.00000000E+00
  0.00000000E+00  0.00000000E+00  0.00000000E+00
  0.00000000E+00  0.00000000E+00  0.00000000E+00
  0.00000000E+00  0.00000000E+00  0.00000000E+00
  0.00000000E+00  0.00000000E+00  0.00000000E+00
  0.00000000E+00  0.00000000E+00  0.00000000E+00
  0.00000000E+00  0.00000000E+00  0.00000000E+00
  0.00000000E+00  0.00000000E+00  0.00000000E+00
  0.00000000E+00  0.00000000E+00  0.00000000E+00
  0.00000000E+00  0.00000000E+00  0.00000000E+00
  0.00000000E+00  0.00000000E+00  0.00000000E+00
  0.00000000E+00  0.00000000E+00  0.00000000E+00
  0.00000000E+00  0.00000000E+00  0.00000000E+00
  0.00000000E+00  0.00000000E+00  0.00000000E+00
  0.00000000E+00  0.00000000E+00  0.00000000E+00
  0.00000000E+00  0.00000000E+00  0.00000000E+00
  0.00000000E+00  0.00000000E+00  0.00000000E+00
  0.00000000E+00  0.00000000E+00  0.00000000E+00
  0.00000000E+00  0.00000000E+00  0.00000000E+00
  0.00000000E+00  0.00000000E+00  0.00000000E+00
  0.00000000E+00  0.00000000E+00  0.00000000E+00
  0.00000000E+00  0.00000000E+00  0.00000000E+00
  0.00000000E+00  0.00000000E+00  0.00000000E+00
