CONTCAR\(2)                             
   1.00000000000000     
    12.1478996276999993    0.0000000000000000    0.0000000000000000
     0.0000000000000000   12.1478996276999993    0.0000000000000000
     0.0000000000000000    0.0000000000000000   26.4330997467000017
   Sr   Sb   Se   F    O    H 
    18    18    36    18     2     1
Direct
  0.0015211179091257  0.1691496972103519  0.4448378132476560
  0.1682817196609656  0.0026823064669173  0.5556724697278517
  0.3345438318745917  0.1690672046443637  0.4446503263759345
  0.5013041159143463  0.0025837337540919  0.5556025653467324
  0.6675279370173773  0.1691075916471159  0.4447311388969911
  0.8346723221161367  0.0024300704059174  0.5555430826907987
  0.0014027123292754  0.5020162574021596  0.4445935707188090
  0.1696261717447126  0.3373060866277308  0.5565307287227800
  0.3344719450208077  0.5020308996490134  0.4445889316592981
  0.4998364743566082  0.3374942405274250  0.5564424648677921
  0.6677250506148747  0.5020427883458743  0.4445155450553442
  0.8345489754203651  0.3359983809724748  0.5557058175062797
  0.0016230155421794  0.8351464312770521  0.4447217674044822
  0.1698479238019204  0.6676212592690060  0.5562520192009636
  0.3344521007404759  0.8355431065649943  0.4444451715726932
  0.4995994532657367  0.6678095060053560  0.5559541169277827
  0.6675715662946803  0.8352652223533430  0.4446080946286649
  0.8346279559665514  0.6690542066782769  0.5555094719304843
  0.9967482359599283  0.1704448049461061  0.7025707513410413
  0.1700215962646232  0.0020237212575342  0.2977593819866102
  0.3313760334276829  0.1685908152890196  0.7029370119750966
  0.5036052057347692  0.0018830826568226  0.2976633016832554
  0.6677821014957105  0.1636419562320598  0.7029675809326237
  0.8367317658566594  0.0019681261768059  0.2978508516912715
  0.0001067649901876  0.4999283249712814  0.7025150412258796
  0.1701589084301101  0.3351633248083700  0.2976061204027362
  0.3309396389432346  0.4993031830139631  0.7096798645169495
  0.5033909409090123  0.3352747842981515  0.2976142731679939
  0.6624866565941471  0.5042948931030549  0.7024833232962937
  0.8367293402123610  0.3352543916407965  0.2977811213291980
 -0.0001016409715246  0.8313609857952934  0.7024190439741810
  0.1701462951742828  0.6686228104943672  0.2975979098345843
  0.3304264011264865  0.8369573411932909  0.7027707371452978
  0.5033981655174135  0.6686969101158168  0.2975761228900526
  0.6647652602552182  0.8332593471963156  0.7024044444155754
  0.8369263835145958  0.6685859682482460  0.2977666277218832
  0.1680895203185034  0.0022799036746497  0.3939229015165037
  0.1832548127131054  0.0090643970297462  0.7207898786762612
  0.9847881033181891  0.1645937406091112  0.2799594317550149
  0.0009550986067060  0.1695490126311189  0.6065336850491534
  0.5014861739405629  0.0022604511449595  0.3938612059210195
  0.5182193009870736  0.0075482102274643  0.7212757716398571
  0.3181593525574954  0.1644864826372304  0.2799000401671340
  0.3351803752278564  0.1685155067030443  0.6069200207330039
  0.8349379733532188  0.0020755725396538  0.3940276976567864
  0.8446387744081266  0.0133289473844916  0.7211162549237246
  0.6516118095103942  0.1645289972624396  0.2799813501161303
  0.6683665995579869  0.1689087091784242  0.6071100264545836
  0.1681679604400287  0.3353485626698180  0.3937147676989124
  0.1810800338599755  0.3391826503862576  0.7208176936080458
  0.9848773270739449  0.4979227456204890  0.2800038030044650
  0.0006075546339772  0.5027889452160275  0.6065715689926784
  0.5014799071477912  0.3354032864365790  0.3937621031778881
  0.5102962557757827  0.3500317647640526  0.7211346184169618
  0.3183166195163860  0.4979118654516965  0.2798915423993029
  0.3352790587021557  0.5028202880372696  0.6080506396282890
  0.8349307986968493  0.3352763644146363  0.3939323640628644
  0.8503375878974925  0.3421739790180356  0.7206391127748011
  0.6516126976931019  0.4979094728909499  0.2799536408745940
  0.6680787095967449  0.5033912943254474  0.6064858476243215
  0.1681455906905704  0.6687502909361772  0.3937264465742145
  0.1804179282059558  0.6803520279375250  0.7215677832692997
  0.9849274421244548  0.8312997570082933  0.2800134660247537
  0.0017984162897848  0.8354518663880899  0.6065406194561606
  0.5013853568698169  0.6688526920788271  0.3936629531150432
  0.5160136223408409  0.6751668171520004  0.7214224492320365
  0.3181685064664342  0.8313812133298537  0.2799179530535137
  0.3345743071661817  0.8372542817290192  0.6067211631812230
  0.8348706103126272  0.6687604501101388  0.3939417742951311
  0.8508797761880792  0.6749570777602748  0.7207882438648878
  0.6515903524042431  0.8313195473810830  0.2799238000765131
  0.6677580862066571  0.8358788651585006  0.6064414832612239
  0.0013961074778624  0.0021185558920685  0.5003690364074130
  0.1678525429281515  0.1694050877928079  0.5005063253363011
  0.3346479974119968  0.0023367973956640  0.5000891278916609
  0.5009680066916236  0.1694399651917079  0.5005104496567472
  0.6679696638169484  0.0021526578836200  0.5002312949566453
  0.8342458152686636  0.1689620887236596  0.5002617959213250
  0.0015503943306271  0.3356738489452191  0.5004776568332153
  0.1675648953940011  0.5021990274970003  0.4998324177530567
  0.3346312726842579  0.3352221905897650  0.4999253104429767
  0.5013272360330487  0.5022357585264867  0.4995942721549398
  0.6676336919637526  0.3355369889061768  0.5005784465338232
  0.8342951304835347  0.5022322338663010  0.5001134736560092
  0.0016988228875387  0.6685694592298610  0.5003734831360961
  0.1679654449067088  0.8354695164532946  0.5003691718407056
  0.3345535577650280  0.6692285696485073  0.4996463561982353
  0.5007624426854586  0.8356055628048972  0.5002467396993551
  0.6676723141285850  0.6687733394595134  0.5001917364521681
  0.8344857875258819  0.8356782183859836  0.5001948460593231
  0.3326148879097660  0.5240476398732523  0.7910654070889745
  0.3488979039615763  0.4243000848569475  0.8192020007456239
  0.4286315729203150  0.4263129376151386  0.8256779629473096
 
  0.00000000E+00  0.00000000E+00  0.00000000E+00
  0.00000000E+00  0.00000000E+00  0.00000000E+00
  0.00000000E+00  0.00000000E+00  0.00000000E+00
  0.00000000E+00  0.00000000E+00  0.00000000E+00
  0.00000000E+00  0.00000000E+00  0.00000000E+00
  0.00000000E+00  0.00000000E+00  0.00000000E+00
  0.00000000E+00  0.00000000E+00  0.00000000E+00
  0.00000000E+00  0.00000000E+00  0.00000000E+00
  0.00000000E+00  0.00000000E+00  0.00000000E+00
  0.00000000E+00  0.00000000E+00  0.00000000E+00
  0.00000000E+00  0.00000000E+00  0.00000000E+00
  0.00000000E+00  0.00000000E+00  0.00000000E+00
  0.00000000E+00  0.00000000E+00  0.00000000E+00
  0.00000000E+00  0.00000000E+00  0.00000000E+00
  0.00000000E+00  0.00000000E+00  0.00000000E+00
  0.00000000E+00  0.00000000E+00  0.00000000E+00
  0.00000000E+00  0.00000000E+00  0.00000000E+00
  0.00000000E+00  0.00000000E+00  0.00000000E+00
  0.00000000E+00  0.00000000E+00  0.00000000E+00
  0.00000000E+00  0.00000000E+00  0.00000000E+00
  0.00000000E+00  0.00000000E+00  0.00000000E+00
  0.00000000E+00  0.00000000E+00  0.00000000E+00
  0.00000000E+00  0.00000000E+00  0.00000000E+00
  0.00000000E+00  0.00000000E+00  0.00000000E+00
  0.00000000E+00  0.00000000E+00  0.00000000E+00
  0.00000000E+00  0.00000000E+00  0.00000000E+00
  0.00000000E+00  0.00000000E+00  0.00000000E+00
  0.00000000E+00  0.00000000E+00  0.00000000E+00
  0.00000000E+00  0.00000000E+00  0.00000000E+00
  0.00000000E+00  0.00000000E+00  0.00000000E+00
  0.00000000E+00  0.00000000E+00  0.00000000E+00
  0.00000000E+00  0.00000000E+00  0.00000000E+00
  0.00000000E+00  0.00000000E+00  0.00000000E+00
  0.00000000E+00  0.00000000E+00  0.00000000E+00
  0.00000000E+00  0.00000000E+00  0.00000000E+00
  0.00000000E+00  0.00000000E+00  0.00000000E+00
  0.00000000E+00  0.00000000E+00  0.00000000E+00
  0.00000000E+00  0.00000000E+00  0.00000000E+00
  0.00000000E+00  0.00000000E+00  0.00000000E+00
  0.00000000E+00  0.00000000E+00  0.00000000E+00
  0.00000000E+00  0.00000000E+00  0.00000000E+00
  0.00000000E+00  0.00000000E+00  0.00000000E+00
  0.00000000E+00  0.00000000E+00  0.00000000E+00
  0.00000000E+00  0.00000000E+00  0.00000000E+00
  0.00000000E+00  0.00000000E+00  0.00000000E+00
  0.00000000E+00  0.00000000E+00  0.00000000E+00
  0.00000000E+00  0.00000000E+00  0.00000000E+00
  0.00000000E+00  0.00000000E+00  0.00000000E+00
  0.00000000E+00  0.00000000E+00  0.00000000E+00
  0.00000000E+00  0.00000000E+00  0.00000000E+00
  0.00000000E+00  0.00000000E+00  0.00000000E+00
  0.00000000E+00  0.00000000E+00  0.00000000E+00
  0.00000000E+00  0.00000000E+00  0.00000000E+00
  0.00000000E+00  0.00000000E+00  0.00000000E+00
  0.00000000E+00  0.00000000E+00  0.00000000E+00
  0.00000000E+00  0.00000000E+00  0.00000000E+00
  0.00000000E+00  0.00000000E+00  0.00000000E+00
  0.00000000E+00  0.00000000E+00  0.00000000E+00
  0.00000000E+00  0.00000000E+00  0.00000000E+00
  0.00000000E+00  0.00000000E+00  0.00000000E+00
  0.00000000E+00  0.00000000E+00  0.00000000E+00
  0.00000000E+00  0.00000000E+00  0.00000000E+00
  0.00000000E+00  0.00000000E+00  0.00000000E+00
  0.00000000E+00  0.00000000E+00  0.00000000E+00
  0.00000000E+00  0.00000000E+00  0.00000000E+00
  0.00000000E+00  0.00000000E+00  0.00000000E+00
  0.00000000E+00  0.00000000E+00  0.00000000E+00
  0.00000000E+00  0.00000000E+00  0.00000000E+00
  0.00000000E+00  0.00000000E+00  0.00000000E+00
  0.00000000E+00  0.00000000E+00  0.00000000E+00
  0.00000000E+00  0.00000000E+00  0.00000000E+00
  0.00000000E+00  0.00000000E+00  0.00000000E+00
  0.00000000E+00  0.00000000E+00  0.00000000E+00
  0.00000000E+00  0.00000000E+00  0.00000000E+00
  0.00000000E+00  0.00000000E+00  0.00000000E+00
  0.00000000E+00  0.00000000E+00  0.00000000E+00
  0.00000000E+00  0.00000000E+00  0.00000000E+00
  0.00000000E+00  0.00000000E+00  0.00000000E+00
  0.00000000E+00  0.00000000E+00  0.00000000E+00
  0.00000000E+00  0.00000000E+00  0.00000000E+00
  0.00000000E+00  0.00000000E+00  0.00000000E+00
  0.00000000E+00  0.00000000E+00  0.00000000E+00
  0.00000000E+00  0.00000000E+00  0.00000000E+00
  0.00000000E+00  0.00000000E+00  0.00000000E+00
  0.00000000E+00  0.00000000E+00  0.00000000E+00
  0.00000000E+00  0.00000000E+00  0.00000000E+00
  0.00000000E+00  0.00000000E+00  0.00000000E+00
  0.00000000E+00  0.00000000E+00  0.00000000E+00
  0.00000000E+00  0.00000000E+00  0.00000000E+00
  0.00000000E+00  0.00000000E+00  0.00000000E+00
  0.00000000E+00  0.00000000E+00  0.00000000E+00
  0.00000000E+00  0.00000000E+00  0.00000000E+00
  0.00000000E+00  0.00000000E+00  0.00000000E+00
