CONTCAR\(18)                            
   1.00000000000000     
    18.0916004181000005    0.0000000000000000    0.0000000000000000
     1.9381108455000000   16.0410405593999990    0.0000000000000000
     0.0000000000000000    0.0000000000000000   22.7443008422999995
   Sc   C    I 
    23     8    44
Direct
  0.3758299961844649  0.5323686109394589  0.5524329238333014
  0.2088133725512754  0.6839469123602963  0.4473504674725854
  0.4636743893695704  0.3383514883446953  0.4945042635044205
  0.1188372170771196  0.8765782530600645  0.5060993322625671
  0.3457130520990851  0.3357162894074958  0.5981224023034473
  0.2377543190458123  0.8806962178862920  0.4023748135632346
  0.2145337947201093  0.4204311504184849  0.5189364184148547
  0.3696421611007542  0.7978371498608434  0.4818435150992052
  0.3328112761539694  0.4277341745893154  0.4161893765766559
  0.2514364554335156  0.7884070832397344  0.5843295124298978
  0.3087972382567872  0.2289800772806690  0.4635203928284953
  0.2748349014675368  0.9868461903215010  0.5373204378240051
  0.8744192834355602  0.5353287917810987  0.5527621248114519
  0.7076475392009510  0.6850216190051318  0.4448837406123915
  0.9643931143948438  0.3387743334924344  0.4937325465932466
  0.6273099196613033  0.8706368603632956  0.5164042699413003
  0.8460158086817059  0.3360448534295740  0.5968429906343071
  0.7365295263043075  0.8846629120934898  0.3966586099592473
  0.7161685026228668  0.4245831014769261  0.5180801574545797
  0.8632932473028350  0.7927967258350643  0.4903174107894924
  0.8336926442315240  0.4290338954742526  0.4150259914109413
  0.8085555102294877  0.2304116050161560  0.4621216657690400
  0.7764692760714993  0.9854333191905723  0.5427714255176074
  0.2367495261937687  0.7942422011709580  0.4824677731339698
  0.3472199565125567  0.4219614532189710  0.5177620114899489
  0.2528858306246791  0.8723450343496468  0.5038808224270219
  0.3303369978100734  0.3438896155024186  0.4966454335330018
  0.7367253189553356  0.7985353042393107  0.4777158949547171
  0.8487323975784224  0.4227786615845877  0.5167722141301860
  0.7534852488903492  0.8726633430032696  0.5002005554819546
  0.8313202754167263  0.3450931495525408  0.4950276666221434
  0.3808917463534194  0.4773657108766983  0.6711617309054284
  0.2042890892531988  0.7390732760520160  0.3286156662790819
  0.0341245576886543  0.4875401935172292  0.5352283127937726
  0.0536089884552892  0.7240493586415923  0.4645092561719825
  0.2164912711585438  0.6020007905494393  0.5679229387090345
  0.3686452747085030  0.6136363297064589  0.4317746940547048
  0.2708910065488667  0.0598709524221825  0.4164599244650394
  0.3103769748551086  0.1574821211530478  0.5840872545258174
  0.4620248170813602  0.1724372846636006  0.4452750470951212
  0.1209608243625833  0.0433047505631586  0.5552349756274507
  0.1457880058362043  0.2794064170536601  0.4765641365387460
  0.4357256973329671  0.9385295636437553  0.5246141362525745
  0.3870342288158817  0.8450380503655387  0.3623418381529369
  0.1965043397961218  0.3726280764030745  0.6382549932652666
  0.0881061136063713  0.9485802291220662  0.3909536829215396
  0.4953252343298654  0.2664380980003703  0.6091108149558443
  0.4032899211493837  0.7096773972436342  0.5943977715597571
  0.1816969656679578  0.5068555501754496  0.4051054391508141
  0.1046224129414507  0.8110921848952157  0.6246285162017001
  0.4797158765648026  0.4023630596751957  0.3753455333948254
  0.2901909477726486  0.9212821132899235  0.6570012456662897
  0.2930596406878305  0.2942816829042658  0.3436980334632638
  0.8802447371734649  0.4754740891423103  0.6705119162565545
  0.7019167759551509  0.7421253291079225  0.3260766371514852
  0.5323428660904418  0.4889096903793089  0.5352394377444043
  0.5507868558740031  0.7278832433861768  0.4643784158499462
  0.7153496359261868  0.5983386541715698  0.5624389263213193
  0.8677259532240880  0.6136343296804123  0.4298479090247739
  0.7741386177085725  0.0582267339490323  0.4172369771673004
  0.8117332565965999  0.1597847249681493  0.5813337030317745
  0.9624860078886998  0.1729561391829272  0.4442057668098831
  0.6225267257029649  0.0423102065367781  0.5566984750163954
  0.6450227651689453  0.2824389001097268  0.4759131891276399
  0.9409968400904343  0.9327518038973494  0.5233657913993860
  0.8884900356776788  0.8393610085459388  0.3667415064784769
  0.6966607056907749  0.3721655538893507  0.6365304571300850
  0.5871229020207804  0.9494463565583252  0.3955698945695598
  0.9957956113128933  0.2662266420939149  0.6083329037310382
  0.9006423881130762  0.7039362110587154  0.5958925092145141
  0.6817911257427096  0.5071335700248760  0.4020407840539076
  0.6071897333861328  0.8080826382705677  0.6256083452380997
  0.9812386370347030  0.4023689726373717  0.3747327950999906
  0.7965135250502080  0.9322656283328122  0.6559534597024029
  0.7934934910256621  0.2955072076703608  0.3424032093508472
 
  0.00000000E+00  0.00000000E+00  0.00000000E+00
  0.00000000E+00  0.00000000E+00  0.00000000E+00
  0.00000000E+00  0.00000000E+00  0.00000000E+00
  0.00000000E+00  0.00000000E+00  0.00000000E+00
  0.00000000E+00  0.00000000E+00  0.00000000E+00
  0.00000000E+00  0.00000000E+00  0.00000000E+00
  0.00000000E+00  0.00000000E+00  0.00000000E+00
  0.00000000E+00  0.00000000E+00  0.00000000E+00
  0.00000000E+00  0.00000000E+00  0.00000000E+00
  0.00000000E+00  0.00000000E+00  0.00000000E+00
  0.00000000E+00  0.00000000E+00  0.00000000E+00
  0.00000000E+00  0.00000000E+00  0.00000000E+00
  0.00000000E+00  0.00000000E+00  0.00000000E+00
  0.00000000E+00  0.00000000E+00  0.00000000E+00
  0.00000000E+00  0.00000000E+00  0.00000000E+00
  0.00000000E+00  0.00000000E+00  0.00000000E+00
  0.00000000E+00  0.00000000E+00  0.00000000E+00
  0.00000000E+00  0.00000000E+00  0.00000000E+00
  0.00000000E+00  0.00000000E+00  0.00000000E+00
  0.00000000E+00  0.00000000E+00  0.00000000E+00
  0.00000000E+00  0.00000000E+00  0.00000000E+00
  0.00000000E+00  0.00000000E+00  0.00000000E+00
  0.00000000E+00  0.00000000E+00  0.00000000E+00
  0.00000000E+00  0.00000000E+00  0.00000000E+00
  0.00000000E+00  0.00000000E+00  0.00000000E+00
  0.00000000E+00  0.00000000E+00  0.00000000E+00
  0.00000000E+00  0.00000000E+00  0.00000000E+00
  0.00000000E+00  0.00000000E+00  0.00000000E+00
  0.00000000E+00  0.00000000E+00  0.00000000E+00
  0.00000000E+00  0.00000000E+00  0.00000000E+00
  0.00000000E+00  0.00000000E+00  0.00000000E+00
  0.00000000E+00  0.00000000E+00  0.00000000E+00
  0.00000000E+00  0.00000000E+00  0.00000000E+00
  0.00000000E+00  0.00000000E+00  0.00000000E+00
  0.00000000E+00  0.00000000E+00  0.00000000E+00
  0.00000000E+00  0.00000000E+00  0.00000000E+00
  0.00000000E+00  0.00000000E+00  0.00000000E+00
  0.00000000E+00  0.00000000E+00  0.00000000E+00
  0.00000000E+00  0.00000000E+00  0.00000000E+00
  0.00000000E+00  0.00000000E+00  0.00000000E+00
  0.00000000E+00  0.00000000E+00  0.00000000E+00
  0.00000000E+00  0.00000000E+00  0.00000000E+00
  0.00000000E+00  0.00000000E+00  0.00000000E+00
  0.00000000E+00  0.00000000E+00  0.00000000E+00
  0.00000000E+00  0.00000000E+00  0.00000000E+00
  0.00000000E+00  0.00000000E+00  0.00000000E+00
  0.00000000E+00  0.00000000E+00  0.00000000E+00
  0.00000000E+00  0.00000000E+00  0.00000000E+00
  0.00000000E+00  0.00000000E+00  0.00000000E+00
  0.00000000E+00  0.00000000E+00  0.00000000E+00
  0.00000000E+00  0.00000000E+00  0.00000000E+00
  0.00000000E+00  0.00000000E+00  0.00000000E+00
  0.00000000E+00  0.00000000E+00  0.00000000E+00
  0.00000000E+00  0.00000000E+00  0.00000000E+00
  0.00000000E+00  0.00000000E+00  0.00000000E+00
  0.00000000E+00  0.00000000E+00  0.00000000E+00
  0.00000000E+00  0.00000000E+00  0.00000000E+00
  0.00000000E+00  0.00000000E+00  0.00000000E+00
  0.00000000E+00  0.00000000E+00  0.00000000E+00
  0.00000000E+00  0.00000000E+00  0.00000000E+00
  0.00000000E+00  0.00000000E+00  0.00000000E+00
  0.00000000E+00  0.00000000E+00  0.00000000E+00
  0.00000000E+00  0.00000000E+00  0.00000000E+00
  0.00000000E+00  0.00000000E+00  0.00000000E+00
  0.00000000E+00  0.00000000E+00  0.00000000E+00
  0.00000000E+00  0.00000000E+00  0.00000000E+00
  0.00000000E+00  0.00000000E+00  0.00000000E+00
  0.00000000E+00  0.00000000E+00  0.00000000E+00
  0.00000000E+00  0.00000000E+00  0.00000000E+00
  0.00000000E+00  0.00000000E+00  0.00000000E+00
  0.00000000E+00  0.00000000E+00  0.00000000E+00
  0.00000000E+00  0.00000000E+00  0.00000000E+00
  0.00000000E+00  0.00000000E+00  0.00000000E+00
  0.00000000E+00  0.00000000E+00  0.00000000E+00
  0.00000000E+00  0.00000000E+00  0.00000000E+00
