CONTCAR\(4)                             
   1.00000000000000     
    12.6962003707999997    0.0000000000000000    0.0000000000000000
     6.3480846718999997   11.0165970520999998    0.0000000000000000
     0.0000000000000000    0.0000000000000000   18.4927997588999986
   V    Ag   P    Se   O    H 
     4     4     8    24     2     1
Selective dynamics
Direct
  0.1628144579945996  0.1718192265434695  0.5007131296619391   F   F   F
  0.6638845437847181  0.1719312366226333  0.5013025449474640   F   F   F
  0.1637781340586457  0.6702787981475851  0.5015825572070653   F   F   F
  0.6610699092847980  0.6708105066057826  0.5019340756027688   F   F   F
  0.3255305735409664  0.3438022338657518  0.4999834135045802   F   F   F
  0.8255846355404444  0.3396147011772470  0.5023344422678022   F   F   F
  0.3329316188379678  0.8371065176018888  0.4995957172713972   F   F   F
  0.8285110738044352  0.8393670090925269  0.4957711551946957   F   F   F
  0.4966829353043636  0.0046386149691884  0.5606529442810313   F   F   F
  0.4966318033214492  0.0043162942625870  0.4405352275145162   F   F   F
  0.9942668252620521  0.0063554341645471  0.5605202398295361   F   F   F
  0.9942687132965631  0.0072175163354089  0.4404109671426824   F   F   F
  0.4935328634449974  0.5079042097167630  0.5925612827339535   F   F   F
  0.4954855473050799  0.5064386799772294  0.4622598401904057   F   F   F
  0.9956985074581581  0.5065424540900452  0.5607449508347884   F   F   F
  0.9966458146710622  0.5065780542150407  0.4406564822775110   F   F   F
  0.1549519149450873  0.3278581263147871  0.4086491315896339   F   F   F
  0.0180077036259334  0.3272038619394024  0.5933667595495535   F   F   F
  0.3178159260201809  0.1614109742628571  0.5937974984473442   F   F   F
  0.0144805763816152  0.1654046770501125  0.4082699460227417   F   F   F
  0.3175639046979768  0.0247038798204713  0.4083362383294897   F   F   F
  0.1515975826405125  0.0281020094569229  0.5937057926369178   F   F   F
  0.6471762791367013  0.3330334591393793  0.4152694981432035   F   F   F
  0.5123487294877620  0.3185103995143592  0.5911941345872691   F   F   F
  0.8160121850084252  0.1621494471915881  0.5953458096997295   F   F   F
  0.5172839695467815  0.1616715459106430  0.4076641883953229   F   F   F
  0.8152244492510974  0.0294351138437108  0.4070380108789848   F   F   F
  0.6553018809226003  0.0232555042143332  0.5930768576252277   F   F   F
  0.1507421296249518  0.8285209528306154  0.4076592266124877   F   F   F
  0.0110850387240831  0.8300850187691609  0.5921217144728814   F   F   F
  0.3056641202767096  0.6799214431950418  0.5928655119181485   F   F   F
  0.0185281928273895  0.6632114207072846  0.4074500623920656   F   F   F
  0.3218791082152066  0.5287158791855120  0.4143763847192616   F   F   F
  0.1510491609650586  0.5304078787253275  0.5955717570684627   F   F   F
  0.6533380806382851  0.8253995025929584  0.4082780964325963   F   F   F
  0.5200112048098617  0.8257838004581544  0.5952281520023917   F   F   F
  0.8193212798950498  0.6648723787563000  0.5930423517005394   F   F   F
  0.5180917546821746  0.6568851091622818  0.4140521481211934   F   F   F
  0.8178529492982349  0.5284053873127590  0.4075095367729276   F   F   F
  0.6662896200081221  0.5240307964903508  0.5936554534707810   F   F   F
  0.5834891662665029  0.4295540586470352  0.7242163754803883   T   T   T
  0.4744166698443735  0.5215416027729276  0.6855295017981433   T   T   T
  0.5650586503490445  0.3629339753479925  0.7262701881671105   T   T   T
 
  0.00000000E+00  0.00000000E+00  0.00000000E+00
  0.00000000E+00  0.00000000E+00  0.00000000E+00
  0.00000000E+00  0.00000000E+00  0.00000000E+00
  0.00000000E+00  0.00000000E+00  0.00000000E+00
  0.00000000E+00  0.00000000E+00  0.00000000E+00
  0.00000000E+00  0.00000000E+00  0.00000000E+00
  0.00000000E+00  0.00000000E+00  0.00000000E+00
  0.00000000E+00  0.00000000E+00  0.00000000E+00
  0.00000000E+00  0.00000000E+00  0.00000000E+00
  0.00000000E+00  0.00000000E+00  0.00000000E+00
  0.00000000E+00  0.00000000E+00  0.00000000E+00
  0.00000000E+00  0.00000000E+00  0.00000000E+00
  0.00000000E+00  0.00000000E+00  0.00000000E+00
  0.00000000E+00  0.00000000E+00  0.00000000E+00
  0.00000000E+00  0.00000000E+00  0.00000000E+00
  0.00000000E+00  0.00000000E+00  0.00000000E+00
  0.00000000E+00  0.00000000E+00  0.00000000E+00
  0.00000000E+00  0.00000000E+00  0.00000000E+00
  0.00000000E+00  0.00000000E+00  0.00000000E+00
  0.00000000E+00  0.00000000E+00  0.00000000E+00
  0.00000000E+00  0.00000000E+00  0.00000000E+00
  0.00000000E+00  0.00000000E+00  0.00000000E+00
  0.00000000E+00  0.00000000E+00  0.00000000E+00
  0.00000000E+00  0.00000000E+00  0.00000000E+00
  0.00000000E+00  0.00000000E+00  0.00000000E+00
  0.00000000E+00  0.00000000E+00  0.00000000E+00
  0.00000000E+00  0.00000000E+00  0.00000000E+00
  0.00000000E+00  0.00000000E+00  0.00000000E+00
  0.00000000E+00  0.00000000E+00  0.00000000E+00
  0.00000000E+00  0.00000000E+00  0.00000000E+00
  0.00000000E+00  0.00000000E+00  0.00000000E+00
  0.00000000E+00  0.00000000E+00  0.00000000E+00
  0.00000000E+00  0.00000000E+00  0.00000000E+00
  0.00000000E+00  0.00000000E+00  0.00000000E+00
  0.00000000E+00  0.00000000E+00  0.00000000E+00
  0.00000000E+00  0.00000000E+00  0.00000000E+00
  0.00000000E+00  0.00000000E+00  0.00000000E+00
  0.00000000E+00  0.00000000E+00  0.00000000E+00
  0.00000000E+00  0.00000000E+00  0.00000000E+00
  0.00000000E+00  0.00000000E+00  0.00000000E+00
  0.00000000E+00  0.00000000E+00  0.00000000E+00
  0.00000000E+00  0.00000000E+00  0.00000000E+00
  0.00000000E+00  0.00000000E+00  0.00000000E+00
