 Na3 Ti10 S20                           
   1.00000000000000     
     5.9104515801545290    0.0000000000000000    0.0000000000000000
     2.9552257900772645    8.5110094358889636    0.0000000000000000
     0.0000000000000000    0.0000000000000000   24.9838328136540007
   Na   Ti   S 
     3    10    20
Direct
  0.2837655783185653  0.9999992286517880  0.4980934155993992
  0.7267365732110207  0.3783776976366227  0.5016119998455224
  0.1051230043773259  0.6216487054178117  0.5016164512832830
  0.8653458383149371  0.8018165803369968  0.6396546890971919
  0.2716247651282870  0.0000106247636893  0.6412258652166472
  0.9345702245615470  0.0000039687041280  0.3600690587074169
  0.6671626699898709  0.1981936937666617  0.6396521983241072
  0.3374855744775473  0.1983056464375466  0.3604040136625883
  0.0633473009814836  0.4009148746743065  0.6398216415925475
  0.7330270656107984  0.4010863641759030  0.3592182047723611
  0.4642703511193815  0.5990766066950357  0.6398240105487218
  0.1341195985334664  0.5988942605319494  0.3592237442381290
  0.5357952523226501  0.8016646824731382  0.3604008981032436
  0.2011430535038699  0.8017700038581381  0.5814873636189404
  0.8681953370168074  0.7999488999486459  0.3037954101500091
  0.6039065274687374  0.0000055394386465  0.5811432653147222
  0.2685293056547522  0.9999945142451239  0.3039774564699087
  0.0028935789745717  0.1982452596345112  0.5814811647463216
  0.6681403343843897  0.2000455970436121  0.3037928711527726
  0.3946818067992695  0.3991772446987696  0.5806845378487111
  0.9335859170829224  0.0000062283834907  0.6962246115641406
  0.0682496624171236  0.3993065893726992  0.3038267443590073
  0.6076954275237085  0.0000037765341503  0.4189678009357252
  0.7938690695456074  0.6008117828898634  0.5806863597375340
  0.3332184650104040  0.2013455071433867  0.6962864611543935
  0.4675572467756268  0.6006831460092172  0.3038249645381086
  0.0019866159211261  0.2003867764122589  0.4186295971804626
  0.7324101996999914  0.3999337467690225  0.6957785783391017
  0.3978568042435384  0.3999301056156881  0.4190315238543008
  0.1323312778907351  0.6000733609598612  0.6957759290231991
  0.7978026456622587  0.6000549541556381  0.4190311903022348
  0.5345478789299776  0.7986751166529586  0.6962875244561602
  0.2023730485476563  0.7996089159687187  0.4186288712842980
 
  0.00000000E+00  0.00000000E+00  0.00000000E+00
  0.00000000E+00  0.00000000E+00  0.00000000E+00
  0.00000000E+00  0.00000000E+00  0.00000000E+00
  0.00000000E+00  0.00000000E+00  0.00000000E+00
  0.00000000E+00  0.00000000E+00  0.00000000E+00
  0.00000000E+00  0.00000000E+00  0.00000000E+00
  0.00000000E+00  0.00000000E+00  0.00000000E+00
  0.00000000E+00  0.00000000E+00  0.00000000E+00
  0.00000000E+00  0.00000000E+00  0.00000000E+00
  0.00000000E+00  0.00000000E+00  0.00000000E+00
  0.00000000E+00  0.00000000E+00  0.00000000E+00
  0.00000000E+00  0.00000000E+00  0.00000000E+00
  0.00000000E+00  0.00000000E+00  0.00000000E+00
  0.00000000E+00  0.00000000E+00  0.00000000E+00
  0.00000000E+00  0.00000000E+00  0.00000000E+00
  0.00000000E+00  0.00000000E+00  0.00000000E+00
  0.00000000E+00  0.00000000E+00  0.00000000E+00
  0.00000000E+00  0.00000000E+00  0.00000000E+00
  0.00000000E+00  0.00000000E+00  0.00000000E+00
  0.00000000E+00  0.00000000E+00  0.00000000E+00
  0.00000000E+00  0.00000000E+00  0.00000000E+00
  0.00000000E+00  0.00000000E+00  0.00000000E+00
  0.00000000E+00  0.00000000E+00  0.00000000E+00
  0.00000000E+00  0.00000000E+00  0.00000000E+00
  0.00000000E+00  0.00000000E+00  0.00000000E+00
  0.00000000E+00  0.00000000E+00  0.00000000E+00
  0.00000000E+00  0.00000000E+00  0.00000000E+00
  0.00000000E+00  0.00000000E+00  0.00000000E+00
  0.00000000E+00  0.00000000E+00  0.00000000E+00
  0.00000000E+00  0.00000000E+00  0.00000000E+00
  0.00000000E+00  0.00000000E+00  0.00000000E+00
  0.00000000E+00  0.00000000E+00  0.00000000E+00
  0.00000000E+00  0.00000000E+00  0.00000000E+00
